%%MatrixMarket matrix coordinate integer general
% Binary matrix; one-based indices; arithmetic over GF(2)
465 620 3720
1 1 1
15 1 1
32 1 1
37 1 1
156 1 1
160 1 1
2 2 1
16 2 1
33 2 1
38 2 1
157 2 1
161 2 1
3 3 1
17 3 1
34 3 1
39 3 1
158 3 1
162 3 1
4 4 1
18 4 1
35 4 1
40 4 1
159 4 1
163 4 1
5 5 1
19 5 1
36 5 1
41 5 1
160 5 1
164 5 1
6 6 1
20 6 1
37 6 1
42 6 1
161 6 1
165 6 1
7 7 1
21 7 1
38 7 1
43 7 1
162 7 1
166 7 1
8 8 1
22 8 1
39 8 1
44 8 1
163 8 1
167 8 1
9 9 1
23 9 1
40 9 1
45 9 1
164 9 1
168 9 1
10 10 1
24 10 1
41 10 1
46 10 1
165 10 1
169 10 1
11 11 1
25 11 1
42 11 1
47 11 1
166 11 1
170 11 1
12 12 1
26 12 1
43 12 1
48 12 1
167 12 1
171 12 1
13 13 1
27 13 1
44 13 1
49 13 1
168 13 1
172 13 1
14 14 1
28 14 1
45 14 1
50 14 1
169 14 1
173 14 1
15 15 1
29 15 1
46 15 1
51 15 1
170 15 1
174 15 1
16 16 1
30 16 1
47 16 1
52 16 1
171 16 1
175 16 1
17 17 1
31 17 1
48 17 1
53 17 1
172 17 1
176 17 1
1 18 1
18 18 1
49 18 1
54 18 1
173 18 1
177 18 1
2 19 1
19 19 1
50 19 1
55 19 1
174 19 1
178 19 1
3 20 1
20 20 1
51 20 1
56 20 1
175 20 1
179 20 1
4 21 1
21 21 1
52 21 1
57 21 1
176 21 1
180 21 1
5 22 1
22 22 1
53 22 1
58 22 1
177 22 1
181 22 1
6 23 1
23 23 1
54 23 1
59 23 1
178 23 1
182 23 1
7 24 1
24 24 1
55 24 1
60 24 1
179 24 1
183 24 1
8 25 1
25 25 1
56 25 1
61 25 1
180 25 1
184 25 1
9 26 1
26 26 1
57 26 1
62 26 1
181 26 1
185 26 1
10 27 1
27 27 1
32 27 1
58 27 1
182 27 1
186 27 1
11 28 1
28 28 1
33 28 1
59 28 1
156 28 1
183 28 1
12 29 1
29 29 1
34 29 1
60 29 1
157 29 1
184 29 1
13 30 1
30 30 1
35 30 1
61 30 1
158 30 1
185 30 1
14 31 1
31 31 1
36 31 1
62 31 1
159 31 1
186 31 1
1 32 1
17 32 1
63 32 1
68 32 1
187 32 1
191 32 1
2 33 1
18 33 1
64 33 1
69 33 1
188 33 1
192 33 1
3 34 1
19 34 1
65 34 1
70 34 1
189 34 1
193 34 1
4 35 1
20 35 1
66 35 1
71 35 1
190 35 1
194 35 1
5 36 1
21 36 1
67 36 1
72 36 1
191 36 1
195 36 1
6 37 1
22 37 1
68 37 1
73 37 1
192 37 1
196 37 1
7 38 1
23 38 1
69 38 1
74 38 1
193 38 1
197 38 1
8 39 1
24 39 1
70 39 1
75 39 1
194 39 1
198 39 1
9 40 1
25 40 1
71 40 1
76 40 1
195 40 1
199 40 1
10 41 1
26 41 1
72 41 1
77 41 1
196 41 1
200 41 1
11 42 1
27 42 1
73 42 1
78 42 1
197 42 1
201 42 1
12 43 1
28 43 1
74 43 1
79 43 1
198 43 1
202 43 1
13 44 1
29 44 1
75 44 1
80 44 1
199 44 1
203 44 1
14 45 1
30 45 1
76 45 1
81 45 1
200 45 1
204 45 1
15 46 1
31 46 1
77 46 1
82 46 1
201 46 1
205 46 1
1 47 1
16 47 1
78 47 1
83 47 1
202 47 1
206 47 1
2 48 1
17 48 1
79 48 1
84 48 1
203 48 1
207 48 1
3 49 1
18 49 1
80 49 1
85 49 1
204 49 1
208 49 1
4 50 1
19 50 1
81 50 1
86 50 1
205 50 1
209 50 1
5 51 1
20 51 1
82 51 1
87 51 1
206 51 1
210 51 1
6 52 1
21 52 1
83 52 1
88 52 1
207 52 1
211 52 1
7 53 1
22 53 1
84 53 1
89 53 1
208 53 1
212 53 1
8 54 1
23 54 1
85 54 1
90 54 1
209 54 1
213 54 1
9 55 1
24 55 1
86 55 1
91 55 1
210 55 1
214 55 1
10 56 1
25 56 1
87 56 1
92 56 1
211 56 1
215 56 1
11 57 1
26 57 1
88 57 1
93 57 1
212 57 1
216 57 1
12 58 1
27 58 1
63 58 1
89 58 1
213 58 1
217 58 1
13 59 1
28 59 1
64 59 1
90 59 1
187 59 1
214 59 1
14 60 1
29 60 1
65 60 1
91 60 1
188 60 1
215 60 1
15 61 1
30 61 1
66 61 1
92 61 1
189 61 1
216 61 1
16 62 1
31 62 1
67 62 1
93 62 1
190 62 1
217 62 1
1 63 1
20 63 1
94 63 1
99 63 1
218 63 1
222 63 1
2 64 1
21 64 1
95 64 1
100 64 1
219 64 1
223 64 1
3 65 1
22 65 1
96 65 1
101 65 1
220 65 1
224 65 1
4 66 1
23 66 1
97 66 1
102 66 1
221 66 1
225 66 1
5 67 1
24 67 1
98 67 1
103 67 1
222 67 1
226 67 1
6 68 1
25 68 1
99 68 1
104 68 1
223 68 1
227 68 1
7 69 1
26 69 1
100 69 1
105 69 1
224 69 1
228 69 1
8 70 1
27 70 1
101 70 1
106 70 1
225 70 1
229 70 1
9 71 1
28 71 1
102 71 1
107 71 1
226 71 1
230 71 1
10 72 1
29 72 1
103 72 1
108 72 1
227 72 1
231 72 1
11 73 1
30 73 1
104 73 1
109 73 1
228 73 1
232 73 1
12 74 1
31 74 1
105 74 1
110 74 1
229 74 1
233 74 1
1 75 1
13 75 1
106 75 1
111 75 1
230 75 1
234 75 1
2 76 1
14 76 1
107 76 1
112 76 1
231 76 1
235 76 1
3 77 1
15 77 1
108 77 1
113 77 1
232 77 1
236 77 1
4 78 1
16 78 1
109 78 1
114 78 1
233 78 1
237 78 1
5 79 1
17 79 1
110 79 1
115 79 1
234 79 1
238 79 1
6 80 1
18 80 1
111 80 1
116 80 1
235 80 1
239 80 1
7 81 1
19 81 1
112 81 1
117 81 1
236 81 1
240 81 1
8 82 1
20 82 1
113 82 1
118 82 1
237 82 1
241 82 1
9 83 1
21 83 1
114 83 1
119 83 1
238 83 1
242 83 1
10 84 1
22 84 1
115 84 1
120 84 1
239 84 1
243 84 1
11 85 1
23 85 1
116 85 1
121 85 1
240 85 1
244 85 1
12 86 1
24 86 1
117 86 1
122 86 1
241 86 1
245 86 1
13 87 1
25 87 1
118 87 1
123 87 1
242 87 1
246 87 1
14 88 1
26 88 1
119 88 1
124 88 1
243 88 1
247 88 1
15 89 1
27 89 1
94 89 1
120 89 1
244 89 1
248 89 1
16 90 1
28 90 1
95 90 1
121 90 1
218 90 1
245 90 1
17 91 1
29 91 1
96 91 1
122 91 1
219 91 1
246 91 1
18 92 1
30 92 1
97 92 1
123 92 1
220 92 1
247 92 1
19 93 1
31 93 1
98 93 1
124 93 1
221 93 1
248 93 1
1 94 1
29 94 1
125 94 1
130 94 1
249 94 1
253 94 1
2 95 1
30 95 1
126 95 1
131 95 1
250 95 1
254 95 1
3 96 1
31 96 1
127 96 1
132 96 1
251 96 1
255 96 1
1 97 1
4 97 1
128 97 1
133 97 1
252 97 1
256 97 1
2 98 1
5 98 1
129 98 1
134 98 1
253 98 1
257 98 1
3 99 1
6 99 1
130 99 1
135 99 1
254 99 1
258 99 1
4 100 1
7 100 1
131 100 1
136 100 1
255 100 1
259 100 1
5 101 1
8 101 1
132 101 1
137 101 1
256 101 1
260 101 1
6 102 1
9 102 1
133 102 1
138 102 1
257 102 1
261 102 1
7 103 1
10 103 1
134 103 1
139 103 1
258 103 1
262 103 1
8 104 1
11 104 1
135 104 1
140 104 1
259 104 1
263 104 1
9 105 1
12 105 1
136 105 1
141 105 1
260 105 1
264 105 1
10 106 1
13 106 1
137 106 1
142 106 1
261 106 1
265 106 1
11 107 1
14 107 1
138 107 1
143 107 1
262 107 1
266 107 1
12 108 1
15 108 1
139 108 1
144 108 1
263 108 1
267 108 1
13 109 1
16 109 1
140 109 1
145 109 1
264 109 1
268 109 1
14 110 1
17 110 1
141 110 1
146 110 1
265 110 1
269 110 1
15 111 1
18 111 1
142 111 1
147 111 1
266 111 1
270 111 1
16 112 1
19 112 1
143 112 1
148 112 1
267 112 1
271 112 1
17 113 1
20 113 1
144 113 1
149 113 1
268 113 1
272 113 1
18 114 1
21 114 1
145 114 1
150 114 1
269 114 1
273 114 1
19 115 1
22 115 1
146 115 1
151 115 1
270 115 1
274 115 1
20 116 1
23 116 1
147 116 1
152 116 1
271 116 1
275 116 1
21 117 1
24 117 1
148 117 1
153 117 1
272 117 1
276 117 1
22 118 1
25 118 1
149 118 1
154 118 1
273 118 1
277 118 1
23 119 1
26 119 1
150 119 1
155 119 1
274 119 1
278 119 1
24 120 1
27 120 1
125 120 1
151 120 1
275 120 1
279 120 1
25 121 1
28 121 1
126 121 1
152 121 1
249 121 1
276 121 1
26 122 1
29 122 1
127 122 1
153 122 1
250 122 1
277 122 1
27 123 1
30 123 1
128 123 1
154 123 1
251 123 1
278 123 1
28 124 1
31 124 1
129 124 1
155 124 1
252 124 1
279 124 1
32 125 1
48 125 1
63 125 1
77 125 1
280 125 1
284 125 1
33 126 1
49 126 1
64 126 1
78 126 1
281 126 1
285 126 1
34 127 1
50 127 1
65 127 1
79 127 1
282 127 1
286 127 1
35 128 1
51 128 1
66 128 1
80 128 1
283 128 1
287 128 1
36 129 1
52 129 1
67 129 1
81 129 1
284 129 1
288 129 1
37 130 1
53 130 1
68 130 1
82 130 1
285 130 1
289 130 1
38 131 1
54 131 1
69 131 1
83 131 1
286 131 1
290 131 1
39 132 1
55 132 1
70 132 1
84 132 1
287 132 1
291 132 1
40 133 1
56 133 1
71 133 1
85 133 1
288 133 1
292 133 1
41 134 1
57 134 1
72 134 1
86 134 1
289 134 1
293 134 1
42 135 1
58 135 1
73 135 1
87 135 1
290 135 1
294 135 1
43 136 1
59 136 1
74 136 1
88 136 1
291 136 1
295 136 1
44 137 1
60 137 1
75 137 1
89 137 1
292 137 1
296 137 1
45 138 1
61 138 1
76 138 1
90 138 1
293 138 1
297 138 1
46 139 1
62 139 1
77 139 1
91 139 1
294 139 1
298 139 1
32 140 1
47 140 1
78 140 1
92 140 1
295 140 1
299 140 1
33 141 1
48 141 1
79 141 1
93 141 1
296 141 1
300 141 1
34 142 1
49 142 1
63 142 1
80 142 1
297 142 1
301 142 1
35 143 1
50 143 1
64 143 1
81 143 1
298 143 1
302 143 1
36 144 1
51 144 1
65 144 1
82 144 1
299 144 1
303 144 1
37 145 1
52 145 1
66 145 1
83 145 1
300 145 1
304 145 1
38 146 1
53 146 1
67 146 1
84 146 1
301 146 1
305 146 1
39 147 1
54 147 1
68 147 1
85 147 1
302 147 1
306 147 1
40 148 1
55 148 1
69 148 1
86 148 1
303 148 1
307 148 1
41 149 1
56 149 1
70 149 1
87 149 1
304 149 1
308 149 1
42 150 1
57 150 1
71 150 1
88 150 1
305 150 1
309 150 1
43 151 1
58 151 1
72 151 1
89 151 1
306 151 1
310 151 1
44 152 1
59 152 1
73 152 1
90 152 1
280 152 1
307 152 1
45 153 1
60 153 1
74 153 1
91 153 1
281 153 1
308 153 1
46 154 1
61 154 1
75 154 1
92 154 1
282 154 1
309 154 1
47 155 1
62 155 1
76 155 1
93 155 1
283 155 1
310 155 1
32 156 1
51 156 1
94 156 1
108 156 1
311 156 1
315 156 1
33 157 1
52 157 1
95 157 1
109 157 1
312 157 1
316 157 1
34 158 1
53 158 1
96 158 1
110 158 1
313 158 1
317 158 1
35 159 1
54 159 1
97 159 1
111 159 1
314 159 1
318 159 1
36 160 1
55 160 1
98 160 1
112 160 1
315 160 1
319 160 1
37 161 1
56 161 1
99 161 1
113 161 1
316 161 1
320 161 1
38 162 1
57 162 1
100 162 1
114 162 1
317 162 1
321 162 1
39 163 1
58 163 1
101 163 1
115 163 1
318 163 1
322 163 1
40 164 1
59 164 1
102 164 1
116 164 1
319 164 1
323 164 1
41 165 1
60 165 1
103 165 1
117 165 1
320 165 1
324 165 1
42 166 1
61 166 1
104 166 1
118 166 1
321 166 1
325 166 1
43 167 1
62 167 1
105 167 1
119 167 1
322 167 1
326 167 1
32 168 1
44 168 1
106 168 1
120 168 1
323 168 1
327 168 1
33 169 1
45 169 1
107 169 1
121 169 1
324 169 1
328 169 1
34 170 1
46 170 1
108 170 1
122 170 1
325 170 1
329 170 1
35 171 1
47 171 1
109 171 1
123 171 1
326 171 1
330 171 1
36 172 1
48 172 1
110 172 1
124 172 1
327 172 1
331 172 1
37 173 1
49 173 1
94 173 1
111 173 1
328 173 1
332 173 1
38 174 1
50 174 1
95 174 1
112 174 1
329 174 1
333 174 1
39 175 1
51 175 1
96 175 1
113 175 1
330 175 1
334 175 1
40 176 1
52 176 1
97 176 1
114 176 1
331 176 1
335 176 1
41 177 1
53 177 1
98 177 1
115 177 1
332 177 1
336 177 1
42 178 1
54 178 1
99 178 1
116 178 1
333 178 1
337 178 1
43 179 1
55 179 1
100 179 1
117 179 1
334 179 1
338 179 1
44 180 1
56 180 1
101 180 1
118 180 1
335 180 1
339 180 1
45 181 1
57 181 1
102 181 1
119 181 1
336 181 1
340 181 1
46 182 1
58 182 1
103 182 1
120 182 1
337 182 1
341 182 1
47 183 1
59 183 1
104 183 1
121 183 1
311 183 1
338 183 1
48 184 1
60 184 1
105 184 1
122 184 1
312 184 1
339 184 1
49 185 1
61 185 1
106 185 1
123 185 1
313 185 1
340 185 1
50 186 1
62 186 1
107 186 1
124 186 1
314 186 1
341 186 1
32 187 1
60 187 1
125 187 1
139 187 1
342 187 1
346 187 1
33 188 1
61 188 1
126 188 1
140 188 1
343 188 1
347 188 1
34 189 1
62 189 1
127 189 1
141 189 1
344 189 1
348 189 1
32 190 1
35 190 1
128 190 1
142 190 1
345 190 1
349 190 1
33 191 1
36 191 1
129 191 1
143 191 1
346 191 1
350 191 1
34 192 1
37 192 1
130 192 1
144 192 1
347 192 1
351 192 1
35 193 1
38 193 1
131 193 1
145 193 1
348 193 1
352 193 1
36 194 1
39 194 1
132 194 1
146 194 1
349 194 1
353 194 1
37 195 1
40 195 1
133 195 1
147 195 1
350 195 1
354 195 1
38 196 1
41 196 1
134 196 1
148 196 1
351 196 1
355 196 1
39 197 1
42 197 1
135 197 1
149 197 1
352 197 1
356 197 1
40 198 1
43 198 1
136 198 1
150 198 1
353 198 1
357 198 1
41 199 1
44 199 1
137 199 1
151 199 1
354 199 1
358 199 1
42 200 1
45 200 1
138 200 1
152 200 1
355 200 1
359 200 1
43 201 1
46 201 1
139 201 1
153 201 1
356 201 1
360 201 1
44 202 1
47 202 1
140 202 1
154 202 1
357 202 1
361 202 1
45 203 1
48 203 1
141 203 1
155 203 1
358 203 1
362 203 1
46 204 1
49 204 1
125 204 1
142 204 1
359 204 1
363 204 1
47 205 1
50 205 1
126 205 1
143 205 1
360 205 1
364 205 1
48 206 1
51 206 1
127 206 1
144 206 1
361 206 1
365 206 1
49 207 1
52 207 1
128 207 1
145 207 1
362 207 1
366 207 1
50 208 1
53 208 1
129 208 1
146 208 1
363 208 1
367 208 1
51 209 1
54 209 1
130 209 1
147 209 1
364 209 1
368 209 1
52 210 1
55 210 1
131 210 1
148 210 1
365 210 1
369 210 1
53 211 1
56 211 1
132 211 1
149 211 1
366 211 1
370 211 1
54 212 1
57 212 1
133 212 1
150 212 1
367 212 1
371 212 1
55 213 1
58 213 1
134 213 1
151 213 1
368 213 1
372 213 1
56 214 1
59 214 1
135 214 1
152 214 1
342 214 1
369 214 1
57 215 1
60 215 1
136 215 1
153 215 1
343 215 1
370 215 1
58 216 1
61 216 1
137 216 1
154 216 1
344 216 1
371 216 1
59 217 1
62 217 1
138 217 1
155 217 1
345 217 1
372 217 1
63 218 1
82 218 1
94 218 1
110 218 1
373 218 1
377 218 1
64 219 1
83 219 1
95 219 1
111 219 1
374 219 1
378 219 1
65 220 1
84 220 1
96 220 1
112 220 1
375 220 1
379 220 1
66 221 1
85 221 1
97 221 1
113 221 1
376 221 1
380 221 1
67 222 1
86 222 1
98 222 1
114 222 1
377 222 1
381 222 1
68 223 1
87 223 1
99 223 1
115 223 1
378 223 1
382 223 1
69 224 1
88 224 1
100 224 1
116 224 1
379 224 1
383 224 1
70 225 1
89 225 1
101 225 1
117 225 1
380 225 1
384 225 1
71 226 1
90 226 1
102 226 1
118 226 1
381 226 1
385 226 1
72 227 1
91 227 1
103 227 1
119 227 1
382 227 1
386 227 1
73 228 1
92 228 1
104 228 1
120 228 1
383 228 1
387 228 1
74 229 1
93 229 1
105 229 1
121 229 1
384 229 1
388 229 1
63 230 1
75 230 1
106 230 1
122 230 1
385 230 1
389 230 1
64 231 1
76 231 1
107 231 1
123 231 1
386 231 1
390 231 1
65 232 1
77 232 1
108 232 1
124 232 1
387 232 1
391 232 1
66 233 1
78 233 1
94 233 1
109 233 1
388 233 1
392 233 1
67 234 1
79 234 1
95 234 1
110 234 1
389 234 1
393 234 1
68 235 1
80 235 1
96 235 1
111 235 1
390 235 1
394 235 1
69 236 1
81 236 1
97 236 1
112 236 1
391 236 1
395 236 1
70 237 1
82 237 1
98 237 1
113 237 1
392 237 1
396 237 1
71 238 1
83 238 1
99 238 1
114 238 1
393 238 1
397 238 1
72 239 1
84 239 1
100 239 1
115 239 1
394 239 1
398 239 1
73 240 1
85 240 1
101 240 1
116 240 1
395 240 1
399 240 1
74 241 1
86 241 1
102 241 1
117 241 1
396 241 1
400 241 1
75 242 1
87 242 1
103 242 1
118 242 1
397 242 1
401 242 1
76 243 1
88 243 1
104 243 1
119 243 1
398 243 1
402 243 1
77 244 1
89 244 1
105 244 1
120 244 1
399 244 1
403 244 1
78 245 1
90 245 1
106 245 1
121 245 1
373 245 1
400 245 1
79 246 1
91 246 1
107 246 1
122 246 1
374 246 1
401 246 1
80 247 1
92 247 1
108 247 1
123 247 1
375 247 1
402 247 1
81 248 1
93 248 1
109 248 1
124 248 1
376 248 1
403 248 1
63 249 1
91 249 1
125 249 1
141 249 1
404 249 1
408 249 1
64 250 1
92 250 1
126 250 1
142 250 1
405 250 1
409 250 1
65 251 1
93 251 1
127 251 1
143 251 1
406 251 1
410 251 1
63 252 1
66 252 1
128 252 1
144 252 1
407 252 1
411 252 1
64 253 1
67 253 1
129 253 1
145 253 1
408 253 1
412 253 1
65 254 1
68 254 1
130 254 1
146 254 1
409 254 1
413 254 1
66 255 1
69 255 1
131 255 1
147 255 1
410 255 1
414 255 1
67 256 1
70 256 1
132 256 1
148 256 1
411 256 1
415 256 1
68 257 1
71 257 1
133 257 1
149 257 1
412 257 1
416 257 1
69 258 1
72 258 1
134 258 1
150 258 1
413 258 1
417 258 1
70 259 1
73 259 1
135 259 1
151 259 1
414 259 1
418 259 1
71 260 1
74 260 1
136 260 1
152 260 1
415 260 1
419 260 1
72 261 1
75 261 1
137 261 1
153 261 1
416 261 1
420 261 1
73 262 1
76 262 1
138 262 1
154 262 1
417 262 1
421 262 1
74 263 1
77 263 1
139 263 1
155 263 1
418 263 1
422 263 1
75 264 1
78 264 1
125 264 1
140 264 1
419 264 1
423 264 1
76 265 1
79 265 1
126 265 1
141 265 1
420 265 1
424 265 1
77 266 1
80 266 1
127 266 1
142 266 1
421 266 1
425 266 1
78 267 1
81 267 1
128 267 1
143 267 1
422 267 1
426 267 1
79 268 1
82 268 1
129 268 1
144 268 1
423 268 1
427 268 1
80 269 1
83 269 1
130 269 1
145 269 1
424 269 1
428 269 1
81 270 1
84 270 1
131 270 1
146 270 1
425 270 1
429 270 1
82 271 1
85 271 1
132 271 1
147 271 1
426 271 1
430 271 1
83 272 1
86 272 1
133 272 1
148 272 1
427 272 1
431 272 1
84 273 1
87 273 1
134 273 1
149 273 1
428 273 1
432 273 1
85 274 1
88 274 1
135 274 1
150 274 1
429 274 1
433 274 1
86 275 1
89 275 1
136 275 1
151 275 1
430 275 1
434 275 1
87 276 1
90 276 1
137 276 1
152 276 1
404 276 1
431 276 1
88 277 1
91 277 1
138 277 1
153 277 1
405 277 1
432 277 1
89 278 1
92 278 1
139 278 1
154 278 1
406 278 1
433 278 1
90 279 1
93 279 1
140 279 1
155 279 1
407 279 1
434 279 1
94 280 1
122 280 1
125 280 1
144 280 1
435 280 1
439 280 1
95 281 1
123 281 1
126 281 1
145 281 1
436 281 1
440 281 1
96 282 1
124 282 1
127 282 1
146 282 1
437 282 1
441 282 1
94 283 1
97 283 1
128 283 1
147 283 1
438 283 1
442 283 1
95 284 1
98 284 1
129 284 1
148 284 1
439 284 1
443 284 1
96 285 1
99 285 1
130 285 1
149 285 1
440 285 1
444 285 1
97 286 1
100 286 1
131 286 1
150 286 1
441 286 1
445 286 1
98 287 1
101 287 1
132 287 1
151 287 1
442 287 1
446 287 1
99 288 1
102 288 1
133 288 1
152 288 1
443 288 1
447 288 1
100 289 1
103 289 1
134 289 1
153 289 1
444 289 1
448 289 1
101 290 1
104 290 1
135 290 1
154 290 1
445 290 1
449 290 1
102 291 1
105 291 1
136 291 1
155 291 1
446 291 1
450 291 1
103 292 1
106 292 1
125 292 1
137 292 1
447 292 1
451 292 1
104 293 1
107 293 1
126 293 1
138 293 1
448 293 1
452 293 1
105 294 1
108 294 1
127 294 1
139 294 1
449 294 1
453 294 1
106 295 1
109 295 1
128 295 1
140 295 1
450 295 1
454 295 1
107 296 1
110 296 1
129 296 1
141 296 1
451 296 1
455 296 1
108 297 1
111 297 1
130 297 1
142 297 1
452 297 1
456 297 1
109 298 1
112 298 1
131 298 1
143 298 1
453 298 1
457 298 1
110 299 1
113 299 1
132 299 1
144 299 1
454 299 1
458 299 1
111 300 1
114 300 1
133 300 1
145 300 1
455 300 1
459 300 1
112 301 1
115 301 1
134 301 1
146 301 1
456 301 1
460 301 1
113 302 1
116 302 1
135 302 1
147 302 1
457 302 1
461 302 1
114 303 1
117 303 1
136 303 1
148 303 1
458 303 1
462 303 1
115 304 1
118 304 1
137 304 1
149 304 1
459 304 1
463 304 1
116 305 1
119 305 1
138 305 1
150 305 1
460 305 1
464 305 1
117 306 1
120 306 1
139 306 1
151 306 1
461 306 1
465 306 1
118 307 1
121 307 1
140 307 1
152 307 1
435 307 1
462 307 1
119 308 1
122 308 1
141 308 1
153 308 1
436 308 1
463 308 1
120 309 1
123 309 1
142 309 1
154 309 1
437 309 1
464 309 1
121 310 1
124 310 1
143 310 1
155 310 1
438 310 1
465 310 1
156 311 1
172 311 1
187 311 1
201 311 1
280 311 1
285 311 1
157 312 1
173 312 1
188 312 1
202 312 1
281 312 1
286 312 1
158 313 1
174 313 1
189 313 1
203 313 1
282 313 1
287 313 1
159 314 1
175 314 1
190 314 1
204 314 1
283 314 1
288 314 1
160 315 1
176 315 1
191 315 1
205 315 1
284 315 1
289 315 1
161 316 1
177 316 1
192 316 1
206 316 1
285 316 1
290 316 1
162 317 1
178 317 1
193 317 1
207 317 1
286 317 1
291 317 1
163 318 1
179 318 1
194 318 1
208 318 1
287 318 1
292 318 1
164 319 1
180 319 1
195 319 1
209 319 1
288 319 1
293 319 1
165 320 1
181 320 1
196 320 1
210 320 1
289 320 1
294 320 1
166 321 1
182 321 1
197 321 1
211 321 1
290 321 1
295 321 1
167 322 1
183 322 1
198 322 1
212 322 1
291 322 1
296 322 1
168 323 1
184 323 1
199 323 1
213 323 1
292 323 1
297 323 1
169 324 1
185 324 1
200 324 1
214 324 1
293 324 1
298 324 1
170 325 1
186 325 1
201 325 1
215 325 1
294 325 1
299 325 1
156 326 1
171 326 1
202 326 1
216 326 1
295 326 1
300 326 1
157 327 1
172 327 1
203 327 1
217 327 1
296 327 1
301 327 1
158 328 1
173 328 1
187 328 1
204 328 1
297 328 1
302 328 1
159 329 1
174 329 1
188 329 1
205 329 1
298 329 1
303 329 1
160 330 1
175 330 1
189 330 1
206 330 1
299 330 1
304 330 1
161 331 1
176 331 1
190 331 1
207 331 1
300 331 1
305 331 1
162 332 1
177 332 1
191 332 1
208 332 1
301 332 1
306 332 1
163 333 1
178 333 1
192 333 1
209 333 1
302 333 1
307 333 1
164 334 1
179 334 1
193 334 1
210 334 1
303 334 1
308 334 1
165 335 1
180 335 1
194 335 1
211 335 1
304 335 1
309 335 1
166 336 1
181 336 1
195 336 1
212 336 1
305 336 1
310 336 1
167 337 1
182 337 1
196 337 1
213 337 1
280 337 1
306 337 1
168 338 1
183 338 1
197 338 1
214 338 1
281 338 1
307 338 1
169 339 1
184 339 1
198 339 1
215 339 1
282 339 1
308 339 1
170 340 1
185 340 1
199 340 1
216 340 1
283 340 1
309 340 1
171 341 1
186 341 1
200 341 1
217 341 1
284 341 1
310 341 1
156 342 1
175 342 1
218 342 1
232 342 1
311 342 1
316 342 1
157 343 1
176 343 1
219 343 1
233 343 1
312 343 1
317 343 1
158 344 1
177 344 1
220 344 1
234 344 1
313 344 1
318 344 1
159 345 1
178 345 1
221 345 1
235 345 1
314 345 1
319 345 1
160 346 1
179 346 1
222 346 1
236 346 1
315 346 1
320 346 1
161 347 1
180 347 1
223 347 1
237 347 1
316 347 1
321 347 1
162 348 1
181 348 1
224 348 1
238 348 1
317 348 1
322 348 1
163 349 1
182 349 1
225 349 1
239 349 1
318 349 1
323 349 1
164 350 1
183 350 1
226 350 1
240 350 1
319 350 1
324 350 1
165 351 1
184 351 1
227 351 1
241 351 1
320 351 1
325 351 1
166 352 1
185 352 1
228 352 1
242 352 1
321 352 1
326 352 1
167 353 1
186 353 1
229 353 1
243 353 1
322 353 1
327 353 1
156 354 1
168 354 1
230 354 1
244 354 1
323 354 1
328 354 1
157 355 1
169 355 1
231 355 1
245 355 1
324 355 1
329 355 1
158 356 1
170 356 1
232 356 1
246 356 1
325 356 1
330 356 1
159 357 1
171 357 1
233 357 1
247 357 1
326 357 1
331 357 1
160 358 1
172 358 1
234 358 1
248 358 1
327 358 1
332 358 1
161 359 1
173 359 1
218 359 1
235 359 1
328 359 1
333 359 1
162 360 1
174 360 1
219 360 1
236 360 1
329 360 1
334 360 1
163 361 1
175 361 1
220 361 1
237 361 1
330 361 1
335 361 1
164 362 1
176 362 1
221 362 1
238 362 1
331 362 1
336 362 1
165 363 1
177 363 1
222 363 1
239 363 1
332 363 1
337 363 1
166 364 1
178 364 1
223 364 1
240 364 1
333 364 1
338 364 1
167 365 1
179 365 1
224 365 1
241 365 1
334 365 1
339 365 1
168 366 1
180 366 1
225 366 1
242 366 1
335 366 1
340 366 1
169 367 1
181 367 1
226 367 1
243 367 1
336 367 1
341 367 1
170 368 1
182 368 1
227 368 1
244 368 1
311 368 1
337 368 1
171 369 1
183 369 1
228 369 1
245 369 1
312 369 1
338 369 1
172 370 1
184 370 1
229 370 1
246 370 1
313 370 1
339 370 1
173 371 1
185 371 1
230 371 1
247 371 1
314 371 1
340 371 1
174 372 1
186 372 1
231 372 1
248 372 1
315 372 1
341 372 1
156 373 1
184 373 1
249 373 1
263 373 1
342 373 1
347 373 1
157 374 1
185 374 1
250 374 1
264 374 1
343 374 1
348 374 1
158 375 1
186 375 1
251 375 1
265 375 1
344 375 1
349 375 1
156 376 1
159 376 1
252 376 1
266 376 1
345 376 1
350 376 1
157 377 1
160 377 1
253 377 1
267 377 1
346 377 1
351 377 1
158 378 1
161 378 1
254 378 1
268 378 1
347 378 1
352 378 1
159 379 1
162 379 1
255 379 1
269 379 1
348 379 1
353 379 1
160 380 1
163 380 1
256 380 1
270 380 1
349 380 1
354 380 1
161 381 1
164 381 1
257 381 1
271 381 1
350 381 1
355 381 1
162 382 1
165 382 1
258 382 1
272 382 1
351 382 1
356 382 1
163 383 1
166 383 1
259 383 1
273 383 1
352 383 1
357 383 1
164 384 1
167 384 1
260 384 1
274 384 1
353 384 1
358 384 1
165 385 1
168 385 1
261 385 1
275 385 1
354 385 1
359 385 1
166 386 1
169 386 1
262 386 1
276 386 1
355 386 1
360 386 1
167 387 1
170 387 1
263 387 1
277 387 1
356 387 1
361 387 1
168 388 1
171 388 1
264 388 1
278 388 1
357 388 1
362 388 1
169 389 1
172 389 1
265 389 1
279 389 1
358 389 1
363 389 1
170 390 1
173 390 1
249 390 1
266 390 1
359 390 1
364 390 1
171 391 1
174 391 1
250 391 1
267 391 1
360 391 1
365 391 1
172 392 1
175 392 1
251 392 1
268 392 1
361 392 1
366 392 1
173 393 1
176 393 1
252 393 1
269 393 1
362 393 1
367 393 1
174 394 1
177 394 1
253 394 1
270 394 1
363 394 1
368 394 1
175 395 1
178 395 1
254 395 1
271 395 1
364 395 1
369 395 1
176 396 1
179 396 1
255 396 1
272 396 1
365 396 1
370 396 1
177 397 1
180 397 1
256 397 1
273 397 1
366 397 1
371 397 1
178 398 1
181 398 1
257 398 1
274 398 1
367 398 1
372 398 1
179 399 1
182 399 1
258 399 1
275 399 1
342 399 1
368 399 1
180 400 1
183 400 1
259 400 1
276 400 1
343 400 1
369 400 1
181 401 1
184 401 1
260 401 1
277 401 1
344 401 1
370 401 1
182 402 1
185 402 1
261 402 1
278 402 1
345 402 1
371 402 1
183 403 1
186 403 1
262 403 1
279 403 1
346 403 1
372 403 1
187 404 1
206 404 1
218 404 1
234 404 1
373 404 1
378 404 1
188 405 1
207 405 1
219 405 1
235 405 1
374 405 1
379 405 1
189 406 1
208 406 1
220 406 1
236 406 1
375 406 1
380 406 1
190 407 1
209 407 1
221 407 1
237 407 1
376 407 1
381 407 1
191 408 1
210 408 1
222 408 1
238 408 1
377 408 1
382 408 1
192 409 1
211 409 1
223 409 1
239 409 1
378 409 1
383 409 1
193 410 1
212 410 1
224 410 1
240 410 1
379 410 1
384 410 1
194 411 1
213 411 1
225 411 1
241 411 1
380 411 1
385 411 1
195 412 1
214 412 1
226 412 1
242 412 1
381 412 1
386 412 1
196 413 1
215 413 1
227 413 1
243 413 1
382 413 1
387 413 1
197 414 1
216 414 1
228 414 1
244 414 1
383 414 1
388 414 1
198 415 1
217 415 1
229 415 1
245 415 1
384 415 1
389 415 1
187 416 1
199 416 1
230 416 1
246 416 1
385 416 1
390 416 1
188 417 1
200 417 1
231 417 1
247 417 1
386 417 1
391 417 1
189 418 1
201 418 1
232 418 1
248 418 1
387 418 1
392 418 1
190 419 1
202 419 1
218 419 1
233 419 1
388 419 1
393 419 1
191 420 1
203 420 1
219 420 1
234 420 1
389 420 1
394 420 1
192 421 1
204 421 1
220 421 1
235 421 1
390 421 1
395 421 1
193 422 1
205 422 1
221 422 1
236 422 1
391 422 1
396 422 1
194 423 1
206 423 1
222 423 1
237 423 1
392 423 1
397 423 1
195 424 1
207 424 1
223 424 1
238 424 1
393 424 1
398 424 1
196 425 1
208 425 1
224 425 1
239 425 1
394 425 1
399 425 1
197 426 1
209 426 1
225 426 1
240 426 1
395 426 1
400 426 1
198 427 1
210 427 1
226 427 1
241 427 1
396 427 1
401 427 1
199 428 1
211 428 1
227 428 1
242 428 1
397 428 1
402 428 1
200 429 1
212 429 1
228 429 1
243 429 1
398 429 1
403 429 1
201 430 1
213 430 1
229 430 1
244 430 1
373 430 1
399 430 1
202 431 1
214 431 1
230 431 1
245 431 1
374 431 1
400 431 1
203 432 1
215 432 1
231 432 1
246 432 1
375 432 1
401 432 1
204 433 1
216 433 1
232 433 1
247 433 1
376 433 1
402 433 1
205 434 1
217 434 1
233 434 1
248 434 1
377 434 1
403 434 1
187 435 1
215 435 1
249 435 1
265 435 1
404 435 1
409 435 1
188 436 1
216 436 1
250 436 1
266 436 1
405 436 1
410 436 1
189 437 1
217 437 1
251 437 1
267 437 1
406 437 1
411 437 1
187 438 1
190 438 1
252 438 1
268 438 1
407 438 1
412 438 1
188 439 1
191 439 1
253 439 1
269 439 1
408 439 1
413 439 1
189 440 1
192 440 1
254 440 1
270 440 1
409 440 1
414 440 1
190 441 1
193 441 1
255 441 1
271 441 1
410 441 1
415 441 1
191 442 1
194 442 1
256 442 1
272 442 1
411 442 1
416 442 1
192 443 1
195 443 1
257 443 1
273 443 1
412 443 1
417 443 1
193 444 1
196 444 1
258 444 1
274 444 1
413 444 1
418 444 1
194 445 1
197 445 1
259 445 1
275 445 1
414 445 1
419 445 1
195 446 1
198 446 1
260 446 1
276 446 1
415 446 1
420 446 1
196 447 1
199 447 1
261 447 1
277 447 1
416 447 1
421 447 1
197 448 1
200 448 1
262 448 1
278 448 1
417 448 1
422 448 1
198 449 1
201 449 1
263 449 1
279 449 1
418 449 1
423 449 1
199 450 1
202 450 1
249 450 1
264 450 1
419 450 1
424 450 1
200 451 1
203 451 1
250 451 1
265 451 1
420 451 1
425 451 1
201 452 1
204 452 1
251 452 1
266 452 1
421 452 1
426 452 1
202 453 1
205 453 1
252 453 1
267 453 1
422 453 1
427 453 1
203 454 1
206 454 1
253 454 1
268 454 1
423 454 1
428 454 1
204 455 1
207 455 1
254 455 1
269 455 1
424 455 1
429 455 1
205 456 1
208 456 1
255 456 1
270 456 1
425 456 1
430 456 1
206 457 1
209 457 1
256 457 1
271 457 1
426 457 1
431 457 1
207 458 1
210 458 1
257 458 1
272 458 1
427 458 1
432 458 1
208 459 1
211 459 1
258 459 1
273 459 1
428 459 1
433 459 1
209 460 1
212 460 1
259 460 1
274 460 1
429 460 1
434 460 1
210 461 1
213 461 1
260 461 1
275 461 1
404 461 1
430 461 1
211 462 1
214 462 1
261 462 1
276 462 1
405 462 1
431 462 1
212 463 1
215 463 1
262 463 1
277 463 1
406 463 1
432 463 1
213 464 1
216 464 1
263 464 1
278 464 1
407 464 1
433 464 1
214 465 1
217 465 1
264 465 1
279 465 1
408 465 1
434 465 1
218 466 1
246 466 1
249 466 1
268 466 1
435 466 1
440 466 1
219 467 1
247 467 1
250 467 1
269 467 1
436 467 1
441 467 1
220 468 1
248 468 1
251 468 1
270 468 1
437 468 1
442 468 1
218 469 1
221 469 1
252 469 1
271 469 1
438 469 1
443 469 1
219 470 1
222 470 1
253 470 1
272 470 1
439 470 1
444 470 1
220 471 1
223 471 1
254 471 1
273 471 1
440 471 1
445 471 1
221 472 1
224 472 1
255 472 1
274 472 1
441 472 1
446 472 1
222 473 1
225 473 1
256 473 1
275 473 1
442 473 1
447 473 1
223 474 1
226 474 1
257 474 1
276 474 1
443 474 1
448 474 1
224 475 1
227 475 1
258 475 1
277 475 1
444 475 1
449 475 1
225 476 1
228 476 1
259 476 1
278 476 1
445 476 1
450 476 1
226 477 1
229 477 1
260 477 1
279 477 1
446 477 1
451 477 1
227 478 1
230 478 1
249 478 1
261 478 1
447 478 1
452 478 1
228 479 1
231 479 1
250 479 1
262 479 1
448 479 1
453 479 1
229 480 1
232 480 1
251 480 1
263 480 1
449 480 1
454 480 1
230 481 1
233 481 1
252 481 1
264 481 1
450 481 1
455 481 1
231 482 1
234 482 1
253 482 1
265 482 1
451 482 1
456 482 1
232 483 1
235 483 1
254 483 1
266 483 1
452 483 1
457 483 1
233 484 1
236 484 1
255 484 1
267 484 1
453 484 1
458 484 1
234 485 1
237 485 1
256 485 1
268 485 1
454 485 1
459 485 1
235 486 1
238 486 1
257 486 1
269 486 1
455 486 1
460 486 1
236 487 1
239 487 1
258 487 1
270 487 1
456 487 1
461 487 1
237 488 1
240 488 1
259 488 1
271 488 1
457 488 1
462 488 1
238 489 1
241 489 1
260 489 1
272 489 1
458 489 1
463 489 1
239 490 1
242 490 1
261 490 1
273 490 1
459 490 1
464 490 1
240 491 1
243 491 1
262 491 1
274 491 1
460 491 1
465 491 1
241 492 1
244 492 1
263 492 1
275 492 1
435 492 1
461 492 1
242 493 1
245 493 1
264 493 1
276 493 1
436 493 1
462 493 1
243 494 1
246 494 1
265 494 1
277 494 1
437 494 1
463 494 1
244 495 1
247 495 1
266 495 1
278 495 1
438 495 1
464 495 1
245 496 1
248 496 1
267 496 1
279 496 1
439 496 1
465 496 1
280 497 1
299 497 1
311 497 1
327 497 1
373 497 1
387 497 1
281 498 1
300 498 1
312 498 1
328 498 1
374 498 1
388 498 1
282 499 1
301 499 1
313 499 1
329 499 1
375 499 1
389 499 1
283 500 1
302 500 1
314 500 1
330 500 1
376 500 1
390 500 1
284 501 1
303 501 1
315 501 1
331 501 1
377 501 1
391 501 1
285 502 1
304 502 1
316 502 1
332 502 1
378 502 1
392 502 1
286 503 1
305 503 1
317 503 1
333 503 1
379 503 1
393 503 1
287 504 1
306 504 1
318 504 1
334 504 1
380 504 1
394 504 1
288 505 1
307 505 1
319 505 1
335 505 1
381 505 1
395 505 1
289 506 1
308 506 1
320 506 1
336 506 1
382 506 1
396 506 1
290 507 1
309 507 1
321 507 1
337 507 1
383 507 1
397 507 1
291 508 1
310 508 1
322 508 1
338 508 1
384 508 1
398 508 1
280 509 1
292 509 1
323 509 1
339 509 1
385 509 1
399 509 1
281 510 1
293 510 1
324 510 1
340 510 1
386 510 1
400 510 1
282 511 1
294 511 1
325 511 1
341 511 1
387 511 1
401 511 1
283 512 1
295 512 1
311 512 1
326 512 1
388 512 1
402 512 1
284 513 1
296 513 1
312 513 1
327 513 1
389 513 1
403 513 1
285 514 1
297 514 1
313 514 1
328 514 1
373 514 1
390 514 1
286 515 1
298 515 1
314 515 1
329 515 1
374 515 1
391 515 1
287 516 1
299 516 1
315 516 1
330 516 1
375 516 1
392 516 1
288 517 1
300 517 1
316 517 1
331 517 1
376 517 1
393 517 1
289 518 1
301 518 1
317 518 1
332 518 1
377 518 1
394 518 1
290 519 1
302 519 1
318 519 1
333 519 1
378 519 1
395 519 1
291 520 1
303 520 1
319 520 1
334 520 1
379 520 1
396 520 1
292 521 1
304 521 1
320 521 1
335 521 1
380 521 1
397 521 1
293 522 1
305 522 1
321 522 1
336 522 1
381 522 1
398 522 1
294 523 1
306 523 1
322 523 1
337 523 1
382 523 1
399 523 1
295 524 1
307 524 1
323 524 1
338 524 1
383 524 1
400 524 1
296 525 1
308 525 1
324 525 1
339 525 1
384 525 1
401 525 1
297 526 1
309 526 1
325 526 1
340 526 1
385 526 1
402 526 1
298 527 1
310 527 1
326 527 1
341 527 1
386 527 1
403 527 1
280 528 1
308 528 1
342 528 1
358 528 1
404 528 1
418 528 1
281 529 1
309 529 1
343 529 1
359 529 1
405 529 1
419 529 1
282 530 1
310 530 1
344 530 1
360 530 1
406 530 1
420 530 1
280 531 1
283 531 1
345 531 1
361 531 1
407 531 1
421 531 1
281 532 1
284 532 1
346 532 1
362 532 1
408 532 1
422 532 1
282 533 1
285 533 1
347 533 1
363 533 1
409 533 1
423 533 1
283 534 1
286 534 1
348 534 1
364 534 1
410 534 1
424 534 1
284 535 1
287 535 1
349 535 1
365 535 1
411 535 1
425 535 1
285 536 1
288 536 1
350 536 1
366 536 1
412 536 1
426 536 1
286 537 1
289 537 1
351 537 1
367 537 1
413 537 1
427 537 1
287 538 1
290 538 1
352 538 1
368 538 1
414 538 1
428 538 1
288 539 1
291 539 1
353 539 1
369 539 1
415 539 1
429 539 1
289 540 1
292 540 1
354 540 1
370 540 1
416 540 1
430 540 1
290 541 1
293 541 1
355 541 1
371 541 1
417 541 1
431 541 1
291 542 1
294 542 1
356 542 1
372 542 1
418 542 1
432 542 1
292 543 1
295 543 1
342 543 1
357 543 1
419 543 1
433 543 1
293 544 1
296 544 1
343 544 1
358 544 1
420 544 1
434 544 1
294 545 1
297 545 1
344 545 1
359 545 1
404 545 1
421 545 1
295 546 1
298 546 1
345 546 1
360 546 1
405 546 1
422 546 1
296 547 1
299 547 1
346 547 1
361 547 1
406 547 1
423 547 1
297 548 1
300 548 1
347 548 1
362 548 1
407 548 1
424 548 1
298 549 1
301 549 1
348 549 1
363 549 1
408 549 1
425 549 1
299 550 1
302 550 1
349 550 1
364 550 1
409 550 1
426 550 1
300 551 1
303 551 1
350 551 1
365 551 1
410 551 1
427 551 1
301 552 1
304 552 1
351 552 1
366 552 1
411 552 1
428 552 1
302 553 1
305 553 1
352 553 1
367 553 1
412 553 1
429 553 1
303 554 1
306 554 1
353 554 1
368 554 1
413 554 1
430 554 1
304 555 1
307 555 1
354 555 1
369 555 1
414 555 1
431 555 1
305 556 1
308 556 1
355 556 1
370 556 1
415 556 1
432 556 1
306 557 1
309 557 1
356 557 1
371 557 1
416 557 1
433 557 1
307 558 1
310 558 1
357 558 1
372 558 1
417 558 1
434 558 1
311 559 1
339 559 1
342 559 1
361 559 1
435 559 1
449 559 1
312 560 1
340 560 1
343 560 1
362 560 1
436 560 1
450 560 1
313 561 1
341 561 1
344 561 1
363 561 1
437 561 1
451 561 1
311 562 1
314 562 1
345 562 1
364 562 1
438 562 1
452 562 1
312 563 1
315 563 1
346 563 1
365 563 1
439 563 1
453 563 1
313 564 1
316 564 1
347 564 1
366 564 1
440 564 1
454 564 1
314 565 1
317 565 1
348 565 1
367 565 1
441 565 1
455 565 1
315 566 1
318 566 1
349 566 1
368 566 1
442 566 1
456 566 1
316 567 1
319 567 1
350 567 1
369 567 1
443 567 1
457 567 1
317 568 1
320 568 1
351 568 1
370 568 1
444 568 1
458 568 1
318 569 1
321 569 1
352 569 1
371 569 1
445 569 1
459 569 1
319 570 1
322 570 1
353 570 1
372 570 1
446 570 1
460 570 1
320 571 1
323 571 1
342 571 1
354 571 1
447 571 1
461 571 1
321 572 1
324 572 1
343 572 1
355 572 1
448 572 1
462 572 1
322 573 1
325 573 1
344 573 1
356 573 1
449 573 1
463 573 1
323 574 1
326 574 1
345 574 1
357 574 1
450 574 1
464 574 1
324 575 1
327 575 1
346 575 1
358 575 1
451 575 1
465 575 1
325 576 1
328 576 1
347 576 1
359 576 1
435 576 1
452 576 1
326 577 1
329 577 1
348 577 1
360 577 1
436 577 1
453 577 1
327 578 1
330 578 1
349 578 1
361 578 1
437 578 1
454 578 1
328 579 1
331 579 1
350 579 1
362 579 1
438 579 1
455 579 1
329 580 1
332 580 1
351 580 1
363 580 1
439 580 1
456 580 1
330 581 1
333 581 1
352 581 1
364 581 1
440 581 1
457 581 1
331 582 1
334 582 1
353 582 1
365 582 1
441 582 1
458 582 1
332 583 1
335 583 1
354 583 1
366 583 1
442 583 1
459 583 1
333 584 1
336 584 1
355 584 1
367 584 1
443 584 1
460 584 1
334 585 1
337 585 1
356 585 1
368 585 1
444 585 1
461 585 1
335 586 1
338 586 1
357 586 1
369 586 1
445 586 1
462 586 1
336 587 1
339 587 1
358 587 1
370 587 1
446 587 1
463 587 1
337 588 1
340 588 1
359 588 1
371 588 1
447 588 1
464 588 1
338 589 1
341 589 1
360 589 1
372 589 1
448 589 1
465 589 1
373 590 1
401 590 1
404 590 1
423 590 1
435 590 1
451 590 1
374 591 1
402 591 1
405 591 1
424 591 1
436 591 1
452 591 1
375 592 1
403 592 1
406 592 1
425 592 1
437 592 1
453 592 1
373 593 1
376 593 1
407 593 1
426 593 1
438 593 1
454 593 1
374 594 1
377 594 1
408 594 1
427 594 1
439 594 1
455 594 1
375 595 1
378 595 1
409 595 1
428 595 1
440 595 1
456 595 1
376 596 1
379 596 1
410 596 1
429 596 1
441 596 1
457 596 1
377 597 1
380 597 1
411 597 1
430 597 1
442 597 1
458 597 1
378 598 1
381 598 1
412 598 1
431 598 1
443 598 1
459 598 1
379 599 1
382 599 1
413 599 1
432 599 1
444 599 1
460 599 1
380 600 1
383 600 1
414 600 1
433 600 1
445 600 1
461 600 1
381 601 1
384 601 1
415 601 1
434 601 1
446 601 1
462 601 1
382 602 1
385 602 1
404 602 1
416 602 1
447 602 1
463 602 1
383 603 1
386 603 1
405 603 1
417 603 1
448 603 1
464 603 1
384 604 1
387 604 1
406 604 1
418 604 1
449 604 1
465 604 1
385 605 1
388 605 1
407 605 1
419 605 1
435 605 1
450 605 1
386 606 1
389 606 1
408 606 1
420 606 1
436 606 1
451 606 1
387 607 1
390 607 1
409 607 1
421 607 1
437 607 1
452 607 1
388 608 1
391 608 1
410 608 1
422 608 1
438 608 1
453 608 1
389 609 1
392 609 1
411 609 1
423 609 1
439 609 1
454 609 1
390 610 1
393 610 1
412 610 1
424 610 1
440 610 1
455 610 1
391 611 1
394 611 1
413 611 1
425 611 1
441 611 1
456 611 1
392 612 1
395 612 1
414 612 1
426 612 1
442 612 1
457 612 1
393 613 1
396 613 1
415 613 1
427 613 1
443 613 1
458 613 1
394 614 1
397 614 1
416 614 1
428 614 1
444 614 1
459 614 1
395 615 1
398 615 1
417 615 1
429 615 1
445 615 1
460 615 1
396 616 1
399 616 1
418 616 1
430 616 1
446 616 1
461 616 1
397 617 1
400 617 1
419 617 1
431 617 1
447 617 1
462 617 1
398 618 1
401 618 1
420 618 1
432 618 1
448 618 1
463 618 1
399 619 1
402 619 1
421 619 1
433 619 1
449 619 1
464 619 1
400 620 1
403 620 1
422 620 1
434 620 1
450 620 1
465 620 1
