%%MatrixMarket matrix coordinate integer general
% Binary matrix; one-based indices; arithmetic over GF(2)
96 144 1152
2 1 1
7 1 1
13 1 1
23 1 1
31 1 1
34 1 1
47 1 1
48 1 1
1 2 1
8 2 1
14 2 1
24 2 1
32 2 1
33 2 1
47 2 1
48 2 1
4 3 1
5 3 1
15 3 1
21 3 1
29 3 1
36 3 1
45 3 1
46 3 1
3 4 1
6 4 1
16 4 1
22 4 1
30 4 1
35 4 1
45 4 1
46 4 1
6 5 1
11 5 1
15 5 1
17 5 1
26 5 1
35 5 1
39 5 1
40 5 1
5 6 1
12 6 1
16 6 1
18 6 1
25 6 1
36 6 1
39 6 1
40 6 1
8 7 1
9 7 1
13 7 1
19 7 1
28 7 1
33 7 1
37 7 1
38 7 1
7 8 1
10 8 1
14 8 1
20 8 1
27 8 1
34 8 1
37 8 1
38 8 1
3 9 1
10 9 1
19 9 1
21 9 1
27 9 1
30 9 1
43 9 1
44 9 1
4 10 1
9 10 1
20 10 1
22 10 1
28 10 1
29 10 1
43 10 1
44 10 1
1 11 1
12 11 1
17 11 1
23 11 1
25 11 1
32 11 1
41 11 1
42 11 1
2 12 1
11 12 1
18 12 1
24 12 1
26 12 1
31 12 1
41 12 1
42 12 1
1 13 1
11 13 1
14 13 1
19 13 1
35 13 1
36 13 1
43 13 1
46 13 1
2 14 1
12 14 1
13 14 1
20 14 1
35 14 1
36 14 1
44 14 1
45 14 1
3 15 1
9 15 1
16 15 1
17 15 1
33 15 1
34 15 1
41 15 1
48 15 1
4 16 1
10 16 1
15 16 1
18 16 1
33 16 1
34 16 1
42 16 1
47 16 1
3 17 1
5 17 1
18 17 1
23 17 1
27 17 1
28 17 1
38 17 1
47 17 1
4 18 1
6 18 1
17 18 1
24 18 1
27 18 1
28 18 1
37 18 1
48 18 1
1 19 1
7 19 1
20 19 1
21 19 1
25 19 1
26 19 1
40 19 1
45 19 1
2 20 1
8 20 1
19 20 1
22 20 1
25 20 1
26 20 1
39 20 1
46 20 1
7 21 1
9 21 1
15 21 1
22 21 1
31 21 1
32 21 1
39 21 1
42 21 1
8 22 1
10 22 1
16 22 1
21 22 1
31 22 1
32 22 1
40 22 1
41 22 1
5 23 1
11 23 1
13 23 1
24 23 1
29 23 1
30 23 1
37 23 1
44 23 1
6 24 1
12 24 1
14 24 1
23 24 1
29 24 1
30 24 1
38 24 1
43 24 1
4 25 1
5 25 1
13 25 1
19 25 1
55 25 1
58 25 1
71 25 1
72 25 1
3 26 1
6 26 1
14 26 1
20 26 1
56 26 1
57 26 1
71 26 1
72 26 1
2 27 1
7 27 1
15 27 1
17 27 1
53 27 1
60 27 1
69 27 1
70 27 1
1 28 1
8 28 1
16 28 1
18 28 1
54 28 1
59 28 1
69 28 1
70 28 1
8 29 1
9 29 1
17 29 1
23 29 1
50 29 1
59 29 1
63 29 1
64 29 1
7 30 1
10 30 1
18 30 1
24 30 1
49 30 1
60 30 1
63 30 1
64 30 1
6 31 1
11 31 1
19 31 1
21 31 1
52 31 1
57 31 1
61 31 1
62 31 1
5 32 1
12 32 1
20 32 1
22 32 1
51 32 1
58 32 1
61 32 1
62 32 1
1 33 1
12 33 1
15 33 1
21 33 1
51 33 1
54 33 1
67 33 1
68 33 1
2 34 1
11 34 1
16 34 1
22 34 1
52 34 1
53 34 1
67 34 1
68 34 1
3 35 1
10 35 1
13 35 1
23 35 1
49 35 1
56 35 1
65 35 1
66 35 1
4 36 1
9 36 1
14 36 1
24 36 1
50 36 1
55 36 1
65 36 1
66 36 1
1 37 1
7 37 1
16 37 1
17 37 1
59 37 1
60 37 1
67 37 1
70 37 1
2 38 1
8 38 1
15 38 1
18 38 1
59 38 1
60 38 1
68 38 1
69 38 1
3 39 1
5 39 1
14 39 1
19 39 1
57 39 1
58 39 1
65 39 1
72 39 1
4 40 1
6 40 1
13 40 1
20 40 1
57 40 1
58 40 1
66 40 1
71 40 1
5 41 1
11 41 1
20 41 1
21 41 1
51 41 1
52 41 1
62 41 1
71 41 1
6 42 1
12 42 1
19 42 1
22 42 1
51 42 1
52 42 1
61 42 1
72 42 1
7 43 1
9 43 1
18 43 1
23 43 1
49 43 1
50 43 1
64 43 1
69 43 1
8 44 1
10 44 1
17 44 1
24 44 1
49 44 1
50 44 1
63 44 1
70 44 1
3 45 1
9 45 1
13 45 1
24 45 1
55 45 1
56 45 1
63 45 1
66 45 1
4 46 1
10 46 1
14 46 1
23 46 1
55 46 1
56 46 1
64 46 1
65 46 1
1 47 1
11 47 1
15 47 1
22 47 1
53 47 1
54 47 1
61 47 1
68 47 1
2 48 1
12 48 1
16 48 1
21 48 1
53 48 1
54 48 1
62 48 1
67 48 1
28 49 1
29 49 1
37 49 1
43 49 1
50 49 1
55 49 1
61 49 1
71 49 1
27 50 1
30 50 1
38 50 1
44 50 1
49 50 1
56 50 1
62 50 1
72 50 1
26 51 1
31 51 1
39 51 1
41 51 1
52 51 1
53 51 1
63 51 1
69 51 1
25 52 1
32 52 1
40 52 1
42 52 1
51 52 1
54 52 1
64 52 1
70 52 1
32 53 1
33 53 1
41 53 1
47 53 1
54 53 1
59 53 1
63 53 1
65 53 1
31 54 1
34 54 1
42 54 1
48 54 1
53 54 1
60 54 1
64 54 1
66 54 1
30 55 1
35 55 1
43 55 1
45 55 1
56 55 1
57 55 1
61 55 1
67 55 1
29 56 1
36 56 1
44 56 1
46 56 1
55 56 1
58 56 1
62 56 1
68 56 1
25 57 1
36 57 1
39 57 1
45 57 1
51 57 1
58 57 1
67 57 1
69 57 1
26 58 1
35 58 1
40 58 1
46 58 1
52 58 1
57 58 1
68 58 1
70 58 1
27 59 1
34 59 1
37 59 1
47 59 1
49 59 1
60 59 1
65 59 1
71 59 1
28 60 1
33 60 1
38 60 1
48 60 1
50 60 1
59 60 1
66 60 1
72 60 1
25 61 1
31 61 1
40 61 1
41 61 1
49 61 1
59 61 1
62 61 1
67 61 1
26 62 1
32 62 1
39 62 1
42 62 1
50 62 1
60 62 1
61 62 1
68 62 1
27 63 1
29 63 1
38 63 1
43 63 1
51 63 1
57 63 1
64 63 1
65 63 1
28 64 1
30 64 1
37 64 1
44 64 1
52 64 1
58 64 1
63 64 1
66 64 1
29 65 1
35 65 1
44 65 1
45 65 1
51 65 1
53 65 1
66 65 1
71 65 1
30 66 1
36 66 1
43 66 1
46 66 1
52 66 1
54 66 1
65 66 1
72 66 1
31 67 1
33 67 1
42 67 1
47 67 1
49 67 1
55 67 1
68 67 1
69 67 1
32 68 1
34 68 1
41 68 1
48 68 1
50 68 1
56 68 1
67 68 1
70 68 1
27 69 1
33 69 1
37 69 1
48 69 1
55 69 1
57 69 1
63 69 1
70 69 1
28 70 1
34 70 1
38 70 1
47 70 1
56 70 1
58 70 1
64 70 1
69 70 1
25 71 1
35 71 1
39 71 1
46 71 1
53 71 1
59 71 1
61 71 1
72 71 1
26 72 1
36 72 1
40 72 1
45 72 1
54 72 1
60 72 1
62 72 1
71 72 1
2 73 1
4 73 1
5 73 1
6 73 1
79 73 1
82 73 1
95 73 1
96 73 1
1 74 1
3 74 1
5 74 1
6 74 1
80 74 1
81 74 1
95 74 1
96 74 1
2 75 1
4 75 1
7 75 1
8 75 1
77 75 1
84 75 1
93 75 1
94 75 1
1 76 1
3 76 1
7 76 1
8 76 1
78 76 1
83 76 1
93 76 1
94 76 1
6 77 1
8 77 1
9 77 1
10 77 1
74 77 1
83 77 1
87 77 1
88 77 1
5 78 1
7 78 1
9 78 1
10 78 1
73 78 1
84 78 1
87 78 1
88 78 1
6 79 1
8 79 1
11 79 1
12 79 1
76 79 1
81 79 1
85 79 1
86 79 1
5 80 1
7 80 1
11 80 1
12 80 1
75 80 1
82 80 1
85 80 1
86 80 1
1 81 1
2 81 1
10 81 1
12 81 1
75 81 1
78 81 1
91 81 1
92 81 1
1 82 1
2 82 1
9 82 1
11 82 1
76 82 1
77 82 1
91 82 1
92 82 1
3 83 1
4 83 1
10 83 1
12 83 1
73 83 1
80 83 1
89 83 1
90 83 1
3 84 1
4 84 1
9 84 1
11 84 1
74 84 1
79 84 1
89 84 1
90 84 1
14 85 1
16 85 1
17 85 1
18 85 1
83 85 1
84 85 1
91 85 1
94 85 1
13 86 1
15 86 1
17 86 1
18 86 1
83 86 1
84 86 1
92 86 1
93 86 1
14 87 1
16 87 1
19 87 1
20 87 1
81 87 1
82 87 1
89 87 1
96 87 1
13 88 1
15 88 1
19 88 1
20 88 1
81 88 1
82 88 1
90 88 1
95 88 1
18 89 1
20 89 1
21 89 1
22 89 1
75 89 1
76 89 1
86 89 1
95 89 1
17 90 1
19 90 1
21 90 1
22 90 1
75 90 1
76 90 1
85 90 1
96 90 1
18 91 1
20 91 1
23 91 1
24 91 1
73 91 1
74 91 1
88 91 1
93 91 1
17 92 1
19 92 1
23 92 1
24 92 1
73 92 1
74 92 1
87 92 1
94 92 1
13 93 1
14 93 1
22 93 1
24 93 1
79 93 1
80 93 1
87 93 1
90 93 1
13 94 1
14 94 1
21 94 1
23 94 1
79 94 1
80 94 1
88 94 1
89 94 1
15 95 1
16 95 1
22 95 1
24 95 1
77 95 1
78 95 1
85 95 1
92 95 1
15 96 1
16 96 1
21 96 1
23 96 1
77 96 1
78 96 1
86 96 1
91 96 1
26 97 1
28 97 1
29 97 1
30 97 1
74 97 1
79 97 1
85 97 1
95 97 1
25 98 1
27 98 1
29 98 1
30 98 1
73 98 1
80 98 1
86 98 1
96 98 1
26 99 1
28 99 1
31 99 1
32 99 1
76 99 1
77 99 1
87 99 1
93 99 1
25 100 1
27 100 1
31 100 1
32 100 1
75 100 1
78 100 1
88 100 1
94 100 1
30 101 1
32 101 1
33 101 1
34 101 1
78 101 1
83 101 1
87 101 1
89 101 1
29 102 1
31 102 1
33 102 1
34 102 1
77 102 1
84 102 1
88 102 1
90 102 1
30 103 1
32 103 1
35 103 1
36 103 1
80 103 1
81 103 1
85 103 1
91 103 1
29 104 1
31 104 1
35 104 1
36 104 1
79 104 1
82 104 1
86 104 1
92 104 1
25 105 1
26 105 1
34 105 1
36 105 1
75 105 1
82 105 1
91 105 1
93 105 1
25 106 1
26 106 1
33 106 1
35 106 1
76 106 1
81 106 1
92 106 1
94 106 1
27 107 1
28 107 1
34 107 1
36 107 1
73 107 1
84 107 1
89 107 1
95 107 1
27 108 1
28 108 1
33 108 1
35 108 1
74 108 1
83 108 1
90 108 1
96 108 1
38 109 1
40 109 1
41 109 1
42 109 1
73 109 1
83 109 1
86 109 1
91 109 1
37 110 1
39 110 1
41 110 1
42 110 1
74 110 1
84 110 1
85 110 1
92 110 1
38 111 1
40 111 1
43 111 1
44 111 1
75 111 1
81 111 1
88 111 1
89 111 1
37 112 1
39 112 1
43 112 1
44 112 1
76 112 1
82 112 1
87 112 1
90 112 1
42 113 1
44 113 1
45 113 1
46 113 1
75 113 1
77 113 1
90 113 1
95 113 1
41 114 1
43 114 1
45 114 1
46 114 1
76 114 1
78 114 1
89 114 1
96 114 1
42 115 1
44 115 1
47 115 1
48 115 1
73 115 1
79 115 1
92 115 1
93 115 1
41 116 1
43 116 1
47 116 1
48 116 1
74 116 1
80 116 1
91 116 1
94 116 1
37 117 1
38 117 1
46 117 1
48 117 1
79 117 1
81 117 1
87 117 1
94 117 1
37 118 1
38 118 1
45 118 1
47 118 1
80 118 1
82 118 1
88 118 1
93 118 1
39 119 1
40 119 1
46 119 1
48 119 1
77 119 1
83 119 1
85 119 1
96 119 1
39 120 1
40 120 1
45 120 1
47 120 1
78 120 1
84 120 1
86 120 1
95 120 1
50 121 1
52 121 1
53 121 1
54 121 1
76 121 1
77 121 1
85 121 1
91 121 1
49 122 1
51 122 1
53 122 1
54 122 1
75 122 1
78 122 1
86 122 1
92 122 1
50 123 1
52 123 1
55 123 1
56 123 1
74 123 1
79 123 1
87 123 1
89 123 1
49 124 1
51 124 1
55 124 1
56 124 1
73 124 1
80 124 1
88 124 1
90 124 1
54 125 1
56 125 1
57 125 1
58 125 1
80 125 1
81 125 1
89 125 1
95 125 1
53 126 1
55 126 1
57 126 1
58 126 1
79 126 1
82 126 1
90 126 1
96 126 1
54 127 1
56 127 1
59 127 1
60 127 1
78 127 1
83 127 1
91 127 1
93 127 1
53 128 1
55 128 1
59 128 1
60 128 1
77 128 1
84 128 1
92 128 1
94 128 1
49 129 1
50 129 1
58 129 1
60 129 1
73 129 1
84 129 1
87 129 1
93 129 1
49 130 1
50 130 1
57 130 1
59 130 1
74 130 1
83 130 1
88 130 1
94 130 1
51 131 1
52 131 1
58 131 1
60 131 1
75 131 1
82 131 1
85 131 1
95 131 1
51 132 1
52 132 1
57 132 1
59 132 1
76 132 1
81 132 1
86 132 1
96 132 1
62 133 1
64 133 1
65 133 1
66 133 1
73 133 1
79 133 1
88 133 1
89 133 1
61 134 1
63 134 1
65 134 1
66 134 1
74 134 1
80 134 1
87 134 1
90 134 1
62 135 1
64 135 1
67 135 1
68 135 1
75 135 1
77 135 1
86 135 1
91 135 1
61 136 1
63 136 1
67 136 1
68 136 1
76 136 1
78 136 1
85 136 1
92 136 1
66 137 1
68 137 1
69 137 1
70 137 1
77 137 1
83 137 1
92 137 1
93 137 1
65 138 1
67 138 1
69 138 1
70 138 1
78 138 1
84 138 1
91 138 1
94 138 1
66 139 1
68 139 1
71 139 1
72 139 1
79 139 1
81 139 1
90 139 1
95 139 1
65 140 1
67 140 1
71 140 1
72 140 1
80 140 1
82 140 1
89 140 1
96 140 1
61 141 1
62 141 1
70 141 1
72 141 1
75 141 1
81 141 1
85 141 1
96 141 1
61 142 1
62 142 1
69 142 1
71 142 1
76 142 1
82 142 1
86 142 1
95 142 1
63 143 1
64 143 1
70 143 1
72 143 1
73 143 1
83 143 1
87 143 1
94 143 1
63 144 1
64 144 1
69 144 1
71 144 1
74 144 1
84 144 1
88 144 1
93 144 1
