%%MatrixMarket matrix coordinate integer general
% Binary matrix; one-based indices; arithmetic over GF(2)
1400 1750 14000
1 1 1
9 1 1
26 1 1
32 1 1
51 1 1
55 1 1
76 1 1
78 1 1
2 2 1
10 2 1
27 2 1
33 2 1
52 2 1
56 2 1
77 2 1
79 2 1
3 3 1
11 3 1
28 3 1
34 3 1
53 3 1
57 3 1
78 3 1
80 3 1
4 4 1
12 4 1
29 4 1
35 4 1
54 4 1
58 4 1
79 4 1
81 4 1
5 5 1
13 5 1
30 5 1
36 5 1
55 5 1
59 5 1
80 5 1
82 5 1
6 6 1
14 6 1
31 6 1
37 6 1
56 6 1
60 6 1
81 6 1
83 6 1
7 7 1
15 7 1
32 7 1
38 7 1
57 7 1
61 7 1
82 7 1
84 7 1
8 8 1
16 8 1
33 8 1
39 8 1
58 8 1
62 8 1
83 8 1
85 8 1
9 9 1
17 9 1
34 9 1
40 9 1
59 9 1
63 9 1
84 9 1
86 9 1
10 10 1
18 10 1
35 10 1
41 10 1
60 10 1
64 10 1
85 10 1
87 10 1
11 11 1
19 11 1
36 11 1
42 11 1
61 11 1
65 11 1
86 11 1
88 11 1
12 12 1
20 12 1
37 12 1
43 12 1
62 12 1
66 12 1
87 12 1
89 12 1
13 13 1
21 13 1
38 13 1
44 13 1
63 13 1
67 13 1
88 13 1
90 13 1
14 14 1
22 14 1
39 14 1
45 14 1
64 14 1
68 14 1
89 14 1
91 14 1
15 15 1
23 15 1
40 15 1
46 15 1
65 15 1
69 15 1
90 15 1
92 15 1
16 16 1
24 16 1
41 16 1
47 16 1
66 16 1
70 16 1
91 16 1
93 16 1
17 17 1
25 17 1
42 17 1
48 17 1
67 17 1
71 17 1
92 17 1
94 17 1
1 18 1
18 18 1
43 18 1
49 18 1
68 18 1
72 18 1
93 18 1
95 18 1
2 19 1
19 19 1
44 19 1
50 19 1
69 19 1
73 19 1
94 19 1
96 19 1
3 20 1
20 20 1
26 20 1
45 20 1
70 20 1
74 20 1
95 20 1
97 20 1
4 21 1
21 21 1
27 21 1
46 21 1
71 21 1
75 21 1
96 21 1
98 21 1
5 22 1
22 22 1
28 22 1
47 22 1
51 22 1
72 22 1
97 22 1
99 22 1
6 23 1
23 23 1
29 23 1
48 23 1
52 23 1
73 23 1
98 23 1
100 23 1
7 24 1
24 24 1
30 24 1
49 24 1
53 24 1
74 24 1
76 24 1
99 24 1
8 25 1
25 25 1
31 25 1
50 25 1
54 25 1
75 25 1
77 25 1
100 25 1
1 26 1
10 26 1
101 26 1
107 26 1
126 26 1
130 26 1
151 26 1
153 26 1
2 27 1
11 27 1
102 27 1
108 27 1
127 27 1
131 27 1
152 27 1
154 27 1
3 28 1
12 28 1
103 28 1
109 28 1
128 28 1
132 28 1
153 28 1
155 28 1
4 29 1
13 29 1
104 29 1
110 29 1
129 29 1
133 29 1
154 29 1
156 29 1
5 30 1
14 30 1
105 30 1
111 30 1
130 30 1
134 30 1
155 30 1
157 30 1
6 31 1
15 31 1
106 31 1
112 31 1
131 31 1
135 31 1
156 31 1
158 31 1
7 32 1
16 32 1
107 32 1
113 32 1
132 32 1
136 32 1
157 32 1
159 32 1
8 33 1
17 33 1
108 33 1
114 33 1
133 33 1
137 33 1
158 33 1
160 33 1
9 34 1
18 34 1
109 34 1
115 34 1
134 34 1
138 34 1
159 34 1
161 34 1
10 35 1
19 35 1
110 35 1
116 35 1
135 35 1
139 35 1
160 35 1
162 35 1
11 36 1
20 36 1
111 36 1
117 36 1
136 36 1
140 36 1
161 36 1
163 36 1
12 37 1
21 37 1
112 37 1
118 37 1
137 37 1
141 37 1
162 37 1
164 37 1
13 38 1
22 38 1
113 38 1
119 38 1
138 38 1
142 38 1
163 38 1
165 38 1
14 39 1
23 39 1
114 39 1
120 39 1
139 39 1
143 39 1
164 39 1
166 39 1
15 40 1
24 40 1
115 40 1
121 40 1
140 40 1
144 40 1
165 40 1
167 40 1
16 41 1
25 41 1
116 41 1
122 41 1
141 41 1
145 41 1
166 41 1
168 41 1
1 42 1
17 42 1
117 42 1
123 42 1
142 42 1
146 42 1
167 42 1
169 42 1
2 43 1
18 43 1
118 43 1
124 43 1
143 43 1
147 43 1
168 43 1
170 43 1
3 44 1
19 44 1
119 44 1
125 44 1
144 44 1
148 44 1
169 44 1
171 44 1
4 45 1
20 45 1
101 45 1
120 45 1
145 45 1
149 45 1
170 45 1
172 45 1
5 46 1
21 46 1
102 46 1
121 46 1
146 46 1
150 46 1
171 46 1
173 46 1
6 47 1
22 47 1
103 47 1
122 47 1
126 47 1
147 47 1
172 47 1
174 47 1
7 48 1
23 48 1
104 48 1
123 48 1
127 48 1
148 48 1
173 48 1
175 48 1
8 49 1
24 49 1
105 49 1
124 49 1
128 49 1
149 49 1
151 49 1
174 49 1
9 50 1
25 50 1
106 50 1
125 50 1
129 50 1
150 50 1
152 50 1
175 50 1
26 51 1
35 51 1
101 51 1
109 51 1
176 51 1
180 51 1
201 51 1
203 51 1
27 52 1
36 52 1
102 52 1
110 52 1
177 52 1
181 52 1
202 52 1
204 52 1
28 53 1
37 53 1
103 53 1
111 53 1
178 53 1
182 53 1
203 53 1
205 53 1
29 54 1
38 54 1
104 54 1
112 54 1
179 54 1
183 54 1
204 54 1
206 54 1
30 55 1
39 55 1
105 55 1
113 55 1
180 55 1
184 55 1
205 55 1
207 55 1
31 56 1
40 56 1
106 56 1
114 56 1
181 56 1
185 56 1
206 56 1
208 56 1
32 57 1
41 57 1
107 57 1
115 57 1
182 57 1
186 57 1
207 57 1
209 57 1
33 58 1
42 58 1
108 58 1
116 58 1
183 58 1
187 58 1
208 58 1
210 58 1
34 59 1
43 59 1
109 59 1
117 59 1
184 59 1
188 59 1
209 59 1
211 59 1
35 60 1
44 60 1
110 60 1
118 60 1
185 60 1
189 60 1
210 60 1
212 60 1
36 61 1
45 61 1
111 61 1
119 61 1
186 61 1
190 61 1
211 61 1
213 61 1
37 62 1
46 62 1
112 62 1
120 62 1
187 62 1
191 62 1
212 62 1
214 62 1
38 63 1
47 63 1
113 63 1
121 63 1
188 63 1
192 63 1
213 63 1
215 63 1
39 64 1
48 64 1
114 64 1
122 64 1
189 64 1
193 64 1
214 64 1
216 64 1
40 65 1
49 65 1
115 65 1
123 65 1
190 65 1
194 65 1
215 65 1
217 65 1
41 66 1
50 66 1
116 66 1
124 66 1
191 66 1
195 66 1
216 66 1
218 66 1
26 67 1
42 67 1
117 67 1
125 67 1
192 67 1
196 67 1
217 67 1
219 67 1
27 68 1
43 68 1
101 68 1
118 68 1
193 68 1
197 68 1
218 68 1
220 68 1
28 69 1
44 69 1
102 69 1
119 69 1
194 69 1
198 69 1
219 69 1
221 69 1
29 70 1
45 70 1
103 70 1
120 70 1
195 70 1
199 70 1
220 70 1
222 70 1
30 71 1
46 71 1
104 71 1
121 71 1
196 71 1
200 71 1
221 71 1
223 71 1
31 72 1
47 72 1
105 72 1
122 72 1
176 72 1
197 72 1
222 72 1
224 72 1
32 73 1
48 73 1
106 73 1
123 73 1
177 73 1
198 73 1
223 73 1
225 73 1
33 74 1
49 74 1
107 74 1
124 74 1
178 74 1
199 74 1
201 74 1
224 74 1
34 75 1
50 75 1
108 75 1
125 75 1
179 75 1
200 75 1
202 75 1
225 75 1
51 76 1
60 76 1
126 76 1
134 76 1
176 76 1
182 76 1
226 76 1
228 76 1
52 77 1
61 77 1
127 77 1
135 77 1
177 77 1
183 77 1
227 77 1
229 77 1
53 78 1
62 78 1
128 78 1
136 78 1
178 78 1
184 78 1
228 78 1
230 78 1
54 79 1
63 79 1
129 79 1
137 79 1
179 79 1
185 79 1
229 79 1
231 79 1
55 80 1
64 80 1
130 80 1
138 80 1
180 80 1
186 80 1
230 80 1
232 80 1
56 81 1
65 81 1
131 81 1
139 81 1
181 81 1
187 81 1
231 81 1
233 81 1
57 82 1
66 82 1
132 82 1
140 82 1
182 82 1
188 82 1
232 82 1
234 82 1
58 83 1
67 83 1
133 83 1
141 83 1
183 83 1
189 83 1
233 83 1
235 83 1
59 84 1
68 84 1
134 84 1
142 84 1
184 84 1
190 84 1
234 84 1
236 84 1
60 85 1
69 85 1
135 85 1
143 85 1
185 85 1
191 85 1
235 85 1
237 85 1
61 86 1
70 86 1
136 86 1
144 86 1
186 86 1
192 86 1
236 86 1
238 86 1
62 87 1
71 87 1
137 87 1
145 87 1
187 87 1
193 87 1
237 87 1
239 87 1
63 88 1
72 88 1
138 88 1
146 88 1
188 88 1
194 88 1
238 88 1
240 88 1
64 89 1
73 89 1
139 89 1
147 89 1
189 89 1
195 89 1
239 89 1
241 89 1
65 90 1
74 90 1
140 90 1
148 90 1
190 90 1
196 90 1
240 90 1
242 90 1
66 91 1
75 91 1
141 91 1
149 91 1
191 91 1
197 91 1
241 91 1
243 91 1
51 92 1
67 92 1
142 92 1
150 92 1
192 92 1
198 92 1
242 92 1
244 92 1
52 93 1
68 93 1
126 93 1
143 93 1
193 93 1
199 93 1
243 93 1
245 93 1
53 94 1
69 94 1
127 94 1
144 94 1
194 94 1
200 94 1
244 94 1
246 94 1
54 95 1
70 95 1
128 95 1
145 95 1
176 95 1
195 95 1
245 95 1
247 95 1
55 96 1
71 96 1
129 96 1
146 96 1
177 96 1
196 96 1
246 96 1
248 96 1
56 97 1
72 97 1
130 97 1
147 97 1
178 97 1
197 97 1
247 97 1
249 97 1
57 98 1
73 98 1
131 98 1
148 98 1
179 98 1
198 98 1
248 98 1
250 98 1
58 99 1
74 99 1
132 99 1
149 99 1
180 99 1
199 99 1
226 99 1
249 99 1
59 100 1
75 100 1
133 100 1
150 100 1
181 100 1
200 100 1
227 100 1
250 100 1
76 101 1
85 101 1
151 101 1
159 101 1
201 101 1
207 101 1
226 101 1
230 101 1
77 102 1
86 102 1
152 102 1
160 102 1
202 102 1
208 102 1
227 102 1
231 102 1
78 103 1
87 103 1
153 103 1
161 103 1
203 103 1
209 103 1
228 103 1
232 103 1
79 104 1
88 104 1
154 104 1
162 104 1
204 104 1
210 104 1
229 104 1
233 104 1
80 105 1
89 105 1
155 105 1
163 105 1
205 105 1
211 105 1
230 105 1
234 105 1
81 106 1
90 106 1
156 106 1
164 106 1
206 106 1
212 106 1
231 106 1
235 106 1
82 107 1
91 107 1
157 107 1
165 107 1
207 107 1
213 107 1
232 107 1
236 107 1
83 108 1
92 108 1
158 108 1
166 108 1
208 108 1
214 108 1
233 108 1
237 108 1
84 109 1
93 109 1
159 109 1
167 109 1
209 109 1
215 109 1
234 109 1
238 109 1
85 110 1
94 110 1
160 110 1
168 110 1
210 110 1
216 110 1
235 110 1
239 110 1
86 111 1
95 111 1
161 111 1
169 111 1
211 111 1
217 111 1
236 111 1
240 111 1
87 112 1
96 112 1
162 112 1
170 112 1
212 112 1
218 112 1
237 112 1
241 112 1
88 113 1
97 113 1
163 113 1
171 113 1
213 113 1
219 113 1
238 113 1
242 113 1
89 114 1
98 114 1
164 114 1
172 114 1
214 114 1
220 114 1
239 114 1
243 114 1
90 115 1
99 115 1
165 115 1
173 115 1
215 115 1
221 115 1
240 115 1
244 115 1
91 116 1
100 116 1
166 116 1
174 116 1
216 116 1
222 116 1
241 116 1
245 116 1
76 117 1
92 117 1
167 117 1
175 117 1
217 117 1
223 117 1
242 117 1
246 117 1
77 118 1
93 118 1
151 118 1
168 118 1
218 118 1
224 118 1
243 118 1
247 118 1
78 119 1
94 119 1
152 119 1
169 119 1
219 119 1
225 119 1
244 119 1
248 119 1
79 120 1
95 120 1
153 120 1
170 120 1
201 120 1
220 120 1
245 120 1
249 120 1
80 121 1
96 121 1
154 121 1
171 121 1
202 121 1
221 121 1
246 121 1
250 121 1
81 122 1
97 122 1
155 122 1
172 122 1
203 122 1
222 122 1
226 122 1
247 122 1
82 123 1
98 123 1
156 123 1
173 123 1
204 123 1
223 123 1
227 123 1
248 123 1
83 124 1
99 124 1
157 124 1
174 124 1
205 124 1
224 124 1
228 124 1
249 124 1
84 125 1
100 125 1
158 125 1
175 125 1
206 125 1
225 125 1
229 125 1
250 125 1
1 126 1
19 126 1
251 126 1
257 126 1
276 126 1
280 126 1
301 126 1
303 126 1
2 127 1
20 127 1
252 127 1
258 127 1
277 127 1
281 127 1
302 127 1
304 127 1
3 128 1
21 128 1
253 128 1
259 128 1
278 128 1
282 128 1
303 128 1
305 128 1
4 129 1
22 129 1
254 129 1
260 129 1
279 129 1
283 129 1
304 129 1
306 129 1
5 130 1
23 130 1
255 130 1
261 130 1
280 130 1
284 130 1
305 130 1
307 130 1
6 131 1
24 131 1
256 131 1
262 131 1
281 131 1
285 131 1
306 131 1
308 131 1
7 132 1
25 132 1
257 132 1
263 132 1
282 132 1
286 132 1
307 132 1
309 132 1
1 133 1
8 133 1
258 133 1
264 133 1
283 133 1
287 133 1
308 133 1
310 133 1
2 134 1
9 134 1
259 134 1
265 134 1
284 134 1
288 134 1
309 134 1
311 134 1
3 135 1
10 135 1
260 135 1
266 135 1
285 135 1
289 135 1
310 135 1
312 135 1
4 136 1
11 136 1
261 136 1
267 136 1
286 136 1
290 136 1
311 136 1
313 136 1
5 137 1
12 137 1
262 137 1
268 137 1
287 137 1
291 137 1
312 137 1
314 137 1
6 138 1
13 138 1
263 138 1
269 138 1
288 138 1
292 138 1
313 138 1
315 138 1
7 139 1
14 139 1
264 139 1
270 139 1
289 139 1
293 139 1
314 139 1
316 139 1
8 140 1
15 140 1
265 140 1
271 140 1
290 140 1
294 140 1
315 140 1
317 140 1
9 141 1
16 141 1
266 141 1
272 141 1
291 141 1
295 141 1
316 141 1
318 141 1
10 142 1
17 142 1
267 142 1
273 142 1
292 142 1
296 142 1
317 142 1
319 142 1
11 143 1
18 143 1
268 143 1
274 143 1
293 143 1
297 143 1
318 143 1
320 143 1
12 144 1
19 144 1
269 144 1
275 144 1
294 144 1
298 144 1
319 144 1
321 144 1
13 145 1
20 145 1
251 145 1
270 145 1
295 145 1
299 145 1
320 145 1
322 145 1
14 146 1
21 146 1
252 146 1
271 146 1
296 146 1
300 146 1
321 146 1
323 146 1
15 147 1
22 147 1
253 147 1
272 147 1
276 147 1
297 147 1
322 147 1
324 147 1
16 148 1
23 148 1
254 148 1
273 148 1
277 148 1
298 148 1
323 148 1
325 148 1
17 149 1
24 149 1
255 149 1
274 149 1
278 149 1
299 149 1
301 149 1
324 149 1
18 150 1
25 150 1
256 150 1
275 150 1
279 150 1
300 150 1
302 150 1
325 150 1
26 151 1
44 151 1
251 151 1
259 151 1
326 151 1
330 151 1
351 151 1
353 151 1
27 152 1
45 152 1
252 152 1
260 152 1
327 152 1
331 152 1
352 152 1
354 152 1
28 153 1
46 153 1
253 153 1
261 153 1
328 153 1
332 153 1
353 153 1
355 153 1
29 154 1
47 154 1
254 154 1
262 154 1
329 154 1
333 154 1
354 154 1
356 154 1
30 155 1
48 155 1
255 155 1
263 155 1
330 155 1
334 155 1
355 155 1
357 155 1
31 156 1
49 156 1
256 156 1
264 156 1
331 156 1
335 156 1
356 156 1
358 156 1
32 157 1
50 157 1
257 157 1
265 157 1
332 157 1
336 157 1
357 157 1
359 157 1
26 158 1
33 158 1
258 158 1
266 158 1
333 158 1
337 158 1
358 158 1
360 158 1
27 159 1
34 159 1
259 159 1
267 159 1
334 159 1
338 159 1
359 159 1
361 159 1
28 160 1
35 160 1
260 160 1
268 160 1
335 160 1
339 160 1
360 160 1
362 160 1
29 161 1
36 161 1
261 161 1
269 161 1
336 161 1
340 161 1
361 161 1
363 161 1
30 162 1
37 162 1
262 162 1
270 162 1
337 162 1
341 162 1
362 162 1
364 162 1
31 163 1
38 163 1
263 163 1
271 163 1
338 163 1
342 163 1
363 163 1
365 163 1
32 164 1
39 164 1
264 164 1
272 164 1
339 164 1
343 164 1
364 164 1
366 164 1
33 165 1
40 165 1
265 165 1
273 165 1
340 165 1
344 165 1
365 165 1
367 165 1
34 166 1
41 166 1
266 166 1
274 166 1
341 166 1
345 166 1
366 166 1
368 166 1
35 167 1
42 167 1
267 167 1
275 167 1
342 167 1
346 167 1
367 167 1
369 167 1
36 168 1
43 168 1
251 168 1
268 168 1
343 168 1
347 168 1
368 168 1
370 168 1
37 169 1
44 169 1
252 169 1
269 169 1
344 169 1
348 169 1
369 169 1
371 169 1
38 170 1
45 170 1
253 170 1
270 170 1
345 170 1
349 170 1
370 170 1
372 170 1
39 171 1
46 171 1
254 171 1
271 171 1
346 171 1
350 171 1
371 171 1
373 171 1
40 172 1
47 172 1
255 172 1
272 172 1
326 172 1
347 172 1
372 172 1
374 172 1
41 173 1
48 173 1
256 173 1
273 173 1
327 173 1
348 173 1
373 173 1
375 173 1
42 174 1
49 174 1
257 174 1
274 174 1
328 174 1
349 174 1
351 174 1
374 174 1
43 175 1
50 175 1
258 175 1
275 175 1
329 175 1
350 175 1
352 175 1
375 175 1
51 176 1
69 176 1
276 176 1
284 176 1
326 176 1
332 176 1
376 176 1
378 176 1
52 177 1
70 177 1
277 177 1
285 177 1
327 177 1
333 177 1
377 177 1
379 177 1
53 178 1
71 178 1
278 178 1
286 178 1
328 178 1
334 178 1
378 178 1
380 178 1
54 179 1
72 179 1
279 179 1
287 179 1
329 179 1
335 179 1
379 179 1
381 179 1
55 180 1
73 180 1
280 180 1
288 180 1
330 180 1
336 180 1
380 180 1
382 180 1
56 181 1
74 181 1
281 181 1
289 181 1
331 181 1
337 181 1
381 181 1
383 181 1
57 182 1
75 182 1
282 182 1
290 182 1
332 182 1
338 182 1
382 182 1
384 182 1
51 183 1
58 183 1
283 183 1
291 183 1
333 183 1
339 183 1
383 183 1
385 183 1
52 184 1
59 184 1
284 184 1
292 184 1
334 184 1
340 184 1
384 184 1
386 184 1
53 185 1
60 185 1
285 185 1
293 185 1
335 185 1
341 185 1
385 185 1
387 185 1
54 186 1
61 186 1
286 186 1
294 186 1
336 186 1
342 186 1
386 186 1
388 186 1
55 187 1
62 187 1
287 187 1
295 187 1
337 187 1
343 187 1
387 187 1
389 187 1
56 188 1
63 188 1
288 188 1
296 188 1
338 188 1
344 188 1
388 188 1
390 188 1
57 189 1
64 189 1
289 189 1
297 189 1
339 189 1
345 189 1
389 189 1
391 189 1
58 190 1
65 190 1
290 190 1
298 190 1
340 190 1
346 190 1
390 190 1
392 190 1
59 191 1
66 191 1
291 191 1
299 191 1
341 191 1
347 191 1
391 191 1
393 191 1
60 192 1
67 192 1
292 192 1
300 192 1
342 192 1
348 192 1
392 192 1
394 192 1
61 193 1
68 193 1
276 193 1
293 193 1
343 193 1
349 193 1
393 193 1
395 193 1
62 194 1
69 194 1
277 194 1
294 194 1
344 194 1
350 194 1
394 194 1
396 194 1
63 195 1
70 195 1
278 195 1
295 195 1
326 195 1
345 195 1
395 195 1
397 195 1
64 196 1
71 196 1
279 196 1
296 196 1
327 196 1
346 196 1
396 196 1
398 196 1
65 197 1
72 197 1
280 197 1
297 197 1
328 197 1
347 197 1
397 197 1
399 197 1
66 198 1
73 198 1
281 198 1
298 198 1
329 198 1
348 198 1
398 198 1
400 198 1
67 199 1
74 199 1
282 199 1
299 199 1
330 199 1
349 199 1
376 199 1
399 199 1
68 200 1
75 200 1
283 200 1
300 200 1
331 200 1
350 200 1
377 200 1
400 200 1
76 201 1
94 201 1
301 201 1
309 201 1
351 201 1
357 201 1
376 201 1
380 201 1
77 202 1
95 202 1
302 202 1
310 202 1
352 202 1
358 202 1
377 202 1
381 202 1
78 203 1
96 203 1
303 203 1
311 203 1
353 203 1
359 203 1
378 203 1
382 203 1
79 204 1
97 204 1
304 204 1
312 204 1
354 204 1
360 204 1
379 204 1
383 204 1
80 205 1
98 205 1
305 205 1
313 205 1
355 205 1
361 205 1
380 205 1
384 205 1
81 206 1
99 206 1
306 206 1
314 206 1
356 206 1
362 206 1
381 206 1
385 206 1
82 207 1
100 207 1
307 207 1
315 207 1
357 207 1
363 207 1
382 207 1
386 207 1
76 208 1
83 208 1
308 208 1
316 208 1
358 208 1
364 208 1
383 208 1
387 208 1
77 209 1
84 209 1
309 209 1
317 209 1
359 209 1
365 209 1
384 209 1
388 209 1
78 210 1
85 210 1
310 210 1
318 210 1
360 210 1
366 210 1
385 210 1
389 210 1
79 211 1
86 211 1
311 211 1
319 211 1
361 211 1
367 211 1
386 211 1
390 211 1
80 212 1
87 212 1
312 212 1
320 212 1
362 212 1
368 212 1
387 212 1
391 212 1
81 213 1
88 213 1
313 213 1
321 213 1
363 213 1
369 213 1
388 213 1
392 213 1
82 214 1
89 214 1
314 214 1
322 214 1
364 214 1
370 214 1
389 214 1
393 214 1
83 215 1
90 215 1
315 215 1
323 215 1
365 215 1
371 215 1
390 215 1
394 215 1
84 216 1
91 216 1
316 216 1
324 216 1
366 216 1
372 216 1
391 216 1
395 216 1
85 217 1
92 217 1
317 217 1
325 217 1
367 217 1
373 217 1
392 217 1
396 217 1
86 218 1
93 218 1
301 218 1
318 218 1
368 218 1
374 218 1
393 218 1
397 218 1
87 219 1
94 219 1
302 219 1
319 219 1
369 219 1
375 219 1
394 219 1
398 219 1
88 220 1
95 220 1
303 220 1
320 220 1
351 220 1
370 220 1
395 220 1
399 220 1
89 221 1
96 221 1
304 221 1
321 221 1
352 221 1
371 221 1
396 221 1
400 221 1
90 222 1
97 222 1
305 222 1
322 222 1
353 222 1
372 222 1
376 222 1
397 222 1
91 223 1
98 223 1
306 223 1
323 223 1
354 223 1
373 223 1
377 223 1
398 223 1
92 224 1
99 224 1
307 224 1
324 224 1
355 224 1
374 224 1
378 224 1
399 224 1
93 225 1
100 225 1
308 225 1
325 225 1
356 225 1
375 225 1
379 225 1
400 225 1
101 226 1
119 226 1
251 226 1
260 226 1
401 226 1
405 226 1
426 226 1
428 226 1
102 227 1
120 227 1
252 227 1
261 227 1
402 227 1
406 227 1
427 227 1
429 227 1
103 228 1
121 228 1
253 228 1
262 228 1
403 228 1
407 228 1
428 228 1
430 228 1
104 229 1
122 229 1
254 229 1
263 229 1
404 229 1
408 229 1
429 229 1
431 229 1
105 230 1
123 230 1
255 230 1
264 230 1
405 230 1
409 230 1
430 230 1
432 230 1
106 231 1
124 231 1
256 231 1
265 231 1
406 231 1
410 231 1
431 231 1
433 231 1
107 232 1
125 232 1
257 232 1
266 232 1
407 232 1
411 232 1
432 232 1
434 232 1
101 233 1
108 233 1
258 233 1
267 233 1
408 233 1
412 233 1
433 233 1
435 233 1
102 234 1
109 234 1
259 234 1
268 234 1
409 234 1
413 234 1
434 234 1
436 234 1
103 235 1
110 235 1
260 235 1
269 235 1
410 235 1
414 235 1
435 235 1
437 235 1
104 236 1
111 236 1
261 236 1
270 236 1
411 236 1
415 236 1
436 236 1
438 236 1
105 237 1
112 237 1
262 237 1
271 237 1
412 237 1
416 237 1
437 237 1
439 237 1
106 238 1
113 238 1
263 238 1
272 238 1
413 238 1
417 238 1
438 238 1
440 238 1
107 239 1
114 239 1
264 239 1
273 239 1
414 239 1
418 239 1
439 239 1
441 239 1
108 240 1
115 240 1
265 240 1
274 240 1
415 240 1
419 240 1
440 240 1
442 240 1
109 241 1
116 241 1
266 241 1
275 241 1
416 241 1
420 241 1
441 241 1
443 241 1
110 242 1
117 242 1
251 242 1
267 242 1
417 242 1
421 242 1
442 242 1
444 242 1
111 243 1
118 243 1
252 243 1
268 243 1
418 243 1
422 243 1
443 243 1
445 243 1
112 244 1
119 244 1
253 244 1
269 244 1
419 244 1
423 244 1
444 244 1
446 244 1
113 245 1
120 245 1
254 245 1
270 245 1
420 245 1
424 245 1
445 245 1
447 245 1
114 246 1
121 246 1
255 246 1
271 246 1
421 246 1
425 246 1
446 246 1
448 246 1
115 247 1
122 247 1
256 247 1
272 247 1
401 247 1
422 247 1
447 247 1
449 247 1
116 248 1
123 248 1
257 248 1
273 248 1
402 248 1
423 248 1
448 248 1
450 248 1
117 249 1
124 249 1
258 249 1
274 249 1
403 249 1
424 249 1
426 249 1
449 249 1
118 250 1
125 250 1
259 250 1
275 250 1
404 250 1
425 250 1
427 250 1
450 250 1
126 251 1
144 251 1
276 251 1
285 251 1
401 251 1
407 251 1
451 251 1
453 251 1
127 252 1
145 252 1
277 252 1
286 252 1
402 252 1
408 252 1
452 252 1
454 252 1
128 253 1
146 253 1
278 253 1
287 253 1
403 253 1
409 253 1
453 253 1
455 253 1
129 254 1
147 254 1
279 254 1
288 254 1
404 254 1
410 254 1
454 254 1
456 254 1
130 255 1
148 255 1
280 255 1
289 255 1
405 255 1
411 255 1
455 255 1
457 255 1
131 256 1
149 256 1
281 256 1
290 256 1
406 256 1
412 256 1
456 256 1
458 256 1
132 257 1
150 257 1
282 257 1
291 257 1
407 257 1
413 257 1
457 257 1
459 257 1
126 258 1
133 258 1
283 258 1
292 258 1
408 258 1
414 258 1
458 258 1
460 258 1
127 259 1
134 259 1
284 259 1
293 259 1
409 259 1
415 259 1
459 259 1
461 259 1
128 260 1
135 260 1
285 260 1
294 260 1
410 260 1
416 260 1
460 260 1
462 260 1
129 261 1
136 261 1
286 261 1
295 261 1
411 261 1
417 261 1
461 261 1
463 261 1
130 262 1
137 262 1
287 262 1
296 262 1
412 262 1
418 262 1
462 262 1
464 262 1
131 263 1
138 263 1
288 263 1
297 263 1
413 263 1
419 263 1
463 263 1
465 263 1
132 264 1
139 264 1
289 264 1
298 264 1
414 264 1
420 264 1
464 264 1
466 264 1
133 265 1
140 265 1
290 265 1
299 265 1
415 265 1
421 265 1
465 265 1
467 265 1
134 266 1
141 266 1
291 266 1
300 266 1
416 266 1
422 266 1
466 266 1
468 266 1
135 267 1
142 267 1
276 267 1
292 267 1
417 267 1
423 267 1
467 267 1
469 267 1
136 268 1
143 268 1
277 268 1
293 268 1
418 268 1
424 268 1
468 268 1
470 268 1
137 269 1
144 269 1
278 269 1
294 269 1
419 269 1
425 269 1
469 269 1
471 269 1
138 270 1
145 270 1
279 270 1
295 270 1
401 270 1
420 270 1
470 270 1
472 270 1
139 271 1
146 271 1
280 271 1
296 271 1
402 271 1
421 271 1
471 271 1
473 271 1
140 272 1
147 272 1
281 272 1
297 272 1
403 272 1
422 272 1
472 272 1
474 272 1
141 273 1
148 273 1
282 273 1
298 273 1
404 273 1
423 273 1
473 273 1
475 273 1
142 274 1
149 274 1
283 274 1
299 274 1
405 274 1
424 274 1
451 274 1
474 274 1
143 275 1
150 275 1
284 275 1
300 275 1
406 275 1
425 275 1
452 275 1
475 275 1
151 276 1
169 276 1
301 276 1
310 276 1
426 276 1
432 276 1
451 276 1
455 276 1
152 277 1
170 277 1
302 277 1
311 277 1
427 277 1
433 277 1
452 277 1
456 277 1
153 278 1
171 278 1
303 278 1
312 278 1
428 278 1
434 278 1
453 278 1
457 278 1
154 279 1
172 279 1
304 279 1
313 279 1
429 279 1
435 279 1
454 279 1
458 279 1
155 280 1
173 280 1
305 280 1
314 280 1
430 280 1
436 280 1
455 280 1
459 280 1
156 281 1
174 281 1
306 281 1
315 281 1
431 281 1
437 281 1
456 281 1
460 281 1
157 282 1
175 282 1
307 282 1
316 282 1
432 282 1
438 282 1
457 282 1
461 282 1
151 283 1
158 283 1
308 283 1
317 283 1
433 283 1
439 283 1
458 283 1
462 283 1
152 284 1
159 284 1
309 284 1
318 284 1
434 284 1
440 284 1
459 284 1
463 284 1
153 285 1
160 285 1
310 285 1
319 285 1
435 285 1
441 285 1
460 285 1
464 285 1
154 286 1
161 286 1
311 286 1
320 286 1
436 286 1
442 286 1
461 286 1
465 286 1
155 287 1
162 287 1
312 287 1
321 287 1
437 287 1
443 287 1
462 287 1
466 287 1
156 288 1
163 288 1
313 288 1
322 288 1
438 288 1
444 288 1
463 288 1
467 288 1
157 289 1
164 289 1
314 289 1
323 289 1
439 289 1
445 289 1
464 289 1
468 289 1
158 290 1
165 290 1
315 290 1
324 290 1
440 290 1
446 290 1
465 290 1
469 290 1
159 291 1
166 291 1
316 291 1
325 291 1
441 291 1
447 291 1
466 291 1
470 291 1
160 292 1
167 292 1
301 292 1
317 292 1
442 292 1
448 292 1
467 292 1
471 292 1
161 293 1
168 293 1
302 293 1
318 293 1
443 293 1
449 293 1
468 293 1
472 293 1
162 294 1
169 294 1
303 294 1
319 294 1
444 294 1
450 294 1
469 294 1
473 294 1
163 295 1
170 295 1
304 295 1
320 295 1
426 295 1
445 295 1
470 295 1
474 295 1
164 296 1
171 296 1
305 296 1
321 296 1
427 296 1
446 296 1
471 296 1
475 296 1
165 297 1
172 297 1
306 297 1
322 297 1
428 297 1
447 297 1
451 297 1
472 297 1
166 298 1
173 298 1
307 298 1
323 298 1
429 298 1
448 298 1
452 298 1
473 298 1
167 299 1
174 299 1
308 299 1
324 299 1
430 299 1
449 299 1
453 299 1
474 299 1
168 300 1
175 300 1
309 300 1
325 300 1
431 300 1
450 300 1
454 300 1
475 300 1
176 301 1
194 301 1
326 301 1
335 301 1
401 301 1
409 301 1
476 301 1
478 301 1
177 302 1
195 302 1
327 302 1
336 302 1
402 302 1
410 302 1
477 302 1
479 302 1
178 303 1
196 303 1
328 303 1
337 303 1
403 303 1
411 303 1
478 303 1
480 303 1
179 304 1
197 304 1
329 304 1
338 304 1
404 304 1
412 304 1
479 304 1
481 304 1
180 305 1
198 305 1
330 305 1
339 305 1
405 305 1
413 305 1
480 305 1
482 305 1
181 306 1
199 306 1
331 306 1
340 306 1
406 306 1
414 306 1
481 306 1
483 306 1
182 307 1
200 307 1
332 307 1
341 307 1
407 307 1
415 307 1
482 307 1
484 307 1
176 308 1
183 308 1
333 308 1
342 308 1
408 308 1
416 308 1
483 308 1
485 308 1
177 309 1
184 309 1
334 309 1
343 309 1
409 309 1
417 309 1
484 309 1
486 309 1
178 310 1
185 310 1
335 310 1
344 310 1
410 310 1
418 310 1
485 310 1
487 310 1
179 311 1
186 311 1
336 311 1
345 311 1
411 311 1
419 311 1
486 311 1
488 311 1
180 312 1
187 312 1
337 312 1
346 312 1
412 312 1
420 312 1
487 312 1
489 312 1
181 313 1
188 313 1
338 313 1
347 313 1
413 313 1
421 313 1
488 313 1
490 313 1
182 314 1
189 314 1
339 314 1
348 314 1
414 314 1
422 314 1
489 314 1
491 314 1
183 315 1
190 315 1
340 315 1
349 315 1
415 315 1
423 315 1
490 315 1
492 315 1
184 316 1
191 316 1
341 316 1
350 316 1
416 316 1
424 316 1
491 316 1
493 316 1
185 317 1
192 317 1
326 317 1
342 317 1
417 317 1
425 317 1
492 317 1
494 317 1
186 318 1
193 318 1
327 318 1
343 318 1
401 318 1
418 318 1
493 318 1
495 318 1
187 319 1
194 319 1
328 319 1
344 319 1
402 319 1
419 319 1
494 319 1
496 319 1
188 320 1
195 320 1
329 320 1
345 320 1
403 320 1
420 320 1
495 320 1
497 320 1
189 321 1
196 321 1
330 321 1
346 321 1
404 321 1
421 321 1
496 321 1
498 321 1
190 322 1
197 322 1
331 322 1
347 322 1
405 322 1
422 322 1
497 322 1
499 322 1
191 323 1
198 323 1
332 323 1
348 323 1
406 323 1
423 323 1
498 323 1
500 323 1
192 324 1
199 324 1
333 324 1
349 324 1
407 324 1
424 324 1
476 324 1
499 324 1
193 325 1
200 325 1
334 325 1
350 325 1
408 325 1
425 325 1
477 325 1
500 325 1
201 326 1
219 326 1
351 326 1
360 326 1
426 326 1
434 326 1
476 326 1
480 326 1
202 327 1
220 327 1
352 327 1
361 327 1
427 327 1
435 327 1
477 327 1
481 327 1
203 328 1
221 328 1
353 328 1
362 328 1
428 328 1
436 328 1
478 328 1
482 328 1
204 329 1
222 329 1
354 329 1
363 329 1
429 329 1
437 329 1
479 329 1
483 329 1
205 330 1
223 330 1
355 330 1
364 330 1
430 330 1
438 330 1
480 330 1
484 330 1
206 331 1
224 331 1
356 331 1
365 331 1
431 331 1
439 331 1
481 331 1
485 331 1
207 332 1
225 332 1
357 332 1
366 332 1
432 332 1
440 332 1
482 332 1
486 332 1
201 333 1
208 333 1
358 333 1
367 333 1
433 333 1
441 333 1
483 333 1
487 333 1
202 334 1
209 334 1
359 334 1
368 334 1
434 334 1
442 334 1
484 334 1
488 334 1
203 335 1
210 335 1
360 335 1
369 335 1
435 335 1
443 335 1
485 335 1
489 335 1
204 336 1
211 336 1
361 336 1
370 336 1
436 336 1
444 336 1
486 336 1
490 336 1
205 337 1
212 337 1
362 337 1
371 337 1
437 337 1
445 337 1
487 337 1
491 337 1
206 338 1
213 338 1
363 338 1
372 338 1
438 338 1
446 338 1
488 338 1
492 338 1
207 339 1
214 339 1
364 339 1
373 339 1
439 339 1
447 339 1
489 339 1
493 339 1
208 340 1
215 340 1
365 340 1
374 340 1
440 340 1
448 340 1
490 340 1
494 340 1
209 341 1
216 341 1
366 341 1
375 341 1
441 341 1
449 341 1
491 341 1
495 341 1
210 342 1
217 342 1
351 342 1
367 342 1
442 342 1
450 342 1
492 342 1
496 342 1
211 343 1
218 343 1
352 343 1
368 343 1
426 343 1
443 343 1
493 343 1
497 343 1
212 344 1
219 344 1
353 344 1
369 344 1
427 344 1
444 344 1
494 344 1
498 344 1
213 345 1
220 345 1
354 345 1
370 345 1
428 345 1
445 345 1
495 345 1
499 345 1
214 346 1
221 346 1
355 346 1
371 346 1
429 346 1
446 346 1
496 346 1
500 346 1
215 347 1
222 347 1
356 347 1
372 347 1
430 347 1
447 347 1
476 347 1
497 347 1
216 348 1
223 348 1
357 348 1
373 348 1
431 348 1
448 348 1
477 348 1
498 348 1
217 349 1
224 349 1
358 349 1
374 349 1
432 349 1
449 349 1
478 349 1
499 349 1
218 350 1
225 350 1
359 350 1
375 350 1
433 350 1
450 350 1
479 350 1
500 350 1
226 351 1
244 351 1
376 351 1
385 351 1
451 351 1
459 351 1
476 351 1
482 351 1
227 352 1
245 352 1
377 352 1
386 352 1
452 352 1
460 352 1
477 352 1
483 352 1
228 353 1
246 353 1
378 353 1
387 353 1
453 353 1
461 353 1
478 353 1
484 353 1
229 354 1
247 354 1
379 354 1
388 354 1
454 354 1
462 354 1
479 354 1
485 354 1
230 355 1
248 355 1
380 355 1
389 355 1
455 355 1
463 355 1
480 355 1
486 355 1
231 356 1
249 356 1
381 356 1
390 356 1
456 356 1
464 356 1
481 356 1
487 356 1
232 357 1
250 357 1
382 357 1
391 357 1
457 357 1
465 357 1
482 357 1
488 357 1
226 358 1
233 358 1
383 358 1
392 358 1
458 358 1
466 358 1
483 358 1
489 358 1
227 359 1
234 359 1
384 359 1
393 359 1
459 359 1
467 359 1
484 359 1
490 359 1
228 360 1
235 360 1
385 360 1
394 360 1
460 360 1
468 360 1
485 360 1
491 360 1
229 361 1
236 361 1
386 361 1
395 361 1
461 361 1
469 361 1
486 361 1
492 361 1
230 362 1
237 362 1
387 362 1
396 362 1
462 362 1
470 362 1
487 362 1
493 362 1
231 363 1
238 363 1
388 363 1
397 363 1
463 363 1
471 363 1
488 363 1
494 363 1
232 364 1
239 364 1
389 364 1
398 364 1
464 364 1
472 364 1
489 364 1
495 364 1
233 365 1
240 365 1
390 365 1
399 365 1
465 365 1
473 365 1
490 365 1
496 365 1
234 366 1
241 366 1
391 366 1
400 366 1
466 366 1
474 366 1
491 366 1
497 366 1
235 367 1
242 367 1
376 367 1
392 367 1
467 367 1
475 367 1
492 367 1
498 367 1
236 368 1
243 368 1
377 368 1
393 368 1
451 368 1
468 368 1
493 368 1
499 368 1
237 369 1
244 369 1
378 369 1
394 369 1
452 369 1
469 369 1
494 369 1
500 369 1
238 370 1
245 370 1
379 370 1
395 370 1
453 370 1
470 370 1
476 370 1
495 370 1
239 371 1
246 371 1
380 371 1
396 371 1
454 371 1
471 371 1
477 371 1
496 371 1
240 372 1
247 372 1
381 372 1
397 372 1
455 372 1
472 372 1
478 372 1
497 372 1
241 373 1
248 373 1
382 373 1
398 373 1
456 373 1
473 373 1
479 373 1
498 373 1
242 374 1
249 374 1
383 374 1
399 374 1
457 374 1
474 374 1
480 374 1
499 374 1
243 375 1
250 375 1
384 375 1
400 375 1
458 375 1
475 375 1
481 375 1
500 375 1
1 376 1
21 376 1
501 376 1
507 376 1
526 376 1
530 376 1
551 376 1
553 376 1
2 377 1
22 377 1
502 377 1
508 377 1
527 377 1
531 377 1
552 377 1
554 377 1
3 378 1
23 378 1
503 378 1
509 378 1
528 378 1
532 378 1
553 378 1
555 378 1
4 379 1
24 379 1
504 379 1
510 379 1
529 379 1
533 379 1
554 379 1
556 379 1
5 380 1
25 380 1
505 380 1
511 380 1
530 380 1
534 380 1
555 380 1
557 380 1
1 381 1
6 381 1
506 381 1
512 381 1
531 381 1
535 381 1
556 381 1
558 381 1
2 382 1
7 382 1
507 382 1
513 382 1
532 382 1
536 382 1
557 382 1
559 382 1
3 383 1
8 383 1
508 383 1
514 383 1
533 383 1
537 383 1
558 383 1
560 383 1
4 384 1
9 384 1
509 384 1
515 384 1
534 384 1
538 384 1
559 384 1
561 384 1
5 385 1
10 385 1
510 385 1
516 385 1
535 385 1
539 385 1
560 385 1
562 385 1
6 386 1
11 386 1
511 386 1
517 386 1
536 386 1
540 386 1
561 386 1
563 386 1
7 387 1
12 387 1
512 387 1
518 387 1
537 387 1
541 387 1
562 387 1
564 387 1
8 388 1
13 388 1
513 388 1
519 388 1
538 388 1
542 388 1
563 388 1
565 388 1
9 389 1
14 389 1
514 389 1
520 389 1
539 389 1
543 389 1
564 389 1
566 389 1
10 390 1
15 390 1
515 390 1
521 390 1
540 390 1
544 390 1
565 390 1
567 390 1
11 391 1
16 391 1
516 391 1
522 391 1
541 391 1
545 391 1
566 391 1
568 391 1
12 392 1
17 392 1
517 392 1
523 392 1
542 392 1
546 392 1
567 392 1
569 392 1
13 393 1
18 393 1
518 393 1
524 393 1
543 393 1
547 393 1
568 393 1
570 393 1
14 394 1
19 394 1
519 394 1
525 394 1
544 394 1
548 394 1
569 394 1
571 394 1
15 395 1
20 395 1
501 395 1
520 395 1
545 395 1
549 395 1
570 395 1
572 395 1
16 396 1
21 396 1
502 396 1
521 396 1
546 396 1
550 396 1
571 396 1
573 396 1
17 397 1
22 397 1
503 397 1
522 397 1
526 397 1
547 397 1
572 397 1
574 397 1
18 398 1
23 398 1
504 398 1
523 398 1
527 398 1
548 398 1
573 398 1
575 398 1
19 399 1
24 399 1
505 399 1
524 399 1
528 399 1
549 399 1
551 399 1
574 399 1
20 400 1
25 400 1
506 400 1
525 400 1
529 400 1
550 400 1
552 400 1
575 400 1
26 401 1
46 401 1
501 401 1
509 401 1
576 401 1
580 401 1
601 401 1
603 401 1
27 402 1
47 402 1
502 402 1
510 402 1
577 402 1
581 402 1
602 402 1
604 402 1
28 403 1
48 403 1
503 403 1
511 403 1
578 403 1
582 403 1
603 403 1
605 403 1
29 404 1
49 404 1
504 404 1
512 404 1
579 404 1
583 404 1
604 404 1
606 404 1
30 405 1
50 405 1
505 405 1
513 405 1
580 405 1
584 405 1
605 405 1
607 405 1
26 406 1
31 406 1
506 406 1
514 406 1
581 406 1
585 406 1
606 406 1
608 406 1
27 407 1
32 407 1
507 407 1
515 407 1
582 407 1
586 407 1
607 407 1
609 407 1
28 408 1
33 408 1
508 408 1
516 408 1
583 408 1
587 408 1
608 408 1
610 408 1
29 409 1
34 409 1
509 409 1
517 409 1
584 409 1
588 409 1
609 409 1
611 409 1
30 410 1
35 410 1
510 410 1
518 410 1
585 410 1
589 410 1
610 410 1
612 410 1
31 411 1
36 411 1
511 411 1
519 411 1
586 411 1
590 411 1
611 411 1
613 411 1
32 412 1
37 412 1
512 412 1
520 412 1
587 412 1
591 412 1
612 412 1
614 412 1
33 413 1
38 413 1
513 413 1
521 413 1
588 413 1
592 413 1
613 413 1
615 413 1
34 414 1
39 414 1
514 414 1
522 414 1
589 414 1
593 414 1
614 414 1
616 414 1
35 415 1
40 415 1
515 415 1
523 415 1
590 415 1
594 415 1
615 415 1
617 415 1
36 416 1
41 416 1
516 416 1
524 416 1
591 416 1
595 416 1
616 416 1
618 416 1
37 417 1
42 417 1
517 417 1
525 417 1
592 417 1
596 417 1
617 417 1
619 417 1
38 418 1
43 418 1
501 418 1
518 418 1
593 418 1
597 418 1
618 418 1
620 418 1
39 419 1
44 419 1
502 419 1
519 419 1
594 419 1
598 419 1
619 419 1
621 419 1
40 420 1
45 420 1
503 420 1
520 420 1
595 420 1
599 420 1
620 420 1
622 420 1
41 421 1
46 421 1
504 421 1
521 421 1
596 421 1
600 421 1
621 421 1
623 421 1
42 422 1
47 422 1
505 422 1
522 422 1
576 422 1
597 422 1
622 422 1
624 422 1
43 423 1
48 423 1
506 423 1
523 423 1
577 423 1
598 423 1
623 423 1
625 423 1
44 424 1
49 424 1
507 424 1
524 424 1
578 424 1
599 424 1
601 424 1
624 424 1
45 425 1
50 425 1
508 425 1
525 425 1
579 425 1
600 425 1
602 425 1
625 425 1
51 426 1
71 426 1
526 426 1
534 426 1
576 426 1
582 426 1
626 426 1
628 426 1
52 427 1
72 427 1
527 427 1
535 427 1
577 427 1
583 427 1
627 427 1
629 427 1
53 428 1
73 428 1
528 428 1
536 428 1
578 428 1
584 428 1
628 428 1
630 428 1
54 429 1
74 429 1
529 429 1
537 429 1
579 429 1
585 429 1
629 429 1
631 429 1
55 430 1
75 430 1
530 430 1
538 430 1
580 430 1
586 430 1
630 430 1
632 430 1
51 431 1
56 431 1
531 431 1
539 431 1
581 431 1
587 431 1
631 431 1
633 431 1
52 432 1
57 432 1
532 432 1
540 432 1
582 432 1
588 432 1
632 432 1
634 432 1
53 433 1
58 433 1
533 433 1
541 433 1
583 433 1
589 433 1
633 433 1
635 433 1
54 434 1
59 434 1
534 434 1
542 434 1
584 434 1
590 434 1
634 434 1
636 434 1
55 435 1
60 435 1
535 435 1
543 435 1
585 435 1
591 435 1
635 435 1
637 435 1
56 436 1
61 436 1
536 436 1
544 436 1
586 436 1
592 436 1
636 436 1
638 436 1
57 437 1
62 437 1
537 437 1
545 437 1
587 437 1
593 437 1
637 437 1
639 437 1
58 438 1
63 438 1
538 438 1
546 438 1
588 438 1
594 438 1
638 438 1
640 438 1
59 439 1
64 439 1
539 439 1
547 439 1
589 439 1
595 439 1
639 439 1
641 439 1
60 440 1
65 440 1
540 440 1
548 440 1
590 440 1
596 440 1
640 440 1
642 440 1
61 441 1
66 441 1
541 441 1
549 441 1
591 441 1
597 441 1
641 441 1
643 441 1
62 442 1
67 442 1
542 442 1
550 442 1
592 442 1
598 442 1
642 442 1
644 442 1
63 443 1
68 443 1
526 443 1
543 443 1
593 443 1
599 443 1
643 443 1
645 443 1
64 444 1
69 444 1
527 444 1
544 444 1
594 444 1
600 444 1
644 444 1
646 444 1
65 445 1
70 445 1
528 445 1
545 445 1
576 445 1
595 445 1
645 445 1
647 445 1
66 446 1
71 446 1
529 446 1
546 446 1
577 446 1
596 446 1
646 446 1
648 446 1
67 447 1
72 447 1
530 447 1
547 447 1
578 447 1
597 447 1
647 447 1
649 447 1
68 448 1
73 448 1
531 448 1
548 448 1
579 448 1
598 448 1
648 448 1
650 448 1
69 449 1
74 449 1
532 449 1
549 449 1
580 449 1
599 449 1
626 449 1
649 449 1
70 450 1
75 450 1
533 450 1
550 450 1
581 450 1
600 450 1
627 450 1
650 450 1
76 451 1
96 451 1
551 451 1
559 451 1
601 451 1
607 451 1
626 451 1
630 451 1
77 452 1
97 452 1
552 452 1
560 452 1
602 452 1
608 452 1
627 452 1
631 452 1
78 453 1
98 453 1
553 453 1
561 453 1
603 453 1
609 453 1
628 453 1
632 453 1
79 454 1
99 454 1
554 454 1
562 454 1
604 454 1
610 454 1
629 454 1
633 454 1
80 455 1
100 455 1
555 455 1
563 455 1
605 455 1
611 455 1
630 455 1
634 455 1
76 456 1
81 456 1
556 456 1
564 456 1
606 456 1
612 456 1
631 456 1
635 456 1
77 457 1
82 457 1
557 457 1
565 457 1
607 457 1
613 457 1
632 457 1
636 457 1
78 458 1
83 458 1
558 458 1
566 458 1
608 458 1
614 458 1
633 458 1
637 458 1
79 459 1
84 459 1
559 459 1
567 459 1
609 459 1
615 459 1
634 459 1
638 459 1
80 460 1
85 460 1
560 460 1
568 460 1
610 460 1
616 460 1
635 460 1
639 460 1
81 461 1
86 461 1
561 461 1
569 461 1
611 461 1
617 461 1
636 461 1
640 461 1
82 462 1
87 462 1
562 462 1
570 462 1
612 462 1
618 462 1
637 462 1
641 462 1
83 463 1
88 463 1
563 463 1
571 463 1
613 463 1
619 463 1
638 463 1
642 463 1
84 464 1
89 464 1
564 464 1
572 464 1
614 464 1
620 464 1
639 464 1
643 464 1
85 465 1
90 465 1
565 465 1
573 465 1
615 465 1
621 465 1
640 465 1
644 465 1
86 466 1
91 466 1
566 466 1
574 466 1
616 466 1
622 466 1
641 466 1
645 466 1
87 467 1
92 467 1
567 467 1
575 467 1
617 467 1
623 467 1
642 467 1
646 467 1
88 468 1
93 468 1
551 468 1
568 468 1
618 468 1
624 468 1
643 468 1
647 468 1
89 469 1
94 469 1
552 469 1
569 469 1
619 469 1
625 469 1
644 469 1
648 469 1
90 470 1
95 470 1
553 470 1
570 470 1
601 470 1
620 470 1
645 470 1
649 470 1
91 471 1
96 471 1
554 471 1
571 471 1
602 471 1
621 471 1
646 471 1
650 471 1
92 472 1
97 472 1
555 472 1
572 472 1
603 472 1
622 472 1
626 472 1
647 472 1
93 473 1
98 473 1
556 473 1
573 473 1
604 473 1
623 473 1
627 473 1
648 473 1
94 474 1
99 474 1
557 474 1
574 474 1
605 474 1
624 474 1
628 474 1
649 474 1
95 475 1
100 475 1
558 475 1
575 475 1
606 475 1
625 475 1
629 475 1
650 475 1
101 476 1
121 476 1
501 476 1
510 476 1
651 476 1
655 476 1
676 476 1
678 476 1
102 477 1
122 477 1
502 477 1
511 477 1
652 477 1
656 477 1
677 477 1
679 477 1
103 478 1
123 478 1
503 478 1
512 478 1
653 478 1
657 478 1
678 478 1
680 478 1
104 479 1
124 479 1
504 479 1
513 479 1
654 479 1
658 479 1
679 479 1
681 479 1
105 480 1
125 480 1
505 480 1
514 480 1
655 480 1
659 480 1
680 480 1
682 480 1
101 481 1
106 481 1
506 481 1
515 481 1
656 481 1
660 481 1
681 481 1
683 481 1
102 482 1
107 482 1
507 482 1
516 482 1
657 482 1
661 482 1
682 482 1
684 482 1
103 483 1
108 483 1
508 483 1
517 483 1
658 483 1
662 483 1
683 483 1
685 483 1
104 484 1
109 484 1
509 484 1
518 484 1
659 484 1
663 484 1
684 484 1
686 484 1
105 485 1
110 485 1
510 485 1
519 485 1
660 485 1
664 485 1
685 485 1
687 485 1
106 486 1
111 486 1
511 486 1
520 486 1
661 486 1
665 486 1
686 486 1
688 486 1
107 487 1
112 487 1
512 487 1
521 487 1
662 487 1
666 487 1
687 487 1
689 487 1
108 488 1
113 488 1
513 488 1
522 488 1
663 488 1
667 488 1
688 488 1
690 488 1
109 489 1
114 489 1
514 489 1
523 489 1
664 489 1
668 489 1
689 489 1
691 489 1
110 490 1
115 490 1
515 490 1
524 490 1
665 490 1
669 490 1
690 490 1
692 490 1
111 491 1
116 491 1
516 491 1
525 491 1
666 491 1
670 491 1
691 491 1
693 491 1
112 492 1
117 492 1
501 492 1
517 492 1
667 492 1
671 492 1
692 492 1
694 492 1
113 493 1
118 493 1
502 493 1
518 493 1
668 493 1
672 493 1
693 493 1
695 493 1
114 494 1
119 494 1
503 494 1
519 494 1
669 494 1
673 494 1
694 494 1
696 494 1
115 495 1
120 495 1
504 495 1
520 495 1
670 495 1
674 495 1
695 495 1
697 495 1
116 496 1
121 496 1
505 496 1
521 496 1
671 496 1
675 496 1
696 496 1
698 496 1
117 497 1
122 497 1
506 497 1
522 497 1
651 497 1
672 497 1
697 497 1
699 497 1
118 498 1
123 498 1
507 498 1
523 498 1
652 498 1
673 498 1
698 498 1
700 498 1
119 499 1
124 499 1
508 499 1
524 499 1
653 499 1
674 499 1
676 499 1
699 499 1
120 500 1
125 500 1
509 500 1
525 500 1
654 500 1
675 500 1
677 500 1
700 500 1
126 501 1
146 501 1
526 501 1
535 501 1
651 501 1
657 501 1
701 501 1
703 501 1
127 502 1
147 502 1
527 502 1
536 502 1
652 502 1
658 502 1
702 502 1
704 502 1
128 503 1
148 503 1
528 503 1
537 503 1
653 503 1
659 503 1
703 503 1
705 503 1
129 504 1
149 504 1
529 504 1
538 504 1
654 504 1
660 504 1
704 504 1
706 504 1
130 505 1
150 505 1
530 505 1
539 505 1
655 505 1
661 505 1
705 505 1
707 505 1
126 506 1
131 506 1
531 506 1
540 506 1
656 506 1
662 506 1
706 506 1
708 506 1
127 507 1
132 507 1
532 507 1
541 507 1
657 507 1
663 507 1
707 507 1
709 507 1
128 508 1
133 508 1
533 508 1
542 508 1
658 508 1
664 508 1
708 508 1
710 508 1
129 509 1
134 509 1
534 509 1
543 509 1
659 509 1
665 509 1
709 509 1
711 509 1
130 510 1
135 510 1
535 510 1
544 510 1
660 510 1
666 510 1
710 510 1
712 510 1
131 511 1
136 511 1
536 511 1
545 511 1
661 511 1
667 511 1
711 511 1
713 511 1
132 512 1
137 512 1
537 512 1
546 512 1
662 512 1
668 512 1
712 512 1
714 512 1
133 513 1
138 513 1
538 513 1
547 513 1
663 513 1
669 513 1
713 513 1
715 513 1
134 514 1
139 514 1
539 514 1
548 514 1
664 514 1
670 514 1
714 514 1
716 514 1
135 515 1
140 515 1
540 515 1
549 515 1
665 515 1
671 515 1
715 515 1
717 515 1
136 516 1
141 516 1
541 516 1
550 516 1
666 516 1
672 516 1
716 516 1
718 516 1
137 517 1
142 517 1
526 517 1
542 517 1
667 517 1
673 517 1
717 517 1
719 517 1
138 518 1
143 518 1
527 518 1
543 518 1
668 518 1
674 518 1
718 518 1
720 518 1
139 519 1
144 519 1
528 519 1
544 519 1
669 519 1
675 519 1
719 519 1
721 519 1
140 520 1
145 520 1
529 520 1
545 520 1
651 520 1
670 520 1
720 520 1
722 520 1
141 521 1
146 521 1
530 521 1
546 521 1
652 521 1
671 521 1
721 521 1
723 521 1
142 522 1
147 522 1
531 522 1
547 522 1
653 522 1
672 522 1
722 522 1
724 522 1
143 523 1
148 523 1
532 523 1
548 523 1
654 523 1
673 523 1
723 523 1
725 523 1
144 524 1
149 524 1
533 524 1
549 524 1
655 524 1
674 524 1
701 524 1
724 524 1
145 525 1
150 525 1
534 525 1
550 525 1
656 525 1
675 525 1
702 525 1
725 525 1
151 526 1
171 526 1
551 526 1
560 526 1
676 526 1
682 526 1
701 526 1
705 526 1
152 527 1
172 527 1
552 527 1
561 527 1
677 527 1
683 527 1
702 527 1
706 527 1
153 528 1
173 528 1
553 528 1
562 528 1
678 528 1
684 528 1
703 528 1
707 528 1
154 529 1
174 529 1
554 529 1
563 529 1
679 529 1
685 529 1
704 529 1
708 529 1
155 530 1
175 530 1
555 530 1
564 530 1
680 530 1
686 530 1
705 530 1
709 530 1
151 531 1
156 531 1
556 531 1
565 531 1
681 531 1
687 531 1
706 531 1
710 531 1
152 532 1
157 532 1
557 532 1
566 532 1
682 532 1
688 532 1
707 532 1
711 532 1
153 533 1
158 533 1
558 533 1
567 533 1
683 533 1
689 533 1
708 533 1
712 533 1
154 534 1
159 534 1
559 534 1
568 534 1
684 534 1
690 534 1
709 534 1
713 534 1
155 535 1
160 535 1
560 535 1
569 535 1
685 535 1
691 535 1
710 535 1
714 535 1
156 536 1
161 536 1
561 536 1
570 536 1
686 536 1
692 536 1
711 536 1
715 536 1
157 537 1
162 537 1
562 537 1
571 537 1
687 537 1
693 537 1
712 537 1
716 537 1
158 538 1
163 538 1
563 538 1
572 538 1
688 538 1
694 538 1
713 538 1
717 538 1
159 539 1
164 539 1
564 539 1
573 539 1
689 539 1
695 539 1
714 539 1
718 539 1
160 540 1
165 540 1
565 540 1
574 540 1
690 540 1
696 540 1
715 540 1
719 540 1
161 541 1
166 541 1
566 541 1
575 541 1
691 541 1
697 541 1
716 541 1
720 541 1
162 542 1
167 542 1
551 542 1
567 542 1
692 542 1
698 542 1
717 542 1
721 542 1
163 543 1
168 543 1
552 543 1
568 543 1
693 543 1
699 543 1
718 543 1
722 543 1
164 544 1
169 544 1
553 544 1
569 544 1
694 544 1
700 544 1
719 544 1
723 544 1
165 545 1
170 545 1
554 545 1
570 545 1
676 545 1
695 545 1
720 545 1
724 545 1
166 546 1
171 546 1
555 546 1
571 546 1
677 546 1
696 546 1
721 546 1
725 546 1
167 547 1
172 547 1
556 547 1
572 547 1
678 547 1
697 547 1
701 547 1
722 547 1
168 548 1
173 548 1
557 548 1
573 548 1
679 548 1
698 548 1
702 548 1
723 548 1
169 549 1
174 549 1
558 549 1
574 549 1
680 549 1
699 549 1
703 549 1
724 549 1
170 550 1
175 550 1
559 550 1
575 550 1
681 550 1
700 550 1
704 550 1
725 550 1
176 551 1
196 551 1
576 551 1
585 551 1
651 551 1
659 551 1
726 551 1
728 551 1
177 552 1
197 552 1
577 552 1
586 552 1
652 552 1
660 552 1
727 552 1
729 552 1
178 553 1
198 553 1
578 553 1
587 553 1
653 553 1
661 553 1
728 553 1
730 553 1
179 554 1
199 554 1
579 554 1
588 554 1
654 554 1
662 554 1
729 554 1
731 554 1
180 555 1
200 555 1
580 555 1
589 555 1
655 555 1
663 555 1
730 555 1
732 555 1
176 556 1
181 556 1
581 556 1
590 556 1
656 556 1
664 556 1
731 556 1
733 556 1
177 557 1
182 557 1
582 557 1
591 557 1
657 557 1
665 557 1
732 557 1
734 557 1
178 558 1
183 558 1
583 558 1
592 558 1
658 558 1
666 558 1
733 558 1
735 558 1
179 559 1
184 559 1
584 559 1
593 559 1
659 559 1
667 559 1
734 559 1
736 559 1
180 560 1
185 560 1
585 560 1
594 560 1
660 560 1
668 560 1
735 560 1
737 560 1
181 561 1
186 561 1
586 561 1
595 561 1
661 561 1
669 561 1
736 561 1
738 561 1
182 562 1
187 562 1
587 562 1
596 562 1
662 562 1
670 562 1
737 562 1
739 562 1
183 563 1
188 563 1
588 563 1
597 563 1
663 563 1
671 563 1
738 563 1
740 563 1
184 564 1
189 564 1
589 564 1
598 564 1
664 564 1
672 564 1
739 564 1
741 564 1
185 565 1
190 565 1
590 565 1
599 565 1
665 565 1
673 565 1
740 565 1
742 565 1
186 566 1
191 566 1
591 566 1
600 566 1
666 566 1
674 566 1
741 566 1
743 566 1
187 567 1
192 567 1
576 567 1
592 567 1
667 567 1
675 567 1
742 567 1
744 567 1
188 568 1
193 568 1
577 568 1
593 568 1
651 568 1
668 568 1
743 568 1
745 568 1
189 569 1
194 569 1
578 569 1
594 569 1
652 569 1
669 569 1
744 569 1
746 569 1
190 570 1
195 570 1
579 570 1
595 570 1
653 570 1
670 570 1
745 570 1
747 570 1
191 571 1
196 571 1
580 571 1
596 571 1
654 571 1
671 571 1
746 571 1
748 571 1
192 572 1
197 572 1
581 572 1
597 572 1
655 572 1
672 572 1
747 572 1
749 572 1
193 573 1
198 573 1
582 573 1
598 573 1
656 573 1
673 573 1
748 573 1
750 573 1
194 574 1
199 574 1
583 574 1
599 574 1
657 574 1
674 574 1
726 574 1
749 574 1
195 575 1
200 575 1
584 575 1
600 575 1
658 575 1
675 575 1
727 575 1
750 575 1
201 576 1
221 576 1
601 576 1
610 576 1
676 576 1
684 576 1
726 576 1
730 576 1
202 577 1
222 577 1
602 577 1
611 577 1
677 577 1
685 577 1
727 577 1
731 577 1
203 578 1
223 578 1
603 578 1
612 578 1
678 578 1
686 578 1
728 578 1
732 578 1
204 579 1
224 579 1
604 579 1
613 579 1
679 579 1
687 579 1
729 579 1
733 579 1
205 580 1
225 580 1
605 580 1
614 580 1
680 580 1
688 580 1
730 580 1
734 580 1
201 581 1
206 581 1
606 581 1
615 581 1
681 581 1
689 581 1
731 581 1
735 581 1
202 582 1
207 582 1
607 582 1
616 582 1
682 582 1
690 582 1
732 582 1
736 582 1
203 583 1
208 583 1
608 583 1
617 583 1
683 583 1
691 583 1
733 583 1
737 583 1
204 584 1
209 584 1
609 584 1
618 584 1
684 584 1
692 584 1
734 584 1
738 584 1
205 585 1
210 585 1
610 585 1
619 585 1
685 585 1
693 585 1
735 585 1
739 585 1
206 586 1
211 586 1
611 586 1
620 586 1
686 586 1
694 586 1
736 586 1
740 586 1
207 587 1
212 587 1
612 587 1
621 587 1
687 587 1
695 587 1
737 587 1
741 587 1
208 588 1
213 588 1
613 588 1
622 588 1
688 588 1
696 588 1
738 588 1
742 588 1
209 589 1
214 589 1
614 589 1
623 589 1
689 589 1
697 589 1
739 589 1
743 589 1
210 590 1
215 590 1
615 590 1
624 590 1
690 590 1
698 590 1
740 590 1
744 590 1
211 591 1
216 591 1
616 591 1
625 591 1
691 591 1
699 591 1
741 591 1
745 591 1
212 592 1
217 592 1
601 592 1
617 592 1
692 592 1
700 592 1
742 592 1
746 592 1
213 593 1
218 593 1
602 593 1
618 593 1
676 593 1
693 593 1
743 593 1
747 593 1
214 594 1
219 594 1
603 594 1
619 594 1
677 594 1
694 594 1
744 594 1
748 594 1
215 595 1
220 595 1
604 595 1
620 595 1
678 595 1
695 595 1
745 595 1
749 595 1
216 596 1
221 596 1
605 596 1
621 596 1
679 596 1
696 596 1
746 596 1
750 596 1
217 597 1
222 597 1
606 597 1
622 597 1
680 597 1
697 597 1
726 597 1
747 597 1
218 598 1
223 598 1
607 598 1
623 598 1
681 598 1
698 598 1
727 598 1
748 598 1
219 599 1
224 599 1
608 599 1
624 599 1
682 599 1
699 599 1
728 599 1
749 599 1
220 600 1
225 600 1
609 600 1
625 600 1
683 600 1
700 600 1
729 600 1
750 600 1
226 601 1
246 601 1
626 601 1
635 601 1
701 601 1
709 601 1
726 601 1
732 601 1
227 602 1
247 602 1
627 602 1
636 602 1
702 602 1
710 602 1
727 602 1
733 602 1
228 603 1
248 603 1
628 603 1
637 603 1
703 603 1
711 603 1
728 603 1
734 603 1
229 604 1
249 604 1
629 604 1
638 604 1
704 604 1
712 604 1
729 604 1
735 604 1
230 605 1
250 605 1
630 605 1
639 605 1
705 605 1
713 605 1
730 605 1
736 605 1
226 606 1
231 606 1
631 606 1
640 606 1
706 606 1
714 606 1
731 606 1
737 606 1
227 607 1
232 607 1
632 607 1
641 607 1
707 607 1
715 607 1
732 607 1
738 607 1
228 608 1
233 608 1
633 608 1
642 608 1
708 608 1
716 608 1
733 608 1
739 608 1
229 609 1
234 609 1
634 609 1
643 609 1
709 609 1
717 609 1
734 609 1
740 609 1
230 610 1
235 610 1
635 610 1
644 610 1
710 610 1
718 610 1
735 610 1
741 610 1
231 611 1
236 611 1
636 611 1
645 611 1
711 611 1
719 611 1
736 611 1
742 611 1
232 612 1
237 612 1
637 612 1
646 612 1
712 612 1
720 612 1
737 612 1
743 612 1
233 613 1
238 613 1
638 613 1
647 613 1
713 613 1
721 613 1
738 613 1
744 613 1
234 614 1
239 614 1
639 614 1
648 614 1
714 614 1
722 614 1
739 614 1
745 614 1
235 615 1
240 615 1
640 615 1
649 615 1
715 615 1
723 615 1
740 615 1
746 615 1
236 616 1
241 616 1
641 616 1
650 616 1
716 616 1
724 616 1
741 616 1
747 616 1
237 617 1
242 617 1
626 617 1
642 617 1
717 617 1
725 617 1
742 617 1
748 617 1
238 618 1
243 618 1
627 618 1
643 618 1
701 618 1
718 618 1
743 618 1
749 618 1
239 619 1
244 619 1
628 619 1
644 619 1
702 619 1
719 619 1
744 619 1
750 619 1
240 620 1
245 620 1
629 620 1
645 620 1
703 620 1
720 620 1
726 620 1
745 620 1
241 621 1
246 621 1
630 621 1
646 621 1
704 621 1
721 621 1
727 621 1
746 621 1
242 622 1
247 622 1
631 622 1
647 622 1
705 622 1
722 622 1
728 622 1
747 622 1
243 623 1
248 623 1
632 623 1
648 623 1
706 623 1
723 623 1
729 623 1
748 623 1
244 624 1
249 624 1
633 624 1
649 624 1
707 624 1
724 624 1
730 624 1
749 624 1
245 625 1
250 625 1
634 625 1
650 625 1
708 625 1
725 625 1
731 625 1
750 625 1
251 626 1
271 626 1
501 626 1
519 626 1
751 626 1
755 626 1
776 626 1
778 626 1
252 627 1
272 627 1
502 627 1
520 627 1
752 627 1
756 627 1
777 627 1
779 627 1
253 628 1
273 628 1
503 628 1
521 628 1
753 628 1
757 628 1
778 628 1
780 628 1
254 629 1
274 629 1
504 629 1
522 629 1
754 629 1
758 629 1
779 629 1
781 629 1
255 630 1
275 630 1
505 630 1
523 630 1
755 630 1
759 630 1
780 630 1
782 630 1
251 631 1
256 631 1
506 631 1
524 631 1
756 631 1
760 631 1
781 631 1
783 631 1
252 632 1
257 632 1
507 632 1
525 632 1
757 632 1
761 632 1
782 632 1
784 632 1
253 633 1
258 633 1
501 633 1
508 633 1
758 633 1
762 633 1
783 633 1
785 633 1
254 634 1
259 634 1
502 634 1
509 634 1
759 634 1
763 634 1
784 634 1
786 634 1
255 635 1
260 635 1
503 635 1
510 635 1
760 635 1
764 635 1
785 635 1
787 635 1
256 636 1
261 636 1
504 636 1
511 636 1
761 636 1
765 636 1
786 636 1
788 636 1
257 637 1
262 637 1
505 637 1
512 637 1
762 637 1
766 637 1
787 637 1
789 637 1
258 638 1
263 638 1
506 638 1
513 638 1
763 638 1
767 638 1
788 638 1
790 638 1
259 639 1
264 639 1
507 639 1
514 639 1
764 639 1
768 639 1
789 639 1
791 639 1
260 640 1
265 640 1
508 640 1
515 640 1
765 640 1
769 640 1
790 640 1
792 640 1
261 641 1
266 641 1
509 641 1
516 641 1
766 641 1
770 641 1
791 641 1
793 641 1
262 642 1
267 642 1
510 642 1
517 642 1
767 642 1
771 642 1
792 642 1
794 642 1
263 643 1
268 643 1
511 643 1
518 643 1
768 643 1
772 643 1
793 643 1
795 643 1
264 644 1
269 644 1
512 644 1
519 644 1
769 644 1
773 644 1
794 644 1
796 644 1
265 645 1
270 645 1
513 645 1
520 645 1
770 645 1
774 645 1
795 645 1
797 645 1
266 646 1
271 646 1
514 646 1
521 646 1
771 646 1
775 646 1
796 646 1
798 646 1
267 647 1
272 647 1
515 647 1
522 647 1
751 647 1
772 647 1
797 647 1
799 647 1
268 648 1
273 648 1
516 648 1
523 648 1
752 648 1
773 648 1
798 648 1
800 648 1
269 649 1
274 649 1
517 649 1
524 649 1
753 649 1
774 649 1
776 649 1
799 649 1
270 650 1
275 650 1
518 650 1
525 650 1
754 650 1
775 650 1
777 650 1
800 650 1
276 651 1
296 651 1
526 651 1
544 651 1
751 651 1
757 651 1
801 651 1
803 651 1
277 652 1
297 652 1
527 652 1
545 652 1
752 652 1
758 652 1
802 652 1
804 652 1
278 653 1
298 653 1
528 653 1
546 653 1
753 653 1
759 653 1
803 653 1
805 653 1
279 654 1
299 654 1
529 654 1
547 654 1
754 654 1
760 654 1
804 654 1
806 654 1
280 655 1
300 655 1
530 655 1
548 655 1
755 655 1
761 655 1
805 655 1
807 655 1
276 656 1
281 656 1
531 656 1
549 656 1
756 656 1
762 656 1
806 656 1
808 656 1
277 657 1
282 657 1
532 657 1
550 657 1
757 657 1
763 657 1
807 657 1
809 657 1
278 658 1
283 658 1
526 658 1
533 658 1
758 658 1
764 658 1
808 658 1
810 658 1
279 659 1
284 659 1
527 659 1
534 659 1
759 659 1
765 659 1
809 659 1
811 659 1
280 660 1
285 660 1
528 660 1
535 660 1
760 660 1
766 660 1
810 660 1
812 660 1
281 661 1
286 661 1
529 661 1
536 661 1
761 661 1
767 661 1
811 661 1
813 661 1
282 662 1
287 662 1
530 662 1
537 662 1
762 662 1
768 662 1
812 662 1
814 662 1
283 663 1
288 663 1
531 663 1
538 663 1
763 663 1
769 663 1
813 663 1
815 663 1
284 664 1
289 664 1
532 664 1
539 664 1
764 664 1
770 664 1
814 664 1
816 664 1
285 665 1
290 665 1
533 665 1
540 665 1
765 665 1
771 665 1
815 665 1
817 665 1
286 666 1
291 666 1
534 666 1
541 666 1
766 666 1
772 666 1
816 666 1
818 666 1
287 667 1
292 667 1
535 667 1
542 667 1
767 667 1
773 667 1
817 667 1
819 667 1
288 668 1
293 668 1
536 668 1
543 668 1
768 668 1
774 668 1
818 668 1
820 668 1
289 669 1
294 669 1
537 669 1
544 669 1
769 669 1
775 669 1
819 669 1
821 669 1
290 670 1
295 670 1
538 670 1
545 670 1
751 670 1
770 670 1
820 670 1
822 670 1
291 671 1
296 671 1
539 671 1
546 671 1
752 671 1
771 671 1
821 671 1
823 671 1
292 672 1
297 672 1
540 672 1
547 672 1
753 672 1
772 672 1
822 672 1
824 672 1
293 673 1
298 673 1
541 673 1
548 673 1
754 673 1
773 673 1
823 673 1
825 673 1
294 674 1
299 674 1
542 674 1
549 674 1
755 674 1
774 674 1
801 674 1
824 674 1
295 675 1
300 675 1
543 675 1
550 675 1
756 675 1
775 675 1
802 675 1
825 675 1
301 676 1
321 676 1
551 676 1
569 676 1
776 676 1
782 676 1
801 676 1
805 676 1
302 677 1
322 677 1
552 677 1
570 677 1
777 677 1
783 677 1
802 677 1
806 677 1
303 678 1
323 678 1
553 678 1
571 678 1
778 678 1
784 678 1
803 678 1
807 678 1
304 679 1
324 679 1
554 679 1
572 679 1
779 679 1
785 679 1
804 679 1
808 679 1
305 680 1
325 680 1
555 680 1
573 680 1
780 680 1
786 680 1
805 680 1
809 680 1
301 681 1
306 681 1
556 681 1
574 681 1
781 681 1
787 681 1
806 681 1
810 681 1
302 682 1
307 682 1
557 682 1
575 682 1
782 682 1
788 682 1
807 682 1
811 682 1
303 683 1
308 683 1
551 683 1
558 683 1
783 683 1
789 683 1
808 683 1
812 683 1
304 684 1
309 684 1
552 684 1
559 684 1
784 684 1
790 684 1
809 684 1
813 684 1
305 685 1
310 685 1
553 685 1
560 685 1
785 685 1
791 685 1
810 685 1
814 685 1
306 686 1
311 686 1
554 686 1
561 686 1
786 686 1
792 686 1
811 686 1
815 686 1
307 687 1
312 687 1
555 687 1
562 687 1
787 687 1
793 687 1
812 687 1
816 687 1
308 688 1
313 688 1
556 688 1
563 688 1
788 688 1
794 688 1
813 688 1
817 688 1
309 689 1
314 689 1
557 689 1
564 689 1
789 689 1
795 689 1
814 689 1
818 689 1
310 690 1
315 690 1
558 690 1
565 690 1
790 690 1
796 690 1
815 690 1
819 690 1
311 691 1
316 691 1
559 691 1
566 691 1
791 691 1
797 691 1
816 691 1
820 691 1
312 692 1
317 692 1
560 692 1
567 692 1
792 692 1
798 692 1
817 692 1
821 692 1
313 693 1
318 693 1
561 693 1
568 693 1
793 693 1
799 693 1
818 693 1
822 693 1
314 694 1
319 694 1
562 694 1
569 694 1
794 694 1
800 694 1
819 694 1
823 694 1
315 695 1
320 695 1
563 695 1
570 695 1
776 695 1
795 695 1
820 695 1
824 695 1
316 696 1
321 696 1
564 696 1
571 696 1
777 696 1
796 696 1
821 696 1
825 696 1
317 697 1
322 697 1
565 697 1
572 697 1
778 697 1
797 697 1
801 697 1
822 697 1
318 698 1
323 698 1
566 698 1
573 698 1
779 698 1
798 698 1
802 698 1
823 698 1
319 699 1
324 699 1
567 699 1
574 699 1
780 699 1
799 699 1
803 699 1
824 699 1
320 700 1
325 700 1
568 700 1
575 700 1
781 700 1
800 700 1
804 700 1
825 700 1
326 701 1
346 701 1
576 701 1
594 701 1
751 701 1
759 701 1
826 701 1
828 701 1
327 702 1
347 702 1
577 702 1
595 702 1
752 702 1
760 702 1
827 702 1
829 702 1
328 703 1
348 703 1
578 703 1
596 703 1
753 703 1
761 703 1
828 703 1
830 703 1
329 704 1
349 704 1
579 704 1
597 704 1
754 704 1
762 704 1
829 704 1
831 704 1
330 705 1
350 705 1
580 705 1
598 705 1
755 705 1
763 705 1
830 705 1
832 705 1
326 706 1
331 706 1
581 706 1
599 706 1
756 706 1
764 706 1
831 706 1
833 706 1
327 707 1
332 707 1
582 707 1
600 707 1
757 707 1
765 707 1
832 707 1
834 707 1
328 708 1
333 708 1
576 708 1
583 708 1
758 708 1
766 708 1
833 708 1
835 708 1
329 709 1
334 709 1
577 709 1
584 709 1
759 709 1
767 709 1
834 709 1
836 709 1
330 710 1
335 710 1
578 710 1
585 710 1
760 710 1
768 710 1
835 710 1
837 710 1
331 711 1
336 711 1
579 711 1
586 711 1
761 711 1
769 711 1
836 711 1
838 711 1
332 712 1
337 712 1
580 712 1
587 712 1
762 712 1
770 712 1
837 712 1
839 712 1
333 713 1
338 713 1
581 713 1
588 713 1
763 713 1
771 713 1
838 713 1
840 713 1
334 714 1
339 714 1
582 714 1
589 714 1
764 714 1
772 714 1
839 714 1
841 714 1
335 715 1
340 715 1
583 715 1
590 715 1
765 715 1
773 715 1
840 715 1
842 715 1
336 716 1
341 716 1
584 716 1
591 716 1
766 716 1
774 716 1
841 716 1
843 716 1
337 717 1
342 717 1
585 717 1
592 717 1
767 717 1
775 717 1
842 717 1
844 717 1
338 718 1
343 718 1
586 718 1
593 718 1
751 718 1
768 718 1
843 718 1
845 718 1
339 719 1
344 719 1
587 719 1
594 719 1
752 719 1
769 719 1
844 719 1
846 719 1
340 720 1
345 720 1
588 720 1
595 720 1
753 720 1
770 720 1
845 720 1
847 720 1
341 721 1
346 721 1
589 721 1
596 721 1
754 721 1
771 721 1
846 721 1
848 721 1
342 722 1
347 722 1
590 722 1
597 722 1
755 722 1
772 722 1
847 722 1
849 722 1
343 723 1
348 723 1
591 723 1
598 723 1
756 723 1
773 723 1
848 723 1
850 723 1
344 724 1
349 724 1
592 724 1
599 724 1
757 724 1
774 724 1
826 724 1
849 724 1
345 725 1
350 725 1
593 725 1
600 725 1
758 725 1
775 725 1
827 725 1
850 725 1
351 726 1
371 726 1
601 726 1
619 726 1
776 726 1
784 726 1
826 726 1
830 726 1
352 727 1
372 727 1
602 727 1
620 727 1
777 727 1
785 727 1
827 727 1
831 727 1
353 728 1
373 728 1
603 728 1
621 728 1
778 728 1
786 728 1
828 728 1
832 728 1
354 729 1
374 729 1
604 729 1
622 729 1
779 729 1
787 729 1
829 729 1
833 729 1
355 730 1
375 730 1
605 730 1
623 730 1
780 730 1
788 730 1
830 730 1
834 730 1
351 731 1
356 731 1
606 731 1
624 731 1
781 731 1
789 731 1
831 731 1
835 731 1
352 732 1
357 732 1
607 732 1
625 732 1
782 732 1
790 732 1
832 732 1
836 732 1
353 733 1
358 733 1
601 733 1
608 733 1
783 733 1
791 733 1
833 733 1
837 733 1
354 734 1
359 734 1
602 734 1
609 734 1
784 734 1
792 734 1
834 734 1
838 734 1
355 735 1
360 735 1
603 735 1
610 735 1
785 735 1
793 735 1
835 735 1
839 735 1
356 736 1
361 736 1
604 736 1
611 736 1
786 736 1
794 736 1
836 736 1
840 736 1
357 737 1
362 737 1
605 737 1
612 737 1
787 737 1
795 737 1
837 737 1
841 737 1
358 738 1
363 738 1
606 738 1
613 738 1
788 738 1
796 738 1
838 738 1
842 738 1
359 739 1
364 739 1
607 739 1
614 739 1
789 739 1
797 739 1
839 739 1
843 739 1
360 740 1
365 740 1
608 740 1
615 740 1
790 740 1
798 740 1
840 740 1
844 740 1
361 741 1
366 741 1
609 741 1
616 741 1
791 741 1
799 741 1
841 741 1
845 741 1
362 742 1
367 742 1
610 742 1
617 742 1
792 742 1
800 742 1
842 742 1
846 742 1
363 743 1
368 743 1
611 743 1
618 743 1
776 743 1
793 743 1
843 743 1
847 743 1
364 744 1
369 744 1
612 744 1
619 744 1
777 744 1
794 744 1
844 744 1
848 744 1
365 745 1
370 745 1
613 745 1
620 745 1
778 745 1
795 745 1
845 745 1
849 745 1
366 746 1
371 746 1
614 746 1
621 746 1
779 746 1
796 746 1
846 746 1
850 746 1
367 747 1
372 747 1
615 747 1
622 747 1
780 747 1
797 747 1
826 747 1
847 747 1
368 748 1
373 748 1
616 748 1
623 748 1
781 748 1
798 748 1
827 748 1
848 748 1
369 749 1
374 749 1
617 749 1
624 749 1
782 749 1
799 749 1
828 749 1
849 749 1
370 750 1
375 750 1
618 750 1
625 750 1
783 750 1
800 750 1
829 750 1
850 750 1
376 751 1
396 751 1
626 751 1
644 751 1
801 751 1
809 751 1
826 751 1
832 751 1
377 752 1
397 752 1
627 752 1
645 752 1
802 752 1
810 752 1
827 752 1
833 752 1
378 753 1
398 753 1
628 753 1
646 753 1
803 753 1
811 753 1
828 753 1
834 753 1
379 754 1
399 754 1
629 754 1
647 754 1
804 754 1
812 754 1
829 754 1
835 754 1
380 755 1
400 755 1
630 755 1
648 755 1
805 755 1
813 755 1
830 755 1
836 755 1
376 756 1
381 756 1
631 756 1
649 756 1
806 756 1
814 756 1
831 756 1
837 756 1
377 757 1
382 757 1
632 757 1
650 757 1
807 757 1
815 757 1
832 757 1
838 757 1
378 758 1
383 758 1
626 758 1
633 758 1
808 758 1
816 758 1
833 758 1
839 758 1
379 759 1
384 759 1
627 759 1
634 759 1
809 759 1
817 759 1
834 759 1
840 759 1
380 760 1
385 760 1
628 760 1
635 760 1
810 760 1
818 760 1
835 760 1
841 760 1
381 761 1
386 761 1
629 761 1
636 761 1
811 761 1
819 761 1
836 761 1
842 761 1
382 762 1
387 762 1
630 762 1
637 762 1
812 762 1
820 762 1
837 762 1
843 762 1
383 763 1
388 763 1
631 763 1
638 763 1
813 763 1
821 763 1
838 763 1
844 763 1
384 764 1
389 764 1
632 764 1
639 764 1
814 764 1
822 764 1
839 764 1
845 764 1
385 765 1
390 765 1
633 765 1
640 765 1
815 765 1
823 765 1
840 765 1
846 765 1
386 766 1
391 766 1
634 766 1
641 766 1
816 766 1
824 766 1
841 766 1
847 766 1
387 767 1
392 767 1
635 767 1
642 767 1
817 767 1
825 767 1
842 767 1
848 767 1
388 768 1
393 768 1
636 768 1
643 768 1
801 768 1
818 768 1
843 768 1
849 768 1
389 769 1
394 769 1
637 769 1
644 769 1
802 769 1
819 769 1
844 769 1
850 769 1
390 770 1
395 770 1
638 770 1
645 770 1
803 770 1
820 770 1
826 770 1
845 770 1
391 771 1
396 771 1
639 771 1
646 771 1
804 771 1
821 771 1
827 771 1
846 771 1
392 772 1
397 772 1
640 772 1
647 772 1
805 772 1
822 772 1
828 772 1
847 772 1
393 773 1
398 773 1
641 773 1
648 773 1
806 773 1
823 773 1
829 773 1
848 773 1
394 774 1
399 774 1
642 774 1
649 774 1
807 774 1
824 774 1
830 774 1
849 774 1
395 775 1
400 775 1
643 775 1
650 775 1
808 775 1
825 775 1
831 775 1
850 775 1
401 776 1
421 776 1
651 776 1
669 776 1
751 776 1
760 776 1
851 776 1
853 776 1
402 777 1
422 777 1
652 777 1
670 777 1
752 777 1
761 777 1
852 777 1
854 777 1
403 778 1
423 778 1
653 778 1
671 778 1
753 778 1
762 778 1
853 778 1
855 778 1
404 779 1
424 779 1
654 779 1
672 779 1
754 779 1
763 779 1
854 779 1
856 779 1
405 780 1
425 780 1
655 780 1
673 780 1
755 780 1
764 780 1
855 780 1
857 780 1
401 781 1
406 781 1
656 781 1
674 781 1
756 781 1
765 781 1
856 781 1
858 781 1
402 782 1
407 782 1
657 782 1
675 782 1
757 782 1
766 782 1
857 782 1
859 782 1
403 783 1
408 783 1
651 783 1
658 783 1
758 783 1
767 783 1
858 783 1
860 783 1
404 784 1
409 784 1
652 784 1
659 784 1
759 784 1
768 784 1
859 784 1
861 784 1
405 785 1
410 785 1
653 785 1
660 785 1
760 785 1
769 785 1
860 785 1
862 785 1
406 786 1
411 786 1
654 786 1
661 786 1
761 786 1
770 786 1
861 786 1
863 786 1
407 787 1
412 787 1
655 787 1
662 787 1
762 787 1
771 787 1
862 787 1
864 787 1
408 788 1
413 788 1
656 788 1
663 788 1
763 788 1
772 788 1
863 788 1
865 788 1
409 789 1
414 789 1
657 789 1
664 789 1
764 789 1
773 789 1
864 789 1
866 789 1
410 790 1
415 790 1
658 790 1
665 790 1
765 790 1
774 790 1
865 790 1
867 790 1
411 791 1
416 791 1
659 791 1
666 791 1
766 791 1
775 791 1
866 791 1
868 791 1
412 792 1
417 792 1
660 792 1
667 792 1
751 792 1
767 792 1
867 792 1
869 792 1
413 793 1
418 793 1
661 793 1
668 793 1
752 793 1
768 793 1
868 793 1
870 793 1
414 794 1
419 794 1
662 794 1
669 794 1
753 794 1
769 794 1
869 794 1
871 794 1
415 795 1
420 795 1
663 795 1
670 795 1
754 795 1
770 795 1
870 795 1
872 795 1
416 796 1
421 796 1
664 796 1
671 796 1
755 796 1
771 796 1
871 796 1
873 796 1
417 797 1
422 797 1
665 797 1
672 797 1
756 797 1
772 797 1
872 797 1
874 797 1
418 798 1
423 798 1
666 798 1
673 798 1
757 798 1
773 798 1
873 798 1
875 798 1
419 799 1
424 799 1
667 799 1
674 799 1
758 799 1
774 799 1
851 799 1
874 799 1
420 800 1
425 800 1
668 800 1
675 800 1
759 800 1
775 800 1
852 800 1
875 800 1
426 801 1
446 801 1
676 801 1
694 801 1
776 801 1
785 801 1
851 801 1
855 801 1
427 802 1
447 802 1
677 802 1
695 802 1
777 802 1
786 802 1
852 802 1
856 802 1
428 803 1
448 803 1
678 803 1
696 803 1
778 803 1
787 803 1
853 803 1
857 803 1
429 804 1
449 804 1
679 804 1
697 804 1
779 804 1
788 804 1
854 804 1
858 804 1
430 805 1
450 805 1
680 805 1
698 805 1
780 805 1
789 805 1
855 805 1
859 805 1
426 806 1
431 806 1
681 806 1
699 806 1
781 806 1
790 806 1
856 806 1
860 806 1
427 807 1
432 807 1
682 807 1
700 807 1
782 807 1
791 807 1
857 807 1
861 807 1
428 808 1
433 808 1
676 808 1
683 808 1
783 808 1
792 808 1
858 808 1
862 808 1
429 809 1
434 809 1
677 809 1
684 809 1
784 809 1
793 809 1
859 809 1
863 809 1
430 810 1
435 810 1
678 810 1
685 810 1
785 810 1
794 810 1
860 810 1
864 810 1
431 811 1
436 811 1
679 811 1
686 811 1
786 811 1
795 811 1
861 811 1
865 811 1
432 812 1
437 812 1
680 812 1
687 812 1
787 812 1
796 812 1
862 812 1
866 812 1
433 813 1
438 813 1
681 813 1
688 813 1
788 813 1
797 813 1
863 813 1
867 813 1
434 814 1
439 814 1
682 814 1
689 814 1
789 814 1
798 814 1
864 814 1
868 814 1
435 815 1
440 815 1
683 815 1
690 815 1
790 815 1
799 815 1
865 815 1
869 815 1
436 816 1
441 816 1
684 816 1
691 816 1
791 816 1
800 816 1
866 816 1
870 816 1
437 817 1
442 817 1
685 817 1
692 817 1
776 817 1
792 817 1
867 817 1
871 817 1
438 818 1
443 818 1
686 818 1
693 818 1
777 818 1
793 818 1
868 818 1
872 818 1
439 819 1
444 819 1
687 819 1
694 819 1
778 819 1
794 819 1
869 819 1
873 819 1
440 820 1
445 820 1
688 820 1
695 820 1
779 820 1
795 820 1
870 820 1
874 820 1
441 821 1
446 821 1
689 821 1
696 821 1
780 821 1
796 821 1
871 821 1
875 821 1
442 822 1
447 822 1
690 822 1
697 822 1
781 822 1
797 822 1
851 822 1
872 822 1
443 823 1
448 823 1
691 823 1
698 823 1
782 823 1
798 823 1
852 823 1
873 823 1
444 824 1
449 824 1
692 824 1
699 824 1
783 824 1
799 824 1
853 824 1
874 824 1
445 825 1
450 825 1
693 825 1
700 825 1
784 825 1
800 825 1
854 825 1
875 825 1
451 826 1
471 826 1
701 826 1
719 826 1
801 826 1
810 826 1
851 826 1
857 826 1
452 827 1
472 827 1
702 827 1
720 827 1
802 827 1
811 827 1
852 827 1
858 827 1
453 828 1
473 828 1
703 828 1
721 828 1
803 828 1
812 828 1
853 828 1
859 828 1
454 829 1
474 829 1
704 829 1
722 829 1
804 829 1
813 829 1
854 829 1
860 829 1
455 830 1
475 830 1
705 830 1
723 830 1
805 830 1
814 830 1
855 830 1
861 830 1
451 831 1
456 831 1
706 831 1
724 831 1
806 831 1
815 831 1
856 831 1
862 831 1
452 832 1
457 832 1
707 832 1
725 832 1
807 832 1
816 832 1
857 832 1
863 832 1
453 833 1
458 833 1
701 833 1
708 833 1
808 833 1
817 833 1
858 833 1
864 833 1
454 834 1
459 834 1
702 834 1
709 834 1
809 834 1
818 834 1
859 834 1
865 834 1
455 835 1
460 835 1
703 835 1
710 835 1
810 835 1
819 835 1
860 835 1
866 835 1
456 836 1
461 836 1
704 836 1
711 836 1
811 836 1
820 836 1
861 836 1
867 836 1
457 837 1
462 837 1
705 837 1
712 837 1
812 837 1
821 837 1
862 837 1
868 837 1
458 838 1
463 838 1
706 838 1
713 838 1
813 838 1
822 838 1
863 838 1
869 838 1
459 839 1
464 839 1
707 839 1
714 839 1
814 839 1
823 839 1
864 839 1
870 839 1
460 840 1
465 840 1
708 840 1
715 840 1
815 840 1
824 840 1
865 840 1
871 840 1
461 841 1
466 841 1
709 841 1
716 841 1
816 841 1
825 841 1
866 841 1
872 841 1
462 842 1
467 842 1
710 842 1
717 842 1
801 842 1
817 842 1
867 842 1
873 842 1
463 843 1
468 843 1
711 843 1
718 843 1
802 843 1
818 843 1
868 843 1
874 843 1
464 844 1
469 844 1
712 844 1
719 844 1
803 844 1
819 844 1
869 844 1
875 844 1
465 845 1
470 845 1
713 845 1
720 845 1
804 845 1
820 845 1
851 845 1
870 845 1
466 846 1
471 846 1
714 846 1
721 846 1
805 846 1
821 846 1
852 846 1
871 846 1
467 847 1
472 847 1
715 847 1
722 847 1
806 847 1
822 847 1
853 847 1
872 847 1
468 848 1
473 848 1
716 848 1
723 848 1
807 848 1
823 848 1
854 848 1
873 848 1
469 849 1
474 849 1
717 849 1
724 849 1
808 849 1
824 849 1
855 849 1
874 849 1
470 850 1
475 850 1
718 850 1
725 850 1
809 850 1
825 850 1
856 850 1
875 850 1
476 851 1
496 851 1
726 851 1
744 851 1
826 851 1
835 851 1
851 851 1
859 851 1
477 852 1
497 852 1
727 852 1
745 852 1
827 852 1
836 852 1
852 852 1
860 852 1
478 853 1
498 853 1
728 853 1
746 853 1
828 853 1
837 853 1
853 853 1
861 853 1
479 854 1
499 854 1
729 854 1
747 854 1
829 854 1
838 854 1
854 854 1
862 854 1
480 855 1
500 855 1
730 855 1
748 855 1
830 855 1
839 855 1
855 855 1
863 855 1
476 856 1
481 856 1
731 856 1
749 856 1
831 856 1
840 856 1
856 856 1
864 856 1
477 857 1
482 857 1
732 857 1
750 857 1
832 857 1
841 857 1
857 857 1
865 857 1
478 858 1
483 858 1
726 858 1
733 858 1
833 858 1
842 858 1
858 858 1
866 858 1
479 859 1
484 859 1
727 859 1
734 859 1
834 859 1
843 859 1
859 859 1
867 859 1
480 860 1
485 860 1
728 860 1
735 860 1
835 860 1
844 860 1
860 860 1
868 860 1
481 861 1
486 861 1
729 861 1
736 861 1
836 861 1
845 861 1
861 861 1
869 861 1
482 862 1
487 862 1
730 862 1
737 862 1
837 862 1
846 862 1
862 862 1
870 862 1
483 863 1
488 863 1
731 863 1
738 863 1
838 863 1
847 863 1
863 863 1
871 863 1
484 864 1
489 864 1
732 864 1
739 864 1
839 864 1
848 864 1
864 864 1
872 864 1
485 865 1
490 865 1
733 865 1
740 865 1
840 865 1
849 865 1
865 865 1
873 865 1
486 866 1
491 866 1
734 866 1
741 866 1
841 866 1
850 866 1
866 866 1
874 866 1
487 867 1
492 867 1
735 867 1
742 867 1
826 867 1
842 867 1
867 867 1
875 867 1
488 868 1
493 868 1
736 868 1
743 868 1
827 868 1
843 868 1
851 868 1
868 868 1
489 869 1
494 869 1
737 869 1
744 869 1
828 869 1
844 869 1
852 869 1
869 869 1
490 870 1
495 870 1
738 870 1
745 870 1
829 870 1
845 870 1
853 870 1
870 870 1
491 871 1
496 871 1
739 871 1
746 871 1
830 871 1
846 871 1
854 871 1
871 871 1
492 872 1
497 872 1
740 872 1
747 872 1
831 872 1
847 872 1
855 872 1
872 872 1
493 873 1
498 873 1
741 873 1
748 873 1
832 873 1
848 873 1
856 873 1
873 873 1
494 874 1
499 874 1
742 874 1
749 874 1
833 874 1
849 874 1
857 874 1
874 874 1
495 875 1
500 875 1
743 875 1
750 875 1
834 875 1
850 875 1
858 875 1
875 875 1
1 876 1
23 876 1
876 876 1
882 876 1
901 876 1
905 876 1
926 876 1
928 876 1
2 877 1
24 877 1
877 877 1
883 877 1
902 877 1
906 877 1
927 877 1
929 877 1
3 878 1
25 878 1
878 878 1
884 878 1
903 878 1
907 878 1
928 878 1
930 878 1
1 879 1
4 879 1
879 879 1
885 879 1
904 879 1
908 879 1
929 879 1
931 879 1
2 880 1
5 880 1
880 880 1
886 880 1
905 880 1
909 880 1
930 880 1
932 880 1
3 881 1
6 881 1
881 881 1
887 881 1
906 881 1
910 881 1
931 881 1
933 881 1
4 882 1
7 882 1
882 882 1
888 882 1
907 882 1
911 882 1
932 882 1
934 882 1
5 883 1
8 883 1
883 883 1
889 883 1
908 883 1
912 883 1
933 883 1
935 883 1
6 884 1
9 884 1
884 884 1
890 884 1
909 884 1
913 884 1
934 884 1
936 884 1
7 885 1
10 885 1
885 885 1
891 885 1
910 885 1
914 885 1
935 885 1
937 885 1
8 886 1
11 886 1
886 886 1
892 886 1
911 886 1
915 886 1
936 886 1
938 886 1
9 887 1
12 887 1
887 887 1
893 887 1
912 887 1
916 887 1
937 887 1
939 887 1
10 888 1
13 888 1
888 888 1
894 888 1
913 888 1
917 888 1
938 888 1
940 888 1
11 889 1
14 889 1
889 889 1
895 889 1
914 889 1
918 889 1
939 889 1
941 889 1
12 890 1
15 890 1
890 890 1
896 890 1
915 890 1
919 890 1
940 890 1
942 890 1
13 891 1
16 891 1
891 891 1
897 891 1
916 891 1
920 891 1
941 891 1
943 891 1
14 892 1
17 892 1
892 892 1
898 892 1
917 892 1
921 892 1
942 892 1
944 892 1
15 893 1
18 893 1
893 893 1
899 893 1
918 893 1
922 893 1
943 893 1
945 893 1
16 894 1
19 894 1
894 894 1
900 894 1
919 894 1
923 894 1
944 894 1
946 894 1
17 895 1
20 895 1
876 895 1
895 895 1
920 895 1
924 895 1
945 895 1
947 895 1
18 896 1
21 896 1
877 896 1
896 896 1
921 896 1
925 896 1
946 896 1
948 896 1
19 897 1
22 897 1
878 897 1
897 897 1
901 897 1
922 897 1
947 897 1
949 897 1
20 898 1
23 898 1
879 898 1
898 898 1
902 898 1
923 898 1
948 898 1
950 898 1
21 899 1
24 899 1
880 899 1
899 899 1
903 899 1
924 899 1
926 899 1
949 899 1
22 900 1
25 900 1
881 900 1
900 900 1
904 900 1
925 900 1
927 900 1
950 900 1
26 901 1
48 901 1
876 901 1
884 901 1
951 901 1
955 901 1
976 901 1
978 901 1
27 902 1
49 902 1
877 902 1
885 902 1
952 902 1
956 902 1
977 902 1
979 902 1
28 903 1
50 903 1
878 903 1
886 903 1
953 903 1
957 903 1
978 903 1
980 903 1
26 904 1
29 904 1
879 904 1
887 904 1
954 904 1
958 904 1
979 904 1
981 904 1
27 905 1
30 905 1
880 905 1
888 905 1
955 905 1
959 905 1
980 905 1
982 905 1
28 906 1
31 906 1
881 906 1
889 906 1
956 906 1
960 906 1
981 906 1
983 906 1
29 907 1
32 907 1
882 907 1
890 907 1
957 907 1
961 907 1
982 907 1
984 907 1
30 908 1
33 908 1
883 908 1
891 908 1
958 908 1
962 908 1
983 908 1
985 908 1
31 909 1
34 909 1
884 909 1
892 909 1
959 909 1
963 909 1
984 909 1
986 909 1
32 910 1
35 910 1
885 910 1
893 910 1
960 910 1
964 910 1
985 910 1
987 910 1
33 911 1
36 911 1
886 911 1
894 911 1
961 911 1
965 911 1
986 911 1
988 911 1
34 912 1
37 912 1
887 912 1
895 912 1
962 912 1
966 912 1
987 912 1
989 912 1
35 913 1
38 913 1
888 913 1
896 913 1
963 913 1
967 913 1
988 913 1
990 913 1
36 914 1
39 914 1
889 914 1
897 914 1
964 914 1
968 914 1
989 914 1
991 914 1
37 915 1
40 915 1
890 915 1
898 915 1
965 915 1
969 915 1
990 915 1
992 915 1
38 916 1
41 916 1
891 916 1
899 916 1
966 916 1
970 916 1
991 916 1
993 916 1
39 917 1
42 917 1
892 917 1
900 917 1
967 917 1
971 917 1
992 917 1
994 917 1
40 918 1
43 918 1
876 918 1
893 918 1
968 918 1
972 918 1
993 918 1
995 918 1
41 919 1
44 919 1
877 919 1
894 919 1
969 919 1
973 919 1
994 919 1
996 919 1
42 920 1
45 920 1
878 920 1
895 920 1
970 920 1
974 920 1
995 920 1
997 920 1
43 921 1
46 921 1
879 921 1
896 921 1
971 921 1
975 921 1
996 921 1
998 921 1
44 922 1
47 922 1
880 922 1
897 922 1
951 922 1
972 922 1
997 922 1
999 922 1
45 923 1
48 923 1
881 923 1
898 923 1
952 923 1
973 923 1
998 923 1
1000 923 1
46 924 1
49 924 1
882 924 1
899 924 1
953 924 1
974 924 1
976 924 1
999 924 1
47 925 1
50 925 1
883 925 1
900 925 1
954 925 1
975 925 1
977 925 1
1000 925 1
51 926 1
73 926 1
901 926 1
909 926 1
951 926 1
957 926 1
1001 926 1
1003 926 1
52 927 1
74 927 1
902 927 1
910 927 1
952 927 1
958 927 1
1002 927 1
1004 927 1
53 928 1
75 928 1
903 928 1
911 928 1
953 928 1
959 928 1
1003 928 1
1005 928 1
51 929 1
54 929 1
904 929 1
912 929 1
954 929 1
960 929 1
1004 929 1
1006 929 1
52 930 1
55 930 1
905 930 1
913 930 1
955 930 1
961 930 1
1005 930 1
1007 930 1
53 931 1
56 931 1
906 931 1
914 931 1
956 931 1
962 931 1
1006 931 1
1008 931 1
54 932 1
57 932 1
907 932 1
915 932 1
957 932 1
963 932 1
1007 932 1
1009 932 1
55 933 1
58 933 1
908 933 1
916 933 1
958 933 1
964 933 1
1008 933 1
1010 933 1
56 934 1
59 934 1
909 934 1
917 934 1
959 934 1
965 934 1
1009 934 1
1011 934 1
57 935 1
60 935 1
910 935 1
918 935 1
960 935 1
966 935 1
1010 935 1
1012 935 1
58 936 1
61 936 1
911 936 1
919 936 1
961 936 1
967 936 1
1011 936 1
1013 936 1
59 937 1
62 937 1
912 937 1
920 937 1
962 937 1
968 937 1
1012 937 1
1014 937 1
60 938 1
63 938 1
913 938 1
921 938 1
963 938 1
969 938 1
1013 938 1
1015 938 1
61 939 1
64 939 1
914 939 1
922 939 1
964 939 1
970 939 1
1014 939 1
1016 939 1
62 940 1
65 940 1
915 940 1
923 940 1
965 940 1
971 940 1
1015 940 1
1017 940 1
63 941 1
66 941 1
916 941 1
924 941 1
966 941 1
972 941 1
1016 941 1
1018 941 1
64 942 1
67 942 1
917 942 1
925 942 1
967 942 1
973 942 1
1017 942 1
1019 942 1
65 943 1
68 943 1
901 943 1
918 943 1
968 943 1
974 943 1
1018 943 1
1020 943 1
66 944 1
69 944 1
902 944 1
919 944 1
969 944 1
975 944 1
1019 944 1
1021 944 1
67 945 1
70 945 1
903 945 1
920 945 1
951 945 1
970 945 1
1020 945 1
1022 945 1
68 946 1
71 946 1
904 946 1
921 946 1
952 946 1
971 946 1
1021 946 1
1023 946 1
69 947 1
72 947 1
905 947 1
922 947 1
953 947 1
972 947 1
1022 947 1
1024 947 1
70 948 1
73 948 1
906 948 1
923 948 1
954 948 1
973 948 1
1023 948 1
1025 948 1
71 949 1
74 949 1
907 949 1
924 949 1
955 949 1
974 949 1
1001 949 1
1024 949 1
72 950 1
75 950 1
908 950 1
925 950 1
956 950 1
975 950 1
1002 950 1
1025 950 1
76 951 1
98 951 1
926 951 1
934 951 1
976 951 1
982 951 1
1001 951 1
1005 951 1
77 952 1
99 952 1
927 952 1
935 952 1
977 952 1
983 952 1
1002 952 1
1006 952 1
78 953 1
100 953 1
928 953 1
936 953 1
978 953 1
984 953 1
1003 953 1
1007 953 1
76 954 1
79 954 1
929 954 1
937 954 1
979 954 1
985 954 1
1004 954 1
1008 954 1
77 955 1
80 955 1
930 955 1
938 955 1
980 955 1
986 955 1
1005 955 1
1009 955 1
78 956 1
81 956 1
931 956 1
939 956 1
981 956 1
987 956 1
1006 956 1
1010 956 1
79 957 1
82 957 1
932 957 1
940 957 1
982 957 1
988 957 1
1007 957 1
1011 957 1
80 958 1
83 958 1
933 958 1
941 958 1
983 958 1
989 958 1
1008 958 1
1012 958 1
81 959 1
84 959 1
934 959 1
942 959 1
984 959 1
990 959 1
1009 959 1
1013 959 1
82 960 1
85 960 1
935 960 1
943 960 1
985 960 1
991 960 1
1010 960 1
1014 960 1
83 961 1
86 961 1
936 961 1
944 961 1
986 961 1
992 961 1
1011 961 1
1015 961 1
84 962 1
87 962 1
937 962 1
945 962 1
987 962 1
993 962 1
1012 962 1
1016 962 1
85 963 1
88 963 1
938 963 1
946 963 1
988 963 1
994 963 1
1013 963 1
1017 963 1
86 964 1
89 964 1
939 964 1
947 964 1
989 964 1
995 964 1
1014 964 1
1018 964 1
87 965 1
90 965 1
940 965 1
948 965 1
990 965 1
996 965 1
1015 965 1
1019 965 1
88 966 1
91 966 1
941 966 1
949 966 1
991 966 1
997 966 1
1016 966 1
1020 966 1
89 967 1
92 967 1
942 967 1
950 967 1
992 967 1
998 967 1
1017 967 1
1021 967 1
90 968 1
93 968 1
926 968 1
943 968 1
993 968 1
999 968 1
1018 968 1
1022 968 1
91 969 1
94 969 1
927 969 1
944 969 1
994 969 1
1000 969 1
1019 969 1
1023 969 1
92 970 1
95 970 1
928 970 1
945 970 1
976 970 1
995 970 1
1020 970 1
1024 970 1
93 971 1
96 971 1
929 971 1
946 971 1
977 971 1
996 971 1
1021 971 1
1025 971 1
94 972 1
97 972 1
930 972 1
947 972 1
978 972 1
997 972 1
1001 972 1
1022 972 1
95 973 1
98 973 1
931 973 1
948 973 1
979 973 1
998 973 1
1002 973 1
1023 973 1
96 974 1
99 974 1
932 974 1
949 974 1
980 974 1
999 974 1
1003 974 1
1024 974 1
97 975 1
100 975 1
933 975 1
950 975 1
981 975 1
1000 975 1
1004 975 1
1025 975 1
101 976 1
123 976 1
876 976 1
885 976 1
1026 976 1
1030 976 1
1051 976 1
1053 976 1
102 977 1
124 977 1
877 977 1
886 977 1
1027 977 1
1031 977 1
1052 977 1
1054 977 1
103 978 1
125 978 1
878 978 1
887 978 1
1028 978 1
1032 978 1
1053 978 1
1055 978 1
101 979 1
104 979 1
879 979 1
888 979 1
1029 979 1
1033 979 1
1054 979 1
1056 979 1
102 980 1
105 980 1
880 980 1
889 980 1
1030 980 1
1034 980 1
1055 980 1
1057 980 1
103 981 1
106 981 1
881 981 1
890 981 1
1031 981 1
1035 981 1
1056 981 1
1058 981 1
104 982 1
107 982 1
882 982 1
891 982 1
1032 982 1
1036 982 1
1057 982 1
1059 982 1
105 983 1
108 983 1
883 983 1
892 983 1
1033 983 1
1037 983 1
1058 983 1
1060 983 1
106 984 1
109 984 1
884 984 1
893 984 1
1034 984 1
1038 984 1
1059 984 1
1061 984 1
107 985 1
110 985 1
885 985 1
894 985 1
1035 985 1
1039 985 1
1060 985 1
1062 985 1
108 986 1
111 986 1
886 986 1
895 986 1
1036 986 1
1040 986 1
1061 986 1
1063 986 1
109 987 1
112 987 1
887 987 1
896 987 1
1037 987 1
1041 987 1
1062 987 1
1064 987 1
110 988 1
113 988 1
888 988 1
897 988 1
1038 988 1
1042 988 1
1063 988 1
1065 988 1
111 989 1
114 989 1
889 989 1
898 989 1
1039 989 1
1043 989 1
1064 989 1
1066 989 1
112 990 1
115 990 1
890 990 1
899 990 1
1040 990 1
1044 990 1
1065 990 1
1067 990 1
113 991 1
116 991 1
891 991 1
900 991 1
1041 991 1
1045 991 1
1066 991 1
1068 991 1
114 992 1
117 992 1
876 992 1
892 992 1
1042 992 1
1046 992 1
1067 992 1
1069 992 1
115 993 1
118 993 1
877 993 1
893 993 1
1043 993 1
1047 993 1
1068 993 1
1070 993 1
116 994 1
119 994 1
878 994 1
894 994 1
1044 994 1
1048 994 1
1069 994 1
1071 994 1
117 995 1
120 995 1
879 995 1
895 995 1
1045 995 1
1049 995 1
1070 995 1
1072 995 1
118 996 1
121 996 1
880 996 1
896 996 1
1046 996 1
1050 996 1
1071 996 1
1073 996 1
119 997 1
122 997 1
881 997 1
897 997 1
1026 997 1
1047 997 1
1072 997 1
1074 997 1
120 998 1
123 998 1
882 998 1
898 998 1
1027 998 1
1048 998 1
1073 998 1
1075 998 1
121 999 1
124 999 1
883 999 1
899 999 1
1028 999 1
1049 999 1
1051 999 1
1074 999 1
122 1000 1
125 1000 1
884 1000 1
900 1000 1
1029 1000 1
1050 1000 1
1052 1000 1
1075 1000 1
126 1001 1
148 1001 1
901 1001 1
910 1001 1
1026 1001 1
1032 1001 1
1076 1001 1
1078 1001 1
127 1002 1
149 1002 1
902 1002 1
911 1002 1
1027 1002 1
1033 1002 1
1077 1002 1
1079 1002 1
128 1003 1
150 1003 1
903 1003 1
912 1003 1
1028 1003 1
1034 1003 1
1078 1003 1
1080 1003 1
126 1004 1
129 1004 1
904 1004 1
913 1004 1
1029 1004 1
1035 1004 1
1079 1004 1
1081 1004 1
127 1005 1
130 1005 1
905 1005 1
914 1005 1
1030 1005 1
1036 1005 1
1080 1005 1
1082 1005 1
128 1006 1
131 1006 1
906 1006 1
915 1006 1
1031 1006 1
1037 1006 1
1081 1006 1
1083 1006 1
129 1007 1
132 1007 1
907 1007 1
916 1007 1
1032 1007 1
1038 1007 1
1082 1007 1
1084 1007 1
130 1008 1
133 1008 1
908 1008 1
917 1008 1
1033 1008 1
1039 1008 1
1083 1008 1
1085 1008 1
131 1009 1
134 1009 1
909 1009 1
918 1009 1
1034 1009 1
1040 1009 1
1084 1009 1
1086 1009 1
132 1010 1
135 1010 1
910 1010 1
919 1010 1
1035 1010 1
1041 1010 1
1085 1010 1
1087 1010 1
133 1011 1
136 1011 1
911 1011 1
920 1011 1
1036 1011 1
1042 1011 1
1086 1011 1
1088 1011 1
134 1012 1
137 1012 1
912 1012 1
921 1012 1
1037 1012 1
1043 1012 1
1087 1012 1
1089 1012 1
135 1013 1
138 1013 1
913 1013 1
922 1013 1
1038 1013 1
1044 1013 1
1088 1013 1
1090 1013 1
136 1014 1
139 1014 1
914 1014 1
923 1014 1
1039 1014 1
1045 1014 1
1089 1014 1
1091 1014 1
137 1015 1
140 1015 1
915 1015 1
924 1015 1
1040 1015 1
1046 1015 1
1090 1015 1
1092 1015 1
138 1016 1
141 1016 1
916 1016 1
925 1016 1
1041 1016 1
1047 1016 1
1091 1016 1
1093 1016 1
139 1017 1
142 1017 1
901 1017 1
917 1017 1
1042 1017 1
1048 1017 1
1092 1017 1
1094 1017 1
140 1018 1
143 1018 1
902 1018 1
918 1018 1
1043 1018 1
1049 1018 1
1093 1018 1
1095 1018 1
141 1019 1
144 1019 1
903 1019 1
919 1019 1
1044 1019 1
1050 1019 1
1094 1019 1
1096 1019 1
142 1020 1
145 1020 1
904 1020 1
920 1020 1
1026 1020 1
1045 1020 1
1095 1020 1
1097 1020 1
143 1021 1
146 1021 1
905 1021 1
921 1021 1
1027 1021 1
1046 1021 1
1096 1021 1
1098 1021 1
144 1022 1
147 1022 1
906 1022 1
922 1022 1
1028 1022 1
1047 1022 1
1097 1022 1
1099 1022 1
145 1023 1
148 1023 1
907 1023 1
923 1023 1
1029 1023 1
1048 1023 1
1098 1023 1
1100 1023 1
146 1024 1
149 1024 1
908 1024 1
924 1024 1
1030 1024 1
1049 1024 1
1076 1024 1
1099 1024 1
147 1025 1
150 1025 1
909 1025 1
925 1025 1
1031 1025 1
1050 1025 1
1077 1025 1
1100 1025 1
151 1026 1
173 1026 1
926 1026 1
935 1026 1
1051 1026 1
1057 1026 1
1076 1026 1
1080 1026 1
152 1027 1
174 1027 1
927 1027 1
936 1027 1
1052 1027 1
1058 1027 1
1077 1027 1
1081 1027 1
153 1028 1
175 1028 1
928 1028 1
937 1028 1
1053 1028 1
1059 1028 1
1078 1028 1
1082 1028 1
151 1029 1
154 1029 1
929 1029 1
938 1029 1
1054 1029 1
1060 1029 1
1079 1029 1
1083 1029 1
152 1030 1
155 1030 1
930 1030 1
939 1030 1
1055 1030 1
1061 1030 1
1080 1030 1
1084 1030 1
153 1031 1
156 1031 1
931 1031 1
940 1031 1
1056 1031 1
1062 1031 1
1081 1031 1
1085 1031 1
154 1032 1
157 1032 1
932 1032 1
941 1032 1
1057 1032 1
1063 1032 1
1082 1032 1
1086 1032 1
155 1033 1
158 1033 1
933 1033 1
942 1033 1
1058 1033 1
1064 1033 1
1083 1033 1
1087 1033 1
156 1034 1
159 1034 1
934 1034 1
943 1034 1
1059 1034 1
1065 1034 1
1084 1034 1
1088 1034 1
157 1035 1
160 1035 1
935 1035 1
944 1035 1
1060 1035 1
1066 1035 1
1085 1035 1
1089 1035 1
158 1036 1
161 1036 1
936 1036 1
945 1036 1
1061 1036 1
1067 1036 1
1086 1036 1
1090 1036 1
159 1037 1
162 1037 1
937 1037 1
946 1037 1
1062 1037 1
1068 1037 1
1087 1037 1
1091 1037 1
160 1038 1
163 1038 1
938 1038 1
947 1038 1
1063 1038 1
1069 1038 1
1088 1038 1
1092 1038 1
161 1039 1
164 1039 1
939 1039 1
948 1039 1
1064 1039 1
1070 1039 1
1089 1039 1
1093 1039 1
162 1040 1
165 1040 1
940 1040 1
949 1040 1
1065 1040 1
1071 1040 1
1090 1040 1
1094 1040 1
163 1041 1
166 1041 1
941 1041 1
950 1041 1
1066 1041 1
1072 1041 1
1091 1041 1
1095 1041 1
164 1042 1
167 1042 1
926 1042 1
942 1042 1
1067 1042 1
1073 1042 1
1092 1042 1
1096 1042 1
165 1043 1
168 1043 1
927 1043 1
943 1043 1
1068 1043 1
1074 1043 1
1093 1043 1
1097 1043 1
166 1044 1
169 1044 1
928 1044 1
944 1044 1
1069 1044 1
1075 1044 1
1094 1044 1
1098 1044 1
167 1045 1
170 1045 1
929 1045 1
945 1045 1
1051 1045 1
1070 1045 1
1095 1045 1
1099 1045 1
168 1046 1
171 1046 1
930 1046 1
946 1046 1
1052 1046 1
1071 1046 1
1096 1046 1
1100 1046 1
169 1047 1
172 1047 1
931 1047 1
947 1047 1
1053 1047 1
1072 1047 1
1076 1047 1
1097 1047 1
170 1048 1
173 1048 1
932 1048 1
948 1048 1
1054 1048 1
1073 1048 1
1077 1048 1
1098 1048 1
171 1049 1
174 1049 1
933 1049 1
949 1049 1
1055 1049 1
1074 1049 1
1078 1049 1
1099 1049 1
172 1050 1
175 1050 1
934 1050 1
950 1050 1
1056 1050 1
1075 1050 1
1079 1050 1
1100 1050 1
176 1051 1
198 1051 1
951 1051 1
960 1051 1
1026 1051 1
1034 1051 1
1101 1051 1
1103 1051 1
177 1052 1
199 1052 1
952 1052 1
961 1052 1
1027 1052 1
1035 1052 1
1102 1052 1
1104 1052 1
178 1053 1
200 1053 1
953 1053 1
962 1053 1
1028 1053 1
1036 1053 1
1103 1053 1
1105 1053 1
176 1054 1
179 1054 1
954 1054 1
963 1054 1
1029 1054 1
1037 1054 1
1104 1054 1
1106 1054 1
177 1055 1
180 1055 1
955 1055 1
964 1055 1
1030 1055 1
1038 1055 1
1105 1055 1
1107 1055 1
178 1056 1
181 1056 1
956 1056 1
965 1056 1
1031 1056 1
1039 1056 1
1106 1056 1
1108 1056 1
179 1057 1
182 1057 1
957 1057 1
966 1057 1
1032 1057 1
1040 1057 1
1107 1057 1
1109 1057 1
180 1058 1
183 1058 1
958 1058 1
967 1058 1
1033 1058 1
1041 1058 1
1108 1058 1
1110 1058 1
181 1059 1
184 1059 1
959 1059 1
968 1059 1
1034 1059 1
1042 1059 1
1109 1059 1
1111 1059 1
182 1060 1
185 1060 1
960 1060 1
969 1060 1
1035 1060 1
1043 1060 1
1110 1060 1
1112 1060 1
183 1061 1
186 1061 1
961 1061 1
970 1061 1
1036 1061 1
1044 1061 1
1111 1061 1
1113 1061 1
184 1062 1
187 1062 1
962 1062 1
971 1062 1
1037 1062 1
1045 1062 1
1112 1062 1
1114 1062 1
185 1063 1
188 1063 1
963 1063 1
972 1063 1
1038 1063 1
1046 1063 1
1113 1063 1
1115 1063 1
186 1064 1
189 1064 1
964 1064 1
973 1064 1
1039 1064 1
1047 1064 1
1114 1064 1
1116 1064 1
187 1065 1
190 1065 1
965 1065 1
974 1065 1
1040 1065 1
1048 1065 1
1115 1065 1
1117 1065 1
188 1066 1
191 1066 1
966 1066 1
975 1066 1
1041 1066 1
1049 1066 1
1116 1066 1
1118 1066 1
189 1067 1
192 1067 1
951 1067 1
967 1067 1
1042 1067 1
1050 1067 1
1117 1067 1
1119 1067 1
190 1068 1
193 1068 1
952 1068 1
968 1068 1
1026 1068 1
1043 1068 1
1118 1068 1
1120 1068 1
191 1069 1
194 1069 1
953 1069 1
969 1069 1
1027 1069 1
1044 1069 1
1119 1069 1
1121 1069 1
192 1070 1
195 1070 1
954 1070 1
970 1070 1
1028 1070 1
1045 1070 1
1120 1070 1
1122 1070 1
193 1071 1
196 1071 1
955 1071 1
971 1071 1
1029 1071 1
1046 1071 1
1121 1071 1
1123 1071 1
194 1072 1
197 1072 1
956 1072 1
972 1072 1
1030 1072 1
1047 1072 1
1122 1072 1
1124 1072 1
195 1073 1
198 1073 1
957 1073 1
973 1073 1
1031 1073 1
1048 1073 1
1123 1073 1
1125 1073 1
196 1074 1
199 1074 1
958 1074 1
974 1074 1
1032 1074 1
1049 1074 1
1101 1074 1
1124 1074 1
197 1075 1
200 1075 1
959 1075 1
975 1075 1
1033 1075 1
1050 1075 1
1102 1075 1
1125 1075 1
201 1076 1
223 1076 1
976 1076 1
985 1076 1
1051 1076 1
1059 1076 1
1101 1076 1
1105 1076 1
202 1077 1
224 1077 1
977 1077 1
986 1077 1
1052 1077 1
1060 1077 1
1102 1077 1
1106 1077 1
203 1078 1
225 1078 1
978 1078 1
987 1078 1
1053 1078 1
1061 1078 1
1103 1078 1
1107 1078 1
201 1079 1
204 1079 1
979 1079 1
988 1079 1
1054 1079 1
1062 1079 1
1104 1079 1
1108 1079 1
202 1080 1
205 1080 1
980 1080 1
989 1080 1
1055 1080 1
1063 1080 1
1105 1080 1
1109 1080 1
203 1081 1
206 1081 1
981 1081 1
990 1081 1
1056 1081 1
1064 1081 1
1106 1081 1
1110 1081 1
204 1082 1
207 1082 1
982 1082 1
991 1082 1
1057 1082 1
1065 1082 1
1107 1082 1
1111 1082 1
205 1083 1
208 1083 1
983 1083 1
992 1083 1
1058 1083 1
1066 1083 1
1108 1083 1
1112 1083 1
206 1084 1
209 1084 1
984 1084 1
993 1084 1
1059 1084 1
1067 1084 1
1109 1084 1
1113 1084 1
207 1085 1
210 1085 1
985 1085 1
994 1085 1
1060 1085 1
1068 1085 1
1110 1085 1
1114 1085 1
208 1086 1
211 1086 1
986 1086 1
995 1086 1
1061 1086 1
1069 1086 1
1111 1086 1
1115 1086 1
209 1087 1
212 1087 1
987 1087 1
996 1087 1
1062 1087 1
1070 1087 1
1112 1087 1
1116 1087 1
210 1088 1
213 1088 1
988 1088 1
997 1088 1
1063 1088 1
1071 1088 1
1113 1088 1
1117 1088 1
211 1089 1
214 1089 1
989 1089 1
998 1089 1
1064 1089 1
1072 1089 1
1114 1089 1
1118 1089 1
212 1090 1
215 1090 1
990 1090 1
999 1090 1
1065 1090 1
1073 1090 1
1115 1090 1
1119 1090 1
213 1091 1
216 1091 1
991 1091 1
1000 1091 1
1066 1091 1
1074 1091 1
1116 1091 1
1120 1091 1
214 1092 1
217 1092 1
976 1092 1
992 1092 1
1067 1092 1
1075 1092 1
1117 1092 1
1121 1092 1
215 1093 1
218 1093 1
977 1093 1
993 1093 1
1051 1093 1
1068 1093 1
1118 1093 1
1122 1093 1
216 1094 1
219 1094 1
978 1094 1
994 1094 1
1052 1094 1
1069 1094 1
1119 1094 1
1123 1094 1
217 1095 1
220 1095 1
979 1095 1
995 1095 1
1053 1095 1
1070 1095 1
1120 1095 1
1124 1095 1
218 1096 1
221 1096 1
980 1096 1
996 1096 1
1054 1096 1
1071 1096 1
1121 1096 1
1125 1096 1
219 1097 1
222 1097 1
981 1097 1
997 1097 1
1055 1097 1
1072 1097 1
1101 1097 1
1122 1097 1
220 1098 1
223 1098 1
982 1098 1
998 1098 1
1056 1098 1
1073 1098 1
1102 1098 1
1123 1098 1
221 1099 1
224 1099 1
983 1099 1
999 1099 1
1057 1099 1
1074 1099 1
1103 1099 1
1124 1099 1
222 1100 1
225 1100 1
984 1100 1
1000 1100 1
1058 1100 1
1075 1100 1
1104 1100 1
1125 1100 1
226 1101 1
248 1101 1
1001 1101 1
1010 1101 1
1076 1101 1
1084 1101 1
1101 1101 1
1107 1101 1
227 1102 1
249 1102 1
1002 1102 1
1011 1102 1
1077 1102 1
1085 1102 1
1102 1102 1
1108 1102 1
228 1103 1
250 1103 1
1003 1103 1
1012 1103 1
1078 1103 1
1086 1103 1
1103 1103 1
1109 1103 1
226 1104 1
229 1104 1
1004 1104 1
1013 1104 1
1079 1104 1
1087 1104 1
1104 1104 1
1110 1104 1
227 1105 1
230 1105 1
1005 1105 1
1014 1105 1
1080 1105 1
1088 1105 1
1105 1105 1
1111 1105 1
228 1106 1
231 1106 1
1006 1106 1
1015 1106 1
1081 1106 1
1089 1106 1
1106 1106 1
1112 1106 1
229 1107 1
232 1107 1
1007 1107 1
1016 1107 1
1082 1107 1
1090 1107 1
1107 1107 1
1113 1107 1
230 1108 1
233 1108 1
1008 1108 1
1017 1108 1
1083 1108 1
1091 1108 1
1108 1108 1
1114 1108 1
231 1109 1
234 1109 1
1009 1109 1
1018 1109 1
1084 1109 1
1092 1109 1
1109 1109 1
1115 1109 1
232 1110 1
235 1110 1
1010 1110 1
1019 1110 1
1085 1110 1
1093 1110 1
1110 1110 1
1116 1110 1
233 1111 1
236 1111 1
1011 1111 1
1020 1111 1
1086 1111 1
1094 1111 1
1111 1111 1
1117 1111 1
234 1112 1
237 1112 1
1012 1112 1
1021 1112 1
1087 1112 1
1095 1112 1
1112 1112 1
1118 1112 1
235 1113 1
238 1113 1
1013 1113 1
1022 1113 1
1088 1113 1
1096 1113 1
1113 1113 1
1119 1113 1
236 1114 1
239 1114 1
1014 1114 1
1023 1114 1
1089 1114 1
1097 1114 1
1114 1114 1
1120 1114 1
237 1115 1
240 1115 1
1015 1115 1
1024 1115 1
1090 1115 1
1098 1115 1
1115 1115 1
1121 1115 1
238 1116 1
241 1116 1
1016 1116 1
1025 1116 1
1091 1116 1
1099 1116 1
1116 1116 1
1122 1116 1
239 1117 1
242 1117 1
1001 1117 1
1017 1117 1
1092 1117 1
1100 1117 1
1117 1117 1
1123 1117 1
240 1118 1
243 1118 1
1002 1118 1
1018 1118 1
1076 1118 1
1093 1118 1
1118 1118 1
1124 1118 1
241 1119 1
244 1119 1
1003 1119 1
1019 1119 1
1077 1119 1
1094 1119 1
1119 1119 1
1125 1119 1
242 1120 1
245 1120 1
1004 1120 1
1020 1120 1
1078 1120 1
1095 1120 1
1101 1120 1
1120 1120 1
243 1121 1
246 1121 1
1005 1121 1
1021 1121 1
1079 1121 1
1096 1121 1
1102 1121 1
1121 1121 1
244 1122 1
247 1122 1
1006 1122 1
1022 1122 1
1080 1122 1
1097 1122 1
1103 1122 1
1122 1122 1
245 1123 1
248 1123 1
1007 1123 1
1023 1123 1
1081 1123 1
1098 1123 1
1104 1123 1
1123 1123 1
246 1124 1
249 1124 1
1008 1124 1
1024 1124 1
1082 1124 1
1099 1124 1
1105 1124 1
1124 1124 1
247 1125 1
250 1125 1
1009 1125 1
1025 1125 1
1083 1125 1
1100 1125 1
1106 1125 1
1125 1125 1
251 1126 1
273 1126 1
876 1126 1
894 1126 1
1126 1126 1
1130 1126 1
1151 1126 1
1153 1126 1
252 1127 1
274 1127 1
877 1127 1
895 1127 1
1127 1127 1
1131 1127 1
1152 1127 1
1154 1127 1
253 1128 1
275 1128 1
878 1128 1
896 1128 1
1128 1128 1
1132 1128 1
1153 1128 1
1155 1128 1
251 1129 1
254 1129 1
879 1129 1
897 1129 1
1129 1129 1
1133 1129 1
1154 1129 1
1156 1129 1
252 1130 1
255 1130 1
880 1130 1
898 1130 1
1130 1130 1
1134 1130 1
1155 1130 1
1157 1130 1
253 1131 1
256 1131 1
881 1131 1
899 1131 1
1131 1131 1
1135 1131 1
1156 1131 1
1158 1131 1
254 1132 1
257 1132 1
882 1132 1
900 1132 1
1132 1132 1
1136 1132 1
1157 1132 1
1159 1132 1
255 1133 1
258 1133 1
876 1133 1
883 1133 1
1133 1133 1
1137 1133 1
1158 1133 1
1160 1133 1
256 1134 1
259 1134 1
877 1134 1
884 1134 1
1134 1134 1
1138 1134 1
1159 1134 1
1161 1134 1
257 1135 1
260 1135 1
878 1135 1
885 1135 1
1135 1135 1
1139 1135 1
1160 1135 1
1162 1135 1
258 1136 1
261 1136 1
879 1136 1
886 1136 1
1136 1136 1
1140 1136 1
1161 1136 1
1163 1136 1
259 1137 1
262 1137 1
880 1137 1
887 1137 1
1137 1137 1
1141 1137 1
1162 1137 1
1164 1137 1
260 1138 1
263 1138 1
881 1138 1
888 1138 1
1138 1138 1
1142 1138 1
1163 1138 1
1165 1138 1
261 1139 1
264 1139 1
882 1139 1
889 1139 1
1139 1139 1
1143 1139 1
1164 1139 1
1166 1139 1
262 1140 1
265 1140 1
883 1140 1
890 1140 1
1140 1140 1
1144 1140 1
1165 1140 1
1167 1140 1
263 1141 1
266 1141 1
884 1141 1
891 1141 1
1141 1141 1
1145 1141 1
1166 1141 1
1168 1141 1
264 1142 1
267 1142 1
885 1142 1
892 1142 1
1142 1142 1
1146 1142 1
1167 1142 1
1169 1142 1
265 1143 1
268 1143 1
886 1143 1
893 1143 1
1143 1143 1
1147 1143 1
1168 1143 1
1170 1143 1
266 1144 1
269 1144 1
887 1144 1
894 1144 1
1144 1144 1
1148 1144 1
1169 1144 1
1171 1144 1
267 1145 1
270 1145 1
888 1145 1
895 1145 1
1145 1145 1
1149 1145 1
1170 1145 1
1172 1145 1
268 1146 1
271 1146 1
889 1146 1
896 1146 1
1146 1146 1
1150 1146 1
1171 1146 1
1173 1146 1
269 1147 1
272 1147 1
890 1147 1
897 1147 1
1126 1147 1
1147 1147 1
1172 1147 1
1174 1147 1
270 1148 1
273 1148 1
891 1148 1
898 1148 1
1127 1148 1
1148 1148 1
1173 1148 1
1175 1148 1
271 1149 1
274 1149 1
892 1149 1
899 1149 1
1128 1149 1
1149 1149 1
1151 1149 1
1174 1149 1
272 1150 1
275 1150 1
893 1150 1
900 1150 1
1129 1150 1
1150 1150 1
1152 1150 1
1175 1150 1
276 1151 1
298 1151 1
901 1151 1
919 1151 1
1126 1151 1
1132 1151 1
1176 1151 1
1178 1151 1
277 1152 1
299 1152 1
902 1152 1
920 1152 1
1127 1152 1
1133 1152 1
1177 1152 1
1179 1152 1
278 1153 1
300 1153 1
903 1153 1
921 1153 1
1128 1153 1
1134 1153 1
1178 1153 1
1180 1153 1
276 1154 1
279 1154 1
904 1154 1
922 1154 1
1129 1154 1
1135 1154 1
1179 1154 1
1181 1154 1
277 1155 1
280 1155 1
905 1155 1
923 1155 1
1130 1155 1
1136 1155 1
1180 1155 1
1182 1155 1
278 1156 1
281 1156 1
906 1156 1
924 1156 1
1131 1156 1
1137 1156 1
1181 1156 1
1183 1156 1
279 1157 1
282 1157 1
907 1157 1
925 1157 1
1132 1157 1
1138 1157 1
1182 1157 1
1184 1157 1
280 1158 1
283 1158 1
901 1158 1
908 1158 1
1133 1158 1
1139 1158 1
1183 1158 1
1185 1158 1
281 1159 1
284 1159 1
902 1159 1
909 1159 1
1134 1159 1
1140 1159 1
1184 1159 1
1186 1159 1
282 1160 1
285 1160 1
903 1160 1
910 1160 1
1135 1160 1
1141 1160 1
1185 1160 1
1187 1160 1
283 1161 1
286 1161 1
904 1161 1
911 1161 1
1136 1161 1
1142 1161 1
1186 1161 1
1188 1161 1
284 1162 1
287 1162 1
905 1162 1
912 1162 1
1137 1162 1
1143 1162 1
1187 1162 1
1189 1162 1
285 1163 1
288 1163 1
906 1163 1
913 1163 1
1138 1163 1
1144 1163 1
1188 1163 1
1190 1163 1
286 1164 1
289 1164 1
907 1164 1
914 1164 1
1139 1164 1
1145 1164 1
1189 1164 1
1191 1164 1
287 1165 1
290 1165 1
908 1165 1
915 1165 1
1140 1165 1
1146 1165 1
1190 1165 1
1192 1165 1
288 1166 1
291 1166 1
909 1166 1
916 1166 1
1141 1166 1
1147 1166 1
1191 1166 1
1193 1166 1
289 1167 1
292 1167 1
910 1167 1
917 1167 1
1142 1167 1
1148 1167 1
1192 1167 1
1194 1167 1
290 1168 1
293 1168 1
911 1168 1
918 1168 1
1143 1168 1
1149 1168 1
1193 1168 1
1195 1168 1
291 1169 1
294 1169 1
912 1169 1
919 1169 1
1144 1169 1
1150 1169 1
1194 1169 1
1196 1169 1
292 1170 1
295 1170 1
913 1170 1
920 1170 1
1126 1170 1
1145 1170 1
1195 1170 1
1197 1170 1
293 1171 1
296 1171 1
914 1171 1
921 1171 1
1127 1171 1
1146 1171 1
1196 1171 1
1198 1171 1
294 1172 1
297 1172 1
915 1172 1
922 1172 1
1128 1172 1
1147 1172 1
1197 1172 1
1199 1172 1
295 1173 1
298 1173 1
916 1173 1
923 1173 1
1129 1173 1
1148 1173 1
1198 1173 1
1200 1173 1
296 1174 1
299 1174 1
917 1174 1
924 1174 1
1130 1174 1
1149 1174 1
1176 1174 1
1199 1174 1
297 1175 1
300 1175 1
918 1175 1
925 1175 1
1131 1175 1
1150 1175 1
1177 1175 1
1200 1175 1
301 1176 1
323 1176 1
926 1176 1
944 1176 1
1151 1176 1
1157 1176 1
1176 1176 1
1180 1176 1
302 1177 1
324 1177 1
927 1177 1
945 1177 1
1152 1177 1
1158 1177 1
1177 1177 1
1181 1177 1
303 1178 1
325 1178 1
928 1178 1
946 1178 1
1153 1178 1
1159 1178 1
1178 1178 1
1182 1178 1
301 1179 1
304 1179 1
929 1179 1
947 1179 1
1154 1179 1
1160 1179 1
1179 1179 1
1183 1179 1
302 1180 1
305 1180 1
930 1180 1
948 1180 1
1155 1180 1
1161 1180 1
1180 1180 1
1184 1180 1
303 1181 1
306 1181 1
931 1181 1
949 1181 1
1156 1181 1
1162 1181 1
1181 1181 1
1185 1181 1
304 1182 1
307 1182 1
932 1182 1
950 1182 1
1157 1182 1
1163 1182 1
1182 1182 1
1186 1182 1
305 1183 1
308 1183 1
926 1183 1
933 1183 1
1158 1183 1
1164 1183 1
1183 1183 1
1187 1183 1
306 1184 1
309 1184 1
927 1184 1
934 1184 1
1159 1184 1
1165 1184 1
1184 1184 1
1188 1184 1
307 1185 1
310 1185 1
928 1185 1
935 1185 1
1160 1185 1
1166 1185 1
1185 1185 1
1189 1185 1
308 1186 1
311 1186 1
929 1186 1
936 1186 1
1161 1186 1
1167 1186 1
1186 1186 1
1190 1186 1
309 1187 1
312 1187 1
930 1187 1
937 1187 1
1162 1187 1
1168 1187 1
1187 1187 1
1191 1187 1
310 1188 1
313 1188 1
931 1188 1
938 1188 1
1163 1188 1
1169 1188 1
1188 1188 1
1192 1188 1
311 1189 1
314 1189 1
932 1189 1
939 1189 1
1164 1189 1
1170 1189 1
1189 1189 1
1193 1189 1
312 1190 1
315 1190 1
933 1190 1
940 1190 1
1165 1190 1
1171 1190 1
1190 1190 1
1194 1190 1
313 1191 1
316 1191 1
934 1191 1
941 1191 1
1166 1191 1
1172 1191 1
1191 1191 1
1195 1191 1
314 1192 1
317 1192 1
935 1192 1
942 1192 1
1167 1192 1
1173 1192 1
1192 1192 1
1196 1192 1
315 1193 1
318 1193 1
936 1193 1
943 1193 1
1168 1193 1
1174 1193 1
1193 1193 1
1197 1193 1
316 1194 1
319 1194 1
937 1194 1
944 1194 1
1169 1194 1
1175 1194 1
1194 1194 1
1198 1194 1
317 1195 1
320 1195 1
938 1195 1
945 1195 1
1151 1195 1
1170 1195 1
1195 1195 1
1199 1195 1
318 1196 1
321 1196 1
939 1196 1
946 1196 1
1152 1196 1
1171 1196 1
1196 1196 1
1200 1196 1
319 1197 1
322 1197 1
940 1197 1
947 1197 1
1153 1197 1
1172 1197 1
1176 1197 1
1197 1197 1
320 1198 1
323 1198 1
941 1198 1
948 1198 1
1154 1198 1
1173 1198 1
1177 1198 1
1198 1198 1
321 1199 1
324 1199 1
942 1199 1
949 1199 1
1155 1199 1
1174 1199 1
1178 1199 1
1199 1199 1
322 1200 1
325 1200 1
943 1200 1
950 1200 1
1156 1200 1
1175 1200 1
1179 1200 1
1200 1200 1
326 1201 1
348 1201 1
951 1201 1
969 1201 1
1126 1201 1
1134 1201 1
1201 1201 1
1203 1201 1
327 1202 1
349 1202 1
952 1202 1
970 1202 1
1127 1202 1
1135 1202 1
1202 1202 1
1204 1202 1
328 1203 1
350 1203 1
953 1203 1
971 1203 1
1128 1203 1
1136 1203 1
1203 1203 1
1205 1203 1
326 1204 1
329 1204 1
954 1204 1
972 1204 1
1129 1204 1
1137 1204 1
1204 1204 1
1206 1204 1
327 1205 1
330 1205 1
955 1205 1
973 1205 1
1130 1205 1
1138 1205 1
1205 1205 1
1207 1205 1
328 1206 1
331 1206 1
956 1206 1
974 1206 1
1131 1206 1
1139 1206 1
1206 1206 1
1208 1206 1
329 1207 1
332 1207 1
957 1207 1
975 1207 1
1132 1207 1
1140 1207 1
1207 1207 1
1209 1207 1
330 1208 1
333 1208 1
951 1208 1
958 1208 1
1133 1208 1
1141 1208 1
1208 1208 1
1210 1208 1
331 1209 1
334 1209 1
952 1209 1
959 1209 1
1134 1209 1
1142 1209 1
1209 1209 1
1211 1209 1
332 1210 1
335 1210 1
953 1210 1
960 1210 1
1135 1210 1
1143 1210 1
1210 1210 1
1212 1210 1
333 1211 1
336 1211 1
954 1211 1
961 1211 1
1136 1211 1
1144 1211 1
1211 1211 1
1213 1211 1
334 1212 1
337 1212 1
955 1212 1
962 1212 1
1137 1212 1
1145 1212 1
1212 1212 1
1214 1212 1
335 1213 1
338 1213 1
956 1213 1
963 1213 1
1138 1213 1
1146 1213 1
1213 1213 1
1215 1213 1
336 1214 1
339 1214 1
957 1214 1
964 1214 1
1139 1214 1
1147 1214 1
1214 1214 1
1216 1214 1
337 1215 1
340 1215 1
958 1215 1
965 1215 1
1140 1215 1
1148 1215 1
1215 1215 1
1217 1215 1
338 1216 1
341 1216 1
959 1216 1
966 1216 1
1141 1216 1
1149 1216 1
1216 1216 1
1218 1216 1
339 1217 1
342 1217 1
960 1217 1
967 1217 1
1142 1217 1
1150 1217 1
1217 1217 1
1219 1217 1
340 1218 1
343 1218 1
961 1218 1
968 1218 1
1126 1218 1
1143 1218 1
1218 1218 1
1220 1218 1
341 1219 1
344 1219 1
962 1219 1
969 1219 1
1127 1219 1
1144 1219 1
1219 1219 1
1221 1219 1
342 1220 1
345 1220 1
963 1220 1
970 1220 1
1128 1220 1
1145 1220 1
1220 1220 1
1222 1220 1
343 1221 1
346 1221 1
964 1221 1
971 1221 1
1129 1221 1
1146 1221 1
1221 1221 1
1223 1221 1
344 1222 1
347 1222 1
965 1222 1
972 1222 1
1130 1222 1
1147 1222 1
1222 1222 1
1224 1222 1
345 1223 1
348 1223 1
966 1223 1
973 1223 1
1131 1223 1
1148 1223 1
1223 1223 1
1225 1223 1
346 1224 1
349 1224 1
967 1224 1
974 1224 1
1132 1224 1
1149 1224 1
1201 1224 1
1224 1224 1
347 1225 1
350 1225 1
968 1225 1
975 1225 1
1133 1225 1
1150 1225 1
1202 1225 1
1225 1225 1
351 1226 1
373 1226 1
976 1226 1
994 1226 1
1151 1226 1
1159 1226 1
1201 1226 1
1205 1226 1
352 1227 1
374 1227 1
977 1227 1
995 1227 1
1152 1227 1
1160 1227 1
1202 1227 1
1206 1227 1
353 1228 1
375 1228 1
978 1228 1
996 1228 1
1153 1228 1
1161 1228 1
1203 1228 1
1207 1228 1
351 1229 1
354 1229 1
979 1229 1
997 1229 1
1154 1229 1
1162 1229 1
1204 1229 1
1208 1229 1
352 1230 1
355 1230 1
980 1230 1
998 1230 1
1155 1230 1
1163 1230 1
1205 1230 1
1209 1230 1
353 1231 1
356 1231 1
981 1231 1
999 1231 1
1156 1231 1
1164 1231 1
1206 1231 1
1210 1231 1
354 1232 1
357 1232 1
982 1232 1
1000 1232 1
1157 1232 1
1165 1232 1
1207 1232 1
1211 1232 1
355 1233 1
358 1233 1
976 1233 1
983 1233 1
1158 1233 1
1166 1233 1
1208 1233 1
1212 1233 1
356 1234 1
359 1234 1
977 1234 1
984 1234 1
1159 1234 1
1167 1234 1
1209 1234 1
1213 1234 1
357 1235 1
360 1235 1
978 1235 1
985 1235 1
1160 1235 1
1168 1235 1
1210 1235 1
1214 1235 1
358 1236 1
361 1236 1
979 1236 1
986 1236 1
1161 1236 1
1169 1236 1
1211 1236 1
1215 1236 1
359 1237 1
362 1237 1
980 1237 1
987 1237 1
1162 1237 1
1170 1237 1
1212 1237 1
1216 1237 1
360 1238 1
363 1238 1
981 1238 1
988 1238 1
1163 1238 1
1171 1238 1
1213 1238 1
1217 1238 1
361 1239 1
364 1239 1
982 1239 1
989 1239 1
1164 1239 1
1172 1239 1
1214 1239 1
1218 1239 1
362 1240 1
365 1240 1
983 1240 1
990 1240 1
1165 1240 1
1173 1240 1
1215 1240 1
1219 1240 1
363 1241 1
366 1241 1
984 1241 1
991 1241 1
1166 1241 1
1174 1241 1
1216 1241 1
1220 1241 1
364 1242 1
367 1242 1
985 1242 1
992 1242 1
1167 1242 1
1175 1242 1
1217 1242 1
1221 1242 1
365 1243 1
368 1243 1
986 1243 1
993 1243 1
1151 1243 1
1168 1243 1
1218 1243 1
1222 1243 1
366 1244 1
369 1244 1
987 1244 1
994 1244 1
1152 1244 1
1169 1244 1
1219 1244 1
1223 1244 1
367 1245 1
370 1245 1
988 1245 1
995 1245 1
1153 1245 1
1170 1245 1
1220 1245 1
1224 1245 1
368 1246 1
371 1246 1
989 1246 1
996 1246 1
1154 1246 1
1171 1246 1
1221 1246 1
1225 1246 1
369 1247 1
372 1247 1
990 1247 1
997 1247 1
1155 1247 1
1172 1247 1
1201 1247 1
1222 1247 1
370 1248 1
373 1248 1
991 1248 1
998 1248 1
1156 1248 1
1173 1248 1
1202 1248 1
1223 1248 1
371 1249 1
374 1249 1
992 1249 1
999 1249 1
1157 1249 1
1174 1249 1
1203 1249 1
1224 1249 1
372 1250 1
375 1250 1
993 1250 1
1000 1250 1
1158 1250 1
1175 1250 1
1204 1250 1
1225 1250 1
376 1251 1
398 1251 1
1001 1251 1
1019 1251 1
1176 1251 1
1184 1251 1
1201 1251 1
1207 1251 1
377 1252 1
399 1252 1
1002 1252 1
1020 1252 1
1177 1252 1
1185 1252 1
1202 1252 1
1208 1252 1
378 1253 1
400 1253 1
1003 1253 1
1021 1253 1
1178 1253 1
1186 1253 1
1203 1253 1
1209 1253 1
376 1254 1
379 1254 1
1004 1254 1
1022 1254 1
1179 1254 1
1187 1254 1
1204 1254 1
1210 1254 1
377 1255 1
380 1255 1
1005 1255 1
1023 1255 1
1180 1255 1
1188 1255 1
1205 1255 1
1211 1255 1
378 1256 1
381 1256 1
1006 1256 1
1024 1256 1
1181 1256 1
1189 1256 1
1206 1256 1
1212 1256 1
379 1257 1
382 1257 1
1007 1257 1
1025 1257 1
1182 1257 1
1190 1257 1
1207 1257 1
1213 1257 1
380 1258 1
383 1258 1
1001 1258 1
1008 1258 1
1183 1258 1
1191 1258 1
1208 1258 1
1214 1258 1
381 1259 1
384 1259 1
1002 1259 1
1009 1259 1
1184 1259 1
1192 1259 1
1209 1259 1
1215 1259 1
382 1260 1
385 1260 1
1003 1260 1
1010 1260 1
1185 1260 1
1193 1260 1
1210 1260 1
1216 1260 1
383 1261 1
386 1261 1
1004 1261 1
1011 1261 1
1186 1261 1
1194 1261 1
1211 1261 1
1217 1261 1
384 1262 1
387 1262 1
1005 1262 1
1012 1262 1
1187 1262 1
1195 1262 1
1212 1262 1
1218 1262 1
385 1263 1
388 1263 1
1006 1263 1
1013 1263 1
1188 1263 1
1196 1263 1
1213 1263 1
1219 1263 1
386 1264 1
389 1264 1
1007 1264 1
1014 1264 1
1189 1264 1
1197 1264 1
1214 1264 1
1220 1264 1
387 1265 1
390 1265 1
1008 1265 1
1015 1265 1
1190 1265 1
1198 1265 1
1215 1265 1
1221 1265 1
388 1266 1
391 1266 1
1009 1266 1
1016 1266 1
1191 1266 1
1199 1266 1
1216 1266 1
1222 1266 1
389 1267 1
392 1267 1
1010 1267 1
1017 1267 1
1192 1267 1
1200 1267 1
1217 1267 1
1223 1267 1
390 1268 1
393 1268 1
1011 1268 1
1018 1268 1
1176 1268 1
1193 1268 1
1218 1268 1
1224 1268 1
391 1269 1
394 1269 1
1012 1269 1
1019 1269 1
1177 1269 1
1194 1269 1
1219 1269 1
1225 1269 1
392 1270 1
395 1270 1
1013 1270 1
1020 1270 1
1178 1270 1
1195 1270 1
1201 1270 1
1220 1270 1
393 1271 1
396 1271 1
1014 1271 1
1021 1271 1
1179 1271 1
1196 1271 1
1202 1271 1
1221 1271 1
394 1272 1
397 1272 1
1015 1272 1
1022 1272 1
1180 1272 1
1197 1272 1
1203 1272 1
1222 1272 1
395 1273 1
398 1273 1
1016 1273 1
1023 1273 1
1181 1273 1
1198 1273 1
1204 1273 1
1223 1273 1
396 1274 1
399 1274 1
1017 1274 1
1024 1274 1
1182 1274 1
1199 1274 1
1205 1274 1
1224 1274 1
397 1275 1
400 1275 1
1018 1275 1
1025 1275 1
1183 1275 1
1200 1275 1
1206 1275 1
1225 1275 1
401 1276 1
423 1276 1
1026 1276 1
1044 1276 1
1126 1276 1
1135 1276 1
1226 1276 1
1228 1276 1
402 1277 1
424 1277 1
1027 1277 1
1045 1277 1
1127 1277 1
1136 1277 1
1227 1277 1
1229 1277 1
403 1278 1
425 1278 1
1028 1278 1
1046 1278 1
1128 1278 1
1137 1278 1
1228 1278 1
1230 1278 1
401 1279 1
404 1279 1
1029 1279 1
1047 1279 1
1129 1279 1
1138 1279 1
1229 1279 1
1231 1279 1
402 1280 1
405 1280 1
1030 1280 1
1048 1280 1
1130 1280 1
1139 1280 1
1230 1280 1
1232 1280 1
403 1281 1
406 1281 1
1031 1281 1
1049 1281 1
1131 1281 1
1140 1281 1
1231 1281 1
1233 1281 1
404 1282 1
407 1282 1
1032 1282 1
1050 1282 1
1132 1282 1
1141 1282 1
1232 1282 1
1234 1282 1
405 1283 1
408 1283 1
1026 1283 1
1033 1283 1
1133 1283 1
1142 1283 1
1233 1283 1
1235 1283 1
406 1284 1
409 1284 1
1027 1284 1
1034 1284 1
1134 1284 1
1143 1284 1
1234 1284 1
1236 1284 1
407 1285 1
410 1285 1
1028 1285 1
1035 1285 1
1135 1285 1
1144 1285 1
1235 1285 1
1237 1285 1
408 1286 1
411 1286 1
1029 1286 1
1036 1286 1
1136 1286 1
1145 1286 1
1236 1286 1
1238 1286 1
409 1287 1
412 1287 1
1030 1287 1
1037 1287 1
1137 1287 1
1146 1287 1
1237 1287 1
1239 1287 1
410 1288 1
413 1288 1
1031 1288 1
1038 1288 1
1138 1288 1
1147 1288 1
1238 1288 1
1240 1288 1
411 1289 1
414 1289 1
1032 1289 1
1039 1289 1
1139 1289 1
1148 1289 1
1239 1289 1
1241 1289 1
412 1290 1
415 1290 1
1033 1290 1
1040 1290 1
1140 1290 1
1149 1290 1
1240 1290 1
1242 1290 1
413 1291 1
416 1291 1
1034 1291 1
1041 1291 1
1141 1291 1
1150 1291 1
1241 1291 1
1243 1291 1
414 1292 1
417 1292 1
1035 1292 1
1042 1292 1
1126 1292 1
1142 1292 1
1242 1292 1
1244 1292 1
415 1293 1
418 1293 1
1036 1293 1
1043 1293 1
1127 1293 1
1143 1293 1
1243 1293 1
1245 1293 1
416 1294 1
419 1294 1
1037 1294 1
1044 1294 1
1128 1294 1
1144 1294 1
1244 1294 1
1246 1294 1
417 1295 1
420 1295 1
1038 1295 1
1045 1295 1
1129 1295 1
1145 1295 1
1245 1295 1
1247 1295 1
418 1296 1
421 1296 1
1039 1296 1
1046 1296 1
1130 1296 1
1146 1296 1
1246 1296 1
1248 1296 1
419 1297 1
422 1297 1
1040 1297 1
1047 1297 1
1131 1297 1
1147 1297 1
1247 1297 1
1249 1297 1
420 1298 1
423 1298 1
1041 1298 1
1048 1298 1
1132 1298 1
1148 1298 1
1248 1298 1
1250 1298 1
421 1299 1
424 1299 1
1042 1299 1
1049 1299 1
1133 1299 1
1149 1299 1
1226 1299 1
1249 1299 1
422 1300 1
425 1300 1
1043 1300 1
1050 1300 1
1134 1300 1
1150 1300 1
1227 1300 1
1250 1300 1
426 1301 1
448 1301 1
1051 1301 1
1069 1301 1
1151 1301 1
1160 1301 1
1226 1301 1
1230 1301 1
427 1302 1
449 1302 1
1052 1302 1
1070 1302 1
1152 1302 1
1161 1302 1
1227 1302 1
1231 1302 1
428 1303 1
450 1303 1
1053 1303 1
1071 1303 1
1153 1303 1
1162 1303 1
1228 1303 1
1232 1303 1
426 1304 1
429 1304 1
1054 1304 1
1072 1304 1
1154 1304 1
1163 1304 1
1229 1304 1
1233 1304 1
427 1305 1
430 1305 1
1055 1305 1
1073 1305 1
1155 1305 1
1164 1305 1
1230 1305 1
1234 1305 1
428 1306 1
431 1306 1
1056 1306 1
1074 1306 1
1156 1306 1
1165 1306 1
1231 1306 1
1235 1306 1
429 1307 1
432 1307 1
1057 1307 1
1075 1307 1
1157 1307 1
1166 1307 1
1232 1307 1
1236 1307 1
430 1308 1
433 1308 1
1051 1308 1
1058 1308 1
1158 1308 1
1167 1308 1
1233 1308 1
1237 1308 1
431 1309 1
434 1309 1
1052 1309 1
1059 1309 1
1159 1309 1
1168 1309 1
1234 1309 1
1238 1309 1
432 1310 1
435 1310 1
1053 1310 1
1060 1310 1
1160 1310 1
1169 1310 1
1235 1310 1
1239 1310 1
433 1311 1
436 1311 1
1054 1311 1
1061 1311 1
1161 1311 1
1170 1311 1
1236 1311 1
1240 1311 1
434 1312 1
437 1312 1
1055 1312 1
1062 1312 1
1162 1312 1
1171 1312 1
1237 1312 1
1241 1312 1
435 1313 1
438 1313 1
1056 1313 1
1063 1313 1
1163 1313 1
1172 1313 1
1238 1313 1
1242 1313 1
436 1314 1
439 1314 1
1057 1314 1
1064 1314 1
1164 1314 1
1173 1314 1
1239 1314 1
1243 1314 1
437 1315 1
440 1315 1
1058 1315 1
1065 1315 1
1165 1315 1
1174 1315 1
1240 1315 1
1244 1315 1
438 1316 1
441 1316 1
1059 1316 1
1066 1316 1
1166 1316 1
1175 1316 1
1241 1316 1
1245 1316 1
439 1317 1
442 1317 1
1060 1317 1
1067 1317 1
1151 1317 1
1167 1317 1
1242 1317 1
1246 1317 1
440 1318 1
443 1318 1
1061 1318 1
1068 1318 1
1152 1318 1
1168 1318 1
1243 1318 1
1247 1318 1
441 1319 1
444 1319 1
1062 1319 1
1069 1319 1
1153 1319 1
1169 1319 1
1244 1319 1
1248 1319 1
442 1320 1
445 1320 1
1063 1320 1
1070 1320 1
1154 1320 1
1170 1320 1
1245 1320 1
1249 1320 1
443 1321 1
446 1321 1
1064 1321 1
1071 1321 1
1155 1321 1
1171 1321 1
1246 1321 1
1250 1321 1
444 1322 1
447 1322 1
1065 1322 1
1072 1322 1
1156 1322 1
1172 1322 1
1226 1322 1
1247 1322 1
445 1323 1
448 1323 1
1066 1323 1
1073 1323 1
1157 1323 1
1173 1323 1
1227 1323 1
1248 1323 1
446 1324 1
449 1324 1
1067 1324 1
1074 1324 1
1158 1324 1
1174 1324 1
1228 1324 1
1249 1324 1
447 1325 1
450 1325 1
1068 1325 1
1075 1325 1
1159 1325 1
1175 1325 1
1229 1325 1
1250 1325 1
451 1326 1
473 1326 1
1076 1326 1
1094 1326 1
1176 1326 1
1185 1326 1
1226 1326 1
1232 1326 1
452 1327 1
474 1327 1
1077 1327 1
1095 1327 1
1177 1327 1
1186 1327 1
1227 1327 1
1233 1327 1
453 1328 1
475 1328 1
1078 1328 1
1096 1328 1
1178 1328 1
1187 1328 1
1228 1328 1
1234 1328 1
451 1329 1
454 1329 1
1079 1329 1
1097 1329 1
1179 1329 1
1188 1329 1
1229 1329 1
1235 1329 1
452 1330 1
455 1330 1
1080 1330 1
1098 1330 1
1180 1330 1
1189 1330 1
1230 1330 1
1236 1330 1
453 1331 1
456 1331 1
1081 1331 1
1099 1331 1
1181 1331 1
1190 1331 1
1231 1331 1
1237 1331 1
454 1332 1
457 1332 1
1082 1332 1
1100 1332 1
1182 1332 1
1191 1332 1
1232 1332 1
1238 1332 1
455 1333 1
458 1333 1
1076 1333 1
1083 1333 1
1183 1333 1
1192 1333 1
1233 1333 1
1239 1333 1
456 1334 1
459 1334 1
1077 1334 1
1084 1334 1
1184 1334 1
1193 1334 1
1234 1334 1
1240 1334 1
457 1335 1
460 1335 1
1078 1335 1
1085 1335 1
1185 1335 1
1194 1335 1
1235 1335 1
1241 1335 1
458 1336 1
461 1336 1
1079 1336 1
1086 1336 1
1186 1336 1
1195 1336 1
1236 1336 1
1242 1336 1
459 1337 1
462 1337 1
1080 1337 1
1087 1337 1
1187 1337 1
1196 1337 1
1237 1337 1
1243 1337 1
460 1338 1
463 1338 1
1081 1338 1
1088 1338 1
1188 1338 1
1197 1338 1
1238 1338 1
1244 1338 1
461 1339 1
464 1339 1
1082 1339 1
1089 1339 1
1189 1339 1
1198 1339 1
1239 1339 1
1245 1339 1
462 1340 1
465 1340 1
1083 1340 1
1090 1340 1
1190 1340 1
1199 1340 1
1240 1340 1
1246 1340 1
463 1341 1
466 1341 1
1084 1341 1
1091 1341 1
1191 1341 1
1200 1341 1
1241 1341 1
1247 1341 1
464 1342 1
467 1342 1
1085 1342 1
1092 1342 1
1176 1342 1
1192 1342 1
1242 1342 1
1248 1342 1
465 1343 1
468 1343 1
1086 1343 1
1093 1343 1
1177 1343 1
1193 1343 1
1243 1343 1
1249 1343 1
466 1344 1
469 1344 1
1087 1344 1
1094 1344 1
1178 1344 1
1194 1344 1
1244 1344 1
1250 1344 1
467 1345 1
470 1345 1
1088 1345 1
1095 1345 1
1179 1345 1
1195 1345 1
1226 1345 1
1245 1345 1
468 1346 1
471 1346 1
1089 1346 1
1096 1346 1
1180 1346 1
1196 1346 1
1227 1346 1
1246 1346 1
469 1347 1
472 1347 1
1090 1347 1
1097 1347 1
1181 1347 1
1197 1347 1
1228 1347 1
1247 1347 1
470 1348 1
473 1348 1
1091 1348 1
1098 1348 1
1182 1348 1
1198 1348 1
1229 1348 1
1248 1348 1
471 1349 1
474 1349 1
1092 1349 1
1099 1349 1
1183 1349 1
1199 1349 1
1230 1349 1
1249 1349 1
472 1350 1
475 1350 1
1093 1350 1
1100 1350 1
1184 1350 1
1200 1350 1
1231 1350 1
1250 1350 1
476 1351 1
498 1351 1
1101 1351 1
1119 1351 1
1201 1351 1
1210 1351 1
1226 1351 1
1234 1351 1
477 1352 1
499 1352 1
1102 1352 1
1120 1352 1
1202 1352 1
1211 1352 1
1227 1352 1
1235 1352 1
478 1353 1
500 1353 1
1103 1353 1
1121 1353 1
1203 1353 1
1212 1353 1
1228 1353 1
1236 1353 1
476 1354 1
479 1354 1
1104 1354 1
1122 1354 1
1204 1354 1
1213 1354 1
1229 1354 1
1237 1354 1
477 1355 1
480 1355 1
1105 1355 1
1123 1355 1
1205 1355 1
1214 1355 1
1230 1355 1
1238 1355 1
478 1356 1
481 1356 1
1106 1356 1
1124 1356 1
1206 1356 1
1215 1356 1
1231 1356 1
1239 1356 1
479 1357 1
482 1357 1
1107 1357 1
1125 1357 1
1207 1357 1
1216 1357 1
1232 1357 1
1240 1357 1
480 1358 1
483 1358 1
1101 1358 1
1108 1358 1
1208 1358 1
1217 1358 1
1233 1358 1
1241 1358 1
481 1359 1
484 1359 1
1102 1359 1
1109 1359 1
1209 1359 1
1218 1359 1
1234 1359 1
1242 1359 1
482 1360 1
485 1360 1
1103 1360 1
1110 1360 1
1210 1360 1
1219 1360 1
1235 1360 1
1243 1360 1
483 1361 1
486 1361 1
1104 1361 1
1111 1361 1
1211 1361 1
1220 1361 1
1236 1361 1
1244 1361 1
484 1362 1
487 1362 1
1105 1362 1
1112 1362 1
1212 1362 1
1221 1362 1
1237 1362 1
1245 1362 1
485 1363 1
488 1363 1
1106 1363 1
1113 1363 1
1213 1363 1
1222 1363 1
1238 1363 1
1246 1363 1
486 1364 1
489 1364 1
1107 1364 1
1114 1364 1
1214 1364 1
1223 1364 1
1239 1364 1
1247 1364 1
487 1365 1
490 1365 1
1108 1365 1
1115 1365 1
1215 1365 1
1224 1365 1
1240 1365 1
1248 1365 1
488 1366 1
491 1366 1
1109 1366 1
1116 1366 1
1216 1366 1
1225 1366 1
1241 1366 1
1249 1366 1
489 1367 1
492 1367 1
1110 1367 1
1117 1367 1
1201 1367 1
1217 1367 1
1242 1367 1
1250 1367 1
490 1368 1
493 1368 1
1111 1368 1
1118 1368 1
1202 1368 1
1218 1368 1
1226 1368 1
1243 1368 1
491 1369 1
494 1369 1
1112 1369 1
1119 1369 1
1203 1369 1
1219 1369 1
1227 1369 1
1244 1369 1
492 1370 1
495 1370 1
1113 1370 1
1120 1370 1
1204 1370 1
1220 1370 1
1228 1370 1
1245 1370 1
493 1371 1
496 1371 1
1114 1371 1
1121 1371 1
1205 1371 1
1221 1371 1
1229 1371 1
1246 1371 1
494 1372 1
497 1372 1
1115 1372 1
1122 1372 1
1206 1372 1
1222 1372 1
1230 1372 1
1247 1372 1
495 1373 1
498 1373 1
1116 1373 1
1123 1373 1
1207 1373 1
1223 1373 1
1231 1373 1
1248 1373 1
496 1374 1
499 1374 1
1117 1374 1
1124 1374 1
1208 1374 1
1224 1374 1
1232 1374 1
1249 1374 1
497 1375 1
500 1375 1
1118 1375 1
1125 1375 1
1209 1375 1
1225 1375 1
1233 1375 1
1250 1375 1
501 1376 1
523 1376 1
876 1376 1
896 1376 1
1251 1376 1
1255 1376 1
1276 1376 1
1278 1376 1
502 1377 1
524 1377 1
877 1377 1
897 1377 1
1252 1377 1
1256 1377 1
1277 1377 1
1279 1377 1
503 1378 1
525 1378 1
878 1378 1
898 1378 1
1253 1378 1
1257 1378 1
1278 1378 1
1280 1378 1
501 1379 1
504 1379 1
879 1379 1
899 1379 1
1254 1379 1
1258 1379 1
1279 1379 1
1281 1379 1
502 1380 1
505 1380 1
880 1380 1
900 1380 1
1255 1380 1
1259 1380 1
1280 1380 1
1282 1380 1
503 1381 1
506 1381 1
876 1381 1
881 1381 1
1256 1381 1
1260 1381 1
1281 1381 1
1283 1381 1
504 1382 1
507 1382 1
877 1382 1
882 1382 1
1257 1382 1
1261 1382 1
1282 1382 1
1284 1382 1
505 1383 1
508 1383 1
878 1383 1
883 1383 1
1258 1383 1
1262 1383 1
1283 1383 1
1285 1383 1
506 1384 1
509 1384 1
879 1384 1
884 1384 1
1259 1384 1
1263 1384 1
1284 1384 1
1286 1384 1
507 1385 1
510 1385 1
880 1385 1
885 1385 1
1260 1385 1
1264 1385 1
1285 1385 1
1287 1385 1
508 1386 1
511 1386 1
881 1386 1
886 1386 1
1261 1386 1
1265 1386 1
1286 1386 1
1288 1386 1
509 1387 1
512 1387 1
882 1387 1
887 1387 1
1262 1387 1
1266 1387 1
1287 1387 1
1289 1387 1
510 1388 1
513 1388 1
883 1388 1
888 1388 1
1263 1388 1
1267 1388 1
1288 1388 1
1290 1388 1
511 1389 1
514 1389 1
884 1389 1
889 1389 1
1264 1389 1
1268 1389 1
1289 1389 1
1291 1389 1
512 1390 1
515 1390 1
885 1390 1
890 1390 1
1265 1390 1
1269 1390 1
1290 1390 1
1292 1390 1
513 1391 1
516 1391 1
886 1391 1
891 1391 1
1266 1391 1
1270 1391 1
1291 1391 1
1293 1391 1
514 1392 1
517 1392 1
887 1392 1
892 1392 1
1267 1392 1
1271 1392 1
1292 1392 1
1294 1392 1
515 1393 1
518 1393 1
888 1393 1
893 1393 1
1268 1393 1
1272 1393 1
1293 1393 1
1295 1393 1
516 1394 1
519 1394 1
889 1394 1
894 1394 1
1269 1394 1
1273 1394 1
1294 1394 1
1296 1394 1
517 1395 1
520 1395 1
890 1395 1
895 1395 1
1270 1395 1
1274 1395 1
1295 1395 1
1297 1395 1
518 1396 1
521 1396 1
891 1396 1
896 1396 1
1271 1396 1
1275 1396 1
1296 1396 1
1298 1396 1
519 1397 1
522 1397 1
892 1397 1
897 1397 1
1251 1397 1
1272 1397 1
1297 1397 1
1299 1397 1
520 1398 1
523 1398 1
893 1398 1
898 1398 1
1252 1398 1
1273 1398 1
1298 1398 1
1300 1398 1
521 1399 1
524 1399 1
894 1399 1
899 1399 1
1253 1399 1
1274 1399 1
1276 1399 1
1299 1399 1
522 1400 1
525 1400 1
895 1400 1
900 1400 1
1254 1400 1
1275 1400 1
1277 1400 1
1300 1400 1
526 1401 1
548 1401 1
901 1401 1
921 1401 1
1251 1401 1
1257 1401 1
1301 1401 1
1303 1401 1
527 1402 1
549 1402 1
902 1402 1
922 1402 1
1252 1402 1
1258 1402 1
1302 1402 1
1304 1402 1
528 1403 1
550 1403 1
903 1403 1
923 1403 1
1253 1403 1
1259 1403 1
1303 1403 1
1305 1403 1
526 1404 1
529 1404 1
904 1404 1
924 1404 1
1254 1404 1
1260 1404 1
1304 1404 1
1306 1404 1
527 1405 1
530 1405 1
905 1405 1
925 1405 1
1255 1405 1
1261 1405 1
1305 1405 1
1307 1405 1
528 1406 1
531 1406 1
901 1406 1
906 1406 1
1256 1406 1
1262 1406 1
1306 1406 1
1308 1406 1
529 1407 1
532 1407 1
902 1407 1
907 1407 1
1257 1407 1
1263 1407 1
1307 1407 1
1309 1407 1
530 1408 1
533 1408 1
903 1408 1
908 1408 1
1258 1408 1
1264 1408 1
1308 1408 1
1310 1408 1
531 1409 1
534 1409 1
904 1409 1
909 1409 1
1259 1409 1
1265 1409 1
1309 1409 1
1311 1409 1
532 1410 1
535 1410 1
905 1410 1
910 1410 1
1260 1410 1
1266 1410 1
1310 1410 1
1312 1410 1
533 1411 1
536 1411 1
906 1411 1
911 1411 1
1261 1411 1
1267 1411 1
1311 1411 1
1313 1411 1
534 1412 1
537 1412 1
907 1412 1
912 1412 1
1262 1412 1
1268 1412 1
1312 1412 1
1314 1412 1
535 1413 1
538 1413 1
908 1413 1
913 1413 1
1263 1413 1
1269 1413 1
1313 1413 1
1315 1413 1
536 1414 1
539 1414 1
909 1414 1
914 1414 1
1264 1414 1
1270 1414 1
1314 1414 1
1316 1414 1
537 1415 1
540 1415 1
910 1415 1
915 1415 1
1265 1415 1
1271 1415 1
1315 1415 1
1317 1415 1
538 1416 1
541 1416 1
911 1416 1
916 1416 1
1266 1416 1
1272 1416 1
1316 1416 1
1318 1416 1
539 1417 1
542 1417 1
912 1417 1
917 1417 1
1267 1417 1
1273 1417 1
1317 1417 1
1319 1417 1
540 1418 1
543 1418 1
913 1418 1
918 1418 1
1268 1418 1
1274 1418 1
1318 1418 1
1320 1418 1
541 1419 1
544 1419 1
914 1419 1
919 1419 1
1269 1419 1
1275 1419 1
1319 1419 1
1321 1419 1
542 1420 1
545 1420 1
915 1420 1
920 1420 1
1251 1420 1
1270 1420 1
1320 1420 1
1322 1420 1
543 1421 1
546 1421 1
916 1421 1
921 1421 1
1252 1421 1
1271 1421 1
1321 1421 1
1323 1421 1
544 1422 1
547 1422 1
917 1422 1
922 1422 1
1253 1422 1
1272 1422 1
1322 1422 1
1324 1422 1
545 1423 1
548 1423 1
918 1423 1
923 1423 1
1254 1423 1
1273 1423 1
1323 1423 1
1325 1423 1
546 1424 1
549 1424 1
919 1424 1
924 1424 1
1255 1424 1
1274 1424 1
1301 1424 1
1324 1424 1
547 1425 1
550 1425 1
920 1425 1
925 1425 1
1256 1425 1
1275 1425 1
1302 1425 1
1325 1425 1
551 1426 1
573 1426 1
926 1426 1
946 1426 1
1276 1426 1
1282 1426 1
1301 1426 1
1305 1426 1
552 1427 1
574 1427 1
927 1427 1
947 1427 1
1277 1427 1
1283 1427 1
1302 1427 1
1306 1427 1
553 1428 1
575 1428 1
928 1428 1
948 1428 1
1278 1428 1
1284 1428 1
1303 1428 1
1307 1428 1
551 1429 1
554 1429 1
929 1429 1
949 1429 1
1279 1429 1
1285 1429 1
1304 1429 1
1308 1429 1
552 1430 1
555 1430 1
930 1430 1
950 1430 1
1280 1430 1
1286 1430 1
1305 1430 1
1309 1430 1
553 1431 1
556 1431 1
926 1431 1
931 1431 1
1281 1431 1
1287 1431 1
1306 1431 1
1310 1431 1
554 1432 1
557 1432 1
927 1432 1
932 1432 1
1282 1432 1
1288 1432 1
1307 1432 1
1311 1432 1
555 1433 1
558 1433 1
928 1433 1
933 1433 1
1283 1433 1
1289 1433 1
1308 1433 1
1312 1433 1
556 1434 1
559 1434 1
929 1434 1
934 1434 1
1284 1434 1
1290 1434 1
1309 1434 1
1313 1434 1
557 1435 1
560 1435 1
930 1435 1
935 1435 1
1285 1435 1
1291 1435 1
1310 1435 1
1314 1435 1
558 1436 1
561 1436 1
931 1436 1
936 1436 1
1286 1436 1
1292 1436 1
1311 1436 1
1315 1436 1
559 1437 1
562 1437 1
932 1437 1
937 1437 1
1287 1437 1
1293 1437 1
1312 1437 1
1316 1437 1
560 1438 1
563 1438 1
933 1438 1
938 1438 1
1288 1438 1
1294 1438 1
1313 1438 1
1317 1438 1
561 1439 1
564 1439 1
934 1439 1
939 1439 1
1289 1439 1
1295 1439 1
1314 1439 1
1318 1439 1
562 1440 1
565 1440 1
935 1440 1
940 1440 1
1290 1440 1
1296 1440 1
1315 1440 1
1319 1440 1
563 1441 1
566 1441 1
936 1441 1
941 1441 1
1291 1441 1
1297 1441 1
1316 1441 1
1320 1441 1
564 1442 1
567 1442 1
937 1442 1
942 1442 1
1292 1442 1
1298 1442 1
1317 1442 1
1321 1442 1
565 1443 1
568 1443 1
938 1443 1
943 1443 1
1293 1443 1
1299 1443 1
1318 1443 1
1322 1443 1
566 1444 1
569 1444 1
939 1444 1
944 1444 1
1294 1444 1
1300 1444 1
1319 1444 1
1323 1444 1
567 1445 1
570 1445 1
940 1445 1
945 1445 1
1276 1445 1
1295 1445 1
1320 1445 1
1324 1445 1
568 1446 1
571 1446 1
941 1446 1
946 1446 1
1277 1446 1
1296 1446 1
1321 1446 1
1325 1446 1
569 1447 1
572 1447 1
942 1447 1
947 1447 1
1278 1447 1
1297 1447 1
1301 1447 1
1322 1447 1
570 1448 1
573 1448 1
943 1448 1
948 1448 1
1279 1448 1
1298 1448 1
1302 1448 1
1323 1448 1
571 1449 1
574 1449 1
944 1449 1
949 1449 1
1280 1449 1
1299 1449 1
1303 1449 1
1324 1449 1
572 1450 1
575 1450 1
945 1450 1
950 1450 1
1281 1450 1
1300 1450 1
1304 1450 1
1325 1450 1
576 1451 1
598 1451 1
951 1451 1
971 1451 1
1251 1451 1
1259 1451 1
1326 1451 1
1328 1451 1
577 1452 1
599 1452 1
952 1452 1
972 1452 1
1252 1452 1
1260 1452 1
1327 1452 1
1329 1452 1
578 1453 1
600 1453 1
953 1453 1
973 1453 1
1253 1453 1
1261 1453 1
1328 1453 1
1330 1453 1
576 1454 1
579 1454 1
954 1454 1
974 1454 1
1254 1454 1
1262 1454 1
1329 1454 1
1331 1454 1
577 1455 1
580 1455 1
955 1455 1
975 1455 1
1255 1455 1
1263 1455 1
1330 1455 1
1332 1455 1
578 1456 1
581 1456 1
951 1456 1
956 1456 1
1256 1456 1
1264 1456 1
1331 1456 1
1333 1456 1
579 1457 1
582 1457 1
952 1457 1
957 1457 1
1257 1457 1
1265 1457 1
1332 1457 1
1334 1457 1
580 1458 1
583 1458 1
953 1458 1
958 1458 1
1258 1458 1
1266 1458 1
1333 1458 1
1335 1458 1
581 1459 1
584 1459 1
954 1459 1
959 1459 1
1259 1459 1
1267 1459 1
1334 1459 1
1336 1459 1
582 1460 1
585 1460 1
955 1460 1
960 1460 1
1260 1460 1
1268 1460 1
1335 1460 1
1337 1460 1
583 1461 1
586 1461 1
956 1461 1
961 1461 1
1261 1461 1
1269 1461 1
1336 1461 1
1338 1461 1
584 1462 1
587 1462 1
957 1462 1
962 1462 1
1262 1462 1
1270 1462 1
1337 1462 1
1339 1462 1
585 1463 1
588 1463 1
958 1463 1
963 1463 1
1263 1463 1
1271 1463 1
1338 1463 1
1340 1463 1
586 1464 1
589 1464 1
959 1464 1
964 1464 1
1264 1464 1
1272 1464 1
1339 1464 1
1341 1464 1
587 1465 1
590 1465 1
960 1465 1
965 1465 1
1265 1465 1
1273 1465 1
1340 1465 1
1342 1465 1
588 1466 1
591 1466 1
961 1466 1
966 1466 1
1266 1466 1
1274 1466 1
1341 1466 1
1343 1466 1
589 1467 1
592 1467 1
962 1467 1
967 1467 1
1267 1467 1
1275 1467 1
1342 1467 1
1344 1467 1
590 1468 1
593 1468 1
963 1468 1
968 1468 1
1251 1468 1
1268 1468 1
1343 1468 1
1345 1468 1
591 1469 1
594 1469 1
964 1469 1
969 1469 1
1252 1469 1
1269 1469 1
1344 1469 1
1346 1469 1
592 1470 1
595 1470 1
965 1470 1
970 1470 1
1253 1470 1
1270 1470 1
1345 1470 1
1347 1470 1
593 1471 1
596 1471 1
966 1471 1
971 1471 1
1254 1471 1
1271 1471 1
1346 1471 1
1348 1471 1
594 1472 1
597 1472 1
967 1472 1
972 1472 1
1255 1472 1
1272 1472 1
1347 1472 1
1349 1472 1
595 1473 1
598 1473 1
968 1473 1
973 1473 1
1256 1473 1
1273 1473 1
1348 1473 1
1350 1473 1
596 1474 1
599 1474 1
969 1474 1
974 1474 1
1257 1474 1
1274 1474 1
1326 1474 1
1349 1474 1
597 1475 1
600 1475 1
970 1475 1
975 1475 1
1258 1475 1
1275 1475 1
1327 1475 1
1350 1475 1
601 1476 1
623 1476 1
976 1476 1
996 1476 1
1276 1476 1
1284 1476 1
1326 1476 1
1330 1476 1
602 1477 1
624 1477 1
977 1477 1
997 1477 1
1277 1477 1
1285 1477 1
1327 1477 1
1331 1477 1
603 1478 1
625 1478 1
978 1478 1
998 1478 1
1278 1478 1
1286 1478 1
1328 1478 1
1332 1478 1
601 1479 1
604 1479 1
979 1479 1
999 1479 1
1279 1479 1
1287 1479 1
1329 1479 1
1333 1479 1
602 1480 1
605 1480 1
980 1480 1
1000 1480 1
1280 1480 1
1288 1480 1
1330 1480 1
1334 1480 1
603 1481 1
606 1481 1
976 1481 1
981 1481 1
1281 1481 1
1289 1481 1
1331 1481 1
1335 1481 1
604 1482 1
607 1482 1
977 1482 1
982 1482 1
1282 1482 1
1290 1482 1
1332 1482 1
1336 1482 1
605 1483 1
608 1483 1
978 1483 1
983 1483 1
1283 1483 1
1291 1483 1
1333 1483 1
1337 1483 1
606 1484 1
609 1484 1
979 1484 1
984 1484 1
1284 1484 1
1292 1484 1
1334 1484 1
1338 1484 1
607 1485 1
610 1485 1
980 1485 1
985 1485 1
1285 1485 1
1293 1485 1
1335 1485 1
1339 1485 1
608 1486 1
611 1486 1
981 1486 1
986 1486 1
1286 1486 1
1294 1486 1
1336 1486 1
1340 1486 1
609 1487 1
612 1487 1
982 1487 1
987 1487 1
1287 1487 1
1295 1487 1
1337 1487 1
1341 1487 1
610 1488 1
613 1488 1
983 1488 1
988 1488 1
1288 1488 1
1296 1488 1
1338 1488 1
1342 1488 1
611 1489 1
614 1489 1
984 1489 1
989 1489 1
1289 1489 1
1297 1489 1
1339 1489 1
1343 1489 1
612 1490 1
615 1490 1
985 1490 1
990 1490 1
1290 1490 1
1298 1490 1
1340 1490 1
1344 1490 1
613 1491 1
616 1491 1
986 1491 1
991 1491 1
1291 1491 1
1299 1491 1
1341 1491 1
1345 1491 1
614 1492 1
617 1492 1
987 1492 1
992 1492 1
1292 1492 1
1300 1492 1
1342 1492 1
1346 1492 1
615 1493 1
618 1493 1
988 1493 1
993 1493 1
1276 1493 1
1293 1493 1
1343 1493 1
1347 1493 1
616 1494 1
619 1494 1
989 1494 1
994 1494 1
1277 1494 1
1294 1494 1
1344 1494 1
1348 1494 1
617 1495 1
620 1495 1
990 1495 1
995 1495 1
1278 1495 1
1295 1495 1
1345 1495 1
1349 1495 1
618 1496 1
621 1496 1
991 1496 1
996 1496 1
1279 1496 1
1296 1496 1
1346 1496 1
1350 1496 1
619 1497 1
622 1497 1
992 1497 1
997 1497 1
1280 1497 1
1297 1497 1
1326 1497 1
1347 1497 1
620 1498 1
623 1498 1
993 1498 1
998 1498 1
1281 1498 1
1298 1498 1
1327 1498 1
1348 1498 1
621 1499 1
624 1499 1
994 1499 1
999 1499 1
1282 1499 1
1299 1499 1
1328 1499 1
1349 1499 1
622 1500 1
625 1500 1
995 1500 1
1000 1500 1
1283 1500 1
1300 1500 1
1329 1500 1
1350 1500 1
626 1501 1
648 1501 1
1001 1501 1
1021 1501 1
1301 1501 1
1309 1501 1
1326 1501 1
1332 1501 1
627 1502 1
649 1502 1
1002 1502 1
1022 1502 1
1302 1502 1
1310 1502 1
1327 1502 1
1333 1502 1
628 1503 1
650 1503 1
1003 1503 1
1023 1503 1
1303 1503 1
1311 1503 1
1328 1503 1
1334 1503 1
626 1504 1
629 1504 1
1004 1504 1
1024 1504 1
1304 1504 1
1312 1504 1
1329 1504 1
1335 1504 1
627 1505 1
630 1505 1
1005 1505 1
1025 1505 1
1305 1505 1
1313 1505 1
1330 1505 1
1336 1505 1
628 1506 1
631 1506 1
1001 1506 1
1006 1506 1
1306 1506 1
1314 1506 1
1331 1506 1
1337 1506 1
629 1507 1
632 1507 1
1002 1507 1
1007 1507 1
1307 1507 1
1315 1507 1
1332 1507 1
1338 1507 1
630 1508 1
633 1508 1
1003 1508 1
1008 1508 1
1308 1508 1
1316 1508 1
1333 1508 1
1339 1508 1
631 1509 1
634 1509 1
1004 1509 1
1009 1509 1
1309 1509 1
1317 1509 1
1334 1509 1
1340 1509 1
632 1510 1
635 1510 1
1005 1510 1
1010 1510 1
1310 1510 1
1318 1510 1
1335 1510 1
1341 1510 1
633 1511 1
636 1511 1
1006 1511 1
1011 1511 1
1311 1511 1
1319 1511 1
1336 1511 1
1342 1511 1
634 1512 1
637 1512 1
1007 1512 1
1012 1512 1
1312 1512 1
1320 1512 1
1337 1512 1
1343 1512 1
635 1513 1
638 1513 1
1008 1513 1
1013 1513 1
1313 1513 1
1321 1513 1
1338 1513 1
1344 1513 1
636 1514 1
639 1514 1
1009 1514 1
1014 1514 1
1314 1514 1
1322 1514 1
1339 1514 1
1345 1514 1
637 1515 1
640 1515 1
1010 1515 1
1015 1515 1
1315 1515 1
1323 1515 1
1340 1515 1
1346 1515 1
638 1516 1
641 1516 1
1011 1516 1
1016 1516 1
1316 1516 1
1324 1516 1
1341 1516 1
1347 1516 1
639 1517 1
642 1517 1
1012 1517 1
1017 1517 1
1317 1517 1
1325 1517 1
1342 1517 1
1348 1517 1
640 1518 1
643 1518 1
1013 1518 1
1018 1518 1
1301 1518 1
1318 1518 1
1343 1518 1
1349 1518 1
641 1519 1
644 1519 1
1014 1519 1
1019 1519 1
1302 1519 1
1319 1519 1
1344 1519 1
1350 1519 1
642 1520 1
645 1520 1
1015 1520 1
1020 1520 1
1303 1520 1
1320 1520 1
1326 1520 1
1345 1520 1
643 1521 1
646 1521 1
1016 1521 1
1021 1521 1
1304 1521 1
1321 1521 1
1327 1521 1
1346 1521 1
644 1522 1
647 1522 1
1017 1522 1
1022 1522 1
1305 1522 1
1322 1522 1
1328 1522 1
1347 1522 1
645 1523 1
648 1523 1
1018 1523 1
1023 1523 1
1306 1523 1
1323 1523 1
1329 1523 1
1348 1523 1
646 1524 1
649 1524 1
1019 1524 1
1024 1524 1
1307 1524 1
1324 1524 1
1330 1524 1
1349 1524 1
647 1525 1
650 1525 1
1020 1525 1
1025 1525 1
1308 1525 1
1325 1525 1
1331 1525 1
1350 1525 1
651 1526 1
673 1526 1
1026 1526 1
1046 1526 1
1251 1526 1
1260 1526 1
1351 1526 1
1353 1526 1
652 1527 1
674 1527 1
1027 1527 1
1047 1527 1
1252 1527 1
1261 1527 1
1352 1527 1
1354 1527 1
653 1528 1
675 1528 1
1028 1528 1
1048 1528 1
1253 1528 1
1262 1528 1
1353 1528 1
1355 1528 1
651 1529 1
654 1529 1
1029 1529 1
1049 1529 1
1254 1529 1
1263 1529 1
1354 1529 1
1356 1529 1
652 1530 1
655 1530 1
1030 1530 1
1050 1530 1
1255 1530 1
1264 1530 1
1355 1530 1
1357 1530 1
653 1531 1
656 1531 1
1026 1531 1
1031 1531 1
1256 1531 1
1265 1531 1
1356 1531 1
1358 1531 1
654 1532 1
657 1532 1
1027 1532 1
1032 1532 1
1257 1532 1
1266 1532 1
1357 1532 1
1359 1532 1
655 1533 1
658 1533 1
1028 1533 1
1033 1533 1
1258 1533 1
1267 1533 1
1358 1533 1
1360 1533 1
656 1534 1
659 1534 1
1029 1534 1
1034 1534 1
1259 1534 1
1268 1534 1
1359 1534 1
1361 1534 1
657 1535 1
660 1535 1
1030 1535 1
1035 1535 1
1260 1535 1
1269 1535 1
1360 1535 1
1362 1535 1
658 1536 1
661 1536 1
1031 1536 1
1036 1536 1
1261 1536 1
1270 1536 1
1361 1536 1
1363 1536 1
659 1537 1
662 1537 1
1032 1537 1
1037 1537 1
1262 1537 1
1271 1537 1
1362 1537 1
1364 1537 1
660 1538 1
663 1538 1
1033 1538 1
1038 1538 1
1263 1538 1
1272 1538 1
1363 1538 1
1365 1538 1
661 1539 1
664 1539 1
1034 1539 1
1039 1539 1
1264 1539 1
1273 1539 1
1364 1539 1
1366 1539 1
662 1540 1
665 1540 1
1035 1540 1
1040 1540 1
1265 1540 1
1274 1540 1
1365 1540 1
1367 1540 1
663 1541 1
666 1541 1
1036 1541 1
1041 1541 1
1266 1541 1
1275 1541 1
1366 1541 1
1368 1541 1
664 1542 1
667 1542 1
1037 1542 1
1042 1542 1
1251 1542 1
1267 1542 1
1367 1542 1
1369 1542 1
665 1543 1
668 1543 1
1038 1543 1
1043 1543 1
1252 1543 1
1268 1543 1
1368 1543 1
1370 1543 1
666 1544 1
669 1544 1
1039 1544 1
1044 1544 1
1253 1544 1
1269 1544 1
1369 1544 1
1371 1544 1
667 1545 1
670 1545 1
1040 1545 1
1045 1545 1
1254 1545 1
1270 1545 1
1370 1545 1
1372 1545 1
668 1546 1
671 1546 1
1041 1546 1
1046 1546 1
1255 1546 1
1271 1546 1
1371 1546 1
1373 1546 1
669 1547 1
672 1547 1
1042 1547 1
1047 1547 1
1256 1547 1
1272 1547 1
1372 1547 1
1374 1547 1
670 1548 1
673 1548 1
1043 1548 1
1048 1548 1
1257 1548 1
1273 1548 1
1373 1548 1
1375 1548 1
671 1549 1
674 1549 1
1044 1549 1
1049 1549 1
1258 1549 1
1274 1549 1
1351 1549 1
1374 1549 1
672 1550 1
675 1550 1
1045 1550 1
1050 1550 1
1259 1550 1
1275 1550 1
1352 1550 1
1375 1550 1
676 1551 1
698 1551 1
1051 1551 1
1071 1551 1
1276 1551 1
1285 1551 1
1351 1551 1
1355 1551 1
677 1552 1
699 1552 1
1052 1552 1
1072 1552 1
1277 1552 1
1286 1552 1
1352 1552 1
1356 1552 1
678 1553 1
700 1553 1
1053 1553 1
1073 1553 1
1278 1553 1
1287 1553 1
1353 1553 1
1357 1553 1
676 1554 1
679 1554 1
1054 1554 1
1074 1554 1
1279 1554 1
1288 1554 1
1354 1554 1
1358 1554 1
677 1555 1
680 1555 1
1055 1555 1
1075 1555 1
1280 1555 1
1289 1555 1
1355 1555 1
1359 1555 1
678 1556 1
681 1556 1
1051 1556 1
1056 1556 1
1281 1556 1
1290 1556 1
1356 1556 1
1360 1556 1
679 1557 1
682 1557 1
1052 1557 1
1057 1557 1
1282 1557 1
1291 1557 1
1357 1557 1
1361 1557 1
680 1558 1
683 1558 1
1053 1558 1
1058 1558 1
1283 1558 1
1292 1558 1
1358 1558 1
1362 1558 1
681 1559 1
684 1559 1
1054 1559 1
1059 1559 1
1284 1559 1
1293 1559 1
1359 1559 1
1363 1559 1
682 1560 1
685 1560 1
1055 1560 1
1060 1560 1
1285 1560 1
1294 1560 1
1360 1560 1
1364 1560 1
683 1561 1
686 1561 1
1056 1561 1
1061 1561 1
1286 1561 1
1295 1561 1
1361 1561 1
1365 1561 1
684 1562 1
687 1562 1
1057 1562 1
1062 1562 1
1287 1562 1
1296 1562 1
1362 1562 1
1366 1562 1
685 1563 1
688 1563 1
1058 1563 1
1063 1563 1
1288 1563 1
1297 1563 1
1363 1563 1
1367 1563 1
686 1564 1
689 1564 1
1059 1564 1
1064 1564 1
1289 1564 1
1298 1564 1
1364 1564 1
1368 1564 1
687 1565 1
690 1565 1
1060 1565 1
1065 1565 1
1290 1565 1
1299 1565 1
1365 1565 1
1369 1565 1
688 1566 1
691 1566 1
1061 1566 1
1066 1566 1
1291 1566 1
1300 1566 1
1366 1566 1
1370 1566 1
689 1567 1
692 1567 1
1062 1567 1
1067 1567 1
1276 1567 1
1292 1567 1
1367 1567 1
1371 1567 1
690 1568 1
693 1568 1
1063 1568 1
1068 1568 1
1277 1568 1
1293 1568 1
1368 1568 1
1372 1568 1
691 1569 1
694 1569 1
1064 1569 1
1069 1569 1
1278 1569 1
1294 1569 1
1369 1569 1
1373 1569 1
692 1570 1
695 1570 1
1065 1570 1
1070 1570 1
1279 1570 1
1295 1570 1
1370 1570 1
1374 1570 1
693 1571 1
696 1571 1
1066 1571 1
1071 1571 1
1280 1571 1
1296 1571 1
1371 1571 1
1375 1571 1
694 1572 1
697 1572 1
1067 1572 1
1072 1572 1
1281 1572 1
1297 1572 1
1351 1572 1
1372 1572 1
695 1573 1
698 1573 1
1068 1573 1
1073 1573 1
1282 1573 1
1298 1573 1
1352 1573 1
1373 1573 1
696 1574 1
699 1574 1
1069 1574 1
1074 1574 1
1283 1574 1
1299 1574 1
1353 1574 1
1374 1574 1
697 1575 1
700 1575 1
1070 1575 1
1075 1575 1
1284 1575 1
1300 1575 1
1354 1575 1
1375 1575 1
701 1576 1
723 1576 1
1076 1576 1
1096 1576 1
1301 1576 1
1310 1576 1
1351 1576 1
1357 1576 1
702 1577 1
724 1577 1
1077 1577 1
1097 1577 1
1302 1577 1
1311 1577 1
1352 1577 1
1358 1577 1
703 1578 1
725 1578 1
1078 1578 1
1098 1578 1
1303 1578 1
1312 1578 1
1353 1578 1
1359 1578 1
701 1579 1
704 1579 1
1079 1579 1
1099 1579 1
1304 1579 1
1313 1579 1
1354 1579 1
1360 1579 1
702 1580 1
705 1580 1
1080 1580 1
1100 1580 1
1305 1580 1
1314 1580 1
1355 1580 1
1361 1580 1
703 1581 1
706 1581 1
1076 1581 1
1081 1581 1
1306 1581 1
1315 1581 1
1356 1581 1
1362 1581 1
704 1582 1
707 1582 1
1077 1582 1
1082 1582 1
1307 1582 1
1316 1582 1
1357 1582 1
1363 1582 1
705 1583 1
708 1583 1
1078 1583 1
1083 1583 1
1308 1583 1
1317 1583 1
1358 1583 1
1364 1583 1
706 1584 1
709 1584 1
1079 1584 1
1084 1584 1
1309 1584 1
1318 1584 1
1359 1584 1
1365 1584 1
707 1585 1
710 1585 1
1080 1585 1
1085 1585 1
1310 1585 1
1319 1585 1
1360 1585 1
1366 1585 1
708 1586 1
711 1586 1
1081 1586 1
1086 1586 1
1311 1586 1
1320 1586 1
1361 1586 1
1367 1586 1
709 1587 1
712 1587 1
1082 1587 1
1087 1587 1
1312 1587 1
1321 1587 1
1362 1587 1
1368 1587 1
710 1588 1
713 1588 1
1083 1588 1
1088 1588 1
1313 1588 1
1322 1588 1
1363 1588 1
1369 1588 1
711 1589 1
714 1589 1
1084 1589 1
1089 1589 1
1314 1589 1
1323 1589 1
1364 1589 1
1370 1589 1
712 1590 1
715 1590 1
1085 1590 1
1090 1590 1
1315 1590 1
1324 1590 1
1365 1590 1
1371 1590 1
713 1591 1
716 1591 1
1086 1591 1
1091 1591 1
1316 1591 1
1325 1591 1
1366 1591 1
1372 1591 1
714 1592 1
717 1592 1
1087 1592 1
1092 1592 1
1301 1592 1
1317 1592 1
1367 1592 1
1373 1592 1
715 1593 1
718 1593 1
1088 1593 1
1093 1593 1
1302 1593 1
1318 1593 1
1368 1593 1
1374 1593 1
716 1594 1
719 1594 1
1089 1594 1
1094 1594 1
1303 1594 1
1319 1594 1
1369 1594 1
1375 1594 1
717 1595 1
720 1595 1
1090 1595 1
1095 1595 1
1304 1595 1
1320 1595 1
1351 1595 1
1370 1595 1
718 1596 1
721 1596 1
1091 1596 1
1096 1596 1
1305 1596 1
1321 1596 1
1352 1596 1
1371 1596 1
719 1597 1
722 1597 1
1092 1597 1
1097 1597 1
1306 1597 1
1322 1597 1
1353 1597 1
1372 1597 1
720 1598 1
723 1598 1
1093 1598 1
1098 1598 1
1307 1598 1
1323 1598 1
1354 1598 1
1373 1598 1
721 1599 1
724 1599 1
1094 1599 1
1099 1599 1
1308 1599 1
1324 1599 1
1355 1599 1
1374 1599 1
722 1600 1
725 1600 1
1095 1600 1
1100 1600 1
1309 1600 1
1325 1600 1
1356 1600 1
1375 1600 1
726 1601 1
748 1601 1
1101 1601 1
1121 1601 1
1326 1601 1
1335 1601 1
1351 1601 1
1359 1601 1
727 1602 1
749 1602 1
1102 1602 1
1122 1602 1
1327 1602 1
1336 1602 1
1352 1602 1
1360 1602 1
728 1603 1
750 1603 1
1103 1603 1
1123 1603 1
1328 1603 1
1337 1603 1
1353 1603 1
1361 1603 1
726 1604 1
729 1604 1
1104 1604 1
1124 1604 1
1329 1604 1
1338 1604 1
1354 1604 1
1362 1604 1
727 1605 1
730 1605 1
1105 1605 1
1125 1605 1
1330 1605 1
1339 1605 1
1355 1605 1
1363 1605 1
728 1606 1
731 1606 1
1101 1606 1
1106 1606 1
1331 1606 1
1340 1606 1
1356 1606 1
1364 1606 1
729 1607 1
732 1607 1
1102 1607 1
1107 1607 1
1332 1607 1
1341 1607 1
1357 1607 1
1365 1607 1
730 1608 1
733 1608 1
1103 1608 1
1108 1608 1
1333 1608 1
1342 1608 1
1358 1608 1
1366 1608 1
731 1609 1
734 1609 1
1104 1609 1
1109 1609 1
1334 1609 1
1343 1609 1
1359 1609 1
1367 1609 1
732 1610 1
735 1610 1
1105 1610 1
1110 1610 1
1335 1610 1
1344 1610 1
1360 1610 1
1368 1610 1
733 1611 1
736 1611 1
1106 1611 1
1111 1611 1
1336 1611 1
1345 1611 1
1361 1611 1
1369 1611 1
734 1612 1
737 1612 1
1107 1612 1
1112 1612 1
1337 1612 1
1346 1612 1
1362 1612 1
1370 1612 1
735 1613 1
738 1613 1
1108 1613 1
1113 1613 1
1338 1613 1
1347 1613 1
1363 1613 1
1371 1613 1
736 1614 1
739 1614 1
1109 1614 1
1114 1614 1
1339 1614 1
1348 1614 1
1364 1614 1
1372 1614 1
737 1615 1
740 1615 1
1110 1615 1
1115 1615 1
1340 1615 1
1349 1615 1
1365 1615 1
1373 1615 1
738 1616 1
741 1616 1
1111 1616 1
1116 1616 1
1341 1616 1
1350 1616 1
1366 1616 1
1374 1616 1
739 1617 1
742 1617 1
1112 1617 1
1117 1617 1
1326 1617 1
1342 1617 1
1367 1617 1
1375 1617 1
740 1618 1
743 1618 1
1113 1618 1
1118 1618 1
1327 1618 1
1343 1618 1
1351 1618 1
1368 1618 1
741 1619 1
744 1619 1
1114 1619 1
1119 1619 1
1328 1619 1
1344 1619 1
1352 1619 1
1369 1619 1
742 1620 1
745 1620 1
1115 1620 1
1120 1620 1
1329 1620 1
1345 1620 1
1353 1620 1
1370 1620 1
743 1621 1
746 1621 1
1116 1621 1
1121 1621 1
1330 1621 1
1346 1621 1
1354 1621 1
1371 1621 1
744 1622 1
747 1622 1
1117 1622 1
1122 1622 1
1331 1622 1
1347 1622 1
1355 1622 1
1372 1622 1
745 1623 1
748 1623 1
1118 1623 1
1123 1623 1
1332 1623 1
1348 1623 1
1356 1623 1
1373 1623 1
746 1624 1
749 1624 1
1119 1624 1
1124 1624 1
1333 1624 1
1349 1624 1
1357 1624 1
1374 1624 1
747 1625 1
750 1625 1
1120 1625 1
1125 1625 1
1334 1625 1
1350 1625 1
1358 1625 1
1375 1625 1
751 1626 1
773 1626 1
1126 1626 1
1146 1626 1
1251 1626 1
1269 1626 1
1376 1626 1
1378 1626 1
752 1627 1
774 1627 1
1127 1627 1
1147 1627 1
1252 1627 1
1270 1627 1
1377 1627 1
1379 1627 1
753 1628 1
775 1628 1
1128 1628 1
1148 1628 1
1253 1628 1
1271 1628 1
1378 1628 1
1380 1628 1
751 1629 1
754 1629 1
1129 1629 1
1149 1629 1
1254 1629 1
1272 1629 1
1379 1629 1
1381 1629 1
752 1630 1
755 1630 1
1130 1630 1
1150 1630 1
1255 1630 1
1273 1630 1
1380 1630 1
1382 1630 1
753 1631 1
756 1631 1
1126 1631 1
1131 1631 1
1256 1631 1
1274 1631 1
1381 1631 1
1383 1631 1
754 1632 1
757 1632 1
1127 1632 1
1132 1632 1
1257 1632 1
1275 1632 1
1382 1632 1
1384 1632 1
755 1633 1
758 1633 1
1128 1633 1
1133 1633 1
1251 1633 1
1258 1633 1
1383 1633 1
1385 1633 1
756 1634 1
759 1634 1
1129 1634 1
1134 1634 1
1252 1634 1
1259 1634 1
1384 1634 1
1386 1634 1
757 1635 1
760 1635 1
1130 1635 1
1135 1635 1
1253 1635 1
1260 1635 1
1385 1635 1
1387 1635 1
758 1636 1
761 1636 1
1131 1636 1
1136 1636 1
1254 1636 1
1261 1636 1
1386 1636 1
1388 1636 1
759 1637 1
762 1637 1
1132 1637 1
1137 1637 1
1255 1637 1
1262 1637 1
1387 1637 1
1389 1637 1
760 1638 1
763 1638 1
1133 1638 1
1138 1638 1
1256 1638 1
1263 1638 1
1388 1638 1
1390 1638 1
761 1639 1
764 1639 1
1134 1639 1
1139 1639 1
1257 1639 1
1264 1639 1
1389 1639 1
1391 1639 1
762 1640 1
765 1640 1
1135 1640 1
1140 1640 1
1258 1640 1
1265 1640 1
1390 1640 1
1392 1640 1
763 1641 1
766 1641 1
1136 1641 1
1141 1641 1
1259 1641 1
1266 1641 1
1391 1641 1
1393 1641 1
764 1642 1
767 1642 1
1137 1642 1
1142 1642 1
1260 1642 1
1267 1642 1
1392 1642 1
1394 1642 1
765 1643 1
768 1643 1
1138 1643 1
1143 1643 1
1261 1643 1
1268 1643 1
1393 1643 1
1395 1643 1
766 1644 1
769 1644 1
1139 1644 1
1144 1644 1
1262 1644 1
1269 1644 1
1394 1644 1
1396 1644 1
767 1645 1
770 1645 1
1140 1645 1
1145 1645 1
1263 1645 1
1270 1645 1
1395 1645 1
1397 1645 1
768 1646 1
771 1646 1
1141 1646 1
1146 1646 1
1264 1646 1
1271 1646 1
1396 1646 1
1398 1646 1
769 1647 1
772 1647 1
1142 1647 1
1147 1647 1
1265 1647 1
1272 1647 1
1397 1647 1
1399 1647 1
770 1648 1
773 1648 1
1143 1648 1
1148 1648 1
1266 1648 1
1273 1648 1
1398 1648 1
1400 1648 1
771 1649 1
774 1649 1
1144 1649 1
1149 1649 1
1267 1649 1
1274 1649 1
1376 1649 1
1399 1649 1
772 1650 1
775 1650 1
1145 1650 1
1150 1650 1
1268 1650 1
1275 1650 1
1377 1650 1
1400 1650 1
776 1651 1
798 1651 1
1151 1651 1
1171 1651 1
1276 1651 1
1294 1651 1
1376 1651 1
1380 1651 1
777 1652 1
799 1652 1
1152 1652 1
1172 1652 1
1277 1652 1
1295 1652 1
1377 1652 1
1381 1652 1
778 1653 1
800 1653 1
1153 1653 1
1173 1653 1
1278 1653 1
1296 1653 1
1378 1653 1
1382 1653 1
776 1654 1
779 1654 1
1154 1654 1
1174 1654 1
1279 1654 1
1297 1654 1
1379 1654 1
1383 1654 1
777 1655 1
780 1655 1
1155 1655 1
1175 1655 1
1280 1655 1
1298 1655 1
1380 1655 1
1384 1655 1
778 1656 1
781 1656 1
1151 1656 1
1156 1656 1
1281 1656 1
1299 1656 1
1381 1656 1
1385 1656 1
779 1657 1
782 1657 1
1152 1657 1
1157 1657 1
1282 1657 1
1300 1657 1
1382 1657 1
1386 1657 1
780 1658 1
783 1658 1
1153 1658 1
1158 1658 1
1276 1658 1
1283 1658 1
1383 1658 1
1387 1658 1
781 1659 1
784 1659 1
1154 1659 1
1159 1659 1
1277 1659 1
1284 1659 1
1384 1659 1
1388 1659 1
782 1660 1
785 1660 1
1155 1660 1
1160 1660 1
1278 1660 1
1285 1660 1
1385 1660 1
1389 1660 1
783 1661 1
786 1661 1
1156 1661 1
1161 1661 1
1279 1661 1
1286 1661 1
1386 1661 1
1390 1661 1
784 1662 1
787 1662 1
1157 1662 1
1162 1662 1
1280 1662 1
1287 1662 1
1387 1662 1
1391 1662 1
785 1663 1
788 1663 1
1158 1663 1
1163 1663 1
1281 1663 1
1288 1663 1
1388 1663 1
1392 1663 1
786 1664 1
789 1664 1
1159 1664 1
1164 1664 1
1282 1664 1
1289 1664 1
1389 1664 1
1393 1664 1
787 1665 1
790 1665 1
1160 1665 1
1165 1665 1
1283 1665 1
1290 1665 1
1390 1665 1
1394 1665 1
788 1666 1
791 1666 1
1161 1666 1
1166 1666 1
1284 1666 1
1291 1666 1
1391 1666 1
1395 1666 1
789 1667 1
792 1667 1
1162 1667 1
1167 1667 1
1285 1667 1
1292 1667 1
1392 1667 1
1396 1667 1
790 1668 1
793 1668 1
1163 1668 1
1168 1668 1
1286 1668 1
1293 1668 1
1393 1668 1
1397 1668 1
791 1669 1
794 1669 1
1164 1669 1
1169 1669 1
1287 1669 1
1294 1669 1
1394 1669 1
1398 1669 1
792 1670 1
795 1670 1
1165 1670 1
1170 1670 1
1288 1670 1
1295 1670 1
1395 1670 1
1399 1670 1
793 1671 1
796 1671 1
1166 1671 1
1171 1671 1
1289 1671 1
1296 1671 1
1396 1671 1
1400 1671 1
794 1672 1
797 1672 1
1167 1672 1
1172 1672 1
1290 1672 1
1297 1672 1
1376 1672 1
1397 1672 1
795 1673 1
798 1673 1
1168 1673 1
1173 1673 1
1291 1673 1
1298 1673 1
1377 1673 1
1398 1673 1
796 1674 1
799 1674 1
1169 1674 1
1174 1674 1
1292 1674 1
1299 1674 1
1378 1674 1
1399 1674 1
797 1675 1
800 1675 1
1170 1675 1
1175 1675 1
1293 1675 1
1300 1675 1
1379 1675 1
1400 1675 1
801 1676 1
823 1676 1
1176 1676 1
1196 1676 1
1301 1676 1
1319 1676 1
1376 1676 1
1382 1676 1
802 1677 1
824 1677 1
1177 1677 1
1197 1677 1
1302 1677 1
1320 1677 1
1377 1677 1
1383 1677 1
803 1678 1
825 1678 1
1178 1678 1
1198 1678 1
1303 1678 1
1321 1678 1
1378 1678 1
1384 1678 1
801 1679 1
804 1679 1
1179 1679 1
1199 1679 1
1304 1679 1
1322 1679 1
1379 1679 1
1385 1679 1
802 1680 1
805 1680 1
1180 1680 1
1200 1680 1
1305 1680 1
1323 1680 1
1380 1680 1
1386 1680 1
803 1681 1
806 1681 1
1176 1681 1
1181 1681 1
1306 1681 1
1324 1681 1
1381 1681 1
1387 1681 1
804 1682 1
807 1682 1
1177 1682 1
1182 1682 1
1307 1682 1
1325 1682 1
1382 1682 1
1388 1682 1
805 1683 1
808 1683 1
1178 1683 1
1183 1683 1
1301 1683 1
1308 1683 1
1383 1683 1
1389 1683 1
806 1684 1
809 1684 1
1179 1684 1
1184 1684 1
1302 1684 1
1309 1684 1
1384 1684 1
1390 1684 1
807 1685 1
810 1685 1
1180 1685 1
1185 1685 1
1303 1685 1
1310 1685 1
1385 1685 1
1391 1685 1
808 1686 1
811 1686 1
1181 1686 1
1186 1686 1
1304 1686 1
1311 1686 1
1386 1686 1
1392 1686 1
809 1687 1
812 1687 1
1182 1687 1
1187 1687 1
1305 1687 1
1312 1687 1
1387 1687 1
1393 1687 1
810 1688 1
813 1688 1
1183 1688 1
1188 1688 1
1306 1688 1
1313 1688 1
1388 1688 1
1394 1688 1
811 1689 1
814 1689 1
1184 1689 1
1189 1689 1
1307 1689 1
1314 1689 1
1389 1689 1
1395 1689 1
812 1690 1
815 1690 1
1185 1690 1
1190 1690 1
1308 1690 1
1315 1690 1
1390 1690 1
1396 1690 1
813 1691 1
816 1691 1
1186 1691 1
1191 1691 1
1309 1691 1
1316 1691 1
1391 1691 1
1397 1691 1
814 1692 1
817 1692 1
1187 1692 1
1192 1692 1
1310 1692 1
1317 1692 1
1392 1692 1
1398 1692 1
815 1693 1
818 1693 1
1188 1693 1
1193 1693 1
1311 1693 1
1318 1693 1
1393 1693 1
1399 1693 1
816 1694 1
819 1694 1
1189 1694 1
1194 1694 1
1312 1694 1
1319 1694 1
1394 1694 1
1400 1694 1
817 1695 1
820 1695 1
1190 1695 1
1195 1695 1
1313 1695 1
1320 1695 1
1376 1695 1
1395 1695 1
818 1696 1
821 1696 1
1191 1696 1
1196 1696 1
1314 1696 1
1321 1696 1
1377 1696 1
1396 1696 1
819 1697 1
822 1697 1
1192 1697 1
1197 1697 1
1315 1697 1
1322 1697 1
1378 1697 1
1397 1697 1
820 1698 1
823 1698 1
1193 1698 1
1198 1698 1
1316 1698 1
1323 1698 1
1379 1698 1
1398 1698 1
821 1699 1
824 1699 1
1194 1699 1
1199 1699 1
1317 1699 1
1324 1699 1
1380 1699 1
1399 1699 1
822 1700 1
825 1700 1
1195 1700 1
1200 1700 1
1318 1700 1
1325 1700 1
1381 1700 1
1400 1700 1
826 1701 1
848 1701 1
1201 1701 1
1221 1701 1
1326 1701 1
1344 1701 1
1376 1701 1
1384 1701 1
827 1702 1
849 1702 1
1202 1702 1
1222 1702 1
1327 1702 1
1345 1702 1
1377 1702 1
1385 1702 1
828 1703 1
850 1703 1
1203 1703 1
1223 1703 1
1328 1703 1
1346 1703 1
1378 1703 1
1386 1703 1
826 1704 1
829 1704 1
1204 1704 1
1224 1704 1
1329 1704 1
1347 1704 1
1379 1704 1
1387 1704 1
827 1705 1
830 1705 1
1205 1705 1
1225 1705 1
1330 1705 1
1348 1705 1
1380 1705 1
1388 1705 1
828 1706 1
831 1706 1
1201 1706 1
1206 1706 1
1331 1706 1
1349 1706 1
1381 1706 1
1389 1706 1
829 1707 1
832 1707 1
1202 1707 1
1207 1707 1
1332 1707 1
1350 1707 1
1382 1707 1
1390 1707 1
830 1708 1
833 1708 1
1203 1708 1
1208 1708 1
1326 1708 1
1333 1708 1
1383 1708 1
1391 1708 1
831 1709 1
834 1709 1
1204 1709 1
1209 1709 1
1327 1709 1
1334 1709 1
1384 1709 1
1392 1709 1
832 1710 1
835 1710 1
1205 1710 1
1210 1710 1
1328 1710 1
1335 1710 1
1385 1710 1
1393 1710 1
833 1711 1
836 1711 1
1206 1711 1
1211 1711 1
1329 1711 1
1336 1711 1
1386 1711 1
1394 1711 1
834 1712 1
837 1712 1
1207 1712 1
1212 1712 1
1330 1712 1
1337 1712 1
1387 1712 1
1395 1712 1
835 1713 1
838 1713 1
1208 1713 1
1213 1713 1
1331 1713 1
1338 1713 1
1388 1713 1
1396 1713 1
836 1714 1
839 1714 1
1209 1714 1
1214 1714 1
1332 1714 1
1339 1714 1
1389 1714 1
1397 1714 1
837 1715 1
840 1715 1
1210 1715 1
1215 1715 1
1333 1715 1
1340 1715 1
1390 1715 1
1398 1715 1
838 1716 1
841 1716 1
1211 1716 1
1216 1716 1
1334 1716 1
1341 1716 1
1391 1716 1
1399 1716 1
839 1717 1
842 1717 1
1212 1717 1
1217 1717 1
1335 1717 1
1342 1717 1
1392 1717 1
1400 1717 1
840 1718 1
843 1718 1
1213 1718 1
1218 1718 1
1336 1718 1
1343 1718 1
1376 1718 1
1393 1718 1
841 1719 1
844 1719 1
1214 1719 1
1219 1719 1
1337 1719 1
1344 1719 1
1377 1719 1
1394 1719 1
842 1720 1
845 1720 1
1215 1720 1
1220 1720 1
1338 1720 1
1345 1720 1
1378 1720 1
1395 1720 1
843 1721 1
846 1721 1
1216 1721 1
1221 1721 1
1339 1721 1
1346 1721 1
1379 1721 1
1396 1721 1
844 1722 1
847 1722 1
1217 1722 1
1222 1722 1
1340 1722 1
1347 1722 1
1380 1722 1
1397 1722 1
845 1723 1
848 1723 1
1218 1723 1
1223 1723 1
1341 1723 1
1348 1723 1
1381 1723 1
1398 1723 1
846 1724 1
849 1724 1
1219 1724 1
1224 1724 1
1342 1724 1
1349 1724 1
1382 1724 1
1399 1724 1
847 1725 1
850 1725 1
1220 1725 1
1225 1725 1
1343 1725 1
1350 1725 1
1383 1725 1
1400 1725 1
851 1726 1
873 1726 1
1226 1726 1
1246 1726 1
1351 1726 1
1369 1726 1
1376 1726 1
1385 1726 1
852 1727 1
874 1727 1
1227 1727 1
1247 1727 1
1352 1727 1
1370 1727 1
1377 1727 1
1386 1727 1
853 1728 1
875 1728 1
1228 1728 1
1248 1728 1
1353 1728 1
1371 1728 1
1378 1728 1
1387 1728 1
851 1729 1
854 1729 1
1229 1729 1
1249 1729 1
1354 1729 1
1372 1729 1
1379 1729 1
1388 1729 1
852 1730 1
855 1730 1
1230 1730 1
1250 1730 1
1355 1730 1
1373 1730 1
1380 1730 1
1389 1730 1
853 1731 1
856 1731 1
1226 1731 1
1231 1731 1
1356 1731 1
1374 1731 1
1381 1731 1
1390 1731 1
854 1732 1
857 1732 1
1227 1732 1
1232 1732 1
1357 1732 1
1375 1732 1
1382 1732 1
1391 1732 1
855 1733 1
858 1733 1
1228 1733 1
1233 1733 1
1351 1733 1
1358 1733 1
1383 1733 1
1392 1733 1
856 1734 1
859 1734 1
1229 1734 1
1234 1734 1
1352 1734 1
1359 1734 1
1384 1734 1
1393 1734 1
857 1735 1
860 1735 1
1230 1735 1
1235 1735 1
1353 1735 1
1360 1735 1
1385 1735 1
1394 1735 1
858 1736 1
861 1736 1
1231 1736 1
1236 1736 1
1354 1736 1
1361 1736 1
1386 1736 1
1395 1736 1
859 1737 1
862 1737 1
1232 1737 1
1237 1737 1
1355 1737 1
1362 1737 1
1387 1737 1
1396 1737 1
860 1738 1
863 1738 1
1233 1738 1
1238 1738 1
1356 1738 1
1363 1738 1
1388 1738 1
1397 1738 1
861 1739 1
864 1739 1
1234 1739 1
1239 1739 1
1357 1739 1
1364 1739 1
1389 1739 1
1398 1739 1
862 1740 1
865 1740 1
1235 1740 1
1240 1740 1
1358 1740 1
1365 1740 1
1390 1740 1
1399 1740 1
863 1741 1
866 1741 1
1236 1741 1
1241 1741 1
1359 1741 1
1366 1741 1
1391 1741 1
1400 1741 1
864 1742 1
867 1742 1
1237 1742 1
1242 1742 1
1360 1742 1
1367 1742 1
1376 1742 1
1392 1742 1
865 1743 1
868 1743 1
1238 1743 1
1243 1743 1
1361 1743 1
1368 1743 1
1377 1743 1
1393 1743 1
866 1744 1
869 1744 1
1239 1744 1
1244 1744 1
1362 1744 1
1369 1744 1
1378 1744 1
1394 1744 1
867 1745 1
870 1745 1
1240 1745 1
1245 1745 1
1363 1745 1
1370 1745 1
1379 1745 1
1395 1745 1
868 1746 1
871 1746 1
1241 1746 1
1246 1746 1
1364 1746 1
1371 1746 1
1380 1746 1
1396 1746 1
869 1747 1
872 1747 1
1242 1747 1
1247 1747 1
1365 1747 1
1372 1747 1
1381 1747 1
1397 1747 1
870 1748 1
873 1748 1
1243 1748 1
1248 1748 1
1366 1748 1
1373 1748 1
1382 1748 1
1398 1748 1
871 1749 1
874 1749 1
1244 1749 1
1249 1749 1
1367 1749 1
1374 1749 1
1383 1749 1
1399 1749 1
872 1750 1
875 1750 1
1245 1750 1
1250 1750 1
1368 1750 1
1375 1750 1
1384 1750 1
1400 1750 1
