%%MatrixMarket matrix coordinate integer general
% Binary matrix; one-based indices; arithmetic over GF(2)
1400 1750 14000
1 1 1
17 1 1
26 1 1
33 1 1
151 1 1
156 1 1
526 1 1
529 1 1
2 2 1
18 2 1
27 2 1
34 2 1
152 2 1
157 2 1
527 2 1
530 2 1
3 3 1
19 3 1
28 3 1
35 3 1
153 3 1
158 3 1
528 3 1
531 3 1
4 4 1
20 4 1
29 4 1
36 4 1
154 4 1
159 4 1
529 4 1
532 4 1
5 5 1
21 5 1
30 5 1
37 5 1
155 5 1
160 5 1
530 5 1
533 5 1
6 6 1
22 6 1
31 6 1
38 6 1
156 6 1
161 6 1
531 6 1
534 6 1
7 7 1
23 7 1
32 7 1
39 7 1
157 7 1
162 7 1
532 7 1
535 7 1
8 8 1
24 8 1
33 8 1
40 8 1
158 8 1
163 8 1
533 8 1
536 8 1
9 9 1
25 9 1
34 9 1
41 9 1
159 9 1
164 9 1
534 9 1
537 9 1
1 10 1
10 10 1
35 10 1
42 10 1
160 10 1
165 10 1
535 10 1
538 10 1
2 11 1
11 11 1
36 11 1
43 11 1
161 11 1
166 11 1
536 11 1
539 11 1
3 12 1
12 12 1
37 12 1
44 12 1
162 12 1
167 12 1
537 12 1
540 12 1
4 13 1
13 13 1
38 13 1
45 13 1
163 13 1
168 13 1
538 13 1
541 13 1
5 14 1
14 14 1
39 14 1
46 14 1
164 14 1
169 14 1
539 14 1
542 14 1
6 15 1
15 15 1
40 15 1
47 15 1
165 15 1
170 15 1
540 15 1
543 15 1
7 16 1
16 16 1
41 16 1
48 16 1
166 16 1
171 16 1
541 16 1
544 16 1
8 17 1
17 17 1
42 17 1
49 17 1
167 17 1
172 17 1
542 17 1
545 17 1
9 18 1
18 18 1
43 18 1
50 18 1
168 18 1
173 18 1
543 18 1
546 18 1
10 19 1
19 19 1
26 19 1
44 19 1
169 19 1
174 19 1
544 19 1
547 19 1
11 20 1
20 20 1
27 20 1
45 20 1
170 20 1
175 20 1
545 20 1
548 20 1
12 21 1
21 21 1
28 21 1
46 21 1
151 21 1
171 21 1
546 21 1
549 21 1
13 22 1
22 22 1
29 22 1
47 22 1
152 22 1
172 22 1
547 22 1
550 22 1
14 23 1
23 23 1
30 23 1
48 23 1
153 23 1
173 23 1
526 23 1
548 23 1
15 24 1
24 24 1
31 24 1
49 24 1
154 24 1
174 24 1
527 24 1
549 24 1
16 25 1
25 25 1
32 25 1
50 25 1
155 25 1
175 25 1
528 25 1
550 25 1
1 26 1
18 26 1
51 26 1
58 26 1
176 26 1
181 26 1
551 26 1
554 26 1
2 27 1
19 27 1
52 27 1
59 27 1
177 27 1
182 27 1
552 27 1
555 27 1
3 28 1
20 28 1
53 28 1
60 28 1
178 28 1
183 28 1
553 28 1
556 28 1
4 29 1
21 29 1
54 29 1
61 29 1
179 29 1
184 29 1
554 29 1
557 29 1
5 30 1
22 30 1
55 30 1
62 30 1
180 30 1
185 30 1
555 30 1
558 30 1
6 31 1
23 31 1
56 31 1
63 31 1
181 31 1
186 31 1
556 31 1
559 31 1
7 32 1
24 32 1
57 32 1
64 32 1
182 32 1
187 32 1
557 32 1
560 32 1
8 33 1
25 33 1
58 33 1
65 33 1
183 33 1
188 33 1
558 33 1
561 33 1
1 34 1
9 34 1
59 34 1
66 34 1
184 34 1
189 34 1
559 34 1
562 34 1
2 35 1
10 35 1
60 35 1
67 35 1
185 35 1
190 35 1
560 35 1
563 35 1
3 36 1
11 36 1
61 36 1
68 36 1
186 36 1
191 36 1
561 36 1
564 36 1
4 37 1
12 37 1
62 37 1
69 37 1
187 37 1
192 37 1
562 37 1
565 37 1
5 38 1
13 38 1
63 38 1
70 38 1
188 38 1
193 38 1
563 38 1
566 38 1
6 39 1
14 39 1
64 39 1
71 39 1
189 39 1
194 39 1
564 39 1
567 39 1
7 40 1
15 40 1
65 40 1
72 40 1
190 40 1
195 40 1
565 40 1
568 40 1
8 41 1
16 41 1
66 41 1
73 41 1
191 41 1
196 41 1
566 41 1
569 41 1
9 42 1
17 42 1
67 42 1
74 42 1
192 42 1
197 42 1
567 42 1
570 42 1
10 43 1
18 43 1
68 43 1
75 43 1
193 43 1
198 43 1
568 43 1
571 43 1
11 44 1
19 44 1
51 44 1
69 44 1
194 44 1
199 44 1
569 44 1
572 44 1
12 45 1
20 45 1
52 45 1
70 45 1
195 45 1
200 45 1
570 45 1
573 45 1
13 46 1
21 46 1
53 46 1
71 46 1
176 46 1
196 46 1
571 46 1
574 46 1
14 47 1
22 47 1
54 47 1
72 47 1
177 47 1
197 47 1
572 47 1
575 47 1
15 48 1
23 48 1
55 48 1
73 48 1
178 48 1
198 48 1
551 48 1
573 48 1
16 49 1
24 49 1
56 49 1
74 49 1
179 49 1
199 49 1
552 49 1
574 49 1
17 50 1
25 50 1
57 50 1
75 50 1
180 50 1
200 50 1
553 50 1
575 50 1
1 51 1
20 51 1
76 51 1
83 51 1
201 51 1
206 51 1
576 51 1
579 51 1
2 52 1
21 52 1
77 52 1
84 52 1
202 52 1
207 52 1
577 52 1
580 52 1
3 53 1
22 53 1
78 53 1
85 53 1
203 53 1
208 53 1
578 53 1
581 53 1
4 54 1
23 54 1
79 54 1
86 54 1
204 54 1
209 54 1
579 54 1
582 54 1
5 55 1
24 55 1
80 55 1
87 55 1
205 55 1
210 55 1
580 55 1
583 55 1
6 56 1
25 56 1
81 56 1
88 56 1
206 56 1
211 56 1
581 56 1
584 56 1
1 57 1
7 57 1
82 57 1
89 57 1
207 57 1
212 57 1
582 57 1
585 57 1
2 58 1
8 58 1
83 58 1
90 58 1
208 58 1
213 58 1
583 58 1
586 58 1
3 59 1
9 59 1
84 59 1
91 59 1
209 59 1
214 59 1
584 59 1
587 59 1
4 60 1
10 60 1
85 60 1
92 60 1
210 60 1
215 60 1
585 60 1
588 60 1
5 61 1
11 61 1
86 61 1
93 61 1
211 61 1
216 61 1
586 61 1
589 61 1
6 62 1
12 62 1
87 62 1
94 62 1
212 62 1
217 62 1
587 62 1
590 62 1
7 63 1
13 63 1
88 63 1
95 63 1
213 63 1
218 63 1
588 63 1
591 63 1
8 64 1
14 64 1
89 64 1
96 64 1
214 64 1
219 64 1
589 64 1
592 64 1
9 65 1
15 65 1
90 65 1
97 65 1
215 65 1
220 65 1
590 65 1
593 65 1
10 66 1
16 66 1
91 66 1
98 66 1
216 66 1
221 66 1
591 66 1
594 66 1
11 67 1
17 67 1
92 67 1
99 67 1
217 67 1
222 67 1
592 67 1
595 67 1
12 68 1
18 68 1
93 68 1
100 68 1
218 68 1
223 68 1
593 68 1
596 68 1
13 69 1
19 69 1
76 69 1
94 69 1
219 69 1
224 69 1
594 69 1
597 69 1
14 70 1
20 70 1
77 70 1
95 70 1
220 70 1
225 70 1
595 70 1
598 70 1
15 71 1
21 71 1
78 71 1
96 71 1
201 71 1
221 71 1
596 71 1
599 71 1
16 72 1
22 72 1
79 72 1
97 72 1
202 72 1
222 72 1
597 72 1
600 72 1
17 73 1
23 73 1
80 73 1
98 73 1
203 73 1
223 73 1
576 73 1
598 73 1
18 74 1
24 74 1
81 74 1
99 74 1
204 74 1
224 74 1
577 74 1
599 74 1
19 75 1
25 75 1
82 75 1
100 75 1
205 75 1
225 75 1
578 75 1
600 75 1
1 76 1
22 76 1
101 76 1
108 76 1
226 76 1
231 76 1
601 76 1
604 76 1
2 77 1
23 77 1
102 77 1
109 77 1
227 77 1
232 77 1
602 77 1
605 77 1
3 78 1
24 78 1
103 78 1
110 78 1
228 78 1
233 78 1
603 78 1
606 78 1
4 79 1
25 79 1
104 79 1
111 79 1
229 79 1
234 79 1
604 79 1
607 79 1
1 80 1
5 80 1
105 80 1
112 80 1
230 80 1
235 80 1
605 80 1
608 80 1
2 81 1
6 81 1
106 81 1
113 81 1
231 81 1
236 81 1
606 81 1
609 81 1
3 82 1
7 82 1
107 82 1
114 82 1
232 82 1
237 82 1
607 82 1
610 82 1
4 83 1
8 83 1
108 83 1
115 83 1
233 83 1
238 83 1
608 83 1
611 83 1
5 84 1
9 84 1
109 84 1
116 84 1
234 84 1
239 84 1
609 84 1
612 84 1
6 85 1
10 85 1
110 85 1
117 85 1
235 85 1
240 85 1
610 85 1
613 85 1
7 86 1
11 86 1
111 86 1
118 86 1
236 86 1
241 86 1
611 86 1
614 86 1
8 87 1
12 87 1
112 87 1
119 87 1
237 87 1
242 87 1
612 87 1
615 87 1
9 88 1
13 88 1
113 88 1
120 88 1
238 88 1
243 88 1
613 88 1
616 88 1
10 89 1
14 89 1
114 89 1
121 89 1
239 89 1
244 89 1
614 89 1
617 89 1
11 90 1
15 90 1
115 90 1
122 90 1
240 90 1
245 90 1
615 90 1
618 90 1
12 91 1
16 91 1
116 91 1
123 91 1
241 91 1
246 91 1
616 91 1
619 91 1
13 92 1
17 92 1
117 92 1
124 92 1
242 92 1
247 92 1
617 92 1
620 92 1
14 93 1
18 93 1
118 93 1
125 93 1
243 93 1
248 93 1
618 93 1
621 93 1
15 94 1
19 94 1
101 94 1
119 94 1
244 94 1
249 94 1
619 94 1
622 94 1
16 95 1
20 95 1
102 95 1
120 95 1
245 95 1
250 95 1
620 95 1
623 95 1
17 96 1
21 96 1
103 96 1
121 96 1
226 96 1
246 96 1
621 96 1
624 96 1
18 97 1
22 97 1
104 97 1
122 97 1
227 97 1
247 97 1
622 97 1
625 97 1
19 98 1
23 98 1
105 98 1
123 98 1
228 98 1
248 98 1
601 98 1
623 98 1
20 99 1
24 99 1
106 99 1
124 99 1
229 99 1
249 99 1
602 99 1
624 99 1
21 100 1
25 100 1
107 100 1
125 100 1
230 100 1
250 100 1
603 100 1
625 100 1
1 101 1
24 101 1
126 101 1
133 101 1
251 101 1
256 101 1
626 101 1
629 101 1
2 102 1
25 102 1
127 102 1
134 102 1
252 102 1
257 102 1
627 102 1
630 102 1
1 103 1
3 103 1
128 103 1
135 103 1
253 103 1
258 103 1
628 103 1
631 103 1
2 104 1
4 104 1
129 104 1
136 104 1
254 104 1
259 104 1
629 104 1
632 104 1
3 105 1
5 105 1
130 105 1
137 105 1
255 105 1
260 105 1
630 105 1
633 105 1
4 106 1
6 106 1
131 106 1
138 106 1
256 106 1
261 106 1
631 106 1
634 106 1
5 107 1
7 107 1
132 107 1
139 107 1
257 107 1
262 107 1
632 107 1
635 107 1
6 108 1
8 108 1
133 108 1
140 108 1
258 108 1
263 108 1
633 108 1
636 108 1
7 109 1
9 109 1
134 109 1
141 109 1
259 109 1
264 109 1
634 109 1
637 109 1
8 110 1
10 110 1
135 110 1
142 110 1
260 110 1
265 110 1
635 110 1
638 110 1
9 111 1
11 111 1
136 111 1
143 111 1
261 111 1
266 111 1
636 111 1
639 111 1
10 112 1
12 112 1
137 112 1
144 112 1
262 112 1
267 112 1
637 112 1
640 112 1
11 113 1
13 113 1
138 113 1
145 113 1
263 113 1
268 113 1
638 113 1
641 113 1
12 114 1
14 114 1
139 114 1
146 114 1
264 114 1
269 114 1
639 114 1
642 114 1
13 115 1
15 115 1
140 115 1
147 115 1
265 115 1
270 115 1
640 115 1
643 115 1
14 116 1
16 116 1
141 116 1
148 116 1
266 116 1
271 116 1
641 116 1
644 116 1
15 117 1
17 117 1
142 117 1
149 117 1
267 117 1
272 117 1
642 117 1
645 117 1
16 118 1
18 118 1
143 118 1
150 118 1
268 118 1
273 118 1
643 118 1
646 118 1
17 119 1
19 119 1
126 119 1
144 119 1
269 119 1
274 119 1
644 119 1
647 119 1
18 120 1
20 120 1
127 120 1
145 120 1
270 120 1
275 120 1
645 120 1
648 120 1
19 121 1
21 121 1
128 121 1
146 121 1
251 121 1
271 121 1
646 121 1
649 121 1
20 122 1
22 122 1
129 122 1
147 122 1
252 122 1
272 122 1
647 122 1
650 122 1
21 123 1
23 123 1
130 123 1
148 123 1
253 123 1
273 123 1
626 123 1
648 123 1
22 124 1
24 124 1
131 124 1
149 124 1
254 124 1
274 124 1
627 124 1
649 124 1
23 125 1
25 125 1
132 125 1
150 125 1
255 125 1
275 125 1
628 125 1
650 125 1
26 126 1
43 126 1
51 126 1
67 126 1
276 126 1
281 126 1
651 126 1
654 126 1
27 127 1
44 127 1
52 127 1
68 127 1
277 127 1
282 127 1
652 127 1
655 127 1
28 128 1
45 128 1
53 128 1
69 128 1
278 128 1
283 128 1
653 128 1
656 128 1
29 129 1
46 129 1
54 129 1
70 129 1
279 129 1
284 129 1
654 129 1
657 129 1
30 130 1
47 130 1
55 130 1
71 130 1
280 130 1
285 130 1
655 130 1
658 130 1
31 131 1
48 131 1
56 131 1
72 131 1
281 131 1
286 131 1
656 131 1
659 131 1
32 132 1
49 132 1
57 132 1
73 132 1
282 132 1
287 132 1
657 132 1
660 132 1
33 133 1
50 133 1
58 133 1
74 133 1
283 133 1
288 133 1
658 133 1
661 133 1
26 134 1
34 134 1
59 134 1
75 134 1
284 134 1
289 134 1
659 134 1
662 134 1
27 135 1
35 135 1
51 135 1
60 135 1
285 135 1
290 135 1
660 135 1
663 135 1
28 136 1
36 136 1
52 136 1
61 136 1
286 136 1
291 136 1
661 136 1
664 136 1
29 137 1
37 137 1
53 137 1
62 137 1
287 137 1
292 137 1
662 137 1
665 137 1
30 138 1
38 138 1
54 138 1
63 138 1
288 138 1
293 138 1
663 138 1
666 138 1
31 139 1
39 139 1
55 139 1
64 139 1
289 139 1
294 139 1
664 139 1
667 139 1
32 140 1
40 140 1
56 140 1
65 140 1
290 140 1
295 140 1
665 140 1
668 140 1
33 141 1
41 141 1
57 141 1
66 141 1
291 141 1
296 141 1
666 141 1
669 141 1
34 142 1
42 142 1
58 142 1
67 142 1
292 142 1
297 142 1
667 142 1
670 142 1
35 143 1
43 143 1
59 143 1
68 143 1
293 143 1
298 143 1
668 143 1
671 143 1
36 144 1
44 144 1
60 144 1
69 144 1
294 144 1
299 144 1
669 144 1
672 144 1
37 145 1
45 145 1
61 145 1
70 145 1
295 145 1
300 145 1
670 145 1
673 145 1
38 146 1
46 146 1
62 146 1
71 146 1
276 146 1
296 146 1
671 146 1
674 146 1
39 147 1
47 147 1
63 147 1
72 147 1
277 147 1
297 147 1
672 147 1
675 147 1
40 148 1
48 148 1
64 148 1
73 148 1
278 148 1
298 148 1
651 148 1
673 148 1
41 149 1
49 149 1
65 149 1
74 149 1
279 149 1
299 149 1
652 149 1
674 149 1
42 150 1
50 150 1
66 150 1
75 150 1
280 150 1
300 150 1
653 150 1
675 150 1
26 151 1
45 151 1
76 151 1
92 151 1
301 151 1
306 151 1
676 151 1
679 151 1
27 152 1
46 152 1
77 152 1
93 152 1
302 152 1
307 152 1
677 152 1
680 152 1
28 153 1
47 153 1
78 153 1
94 153 1
303 153 1
308 153 1
678 153 1
681 153 1
29 154 1
48 154 1
79 154 1
95 154 1
304 154 1
309 154 1
679 154 1
682 154 1
30 155 1
49 155 1
80 155 1
96 155 1
305 155 1
310 155 1
680 155 1
683 155 1
31 156 1
50 156 1
81 156 1
97 156 1
306 156 1
311 156 1
681 156 1
684 156 1
26 157 1
32 157 1
82 157 1
98 157 1
307 157 1
312 157 1
682 157 1
685 157 1
27 158 1
33 158 1
83 158 1
99 158 1
308 158 1
313 158 1
683 158 1
686 158 1
28 159 1
34 159 1
84 159 1
100 159 1
309 159 1
314 159 1
684 159 1
687 159 1
29 160 1
35 160 1
76 160 1
85 160 1
310 160 1
315 160 1
685 160 1
688 160 1
30 161 1
36 161 1
77 161 1
86 161 1
311 161 1
316 161 1
686 161 1
689 161 1
31 162 1
37 162 1
78 162 1
87 162 1
312 162 1
317 162 1
687 162 1
690 162 1
32 163 1
38 163 1
79 163 1
88 163 1
313 163 1
318 163 1
688 163 1
691 163 1
33 164 1
39 164 1
80 164 1
89 164 1
314 164 1
319 164 1
689 164 1
692 164 1
34 165 1
40 165 1
81 165 1
90 165 1
315 165 1
320 165 1
690 165 1
693 165 1
35 166 1
41 166 1
82 166 1
91 166 1
316 166 1
321 166 1
691 166 1
694 166 1
36 167 1
42 167 1
83 167 1
92 167 1
317 167 1
322 167 1
692 167 1
695 167 1
37 168 1
43 168 1
84 168 1
93 168 1
318 168 1
323 168 1
693 168 1
696 168 1
38 169 1
44 169 1
85 169 1
94 169 1
319 169 1
324 169 1
694 169 1
697 169 1
39 170 1
45 170 1
86 170 1
95 170 1
320 170 1
325 170 1
695 170 1
698 170 1
40 171 1
46 171 1
87 171 1
96 171 1
301 171 1
321 171 1
696 171 1
699 171 1
41 172 1
47 172 1
88 172 1
97 172 1
302 172 1
322 172 1
697 172 1
700 172 1
42 173 1
48 173 1
89 173 1
98 173 1
303 173 1
323 173 1
676 173 1
698 173 1
43 174 1
49 174 1
90 174 1
99 174 1
304 174 1
324 174 1
677 174 1
699 174 1
44 175 1
50 175 1
91 175 1
100 175 1
305 175 1
325 175 1
678 175 1
700 175 1
26 176 1
47 176 1
101 176 1
117 176 1
326 176 1
331 176 1
701 176 1
704 176 1
27 177 1
48 177 1
102 177 1
118 177 1
327 177 1
332 177 1
702 177 1
705 177 1
28 178 1
49 178 1
103 178 1
119 178 1
328 178 1
333 178 1
703 178 1
706 178 1
29 179 1
50 179 1
104 179 1
120 179 1
329 179 1
334 179 1
704 179 1
707 179 1
26 180 1
30 180 1
105 180 1
121 180 1
330 180 1
335 180 1
705 180 1
708 180 1
27 181 1
31 181 1
106 181 1
122 181 1
331 181 1
336 181 1
706 181 1
709 181 1
28 182 1
32 182 1
107 182 1
123 182 1
332 182 1
337 182 1
707 182 1
710 182 1
29 183 1
33 183 1
108 183 1
124 183 1
333 183 1
338 183 1
708 183 1
711 183 1
30 184 1
34 184 1
109 184 1
125 184 1
334 184 1
339 184 1
709 184 1
712 184 1
31 185 1
35 185 1
101 185 1
110 185 1
335 185 1
340 185 1
710 185 1
713 185 1
32 186 1
36 186 1
102 186 1
111 186 1
336 186 1
341 186 1
711 186 1
714 186 1
33 187 1
37 187 1
103 187 1
112 187 1
337 187 1
342 187 1
712 187 1
715 187 1
34 188 1
38 188 1
104 188 1
113 188 1
338 188 1
343 188 1
713 188 1
716 188 1
35 189 1
39 189 1
105 189 1
114 189 1
339 189 1
344 189 1
714 189 1
717 189 1
36 190 1
40 190 1
106 190 1
115 190 1
340 190 1
345 190 1
715 190 1
718 190 1
37 191 1
41 191 1
107 191 1
116 191 1
341 191 1
346 191 1
716 191 1
719 191 1
38 192 1
42 192 1
108 192 1
117 192 1
342 192 1
347 192 1
717 192 1
720 192 1
39 193 1
43 193 1
109 193 1
118 193 1
343 193 1
348 193 1
718 193 1
721 193 1
40 194 1
44 194 1
110 194 1
119 194 1
344 194 1
349 194 1
719 194 1
722 194 1
41 195 1
45 195 1
111 195 1
120 195 1
345 195 1
350 195 1
720 195 1
723 195 1
42 196 1
46 196 1
112 196 1
121 196 1
326 196 1
346 196 1
721 196 1
724 196 1
43 197 1
47 197 1
113 197 1
122 197 1
327 197 1
347 197 1
722 197 1
725 197 1
44 198 1
48 198 1
114 198 1
123 198 1
328 198 1
348 198 1
701 198 1
723 198 1
45 199 1
49 199 1
115 199 1
124 199 1
329 199 1
349 199 1
702 199 1
724 199 1
46 200 1
50 200 1
116 200 1
125 200 1
330 200 1
350 200 1
703 200 1
725 200 1
26 201 1
49 201 1
126 201 1
142 201 1
351 201 1
356 201 1
726 201 1
729 201 1
27 202 1
50 202 1
127 202 1
143 202 1
352 202 1
357 202 1
727 202 1
730 202 1
26 203 1
28 203 1
128 203 1
144 203 1
353 203 1
358 203 1
728 203 1
731 203 1
27 204 1
29 204 1
129 204 1
145 204 1
354 204 1
359 204 1
729 204 1
732 204 1
28 205 1
30 205 1
130 205 1
146 205 1
355 205 1
360 205 1
730 205 1
733 205 1
29 206 1
31 206 1
131 206 1
147 206 1
356 206 1
361 206 1
731 206 1
734 206 1
30 207 1
32 207 1
132 207 1
148 207 1
357 207 1
362 207 1
732 207 1
735 207 1
31 208 1
33 208 1
133 208 1
149 208 1
358 208 1
363 208 1
733 208 1
736 208 1
32 209 1
34 209 1
134 209 1
150 209 1
359 209 1
364 209 1
734 209 1
737 209 1
33 210 1
35 210 1
126 210 1
135 210 1
360 210 1
365 210 1
735 210 1
738 210 1
34 211 1
36 211 1
127 211 1
136 211 1
361 211 1
366 211 1
736 211 1
739 211 1
35 212 1
37 212 1
128 212 1
137 212 1
362 212 1
367 212 1
737 212 1
740 212 1
36 213 1
38 213 1
129 213 1
138 213 1
363 213 1
368 213 1
738 213 1
741 213 1
37 214 1
39 214 1
130 214 1
139 214 1
364 214 1
369 214 1
739 214 1
742 214 1
38 215 1
40 215 1
131 215 1
140 215 1
365 215 1
370 215 1
740 215 1
743 215 1
39 216 1
41 216 1
132 216 1
141 216 1
366 216 1
371 216 1
741 216 1
744 216 1
40 217 1
42 217 1
133 217 1
142 217 1
367 217 1
372 217 1
742 217 1
745 217 1
41 218 1
43 218 1
134 218 1
143 218 1
368 218 1
373 218 1
743 218 1
746 218 1
42 219 1
44 219 1
135 219 1
144 219 1
369 219 1
374 219 1
744 219 1
747 219 1
43 220 1
45 220 1
136 220 1
145 220 1
370 220 1
375 220 1
745 220 1
748 220 1
44 221 1
46 221 1
137 221 1
146 221 1
351 221 1
371 221 1
746 221 1
749 221 1
45 222 1
47 222 1
138 222 1
147 222 1
352 222 1
372 222 1
747 222 1
750 222 1
46 223 1
48 223 1
139 223 1
148 223 1
353 223 1
373 223 1
726 223 1
748 223 1
47 224 1
49 224 1
140 224 1
149 224 1
354 224 1
374 224 1
727 224 1
749 224 1
48 225 1
50 225 1
141 225 1
150 225 1
355 225 1
375 225 1
728 225 1
750 225 1
51 226 1
70 226 1
76 226 1
93 226 1
376 226 1
381 226 1
751 226 1
754 226 1
52 227 1
71 227 1
77 227 1
94 227 1
377 227 1
382 227 1
752 227 1
755 227 1
53 228 1
72 228 1
78 228 1
95 228 1
378 228 1
383 228 1
753 228 1
756 228 1
54 229 1
73 229 1
79 229 1
96 229 1
379 229 1
384 229 1
754 229 1
757 229 1
55 230 1
74 230 1
80 230 1
97 230 1
380 230 1
385 230 1
755 230 1
758 230 1
56 231 1
75 231 1
81 231 1
98 231 1
381 231 1
386 231 1
756 231 1
759 231 1
51 232 1
57 232 1
82 232 1
99 232 1
382 232 1
387 232 1
757 232 1
760 232 1
52 233 1
58 233 1
83 233 1
100 233 1
383 233 1
388 233 1
758 233 1
761 233 1
53 234 1
59 234 1
76 234 1
84 234 1
384 234 1
389 234 1
759 234 1
762 234 1
54 235 1
60 235 1
77 235 1
85 235 1
385 235 1
390 235 1
760 235 1
763 235 1
55 236 1
61 236 1
78 236 1
86 236 1
386 236 1
391 236 1
761 236 1
764 236 1
56 237 1
62 237 1
79 237 1
87 237 1
387 237 1
392 237 1
762 237 1
765 237 1
57 238 1
63 238 1
80 238 1
88 238 1
388 238 1
393 238 1
763 238 1
766 238 1
58 239 1
64 239 1
81 239 1
89 239 1
389 239 1
394 239 1
764 239 1
767 239 1
59 240 1
65 240 1
82 240 1
90 240 1
390 240 1
395 240 1
765 240 1
768 240 1
60 241 1
66 241 1
83 241 1
91 241 1
391 241 1
396 241 1
766 241 1
769 241 1
61 242 1
67 242 1
84 242 1
92 242 1
392 242 1
397 242 1
767 242 1
770 242 1
62 243 1
68 243 1
85 243 1
93 243 1
393 243 1
398 243 1
768 243 1
771 243 1
63 244 1
69 244 1
86 244 1
94 244 1
394 244 1
399 244 1
769 244 1
772 244 1
64 245 1
70 245 1
87 245 1
95 245 1
395 245 1
400 245 1
770 245 1
773 245 1
65 246 1
71 246 1
88 246 1
96 246 1
376 246 1
396 246 1
771 246 1
774 246 1
66 247 1
72 247 1
89 247 1
97 247 1
377 247 1
397 247 1
772 247 1
775 247 1
67 248 1
73 248 1
90 248 1
98 248 1
378 248 1
398 248 1
751 248 1
773 248 1
68 249 1
74 249 1
91 249 1
99 249 1
379 249 1
399 249 1
752 249 1
774 249 1
69 250 1
75 250 1
92 250 1
100 250 1
380 250 1
400 250 1
753 250 1
775 250 1
51 251 1
72 251 1
101 251 1
118 251 1
401 251 1
406 251 1
776 251 1
779 251 1
52 252 1
73 252 1
102 252 1
119 252 1
402 252 1
407 252 1
777 252 1
780 252 1
53 253 1
74 253 1
103 253 1
120 253 1
403 253 1
408 253 1
778 253 1
781 253 1
54 254 1
75 254 1
104 254 1
121 254 1
404 254 1
409 254 1
779 254 1
782 254 1
51 255 1
55 255 1
105 255 1
122 255 1
405 255 1
410 255 1
780 255 1
783 255 1
52 256 1
56 256 1
106 256 1
123 256 1
406 256 1
411 256 1
781 256 1
784 256 1
53 257 1
57 257 1
107 257 1
124 257 1
407 257 1
412 257 1
782 257 1
785 257 1
54 258 1
58 258 1
108 258 1
125 258 1
408 258 1
413 258 1
783 258 1
786 258 1
55 259 1
59 259 1
101 259 1
109 259 1
409 259 1
414 259 1
784 259 1
787 259 1
56 260 1
60 260 1
102 260 1
110 260 1
410 260 1
415 260 1
785 260 1
788 260 1
57 261 1
61 261 1
103 261 1
111 261 1
411 261 1
416 261 1
786 261 1
789 261 1
58 262 1
62 262 1
104 262 1
112 262 1
412 262 1
417 262 1
787 262 1
790 262 1
59 263 1
63 263 1
105 263 1
113 263 1
413 263 1
418 263 1
788 263 1
791 263 1
60 264 1
64 264 1
106 264 1
114 264 1
414 264 1
419 264 1
789 264 1
792 264 1
61 265 1
65 265 1
107 265 1
115 265 1
415 265 1
420 265 1
790 265 1
793 265 1
62 266 1
66 266 1
108 266 1
116 266 1
416 266 1
421 266 1
791 266 1
794 266 1
63 267 1
67 267 1
109 267 1
117 267 1
417 267 1
422 267 1
792 267 1
795 267 1
64 268 1
68 268 1
110 268 1
118 268 1
418 268 1
423 268 1
793 268 1
796 268 1
65 269 1
69 269 1
111 269 1
119 269 1
419 269 1
424 269 1
794 269 1
797 269 1
66 270 1
70 270 1
112 270 1
120 270 1
420 270 1
425 270 1
795 270 1
798 270 1
67 271 1
71 271 1
113 271 1
121 271 1
401 271 1
421 271 1
796 271 1
799 271 1
68 272 1
72 272 1
114 272 1
122 272 1
402 272 1
422 272 1
797 272 1
800 272 1
69 273 1
73 273 1
115 273 1
123 273 1
403 273 1
423 273 1
776 273 1
798 273 1
70 274 1
74 274 1
116 274 1
124 274 1
404 274 1
424 274 1
777 274 1
799 274 1
71 275 1
75 275 1
117 275 1
125 275 1
405 275 1
425 275 1
778 275 1
800 275 1
51 276 1
74 276 1
126 276 1
143 276 1
426 276 1
431 276 1
801 276 1
804 276 1
52 277 1
75 277 1
127 277 1
144 277 1
427 277 1
432 277 1
802 277 1
805 277 1
51 278 1
53 278 1
128 278 1
145 278 1
428 278 1
433 278 1
803 278 1
806 278 1
52 279 1
54 279 1
129 279 1
146 279 1
429 279 1
434 279 1
804 279 1
807 279 1
53 280 1
55 280 1
130 280 1
147 280 1
430 280 1
435 280 1
805 280 1
808 280 1
54 281 1
56 281 1
131 281 1
148 281 1
431 281 1
436 281 1
806 281 1
809 281 1
55 282 1
57 282 1
132 282 1
149 282 1
432 282 1
437 282 1
807 282 1
810 282 1
56 283 1
58 283 1
133 283 1
150 283 1
433 283 1
438 283 1
808 283 1
811 283 1
57 284 1
59 284 1
126 284 1
134 284 1
434 284 1
439 284 1
809 284 1
812 284 1
58 285 1
60 285 1
127 285 1
135 285 1
435 285 1
440 285 1
810 285 1
813 285 1
59 286 1
61 286 1
128 286 1
136 286 1
436 286 1
441 286 1
811 286 1
814 286 1
60 287 1
62 287 1
129 287 1
137 287 1
437 287 1
442 287 1
812 287 1
815 287 1
61 288 1
63 288 1
130 288 1
138 288 1
438 288 1
443 288 1
813 288 1
816 288 1
62 289 1
64 289 1
131 289 1
139 289 1
439 289 1
444 289 1
814 289 1
817 289 1
63 290 1
65 290 1
132 290 1
140 290 1
440 290 1
445 290 1
815 290 1
818 290 1
64 291 1
66 291 1
133 291 1
141 291 1
441 291 1
446 291 1
816 291 1
819 291 1
65 292 1
67 292 1
134 292 1
142 292 1
442 292 1
447 292 1
817 292 1
820 292 1
66 293 1
68 293 1
135 293 1
143 293 1
443 293 1
448 293 1
818 293 1
821 293 1
67 294 1
69 294 1
136 294 1
144 294 1
444 294 1
449 294 1
819 294 1
822 294 1
68 295 1
70 295 1
137 295 1
145 295 1
445 295 1
450 295 1
820 295 1
823 295 1
69 296 1
71 296 1
138 296 1
146 296 1
426 296 1
446 296 1
821 296 1
824 296 1
70 297 1
72 297 1
139 297 1
147 297 1
427 297 1
447 297 1
822 297 1
825 297 1
71 298 1
73 298 1
140 298 1
148 298 1
428 298 1
448 298 1
801 298 1
823 298 1
72 299 1
74 299 1
141 299 1
149 299 1
429 299 1
449 299 1
802 299 1
824 299 1
73 300 1
75 300 1
142 300 1
150 300 1
430 300 1
450 300 1
803 300 1
825 300 1
76 301 1
97 301 1
101 301 1
120 301 1
451 301 1
456 301 1
826 301 1
829 301 1
77 302 1
98 302 1
102 302 1
121 302 1
452 302 1
457 302 1
827 302 1
830 302 1
78 303 1
99 303 1
103 303 1
122 303 1
453 303 1
458 303 1
828 303 1
831 303 1
79 304 1
100 304 1
104 304 1
123 304 1
454 304 1
459 304 1
829 304 1
832 304 1
76 305 1
80 305 1
105 305 1
124 305 1
455 305 1
460 305 1
830 305 1
833 305 1
77 306 1
81 306 1
106 306 1
125 306 1
456 306 1
461 306 1
831 306 1
834 306 1
78 307 1
82 307 1
101 307 1
107 307 1
457 307 1
462 307 1
832 307 1
835 307 1
79 308 1
83 308 1
102 308 1
108 308 1
458 308 1
463 308 1
833 308 1
836 308 1
80 309 1
84 309 1
103 309 1
109 309 1
459 309 1
464 309 1
834 309 1
837 309 1
81 310 1
85 310 1
104 310 1
110 310 1
460 310 1
465 310 1
835 310 1
838 310 1
82 311 1
86 311 1
105 311 1
111 311 1
461 311 1
466 311 1
836 311 1
839 311 1
83 312 1
87 312 1
106 312 1
112 312 1
462 312 1
467 312 1
837 312 1
840 312 1
84 313 1
88 313 1
107 313 1
113 313 1
463 313 1
468 313 1
838 313 1
841 313 1
85 314 1
89 314 1
108 314 1
114 314 1
464 314 1
469 314 1
839 314 1
842 314 1
86 315 1
90 315 1
109 315 1
115 315 1
465 315 1
470 315 1
840 315 1
843 315 1
87 316 1
91 316 1
110 316 1
116 316 1
466 316 1
471 316 1
841 316 1
844 316 1
88 317 1
92 317 1
111 317 1
117 317 1
467 317 1
472 317 1
842 317 1
845 317 1
89 318 1
93 318 1
112 318 1
118 318 1
468 318 1
473 318 1
843 318 1
846 318 1
90 319 1
94 319 1
113 319 1
119 319 1
469 319 1
474 319 1
844 319 1
847 319 1
91 320 1
95 320 1
114 320 1
120 320 1
470 320 1
475 320 1
845 320 1
848 320 1
92 321 1
96 321 1
115 321 1
121 321 1
451 321 1
471 321 1
846 321 1
849 321 1
93 322 1
97 322 1
116 322 1
122 322 1
452 322 1
472 322 1
847 322 1
850 322 1
94 323 1
98 323 1
117 323 1
123 323 1
453 323 1
473 323 1
826 323 1
848 323 1
95 324 1
99 324 1
118 324 1
124 324 1
454 324 1
474 324 1
827 324 1
849 324 1
96 325 1
100 325 1
119 325 1
125 325 1
455 325 1
475 325 1
828 325 1
850 325 1
76 326 1
99 326 1
126 326 1
145 326 1
476 326 1
481 326 1
851 326 1
854 326 1
77 327 1
100 327 1
127 327 1
146 327 1
477 327 1
482 327 1
852 327 1
855 327 1
76 328 1
78 328 1
128 328 1
147 328 1
478 328 1
483 328 1
853 328 1
856 328 1
77 329 1
79 329 1
129 329 1
148 329 1
479 329 1
484 329 1
854 329 1
857 329 1
78 330 1
80 330 1
130 330 1
149 330 1
480 330 1
485 330 1
855 330 1
858 330 1
79 331 1
81 331 1
131 331 1
150 331 1
481 331 1
486 331 1
856 331 1
859 331 1
80 332 1
82 332 1
126 332 1
132 332 1
482 332 1
487 332 1
857 332 1
860 332 1
81 333 1
83 333 1
127 333 1
133 333 1
483 333 1
488 333 1
858 333 1
861 333 1
82 334 1
84 334 1
128 334 1
134 334 1
484 334 1
489 334 1
859 334 1
862 334 1
83 335 1
85 335 1
129 335 1
135 335 1
485 335 1
490 335 1
860 335 1
863 335 1
84 336 1
86 336 1
130 336 1
136 336 1
486 336 1
491 336 1
861 336 1
864 336 1
85 337 1
87 337 1
131 337 1
137 337 1
487 337 1
492 337 1
862 337 1
865 337 1
86 338 1
88 338 1
132 338 1
138 338 1
488 338 1
493 338 1
863 338 1
866 338 1
87 339 1
89 339 1
133 339 1
139 339 1
489 339 1
494 339 1
864 339 1
867 339 1
88 340 1
90 340 1
134 340 1
140 340 1
490 340 1
495 340 1
865 340 1
868 340 1
89 341 1
91 341 1
135 341 1
141 341 1
491 341 1
496 341 1
866 341 1
869 341 1
90 342 1
92 342 1
136 342 1
142 342 1
492 342 1
497 342 1
867 342 1
870 342 1
91 343 1
93 343 1
137 343 1
143 343 1
493 343 1
498 343 1
868 343 1
871 343 1
92 344 1
94 344 1
138 344 1
144 344 1
494 344 1
499 344 1
869 344 1
872 344 1
93 345 1
95 345 1
139 345 1
145 345 1
495 345 1
500 345 1
870 345 1
873 345 1
94 346 1
96 346 1
140 346 1
146 346 1
476 346 1
496 346 1
871 346 1
874 346 1
95 347 1
97 347 1
141 347 1
147 347 1
477 347 1
497 347 1
872 347 1
875 347 1
96 348 1
98 348 1
142 348 1
148 348 1
478 348 1
498 348 1
851 348 1
873 348 1
97 349 1
99 349 1
143 349 1
149 349 1
479 349 1
499 349 1
852 349 1
874 349 1
98 350 1
100 350 1
144 350 1
150 350 1
480 350 1
500 350 1
853 350 1
875 350 1
101 351 1
124 351 1
126 351 1
147 351 1
501 351 1
506 351 1
876 351 1
879 351 1
102 352 1
125 352 1
127 352 1
148 352 1
502 352 1
507 352 1
877 352 1
880 352 1
101 353 1
103 353 1
128 353 1
149 353 1
503 353 1
508 353 1
878 353 1
881 353 1
102 354 1
104 354 1
129 354 1
150 354 1
504 354 1
509 354 1
879 354 1
882 354 1
103 355 1
105 355 1
126 355 1
130 355 1
505 355 1
510 355 1
880 355 1
883 355 1
104 356 1
106 356 1
127 356 1
131 356 1
506 356 1
511 356 1
881 356 1
884 356 1
105 357 1
107 357 1
128 357 1
132 357 1
507 357 1
512 357 1
882 357 1
885 357 1
106 358 1
108 358 1
129 358 1
133 358 1
508 358 1
513 358 1
883 358 1
886 358 1
107 359 1
109 359 1
130 359 1
134 359 1
509 359 1
514 359 1
884 359 1
887 359 1
108 360 1
110 360 1
131 360 1
135 360 1
510 360 1
515 360 1
885 360 1
888 360 1
109 361 1
111 361 1
132 361 1
136 361 1
511 361 1
516 361 1
886 361 1
889 361 1
110 362 1
112 362 1
133 362 1
137 362 1
512 362 1
517 362 1
887 362 1
890 362 1
111 363 1
113 363 1
134 363 1
138 363 1
513 363 1
518 363 1
888 363 1
891 363 1
112 364 1
114 364 1
135 364 1
139 364 1
514 364 1
519 364 1
889 364 1
892 364 1
113 365 1
115 365 1
136 365 1
140 365 1
515 365 1
520 365 1
890 365 1
893 365 1
114 366 1
116 366 1
137 366 1
141 366 1
516 366 1
521 366 1
891 366 1
894 366 1
115 367 1
117 367 1
138 367 1
142 367 1
517 367 1
522 367 1
892 367 1
895 367 1
116 368 1
118 368 1
139 368 1
143 368 1
518 368 1
523 368 1
893 368 1
896 368 1
117 369 1
119 369 1
140 369 1
144 369 1
519 369 1
524 369 1
894 369 1
897 369 1
118 370 1
120 370 1
141 370 1
145 370 1
520 370 1
525 370 1
895 370 1
898 370 1
119 371 1
121 371 1
142 371 1
146 371 1
501 371 1
521 371 1
896 371 1
899 371 1
120 372 1
122 372 1
143 372 1
147 372 1
502 372 1
522 372 1
897 372 1
900 372 1
121 373 1
123 373 1
144 373 1
148 373 1
503 373 1
523 373 1
876 373 1
898 373 1
122 374 1
124 374 1
145 374 1
149 374 1
504 374 1
524 374 1
877 374 1
899 374 1
123 375 1
125 375 1
146 375 1
150 375 1
505 375 1
525 375 1
878 375 1
900 375 1
151 376 1
168 376 1
176 376 1
192 376 1
276 376 1
283 376 1
901 376 1
904 376 1
152 377 1
169 377 1
177 377 1
193 377 1
277 377 1
284 377 1
902 377 1
905 377 1
153 378 1
170 378 1
178 378 1
194 378 1
278 378 1
285 378 1
903 378 1
906 378 1
154 379 1
171 379 1
179 379 1
195 379 1
279 379 1
286 379 1
904 379 1
907 379 1
155 380 1
172 380 1
180 380 1
196 380 1
280 380 1
287 380 1
905 380 1
908 380 1
156 381 1
173 381 1
181 381 1
197 381 1
281 381 1
288 381 1
906 381 1
909 381 1
157 382 1
174 382 1
182 382 1
198 382 1
282 382 1
289 382 1
907 382 1
910 382 1
158 383 1
175 383 1
183 383 1
199 383 1
283 383 1
290 383 1
908 383 1
911 383 1
151 384 1
159 384 1
184 384 1
200 384 1
284 384 1
291 384 1
909 384 1
912 384 1
152 385 1
160 385 1
176 385 1
185 385 1
285 385 1
292 385 1
910 385 1
913 385 1
153 386 1
161 386 1
177 386 1
186 386 1
286 386 1
293 386 1
911 386 1
914 386 1
154 387 1
162 387 1
178 387 1
187 387 1
287 387 1
294 387 1
912 387 1
915 387 1
155 388 1
163 388 1
179 388 1
188 388 1
288 388 1
295 388 1
913 388 1
916 388 1
156 389 1
164 389 1
180 389 1
189 389 1
289 389 1
296 389 1
914 389 1
917 389 1
157 390 1
165 390 1
181 390 1
190 390 1
290 390 1
297 390 1
915 390 1
918 390 1
158 391 1
166 391 1
182 391 1
191 391 1
291 391 1
298 391 1
916 391 1
919 391 1
159 392 1
167 392 1
183 392 1
192 392 1
292 392 1
299 392 1
917 392 1
920 392 1
160 393 1
168 393 1
184 393 1
193 393 1
293 393 1
300 393 1
918 393 1
921 393 1
161 394 1
169 394 1
185 394 1
194 394 1
276 394 1
294 394 1
919 394 1
922 394 1
162 395 1
170 395 1
186 395 1
195 395 1
277 395 1
295 395 1
920 395 1
923 395 1
163 396 1
171 396 1
187 396 1
196 396 1
278 396 1
296 396 1
921 396 1
924 396 1
164 397 1
172 397 1
188 397 1
197 397 1
279 397 1
297 397 1
922 397 1
925 397 1
165 398 1
173 398 1
189 398 1
198 398 1
280 398 1
298 398 1
901 398 1
923 398 1
166 399 1
174 399 1
190 399 1
199 399 1
281 399 1
299 399 1
902 399 1
924 399 1
167 400 1
175 400 1
191 400 1
200 400 1
282 400 1
300 400 1
903 400 1
925 400 1
151 401 1
170 401 1
201 401 1
217 401 1
301 401 1
308 401 1
926 401 1
929 401 1
152 402 1
171 402 1
202 402 1
218 402 1
302 402 1
309 402 1
927 402 1
930 402 1
153 403 1
172 403 1
203 403 1
219 403 1
303 403 1
310 403 1
928 403 1
931 403 1
154 404 1
173 404 1
204 404 1
220 404 1
304 404 1
311 404 1
929 404 1
932 404 1
155 405 1
174 405 1
205 405 1
221 405 1
305 405 1
312 405 1
930 405 1
933 405 1
156 406 1
175 406 1
206 406 1
222 406 1
306 406 1
313 406 1
931 406 1
934 406 1
151 407 1
157 407 1
207 407 1
223 407 1
307 407 1
314 407 1
932 407 1
935 407 1
152 408 1
158 408 1
208 408 1
224 408 1
308 408 1
315 408 1
933 408 1
936 408 1
153 409 1
159 409 1
209 409 1
225 409 1
309 409 1
316 409 1
934 409 1
937 409 1
154 410 1
160 410 1
201 410 1
210 410 1
310 410 1
317 410 1
935 410 1
938 410 1
155 411 1
161 411 1
202 411 1
211 411 1
311 411 1
318 411 1
936 411 1
939 411 1
156 412 1
162 412 1
203 412 1
212 412 1
312 412 1
319 412 1
937 412 1
940 412 1
157 413 1
163 413 1
204 413 1
213 413 1
313 413 1
320 413 1
938 413 1
941 413 1
158 414 1
164 414 1
205 414 1
214 414 1
314 414 1
321 414 1
939 414 1
942 414 1
159 415 1
165 415 1
206 415 1
215 415 1
315 415 1
322 415 1
940 415 1
943 415 1
160 416 1
166 416 1
207 416 1
216 416 1
316 416 1
323 416 1
941 416 1
944 416 1
161 417 1
167 417 1
208 417 1
217 417 1
317 417 1
324 417 1
942 417 1
945 417 1
162 418 1
168 418 1
209 418 1
218 418 1
318 418 1
325 418 1
943 418 1
946 418 1
163 419 1
169 419 1
210 419 1
219 419 1
301 419 1
319 419 1
944 419 1
947 419 1
164 420 1
170 420 1
211 420 1
220 420 1
302 420 1
320 420 1
945 420 1
948 420 1
165 421 1
171 421 1
212 421 1
221 421 1
303 421 1
321 421 1
946 421 1
949 421 1
166 422 1
172 422 1
213 422 1
222 422 1
304 422 1
322 422 1
947 422 1
950 422 1
167 423 1
173 423 1
214 423 1
223 423 1
305 423 1
323 423 1
926 423 1
948 423 1
168 424 1
174 424 1
215 424 1
224 424 1
306 424 1
324 424 1
927 424 1
949 424 1
169 425 1
175 425 1
216 425 1
225 425 1
307 425 1
325 425 1
928 425 1
950 425 1
151 426 1
172 426 1
226 426 1
242 426 1
326 426 1
333 426 1
951 426 1
954 426 1
152 427 1
173 427 1
227 427 1
243 427 1
327 427 1
334 427 1
952 427 1
955 427 1
153 428 1
174 428 1
228 428 1
244 428 1
328 428 1
335 428 1
953 428 1
956 428 1
154 429 1
175 429 1
229 429 1
245 429 1
329 429 1
336 429 1
954 429 1
957 429 1
151 430 1
155 430 1
230 430 1
246 430 1
330 430 1
337 430 1
955 430 1
958 430 1
152 431 1
156 431 1
231 431 1
247 431 1
331 431 1
338 431 1
956 431 1
959 431 1
153 432 1
157 432 1
232 432 1
248 432 1
332 432 1
339 432 1
957 432 1
960 432 1
154 433 1
158 433 1
233 433 1
249 433 1
333 433 1
340 433 1
958 433 1
961 433 1
155 434 1
159 434 1
234 434 1
250 434 1
334 434 1
341 434 1
959 434 1
962 434 1
156 435 1
160 435 1
226 435 1
235 435 1
335 435 1
342 435 1
960 435 1
963 435 1
157 436 1
161 436 1
227 436 1
236 436 1
336 436 1
343 436 1
961 436 1
964 436 1
158 437 1
162 437 1
228 437 1
237 437 1
337 437 1
344 437 1
962 437 1
965 437 1
159 438 1
163 438 1
229 438 1
238 438 1
338 438 1
345 438 1
963 438 1
966 438 1
160 439 1
164 439 1
230 439 1
239 439 1
339 439 1
346 439 1
964 439 1
967 439 1
161 440 1
165 440 1
231 440 1
240 440 1
340 440 1
347 440 1
965 440 1
968 440 1
162 441 1
166 441 1
232 441 1
241 441 1
341 441 1
348 441 1
966 441 1
969 441 1
163 442 1
167 442 1
233 442 1
242 442 1
342 442 1
349 442 1
967 442 1
970 442 1
164 443 1
168 443 1
234 443 1
243 443 1
343 443 1
350 443 1
968 443 1
971 443 1
165 444 1
169 444 1
235 444 1
244 444 1
326 444 1
344 444 1
969 444 1
972 444 1
166 445 1
170 445 1
236 445 1
245 445 1
327 445 1
345 445 1
970 445 1
973 445 1
167 446 1
171 446 1
237 446 1
246 446 1
328 446 1
346 446 1
971 446 1
974 446 1
168 447 1
172 447 1
238 447 1
247 447 1
329 447 1
347 447 1
972 447 1
975 447 1
169 448 1
173 448 1
239 448 1
248 448 1
330 448 1
348 448 1
951 448 1
973 448 1
170 449 1
174 449 1
240 449 1
249 449 1
331 449 1
349 449 1
952 449 1
974 449 1
171 450 1
175 450 1
241 450 1
250 450 1
332 450 1
350 450 1
953 450 1
975 450 1
151 451 1
174 451 1
251 451 1
267 451 1
351 451 1
358 451 1
976 451 1
979 451 1
152 452 1
175 452 1
252 452 1
268 452 1
352 452 1
359 452 1
977 452 1
980 452 1
151 453 1
153 453 1
253 453 1
269 453 1
353 453 1
360 453 1
978 453 1
981 453 1
152 454 1
154 454 1
254 454 1
270 454 1
354 454 1
361 454 1
979 454 1
982 454 1
153 455 1
155 455 1
255 455 1
271 455 1
355 455 1
362 455 1
980 455 1
983 455 1
154 456 1
156 456 1
256 456 1
272 456 1
356 456 1
363 456 1
981 456 1
984 456 1
155 457 1
157 457 1
257 457 1
273 457 1
357 457 1
364 457 1
982 457 1
985 457 1
156 458 1
158 458 1
258 458 1
274 458 1
358 458 1
365 458 1
983 458 1
986 458 1
157 459 1
159 459 1
259 459 1
275 459 1
359 459 1
366 459 1
984 459 1
987 459 1
158 460 1
160 460 1
251 460 1
260 460 1
360 460 1
367 460 1
985 460 1
988 460 1
159 461 1
161 461 1
252 461 1
261 461 1
361 461 1
368 461 1
986 461 1
989 461 1
160 462 1
162 462 1
253 462 1
262 462 1
362 462 1
369 462 1
987 462 1
990 462 1
161 463 1
163 463 1
254 463 1
263 463 1
363 463 1
370 463 1
988 463 1
991 463 1
162 464 1
164 464 1
255 464 1
264 464 1
364 464 1
371 464 1
989 464 1
992 464 1
163 465 1
165 465 1
256 465 1
265 465 1
365 465 1
372 465 1
990 465 1
993 465 1
164 466 1
166 466 1
257 466 1
266 466 1
366 466 1
373 466 1
991 466 1
994 466 1
165 467 1
167 467 1
258 467 1
267 467 1
367 467 1
374 467 1
992 467 1
995 467 1
166 468 1
168 468 1
259 468 1
268 468 1
368 468 1
375 468 1
993 468 1
996 468 1
167 469 1
169 469 1
260 469 1
269 469 1
351 469 1
369 469 1
994 469 1
997 469 1
168 470 1
170 470 1
261 470 1
270 470 1
352 470 1
370 470 1
995 470 1
998 470 1
169 471 1
171 471 1
262 471 1
271 471 1
353 471 1
371 471 1
996 471 1
999 471 1
170 472 1
172 472 1
263 472 1
272 472 1
354 472 1
372 472 1
997 472 1
1000 472 1
171 473 1
173 473 1
264 473 1
273 473 1
355 473 1
373 473 1
976 473 1
998 473 1
172 474 1
174 474 1
265 474 1
274 474 1
356 474 1
374 474 1
977 474 1
999 474 1
173 475 1
175 475 1
266 475 1
275 475 1
357 475 1
375 475 1
978 475 1
1000 475 1
176 476 1
195 476 1
201 476 1
218 476 1
376 476 1
383 476 1
1001 476 1
1004 476 1
177 477 1
196 477 1
202 477 1
219 477 1
377 477 1
384 477 1
1002 477 1
1005 477 1
178 478 1
197 478 1
203 478 1
220 478 1
378 478 1
385 478 1
1003 478 1
1006 478 1
179 479 1
198 479 1
204 479 1
221 479 1
379 479 1
386 479 1
1004 479 1
1007 479 1
180 480 1
199 480 1
205 480 1
222 480 1
380 480 1
387 480 1
1005 480 1
1008 480 1
181 481 1
200 481 1
206 481 1
223 481 1
381 481 1
388 481 1
1006 481 1
1009 481 1
176 482 1
182 482 1
207 482 1
224 482 1
382 482 1
389 482 1
1007 482 1
1010 482 1
177 483 1
183 483 1
208 483 1
225 483 1
383 483 1
390 483 1
1008 483 1
1011 483 1
178 484 1
184 484 1
201 484 1
209 484 1
384 484 1
391 484 1
1009 484 1
1012 484 1
179 485 1
185 485 1
202 485 1
210 485 1
385 485 1
392 485 1
1010 485 1
1013 485 1
180 486 1
186 486 1
203 486 1
211 486 1
386 486 1
393 486 1
1011 486 1
1014 486 1
181 487 1
187 487 1
204 487 1
212 487 1
387 487 1
394 487 1
1012 487 1
1015 487 1
182 488 1
188 488 1
205 488 1
213 488 1
388 488 1
395 488 1
1013 488 1
1016 488 1
183 489 1
189 489 1
206 489 1
214 489 1
389 489 1
396 489 1
1014 489 1
1017 489 1
184 490 1
190 490 1
207 490 1
215 490 1
390 490 1
397 490 1
1015 490 1
1018 490 1
185 491 1
191 491 1
208 491 1
216 491 1
391 491 1
398 491 1
1016 491 1
1019 491 1
186 492 1
192 492 1
209 492 1
217 492 1
392 492 1
399 492 1
1017 492 1
1020 492 1
187 493 1
193 493 1
210 493 1
218 493 1
393 493 1
400 493 1
1018 493 1
1021 493 1
188 494 1
194 494 1
211 494 1
219 494 1
376 494 1
394 494 1
1019 494 1
1022 494 1
189 495 1
195 495 1
212 495 1
220 495 1
377 495 1
395 495 1
1020 495 1
1023 495 1
190 496 1
196 496 1
213 496 1
221 496 1
378 496 1
396 496 1
1021 496 1
1024 496 1
191 497 1
197 497 1
214 497 1
222 497 1
379 497 1
397 497 1
1022 497 1
1025 497 1
192 498 1
198 498 1
215 498 1
223 498 1
380 498 1
398 498 1
1001 498 1
1023 498 1
193 499 1
199 499 1
216 499 1
224 499 1
381 499 1
399 499 1
1002 499 1
1024 499 1
194 500 1
200 500 1
217 500 1
225 500 1
382 500 1
400 500 1
1003 500 1
1025 500 1
176 501 1
197 501 1
226 501 1
243 501 1
401 501 1
408 501 1
1026 501 1
1029 501 1
177 502 1
198 502 1
227 502 1
244 502 1
402 502 1
409 502 1
1027 502 1
1030 502 1
178 503 1
199 503 1
228 503 1
245 503 1
403 503 1
410 503 1
1028 503 1
1031 503 1
179 504 1
200 504 1
229 504 1
246 504 1
404 504 1
411 504 1
1029 504 1
1032 504 1
176 505 1
180 505 1
230 505 1
247 505 1
405 505 1
412 505 1
1030 505 1
1033 505 1
177 506 1
181 506 1
231 506 1
248 506 1
406 506 1
413 506 1
1031 506 1
1034 506 1
178 507 1
182 507 1
232 507 1
249 507 1
407 507 1
414 507 1
1032 507 1
1035 507 1
179 508 1
183 508 1
233 508 1
250 508 1
408 508 1
415 508 1
1033 508 1
1036 508 1
180 509 1
184 509 1
226 509 1
234 509 1
409 509 1
416 509 1
1034 509 1
1037 509 1
181 510 1
185 510 1
227 510 1
235 510 1
410 510 1
417 510 1
1035 510 1
1038 510 1
182 511 1
186 511 1
228 511 1
236 511 1
411 511 1
418 511 1
1036 511 1
1039 511 1
183 512 1
187 512 1
229 512 1
237 512 1
412 512 1
419 512 1
1037 512 1
1040 512 1
184 513 1
188 513 1
230 513 1
238 513 1
413 513 1
420 513 1
1038 513 1
1041 513 1
185 514 1
189 514 1
231 514 1
239 514 1
414 514 1
421 514 1
1039 514 1
1042 514 1
186 515 1
190 515 1
232 515 1
240 515 1
415 515 1
422 515 1
1040 515 1
1043 515 1
187 516 1
191 516 1
233 516 1
241 516 1
416 516 1
423 516 1
1041 516 1
1044 516 1
188 517 1
192 517 1
234 517 1
242 517 1
417 517 1
424 517 1
1042 517 1
1045 517 1
189 518 1
193 518 1
235 518 1
243 518 1
418 518 1
425 518 1
1043 518 1
1046 518 1
190 519 1
194 519 1
236 519 1
244 519 1
401 519 1
419 519 1
1044 519 1
1047 519 1
191 520 1
195 520 1
237 520 1
245 520 1
402 520 1
420 520 1
1045 520 1
1048 520 1
192 521 1
196 521 1
238 521 1
246 521 1
403 521 1
421 521 1
1046 521 1
1049 521 1
193 522 1
197 522 1
239 522 1
247 522 1
404 522 1
422 522 1
1047 522 1
1050 522 1
194 523 1
198 523 1
240 523 1
248 523 1
405 523 1
423 523 1
1026 523 1
1048 523 1
195 524 1
199 524 1
241 524 1
249 524 1
406 524 1
424 524 1
1027 524 1
1049 524 1
196 525 1
200 525 1
242 525 1
250 525 1
407 525 1
425 525 1
1028 525 1
1050 525 1
176 526 1
199 526 1
251 526 1
268 526 1
426 526 1
433 526 1
1051 526 1
1054 526 1
177 527 1
200 527 1
252 527 1
269 527 1
427 527 1
434 527 1
1052 527 1
1055 527 1
176 528 1
178 528 1
253 528 1
270 528 1
428 528 1
435 528 1
1053 528 1
1056 528 1
177 529 1
179 529 1
254 529 1
271 529 1
429 529 1
436 529 1
1054 529 1
1057 529 1
178 530 1
180 530 1
255 530 1
272 530 1
430 530 1
437 530 1
1055 530 1
1058 530 1
179 531 1
181 531 1
256 531 1
273 531 1
431 531 1
438 531 1
1056 531 1
1059 531 1
180 532 1
182 532 1
257 532 1
274 532 1
432 532 1
439 532 1
1057 532 1
1060 532 1
181 533 1
183 533 1
258 533 1
275 533 1
433 533 1
440 533 1
1058 533 1
1061 533 1
182 534 1
184 534 1
251 534 1
259 534 1
434 534 1
441 534 1
1059 534 1
1062 534 1
183 535 1
185 535 1
252 535 1
260 535 1
435 535 1
442 535 1
1060 535 1
1063 535 1
184 536 1
186 536 1
253 536 1
261 536 1
436 536 1
443 536 1
1061 536 1
1064 536 1
185 537 1
187 537 1
254 537 1
262 537 1
437 537 1
444 537 1
1062 537 1
1065 537 1
186 538 1
188 538 1
255 538 1
263 538 1
438 538 1
445 538 1
1063 538 1
1066 538 1
187 539 1
189 539 1
256 539 1
264 539 1
439 539 1
446 539 1
1064 539 1
1067 539 1
188 540 1
190 540 1
257 540 1
265 540 1
440 540 1
447 540 1
1065 540 1
1068 540 1
189 541 1
191 541 1
258 541 1
266 541 1
441 541 1
448 541 1
1066 541 1
1069 541 1
190 542 1
192 542 1
259 542 1
267 542 1
442 542 1
449 542 1
1067 542 1
1070 542 1
191 543 1
193 543 1
260 543 1
268 543 1
443 543 1
450 543 1
1068 543 1
1071 543 1
192 544 1
194 544 1
261 544 1
269 544 1
426 544 1
444 544 1
1069 544 1
1072 544 1
193 545 1
195 545 1
262 545 1
270 545 1
427 545 1
445 545 1
1070 545 1
1073 545 1
194 546 1
196 546 1
263 546 1
271 546 1
428 546 1
446 546 1
1071 546 1
1074 546 1
195 547 1
197 547 1
264 547 1
272 547 1
429 547 1
447 547 1
1072 547 1
1075 547 1
196 548 1
198 548 1
265 548 1
273 548 1
430 548 1
448 548 1
1051 548 1
1073 548 1
197 549 1
199 549 1
266 549 1
274 549 1
431 549 1
449 549 1
1052 549 1
1074 549 1
198 550 1
200 550 1
267 550 1
275 550 1
432 550 1
450 550 1
1053 550 1
1075 550 1
201 551 1
222 551 1
226 551 1
245 551 1
451 551 1
458 551 1
1076 551 1
1079 551 1
202 552 1
223 552 1
227 552 1
246 552 1
452 552 1
459 552 1
1077 552 1
1080 552 1
203 553 1
224 553 1
228 553 1
247 553 1
453 553 1
460 553 1
1078 553 1
1081 553 1
204 554 1
225 554 1
229 554 1
248 554 1
454 554 1
461 554 1
1079 554 1
1082 554 1
201 555 1
205 555 1
230 555 1
249 555 1
455 555 1
462 555 1
1080 555 1
1083 555 1
202 556 1
206 556 1
231 556 1
250 556 1
456 556 1
463 556 1
1081 556 1
1084 556 1
203 557 1
207 557 1
226 557 1
232 557 1
457 557 1
464 557 1
1082 557 1
1085 557 1
204 558 1
208 558 1
227 558 1
233 558 1
458 558 1
465 558 1
1083 558 1
1086 558 1
205 559 1
209 559 1
228 559 1
234 559 1
459 559 1
466 559 1
1084 559 1
1087 559 1
206 560 1
210 560 1
229 560 1
235 560 1
460 560 1
467 560 1
1085 560 1
1088 560 1
207 561 1
211 561 1
230 561 1
236 561 1
461 561 1
468 561 1
1086 561 1
1089 561 1
208 562 1
212 562 1
231 562 1
237 562 1
462 562 1
469 562 1
1087 562 1
1090 562 1
209 563 1
213 563 1
232 563 1
238 563 1
463 563 1
470 563 1
1088 563 1
1091 563 1
210 564 1
214 564 1
233 564 1
239 564 1
464 564 1
471 564 1
1089 564 1
1092 564 1
211 565 1
215 565 1
234 565 1
240 565 1
465 565 1
472 565 1
1090 565 1
1093 565 1
212 566 1
216 566 1
235 566 1
241 566 1
466 566 1
473 566 1
1091 566 1
1094 566 1
213 567 1
217 567 1
236 567 1
242 567 1
467 567 1
474 567 1
1092 567 1
1095 567 1
214 568 1
218 568 1
237 568 1
243 568 1
468 568 1
475 568 1
1093 568 1
1096 568 1
215 569 1
219 569 1
238 569 1
244 569 1
451 569 1
469 569 1
1094 569 1
1097 569 1
216 570 1
220 570 1
239 570 1
245 570 1
452 570 1
470 570 1
1095 570 1
1098 570 1
217 571 1
221 571 1
240 571 1
246 571 1
453 571 1
471 571 1
1096 571 1
1099 571 1
218 572 1
222 572 1
241 572 1
247 572 1
454 572 1
472 572 1
1097 572 1
1100 572 1
219 573 1
223 573 1
242 573 1
248 573 1
455 573 1
473 573 1
1076 573 1
1098 573 1
220 574 1
224 574 1
243 574 1
249 574 1
456 574 1
474 574 1
1077 574 1
1099 574 1
221 575 1
225 575 1
244 575 1
250 575 1
457 575 1
475 575 1
1078 575 1
1100 575 1
201 576 1
224 576 1
251 576 1
270 576 1
476 576 1
483 576 1
1101 576 1
1104 576 1
202 577 1
225 577 1
252 577 1
271 577 1
477 577 1
484 577 1
1102 577 1
1105 577 1
201 578 1
203 578 1
253 578 1
272 578 1
478 578 1
485 578 1
1103 578 1
1106 578 1
202 579 1
204 579 1
254 579 1
273 579 1
479 579 1
486 579 1
1104 579 1
1107 579 1
203 580 1
205 580 1
255 580 1
274 580 1
480 580 1
487 580 1
1105 580 1
1108 580 1
204 581 1
206 581 1
256 581 1
275 581 1
481 581 1
488 581 1
1106 581 1
1109 581 1
205 582 1
207 582 1
251 582 1
257 582 1
482 582 1
489 582 1
1107 582 1
1110 582 1
206 583 1
208 583 1
252 583 1
258 583 1
483 583 1
490 583 1
1108 583 1
1111 583 1
207 584 1
209 584 1
253 584 1
259 584 1
484 584 1
491 584 1
1109 584 1
1112 584 1
208 585 1
210 585 1
254 585 1
260 585 1
485 585 1
492 585 1
1110 585 1
1113 585 1
209 586 1
211 586 1
255 586 1
261 586 1
486 586 1
493 586 1
1111 586 1
1114 586 1
210 587 1
212 587 1
256 587 1
262 587 1
487 587 1
494 587 1
1112 587 1
1115 587 1
211 588 1
213 588 1
257 588 1
263 588 1
488 588 1
495 588 1
1113 588 1
1116 588 1
212 589 1
214 589 1
258 589 1
264 589 1
489 589 1
496 589 1
1114 589 1
1117 589 1
213 590 1
215 590 1
259 590 1
265 590 1
490 590 1
497 590 1
1115 590 1
1118 590 1
214 591 1
216 591 1
260 591 1
266 591 1
491 591 1
498 591 1
1116 591 1
1119 591 1
215 592 1
217 592 1
261 592 1
267 592 1
492 592 1
499 592 1
1117 592 1
1120 592 1
216 593 1
218 593 1
262 593 1
268 593 1
493 593 1
500 593 1
1118 593 1
1121 593 1
217 594 1
219 594 1
263 594 1
269 594 1
476 594 1
494 594 1
1119 594 1
1122 594 1
218 595 1
220 595 1
264 595 1
270 595 1
477 595 1
495 595 1
1120 595 1
1123 595 1
219 596 1
221 596 1
265 596 1
271 596 1
478 596 1
496 596 1
1121 596 1
1124 596 1
220 597 1
222 597 1
266 597 1
272 597 1
479 597 1
497 597 1
1122 597 1
1125 597 1
221 598 1
223 598 1
267 598 1
273 598 1
480 598 1
498 598 1
1101 598 1
1123 598 1
222 599 1
224 599 1
268 599 1
274 599 1
481 599 1
499 599 1
1102 599 1
1124 599 1
223 600 1
225 600 1
269 600 1
275 600 1
482 600 1
500 600 1
1103 600 1
1125 600 1
226 601 1
249 601 1
251 601 1
272 601 1
501 601 1
508 601 1
1126 601 1
1129 601 1
227 602 1
250 602 1
252 602 1
273 602 1
502 602 1
509 602 1
1127 602 1
1130 602 1
226 603 1
228 603 1
253 603 1
274 603 1
503 603 1
510 603 1
1128 603 1
1131 603 1
227 604 1
229 604 1
254 604 1
275 604 1
504 604 1
511 604 1
1129 604 1
1132 604 1
228 605 1
230 605 1
251 605 1
255 605 1
505 605 1
512 605 1
1130 605 1
1133 605 1
229 606 1
231 606 1
252 606 1
256 606 1
506 606 1
513 606 1
1131 606 1
1134 606 1
230 607 1
232 607 1
253 607 1
257 607 1
507 607 1
514 607 1
1132 607 1
1135 607 1
231 608 1
233 608 1
254 608 1
258 608 1
508 608 1
515 608 1
1133 608 1
1136 608 1
232 609 1
234 609 1
255 609 1
259 609 1
509 609 1
516 609 1
1134 609 1
1137 609 1
233 610 1
235 610 1
256 610 1
260 610 1
510 610 1
517 610 1
1135 610 1
1138 610 1
234 611 1
236 611 1
257 611 1
261 611 1
511 611 1
518 611 1
1136 611 1
1139 611 1
235 612 1
237 612 1
258 612 1
262 612 1
512 612 1
519 612 1
1137 612 1
1140 612 1
236 613 1
238 613 1
259 613 1
263 613 1
513 613 1
520 613 1
1138 613 1
1141 613 1
237 614 1
239 614 1
260 614 1
264 614 1
514 614 1
521 614 1
1139 614 1
1142 614 1
238 615 1
240 615 1
261 615 1
265 615 1
515 615 1
522 615 1
1140 615 1
1143 615 1
239 616 1
241 616 1
262 616 1
266 616 1
516 616 1
523 616 1
1141 616 1
1144 616 1
240 617 1
242 617 1
263 617 1
267 617 1
517 617 1
524 617 1
1142 617 1
1145 617 1
241 618 1
243 618 1
264 618 1
268 618 1
518 618 1
525 618 1
1143 618 1
1146 618 1
242 619 1
244 619 1
265 619 1
269 619 1
501 619 1
519 619 1
1144 619 1
1147 619 1
243 620 1
245 620 1
266 620 1
270 620 1
502 620 1
520 620 1
1145 620 1
1148 620 1
244 621 1
246 621 1
267 621 1
271 621 1
503 621 1
521 621 1
1146 621 1
1149 621 1
245 622 1
247 622 1
268 622 1
272 622 1
504 622 1
522 622 1
1147 622 1
1150 622 1
246 623 1
248 623 1
269 623 1
273 623 1
505 623 1
523 623 1
1126 623 1
1148 623 1
247 624 1
249 624 1
270 624 1
274 624 1
506 624 1
524 624 1
1127 624 1
1149 624 1
248 625 1
250 625 1
271 625 1
275 625 1
507 625 1
525 625 1
1128 625 1
1150 625 1
276 626 1
295 626 1
301 626 1
318 626 1
376 626 1
392 626 1
1151 626 1
1154 626 1
277 627 1
296 627 1
302 627 1
319 627 1
377 627 1
393 627 1
1152 627 1
1155 627 1
278 628 1
297 628 1
303 628 1
320 628 1
378 628 1
394 628 1
1153 628 1
1156 628 1
279 629 1
298 629 1
304 629 1
321 629 1
379 629 1
395 629 1
1154 629 1
1157 629 1
280 630 1
299 630 1
305 630 1
322 630 1
380 630 1
396 630 1
1155 630 1
1158 630 1
281 631 1
300 631 1
306 631 1
323 631 1
381 631 1
397 631 1
1156 631 1
1159 631 1
276 632 1
282 632 1
307 632 1
324 632 1
382 632 1
398 632 1
1157 632 1
1160 632 1
277 633 1
283 633 1
308 633 1
325 633 1
383 633 1
399 633 1
1158 633 1
1161 633 1
278 634 1
284 634 1
301 634 1
309 634 1
384 634 1
400 634 1
1159 634 1
1162 634 1
279 635 1
285 635 1
302 635 1
310 635 1
376 635 1
385 635 1
1160 635 1
1163 635 1
280 636 1
286 636 1
303 636 1
311 636 1
377 636 1
386 636 1
1161 636 1
1164 636 1
281 637 1
287 637 1
304 637 1
312 637 1
378 637 1
387 637 1
1162 637 1
1165 637 1
282 638 1
288 638 1
305 638 1
313 638 1
379 638 1
388 638 1
1163 638 1
1166 638 1
283 639 1
289 639 1
306 639 1
314 639 1
380 639 1
389 639 1
1164 639 1
1167 639 1
284 640 1
290 640 1
307 640 1
315 640 1
381 640 1
390 640 1
1165 640 1
1168 640 1
285 641 1
291 641 1
308 641 1
316 641 1
382 641 1
391 641 1
1166 641 1
1169 641 1
286 642 1
292 642 1
309 642 1
317 642 1
383 642 1
392 642 1
1167 642 1
1170 642 1
287 643 1
293 643 1
310 643 1
318 643 1
384 643 1
393 643 1
1168 643 1
1171 643 1
288 644 1
294 644 1
311 644 1
319 644 1
385 644 1
394 644 1
1169 644 1
1172 644 1
289 645 1
295 645 1
312 645 1
320 645 1
386 645 1
395 645 1
1170 645 1
1173 645 1
290 646 1
296 646 1
313 646 1
321 646 1
387 646 1
396 646 1
1171 646 1
1174 646 1
291 647 1
297 647 1
314 647 1
322 647 1
388 647 1
397 647 1
1172 647 1
1175 647 1
292 648 1
298 648 1
315 648 1
323 648 1
389 648 1
398 648 1
1151 648 1
1173 648 1
293 649 1
299 649 1
316 649 1
324 649 1
390 649 1
399 649 1
1152 649 1
1174 649 1
294 650 1
300 650 1
317 650 1
325 650 1
391 650 1
400 650 1
1153 650 1
1175 650 1
276 651 1
297 651 1
326 651 1
343 651 1
401 651 1
417 651 1
1176 651 1
1179 651 1
277 652 1
298 652 1
327 652 1
344 652 1
402 652 1
418 652 1
1177 652 1
1180 652 1
278 653 1
299 653 1
328 653 1
345 653 1
403 653 1
419 653 1
1178 653 1
1181 653 1
279 654 1
300 654 1
329 654 1
346 654 1
404 654 1
420 654 1
1179 654 1
1182 654 1
276 655 1
280 655 1
330 655 1
347 655 1
405 655 1
421 655 1
1180 655 1
1183 655 1
277 656 1
281 656 1
331 656 1
348 656 1
406 656 1
422 656 1
1181 656 1
1184 656 1
278 657 1
282 657 1
332 657 1
349 657 1
407 657 1
423 657 1
1182 657 1
1185 657 1
279 658 1
283 658 1
333 658 1
350 658 1
408 658 1
424 658 1
1183 658 1
1186 658 1
280 659 1
284 659 1
326 659 1
334 659 1
409 659 1
425 659 1
1184 659 1
1187 659 1
281 660 1
285 660 1
327 660 1
335 660 1
401 660 1
410 660 1
1185 660 1
1188 660 1
282 661 1
286 661 1
328 661 1
336 661 1
402 661 1
411 661 1
1186 661 1
1189 661 1
283 662 1
287 662 1
329 662 1
337 662 1
403 662 1
412 662 1
1187 662 1
1190 662 1
284 663 1
288 663 1
330 663 1
338 663 1
404 663 1
413 663 1
1188 663 1
1191 663 1
285 664 1
289 664 1
331 664 1
339 664 1
405 664 1
414 664 1
1189 664 1
1192 664 1
286 665 1
290 665 1
332 665 1
340 665 1
406 665 1
415 665 1
1190 665 1
1193 665 1
287 666 1
291 666 1
333 666 1
341 666 1
407 666 1
416 666 1
1191 666 1
1194 666 1
288 667 1
292 667 1
334 667 1
342 667 1
408 667 1
417 667 1
1192 667 1
1195 667 1
289 668 1
293 668 1
335 668 1
343 668 1
409 668 1
418 668 1
1193 668 1
1196 668 1
290 669 1
294 669 1
336 669 1
344 669 1
410 669 1
419 669 1
1194 669 1
1197 669 1
291 670 1
295 670 1
337 670 1
345 670 1
411 670 1
420 670 1
1195 670 1
1198 670 1
292 671 1
296 671 1
338 671 1
346 671 1
412 671 1
421 671 1
1196 671 1
1199 671 1
293 672 1
297 672 1
339 672 1
347 672 1
413 672 1
422 672 1
1197 672 1
1200 672 1
294 673 1
298 673 1
340 673 1
348 673 1
414 673 1
423 673 1
1176 673 1
1198 673 1
295 674 1
299 674 1
341 674 1
349 674 1
415 674 1
424 674 1
1177 674 1
1199 674 1
296 675 1
300 675 1
342 675 1
350 675 1
416 675 1
425 675 1
1178 675 1
1200 675 1
276 676 1
299 676 1
351 676 1
368 676 1
426 676 1
442 676 1
1201 676 1
1204 676 1
277 677 1
300 677 1
352 677 1
369 677 1
427 677 1
443 677 1
1202 677 1
1205 677 1
276 678 1
278 678 1
353 678 1
370 678 1
428 678 1
444 678 1
1203 678 1
1206 678 1
277 679 1
279 679 1
354 679 1
371 679 1
429 679 1
445 679 1
1204 679 1
1207 679 1
278 680 1
280 680 1
355 680 1
372 680 1
430 680 1
446 680 1
1205 680 1
1208 680 1
279 681 1
281 681 1
356 681 1
373 681 1
431 681 1
447 681 1
1206 681 1
1209 681 1
280 682 1
282 682 1
357 682 1
374 682 1
432 682 1
448 682 1
1207 682 1
1210 682 1
281 683 1
283 683 1
358 683 1
375 683 1
433 683 1
449 683 1
1208 683 1
1211 683 1
282 684 1
284 684 1
351 684 1
359 684 1
434 684 1
450 684 1
1209 684 1
1212 684 1
283 685 1
285 685 1
352 685 1
360 685 1
426 685 1
435 685 1
1210 685 1
1213 685 1
284 686 1
286 686 1
353 686 1
361 686 1
427 686 1
436 686 1
1211 686 1
1214 686 1
285 687 1
287 687 1
354 687 1
362 687 1
428 687 1
437 687 1
1212 687 1
1215 687 1
286 688 1
288 688 1
355 688 1
363 688 1
429 688 1
438 688 1
1213 688 1
1216 688 1
287 689 1
289 689 1
356 689 1
364 689 1
430 689 1
439 689 1
1214 689 1
1217 689 1
288 690 1
290 690 1
357 690 1
365 690 1
431 690 1
440 690 1
1215 690 1
1218 690 1
289 691 1
291 691 1
358 691 1
366 691 1
432 691 1
441 691 1
1216 691 1
1219 691 1
290 692 1
292 692 1
359 692 1
367 692 1
433 692 1
442 692 1
1217 692 1
1220 692 1
291 693 1
293 693 1
360 693 1
368 693 1
434 693 1
443 693 1
1218 693 1
1221 693 1
292 694 1
294 694 1
361 694 1
369 694 1
435 694 1
444 694 1
1219 694 1
1222 694 1
293 695 1
295 695 1
362 695 1
370 695 1
436 695 1
445 695 1
1220 695 1
1223 695 1
294 696 1
296 696 1
363 696 1
371 696 1
437 696 1
446 696 1
1221 696 1
1224 696 1
295 697 1
297 697 1
364 697 1
372 697 1
438 697 1
447 697 1
1222 697 1
1225 697 1
296 698 1
298 698 1
365 698 1
373 698 1
439 698 1
448 698 1
1201 698 1
1223 698 1
297 699 1
299 699 1
366 699 1
374 699 1
440 699 1
449 699 1
1202 699 1
1224 699 1
298 700 1
300 700 1
367 700 1
375 700 1
441 700 1
450 700 1
1203 700 1
1225 700 1
301 701 1
322 701 1
326 701 1
345 701 1
451 701 1
467 701 1
1226 701 1
1229 701 1
302 702 1
323 702 1
327 702 1
346 702 1
452 702 1
468 702 1
1227 702 1
1230 702 1
303 703 1
324 703 1
328 703 1
347 703 1
453 703 1
469 703 1
1228 703 1
1231 703 1
304 704 1
325 704 1
329 704 1
348 704 1
454 704 1
470 704 1
1229 704 1
1232 704 1
301 705 1
305 705 1
330 705 1
349 705 1
455 705 1
471 705 1
1230 705 1
1233 705 1
302 706 1
306 706 1
331 706 1
350 706 1
456 706 1
472 706 1
1231 706 1
1234 706 1
303 707 1
307 707 1
326 707 1
332 707 1
457 707 1
473 707 1
1232 707 1
1235 707 1
304 708 1
308 708 1
327 708 1
333 708 1
458 708 1
474 708 1
1233 708 1
1236 708 1
305 709 1
309 709 1
328 709 1
334 709 1
459 709 1
475 709 1
1234 709 1
1237 709 1
306 710 1
310 710 1
329 710 1
335 710 1
451 710 1
460 710 1
1235 710 1
1238 710 1
307 711 1
311 711 1
330 711 1
336 711 1
452 711 1
461 711 1
1236 711 1
1239 711 1
308 712 1
312 712 1
331 712 1
337 712 1
453 712 1
462 712 1
1237 712 1
1240 712 1
309 713 1
313 713 1
332 713 1
338 713 1
454 713 1
463 713 1
1238 713 1
1241 713 1
310 714 1
314 714 1
333 714 1
339 714 1
455 714 1
464 714 1
1239 714 1
1242 714 1
311 715 1
315 715 1
334 715 1
340 715 1
456 715 1
465 715 1
1240 715 1
1243 715 1
312 716 1
316 716 1
335 716 1
341 716 1
457 716 1
466 716 1
1241 716 1
1244 716 1
313 717 1
317 717 1
336 717 1
342 717 1
458 717 1
467 717 1
1242 717 1
1245 717 1
314 718 1
318 718 1
337 718 1
343 718 1
459 718 1
468 718 1
1243 718 1
1246 718 1
315 719 1
319 719 1
338 719 1
344 719 1
460 719 1
469 719 1
1244 719 1
1247 719 1
316 720 1
320 720 1
339 720 1
345 720 1
461 720 1
470 720 1
1245 720 1
1248 720 1
317 721 1
321 721 1
340 721 1
346 721 1
462 721 1
471 721 1
1246 721 1
1249 721 1
318 722 1
322 722 1
341 722 1
347 722 1
463 722 1
472 722 1
1247 722 1
1250 722 1
319 723 1
323 723 1
342 723 1
348 723 1
464 723 1
473 723 1
1226 723 1
1248 723 1
320 724 1
324 724 1
343 724 1
349 724 1
465 724 1
474 724 1
1227 724 1
1249 724 1
321 725 1
325 725 1
344 725 1
350 725 1
466 725 1
475 725 1
1228 725 1
1250 725 1
301 726 1
324 726 1
351 726 1
370 726 1
476 726 1
492 726 1
1251 726 1
1254 726 1
302 727 1
325 727 1
352 727 1
371 727 1
477 727 1
493 727 1
1252 727 1
1255 727 1
301 728 1
303 728 1
353 728 1
372 728 1
478 728 1
494 728 1
1253 728 1
1256 728 1
302 729 1
304 729 1
354 729 1
373 729 1
479 729 1
495 729 1
1254 729 1
1257 729 1
303 730 1
305 730 1
355 730 1
374 730 1
480 730 1
496 730 1
1255 730 1
1258 730 1
304 731 1
306 731 1
356 731 1
375 731 1
481 731 1
497 731 1
1256 731 1
1259 731 1
305 732 1
307 732 1
351 732 1
357 732 1
482 732 1
498 732 1
1257 732 1
1260 732 1
306 733 1
308 733 1
352 733 1
358 733 1
483 733 1
499 733 1
1258 733 1
1261 733 1
307 734 1
309 734 1
353 734 1
359 734 1
484 734 1
500 734 1
1259 734 1
1262 734 1
308 735 1
310 735 1
354 735 1
360 735 1
476 735 1
485 735 1
1260 735 1
1263 735 1
309 736 1
311 736 1
355 736 1
361 736 1
477 736 1
486 736 1
1261 736 1
1264 736 1
310 737 1
312 737 1
356 737 1
362 737 1
478 737 1
487 737 1
1262 737 1
1265 737 1
311 738 1
313 738 1
357 738 1
363 738 1
479 738 1
488 738 1
1263 738 1
1266 738 1
312 739 1
314 739 1
358 739 1
364 739 1
480 739 1
489 739 1
1264 739 1
1267 739 1
313 740 1
315 740 1
359 740 1
365 740 1
481 740 1
490 740 1
1265 740 1
1268 740 1
314 741 1
316 741 1
360 741 1
366 741 1
482 741 1
491 741 1
1266 741 1
1269 741 1
315 742 1
317 742 1
361 742 1
367 742 1
483 742 1
492 742 1
1267 742 1
1270 742 1
316 743 1
318 743 1
362 743 1
368 743 1
484 743 1
493 743 1
1268 743 1
1271 743 1
317 744 1
319 744 1
363 744 1
369 744 1
485 744 1
494 744 1
1269 744 1
1272 744 1
318 745 1
320 745 1
364 745 1
370 745 1
486 745 1
495 745 1
1270 745 1
1273 745 1
319 746 1
321 746 1
365 746 1
371 746 1
487 746 1
496 746 1
1271 746 1
1274 746 1
320 747 1
322 747 1
366 747 1
372 747 1
488 747 1
497 747 1
1272 747 1
1275 747 1
321 748 1
323 748 1
367 748 1
373 748 1
489 748 1
498 748 1
1251 748 1
1273 748 1
322 749 1
324 749 1
368 749 1
374 749 1
490 749 1
499 749 1
1252 749 1
1274 749 1
323 750 1
325 750 1
369 750 1
375 750 1
491 750 1
500 750 1
1253 750 1
1275 750 1
326 751 1
349 751 1
351 751 1
372 751 1
501 751 1
517 751 1
1276 751 1
1279 751 1
327 752 1
350 752 1
352 752 1
373 752 1
502 752 1
518 752 1
1277 752 1
1280 752 1
326 753 1
328 753 1
353 753 1
374 753 1
503 753 1
519 753 1
1278 753 1
1281 753 1
327 754 1
329 754 1
354 754 1
375 754 1
504 754 1
520 754 1
1279 754 1
1282 754 1
328 755 1
330 755 1
351 755 1
355 755 1
505 755 1
521 755 1
1280 755 1
1283 755 1
329 756 1
331 756 1
352 756 1
356 756 1
506 756 1
522 756 1
1281 756 1
1284 756 1
330 757 1
332 757 1
353 757 1
357 757 1
507 757 1
523 757 1
1282 757 1
1285 757 1
331 758 1
333 758 1
354 758 1
358 758 1
508 758 1
524 758 1
1283 758 1
1286 758 1
332 759 1
334 759 1
355 759 1
359 759 1
509 759 1
525 759 1
1284 759 1
1287 759 1
333 760 1
335 760 1
356 760 1
360 760 1
501 760 1
510 760 1
1285 760 1
1288 760 1
334 761 1
336 761 1
357 761 1
361 761 1
502 761 1
511 761 1
1286 761 1
1289 761 1
335 762 1
337 762 1
358 762 1
362 762 1
503 762 1
512 762 1
1287 762 1
1290 762 1
336 763 1
338 763 1
359 763 1
363 763 1
504 763 1
513 763 1
1288 763 1
1291 763 1
337 764 1
339 764 1
360 764 1
364 764 1
505 764 1
514 764 1
1289 764 1
1292 764 1
338 765 1
340 765 1
361 765 1
365 765 1
506 765 1
515 765 1
1290 765 1
1293 765 1
339 766 1
341 766 1
362 766 1
366 766 1
507 766 1
516 766 1
1291 766 1
1294 766 1
340 767 1
342 767 1
363 767 1
367 767 1
508 767 1
517 767 1
1292 767 1
1295 767 1
341 768 1
343 768 1
364 768 1
368 768 1
509 768 1
518 768 1
1293 768 1
1296 768 1
342 769 1
344 769 1
365 769 1
369 769 1
510 769 1
519 769 1
1294 769 1
1297 769 1
343 770 1
345 770 1
366 770 1
370 770 1
511 770 1
520 770 1
1295 770 1
1298 770 1
344 771 1
346 771 1
367 771 1
371 771 1
512 771 1
521 771 1
1296 771 1
1299 771 1
345 772 1
347 772 1
368 772 1
372 772 1
513 772 1
522 772 1
1297 772 1
1300 772 1
346 773 1
348 773 1
369 773 1
373 773 1
514 773 1
523 773 1
1276 773 1
1298 773 1
347 774 1
349 774 1
370 774 1
374 774 1
515 774 1
524 774 1
1277 774 1
1299 774 1
348 775 1
350 775 1
371 775 1
375 775 1
516 775 1
525 775 1
1278 775 1
1300 775 1
376 776 1
397 776 1
401 776 1
420 776 1
451 776 1
468 776 1
1301 776 1
1304 776 1
377 777 1
398 777 1
402 777 1
421 777 1
452 777 1
469 777 1
1302 777 1
1305 777 1
378 778 1
399 778 1
403 778 1
422 778 1
453 778 1
470 778 1
1303 778 1
1306 778 1
379 779 1
400 779 1
404 779 1
423 779 1
454 779 1
471 779 1
1304 779 1
1307 779 1
376 780 1
380 780 1
405 780 1
424 780 1
455 780 1
472 780 1
1305 780 1
1308 780 1
377 781 1
381 781 1
406 781 1
425 781 1
456 781 1
473 781 1
1306 781 1
1309 781 1
378 782 1
382 782 1
401 782 1
407 782 1
457 782 1
474 782 1
1307 782 1
1310 782 1
379 783 1
383 783 1
402 783 1
408 783 1
458 783 1
475 783 1
1308 783 1
1311 783 1
380 784 1
384 784 1
403 784 1
409 784 1
451 784 1
459 784 1
1309 784 1
1312 784 1
381 785 1
385 785 1
404 785 1
410 785 1
452 785 1
460 785 1
1310 785 1
1313 785 1
382 786 1
386 786 1
405 786 1
411 786 1
453 786 1
461 786 1
1311 786 1
1314 786 1
383 787 1
387 787 1
406 787 1
412 787 1
454 787 1
462 787 1
1312 787 1
1315 787 1
384 788 1
388 788 1
407 788 1
413 788 1
455 788 1
463 788 1
1313 788 1
1316 788 1
385 789 1
389 789 1
408 789 1
414 789 1
456 789 1
464 789 1
1314 789 1
1317 789 1
386 790 1
390 790 1
409 790 1
415 790 1
457 790 1
465 790 1
1315 790 1
1318 790 1
387 791 1
391 791 1
410 791 1
416 791 1
458 791 1
466 791 1
1316 791 1
1319 791 1
388 792 1
392 792 1
411 792 1
417 792 1
459 792 1
467 792 1
1317 792 1
1320 792 1
389 793 1
393 793 1
412 793 1
418 793 1
460 793 1
468 793 1
1318 793 1
1321 793 1
390 794 1
394 794 1
413 794 1
419 794 1
461 794 1
469 794 1
1319 794 1
1322 794 1
391 795 1
395 795 1
414 795 1
420 795 1
462 795 1
470 795 1
1320 795 1
1323 795 1
392 796 1
396 796 1
415 796 1
421 796 1
463 796 1
471 796 1
1321 796 1
1324 796 1
393 797 1
397 797 1
416 797 1
422 797 1
464 797 1
472 797 1
1322 797 1
1325 797 1
394 798 1
398 798 1
417 798 1
423 798 1
465 798 1
473 798 1
1301 798 1
1323 798 1
395 799 1
399 799 1
418 799 1
424 799 1
466 799 1
474 799 1
1302 799 1
1324 799 1
396 800 1
400 800 1
419 800 1
425 800 1
467 800 1
475 800 1
1303 800 1
1325 800 1
376 801 1
399 801 1
426 801 1
445 801 1
476 801 1
493 801 1
1326 801 1
1329 801 1
377 802 1
400 802 1
427 802 1
446 802 1
477 802 1
494 802 1
1327 802 1
1330 802 1
376 803 1
378 803 1
428 803 1
447 803 1
478 803 1
495 803 1
1328 803 1
1331 803 1
377 804 1
379 804 1
429 804 1
448 804 1
479 804 1
496 804 1
1329 804 1
1332 804 1
378 805 1
380 805 1
430 805 1
449 805 1
480 805 1
497 805 1
1330 805 1
1333 805 1
379 806 1
381 806 1
431 806 1
450 806 1
481 806 1
498 806 1
1331 806 1
1334 806 1
380 807 1
382 807 1
426 807 1
432 807 1
482 807 1
499 807 1
1332 807 1
1335 807 1
381 808 1
383 808 1
427 808 1
433 808 1
483 808 1
500 808 1
1333 808 1
1336 808 1
382 809 1
384 809 1
428 809 1
434 809 1
476 809 1
484 809 1
1334 809 1
1337 809 1
383 810 1
385 810 1
429 810 1
435 810 1
477 810 1
485 810 1
1335 810 1
1338 810 1
384 811 1
386 811 1
430 811 1
436 811 1
478 811 1
486 811 1
1336 811 1
1339 811 1
385 812 1
387 812 1
431 812 1
437 812 1
479 812 1
487 812 1
1337 812 1
1340 812 1
386 813 1
388 813 1
432 813 1
438 813 1
480 813 1
488 813 1
1338 813 1
1341 813 1
387 814 1
389 814 1
433 814 1
439 814 1
481 814 1
489 814 1
1339 814 1
1342 814 1
388 815 1
390 815 1
434 815 1
440 815 1
482 815 1
490 815 1
1340 815 1
1343 815 1
389 816 1
391 816 1
435 816 1
441 816 1
483 816 1
491 816 1
1341 816 1
1344 816 1
390 817 1
392 817 1
436 817 1
442 817 1
484 817 1
492 817 1
1342 817 1
1345 817 1
391 818 1
393 818 1
437 818 1
443 818 1
485 818 1
493 818 1
1343 818 1
1346 818 1
392 819 1
394 819 1
438 819 1
444 819 1
486 819 1
494 819 1
1344 819 1
1347 819 1
393 820 1
395 820 1
439 820 1
445 820 1
487 820 1
495 820 1
1345 820 1
1348 820 1
394 821 1
396 821 1
440 821 1
446 821 1
488 821 1
496 821 1
1346 821 1
1349 821 1
395 822 1
397 822 1
441 822 1
447 822 1
489 822 1
497 822 1
1347 822 1
1350 822 1
396 823 1
398 823 1
442 823 1
448 823 1
490 823 1
498 823 1
1326 823 1
1348 823 1
397 824 1
399 824 1
443 824 1
449 824 1
491 824 1
499 824 1
1327 824 1
1349 824 1
398 825 1
400 825 1
444 825 1
450 825 1
492 825 1
500 825 1
1328 825 1
1350 825 1
401 826 1
424 826 1
426 826 1
447 826 1
501 826 1
518 826 1
1351 826 1
1354 826 1
402 827 1
425 827 1
427 827 1
448 827 1
502 827 1
519 827 1
1352 827 1
1355 827 1
401 828 1
403 828 1
428 828 1
449 828 1
503 828 1
520 828 1
1353 828 1
1356 828 1
402 829 1
404 829 1
429 829 1
450 829 1
504 829 1
521 829 1
1354 829 1
1357 829 1
403 830 1
405 830 1
426 830 1
430 830 1
505 830 1
522 830 1
1355 830 1
1358 830 1
404 831 1
406 831 1
427 831 1
431 831 1
506 831 1
523 831 1
1356 831 1
1359 831 1
405 832 1
407 832 1
428 832 1
432 832 1
507 832 1
524 832 1
1357 832 1
1360 832 1
406 833 1
408 833 1
429 833 1
433 833 1
508 833 1
525 833 1
1358 833 1
1361 833 1
407 834 1
409 834 1
430 834 1
434 834 1
501 834 1
509 834 1
1359 834 1
1362 834 1
408 835 1
410 835 1
431 835 1
435 835 1
502 835 1
510 835 1
1360 835 1
1363 835 1
409 836 1
411 836 1
432 836 1
436 836 1
503 836 1
511 836 1
1361 836 1
1364 836 1
410 837 1
412 837 1
433 837 1
437 837 1
504 837 1
512 837 1
1362 837 1
1365 837 1
411 838 1
413 838 1
434 838 1
438 838 1
505 838 1
513 838 1
1363 838 1
1366 838 1
412 839 1
414 839 1
435 839 1
439 839 1
506 839 1
514 839 1
1364 839 1
1367 839 1
413 840 1
415 840 1
436 840 1
440 840 1
507 840 1
515 840 1
1365 840 1
1368 840 1
414 841 1
416 841 1
437 841 1
441 841 1
508 841 1
516 841 1
1366 841 1
1369 841 1
415 842 1
417 842 1
438 842 1
442 842 1
509 842 1
517 842 1
1367 842 1
1370 842 1
416 843 1
418 843 1
439 843 1
443 843 1
510 843 1
518 843 1
1368 843 1
1371 843 1
417 844 1
419 844 1
440 844 1
444 844 1
511 844 1
519 844 1
1369 844 1
1372 844 1
418 845 1
420 845 1
441 845 1
445 845 1
512 845 1
520 845 1
1370 845 1
1373 845 1
419 846 1
421 846 1
442 846 1
446 846 1
513 846 1
521 846 1
1371 846 1
1374 846 1
420 847 1
422 847 1
443 847 1
447 847 1
514 847 1
522 847 1
1372 847 1
1375 847 1
421 848 1
423 848 1
444 848 1
448 848 1
515 848 1
523 848 1
1351 848 1
1373 848 1
422 849 1
424 849 1
445 849 1
449 849 1
516 849 1
524 849 1
1352 849 1
1374 849 1
423 850 1
425 850 1
446 850 1
450 850 1
517 850 1
525 850 1
1353 850 1
1375 850 1
451 851 1
474 851 1
476 851 1
497 851 1
501 851 1
520 851 1
1376 851 1
1379 851 1
452 852 1
475 852 1
477 852 1
498 852 1
502 852 1
521 852 1
1377 852 1
1380 852 1
451 853 1
453 853 1
478 853 1
499 853 1
503 853 1
522 853 1
1378 853 1
1381 853 1
452 854 1
454 854 1
479 854 1
500 854 1
504 854 1
523 854 1
1379 854 1
1382 854 1
453 855 1
455 855 1
476 855 1
480 855 1
505 855 1
524 855 1
1380 855 1
1383 855 1
454 856 1
456 856 1
477 856 1
481 856 1
506 856 1
525 856 1
1381 856 1
1384 856 1
455 857 1
457 857 1
478 857 1
482 857 1
501 857 1
507 857 1
1382 857 1
1385 857 1
456 858 1
458 858 1
479 858 1
483 858 1
502 858 1
508 858 1
1383 858 1
1386 858 1
457 859 1
459 859 1
480 859 1
484 859 1
503 859 1
509 859 1
1384 859 1
1387 859 1
458 860 1
460 860 1
481 860 1
485 860 1
504 860 1
510 860 1
1385 860 1
1388 860 1
459 861 1
461 861 1
482 861 1
486 861 1
505 861 1
511 861 1
1386 861 1
1389 861 1
460 862 1
462 862 1
483 862 1
487 862 1
506 862 1
512 862 1
1387 862 1
1390 862 1
461 863 1
463 863 1
484 863 1
488 863 1
507 863 1
513 863 1
1388 863 1
1391 863 1
462 864 1
464 864 1
485 864 1
489 864 1
508 864 1
514 864 1
1389 864 1
1392 864 1
463 865 1
465 865 1
486 865 1
490 865 1
509 865 1
515 865 1
1390 865 1
1393 865 1
464 866 1
466 866 1
487 866 1
491 866 1
510 866 1
516 866 1
1391 866 1
1394 866 1
465 867 1
467 867 1
488 867 1
492 867 1
511 867 1
517 867 1
1392 867 1
1395 867 1
466 868 1
468 868 1
489 868 1
493 868 1
512 868 1
518 868 1
1393 868 1
1396 868 1
467 869 1
469 869 1
490 869 1
494 869 1
513 869 1
519 869 1
1394 869 1
1397 869 1
468 870 1
470 870 1
491 870 1
495 870 1
514 870 1
520 870 1
1395 870 1
1398 870 1
469 871 1
471 871 1
492 871 1
496 871 1
515 871 1
521 871 1
1396 871 1
1399 871 1
470 872 1
472 872 1
493 872 1
497 872 1
516 872 1
522 872 1
1397 872 1
1400 872 1
471 873 1
473 873 1
494 873 1
498 873 1
517 873 1
523 873 1
1376 873 1
1398 873 1
472 874 1
474 874 1
495 874 1
499 874 1
518 874 1
524 874 1
1377 874 1
1399 874 1
473 875 1
475 875 1
496 875 1
500 875 1
519 875 1
525 875 1
1378 875 1
1400 875 1
526 876 1
543 876 1
551 876 1
567 876 1
651 876 1
658 876 1
901 876 1
906 876 1
527 877 1
544 877 1
552 877 1
568 877 1
652 877 1
659 877 1
902 877 1
907 877 1
528 878 1
545 878 1
553 878 1
569 878 1
653 878 1
660 878 1
903 878 1
908 878 1
529 879 1
546 879 1
554 879 1
570 879 1
654 879 1
661 879 1
904 879 1
909 879 1
530 880 1
547 880 1
555 880 1
571 880 1
655 880 1
662 880 1
905 880 1
910 880 1
531 881 1
548 881 1
556 881 1
572 881 1
656 881 1
663 881 1
906 881 1
911 881 1
532 882 1
549 882 1
557 882 1
573 882 1
657 882 1
664 882 1
907 882 1
912 882 1
533 883 1
550 883 1
558 883 1
574 883 1
658 883 1
665 883 1
908 883 1
913 883 1
526 884 1
534 884 1
559 884 1
575 884 1
659 884 1
666 884 1
909 884 1
914 884 1
527 885 1
535 885 1
551 885 1
560 885 1
660 885 1
667 885 1
910 885 1
915 885 1
528 886 1
536 886 1
552 886 1
561 886 1
661 886 1
668 886 1
911 886 1
916 886 1
529 887 1
537 887 1
553 887 1
562 887 1
662 887 1
669 887 1
912 887 1
917 887 1
530 888 1
538 888 1
554 888 1
563 888 1
663 888 1
670 888 1
913 888 1
918 888 1
531 889 1
539 889 1
555 889 1
564 889 1
664 889 1
671 889 1
914 889 1
919 889 1
532 890 1
540 890 1
556 890 1
565 890 1
665 890 1
672 890 1
915 890 1
920 890 1
533 891 1
541 891 1
557 891 1
566 891 1
666 891 1
673 891 1
916 891 1
921 891 1
534 892 1
542 892 1
558 892 1
567 892 1
667 892 1
674 892 1
917 892 1
922 892 1
535 893 1
543 893 1
559 893 1
568 893 1
668 893 1
675 893 1
918 893 1
923 893 1
536 894 1
544 894 1
560 894 1
569 894 1
651 894 1
669 894 1
919 894 1
924 894 1
537 895 1
545 895 1
561 895 1
570 895 1
652 895 1
670 895 1
920 895 1
925 895 1
538 896 1
546 896 1
562 896 1
571 896 1
653 896 1
671 896 1
901 896 1
921 896 1
539 897 1
547 897 1
563 897 1
572 897 1
654 897 1
672 897 1
902 897 1
922 897 1
540 898 1
548 898 1
564 898 1
573 898 1
655 898 1
673 898 1
903 898 1
923 898 1
541 899 1
549 899 1
565 899 1
574 899 1
656 899 1
674 899 1
904 899 1
924 899 1
542 900 1
550 900 1
566 900 1
575 900 1
657 900 1
675 900 1
905 900 1
925 900 1
526 901 1
545 901 1
576 901 1
592 901 1
676 901 1
683 901 1
926 901 1
931 901 1
527 902 1
546 902 1
577 902 1
593 902 1
677 902 1
684 902 1
927 902 1
932 902 1
528 903 1
547 903 1
578 903 1
594 903 1
678 903 1
685 903 1
928 903 1
933 903 1
529 904 1
548 904 1
579 904 1
595 904 1
679 904 1
686 904 1
929 904 1
934 904 1
530 905 1
549 905 1
580 905 1
596 905 1
680 905 1
687 905 1
930 905 1
935 905 1
531 906 1
550 906 1
581 906 1
597 906 1
681 906 1
688 906 1
931 906 1
936 906 1
526 907 1
532 907 1
582 907 1
598 907 1
682 907 1
689 907 1
932 907 1
937 907 1
527 908 1
533 908 1
583 908 1
599 908 1
683 908 1
690 908 1
933 908 1
938 908 1
528 909 1
534 909 1
584 909 1
600 909 1
684 909 1
691 909 1
934 909 1
939 909 1
529 910 1
535 910 1
576 910 1
585 910 1
685 910 1
692 910 1
935 910 1
940 910 1
530 911 1
536 911 1
577 911 1
586 911 1
686 911 1
693 911 1
936 911 1
941 911 1
531 912 1
537 912 1
578 912 1
587 912 1
687 912 1
694 912 1
937 912 1
942 912 1
532 913 1
538 913 1
579 913 1
588 913 1
688 913 1
695 913 1
938 913 1
943 913 1
533 914 1
539 914 1
580 914 1
589 914 1
689 914 1
696 914 1
939 914 1
944 914 1
534 915 1
540 915 1
581 915 1
590 915 1
690 915 1
697 915 1
940 915 1
945 915 1
535 916 1
541 916 1
582 916 1
591 916 1
691 916 1
698 916 1
941 916 1
946 916 1
536 917 1
542 917 1
583 917 1
592 917 1
692 917 1
699 917 1
942 917 1
947 917 1
537 918 1
543 918 1
584 918 1
593 918 1
693 918 1
700 918 1
943 918 1
948 918 1
538 919 1
544 919 1
585 919 1
594 919 1
676 919 1
694 919 1
944 919 1
949 919 1
539 920 1
545 920 1
586 920 1
595 920 1
677 920 1
695 920 1
945 920 1
950 920 1
540 921 1
546 921 1
587 921 1
596 921 1
678 921 1
696 921 1
926 921 1
946 921 1
541 922 1
547 922 1
588 922 1
597 922 1
679 922 1
697 922 1
927 922 1
947 922 1
542 923 1
548 923 1
589 923 1
598 923 1
680 923 1
698 923 1
928 923 1
948 923 1
543 924 1
549 924 1
590 924 1
599 924 1
681 924 1
699 924 1
929 924 1
949 924 1
544 925 1
550 925 1
591 925 1
600 925 1
682 925 1
700 925 1
930 925 1
950 925 1
526 926 1
547 926 1
601 926 1
617 926 1
701 926 1
708 926 1
951 926 1
956 926 1
527 927 1
548 927 1
602 927 1
618 927 1
702 927 1
709 927 1
952 927 1
957 927 1
528 928 1
549 928 1
603 928 1
619 928 1
703 928 1
710 928 1
953 928 1
958 928 1
529 929 1
550 929 1
604 929 1
620 929 1
704 929 1
711 929 1
954 929 1
959 929 1
526 930 1
530 930 1
605 930 1
621 930 1
705 930 1
712 930 1
955 930 1
960 930 1
527 931 1
531 931 1
606 931 1
622 931 1
706 931 1
713 931 1
956 931 1
961 931 1
528 932 1
532 932 1
607 932 1
623 932 1
707 932 1
714 932 1
957 932 1
962 932 1
529 933 1
533 933 1
608 933 1
624 933 1
708 933 1
715 933 1
958 933 1
963 933 1
530 934 1
534 934 1
609 934 1
625 934 1
709 934 1
716 934 1
959 934 1
964 934 1
531 935 1
535 935 1
601 935 1
610 935 1
710 935 1
717 935 1
960 935 1
965 935 1
532 936 1
536 936 1
602 936 1
611 936 1
711 936 1
718 936 1
961 936 1
966 936 1
533 937 1
537 937 1
603 937 1
612 937 1
712 937 1
719 937 1
962 937 1
967 937 1
534 938 1
538 938 1
604 938 1
613 938 1
713 938 1
720 938 1
963 938 1
968 938 1
535 939 1
539 939 1
605 939 1
614 939 1
714 939 1
721 939 1
964 939 1
969 939 1
536 940 1
540 940 1
606 940 1
615 940 1
715 940 1
722 940 1
965 940 1
970 940 1
537 941 1
541 941 1
607 941 1
616 941 1
716 941 1
723 941 1
966 941 1
971 941 1
538 942 1
542 942 1
608 942 1
617 942 1
717 942 1
724 942 1
967 942 1
972 942 1
539 943 1
543 943 1
609 943 1
618 943 1
718 943 1
725 943 1
968 943 1
973 943 1
540 944 1
544 944 1
610 944 1
619 944 1
701 944 1
719 944 1
969 944 1
974 944 1
541 945 1
545 945 1
611 945 1
620 945 1
702 945 1
720 945 1
970 945 1
975 945 1
542 946 1
546 946 1
612 946 1
621 946 1
703 946 1
721 946 1
951 946 1
971 946 1
543 947 1
547 947 1
613 947 1
622 947 1
704 947 1
722 947 1
952 947 1
972 947 1
544 948 1
548 948 1
614 948 1
623 948 1
705 948 1
723 948 1
953 948 1
973 948 1
545 949 1
549 949 1
615 949 1
624 949 1
706 949 1
724 949 1
954 949 1
974 949 1
546 950 1
550 950 1
616 950 1
625 950 1
707 950 1
725 950 1
955 950 1
975 950 1
526 951 1
549 951 1
626 951 1
642 951 1
726 951 1
733 951 1
976 951 1
981 951 1
527 952 1
550 952 1
627 952 1
643 952 1
727 952 1
734 952 1
977 952 1
982 952 1
526 953 1
528 953 1
628 953 1
644 953 1
728 953 1
735 953 1
978 953 1
983 953 1
527 954 1
529 954 1
629 954 1
645 954 1
729 954 1
736 954 1
979 954 1
984 954 1
528 955 1
530 955 1
630 955 1
646 955 1
730 955 1
737 955 1
980 955 1
985 955 1
529 956 1
531 956 1
631 956 1
647 956 1
731 956 1
738 956 1
981 956 1
986 956 1
530 957 1
532 957 1
632 957 1
648 957 1
732 957 1
739 957 1
982 957 1
987 957 1
531 958 1
533 958 1
633 958 1
649 958 1
733 958 1
740 958 1
983 958 1
988 958 1
532 959 1
534 959 1
634 959 1
650 959 1
734 959 1
741 959 1
984 959 1
989 959 1
533 960 1
535 960 1
626 960 1
635 960 1
735 960 1
742 960 1
985 960 1
990 960 1
534 961 1
536 961 1
627 961 1
636 961 1
736 961 1
743 961 1
986 961 1
991 961 1
535 962 1
537 962 1
628 962 1
637 962 1
737 962 1
744 962 1
987 962 1
992 962 1
536 963 1
538 963 1
629 963 1
638 963 1
738 963 1
745 963 1
988 963 1
993 963 1
537 964 1
539 964 1
630 964 1
639 964 1
739 964 1
746 964 1
989 964 1
994 964 1
538 965 1
540 965 1
631 965 1
640 965 1
740 965 1
747 965 1
990 965 1
995 965 1
539 966 1
541 966 1
632 966 1
641 966 1
741 966 1
748 966 1
991 966 1
996 966 1
540 967 1
542 967 1
633 967 1
642 967 1
742 967 1
749 967 1
992 967 1
997 967 1
541 968 1
543 968 1
634 968 1
643 968 1
743 968 1
750 968 1
993 968 1
998 968 1
542 969 1
544 969 1
635 969 1
644 969 1
726 969 1
744 969 1
994 969 1
999 969 1
543 970 1
545 970 1
636 970 1
645 970 1
727 970 1
745 970 1
995 970 1
1000 970 1
544 971 1
546 971 1
637 971 1
646 971 1
728 971 1
746 971 1
976 971 1
996 971 1
545 972 1
547 972 1
638 972 1
647 972 1
729 972 1
747 972 1
977 972 1
997 972 1
546 973 1
548 973 1
639 973 1
648 973 1
730 973 1
748 973 1
978 973 1
998 973 1
547 974 1
549 974 1
640 974 1
649 974 1
731 974 1
749 974 1
979 974 1
999 974 1
548 975 1
550 975 1
641 975 1
650 975 1
732 975 1
750 975 1
980 975 1
1000 975 1
551 976 1
570 976 1
576 976 1
593 976 1
751 976 1
758 976 1
1001 976 1
1006 976 1
552 977 1
571 977 1
577 977 1
594 977 1
752 977 1
759 977 1
1002 977 1
1007 977 1
553 978 1
572 978 1
578 978 1
595 978 1
753 978 1
760 978 1
1003 978 1
1008 978 1
554 979 1
573 979 1
579 979 1
596 979 1
754 979 1
761 979 1
1004 979 1
1009 979 1
555 980 1
574 980 1
580 980 1
597 980 1
755 980 1
762 980 1
1005 980 1
1010 980 1
556 981 1
575 981 1
581 981 1
598 981 1
756 981 1
763 981 1
1006 981 1
1011 981 1
551 982 1
557 982 1
582 982 1
599 982 1
757 982 1
764 982 1
1007 982 1
1012 982 1
552 983 1
558 983 1
583 983 1
600 983 1
758 983 1
765 983 1
1008 983 1
1013 983 1
553 984 1
559 984 1
576 984 1
584 984 1
759 984 1
766 984 1
1009 984 1
1014 984 1
554 985 1
560 985 1
577 985 1
585 985 1
760 985 1
767 985 1
1010 985 1
1015 985 1
555 986 1
561 986 1
578 986 1
586 986 1
761 986 1
768 986 1
1011 986 1
1016 986 1
556 987 1
562 987 1
579 987 1
587 987 1
762 987 1
769 987 1
1012 987 1
1017 987 1
557 988 1
563 988 1
580 988 1
588 988 1
763 988 1
770 988 1
1013 988 1
1018 988 1
558 989 1
564 989 1
581 989 1
589 989 1
764 989 1
771 989 1
1014 989 1
1019 989 1
559 990 1
565 990 1
582 990 1
590 990 1
765 990 1
772 990 1
1015 990 1
1020 990 1
560 991 1
566 991 1
583 991 1
591 991 1
766 991 1
773 991 1
1016 991 1
1021 991 1
561 992 1
567 992 1
584 992 1
592 992 1
767 992 1
774 992 1
1017 992 1
1022 992 1
562 993 1
568 993 1
585 993 1
593 993 1
768 993 1
775 993 1
1018 993 1
1023 993 1
563 994 1
569 994 1
586 994 1
594 994 1
751 994 1
769 994 1
1019 994 1
1024 994 1
564 995 1
570 995 1
587 995 1
595 995 1
752 995 1
770 995 1
1020 995 1
1025 995 1
565 996 1
571 996 1
588 996 1
596 996 1
753 996 1
771 996 1
1001 996 1
1021 996 1
566 997 1
572 997 1
589 997 1
597 997 1
754 997 1
772 997 1
1002 997 1
1022 997 1
567 998 1
573 998 1
590 998 1
598 998 1
755 998 1
773 998 1
1003 998 1
1023 998 1
568 999 1
574 999 1
591 999 1
599 999 1
756 999 1
774 999 1
1004 999 1
1024 999 1
569 1000 1
575 1000 1
592 1000 1
600 1000 1
757 1000 1
775 1000 1
1005 1000 1
1025 1000 1
551 1001 1
572 1001 1
601 1001 1
618 1001 1
776 1001 1
783 1001 1
1026 1001 1
1031 1001 1
552 1002 1
573 1002 1
602 1002 1
619 1002 1
777 1002 1
784 1002 1
1027 1002 1
1032 1002 1
553 1003 1
574 1003 1
603 1003 1
620 1003 1
778 1003 1
785 1003 1
1028 1003 1
1033 1003 1
554 1004 1
575 1004 1
604 1004 1
621 1004 1
779 1004 1
786 1004 1
1029 1004 1
1034 1004 1
551 1005 1
555 1005 1
605 1005 1
622 1005 1
780 1005 1
787 1005 1
1030 1005 1
1035 1005 1
552 1006 1
556 1006 1
606 1006 1
623 1006 1
781 1006 1
788 1006 1
1031 1006 1
1036 1006 1
553 1007 1
557 1007 1
607 1007 1
624 1007 1
782 1007 1
789 1007 1
1032 1007 1
1037 1007 1
554 1008 1
558 1008 1
608 1008 1
625 1008 1
783 1008 1
790 1008 1
1033 1008 1
1038 1008 1
555 1009 1
559 1009 1
601 1009 1
609 1009 1
784 1009 1
791 1009 1
1034 1009 1
1039 1009 1
556 1010 1
560 1010 1
602 1010 1
610 1010 1
785 1010 1
792 1010 1
1035 1010 1
1040 1010 1
557 1011 1
561 1011 1
603 1011 1
611 1011 1
786 1011 1
793 1011 1
1036 1011 1
1041 1011 1
558 1012 1
562 1012 1
604 1012 1
612 1012 1
787 1012 1
794 1012 1
1037 1012 1
1042 1012 1
559 1013 1
563 1013 1
605 1013 1
613 1013 1
788 1013 1
795 1013 1
1038 1013 1
1043 1013 1
560 1014 1
564 1014 1
606 1014 1
614 1014 1
789 1014 1
796 1014 1
1039 1014 1
1044 1014 1
561 1015 1
565 1015 1
607 1015 1
615 1015 1
790 1015 1
797 1015 1
1040 1015 1
1045 1015 1
562 1016 1
566 1016 1
608 1016 1
616 1016 1
791 1016 1
798 1016 1
1041 1016 1
1046 1016 1
563 1017 1
567 1017 1
609 1017 1
617 1017 1
792 1017 1
799 1017 1
1042 1017 1
1047 1017 1
564 1018 1
568 1018 1
610 1018 1
618 1018 1
793 1018 1
800 1018 1
1043 1018 1
1048 1018 1
565 1019 1
569 1019 1
611 1019 1
619 1019 1
776 1019 1
794 1019 1
1044 1019 1
1049 1019 1
566 1020 1
570 1020 1
612 1020 1
620 1020 1
777 1020 1
795 1020 1
1045 1020 1
1050 1020 1
567 1021 1
571 1021 1
613 1021 1
621 1021 1
778 1021 1
796 1021 1
1026 1021 1
1046 1021 1
568 1022 1
572 1022 1
614 1022 1
622 1022 1
779 1022 1
797 1022 1
1027 1022 1
1047 1022 1
569 1023 1
573 1023 1
615 1023 1
623 1023 1
780 1023 1
798 1023 1
1028 1023 1
1048 1023 1
570 1024 1
574 1024 1
616 1024 1
624 1024 1
781 1024 1
799 1024 1
1029 1024 1
1049 1024 1
571 1025 1
575 1025 1
617 1025 1
625 1025 1
782 1025 1
800 1025 1
1030 1025 1
1050 1025 1
551 1026 1
574 1026 1
626 1026 1
643 1026 1
801 1026 1
808 1026 1
1051 1026 1
1056 1026 1
552 1027 1
575 1027 1
627 1027 1
644 1027 1
802 1027 1
809 1027 1
1052 1027 1
1057 1027 1
551 1028 1
553 1028 1
628 1028 1
645 1028 1
803 1028 1
810 1028 1
1053 1028 1
1058 1028 1
552 1029 1
554 1029 1
629 1029 1
646 1029 1
804 1029 1
811 1029 1
1054 1029 1
1059 1029 1
553 1030 1
555 1030 1
630 1030 1
647 1030 1
805 1030 1
812 1030 1
1055 1030 1
1060 1030 1
554 1031 1
556 1031 1
631 1031 1
648 1031 1
806 1031 1
813 1031 1
1056 1031 1
1061 1031 1
555 1032 1
557 1032 1
632 1032 1
649 1032 1
807 1032 1
814 1032 1
1057 1032 1
1062 1032 1
556 1033 1
558 1033 1
633 1033 1
650 1033 1
808 1033 1
815 1033 1
1058 1033 1
1063 1033 1
557 1034 1
559 1034 1
626 1034 1
634 1034 1
809 1034 1
816 1034 1
1059 1034 1
1064 1034 1
558 1035 1
560 1035 1
627 1035 1
635 1035 1
810 1035 1
817 1035 1
1060 1035 1
1065 1035 1
559 1036 1
561 1036 1
628 1036 1
636 1036 1
811 1036 1
818 1036 1
1061 1036 1
1066 1036 1
560 1037 1
562 1037 1
629 1037 1
637 1037 1
812 1037 1
819 1037 1
1062 1037 1
1067 1037 1
561 1038 1
563 1038 1
630 1038 1
638 1038 1
813 1038 1
820 1038 1
1063 1038 1
1068 1038 1
562 1039 1
564 1039 1
631 1039 1
639 1039 1
814 1039 1
821 1039 1
1064 1039 1
1069 1039 1
563 1040 1
565 1040 1
632 1040 1
640 1040 1
815 1040 1
822 1040 1
1065 1040 1
1070 1040 1
564 1041 1
566 1041 1
633 1041 1
641 1041 1
816 1041 1
823 1041 1
1066 1041 1
1071 1041 1
565 1042 1
567 1042 1
634 1042 1
642 1042 1
817 1042 1
824 1042 1
1067 1042 1
1072 1042 1
566 1043 1
568 1043 1
635 1043 1
643 1043 1
818 1043 1
825 1043 1
1068 1043 1
1073 1043 1
567 1044 1
569 1044 1
636 1044 1
644 1044 1
801 1044 1
819 1044 1
1069 1044 1
1074 1044 1
568 1045 1
570 1045 1
637 1045 1
645 1045 1
802 1045 1
820 1045 1
1070 1045 1
1075 1045 1
569 1046 1
571 1046 1
638 1046 1
646 1046 1
803 1046 1
821 1046 1
1051 1046 1
1071 1046 1
570 1047 1
572 1047 1
639 1047 1
647 1047 1
804 1047 1
822 1047 1
1052 1047 1
1072 1047 1
571 1048 1
573 1048 1
640 1048 1
648 1048 1
805 1048 1
823 1048 1
1053 1048 1
1073 1048 1
572 1049 1
574 1049 1
641 1049 1
649 1049 1
806 1049 1
824 1049 1
1054 1049 1
1074 1049 1
573 1050 1
575 1050 1
642 1050 1
650 1050 1
807 1050 1
825 1050 1
1055 1050 1
1075 1050 1
576 1051 1
597 1051 1
601 1051 1
620 1051 1
826 1051 1
833 1051 1
1076 1051 1
1081 1051 1
577 1052 1
598 1052 1
602 1052 1
621 1052 1
827 1052 1
834 1052 1
1077 1052 1
1082 1052 1
578 1053 1
599 1053 1
603 1053 1
622 1053 1
828 1053 1
835 1053 1
1078 1053 1
1083 1053 1
579 1054 1
600 1054 1
604 1054 1
623 1054 1
829 1054 1
836 1054 1
1079 1054 1
1084 1054 1
576 1055 1
580 1055 1
605 1055 1
624 1055 1
830 1055 1
837 1055 1
1080 1055 1
1085 1055 1
577 1056 1
581 1056 1
606 1056 1
625 1056 1
831 1056 1
838 1056 1
1081 1056 1
1086 1056 1
578 1057 1
582 1057 1
601 1057 1
607 1057 1
832 1057 1
839 1057 1
1082 1057 1
1087 1057 1
579 1058 1
583 1058 1
602 1058 1
608 1058 1
833 1058 1
840 1058 1
1083 1058 1
1088 1058 1
580 1059 1
584 1059 1
603 1059 1
609 1059 1
834 1059 1
841 1059 1
1084 1059 1
1089 1059 1
581 1060 1
585 1060 1
604 1060 1
610 1060 1
835 1060 1
842 1060 1
1085 1060 1
1090 1060 1
582 1061 1
586 1061 1
605 1061 1
611 1061 1
836 1061 1
843 1061 1
1086 1061 1
1091 1061 1
583 1062 1
587 1062 1
606 1062 1
612 1062 1
837 1062 1
844 1062 1
1087 1062 1
1092 1062 1
584 1063 1
588 1063 1
607 1063 1
613 1063 1
838 1063 1
845 1063 1
1088 1063 1
1093 1063 1
585 1064 1
589 1064 1
608 1064 1
614 1064 1
839 1064 1
846 1064 1
1089 1064 1
1094 1064 1
586 1065 1
590 1065 1
609 1065 1
615 1065 1
840 1065 1
847 1065 1
1090 1065 1
1095 1065 1
587 1066 1
591 1066 1
610 1066 1
616 1066 1
841 1066 1
848 1066 1
1091 1066 1
1096 1066 1
588 1067 1
592 1067 1
611 1067 1
617 1067 1
842 1067 1
849 1067 1
1092 1067 1
1097 1067 1
589 1068 1
593 1068 1
612 1068 1
618 1068 1
843 1068 1
850 1068 1
1093 1068 1
1098 1068 1
590 1069 1
594 1069 1
613 1069 1
619 1069 1
826 1069 1
844 1069 1
1094 1069 1
1099 1069 1
591 1070 1
595 1070 1
614 1070 1
620 1070 1
827 1070 1
845 1070 1
1095 1070 1
1100 1070 1
592 1071 1
596 1071 1
615 1071 1
621 1071 1
828 1071 1
846 1071 1
1076 1071 1
1096 1071 1
593 1072 1
597 1072 1
616 1072 1
622 1072 1
829 1072 1
847 1072 1
1077 1072 1
1097 1072 1
594 1073 1
598 1073 1
617 1073 1
623 1073 1
830 1073 1
848 1073 1
1078 1073 1
1098 1073 1
595 1074 1
599 1074 1
618 1074 1
624 1074 1
831 1074 1
849 1074 1
1079 1074 1
1099 1074 1
596 1075 1
600 1075 1
619 1075 1
625 1075 1
832 1075 1
850 1075 1
1080 1075 1
1100 1075 1
576 1076 1
599 1076 1
626 1076 1
645 1076 1
851 1076 1
858 1076 1
1101 1076 1
1106 1076 1
577 1077 1
600 1077 1
627 1077 1
646 1077 1
852 1077 1
859 1077 1
1102 1077 1
1107 1077 1
576 1078 1
578 1078 1
628 1078 1
647 1078 1
853 1078 1
860 1078 1
1103 1078 1
1108 1078 1
577 1079 1
579 1079 1
629 1079 1
648 1079 1
854 1079 1
861 1079 1
1104 1079 1
1109 1079 1
578 1080 1
580 1080 1
630 1080 1
649 1080 1
855 1080 1
862 1080 1
1105 1080 1
1110 1080 1
579 1081 1
581 1081 1
631 1081 1
650 1081 1
856 1081 1
863 1081 1
1106 1081 1
1111 1081 1
580 1082 1
582 1082 1
626 1082 1
632 1082 1
857 1082 1
864 1082 1
1107 1082 1
1112 1082 1
581 1083 1
583 1083 1
627 1083 1
633 1083 1
858 1083 1
865 1083 1
1108 1083 1
1113 1083 1
582 1084 1
584 1084 1
628 1084 1
634 1084 1
859 1084 1
866 1084 1
1109 1084 1
1114 1084 1
583 1085 1
585 1085 1
629 1085 1
635 1085 1
860 1085 1
867 1085 1
1110 1085 1
1115 1085 1
584 1086 1
586 1086 1
630 1086 1
636 1086 1
861 1086 1
868 1086 1
1111 1086 1
1116 1086 1
585 1087 1
587 1087 1
631 1087 1
637 1087 1
862 1087 1
869 1087 1
1112 1087 1
1117 1087 1
586 1088 1
588 1088 1
632 1088 1
638 1088 1
863 1088 1
870 1088 1
1113 1088 1
1118 1088 1
587 1089 1
589 1089 1
633 1089 1
639 1089 1
864 1089 1
871 1089 1
1114 1089 1
1119 1089 1
588 1090 1
590 1090 1
634 1090 1
640 1090 1
865 1090 1
872 1090 1
1115 1090 1
1120 1090 1
589 1091 1
591 1091 1
635 1091 1
641 1091 1
866 1091 1
873 1091 1
1116 1091 1
1121 1091 1
590 1092 1
592 1092 1
636 1092 1
642 1092 1
867 1092 1
874 1092 1
1117 1092 1
1122 1092 1
591 1093 1
593 1093 1
637 1093 1
643 1093 1
868 1093 1
875 1093 1
1118 1093 1
1123 1093 1
592 1094 1
594 1094 1
638 1094 1
644 1094 1
851 1094 1
869 1094 1
1119 1094 1
1124 1094 1
593 1095 1
595 1095 1
639 1095 1
645 1095 1
852 1095 1
870 1095 1
1120 1095 1
1125 1095 1
594 1096 1
596 1096 1
640 1096 1
646 1096 1
853 1096 1
871 1096 1
1101 1096 1
1121 1096 1
595 1097 1
597 1097 1
641 1097 1
647 1097 1
854 1097 1
872 1097 1
1102 1097 1
1122 1097 1
596 1098 1
598 1098 1
642 1098 1
648 1098 1
855 1098 1
873 1098 1
1103 1098 1
1123 1098 1
597 1099 1
599 1099 1
643 1099 1
649 1099 1
856 1099 1
874 1099 1
1104 1099 1
1124 1099 1
598 1100 1
600 1100 1
644 1100 1
650 1100 1
857 1100 1
875 1100 1
1105 1100 1
1125 1100 1
601 1101 1
624 1101 1
626 1101 1
647 1101 1
876 1101 1
883 1101 1
1126 1101 1
1131 1101 1
602 1102 1
625 1102 1
627 1102 1
648 1102 1
877 1102 1
884 1102 1
1127 1102 1
1132 1102 1
601 1103 1
603 1103 1
628 1103 1
649 1103 1
878 1103 1
885 1103 1
1128 1103 1
1133 1103 1
602 1104 1
604 1104 1
629 1104 1
650 1104 1
879 1104 1
886 1104 1
1129 1104 1
1134 1104 1
603 1105 1
605 1105 1
626 1105 1
630 1105 1
880 1105 1
887 1105 1
1130 1105 1
1135 1105 1
604 1106 1
606 1106 1
627 1106 1
631 1106 1
881 1106 1
888 1106 1
1131 1106 1
1136 1106 1
605 1107 1
607 1107 1
628 1107 1
632 1107 1
882 1107 1
889 1107 1
1132 1107 1
1137 1107 1
606 1108 1
608 1108 1
629 1108 1
633 1108 1
883 1108 1
890 1108 1
1133 1108 1
1138 1108 1
607 1109 1
609 1109 1
630 1109 1
634 1109 1
884 1109 1
891 1109 1
1134 1109 1
1139 1109 1
608 1110 1
610 1110 1
631 1110 1
635 1110 1
885 1110 1
892 1110 1
1135 1110 1
1140 1110 1
609 1111 1
611 1111 1
632 1111 1
636 1111 1
886 1111 1
893 1111 1
1136 1111 1
1141 1111 1
610 1112 1
612 1112 1
633 1112 1
637 1112 1
887 1112 1
894 1112 1
1137 1112 1
1142 1112 1
611 1113 1
613 1113 1
634 1113 1
638 1113 1
888 1113 1
895 1113 1
1138 1113 1
1143 1113 1
612 1114 1
614 1114 1
635 1114 1
639 1114 1
889 1114 1
896 1114 1
1139 1114 1
1144 1114 1
613 1115 1
615 1115 1
636 1115 1
640 1115 1
890 1115 1
897 1115 1
1140 1115 1
1145 1115 1
614 1116 1
616 1116 1
637 1116 1
641 1116 1
891 1116 1
898 1116 1
1141 1116 1
1146 1116 1
615 1117 1
617 1117 1
638 1117 1
642 1117 1
892 1117 1
899 1117 1
1142 1117 1
1147 1117 1
616 1118 1
618 1118 1
639 1118 1
643 1118 1
893 1118 1
900 1118 1
1143 1118 1
1148 1118 1
617 1119 1
619 1119 1
640 1119 1
644 1119 1
876 1119 1
894 1119 1
1144 1119 1
1149 1119 1
618 1120 1
620 1120 1
641 1120 1
645 1120 1
877 1120 1
895 1120 1
1145 1120 1
1150 1120 1
619 1121 1
621 1121 1
642 1121 1
646 1121 1
878 1121 1
896 1121 1
1126 1121 1
1146 1121 1
620 1122 1
622 1122 1
643 1122 1
647 1122 1
879 1122 1
897 1122 1
1127 1122 1
1147 1122 1
621 1123 1
623 1123 1
644 1123 1
648 1123 1
880 1123 1
898 1123 1
1128 1123 1
1148 1123 1
622 1124 1
624 1124 1
645 1124 1
649 1124 1
881 1124 1
899 1124 1
1129 1124 1
1149 1124 1
623 1125 1
625 1125 1
646 1125 1
650 1125 1
882 1125 1
900 1125 1
1130 1125 1
1150 1125 1
651 1126 1
670 1126 1
676 1126 1
693 1126 1
751 1126 1
767 1126 1
1151 1126 1
1156 1126 1
652 1127 1
671 1127 1
677 1127 1
694 1127 1
752 1127 1
768 1127 1
1152 1127 1
1157 1127 1
653 1128 1
672 1128 1
678 1128 1
695 1128 1
753 1128 1
769 1128 1
1153 1128 1
1158 1128 1
654 1129 1
673 1129 1
679 1129 1
696 1129 1
754 1129 1
770 1129 1
1154 1129 1
1159 1129 1
655 1130 1
674 1130 1
680 1130 1
697 1130 1
755 1130 1
771 1130 1
1155 1130 1
1160 1130 1
656 1131 1
675 1131 1
681 1131 1
698 1131 1
756 1131 1
772 1131 1
1156 1131 1
1161 1131 1
651 1132 1
657 1132 1
682 1132 1
699 1132 1
757 1132 1
773 1132 1
1157 1132 1
1162 1132 1
652 1133 1
658 1133 1
683 1133 1
700 1133 1
758 1133 1
774 1133 1
1158 1133 1
1163 1133 1
653 1134 1
659 1134 1
676 1134 1
684 1134 1
759 1134 1
775 1134 1
1159 1134 1
1164 1134 1
654 1135 1
660 1135 1
677 1135 1
685 1135 1
751 1135 1
760 1135 1
1160 1135 1
1165 1135 1
655 1136 1
661 1136 1
678 1136 1
686 1136 1
752 1136 1
761 1136 1
1161 1136 1
1166 1136 1
656 1137 1
662 1137 1
679 1137 1
687 1137 1
753 1137 1
762 1137 1
1162 1137 1
1167 1137 1
657 1138 1
663 1138 1
680 1138 1
688 1138 1
754 1138 1
763 1138 1
1163 1138 1
1168 1138 1
658 1139 1
664 1139 1
681 1139 1
689 1139 1
755 1139 1
764 1139 1
1164 1139 1
1169 1139 1
659 1140 1
665 1140 1
682 1140 1
690 1140 1
756 1140 1
765 1140 1
1165 1140 1
1170 1140 1
660 1141 1
666 1141 1
683 1141 1
691 1141 1
757 1141 1
766 1141 1
1166 1141 1
1171 1141 1
661 1142 1
667 1142 1
684 1142 1
692 1142 1
758 1142 1
767 1142 1
1167 1142 1
1172 1142 1
662 1143 1
668 1143 1
685 1143 1
693 1143 1
759 1143 1
768 1143 1
1168 1143 1
1173 1143 1
663 1144 1
669 1144 1
686 1144 1
694 1144 1
760 1144 1
769 1144 1
1169 1144 1
1174 1144 1
664 1145 1
670 1145 1
687 1145 1
695 1145 1
761 1145 1
770 1145 1
1170 1145 1
1175 1145 1
665 1146 1
671 1146 1
688 1146 1
696 1146 1
762 1146 1
771 1146 1
1151 1146 1
1171 1146 1
666 1147 1
672 1147 1
689 1147 1
697 1147 1
763 1147 1
772 1147 1
1152 1147 1
1172 1147 1
667 1148 1
673 1148 1
690 1148 1
698 1148 1
764 1148 1
773 1148 1
1153 1148 1
1173 1148 1
668 1149 1
674 1149 1
691 1149 1
699 1149 1
765 1149 1
774 1149 1
1154 1149 1
1174 1149 1
669 1150 1
675 1150 1
692 1150 1
700 1150 1
766 1150 1
775 1150 1
1155 1150 1
1175 1150 1
651 1151 1
672 1151 1
701 1151 1
718 1151 1
776 1151 1
792 1151 1
1176 1151 1
1181 1151 1
652 1152 1
673 1152 1
702 1152 1
719 1152 1
777 1152 1
793 1152 1
1177 1152 1
1182 1152 1
653 1153 1
674 1153 1
703 1153 1
720 1153 1
778 1153 1
794 1153 1
1178 1153 1
1183 1153 1
654 1154 1
675 1154 1
704 1154 1
721 1154 1
779 1154 1
795 1154 1
1179 1154 1
1184 1154 1
651 1155 1
655 1155 1
705 1155 1
722 1155 1
780 1155 1
796 1155 1
1180 1155 1
1185 1155 1
652 1156 1
656 1156 1
706 1156 1
723 1156 1
781 1156 1
797 1156 1
1181 1156 1
1186 1156 1
653 1157 1
657 1157 1
707 1157 1
724 1157 1
782 1157 1
798 1157 1
1182 1157 1
1187 1157 1
654 1158 1
658 1158 1
708 1158 1
725 1158 1
783 1158 1
799 1158 1
1183 1158 1
1188 1158 1
655 1159 1
659 1159 1
701 1159 1
709 1159 1
784 1159 1
800 1159 1
1184 1159 1
1189 1159 1
656 1160 1
660 1160 1
702 1160 1
710 1160 1
776 1160 1
785 1160 1
1185 1160 1
1190 1160 1
657 1161 1
661 1161 1
703 1161 1
711 1161 1
777 1161 1
786 1161 1
1186 1161 1
1191 1161 1
658 1162 1
662 1162 1
704 1162 1
712 1162 1
778 1162 1
787 1162 1
1187 1162 1
1192 1162 1
659 1163 1
663 1163 1
705 1163 1
713 1163 1
779 1163 1
788 1163 1
1188 1163 1
1193 1163 1
660 1164 1
664 1164 1
706 1164 1
714 1164 1
780 1164 1
789 1164 1
1189 1164 1
1194 1164 1
661 1165 1
665 1165 1
707 1165 1
715 1165 1
781 1165 1
790 1165 1
1190 1165 1
1195 1165 1
662 1166 1
666 1166 1
708 1166 1
716 1166 1
782 1166 1
791 1166 1
1191 1166 1
1196 1166 1
663 1167 1
667 1167 1
709 1167 1
717 1167 1
783 1167 1
792 1167 1
1192 1167 1
1197 1167 1
664 1168 1
668 1168 1
710 1168 1
718 1168 1
784 1168 1
793 1168 1
1193 1168 1
1198 1168 1
665 1169 1
669 1169 1
711 1169 1
719 1169 1
785 1169 1
794 1169 1
1194 1169 1
1199 1169 1
666 1170 1
670 1170 1
712 1170 1
720 1170 1
786 1170 1
795 1170 1
1195 1170 1
1200 1170 1
667 1171 1
671 1171 1
713 1171 1
721 1171 1
787 1171 1
796 1171 1
1176 1171 1
1196 1171 1
668 1172 1
672 1172 1
714 1172 1
722 1172 1
788 1172 1
797 1172 1
1177 1172 1
1197 1172 1
669 1173 1
673 1173 1
715 1173 1
723 1173 1
789 1173 1
798 1173 1
1178 1173 1
1198 1173 1
670 1174 1
674 1174 1
716 1174 1
724 1174 1
790 1174 1
799 1174 1
1179 1174 1
1199 1174 1
671 1175 1
675 1175 1
717 1175 1
725 1175 1
791 1175 1
800 1175 1
1180 1175 1
1200 1175 1
651 1176 1
674 1176 1
726 1176 1
743 1176 1
801 1176 1
817 1176 1
1201 1176 1
1206 1176 1
652 1177 1
675 1177 1
727 1177 1
744 1177 1
802 1177 1
818 1177 1
1202 1177 1
1207 1177 1
651 1178 1
653 1178 1
728 1178 1
745 1178 1
803 1178 1
819 1178 1
1203 1178 1
1208 1178 1
652 1179 1
654 1179 1
729 1179 1
746 1179 1
804 1179 1
820 1179 1
1204 1179 1
1209 1179 1
653 1180 1
655 1180 1
730 1180 1
747 1180 1
805 1180 1
821 1180 1
1205 1180 1
1210 1180 1
654 1181 1
656 1181 1
731 1181 1
748 1181 1
806 1181 1
822 1181 1
1206 1181 1
1211 1181 1
655 1182 1
657 1182 1
732 1182 1
749 1182 1
807 1182 1
823 1182 1
1207 1182 1
1212 1182 1
656 1183 1
658 1183 1
733 1183 1
750 1183 1
808 1183 1
824 1183 1
1208 1183 1
1213 1183 1
657 1184 1
659 1184 1
726 1184 1
734 1184 1
809 1184 1
825 1184 1
1209 1184 1
1214 1184 1
658 1185 1
660 1185 1
727 1185 1
735 1185 1
801 1185 1
810 1185 1
1210 1185 1
1215 1185 1
659 1186 1
661 1186 1
728 1186 1
736 1186 1
802 1186 1
811 1186 1
1211 1186 1
1216 1186 1
660 1187 1
662 1187 1
729 1187 1
737 1187 1
803 1187 1
812 1187 1
1212 1187 1
1217 1187 1
661 1188 1
663 1188 1
730 1188 1
738 1188 1
804 1188 1
813 1188 1
1213 1188 1
1218 1188 1
662 1189 1
664 1189 1
731 1189 1
739 1189 1
805 1189 1
814 1189 1
1214 1189 1
1219 1189 1
663 1190 1
665 1190 1
732 1190 1
740 1190 1
806 1190 1
815 1190 1
1215 1190 1
1220 1190 1
664 1191 1
666 1191 1
733 1191 1
741 1191 1
807 1191 1
816 1191 1
1216 1191 1
1221 1191 1
665 1192 1
667 1192 1
734 1192 1
742 1192 1
808 1192 1
817 1192 1
1217 1192 1
1222 1192 1
666 1193 1
668 1193 1
735 1193 1
743 1193 1
809 1193 1
818 1193 1
1218 1193 1
1223 1193 1
667 1194 1
669 1194 1
736 1194 1
744 1194 1
810 1194 1
819 1194 1
1219 1194 1
1224 1194 1
668 1195 1
670 1195 1
737 1195 1
745 1195 1
811 1195 1
820 1195 1
1220 1195 1
1225 1195 1
669 1196 1
671 1196 1
738 1196 1
746 1196 1
812 1196 1
821 1196 1
1201 1196 1
1221 1196 1
670 1197 1
672 1197 1
739 1197 1
747 1197 1
813 1197 1
822 1197 1
1202 1197 1
1222 1197 1
671 1198 1
673 1198 1
740 1198 1
748 1198 1
814 1198 1
823 1198 1
1203 1198 1
1223 1198 1
672 1199 1
674 1199 1
741 1199 1
749 1199 1
815 1199 1
824 1199 1
1204 1199 1
1224 1199 1
673 1200 1
675 1200 1
742 1200 1
750 1200 1
816 1200 1
825 1200 1
1205 1200 1
1225 1200 1
676 1201 1
697 1201 1
701 1201 1
720 1201 1
826 1201 1
842 1201 1
1226 1201 1
1231 1201 1
677 1202 1
698 1202 1
702 1202 1
721 1202 1
827 1202 1
843 1202 1
1227 1202 1
1232 1202 1
678 1203 1
699 1203 1
703 1203 1
722 1203 1
828 1203 1
844 1203 1
1228 1203 1
1233 1203 1
679 1204 1
700 1204 1
704 1204 1
723 1204 1
829 1204 1
845 1204 1
1229 1204 1
1234 1204 1
676 1205 1
680 1205 1
705 1205 1
724 1205 1
830 1205 1
846 1205 1
1230 1205 1
1235 1205 1
677 1206 1
681 1206 1
706 1206 1
725 1206 1
831 1206 1
847 1206 1
1231 1206 1
1236 1206 1
678 1207 1
682 1207 1
701 1207 1
707 1207 1
832 1207 1
848 1207 1
1232 1207 1
1237 1207 1
679 1208 1
683 1208 1
702 1208 1
708 1208 1
833 1208 1
849 1208 1
1233 1208 1
1238 1208 1
680 1209 1
684 1209 1
703 1209 1
709 1209 1
834 1209 1
850 1209 1
1234 1209 1
1239 1209 1
681 1210 1
685 1210 1
704 1210 1
710 1210 1
826 1210 1
835 1210 1
1235 1210 1
1240 1210 1
682 1211 1
686 1211 1
705 1211 1
711 1211 1
827 1211 1
836 1211 1
1236 1211 1
1241 1211 1
683 1212 1
687 1212 1
706 1212 1
712 1212 1
828 1212 1
837 1212 1
1237 1212 1
1242 1212 1
684 1213 1
688 1213 1
707 1213 1
713 1213 1
829 1213 1
838 1213 1
1238 1213 1
1243 1213 1
685 1214 1
689 1214 1
708 1214 1
714 1214 1
830 1214 1
839 1214 1
1239 1214 1
1244 1214 1
686 1215 1
690 1215 1
709 1215 1
715 1215 1
831 1215 1
840 1215 1
1240 1215 1
1245 1215 1
687 1216 1
691 1216 1
710 1216 1
716 1216 1
832 1216 1
841 1216 1
1241 1216 1
1246 1216 1
688 1217 1
692 1217 1
711 1217 1
717 1217 1
833 1217 1
842 1217 1
1242 1217 1
1247 1217 1
689 1218 1
693 1218 1
712 1218 1
718 1218 1
834 1218 1
843 1218 1
1243 1218 1
1248 1218 1
690 1219 1
694 1219 1
713 1219 1
719 1219 1
835 1219 1
844 1219 1
1244 1219 1
1249 1219 1
691 1220 1
695 1220 1
714 1220 1
720 1220 1
836 1220 1
845 1220 1
1245 1220 1
1250 1220 1
692 1221 1
696 1221 1
715 1221 1
721 1221 1
837 1221 1
846 1221 1
1226 1221 1
1246 1221 1
693 1222 1
697 1222 1
716 1222 1
722 1222 1
838 1222 1
847 1222 1
1227 1222 1
1247 1222 1
694 1223 1
698 1223 1
717 1223 1
723 1223 1
839 1223 1
848 1223 1
1228 1223 1
1248 1223 1
695 1224 1
699 1224 1
718 1224 1
724 1224 1
840 1224 1
849 1224 1
1229 1224 1
1249 1224 1
696 1225 1
700 1225 1
719 1225 1
725 1225 1
841 1225 1
850 1225 1
1230 1225 1
1250 1225 1
676 1226 1
699 1226 1
726 1226 1
745 1226 1
851 1226 1
867 1226 1
1251 1226 1
1256 1226 1
677 1227 1
700 1227 1
727 1227 1
746 1227 1
852 1227 1
868 1227 1
1252 1227 1
1257 1227 1
676 1228 1
678 1228 1
728 1228 1
747 1228 1
853 1228 1
869 1228 1
1253 1228 1
1258 1228 1
677 1229 1
679 1229 1
729 1229 1
748 1229 1
854 1229 1
870 1229 1
1254 1229 1
1259 1229 1
678 1230 1
680 1230 1
730 1230 1
749 1230 1
855 1230 1
871 1230 1
1255 1230 1
1260 1230 1
679 1231 1
681 1231 1
731 1231 1
750 1231 1
856 1231 1
872 1231 1
1256 1231 1
1261 1231 1
680 1232 1
682 1232 1
726 1232 1
732 1232 1
857 1232 1
873 1232 1
1257 1232 1
1262 1232 1
681 1233 1
683 1233 1
727 1233 1
733 1233 1
858 1233 1
874 1233 1
1258 1233 1
1263 1233 1
682 1234 1
684 1234 1
728 1234 1
734 1234 1
859 1234 1
875 1234 1
1259 1234 1
1264 1234 1
683 1235 1
685 1235 1
729 1235 1
735 1235 1
851 1235 1
860 1235 1
1260 1235 1
1265 1235 1
684 1236 1
686 1236 1
730 1236 1
736 1236 1
852 1236 1
861 1236 1
1261 1236 1
1266 1236 1
685 1237 1
687 1237 1
731 1237 1
737 1237 1
853 1237 1
862 1237 1
1262 1237 1
1267 1237 1
686 1238 1
688 1238 1
732 1238 1
738 1238 1
854 1238 1
863 1238 1
1263 1238 1
1268 1238 1
687 1239 1
689 1239 1
733 1239 1
739 1239 1
855 1239 1
864 1239 1
1264 1239 1
1269 1239 1
688 1240 1
690 1240 1
734 1240 1
740 1240 1
856 1240 1
865 1240 1
1265 1240 1
1270 1240 1
689 1241 1
691 1241 1
735 1241 1
741 1241 1
857 1241 1
866 1241 1
1266 1241 1
1271 1241 1
690 1242 1
692 1242 1
736 1242 1
742 1242 1
858 1242 1
867 1242 1
1267 1242 1
1272 1242 1
691 1243 1
693 1243 1
737 1243 1
743 1243 1
859 1243 1
868 1243 1
1268 1243 1
1273 1243 1
692 1244 1
694 1244 1
738 1244 1
744 1244 1
860 1244 1
869 1244 1
1269 1244 1
1274 1244 1
693 1245 1
695 1245 1
739 1245 1
745 1245 1
861 1245 1
870 1245 1
1270 1245 1
1275 1245 1
694 1246 1
696 1246 1
740 1246 1
746 1246 1
862 1246 1
871 1246 1
1251 1246 1
1271 1246 1
695 1247 1
697 1247 1
741 1247 1
747 1247 1
863 1247 1
872 1247 1
1252 1247 1
1272 1247 1
696 1248 1
698 1248 1
742 1248 1
748 1248 1
864 1248 1
873 1248 1
1253 1248 1
1273 1248 1
697 1249 1
699 1249 1
743 1249 1
749 1249 1
865 1249 1
874 1249 1
1254 1249 1
1274 1249 1
698 1250 1
700 1250 1
744 1250 1
750 1250 1
866 1250 1
875 1250 1
1255 1250 1
1275 1250 1
701 1251 1
724 1251 1
726 1251 1
747 1251 1
876 1251 1
892 1251 1
1276 1251 1
1281 1251 1
702 1252 1
725 1252 1
727 1252 1
748 1252 1
877 1252 1
893 1252 1
1277 1252 1
1282 1252 1
701 1253 1
703 1253 1
728 1253 1
749 1253 1
878 1253 1
894 1253 1
1278 1253 1
1283 1253 1
702 1254 1
704 1254 1
729 1254 1
750 1254 1
879 1254 1
895 1254 1
1279 1254 1
1284 1254 1
703 1255 1
705 1255 1
726 1255 1
730 1255 1
880 1255 1
896 1255 1
1280 1255 1
1285 1255 1
704 1256 1
706 1256 1
727 1256 1
731 1256 1
881 1256 1
897 1256 1
1281 1256 1
1286 1256 1
705 1257 1
707 1257 1
728 1257 1
732 1257 1
882 1257 1
898 1257 1
1282 1257 1
1287 1257 1
706 1258 1
708 1258 1
729 1258 1
733 1258 1
883 1258 1
899 1258 1
1283 1258 1
1288 1258 1
707 1259 1
709 1259 1
730 1259 1
734 1259 1
884 1259 1
900 1259 1
1284 1259 1
1289 1259 1
708 1260 1
710 1260 1
731 1260 1
735 1260 1
876 1260 1
885 1260 1
1285 1260 1
1290 1260 1
709 1261 1
711 1261 1
732 1261 1
736 1261 1
877 1261 1
886 1261 1
1286 1261 1
1291 1261 1
710 1262 1
712 1262 1
733 1262 1
737 1262 1
878 1262 1
887 1262 1
1287 1262 1
1292 1262 1
711 1263 1
713 1263 1
734 1263 1
738 1263 1
879 1263 1
888 1263 1
1288 1263 1
1293 1263 1
712 1264 1
714 1264 1
735 1264 1
739 1264 1
880 1264 1
889 1264 1
1289 1264 1
1294 1264 1
713 1265 1
715 1265 1
736 1265 1
740 1265 1
881 1265 1
890 1265 1
1290 1265 1
1295 1265 1
714 1266 1
716 1266 1
737 1266 1
741 1266 1
882 1266 1
891 1266 1
1291 1266 1
1296 1266 1
715 1267 1
717 1267 1
738 1267 1
742 1267 1
883 1267 1
892 1267 1
1292 1267 1
1297 1267 1
716 1268 1
718 1268 1
739 1268 1
743 1268 1
884 1268 1
893 1268 1
1293 1268 1
1298 1268 1
717 1269 1
719 1269 1
740 1269 1
744 1269 1
885 1269 1
894 1269 1
1294 1269 1
1299 1269 1
718 1270 1
720 1270 1
741 1270 1
745 1270 1
886 1270 1
895 1270 1
1295 1270 1
1300 1270 1
719 1271 1
721 1271 1
742 1271 1
746 1271 1
887 1271 1
896 1271 1
1276 1271 1
1296 1271 1
720 1272 1
722 1272 1
743 1272 1
747 1272 1
888 1272 1
897 1272 1
1277 1272 1
1297 1272 1
721 1273 1
723 1273 1
744 1273 1
748 1273 1
889 1273 1
898 1273 1
1278 1273 1
1298 1273 1
722 1274 1
724 1274 1
745 1274 1
749 1274 1
890 1274 1
899 1274 1
1279 1274 1
1299 1274 1
723 1275 1
725 1275 1
746 1275 1
750 1275 1
891 1275 1
900 1275 1
1280 1275 1
1300 1275 1
751 1276 1
772 1276 1
776 1276 1
795 1276 1
826 1276 1
843 1276 1
1301 1276 1
1306 1276 1
752 1277 1
773 1277 1
777 1277 1
796 1277 1
827 1277 1
844 1277 1
1302 1277 1
1307 1277 1
753 1278 1
774 1278 1
778 1278 1
797 1278 1
828 1278 1
845 1278 1
1303 1278 1
1308 1278 1
754 1279 1
775 1279 1
779 1279 1
798 1279 1
829 1279 1
846 1279 1
1304 1279 1
1309 1279 1
751 1280 1
755 1280 1
780 1280 1
799 1280 1
830 1280 1
847 1280 1
1305 1280 1
1310 1280 1
752 1281 1
756 1281 1
781 1281 1
800 1281 1
831 1281 1
848 1281 1
1306 1281 1
1311 1281 1
753 1282 1
757 1282 1
776 1282 1
782 1282 1
832 1282 1
849 1282 1
1307 1282 1
1312 1282 1
754 1283 1
758 1283 1
777 1283 1
783 1283 1
833 1283 1
850 1283 1
1308 1283 1
1313 1283 1
755 1284 1
759 1284 1
778 1284 1
784 1284 1
826 1284 1
834 1284 1
1309 1284 1
1314 1284 1
756 1285 1
760 1285 1
779 1285 1
785 1285 1
827 1285 1
835 1285 1
1310 1285 1
1315 1285 1
757 1286 1
761 1286 1
780 1286 1
786 1286 1
828 1286 1
836 1286 1
1311 1286 1
1316 1286 1
758 1287 1
762 1287 1
781 1287 1
787 1287 1
829 1287 1
837 1287 1
1312 1287 1
1317 1287 1
759 1288 1
763 1288 1
782 1288 1
788 1288 1
830 1288 1
838 1288 1
1313 1288 1
1318 1288 1
760 1289 1
764 1289 1
783 1289 1
789 1289 1
831 1289 1
839 1289 1
1314 1289 1
1319 1289 1
761 1290 1
765 1290 1
784 1290 1
790 1290 1
832 1290 1
840 1290 1
1315 1290 1
1320 1290 1
762 1291 1
766 1291 1
785 1291 1
791 1291 1
833 1291 1
841 1291 1
1316 1291 1
1321 1291 1
763 1292 1
767 1292 1
786 1292 1
792 1292 1
834 1292 1
842 1292 1
1317 1292 1
1322 1292 1
764 1293 1
768 1293 1
787 1293 1
793 1293 1
835 1293 1
843 1293 1
1318 1293 1
1323 1293 1
765 1294 1
769 1294 1
788 1294 1
794 1294 1
836 1294 1
844 1294 1
1319 1294 1
1324 1294 1
766 1295 1
770 1295 1
789 1295 1
795 1295 1
837 1295 1
845 1295 1
1320 1295 1
1325 1295 1
767 1296 1
771 1296 1
790 1296 1
796 1296 1
838 1296 1
846 1296 1
1301 1296 1
1321 1296 1
768 1297 1
772 1297 1
791 1297 1
797 1297 1
839 1297 1
847 1297 1
1302 1297 1
1322 1297 1
769 1298 1
773 1298 1
792 1298 1
798 1298 1
840 1298 1
848 1298 1
1303 1298 1
1323 1298 1
770 1299 1
774 1299 1
793 1299 1
799 1299 1
841 1299 1
849 1299 1
1304 1299 1
1324 1299 1
771 1300 1
775 1300 1
794 1300 1
800 1300 1
842 1300 1
850 1300 1
1305 1300 1
1325 1300 1
751 1301 1
774 1301 1
801 1301 1
820 1301 1
851 1301 1
868 1301 1
1326 1301 1
1331 1301 1
752 1302 1
775 1302 1
802 1302 1
821 1302 1
852 1302 1
869 1302 1
1327 1302 1
1332 1302 1
751 1303 1
753 1303 1
803 1303 1
822 1303 1
853 1303 1
870 1303 1
1328 1303 1
1333 1303 1
752 1304 1
754 1304 1
804 1304 1
823 1304 1
854 1304 1
871 1304 1
1329 1304 1
1334 1304 1
753 1305 1
755 1305 1
805 1305 1
824 1305 1
855 1305 1
872 1305 1
1330 1305 1
1335 1305 1
754 1306 1
756 1306 1
806 1306 1
825 1306 1
856 1306 1
873 1306 1
1331 1306 1
1336 1306 1
755 1307 1
757 1307 1
801 1307 1
807 1307 1
857 1307 1
874 1307 1
1332 1307 1
1337 1307 1
756 1308 1
758 1308 1
802 1308 1
808 1308 1
858 1308 1
875 1308 1
1333 1308 1
1338 1308 1
757 1309 1
759 1309 1
803 1309 1
809 1309 1
851 1309 1
859 1309 1
1334 1309 1
1339 1309 1
758 1310 1
760 1310 1
804 1310 1
810 1310 1
852 1310 1
860 1310 1
1335 1310 1
1340 1310 1
759 1311 1
761 1311 1
805 1311 1
811 1311 1
853 1311 1
861 1311 1
1336 1311 1
1341 1311 1
760 1312 1
762 1312 1
806 1312 1
812 1312 1
854 1312 1
862 1312 1
1337 1312 1
1342 1312 1
761 1313 1
763 1313 1
807 1313 1
813 1313 1
855 1313 1
863 1313 1
1338 1313 1
1343 1313 1
762 1314 1
764 1314 1
808 1314 1
814 1314 1
856 1314 1
864 1314 1
1339 1314 1
1344 1314 1
763 1315 1
765 1315 1
809 1315 1
815 1315 1
857 1315 1
865 1315 1
1340 1315 1
1345 1315 1
764 1316 1
766 1316 1
810 1316 1
816 1316 1
858 1316 1
866 1316 1
1341 1316 1
1346 1316 1
765 1317 1
767 1317 1
811 1317 1
817 1317 1
859 1317 1
867 1317 1
1342 1317 1
1347 1317 1
766 1318 1
768 1318 1
812 1318 1
818 1318 1
860 1318 1
868 1318 1
1343 1318 1
1348 1318 1
767 1319 1
769 1319 1
813 1319 1
819 1319 1
861 1319 1
869 1319 1
1344 1319 1
1349 1319 1
768 1320 1
770 1320 1
814 1320 1
820 1320 1
862 1320 1
870 1320 1
1345 1320 1
1350 1320 1
769 1321 1
771 1321 1
815 1321 1
821 1321 1
863 1321 1
871 1321 1
1326 1321 1
1346 1321 1
770 1322 1
772 1322 1
816 1322 1
822 1322 1
864 1322 1
872 1322 1
1327 1322 1
1347 1322 1
771 1323 1
773 1323 1
817 1323 1
823 1323 1
865 1323 1
873 1323 1
1328 1323 1
1348 1323 1
772 1324 1
774 1324 1
818 1324 1
824 1324 1
866 1324 1
874 1324 1
1329 1324 1
1349 1324 1
773 1325 1
775 1325 1
819 1325 1
825 1325 1
867 1325 1
875 1325 1
1330 1325 1
1350 1325 1
776 1326 1
799 1326 1
801 1326 1
822 1326 1
876 1326 1
893 1326 1
1351 1326 1
1356 1326 1
777 1327 1
800 1327 1
802 1327 1
823 1327 1
877 1327 1
894 1327 1
1352 1327 1
1357 1327 1
776 1328 1
778 1328 1
803 1328 1
824 1328 1
878 1328 1
895 1328 1
1353 1328 1
1358 1328 1
777 1329 1
779 1329 1
804 1329 1
825 1329 1
879 1329 1
896 1329 1
1354 1329 1
1359 1329 1
778 1330 1
780 1330 1
801 1330 1
805 1330 1
880 1330 1
897 1330 1
1355 1330 1
1360 1330 1
779 1331 1
781 1331 1
802 1331 1
806 1331 1
881 1331 1
898 1331 1
1356 1331 1
1361 1331 1
780 1332 1
782 1332 1
803 1332 1
807 1332 1
882 1332 1
899 1332 1
1357 1332 1
1362 1332 1
781 1333 1
783 1333 1
804 1333 1
808 1333 1
883 1333 1
900 1333 1
1358 1333 1
1363 1333 1
782 1334 1
784 1334 1
805 1334 1
809 1334 1
876 1334 1
884 1334 1
1359 1334 1
1364 1334 1
783 1335 1
785 1335 1
806 1335 1
810 1335 1
877 1335 1
885 1335 1
1360 1335 1
1365 1335 1
784 1336 1
786 1336 1
807 1336 1
811 1336 1
878 1336 1
886 1336 1
1361 1336 1
1366 1336 1
785 1337 1
787 1337 1
808 1337 1
812 1337 1
879 1337 1
887 1337 1
1362 1337 1
1367 1337 1
786 1338 1
788 1338 1
809 1338 1
813 1338 1
880 1338 1
888 1338 1
1363 1338 1
1368 1338 1
787 1339 1
789 1339 1
810 1339 1
814 1339 1
881 1339 1
889 1339 1
1364 1339 1
1369 1339 1
788 1340 1
790 1340 1
811 1340 1
815 1340 1
882 1340 1
890 1340 1
1365 1340 1
1370 1340 1
789 1341 1
791 1341 1
812 1341 1
816 1341 1
883 1341 1
891 1341 1
1366 1341 1
1371 1341 1
790 1342 1
792 1342 1
813 1342 1
817 1342 1
884 1342 1
892 1342 1
1367 1342 1
1372 1342 1
791 1343 1
793 1343 1
814 1343 1
818 1343 1
885 1343 1
893 1343 1
1368 1343 1
1373 1343 1
792 1344 1
794 1344 1
815 1344 1
819 1344 1
886 1344 1
894 1344 1
1369 1344 1
1374 1344 1
793 1345 1
795 1345 1
816 1345 1
820 1345 1
887 1345 1
895 1345 1
1370 1345 1
1375 1345 1
794 1346 1
796 1346 1
817 1346 1
821 1346 1
888 1346 1
896 1346 1
1351 1346 1
1371 1346 1
795 1347 1
797 1347 1
818 1347 1
822 1347 1
889 1347 1
897 1347 1
1352 1347 1
1372 1347 1
796 1348 1
798 1348 1
819 1348 1
823 1348 1
890 1348 1
898 1348 1
1353 1348 1
1373 1348 1
797 1349 1
799 1349 1
820 1349 1
824 1349 1
891 1349 1
899 1349 1
1354 1349 1
1374 1349 1
798 1350 1
800 1350 1
821 1350 1
825 1350 1
892 1350 1
900 1350 1
1355 1350 1
1375 1350 1
826 1351 1
849 1351 1
851 1351 1
872 1351 1
876 1351 1
895 1351 1
1376 1351 1
1381 1351 1
827 1352 1
850 1352 1
852 1352 1
873 1352 1
877 1352 1
896 1352 1
1377 1352 1
1382 1352 1
826 1353 1
828 1353 1
853 1353 1
874 1353 1
878 1353 1
897 1353 1
1378 1353 1
1383 1353 1
827 1354 1
829 1354 1
854 1354 1
875 1354 1
879 1354 1
898 1354 1
1379 1354 1
1384 1354 1
828 1355 1
830 1355 1
851 1355 1
855 1355 1
880 1355 1
899 1355 1
1380 1355 1
1385 1355 1
829 1356 1
831 1356 1
852 1356 1
856 1356 1
881 1356 1
900 1356 1
1381 1356 1
1386 1356 1
830 1357 1
832 1357 1
853 1357 1
857 1357 1
876 1357 1
882 1357 1
1382 1357 1
1387 1357 1
831 1358 1
833 1358 1
854 1358 1
858 1358 1
877 1358 1
883 1358 1
1383 1358 1
1388 1358 1
832 1359 1
834 1359 1
855 1359 1
859 1359 1
878 1359 1
884 1359 1
1384 1359 1
1389 1359 1
833 1360 1
835 1360 1
856 1360 1
860 1360 1
879 1360 1
885 1360 1
1385 1360 1
1390 1360 1
834 1361 1
836 1361 1
857 1361 1
861 1361 1
880 1361 1
886 1361 1
1386 1361 1
1391 1361 1
835 1362 1
837 1362 1
858 1362 1
862 1362 1
881 1362 1
887 1362 1
1387 1362 1
1392 1362 1
836 1363 1
838 1363 1
859 1363 1
863 1363 1
882 1363 1
888 1363 1
1388 1363 1
1393 1363 1
837 1364 1
839 1364 1
860 1364 1
864 1364 1
883 1364 1
889 1364 1
1389 1364 1
1394 1364 1
838 1365 1
840 1365 1
861 1365 1
865 1365 1
884 1365 1
890 1365 1
1390 1365 1
1395 1365 1
839 1366 1
841 1366 1
862 1366 1
866 1366 1
885 1366 1
891 1366 1
1391 1366 1
1396 1366 1
840 1367 1
842 1367 1
863 1367 1
867 1367 1
886 1367 1
892 1367 1
1392 1367 1
1397 1367 1
841 1368 1
843 1368 1
864 1368 1
868 1368 1
887 1368 1
893 1368 1
1393 1368 1
1398 1368 1
842 1369 1
844 1369 1
865 1369 1
869 1369 1
888 1369 1
894 1369 1
1394 1369 1
1399 1369 1
843 1370 1
845 1370 1
866 1370 1
870 1370 1
889 1370 1
895 1370 1
1395 1370 1
1400 1370 1
844 1371 1
846 1371 1
867 1371 1
871 1371 1
890 1371 1
896 1371 1
1376 1371 1
1396 1371 1
845 1372 1
847 1372 1
868 1372 1
872 1372 1
891 1372 1
897 1372 1
1377 1372 1
1397 1372 1
846 1373 1
848 1373 1
869 1373 1
873 1373 1
892 1373 1
898 1373 1
1378 1373 1
1398 1373 1
847 1374 1
849 1374 1
870 1374 1
874 1374 1
893 1374 1
899 1374 1
1379 1374 1
1399 1374 1
848 1375 1
850 1375 1
871 1375 1
875 1375 1
894 1375 1
900 1375 1
1380 1375 1
1400 1375 1
901 1376 1
920 1376 1
926 1376 1
943 1376 1
1001 1376 1
1017 1376 1
1151 1376 1
1158 1376 1
902 1377 1
921 1377 1
927 1377 1
944 1377 1
1002 1377 1
1018 1377 1
1152 1377 1
1159 1377 1
903 1378 1
922 1378 1
928 1378 1
945 1378 1
1003 1378 1
1019 1378 1
1153 1378 1
1160 1378 1
904 1379 1
923 1379 1
929 1379 1
946 1379 1
1004 1379 1
1020 1379 1
1154 1379 1
1161 1379 1
905 1380 1
924 1380 1
930 1380 1
947 1380 1
1005 1380 1
1021 1380 1
1155 1380 1
1162 1380 1
906 1381 1
925 1381 1
931 1381 1
948 1381 1
1006 1381 1
1022 1381 1
1156 1381 1
1163 1381 1
901 1382 1
907 1382 1
932 1382 1
949 1382 1
1007 1382 1
1023 1382 1
1157 1382 1
1164 1382 1
902 1383 1
908 1383 1
933 1383 1
950 1383 1
1008 1383 1
1024 1383 1
1158 1383 1
1165 1383 1
903 1384 1
909 1384 1
926 1384 1
934 1384 1
1009 1384 1
1025 1384 1
1159 1384 1
1166 1384 1
904 1385 1
910 1385 1
927 1385 1
935 1385 1
1001 1385 1
1010 1385 1
1160 1385 1
1167 1385 1
905 1386 1
911 1386 1
928 1386 1
936 1386 1
1002 1386 1
1011 1386 1
1161 1386 1
1168 1386 1
906 1387 1
912 1387 1
929 1387 1
937 1387 1
1003 1387 1
1012 1387 1
1162 1387 1
1169 1387 1
907 1388 1
913 1388 1
930 1388 1
938 1388 1
1004 1388 1
1013 1388 1
1163 1388 1
1170 1388 1
908 1389 1
914 1389 1
931 1389 1
939 1389 1
1005 1389 1
1014 1389 1
1164 1389 1
1171 1389 1
909 1390 1
915 1390 1
932 1390 1
940 1390 1
1006 1390 1
1015 1390 1
1165 1390 1
1172 1390 1
910 1391 1
916 1391 1
933 1391 1
941 1391 1
1007 1391 1
1016 1391 1
1166 1391 1
1173 1391 1
911 1392 1
917 1392 1
934 1392 1
942 1392 1
1008 1392 1
1017 1392 1
1167 1392 1
1174 1392 1
912 1393 1
918 1393 1
935 1393 1
943 1393 1
1009 1393 1
1018 1393 1
1168 1393 1
1175 1393 1
913 1394 1
919 1394 1
936 1394 1
944 1394 1
1010 1394 1
1019 1394 1
1151 1394 1
1169 1394 1
914 1395 1
920 1395 1
937 1395 1
945 1395 1
1011 1395 1
1020 1395 1
1152 1395 1
1170 1395 1
915 1396 1
921 1396 1
938 1396 1
946 1396 1
1012 1396 1
1021 1396 1
1153 1396 1
1171 1396 1
916 1397 1
922 1397 1
939 1397 1
947 1397 1
1013 1397 1
1022 1397 1
1154 1397 1
1172 1397 1
917 1398 1
923 1398 1
940 1398 1
948 1398 1
1014 1398 1
1023 1398 1
1155 1398 1
1173 1398 1
918 1399 1
924 1399 1
941 1399 1
949 1399 1
1015 1399 1
1024 1399 1
1156 1399 1
1174 1399 1
919 1400 1
925 1400 1
942 1400 1
950 1400 1
1016 1400 1
1025 1400 1
1157 1400 1
1175 1400 1
901 1401 1
922 1401 1
951 1401 1
968 1401 1
1026 1401 1
1042 1401 1
1176 1401 1
1183 1401 1
902 1402 1
923 1402 1
952 1402 1
969 1402 1
1027 1402 1
1043 1402 1
1177 1402 1
1184 1402 1
903 1403 1
924 1403 1
953 1403 1
970 1403 1
1028 1403 1
1044 1403 1
1178 1403 1
1185 1403 1
904 1404 1
925 1404 1
954 1404 1
971 1404 1
1029 1404 1
1045 1404 1
1179 1404 1
1186 1404 1
901 1405 1
905 1405 1
955 1405 1
972 1405 1
1030 1405 1
1046 1405 1
1180 1405 1
1187 1405 1
902 1406 1
906 1406 1
956 1406 1
973 1406 1
1031 1406 1
1047 1406 1
1181 1406 1
1188 1406 1
903 1407 1
907 1407 1
957 1407 1
974 1407 1
1032 1407 1
1048 1407 1
1182 1407 1
1189 1407 1
904 1408 1
908 1408 1
958 1408 1
975 1408 1
1033 1408 1
1049 1408 1
1183 1408 1
1190 1408 1
905 1409 1
909 1409 1
951 1409 1
959 1409 1
1034 1409 1
1050 1409 1
1184 1409 1
1191 1409 1
906 1410 1
910 1410 1
952 1410 1
960 1410 1
1026 1410 1
1035 1410 1
1185 1410 1
1192 1410 1
907 1411 1
911 1411 1
953 1411 1
961 1411 1
1027 1411 1
1036 1411 1
1186 1411 1
1193 1411 1
908 1412 1
912 1412 1
954 1412 1
962 1412 1
1028 1412 1
1037 1412 1
1187 1412 1
1194 1412 1
909 1413 1
913 1413 1
955 1413 1
963 1413 1
1029 1413 1
1038 1413 1
1188 1413 1
1195 1413 1
910 1414 1
914 1414 1
956 1414 1
964 1414 1
1030 1414 1
1039 1414 1
1189 1414 1
1196 1414 1
911 1415 1
915 1415 1
957 1415 1
965 1415 1
1031 1415 1
1040 1415 1
1190 1415 1
1197 1415 1
912 1416 1
916 1416 1
958 1416 1
966 1416 1
1032 1416 1
1041 1416 1
1191 1416 1
1198 1416 1
913 1417 1
917 1417 1
959 1417 1
967 1417 1
1033 1417 1
1042 1417 1
1192 1417 1
1199 1417 1
914 1418 1
918 1418 1
960 1418 1
968 1418 1
1034 1418 1
1043 1418 1
1193 1418 1
1200 1418 1
915 1419 1
919 1419 1
961 1419 1
969 1419 1
1035 1419 1
1044 1419 1
1176 1419 1
1194 1419 1
916 1420 1
920 1420 1
962 1420 1
970 1420 1
1036 1420 1
1045 1420 1
1177 1420 1
1195 1420 1
917 1421 1
921 1421 1
963 1421 1
971 1421 1
1037 1421 1
1046 1421 1
1178 1421 1
1196 1421 1
918 1422 1
922 1422 1
964 1422 1
972 1422 1
1038 1422 1
1047 1422 1
1179 1422 1
1197 1422 1
919 1423 1
923 1423 1
965 1423 1
973 1423 1
1039 1423 1
1048 1423 1
1180 1423 1
1198 1423 1
920 1424 1
924 1424 1
966 1424 1
974 1424 1
1040 1424 1
1049 1424 1
1181 1424 1
1199 1424 1
921 1425 1
925 1425 1
967 1425 1
975 1425 1
1041 1425 1
1050 1425 1
1182 1425 1
1200 1425 1
901 1426 1
924 1426 1
976 1426 1
993 1426 1
1051 1426 1
1067 1426 1
1201 1426 1
1208 1426 1
902 1427 1
925 1427 1
977 1427 1
994 1427 1
1052 1427 1
1068 1427 1
1202 1427 1
1209 1427 1
901 1428 1
903 1428 1
978 1428 1
995 1428 1
1053 1428 1
1069 1428 1
1203 1428 1
1210 1428 1
902 1429 1
904 1429 1
979 1429 1
996 1429 1
1054 1429 1
1070 1429 1
1204 1429 1
1211 1429 1
903 1430 1
905 1430 1
980 1430 1
997 1430 1
1055 1430 1
1071 1430 1
1205 1430 1
1212 1430 1
904 1431 1
906 1431 1
981 1431 1
998 1431 1
1056 1431 1
1072 1431 1
1206 1431 1
1213 1431 1
905 1432 1
907 1432 1
982 1432 1
999 1432 1
1057 1432 1
1073 1432 1
1207 1432 1
1214 1432 1
906 1433 1
908 1433 1
983 1433 1
1000 1433 1
1058 1433 1
1074 1433 1
1208 1433 1
1215 1433 1
907 1434 1
909 1434 1
976 1434 1
984 1434 1
1059 1434 1
1075 1434 1
1209 1434 1
1216 1434 1
908 1435 1
910 1435 1
977 1435 1
985 1435 1
1051 1435 1
1060 1435 1
1210 1435 1
1217 1435 1
909 1436 1
911 1436 1
978 1436 1
986 1436 1
1052 1436 1
1061 1436 1
1211 1436 1
1218 1436 1
910 1437 1
912 1437 1
979 1437 1
987 1437 1
1053 1437 1
1062 1437 1
1212 1437 1
1219 1437 1
911 1438 1
913 1438 1
980 1438 1
988 1438 1
1054 1438 1
1063 1438 1
1213 1438 1
1220 1438 1
912 1439 1
914 1439 1
981 1439 1
989 1439 1
1055 1439 1
1064 1439 1
1214 1439 1
1221 1439 1
913 1440 1
915 1440 1
982 1440 1
990 1440 1
1056 1440 1
1065 1440 1
1215 1440 1
1222 1440 1
914 1441 1
916 1441 1
983 1441 1
991 1441 1
1057 1441 1
1066 1441 1
1216 1441 1
1223 1441 1
915 1442 1
917 1442 1
984 1442 1
992 1442 1
1058 1442 1
1067 1442 1
1217 1442 1
1224 1442 1
916 1443 1
918 1443 1
985 1443 1
993 1443 1
1059 1443 1
1068 1443 1
1218 1443 1
1225 1443 1
917 1444 1
919 1444 1
986 1444 1
994 1444 1
1060 1444 1
1069 1444 1
1201 1444 1
1219 1444 1
918 1445 1
920 1445 1
987 1445 1
995 1445 1
1061 1445 1
1070 1445 1
1202 1445 1
1220 1445 1
919 1446 1
921 1446 1
988 1446 1
996 1446 1
1062 1446 1
1071 1446 1
1203 1446 1
1221 1446 1
920 1447 1
922 1447 1
989 1447 1
997 1447 1
1063 1447 1
1072 1447 1
1204 1447 1
1222 1447 1
921 1448 1
923 1448 1
990 1448 1
998 1448 1
1064 1448 1
1073 1448 1
1205 1448 1
1223 1448 1
922 1449 1
924 1449 1
991 1449 1
999 1449 1
1065 1449 1
1074 1449 1
1206 1449 1
1224 1449 1
923 1450 1
925 1450 1
992 1450 1
1000 1450 1
1066 1450 1
1075 1450 1
1207 1450 1
1225 1450 1
926 1451 1
947 1451 1
951 1451 1
970 1451 1
1076 1451 1
1092 1451 1
1226 1451 1
1233 1451 1
927 1452 1
948 1452 1
952 1452 1
971 1452 1
1077 1452 1
1093 1452 1
1227 1452 1
1234 1452 1
928 1453 1
949 1453 1
953 1453 1
972 1453 1
1078 1453 1
1094 1453 1
1228 1453 1
1235 1453 1
929 1454 1
950 1454 1
954 1454 1
973 1454 1
1079 1454 1
1095 1454 1
1229 1454 1
1236 1454 1
926 1455 1
930 1455 1
955 1455 1
974 1455 1
1080 1455 1
1096 1455 1
1230 1455 1
1237 1455 1
927 1456 1
931 1456 1
956 1456 1
975 1456 1
1081 1456 1
1097 1456 1
1231 1456 1
1238 1456 1
928 1457 1
932 1457 1
951 1457 1
957 1457 1
1082 1457 1
1098 1457 1
1232 1457 1
1239 1457 1
929 1458 1
933 1458 1
952 1458 1
958 1458 1
1083 1458 1
1099 1458 1
1233 1458 1
1240 1458 1
930 1459 1
934 1459 1
953 1459 1
959 1459 1
1084 1459 1
1100 1459 1
1234 1459 1
1241 1459 1
931 1460 1
935 1460 1
954 1460 1
960 1460 1
1076 1460 1
1085 1460 1
1235 1460 1
1242 1460 1
932 1461 1
936 1461 1
955 1461 1
961 1461 1
1077 1461 1
1086 1461 1
1236 1461 1
1243 1461 1
933 1462 1
937 1462 1
956 1462 1
962 1462 1
1078 1462 1
1087 1462 1
1237 1462 1
1244 1462 1
934 1463 1
938 1463 1
957 1463 1
963 1463 1
1079 1463 1
1088 1463 1
1238 1463 1
1245 1463 1
935 1464 1
939 1464 1
958 1464 1
964 1464 1
1080 1464 1
1089 1464 1
1239 1464 1
1246 1464 1
936 1465 1
940 1465 1
959 1465 1
965 1465 1
1081 1465 1
1090 1465 1
1240 1465 1
1247 1465 1
937 1466 1
941 1466 1
960 1466 1
966 1466 1
1082 1466 1
1091 1466 1
1241 1466 1
1248 1466 1
938 1467 1
942 1467 1
961 1467 1
967 1467 1
1083 1467 1
1092 1467 1
1242 1467 1
1249 1467 1
939 1468 1
943 1468 1
962 1468 1
968 1468 1
1084 1468 1
1093 1468 1
1243 1468 1
1250 1468 1
940 1469 1
944 1469 1
963 1469 1
969 1469 1
1085 1469 1
1094 1469 1
1226 1469 1
1244 1469 1
941 1470 1
945 1470 1
964 1470 1
970 1470 1
1086 1470 1
1095 1470 1
1227 1470 1
1245 1470 1
942 1471 1
946 1471 1
965 1471 1
971 1471 1
1087 1471 1
1096 1471 1
1228 1471 1
1246 1471 1
943 1472 1
947 1472 1
966 1472 1
972 1472 1
1088 1472 1
1097 1472 1
1229 1472 1
1247 1472 1
944 1473 1
948 1473 1
967 1473 1
973 1473 1
1089 1473 1
1098 1473 1
1230 1473 1
1248 1473 1
945 1474 1
949 1474 1
968 1474 1
974 1474 1
1090 1474 1
1099 1474 1
1231 1474 1
1249 1474 1
946 1475 1
950 1475 1
969 1475 1
975 1475 1
1091 1475 1
1100 1475 1
1232 1475 1
1250 1475 1
926 1476 1
949 1476 1
976 1476 1
995 1476 1
1101 1476 1
1117 1476 1
1251 1476 1
1258 1476 1
927 1477 1
950 1477 1
977 1477 1
996 1477 1
1102 1477 1
1118 1477 1
1252 1477 1
1259 1477 1
926 1478 1
928 1478 1
978 1478 1
997 1478 1
1103 1478 1
1119 1478 1
1253 1478 1
1260 1478 1
927 1479 1
929 1479 1
979 1479 1
998 1479 1
1104 1479 1
1120 1479 1
1254 1479 1
1261 1479 1
928 1480 1
930 1480 1
980 1480 1
999 1480 1
1105 1480 1
1121 1480 1
1255 1480 1
1262 1480 1
929 1481 1
931 1481 1
981 1481 1
1000 1481 1
1106 1481 1
1122 1481 1
1256 1481 1
1263 1481 1
930 1482 1
932 1482 1
976 1482 1
982 1482 1
1107 1482 1
1123 1482 1
1257 1482 1
1264 1482 1
931 1483 1
933 1483 1
977 1483 1
983 1483 1
1108 1483 1
1124 1483 1
1258 1483 1
1265 1483 1
932 1484 1
934 1484 1
978 1484 1
984 1484 1
1109 1484 1
1125 1484 1
1259 1484 1
1266 1484 1
933 1485 1
935 1485 1
979 1485 1
985 1485 1
1101 1485 1
1110 1485 1
1260 1485 1
1267 1485 1
934 1486 1
936 1486 1
980 1486 1
986 1486 1
1102 1486 1
1111 1486 1
1261 1486 1
1268 1486 1
935 1487 1
937 1487 1
981 1487 1
987 1487 1
1103 1487 1
1112 1487 1
1262 1487 1
1269 1487 1
936 1488 1
938 1488 1
982 1488 1
988 1488 1
1104 1488 1
1113 1488 1
1263 1488 1
1270 1488 1
937 1489 1
939 1489 1
983 1489 1
989 1489 1
1105 1489 1
1114 1489 1
1264 1489 1
1271 1489 1
938 1490 1
940 1490 1
984 1490 1
990 1490 1
1106 1490 1
1115 1490 1
1265 1490 1
1272 1490 1
939 1491 1
941 1491 1
985 1491 1
991 1491 1
1107 1491 1
1116 1491 1
1266 1491 1
1273 1491 1
940 1492 1
942 1492 1
986 1492 1
992 1492 1
1108 1492 1
1117 1492 1
1267 1492 1
1274 1492 1
941 1493 1
943 1493 1
987 1493 1
993 1493 1
1109 1493 1
1118 1493 1
1268 1493 1
1275 1493 1
942 1494 1
944 1494 1
988 1494 1
994 1494 1
1110 1494 1
1119 1494 1
1251 1494 1
1269 1494 1
943 1495 1
945 1495 1
989 1495 1
995 1495 1
1111 1495 1
1120 1495 1
1252 1495 1
1270 1495 1
944 1496 1
946 1496 1
990 1496 1
996 1496 1
1112 1496 1
1121 1496 1
1253 1496 1
1271 1496 1
945 1497 1
947 1497 1
991 1497 1
997 1497 1
1113 1497 1
1122 1497 1
1254 1497 1
1272 1497 1
946 1498 1
948 1498 1
992 1498 1
998 1498 1
1114 1498 1
1123 1498 1
1255 1498 1
1273 1498 1
947 1499 1
949 1499 1
993 1499 1
999 1499 1
1115 1499 1
1124 1499 1
1256 1499 1
1274 1499 1
948 1500 1
950 1500 1
994 1500 1
1000 1500 1
1116 1500 1
1125 1500 1
1257 1500 1
1275 1500 1
951 1501 1
974 1501 1
976 1501 1
997 1501 1
1126 1501 1
1142 1501 1
1276 1501 1
1283 1501 1
952 1502 1
975 1502 1
977 1502 1
998 1502 1
1127 1502 1
1143 1502 1
1277 1502 1
1284 1502 1
951 1503 1
953 1503 1
978 1503 1
999 1503 1
1128 1503 1
1144 1503 1
1278 1503 1
1285 1503 1
952 1504 1
954 1504 1
979 1504 1
1000 1504 1
1129 1504 1
1145 1504 1
1279 1504 1
1286 1504 1
953 1505 1
955 1505 1
976 1505 1
980 1505 1
1130 1505 1
1146 1505 1
1280 1505 1
1287 1505 1
954 1506 1
956 1506 1
977 1506 1
981 1506 1
1131 1506 1
1147 1506 1
1281 1506 1
1288 1506 1
955 1507 1
957 1507 1
978 1507 1
982 1507 1
1132 1507 1
1148 1507 1
1282 1507 1
1289 1507 1
956 1508 1
958 1508 1
979 1508 1
983 1508 1
1133 1508 1
1149 1508 1
1283 1508 1
1290 1508 1
957 1509 1
959 1509 1
980 1509 1
984 1509 1
1134 1509 1
1150 1509 1
1284 1509 1
1291 1509 1
958 1510 1
960 1510 1
981 1510 1
985 1510 1
1126 1510 1
1135 1510 1
1285 1510 1
1292 1510 1
959 1511 1
961 1511 1
982 1511 1
986 1511 1
1127 1511 1
1136 1511 1
1286 1511 1
1293 1511 1
960 1512 1
962 1512 1
983 1512 1
987 1512 1
1128 1512 1
1137 1512 1
1287 1512 1
1294 1512 1
961 1513 1
963 1513 1
984 1513 1
988 1513 1
1129 1513 1
1138 1513 1
1288 1513 1
1295 1513 1
962 1514 1
964 1514 1
985 1514 1
989 1514 1
1130 1514 1
1139 1514 1
1289 1514 1
1296 1514 1
963 1515 1
965 1515 1
986 1515 1
990 1515 1
1131 1515 1
1140 1515 1
1290 1515 1
1297 1515 1
964 1516 1
966 1516 1
987 1516 1
991 1516 1
1132 1516 1
1141 1516 1
1291 1516 1
1298 1516 1
965 1517 1
967 1517 1
988 1517 1
992 1517 1
1133 1517 1
1142 1517 1
1292 1517 1
1299 1517 1
966 1518 1
968 1518 1
989 1518 1
993 1518 1
1134 1518 1
1143 1518 1
1293 1518 1
1300 1518 1
967 1519 1
969 1519 1
990 1519 1
994 1519 1
1135 1519 1
1144 1519 1
1276 1519 1
1294 1519 1
968 1520 1
970 1520 1
991 1520 1
995 1520 1
1136 1520 1
1145 1520 1
1277 1520 1
1295 1520 1
969 1521 1
971 1521 1
992 1521 1
996 1521 1
1137 1521 1
1146 1521 1
1278 1521 1
1296 1521 1
970 1522 1
972 1522 1
993 1522 1
997 1522 1
1138 1522 1
1147 1522 1
1279 1522 1
1297 1522 1
971 1523 1
973 1523 1
994 1523 1
998 1523 1
1139 1523 1
1148 1523 1
1280 1523 1
1298 1523 1
972 1524 1
974 1524 1
995 1524 1
999 1524 1
1140 1524 1
1149 1524 1
1281 1524 1
1299 1524 1
973 1525 1
975 1525 1
996 1525 1
1000 1525 1
1141 1525 1
1150 1525 1
1282 1525 1
1300 1525 1
1001 1526 1
1022 1526 1
1026 1526 1
1045 1526 1
1076 1526 1
1093 1526 1
1301 1526 1
1308 1526 1
1002 1527 1
1023 1527 1
1027 1527 1
1046 1527 1
1077 1527 1
1094 1527 1
1302 1527 1
1309 1527 1
1003 1528 1
1024 1528 1
1028 1528 1
1047 1528 1
1078 1528 1
1095 1528 1
1303 1528 1
1310 1528 1
1004 1529 1
1025 1529 1
1029 1529 1
1048 1529 1
1079 1529 1
1096 1529 1
1304 1529 1
1311 1529 1
1001 1530 1
1005 1530 1
1030 1530 1
1049 1530 1
1080 1530 1
1097 1530 1
1305 1530 1
1312 1530 1
1002 1531 1
1006 1531 1
1031 1531 1
1050 1531 1
1081 1531 1
1098 1531 1
1306 1531 1
1313 1531 1
1003 1532 1
1007 1532 1
1026 1532 1
1032 1532 1
1082 1532 1
1099 1532 1
1307 1532 1
1314 1532 1
1004 1533 1
1008 1533 1
1027 1533 1
1033 1533 1
1083 1533 1
1100 1533 1
1308 1533 1
1315 1533 1
1005 1534 1
1009 1534 1
1028 1534 1
1034 1534 1
1076 1534 1
1084 1534 1
1309 1534 1
1316 1534 1
1006 1535 1
1010 1535 1
1029 1535 1
1035 1535 1
1077 1535 1
1085 1535 1
1310 1535 1
1317 1535 1
1007 1536 1
1011 1536 1
1030 1536 1
1036 1536 1
1078 1536 1
1086 1536 1
1311 1536 1
1318 1536 1
1008 1537 1
1012 1537 1
1031 1537 1
1037 1537 1
1079 1537 1
1087 1537 1
1312 1537 1
1319 1537 1
1009 1538 1
1013 1538 1
1032 1538 1
1038 1538 1
1080 1538 1
1088 1538 1
1313 1538 1
1320 1538 1
1010 1539 1
1014 1539 1
1033 1539 1
1039 1539 1
1081 1539 1
1089 1539 1
1314 1539 1
1321 1539 1
1011 1540 1
1015 1540 1
1034 1540 1
1040 1540 1
1082 1540 1
1090 1540 1
1315 1540 1
1322 1540 1
1012 1541 1
1016 1541 1
1035 1541 1
1041 1541 1
1083 1541 1
1091 1541 1
1316 1541 1
1323 1541 1
1013 1542 1
1017 1542 1
1036 1542 1
1042 1542 1
1084 1542 1
1092 1542 1
1317 1542 1
1324 1542 1
1014 1543 1
1018 1543 1
1037 1543 1
1043 1543 1
1085 1543 1
1093 1543 1
1318 1543 1
1325 1543 1
1015 1544 1
1019 1544 1
1038 1544 1
1044 1544 1
1086 1544 1
1094 1544 1
1301 1544 1
1319 1544 1
1016 1545 1
1020 1545 1
1039 1545 1
1045 1545 1
1087 1545 1
1095 1545 1
1302 1545 1
1320 1545 1
1017 1546 1
1021 1546 1
1040 1546 1
1046 1546 1
1088 1546 1
1096 1546 1
1303 1546 1
1321 1546 1
1018 1547 1
1022 1547 1
1041 1547 1
1047 1547 1
1089 1547 1
1097 1547 1
1304 1547 1
1322 1547 1
1019 1548 1
1023 1548 1
1042 1548 1
1048 1548 1
1090 1548 1
1098 1548 1
1305 1548 1
1323 1548 1
1020 1549 1
1024 1549 1
1043 1549 1
1049 1549 1
1091 1549 1
1099 1549 1
1306 1549 1
1324 1549 1
1021 1550 1
1025 1550 1
1044 1550 1
1050 1550 1
1092 1550 1
1100 1550 1
1307 1550 1
1325 1550 1
1001 1551 1
1024 1551 1
1051 1551 1
1070 1551 1
1101 1551 1
1118 1551 1
1326 1551 1
1333 1551 1
1002 1552 1
1025 1552 1
1052 1552 1
1071 1552 1
1102 1552 1
1119 1552 1
1327 1552 1
1334 1552 1
1001 1553 1
1003 1553 1
1053 1553 1
1072 1553 1
1103 1553 1
1120 1553 1
1328 1553 1
1335 1553 1
1002 1554 1
1004 1554 1
1054 1554 1
1073 1554 1
1104 1554 1
1121 1554 1
1329 1554 1
1336 1554 1
1003 1555 1
1005 1555 1
1055 1555 1
1074 1555 1
1105 1555 1
1122 1555 1
1330 1555 1
1337 1555 1
1004 1556 1
1006 1556 1
1056 1556 1
1075 1556 1
1106 1556 1
1123 1556 1
1331 1556 1
1338 1556 1
1005 1557 1
1007 1557 1
1051 1557 1
1057 1557 1
1107 1557 1
1124 1557 1
1332 1557 1
1339 1557 1
1006 1558 1
1008 1558 1
1052 1558 1
1058 1558 1
1108 1558 1
1125 1558 1
1333 1558 1
1340 1558 1
1007 1559 1
1009 1559 1
1053 1559 1
1059 1559 1
1101 1559 1
1109 1559 1
1334 1559 1
1341 1559 1
1008 1560 1
1010 1560 1
1054 1560 1
1060 1560 1
1102 1560 1
1110 1560 1
1335 1560 1
1342 1560 1
1009 1561 1
1011 1561 1
1055 1561 1
1061 1561 1
1103 1561 1
1111 1561 1
1336 1561 1
1343 1561 1
1010 1562 1
1012 1562 1
1056 1562 1
1062 1562 1
1104 1562 1
1112 1562 1
1337 1562 1
1344 1562 1
1011 1563 1
1013 1563 1
1057 1563 1
1063 1563 1
1105 1563 1
1113 1563 1
1338 1563 1
1345 1563 1
1012 1564 1
1014 1564 1
1058 1564 1
1064 1564 1
1106 1564 1
1114 1564 1
1339 1564 1
1346 1564 1
1013 1565 1
1015 1565 1
1059 1565 1
1065 1565 1
1107 1565 1
1115 1565 1
1340 1565 1
1347 1565 1
1014 1566 1
1016 1566 1
1060 1566 1
1066 1566 1
1108 1566 1
1116 1566 1
1341 1566 1
1348 1566 1
1015 1567 1
1017 1567 1
1061 1567 1
1067 1567 1
1109 1567 1
1117 1567 1
1342 1567 1
1349 1567 1
1016 1568 1
1018 1568 1
1062 1568 1
1068 1568 1
1110 1568 1
1118 1568 1
1343 1568 1
1350 1568 1
1017 1569 1
1019 1569 1
1063 1569 1
1069 1569 1
1111 1569 1
1119 1569 1
1326 1569 1
1344 1569 1
1018 1570 1
1020 1570 1
1064 1570 1
1070 1570 1
1112 1570 1
1120 1570 1
1327 1570 1
1345 1570 1
1019 1571 1
1021 1571 1
1065 1571 1
1071 1571 1
1113 1571 1
1121 1571 1
1328 1571 1
1346 1571 1
1020 1572 1
1022 1572 1
1066 1572 1
1072 1572 1
1114 1572 1
1122 1572 1
1329 1572 1
1347 1572 1
1021 1573 1
1023 1573 1
1067 1573 1
1073 1573 1
1115 1573 1
1123 1573 1
1330 1573 1
1348 1573 1
1022 1574 1
1024 1574 1
1068 1574 1
1074 1574 1
1116 1574 1
1124 1574 1
1331 1574 1
1349 1574 1
1023 1575 1
1025 1575 1
1069 1575 1
1075 1575 1
1117 1575 1
1125 1575 1
1332 1575 1
1350 1575 1
1026 1576 1
1049 1576 1
1051 1576 1
1072 1576 1
1126 1576 1
1143 1576 1
1351 1576 1
1358 1576 1
1027 1577 1
1050 1577 1
1052 1577 1
1073 1577 1
1127 1577 1
1144 1577 1
1352 1577 1
1359 1577 1
1026 1578 1
1028 1578 1
1053 1578 1
1074 1578 1
1128 1578 1
1145 1578 1
1353 1578 1
1360 1578 1
1027 1579 1
1029 1579 1
1054 1579 1
1075 1579 1
1129 1579 1
1146 1579 1
1354 1579 1
1361 1579 1
1028 1580 1
1030 1580 1
1051 1580 1
1055 1580 1
1130 1580 1
1147 1580 1
1355 1580 1
1362 1580 1
1029 1581 1
1031 1581 1
1052 1581 1
1056 1581 1
1131 1581 1
1148 1581 1
1356 1581 1
1363 1581 1
1030 1582 1
1032 1582 1
1053 1582 1
1057 1582 1
1132 1582 1
1149 1582 1
1357 1582 1
1364 1582 1
1031 1583 1
1033 1583 1
1054 1583 1
1058 1583 1
1133 1583 1
1150 1583 1
1358 1583 1
1365 1583 1
1032 1584 1
1034 1584 1
1055 1584 1
1059 1584 1
1126 1584 1
1134 1584 1
1359 1584 1
1366 1584 1
1033 1585 1
1035 1585 1
1056 1585 1
1060 1585 1
1127 1585 1
1135 1585 1
1360 1585 1
1367 1585 1
1034 1586 1
1036 1586 1
1057 1586 1
1061 1586 1
1128 1586 1
1136 1586 1
1361 1586 1
1368 1586 1
1035 1587 1
1037 1587 1
1058 1587 1
1062 1587 1
1129 1587 1
1137 1587 1
1362 1587 1
1369 1587 1
1036 1588 1
1038 1588 1
1059 1588 1
1063 1588 1
1130 1588 1
1138 1588 1
1363 1588 1
1370 1588 1
1037 1589 1
1039 1589 1
1060 1589 1
1064 1589 1
1131 1589 1
1139 1589 1
1364 1589 1
1371 1589 1
1038 1590 1
1040 1590 1
1061 1590 1
1065 1590 1
1132 1590 1
1140 1590 1
1365 1590 1
1372 1590 1
1039 1591 1
1041 1591 1
1062 1591 1
1066 1591 1
1133 1591 1
1141 1591 1
1366 1591 1
1373 1591 1
1040 1592 1
1042 1592 1
1063 1592 1
1067 1592 1
1134 1592 1
1142 1592 1
1367 1592 1
1374 1592 1
1041 1593 1
1043 1593 1
1064 1593 1
1068 1593 1
1135 1593 1
1143 1593 1
1368 1593 1
1375 1593 1
1042 1594 1
1044 1594 1
1065 1594 1
1069 1594 1
1136 1594 1
1144 1594 1
1351 1594 1
1369 1594 1
1043 1595 1
1045 1595 1
1066 1595 1
1070 1595 1
1137 1595 1
1145 1595 1
1352 1595 1
1370 1595 1
1044 1596 1
1046 1596 1
1067 1596 1
1071 1596 1
1138 1596 1
1146 1596 1
1353 1596 1
1371 1596 1
1045 1597 1
1047 1597 1
1068 1597 1
1072 1597 1
1139 1597 1
1147 1597 1
1354 1597 1
1372 1597 1
1046 1598 1
1048 1598 1
1069 1598 1
1073 1598 1
1140 1598 1
1148 1598 1
1355 1598 1
1373 1598 1
1047 1599 1
1049 1599 1
1070 1599 1
1074 1599 1
1141 1599 1
1149 1599 1
1356 1599 1
1374 1599 1
1048 1600 1
1050 1600 1
1071 1600 1
1075 1600 1
1142 1600 1
1150 1600 1
1357 1600 1
1375 1600 1
1076 1601 1
1099 1601 1
1101 1601 1
1122 1601 1
1126 1601 1
1145 1601 1
1376 1601 1
1383 1601 1
1077 1602 1
1100 1602 1
1102 1602 1
1123 1602 1
1127 1602 1
1146 1602 1
1377 1602 1
1384 1602 1
1076 1603 1
1078 1603 1
1103 1603 1
1124 1603 1
1128 1603 1
1147 1603 1
1378 1603 1
1385 1603 1
1077 1604 1
1079 1604 1
1104 1604 1
1125 1604 1
1129 1604 1
1148 1604 1
1379 1604 1
1386 1604 1
1078 1605 1
1080 1605 1
1101 1605 1
1105 1605 1
1130 1605 1
1149 1605 1
1380 1605 1
1387 1605 1
1079 1606 1
1081 1606 1
1102 1606 1
1106 1606 1
1131 1606 1
1150 1606 1
1381 1606 1
1388 1606 1
1080 1607 1
1082 1607 1
1103 1607 1
1107 1607 1
1126 1607 1
1132 1607 1
1382 1607 1
1389 1607 1
1081 1608 1
1083 1608 1
1104 1608 1
1108 1608 1
1127 1608 1
1133 1608 1
1383 1608 1
1390 1608 1
1082 1609 1
1084 1609 1
1105 1609 1
1109 1609 1
1128 1609 1
1134 1609 1
1384 1609 1
1391 1609 1
1083 1610 1
1085 1610 1
1106 1610 1
1110 1610 1
1129 1610 1
1135 1610 1
1385 1610 1
1392 1610 1
1084 1611 1
1086 1611 1
1107 1611 1
1111 1611 1
1130 1611 1
1136 1611 1
1386 1611 1
1393 1611 1
1085 1612 1
1087 1612 1
1108 1612 1
1112 1612 1
1131 1612 1
1137 1612 1
1387 1612 1
1394 1612 1
1086 1613 1
1088 1613 1
1109 1613 1
1113 1613 1
1132 1613 1
1138 1613 1
1388 1613 1
1395 1613 1
1087 1614 1
1089 1614 1
1110 1614 1
1114 1614 1
1133 1614 1
1139 1614 1
1389 1614 1
1396 1614 1
1088 1615 1
1090 1615 1
1111 1615 1
1115 1615 1
1134 1615 1
1140 1615 1
1390 1615 1
1397 1615 1
1089 1616 1
1091 1616 1
1112 1616 1
1116 1616 1
1135 1616 1
1141 1616 1
1391 1616 1
1398 1616 1
1090 1617 1
1092 1617 1
1113 1617 1
1117 1617 1
1136 1617 1
1142 1617 1
1392 1617 1
1399 1617 1
1091 1618 1
1093 1618 1
1114 1618 1
1118 1618 1
1137 1618 1
1143 1618 1
1393 1618 1
1400 1618 1
1092 1619 1
1094 1619 1
1115 1619 1
1119 1619 1
1138 1619 1
1144 1619 1
1376 1619 1
1394 1619 1
1093 1620 1
1095 1620 1
1116 1620 1
1120 1620 1
1139 1620 1
1145 1620 1
1377 1620 1
1395 1620 1
1094 1621 1
1096 1621 1
1117 1621 1
1121 1621 1
1140 1621 1
1146 1621 1
1378 1621 1
1396 1621 1
1095 1622 1
1097 1622 1
1118 1622 1
1122 1622 1
1141 1622 1
1147 1622 1
1379 1622 1
1397 1622 1
1096 1623 1
1098 1623 1
1119 1623 1
1123 1623 1
1142 1623 1
1148 1623 1
1380 1623 1
1398 1623 1
1097 1624 1
1099 1624 1
1120 1624 1
1124 1624 1
1143 1624 1
1149 1624 1
1381 1624 1
1399 1624 1
1098 1625 1
1100 1625 1
1121 1625 1
1125 1625 1
1144 1625 1
1150 1625 1
1382 1625 1
1400 1625 1
1151 1626 1
1172 1626 1
1176 1626 1
1195 1626 1
1226 1626 1
1243 1626 1
1301 1626 1
1317 1626 1
1152 1627 1
1173 1627 1
1177 1627 1
1196 1627 1
1227 1627 1
1244 1627 1
1302 1627 1
1318 1627 1
1153 1628 1
1174 1628 1
1178 1628 1
1197 1628 1
1228 1628 1
1245 1628 1
1303 1628 1
1319 1628 1
1154 1629 1
1175 1629 1
1179 1629 1
1198 1629 1
1229 1629 1
1246 1629 1
1304 1629 1
1320 1629 1
1151 1630 1
1155 1630 1
1180 1630 1
1199 1630 1
1230 1630 1
1247 1630 1
1305 1630 1
1321 1630 1
1152 1631 1
1156 1631 1
1181 1631 1
1200 1631 1
1231 1631 1
1248 1631 1
1306 1631 1
1322 1631 1
1153 1632 1
1157 1632 1
1176 1632 1
1182 1632 1
1232 1632 1
1249 1632 1
1307 1632 1
1323 1632 1
1154 1633 1
1158 1633 1
1177 1633 1
1183 1633 1
1233 1633 1
1250 1633 1
1308 1633 1
1324 1633 1
1155 1634 1
1159 1634 1
1178 1634 1
1184 1634 1
1226 1634 1
1234 1634 1
1309 1634 1
1325 1634 1
1156 1635 1
1160 1635 1
1179 1635 1
1185 1635 1
1227 1635 1
1235 1635 1
1301 1635 1
1310 1635 1
1157 1636 1
1161 1636 1
1180 1636 1
1186 1636 1
1228 1636 1
1236 1636 1
1302 1636 1
1311 1636 1
1158 1637 1
1162 1637 1
1181 1637 1
1187 1637 1
1229 1637 1
1237 1637 1
1303 1637 1
1312 1637 1
1159 1638 1
1163 1638 1
1182 1638 1
1188 1638 1
1230 1638 1
1238 1638 1
1304 1638 1
1313 1638 1
1160 1639 1
1164 1639 1
1183 1639 1
1189 1639 1
1231 1639 1
1239 1639 1
1305 1639 1
1314 1639 1
1161 1640 1
1165 1640 1
1184 1640 1
1190 1640 1
1232 1640 1
1240 1640 1
1306 1640 1
1315 1640 1
1162 1641 1
1166 1641 1
1185 1641 1
1191 1641 1
1233 1641 1
1241 1641 1
1307 1641 1
1316 1641 1
1163 1642 1
1167 1642 1
1186 1642 1
1192 1642 1
1234 1642 1
1242 1642 1
1308 1642 1
1317 1642 1
1164 1643 1
1168 1643 1
1187 1643 1
1193 1643 1
1235 1643 1
1243 1643 1
1309 1643 1
1318 1643 1
1165 1644 1
1169 1644 1
1188 1644 1
1194 1644 1
1236 1644 1
1244 1644 1
1310 1644 1
1319 1644 1
1166 1645 1
1170 1645 1
1189 1645 1
1195 1645 1
1237 1645 1
1245 1645 1
1311 1645 1
1320 1645 1
1167 1646 1
1171 1646 1
1190 1646 1
1196 1646 1
1238 1646 1
1246 1646 1
1312 1646 1
1321 1646 1
1168 1647 1
1172 1647 1
1191 1647 1
1197 1647 1
1239 1647 1
1247 1647 1
1313 1647 1
1322 1647 1
1169 1648 1
1173 1648 1
1192 1648 1
1198 1648 1
1240 1648 1
1248 1648 1
1314 1648 1
1323 1648 1
1170 1649 1
1174 1649 1
1193 1649 1
1199 1649 1
1241 1649 1
1249 1649 1
1315 1649 1
1324 1649 1
1171 1650 1
1175 1650 1
1194 1650 1
1200 1650 1
1242 1650 1
1250 1650 1
1316 1650 1
1325 1650 1
1151 1651 1
1174 1651 1
1201 1651 1
1220 1651 1
1251 1651 1
1268 1651 1
1326 1651 1
1342 1651 1
1152 1652 1
1175 1652 1
1202 1652 1
1221 1652 1
1252 1652 1
1269 1652 1
1327 1652 1
1343 1652 1
1151 1653 1
1153 1653 1
1203 1653 1
1222 1653 1
1253 1653 1
1270 1653 1
1328 1653 1
1344 1653 1
1152 1654 1
1154 1654 1
1204 1654 1
1223 1654 1
1254 1654 1
1271 1654 1
1329 1654 1
1345 1654 1
1153 1655 1
1155 1655 1
1205 1655 1
1224 1655 1
1255 1655 1
1272 1655 1
1330 1655 1
1346 1655 1
1154 1656 1
1156 1656 1
1206 1656 1
1225 1656 1
1256 1656 1
1273 1656 1
1331 1656 1
1347 1656 1
1155 1657 1
1157 1657 1
1201 1657 1
1207 1657 1
1257 1657 1
1274 1657 1
1332 1657 1
1348 1657 1
1156 1658 1
1158 1658 1
1202 1658 1
1208 1658 1
1258 1658 1
1275 1658 1
1333 1658 1
1349 1658 1
1157 1659 1
1159 1659 1
1203 1659 1
1209 1659 1
1251 1659 1
1259 1659 1
1334 1659 1
1350 1659 1
1158 1660 1
1160 1660 1
1204 1660 1
1210 1660 1
1252 1660 1
1260 1660 1
1326 1660 1
1335 1660 1
1159 1661 1
1161 1661 1
1205 1661 1
1211 1661 1
1253 1661 1
1261 1661 1
1327 1661 1
1336 1661 1
1160 1662 1
1162 1662 1
1206 1662 1
1212 1662 1
1254 1662 1
1262 1662 1
1328 1662 1
1337 1662 1
1161 1663 1
1163 1663 1
1207 1663 1
1213 1663 1
1255 1663 1
1263 1663 1
1329 1663 1
1338 1663 1
1162 1664 1
1164 1664 1
1208 1664 1
1214 1664 1
1256 1664 1
1264 1664 1
1330 1664 1
1339 1664 1
1163 1665 1
1165 1665 1
1209 1665 1
1215 1665 1
1257 1665 1
1265 1665 1
1331 1665 1
1340 1665 1
1164 1666 1
1166 1666 1
1210 1666 1
1216 1666 1
1258 1666 1
1266 1666 1
1332 1666 1
1341 1666 1
1165 1667 1
1167 1667 1
1211 1667 1
1217 1667 1
1259 1667 1
1267 1667 1
1333 1667 1
1342 1667 1
1166 1668 1
1168 1668 1
1212 1668 1
1218 1668 1
1260 1668 1
1268 1668 1
1334 1668 1
1343 1668 1
1167 1669 1
1169 1669 1
1213 1669 1
1219 1669 1
1261 1669 1
1269 1669 1
1335 1669 1
1344 1669 1
1168 1670 1
1170 1670 1
1214 1670 1
1220 1670 1
1262 1670 1
1270 1670 1
1336 1670 1
1345 1670 1
1169 1671 1
1171 1671 1
1215 1671 1
1221 1671 1
1263 1671 1
1271 1671 1
1337 1671 1
1346 1671 1
1170 1672 1
1172 1672 1
1216 1672 1
1222 1672 1
1264 1672 1
1272 1672 1
1338 1672 1
1347 1672 1
1171 1673 1
1173 1673 1
1217 1673 1
1223 1673 1
1265 1673 1
1273 1673 1
1339 1673 1
1348 1673 1
1172 1674 1
1174 1674 1
1218 1674 1
1224 1674 1
1266 1674 1
1274 1674 1
1340 1674 1
1349 1674 1
1173 1675 1
1175 1675 1
1219 1675 1
1225 1675 1
1267 1675 1
1275 1675 1
1341 1675 1
1350 1675 1
1176 1676 1
1199 1676 1
1201 1676 1
1222 1676 1
1276 1676 1
1293 1676 1
1351 1676 1
1367 1676 1
1177 1677 1
1200 1677 1
1202 1677 1
1223 1677 1
1277 1677 1
1294 1677 1
1352 1677 1
1368 1677 1
1176 1678 1
1178 1678 1
1203 1678 1
1224 1678 1
1278 1678 1
1295 1678 1
1353 1678 1
1369 1678 1
1177 1679 1
1179 1679 1
1204 1679 1
1225 1679 1
1279 1679 1
1296 1679 1
1354 1679 1
1370 1679 1
1178 1680 1
1180 1680 1
1201 1680 1
1205 1680 1
1280 1680 1
1297 1680 1
1355 1680 1
1371 1680 1
1179 1681 1
1181 1681 1
1202 1681 1
1206 1681 1
1281 1681 1
1298 1681 1
1356 1681 1
1372 1681 1
1180 1682 1
1182 1682 1
1203 1682 1
1207 1682 1
1282 1682 1
1299 1682 1
1357 1682 1
1373 1682 1
1181 1683 1
1183 1683 1
1204 1683 1
1208 1683 1
1283 1683 1
1300 1683 1
1358 1683 1
1374 1683 1
1182 1684 1
1184 1684 1
1205 1684 1
1209 1684 1
1276 1684 1
1284 1684 1
1359 1684 1
1375 1684 1
1183 1685 1
1185 1685 1
1206 1685 1
1210 1685 1
1277 1685 1
1285 1685 1
1351 1685 1
1360 1685 1
1184 1686 1
1186 1686 1
1207 1686 1
1211 1686 1
1278 1686 1
1286 1686 1
1352 1686 1
1361 1686 1
1185 1687 1
1187 1687 1
1208 1687 1
1212 1687 1
1279 1687 1
1287 1687 1
1353 1687 1
1362 1687 1
1186 1688 1
1188 1688 1
1209 1688 1
1213 1688 1
1280 1688 1
1288 1688 1
1354 1688 1
1363 1688 1
1187 1689 1
1189 1689 1
1210 1689 1
1214 1689 1
1281 1689 1
1289 1689 1
1355 1689 1
1364 1689 1
1188 1690 1
1190 1690 1
1211 1690 1
1215 1690 1
1282 1690 1
1290 1690 1
1356 1690 1
1365 1690 1
1189 1691 1
1191 1691 1
1212 1691 1
1216 1691 1
1283 1691 1
1291 1691 1
1357 1691 1
1366 1691 1
1190 1692 1
1192 1692 1
1213 1692 1
1217 1692 1
1284 1692 1
1292 1692 1
1358 1692 1
1367 1692 1
1191 1693 1
1193 1693 1
1214 1693 1
1218 1693 1
1285 1693 1
1293 1693 1
1359 1693 1
1368 1693 1
1192 1694 1
1194 1694 1
1215 1694 1
1219 1694 1
1286 1694 1
1294 1694 1
1360 1694 1
1369 1694 1
1193 1695 1
1195 1695 1
1216 1695 1
1220 1695 1
1287 1695 1
1295 1695 1
1361 1695 1
1370 1695 1
1194 1696 1
1196 1696 1
1217 1696 1
1221 1696 1
1288 1696 1
1296 1696 1
1362 1696 1
1371 1696 1
1195 1697 1
1197 1697 1
1218 1697 1
1222 1697 1
1289 1697 1
1297 1697 1
1363 1697 1
1372 1697 1
1196 1698 1
1198 1698 1
1219 1698 1
1223 1698 1
1290 1698 1
1298 1698 1
1364 1698 1
1373 1698 1
1197 1699 1
1199 1699 1
1220 1699 1
1224 1699 1
1291 1699 1
1299 1699 1
1365 1699 1
1374 1699 1
1198 1700 1
1200 1700 1
1221 1700 1
1225 1700 1
1292 1700 1
1300 1700 1
1366 1700 1
1375 1700 1
1226 1701 1
1249 1701 1
1251 1701 1
1272 1701 1
1276 1701 1
1295 1701 1
1376 1701 1
1392 1701 1
1227 1702 1
1250 1702 1
1252 1702 1
1273 1702 1
1277 1702 1
1296 1702 1
1377 1702 1
1393 1702 1
1226 1703 1
1228 1703 1
1253 1703 1
1274 1703 1
1278 1703 1
1297 1703 1
1378 1703 1
1394 1703 1
1227 1704 1
1229 1704 1
1254 1704 1
1275 1704 1
1279 1704 1
1298 1704 1
1379 1704 1
1395 1704 1
1228 1705 1
1230 1705 1
1251 1705 1
1255 1705 1
1280 1705 1
1299 1705 1
1380 1705 1
1396 1705 1
1229 1706 1
1231 1706 1
1252 1706 1
1256 1706 1
1281 1706 1
1300 1706 1
1381 1706 1
1397 1706 1
1230 1707 1
1232 1707 1
1253 1707 1
1257 1707 1
1276 1707 1
1282 1707 1
1382 1707 1
1398 1707 1
1231 1708 1
1233 1708 1
1254 1708 1
1258 1708 1
1277 1708 1
1283 1708 1
1383 1708 1
1399 1708 1
1232 1709 1
1234 1709 1
1255 1709 1
1259 1709 1
1278 1709 1
1284 1709 1
1384 1709 1
1400 1709 1
1233 1710 1
1235 1710 1
1256 1710 1
1260 1710 1
1279 1710 1
1285 1710 1
1376 1710 1
1385 1710 1
1234 1711 1
1236 1711 1
1257 1711 1
1261 1711 1
1280 1711 1
1286 1711 1
1377 1711 1
1386 1711 1
1235 1712 1
1237 1712 1
1258 1712 1
1262 1712 1
1281 1712 1
1287 1712 1
1378 1712 1
1387 1712 1
1236 1713 1
1238 1713 1
1259 1713 1
1263 1713 1
1282 1713 1
1288 1713 1
1379 1713 1
1388 1713 1
1237 1714 1
1239 1714 1
1260 1714 1
1264 1714 1
1283 1714 1
1289 1714 1
1380 1714 1
1389 1714 1
1238 1715 1
1240 1715 1
1261 1715 1
1265 1715 1
1284 1715 1
1290 1715 1
1381 1715 1
1390 1715 1
1239 1716 1
1241 1716 1
1262 1716 1
1266 1716 1
1285 1716 1
1291 1716 1
1382 1716 1
1391 1716 1
1240 1717 1
1242 1717 1
1263 1717 1
1267 1717 1
1286 1717 1
1292 1717 1
1383 1717 1
1392 1717 1
1241 1718 1
1243 1718 1
1264 1718 1
1268 1718 1
1287 1718 1
1293 1718 1
1384 1718 1
1393 1718 1
1242 1719 1
1244 1719 1
1265 1719 1
1269 1719 1
1288 1719 1
1294 1719 1
1385 1719 1
1394 1719 1
1243 1720 1
1245 1720 1
1266 1720 1
1270 1720 1
1289 1720 1
1295 1720 1
1386 1720 1
1395 1720 1
1244 1721 1
1246 1721 1
1267 1721 1
1271 1721 1
1290 1721 1
1296 1721 1
1387 1721 1
1396 1721 1
1245 1722 1
1247 1722 1
1268 1722 1
1272 1722 1
1291 1722 1
1297 1722 1
1388 1722 1
1397 1722 1
1246 1723 1
1248 1723 1
1269 1723 1
1273 1723 1
1292 1723 1
1298 1723 1
1389 1723 1
1398 1723 1
1247 1724 1
1249 1724 1
1270 1724 1
1274 1724 1
1293 1724 1
1299 1724 1
1390 1724 1
1399 1724 1
1248 1725 1
1250 1725 1
1271 1725 1
1275 1725 1
1294 1725 1
1300 1725 1
1391 1725 1
1400 1725 1
1301 1726 1
1324 1726 1
1326 1726 1
1347 1726 1
1351 1726 1
1370 1726 1
1376 1726 1
1393 1726 1
1302 1727 1
1325 1727 1
1327 1727 1
1348 1727 1
1352 1727 1
1371 1727 1
1377 1727 1
1394 1727 1
1301 1728 1
1303 1728 1
1328 1728 1
1349 1728 1
1353 1728 1
1372 1728 1
1378 1728 1
1395 1728 1
1302 1729 1
1304 1729 1
1329 1729 1
1350 1729 1
1354 1729 1
1373 1729 1
1379 1729 1
1396 1729 1
1303 1730 1
1305 1730 1
1326 1730 1
1330 1730 1
1355 1730 1
1374 1730 1
1380 1730 1
1397 1730 1
1304 1731 1
1306 1731 1
1327 1731 1
1331 1731 1
1356 1731 1
1375 1731 1
1381 1731 1
1398 1731 1
1305 1732 1
1307 1732 1
1328 1732 1
1332 1732 1
1351 1732 1
1357 1732 1
1382 1732 1
1399 1732 1
1306 1733 1
1308 1733 1
1329 1733 1
1333 1733 1
1352 1733 1
1358 1733 1
1383 1733 1
1400 1733 1
1307 1734 1
1309 1734 1
1330 1734 1
1334 1734 1
1353 1734 1
1359 1734 1
1376 1734 1
1384 1734 1
1308 1735 1
1310 1735 1
1331 1735 1
1335 1735 1
1354 1735 1
1360 1735 1
1377 1735 1
1385 1735 1
1309 1736 1
1311 1736 1
1332 1736 1
1336 1736 1
1355 1736 1
1361 1736 1
1378 1736 1
1386 1736 1
1310 1737 1
1312 1737 1
1333 1737 1
1337 1737 1
1356 1737 1
1362 1737 1
1379 1737 1
1387 1737 1
1311 1738 1
1313 1738 1
1334 1738 1
1338 1738 1
1357 1738 1
1363 1738 1
1380 1738 1
1388 1738 1
1312 1739 1
1314 1739 1
1335 1739 1
1339 1739 1
1358 1739 1
1364 1739 1
1381 1739 1
1389 1739 1
1313 1740 1
1315 1740 1
1336 1740 1
1340 1740 1
1359 1740 1
1365 1740 1
1382 1740 1
1390 1740 1
1314 1741 1
1316 1741 1
1337 1741 1
1341 1741 1
1360 1741 1
1366 1741 1
1383 1741 1
1391 1741 1
1315 1742 1
1317 1742 1
1338 1742 1
1342 1742 1
1361 1742 1
1367 1742 1
1384 1742 1
1392 1742 1
1316 1743 1
1318 1743 1
1339 1743 1
1343 1743 1
1362 1743 1
1368 1743 1
1385 1743 1
1393 1743 1
1317 1744 1
1319 1744 1
1340 1744 1
1344 1744 1
1363 1744 1
1369 1744 1
1386 1744 1
1394 1744 1
1318 1745 1
1320 1745 1
1341 1745 1
1345 1745 1
1364 1745 1
1370 1745 1
1387 1745 1
1395 1745 1
1319 1746 1
1321 1746 1
1342 1746 1
1346 1746 1
1365 1746 1
1371 1746 1
1388 1746 1
1396 1746 1
1320 1747 1
1322 1747 1
1343 1747 1
1347 1747 1
1366 1747 1
1372 1747 1
1389 1747 1
1397 1747 1
1321 1748 1
1323 1748 1
1344 1748 1
1348 1748 1
1367 1748 1
1373 1748 1
1390 1748 1
1398 1748 1
1322 1749 1
1324 1749 1
1345 1749 1
1349 1749 1
1368 1749 1
1374 1749 1
1391 1749 1
1399 1749 1
1323 1750 1
1325 1750 1
1346 1750 1
1350 1750 1
1369 1750 1
1375 1750 1
1392 1750 1
1400 1750 1
