%%MatrixMarket matrix coordinate integer general
% Binary matrix; one-based indices; arithmetic over GF(2)
840 1260 10080
1 1 1
5 1 1
11 1 1
14 1 1
21 1 1
23 1 1
31 1 1
32 1 1
2 2 1
6 2 1
12 2 1
15 2 1
22 2 1
24 2 1
32 2 1
33 2 1
3 3 1
7 3 1
13 3 1
16 3 1
23 3 1
25 3 1
33 3 1
34 3 1
4 4 1
8 4 1
14 4 1
17 4 1
24 4 1
26 4 1
34 4 1
35 4 1
5 5 1
9 5 1
15 5 1
18 5 1
25 5 1
27 5 1
35 5 1
36 5 1
6 6 1
10 6 1
16 6 1
19 6 1
26 6 1
28 6 1
36 6 1
37 6 1
1 7 1
7 7 1
17 7 1
20 7 1
27 7 1
29 7 1
37 7 1
38 7 1
2 8 1
8 8 1
11 8 1
18 8 1
28 8 1
30 8 1
38 8 1
39 8 1
3 9 1
9 9 1
12 9 1
19 9 1
21 9 1
29 9 1
39 9 1
40 9 1
4 10 1
10 10 1
13 10 1
20 10 1
22 10 1
30 10 1
31 10 1
40 10 1
1 11 1
6 11 1
41 11 1
44 11 1
51 11 1
53 11 1
61 11 1
62 11 1
2 12 1
7 12 1
42 12 1
45 12 1
52 12 1
54 12 1
62 12 1
63 12 1
3 13 1
8 13 1
43 13 1
46 13 1
53 13 1
55 13 1
63 13 1
64 13 1
4 14 1
9 14 1
44 14 1
47 14 1
54 14 1
56 14 1
64 14 1
65 14 1
5 15 1
10 15 1
45 15 1
48 15 1
55 15 1
57 15 1
65 15 1
66 15 1
1 16 1
6 16 1
46 16 1
49 16 1
56 16 1
58 16 1
66 16 1
67 16 1
2 17 1
7 17 1
47 17 1
50 17 1
57 17 1
59 17 1
67 17 1
68 17 1
3 18 1
8 18 1
41 18 1
48 18 1
58 18 1
60 18 1
68 18 1
69 18 1
4 19 1
9 19 1
42 19 1
49 19 1
51 19 1
59 19 1
69 19 1
70 19 1
5 20 1
10 20 1
43 20 1
50 20 1
52 20 1
60 20 1
61 20 1
70 20 1
11 21 1
16 21 1
41 21 1
45 21 1
71 21 1
73 21 1
81 21 1
82 21 1
12 22 1
17 22 1
42 22 1
46 22 1
72 22 1
74 22 1
82 22 1
83 22 1
13 23 1
18 23 1
43 23 1
47 23 1
73 23 1
75 23 1
83 23 1
84 23 1
14 24 1
19 24 1
44 24 1
48 24 1
74 24 1
76 24 1
84 24 1
85 24 1
15 25 1
20 25 1
45 25 1
49 25 1
75 25 1
77 25 1
85 25 1
86 25 1
11 26 1
16 26 1
46 26 1
50 26 1
76 26 1
78 26 1
86 26 1
87 26 1
12 27 1
17 27 1
41 27 1
47 27 1
77 27 1
79 27 1
87 27 1
88 27 1
13 28 1
18 28 1
42 28 1
48 28 1
78 28 1
80 28 1
88 28 1
89 28 1
14 29 1
19 29 1
43 29 1
49 29 1
71 29 1
79 29 1
89 29 1
90 29 1
15 30 1
20 30 1
44 30 1
50 30 1
72 30 1
80 30 1
81 30 1
90 30 1
21 31 1
26 31 1
51 31 1
55 31 1
71 31 1
74 31 1
91 31 1
92 31 1
22 32 1
27 32 1
52 32 1
56 32 1
72 32 1
75 32 1
92 32 1
93 32 1
23 33 1
28 33 1
53 33 1
57 33 1
73 33 1
76 33 1
93 33 1
94 33 1
24 34 1
29 34 1
54 34 1
58 34 1
74 34 1
77 34 1
94 34 1
95 34 1
25 35 1
30 35 1
55 35 1
59 35 1
75 35 1
78 35 1
95 35 1
96 35 1
21 36 1
26 36 1
56 36 1
60 36 1
76 36 1
79 36 1
96 36 1
97 36 1
22 37 1
27 37 1
51 37 1
57 37 1
77 37 1
80 37 1
97 37 1
98 37 1
23 38 1
28 38 1
52 38 1
58 38 1
71 38 1
78 38 1
98 38 1
99 38 1
24 39 1
29 39 1
53 39 1
59 39 1
72 39 1
79 39 1
99 39 1
100 39 1
25 40 1
30 40 1
54 40 1
60 40 1
73 40 1
80 40 1
91 40 1
100 40 1
31 41 1
36 41 1
61 41 1
65 41 1
81 41 1
84 41 1
91 41 1
93 41 1
32 42 1
37 42 1
62 42 1
66 42 1
82 42 1
85 42 1
92 42 1
94 42 1
33 43 1
38 43 1
63 43 1
67 43 1
83 43 1
86 43 1
93 43 1
95 43 1
34 44 1
39 44 1
64 44 1
68 44 1
84 44 1
87 44 1
94 44 1
96 44 1
35 45 1
40 45 1
65 45 1
69 45 1
85 45 1
88 45 1
95 45 1
97 45 1
31 46 1
36 46 1
66 46 1
70 46 1
86 46 1
89 46 1
96 46 1
98 46 1
32 47 1
37 47 1
61 47 1
67 47 1
87 47 1
90 47 1
97 47 1
99 47 1
33 48 1
38 48 1
62 48 1
68 48 1
81 48 1
88 48 1
98 48 1
100 48 1
34 49 1
39 49 1
63 49 1
69 49 1
82 49 1
89 49 1
91 49 1
99 49 1
35 50 1
40 50 1
64 50 1
70 50 1
83 50 1
90 50 1
92 50 1
100 50 1
1 51 1
7 51 1
101 51 1
104 51 1
111 51 1
113 51 1
121 51 1
122 51 1
2 52 1
8 52 1
102 52 1
105 52 1
112 52 1
114 52 1
122 52 1
123 52 1
3 53 1
9 53 1
103 53 1
106 53 1
113 53 1
115 53 1
123 53 1
124 53 1
4 54 1
10 54 1
104 54 1
107 54 1
114 54 1
116 54 1
124 54 1
125 54 1
1 55 1
5 55 1
105 55 1
108 55 1
115 55 1
117 55 1
125 55 1
126 55 1
2 56 1
6 56 1
106 56 1
109 56 1
116 56 1
118 56 1
126 56 1
127 56 1
3 57 1
7 57 1
107 57 1
110 57 1
117 57 1
119 57 1
127 57 1
128 57 1
4 58 1
8 58 1
101 58 1
108 58 1
118 58 1
120 58 1
128 58 1
129 58 1
5 59 1
9 59 1
102 59 1
109 59 1
111 59 1
119 59 1
129 59 1
130 59 1
6 60 1
10 60 1
103 60 1
110 60 1
112 60 1
120 60 1
121 60 1
130 60 1
11 61 1
17 61 1
101 61 1
105 61 1
131 61 1
133 61 1
141 61 1
142 61 1
12 62 1
18 62 1
102 62 1
106 62 1
132 62 1
134 62 1
142 62 1
143 62 1
13 63 1
19 63 1
103 63 1
107 63 1
133 63 1
135 63 1
143 63 1
144 63 1
14 64 1
20 64 1
104 64 1
108 64 1
134 64 1
136 64 1
144 64 1
145 64 1
11 65 1
15 65 1
105 65 1
109 65 1
135 65 1
137 65 1
145 65 1
146 65 1
12 66 1
16 66 1
106 66 1
110 66 1
136 66 1
138 66 1
146 66 1
147 66 1
13 67 1
17 67 1
101 67 1
107 67 1
137 67 1
139 67 1
147 67 1
148 67 1
14 68 1
18 68 1
102 68 1
108 68 1
138 68 1
140 68 1
148 68 1
149 68 1
15 69 1
19 69 1
103 69 1
109 69 1
131 69 1
139 69 1
149 69 1
150 69 1
16 70 1
20 70 1
104 70 1
110 70 1
132 70 1
140 70 1
141 70 1
150 70 1
21 71 1
27 71 1
111 71 1
115 71 1
131 71 1
134 71 1
151 71 1
152 71 1
22 72 1
28 72 1
112 72 1
116 72 1
132 72 1
135 72 1
152 72 1
153 72 1
23 73 1
29 73 1
113 73 1
117 73 1
133 73 1
136 73 1
153 73 1
154 73 1
24 74 1
30 74 1
114 74 1
118 74 1
134 74 1
137 74 1
154 74 1
155 74 1
21 75 1
25 75 1
115 75 1
119 75 1
135 75 1
138 75 1
155 75 1
156 75 1
22 76 1
26 76 1
116 76 1
120 76 1
136 76 1
139 76 1
156 76 1
157 76 1
23 77 1
27 77 1
111 77 1
117 77 1
137 77 1
140 77 1
157 77 1
158 77 1
24 78 1
28 78 1
112 78 1
118 78 1
131 78 1
138 78 1
158 78 1
159 78 1
25 79 1
29 79 1
113 79 1
119 79 1
132 79 1
139 79 1
159 79 1
160 79 1
26 80 1
30 80 1
114 80 1
120 80 1
133 80 1
140 80 1
151 80 1
160 80 1
31 81 1
37 81 1
121 81 1
125 81 1
141 81 1
144 81 1
151 81 1
153 81 1
32 82 1
38 82 1
122 82 1
126 82 1
142 82 1
145 82 1
152 82 1
154 82 1
33 83 1
39 83 1
123 83 1
127 83 1
143 83 1
146 83 1
153 83 1
155 83 1
34 84 1
40 84 1
124 84 1
128 84 1
144 84 1
147 84 1
154 84 1
156 84 1
31 85 1
35 85 1
125 85 1
129 85 1
145 85 1
148 85 1
155 85 1
157 85 1
32 86 1
36 86 1
126 86 1
130 86 1
146 86 1
149 86 1
156 86 1
158 86 1
33 87 1
37 87 1
121 87 1
127 87 1
147 87 1
150 87 1
157 87 1
159 87 1
34 88 1
38 88 1
122 88 1
128 88 1
141 88 1
148 88 1
158 88 1
160 88 1
35 89 1
39 89 1
123 89 1
129 89 1
142 89 1
149 89 1
151 89 1
159 89 1
36 90 1
40 90 1
124 90 1
130 90 1
143 90 1
150 90 1
152 90 1
160 90 1
41 91 1
47 91 1
101 91 1
106 91 1
161 91 1
163 91 1
171 91 1
172 91 1
42 92 1
48 92 1
102 92 1
107 92 1
162 92 1
164 92 1
172 92 1
173 92 1
43 93 1
49 93 1
103 93 1
108 93 1
163 93 1
165 93 1
173 93 1
174 93 1
44 94 1
50 94 1
104 94 1
109 94 1
164 94 1
166 94 1
174 94 1
175 94 1
41 95 1
45 95 1
105 95 1
110 95 1
165 95 1
167 95 1
175 95 1
176 95 1
42 96 1
46 96 1
101 96 1
106 96 1
166 96 1
168 96 1
176 96 1
177 96 1
43 97 1
47 97 1
102 97 1
107 97 1
167 97 1
169 97 1
177 97 1
178 97 1
44 98 1
48 98 1
103 98 1
108 98 1
168 98 1
170 98 1
178 98 1
179 98 1
45 99 1
49 99 1
104 99 1
109 99 1
161 99 1
169 99 1
179 99 1
180 99 1
46 100 1
50 100 1
105 100 1
110 100 1
162 100 1
170 100 1
171 100 1
180 100 1
51 101 1
57 101 1
111 101 1
116 101 1
161 101 1
164 101 1
181 101 1
182 101 1
52 102 1
58 102 1
112 102 1
117 102 1
162 102 1
165 102 1
182 102 1
183 102 1
53 103 1
59 103 1
113 103 1
118 103 1
163 103 1
166 103 1
183 103 1
184 103 1
54 104 1
60 104 1
114 104 1
119 104 1
164 104 1
167 104 1
184 104 1
185 104 1
51 105 1
55 105 1
115 105 1
120 105 1
165 105 1
168 105 1
185 105 1
186 105 1
52 106 1
56 106 1
111 106 1
116 106 1
166 106 1
169 106 1
186 106 1
187 106 1
53 107 1
57 107 1
112 107 1
117 107 1
167 107 1
170 107 1
187 107 1
188 107 1
54 108 1
58 108 1
113 108 1
118 108 1
161 108 1
168 108 1
188 108 1
189 108 1
55 109 1
59 109 1
114 109 1
119 109 1
162 109 1
169 109 1
189 109 1
190 109 1
56 110 1
60 110 1
115 110 1
120 110 1
163 110 1
170 110 1
181 110 1
190 110 1
61 111 1
67 111 1
121 111 1
126 111 1
171 111 1
174 111 1
181 111 1
183 111 1
62 112 1
68 112 1
122 112 1
127 112 1
172 112 1
175 112 1
182 112 1
184 112 1
63 113 1
69 113 1
123 113 1
128 113 1
173 113 1
176 113 1
183 113 1
185 113 1
64 114 1
70 114 1
124 114 1
129 114 1
174 114 1
177 114 1
184 114 1
186 114 1
61 115 1
65 115 1
125 115 1
130 115 1
175 115 1
178 115 1
185 115 1
187 115 1
62 116 1
66 116 1
121 116 1
126 116 1
176 116 1
179 116 1
186 116 1
188 116 1
63 117 1
67 117 1
122 117 1
127 117 1
177 117 1
180 117 1
187 117 1
189 117 1
64 118 1
68 118 1
123 118 1
128 118 1
171 118 1
178 118 1
188 118 1
190 118 1
65 119 1
69 119 1
124 119 1
129 119 1
172 119 1
179 119 1
181 119 1
189 119 1
66 120 1
70 120 1
125 120 1
130 120 1
173 120 1
180 120 1
182 120 1
190 120 1
71 121 1
77 121 1
131 121 1
136 121 1
161 121 1
165 121 1
191 121 1
192 121 1
72 122 1
78 122 1
132 122 1
137 122 1
162 122 1
166 122 1
192 122 1
193 122 1
73 123 1
79 123 1
133 123 1
138 123 1
163 123 1
167 123 1
193 123 1
194 123 1
74 124 1
80 124 1
134 124 1
139 124 1
164 124 1
168 124 1
194 124 1
195 124 1
71 125 1
75 125 1
135 125 1
140 125 1
165 125 1
169 125 1
195 125 1
196 125 1
72 126 1
76 126 1
131 126 1
136 126 1
166 126 1
170 126 1
196 126 1
197 126 1
73 127 1
77 127 1
132 127 1
137 127 1
161 127 1
167 127 1
197 127 1
198 127 1
74 128 1
78 128 1
133 128 1
138 128 1
162 128 1
168 128 1
198 128 1
199 128 1
75 129 1
79 129 1
134 129 1
139 129 1
163 129 1
169 129 1
199 129 1
200 129 1
76 130 1
80 130 1
135 130 1
140 130 1
164 130 1
170 130 1
191 130 1
200 130 1
81 131 1
87 131 1
141 131 1
146 131 1
171 131 1
175 131 1
191 131 1
193 131 1
82 132 1
88 132 1
142 132 1
147 132 1
172 132 1
176 132 1
192 132 1
194 132 1
83 133 1
89 133 1
143 133 1
148 133 1
173 133 1
177 133 1
193 133 1
195 133 1
84 134 1
90 134 1
144 134 1
149 134 1
174 134 1
178 134 1
194 134 1
196 134 1
81 135 1
85 135 1
145 135 1
150 135 1
175 135 1
179 135 1
195 135 1
197 135 1
82 136 1
86 136 1
141 136 1
146 136 1
176 136 1
180 136 1
196 136 1
198 136 1
83 137 1
87 137 1
142 137 1
147 137 1
171 137 1
177 137 1
197 137 1
199 137 1
84 138 1
88 138 1
143 138 1
148 138 1
172 138 1
178 138 1
198 138 1
200 138 1
85 139 1
89 139 1
144 139 1
149 139 1
173 139 1
179 139 1
191 139 1
199 139 1
86 140 1
90 140 1
145 140 1
150 140 1
174 140 1
180 140 1
192 140 1
200 140 1
91 141 1
97 141 1
151 141 1
156 141 1
181 141 1
185 141 1
191 141 1
194 141 1
92 142 1
98 142 1
152 142 1
157 142 1
182 142 1
186 142 1
192 142 1
195 142 1
93 143 1
99 143 1
153 143 1
158 143 1
183 143 1
187 143 1
193 143 1
196 143 1
94 144 1
100 144 1
154 144 1
159 144 1
184 144 1
188 144 1
194 144 1
197 144 1
91 145 1
95 145 1
155 145 1
160 145 1
185 145 1
189 145 1
195 145 1
198 145 1
92 146 1
96 146 1
151 146 1
156 146 1
186 146 1
190 146 1
196 146 1
199 146 1
93 147 1
97 147 1
152 147 1
157 147 1
181 147 1
187 147 1
197 147 1
200 147 1
94 148 1
98 148 1
153 148 1
158 148 1
182 148 1
188 148 1
191 148 1
198 148 1
95 149 1
99 149 1
154 149 1
159 149 1
183 149 1
189 149 1
192 149 1
199 149 1
96 150 1
100 150 1
155 150 1
160 150 1
184 150 1
190 150 1
193 150 1
200 150 1
1 151 1
8 151 1
201 151 1
204 151 1
211 151 1
213 151 1
221 151 1
222 151 1
2 152 1
9 152 1
202 152 1
205 152 1
212 152 1
214 152 1
222 152 1
223 152 1
3 153 1
10 153 1
203 153 1
206 153 1
213 153 1
215 153 1
223 153 1
224 153 1
1 154 1
4 154 1
204 154 1
207 154 1
214 154 1
216 154 1
224 154 1
225 154 1
2 155 1
5 155 1
205 155 1
208 155 1
215 155 1
217 155 1
225 155 1
226 155 1
3 156 1
6 156 1
206 156 1
209 156 1
216 156 1
218 156 1
226 156 1
227 156 1
4 157 1
7 157 1
207 157 1
210 157 1
217 157 1
219 157 1
227 157 1
228 157 1
5 158 1
8 158 1
201 158 1
208 158 1
218 158 1
220 158 1
228 158 1
229 158 1
6 159 1
9 159 1
202 159 1
209 159 1
211 159 1
219 159 1
229 159 1
230 159 1
7 160 1
10 160 1
203 160 1
210 160 1
212 160 1
220 160 1
221 160 1
230 160 1
11 161 1
18 161 1
201 161 1
205 161 1
231 161 1
233 161 1
241 161 1
242 161 1
12 162 1
19 162 1
202 162 1
206 162 1
232 162 1
234 162 1
242 162 1
243 162 1
13 163 1
20 163 1
203 163 1
207 163 1
233 163 1
235 163 1
243 163 1
244 163 1
11 164 1
14 164 1
204 164 1
208 164 1
234 164 1
236 164 1
244 164 1
245 164 1
12 165 1
15 165 1
205 165 1
209 165 1
235 165 1
237 165 1
245 165 1
246 165 1
13 166 1
16 166 1
206 166 1
210 166 1
236 166 1
238 166 1
246 166 1
247 166 1
14 167 1
17 167 1
201 167 1
207 167 1
237 167 1
239 167 1
247 167 1
248 167 1
15 168 1
18 168 1
202 168 1
208 168 1
238 168 1
240 168 1
248 168 1
249 168 1
16 169 1
19 169 1
203 169 1
209 169 1
231 169 1
239 169 1
249 169 1
250 169 1
17 170 1
20 170 1
204 170 1
210 170 1
232 170 1
240 170 1
241 170 1
250 170 1
21 171 1
28 171 1
211 171 1
215 171 1
231 171 1
234 171 1
251 171 1
252 171 1
22 172 1
29 172 1
212 172 1
216 172 1
232 172 1
235 172 1
252 172 1
253 172 1
23 173 1
30 173 1
213 173 1
217 173 1
233 173 1
236 173 1
253 173 1
254 173 1
21 174 1
24 174 1
214 174 1
218 174 1
234 174 1
237 174 1
254 174 1
255 174 1
22 175 1
25 175 1
215 175 1
219 175 1
235 175 1
238 175 1
255 175 1
256 175 1
23 176 1
26 176 1
216 176 1
220 176 1
236 176 1
239 176 1
256 176 1
257 176 1
24 177 1
27 177 1
211 177 1
217 177 1
237 177 1
240 177 1
257 177 1
258 177 1
25 178 1
28 178 1
212 178 1
218 178 1
231 178 1
238 178 1
258 178 1
259 178 1
26 179 1
29 179 1
213 179 1
219 179 1
232 179 1
239 179 1
259 179 1
260 179 1
27 180 1
30 180 1
214 180 1
220 180 1
233 180 1
240 180 1
251 180 1
260 180 1
31 181 1
38 181 1
221 181 1
225 181 1
241 181 1
244 181 1
251 181 1
253 181 1
32 182 1
39 182 1
222 182 1
226 182 1
242 182 1
245 182 1
252 182 1
254 182 1
33 183 1
40 183 1
223 183 1
227 183 1
243 183 1
246 183 1
253 183 1
255 183 1
31 184 1
34 184 1
224 184 1
228 184 1
244 184 1
247 184 1
254 184 1
256 184 1
32 185 1
35 185 1
225 185 1
229 185 1
245 185 1
248 185 1
255 185 1
257 185 1
33 186 1
36 186 1
226 186 1
230 186 1
246 186 1
249 186 1
256 186 1
258 186 1
34 187 1
37 187 1
221 187 1
227 187 1
247 187 1
250 187 1
257 187 1
259 187 1
35 188 1
38 188 1
222 188 1
228 188 1
241 188 1
248 188 1
258 188 1
260 188 1
36 189 1
39 189 1
223 189 1
229 189 1
242 189 1
249 189 1
251 189 1
259 189 1
37 190 1
40 190 1
224 190 1
230 190 1
243 190 1
250 190 1
252 190 1
260 190 1
41 191 1
48 191 1
201 191 1
206 191 1
261 191 1
263 191 1
271 191 1
272 191 1
42 192 1
49 192 1
202 192 1
207 192 1
262 192 1
264 192 1
272 192 1
273 192 1
43 193 1
50 193 1
203 193 1
208 193 1
263 193 1
265 193 1
273 193 1
274 193 1
41 194 1
44 194 1
204 194 1
209 194 1
264 194 1
266 194 1
274 194 1
275 194 1
42 195 1
45 195 1
205 195 1
210 195 1
265 195 1
267 195 1
275 195 1
276 195 1
43 196 1
46 196 1
201 196 1
206 196 1
266 196 1
268 196 1
276 196 1
277 196 1
44 197 1
47 197 1
202 197 1
207 197 1
267 197 1
269 197 1
277 197 1
278 197 1
45 198 1
48 198 1
203 198 1
208 198 1
268 198 1
270 198 1
278 198 1
279 198 1
46 199 1
49 199 1
204 199 1
209 199 1
261 199 1
269 199 1
279 199 1
280 199 1
47 200 1
50 200 1
205 200 1
210 200 1
262 200 1
270 200 1
271 200 1
280 200 1
51 201 1
58 201 1
211 201 1
216 201 1
261 201 1
264 201 1
281 201 1
282 201 1
52 202 1
59 202 1
212 202 1
217 202 1
262 202 1
265 202 1
282 202 1
283 202 1
53 203 1
60 203 1
213 203 1
218 203 1
263 203 1
266 203 1
283 203 1
284 203 1
51 204 1
54 204 1
214 204 1
219 204 1
264 204 1
267 204 1
284 204 1
285 204 1
52 205 1
55 205 1
215 205 1
220 205 1
265 205 1
268 205 1
285 205 1
286 205 1
53 206 1
56 206 1
211 206 1
216 206 1
266 206 1
269 206 1
286 206 1
287 206 1
54 207 1
57 207 1
212 207 1
217 207 1
267 207 1
270 207 1
287 207 1
288 207 1
55 208 1
58 208 1
213 208 1
218 208 1
261 208 1
268 208 1
288 208 1
289 208 1
56 209 1
59 209 1
214 209 1
219 209 1
262 209 1
269 209 1
289 209 1
290 209 1
57 210 1
60 210 1
215 210 1
220 210 1
263 210 1
270 210 1
281 210 1
290 210 1
61 211 1
68 211 1
221 211 1
226 211 1
271 211 1
274 211 1
281 211 1
283 211 1
62 212 1
69 212 1
222 212 1
227 212 1
272 212 1
275 212 1
282 212 1
284 212 1
63 213 1
70 213 1
223 213 1
228 213 1
273 213 1
276 213 1
283 213 1
285 213 1
61 214 1
64 214 1
224 214 1
229 214 1
274 214 1
277 214 1
284 214 1
286 214 1
62 215 1
65 215 1
225 215 1
230 215 1
275 215 1
278 215 1
285 215 1
287 215 1
63 216 1
66 216 1
221 216 1
226 216 1
276 216 1
279 216 1
286 216 1
288 216 1
64 217 1
67 217 1
222 217 1
227 217 1
277 217 1
280 217 1
287 217 1
289 217 1
65 218 1
68 218 1
223 218 1
228 218 1
271 218 1
278 218 1
288 218 1
290 218 1
66 219 1
69 219 1
224 219 1
229 219 1
272 219 1
279 219 1
281 219 1
289 219 1
67 220 1
70 220 1
225 220 1
230 220 1
273 220 1
280 220 1
282 220 1
290 220 1
71 221 1
78 221 1
231 221 1
236 221 1
261 221 1
265 221 1
291 221 1
292 221 1
72 222 1
79 222 1
232 222 1
237 222 1
262 222 1
266 222 1
292 222 1
293 222 1
73 223 1
80 223 1
233 223 1
238 223 1
263 223 1
267 223 1
293 223 1
294 223 1
71 224 1
74 224 1
234 224 1
239 224 1
264 224 1
268 224 1
294 224 1
295 224 1
72 225 1
75 225 1
235 225 1
240 225 1
265 225 1
269 225 1
295 225 1
296 225 1
73 226 1
76 226 1
231 226 1
236 226 1
266 226 1
270 226 1
296 226 1
297 226 1
74 227 1
77 227 1
232 227 1
237 227 1
261 227 1
267 227 1
297 227 1
298 227 1
75 228 1
78 228 1
233 228 1
238 228 1
262 228 1
268 228 1
298 228 1
299 228 1
76 229 1
79 229 1
234 229 1
239 229 1
263 229 1
269 229 1
299 229 1
300 229 1
77 230 1
80 230 1
235 230 1
240 230 1
264 230 1
270 230 1
291 230 1
300 230 1
81 231 1
88 231 1
241 231 1
246 231 1
271 231 1
275 231 1
291 231 1
293 231 1
82 232 1
89 232 1
242 232 1
247 232 1
272 232 1
276 232 1
292 232 1
294 232 1
83 233 1
90 233 1
243 233 1
248 233 1
273 233 1
277 233 1
293 233 1
295 233 1
81 234 1
84 234 1
244 234 1
249 234 1
274 234 1
278 234 1
294 234 1
296 234 1
82 235 1
85 235 1
245 235 1
250 235 1
275 235 1
279 235 1
295 235 1
297 235 1
83 236 1
86 236 1
241 236 1
246 236 1
276 236 1
280 236 1
296 236 1
298 236 1
84 237 1
87 237 1
242 237 1
247 237 1
271 237 1
277 237 1
297 237 1
299 237 1
85 238 1
88 238 1
243 238 1
248 238 1
272 238 1
278 238 1
298 238 1
300 238 1
86 239 1
89 239 1
244 239 1
249 239 1
273 239 1
279 239 1
291 239 1
299 239 1
87 240 1
90 240 1
245 240 1
250 240 1
274 240 1
280 240 1
292 240 1
300 240 1
91 241 1
98 241 1
251 241 1
256 241 1
281 241 1
285 241 1
291 241 1
294 241 1
92 242 1
99 242 1
252 242 1
257 242 1
282 242 1
286 242 1
292 242 1
295 242 1
93 243 1
100 243 1
253 243 1
258 243 1
283 243 1
287 243 1
293 243 1
296 243 1
91 244 1
94 244 1
254 244 1
259 244 1
284 244 1
288 244 1
294 244 1
297 244 1
92 245 1
95 245 1
255 245 1
260 245 1
285 245 1
289 245 1
295 245 1
298 245 1
93 246 1
96 246 1
251 246 1
256 246 1
286 246 1
290 246 1
296 246 1
299 246 1
94 247 1
97 247 1
252 247 1
257 247 1
281 247 1
287 247 1
297 247 1
300 247 1
95 248 1
98 248 1
253 248 1
258 248 1
282 248 1
288 248 1
291 248 1
298 248 1
96 249 1
99 249 1
254 249 1
259 249 1
283 249 1
289 249 1
292 249 1
299 249 1
97 250 1
100 250 1
255 250 1
260 250 1
284 250 1
290 250 1
293 250 1
300 250 1
101 251 1
108 251 1
201 251 1
207 251 1
301 251 1
303 251 1
311 251 1
312 251 1
102 252 1
109 252 1
202 252 1
208 252 1
302 252 1
304 252 1
312 252 1
313 252 1
103 253 1
110 253 1
203 253 1
209 253 1
303 253 1
305 253 1
313 253 1
314 253 1
101 254 1
104 254 1
204 254 1
210 254 1
304 254 1
306 254 1
314 254 1
315 254 1
102 255 1
105 255 1
201 255 1
205 255 1
305 255 1
307 255 1
315 255 1
316 255 1
103 256 1
106 256 1
202 256 1
206 256 1
306 256 1
308 256 1
316 256 1
317 256 1
104 257 1
107 257 1
203 257 1
207 257 1
307 257 1
309 257 1
317 257 1
318 257 1
105 258 1
108 258 1
204 258 1
208 258 1
308 258 1
310 258 1
318 258 1
319 258 1
106 259 1
109 259 1
205 259 1
209 259 1
301 259 1
309 259 1
319 259 1
320 259 1
107 260 1
110 260 1
206 260 1
210 260 1
302 260 1
310 260 1
311 260 1
320 260 1
111 261 1
118 261 1
211 261 1
217 261 1
301 261 1
304 261 1
321 261 1
322 261 1
112 262 1
119 262 1
212 262 1
218 262 1
302 262 1
305 262 1
322 262 1
323 262 1
113 263 1
120 263 1
213 263 1
219 263 1
303 263 1
306 263 1
323 263 1
324 263 1
111 264 1
114 264 1
214 264 1
220 264 1
304 264 1
307 264 1
324 264 1
325 264 1
112 265 1
115 265 1
211 265 1
215 265 1
305 265 1
308 265 1
325 265 1
326 265 1
113 266 1
116 266 1
212 266 1
216 266 1
306 266 1
309 266 1
326 266 1
327 266 1
114 267 1
117 267 1
213 267 1
217 267 1
307 267 1
310 267 1
327 267 1
328 267 1
115 268 1
118 268 1
214 268 1
218 268 1
301 268 1
308 268 1
328 268 1
329 268 1
116 269 1
119 269 1
215 269 1
219 269 1
302 269 1
309 269 1
329 269 1
330 269 1
117 270 1
120 270 1
216 270 1
220 270 1
303 270 1
310 270 1
321 270 1
330 270 1
121 271 1
128 271 1
221 271 1
227 271 1
311 271 1
314 271 1
321 271 1
323 271 1
122 272 1
129 272 1
222 272 1
228 272 1
312 272 1
315 272 1
322 272 1
324 272 1
123 273 1
130 273 1
223 273 1
229 273 1
313 273 1
316 273 1
323 273 1
325 273 1
121 274 1
124 274 1
224 274 1
230 274 1
314 274 1
317 274 1
324 274 1
326 274 1
122 275 1
125 275 1
221 275 1
225 275 1
315 275 1
318 275 1
325 275 1
327 275 1
123 276 1
126 276 1
222 276 1
226 276 1
316 276 1
319 276 1
326 276 1
328 276 1
124 277 1
127 277 1
223 277 1
227 277 1
317 277 1
320 277 1
327 277 1
329 277 1
125 278 1
128 278 1
224 278 1
228 278 1
311 278 1
318 278 1
328 278 1
330 278 1
126 279 1
129 279 1
225 279 1
229 279 1
312 279 1
319 279 1
321 279 1
329 279 1
127 280 1
130 280 1
226 280 1
230 280 1
313 280 1
320 280 1
322 280 1
330 280 1
131 281 1
138 281 1
231 281 1
237 281 1
301 281 1
305 281 1
331 281 1
332 281 1
132 282 1
139 282 1
232 282 1
238 282 1
302 282 1
306 282 1
332 282 1
333 282 1
133 283 1
140 283 1
233 283 1
239 283 1
303 283 1
307 283 1
333 283 1
334 283 1
131 284 1
134 284 1
234 284 1
240 284 1
304 284 1
308 284 1
334 284 1
335 284 1
132 285 1
135 285 1
231 285 1
235 285 1
305 285 1
309 285 1
335 285 1
336 285 1
133 286 1
136 286 1
232 286 1
236 286 1
306 286 1
310 286 1
336 286 1
337 286 1
134 287 1
137 287 1
233 287 1
237 287 1
301 287 1
307 287 1
337 287 1
338 287 1
135 288 1
138 288 1
234 288 1
238 288 1
302 288 1
308 288 1
338 288 1
339 288 1
136 289 1
139 289 1
235 289 1
239 289 1
303 289 1
309 289 1
339 289 1
340 289 1
137 290 1
140 290 1
236 290 1
240 290 1
304 290 1
310 290 1
331 290 1
340 290 1
141 291 1
148 291 1
241 291 1
247 291 1
311 291 1
315 291 1
331 291 1
333 291 1
142 292 1
149 292 1
242 292 1
248 292 1
312 292 1
316 292 1
332 292 1
334 292 1
143 293 1
150 293 1
243 293 1
249 293 1
313 293 1
317 293 1
333 293 1
335 293 1
141 294 1
144 294 1
244 294 1
250 294 1
314 294 1
318 294 1
334 294 1
336 294 1
142 295 1
145 295 1
241 295 1
245 295 1
315 295 1
319 295 1
335 295 1
337 295 1
143 296 1
146 296 1
242 296 1
246 296 1
316 296 1
320 296 1
336 296 1
338 296 1
144 297 1
147 297 1
243 297 1
247 297 1
311 297 1
317 297 1
337 297 1
339 297 1
145 298 1
148 298 1
244 298 1
248 298 1
312 298 1
318 298 1
338 298 1
340 298 1
146 299 1
149 299 1
245 299 1
249 299 1
313 299 1
319 299 1
331 299 1
339 299 1
147 300 1
150 300 1
246 300 1
250 300 1
314 300 1
320 300 1
332 300 1
340 300 1
151 301 1
158 301 1
251 301 1
257 301 1
321 301 1
325 301 1
331 301 1
334 301 1
152 302 1
159 302 1
252 302 1
258 302 1
322 302 1
326 302 1
332 302 1
335 302 1
153 303 1
160 303 1
253 303 1
259 303 1
323 303 1
327 303 1
333 303 1
336 303 1
151 304 1
154 304 1
254 304 1
260 304 1
324 304 1
328 304 1
334 304 1
337 304 1
152 305 1
155 305 1
251 305 1
255 305 1
325 305 1
329 305 1
335 305 1
338 305 1
153 306 1
156 306 1
252 306 1
256 306 1
326 306 1
330 306 1
336 306 1
339 306 1
154 307 1
157 307 1
253 307 1
257 307 1
321 307 1
327 307 1
337 307 1
340 307 1
155 308 1
158 308 1
254 308 1
258 308 1
322 308 1
328 308 1
331 308 1
338 308 1
156 309 1
159 309 1
255 309 1
259 309 1
323 309 1
329 309 1
332 309 1
339 309 1
157 310 1
160 310 1
256 310 1
260 310 1
324 310 1
330 310 1
333 310 1
340 310 1
161 311 1
168 311 1
261 311 1
267 311 1
301 311 1
306 311 1
341 311 1
342 311 1
162 312 1
169 312 1
262 312 1
268 312 1
302 312 1
307 312 1
342 312 1
343 312 1
163 313 1
170 313 1
263 313 1
269 313 1
303 313 1
308 313 1
343 313 1
344 313 1
161 314 1
164 314 1
264 314 1
270 314 1
304 314 1
309 314 1
344 314 1
345 314 1
162 315 1
165 315 1
261 315 1
265 315 1
305 315 1
310 315 1
345 315 1
346 315 1
163 316 1
166 316 1
262 316 1
266 316 1
301 316 1
306 316 1
346 316 1
347 316 1
164 317 1
167 317 1
263 317 1
267 317 1
302 317 1
307 317 1
347 317 1
348 317 1
165 318 1
168 318 1
264 318 1
268 318 1
303 318 1
308 318 1
348 318 1
349 318 1
166 319 1
169 319 1
265 319 1
269 319 1
304 319 1
309 319 1
349 319 1
350 319 1
167 320 1
170 320 1
266 320 1
270 320 1
305 320 1
310 320 1
341 320 1
350 320 1
171 321 1
178 321 1
271 321 1
277 321 1
311 321 1
316 321 1
341 321 1
343 321 1
172 322 1
179 322 1
272 322 1
278 322 1
312 322 1
317 322 1
342 322 1
344 322 1
173 323 1
180 323 1
273 323 1
279 323 1
313 323 1
318 323 1
343 323 1
345 323 1
171 324 1
174 324 1
274 324 1
280 324 1
314 324 1
319 324 1
344 324 1
346 324 1
172 325 1
175 325 1
271 325 1
275 325 1
315 325 1
320 325 1
345 325 1
347 325 1
173 326 1
176 326 1
272 326 1
276 326 1
311 326 1
316 326 1
346 326 1
348 326 1
174 327 1
177 327 1
273 327 1
277 327 1
312 327 1
317 327 1
347 327 1
349 327 1
175 328 1
178 328 1
274 328 1
278 328 1
313 328 1
318 328 1
348 328 1
350 328 1
176 329 1
179 329 1
275 329 1
279 329 1
314 329 1
319 329 1
341 329 1
349 329 1
177 330 1
180 330 1
276 330 1
280 330 1
315 330 1
320 330 1
342 330 1
350 330 1
181 331 1
188 331 1
281 331 1
287 331 1
321 331 1
326 331 1
341 331 1
344 331 1
182 332 1
189 332 1
282 332 1
288 332 1
322 332 1
327 332 1
342 332 1
345 332 1
183 333 1
190 333 1
283 333 1
289 333 1
323 333 1
328 333 1
343 333 1
346 333 1
181 334 1
184 334 1
284 334 1
290 334 1
324 334 1
329 334 1
344 334 1
347 334 1
182 335 1
185 335 1
281 335 1
285 335 1
325 335 1
330 335 1
345 335 1
348 335 1
183 336 1
186 336 1
282 336 1
286 336 1
321 336 1
326 336 1
346 336 1
349 336 1
184 337 1
187 337 1
283 337 1
287 337 1
322 337 1
327 337 1
347 337 1
350 337 1
185 338 1
188 338 1
284 338 1
288 338 1
323 338 1
328 338 1
341 338 1
348 338 1
186 339 1
189 339 1
285 339 1
289 339 1
324 339 1
329 339 1
342 339 1
349 339 1
187 340 1
190 340 1
286 340 1
290 340 1
325 340 1
330 340 1
343 340 1
350 340 1
191 341 1
198 341 1
291 341 1
297 341 1
331 341 1
336 341 1
341 341 1
345 341 1
192 342 1
199 342 1
292 342 1
298 342 1
332 342 1
337 342 1
342 342 1
346 342 1
193 343 1
200 343 1
293 343 1
299 343 1
333 343 1
338 343 1
343 343 1
347 343 1
191 344 1
194 344 1
294 344 1
300 344 1
334 344 1
339 344 1
344 344 1
348 344 1
192 345 1
195 345 1
291 345 1
295 345 1
335 345 1
340 345 1
345 345 1
349 345 1
193 346 1
196 346 1
292 346 1
296 346 1
331 346 1
336 346 1
346 346 1
350 346 1
194 347 1
197 347 1
293 347 1
297 347 1
332 347 1
337 347 1
341 347 1
347 347 1
195 348 1
198 348 1
294 348 1
298 348 1
333 348 1
338 348 1
342 348 1
348 348 1
196 349 1
199 349 1
295 349 1
299 349 1
334 349 1
339 349 1
343 349 1
349 349 1
197 350 1
200 350 1
296 350 1
300 350 1
335 350 1
340 350 1
344 350 1
350 350 1
1 351 1
9 351 1
351 351 1
354 351 1
361 351 1
363 351 1
371 351 1
372 351 1
2 352 1
10 352 1
352 352 1
355 352 1
362 352 1
364 352 1
372 352 1
373 352 1
1 353 1
3 353 1
353 353 1
356 353 1
363 353 1
365 353 1
373 353 1
374 353 1
2 354 1
4 354 1
354 354 1
357 354 1
364 354 1
366 354 1
374 354 1
375 354 1
3 355 1
5 355 1
355 355 1
358 355 1
365 355 1
367 355 1
375 355 1
376 355 1
4 356 1
6 356 1
356 356 1
359 356 1
366 356 1
368 356 1
376 356 1
377 356 1
5 357 1
7 357 1
357 357 1
360 357 1
367 357 1
369 357 1
377 357 1
378 357 1
6 358 1
8 358 1
351 358 1
358 358 1
368 358 1
370 358 1
378 358 1
379 358 1
7 359 1
9 359 1
352 359 1
359 359 1
361 359 1
369 359 1
379 359 1
380 359 1
8 360 1
10 360 1
353 360 1
360 360 1
362 360 1
370 360 1
371 360 1
380 360 1
11 361 1
19 361 1
351 361 1
355 361 1
381 361 1
383 361 1
391 361 1
392 361 1
12 362 1
20 362 1
352 362 1
356 362 1
382 362 1
384 362 1
392 362 1
393 362 1
11 363 1
13 363 1
353 363 1
357 363 1
383 363 1
385 363 1
393 363 1
394 363 1
12 364 1
14 364 1
354 364 1
358 364 1
384 364 1
386 364 1
394 364 1
395 364 1
13 365 1
15 365 1
355 365 1
359 365 1
385 365 1
387 365 1
395 365 1
396 365 1
14 366 1
16 366 1
356 366 1
360 366 1
386 366 1
388 366 1
396 366 1
397 366 1
15 367 1
17 367 1
351 367 1
357 367 1
387 367 1
389 367 1
397 367 1
398 367 1
16 368 1
18 368 1
352 368 1
358 368 1
388 368 1
390 368 1
398 368 1
399 368 1
17 369 1
19 369 1
353 369 1
359 369 1
381 369 1
389 369 1
399 369 1
400 369 1
18 370 1
20 370 1
354 370 1
360 370 1
382 370 1
390 370 1
391 370 1
400 370 1
21 371 1
29 371 1
361 371 1
365 371 1
381 371 1
384 371 1
401 371 1
402 371 1
22 372 1
30 372 1
362 372 1
366 372 1
382 372 1
385 372 1
402 372 1
403 372 1
21 373 1
23 373 1
363 373 1
367 373 1
383 373 1
386 373 1
403 373 1
404 373 1
22 374 1
24 374 1
364 374 1
368 374 1
384 374 1
387 374 1
404 374 1
405 374 1
23 375 1
25 375 1
365 375 1
369 375 1
385 375 1
388 375 1
405 375 1
406 375 1
24 376 1
26 376 1
366 376 1
370 376 1
386 376 1
389 376 1
406 376 1
407 376 1
25 377 1
27 377 1
361 377 1
367 377 1
387 377 1
390 377 1
407 377 1
408 377 1
26 378 1
28 378 1
362 378 1
368 378 1
381 378 1
388 378 1
408 378 1
409 378 1
27 379 1
29 379 1
363 379 1
369 379 1
382 379 1
389 379 1
409 379 1
410 379 1
28 380 1
30 380 1
364 380 1
370 380 1
383 380 1
390 380 1
401 380 1
410 380 1
31 381 1
39 381 1
371 381 1
375 381 1
391 381 1
394 381 1
401 381 1
403 381 1
32 382 1
40 382 1
372 382 1
376 382 1
392 382 1
395 382 1
402 382 1
404 382 1
31 383 1
33 383 1
373 383 1
377 383 1
393 383 1
396 383 1
403 383 1
405 383 1
32 384 1
34 384 1
374 384 1
378 384 1
394 384 1
397 384 1
404 384 1
406 384 1
33 385 1
35 385 1
375 385 1
379 385 1
395 385 1
398 385 1
405 385 1
407 385 1
34 386 1
36 386 1
376 386 1
380 386 1
396 386 1
399 386 1
406 386 1
408 386 1
35 387 1
37 387 1
371 387 1
377 387 1
397 387 1
400 387 1
407 387 1
409 387 1
36 388 1
38 388 1
372 388 1
378 388 1
391 388 1
398 388 1
408 388 1
410 388 1
37 389 1
39 389 1
373 389 1
379 389 1
392 389 1
399 389 1
401 389 1
409 389 1
38 390 1
40 390 1
374 390 1
380 390 1
393 390 1
400 390 1
402 390 1
410 390 1
41 391 1
49 391 1
351 391 1
356 391 1
411 391 1
413 391 1
421 391 1
422 391 1
42 392 1
50 392 1
352 392 1
357 392 1
412 392 1
414 392 1
422 392 1
423 392 1
41 393 1
43 393 1
353 393 1
358 393 1
413 393 1
415 393 1
423 393 1
424 393 1
42 394 1
44 394 1
354 394 1
359 394 1
414 394 1
416 394 1
424 394 1
425 394 1
43 395 1
45 395 1
355 395 1
360 395 1
415 395 1
417 395 1
425 395 1
426 395 1
44 396 1
46 396 1
351 396 1
356 396 1
416 396 1
418 396 1
426 396 1
427 396 1
45 397 1
47 397 1
352 397 1
357 397 1
417 397 1
419 397 1
427 397 1
428 397 1
46 398 1
48 398 1
353 398 1
358 398 1
418 398 1
420 398 1
428 398 1
429 398 1
47 399 1
49 399 1
354 399 1
359 399 1
411 399 1
419 399 1
429 399 1
430 399 1
48 400 1
50 400 1
355 400 1
360 400 1
412 400 1
420 400 1
421 400 1
430 400 1
51 401 1
59 401 1
361 401 1
366 401 1
411 401 1
414 401 1
431 401 1
432 401 1
52 402 1
60 402 1
362 402 1
367 402 1
412 402 1
415 402 1
432 402 1
433 402 1
51 403 1
53 403 1
363 403 1
368 403 1
413 403 1
416 403 1
433 403 1
434 403 1
52 404 1
54 404 1
364 404 1
369 404 1
414 404 1
417 404 1
434 404 1
435 404 1
53 405 1
55 405 1
365 405 1
370 405 1
415 405 1
418 405 1
435 405 1
436 405 1
54 406 1
56 406 1
361 406 1
366 406 1
416 406 1
419 406 1
436 406 1
437 406 1
55 407 1
57 407 1
362 407 1
367 407 1
417 407 1
420 407 1
437 407 1
438 407 1
56 408 1
58 408 1
363 408 1
368 408 1
411 408 1
418 408 1
438 408 1
439 408 1
57 409 1
59 409 1
364 409 1
369 409 1
412 409 1
419 409 1
439 409 1
440 409 1
58 410 1
60 410 1
365 410 1
370 410 1
413 410 1
420 410 1
431 410 1
440 410 1
61 411 1
69 411 1
371 411 1
376 411 1
421 411 1
424 411 1
431 411 1
433 411 1
62 412 1
70 412 1
372 412 1
377 412 1
422 412 1
425 412 1
432 412 1
434 412 1
61 413 1
63 413 1
373 413 1
378 413 1
423 413 1
426 413 1
433 413 1
435 413 1
62 414 1
64 414 1
374 414 1
379 414 1
424 414 1
427 414 1
434 414 1
436 414 1
63 415 1
65 415 1
375 415 1
380 415 1
425 415 1
428 415 1
435 415 1
437 415 1
64 416 1
66 416 1
371 416 1
376 416 1
426 416 1
429 416 1
436 416 1
438 416 1
65 417 1
67 417 1
372 417 1
377 417 1
427 417 1
430 417 1
437 417 1
439 417 1
66 418 1
68 418 1
373 418 1
378 418 1
421 418 1
428 418 1
438 418 1
440 418 1
67 419 1
69 419 1
374 419 1
379 419 1
422 419 1
429 419 1
431 419 1
439 419 1
68 420 1
70 420 1
375 420 1
380 420 1
423 420 1
430 420 1
432 420 1
440 420 1
71 421 1
79 421 1
381 421 1
386 421 1
411 421 1
415 421 1
441 421 1
442 421 1
72 422 1
80 422 1
382 422 1
387 422 1
412 422 1
416 422 1
442 422 1
443 422 1
71 423 1
73 423 1
383 423 1
388 423 1
413 423 1
417 423 1
443 423 1
444 423 1
72 424 1
74 424 1
384 424 1
389 424 1
414 424 1
418 424 1
444 424 1
445 424 1
73 425 1
75 425 1
385 425 1
390 425 1
415 425 1
419 425 1
445 425 1
446 425 1
74 426 1
76 426 1
381 426 1
386 426 1
416 426 1
420 426 1
446 426 1
447 426 1
75 427 1
77 427 1
382 427 1
387 427 1
411 427 1
417 427 1
447 427 1
448 427 1
76 428 1
78 428 1
383 428 1
388 428 1
412 428 1
418 428 1
448 428 1
449 428 1
77 429 1
79 429 1
384 429 1
389 429 1
413 429 1
419 429 1
449 429 1
450 429 1
78 430 1
80 430 1
385 430 1
390 430 1
414 430 1
420 430 1
441 430 1
450 430 1
81 431 1
89 431 1
391 431 1
396 431 1
421 431 1
425 431 1
441 431 1
443 431 1
82 432 1
90 432 1
392 432 1
397 432 1
422 432 1
426 432 1
442 432 1
444 432 1
81 433 1
83 433 1
393 433 1
398 433 1
423 433 1
427 433 1
443 433 1
445 433 1
82 434 1
84 434 1
394 434 1
399 434 1
424 434 1
428 434 1
444 434 1
446 434 1
83 435 1
85 435 1
395 435 1
400 435 1
425 435 1
429 435 1
445 435 1
447 435 1
84 436 1
86 436 1
391 436 1
396 436 1
426 436 1
430 436 1
446 436 1
448 436 1
85 437 1
87 437 1
392 437 1
397 437 1
421 437 1
427 437 1
447 437 1
449 437 1
86 438 1
88 438 1
393 438 1
398 438 1
422 438 1
428 438 1
448 438 1
450 438 1
87 439 1
89 439 1
394 439 1
399 439 1
423 439 1
429 439 1
441 439 1
449 439 1
88 440 1
90 440 1
395 440 1
400 440 1
424 440 1
430 440 1
442 440 1
450 440 1
91 441 1
99 441 1
401 441 1
406 441 1
431 441 1
435 441 1
441 441 1
444 441 1
92 442 1
100 442 1
402 442 1
407 442 1
432 442 1
436 442 1
442 442 1
445 442 1
91 443 1
93 443 1
403 443 1
408 443 1
433 443 1
437 443 1
443 443 1
446 443 1
92 444 1
94 444 1
404 444 1
409 444 1
434 444 1
438 444 1
444 444 1
447 444 1
93 445 1
95 445 1
405 445 1
410 445 1
435 445 1
439 445 1
445 445 1
448 445 1
94 446 1
96 446 1
401 446 1
406 446 1
436 446 1
440 446 1
446 446 1
449 446 1
95 447 1
97 447 1
402 447 1
407 447 1
431 447 1
437 447 1
447 447 1
450 447 1
96 448 1
98 448 1
403 448 1
408 448 1
432 448 1
438 448 1
441 448 1
448 448 1
97 449 1
99 449 1
404 449 1
409 449 1
433 449 1
439 449 1
442 449 1
449 449 1
98 450 1
100 450 1
405 450 1
410 450 1
434 450 1
440 450 1
443 450 1
450 450 1
101 451 1
109 451 1
351 451 1
357 451 1
451 451 1
453 451 1
461 451 1
462 451 1
102 452 1
110 452 1
352 452 1
358 452 1
452 452 1
454 452 1
462 452 1
463 452 1
101 453 1
103 453 1
353 453 1
359 453 1
453 453 1
455 453 1
463 453 1
464 453 1
102 454 1
104 454 1
354 454 1
360 454 1
454 454 1
456 454 1
464 454 1
465 454 1
103 455 1
105 455 1
351 455 1
355 455 1
455 455 1
457 455 1
465 455 1
466 455 1
104 456 1
106 456 1
352 456 1
356 456 1
456 456 1
458 456 1
466 456 1
467 456 1
105 457 1
107 457 1
353 457 1
357 457 1
457 457 1
459 457 1
467 457 1
468 457 1
106 458 1
108 458 1
354 458 1
358 458 1
458 458 1
460 458 1
468 458 1
469 458 1
107 459 1
109 459 1
355 459 1
359 459 1
451 459 1
459 459 1
469 459 1
470 459 1
108 460 1
110 460 1
356 460 1
360 460 1
452 460 1
460 460 1
461 460 1
470 460 1
111 461 1
119 461 1
361 461 1
367 461 1
451 461 1
454 461 1
471 461 1
472 461 1
112 462 1
120 462 1
362 462 1
368 462 1
452 462 1
455 462 1
472 462 1
473 462 1
111 463 1
113 463 1
363 463 1
369 463 1
453 463 1
456 463 1
473 463 1
474 463 1
112 464 1
114 464 1
364 464 1
370 464 1
454 464 1
457 464 1
474 464 1
475 464 1
113 465 1
115 465 1
361 465 1
365 465 1
455 465 1
458 465 1
475 465 1
476 465 1
114 466 1
116 466 1
362 466 1
366 466 1
456 466 1
459 466 1
476 466 1
477 466 1
115 467 1
117 467 1
363 467 1
367 467 1
457 467 1
460 467 1
477 467 1
478 467 1
116 468 1
118 468 1
364 468 1
368 468 1
451 468 1
458 468 1
478 468 1
479 468 1
117 469 1
119 469 1
365 469 1
369 469 1
452 469 1
459 469 1
479 469 1
480 469 1
118 470 1
120 470 1
366 470 1
370 470 1
453 470 1
460 470 1
471 470 1
480 470 1
121 471 1
129 471 1
371 471 1
377 471 1
461 471 1
464 471 1
471 471 1
473 471 1
122 472 1
130 472 1
372 472 1
378 472 1
462 472 1
465 472 1
472 472 1
474 472 1
121 473 1
123 473 1
373 473 1
379 473 1
463 473 1
466 473 1
473 473 1
475 473 1
122 474 1
124 474 1
374 474 1
380 474 1
464 474 1
467 474 1
474 474 1
476 474 1
123 475 1
125 475 1
371 475 1
375 475 1
465 475 1
468 475 1
475 475 1
477 475 1
124 476 1
126 476 1
372 476 1
376 476 1
466 476 1
469 476 1
476 476 1
478 476 1
125 477 1
127 477 1
373 477 1
377 477 1
467 477 1
470 477 1
477 477 1
479 477 1
126 478 1
128 478 1
374 478 1
378 478 1
461 478 1
468 478 1
478 478 1
480 478 1
127 479 1
129 479 1
375 479 1
379 479 1
462 479 1
469 479 1
471 479 1
479 479 1
128 480 1
130 480 1
376 480 1
380 480 1
463 480 1
470 480 1
472 480 1
480 480 1
131 481 1
139 481 1
381 481 1
387 481 1
451 481 1
455 481 1
481 481 1
482 481 1
132 482 1
140 482 1
382 482 1
388 482 1
452 482 1
456 482 1
482 482 1
483 482 1
131 483 1
133 483 1
383 483 1
389 483 1
453 483 1
457 483 1
483 483 1
484 483 1
132 484 1
134 484 1
384 484 1
390 484 1
454 484 1
458 484 1
484 484 1
485 484 1
133 485 1
135 485 1
381 485 1
385 485 1
455 485 1
459 485 1
485 485 1
486 485 1
134 486 1
136 486 1
382 486 1
386 486 1
456 486 1
460 486 1
486 486 1
487 486 1
135 487 1
137 487 1
383 487 1
387 487 1
451 487 1
457 487 1
487 487 1
488 487 1
136 488 1
138 488 1
384 488 1
388 488 1
452 488 1
458 488 1
488 488 1
489 488 1
137 489 1
139 489 1
385 489 1
389 489 1
453 489 1
459 489 1
489 489 1
490 489 1
138 490 1
140 490 1
386 490 1
390 490 1
454 490 1
460 490 1
481 490 1
490 490 1
141 491 1
149 491 1
391 491 1
397 491 1
461 491 1
465 491 1
481 491 1
483 491 1
142 492 1
150 492 1
392 492 1
398 492 1
462 492 1
466 492 1
482 492 1
484 492 1
141 493 1
143 493 1
393 493 1
399 493 1
463 493 1
467 493 1
483 493 1
485 493 1
142 494 1
144 494 1
394 494 1
400 494 1
464 494 1
468 494 1
484 494 1
486 494 1
143 495 1
145 495 1
391 495 1
395 495 1
465 495 1
469 495 1
485 495 1
487 495 1
144 496 1
146 496 1
392 496 1
396 496 1
466 496 1
470 496 1
486 496 1
488 496 1
145 497 1
147 497 1
393 497 1
397 497 1
461 497 1
467 497 1
487 497 1
489 497 1
146 498 1
148 498 1
394 498 1
398 498 1
462 498 1
468 498 1
488 498 1
490 498 1
147 499 1
149 499 1
395 499 1
399 499 1
463 499 1
469 499 1
481 499 1
489 499 1
148 500 1
150 500 1
396 500 1
400 500 1
464 500 1
470 500 1
482 500 1
490 500 1
151 501 1
159 501 1
401 501 1
407 501 1
471 501 1
475 501 1
481 501 1
484 501 1
152 502 1
160 502 1
402 502 1
408 502 1
472 502 1
476 502 1
482 502 1
485 502 1
151 503 1
153 503 1
403 503 1
409 503 1
473 503 1
477 503 1
483 503 1
486 503 1
152 504 1
154 504 1
404 504 1
410 504 1
474 504 1
478 504 1
484 504 1
487 504 1
153 505 1
155 505 1
401 505 1
405 505 1
475 505 1
479 505 1
485 505 1
488 505 1
154 506 1
156 506 1
402 506 1
406 506 1
476 506 1
480 506 1
486 506 1
489 506 1
155 507 1
157 507 1
403 507 1
407 507 1
471 507 1
477 507 1
487 507 1
490 507 1
156 508 1
158 508 1
404 508 1
408 508 1
472 508 1
478 508 1
481 508 1
488 508 1
157 509 1
159 509 1
405 509 1
409 509 1
473 509 1
479 509 1
482 509 1
489 509 1
158 510 1
160 510 1
406 510 1
410 510 1
474 510 1
480 510 1
483 510 1
490 510 1
161 511 1
169 511 1
411 511 1
417 511 1
451 511 1
456 511 1
491 511 1
492 511 1
162 512 1
170 512 1
412 512 1
418 512 1
452 512 1
457 512 1
492 512 1
493 512 1
161 513 1
163 513 1
413 513 1
419 513 1
453 513 1
458 513 1
493 513 1
494 513 1
162 514 1
164 514 1
414 514 1
420 514 1
454 514 1
459 514 1
494 514 1
495 514 1
163 515 1
165 515 1
411 515 1
415 515 1
455 515 1
460 515 1
495 515 1
496 515 1
164 516 1
166 516 1
412 516 1
416 516 1
451 516 1
456 516 1
496 516 1
497 516 1
165 517 1
167 517 1
413 517 1
417 517 1
452 517 1
457 517 1
497 517 1
498 517 1
166 518 1
168 518 1
414 518 1
418 518 1
453 518 1
458 518 1
498 518 1
499 518 1
167 519 1
169 519 1
415 519 1
419 519 1
454 519 1
459 519 1
499 519 1
500 519 1
168 520 1
170 520 1
416 520 1
420 520 1
455 520 1
460 520 1
491 520 1
500 520 1
171 521 1
179 521 1
421 521 1
427 521 1
461 521 1
466 521 1
491 521 1
493 521 1
172 522 1
180 522 1
422 522 1
428 522 1
462 522 1
467 522 1
492 522 1
494 522 1
171 523 1
173 523 1
423 523 1
429 523 1
463 523 1
468 523 1
493 523 1
495 523 1
172 524 1
174 524 1
424 524 1
430 524 1
464 524 1
469 524 1
494 524 1
496 524 1
173 525 1
175 525 1
421 525 1
425 525 1
465 525 1
470 525 1
495 525 1
497 525 1
174 526 1
176 526 1
422 526 1
426 526 1
461 526 1
466 526 1
496 526 1
498 526 1
175 527 1
177 527 1
423 527 1
427 527 1
462 527 1
467 527 1
497 527 1
499 527 1
176 528 1
178 528 1
424 528 1
428 528 1
463 528 1
468 528 1
498 528 1
500 528 1
177 529 1
179 529 1
425 529 1
429 529 1
464 529 1
469 529 1
491 529 1
499 529 1
178 530 1
180 530 1
426 530 1
430 530 1
465 530 1
470 530 1
492 530 1
500 530 1
181 531 1
189 531 1
431 531 1
437 531 1
471 531 1
476 531 1
491 531 1
494 531 1
182 532 1
190 532 1
432 532 1
438 532 1
472 532 1
477 532 1
492 532 1
495 532 1
181 533 1
183 533 1
433 533 1
439 533 1
473 533 1
478 533 1
493 533 1
496 533 1
182 534 1
184 534 1
434 534 1
440 534 1
474 534 1
479 534 1
494 534 1
497 534 1
183 535 1
185 535 1
431 535 1
435 535 1
475 535 1
480 535 1
495 535 1
498 535 1
184 536 1
186 536 1
432 536 1
436 536 1
471 536 1
476 536 1
496 536 1
499 536 1
185 537 1
187 537 1
433 537 1
437 537 1
472 537 1
477 537 1
497 537 1
500 537 1
186 538 1
188 538 1
434 538 1
438 538 1
473 538 1
478 538 1
491 538 1
498 538 1
187 539 1
189 539 1
435 539 1
439 539 1
474 539 1
479 539 1
492 539 1
499 539 1
188 540 1
190 540 1
436 540 1
440 540 1
475 540 1
480 540 1
493 540 1
500 540 1
191 541 1
199 541 1
441 541 1
447 541 1
481 541 1
486 541 1
491 541 1
495 541 1
192 542 1
200 542 1
442 542 1
448 542 1
482 542 1
487 542 1
492 542 1
496 542 1
191 543 1
193 543 1
443 543 1
449 543 1
483 543 1
488 543 1
493 543 1
497 543 1
192 544 1
194 544 1
444 544 1
450 544 1
484 544 1
489 544 1
494 544 1
498 544 1
193 545 1
195 545 1
441 545 1
445 545 1
485 545 1
490 545 1
495 545 1
499 545 1
194 546 1
196 546 1
442 546 1
446 546 1
481 546 1
486 546 1
496 546 1
500 546 1
195 547 1
197 547 1
443 547 1
447 547 1
482 547 1
487 547 1
491 547 1
497 547 1
196 548 1
198 548 1
444 548 1
448 548 1
483 548 1
488 548 1
492 548 1
498 548 1
197 549 1
199 549 1
445 549 1
449 549 1
484 549 1
489 549 1
493 549 1
499 549 1
198 550 1
200 550 1
446 550 1
450 550 1
485 550 1
490 550 1
494 550 1
500 550 1
201 551 1
209 551 1
351 551 1
358 551 1
501 551 1
503 551 1
511 551 1
512 551 1
202 552 1
210 552 1
352 552 1
359 552 1
502 552 1
504 552 1
512 552 1
513 552 1
201 553 1
203 553 1
353 553 1
360 553 1
503 553 1
505 553 1
513 553 1
514 553 1
202 554 1
204 554 1
351 554 1
354 554 1
504 554 1
506 554 1
514 554 1
515 554 1
203 555 1
205 555 1
352 555 1
355 555 1
505 555 1
507 555 1
515 555 1
516 555 1
204 556 1
206 556 1
353 556 1
356 556 1
506 556 1
508 556 1
516 556 1
517 556 1
205 557 1
207 557 1
354 557 1
357 557 1
507 557 1
509 557 1
517 557 1
518 557 1
206 558 1
208 558 1
355 558 1
358 558 1
508 558 1
510 558 1
518 558 1
519 558 1
207 559 1
209 559 1
356 559 1
359 559 1
501 559 1
509 559 1
519 559 1
520 559 1
208 560 1
210 560 1
357 560 1
360 560 1
502 560 1
510 560 1
511 560 1
520 560 1
211 561 1
219 561 1
361 561 1
368 561 1
501 561 1
504 561 1
521 561 1
522 561 1
212 562 1
220 562 1
362 562 1
369 562 1
502 562 1
505 562 1
522 562 1
523 562 1
211 563 1
213 563 1
363 563 1
370 563 1
503 563 1
506 563 1
523 563 1
524 563 1
212 564 1
214 564 1
361 564 1
364 564 1
504 564 1
507 564 1
524 564 1
525 564 1
213 565 1
215 565 1
362 565 1
365 565 1
505 565 1
508 565 1
525 565 1
526 565 1
214 566 1
216 566 1
363 566 1
366 566 1
506 566 1
509 566 1
526 566 1
527 566 1
215 567 1
217 567 1
364 567 1
367 567 1
507 567 1
510 567 1
527 567 1
528 567 1
216 568 1
218 568 1
365 568 1
368 568 1
501 568 1
508 568 1
528 568 1
529 568 1
217 569 1
219 569 1
366 569 1
369 569 1
502 569 1
509 569 1
529 569 1
530 569 1
218 570 1
220 570 1
367 570 1
370 570 1
503 570 1
510 570 1
521 570 1
530 570 1
221 571 1
229 571 1
371 571 1
378 571 1
511 571 1
514 571 1
521 571 1
523 571 1
222 572 1
230 572 1
372 572 1
379 572 1
512 572 1
515 572 1
522 572 1
524 572 1
221 573 1
223 573 1
373 573 1
380 573 1
513 573 1
516 573 1
523 573 1
525 573 1
222 574 1
224 574 1
371 574 1
374 574 1
514 574 1
517 574 1
524 574 1
526 574 1
223 575 1
225 575 1
372 575 1
375 575 1
515 575 1
518 575 1
525 575 1
527 575 1
224 576 1
226 576 1
373 576 1
376 576 1
516 576 1
519 576 1
526 576 1
528 576 1
225 577 1
227 577 1
374 577 1
377 577 1
517 577 1
520 577 1
527 577 1
529 577 1
226 578 1
228 578 1
375 578 1
378 578 1
511 578 1
518 578 1
528 578 1
530 578 1
227 579 1
229 579 1
376 579 1
379 579 1
512 579 1
519 579 1
521 579 1
529 579 1
228 580 1
230 580 1
377 580 1
380 580 1
513 580 1
520 580 1
522 580 1
530 580 1
231 581 1
239 581 1
381 581 1
388 581 1
501 581 1
505 581 1
531 581 1
532 581 1
232 582 1
240 582 1
382 582 1
389 582 1
502 582 1
506 582 1
532 582 1
533 582 1
231 583 1
233 583 1
383 583 1
390 583 1
503 583 1
507 583 1
533 583 1
534 583 1
232 584 1
234 584 1
381 584 1
384 584 1
504 584 1
508 584 1
534 584 1
535 584 1
233 585 1
235 585 1
382 585 1
385 585 1
505 585 1
509 585 1
535 585 1
536 585 1
234 586 1
236 586 1
383 586 1
386 586 1
506 586 1
510 586 1
536 586 1
537 586 1
235 587 1
237 587 1
384 587 1
387 587 1
501 587 1
507 587 1
537 587 1
538 587 1
236 588 1
238 588 1
385 588 1
388 588 1
502 588 1
508 588 1
538 588 1
539 588 1
237 589 1
239 589 1
386 589 1
389 589 1
503 589 1
509 589 1
539 589 1
540 589 1
238 590 1
240 590 1
387 590 1
390 590 1
504 590 1
510 590 1
531 590 1
540 590 1
241 591 1
249 591 1
391 591 1
398 591 1
511 591 1
515 591 1
531 591 1
533 591 1
242 592 1
250 592 1
392 592 1
399 592 1
512 592 1
516 592 1
532 592 1
534 592 1
241 593 1
243 593 1
393 593 1
400 593 1
513 593 1
517 593 1
533 593 1
535 593 1
242 594 1
244 594 1
391 594 1
394 594 1
514 594 1
518 594 1
534 594 1
536 594 1
243 595 1
245 595 1
392 595 1
395 595 1
515 595 1
519 595 1
535 595 1
537 595 1
244 596 1
246 596 1
393 596 1
396 596 1
516 596 1
520 596 1
536 596 1
538 596 1
245 597 1
247 597 1
394 597 1
397 597 1
511 597 1
517 597 1
537 597 1
539 597 1
246 598 1
248 598 1
395 598 1
398 598 1
512 598 1
518 598 1
538 598 1
540 598 1
247 599 1
249 599 1
396 599 1
399 599 1
513 599 1
519 599 1
531 599 1
539 599 1
248 600 1
250 600 1
397 600 1
400 600 1
514 600 1
520 600 1
532 600 1
540 600 1
251 601 1
259 601 1
401 601 1
408 601 1
521 601 1
525 601 1
531 601 1
534 601 1
252 602 1
260 602 1
402 602 1
409 602 1
522 602 1
526 602 1
532 602 1
535 602 1
251 603 1
253 603 1
403 603 1
410 603 1
523 603 1
527 603 1
533 603 1
536 603 1
252 604 1
254 604 1
401 604 1
404 604 1
524 604 1
528 604 1
534 604 1
537 604 1
253 605 1
255 605 1
402 605 1
405 605 1
525 605 1
529 605 1
535 605 1
538 605 1
254 606 1
256 606 1
403 606 1
406 606 1
526 606 1
530 606 1
536 606 1
539 606 1
255 607 1
257 607 1
404 607 1
407 607 1
521 607 1
527 607 1
537 607 1
540 607 1
256 608 1
258 608 1
405 608 1
408 608 1
522 608 1
528 608 1
531 608 1
538 608 1
257 609 1
259 609 1
406 609 1
409 609 1
523 609 1
529 609 1
532 609 1
539 609 1
258 610 1
260 610 1
407 610 1
410 610 1
524 610 1
530 610 1
533 610 1
540 610 1
261 611 1
269 611 1
411 611 1
418 611 1
501 611 1
506 611 1
541 611 1
542 611 1
262 612 1
270 612 1
412 612 1
419 612 1
502 612 1
507 612 1
542 612 1
543 612 1
261 613 1
263 613 1
413 613 1
420 613 1
503 613 1
508 613 1
543 613 1
544 613 1
262 614 1
264 614 1
411 614 1
414 614 1
504 614 1
509 614 1
544 614 1
545 614 1
263 615 1
265 615 1
412 615 1
415 615 1
505 615 1
510 615 1
545 615 1
546 615 1
264 616 1
266 616 1
413 616 1
416 616 1
501 616 1
506 616 1
546 616 1
547 616 1
265 617 1
267 617 1
414 617 1
417 617 1
502 617 1
507 617 1
547 617 1
548 617 1
266 618 1
268 618 1
415 618 1
418 618 1
503 618 1
508 618 1
548 618 1
549 618 1
267 619 1
269 619 1
416 619 1
419 619 1
504 619 1
509 619 1
549 619 1
550 619 1
268 620 1
270 620 1
417 620 1
420 620 1
505 620 1
510 620 1
541 620 1
550 620 1
271 621 1
279 621 1
421 621 1
428 621 1
511 621 1
516 621 1
541 621 1
543 621 1
272 622 1
280 622 1
422 622 1
429 622 1
512 622 1
517 622 1
542 622 1
544 622 1
271 623 1
273 623 1
423 623 1
430 623 1
513 623 1
518 623 1
543 623 1
545 623 1
272 624 1
274 624 1
421 624 1
424 624 1
514 624 1
519 624 1
544 624 1
546 624 1
273 625 1
275 625 1
422 625 1
425 625 1
515 625 1
520 625 1
545 625 1
547 625 1
274 626 1
276 626 1
423 626 1
426 626 1
511 626 1
516 626 1
546 626 1
548 626 1
275 627 1
277 627 1
424 627 1
427 627 1
512 627 1
517 627 1
547 627 1
549 627 1
276 628 1
278 628 1
425 628 1
428 628 1
513 628 1
518 628 1
548 628 1
550 628 1
277 629 1
279 629 1
426 629 1
429 629 1
514 629 1
519 629 1
541 629 1
549 629 1
278 630 1
280 630 1
427 630 1
430 630 1
515 630 1
520 630 1
542 630 1
550 630 1
281 631 1
289 631 1
431 631 1
438 631 1
521 631 1
526 631 1
541 631 1
544 631 1
282 632 1
290 632 1
432 632 1
439 632 1
522 632 1
527 632 1
542 632 1
545 632 1
281 633 1
283 633 1
433 633 1
440 633 1
523 633 1
528 633 1
543 633 1
546 633 1
282 634 1
284 634 1
431 634 1
434 634 1
524 634 1
529 634 1
544 634 1
547 634 1
283 635 1
285 635 1
432 635 1
435 635 1
525 635 1
530 635 1
545 635 1
548 635 1
284 636 1
286 636 1
433 636 1
436 636 1
521 636 1
526 636 1
546 636 1
549 636 1
285 637 1
287 637 1
434 637 1
437 637 1
522 637 1
527 637 1
547 637 1
550 637 1
286 638 1
288 638 1
435 638 1
438 638 1
523 638 1
528 638 1
541 638 1
548 638 1
287 639 1
289 639 1
436 639 1
439 639 1
524 639 1
529 639 1
542 639 1
549 639 1
288 640 1
290 640 1
437 640 1
440 640 1
525 640 1
530 640 1
543 640 1
550 640 1
291 641 1
299 641 1
441 641 1
448 641 1
531 641 1
536 641 1
541 641 1
545 641 1
292 642 1
300 642 1
442 642 1
449 642 1
532 642 1
537 642 1
542 642 1
546 642 1
291 643 1
293 643 1
443 643 1
450 643 1
533 643 1
538 643 1
543 643 1
547 643 1
292 644 1
294 644 1
441 644 1
444 644 1
534 644 1
539 644 1
544 644 1
548 644 1
293 645 1
295 645 1
442 645 1
445 645 1
535 645 1
540 645 1
545 645 1
549 645 1
294 646 1
296 646 1
443 646 1
446 646 1
531 646 1
536 646 1
546 646 1
550 646 1
295 647 1
297 647 1
444 647 1
447 647 1
532 647 1
537 647 1
541 647 1
547 647 1
296 648 1
298 648 1
445 648 1
448 648 1
533 648 1
538 648 1
542 648 1
548 648 1
297 649 1
299 649 1
446 649 1
449 649 1
534 649 1
539 649 1
543 649 1
549 649 1
298 650 1
300 650 1
447 650 1
450 650 1
535 650 1
540 650 1
544 650 1
550 650 1
301 651 1
309 651 1
451 651 1
458 651 1
501 651 1
507 651 1
551 651 1
552 651 1
302 652 1
310 652 1
452 652 1
459 652 1
502 652 1
508 652 1
552 652 1
553 652 1
301 653 1
303 653 1
453 653 1
460 653 1
503 653 1
509 653 1
553 653 1
554 653 1
302 654 1
304 654 1
451 654 1
454 654 1
504 654 1
510 654 1
554 654 1
555 654 1
303 655 1
305 655 1
452 655 1
455 655 1
501 655 1
505 655 1
555 655 1
556 655 1
304 656 1
306 656 1
453 656 1
456 656 1
502 656 1
506 656 1
556 656 1
557 656 1
305 657 1
307 657 1
454 657 1
457 657 1
503 657 1
507 657 1
557 657 1
558 657 1
306 658 1
308 658 1
455 658 1
458 658 1
504 658 1
508 658 1
558 658 1
559 658 1
307 659 1
309 659 1
456 659 1
459 659 1
505 659 1
509 659 1
559 659 1
560 659 1
308 660 1
310 660 1
457 660 1
460 660 1
506 660 1
510 660 1
551 660 1
560 660 1
311 661 1
319 661 1
461 661 1
468 661 1
511 661 1
517 661 1
551 661 1
553 661 1
312 662 1
320 662 1
462 662 1
469 662 1
512 662 1
518 662 1
552 662 1
554 662 1
311 663 1
313 663 1
463 663 1
470 663 1
513 663 1
519 663 1
553 663 1
555 663 1
312 664 1
314 664 1
461 664 1
464 664 1
514 664 1
520 664 1
554 664 1
556 664 1
313 665 1
315 665 1
462 665 1
465 665 1
511 665 1
515 665 1
555 665 1
557 665 1
314 666 1
316 666 1
463 666 1
466 666 1
512 666 1
516 666 1
556 666 1
558 666 1
315 667 1
317 667 1
464 667 1
467 667 1
513 667 1
517 667 1
557 667 1
559 667 1
316 668 1
318 668 1
465 668 1
468 668 1
514 668 1
518 668 1
558 668 1
560 668 1
317 669 1
319 669 1
466 669 1
469 669 1
515 669 1
519 669 1
551 669 1
559 669 1
318 670 1
320 670 1
467 670 1
470 670 1
516 670 1
520 670 1
552 670 1
560 670 1
321 671 1
329 671 1
471 671 1
478 671 1
521 671 1
527 671 1
551 671 1
554 671 1
322 672 1
330 672 1
472 672 1
479 672 1
522 672 1
528 672 1
552 672 1
555 672 1
321 673 1
323 673 1
473 673 1
480 673 1
523 673 1
529 673 1
553 673 1
556 673 1
322 674 1
324 674 1
471 674 1
474 674 1
524 674 1
530 674 1
554 674 1
557 674 1
323 675 1
325 675 1
472 675 1
475 675 1
521 675 1
525 675 1
555 675 1
558 675 1
324 676 1
326 676 1
473 676 1
476 676 1
522 676 1
526 676 1
556 676 1
559 676 1
325 677 1
327 677 1
474 677 1
477 677 1
523 677 1
527 677 1
557 677 1
560 677 1
326 678 1
328 678 1
475 678 1
478 678 1
524 678 1
528 678 1
551 678 1
558 678 1
327 679 1
329 679 1
476 679 1
479 679 1
525 679 1
529 679 1
552 679 1
559 679 1
328 680 1
330 680 1
477 680 1
480 680 1
526 680 1
530 680 1
553 680 1
560 680 1
331 681 1
339 681 1
481 681 1
488 681 1
531 681 1
537 681 1
551 681 1
555 681 1
332 682 1
340 682 1
482 682 1
489 682 1
532 682 1
538 682 1
552 682 1
556 682 1
331 683 1
333 683 1
483 683 1
490 683 1
533 683 1
539 683 1
553 683 1
557 683 1
332 684 1
334 684 1
481 684 1
484 684 1
534 684 1
540 684 1
554 684 1
558 684 1
333 685 1
335 685 1
482 685 1
485 685 1
531 685 1
535 685 1
555 685 1
559 685 1
334 686 1
336 686 1
483 686 1
486 686 1
532 686 1
536 686 1
556 686 1
560 686 1
335 687 1
337 687 1
484 687 1
487 687 1
533 687 1
537 687 1
551 687 1
557 687 1
336 688 1
338 688 1
485 688 1
488 688 1
534 688 1
538 688 1
552 688 1
558 688 1
337 689 1
339 689 1
486 689 1
489 689 1
535 689 1
539 689 1
553 689 1
559 689 1
338 690 1
340 690 1
487 690 1
490 690 1
536 690 1
540 690 1
554 690 1
560 690 1
341 691 1
349 691 1
491 691 1
498 691 1
541 691 1
547 691 1
551 691 1
556 691 1
342 692 1
350 692 1
492 692 1
499 692 1
542 692 1
548 692 1
552 692 1
557 692 1
341 693 1
343 693 1
493 693 1
500 693 1
543 693 1
549 693 1
553 693 1
558 693 1
342 694 1
344 694 1
491 694 1
494 694 1
544 694 1
550 694 1
554 694 1
559 694 1
343 695 1
345 695 1
492 695 1
495 695 1
541 695 1
545 695 1
555 695 1
560 695 1
344 696 1
346 696 1
493 696 1
496 696 1
542 696 1
546 696 1
551 696 1
556 696 1
345 697 1
347 697 1
494 697 1
497 697 1
543 697 1
547 697 1
552 697 1
557 697 1
346 698 1
348 698 1
495 698 1
498 698 1
544 698 1
548 698 1
553 698 1
558 698 1
347 699 1
349 699 1
496 699 1
499 699 1
545 699 1
549 699 1
554 699 1
559 699 1
348 700 1
350 700 1
497 700 1
500 700 1
546 700 1
550 700 1
555 700 1
560 700 1
1 701 1
10 701 1
561 701 1
564 701 1
571 701 1
573 701 1
581 701 1
582 701 1
1 702 1
2 702 1
562 702 1
565 702 1
572 702 1
574 702 1
582 702 1
583 702 1
2 703 1
3 703 1
563 703 1
566 703 1
573 703 1
575 703 1
583 703 1
584 703 1
3 704 1
4 704 1
564 704 1
567 704 1
574 704 1
576 704 1
584 704 1
585 704 1
4 705 1
5 705 1
565 705 1
568 705 1
575 705 1
577 705 1
585 705 1
586 705 1
5 706 1
6 706 1
566 706 1
569 706 1
576 706 1
578 706 1
586 706 1
587 706 1
6 707 1
7 707 1
567 707 1
570 707 1
577 707 1
579 707 1
587 707 1
588 707 1
7 708 1
8 708 1
561 708 1
568 708 1
578 708 1
580 708 1
588 708 1
589 708 1
8 709 1
9 709 1
562 709 1
569 709 1
571 709 1
579 709 1
589 709 1
590 709 1
9 710 1
10 710 1
563 710 1
570 710 1
572 710 1
580 710 1
581 710 1
590 710 1
11 711 1
20 711 1
561 711 1
565 711 1
591 711 1
593 711 1
601 711 1
602 711 1
11 712 1
12 712 1
562 712 1
566 712 1
592 712 1
594 712 1
602 712 1
603 712 1
12 713 1
13 713 1
563 713 1
567 713 1
593 713 1
595 713 1
603 713 1
604 713 1
13 714 1
14 714 1
564 714 1
568 714 1
594 714 1
596 714 1
604 714 1
605 714 1
14 715 1
15 715 1
565 715 1
569 715 1
595 715 1
597 715 1
605 715 1
606 715 1
15 716 1
16 716 1
566 716 1
570 716 1
596 716 1
598 716 1
606 716 1
607 716 1
16 717 1
17 717 1
561 717 1
567 717 1
597 717 1
599 717 1
607 717 1
608 717 1
17 718 1
18 718 1
562 718 1
568 718 1
598 718 1
600 718 1
608 718 1
609 718 1
18 719 1
19 719 1
563 719 1
569 719 1
591 719 1
599 719 1
609 719 1
610 719 1
19 720 1
20 720 1
564 720 1
570 720 1
592 720 1
600 720 1
601 720 1
610 720 1
21 721 1
30 721 1
571 721 1
575 721 1
591 721 1
594 721 1
611 721 1
612 721 1
21 722 1
22 722 1
572 722 1
576 722 1
592 722 1
595 722 1
612 722 1
613 722 1
22 723 1
23 723 1
573 723 1
577 723 1
593 723 1
596 723 1
613 723 1
614 723 1
23 724 1
24 724 1
574 724 1
578 724 1
594 724 1
597 724 1
614 724 1
615 724 1
24 725 1
25 725 1
575 725 1
579 725 1
595 725 1
598 725 1
615 725 1
616 725 1
25 726 1
26 726 1
576 726 1
580 726 1
596 726 1
599 726 1
616 726 1
617 726 1
26 727 1
27 727 1
571 727 1
577 727 1
597 727 1
600 727 1
617 727 1
618 727 1
27 728 1
28 728 1
572 728 1
578 728 1
591 728 1
598 728 1
618 728 1
619 728 1
28 729 1
29 729 1
573 729 1
579 729 1
592 729 1
599 729 1
619 729 1
620 729 1
29 730 1
30 730 1
574 730 1
580 730 1
593 730 1
600 730 1
611 730 1
620 730 1
31 731 1
40 731 1
581 731 1
585 731 1
601 731 1
604 731 1
611 731 1
613 731 1
31 732 1
32 732 1
582 732 1
586 732 1
602 732 1
605 732 1
612 732 1
614 732 1
32 733 1
33 733 1
583 733 1
587 733 1
603 733 1
606 733 1
613 733 1
615 733 1
33 734 1
34 734 1
584 734 1
588 734 1
604 734 1
607 734 1
614 734 1
616 734 1
34 735 1
35 735 1
585 735 1
589 735 1
605 735 1
608 735 1
615 735 1
617 735 1
35 736 1
36 736 1
586 736 1
590 736 1
606 736 1
609 736 1
616 736 1
618 736 1
36 737 1
37 737 1
581 737 1
587 737 1
607 737 1
610 737 1
617 737 1
619 737 1
37 738 1
38 738 1
582 738 1
588 738 1
601 738 1
608 738 1
618 738 1
620 738 1
38 739 1
39 739 1
583 739 1
589 739 1
602 739 1
609 739 1
611 739 1
619 739 1
39 740 1
40 740 1
584 740 1
590 740 1
603 740 1
610 740 1
612 740 1
620 740 1
41 741 1
50 741 1
561 741 1
566 741 1
621 741 1
623 741 1
631 741 1
632 741 1
41 742 1
42 742 1
562 742 1
567 742 1
622 742 1
624 742 1
632 742 1
633 742 1
42 743 1
43 743 1
563 743 1
568 743 1
623 743 1
625 743 1
633 743 1
634 743 1
43 744 1
44 744 1
564 744 1
569 744 1
624 744 1
626 744 1
634 744 1
635 744 1
44 745 1
45 745 1
565 745 1
570 745 1
625 745 1
627 745 1
635 745 1
636 745 1
45 746 1
46 746 1
561 746 1
566 746 1
626 746 1
628 746 1
636 746 1
637 746 1
46 747 1
47 747 1
562 747 1
567 747 1
627 747 1
629 747 1
637 747 1
638 747 1
47 748 1
48 748 1
563 748 1
568 748 1
628 748 1
630 748 1
638 748 1
639 748 1
48 749 1
49 749 1
564 749 1
569 749 1
621 749 1
629 749 1
639 749 1
640 749 1
49 750 1
50 750 1
565 750 1
570 750 1
622 750 1
630 750 1
631 750 1
640 750 1
51 751 1
60 751 1
571 751 1
576 751 1
621 751 1
624 751 1
641 751 1
642 751 1
51 752 1
52 752 1
572 752 1
577 752 1
622 752 1
625 752 1
642 752 1
643 752 1
52 753 1
53 753 1
573 753 1
578 753 1
623 753 1
626 753 1
643 753 1
644 753 1
53 754 1
54 754 1
574 754 1
579 754 1
624 754 1
627 754 1
644 754 1
645 754 1
54 755 1
55 755 1
575 755 1
580 755 1
625 755 1
628 755 1
645 755 1
646 755 1
55 756 1
56 756 1
571 756 1
576 756 1
626 756 1
629 756 1
646 756 1
647 756 1
56 757 1
57 757 1
572 757 1
577 757 1
627 757 1
630 757 1
647 757 1
648 757 1
57 758 1
58 758 1
573 758 1
578 758 1
621 758 1
628 758 1
648 758 1
649 758 1
58 759 1
59 759 1
574 759 1
579 759 1
622 759 1
629 759 1
649 759 1
650 759 1
59 760 1
60 760 1
575 760 1
580 760 1
623 760 1
630 760 1
641 760 1
650 760 1
61 761 1
70 761 1
581 761 1
586 761 1
631 761 1
634 761 1
641 761 1
643 761 1
61 762 1
62 762 1
582 762 1
587 762 1
632 762 1
635 762 1
642 762 1
644 762 1
62 763 1
63 763 1
583 763 1
588 763 1
633 763 1
636 763 1
643 763 1
645 763 1
63 764 1
64 764 1
584 764 1
589 764 1
634 764 1
637 764 1
644 764 1
646 764 1
64 765 1
65 765 1
585 765 1
590 765 1
635 765 1
638 765 1
645 765 1
647 765 1
65 766 1
66 766 1
581 766 1
586 766 1
636 766 1
639 766 1
646 766 1
648 766 1
66 767 1
67 767 1
582 767 1
587 767 1
637 767 1
640 767 1
647 767 1
649 767 1
67 768 1
68 768 1
583 768 1
588 768 1
631 768 1
638 768 1
648 768 1
650 768 1
68 769 1
69 769 1
584 769 1
589 769 1
632 769 1
639 769 1
641 769 1
649 769 1
69 770 1
70 770 1
585 770 1
590 770 1
633 770 1
640 770 1
642 770 1
650 770 1
71 771 1
80 771 1
591 771 1
596 771 1
621 771 1
625 771 1
651 771 1
652 771 1
71 772 1
72 772 1
592 772 1
597 772 1
622 772 1
626 772 1
652 772 1
653 772 1
72 773 1
73 773 1
593 773 1
598 773 1
623 773 1
627 773 1
653 773 1
654 773 1
73 774 1
74 774 1
594 774 1
599 774 1
624 774 1
628 774 1
654 774 1
655 774 1
74 775 1
75 775 1
595 775 1
600 775 1
625 775 1
629 775 1
655 775 1
656 775 1
75 776 1
76 776 1
591 776 1
596 776 1
626 776 1
630 776 1
656 776 1
657 776 1
76 777 1
77 777 1
592 777 1
597 777 1
621 777 1
627 777 1
657 777 1
658 777 1
77 778 1
78 778 1
593 778 1
598 778 1
622 778 1
628 778 1
658 778 1
659 778 1
78 779 1
79 779 1
594 779 1
599 779 1
623 779 1
629 779 1
659 779 1
660 779 1
79 780 1
80 780 1
595 780 1
600 780 1
624 780 1
630 780 1
651 780 1
660 780 1
81 781 1
90 781 1
601 781 1
606 781 1
631 781 1
635 781 1
651 781 1
653 781 1
81 782 1
82 782 1
602 782 1
607 782 1
632 782 1
636 782 1
652 782 1
654 782 1
82 783 1
83 783 1
603 783 1
608 783 1
633 783 1
637 783 1
653 783 1
655 783 1
83 784 1
84 784 1
604 784 1
609 784 1
634 784 1
638 784 1
654 784 1
656 784 1
84 785 1
85 785 1
605 785 1
610 785 1
635 785 1
639 785 1
655 785 1
657 785 1
85 786 1
86 786 1
601 786 1
606 786 1
636 786 1
640 786 1
656 786 1
658 786 1
86 787 1
87 787 1
602 787 1
607 787 1
631 787 1
637 787 1
657 787 1
659 787 1
87 788 1
88 788 1
603 788 1
608 788 1
632 788 1
638 788 1
658 788 1
660 788 1
88 789 1
89 789 1
604 789 1
609 789 1
633 789 1
639 789 1
651 789 1
659 789 1
89 790 1
90 790 1
605 790 1
610 790 1
634 790 1
640 790 1
652 790 1
660 790 1
91 791 1
100 791 1
611 791 1
616 791 1
641 791 1
645 791 1
651 791 1
654 791 1
91 792 1
92 792 1
612 792 1
617 792 1
642 792 1
646 792 1
652 792 1
655 792 1
92 793 1
93 793 1
613 793 1
618 793 1
643 793 1
647 793 1
653 793 1
656 793 1
93 794 1
94 794 1
614 794 1
619 794 1
644 794 1
648 794 1
654 794 1
657 794 1
94 795 1
95 795 1
615 795 1
620 795 1
645 795 1
649 795 1
655 795 1
658 795 1
95 796 1
96 796 1
611 796 1
616 796 1
646 796 1
650 796 1
656 796 1
659 796 1
96 797 1
97 797 1
612 797 1
617 797 1
641 797 1
647 797 1
657 797 1
660 797 1
97 798 1
98 798 1
613 798 1
618 798 1
642 798 1
648 798 1
651 798 1
658 798 1
98 799 1
99 799 1
614 799 1
619 799 1
643 799 1
649 799 1
652 799 1
659 799 1
99 800 1
100 800 1
615 800 1
620 800 1
644 800 1
650 800 1
653 800 1
660 800 1
101 801 1
110 801 1
561 801 1
567 801 1
661 801 1
663 801 1
671 801 1
672 801 1
101 802 1
102 802 1
562 802 1
568 802 1
662 802 1
664 802 1
672 802 1
673 802 1
102 803 1
103 803 1
563 803 1
569 803 1
663 803 1
665 803 1
673 803 1
674 803 1
103 804 1
104 804 1
564 804 1
570 804 1
664 804 1
666 804 1
674 804 1
675 804 1
104 805 1
105 805 1
561 805 1
565 805 1
665 805 1
667 805 1
675 805 1
676 805 1
105 806 1
106 806 1
562 806 1
566 806 1
666 806 1
668 806 1
676 806 1
677 806 1
106 807 1
107 807 1
563 807 1
567 807 1
667 807 1
669 807 1
677 807 1
678 807 1
107 808 1
108 808 1
564 808 1
568 808 1
668 808 1
670 808 1
678 808 1
679 808 1
108 809 1
109 809 1
565 809 1
569 809 1
661 809 1
669 809 1
679 809 1
680 809 1
109 810 1
110 810 1
566 810 1
570 810 1
662 810 1
670 810 1
671 810 1
680 810 1
111 811 1
120 811 1
571 811 1
577 811 1
661 811 1
664 811 1
681 811 1
682 811 1
111 812 1
112 812 1
572 812 1
578 812 1
662 812 1
665 812 1
682 812 1
683 812 1
112 813 1
113 813 1
573 813 1
579 813 1
663 813 1
666 813 1
683 813 1
684 813 1
113 814 1
114 814 1
574 814 1
580 814 1
664 814 1
667 814 1
684 814 1
685 814 1
114 815 1
115 815 1
571 815 1
575 815 1
665 815 1
668 815 1
685 815 1
686 815 1
115 816 1
116 816 1
572 816 1
576 816 1
666 816 1
669 816 1
686 816 1
687 816 1
116 817 1
117 817 1
573 817 1
577 817 1
667 817 1
670 817 1
687 817 1
688 817 1
117 818 1
118 818 1
574 818 1
578 818 1
661 818 1
668 818 1
688 818 1
689 818 1
118 819 1
119 819 1
575 819 1
579 819 1
662 819 1
669 819 1
689 819 1
690 819 1
119 820 1
120 820 1
576 820 1
580 820 1
663 820 1
670 820 1
681 820 1
690 820 1
121 821 1
130 821 1
581 821 1
587 821 1
671 821 1
674 821 1
681 821 1
683 821 1
121 822 1
122 822 1
582 822 1
588 822 1
672 822 1
675 822 1
682 822 1
684 822 1
122 823 1
123 823 1
583 823 1
589 823 1
673 823 1
676 823 1
683 823 1
685 823 1
123 824 1
124 824 1
584 824 1
590 824 1
674 824 1
677 824 1
684 824 1
686 824 1
124 825 1
125 825 1
581 825 1
585 825 1
675 825 1
678 825 1
685 825 1
687 825 1
125 826 1
126 826 1
582 826 1
586 826 1
676 826 1
679 826 1
686 826 1
688 826 1
126 827 1
127 827 1
583 827 1
587 827 1
677 827 1
680 827 1
687 827 1
689 827 1
127 828 1
128 828 1
584 828 1
588 828 1
671 828 1
678 828 1
688 828 1
690 828 1
128 829 1
129 829 1
585 829 1
589 829 1
672 829 1
679 829 1
681 829 1
689 829 1
129 830 1
130 830 1
586 830 1
590 830 1
673 830 1
680 830 1
682 830 1
690 830 1
131 831 1
140 831 1
591 831 1
597 831 1
661 831 1
665 831 1
691 831 1
692 831 1
131 832 1
132 832 1
592 832 1
598 832 1
662 832 1
666 832 1
692 832 1
693 832 1
132 833 1
133 833 1
593 833 1
599 833 1
663 833 1
667 833 1
693 833 1
694 833 1
133 834 1
134 834 1
594 834 1
600 834 1
664 834 1
668 834 1
694 834 1
695 834 1
134 835 1
135 835 1
591 835 1
595 835 1
665 835 1
669 835 1
695 835 1
696 835 1
135 836 1
136 836 1
592 836 1
596 836 1
666 836 1
670 836 1
696 836 1
697 836 1
136 837 1
137 837 1
593 837 1
597 837 1
661 837 1
667 837 1
697 837 1
698 837 1
137 838 1
138 838 1
594 838 1
598 838 1
662 838 1
668 838 1
698 838 1
699 838 1
138 839 1
139 839 1
595 839 1
599 839 1
663 839 1
669 839 1
699 839 1
700 839 1
139 840 1
140 840 1
596 840 1
600 840 1
664 840 1
670 840 1
691 840 1
700 840 1
141 841 1
150 841 1
601 841 1
607 841 1
671 841 1
675 841 1
691 841 1
693 841 1
141 842 1
142 842 1
602 842 1
608 842 1
672 842 1
676 842 1
692 842 1
694 842 1
142 843 1
143 843 1
603 843 1
609 843 1
673 843 1
677 843 1
693 843 1
695 843 1
143 844 1
144 844 1
604 844 1
610 844 1
674 844 1
678 844 1
694 844 1
696 844 1
144 845 1
145 845 1
601 845 1
605 845 1
675 845 1
679 845 1
695 845 1
697 845 1
145 846 1
146 846 1
602 846 1
606 846 1
676 846 1
680 846 1
696 846 1
698 846 1
146 847 1
147 847 1
603 847 1
607 847 1
671 847 1
677 847 1
697 847 1
699 847 1
147 848 1
148 848 1
604 848 1
608 848 1
672 848 1
678 848 1
698 848 1
700 848 1
148 849 1
149 849 1
605 849 1
609 849 1
673 849 1
679 849 1
691 849 1
699 849 1
149 850 1
150 850 1
606 850 1
610 850 1
674 850 1
680 850 1
692 850 1
700 850 1
151 851 1
160 851 1
611 851 1
617 851 1
681 851 1
685 851 1
691 851 1
694 851 1
151 852 1
152 852 1
612 852 1
618 852 1
682 852 1
686 852 1
692 852 1
695 852 1
152 853 1
153 853 1
613 853 1
619 853 1
683 853 1
687 853 1
693 853 1
696 853 1
153 854 1
154 854 1
614 854 1
620 854 1
684 854 1
688 854 1
694 854 1
697 854 1
154 855 1
155 855 1
611 855 1
615 855 1
685 855 1
689 855 1
695 855 1
698 855 1
155 856 1
156 856 1
612 856 1
616 856 1
686 856 1
690 856 1
696 856 1
699 856 1
156 857 1
157 857 1
613 857 1
617 857 1
681 857 1
687 857 1
697 857 1
700 857 1
157 858 1
158 858 1
614 858 1
618 858 1
682 858 1
688 858 1
691 858 1
698 858 1
158 859 1
159 859 1
615 859 1
619 859 1
683 859 1
689 859 1
692 859 1
699 859 1
159 860 1
160 860 1
616 860 1
620 860 1
684 860 1
690 860 1
693 860 1
700 860 1
161 861 1
170 861 1
621 861 1
627 861 1
661 861 1
666 861 1
701 861 1
702 861 1
161 862 1
162 862 1
622 862 1
628 862 1
662 862 1
667 862 1
702 862 1
703 862 1
162 863 1
163 863 1
623 863 1
629 863 1
663 863 1
668 863 1
703 863 1
704 863 1
163 864 1
164 864 1
624 864 1
630 864 1
664 864 1
669 864 1
704 864 1
705 864 1
164 865 1
165 865 1
621 865 1
625 865 1
665 865 1
670 865 1
705 865 1
706 865 1
165 866 1
166 866 1
622 866 1
626 866 1
661 866 1
666 866 1
706 866 1
707 866 1
166 867 1
167 867 1
623 867 1
627 867 1
662 867 1
667 867 1
707 867 1
708 867 1
167 868 1
168 868 1
624 868 1
628 868 1
663 868 1
668 868 1
708 868 1
709 868 1
168 869 1
169 869 1
625 869 1
629 869 1
664 869 1
669 869 1
709 869 1
710 869 1
169 870 1
170 870 1
626 870 1
630 870 1
665 870 1
670 870 1
701 870 1
710 870 1
171 871 1
180 871 1
631 871 1
637 871 1
671 871 1
676 871 1
701 871 1
703 871 1
171 872 1
172 872 1
632 872 1
638 872 1
672 872 1
677 872 1
702 872 1
704 872 1
172 873 1
173 873 1
633 873 1
639 873 1
673 873 1
678 873 1
703 873 1
705 873 1
173 874 1
174 874 1
634 874 1
640 874 1
674 874 1
679 874 1
704 874 1
706 874 1
174 875 1
175 875 1
631 875 1
635 875 1
675 875 1
680 875 1
705 875 1
707 875 1
175 876 1
176 876 1
632 876 1
636 876 1
671 876 1
676 876 1
706 876 1
708 876 1
176 877 1
177 877 1
633 877 1
637 877 1
672 877 1
677 877 1
707 877 1
709 877 1
177 878 1
178 878 1
634 878 1
638 878 1
673 878 1
678 878 1
708 878 1
710 878 1
178 879 1
179 879 1
635 879 1
639 879 1
674 879 1
679 879 1
701 879 1
709 879 1
179 880 1
180 880 1
636 880 1
640 880 1
675 880 1
680 880 1
702 880 1
710 880 1
181 881 1
190 881 1
641 881 1
647 881 1
681 881 1
686 881 1
701 881 1
704 881 1
181 882 1
182 882 1
642 882 1
648 882 1
682 882 1
687 882 1
702 882 1
705 882 1
182 883 1
183 883 1
643 883 1
649 883 1
683 883 1
688 883 1
703 883 1
706 883 1
183 884 1
184 884 1
644 884 1
650 884 1
684 884 1
689 884 1
704 884 1
707 884 1
184 885 1
185 885 1
641 885 1
645 885 1
685 885 1
690 885 1
705 885 1
708 885 1
185 886 1
186 886 1
642 886 1
646 886 1
681 886 1
686 886 1
706 886 1
709 886 1
186 887 1
187 887 1
643 887 1
647 887 1
682 887 1
687 887 1
707 887 1
710 887 1
187 888 1
188 888 1
644 888 1
648 888 1
683 888 1
688 888 1
701 888 1
708 888 1
188 889 1
189 889 1
645 889 1
649 889 1
684 889 1
689 889 1
702 889 1
709 889 1
189 890 1
190 890 1
646 890 1
650 890 1
685 890 1
690 890 1
703 890 1
710 890 1
191 891 1
200 891 1
651 891 1
657 891 1
691 891 1
696 891 1
701 891 1
705 891 1
191 892 1
192 892 1
652 892 1
658 892 1
692 892 1
697 892 1
702 892 1
706 892 1
192 893 1
193 893 1
653 893 1
659 893 1
693 893 1
698 893 1
703 893 1
707 893 1
193 894 1
194 894 1
654 894 1
660 894 1
694 894 1
699 894 1
704 894 1
708 894 1
194 895 1
195 895 1
651 895 1
655 895 1
695 895 1
700 895 1
705 895 1
709 895 1
195 896 1
196 896 1
652 896 1
656 896 1
691 896 1
696 896 1
706 896 1
710 896 1
196 897 1
197 897 1
653 897 1
657 897 1
692 897 1
697 897 1
701 897 1
707 897 1
197 898 1
198 898 1
654 898 1
658 898 1
693 898 1
698 898 1
702 898 1
708 898 1
198 899 1
199 899 1
655 899 1
659 899 1
694 899 1
699 899 1
703 899 1
709 899 1
199 900 1
200 900 1
656 900 1
660 900 1
695 900 1
700 900 1
704 900 1
710 900 1
201 901 1
210 901 1
561 901 1
568 901 1
711 901 1
713 901 1
721 901 1
722 901 1
201 902 1
202 902 1
562 902 1
569 902 1
712 902 1
714 902 1
722 902 1
723 902 1
202 903 1
203 903 1
563 903 1
570 903 1
713 903 1
715 903 1
723 903 1
724 903 1
203 904 1
204 904 1
561 904 1
564 904 1
714 904 1
716 904 1
724 904 1
725 904 1
204 905 1
205 905 1
562 905 1
565 905 1
715 905 1
717 905 1
725 905 1
726 905 1
205 906 1
206 906 1
563 906 1
566 906 1
716 906 1
718 906 1
726 906 1
727 906 1
206 907 1
207 907 1
564 907 1
567 907 1
717 907 1
719 907 1
727 907 1
728 907 1
207 908 1
208 908 1
565 908 1
568 908 1
718 908 1
720 908 1
728 908 1
729 908 1
208 909 1
209 909 1
566 909 1
569 909 1
711 909 1
719 909 1
729 909 1
730 909 1
209 910 1
210 910 1
567 910 1
570 910 1
712 910 1
720 910 1
721 910 1
730 910 1
211 911 1
220 911 1
571 911 1
578 911 1
711 911 1
714 911 1
731 911 1
732 911 1
211 912 1
212 912 1
572 912 1
579 912 1
712 912 1
715 912 1
732 912 1
733 912 1
212 913 1
213 913 1
573 913 1
580 913 1
713 913 1
716 913 1
733 913 1
734 913 1
213 914 1
214 914 1
571 914 1
574 914 1
714 914 1
717 914 1
734 914 1
735 914 1
214 915 1
215 915 1
572 915 1
575 915 1
715 915 1
718 915 1
735 915 1
736 915 1
215 916 1
216 916 1
573 916 1
576 916 1
716 916 1
719 916 1
736 916 1
737 916 1
216 917 1
217 917 1
574 917 1
577 917 1
717 917 1
720 917 1
737 917 1
738 917 1
217 918 1
218 918 1
575 918 1
578 918 1
711 918 1
718 918 1
738 918 1
739 918 1
218 919 1
219 919 1
576 919 1
579 919 1
712 919 1
719 919 1
739 919 1
740 919 1
219 920 1
220 920 1
577 920 1
580 920 1
713 920 1
720 920 1
731 920 1
740 920 1
221 921 1
230 921 1
581 921 1
588 921 1
721 921 1
724 921 1
731 921 1
733 921 1
221 922 1
222 922 1
582 922 1
589 922 1
722 922 1
725 922 1
732 922 1
734 922 1
222 923 1
223 923 1
583 923 1
590 923 1
723 923 1
726 923 1
733 923 1
735 923 1
223 924 1
224 924 1
581 924 1
584 924 1
724 924 1
727 924 1
734 924 1
736 924 1
224 925 1
225 925 1
582 925 1
585 925 1
725 925 1
728 925 1
735 925 1
737 925 1
225 926 1
226 926 1
583 926 1
586 926 1
726 926 1
729 926 1
736 926 1
738 926 1
226 927 1
227 927 1
584 927 1
587 927 1
727 927 1
730 927 1
737 927 1
739 927 1
227 928 1
228 928 1
585 928 1
588 928 1
721 928 1
728 928 1
738 928 1
740 928 1
228 929 1
229 929 1
586 929 1
589 929 1
722 929 1
729 929 1
731 929 1
739 929 1
229 930 1
230 930 1
587 930 1
590 930 1
723 930 1
730 930 1
732 930 1
740 930 1
231 931 1
240 931 1
591 931 1
598 931 1
711 931 1
715 931 1
741 931 1
742 931 1
231 932 1
232 932 1
592 932 1
599 932 1
712 932 1
716 932 1
742 932 1
743 932 1
232 933 1
233 933 1
593 933 1
600 933 1
713 933 1
717 933 1
743 933 1
744 933 1
233 934 1
234 934 1
591 934 1
594 934 1
714 934 1
718 934 1
744 934 1
745 934 1
234 935 1
235 935 1
592 935 1
595 935 1
715 935 1
719 935 1
745 935 1
746 935 1
235 936 1
236 936 1
593 936 1
596 936 1
716 936 1
720 936 1
746 936 1
747 936 1
236 937 1
237 937 1
594 937 1
597 937 1
711 937 1
717 937 1
747 937 1
748 937 1
237 938 1
238 938 1
595 938 1
598 938 1
712 938 1
718 938 1
748 938 1
749 938 1
238 939 1
239 939 1
596 939 1
599 939 1
713 939 1
719 939 1
749 939 1
750 939 1
239 940 1
240 940 1
597 940 1
600 940 1
714 940 1
720 940 1
741 940 1
750 940 1
241 941 1
250 941 1
601 941 1
608 941 1
721 941 1
725 941 1
741 941 1
743 941 1
241 942 1
242 942 1
602 942 1
609 942 1
722 942 1
726 942 1
742 942 1
744 942 1
242 943 1
243 943 1
603 943 1
610 943 1
723 943 1
727 943 1
743 943 1
745 943 1
243 944 1
244 944 1
601 944 1
604 944 1
724 944 1
728 944 1
744 944 1
746 944 1
244 945 1
245 945 1
602 945 1
605 945 1
725 945 1
729 945 1
745 945 1
747 945 1
245 946 1
246 946 1
603 946 1
606 946 1
726 946 1
730 946 1
746 946 1
748 946 1
246 947 1
247 947 1
604 947 1
607 947 1
721 947 1
727 947 1
747 947 1
749 947 1
247 948 1
248 948 1
605 948 1
608 948 1
722 948 1
728 948 1
748 948 1
750 948 1
248 949 1
249 949 1
606 949 1
609 949 1
723 949 1
729 949 1
741 949 1
749 949 1
249 950 1
250 950 1
607 950 1
610 950 1
724 950 1
730 950 1
742 950 1
750 950 1
251 951 1
260 951 1
611 951 1
618 951 1
731 951 1
735 951 1
741 951 1
744 951 1
251 952 1
252 952 1
612 952 1
619 952 1
732 952 1
736 952 1
742 952 1
745 952 1
252 953 1
253 953 1
613 953 1
620 953 1
733 953 1
737 953 1
743 953 1
746 953 1
253 954 1
254 954 1
611 954 1
614 954 1
734 954 1
738 954 1
744 954 1
747 954 1
254 955 1
255 955 1
612 955 1
615 955 1
735 955 1
739 955 1
745 955 1
748 955 1
255 956 1
256 956 1
613 956 1
616 956 1
736 956 1
740 956 1
746 956 1
749 956 1
256 957 1
257 957 1
614 957 1
617 957 1
731 957 1
737 957 1
747 957 1
750 957 1
257 958 1
258 958 1
615 958 1
618 958 1
732 958 1
738 958 1
741 958 1
748 958 1
258 959 1
259 959 1
616 959 1
619 959 1
733 959 1
739 959 1
742 959 1
749 959 1
259 960 1
260 960 1
617 960 1
620 960 1
734 960 1
740 960 1
743 960 1
750 960 1
261 961 1
270 961 1
621 961 1
628 961 1
711 961 1
716 961 1
751 961 1
752 961 1
261 962 1
262 962 1
622 962 1
629 962 1
712 962 1
717 962 1
752 962 1
753 962 1
262 963 1
263 963 1
623 963 1
630 963 1
713 963 1
718 963 1
753 963 1
754 963 1
263 964 1
264 964 1
621 964 1
624 964 1
714 964 1
719 964 1
754 964 1
755 964 1
264 965 1
265 965 1
622 965 1
625 965 1
715 965 1
720 965 1
755 965 1
756 965 1
265 966 1
266 966 1
623 966 1
626 966 1
711 966 1
716 966 1
756 966 1
757 966 1
266 967 1
267 967 1
624 967 1
627 967 1
712 967 1
717 967 1
757 967 1
758 967 1
267 968 1
268 968 1
625 968 1
628 968 1
713 968 1
718 968 1
758 968 1
759 968 1
268 969 1
269 969 1
626 969 1
629 969 1
714 969 1
719 969 1
759 969 1
760 969 1
269 970 1
270 970 1
627 970 1
630 970 1
715 970 1
720 970 1
751 970 1
760 970 1
271 971 1
280 971 1
631 971 1
638 971 1
721 971 1
726 971 1
751 971 1
753 971 1
271 972 1
272 972 1
632 972 1
639 972 1
722 972 1
727 972 1
752 972 1
754 972 1
272 973 1
273 973 1
633 973 1
640 973 1
723 973 1
728 973 1
753 973 1
755 973 1
273 974 1
274 974 1
631 974 1
634 974 1
724 974 1
729 974 1
754 974 1
756 974 1
274 975 1
275 975 1
632 975 1
635 975 1
725 975 1
730 975 1
755 975 1
757 975 1
275 976 1
276 976 1
633 976 1
636 976 1
721 976 1
726 976 1
756 976 1
758 976 1
276 977 1
277 977 1
634 977 1
637 977 1
722 977 1
727 977 1
757 977 1
759 977 1
277 978 1
278 978 1
635 978 1
638 978 1
723 978 1
728 978 1
758 978 1
760 978 1
278 979 1
279 979 1
636 979 1
639 979 1
724 979 1
729 979 1
751 979 1
759 979 1
279 980 1
280 980 1
637 980 1
640 980 1
725 980 1
730 980 1
752 980 1
760 980 1
281 981 1
290 981 1
641 981 1
648 981 1
731 981 1
736 981 1
751 981 1
754 981 1
281 982 1
282 982 1
642 982 1
649 982 1
732 982 1
737 982 1
752 982 1
755 982 1
282 983 1
283 983 1
643 983 1
650 983 1
733 983 1
738 983 1
753 983 1
756 983 1
283 984 1
284 984 1
641 984 1
644 984 1
734 984 1
739 984 1
754 984 1
757 984 1
284 985 1
285 985 1
642 985 1
645 985 1
735 985 1
740 985 1
755 985 1
758 985 1
285 986 1
286 986 1
643 986 1
646 986 1
731 986 1
736 986 1
756 986 1
759 986 1
286 987 1
287 987 1
644 987 1
647 987 1
732 987 1
737 987 1
757 987 1
760 987 1
287 988 1
288 988 1
645 988 1
648 988 1
733 988 1
738 988 1
751 988 1
758 988 1
288 989 1
289 989 1
646 989 1
649 989 1
734 989 1
739 989 1
752 989 1
759 989 1
289 990 1
290 990 1
647 990 1
650 990 1
735 990 1
740 990 1
753 990 1
760 990 1
291 991 1
300 991 1
651 991 1
658 991 1
741 991 1
746 991 1
751 991 1
755 991 1
291 992 1
292 992 1
652 992 1
659 992 1
742 992 1
747 992 1
752 992 1
756 992 1
292 993 1
293 993 1
653 993 1
660 993 1
743 993 1
748 993 1
753 993 1
757 993 1
293 994 1
294 994 1
651 994 1
654 994 1
744 994 1
749 994 1
754 994 1
758 994 1
294 995 1
295 995 1
652 995 1
655 995 1
745 995 1
750 995 1
755 995 1
759 995 1
295 996 1
296 996 1
653 996 1
656 996 1
741 996 1
746 996 1
756 996 1
760 996 1
296 997 1
297 997 1
654 997 1
657 997 1
742 997 1
747 997 1
751 997 1
757 997 1
297 998 1
298 998 1
655 998 1
658 998 1
743 998 1
748 998 1
752 998 1
758 998 1
298 999 1
299 999 1
656 999 1
659 999 1
744 999 1
749 999 1
753 999 1
759 999 1
299 1000 1
300 1000 1
657 1000 1
660 1000 1
745 1000 1
750 1000 1
754 1000 1
760 1000 1
301 1001 1
310 1001 1
661 1001 1
668 1001 1
711 1001 1
717 1001 1
761 1001 1
762 1001 1
301 1002 1
302 1002 1
662 1002 1
669 1002 1
712 1002 1
718 1002 1
762 1002 1
763 1002 1
302 1003 1
303 1003 1
663 1003 1
670 1003 1
713 1003 1
719 1003 1
763 1003 1
764 1003 1
303 1004 1
304 1004 1
661 1004 1
664 1004 1
714 1004 1
720 1004 1
764 1004 1
765 1004 1
304 1005 1
305 1005 1
662 1005 1
665 1005 1
711 1005 1
715 1005 1
765 1005 1
766 1005 1
305 1006 1
306 1006 1
663 1006 1
666 1006 1
712 1006 1
716 1006 1
766 1006 1
767 1006 1
306 1007 1
307 1007 1
664 1007 1
667 1007 1
713 1007 1
717 1007 1
767 1007 1
768 1007 1
307 1008 1
308 1008 1
665 1008 1
668 1008 1
714 1008 1
718 1008 1
768 1008 1
769 1008 1
308 1009 1
309 1009 1
666 1009 1
669 1009 1
715 1009 1
719 1009 1
769 1009 1
770 1009 1
309 1010 1
310 1010 1
667 1010 1
670 1010 1
716 1010 1
720 1010 1
761 1010 1
770 1010 1
311 1011 1
320 1011 1
671 1011 1
678 1011 1
721 1011 1
727 1011 1
761 1011 1
763 1011 1
311 1012 1
312 1012 1
672 1012 1
679 1012 1
722 1012 1
728 1012 1
762 1012 1
764 1012 1
312 1013 1
313 1013 1
673 1013 1
680 1013 1
723 1013 1
729 1013 1
763 1013 1
765 1013 1
313 1014 1
314 1014 1
671 1014 1
674 1014 1
724 1014 1
730 1014 1
764 1014 1
766 1014 1
314 1015 1
315 1015 1
672 1015 1
675 1015 1
721 1015 1
725 1015 1
765 1015 1
767 1015 1
315 1016 1
316 1016 1
673 1016 1
676 1016 1
722 1016 1
726 1016 1
766 1016 1
768 1016 1
316 1017 1
317 1017 1
674 1017 1
677 1017 1
723 1017 1
727 1017 1
767 1017 1
769 1017 1
317 1018 1
318 1018 1
675 1018 1
678 1018 1
724 1018 1
728 1018 1
768 1018 1
770 1018 1
318 1019 1
319 1019 1
676 1019 1
679 1019 1
725 1019 1
729 1019 1
761 1019 1
769 1019 1
319 1020 1
320 1020 1
677 1020 1
680 1020 1
726 1020 1
730 1020 1
762 1020 1
770 1020 1
321 1021 1
330 1021 1
681 1021 1
688 1021 1
731 1021 1
737 1021 1
761 1021 1
764 1021 1
321 1022 1
322 1022 1
682 1022 1
689 1022 1
732 1022 1
738 1022 1
762 1022 1
765 1022 1
322 1023 1
323 1023 1
683 1023 1
690 1023 1
733 1023 1
739 1023 1
763 1023 1
766 1023 1
323 1024 1
324 1024 1
681 1024 1
684 1024 1
734 1024 1
740 1024 1
764 1024 1
767 1024 1
324 1025 1
325 1025 1
682 1025 1
685 1025 1
731 1025 1
735 1025 1
765 1025 1
768 1025 1
325 1026 1
326 1026 1
683 1026 1
686 1026 1
732 1026 1
736 1026 1
766 1026 1
769 1026 1
326 1027 1
327 1027 1
684 1027 1
687 1027 1
733 1027 1
737 1027 1
767 1027 1
770 1027 1
327 1028 1
328 1028 1
685 1028 1
688 1028 1
734 1028 1
738 1028 1
761 1028 1
768 1028 1
328 1029 1
329 1029 1
686 1029 1
689 1029 1
735 1029 1
739 1029 1
762 1029 1
769 1029 1
329 1030 1
330 1030 1
687 1030 1
690 1030 1
736 1030 1
740 1030 1
763 1030 1
770 1030 1
331 1031 1
340 1031 1
691 1031 1
698 1031 1
741 1031 1
747 1031 1
761 1031 1
765 1031 1
331 1032 1
332 1032 1
692 1032 1
699 1032 1
742 1032 1
748 1032 1
762 1032 1
766 1032 1
332 1033 1
333 1033 1
693 1033 1
700 1033 1
743 1033 1
749 1033 1
763 1033 1
767 1033 1
333 1034 1
334 1034 1
691 1034 1
694 1034 1
744 1034 1
750 1034 1
764 1034 1
768 1034 1
334 1035 1
335 1035 1
692 1035 1
695 1035 1
741 1035 1
745 1035 1
765 1035 1
769 1035 1
335 1036 1
336 1036 1
693 1036 1
696 1036 1
742 1036 1
746 1036 1
766 1036 1
770 1036 1
336 1037 1
337 1037 1
694 1037 1
697 1037 1
743 1037 1
747 1037 1
761 1037 1
767 1037 1
337 1038 1
338 1038 1
695 1038 1
698 1038 1
744 1038 1
748 1038 1
762 1038 1
768 1038 1
338 1039 1
339 1039 1
696 1039 1
699 1039 1
745 1039 1
749 1039 1
763 1039 1
769 1039 1
339 1040 1
340 1040 1
697 1040 1
700 1040 1
746 1040 1
750 1040 1
764 1040 1
770 1040 1
341 1041 1
350 1041 1
701 1041 1
708 1041 1
751 1041 1
757 1041 1
761 1041 1
766 1041 1
341 1042 1
342 1042 1
702 1042 1
709 1042 1
752 1042 1
758 1042 1
762 1042 1
767 1042 1
342 1043 1
343 1043 1
703 1043 1
710 1043 1
753 1043 1
759 1043 1
763 1043 1
768 1043 1
343 1044 1
344 1044 1
701 1044 1
704 1044 1
754 1044 1
760 1044 1
764 1044 1
769 1044 1
344 1045 1
345 1045 1
702 1045 1
705 1045 1
751 1045 1
755 1045 1
765 1045 1
770 1045 1
345 1046 1
346 1046 1
703 1046 1
706 1046 1
752 1046 1
756 1046 1
761 1046 1
766 1046 1
346 1047 1
347 1047 1
704 1047 1
707 1047 1
753 1047 1
757 1047 1
762 1047 1
767 1047 1
347 1048 1
348 1048 1
705 1048 1
708 1048 1
754 1048 1
758 1048 1
763 1048 1
768 1048 1
348 1049 1
349 1049 1
706 1049 1
709 1049 1
755 1049 1
759 1049 1
764 1049 1
769 1049 1
349 1050 1
350 1050 1
707 1050 1
710 1050 1
756 1050 1
760 1050 1
765 1050 1
770 1050 1
351 1051 1
360 1051 1
561 1051 1
569 1051 1
771 1051 1
773 1051 1
781 1051 1
782 1051 1
351 1052 1
352 1052 1
562 1052 1
570 1052 1
772 1052 1
774 1052 1
782 1052 1
783 1052 1
352 1053 1
353 1053 1
561 1053 1
563 1053 1
773 1053 1
775 1053 1
783 1053 1
784 1053 1
353 1054 1
354 1054 1
562 1054 1
564 1054 1
774 1054 1
776 1054 1
784 1054 1
785 1054 1
354 1055 1
355 1055 1
563 1055 1
565 1055 1
775 1055 1
777 1055 1
785 1055 1
786 1055 1
355 1056 1
356 1056 1
564 1056 1
566 1056 1
776 1056 1
778 1056 1
786 1056 1
787 1056 1
356 1057 1
357 1057 1
565 1057 1
567 1057 1
777 1057 1
779 1057 1
787 1057 1
788 1057 1
357 1058 1
358 1058 1
566 1058 1
568 1058 1
778 1058 1
780 1058 1
788 1058 1
789 1058 1
358 1059 1
359 1059 1
567 1059 1
569 1059 1
771 1059 1
779 1059 1
789 1059 1
790 1059 1
359 1060 1
360 1060 1
568 1060 1
570 1060 1
772 1060 1
780 1060 1
781 1060 1
790 1060 1
361 1061 1
370 1061 1
571 1061 1
579 1061 1
771 1061 1
774 1061 1
791 1061 1
792 1061 1
361 1062 1
362 1062 1
572 1062 1
580 1062 1
772 1062 1
775 1062 1
792 1062 1
793 1062 1
362 1063 1
363 1063 1
571 1063 1
573 1063 1
773 1063 1
776 1063 1
793 1063 1
794 1063 1
363 1064 1
364 1064 1
572 1064 1
574 1064 1
774 1064 1
777 1064 1
794 1064 1
795 1064 1
364 1065 1
365 1065 1
573 1065 1
575 1065 1
775 1065 1
778 1065 1
795 1065 1
796 1065 1
365 1066 1
366 1066 1
574 1066 1
576 1066 1
776 1066 1
779 1066 1
796 1066 1
797 1066 1
366 1067 1
367 1067 1
575 1067 1
577 1067 1
777 1067 1
780 1067 1
797 1067 1
798 1067 1
367 1068 1
368 1068 1
576 1068 1
578 1068 1
771 1068 1
778 1068 1
798 1068 1
799 1068 1
368 1069 1
369 1069 1
577 1069 1
579 1069 1
772 1069 1
779 1069 1
799 1069 1
800 1069 1
369 1070 1
370 1070 1
578 1070 1
580 1070 1
773 1070 1
780 1070 1
791 1070 1
800 1070 1
371 1071 1
380 1071 1
581 1071 1
589 1071 1
781 1071 1
784 1071 1
791 1071 1
793 1071 1
371 1072 1
372 1072 1
582 1072 1
590 1072 1
782 1072 1
785 1072 1
792 1072 1
794 1072 1
372 1073 1
373 1073 1
581 1073 1
583 1073 1
783 1073 1
786 1073 1
793 1073 1
795 1073 1
373 1074 1
374 1074 1
582 1074 1
584 1074 1
784 1074 1
787 1074 1
794 1074 1
796 1074 1
374 1075 1
375 1075 1
583 1075 1
585 1075 1
785 1075 1
788 1075 1
795 1075 1
797 1075 1
375 1076 1
376 1076 1
584 1076 1
586 1076 1
786 1076 1
789 1076 1
796 1076 1
798 1076 1
376 1077 1
377 1077 1
585 1077 1
587 1077 1
787 1077 1
790 1077 1
797 1077 1
799 1077 1
377 1078 1
378 1078 1
586 1078 1
588 1078 1
781 1078 1
788 1078 1
798 1078 1
800 1078 1
378 1079 1
379 1079 1
587 1079 1
589 1079 1
782 1079 1
789 1079 1
791 1079 1
799 1079 1
379 1080 1
380 1080 1
588 1080 1
590 1080 1
783 1080 1
790 1080 1
792 1080 1
800 1080 1
381 1081 1
390 1081 1
591 1081 1
599 1081 1
771 1081 1
775 1081 1
801 1081 1
802 1081 1
381 1082 1
382 1082 1
592 1082 1
600 1082 1
772 1082 1
776 1082 1
802 1082 1
803 1082 1
382 1083 1
383 1083 1
591 1083 1
593 1083 1
773 1083 1
777 1083 1
803 1083 1
804 1083 1
383 1084 1
384 1084 1
592 1084 1
594 1084 1
774 1084 1
778 1084 1
804 1084 1
805 1084 1
384 1085 1
385 1085 1
593 1085 1
595 1085 1
775 1085 1
779 1085 1
805 1085 1
806 1085 1
385 1086 1
386 1086 1
594 1086 1
596 1086 1
776 1086 1
780 1086 1
806 1086 1
807 1086 1
386 1087 1
387 1087 1
595 1087 1
597 1087 1
771 1087 1
777 1087 1
807 1087 1
808 1087 1
387 1088 1
388 1088 1
596 1088 1
598 1088 1
772 1088 1
778 1088 1
808 1088 1
809 1088 1
388 1089 1
389 1089 1
597 1089 1
599 1089 1
773 1089 1
779 1089 1
809 1089 1
810 1089 1
389 1090 1
390 1090 1
598 1090 1
600 1090 1
774 1090 1
780 1090 1
801 1090 1
810 1090 1
391 1091 1
400 1091 1
601 1091 1
609 1091 1
781 1091 1
785 1091 1
801 1091 1
803 1091 1
391 1092 1
392 1092 1
602 1092 1
610 1092 1
782 1092 1
786 1092 1
802 1092 1
804 1092 1
392 1093 1
393 1093 1
601 1093 1
603 1093 1
783 1093 1
787 1093 1
803 1093 1
805 1093 1
393 1094 1
394 1094 1
602 1094 1
604 1094 1
784 1094 1
788 1094 1
804 1094 1
806 1094 1
394 1095 1
395 1095 1
603 1095 1
605 1095 1
785 1095 1
789 1095 1
805 1095 1
807 1095 1
395 1096 1
396 1096 1
604 1096 1
606 1096 1
786 1096 1
790 1096 1
806 1096 1
808 1096 1
396 1097 1
397 1097 1
605 1097 1
607 1097 1
781 1097 1
787 1097 1
807 1097 1
809 1097 1
397 1098 1
398 1098 1
606 1098 1
608 1098 1
782 1098 1
788 1098 1
808 1098 1
810 1098 1
398 1099 1
399 1099 1
607 1099 1
609 1099 1
783 1099 1
789 1099 1
801 1099 1
809 1099 1
399 1100 1
400 1100 1
608 1100 1
610 1100 1
784 1100 1
790 1100 1
802 1100 1
810 1100 1
401 1101 1
410 1101 1
611 1101 1
619 1101 1
791 1101 1
795 1101 1
801 1101 1
804 1101 1
401 1102 1
402 1102 1
612 1102 1
620 1102 1
792 1102 1
796 1102 1
802 1102 1
805 1102 1
402 1103 1
403 1103 1
611 1103 1
613 1103 1
793 1103 1
797 1103 1
803 1103 1
806 1103 1
403 1104 1
404 1104 1
612 1104 1
614 1104 1
794 1104 1
798 1104 1
804 1104 1
807 1104 1
404 1105 1
405 1105 1
613 1105 1
615 1105 1
795 1105 1
799 1105 1
805 1105 1
808 1105 1
405 1106 1
406 1106 1
614 1106 1
616 1106 1
796 1106 1
800 1106 1
806 1106 1
809 1106 1
406 1107 1
407 1107 1
615 1107 1
617 1107 1
791 1107 1
797 1107 1
807 1107 1
810 1107 1
407 1108 1
408 1108 1
616 1108 1
618 1108 1
792 1108 1
798 1108 1
801 1108 1
808 1108 1
408 1109 1
409 1109 1
617 1109 1
619 1109 1
793 1109 1
799 1109 1
802 1109 1
809 1109 1
409 1110 1
410 1110 1
618 1110 1
620 1110 1
794 1110 1
800 1110 1
803 1110 1
810 1110 1
411 1111 1
420 1111 1
621 1111 1
629 1111 1
771 1111 1
776 1111 1
811 1111 1
812 1111 1
411 1112 1
412 1112 1
622 1112 1
630 1112 1
772 1112 1
777 1112 1
812 1112 1
813 1112 1
412 1113 1
413 1113 1
621 1113 1
623 1113 1
773 1113 1
778 1113 1
813 1113 1
814 1113 1
413 1114 1
414 1114 1
622 1114 1
624 1114 1
774 1114 1
779 1114 1
814 1114 1
815 1114 1
414 1115 1
415 1115 1
623 1115 1
625 1115 1
775 1115 1
780 1115 1
815 1115 1
816 1115 1
415 1116 1
416 1116 1
624 1116 1
626 1116 1
771 1116 1
776 1116 1
816 1116 1
817 1116 1
416 1117 1
417 1117 1
625 1117 1
627 1117 1
772 1117 1
777 1117 1
817 1117 1
818 1117 1
417 1118 1
418 1118 1
626 1118 1
628 1118 1
773 1118 1
778 1118 1
818 1118 1
819 1118 1
418 1119 1
419 1119 1
627 1119 1
629 1119 1
774 1119 1
779 1119 1
819 1119 1
820 1119 1
419 1120 1
420 1120 1
628 1120 1
630 1120 1
775 1120 1
780 1120 1
811 1120 1
820 1120 1
421 1121 1
430 1121 1
631 1121 1
639 1121 1
781 1121 1
786 1121 1
811 1121 1
813 1121 1
421 1122 1
422 1122 1
632 1122 1
640 1122 1
782 1122 1
787 1122 1
812 1122 1
814 1122 1
422 1123 1
423 1123 1
631 1123 1
633 1123 1
783 1123 1
788 1123 1
813 1123 1
815 1123 1
423 1124 1
424 1124 1
632 1124 1
634 1124 1
784 1124 1
789 1124 1
814 1124 1
816 1124 1
424 1125 1
425 1125 1
633 1125 1
635 1125 1
785 1125 1
790 1125 1
815 1125 1
817 1125 1
425 1126 1
426 1126 1
634 1126 1
636 1126 1
781 1126 1
786 1126 1
816 1126 1
818 1126 1
426 1127 1
427 1127 1
635 1127 1
637 1127 1
782 1127 1
787 1127 1
817 1127 1
819 1127 1
427 1128 1
428 1128 1
636 1128 1
638 1128 1
783 1128 1
788 1128 1
818 1128 1
820 1128 1
428 1129 1
429 1129 1
637 1129 1
639 1129 1
784 1129 1
789 1129 1
811 1129 1
819 1129 1
429 1130 1
430 1130 1
638 1130 1
640 1130 1
785 1130 1
790 1130 1
812 1130 1
820 1130 1
431 1131 1
440 1131 1
641 1131 1
649 1131 1
791 1131 1
796 1131 1
811 1131 1
814 1131 1
431 1132 1
432 1132 1
642 1132 1
650 1132 1
792 1132 1
797 1132 1
812 1132 1
815 1132 1
432 1133 1
433 1133 1
641 1133 1
643 1133 1
793 1133 1
798 1133 1
813 1133 1
816 1133 1
433 1134 1
434 1134 1
642 1134 1
644 1134 1
794 1134 1
799 1134 1
814 1134 1
817 1134 1
434 1135 1
435 1135 1
643 1135 1
645 1135 1
795 1135 1
800 1135 1
815 1135 1
818 1135 1
435 1136 1
436 1136 1
644 1136 1
646 1136 1
791 1136 1
796 1136 1
816 1136 1
819 1136 1
436 1137 1
437 1137 1
645 1137 1
647 1137 1
792 1137 1
797 1137 1
817 1137 1
820 1137 1
437 1138 1
438 1138 1
646 1138 1
648 1138 1
793 1138 1
798 1138 1
811 1138 1
818 1138 1
438 1139 1
439 1139 1
647 1139 1
649 1139 1
794 1139 1
799 1139 1
812 1139 1
819 1139 1
439 1140 1
440 1140 1
648 1140 1
650 1140 1
795 1140 1
800 1140 1
813 1140 1
820 1140 1
441 1141 1
450 1141 1
651 1141 1
659 1141 1
801 1141 1
806 1141 1
811 1141 1
815 1141 1
441 1142 1
442 1142 1
652 1142 1
660 1142 1
802 1142 1
807 1142 1
812 1142 1
816 1142 1
442 1143 1
443 1143 1
651 1143 1
653 1143 1
803 1143 1
808 1143 1
813 1143 1
817 1143 1
443 1144 1
444 1144 1
652 1144 1
654 1144 1
804 1144 1
809 1144 1
814 1144 1
818 1144 1
444 1145 1
445 1145 1
653 1145 1
655 1145 1
805 1145 1
810 1145 1
815 1145 1
819 1145 1
445 1146 1
446 1146 1
654 1146 1
656 1146 1
801 1146 1
806 1146 1
816 1146 1
820 1146 1
446 1147 1
447 1147 1
655 1147 1
657 1147 1
802 1147 1
807 1147 1
811 1147 1
817 1147 1
447 1148 1
448 1148 1
656 1148 1
658 1148 1
803 1148 1
808 1148 1
812 1148 1
818 1148 1
448 1149 1
449 1149 1
657 1149 1
659 1149 1
804 1149 1
809 1149 1
813 1149 1
819 1149 1
449 1150 1
450 1150 1
658 1150 1
660 1150 1
805 1150 1
810 1150 1
814 1150 1
820 1150 1
451 1151 1
460 1151 1
661 1151 1
669 1151 1
771 1151 1
777 1151 1
821 1151 1
822 1151 1
451 1152 1
452 1152 1
662 1152 1
670 1152 1
772 1152 1
778 1152 1
822 1152 1
823 1152 1
452 1153 1
453 1153 1
661 1153 1
663 1153 1
773 1153 1
779 1153 1
823 1153 1
824 1153 1
453 1154 1
454 1154 1
662 1154 1
664 1154 1
774 1154 1
780 1154 1
824 1154 1
825 1154 1
454 1155 1
455 1155 1
663 1155 1
665 1155 1
771 1155 1
775 1155 1
825 1155 1
826 1155 1
455 1156 1
456 1156 1
664 1156 1
666 1156 1
772 1156 1
776 1156 1
826 1156 1
827 1156 1
456 1157 1
457 1157 1
665 1157 1
667 1157 1
773 1157 1
777 1157 1
827 1157 1
828 1157 1
457 1158 1
458 1158 1
666 1158 1
668 1158 1
774 1158 1
778 1158 1
828 1158 1
829 1158 1
458 1159 1
459 1159 1
667 1159 1
669 1159 1
775 1159 1
779 1159 1
829 1159 1
830 1159 1
459 1160 1
460 1160 1
668 1160 1
670 1160 1
776 1160 1
780 1160 1
821 1160 1
830 1160 1
461 1161 1
470 1161 1
671 1161 1
679 1161 1
781 1161 1
787 1161 1
821 1161 1
823 1161 1
461 1162 1
462 1162 1
672 1162 1
680 1162 1
782 1162 1
788 1162 1
822 1162 1
824 1162 1
462 1163 1
463 1163 1
671 1163 1
673 1163 1
783 1163 1
789 1163 1
823 1163 1
825 1163 1
463 1164 1
464 1164 1
672 1164 1
674 1164 1
784 1164 1
790 1164 1
824 1164 1
826 1164 1
464 1165 1
465 1165 1
673 1165 1
675 1165 1
781 1165 1
785 1165 1
825 1165 1
827 1165 1
465 1166 1
466 1166 1
674 1166 1
676 1166 1
782 1166 1
786 1166 1
826 1166 1
828 1166 1
466 1167 1
467 1167 1
675 1167 1
677 1167 1
783 1167 1
787 1167 1
827 1167 1
829 1167 1
467 1168 1
468 1168 1
676 1168 1
678 1168 1
784 1168 1
788 1168 1
828 1168 1
830 1168 1
468 1169 1
469 1169 1
677 1169 1
679 1169 1
785 1169 1
789 1169 1
821 1169 1
829 1169 1
469 1170 1
470 1170 1
678 1170 1
680 1170 1
786 1170 1
790 1170 1
822 1170 1
830 1170 1
471 1171 1
480 1171 1
681 1171 1
689 1171 1
791 1171 1
797 1171 1
821 1171 1
824 1171 1
471 1172 1
472 1172 1
682 1172 1
690 1172 1
792 1172 1
798 1172 1
822 1172 1
825 1172 1
472 1173 1
473 1173 1
681 1173 1
683 1173 1
793 1173 1
799 1173 1
823 1173 1
826 1173 1
473 1174 1
474 1174 1
682 1174 1
684 1174 1
794 1174 1
800 1174 1
824 1174 1
827 1174 1
474 1175 1
475 1175 1
683 1175 1
685 1175 1
791 1175 1
795 1175 1
825 1175 1
828 1175 1
475 1176 1
476 1176 1
684 1176 1
686 1176 1
792 1176 1
796 1176 1
826 1176 1
829 1176 1
476 1177 1
477 1177 1
685 1177 1
687 1177 1
793 1177 1
797 1177 1
827 1177 1
830 1177 1
477 1178 1
478 1178 1
686 1178 1
688 1178 1
794 1178 1
798 1178 1
821 1178 1
828 1178 1
478 1179 1
479 1179 1
687 1179 1
689 1179 1
795 1179 1
799 1179 1
822 1179 1
829 1179 1
479 1180 1
480 1180 1
688 1180 1
690 1180 1
796 1180 1
800 1180 1
823 1180 1
830 1180 1
481 1181 1
490 1181 1
691 1181 1
699 1181 1
801 1181 1
807 1181 1
821 1181 1
825 1181 1
481 1182 1
482 1182 1
692 1182 1
700 1182 1
802 1182 1
808 1182 1
822 1182 1
826 1182 1
482 1183 1
483 1183 1
691 1183 1
693 1183 1
803 1183 1
809 1183 1
823 1183 1
827 1183 1
483 1184 1
484 1184 1
692 1184 1
694 1184 1
804 1184 1
810 1184 1
824 1184 1
828 1184 1
484 1185 1
485 1185 1
693 1185 1
695 1185 1
801 1185 1
805 1185 1
825 1185 1
829 1185 1
485 1186 1
486 1186 1
694 1186 1
696 1186 1
802 1186 1
806 1186 1
826 1186 1
830 1186 1
486 1187 1
487 1187 1
695 1187 1
697 1187 1
803 1187 1
807 1187 1
821 1187 1
827 1187 1
487 1188 1
488 1188 1
696 1188 1
698 1188 1
804 1188 1
808 1188 1
822 1188 1
828 1188 1
488 1189 1
489 1189 1
697 1189 1
699 1189 1
805 1189 1
809 1189 1
823 1189 1
829 1189 1
489 1190 1
490 1190 1
698 1190 1
700 1190 1
806 1190 1
810 1190 1
824 1190 1
830 1190 1
491 1191 1
500 1191 1
701 1191 1
709 1191 1
811 1191 1
817 1191 1
821 1191 1
826 1191 1
491 1192 1
492 1192 1
702 1192 1
710 1192 1
812 1192 1
818 1192 1
822 1192 1
827 1192 1
492 1193 1
493 1193 1
701 1193 1
703 1193 1
813 1193 1
819 1193 1
823 1193 1
828 1193 1
493 1194 1
494 1194 1
702 1194 1
704 1194 1
814 1194 1
820 1194 1
824 1194 1
829 1194 1
494 1195 1
495 1195 1
703 1195 1
705 1195 1
811 1195 1
815 1195 1
825 1195 1
830 1195 1
495 1196 1
496 1196 1
704 1196 1
706 1196 1
812 1196 1
816 1196 1
821 1196 1
826 1196 1
496 1197 1
497 1197 1
705 1197 1
707 1197 1
813 1197 1
817 1197 1
822 1197 1
827 1197 1
497 1198 1
498 1198 1
706 1198 1
708 1198 1
814 1198 1
818 1198 1
823 1198 1
828 1198 1
498 1199 1
499 1199 1
707 1199 1
709 1199 1
815 1199 1
819 1199 1
824 1199 1
829 1199 1
499 1200 1
500 1200 1
708 1200 1
710 1200 1
816 1200 1
820 1200 1
825 1200 1
830 1200 1
501 1201 1
510 1201 1
711 1201 1
719 1201 1
771 1201 1
778 1201 1
831 1201 1
832 1201 1
501 1202 1
502 1202 1
712 1202 1
720 1202 1
772 1202 1
779 1202 1
832 1202 1
833 1202 1
502 1203 1
503 1203 1
711 1203 1
713 1203 1
773 1203 1
780 1203 1
833 1203 1
834 1203 1
503 1204 1
504 1204 1
712 1204 1
714 1204 1
771 1204 1
774 1204 1
834 1204 1
835 1204 1
504 1205 1
505 1205 1
713 1205 1
715 1205 1
772 1205 1
775 1205 1
835 1205 1
836 1205 1
505 1206 1
506 1206 1
714 1206 1
716 1206 1
773 1206 1
776 1206 1
836 1206 1
837 1206 1
506 1207 1
507 1207 1
715 1207 1
717 1207 1
774 1207 1
777 1207 1
837 1207 1
838 1207 1
507 1208 1
508 1208 1
716 1208 1
718 1208 1
775 1208 1
778 1208 1
838 1208 1
839 1208 1
508 1209 1
509 1209 1
717 1209 1
719 1209 1
776 1209 1
779 1209 1
839 1209 1
840 1209 1
509 1210 1
510 1210 1
718 1210 1
720 1210 1
777 1210 1
780 1210 1
831 1210 1
840 1210 1
511 1211 1
520 1211 1
721 1211 1
729 1211 1
781 1211 1
788 1211 1
831 1211 1
833 1211 1
511 1212 1
512 1212 1
722 1212 1
730 1212 1
782 1212 1
789 1212 1
832 1212 1
834 1212 1
512 1213 1
513 1213 1
721 1213 1
723 1213 1
783 1213 1
790 1213 1
833 1213 1
835 1213 1
513 1214 1
514 1214 1
722 1214 1
724 1214 1
781 1214 1
784 1214 1
834 1214 1
836 1214 1
514 1215 1
515 1215 1
723 1215 1
725 1215 1
782 1215 1
785 1215 1
835 1215 1
837 1215 1
515 1216 1
516 1216 1
724 1216 1
726 1216 1
783 1216 1
786 1216 1
836 1216 1
838 1216 1
516 1217 1
517 1217 1
725 1217 1
727 1217 1
784 1217 1
787 1217 1
837 1217 1
839 1217 1
517 1218 1
518 1218 1
726 1218 1
728 1218 1
785 1218 1
788 1218 1
838 1218 1
840 1218 1
518 1219 1
519 1219 1
727 1219 1
729 1219 1
786 1219 1
789 1219 1
831 1219 1
839 1219 1
519 1220 1
520 1220 1
728 1220 1
730 1220 1
787 1220 1
790 1220 1
832 1220 1
840 1220 1
521 1221 1
530 1221 1
731 1221 1
739 1221 1
791 1221 1
798 1221 1
831 1221 1
834 1221 1
521 1222 1
522 1222 1
732 1222 1
740 1222 1
792 1222 1
799 1222 1
832 1222 1
835 1222 1
522 1223 1
523 1223 1
731 1223 1
733 1223 1
793 1223 1
800 1223 1
833 1223 1
836 1223 1
523 1224 1
524 1224 1
732 1224 1
734 1224 1
791 1224 1
794 1224 1
834 1224 1
837 1224 1
524 1225 1
525 1225 1
733 1225 1
735 1225 1
792 1225 1
795 1225 1
835 1225 1
838 1225 1
525 1226 1
526 1226 1
734 1226 1
736 1226 1
793 1226 1
796 1226 1
836 1226 1
839 1226 1
526 1227 1
527 1227 1
735 1227 1
737 1227 1
794 1227 1
797 1227 1
837 1227 1
840 1227 1
527 1228 1
528 1228 1
736 1228 1
738 1228 1
795 1228 1
798 1228 1
831 1228 1
838 1228 1
528 1229 1
529 1229 1
737 1229 1
739 1229 1
796 1229 1
799 1229 1
832 1229 1
839 1229 1
529 1230 1
530 1230 1
738 1230 1
740 1230 1
797 1230 1
800 1230 1
833 1230 1
840 1230 1
531 1231 1
540 1231 1
741 1231 1
749 1231 1
801 1231 1
808 1231 1
831 1231 1
835 1231 1
531 1232 1
532 1232 1
742 1232 1
750 1232 1
802 1232 1
809 1232 1
832 1232 1
836 1232 1
532 1233 1
533 1233 1
741 1233 1
743 1233 1
803 1233 1
810 1233 1
833 1233 1
837 1233 1
533 1234 1
534 1234 1
742 1234 1
744 1234 1
801 1234 1
804 1234 1
834 1234 1
838 1234 1
534 1235 1
535 1235 1
743 1235 1
745 1235 1
802 1235 1
805 1235 1
835 1235 1
839 1235 1
535 1236 1
536 1236 1
744 1236 1
746 1236 1
803 1236 1
806 1236 1
836 1236 1
840 1236 1
536 1237 1
537 1237 1
745 1237 1
747 1237 1
804 1237 1
807 1237 1
831 1237 1
837 1237 1
537 1238 1
538 1238 1
746 1238 1
748 1238 1
805 1238 1
808 1238 1
832 1238 1
838 1238 1
538 1239 1
539 1239 1
747 1239 1
749 1239 1
806 1239 1
809 1239 1
833 1239 1
839 1239 1
539 1240 1
540 1240 1
748 1240 1
750 1240 1
807 1240 1
810 1240 1
834 1240 1
840 1240 1
541 1241 1
550 1241 1
751 1241 1
759 1241 1
811 1241 1
818 1241 1
831 1241 1
836 1241 1
541 1242 1
542 1242 1
752 1242 1
760 1242 1
812 1242 1
819 1242 1
832 1242 1
837 1242 1
542 1243 1
543 1243 1
751 1243 1
753 1243 1
813 1243 1
820 1243 1
833 1243 1
838 1243 1
543 1244 1
544 1244 1
752 1244 1
754 1244 1
811 1244 1
814 1244 1
834 1244 1
839 1244 1
544 1245 1
545 1245 1
753 1245 1
755 1245 1
812 1245 1
815 1245 1
835 1245 1
840 1245 1
545 1246 1
546 1246 1
754 1246 1
756 1246 1
813 1246 1
816 1246 1
831 1246 1
836 1246 1
546 1247 1
547 1247 1
755 1247 1
757 1247 1
814 1247 1
817 1247 1
832 1247 1
837 1247 1
547 1248 1
548 1248 1
756 1248 1
758 1248 1
815 1248 1
818 1248 1
833 1248 1
838 1248 1
548 1249 1
549 1249 1
757 1249 1
759 1249 1
816 1249 1
819 1249 1
834 1249 1
839 1249 1
549 1250 1
550 1250 1
758 1250 1
760 1250 1
817 1250 1
820 1250 1
835 1250 1
840 1250 1
551 1251 1
560 1251 1
761 1251 1
769 1251 1
821 1251 1
828 1251 1
831 1251 1
837 1251 1
551 1252 1
552 1252 1
762 1252 1
770 1252 1
822 1252 1
829 1252 1
832 1252 1
838 1252 1
552 1253 1
553 1253 1
761 1253 1
763 1253 1
823 1253 1
830 1253 1
833 1253 1
839 1253 1
553 1254 1
554 1254 1
762 1254 1
764 1254 1
821 1254 1
824 1254 1
834 1254 1
840 1254 1
554 1255 1
555 1255 1
763 1255 1
765 1255 1
822 1255 1
825 1255 1
831 1255 1
835 1255 1
555 1256 1
556 1256 1
764 1256 1
766 1256 1
823 1256 1
826 1256 1
832 1256 1
836 1256 1
556 1257 1
557 1257 1
765 1257 1
767 1257 1
824 1257 1
827 1257 1
833 1257 1
837 1257 1
557 1258 1
558 1258 1
766 1258 1
768 1258 1
825 1258 1
828 1258 1
834 1258 1
838 1258 1
558 1259 1
559 1259 1
767 1259 1
769 1259 1
826 1259 1
829 1259 1
835 1259 1
839 1259 1
559 1260 1
560 1260 1
768 1260 1
770 1260 1
827 1260 1
830 1260 1
836 1260 1
840 1260 1
