%%MatrixMarket matrix coordinate integer general
% Binary matrix; one-based indices; arithmetic over GF(2)
156 234 936
1 1 1
15 1 1
40 1 1
41 1 1
2 2 1
16 2 1
41 2 1
42 2 1
3 3 1
17 3 1
42 3 1
43 3 1
4 4 1
18 4 1
43 4 1
44 4 1
5 5 1
19 5 1
44 5 1
45 5 1
6 6 1
20 6 1
45 6 1
46 6 1
7 7 1
21 7 1
46 7 1
47 7 1
8 8 1
22 8 1
47 8 1
48 8 1
9 9 1
23 9 1
48 9 1
49 9 1
10 10 1
24 10 1
49 10 1
50 10 1
11 11 1
25 11 1
50 11 1
51 11 1
12 12 1
26 12 1
51 12 1
52 12 1
13 13 1
27 13 1
52 13 1
53 13 1
14 14 1
28 14 1
53 14 1
54 14 1
15 15 1
29 15 1
54 15 1
55 15 1
16 16 1
30 16 1
55 16 1
56 16 1
17 17 1
31 17 1
56 17 1
57 17 1
18 18 1
32 18 1
57 18 1
58 18 1
19 19 1
33 19 1
58 19 1
59 19 1
20 20 1
34 20 1
59 20 1
60 20 1
21 21 1
35 21 1
60 21 1
61 21 1
22 22 1
36 22 1
61 22 1
62 22 1
23 23 1
37 23 1
62 23 1
63 23 1
24 24 1
38 24 1
63 24 1
64 24 1
25 25 1
39 25 1
64 25 1
65 25 1
1 26 1
26 26 1
65 26 1
66 26 1
2 27 1
27 27 1
66 27 1
67 27 1
3 28 1
28 28 1
67 28 1
68 28 1
4 29 1
29 29 1
68 29 1
69 29 1
5 30 1
30 30 1
69 30 1
70 30 1
6 31 1
31 31 1
70 31 1
71 31 1
7 32 1
32 32 1
71 32 1
72 32 1
8 33 1
33 33 1
72 33 1
73 33 1
9 34 1
34 34 1
73 34 1
74 34 1
10 35 1
35 35 1
74 35 1
75 35 1
11 36 1
36 36 1
75 36 1
76 36 1
12 37 1
37 37 1
76 37 1
77 37 1
13 38 1
38 38 1
77 38 1
78 38 1
14 39 1
39 39 1
40 39 1
78 39 1
1 40 1
31 40 1
79 40 1
80 40 1
2 41 1
32 41 1
80 41 1
81 41 1
3 42 1
33 42 1
81 42 1
82 42 1
4 43 1
34 43 1
82 43 1
83 43 1
5 44 1
35 44 1
83 44 1
84 44 1
6 45 1
36 45 1
84 45 1
85 45 1
7 46 1
37 46 1
85 46 1
86 46 1
8 47 1
38 47 1
86 47 1
87 47 1
9 48 1
39 48 1
87 48 1
88 48 1
1 49 1
10 49 1
88 49 1
89 49 1
2 50 1
11 50 1
89 50 1
90 50 1
3 51 1
12 51 1
90 51 1
91 51 1
4 52 1
13 52 1
91 52 1
92 52 1
5 53 1
14 53 1
92 53 1
93 53 1
6 54 1
15 54 1
93 54 1
94 54 1
7 55 1
16 55 1
94 55 1
95 55 1
8 56 1
17 56 1
95 56 1
96 56 1
9 57 1
18 57 1
96 57 1
97 57 1
10 58 1
19 58 1
97 58 1
98 58 1
11 59 1
20 59 1
98 59 1
99 59 1
12 60 1
21 60 1
99 60 1
100 60 1
13 61 1
22 61 1
100 61 1
101 61 1
14 62 1
23 62 1
101 62 1
102 62 1
15 63 1
24 63 1
102 63 1
103 63 1
16 64 1
25 64 1
103 64 1
104 64 1
17 65 1
26 65 1
104 65 1
105 65 1
18 66 1
27 66 1
105 66 1
106 66 1
19 67 1
28 67 1
106 67 1
107 67 1
20 68 1
29 68 1
107 68 1
108 68 1
21 69 1
30 69 1
108 69 1
109 69 1
22 70 1
31 70 1
109 70 1
110 70 1
23 71 1
32 71 1
110 71 1
111 71 1
24 72 1
33 72 1
111 72 1
112 72 1
25 73 1
34 73 1
112 73 1
113 73 1
26 74 1
35 74 1
113 74 1
114 74 1
27 75 1
36 75 1
114 75 1
115 75 1
28 76 1
37 76 1
115 76 1
116 76 1
29 77 1
38 77 1
116 77 1
117 77 1
30 78 1
39 78 1
79 78 1
117 78 1
1 79 1
37 79 1
118 79 1
119 79 1
2 80 1
38 80 1
119 80 1
120 80 1
3 81 1
39 81 1
120 81 1
121 81 1
1 82 1
4 82 1
121 82 1
122 82 1
2 83 1
5 83 1
122 83 1
123 83 1
3 84 1
6 84 1
123 84 1
124 84 1
4 85 1
7 85 1
124 85 1
125 85 1
5 86 1
8 86 1
125 86 1
126 86 1
6 87 1
9 87 1
126 87 1
127 87 1
7 88 1
10 88 1
127 88 1
128 88 1
8 89 1
11 89 1
128 89 1
129 89 1
9 90 1
12 90 1
129 90 1
130 90 1
10 91 1
13 91 1
130 91 1
131 91 1
11 92 1
14 92 1
131 92 1
132 92 1
12 93 1
15 93 1
132 93 1
133 93 1
13 94 1
16 94 1
133 94 1
134 94 1
14 95 1
17 95 1
134 95 1
135 95 1
15 96 1
18 96 1
135 96 1
136 96 1
16 97 1
19 97 1
136 97 1
137 97 1
17 98 1
20 98 1
137 98 1
138 98 1
18 99 1
21 99 1
138 99 1
139 99 1
19 100 1
22 100 1
139 100 1
140 100 1
20 101 1
23 101 1
140 101 1
141 101 1
21 102 1
24 102 1
141 102 1
142 102 1
22 103 1
25 103 1
142 103 1
143 103 1
23 104 1
26 104 1
143 104 1
144 104 1
24 105 1
27 105 1
144 105 1
145 105 1
25 106 1
28 106 1
145 106 1
146 106 1
26 107 1
29 107 1
146 107 1
147 107 1
27 108 1
30 108 1
147 108 1
148 108 1
28 109 1
31 109 1
148 109 1
149 109 1
29 110 1
32 110 1
149 110 1
150 110 1
30 111 1
33 111 1
150 111 1
151 111 1
31 112 1
34 112 1
151 112 1
152 112 1
32 113 1
35 113 1
152 113 1
153 113 1
33 114 1
36 114 1
153 114 1
154 114 1
34 115 1
37 115 1
154 115 1
155 115 1
35 116 1
38 116 1
155 116 1
156 116 1
36 117 1
39 117 1
118 117 1
156 117 1
40 118 1
70 118 1
79 118 1
93 118 1
41 119 1
71 119 1
80 119 1
94 119 1
42 120 1
72 120 1
81 120 1
95 120 1
43 121 1
73 121 1
82 121 1
96 121 1
44 122 1
74 122 1
83 122 1
97 122 1
45 123 1
75 123 1
84 123 1
98 123 1
46 124 1
76 124 1
85 124 1
99 124 1
47 125 1
77 125 1
86 125 1
100 125 1
48 126 1
78 126 1
87 126 1
101 126 1
40 127 1
49 127 1
88 127 1
102 127 1
41 128 1
50 128 1
89 128 1
103 128 1
42 129 1
51 129 1
90 129 1
104 129 1
43 130 1
52 130 1
91 130 1
105 130 1
44 131 1
53 131 1
92 131 1
106 131 1
45 132 1
54 132 1
93 132 1
107 132 1
46 133 1
55 133 1
94 133 1
108 133 1
47 134 1
56 134 1
95 134 1
109 134 1
48 135 1
57 135 1
96 135 1
110 135 1
49 136 1
58 136 1
97 136 1
111 136 1
50 137 1
59 137 1
98 137 1
112 137 1
51 138 1
60 138 1
99 138 1
113 138 1
52 139 1
61 139 1
100 139 1
114 139 1
53 140 1
62 140 1
101 140 1
115 140 1
54 141 1
63 141 1
102 141 1
116 141 1
55 142 1
64 142 1
103 142 1
117 142 1
56 143 1
65 143 1
79 143 1
104 143 1
57 144 1
66 144 1
80 144 1
105 144 1
58 145 1
67 145 1
81 145 1
106 145 1
59 146 1
68 146 1
82 146 1
107 146 1
60 147 1
69 147 1
83 147 1
108 147 1
61 148 1
70 148 1
84 148 1
109 148 1
62 149 1
71 149 1
85 149 1
110 149 1
63 150 1
72 150 1
86 150 1
111 150 1
64 151 1
73 151 1
87 151 1
112 151 1
65 152 1
74 152 1
88 152 1
113 152 1
66 153 1
75 153 1
89 153 1
114 153 1
67 154 1
76 154 1
90 154 1
115 154 1
68 155 1
77 155 1
91 155 1
116 155 1
69 156 1
78 156 1
92 156 1
117 156 1
40 157 1
76 157 1
118 157 1
132 157 1
41 158 1
77 158 1
119 158 1
133 158 1
42 159 1
78 159 1
120 159 1
134 159 1
40 160 1
43 160 1
121 160 1
135 160 1
41 161 1
44 161 1
122 161 1
136 161 1
42 162 1
45 162 1
123 162 1
137 162 1
43 163 1
46 163 1
124 163 1
138 163 1
44 164 1
47 164 1
125 164 1
139 164 1
45 165 1
48 165 1
126 165 1
140 165 1
46 166 1
49 166 1
127 166 1
141 166 1
47 167 1
50 167 1
128 167 1
142 167 1
48 168 1
51 168 1
129 168 1
143 168 1
49 169 1
52 169 1
130 169 1
144 169 1
50 170 1
53 170 1
131 170 1
145 170 1
51 171 1
54 171 1
132 171 1
146 171 1
52 172 1
55 172 1
133 172 1
147 172 1
53 173 1
56 173 1
134 173 1
148 173 1
54 174 1
57 174 1
135 174 1
149 174 1
55 175 1
58 175 1
136 175 1
150 175 1
56 176 1
59 176 1
137 176 1
151 176 1
57 177 1
60 177 1
138 177 1
152 177 1
58 178 1
61 178 1
139 178 1
153 178 1
59 179 1
62 179 1
140 179 1
154 179 1
60 180 1
63 180 1
141 180 1
155 180 1
61 181 1
64 181 1
142 181 1
156 181 1
62 182 1
65 182 1
118 182 1
143 182 1
63 183 1
66 183 1
119 183 1
144 183 1
64 184 1
67 184 1
120 184 1
145 184 1
65 185 1
68 185 1
121 185 1
146 185 1
66 186 1
69 186 1
122 186 1
147 186 1
67 187 1
70 187 1
123 187 1
148 187 1
68 188 1
71 188 1
124 188 1
149 188 1
69 189 1
72 189 1
125 189 1
150 189 1
70 190 1
73 190 1
126 190 1
151 190 1
71 191 1
74 191 1
127 191 1
152 191 1
72 192 1
75 192 1
128 192 1
153 192 1
73 193 1
76 193 1
129 193 1
154 193 1
74 194 1
77 194 1
130 194 1
155 194 1
75 195 1
78 195 1
131 195 1
156 195 1
79 196 1
115 196 1
118 196 1
148 196 1
80 197 1
116 197 1
119 197 1
149 197 1
81 198 1
117 198 1
120 198 1
150 198 1
79 199 1
82 199 1
121 199 1
151 199 1
80 200 1
83 200 1
122 200 1
152 200 1
81 201 1
84 201 1
123 201 1
153 201 1
82 202 1
85 202 1
124 202 1
154 202 1
83 203 1
86 203 1
125 203 1
155 203 1
84 204 1
87 204 1
126 204 1
156 204 1
85 205 1
88 205 1
118 205 1
127 205 1
86 206 1
89 206 1
119 206 1
128 206 1
87 207 1
90 207 1
120 207 1
129 207 1
88 208 1
91 208 1
121 208 1
130 208 1
89 209 1
92 209 1
122 209 1
131 209 1
90 210 1
93 210 1
123 210 1
132 210 1
91 211 1
94 211 1
124 211 1
133 211 1
92 212 1
95 212 1
125 212 1
134 212 1
93 213 1
96 213 1
126 213 1
135 213 1
94 214 1
97 214 1
127 214 1
136 214 1
95 215 1
98 215 1
128 215 1
137 215 1
96 216 1
99 216 1
129 216 1
138 216 1
97 217 1
100 217 1
130 217 1
139 217 1
98 218 1
101 218 1
131 218 1
140 218 1
99 219 1
102 219 1
132 219 1
141 219 1
100 220 1
103 220 1
133 220 1
142 220 1
101 221 1
104 221 1
134 221 1
143 221 1
102 222 1
105 222 1
135 222 1
144 222 1
103 223 1
106 223 1
136 223 1
145 223 1
104 224 1
107 224 1
137 224 1
146 224 1
105 225 1
108 225 1
138 225 1
147 225 1
106 226 1
109 226 1
139 226 1
148 226 1
107 227 1
110 227 1
140 227 1
149 227 1
108 228 1
111 228 1
141 228 1
150 228 1
109 229 1
112 229 1
142 229 1
151 229 1
110 230 1
113 230 1
143 230 1
152 230 1
111 231 1
114 231 1
144 231 1
153 231 1
112 232 1
115 232 1
145 232 1
154 232 1
113 233 1
116 233 1
146 233 1
155 233 1
114 234 1
117 234 1
147 234 1
156 234 1
