%%MatrixMarket matrix coordinate integer general
% Binary matrix; one-based indices; arithmetic over GF(2)
276 414 1656
1 1 1
20 1 1
70 1 1
79 1 1
2 2 1
21 2 1
71 2 1
80 2 1
3 3 1
22 3 1
72 3 1
81 3 1
4 4 1
23 4 1
73 4 1
82 4 1
5 5 1
24 5 1
74 5 1
83 5 1
6 6 1
25 6 1
75 6 1
84 6 1
7 7 1
26 7 1
76 7 1
85 7 1
8 8 1
27 8 1
77 8 1
86 8 1
9 9 1
28 9 1
78 9 1
87 9 1
10 10 1
29 10 1
79 10 1
88 10 1
11 11 1
30 11 1
80 11 1
89 11 1
12 12 1
31 12 1
81 12 1
90 12 1
13 13 1
32 13 1
82 13 1
91 13 1
14 14 1
33 14 1
83 14 1
92 14 1
15 15 1
34 15 1
84 15 1
93 15 1
16 16 1
35 16 1
85 16 1
94 16 1
17 17 1
36 17 1
86 17 1
95 17 1
18 18 1
37 18 1
87 18 1
96 18 1
19 19 1
38 19 1
88 19 1
97 19 1
20 20 1
39 20 1
89 20 1
98 20 1
21 21 1
40 21 1
90 21 1
99 21 1
22 22 1
41 22 1
91 22 1
100 22 1
23 23 1
42 23 1
92 23 1
101 23 1
24 24 1
43 24 1
93 24 1
102 24 1
25 25 1
44 25 1
94 25 1
103 25 1
26 26 1
45 26 1
95 26 1
104 26 1
27 27 1
46 27 1
96 27 1
105 27 1
28 28 1
47 28 1
97 28 1
106 28 1
29 29 1
48 29 1
98 29 1
107 29 1
30 30 1
49 30 1
99 30 1
108 30 1
31 31 1
50 31 1
100 31 1
109 31 1
32 32 1
51 32 1
101 32 1
110 32 1
33 33 1
52 33 1
102 33 1
111 33 1
34 34 1
53 34 1
103 34 1
112 34 1
35 35 1
54 35 1
104 35 1
113 35 1
36 36 1
55 36 1
105 36 1
114 36 1
37 37 1
56 37 1
106 37 1
115 37 1
38 38 1
57 38 1
107 38 1
116 38 1
39 39 1
58 39 1
108 39 1
117 39 1
40 40 1
59 40 1
109 40 1
118 40 1
41 41 1
60 41 1
110 41 1
119 41 1
42 42 1
61 42 1
111 42 1
120 42 1
43 43 1
62 43 1
112 43 1
121 43 1
44 44 1
63 44 1
113 44 1
122 44 1
45 45 1
64 45 1
114 45 1
123 45 1
46 46 1
65 46 1
115 46 1
124 46 1
47 47 1
66 47 1
116 47 1
125 47 1
48 48 1
67 48 1
117 48 1
126 48 1
49 49 1
68 49 1
118 49 1
127 49 1
50 50 1
69 50 1
119 50 1
128 50 1
1 51 1
51 51 1
120 51 1
129 51 1
2 52 1
52 52 1
121 52 1
130 52 1
3 53 1
53 53 1
122 53 1
131 53 1
4 54 1
54 54 1
123 54 1
132 54 1
5 55 1
55 55 1
124 55 1
133 55 1
6 56 1
56 56 1
125 56 1
134 56 1
7 57 1
57 57 1
126 57 1
135 57 1
8 58 1
58 58 1
127 58 1
136 58 1
9 59 1
59 59 1
128 59 1
137 59 1
10 60 1
60 60 1
129 60 1
138 60 1
11 61 1
61 61 1
70 61 1
130 61 1
12 62 1
62 62 1
71 62 1
131 62 1
13 63 1
63 63 1
72 63 1
132 63 1
14 64 1
64 64 1
73 64 1
133 64 1
15 65 1
65 65 1
74 65 1
134 65 1
16 66 1
66 66 1
75 66 1
135 66 1
17 67 1
67 67 1
76 67 1
136 67 1
18 68 1
68 68 1
77 68 1
137 68 1
19 69 1
69 69 1
78 69 1
138 69 1
1 70 1
25 70 1
139 70 1
148 70 1
2 71 1
26 71 1
140 71 1
149 71 1
3 72 1
27 72 1
141 72 1
150 72 1
4 73 1
28 73 1
142 73 1
151 73 1
5 74 1
29 74 1
143 74 1
152 74 1
6 75 1
30 75 1
144 75 1
153 75 1
7 76 1
31 76 1
145 76 1
154 76 1
8 77 1
32 77 1
146 77 1
155 77 1
9 78 1
33 78 1
147 78 1
156 78 1
10 79 1
34 79 1
148 79 1
157 79 1
11 80 1
35 80 1
149 80 1
158 80 1
12 81 1
36 81 1
150 81 1
159 81 1
13 82 1
37 82 1
151 82 1
160 82 1
14 83 1
38 83 1
152 83 1
161 83 1
15 84 1
39 84 1
153 84 1
162 84 1
16 85 1
40 85 1
154 85 1
163 85 1
17 86 1
41 86 1
155 86 1
164 86 1
18 87 1
42 87 1
156 87 1
165 87 1
19 88 1
43 88 1
157 88 1
166 88 1
20 89 1
44 89 1
158 89 1
167 89 1
21 90 1
45 90 1
159 90 1
168 90 1
22 91 1
46 91 1
160 91 1
169 91 1
23 92 1
47 92 1
161 92 1
170 92 1
24 93 1
48 93 1
162 93 1
171 93 1
25 94 1
49 94 1
163 94 1
172 94 1
26 95 1
50 95 1
164 95 1
173 95 1
27 96 1
51 96 1
165 96 1
174 96 1
28 97 1
52 97 1
166 97 1
175 97 1
29 98 1
53 98 1
167 98 1
176 98 1
30 99 1
54 99 1
168 99 1
177 99 1
31 100 1
55 100 1
169 100 1
178 100 1
32 101 1
56 101 1
170 101 1
179 101 1
33 102 1
57 102 1
171 102 1
180 102 1
34 103 1
58 103 1
172 103 1
181 103 1
35 104 1
59 104 1
173 104 1
182 104 1
36 105 1
60 105 1
174 105 1
183 105 1
37 106 1
61 106 1
175 106 1
184 106 1
38 107 1
62 107 1
176 107 1
185 107 1
39 108 1
63 108 1
177 108 1
186 108 1
40 109 1
64 109 1
178 109 1
187 109 1
41 110 1
65 110 1
179 110 1
188 110 1
42 111 1
66 111 1
180 111 1
189 111 1
43 112 1
67 112 1
181 112 1
190 112 1
44 113 1
68 113 1
182 113 1
191 113 1
45 114 1
69 114 1
183 114 1
192 114 1
1 115 1
46 115 1
184 115 1
193 115 1
2 116 1
47 116 1
185 116 1
194 116 1
3 117 1
48 117 1
186 117 1
195 117 1
4 118 1
49 118 1
187 118 1
196 118 1
5 119 1
50 119 1
188 119 1
197 119 1
6 120 1
51 120 1
189 120 1
198 120 1
7 121 1
52 121 1
190 121 1
199 121 1
8 122 1
53 122 1
191 122 1
200 122 1
9 123 1
54 123 1
192 123 1
201 123 1
10 124 1
55 124 1
193 124 1
202 124 1
11 125 1
56 125 1
194 125 1
203 125 1
12 126 1
57 126 1
195 126 1
204 126 1
13 127 1
58 127 1
196 127 1
205 127 1
14 128 1
59 128 1
197 128 1
206 128 1
15 129 1
60 129 1
198 129 1
207 129 1
16 130 1
61 130 1
139 130 1
199 130 1
17 131 1
62 131 1
140 131 1
200 131 1
18 132 1
63 132 1
141 132 1
201 132 1
19 133 1
64 133 1
142 133 1
202 133 1
20 134 1
65 134 1
143 134 1
203 134 1
21 135 1
66 135 1
144 135 1
204 135 1
22 136 1
67 136 1
145 136 1
205 136 1
23 137 1
68 137 1
146 137 1
206 137 1
24 138 1
69 138 1
147 138 1
207 138 1
1 139 1
54 139 1
208 139 1
217 139 1
2 140 1
55 140 1
209 140 1
218 140 1
3 141 1
56 141 1
210 141 1
219 141 1
4 142 1
57 142 1
211 142 1
220 142 1
5 143 1
58 143 1
212 143 1
221 143 1
6 144 1
59 144 1
213 144 1
222 144 1
7 145 1
60 145 1
214 145 1
223 145 1
8 146 1
61 146 1
215 146 1
224 146 1
9 147 1
62 147 1
216 147 1
225 147 1
10 148 1
63 148 1
217 148 1
226 148 1
11 149 1
64 149 1
218 149 1
227 149 1
12 150 1
65 150 1
219 150 1
228 150 1
13 151 1
66 151 1
220 151 1
229 151 1
14 152 1
67 152 1
221 152 1
230 152 1
15 153 1
68 153 1
222 153 1
231 153 1
16 154 1
69 154 1
223 154 1
232 154 1
1 155 1
17 155 1
224 155 1
233 155 1
2 156 1
18 156 1
225 156 1
234 156 1
3 157 1
19 157 1
226 157 1
235 157 1
4 158 1
20 158 1
227 158 1
236 158 1
5 159 1
21 159 1
228 159 1
237 159 1
6 160 1
22 160 1
229 160 1
238 160 1
7 161 1
23 161 1
230 161 1
239 161 1
8 162 1
24 162 1
231 162 1
240 162 1
9 163 1
25 163 1
232 163 1
241 163 1
10 164 1
26 164 1
233 164 1
242 164 1
11 165 1
27 165 1
234 165 1
243 165 1
12 166 1
28 166 1
235 166 1
244 166 1
13 167 1
29 167 1
236 167 1
245 167 1
14 168 1
30 168 1
237 168 1
246 168 1
15 169 1
31 169 1
238 169 1
247 169 1
16 170 1
32 170 1
239 170 1
248 170 1
17 171 1
33 171 1
240 171 1
249 171 1
18 172 1
34 172 1
241 172 1
250 172 1
19 173 1
35 173 1
242 173 1
251 173 1
20 174 1
36 174 1
243 174 1
252 174 1
21 175 1
37 175 1
244 175 1
253 175 1
22 176 1
38 176 1
245 176 1
254 176 1
23 177 1
39 177 1
246 177 1
255 177 1
24 178 1
40 178 1
247 178 1
256 178 1
25 179 1
41 179 1
248 179 1
257 179 1
26 180 1
42 180 1
249 180 1
258 180 1
27 181 1
43 181 1
250 181 1
259 181 1
28 182 1
44 182 1
251 182 1
260 182 1
29 183 1
45 183 1
252 183 1
261 183 1
30 184 1
46 184 1
253 184 1
262 184 1
31 185 1
47 185 1
254 185 1
263 185 1
32 186 1
48 186 1
255 186 1
264 186 1
33 187 1
49 187 1
256 187 1
265 187 1
34 188 1
50 188 1
257 188 1
266 188 1
35 189 1
51 189 1
258 189 1
267 189 1
36 190 1
52 190 1
259 190 1
268 190 1
37 191 1
53 191 1
260 191 1
269 191 1
38 192 1
54 192 1
261 192 1
270 192 1
39 193 1
55 193 1
262 193 1
271 193 1
40 194 1
56 194 1
263 194 1
272 194 1
41 195 1
57 195 1
264 195 1
273 195 1
42 196 1
58 196 1
265 196 1
274 196 1
43 197 1
59 197 1
266 197 1
275 197 1
44 198 1
60 198 1
267 198 1
276 198 1
45 199 1
61 199 1
208 199 1
268 199 1
46 200 1
62 200 1
209 200 1
269 200 1
47 201 1
63 201 1
210 201 1
270 201 1
48 202 1
64 202 1
211 202 1
271 202 1
49 203 1
65 203 1
212 203 1
272 203 1
50 204 1
66 204 1
213 204 1
273 204 1
51 205 1
67 205 1
214 205 1
274 205 1
52 206 1
68 206 1
215 206 1
275 206 1
53 207 1
69 207 1
216 207 1
276 207 1
70 208 1
94 208 1
139 208 1
158 208 1
71 209 1
95 209 1
140 209 1
159 209 1
72 210 1
96 210 1
141 210 1
160 210 1
73 211 1
97 211 1
142 211 1
161 211 1
74 212 1
98 212 1
143 212 1
162 212 1
75 213 1
99 213 1
144 213 1
163 213 1
76 214 1
100 214 1
145 214 1
164 214 1
77 215 1
101 215 1
146 215 1
165 215 1
78 216 1
102 216 1
147 216 1
166 216 1
79 217 1
103 217 1
148 217 1
167 217 1
80 218 1
104 218 1
149 218 1
168 218 1
81 219 1
105 219 1
150 219 1
169 219 1
82 220 1
106 220 1
151 220 1
170 220 1
83 221 1
107 221 1
152 221 1
171 221 1
84 222 1
108 222 1
153 222 1
172 222 1
85 223 1
109 223 1
154 223 1
173 223 1
86 224 1
110 224 1
155 224 1
174 224 1
87 225 1
111 225 1
156 225 1
175 225 1
88 226 1
112 226 1
157 226 1
176 226 1
89 227 1
113 227 1
158 227 1
177 227 1
90 228 1
114 228 1
159 228 1
178 228 1
91 229 1
115 229 1
160 229 1
179 229 1
92 230 1
116 230 1
161 230 1
180 230 1
93 231 1
117 231 1
162 231 1
181 231 1
94 232 1
118 232 1
163 232 1
182 232 1
95 233 1
119 233 1
164 233 1
183 233 1
96 234 1
120 234 1
165 234 1
184 234 1
97 235 1
121 235 1
166 235 1
185 235 1
98 236 1
122 236 1
167 236 1
186 236 1
99 237 1
123 237 1
168 237 1
187 237 1
100 238 1
124 238 1
169 238 1
188 238 1
101 239 1
125 239 1
170 239 1
189 239 1
102 240 1
126 240 1
171 240 1
190 240 1
103 241 1
127 241 1
172 241 1
191 241 1
104 242 1
128 242 1
173 242 1
192 242 1
105 243 1
129 243 1
174 243 1
193 243 1
106 244 1
130 244 1
175 244 1
194 244 1
107 245 1
131 245 1
176 245 1
195 245 1
108 246 1
132 246 1
177 246 1
196 246 1
109 247 1
133 247 1
178 247 1
197 247 1
110 248 1
134 248 1
179 248 1
198 248 1
111 249 1
135 249 1
180 249 1
199 249 1
112 250 1
136 250 1
181 250 1
200 250 1
113 251 1
137 251 1
182 251 1
201 251 1
114 252 1
138 252 1
183 252 1
202 252 1
70 253 1
115 253 1
184 253 1
203 253 1
71 254 1
116 254 1
185 254 1
204 254 1
72 255 1
117 255 1
186 255 1
205 255 1
73 256 1
118 256 1
187 256 1
206 256 1
74 257 1
119 257 1
188 257 1
207 257 1
75 258 1
120 258 1
139 258 1
189 258 1
76 259 1
121 259 1
140 259 1
190 259 1
77 260 1
122 260 1
141 260 1
191 260 1
78 261 1
123 261 1
142 261 1
192 261 1
79 262 1
124 262 1
143 262 1
193 262 1
80 263 1
125 263 1
144 263 1
194 263 1
81 264 1
126 264 1
145 264 1
195 264 1
82 265 1
127 265 1
146 265 1
196 265 1
83 266 1
128 266 1
147 266 1
197 266 1
84 267 1
129 267 1
148 267 1
198 267 1
85 268 1
130 268 1
149 268 1
199 268 1
86 269 1
131 269 1
150 269 1
200 269 1
87 270 1
132 270 1
151 270 1
201 270 1
88 271 1
133 271 1
152 271 1
202 271 1
89 272 1
134 272 1
153 272 1
203 272 1
90 273 1
135 273 1
154 273 1
204 273 1
91 274 1
136 274 1
155 274 1
205 274 1
92 275 1
137 275 1
156 275 1
206 275 1
93 276 1
138 276 1
157 276 1
207 276 1
70 277 1
123 277 1
208 277 1
227 277 1
71 278 1
124 278 1
209 278 1
228 278 1
72 279 1
125 279 1
210 279 1
229 279 1
73 280 1
126 280 1
211 280 1
230 280 1
74 281 1
127 281 1
212 281 1
231 281 1
75 282 1
128 282 1
213 282 1
232 282 1
76 283 1
129 283 1
214 283 1
233 283 1
77 284 1
130 284 1
215 284 1
234 284 1
78 285 1
131 285 1
216 285 1
235 285 1
79 286 1
132 286 1
217 286 1
236 286 1
80 287 1
133 287 1
218 287 1
237 287 1
81 288 1
134 288 1
219 288 1
238 288 1
82 289 1
135 289 1
220 289 1
239 289 1
83 290 1
136 290 1
221 290 1
240 290 1
84 291 1
137 291 1
222 291 1
241 291 1
85 292 1
138 292 1
223 292 1
242 292 1
70 293 1
86 293 1
224 293 1
243 293 1
71 294 1
87 294 1
225 294 1
244 294 1
72 295 1
88 295 1
226 295 1
245 295 1
73 296 1
89 296 1
227 296 1
246 296 1
74 297 1
90 297 1
228 297 1
247 297 1
75 298 1
91 298 1
229 298 1
248 298 1
76 299 1
92 299 1
230 299 1
249 299 1
77 300 1
93 300 1
231 300 1
250 300 1
78 301 1
94 301 1
232 301 1
251 301 1
79 302 1
95 302 1
233 302 1
252 302 1
80 303 1
96 303 1
234 303 1
253 303 1
81 304 1
97 304 1
235 304 1
254 304 1
82 305 1
98 305 1
236 305 1
255 305 1
83 306 1
99 306 1
237 306 1
256 306 1
84 307 1
100 307 1
238 307 1
257 307 1
85 308 1
101 308 1
239 308 1
258 308 1
86 309 1
102 309 1
240 309 1
259 309 1
87 310 1
103 310 1
241 310 1
260 310 1
88 311 1
104 311 1
242 311 1
261 311 1
89 312 1
105 312 1
243 312 1
262 312 1
90 313 1
106 313 1
244 313 1
263 313 1
91 314 1
107 314 1
245 314 1
264 314 1
92 315 1
108 315 1
246 315 1
265 315 1
93 316 1
109 316 1
247 316 1
266 316 1
94 317 1
110 317 1
248 317 1
267 317 1
95 318 1
111 318 1
249 318 1
268 318 1
96 319 1
112 319 1
250 319 1
269 319 1
97 320 1
113 320 1
251 320 1
270 320 1
98 321 1
114 321 1
252 321 1
271 321 1
99 322 1
115 322 1
253 322 1
272 322 1
100 323 1
116 323 1
254 323 1
273 323 1
101 324 1
117 324 1
255 324 1
274 324 1
102 325 1
118 325 1
256 325 1
275 325 1
103 326 1
119 326 1
257 326 1
276 326 1
104 327 1
120 327 1
208 327 1
258 327 1
105 328 1
121 328 1
209 328 1
259 328 1
106 329 1
122 329 1
210 329 1
260 329 1
107 330 1
123 330 1
211 330 1
261 330 1
108 331 1
124 331 1
212 331 1
262 331 1
109 332 1
125 332 1
213 332 1
263 332 1
110 333 1
126 333 1
214 333 1
264 333 1
111 334 1
127 334 1
215 334 1
265 334 1
112 335 1
128 335 1
216 335 1
266 335 1
113 336 1
129 336 1
217 336 1
267 336 1
114 337 1
130 337 1
218 337 1
268 337 1
115 338 1
131 338 1
219 338 1
269 338 1
116 339 1
132 339 1
220 339 1
270 339 1
117 340 1
133 340 1
221 340 1
271 340 1
118 341 1
134 341 1
222 341 1
272 341 1
119 342 1
135 342 1
223 342 1
273 342 1
120 343 1
136 343 1
224 343 1
274 343 1
121 344 1
137 344 1
225 344 1
275 344 1
122 345 1
138 345 1
226 345 1
276 345 1
139 346 1
192 346 1
208 346 1
232 346 1
140 347 1
193 347 1
209 347 1
233 347 1
141 348 1
194 348 1
210 348 1
234 348 1
142 349 1
195 349 1
211 349 1
235 349 1
143 350 1
196 350 1
212 350 1
236 350 1
144 351 1
197 351 1
213 351 1
237 351 1
145 352 1
198 352 1
214 352 1
238 352 1
146 353 1
199 353 1
215 353 1
239 353 1
147 354 1
200 354 1
216 354 1
240 354 1
148 355 1
201 355 1
217 355 1
241 355 1
149 356 1
202 356 1
218 356 1
242 356 1
150 357 1
203 357 1
219 357 1
243 357 1
151 358 1
204 358 1
220 358 1
244 358 1
152 359 1
205 359 1
221 359 1
245 359 1
153 360 1
206 360 1
222 360 1
246 360 1
154 361 1
207 361 1
223 361 1
247 361 1
139 362 1
155 362 1
224 362 1
248 362 1
140 363 1
156 363 1
225 363 1
249 363 1
141 364 1
157 364 1
226 364 1
250 364 1
142 365 1
158 365 1
227 365 1
251 365 1
143 366 1
159 366 1
228 366 1
252 366 1
144 367 1
160 367 1
229 367 1
253 367 1
145 368 1
161 368 1
230 368 1
254 368 1
146 369 1
162 369 1
231 369 1
255 369 1
147 370 1
163 370 1
232 370 1
256 370 1
148 371 1
164 371 1
233 371 1
257 371 1
149 372 1
165 372 1
234 372 1
258 372 1
150 373 1
166 373 1
235 373 1
259 373 1
151 374 1
167 374 1
236 374 1
260 374 1
152 375 1
168 375 1
237 375 1
261 375 1
153 376 1
169 376 1
238 376 1
262 376 1
154 377 1
170 377 1
239 377 1
263 377 1
155 378 1
171 378 1
240 378 1
264 378 1
156 379 1
172 379 1
241 379 1
265 379 1
157 380 1
173 380 1
242 380 1
266 380 1
158 381 1
174 381 1
243 381 1
267 381 1
159 382 1
175 382 1
244 382 1
268 382 1
160 383 1
176 383 1
245 383 1
269 383 1
161 384 1
177 384 1
246 384 1
270 384 1
162 385 1
178 385 1
247 385 1
271 385 1
163 386 1
179 386 1
248 386 1
272 386 1
164 387 1
180 387 1
249 387 1
273 387 1
165 388 1
181 388 1
250 388 1
274 388 1
166 389 1
182 389 1
251 389 1
275 389 1
167 390 1
183 390 1
252 390 1
276 390 1
168 391 1
184 391 1
208 391 1
253 391 1
169 392 1
185 392 1
209 392 1
254 392 1
170 393 1
186 393 1
210 393 1
255 393 1
171 394 1
187 394 1
211 394 1
256 394 1
172 395 1
188 395 1
212 395 1
257 395 1
173 396 1
189 396 1
213 396 1
258 396 1
174 397 1
190 397 1
214 397 1
259 397 1
175 398 1
191 398 1
215 398 1
260 398 1
176 399 1
192 399 1
216 399 1
261 399 1
177 400 1
193 400 1
217 400 1
262 400 1
178 401 1
194 401 1
218 401 1
263 401 1
179 402 1
195 402 1
219 402 1
264 402 1
180 403 1
196 403 1
220 403 1
265 403 1
181 404 1
197 404 1
221 404 1
266 404 1
182 405 1
198 405 1
222 405 1
267 405 1
183 406 1
199 406 1
223 406 1
268 406 1
184 407 1
200 407 1
224 407 1
269 407 1
185 408 1
201 408 1
225 408 1
270 408 1
186 409 1
202 409 1
226 409 1
271 409 1
187 410 1
203 410 1
227 410 1
272 410 1
188 411 1
204 411 1
228 411 1
273 411 1
189 412 1
205 412 1
229 412 1
274 412 1
190 413 1
206 413 1
230 413 1
275 413 1
191 414 1
207 414 1
231 414 1
276 414 1
