%%MatrixMarket matrix coordinate integer general
% Binary matrix; one-based indices; arithmetic over GF(2)
128 192 768
8 1 1
13 1 1
48 1 1
50 1 1
7 2 1
14 2 1
47 2 1
49 2 1
6 3 1
15 3 1
46 3 1
52 3 1
5 4 1
16 4 1
45 4 1
51 4 1
4 5 1
9 5 1
44 5 1
54 5 1
3 6 1
10 6 1
43 6 1
53 6 1
2 7 1
11 7 1
42 7 1
56 7 1
1 8 1
12 8 1
41 8 1
55 8 1
16 9 1
21 9 1
56 9 1
58 9 1
15 10 1
22 10 1
55 10 1
57 10 1
14 11 1
23 11 1
54 11 1
60 11 1
13 12 1
24 12 1
53 12 1
59 12 1
12 13 1
17 13 1
52 13 1
62 13 1
11 14 1
18 14 1
51 14 1
61 14 1
10 15 1
19 15 1
50 15 1
64 15 1
9 16 1
20 16 1
49 16 1
63 16 1
24 17 1
29 17 1
34 17 1
64 17 1
23 18 1
30 18 1
33 18 1
63 18 1
22 19 1
31 19 1
36 19 1
62 19 1
21 20 1
32 20 1
35 20 1
61 20 1
20 21 1
25 21 1
38 21 1
60 21 1
19 22 1
26 22 1
37 22 1
59 22 1
18 23 1
27 23 1
40 23 1
58 23 1
17 24 1
28 24 1
39 24 1
57 24 1
5 25 1
32 25 1
40 25 1
42 25 1
6 26 1
31 26 1
39 26 1
41 26 1
7 27 1
30 27 1
38 27 1
44 27 1
8 28 1
29 28 1
37 28 1
43 28 1
1 29 1
28 29 1
36 29 1
46 29 1
2 30 1
27 30 1
35 30 1
45 30 1
3 31 1
26 31 1
34 31 1
48 31 1
4 32 1
25 32 1
33 32 1
47 32 1
20 33 1
28 33 1
80 33 1
82 33 1
19 34 1
27 34 1
79 34 1
81 34 1
18 35 1
26 35 1
78 35 1
84 35 1
17 36 1
25 36 1
77 36 1
83 36 1
24 37 1
32 37 1
76 37 1
86 37 1
23 38 1
31 38 1
75 38 1
85 38 1
22 39 1
30 39 1
74 39 1
88 39 1
21 40 1
29 40 1
73 40 1
87 40 1
4 41 1
28 41 1
88 41 1
90 41 1
3 42 1
27 42 1
87 42 1
89 42 1
2 43 1
26 43 1
86 43 1
92 43 1
1 44 1
25 44 1
85 44 1
91 44 1
8 45 1
32 45 1
84 45 1
94 45 1
7 46 1
31 46 1
83 46 1
93 46 1
6 47 1
30 47 1
82 47 1
96 47 1
5 48 1
29 48 1
81 48 1
95 48 1
4 49 1
12 49 1
66 49 1
96 49 1
3 50 1
11 50 1
65 50 1
95 50 1
2 51 1
10 51 1
68 51 1
94 51 1
1 52 1
9 52 1
67 52 1
93 52 1
8 53 1
16 53 1
70 53 1
92 53 1
7 54 1
15 54 1
69 54 1
91 54 1
6 55 1
14 55 1
72 55 1
90 55 1
5 56 1
13 56 1
71 56 1
89 56 1
12 57 1
20 57 1
72 57 1
74 57 1
11 58 1
19 58 1
71 58 1
73 58 1
10 59 1
18 59 1
70 59 1
76 59 1
9 60 1
17 60 1
69 60 1
75 60 1
16 61 1
24 61 1
68 61 1
78 61 1
15 62 1
23 62 1
67 62 1
77 62 1
14 63 1
22 63 1
66 63 1
80 63 1
13 64 1
21 64 1
65 64 1
79 64 1
52 65 1
60 65 1
72 65 1
77 65 1
51 66 1
59 66 1
71 66 1
78 66 1
50 67 1
58 67 1
70 67 1
79 67 1
49 68 1
57 68 1
69 68 1
80 68 1
56 69 1
64 69 1
68 69 1
73 69 1
55 70 1
63 70 1
67 70 1
74 70 1
54 71 1
62 71 1
66 71 1
75 71 1
53 72 1
61 72 1
65 72 1
76 72 1
36 73 1
60 73 1
80 73 1
85 73 1
35 74 1
59 74 1
79 74 1
86 74 1
34 75 1
58 75 1
78 75 1
87 75 1
33 76 1
57 76 1
77 76 1
88 76 1
40 77 1
64 77 1
76 77 1
81 77 1
39 78 1
63 78 1
75 78 1
82 78 1
38 79 1
62 79 1
74 79 1
83 79 1
37 80 1
61 80 1
73 80 1
84 80 1
36 81 1
44 81 1
88 81 1
93 81 1
35 82 1
43 82 1
87 82 1
94 82 1
34 83 1
42 83 1
86 83 1
95 83 1
33 84 1
41 84 1
85 84 1
96 84 1
40 85 1
48 85 1
84 85 1
89 85 1
39 86 1
47 86 1
83 86 1
90 86 1
38 87 1
46 87 1
82 87 1
91 87 1
37 88 1
45 88 1
81 88 1
92 88 1
44 89 1
52 89 1
69 89 1
96 89 1
43 90 1
51 90 1
70 90 1
95 90 1
42 91 1
50 91 1
71 91 1
94 91 1
41 92 1
49 92 1
72 92 1
93 92 1
48 93 1
56 93 1
65 93 1
92 93 1
47 94 1
55 94 1
66 94 1
91 94 1
46 95 1
54 95 1
67 95 1
90 95 1
45 96 1
53 96 1
68 96 1
89 96 1
2 97 1
22 97 1
112 97 1
114 97 1
1 98 1
21 98 1
111 98 1
113 98 1
4 99 1
24 99 1
110 99 1
116 99 1
3 100 1
23 100 1
109 100 1
115 100 1
6 101 1
18 101 1
108 101 1
118 101 1
5 102 1
17 102 1
107 102 1
117 102 1
8 103 1
20 103 1
106 103 1
120 103 1
7 104 1
19 104 1
105 104 1
119 104 1
10 105 1
30 105 1
120 105 1
122 105 1
9 106 1
29 106 1
119 106 1
121 106 1
12 107 1
32 107 1
118 107 1
124 107 1
11 108 1
31 108 1
117 108 1
123 108 1
14 109 1
26 109 1
116 109 1
126 109 1
13 110 1
25 110 1
115 110 1
125 110 1
16 111 1
28 111 1
114 111 1
128 111 1
15 112 1
27 112 1
113 112 1
127 112 1
6 113 1
18 113 1
98 113 1
128 113 1
5 114 1
17 114 1
97 114 1
127 114 1
8 115 1
20 115 1
100 115 1
126 115 1
7 116 1
19 116 1
99 116 1
125 116 1
2 117 1
22 117 1
102 117 1
124 117 1
1 118 1
21 118 1
101 118 1
123 118 1
4 119 1
24 119 1
104 119 1
122 119 1
3 120 1
23 120 1
103 120 1
121 120 1
14 121 1
26 121 1
104 121 1
106 121 1
13 122 1
25 122 1
103 122 1
105 122 1
16 123 1
28 123 1
102 123 1
108 123 1
15 124 1
27 124 1
101 124 1
107 124 1
10 125 1
30 125 1
100 125 1
110 125 1
9 126 1
29 126 1
99 126 1
109 126 1
12 127 1
32 127 1
98 127 1
112 127 1
11 128 1
31 128 1
97 128 1
111 128 1
34 129 1
54 129 1
104 129 1
109 129 1
33 130 1
53 130 1
103 130 1
110 130 1
36 131 1
56 131 1
102 131 1
111 131 1
35 132 1
55 132 1
101 132 1
112 132 1
38 133 1
50 133 1
100 133 1
105 133 1
37 134 1
49 134 1
99 134 1
106 134 1
40 135 1
52 135 1
98 135 1
107 135 1
39 136 1
51 136 1
97 136 1
108 136 1
42 137 1
62 137 1
112 137 1
117 137 1
41 138 1
61 138 1
111 138 1
118 138 1
44 139 1
64 139 1
110 139 1
119 139 1
43 140 1
63 140 1
109 140 1
120 140 1
46 141 1
58 141 1
108 141 1
113 141 1
45 142 1
57 142 1
107 142 1
114 142 1
48 143 1
60 143 1
106 143 1
115 143 1
47 144 1
59 144 1
105 144 1
116 144 1
38 145 1
50 145 1
120 145 1
125 145 1
37 146 1
49 146 1
119 146 1
126 146 1
40 147 1
52 147 1
118 147 1
127 147 1
39 148 1
51 148 1
117 148 1
128 148 1
34 149 1
54 149 1
116 149 1
121 149 1
33 150 1
53 150 1
115 150 1
122 150 1
36 151 1
56 151 1
114 151 1
123 151 1
35 152 1
55 152 1
113 152 1
124 152 1
46 153 1
58 153 1
101 153 1
128 153 1
45 154 1
57 154 1
102 154 1
127 154 1
48 155 1
60 155 1
103 155 1
126 155 1
47 156 1
59 156 1
104 156 1
125 156 1
42 157 1
62 157 1
97 157 1
124 157 1
41 158 1
61 158 1
98 158 1
123 158 1
44 159 1
64 159 1
99 159 1
122 159 1
43 160 1
63 160 1
100 160 1
121 160 1
66 161 1
86 161 1
116 161 1
124 161 1
65 162 1
85 162 1
115 162 1
123 162 1
68 163 1
88 163 1
114 163 1
122 163 1
67 164 1
87 164 1
113 164 1
121 164 1
70 165 1
82 165 1
120 165 1
128 165 1
69 166 1
81 166 1
119 166 1
127 166 1
72 167 1
84 167 1
118 167 1
126 167 1
71 168 1
83 168 1
117 168 1
125 168 1
74 169 1
94 169 1
100 169 1
124 169 1
73 170 1
93 170 1
99 170 1
123 170 1
76 171 1
96 171 1
98 171 1
122 171 1
75 172 1
95 172 1
97 172 1
121 172 1
78 173 1
90 173 1
104 173 1
128 173 1
77 174 1
89 174 1
103 174 1
127 174 1
80 175 1
92 175 1
102 175 1
126 175 1
79 176 1
91 176 1
101 176 1
125 176 1
70 177 1
82 177 1
100 177 1
108 177 1
69 178 1
81 178 1
99 178 1
107 178 1
72 179 1
84 179 1
98 179 1
106 179 1
71 180 1
83 180 1
97 180 1
105 180 1
66 181 1
86 181 1
104 181 1
112 181 1
65 182 1
85 182 1
103 182 1
111 182 1
68 183 1
88 183 1
102 183 1
110 183 1
67 184 1
87 184 1
101 184 1
109 184 1
78 185 1
90 185 1
108 185 1
116 185 1
77 186 1
89 186 1
107 186 1
115 186 1
80 187 1
92 187 1
106 187 1
114 187 1
79 188 1
91 188 1
105 188 1
113 188 1
74 189 1
94 189 1
112 189 1
120 189 1
73 190 1
93 190 1
111 190 1
119 190 1
76 191 1
96 191 1
110 191 1
118 191 1
75 192 1
95 192 1
109 192 1
117 192 1
