%%MatrixMarket matrix coordinate integer general
% Binary matrix; one-based indices; arithmetic over GF(2)
250 250 1500
1 1 1
13 1 1
26 1 1
37 1 1
101 1 1
109 1 1
2 2 1
14 2 1
27 2 1
38 2 1
102 2 1
110 2 1
3 3 1
15 3 1
28 3 1
39 3 1
103 3 1
111 3 1
4 4 1
16 4 1
29 4 1
40 4 1
104 4 1
112 4 1
5 5 1
17 5 1
30 5 1
41 5 1
105 5 1
113 5 1
6 6 1
18 6 1
31 6 1
42 6 1
106 6 1
114 6 1
7 7 1
19 7 1
32 7 1
43 7 1
107 7 1
115 7 1
8 8 1
20 8 1
33 8 1
44 8 1
108 8 1
116 8 1
9 9 1
21 9 1
34 9 1
45 9 1
109 9 1
117 9 1
10 10 1
22 10 1
35 10 1
46 10 1
110 10 1
118 10 1
11 11 1
23 11 1
36 11 1
47 11 1
111 11 1
119 11 1
12 12 1
24 12 1
37 12 1
48 12 1
112 12 1
120 12 1
13 13 1
25 13 1
38 13 1
49 13 1
113 13 1
121 13 1
1 14 1
14 14 1
39 14 1
50 14 1
114 14 1
122 14 1
2 15 1
15 15 1
26 15 1
40 15 1
115 15 1
123 15 1
3 16 1
16 16 1
27 16 1
41 16 1
116 16 1
124 16 1
4 17 1
17 17 1
28 17 1
42 17 1
117 17 1
125 17 1
5 18 1
18 18 1
29 18 1
43 18 1
101 18 1
118 18 1
6 19 1
19 19 1
30 19 1
44 19 1
102 19 1
119 19 1
7 20 1
20 20 1
31 20 1
45 20 1
103 20 1
120 20 1
8 21 1
21 21 1
32 21 1
46 21 1
104 21 1
121 21 1
9 22 1
22 22 1
33 22 1
47 22 1
105 22 1
122 22 1
10 23 1
23 23 1
34 23 1
48 23 1
106 23 1
123 23 1
11 24 1
24 24 1
35 24 1
49 24 1
107 24 1
124 24 1
12 25 1
25 25 1
36 25 1
50 25 1
108 25 1
125 25 1
1 26 1
16 26 1
51 26 1
62 26 1
126 26 1
134 26 1
2 27 1
17 27 1
52 27 1
63 27 1
127 27 1
135 27 1
3 28 1
18 28 1
53 28 1
64 28 1
128 28 1
136 28 1
4 29 1
19 29 1
54 29 1
65 29 1
129 29 1
137 29 1
5 30 1
20 30 1
55 30 1
66 30 1
130 30 1
138 30 1
6 31 1
21 31 1
56 31 1
67 31 1
131 31 1
139 31 1
7 32 1
22 32 1
57 32 1
68 32 1
132 32 1
140 32 1
8 33 1
23 33 1
58 33 1
69 33 1
133 33 1
141 33 1
9 34 1
24 34 1
59 34 1
70 34 1
134 34 1
142 34 1
10 35 1
25 35 1
60 35 1
71 35 1
135 35 1
143 35 1
1 36 1
11 36 1
61 36 1
72 36 1
136 36 1
144 36 1
2 37 1
12 37 1
62 37 1
73 37 1
137 37 1
145 37 1
3 38 1
13 38 1
63 38 1
74 38 1
138 38 1
146 38 1
4 39 1
14 39 1
64 39 1
75 39 1
139 39 1
147 39 1
5 40 1
15 40 1
51 40 1
65 40 1
140 40 1
148 40 1
6 41 1
16 41 1
52 41 1
66 41 1
141 41 1
149 41 1
7 42 1
17 42 1
53 42 1
67 42 1
142 42 1
150 42 1
8 43 1
18 43 1
54 43 1
68 43 1
126 43 1
143 43 1
9 44 1
19 44 1
55 44 1
69 44 1
127 44 1
144 44 1
10 45 1
20 45 1
56 45 1
70 45 1
128 45 1
145 45 1
11 46 1
21 46 1
57 46 1
71 46 1
129 46 1
146 46 1
12 47 1
22 47 1
58 47 1
72 47 1
130 47 1
147 47 1
13 48 1
23 48 1
59 48 1
73 48 1
131 48 1
148 48 1
14 49 1
24 49 1
60 49 1
74 49 1
132 49 1
149 49 1
15 50 1
25 50 1
61 50 1
75 50 1
133 50 1
150 50 1
1 51 1
24 51 1
76 51 1
87 51 1
151 51 1
159 51 1
2 52 1
25 52 1
77 52 1
88 52 1
152 52 1
160 52 1
1 53 1
3 53 1
78 53 1
89 53 1
153 53 1
161 53 1
2 54 1
4 54 1
79 54 1
90 54 1
154 54 1
162 54 1
3 55 1
5 55 1
80 55 1
91 55 1
155 55 1
163 55 1
4 56 1
6 56 1
81 56 1
92 56 1
156 56 1
164 56 1
5 57 1
7 57 1
82 57 1
93 57 1
157 57 1
165 57 1
6 58 1
8 58 1
83 58 1
94 58 1
158 58 1
166 58 1
7 59 1
9 59 1
84 59 1
95 59 1
159 59 1
167 59 1
8 60 1
10 60 1
85 60 1
96 60 1
160 60 1
168 60 1
9 61 1
11 61 1
86 61 1
97 61 1
161 61 1
169 61 1
10 62 1
12 62 1
87 62 1
98 62 1
162 62 1
170 62 1
11 63 1
13 63 1
88 63 1
99 63 1
163 63 1
171 63 1
12 64 1
14 64 1
89 64 1
100 64 1
164 64 1
172 64 1
13 65 1
15 65 1
76 65 1
90 65 1
165 65 1
173 65 1
14 66 1
16 66 1
77 66 1
91 66 1
166 66 1
174 66 1
15 67 1
17 67 1
78 67 1
92 67 1
167 67 1
175 67 1
16 68 1
18 68 1
79 68 1
93 68 1
151 68 1
168 68 1
17 69 1
19 69 1
80 69 1
94 69 1
152 69 1
169 69 1
18 70 1
20 70 1
81 70 1
95 70 1
153 70 1
170 70 1
19 71 1
21 71 1
82 71 1
96 71 1
154 71 1
171 71 1
20 72 1
22 72 1
83 72 1
97 72 1
155 72 1
172 72 1
21 73 1
23 73 1
84 73 1
98 73 1
156 73 1
173 73 1
22 74 1
24 74 1
85 74 1
99 74 1
157 74 1
174 74 1
23 75 1
25 75 1
86 75 1
100 75 1
158 75 1
175 75 1
26 76 1
41 76 1
51 76 1
63 76 1
176 76 1
184 76 1
27 77 1
42 77 1
52 77 1
64 77 1
177 77 1
185 77 1
28 78 1
43 78 1
53 78 1
65 78 1
178 78 1
186 78 1
29 79 1
44 79 1
54 79 1
66 79 1
179 79 1
187 79 1
30 80 1
45 80 1
55 80 1
67 80 1
180 80 1
188 80 1
31 81 1
46 81 1
56 81 1
68 81 1
181 81 1
189 81 1
32 82 1
47 82 1
57 82 1
69 82 1
182 82 1
190 82 1
33 83 1
48 83 1
58 83 1
70 83 1
183 83 1
191 83 1
34 84 1
49 84 1
59 84 1
71 84 1
184 84 1
192 84 1
35 85 1
50 85 1
60 85 1
72 85 1
185 85 1
193 85 1
26 86 1
36 86 1
61 86 1
73 86 1
186 86 1
194 86 1
27 87 1
37 87 1
62 87 1
74 87 1
187 87 1
195 87 1
28 88 1
38 88 1
63 88 1
75 88 1
188 88 1
196 88 1
29 89 1
39 89 1
51 89 1
64 89 1
189 89 1
197 89 1
30 90 1
40 90 1
52 90 1
65 90 1
190 90 1
198 90 1
31 91 1
41 91 1
53 91 1
66 91 1
191 91 1
199 91 1
32 92 1
42 92 1
54 92 1
67 92 1
192 92 1
200 92 1
33 93 1
43 93 1
55 93 1
68 93 1
176 93 1
193 93 1
34 94 1
44 94 1
56 94 1
69 94 1
177 94 1
194 94 1
35 95 1
45 95 1
57 95 1
70 95 1
178 95 1
195 95 1
36 96 1
46 96 1
58 96 1
71 96 1
179 96 1
196 96 1
37 97 1
47 97 1
59 97 1
72 97 1
180 97 1
197 97 1
38 98 1
48 98 1
60 98 1
73 98 1
181 98 1
198 98 1
39 99 1
49 99 1
61 99 1
74 99 1
182 99 1
199 99 1
40 100 1
50 100 1
62 100 1
75 100 1
183 100 1
200 100 1
26 101 1
49 101 1
76 101 1
88 101 1
201 101 1
209 101 1
27 102 1
50 102 1
77 102 1
89 102 1
202 102 1
210 102 1
26 103 1
28 103 1
78 103 1
90 103 1
203 103 1
211 103 1
27 104 1
29 104 1
79 104 1
91 104 1
204 104 1
212 104 1
28 105 1
30 105 1
80 105 1
92 105 1
205 105 1
213 105 1
29 106 1
31 106 1
81 106 1
93 106 1
206 106 1
214 106 1
30 107 1
32 107 1
82 107 1
94 107 1
207 107 1
215 107 1
31 108 1
33 108 1
83 108 1
95 108 1
208 108 1
216 108 1
32 109 1
34 109 1
84 109 1
96 109 1
209 109 1
217 109 1
33 110 1
35 110 1
85 110 1
97 110 1
210 110 1
218 110 1
34 111 1
36 111 1
86 111 1
98 111 1
211 111 1
219 111 1
35 112 1
37 112 1
87 112 1
99 112 1
212 112 1
220 112 1
36 113 1
38 113 1
88 113 1
100 113 1
213 113 1
221 113 1
37 114 1
39 114 1
76 114 1
89 114 1
214 114 1
222 114 1
38 115 1
40 115 1
77 115 1
90 115 1
215 115 1
223 115 1
39 116 1
41 116 1
78 116 1
91 116 1
216 116 1
224 116 1
40 117 1
42 117 1
79 117 1
92 117 1
217 117 1
225 117 1
41 118 1
43 118 1
80 118 1
93 118 1
201 118 1
218 118 1
42 119 1
44 119 1
81 119 1
94 119 1
202 119 1
219 119 1
43 120 1
45 120 1
82 120 1
95 120 1
203 120 1
220 120 1
44 121 1
46 121 1
83 121 1
96 121 1
204 121 1
221 121 1
45 122 1
47 122 1
84 122 1
97 122 1
205 122 1
222 122 1
46 123 1
48 123 1
85 123 1
98 123 1
206 123 1
223 123 1
47 124 1
49 124 1
86 124 1
99 124 1
207 124 1
224 124 1
48 125 1
50 125 1
87 125 1
100 125 1
208 125 1
225 125 1
51 126 1
74 126 1
76 126 1
91 126 1
226 126 1
234 126 1
52 127 1
75 127 1
77 127 1
92 127 1
227 127 1
235 127 1
51 128 1
53 128 1
78 128 1
93 128 1
228 128 1
236 128 1
52 129 1
54 129 1
79 129 1
94 129 1
229 129 1
237 129 1
53 130 1
55 130 1
80 130 1
95 130 1
230 130 1
238 130 1
54 131 1
56 131 1
81 131 1
96 131 1
231 131 1
239 131 1
55 132 1
57 132 1
82 132 1
97 132 1
232 132 1
240 132 1
56 133 1
58 133 1
83 133 1
98 133 1
233 133 1
241 133 1
57 134 1
59 134 1
84 134 1
99 134 1
234 134 1
242 134 1
58 135 1
60 135 1
85 135 1
100 135 1
235 135 1
243 135 1
59 136 1
61 136 1
76 136 1
86 136 1
236 136 1
244 136 1
60 137 1
62 137 1
77 137 1
87 137 1
237 137 1
245 137 1
61 138 1
63 138 1
78 138 1
88 138 1
238 138 1
246 138 1
62 139 1
64 139 1
79 139 1
89 139 1
239 139 1
247 139 1
63 140 1
65 140 1
80 140 1
90 140 1
240 140 1
248 140 1
64 141 1
66 141 1
81 141 1
91 141 1
241 141 1
249 141 1
65 142 1
67 142 1
82 142 1
92 142 1
242 142 1
250 142 1
66 143 1
68 143 1
83 143 1
93 143 1
226 143 1
243 143 1
67 144 1
69 144 1
84 144 1
94 144 1
227 144 1
244 144 1
68 145 1
70 145 1
85 145 1
95 145 1
228 145 1
245 145 1
69 146 1
71 146 1
86 146 1
96 146 1
229 146 1
246 146 1
70 147 1
72 147 1
87 147 1
97 147 1
230 147 1
247 147 1
71 148 1
73 148 1
88 148 1
98 148 1
231 148 1
248 148 1
72 149 1
74 149 1
89 149 1
99 149 1
232 149 1
249 149 1
73 150 1
75 150 1
90 150 1
100 150 1
233 150 1
250 150 1
101 151 1
116 151 1
126 151 1
138 151 1
176 151 1
187 151 1
102 152 1
117 152 1
127 152 1
139 152 1
177 152 1
188 152 1
103 153 1
118 153 1
128 153 1
140 153 1
178 153 1
189 153 1
104 154 1
119 154 1
129 154 1
141 154 1
179 154 1
190 154 1
105 155 1
120 155 1
130 155 1
142 155 1
180 155 1
191 155 1
106 156 1
121 156 1
131 156 1
143 156 1
181 156 1
192 156 1
107 157 1
122 157 1
132 157 1
144 157 1
182 157 1
193 157 1
108 158 1
123 158 1
133 158 1
145 158 1
183 158 1
194 158 1
109 159 1
124 159 1
134 159 1
146 159 1
184 159 1
195 159 1
110 160 1
125 160 1
135 160 1
147 160 1
185 160 1
196 160 1
101 161 1
111 161 1
136 161 1
148 161 1
186 161 1
197 161 1
102 162 1
112 162 1
137 162 1
149 162 1
187 162 1
198 162 1
103 163 1
113 163 1
138 163 1
150 163 1
188 163 1
199 163 1
104 164 1
114 164 1
126 164 1
139 164 1
189 164 1
200 164 1
105 165 1
115 165 1
127 165 1
140 165 1
176 165 1
190 165 1
106 166 1
116 166 1
128 166 1
141 166 1
177 166 1
191 166 1
107 167 1
117 167 1
129 167 1
142 167 1
178 167 1
192 167 1
108 168 1
118 168 1
130 168 1
143 168 1
179 168 1
193 168 1
109 169 1
119 169 1
131 169 1
144 169 1
180 169 1
194 169 1
110 170 1
120 170 1
132 170 1
145 170 1
181 170 1
195 170 1
111 171 1
121 171 1
133 171 1
146 171 1
182 171 1
196 171 1
112 172 1
122 172 1
134 172 1
147 172 1
183 172 1
197 172 1
113 173 1
123 173 1
135 173 1
148 173 1
184 173 1
198 173 1
114 174 1
124 174 1
136 174 1
149 174 1
185 174 1
199 174 1
115 175 1
125 175 1
137 175 1
150 175 1
186 175 1
200 175 1
101 176 1
124 176 1
151 176 1
163 176 1
201 176 1
212 176 1
102 177 1
125 177 1
152 177 1
164 177 1
202 177 1
213 177 1
101 178 1
103 178 1
153 178 1
165 178 1
203 178 1
214 178 1
102 179 1
104 179 1
154 179 1
166 179 1
204 179 1
215 179 1
103 180 1
105 180 1
155 180 1
167 180 1
205 180 1
216 180 1
104 181 1
106 181 1
156 181 1
168 181 1
206 181 1
217 181 1
105 182 1
107 182 1
157 182 1
169 182 1
207 182 1
218 182 1
106 183 1
108 183 1
158 183 1
170 183 1
208 183 1
219 183 1
107 184 1
109 184 1
159 184 1
171 184 1
209 184 1
220 184 1
108 185 1
110 185 1
160 185 1
172 185 1
210 185 1
221 185 1
109 186 1
111 186 1
161 186 1
173 186 1
211 186 1
222 186 1
110 187 1
112 187 1
162 187 1
174 187 1
212 187 1
223 187 1
111 188 1
113 188 1
163 188 1
175 188 1
213 188 1
224 188 1
112 189 1
114 189 1
151 189 1
164 189 1
214 189 1
225 189 1
113 190 1
115 190 1
152 190 1
165 190 1
201 190 1
215 190 1
114 191 1
116 191 1
153 191 1
166 191 1
202 191 1
216 191 1
115 192 1
117 192 1
154 192 1
167 192 1
203 192 1
217 192 1
116 193 1
118 193 1
155 193 1
168 193 1
204 193 1
218 193 1
117 194 1
119 194 1
156 194 1
169 194 1
205 194 1
219 194 1
118 195 1
120 195 1
157 195 1
170 195 1
206 195 1
220 195 1
119 196 1
121 196 1
158 196 1
171 196 1
207 196 1
221 196 1
120 197 1
122 197 1
159 197 1
172 197 1
208 197 1
222 197 1
121 198 1
123 198 1
160 198 1
173 198 1
209 198 1
223 198 1
122 199 1
124 199 1
161 199 1
174 199 1
210 199 1
224 199 1
123 200 1
125 200 1
162 200 1
175 200 1
211 200 1
225 200 1
126 201 1
149 201 1
151 201 1
166 201 1
226 201 1
237 201 1
127 202 1
150 202 1
152 202 1
167 202 1
227 202 1
238 202 1
126 203 1
128 203 1
153 203 1
168 203 1
228 203 1
239 203 1
127 204 1
129 204 1
154 204 1
169 204 1
229 204 1
240 204 1
128 205 1
130 205 1
155 205 1
170 205 1
230 205 1
241 205 1
129 206 1
131 206 1
156 206 1
171 206 1
231 206 1
242 206 1
130 207 1
132 207 1
157 207 1
172 207 1
232 207 1
243 207 1
131 208 1
133 208 1
158 208 1
173 208 1
233 208 1
244 208 1
132 209 1
134 209 1
159 209 1
174 209 1
234 209 1
245 209 1
133 210 1
135 210 1
160 210 1
175 210 1
235 210 1
246 210 1
134 211 1
136 211 1
151 211 1
161 211 1
236 211 1
247 211 1
135 212 1
137 212 1
152 212 1
162 212 1
237 212 1
248 212 1
136 213 1
138 213 1
153 213 1
163 213 1
238 213 1
249 213 1
137 214 1
139 214 1
154 214 1
164 214 1
239 214 1
250 214 1
138 215 1
140 215 1
155 215 1
165 215 1
226 215 1
240 215 1
139 216 1
141 216 1
156 216 1
166 216 1
227 216 1
241 216 1
140 217 1
142 217 1
157 217 1
167 217 1
228 217 1
242 217 1
141 218 1
143 218 1
158 218 1
168 218 1
229 218 1
243 218 1
142 219 1
144 219 1
159 219 1
169 219 1
230 219 1
244 219 1
143 220 1
145 220 1
160 220 1
170 220 1
231 220 1
245 220 1
144 221 1
146 221 1
161 221 1
171 221 1
232 221 1
246 221 1
145 222 1
147 222 1
162 222 1
172 222 1
233 222 1
247 222 1
146 223 1
148 223 1
163 223 1
173 223 1
234 223 1
248 223 1
147 224 1
149 224 1
164 224 1
174 224 1
235 224 1
249 224 1
148 225 1
150 225 1
165 225 1
175 225 1
236 225 1
250 225 1
176 226 1
199 226 1
201 226 1
216 226 1
226 226 1
238 226 1
177 227 1
200 227 1
202 227 1
217 227 1
227 227 1
239 227 1
176 228 1
178 228 1
203 228 1
218 228 1
228 228 1
240 228 1
177 229 1
179 229 1
204 229 1
219 229 1
229 229 1
241 229 1
178 230 1
180 230 1
205 230 1
220 230 1
230 230 1
242 230 1
179 231 1
181 231 1
206 231 1
221 231 1
231 231 1
243 231 1
180 232 1
182 232 1
207 232 1
222 232 1
232 232 1
244 232 1
181 233 1
183 233 1
208 233 1
223 233 1
233 233 1
245 233 1
182 234 1
184 234 1
209 234 1
224 234 1
234 234 1
246 234 1
183 235 1
185 235 1
210 235 1
225 235 1
235 235 1
247 235 1
184 236 1
186 236 1
201 236 1
211 236 1
236 236 1
248 236 1
185 237 1
187 237 1
202 237 1
212 237 1
237 237 1
249 237 1
186 238 1
188 238 1
203 238 1
213 238 1
238 238 1
250 238 1
187 239 1
189 239 1
204 239 1
214 239 1
226 239 1
239 239 1
188 240 1
190 240 1
205 240 1
215 240 1
227 240 1
240 240 1
189 241 1
191 241 1
206 241 1
216 241 1
228 241 1
241 241 1
190 242 1
192 242 1
207 242 1
217 242 1
229 242 1
242 242 1
191 243 1
193 243 1
208 243 1
218 243 1
230 243 1
243 243 1
192 244 1
194 244 1
209 244 1
219 244 1
231 244 1
244 244 1
193 245 1
195 245 1
210 245 1
220 245 1
232 245 1
245 245 1
194 246 1
196 246 1
211 246 1
221 246 1
233 246 1
246 246 1
195 247 1
197 247 1
212 247 1
222 247 1
234 247 1
247 247 1
196 248 1
198 248 1
213 248 1
223 248 1
235 248 1
248 248 1
197 249 1
199 249 1
214 249 1
224 249 1
236 249 1
249 249 1
198 250 1
200 250 1
215 250 1
225 250 1
237 250 1
250 250 1
