%%MatrixMarket matrix coordinate integer general
% Binary matrix; one-based indices; arithmetic over GF(2)
640 960 3840
88 1 1
123 1 1
198 1 1
228 1 1
81 2 1
124 2 1
199 2 1
229 2 1
82 3 1
125 3 1
200 3 1
230 3 1
83 4 1
126 4 1
193 4 1
231 4 1
84 5 1
127 5 1
194 5 1
232 5 1
85 6 1
128 6 1
195 6 1
225 6 1
86 7 1
121 7 1
196 7 1
226 7 1
87 8 1
122 8 1
197 8 1
227 8 1
96 9 1
131 9 1
166 9 1
236 9 1
89 10 1
132 10 1
167 10 1
237 10 1
90 11 1
133 11 1
168 11 1
238 11 1
91 12 1
134 12 1
161 12 1
239 12 1
92 13 1
135 13 1
162 13 1
240 13 1
93 14 1
136 14 1
163 14 1
233 14 1
94 15 1
129 15 1
164 15 1
234 15 1
95 16 1
130 16 1
165 16 1
235 16 1
104 17 1
139 17 1
174 17 1
204 17 1
97 18 1
140 18 1
175 18 1
205 18 1
98 19 1
141 19 1
176 19 1
206 19 1
99 20 1
142 20 1
169 20 1
207 20 1
100 21 1
143 21 1
170 21 1
208 21 1
101 22 1
144 22 1
171 22 1
201 22 1
102 23 1
137 23 1
172 23 1
202 23 1
103 24 1
138 24 1
173 24 1
203 24 1
112 25 1
147 25 1
182 25 1
212 25 1
105 26 1
148 26 1
183 26 1
213 26 1
106 27 1
149 27 1
184 27 1
214 27 1
107 28 1
150 28 1
177 28 1
215 28 1
108 29 1
151 29 1
178 29 1
216 29 1
109 30 1
152 30 1
179 30 1
209 30 1
110 31 1
145 31 1
180 31 1
210 31 1
111 32 1
146 32 1
181 32 1
211 32 1
120 33 1
155 33 1
190 33 1
220 33 1
113 34 1
156 34 1
191 34 1
221 34 1
114 35 1
157 35 1
192 35 1
222 35 1
115 36 1
158 36 1
185 36 1
223 36 1
116 37 1
159 37 1
186 37 1
224 37 1
117 38 1
160 38 1
187 38 1
217 38 1
118 39 1
153 39 1
188 39 1
218 39 1
119 40 1
154 40 1
189 40 1
219 40 1
83 41 1
128 41 1
188 41 1
238 41 1
84 42 1
121 42 1
189 42 1
239 42 1
85 43 1
122 43 1
190 43 1
240 43 1
86 44 1
123 44 1
191 44 1
233 44 1
87 45 1
124 45 1
192 45 1
234 45 1
88 46 1
125 46 1
185 46 1
235 46 1
81 47 1
126 47 1
186 47 1
236 47 1
82 48 1
127 48 1
187 48 1
237 48 1
91 49 1
136 49 1
196 49 1
206 49 1
92 50 1
129 50 1
197 50 1
207 50 1
93 51 1
130 51 1
198 51 1
208 51 1
94 52 1
131 52 1
199 52 1
201 52 1
95 53 1
132 53 1
200 53 1
202 53 1
96 54 1
133 54 1
193 54 1
203 54 1
89 55 1
134 55 1
194 55 1
204 55 1
90 56 1
135 56 1
195 56 1
205 56 1
99 57 1
144 57 1
164 57 1
214 57 1
100 58 1
137 58 1
165 58 1
215 58 1
101 59 1
138 59 1
166 59 1
216 59 1
102 60 1
139 60 1
167 60 1
209 60 1
103 61 1
140 61 1
168 61 1
210 61 1
104 62 1
141 62 1
161 62 1
211 62 1
97 63 1
142 63 1
162 63 1
212 63 1
98 64 1
143 64 1
163 64 1
213 64 1
107 65 1
152 65 1
172 65 1
222 65 1
108 66 1
145 66 1
173 66 1
223 66 1
109 67 1
146 67 1
174 67 1
224 67 1
110 68 1
147 68 1
175 68 1
217 68 1
111 69 1
148 69 1
176 69 1
218 69 1
112 70 1
149 70 1
169 70 1
219 70 1
105 71 1
150 71 1
170 71 1
220 71 1
106 72 1
151 72 1
171 72 1
221 72 1
115 73 1
160 73 1
180 73 1
230 73 1
116 74 1
153 74 1
181 74 1
231 74 1
117 75 1
154 75 1
182 75 1
232 75 1
118 76 1
155 76 1
183 76 1
225 76 1
119 77 1
156 77 1
184 77 1
226 77 1
120 78 1
157 78 1
177 78 1
227 78 1
113 79 1
158 79 1
178 79 1
228 79 1
114 80 1
159 80 1
179 80 1
229 80 1
8 81 1
43 81 1
278 81 1
308 81 1
1 82 1
44 82 1
279 82 1
309 82 1
2 83 1
45 83 1
280 83 1
310 83 1
3 84 1
46 84 1
273 84 1
311 84 1
4 85 1
47 85 1
274 85 1
312 85 1
5 86 1
48 86 1
275 86 1
305 86 1
6 87 1
41 87 1
276 87 1
306 87 1
7 88 1
42 88 1
277 88 1
307 88 1
16 89 1
51 89 1
246 89 1
316 89 1
9 90 1
52 90 1
247 90 1
317 90 1
10 91 1
53 91 1
248 91 1
318 91 1
11 92 1
54 92 1
241 92 1
319 92 1
12 93 1
55 93 1
242 93 1
320 93 1
13 94 1
56 94 1
243 94 1
313 94 1
14 95 1
49 95 1
244 95 1
314 95 1
15 96 1
50 96 1
245 96 1
315 96 1
24 97 1
59 97 1
254 97 1
284 97 1
17 98 1
60 98 1
255 98 1
285 98 1
18 99 1
61 99 1
256 99 1
286 99 1
19 100 1
62 100 1
249 100 1
287 100 1
20 101 1
63 101 1
250 101 1
288 101 1
21 102 1
64 102 1
251 102 1
281 102 1
22 103 1
57 103 1
252 103 1
282 103 1
23 104 1
58 104 1
253 104 1
283 104 1
32 105 1
67 105 1
262 105 1
292 105 1
25 106 1
68 106 1
263 106 1
293 106 1
26 107 1
69 107 1
264 107 1
294 107 1
27 108 1
70 108 1
257 108 1
295 108 1
28 109 1
71 109 1
258 109 1
296 109 1
29 110 1
72 110 1
259 110 1
289 110 1
30 111 1
65 111 1
260 111 1
290 111 1
31 112 1
66 112 1
261 112 1
291 112 1
40 113 1
75 113 1
270 113 1
300 113 1
33 114 1
76 114 1
271 114 1
301 114 1
34 115 1
77 115 1
272 115 1
302 115 1
35 116 1
78 116 1
265 116 1
303 116 1
36 117 1
79 117 1
266 117 1
304 117 1
37 118 1
80 118 1
267 118 1
297 118 1
38 119 1
73 119 1
268 119 1
298 119 1
39 120 1
74 120 1
269 120 1
299 120 1
3 121 1
48 121 1
268 121 1
318 121 1
4 122 1
41 122 1
269 122 1
319 122 1
5 123 1
42 123 1
270 123 1
320 123 1
6 124 1
43 124 1
271 124 1
313 124 1
7 125 1
44 125 1
272 125 1
314 125 1
8 126 1
45 126 1
265 126 1
315 126 1
1 127 1
46 127 1
266 127 1
316 127 1
2 128 1
47 128 1
267 128 1
317 128 1
11 129 1
56 129 1
276 129 1
286 129 1
12 130 1
49 130 1
277 130 1
287 130 1
13 131 1
50 131 1
278 131 1
288 131 1
14 132 1
51 132 1
279 132 1
281 132 1
15 133 1
52 133 1
280 133 1
282 133 1
16 134 1
53 134 1
273 134 1
283 134 1
9 135 1
54 135 1
274 135 1
284 135 1
10 136 1
55 136 1
275 136 1
285 136 1
19 137 1
64 137 1
244 137 1
294 137 1
20 138 1
57 138 1
245 138 1
295 138 1
21 139 1
58 139 1
246 139 1
296 139 1
22 140 1
59 140 1
247 140 1
289 140 1
23 141 1
60 141 1
248 141 1
290 141 1
24 142 1
61 142 1
241 142 1
291 142 1
17 143 1
62 143 1
242 143 1
292 143 1
18 144 1
63 144 1
243 144 1
293 144 1
27 145 1
72 145 1
252 145 1
302 145 1
28 146 1
65 146 1
253 146 1
303 146 1
29 147 1
66 147 1
254 147 1
304 147 1
30 148 1
67 148 1
255 148 1
297 148 1
31 149 1
68 149 1
256 149 1
298 149 1
32 150 1
69 150 1
249 150 1
299 150 1
25 151 1
70 151 1
250 151 1
300 151 1
26 152 1
71 152 1
251 152 1
301 152 1
35 153 1
80 153 1
260 153 1
310 153 1
36 154 1
73 154 1
261 154 1
311 154 1
37 155 1
74 155 1
262 155 1
312 155 1
38 156 1
75 156 1
263 156 1
305 156 1
39 157 1
76 157 1
264 157 1
306 157 1
40 158 1
77 158 1
257 158 1
307 158 1
33 159 1
78 159 1
258 159 1
308 159 1
34 160 1
79 160 1
259 160 1
309 160 1
34 161 1
91 161 1
358 161 1
388 161 1
35 162 1
92 162 1
359 162 1
389 162 1
36 163 1
93 163 1
360 163 1
390 163 1
37 164 1
94 164 1
353 164 1
391 164 1
38 165 1
95 165 1
354 165 1
392 165 1
39 166 1
96 166 1
355 166 1
385 166 1
40 167 1
89 167 1
356 167 1
386 167 1
33 168 1
90 168 1
357 168 1
387 168 1
2 169 1
99 169 1
326 169 1
396 169 1
3 170 1
100 170 1
327 170 1
397 170 1
4 171 1
101 171 1
328 171 1
398 171 1
5 172 1
102 172 1
321 172 1
399 172 1
6 173 1
103 173 1
322 173 1
400 173 1
7 174 1
104 174 1
323 174 1
393 174 1
8 175 1
97 175 1
324 175 1
394 175 1
1 176 1
98 176 1
325 176 1
395 176 1
10 177 1
107 177 1
334 177 1
364 177 1
11 178 1
108 178 1
335 178 1
365 178 1
12 179 1
109 179 1
336 179 1
366 179 1
13 180 1
110 180 1
329 180 1
367 180 1
14 181 1
111 181 1
330 181 1
368 181 1
15 182 1
112 182 1
331 182 1
361 182 1
16 183 1
105 183 1
332 183 1
362 183 1
9 184 1
106 184 1
333 184 1
363 184 1
18 185 1
115 185 1
342 185 1
372 185 1
19 186 1
116 186 1
343 186 1
373 186 1
20 187 1
117 187 1
344 187 1
374 187 1
21 188 1
118 188 1
337 188 1
375 188 1
22 189 1
119 189 1
338 189 1
376 189 1
23 190 1
120 190 1
339 190 1
369 190 1
24 191 1
113 191 1
340 191 1
370 191 1
17 192 1
114 192 1
341 192 1
371 192 1
26 193 1
83 193 1
350 193 1
380 193 1
27 194 1
84 194 1
351 194 1
381 194 1
28 195 1
85 195 1
352 195 1
382 195 1
29 196 1
86 196 1
345 196 1
383 196 1
30 197 1
87 197 1
346 197 1
384 197 1
31 198 1
88 198 1
347 198 1
377 198 1
32 199 1
81 199 1
348 199 1
378 199 1
25 200 1
82 200 1
349 200 1
379 200 1
74 201 1
131 201 1
348 201 1
398 201 1
75 202 1
132 202 1
349 202 1
399 202 1
76 203 1
133 203 1
350 203 1
400 203 1
77 204 1
134 204 1
351 204 1
393 204 1
78 205 1
135 205 1
352 205 1
394 205 1
79 206 1
136 206 1
345 206 1
395 206 1
80 207 1
129 207 1
346 207 1
396 207 1
73 208 1
130 208 1
347 208 1
397 208 1
42 209 1
139 209 1
356 209 1
366 209 1
43 210 1
140 210 1
357 210 1
367 210 1
44 211 1
141 211 1
358 211 1
368 211 1
45 212 1
142 212 1
359 212 1
361 212 1
46 213 1
143 213 1
360 213 1
362 213 1
47 214 1
144 214 1
353 214 1
363 214 1
48 215 1
137 215 1
354 215 1
364 215 1
41 216 1
138 216 1
355 216 1
365 216 1
50 217 1
147 217 1
324 217 1
374 217 1
51 218 1
148 218 1
325 218 1
375 218 1
52 219 1
149 219 1
326 219 1
376 219 1
53 220 1
150 220 1
327 220 1
369 220 1
54 221 1
151 221 1
328 221 1
370 221 1
55 222 1
152 222 1
321 222 1
371 222 1
56 223 1
145 223 1
322 223 1
372 223 1
49 224 1
146 224 1
323 224 1
373 224 1
58 225 1
155 225 1
332 225 1
382 225 1
59 226 1
156 226 1
333 226 1
383 226 1
60 227 1
157 227 1
334 227 1
384 227 1
61 228 1
158 228 1
335 228 1
377 228 1
62 229 1
159 229 1
336 229 1
378 229 1
63 230 1
160 230 1
329 230 1
379 230 1
64 231 1
153 231 1
330 231 1
380 231 1
57 232 1
154 232 1
331 232 1
381 232 1
66 233 1
123 233 1
340 233 1
390 233 1
67 234 1
124 234 1
341 234 1
391 234 1
68 235 1
125 235 1
342 235 1
392 235 1
69 236 1
126 236 1
343 236 1
385 236 1
70 237 1
127 237 1
344 237 1
386 237 1
71 238 1
128 238 1
337 238 1
387 238 1
72 239 1
121 239 1
338 239 1
388 239 1
65 240 1
122 240 1
339 240 1
389 240 1
11 241 1
114 241 1
438 241 1
468 241 1
12 242 1
115 242 1
439 242 1
469 242 1
13 243 1
116 243 1
440 243 1
470 243 1
14 244 1
117 244 1
433 244 1
471 244 1
15 245 1
118 245 1
434 245 1
472 245 1
16 246 1
119 246 1
435 246 1
465 246 1
9 247 1
120 247 1
436 247 1
466 247 1
10 248 1
113 248 1
437 248 1
467 248 1
19 249 1
82 249 1
406 249 1
476 249 1
20 250 1
83 250 1
407 250 1
477 250 1
21 251 1
84 251 1
408 251 1
478 251 1
22 252 1
85 252 1
401 252 1
479 252 1
23 253 1
86 253 1
402 253 1
480 253 1
24 254 1
87 254 1
403 254 1
473 254 1
17 255 1
88 255 1
404 255 1
474 255 1
18 256 1
81 256 1
405 256 1
475 256 1
27 257 1
90 257 1
414 257 1
444 257 1
28 258 1
91 258 1
415 258 1
445 258 1
29 259 1
92 259 1
416 259 1
446 259 1
30 260 1
93 260 1
409 260 1
447 260 1
31 261 1
94 261 1
410 261 1
448 261 1
32 262 1
95 262 1
411 262 1
441 262 1
25 263 1
96 263 1
412 263 1
442 263 1
26 264 1
89 264 1
413 264 1
443 264 1
35 265 1
98 265 1
422 265 1
452 265 1
36 266 1
99 266 1
423 266 1
453 266 1
37 267 1
100 267 1
424 267 1
454 267 1
38 268 1
101 268 1
417 268 1
455 268 1
39 269 1
102 269 1
418 269 1
456 269 1
40 270 1
103 270 1
419 270 1
449 270 1
33 271 1
104 271 1
420 271 1
450 271 1
34 272 1
97 272 1
421 272 1
451 272 1
3 273 1
106 273 1
430 273 1
460 273 1
4 274 1
107 274 1
431 274 1
461 274 1
5 275 1
108 275 1
432 275 1
462 275 1
6 276 1
109 276 1
425 276 1
463 276 1
7 277 1
110 277 1
426 277 1
464 277 1
8 278 1
111 278 1
427 278 1
457 278 1
1 279 1
112 279 1
428 279 1
458 279 1
2 280 1
105 280 1
429 280 1
459 280 1
51 281 1
154 281 1
428 281 1
478 281 1
52 282 1
155 282 1
429 282 1
479 282 1
53 283 1
156 283 1
430 283 1
480 283 1
54 284 1
157 284 1
431 284 1
473 284 1
55 285 1
158 285 1
432 285 1
474 285 1
56 286 1
159 286 1
425 286 1
475 286 1
49 287 1
160 287 1
426 287 1
476 287 1
50 288 1
153 288 1
427 288 1
477 288 1
59 289 1
122 289 1
436 289 1
446 289 1
60 290 1
123 290 1
437 290 1
447 290 1
61 291 1
124 291 1
438 291 1
448 291 1
62 292 1
125 292 1
439 292 1
441 292 1
63 293 1
126 293 1
440 293 1
442 293 1
64 294 1
127 294 1
433 294 1
443 294 1
57 295 1
128 295 1
434 295 1
444 295 1
58 296 1
121 296 1
435 296 1
445 296 1
67 297 1
130 297 1
404 297 1
454 297 1
68 298 1
131 298 1
405 298 1
455 298 1
69 299 1
132 299 1
406 299 1
456 299 1
70 300 1
133 300 1
407 300 1
449 300 1
71 301 1
134 301 1
408 301 1
450 301 1
72 302 1
135 302 1
401 302 1
451 302 1
65 303 1
136 303 1
402 303 1
452 303 1
66 304 1
129 304 1
403 304 1
453 304 1
75 305 1
138 305 1
412 305 1
462 305 1
76 306 1
139 306 1
413 306 1
463 306 1
77 307 1
140 307 1
414 307 1
464 307 1
78 308 1
141 308 1
415 308 1
457 308 1
79 309 1
142 309 1
416 309 1
458 309 1
80 310 1
143 310 1
409 310 1
459 310 1
73 311 1
144 311 1
410 311 1
460 311 1
74 312 1
137 312 1
411 312 1
461 312 1
43 313 1
146 313 1
420 313 1
470 313 1
44 314 1
147 314 1
421 314 1
471 314 1
45 315 1
148 315 1
422 315 1
472 315 1
46 316 1
149 316 1
423 316 1
465 316 1
47 317 1
150 317 1
424 317 1
466 317 1
48 318 1
151 318 1
417 318 1
467 318 1
41 319 1
152 319 1
418 319 1
468 319 1
42 320 1
145 320 1
419 320 1
469 320 1
194 321 1
251 321 1
408 321 1
443 321 1
195 322 1
252 322 1
401 322 1
444 322 1
196 323 1
253 323 1
402 323 1
445 323 1
197 324 1
254 324 1
403 324 1
446 324 1
198 325 1
255 325 1
404 325 1
447 325 1
199 326 1
256 326 1
405 326 1
448 326 1
200 327 1
249 327 1
406 327 1
441 327 1
193 328 1
250 328 1
407 328 1
442 328 1
162 329 1
259 329 1
416 329 1
451 329 1
163 330 1
260 330 1
409 330 1
452 330 1
164 331 1
261 331 1
410 331 1
453 331 1
165 332 1
262 332 1
411 332 1
454 332 1
166 333 1
263 333 1
412 333 1
455 333 1
167 334 1
264 334 1
413 334 1
456 334 1
168 335 1
257 335 1
414 335 1
449 335 1
161 336 1
258 336 1
415 336 1
450 336 1
170 337 1
267 337 1
424 337 1
459 337 1
171 338 1
268 338 1
417 338 1
460 338 1
172 339 1
269 339 1
418 339 1
461 339 1
173 340 1
270 340 1
419 340 1
462 340 1
174 341 1
271 341 1
420 341 1
463 341 1
175 342 1
272 342 1
421 342 1
464 342 1
176 343 1
265 343 1
422 343 1
457 343 1
169 344 1
266 344 1
423 344 1
458 344 1
178 345 1
275 345 1
432 345 1
467 345 1
179 346 1
276 346 1
425 346 1
468 346 1
180 347 1
277 347 1
426 347 1
469 347 1
181 348 1
278 348 1
427 348 1
470 348 1
182 349 1
279 349 1
428 349 1
471 349 1
183 350 1
280 350 1
429 350 1
472 350 1
184 351 1
273 351 1
430 351 1
465 351 1
177 352 1
274 352 1
431 352 1
466 352 1
186 353 1
243 353 1
440 353 1
475 353 1
187 354 1
244 354 1
433 354 1
476 354 1
188 355 1
245 355 1
434 355 1
477 355 1
189 356 1
246 356 1
435 356 1
478 356 1
190 357 1
247 357 1
436 357 1
479 357 1
191 358 1
248 358 1
437 358 1
480 358 1
192 359 1
241 359 1
438 359 1
473 359 1
185 360 1
242 360 1
439 360 1
474 360 1
234 361 1
291 361 1
403 361 1
448 361 1
235 362 1
292 362 1
404 362 1
441 362 1
236 363 1
293 363 1
405 363 1
442 363 1
237 364 1
294 364 1
406 364 1
443 364 1
238 365 1
295 365 1
407 365 1
444 365 1
239 366 1
296 366 1
408 366 1
445 366 1
240 367 1
289 367 1
401 367 1
446 367 1
233 368 1
290 368 1
402 368 1
447 368 1
202 369 1
299 369 1
411 369 1
456 369 1
203 370 1
300 370 1
412 370 1
449 370 1
204 371 1
301 371 1
413 371 1
450 371 1
205 372 1
302 372 1
414 372 1
451 372 1
206 373 1
303 373 1
415 373 1
452 373 1
207 374 1
304 374 1
416 374 1
453 374 1
208 375 1
297 375 1
409 375 1
454 375 1
201 376 1
298 376 1
410 376 1
455 376 1
210 377 1
307 377 1
419 377 1
464 377 1
211 378 1
308 378 1
420 378 1
457 378 1
212 379 1
309 379 1
421 379 1
458 379 1
213 380 1
310 380 1
422 380 1
459 380 1
214 381 1
311 381 1
423 381 1
460 381 1
215 382 1
312 382 1
424 382 1
461 382 1
216 383 1
305 383 1
417 383 1
462 383 1
209 384 1
306 384 1
418 384 1
463 384 1
218 385 1
315 385 1
427 385 1
472 385 1
219 386 1
316 386 1
428 386 1
465 386 1
220 387 1
317 387 1
429 387 1
466 387 1
221 388 1
318 388 1
430 388 1
467 388 1
222 389 1
319 389 1
431 389 1
468 389 1
223 390 1
320 390 1
432 390 1
469 390 1
224 391 1
313 391 1
425 391 1
470 391 1
217 392 1
314 392 1
426 392 1
471 392 1
226 393 1
283 393 1
435 393 1
480 393 1
227 394 1
284 394 1
436 394 1
473 394 1
228 395 1
285 395 1
437 395 1
474 395 1
229 396 1
286 396 1
438 396 1
475 396 1
230 397 1
287 397 1
439 397 1
476 397 1
231 398 1
288 398 1
440 398 1
477 398 1
232 399 1
281 399 1
433 399 1
478 399 1
225 400 1
282 400 1
434 400 1
479 400 1
171 401 1
274 401 1
328 401 1
363 401 1
172 402 1
275 402 1
321 402 1
364 402 1
173 403 1
276 403 1
322 403 1
365 403 1
174 404 1
277 404 1
323 404 1
366 404 1
175 405 1
278 405 1
324 405 1
367 405 1
176 406 1
279 406 1
325 406 1
368 406 1
169 407 1
280 407 1
326 407 1
361 407 1
170 408 1
273 408 1
327 408 1
362 408 1
179 409 1
242 409 1
336 409 1
371 409 1
180 410 1
243 410 1
329 410 1
372 410 1
181 411 1
244 411 1
330 411 1
373 411 1
182 412 1
245 412 1
331 412 1
374 412 1
183 413 1
246 413 1
332 413 1
375 413 1
184 414 1
247 414 1
333 414 1
376 414 1
177 415 1
248 415 1
334 415 1
369 415 1
178 416 1
241 416 1
335 416 1
370 416 1
187 417 1
250 417 1
344 417 1
379 417 1
188 418 1
251 418 1
337 418 1
380 418 1
189 419 1
252 419 1
338 419 1
381 419 1
190 420 1
253 420 1
339 420 1
382 420 1
191 421 1
254 421 1
340 421 1
383 421 1
192 422 1
255 422 1
341 422 1
384 422 1
185 423 1
256 423 1
342 423 1
377 423 1
186 424 1
249 424 1
343 424 1
378 424 1
195 425 1
258 425 1
352 425 1
387 425 1
196 426 1
259 426 1
345 426 1
388 426 1
197 427 1
260 427 1
346 427 1
389 427 1
198 428 1
261 428 1
347 428 1
390 428 1
199 429 1
262 429 1
348 429 1
391 429 1
200 430 1
263 430 1
349 430 1
392 430 1
193 431 1
264 431 1
350 431 1
385 431 1
194 432 1
257 432 1
351 432 1
386 432 1
163 433 1
266 433 1
360 433 1
395 433 1
164 434 1
267 434 1
353 434 1
396 434 1
165 435 1
268 435 1
354 435 1
397 435 1
166 436 1
269 436 1
355 436 1
398 436 1
167 437 1
270 437 1
356 437 1
399 437 1
168 438 1
271 438 1
357 438 1
400 438 1
161 439 1
272 439 1
358 439 1
393 439 1
162 440 1
265 440 1
359 440 1
394 440 1
211 441 1
314 441 1
323 441 1
368 441 1
212 442 1
315 442 1
324 442 1
361 442 1
213 443 1
316 443 1
325 443 1
362 443 1
214 444 1
317 444 1
326 444 1
363 444 1
215 445 1
318 445 1
327 445 1
364 445 1
216 446 1
319 446 1
328 446 1
365 446 1
209 447 1
320 447 1
321 447 1
366 447 1
210 448 1
313 448 1
322 448 1
367 448 1
219 449 1
282 449 1
331 449 1
376 449 1
220 450 1
283 450 1
332 450 1
369 450 1
221 451 1
284 451 1
333 451 1
370 451 1
222 452 1
285 452 1
334 452 1
371 452 1
223 453 1
286 453 1
335 453 1
372 453 1
224 454 1
287 454 1
336 454 1
373 454 1
217 455 1
288 455 1
329 455 1
374 455 1
218 456 1
281 456 1
330 456 1
375 456 1
227 457 1
290 457 1
339 457 1
384 457 1
228 458 1
291 458 1
340 458 1
377 458 1
229 459 1
292 459 1
341 459 1
378 459 1
230 460 1
293 460 1
342 460 1
379 460 1
231 461 1
294 461 1
343 461 1
380 461 1
232 462 1
295 462 1
344 462 1
381 462 1
225 463 1
296 463 1
337 463 1
382 463 1
226 464 1
289 464 1
338 464 1
383 464 1
235 465 1
298 465 1
347 465 1
392 465 1
236 466 1
299 466 1
348 466 1
385 466 1
237 467 1
300 467 1
349 467 1
386 467 1
238 468 1
301 468 1
350 468 1
387 468 1
239 469 1
302 469 1
351 469 1
388 469 1
240 470 1
303 470 1
352 470 1
389 470 1
233 471 1
304 471 1
345 471 1
390 471 1
234 472 1
297 472 1
346 472 1
391 472 1
203 473 1
306 473 1
355 473 1
400 473 1
204 474 1
307 474 1
356 474 1
393 474 1
205 475 1
308 475 1
357 475 1
394 475 1
206 476 1
309 476 1
358 476 1
395 476 1
207 477 1
310 477 1
359 477 1
396 477 1
208 478 1
311 478 1
360 478 1
397 478 1
201 479 1
312 479 1
353 479 1
398 479 1
202 480 1
305 480 1
354 480 1
399 480 1
83 481 1
142 481 1
518 481 1
548 481 1
84 482 1
143 482 1
519 482 1
549 482 1
85 483 1
144 483 1
520 483 1
550 483 1
86 484 1
137 484 1
513 484 1
551 484 1
87 485 1
138 485 1
514 485 1
552 485 1
88 486 1
139 486 1
515 486 1
545 486 1
81 487 1
140 487 1
516 487 1
546 487 1
82 488 1
141 488 1
517 488 1
547 488 1
91 489 1
150 489 1
486 489 1
556 489 1
92 490 1
151 490 1
487 490 1
557 490 1
93 491 1
152 491 1
488 491 1
558 491 1
94 492 1
145 492 1
481 492 1
559 492 1
95 493 1
146 493 1
482 493 1
560 493 1
96 494 1
147 494 1
483 494 1
553 494 1
89 495 1
148 495 1
484 495 1
554 495 1
90 496 1
149 496 1
485 496 1
555 496 1
99 497 1
158 497 1
494 497 1
524 497 1
100 498 1
159 498 1
495 498 1
525 498 1
101 499 1
160 499 1
496 499 1
526 499 1
102 500 1
153 500 1
489 500 1
527 500 1
103 501 1
154 501 1
490 501 1
528 501 1
104 502 1
155 502 1
491 502 1
521 502 1
97 503 1
156 503 1
492 503 1
522 503 1
98 504 1
157 504 1
493 504 1
523 504 1
107 505 1
126 505 1
502 505 1
532 505 1
108 506 1
127 506 1
503 506 1
533 506 1
109 507 1
128 507 1
504 507 1
534 507 1
110 508 1
121 508 1
497 508 1
535 508 1
111 509 1
122 509 1
498 509 1
536 509 1
112 510 1
123 510 1
499 510 1
529 510 1
105 511 1
124 511 1
500 511 1
530 511 1
106 512 1
125 512 1
501 512 1
531 512 1
115 513 1
134 513 1
510 513 1
540 513 1
116 514 1
135 514 1
511 514 1
541 514 1
117 515 1
136 515 1
512 515 1
542 515 1
118 516 1
129 516 1
505 516 1
543 516 1
119 517 1
130 517 1
506 517 1
544 517 1
120 518 1
131 518 1
507 518 1
537 518 1
113 519 1
132 519 1
508 519 1
538 519 1
114 520 1
133 520 1
509 520 1
539 520 1
102 521 1
123 521 1
508 521 1
558 521 1
103 522 1
124 522 1
509 522 1
559 522 1
104 523 1
125 523 1
510 523 1
560 523 1
97 524 1
126 524 1
511 524 1
553 524 1
98 525 1
127 525 1
512 525 1
554 525 1
99 526 1
128 526 1
505 526 1
555 526 1
100 527 1
121 527 1
506 527 1
556 527 1
101 528 1
122 528 1
507 528 1
557 528 1
110 529 1
131 529 1
516 529 1
526 529 1
111 530 1
132 530 1
517 530 1
527 530 1
112 531 1
133 531 1
518 531 1
528 531 1
105 532 1
134 532 1
519 532 1
521 532 1
106 533 1
135 533 1
520 533 1
522 533 1
107 534 1
136 534 1
513 534 1
523 534 1
108 535 1
129 535 1
514 535 1
524 535 1
109 536 1
130 536 1
515 536 1
525 536 1
118 537 1
139 537 1
484 537 1
534 537 1
119 538 1
140 538 1
485 538 1
535 538 1
120 539 1
141 539 1
486 539 1
536 539 1
113 540 1
142 540 1
487 540 1
529 540 1
114 541 1
143 541 1
488 541 1
530 541 1
115 542 1
144 542 1
481 542 1
531 542 1
116 543 1
137 543 1
482 543 1
532 543 1
117 544 1
138 544 1
483 544 1
533 544 1
86 545 1
147 545 1
492 545 1
542 545 1
87 546 1
148 546 1
493 546 1
543 546 1
88 547 1
149 547 1
494 547 1
544 547 1
81 548 1
150 548 1
495 548 1
537 548 1
82 549 1
151 549 1
496 549 1
538 549 1
83 550 1
152 550 1
489 550 1
539 550 1
84 551 1
145 551 1
490 551 1
540 551 1
85 552 1
146 552 1
491 552 1
541 552 1
94 553 1
155 553 1
500 553 1
550 553 1
95 554 1
156 554 1
501 554 1
551 554 1
96 555 1
157 555 1
502 555 1
552 555 1
89 556 1
158 556 1
503 556 1
545 556 1
90 557 1
159 557 1
504 557 1
546 557 1
91 558 1
160 558 1
497 558 1
547 558 1
92 559 1
153 559 1
498 559 1
548 559 1
93 560 1
154 560 1
499 560 1
549 560 1
3 561 1
62 561 1
598 561 1
628 561 1
4 562 1
63 562 1
599 562 1
629 562 1
5 563 1
64 563 1
600 563 1
630 563 1
6 564 1
57 564 1
593 564 1
631 564 1
7 565 1
58 565 1
594 565 1
632 565 1
8 566 1
59 566 1
595 566 1
625 566 1
1 567 1
60 567 1
596 567 1
626 567 1
2 568 1
61 568 1
597 568 1
627 568 1
11 569 1
70 569 1
566 569 1
636 569 1
12 570 1
71 570 1
567 570 1
637 570 1
13 571 1
72 571 1
568 571 1
638 571 1
14 572 1
65 572 1
561 572 1
639 572 1
15 573 1
66 573 1
562 573 1
640 573 1
16 574 1
67 574 1
563 574 1
633 574 1
9 575 1
68 575 1
564 575 1
634 575 1
10 576 1
69 576 1
565 576 1
635 576 1
19 577 1
78 577 1
574 577 1
604 577 1
20 578 1
79 578 1
575 578 1
605 578 1
21 579 1
80 579 1
576 579 1
606 579 1
22 580 1
73 580 1
569 580 1
607 580 1
23 581 1
74 581 1
570 581 1
608 581 1
24 582 1
75 582 1
571 582 1
601 582 1
17 583 1
76 583 1
572 583 1
602 583 1
18 584 1
77 584 1
573 584 1
603 584 1
27 585 1
46 585 1
582 585 1
612 585 1
28 586 1
47 586 1
583 586 1
613 586 1
29 587 1
48 587 1
584 587 1
614 587 1
30 588 1
41 588 1
577 588 1
615 588 1
31 589 1
42 589 1
578 589 1
616 589 1
32 590 1
43 590 1
579 590 1
609 590 1
25 591 1
44 591 1
580 591 1
610 591 1
26 592 1
45 592 1
581 592 1
611 592 1
35 593 1
54 593 1
590 593 1
620 593 1
36 594 1
55 594 1
591 594 1
621 594 1
37 595 1
56 595 1
592 595 1
622 595 1
38 596 1
49 596 1
585 596 1
623 596 1
39 597 1
50 597 1
586 597 1
624 597 1
40 598 1
51 598 1
587 598 1
617 598 1
33 599 1
52 599 1
588 599 1
618 599 1
34 600 1
53 600 1
589 600 1
619 600 1
22 601 1
43 601 1
588 601 1
638 601 1
23 602 1
44 602 1
589 602 1
639 602 1
24 603 1
45 603 1
590 603 1
640 603 1
17 604 1
46 604 1
591 604 1
633 604 1
18 605 1
47 605 1
592 605 1
634 605 1
19 606 1
48 606 1
585 606 1
635 606 1
20 607 1
41 607 1
586 607 1
636 607 1
21 608 1
42 608 1
587 608 1
637 608 1
30 609 1
51 609 1
596 609 1
606 609 1
31 610 1
52 610 1
597 610 1
607 610 1
32 611 1
53 611 1
598 611 1
608 611 1
25 612 1
54 612 1
599 612 1
601 612 1
26 613 1
55 613 1
600 613 1
602 613 1
27 614 1
56 614 1
593 614 1
603 614 1
28 615 1
49 615 1
594 615 1
604 615 1
29 616 1
50 616 1
595 616 1
605 616 1
38 617 1
59 617 1
564 617 1
614 617 1
39 618 1
60 618 1
565 618 1
615 618 1
40 619 1
61 619 1
566 619 1
616 619 1
33 620 1
62 620 1
567 620 1
609 620 1
34 621 1
63 621 1
568 621 1
610 621 1
35 622 1
64 622 1
561 622 1
611 622 1
36 623 1
57 623 1
562 623 1
612 623 1
37 624 1
58 624 1
563 624 1
613 624 1
6 625 1
67 625 1
572 625 1
622 625 1
7 626 1
68 626 1
573 626 1
623 626 1
8 627 1
69 627 1
574 627 1
624 627 1
1 628 1
70 628 1
575 628 1
617 628 1
2 629 1
71 629 1
576 629 1
618 629 1
3 630 1
72 630 1
569 630 1
619 630 1
4 631 1
65 631 1
570 631 1
620 631 1
5 632 1
66 632 1
571 632 1
621 632 1
14 633 1
75 633 1
580 633 1
630 633 1
15 634 1
76 634 1
581 634 1
631 634 1
16 635 1
77 635 1
582 635 1
632 635 1
9 636 1
78 636 1
583 636 1
625 636 1
10 637 1
79 637 1
584 637 1
626 637 1
11 638 1
80 638 1
577 638 1
627 638 1
12 639 1
73 639 1
578 639 1
628 639 1
13 640 1
74 640 1
579 640 1
629 640 1
243 641 1
302 641 1
568 641 1
603 641 1
244 642 1
303 642 1
561 642 1
604 642 1
245 643 1
304 643 1
562 643 1
605 643 1
246 644 1
297 644 1
563 644 1
606 644 1
247 645 1
298 645 1
564 645 1
607 645 1
248 646 1
299 646 1
565 646 1
608 646 1
241 647 1
300 647 1
566 647 1
601 647 1
242 648 1
301 648 1
567 648 1
602 648 1
251 649 1
310 649 1
576 649 1
611 649 1
252 650 1
311 650 1
569 650 1
612 650 1
253 651 1
312 651 1
570 651 1
613 651 1
254 652 1
305 652 1
571 652 1
614 652 1
255 653 1
306 653 1
572 653 1
615 653 1
256 654 1
307 654 1
573 654 1
616 654 1
249 655 1
308 655 1
574 655 1
609 655 1
250 656 1
309 656 1
575 656 1
610 656 1
259 657 1
318 657 1
584 657 1
619 657 1
260 658 1
319 658 1
577 658 1
620 658 1
261 659 1
320 659 1
578 659 1
621 659 1
262 660 1
313 660 1
579 660 1
622 660 1
263 661 1
314 661 1
580 661 1
623 661 1
264 662 1
315 662 1
581 662 1
624 662 1
257 663 1
316 663 1
582 663 1
617 663 1
258 664 1
317 664 1
583 664 1
618 664 1
267 665 1
286 665 1
592 665 1
627 665 1
268 666 1
287 666 1
585 666 1
628 666 1
269 667 1
288 667 1
586 667 1
629 667 1
270 668 1
281 668 1
587 668 1
630 668 1
271 669 1
282 669 1
588 669 1
631 669 1
272 670 1
283 670 1
589 670 1
632 670 1
265 671 1
284 671 1
590 671 1
625 671 1
266 672 1
285 672 1
591 672 1
626 672 1
275 673 1
294 673 1
600 673 1
635 673 1
276 674 1
295 674 1
593 674 1
636 674 1
277 675 1
296 675 1
594 675 1
637 675 1
278 676 1
289 676 1
595 676 1
638 676 1
279 677 1
290 677 1
596 677 1
639 677 1
280 678 1
291 678 1
597 678 1
640 678 1
273 679 1
292 679 1
598 679 1
633 679 1
274 680 1
293 680 1
599 680 1
634 680 1
262 681 1
283 681 1
563 681 1
608 681 1
263 682 1
284 682 1
564 682 1
601 682 1
264 683 1
285 683 1
565 683 1
602 683 1
257 684 1
286 684 1
566 684 1
603 684 1
258 685 1
287 685 1
567 685 1
604 685 1
259 686 1
288 686 1
568 686 1
605 686 1
260 687 1
281 687 1
561 687 1
606 687 1
261 688 1
282 688 1
562 688 1
607 688 1
270 689 1
291 689 1
571 689 1
616 689 1
271 690 1
292 690 1
572 690 1
609 690 1
272 691 1
293 691 1
573 691 1
610 691 1
265 692 1
294 692 1
574 692 1
611 692 1
266 693 1
295 693 1
575 693 1
612 693 1
267 694 1
296 694 1
576 694 1
613 694 1
268 695 1
289 695 1
569 695 1
614 695 1
269 696 1
290 696 1
570 696 1
615 696 1
278 697 1
299 697 1
579 697 1
624 697 1
279 698 1
300 698 1
580 698 1
617 698 1
280 699 1
301 699 1
581 699 1
618 699 1
273 700 1
302 700 1
582 700 1
619 700 1
274 701 1
303 701 1
583 701 1
620 701 1
275 702 1
304 702 1
584 702 1
621 702 1
276 703 1
297 703 1
577 703 1
622 703 1
277 704 1
298 704 1
578 704 1
623 704 1
246 705 1
307 705 1
587 705 1
632 705 1
247 706 1
308 706 1
588 706 1
625 706 1
248 707 1
309 707 1
589 707 1
626 707 1
241 708 1
310 708 1
590 708 1
627 708 1
242 709 1
311 709 1
591 709 1
628 709 1
243 710 1
312 710 1
592 710 1
629 710 1
244 711 1
305 711 1
585 711 1
630 711 1
245 712 1
306 712 1
586 712 1
631 712 1
254 713 1
315 713 1
595 713 1
640 713 1
255 714 1
316 714 1
596 714 1
633 714 1
256 715 1
317 715 1
597 715 1
634 715 1
249 716 1
318 716 1
598 716 1
635 716 1
250 717 1
319 717 1
599 717 1
636 717 1
251 718 1
320 718 1
600 718 1
637 718 1
252 719 1
313 719 1
593 719 1
638 719 1
253 720 1
314 720 1
594 720 1
639 720 1
163 721 1
222 721 1
488 721 1
523 721 1
164 722 1
223 722 1
481 722 1
524 722 1
165 723 1
224 723 1
482 723 1
525 723 1
166 724 1
217 724 1
483 724 1
526 724 1
167 725 1
218 725 1
484 725 1
527 725 1
168 726 1
219 726 1
485 726 1
528 726 1
161 727 1
220 727 1
486 727 1
521 727 1
162 728 1
221 728 1
487 728 1
522 728 1
171 729 1
230 729 1
496 729 1
531 729 1
172 730 1
231 730 1
489 730 1
532 730 1
173 731 1
232 731 1
490 731 1
533 731 1
174 732 1
225 732 1
491 732 1
534 732 1
175 733 1
226 733 1
492 733 1
535 733 1
176 734 1
227 734 1
493 734 1
536 734 1
169 735 1
228 735 1
494 735 1
529 735 1
170 736 1
229 736 1
495 736 1
530 736 1
179 737 1
238 737 1
504 737 1
539 737 1
180 738 1
239 738 1
497 738 1
540 738 1
181 739 1
240 739 1
498 739 1
541 739 1
182 740 1
233 740 1
499 740 1
542 740 1
183 741 1
234 741 1
500 741 1
543 741 1
184 742 1
235 742 1
501 742 1
544 742 1
177 743 1
236 743 1
502 743 1
537 743 1
178 744 1
237 744 1
503 744 1
538 744 1
187 745 1
206 745 1
512 745 1
547 745 1
188 746 1
207 746 1
505 746 1
548 746 1
189 747 1
208 747 1
506 747 1
549 747 1
190 748 1
201 748 1
507 748 1
550 748 1
191 749 1
202 749 1
508 749 1
551 749 1
192 750 1
203 750 1
509 750 1
552 750 1
185 751 1
204 751 1
510 751 1
545 751 1
186 752 1
205 752 1
511 752 1
546 752 1
195 753 1
214 753 1
520 753 1
555 753 1
196 754 1
215 754 1
513 754 1
556 754 1
197 755 1
216 755 1
514 755 1
557 755 1
198 756 1
209 756 1
515 756 1
558 756 1
199 757 1
210 757 1
516 757 1
559 757 1
200 758 1
211 758 1
517 758 1
560 758 1
193 759 1
212 759 1
518 759 1
553 759 1
194 760 1
213 760 1
519 760 1
554 760 1
182 761 1
203 761 1
483 761 1
528 761 1
183 762 1
204 762 1
484 762 1
521 762 1
184 763 1
205 763 1
485 763 1
522 763 1
177 764 1
206 764 1
486 764 1
523 764 1
178 765 1
207 765 1
487 765 1
524 765 1
179 766 1
208 766 1
488 766 1
525 766 1
180 767 1
201 767 1
481 767 1
526 767 1
181 768 1
202 768 1
482 768 1
527 768 1
190 769 1
211 769 1
491 769 1
536 769 1
191 770 1
212 770 1
492 770 1
529 770 1
192 771 1
213 771 1
493 771 1
530 771 1
185 772 1
214 772 1
494 772 1
531 772 1
186 773 1
215 773 1
495 773 1
532 773 1
187 774 1
216 774 1
496 774 1
533 774 1
188 775 1
209 775 1
489 775 1
534 775 1
189 776 1
210 776 1
490 776 1
535 776 1
198 777 1
219 777 1
499 777 1
544 777 1
199 778 1
220 778 1
500 778 1
537 778 1
200 779 1
221 779 1
501 779 1
538 779 1
193 780 1
222 780 1
502 780 1
539 780 1
194 781 1
223 781 1
503 781 1
540 781 1
195 782 1
224 782 1
504 782 1
541 782 1
196 783 1
217 783 1
497 783 1
542 783 1
197 784 1
218 784 1
498 784 1
543 784 1
166 785 1
227 785 1
507 785 1
552 785 1
167 786 1
228 786 1
508 786 1
545 786 1
168 787 1
229 787 1
509 787 1
546 787 1
161 788 1
230 788 1
510 788 1
547 788 1
162 789 1
231 789 1
511 789 1
548 789 1
163 790 1
232 790 1
512 790 1
549 790 1
164 791 1
225 791 1
505 791 1
550 791 1
165 792 1
226 792 1
506 792 1
551 792 1
174 793 1
235 793 1
515 793 1
560 793 1
175 794 1
236 794 1
516 794 1
553 794 1
176 795 1
237 795 1
517 795 1
554 795 1
169 796 1
238 796 1
518 796 1
555 796 1
170 797 1
239 797 1
519 797 1
556 797 1
171 798 1
240 798 1
520 798 1
557 798 1
172 799 1
233 799 1
513 799 1
558 799 1
173 800 1
234 800 1
514 800 1
559 800 1
403 801 1
462 801 1
514 801 1
571 801 1
404 802 1
463 802 1
515 802 1
572 802 1
405 803 1
464 803 1
516 803 1
573 803 1
406 804 1
457 804 1
517 804 1
574 804 1
407 805 1
458 805 1
518 805 1
575 805 1
408 806 1
459 806 1
519 806 1
576 806 1
401 807 1
460 807 1
520 807 1
569 807 1
402 808 1
461 808 1
513 808 1
570 808 1
411 809 1
470 809 1
482 809 1
579 809 1
412 810 1
471 810 1
483 810 1
580 810 1
413 811 1
472 811 1
484 811 1
581 811 1
414 812 1
465 812 1
485 812 1
582 812 1
415 813 1
466 813 1
486 813 1
583 813 1
416 814 1
467 814 1
487 814 1
584 814 1
409 815 1
468 815 1
488 815 1
577 815 1
410 816 1
469 816 1
481 816 1
578 816 1
419 817 1
478 817 1
490 817 1
587 817 1
420 818 1
479 818 1
491 818 1
588 818 1
421 819 1
480 819 1
492 819 1
589 819 1
422 820 1
473 820 1
493 820 1
590 820 1
423 821 1
474 821 1
494 821 1
591 821 1
424 822 1
475 822 1
495 822 1
592 822 1
417 823 1
476 823 1
496 823 1
585 823 1
418 824 1
477 824 1
489 824 1
586 824 1
427 825 1
446 825 1
498 825 1
595 825 1
428 826 1
447 826 1
499 826 1
596 826 1
429 827 1
448 827 1
500 827 1
597 827 1
430 828 1
441 828 1
501 828 1
598 828 1
431 829 1
442 829 1
502 829 1
599 829 1
432 830 1
443 830 1
503 830 1
600 830 1
425 831 1
444 831 1
504 831 1
593 831 1
426 832 1
445 832 1
497 832 1
594 832 1
435 833 1
454 833 1
506 833 1
563 833 1
436 834 1
455 834 1
507 834 1
564 834 1
437 835 1
456 835 1
508 835 1
565 835 1
438 836 1
449 836 1
509 836 1
566 836 1
439 837 1
450 837 1
510 837 1
567 837 1
440 838 1
451 838 1
511 838 1
568 838 1
433 839 1
452 839 1
512 839 1
561 839 1
434 840 1
453 840 1
505 840 1
562 840 1
422 841 1
443 841 1
554 841 1
611 841 1
423 842 1
444 842 1
555 842 1
612 842 1
424 843 1
445 843 1
556 843 1
613 843 1
417 844 1
446 844 1
557 844 1
614 844 1
418 845 1
447 845 1
558 845 1
615 845 1
419 846 1
448 846 1
559 846 1
616 846 1
420 847 1
441 847 1
560 847 1
609 847 1
421 848 1
442 848 1
553 848 1
610 848 1
430 849 1
451 849 1
522 849 1
619 849 1
431 850 1
452 850 1
523 850 1
620 850 1
432 851 1
453 851 1
524 851 1
621 851 1
425 852 1
454 852 1
525 852 1
622 852 1
426 853 1
455 853 1
526 853 1
623 853 1
427 854 1
456 854 1
527 854 1
624 854 1
428 855 1
449 855 1
528 855 1
617 855 1
429 856 1
450 856 1
521 856 1
618 856 1
438 857 1
459 857 1
530 857 1
627 857 1
439 858 1
460 858 1
531 858 1
628 858 1
440 859 1
461 859 1
532 859 1
629 859 1
433 860 1
462 860 1
533 860 1
630 860 1
434 861 1
463 861 1
534 861 1
631 861 1
435 862 1
464 862 1
535 862 1
632 862 1
436 863 1
457 863 1
536 863 1
625 863 1
437 864 1
458 864 1
529 864 1
626 864 1
406 865 1
467 865 1
538 865 1
635 865 1
407 866 1
468 866 1
539 866 1
636 866 1
408 867 1
469 867 1
540 867 1
637 867 1
401 868 1
470 868 1
541 868 1
638 868 1
402 869 1
471 869 1
542 869 1
639 869 1
403 870 1
472 870 1
543 870 1
640 870 1
404 871 1
465 871 1
544 871 1
633 871 1
405 872 1
466 872 1
537 872 1
634 872 1
414 873 1
475 873 1
546 873 1
603 873 1
415 874 1
476 874 1
547 874 1
604 874 1
416 875 1
477 875 1
548 875 1
605 875 1
409 876 1
478 876 1
549 876 1
606 876 1
410 877 1
479 877 1
550 877 1
607 877 1
411 878 1
480 878 1
551 878 1
608 878 1
412 879 1
473 879 1
552 879 1
601 879 1
413 880 1
474 880 1
545 880 1
602 880 1
323 881 1
382 881 1
491 881 1
594 881 1
324 882 1
383 882 1
492 882 1
595 882 1
325 883 1
384 883 1
493 883 1
596 883 1
326 884 1
377 884 1
494 884 1
597 884 1
327 885 1
378 885 1
495 885 1
598 885 1
328 886 1
379 886 1
496 886 1
599 886 1
321 887 1
380 887 1
489 887 1
600 887 1
322 888 1
381 888 1
490 888 1
593 888 1
331 889 1
390 889 1
499 889 1
562 889 1
332 890 1
391 890 1
500 890 1
563 890 1
333 891 1
392 891 1
501 891 1
564 891 1
334 892 1
385 892 1
502 892 1
565 892 1
335 893 1
386 893 1
503 893 1
566 893 1
336 894 1
387 894 1
504 894 1
567 894 1
329 895 1
388 895 1
497 895 1
568 895 1
330 896 1
389 896 1
498 896 1
561 896 1
339 897 1
398 897 1
507 897 1
570 897 1
340 898 1
399 898 1
508 898 1
571 898 1
341 899 1
400 899 1
509 899 1
572 899 1
342 900 1
393 900 1
510 900 1
573 900 1
343 901 1
394 901 1
511 901 1
574 901 1
344 902 1
395 902 1
512 902 1
575 902 1
337 903 1
396 903 1
505 903 1
576 903 1
338 904 1
397 904 1
506 904 1
569 904 1
347 905 1
366 905 1
515 905 1
578 905 1
348 906 1
367 906 1
516 906 1
579 906 1
349 907 1
368 907 1
517 907 1
580 907 1
350 908 1
361 908 1
518 908 1
581 908 1
351 909 1
362 909 1
519 909 1
582 909 1
352 910 1
363 910 1
520 910 1
583 910 1
345 911 1
364 911 1
513 911 1
584 911 1
346 912 1
365 912 1
514 912 1
577 912 1
355 913 1
374 913 1
483 913 1
586 913 1
356 914 1
375 914 1
484 914 1
587 914 1
357 915 1
376 915 1
485 915 1
588 915 1
358 916 1
369 916 1
486 916 1
589 916 1
359 917 1
370 917 1
487 917 1
590 917 1
360 918 1
371 918 1
488 918 1
591 918 1
353 919 1
372 919 1
481 919 1
592 919 1
354 920 1
373 920 1
482 920 1
585 920 1
342 921 1
363 921 1
531 921 1
634 921 1
343 922 1
364 922 1
532 922 1
635 922 1
344 923 1
365 923 1
533 923 1
636 923 1
337 924 1
366 924 1
534 924 1
637 924 1
338 925 1
367 925 1
535 925 1
638 925 1
339 926 1
368 926 1
536 926 1
639 926 1
340 927 1
361 927 1
529 927 1
640 927 1
341 928 1
362 928 1
530 928 1
633 928 1
350 929 1
371 929 1
539 929 1
602 929 1
351 930 1
372 930 1
540 930 1
603 930 1
352 931 1
373 931 1
541 931 1
604 931 1
345 932 1
374 932 1
542 932 1
605 932 1
346 933 1
375 933 1
543 933 1
606 933 1
347 934 1
376 934 1
544 934 1
607 934 1
348 935 1
369 935 1
537 935 1
608 935 1
349 936 1
370 936 1
538 936 1
601 936 1
358 937 1
379 937 1
547 937 1
610 937 1
359 938 1
380 938 1
548 938 1
611 938 1
360 939 1
381 939 1
549 939 1
612 939 1
353 940 1
382 940 1
550 940 1
613 940 1
354 941 1
383 941 1
551 941 1
614 941 1
355 942 1
384 942 1
552 942 1
615 942 1
356 943 1
377 943 1
545 943 1
616 943 1
357 944 1
378 944 1
546 944 1
609 944 1
326 945 1
387 945 1
555 945 1
618 945 1
327 946 1
388 946 1
556 946 1
619 946 1
328 947 1
389 947 1
557 947 1
620 947 1
321 948 1
390 948 1
558 948 1
621 948 1
322 949 1
391 949 1
559 949 1
622 949 1
323 950 1
392 950 1
560 950 1
623 950 1
324 951 1
385 951 1
553 951 1
624 951 1
325 952 1
386 952 1
554 952 1
617 952 1
334 953 1
395 953 1
523 953 1
626 953 1
335 954 1
396 954 1
524 954 1
627 954 1
336 955 1
397 955 1
525 955 1
628 955 1
329 956 1
398 956 1
526 956 1
629 956 1
330 957 1
399 957 1
527 957 1
630 957 1
331 958 1
400 958 1
528 958 1
631 958 1
332 959 1
393 959 1
521 959 1
632 959 1
333 960 1
394 960 1
522 960 1
625 960 1
