%%MatrixMarket matrix coordinate integer general
% Binary matrix; one-based indices; arithmetic over GF(2)
110 220 880
1 1 1
9 1 1
23 1 1
26 1 1
2 2 1
10 2 1
24 2 1
27 2 1
3 3 1
11 3 1
25 3 1
28 3 1
4 4 1
12 4 1
26 4 1
29 4 1
5 5 1
13 5 1
27 5 1
30 5 1
6 6 1
14 6 1
28 6 1
31 6 1
7 7 1
15 7 1
29 7 1
32 7 1
8 8 1
16 8 1
30 8 1
33 8 1
9 9 1
17 9 1
31 9 1
34 9 1
10 10 1
18 10 1
32 10 1
35 10 1
11 11 1
19 11 1
33 11 1
36 11 1
12 12 1
20 12 1
34 12 1
37 12 1
13 13 1
21 13 1
35 13 1
38 13 1
14 14 1
22 14 1
36 14 1
39 14 1
1 15 1
15 15 1
37 15 1
40 15 1
2 16 1
16 16 1
38 16 1
41 16 1
3 17 1
17 17 1
39 17 1
42 17 1
4 18 1
18 18 1
40 18 1
43 18 1
5 19 1
19 19 1
41 19 1
44 19 1
6 20 1
20 20 1
23 20 1
42 20 1
7 21 1
21 21 1
24 21 1
43 21 1
8 22 1
22 22 1
25 22 1
44 22 1
1 23 1
14 23 1
45 23 1
48 23 1
2 24 1
15 24 1
46 24 1
49 24 1
3 25 1
16 25 1
47 25 1
50 25 1
4 26 1
17 26 1
48 26 1
51 26 1
5 27 1
18 27 1
49 27 1
52 27 1
6 28 1
19 28 1
50 28 1
53 28 1
7 29 1
20 29 1
51 29 1
54 29 1
8 30 1
21 30 1
52 30 1
55 30 1
9 31 1
22 31 1
53 31 1
56 31 1
1 32 1
10 32 1
54 32 1
57 32 1
2 33 1
11 33 1
55 33 1
58 33 1
3 34 1
12 34 1
56 34 1
59 34 1
4 35 1
13 35 1
57 35 1
60 35 1
5 36 1
14 36 1
58 36 1
61 36 1
6 37 1
15 37 1
59 37 1
62 37 1
7 38 1
16 38 1
60 38 1
63 38 1
8 39 1
17 39 1
61 39 1
64 39 1
9 40 1
18 40 1
62 40 1
65 40 1
10 41 1
19 41 1
63 41 1
66 41 1
11 42 1
20 42 1
45 42 1
64 42 1
12 43 1
21 43 1
46 43 1
65 43 1
13 44 1
22 44 1
47 44 1
66 44 1
23 45 1
36 45 1
45 45 1
53 45 1
24 46 1
37 46 1
46 46 1
54 46 1
25 47 1
38 47 1
47 47 1
55 47 1
26 48 1
39 48 1
48 48 1
56 48 1
27 49 1
40 49 1
49 49 1
57 49 1
28 50 1
41 50 1
50 50 1
58 50 1
29 51 1
42 51 1
51 51 1
59 51 1
30 52 1
43 52 1
52 52 1
60 52 1
31 53 1
44 53 1
53 53 1
61 53 1
23 54 1
32 54 1
54 54 1
62 54 1
24 55 1
33 55 1
55 55 1
63 55 1
25 56 1
34 56 1
56 56 1
64 56 1
26 57 1
35 57 1
57 57 1
65 57 1
27 58 1
36 58 1
58 58 1
66 58 1
28 59 1
37 59 1
45 59 1
59 59 1
29 60 1
38 60 1
46 60 1
60 60 1
30 61 1
39 61 1
47 61 1
61 61 1
31 62 1
40 62 1
48 62 1
62 62 1
32 63 1
41 63 1
49 63 1
63 63 1
33 64 1
42 64 1
50 64 1
64 64 1
34 65 1
43 65 1
51 65 1
65 65 1
35 66 1
44 66 1
52 66 1
66 66 1
1 67 1
21 67 1
67 67 1
70 67 1
2 68 1
22 68 1
68 68 1
71 68 1
1 69 1
3 69 1
69 69 1
72 69 1
2 70 1
4 70 1
70 70 1
73 70 1
3 71 1
5 71 1
71 71 1
74 71 1
4 72 1
6 72 1
72 72 1
75 72 1
5 73 1
7 73 1
73 73 1
76 73 1
6 74 1
8 74 1
74 74 1
77 74 1
7 75 1
9 75 1
75 75 1
78 75 1
8 76 1
10 76 1
76 76 1
79 76 1
9 77 1
11 77 1
77 77 1
80 77 1
10 78 1
12 78 1
78 78 1
81 78 1
11 79 1
13 79 1
79 79 1
82 79 1
12 80 1
14 80 1
80 80 1
83 80 1
13 81 1
15 81 1
81 81 1
84 81 1
14 82 1
16 82 1
82 82 1
85 82 1
15 83 1
17 83 1
83 83 1
86 83 1
16 84 1
18 84 1
84 84 1
87 84 1
17 85 1
19 85 1
85 85 1
88 85 1
18 86 1
20 86 1
67 86 1
86 86 1
19 87 1
21 87 1
68 87 1
87 87 1
20 88 1
22 88 1
69 88 1
88 88 1
23 89 1
43 89 1
67 89 1
75 89 1
24 90 1
44 90 1
68 90 1
76 90 1
23 91 1
25 91 1
69 91 1
77 91 1
24 92 1
26 92 1
70 92 1
78 92 1
25 93 1
27 93 1
71 93 1
79 93 1
26 94 1
28 94 1
72 94 1
80 94 1
27 95 1
29 95 1
73 95 1
81 95 1
28 96 1
30 96 1
74 96 1
82 96 1
29 97 1
31 97 1
75 97 1
83 97 1
30 98 1
32 98 1
76 98 1
84 98 1
31 99 1
33 99 1
77 99 1
85 99 1
32 100 1
34 100 1
78 100 1
86 100 1
33 101 1
35 101 1
79 101 1
87 101 1
34 102 1
36 102 1
80 102 1
88 102 1
35 103 1
37 103 1
67 103 1
81 103 1
36 104 1
38 104 1
68 104 1
82 104 1
37 105 1
39 105 1
69 105 1
83 105 1
38 106 1
40 106 1
70 106 1
84 106 1
39 107 1
41 107 1
71 107 1
85 107 1
40 108 1
42 108 1
72 108 1
86 108 1
41 109 1
43 109 1
73 109 1
87 109 1
42 110 1
44 110 1
74 110 1
88 110 1
45 111 1
65 111 1
67 111 1
80 111 1
46 112 1
66 112 1
68 112 1
81 112 1
45 113 1
47 113 1
69 113 1
82 113 1
46 114 1
48 114 1
70 114 1
83 114 1
47 115 1
49 115 1
71 115 1
84 115 1
48 116 1
50 116 1
72 116 1
85 116 1
49 117 1
51 117 1
73 117 1
86 117 1
50 118 1
52 118 1
74 118 1
87 118 1
51 119 1
53 119 1
75 119 1
88 119 1
52 120 1
54 120 1
67 120 1
76 120 1
53 121 1
55 121 1
68 121 1
77 121 1
54 122 1
56 122 1
69 122 1
78 122 1
55 123 1
57 123 1
70 123 1
79 123 1
56 124 1
58 124 1
71 124 1
80 124 1
57 125 1
59 125 1
72 125 1
81 125 1
58 126 1
60 126 1
73 126 1
82 126 1
59 127 1
61 127 1
74 127 1
83 127 1
60 128 1
62 128 1
75 128 1
84 128 1
61 129 1
63 129 1
76 129 1
85 129 1
62 130 1
64 130 1
77 130 1
86 130 1
63 131 1
65 131 1
78 131 1
87 131 1
64 132 1
66 132 1
79 132 1
88 132 1
1 133 1
22 133 1
89 133 1
92 133 1
1 134 1
2 134 1
90 134 1
93 134 1
2 135 1
3 135 1
91 135 1
94 135 1
3 136 1
4 136 1
92 136 1
95 136 1
4 137 1
5 137 1
93 137 1
96 137 1
5 138 1
6 138 1
94 138 1
97 138 1
6 139 1
7 139 1
95 139 1
98 139 1
7 140 1
8 140 1
96 140 1
99 140 1
8 141 1
9 141 1
97 141 1
100 141 1
9 142 1
10 142 1
98 142 1
101 142 1
10 143 1
11 143 1
99 143 1
102 143 1
11 144 1
12 144 1
100 144 1
103 144 1
12 145 1
13 145 1
101 145 1
104 145 1
13 146 1
14 146 1
102 146 1
105 146 1
14 147 1
15 147 1
103 147 1
106 147 1
15 148 1
16 148 1
104 148 1
107 148 1
16 149 1
17 149 1
105 149 1
108 149 1
17 150 1
18 150 1
106 150 1
109 150 1
18 151 1
19 151 1
107 151 1
110 151 1
19 152 1
20 152 1
89 152 1
108 152 1
20 153 1
21 153 1
90 153 1
109 153 1
21 154 1
22 154 1
91 154 1
110 154 1
23 155 1
44 155 1
89 155 1
97 155 1
23 156 1
24 156 1
90 156 1
98 156 1
24 157 1
25 157 1
91 157 1
99 157 1
25 158 1
26 158 1
92 158 1
100 158 1
26 159 1
27 159 1
93 159 1
101 159 1
27 160 1
28 160 1
94 160 1
102 160 1
28 161 1
29 161 1
95 161 1
103 161 1
29 162 1
30 162 1
96 162 1
104 162 1
30 163 1
31 163 1
97 163 1
105 163 1
31 164 1
32 164 1
98 164 1
106 164 1
32 165 1
33 165 1
99 165 1
107 165 1
33 166 1
34 166 1
100 166 1
108 166 1
34 167 1
35 167 1
101 167 1
109 167 1
35 168 1
36 168 1
102 168 1
110 168 1
36 169 1
37 169 1
89 169 1
103 169 1
37 170 1
38 170 1
90 170 1
104 170 1
38 171 1
39 171 1
91 171 1
105 171 1
39 172 1
40 172 1
92 172 1
106 172 1
40 173 1
41 173 1
93 173 1
107 173 1
41 174 1
42 174 1
94 174 1
108 174 1
42 175 1
43 175 1
95 175 1
109 175 1
43 176 1
44 176 1
96 176 1
110 176 1
45 177 1
66 177 1
89 177 1
102 177 1
45 178 1
46 178 1
90 178 1
103 178 1
46 179 1
47 179 1
91 179 1
104 179 1
47 180 1
48 180 1
92 180 1
105 180 1
48 181 1
49 181 1
93 181 1
106 181 1
49 182 1
50 182 1
94 182 1
107 182 1
50 183 1
51 183 1
95 183 1
108 183 1
51 184 1
52 184 1
96 184 1
109 184 1
52 185 1
53 185 1
97 185 1
110 185 1
53 186 1
54 186 1
89 186 1
98 186 1
54 187 1
55 187 1
90 187 1
99 187 1
55 188 1
56 188 1
91 188 1
100 188 1
56 189 1
57 189 1
92 189 1
101 189 1
57 190 1
58 190 1
93 190 1
102 190 1
58 191 1
59 191 1
94 191 1
103 191 1
59 192 1
60 192 1
95 192 1
104 192 1
60 193 1
61 193 1
96 193 1
105 193 1
61 194 1
62 194 1
97 194 1
106 194 1
62 195 1
63 195 1
98 195 1
107 195 1
63 196 1
64 196 1
99 196 1
108 196 1
64 197 1
65 197 1
100 197 1
109 197 1
65 198 1
66 198 1
101 198 1
110 198 1
67 199 1
88 199 1
89 199 1
109 199 1
67 200 1
68 200 1
90 200 1
110 200 1
68 201 1
69 201 1
89 201 1
91 201 1
69 202 1
70 202 1
90 202 1
92 202 1
70 203 1
71 203 1
91 203 1
93 203 1
71 204 1
72 204 1
92 204 1
94 204 1
72 205 1
73 205 1
93 205 1
95 205 1
73 206 1
74 206 1
94 206 1
96 206 1
74 207 1
75 207 1
95 207 1
97 207 1
75 208 1
76 208 1
96 208 1
98 208 1
76 209 1
77 209 1
97 209 1
99 209 1
77 210 1
78 210 1
98 210 1
100 210 1
78 211 1
79 211 1
99 211 1
101 211 1
79 212 1
80 212 1
100 212 1
102 212 1
80 213 1
81 213 1
101 213 1
103 213 1
81 214 1
82 214 1
102 214 1
104 214 1
82 215 1
83 215 1
103 215 1
105 215 1
83 216 1
84 216 1
104 216 1
106 216 1
84 217 1
85 217 1
105 217 1
107 217 1
85 218 1
86 218 1
106 218 1
108 218 1
86 219 1
87 219 1
107 219 1
109 219 1
87 220 1
88 220 1
108 220 1
110 220 1
