%%MatrixMarket matrix coordinate integer general
% Binary matrix; one-based indices; arithmetic over GF(2)
885 1180 7080
1 1 1
37 1 1
60 1 1
89 1 1
296 1 1
310 1 1
2 2 1
38 2 1
61 2 1
90 2 1
297 2 1
311 2 1
3 3 1
39 3 1
62 3 1
91 3 1
298 3 1
312 3 1
4 4 1
40 4 1
63 4 1
92 4 1
299 4 1
313 4 1
5 5 1
41 5 1
64 5 1
93 5 1
300 5 1
314 5 1
6 6 1
42 6 1
65 6 1
94 6 1
301 6 1
315 6 1
7 7 1
43 7 1
66 7 1
95 7 1
302 7 1
316 7 1
8 8 1
44 8 1
67 8 1
96 8 1
303 8 1
317 8 1
9 9 1
45 9 1
68 9 1
97 9 1
304 9 1
318 9 1
10 10 1
46 10 1
69 10 1
98 10 1
305 10 1
319 10 1
11 11 1
47 11 1
70 11 1
99 11 1
306 11 1
320 11 1
12 12 1
48 12 1
71 12 1
100 12 1
307 12 1
321 12 1
13 13 1
49 13 1
72 13 1
101 13 1
308 13 1
322 13 1
14 14 1
50 14 1
73 14 1
102 14 1
309 14 1
323 14 1
15 15 1
51 15 1
74 15 1
103 15 1
310 15 1
324 15 1
16 16 1
52 16 1
75 16 1
104 16 1
311 16 1
325 16 1
17 17 1
53 17 1
76 17 1
105 17 1
312 17 1
326 17 1
18 18 1
54 18 1
77 18 1
106 18 1
313 18 1
327 18 1
19 19 1
55 19 1
78 19 1
107 19 1
314 19 1
328 19 1
20 20 1
56 20 1
79 20 1
108 20 1
315 20 1
329 20 1
21 21 1
57 21 1
80 21 1
109 21 1
316 21 1
330 21 1
22 22 1
58 22 1
81 22 1
110 22 1
317 22 1
331 22 1
23 23 1
59 23 1
82 23 1
111 23 1
318 23 1
332 23 1
1 24 1
24 24 1
83 24 1
112 24 1
319 24 1
333 24 1
2 25 1
25 25 1
84 25 1
113 25 1
320 25 1
334 25 1
3 26 1
26 26 1
85 26 1
114 26 1
321 26 1
335 26 1
4 27 1
27 27 1
86 27 1
115 27 1
322 27 1
336 27 1
5 28 1
28 28 1
87 28 1
116 28 1
323 28 1
337 28 1
6 29 1
29 29 1
88 29 1
117 29 1
324 29 1
338 29 1
7 30 1
30 30 1
89 30 1
118 30 1
325 30 1
339 30 1
8 31 1
31 31 1
60 31 1
90 31 1
326 31 1
340 31 1
9 32 1
32 32 1
61 32 1
91 32 1
327 32 1
341 32 1
10 33 1
33 33 1
62 33 1
92 33 1
328 33 1
342 33 1
11 34 1
34 34 1
63 34 1
93 34 1
329 34 1
343 34 1
12 35 1
35 35 1
64 35 1
94 35 1
330 35 1
344 35 1
13 36 1
36 36 1
65 36 1
95 36 1
331 36 1
345 36 1
14 37 1
37 37 1
66 37 1
96 37 1
332 37 1
346 37 1
15 38 1
38 38 1
67 38 1
97 38 1
333 38 1
347 38 1
16 39 1
39 39 1
68 39 1
98 39 1
334 39 1
348 39 1
17 40 1
40 40 1
69 40 1
99 40 1
335 40 1
349 40 1
18 41 1
41 41 1
70 41 1
100 41 1
336 41 1
350 41 1
19 42 1
42 42 1
71 42 1
101 42 1
337 42 1
351 42 1
20 43 1
43 43 1
72 43 1
102 43 1
338 43 1
352 43 1
21 44 1
44 44 1
73 44 1
103 44 1
339 44 1
353 44 1
22 45 1
45 45 1
74 45 1
104 45 1
340 45 1
354 45 1
23 46 1
46 46 1
75 46 1
105 46 1
296 46 1
341 46 1
24 47 1
47 47 1
76 47 1
106 47 1
297 47 1
342 47 1
25 48 1
48 48 1
77 48 1
107 48 1
298 48 1
343 48 1
26 49 1
49 49 1
78 49 1
108 49 1
299 49 1
344 49 1
27 50 1
50 50 1
79 50 1
109 50 1
300 50 1
345 50 1
28 51 1
51 51 1
80 51 1
110 51 1
301 51 1
346 51 1
29 52 1
52 52 1
81 52 1
111 52 1
302 52 1
347 52 1
30 53 1
53 53 1
82 53 1
112 53 1
303 53 1
348 53 1
31 54 1
54 54 1
83 54 1
113 54 1
304 54 1
349 54 1
32 55 1
55 55 1
84 55 1
114 55 1
305 55 1
350 55 1
33 56 1
56 56 1
85 56 1
115 56 1
306 56 1
351 56 1
34 57 1
57 57 1
86 57 1
116 57 1
307 57 1
352 57 1
35 58 1
58 58 1
87 58 1
117 58 1
308 58 1
353 58 1
36 59 1
59 59 1
88 59 1
118 59 1
309 59 1
354 59 1
1 60 1
41 60 1
119 60 1
148 60 1
355 60 1
369 60 1
2 61 1
42 61 1
120 61 1
149 61 1
356 61 1
370 61 1
3 62 1
43 62 1
121 62 1
150 62 1
357 62 1
371 62 1
4 63 1
44 63 1
122 63 1
151 63 1
358 63 1
372 63 1
5 64 1
45 64 1
123 64 1
152 64 1
359 64 1
373 64 1
6 65 1
46 65 1
124 65 1
153 65 1
360 65 1
374 65 1
7 66 1
47 66 1
125 66 1
154 66 1
361 66 1
375 66 1
8 67 1
48 67 1
126 67 1
155 67 1
362 67 1
376 67 1
9 68 1
49 68 1
127 68 1
156 68 1
363 68 1
377 68 1
10 69 1
50 69 1
128 69 1
157 69 1
364 69 1
378 69 1
11 70 1
51 70 1
129 70 1
158 70 1
365 70 1
379 70 1
12 71 1
52 71 1
130 71 1
159 71 1
366 71 1
380 71 1
13 72 1
53 72 1
131 72 1
160 72 1
367 72 1
381 72 1
14 73 1
54 73 1
132 73 1
161 73 1
368 73 1
382 73 1
15 74 1
55 74 1
133 74 1
162 74 1
369 74 1
383 74 1
16 75 1
56 75 1
134 75 1
163 75 1
370 75 1
384 75 1
17 76 1
57 76 1
135 76 1
164 76 1
371 76 1
385 76 1
18 77 1
58 77 1
136 77 1
165 77 1
372 77 1
386 77 1
19 78 1
59 78 1
137 78 1
166 78 1
373 78 1
387 78 1
1 79 1
20 79 1
138 79 1
167 79 1
374 79 1
388 79 1
2 80 1
21 80 1
139 80 1
168 80 1
375 80 1
389 80 1
3 81 1
22 81 1
140 81 1
169 81 1
376 81 1
390 81 1
4 82 1
23 82 1
141 82 1
170 82 1
377 82 1
391 82 1
5 83 1
24 83 1
142 83 1
171 83 1
378 83 1
392 83 1
6 84 1
25 84 1
143 84 1
172 84 1
379 84 1
393 84 1
7 85 1
26 85 1
144 85 1
173 85 1
380 85 1
394 85 1
8 86 1
27 86 1
145 86 1
174 86 1
381 86 1
395 86 1
9 87 1
28 87 1
146 87 1
175 87 1
382 87 1
396 87 1
10 88 1
29 88 1
147 88 1
176 88 1
383 88 1
397 88 1
11 89 1
30 89 1
148 89 1
177 89 1
384 89 1
398 89 1
12 90 1
31 90 1
119 90 1
149 90 1
385 90 1
399 90 1
13 91 1
32 91 1
120 91 1
150 91 1
386 91 1
400 91 1
14 92 1
33 92 1
121 92 1
151 92 1
387 92 1
401 92 1
15 93 1
34 93 1
122 93 1
152 93 1
388 93 1
402 93 1
16 94 1
35 94 1
123 94 1
153 94 1
389 94 1
403 94 1
17 95 1
36 95 1
124 95 1
154 95 1
390 95 1
404 95 1
18 96 1
37 96 1
125 96 1
155 96 1
391 96 1
405 96 1
19 97 1
38 97 1
126 97 1
156 97 1
392 97 1
406 97 1
20 98 1
39 98 1
127 98 1
157 98 1
393 98 1
407 98 1
21 99 1
40 99 1
128 99 1
158 99 1
394 99 1
408 99 1
22 100 1
41 100 1
129 100 1
159 100 1
395 100 1
409 100 1
23 101 1
42 101 1
130 101 1
160 101 1
396 101 1
410 101 1
24 102 1
43 102 1
131 102 1
161 102 1
397 102 1
411 102 1
25 103 1
44 103 1
132 103 1
162 103 1
398 103 1
412 103 1
26 104 1
45 104 1
133 104 1
163 104 1
399 104 1
413 104 1
27 105 1
46 105 1
134 105 1
164 105 1
355 105 1
400 105 1
28 106 1
47 106 1
135 106 1
165 106 1
356 106 1
401 106 1
29 107 1
48 107 1
136 107 1
166 107 1
357 107 1
402 107 1
30 108 1
49 108 1
137 108 1
167 108 1
358 108 1
403 108 1
31 109 1
50 109 1
138 109 1
168 109 1
359 109 1
404 109 1
32 110 1
51 110 1
139 110 1
169 110 1
360 110 1
405 110 1
33 111 1
52 111 1
140 111 1
170 111 1
361 111 1
406 111 1
34 112 1
53 112 1
141 112 1
171 112 1
362 112 1
407 112 1
35 113 1
54 113 1
142 113 1
172 113 1
363 113 1
408 113 1
36 114 1
55 114 1
143 114 1
173 114 1
364 114 1
409 114 1
37 115 1
56 115 1
144 115 1
174 115 1
365 115 1
410 115 1
38 116 1
57 116 1
145 116 1
175 116 1
366 116 1
411 116 1
39 117 1
58 117 1
146 117 1
176 117 1
367 117 1
412 117 1
40 118 1
59 118 1
147 118 1
177 118 1
368 118 1
413 118 1
1 119 1
48 119 1
178 119 1
207 119 1
414 119 1
428 119 1
2 120 1
49 120 1
179 120 1
208 120 1
415 120 1
429 120 1
3 121 1
50 121 1
180 121 1
209 121 1
416 121 1
430 121 1
4 122 1
51 122 1
181 122 1
210 122 1
417 122 1
431 122 1
5 123 1
52 123 1
182 123 1
211 123 1
418 123 1
432 123 1
6 124 1
53 124 1
183 124 1
212 124 1
419 124 1
433 124 1
7 125 1
54 125 1
184 125 1
213 125 1
420 125 1
434 125 1
8 126 1
55 126 1
185 126 1
214 126 1
421 126 1
435 126 1
9 127 1
56 127 1
186 127 1
215 127 1
422 127 1
436 127 1
10 128 1
57 128 1
187 128 1
216 128 1
423 128 1
437 128 1
11 129 1
58 129 1
188 129 1
217 129 1
424 129 1
438 129 1
12 130 1
59 130 1
189 130 1
218 130 1
425 130 1
439 130 1
1 131 1
13 131 1
190 131 1
219 131 1
426 131 1
440 131 1
2 132 1
14 132 1
191 132 1
220 132 1
427 132 1
441 132 1
3 133 1
15 133 1
192 133 1
221 133 1
428 133 1
442 133 1
4 134 1
16 134 1
193 134 1
222 134 1
429 134 1
443 134 1
5 135 1
17 135 1
194 135 1
223 135 1
430 135 1
444 135 1
6 136 1
18 136 1
195 136 1
224 136 1
431 136 1
445 136 1
7 137 1
19 137 1
196 137 1
225 137 1
432 137 1
446 137 1
8 138 1
20 138 1
197 138 1
226 138 1
433 138 1
447 138 1
9 139 1
21 139 1
198 139 1
227 139 1
434 139 1
448 139 1
10 140 1
22 140 1
199 140 1
228 140 1
435 140 1
449 140 1
11 141 1
23 141 1
200 141 1
229 141 1
436 141 1
450 141 1
12 142 1
24 142 1
201 142 1
230 142 1
437 142 1
451 142 1
13 143 1
25 143 1
202 143 1
231 143 1
438 143 1
452 143 1
14 144 1
26 144 1
203 144 1
232 144 1
439 144 1
453 144 1
15 145 1
27 145 1
204 145 1
233 145 1
440 145 1
454 145 1
16 146 1
28 146 1
205 146 1
234 146 1
441 146 1
455 146 1
17 147 1
29 147 1
206 147 1
235 147 1
442 147 1
456 147 1
18 148 1
30 148 1
207 148 1
236 148 1
443 148 1
457 148 1
19 149 1
31 149 1
178 149 1
208 149 1
444 149 1
458 149 1
20 150 1
32 150 1
179 150 1
209 150 1
445 150 1
459 150 1
21 151 1
33 151 1
180 151 1
210 151 1
446 151 1
460 151 1
22 152 1
34 152 1
181 152 1
211 152 1
447 152 1
461 152 1
23 153 1
35 153 1
182 153 1
212 153 1
448 153 1
462 153 1
24 154 1
36 154 1
183 154 1
213 154 1
449 154 1
463 154 1
25 155 1
37 155 1
184 155 1
214 155 1
450 155 1
464 155 1
26 156 1
38 156 1
185 156 1
215 156 1
451 156 1
465 156 1
27 157 1
39 157 1
186 157 1
216 157 1
452 157 1
466 157 1
28 158 1
40 158 1
187 158 1
217 158 1
453 158 1
467 158 1
29 159 1
41 159 1
188 159 1
218 159 1
454 159 1
468 159 1
30 160 1
42 160 1
189 160 1
219 160 1
455 160 1
469 160 1
31 161 1
43 161 1
190 161 1
220 161 1
456 161 1
470 161 1
32 162 1
44 162 1
191 162 1
221 162 1
457 162 1
471 162 1
33 163 1
45 163 1
192 163 1
222 163 1
458 163 1
472 163 1
34 164 1
46 164 1
193 164 1
223 164 1
414 164 1
459 164 1
35 165 1
47 165 1
194 165 1
224 165 1
415 165 1
460 165 1
36 166 1
48 166 1
195 166 1
225 166 1
416 166 1
461 166 1
37 167 1
49 167 1
196 167 1
226 167 1
417 167 1
462 167 1
38 168 1
50 168 1
197 168 1
227 168 1
418 168 1
463 168 1
39 169 1
51 169 1
198 169 1
228 169 1
419 169 1
464 169 1
40 170 1
52 170 1
199 170 1
229 170 1
420 170 1
465 170 1
41 171 1
53 171 1
200 171 1
230 171 1
421 171 1
466 171 1
42 172 1
54 172 1
201 172 1
231 172 1
422 172 1
467 172 1
43 173 1
55 173 1
202 173 1
232 173 1
423 173 1
468 173 1
44 174 1
56 174 1
203 174 1
233 174 1
424 174 1
469 174 1
45 175 1
57 175 1
204 175 1
234 175 1
425 175 1
470 175 1
46 176 1
58 176 1
205 176 1
235 176 1
426 176 1
471 176 1
47 177 1
59 177 1
206 177 1
236 177 1
427 177 1
472 177 1
1 178 1
52 178 1
237 178 1
266 178 1
473 178 1
487 178 1
2 179 1
53 179 1
238 179 1
267 179 1
474 179 1
488 179 1
3 180 1
54 180 1
239 180 1
268 180 1
475 180 1
489 180 1
4 181 1
55 181 1
240 181 1
269 181 1
476 181 1
490 181 1
5 182 1
56 182 1
241 182 1
270 182 1
477 182 1
491 182 1
6 183 1
57 183 1
242 183 1
271 183 1
478 183 1
492 183 1
7 184 1
58 184 1
243 184 1
272 184 1
479 184 1
493 184 1
8 185 1
59 185 1
244 185 1
273 185 1
480 185 1
494 185 1
1 186 1
9 186 1
245 186 1
274 186 1
481 186 1
495 186 1
2 187 1
10 187 1
246 187 1
275 187 1
482 187 1
496 187 1
3 188 1
11 188 1
247 188 1
276 188 1
483 188 1
497 188 1
4 189 1
12 189 1
248 189 1
277 189 1
484 189 1
498 189 1
5 190 1
13 190 1
249 190 1
278 190 1
485 190 1
499 190 1
6 191 1
14 191 1
250 191 1
279 191 1
486 191 1
500 191 1
7 192 1
15 192 1
251 192 1
280 192 1
487 192 1
501 192 1
8 193 1
16 193 1
252 193 1
281 193 1
488 193 1
502 193 1
9 194 1
17 194 1
253 194 1
282 194 1
489 194 1
503 194 1
10 195 1
18 195 1
254 195 1
283 195 1
490 195 1
504 195 1
11 196 1
19 196 1
255 196 1
284 196 1
491 196 1
505 196 1
12 197 1
20 197 1
256 197 1
285 197 1
492 197 1
506 197 1
13 198 1
21 198 1
257 198 1
286 198 1
493 198 1
507 198 1
14 199 1
22 199 1
258 199 1
287 199 1
494 199 1
508 199 1
15 200 1
23 200 1
259 200 1
288 200 1
495 200 1
509 200 1
16 201 1
24 201 1
260 201 1
289 201 1
496 201 1
510 201 1
17 202 1
25 202 1
261 202 1
290 202 1
497 202 1
511 202 1
18 203 1
26 203 1
262 203 1
291 203 1
498 203 1
512 203 1
19 204 1
27 204 1
263 204 1
292 204 1
499 204 1
513 204 1
20 205 1
28 205 1
264 205 1
293 205 1
500 205 1
514 205 1
21 206 1
29 206 1
265 206 1
294 206 1
501 206 1
515 206 1
22 207 1
30 207 1
266 207 1
295 207 1
502 207 1
516 207 1
23 208 1
31 208 1
237 208 1
267 208 1
503 208 1
517 208 1
24 209 1
32 209 1
238 209 1
268 209 1
504 209 1
518 209 1
25 210 1
33 210 1
239 210 1
269 210 1
505 210 1
519 210 1
26 211 1
34 211 1
240 211 1
270 211 1
506 211 1
520 211 1
27 212 1
35 212 1
241 212 1
271 212 1
507 212 1
521 212 1
28 213 1
36 213 1
242 213 1
272 213 1
508 213 1
522 213 1
29 214 1
37 214 1
243 214 1
273 214 1
509 214 1
523 214 1
30 215 1
38 215 1
244 215 1
274 215 1
510 215 1
524 215 1
31 216 1
39 216 1
245 216 1
275 216 1
511 216 1
525 216 1
32 217 1
40 217 1
246 217 1
276 217 1
512 217 1
526 217 1
33 218 1
41 218 1
247 218 1
277 218 1
513 218 1
527 218 1
34 219 1
42 219 1
248 219 1
278 219 1
514 219 1
528 219 1
35 220 1
43 220 1
249 220 1
279 220 1
515 220 1
529 220 1
36 221 1
44 221 1
250 221 1
280 221 1
516 221 1
530 221 1
37 222 1
45 222 1
251 222 1
281 222 1
517 222 1
531 222 1
38 223 1
46 223 1
252 223 1
282 223 1
473 223 1
518 223 1
39 224 1
47 224 1
253 224 1
283 224 1
474 224 1
519 224 1
40 225 1
48 225 1
254 225 1
284 225 1
475 225 1
520 225 1
41 226 1
49 226 1
255 226 1
285 226 1
476 226 1
521 226 1
42 227 1
50 227 1
256 227 1
286 227 1
477 227 1
522 227 1
43 228 1
51 228 1
257 228 1
287 228 1
478 228 1
523 228 1
44 229 1
52 229 1
258 229 1
288 229 1
479 229 1
524 229 1
45 230 1
53 230 1
259 230 1
289 230 1
480 230 1
525 230 1
46 231 1
54 231 1
260 231 1
290 231 1
481 231 1
526 231 1
47 232 1
55 232 1
261 232 1
291 232 1
482 232 1
527 232 1
48 233 1
56 233 1
262 233 1
292 233 1
483 233 1
528 233 1
49 234 1
57 234 1
263 234 1
293 234 1
484 234 1
529 234 1
50 235 1
58 235 1
264 235 1
294 235 1
485 235 1
530 235 1
51 236 1
59 236 1
265 236 1
295 236 1
486 236 1
531 236 1
60 237 1
100 237 1
119 237 1
155 237 1
532 237 1
546 237 1
61 238 1
101 238 1
120 238 1
156 238 1
533 238 1
547 238 1
62 239 1
102 239 1
121 239 1
157 239 1
534 239 1
548 239 1
63 240 1
103 240 1
122 240 1
158 240 1
535 240 1
549 240 1
64 241 1
104 241 1
123 241 1
159 241 1
536 241 1
550 241 1
65 242 1
105 242 1
124 242 1
160 242 1
537 242 1
551 242 1
66 243 1
106 243 1
125 243 1
161 243 1
538 243 1
552 243 1
67 244 1
107 244 1
126 244 1
162 244 1
539 244 1
553 244 1
68 245 1
108 245 1
127 245 1
163 245 1
540 245 1
554 245 1
69 246 1
109 246 1
128 246 1
164 246 1
541 246 1
555 246 1
70 247 1
110 247 1
129 247 1
165 247 1
542 247 1
556 247 1
71 248 1
111 248 1
130 248 1
166 248 1
543 248 1
557 248 1
72 249 1
112 249 1
131 249 1
167 249 1
544 249 1
558 249 1
73 250 1
113 250 1
132 250 1
168 250 1
545 250 1
559 250 1
74 251 1
114 251 1
133 251 1
169 251 1
546 251 1
560 251 1
75 252 1
115 252 1
134 252 1
170 252 1
547 252 1
561 252 1
76 253 1
116 253 1
135 253 1
171 253 1
548 253 1
562 253 1
77 254 1
117 254 1
136 254 1
172 254 1
549 254 1
563 254 1
78 255 1
118 255 1
137 255 1
173 255 1
550 255 1
564 255 1
60 256 1
79 256 1
138 256 1
174 256 1
551 256 1
565 256 1
61 257 1
80 257 1
139 257 1
175 257 1
552 257 1
566 257 1
62 258 1
81 258 1
140 258 1
176 258 1
553 258 1
567 258 1
63 259 1
82 259 1
141 259 1
177 259 1
554 259 1
568 259 1
64 260 1
83 260 1
119 260 1
142 260 1
555 260 1
569 260 1
65 261 1
84 261 1
120 261 1
143 261 1
556 261 1
570 261 1
66 262 1
85 262 1
121 262 1
144 262 1
557 262 1
571 262 1
67 263 1
86 263 1
122 263 1
145 263 1
558 263 1
572 263 1
68 264 1
87 264 1
123 264 1
146 264 1
559 264 1
573 264 1
69 265 1
88 265 1
124 265 1
147 265 1
560 265 1
574 265 1
70 266 1
89 266 1
125 266 1
148 266 1
561 266 1
575 266 1
71 267 1
90 267 1
126 267 1
149 267 1
562 267 1
576 267 1
72 268 1
91 268 1
127 268 1
150 268 1
563 268 1
577 268 1
73 269 1
92 269 1
128 269 1
151 269 1
564 269 1
578 269 1
74 270 1
93 270 1
129 270 1
152 270 1
565 270 1
579 270 1
75 271 1
94 271 1
130 271 1
153 271 1
566 271 1
580 271 1
76 272 1
95 272 1
131 272 1
154 272 1
567 272 1
581 272 1
77 273 1
96 273 1
132 273 1
155 273 1
568 273 1
582 273 1
78 274 1
97 274 1
133 274 1
156 274 1
569 274 1
583 274 1
79 275 1
98 275 1
134 275 1
157 275 1
570 275 1
584 275 1
80 276 1
99 276 1
135 276 1
158 276 1
571 276 1
585 276 1
81 277 1
100 277 1
136 277 1
159 277 1
572 277 1
586 277 1
82 278 1
101 278 1
137 278 1
160 278 1
573 278 1
587 278 1
83 279 1
102 279 1
138 279 1
161 279 1
574 279 1
588 279 1
84 280 1
103 280 1
139 280 1
162 280 1
575 280 1
589 280 1
85 281 1
104 281 1
140 281 1
163 281 1
576 281 1
590 281 1
86 282 1
105 282 1
141 282 1
164 282 1
532 282 1
577 282 1
87 283 1
106 283 1
142 283 1
165 283 1
533 283 1
578 283 1
88 284 1
107 284 1
143 284 1
166 284 1
534 284 1
579 284 1
89 285 1
108 285 1
144 285 1
167 285 1
535 285 1
580 285 1
90 286 1
109 286 1
145 286 1
168 286 1
536 286 1
581 286 1
91 287 1
110 287 1
146 287 1
169 287 1
537 287 1
582 287 1
92 288 1
111 288 1
147 288 1
170 288 1
538 288 1
583 288 1
93 289 1
112 289 1
148 289 1
171 289 1
539 289 1
584 289 1
94 290 1
113 290 1
149 290 1
172 290 1
540 290 1
585 290 1
95 291 1
114 291 1
150 291 1
173 291 1
541 291 1
586 291 1
96 292 1
115 292 1
151 292 1
174 292 1
542 292 1
587 292 1
97 293 1
116 293 1
152 293 1
175 293 1
543 293 1
588 293 1
98 294 1
117 294 1
153 294 1
176 294 1
544 294 1
589 294 1
99 295 1
118 295 1
154 295 1
177 295 1
545 295 1
590 295 1
60 296 1
107 296 1
178 296 1
214 296 1
591 296 1
605 296 1
61 297 1
108 297 1
179 297 1
215 297 1
592 297 1
606 297 1
62 298 1
109 298 1
180 298 1
216 298 1
593 298 1
607 298 1
63 299 1
110 299 1
181 299 1
217 299 1
594 299 1
608 299 1
64 300 1
111 300 1
182 300 1
218 300 1
595 300 1
609 300 1
65 301 1
112 301 1
183 301 1
219 301 1
596 301 1
610 301 1
66 302 1
113 302 1
184 302 1
220 302 1
597 302 1
611 302 1
67 303 1
114 303 1
185 303 1
221 303 1
598 303 1
612 303 1
68 304 1
115 304 1
186 304 1
222 304 1
599 304 1
613 304 1
69 305 1
116 305 1
187 305 1
223 305 1
600 305 1
614 305 1
70 306 1
117 306 1
188 306 1
224 306 1
601 306 1
615 306 1
71 307 1
118 307 1
189 307 1
225 307 1
602 307 1
616 307 1
60 308 1
72 308 1
190 308 1
226 308 1
603 308 1
617 308 1
61 309 1
73 309 1
191 309 1
227 309 1
604 309 1
618 309 1
62 310 1
74 310 1
192 310 1
228 310 1
605 310 1
619 310 1
63 311 1
75 311 1
193 311 1
229 311 1
606 311 1
620 311 1
64 312 1
76 312 1
194 312 1
230 312 1
607 312 1
621 312 1
65 313 1
77 313 1
195 313 1
231 313 1
608 313 1
622 313 1
66 314 1
78 314 1
196 314 1
232 314 1
609 314 1
623 314 1
67 315 1
79 315 1
197 315 1
233 315 1
610 315 1
624 315 1
68 316 1
80 316 1
198 316 1
234 316 1
611 316 1
625 316 1
69 317 1
81 317 1
199 317 1
235 317 1
612 317 1
626 317 1
70 318 1
82 318 1
200 318 1
236 318 1
613 318 1
627 318 1
71 319 1
83 319 1
178 319 1
201 319 1
614 319 1
628 319 1
72 320 1
84 320 1
179 320 1
202 320 1
615 320 1
629 320 1
73 321 1
85 321 1
180 321 1
203 321 1
616 321 1
630 321 1
74 322 1
86 322 1
181 322 1
204 322 1
617 322 1
631 322 1
75 323 1
87 323 1
182 323 1
205 323 1
618 323 1
632 323 1
76 324 1
88 324 1
183 324 1
206 324 1
619 324 1
633 324 1
77 325 1
89 325 1
184 325 1
207 325 1
620 325 1
634 325 1
78 326 1
90 326 1
185 326 1
208 326 1
621 326 1
635 326 1
79 327 1
91 327 1
186 327 1
209 327 1
622 327 1
636 327 1
80 328 1
92 328 1
187 328 1
210 328 1
623 328 1
637 328 1
81 329 1
93 329 1
188 329 1
211 329 1
624 329 1
638 329 1
82 330 1
94 330 1
189 330 1
212 330 1
625 330 1
639 330 1
83 331 1
95 331 1
190 331 1
213 331 1
626 331 1
640 331 1
84 332 1
96 332 1
191 332 1
214 332 1
627 332 1
641 332 1
85 333 1
97 333 1
192 333 1
215 333 1
628 333 1
642 333 1
86 334 1
98 334 1
193 334 1
216 334 1
629 334 1
643 334 1
87 335 1
99 335 1
194 335 1
217 335 1
630 335 1
644 335 1
88 336 1
100 336 1
195 336 1
218 336 1
631 336 1
645 336 1
89 337 1
101 337 1
196 337 1
219 337 1
632 337 1
646 337 1
90 338 1
102 338 1
197 338 1
220 338 1
633 338 1
647 338 1
91 339 1
103 339 1
198 339 1
221 339 1
634 339 1
648 339 1
92 340 1
104 340 1
199 340 1
222 340 1
635 340 1
649 340 1
93 341 1
105 341 1
200 341 1
223 341 1
591 341 1
636 341 1
94 342 1
106 342 1
201 342 1
224 342 1
592 342 1
637 342 1
95 343 1
107 343 1
202 343 1
225 343 1
593 343 1
638 343 1
96 344 1
108 344 1
203 344 1
226 344 1
594 344 1
639 344 1
97 345 1
109 345 1
204 345 1
227 345 1
595 345 1
640 345 1
98 346 1
110 346 1
205 346 1
228 346 1
596 346 1
641 346 1
99 347 1
111 347 1
206 347 1
229 347 1
597 347 1
642 347 1
100 348 1
112 348 1
207 348 1
230 348 1
598 348 1
643 348 1
101 349 1
113 349 1
208 349 1
231 349 1
599 349 1
644 349 1
102 350 1
114 350 1
209 350 1
232 350 1
600 350 1
645 350 1
103 351 1
115 351 1
210 351 1
233 351 1
601 351 1
646 351 1
104 352 1
116 352 1
211 352 1
234 352 1
602 352 1
647 352 1
105 353 1
117 353 1
212 353 1
235 353 1
603 353 1
648 353 1
106 354 1
118 354 1
213 354 1
236 354 1
604 354 1
649 354 1
60 355 1
111 355 1
237 355 1
273 355 1
650 355 1
664 355 1
61 356 1
112 356 1
238 356 1
274 356 1
651 356 1
665 356 1
62 357 1
113 357 1
239 357 1
275 357 1
652 357 1
666 357 1
63 358 1
114 358 1
240 358 1
276 358 1
653 358 1
667 358 1
64 359 1
115 359 1
241 359 1
277 359 1
654 359 1
668 359 1
65 360 1
116 360 1
242 360 1
278 360 1
655 360 1
669 360 1
66 361 1
117 361 1
243 361 1
279 361 1
656 361 1
670 361 1
67 362 1
118 362 1
244 362 1
280 362 1
657 362 1
671 362 1
60 363 1
68 363 1
245 363 1
281 363 1
658 363 1
672 363 1
61 364 1
69 364 1
246 364 1
282 364 1
659 364 1
673 364 1
62 365 1
70 365 1
247 365 1
283 365 1
660 365 1
674 365 1
63 366 1
71 366 1
248 366 1
284 366 1
661 366 1
675 366 1
64 367 1
72 367 1
249 367 1
285 367 1
662 367 1
676 367 1
65 368 1
73 368 1
250 368 1
286 368 1
663 368 1
677 368 1
66 369 1
74 369 1
251 369 1
287 369 1
664 369 1
678 369 1
67 370 1
75 370 1
252 370 1
288 370 1
665 370 1
679 370 1
68 371 1
76 371 1
253 371 1
289 371 1
666 371 1
680 371 1
69 372 1
77 372 1
254 372 1
290 372 1
667 372 1
681 372 1
70 373 1
78 373 1
255 373 1
291 373 1
668 373 1
682 373 1
71 374 1
79 374 1
256 374 1
292 374 1
669 374 1
683 374 1
72 375 1
80 375 1
257 375 1
293 375 1
670 375 1
684 375 1
73 376 1
81 376 1
258 376 1
294 376 1
671 376 1
685 376 1
74 377 1
82 377 1
259 377 1
295 377 1
672 377 1
686 377 1
75 378 1
83 378 1
237 378 1
260 378 1
673 378 1
687 378 1
76 379 1
84 379 1
238 379 1
261 379 1
674 379 1
688 379 1
77 380 1
85 380 1
239 380 1
262 380 1
675 380 1
689 380 1
78 381 1
86 381 1
240 381 1
263 381 1
676 381 1
690 381 1
79 382 1
87 382 1
241 382 1
264 382 1
677 382 1
691 382 1
80 383 1
88 383 1
242 383 1
265 383 1
678 383 1
692 383 1
81 384 1
89 384 1
243 384 1
266 384 1
679 384 1
693 384 1
82 385 1
90 385 1
244 385 1
267 385 1
680 385 1
694 385 1
83 386 1
91 386 1
245 386 1
268 386 1
681 386 1
695 386 1
84 387 1
92 387 1
246 387 1
269 387 1
682 387 1
696 387 1
85 388 1
93 388 1
247 388 1
270 388 1
683 388 1
697 388 1
86 389 1
94 389 1
248 389 1
271 389 1
684 389 1
698 389 1
87 390 1
95 390 1
249 390 1
272 390 1
685 390 1
699 390 1
88 391 1
96 391 1
250 391 1
273 391 1
686 391 1
700 391 1
89 392 1
97 392 1
251 392 1
274 392 1
687 392 1
701 392 1
90 393 1
98 393 1
252 393 1
275 393 1
688 393 1
702 393 1
91 394 1
99 394 1
253 394 1
276 394 1
689 394 1
703 394 1
92 395 1
100 395 1
254 395 1
277 395 1
690 395 1
704 395 1
93 396 1
101 396 1
255 396 1
278 396 1
691 396 1
705 396 1
94 397 1
102 397 1
256 397 1
279 397 1
692 397 1
706 397 1
95 398 1
103 398 1
257 398 1
280 398 1
693 398 1
707 398 1
96 399 1
104 399 1
258 399 1
281 399 1
694 399 1
708 399 1
97 400 1
105 400 1
259 400 1
282 400 1
650 400 1
695 400 1
98 401 1
106 401 1
260 401 1
283 401 1
651 401 1
696 401 1
99 402 1
107 402 1
261 402 1
284 402 1
652 402 1
697 402 1
100 403 1
108 403 1
262 403 1
285 403 1
653 403 1
698 403 1
101 404 1
109 404 1
263 404 1
286 404 1
654 404 1
699 404 1
102 405 1
110 405 1
264 405 1
287 405 1
655 405 1
700 405 1
103 406 1
111 406 1
265 406 1
288 406 1
656 406 1
701 406 1
104 407 1
112 407 1
266 407 1
289 407 1
657 407 1
702 407 1
105 408 1
113 408 1
267 408 1
290 408 1
658 408 1
703 408 1
106 409 1
114 409 1
268 409 1
291 409 1
659 409 1
704 409 1
107 410 1
115 410 1
269 410 1
292 410 1
660 410 1
705 410 1
108 411 1
116 411 1
270 411 1
293 411 1
661 411 1
706 411 1
109 412 1
117 412 1
271 412 1
294 412 1
662 412 1
707 412 1
110 413 1
118 413 1
272 413 1
295 413 1
663 413 1
708 413 1
119 414 1
166 414 1
178 414 1
218 414 1
709 414 1
723 414 1
120 415 1
167 415 1
179 415 1
219 415 1
710 415 1
724 415 1
121 416 1
168 416 1
180 416 1
220 416 1
711 416 1
725 416 1
122 417 1
169 417 1
181 417 1
221 417 1
712 417 1
726 417 1
123 418 1
170 418 1
182 418 1
222 418 1
713 418 1
727 418 1
124 419 1
171 419 1
183 419 1
223 419 1
714 419 1
728 419 1
125 420 1
172 420 1
184 420 1
224 420 1
715 420 1
729 420 1
126 421 1
173 421 1
185 421 1
225 421 1
716 421 1
730 421 1
127 422 1
174 422 1
186 422 1
226 422 1
717 422 1
731 422 1
128 423 1
175 423 1
187 423 1
227 423 1
718 423 1
732 423 1
129 424 1
176 424 1
188 424 1
228 424 1
719 424 1
733 424 1
130 425 1
177 425 1
189 425 1
229 425 1
720 425 1
734 425 1
119 426 1
131 426 1
190 426 1
230 426 1
721 426 1
735 426 1
120 427 1
132 427 1
191 427 1
231 427 1
722 427 1
736 427 1
121 428 1
133 428 1
192 428 1
232 428 1
723 428 1
737 428 1
122 429 1
134 429 1
193 429 1
233 429 1
724 429 1
738 429 1
123 430 1
135 430 1
194 430 1
234 430 1
725 430 1
739 430 1
124 431 1
136 431 1
195 431 1
235 431 1
726 431 1
740 431 1
125 432 1
137 432 1
196 432 1
236 432 1
727 432 1
741 432 1
126 433 1
138 433 1
178 433 1
197 433 1
728 433 1
742 433 1
127 434 1
139 434 1
179 434 1
198 434 1
729 434 1
743 434 1
128 435 1
140 435 1
180 435 1
199 435 1
730 435 1
744 435 1
129 436 1
141 436 1
181 436 1
200 436 1
731 436 1
745 436 1
130 437 1
142 437 1
182 437 1
201 437 1
732 437 1
746 437 1
131 438 1
143 438 1
183 438 1
202 438 1
733 438 1
747 438 1
132 439 1
144 439 1
184 439 1
203 439 1
734 439 1
748 439 1
133 440 1
145 440 1
185 440 1
204 440 1
735 440 1
749 440 1
134 441 1
146 441 1
186 441 1
205 441 1
736 441 1
750 441 1
135 442 1
147 442 1
187 442 1
206 442 1
737 442 1
751 442 1
136 443 1
148 443 1
188 443 1
207 443 1
738 443 1
752 443 1
137 444 1
149 444 1
189 444 1
208 444 1
739 444 1
753 444 1
138 445 1
150 445 1
190 445 1
209 445 1
740 445 1
754 445 1
139 446 1
151 446 1
191 446 1
210 446 1
741 446 1
755 446 1
140 447 1
152 447 1
192 447 1
211 447 1
742 447 1
756 447 1
141 448 1
153 448 1
193 448 1
212 448 1
743 448 1
757 448 1
142 449 1
154 449 1
194 449 1
213 449 1
744 449 1
758 449 1
143 450 1
155 450 1
195 450 1
214 450 1
745 450 1
759 450 1
144 451 1
156 451 1
196 451 1
215 451 1
746 451 1
760 451 1
145 452 1
157 452 1
197 452 1
216 452 1
747 452 1
761 452 1
146 453 1
158 453 1
198 453 1
217 453 1
748 453 1
762 453 1
147 454 1
159 454 1
199 454 1
218 454 1
749 454 1
763 454 1
148 455 1
160 455 1
200 455 1
219 455 1
750 455 1
764 455 1
149 456 1
161 456 1
201 456 1
220 456 1
751 456 1
765 456 1
150 457 1
162 457 1
202 457 1
221 457 1
752 457 1
766 457 1
151 458 1
163 458 1
203 458 1
222 458 1
753 458 1
767 458 1
152 459 1
164 459 1
204 459 1
223 459 1
709 459 1
754 459 1
153 460 1
165 460 1
205 460 1
224 460 1
710 460 1
755 460 1
154 461 1
166 461 1
206 461 1
225 461 1
711 461 1
756 461 1
155 462 1
167 462 1
207 462 1
226 462 1
712 462 1
757 462 1
156 463 1
168 463 1
208 463 1
227 463 1
713 463 1
758 463 1
157 464 1
169 464 1
209 464 1
228 464 1
714 464 1
759 464 1
158 465 1
170 465 1
210 465 1
229 465 1
715 465 1
760 465 1
159 466 1
171 466 1
211 466 1
230 466 1
716 466 1
761 466 1
160 467 1
172 467 1
212 467 1
231 467 1
717 467 1
762 467 1
161 468 1
173 468 1
213 468 1
232 468 1
718 468 1
763 468 1
162 469 1
174 469 1
214 469 1
233 469 1
719 469 1
764 469 1
163 470 1
175 470 1
215 470 1
234 470 1
720 470 1
765 470 1
164 471 1
176 471 1
216 471 1
235 471 1
721 471 1
766 471 1
165 472 1
177 472 1
217 472 1
236 472 1
722 472 1
767 472 1
119 473 1
170 473 1
237 473 1
277 473 1
768 473 1
782 473 1
120 474 1
171 474 1
238 474 1
278 474 1
769 474 1
783 474 1
121 475 1
172 475 1
239 475 1
279 475 1
770 475 1
784 475 1
122 476 1
173 476 1
240 476 1
280 476 1
771 476 1
785 476 1
123 477 1
174 477 1
241 477 1
281 477 1
772 477 1
786 477 1
124 478 1
175 478 1
242 478 1
282 478 1
773 478 1
787 478 1
125 479 1
176 479 1
243 479 1
283 479 1
774 479 1
788 479 1
126 480 1
177 480 1
244 480 1
284 480 1
775 480 1
789 480 1
119 481 1
127 481 1
245 481 1
285 481 1
776 481 1
790 481 1
120 482 1
128 482 1
246 482 1
286 482 1
777 482 1
791 482 1
121 483 1
129 483 1
247 483 1
287 483 1
778 483 1
792 483 1
122 484 1
130 484 1
248 484 1
288 484 1
779 484 1
793 484 1
123 485 1
131 485 1
249 485 1
289 485 1
780 485 1
794 485 1
124 486 1
132 486 1
250 486 1
290 486 1
781 486 1
795 486 1
125 487 1
133 487 1
251 487 1
291 487 1
782 487 1
796 487 1
126 488 1
134 488 1
252 488 1
292 488 1
783 488 1
797 488 1
127 489 1
135 489 1
253 489 1
293 489 1
784 489 1
798 489 1
128 490 1
136 490 1
254 490 1
294 490 1
785 490 1
799 490 1
129 491 1
137 491 1
255 491 1
295 491 1
786 491 1
800 491 1
130 492 1
138 492 1
237 492 1
256 492 1
787 492 1
801 492 1
131 493 1
139 493 1
238 493 1
257 493 1
788 493 1
802 493 1
132 494 1
140 494 1
239 494 1
258 494 1
789 494 1
803 494 1
133 495 1
141 495 1
240 495 1
259 495 1
790 495 1
804 495 1
134 496 1
142 496 1
241 496 1
260 496 1
791 496 1
805 496 1
135 497 1
143 497 1
242 497 1
261 497 1
792 497 1
806 497 1
136 498 1
144 498 1
243 498 1
262 498 1
793 498 1
807 498 1
137 499 1
145 499 1
244 499 1
263 499 1
794 499 1
808 499 1
138 500 1
146 500 1
245 500 1
264 500 1
795 500 1
809 500 1
139 501 1
147 501 1
246 501 1
265 501 1
796 501 1
810 501 1
140 502 1
148 502 1
247 502 1
266 502 1
797 502 1
811 502 1
141 503 1
149 503 1
248 503 1
267 503 1
798 503 1
812 503 1
142 504 1
150 504 1
249 504 1
268 504 1
799 504 1
813 504 1
143 505 1
151 505 1
250 505 1
269 505 1
800 505 1
814 505 1
144 506 1
152 506 1
251 506 1
270 506 1
801 506 1
815 506 1
145 507 1
153 507 1
252 507 1
271 507 1
802 507 1
816 507 1
146 508 1
154 508 1
253 508 1
272 508 1
803 508 1
817 508 1
147 509 1
155 509 1
254 509 1
273 509 1
804 509 1
818 509 1
148 510 1
156 510 1
255 510 1
274 510 1
805 510 1
819 510 1
149 511 1
157 511 1
256 511 1
275 511 1
806 511 1
820 511 1
150 512 1
158 512 1
257 512 1
276 512 1
807 512 1
821 512 1
151 513 1
159 513 1
258 513 1
277 513 1
808 513 1
822 513 1
152 514 1
160 514 1
259 514 1
278 514 1
809 514 1
823 514 1
153 515 1
161 515 1
260 515 1
279 515 1
810 515 1
824 515 1
154 516 1
162 516 1
261 516 1
280 516 1
811 516 1
825 516 1
155 517 1
163 517 1
262 517 1
281 517 1
812 517 1
826 517 1
156 518 1
164 518 1
263 518 1
282 518 1
768 518 1
813 518 1
157 519 1
165 519 1
264 519 1
283 519 1
769 519 1
814 519 1
158 520 1
166 520 1
265 520 1
284 520 1
770 520 1
815 520 1
159 521 1
167 521 1
266 521 1
285 521 1
771 521 1
816 521 1
160 522 1
168 522 1
267 522 1
286 522 1
772 522 1
817 522 1
161 523 1
169 523 1
268 523 1
287 523 1
773 523 1
818 523 1
162 524 1
170 524 1
269 524 1
288 524 1
774 524 1
819 524 1
163 525 1
171 525 1
270 525 1
289 525 1
775 525 1
820 525 1
164 526 1
172 526 1
271 526 1
290 526 1
776 526 1
821 526 1
165 527 1
173 527 1
272 527 1
291 527 1
777 527 1
822 527 1
166 528 1
174 528 1
273 528 1
292 528 1
778 528 1
823 528 1
167 529 1
175 529 1
274 529 1
293 529 1
779 529 1
824 529 1
168 530 1
176 530 1
275 530 1
294 530 1
780 530 1
825 530 1
169 531 1
177 531 1
276 531 1
295 531 1
781 531 1
826 531 1
178 532 1
229 532 1
237 532 1
284 532 1
827 532 1
841 532 1
179 533 1
230 533 1
238 533 1
285 533 1
828 533 1
842 533 1
180 534 1
231 534 1
239 534 1
286 534 1
829 534 1
843 534 1
181 535 1
232 535 1
240 535 1
287 535 1
830 535 1
844 535 1
182 536 1
233 536 1
241 536 1
288 536 1
831 536 1
845 536 1
183 537 1
234 537 1
242 537 1
289 537 1
832 537 1
846 537 1
184 538 1
235 538 1
243 538 1
290 538 1
833 538 1
847 538 1
185 539 1
236 539 1
244 539 1
291 539 1
834 539 1
848 539 1
178 540 1
186 540 1
245 540 1
292 540 1
835 540 1
849 540 1
179 541 1
187 541 1
246 541 1
293 541 1
836 541 1
850 541 1
180 542 1
188 542 1
247 542 1
294 542 1
837 542 1
851 542 1
181 543 1
189 543 1
248 543 1
295 543 1
838 543 1
852 543 1
182 544 1
190 544 1
237 544 1
249 544 1
839 544 1
853 544 1
183 545 1
191 545 1
238 545 1
250 545 1
840 545 1
854 545 1
184 546 1
192 546 1
239 546 1
251 546 1
841 546 1
855 546 1
185 547 1
193 547 1
240 547 1
252 547 1
842 547 1
856 547 1
186 548 1
194 548 1
241 548 1
253 548 1
843 548 1
857 548 1
187 549 1
195 549 1
242 549 1
254 549 1
844 549 1
858 549 1
188 550 1
196 550 1
243 550 1
255 550 1
845 550 1
859 550 1
189 551 1
197 551 1
244 551 1
256 551 1
846 551 1
860 551 1
190 552 1
198 552 1
245 552 1
257 552 1
847 552 1
861 552 1
191 553 1
199 553 1
246 553 1
258 553 1
848 553 1
862 553 1
192 554 1
200 554 1
247 554 1
259 554 1
849 554 1
863 554 1
193 555 1
201 555 1
248 555 1
260 555 1
850 555 1
864 555 1
194 556 1
202 556 1
249 556 1
261 556 1
851 556 1
865 556 1
195 557 1
203 557 1
250 557 1
262 557 1
852 557 1
866 557 1
196 558 1
204 558 1
251 558 1
263 558 1
853 558 1
867 558 1
197 559 1
205 559 1
252 559 1
264 559 1
854 559 1
868 559 1
198 560 1
206 560 1
253 560 1
265 560 1
855 560 1
869 560 1
199 561 1
207 561 1
254 561 1
266 561 1
856 561 1
870 561 1
200 562 1
208 562 1
255 562 1
267 562 1
857 562 1
871 562 1
201 563 1
209 563 1
256 563 1
268 563 1
858 563 1
872 563 1
202 564 1
210 564 1
257 564 1
269 564 1
859 564 1
873 564 1
203 565 1
211 565 1
258 565 1
270 565 1
860 565 1
874 565 1
204 566 1
212 566 1
259 566 1
271 566 1
861 566 1
875 566 1
205 567 1
213 567 1
260 567 1
272 567 1
862 567 1
876 567 1
206 568 1
214 568 1
261 568 1
273 568 1
863 568 1
877 568 1
207 569 1
215 569 1
262 569 1
274 569 1
864 569 1
878 569 1
208 570 1
216 570 1
263 570 1
275 570 1
865 570 1
879 570 1
209 571 1
217 571 1
264 571 1
276 571 1
866 571 1
880 571 1
210 572 1
218 572 1
265 572 1
277 572 1
867 572 1
881 572 1
211 573 1
219 573 1
266 573 1
278 573 1
868 573 1
882 573 1
212 574 1
220 574 1
267 574 1
279 574 1
869 574 1
883 574 1
213 575 1
221 575 1
268 575 1
280 575 1
870 575 1
884 575 1
214 576 1
222 576 1
269 576 1
281 576 1
871 576 1
885 576 1
215 577 1
223 577 1
270 577 1
282 577 1
827 577 1
872 577 1
216 578 1
224 578 1
271 578 1
283 578 1
828 578 1
873 578 1
217 579 1
225 579 1
272 579 1
284 579 1
829 579 1
874 579 1
218 580 1
226 580 1
273 580 1
285 580 1
830 580 1
875 580 1
219 581 1
227 581 1
274 581 1
286 581 1
831 581 1
876 581 1
220 582 1
228 582 1
275 582 1
287 582 1
832 582 1
877 582 1
221 583 1
229 583 1
276 583 1
288 583 1
833 583 1
878 583 1
222 584 1
230 584 1
277 584 1
289 584 1
834 584 1
879 584 1
223 585 1
231 585 1
278 585 1
290 585 1
835 585 1
880 585 1
224 586 1
232 586 1
279 586 1
291 586 1
836 586 1
881 586 1
225 587 1
233 587 1
280 587 1
292 587 1
837 587 1
882 587 1
226 588 1
234 588 1
281 588 1
293 588 1
838 588 1
883 588 1
227 589 1
235 589 1
282 589 1
294 589 1
839 589 1
884 589 1
228 590 1
236 590 1
283 590 1
295 590 1
840 590 1
885 590 1
296 591 1
336 591 1
355 591 1
391 591 1
532 591 1
561 591 1
297 592 1
337 592 1
356 592 1
392 592 1
533 592 1
562 592 1
298 593 1
338 593 1
357 593 1
393 593 1
534 593 1
563 593 1
299 594 1
339 594 1
358 594 1
394 594 1
535 594 1
564 594 1
300 595 1
340 595 1
359 595 1
395 595 1
536 595 1
565 595 1
301 596 1
341 596 1
360 596 1
396 596 1
537 596 1
566 596 1
302 597 1
342 597 1
361 597 1
397 597 1
538 597 1
567 597 1
303 598 1
343 598 1
362 598 1
398 598 1
539 598 1
568 598 1
304 599 1
344 599 1
363 599 1
399 599 1
540 599 1
569 599 1
305 600 1
345 600 1
364 600 1
400 600 1
541 600 1
570 600 1
306 601 1
346 601 1
365 601 1
401 601 1
542 601 1
571 601 1
307 602 1
347 602 1
366 602 1
402 602 1
543 602 1
572 602 1
308 603 1
348 603 1
367 603 1
403 603 1
544 603 1
573 603 1
309 604 1
349 604 1
368 604 1
404 604 1
545 604 1
574 604 1
310 605 1
350 605 1
369 605 1
405 605 1
546 605 1
575 605 1
311 606 1
351 606 1
370 606 1
406 606 1
547 606 1
576 606 1
312 607 1
352 607 1
371 607 1
407 607 1
548 607 1
577 607 1
313 608 1
353 608 1
372 608 1
408 608 1
549 608 1
578 608 1
314 609 1
354 609 1
373 609 1
409 609 1
550 609 1
579 609 1
296 610 1
315 610 1
374 610 1
410 610 1
551 610 1
580 610 1
297 611 1
316 611 1
375 611 1
411 611 1
552 611 1
581 611 1
298 612 1
317 612 1
376 612 1
412 612 1
553 612 1
582 612 1
299 613 1
318 613 1
377 613 1
413 613 1
554 613 1
583 613 1
300 614 1
319 614 1
355 614 1
378 614 1
555 614 1
584 614 1
301 615 1
320 615 1
356 615 1
379 615 1
556 615 1
585 615 1
302 616 1
321 616 1
357 616 1
380 616 1
557 616 1
586 616 1
303 617 1
322 617 1
358 617 1
381 617 1
558 617 1
587 617 1
304 618 1
323 618 1
359 618 1
382 618 1
559 618 1
588 618 1
305 619 1
324 619 1
360 619 1
383 619 1
560 619 1
589 619 1
306 620 1
325 620 1
361 620 1
384 620 1
561 620 1
590 620 1
307 621 1
326 621 1
362 621 1
385 621 1
532 621 1
562 621 1
308 622 1
327 622 1
363 622 1
386 622 1
533 622 1
563 622 1
309 623 1
328 623 1
364 623 1
387 623 1
534 623 1
564 623 1
310 624 1
329 624 1
365 624 1
388 624 1
535 624 1
565 624 1
311 625 1
330 625 1
366 625 1
389 625 1
536 625 1
566 625 1
312 626 1
331 626 1
367 626 1
390 626 1
537 626 1
567 626 1
313 627 1
332 627 1
368 627 1
391 627 1
538 627 1
568 627 1
314 628 1
333 628 1
369 628 1
392 628 1
539 628 1
569 628 1
315 629 1
334 629 1
370 629 1
393 629 1
540 629 1
570 629 1
316 630 1
335 630 1
371 630 1
394 630 1
541 630 1
571 630 1
317 631 1
336 631 1
372 631 1
395 631 1
542 631 1
572 631 1
318 632 1
337 632 1
373 632 1
396 632 1
543 632 1
573 632 1
319 633 1
338 633 1
374 633 1
397 633 1
544 633 1
574 633 1
320 634 1
339 634 1
375 634 1
398 634 1
545 634 1
575 634 1
321 635 1
340 635 1
376 635 1
399 635 1
546 635 1
576 635 1
322 636 1
341 636 1
377 636 1
400 636 1
547 636 1
577 636 1
323 637 1
342 637 1
378 637 1
401 637 1
548 637 1
578 637 1
324 638 1
343 638 1
379 638 1
402 638 1
549 638 1
579 638 1
325 639 1
344 639 1
380 639 1
403 639 1
550 639 1
580 639 1
326 640 1
345 640 1
381 640 1
404 640 1
551 640 1
581 640 1
327 641 1
346 641 1
382 641 1
405 641 1
552 641 1
582 641 1
328 642 1
347 642 1
383 642 1
406 642 1
553 642 1
583 642 1
329 643 1
348 643 1
384 643 1
407 643 1
554 643 1
584 643 1
330 644 1
349 644 1
385 644 1
408 644 1
555 644 1
585 644 1
331 645 1
350 645 1
386 645 1
409 645 1
556 645 1
586 645 1
332 646 1
351 646 1
387 646 1
410 646 1
557 646 1
587 646 1
333 647 1
352 647 1
388 647 1
411 647 1
558 647 1
588 647 1
334 648 1
353 648 1
389 648 1
412 648 1
559 648 1
589 648 1
335 649 1
354 649 1
390 649 1
413 649 1
560 649 1
590 649 1
296 650 1
343 650 1
414 650 1
450 650 1
591 650 1
620 650 1
297 651 1
344 651 1
415 651 1
451 651 1
592 651 1
621 651 1
298 652 1
345 652 1
416 652 1
452 652 1
593 652 1
622 652 1
299 653 1
346 653 1
417 653 1
453 653 1
594 653 1
623 653 1
300 654 1
347 654 1
418 654 1
454 654 1
595 654 1
624 654 1
301 655 1
348 655 1
419 655 1
455 655 1
596 655 1
625 655 1
302 656 1
349 656 1
420 656 1
456 656 1
597 656 1
626 656 1
303 657 1
350 657 1
421 657 1
457 657 1
598 657 1
627 657 1
304 658 1
351 658 1
422 658 1
458 658 1
599 658 1
628 658 1
305 659 1
352 659 1
423 659 1
459 659 1
600 659 1
629 659 1
306 660 1
353 660 1
424 660 1
460 660 1
601 660 1
630 660 1
307 661 1
354 661 1
425 661 1
461 661 1
602 661 1
631 661 1
296 662 1
308 662 1
426 662 1
462 662 1
603 662 1
632 662 1
297 663 1
309 663 1
427 663 1
463 663 1
604 663 1
633 663 1
298 664 1
310 664 1
428 664 1
464 664 1
605 664 1
634 664 1
299 665 1
311 665 1
429 665 1
465 665 1
606 665 1
635 665 1
300 666 1
312 666 1
430 666 1
466 666 1
607 666 1
636 666 1
301 667 1
313 667 1
431 667 1
467 667 1
608 667 1
637 667 1
302 668 1
314 668 1
432 668 1
468 668 1
609 668 1
638 668 1
303 669 1
315 669 1
433 669 1
469 669 1
610 669 1
639 669 1
304 670 1
316 670 1
434 670 1
470 670 1
611 670 1
640 670 1
305 671 1
317 671 1
435 671 1
471 671 1
612 671 1
641 671 1
306 672 1
318 672 1
436 672 1
472 672 1
613 672 1
642 672 1
307 673 1
319 673 1
414 673 1
437 673 1
614 673 1
643 673 1
308 674 1
320 674 1
415 674 1
438 674 1
615 674 1
644 674 1
309 675 1
321 675 1
416 675 1
439 675 1
616 675 1
645 675 1
310 676 1
322 676 1
417 676 1
440 676 1
617 676 1
646 676 1
311 677 1
323 677 1
418 677 1
441 677 1
618 677 1
647 677 1
312 678 1
324 678 1
419 678 1
442 678 1
619 678 1
648 678 1
313 679 1
325 679 1
420 679 1
443 679 1
620 679 1
649 679 1
314 680 1
326 680 1
421 680 1
444 680 1
591 680 1
621 680 1
315 681 1
327 681 1
422 681 1
445 681 1
592 681 1
622 681 1
316 682 1
328 682 1
423 682 1
446 682 1
593 682 1
623 682 1
317 683 1
329 683 1
424 683 1
447 683 1
594 683 1
624 683 1
318 684 1
330 684 1
425 684 1
448 684 1
595 684 1
625 684 1
319 685 1
331 685 1
426 685 1
449 685 1
596 685 1
626 685 1
320 686 1
332 686 1
427 686 1
450 686 1
597 686 1
627 686 1
321 687 1
333 687 1
428 687 1
451 687 1
598 687 1
628 687 1
322 688 1
334 688 1
429 688 1
452 688 1
599 688 1
629 688 1
323 689 1
335 689 1
430 689 1
453 689 1
600 689 1
630 689 1
324 690 1
336 690 1
431 690 1
454 690 1
601 690 1
631 690 1
325 691 1
337 691 1
432 691 1
455 691 1
602 691 1
632 691 1
326 692 1
338 692 1
433 692 1
456 692 1
603 692 1
633 692 1
327 693 1
339 693 1
434 693 1
457 693 1
604 693 1
634 693 1
328 694 1
340 694 1
435 694 1
458 694 1
605 694 1
635 694 1
329 695 1
341 695 1
436 695 1
459 695 1
606 695 1
636 695 1
330 696 1
342 696 1
437 696 1
460 696 1
607 696 1
637 696 1
331 697 1
343 697 1
438 697 1
461 697 1
608 697 1
638 697 1
332 698 1
344 698 1
439 698 1
462 698 1
609 698 1
639 698 1
333 699 1
345 699 1
440 699 1
463 699 1
610 699 1
640 699 1
334 700 1
346 700 1
441 700 1
464 700 1
611 700 1
641 700 1
335 701 1
347 701 1
442 701 1
465 701 1
612 701 1
642 701 1
336 702 1
348 702 1
443 702 1
466 702 1
613 702 1
643 702 1
337 703 1
349 703 1
444 703 1
467 703 1
614 703 1
644 703 1
338 704 1
350 704 1
445 704 1
468 704 1
615 704 1
645 704 1
339 705 1
351 705 1
446 705 1
469 705 1
616 705 1
646 705 1
340 706 1
352 706 1
447 706 1
470 706 1
617 706 1
647 706 1
341 707 1
353 707 1
448 707 1
471 707 1
618 707 1
648 707 1
342 708 1
354 708 1
449 708 1
472 708 1
619 708 1
649 708 1
296 709 1
347 709 1
473 709 1
509 709 1
650 709 1
679 709 1
297 710 1
348 710 1
474 710 1
510 710 1
651 710 1
680 710 1
298 711 1
349 711 1
475 711 1
511 711 1
652 711 1
681 711 1
299 712 1
350 712 1
476 712 1
512 712 1
653 712 1
682 712 1
300 713 1
351 713 1
477 713 1
513 713 1
654 713 1
683 713 1
301 714 1
352 714 1
478 714 1
514 714 1
655 714 1
684 714 1
302 715 1
353 715 1
479 715 1
515 715 1
656 715 1
685 715 1
303 716 1
354 716 1
480 716 1
516 716 1
657 716 1
686 716 1
296 717 1
304 717 1
481 717 1
517 717 1
658 717 1
687 717 1
297 718 1
305 718 1
482 718 1
518 718 1
659 718 1
688 718 1
298 719 1
306 719 1
483 719 1
519 719 1
660 719 1
689 719 1
299 720 1
307 720 1
484 720 1
520 720 1
661 720 1
690 720 1
300 721 1
308 721 1
485 721 1
521 721 1
662 721 1
691 721 1
301 722 1
309 722 1
486 722 1
522 722 1
663 722 1
692 722 1
302 723 1
310 723 1
487 723 1
523 723 1
664 723 1
693 723 1
303 724 1
311 724 1
488 724 1
524 724 1
665 724 1
694 724 1
304 725 1
312 725 1
489 725 1
525 725 1
666 725 1
695 725 1
305 726 1
313 726 1
490 726 1
526 726 1
667 726 1
696 726 1
306 727 1
314 727 1
491 727 1
527 727 1
668 727 1
697 727 1
307 728 1
315 728 1
492 728 1
528 728 1
669 728 1
698 728 1
308 729 1
316 729 1
493 729 1
529 729 1
670 729 1
699 729 1
309 730 1
317 730 1
494 730 1
530 730 1
671 730 1
700 730 1
310 731 1
318 731 1
495 731 1
531 731 1
672 731 1
701 731 1
311 732 1
319 732 1
473 732 1
496 732 1
673 732 1
702 732 1
312 733 1
320 733 1
474 733 1
497 733 1
674 733 1
703 733 1
313 734 1
321 734 1
475 734 1
498 734 1
675 734 1
704 734 1
314 735 1
322 735 1
476 735 1
499 735 1
676 735 1
705 735 1
315 736 1
323 736 1
477 736 1
500 736 1
677 736 1
706 736 1
316 737 1
324 737 1
478 737 1
501 737 1
678 737 1
707 737 1
317 738 1
325 738 1
479 738 1
502 738 1
679 738 1
708 738 1
318 739 1
326 739 1
480 739 1
503 739 1
650 739 1
680 739 1
319 740 1
327 740 1
481 740 1
504 740 1
651 740 1
681 740 1
320 741 1
328 741 1
482 741 1
505 741 1
652 741 1
682 741 1
321 742 1
329 742 1
483 742 1
506 742 1
653 742 1
683 742 1
322 743 1
330 743 1
484 743 1
507 743 1
654 743 1
684 743 1
323 744 1
331 744 1
485 744 1
508 744 1
655 744 1
685 744 1
324 745 1
332 745 1
486 745 1
509 745 1
656 745 1
686 745 1
325 746 1
333 746 1
487 746 1
510 746 1
657 746 1
687 746 1
326 747 1
334 747 1
488 747 1
511 747 1
658 747 1
688 747 1
327 748 1
335 748 1
489 748 1
512 748 1
659 748 1
689 748 1
328 749 1
336 749 1
490 749 1
513 749 1
660 749 1
690 749 1
329 750 1
337 750 1
491 750 1
514 750 1
661 750 1
691 750 1
330 751 1
338 751 1
492 751 1
515 751 1
662 751 1
692 751 1
331 752 1
339 752 1
493 752 1
516 752 1
663 752 1
693 752 1
332 753 1
340 753 1
494 753 1
517 753 1
664 753 1
694 753 1
333 754 1
341 754 1
495 754 1
518 754 1
665 754 1
695 754 1
334 755 1
342 755 1
496 755 1
519 755 1
666 755 1
696 755 1
335 756 1
343 756 1
497 756 1
520 756 1
667 756 1
697 756 1
336 757 1
344 757 1
498 757 1
521 757 1
668 757 1
698 757 1
337 758 1
345 758 1
499 758 1
522 758 1
669 758 1
699 758 1
338 759 1
346 759 1
500 759 1
523 759 1
670 759 1
700 759 1
339 760 1
347 760 1
501 760 1
524 760 1
671 760 1
701 760 1
340 761 1
348 761 1
502 761 1
525 761 1
672 761 1
702 761 1
341 762 1
349 762 1
503 762 1
526 762 1
673 762 1
703 762 1
342 763 1
350 763 1
504 763 1
527 763 1
674 763 1
704 763 1
343 764 1
351 764 1
505 764 1
528 764 1
675 764 1
705 764 1
344 765 1
352 765 1
506 765 1
529 765 1
676 765 1
706 765 1
345 766 1
353 766 1
507 766 1
530 766 1
677 766 1
707 766 1
346 767 1
354 767 1
508 767 1
531 767 1
678 767 1
708 767 1
355 768 1
402 768 1
414 768 1
454 768 1
709 768 1
738 768 1
356 769 1
403 769 1
415 769 1
455 769 1
710 769 1
739 769 1
357 770 1
404 770 1
416 770 1
456 770 1
711 770 1
740 770 1
358 771 1
405 771 1
417 771 1
457 771 1
712 771 1
741 771 1
359 772 1
406 772 1
418 772 1
458 772 1
713 772 1
742 772 1
360 773 1
407 773 1
419 773 1
459 773 1
714 773 1
743 773 1
361 774 1
408 774 1
420 774 1
460 774 1
715 774 1
744 774 1
362 775 1
409 775 1
421 775 1
461 775 1
716 775 1
745 775 1
363 776 1
410 776 1
422 776 1
462 776 1
717 776 1
746 776 1
364 777 1
411 777 1
423 777 1
463 777 1
718 777 1
747 777 1
365 778 1
412 778 1
424 778 1
464 778 1
719 778 1
748 778 1
366 779 1
413 779 1
425 779 1
465 779 1
720 779 1
749 779 1
355 780 1
367 780 1
426 780 1
466 780 1
721 780 1
750 780 1
356 781 1
368 781 1
427 781 1
467 781 1
722 781 1
751 781 1
357 782 1
369 782 1
428 782 1
468 782 1
723 782 1
752 782 1
358 783 1
370 783 1
429 783 1
469 783 1
724 783 1
753 783 1
359 784 1
371 784 1
430 784 1
470 784 1
725 784 1
754 784 1
360 785 1
372 785 1
431 785 1
471 785 1
726 785 1
755 785 1
361 786 1
373 786 1
432 786 1
472 786 1
727 786 1
756 786 1
362 787 1
374 787 1
414 787 1
433 787 1
728 787 1
757 787 1
363 788 1
375 788 1
415 788 1
434 788 1
729 788 1
758 788 1
364 789 1
376 789 1
416 789 1
435 789 1
730 789 1
759 789 1
365 790 1
377 790 1
417 790 1
436 790 1
731 790 1
760 790 1
366 791 1
378 791 1
418 791 1
437 791 1
732 791 1
761 791 1
367 792 1
379 792 1
419 792 1
438 792 1
733 792 1
762 792 1
368 793 1
380 793 1
420 793 1
439 793 1
734 793 1
763 793 1
369 794 1
381 794 1
421 794 1
440 794 1
735 794 1
764 794 1
370 795 1
382 795 1
422 795 1
441 795 1
736 795 1
765 795 1
371 796 1
383 796 1
423 796 1
442 796 1
737 796 1
766 796 1
372 797 1
384 797 1
424 797 1
443 797 1
738 797 1
767 797 1
373 798 1
385 798 1
425 798 1
444 798 1
709 798 1
739 798 1
374 799 1
386 799 1
426 799 1
445 799 1
710 799 1
740 799 1
375 800 1
387 800 1
427 800 1
446 800 1
711 800 1
741 800 1
376 801 1
388 801 1
428 801 1
447 801 1
712 801 1
742 801 1
377 802 1
389 802 1
429 802 1
448 802 1
713 802 1
743 802 1
378 803 1
390 803 1
430 803 1
449 803 1
714 803 1
744 803 1
379 804 1
391 804 1
431 804 1
450 804 1
715 804 1
745 804 1
380 805 1
392 805 1
432 805 1
451 805 1
716 805 1
746 805 1
381 806 1
393 806 1
433 806 1
452 806 1
717 806 1
747 806 1
382 807 1
394 807 1
434 807 1
453 807 1
718 807 1
748 807 1
383 808 1
395 808 1
435 808 1
454 808 1
719 808 1
749 808 1
384 809 1
396 809 1
436 809 1
455 809 1
720 809 1
750 809 1
385 810 1
397 810 1
437 810 1
456 810 1
721 810 1
751 810 1
386 811 1
398 811 1
438 811 1
457 811 1
722 811 1
752 811 1
387 812 1
399 812 1
439 812 1
458 812 1
723 812 1
753 812 1
388 813 1
400 813 1
440 813 1
459 813 1
724 813 1
754 813 1
389 814 1
401 814 1
441 814 1
460 814 1
725 814 1
755 814 1
390 815 1
402 815 1
442 815 1
461 815 1
726 815 1
756 815 1
391 816 1
403 816 1
443 816 1
462 816 1
727 816 1
757 816 1
392 817 1
404 817 1
444 817 1
463 817 1
728 817 1
758 817 1
393 818 1
405 818 1
445 818 1
464 818 1
729 818 1
759 818 1
394 819 1
406 819 1
446 819 1
465 819 1
730 819 1
760 819 1
395 820 1
407 820 1
447 820 1
466 820 1
731 820 1
761 820 1
396 821 1
408 821 1
448 821 1
467 821 1
732 821 1
762 821 1
397 822 1
409 822 1
449 822 1
468 822 1
733 822 1
763 822 1
398 823 1
410 823 1
450 823 1
469 823 1
734 823 1
764 823 1
399 824 1
411 824 1
451 824 1
470 824 1
735 824 1
765 824 1
400 825 1
412 825 1
452 825 1
471 825 1
736 825 1
766 825 1
401 826 1
413 826 1
453 826 1
472 826 1
737 826 1
767 826 1
355 827 1
406 827 1
473 827 1
513 827 1
768 827 1
797 827 1
356 828 1
407 828 1
474 828 1
514 828 1
769 828 1
798 828 1
357 829 1
408 829 1
475 829 1
515 829 1
770 829 1
799 829 1
358 830 1
409 830 1
476 830 1
516 830 1
771 830 1
800 830 1
359 831 1
410 831 1
477 831 1
517 831 1
772 831 1
801 831 1
360 832 1
411 832 1
478 832 1
518 832 1
773 832 1
802 832 1
361 833 1
412 833 1
479 833 1
519 833 1
774 833 1
803 833 1
362 834 1
413 834 1
480 834 1
520 834 1
775 834 1
804 834 1
355 835 1
363 835 1
481 835 1
521 835 1
776 835 1
805 835 1
356 836 1
364 836 1
482 836 1
522 836 1
777 836 1
806 836 1
357 837 1
365 837 1
483 837 1
523 837 1
778 837 1
807 837 1
358 838 1
366 838 1
484 838 1
524 838 1
779 838 1
808 838 1
359 839 1
367 839 1
485 839 1
525 839 1
780 839 1
809 839 1
360 840 1
368 840 1
486 840 1
526 840 1
781 840 1
810 840 1
361 841 1
369 841 1
487 841 1
527 841 1
782 841 1
811 841 1
362 842 1
370 842 1
488 842 1
528 842 1
783 842 1
812 842 1
363 843 1
371 843 1
489 843 1
529 843 1
784 843 1
813 843 1
364 844 1
372 844 1
490 844 1
530 844 1
785 844 1
814 844 1
365 845 1
373 845 1
491 845 1
531 845 1
786 845 1
815 845 1
366 846 1
374 846 1
473 846 1
492 846 1
787 846 1
816 846 1
367 847 1
375 847 1
474 847 1
493 847 1
788 847 1
817 847 1
368 848 1
376 848 1
475 848 1
494 848 1
789 848 1
818 848 1
369 849 1
377 849 1
476 849 1
495 849 1
790 849 1
819 849 1
370 850 1
378 850 1
477 850 1
496 850 1
791 850 1
820 850 1
371 851 1
379 851 1
478 851 1
497 851 1
792 851 1
821 851 1
372 852 1
380 852 1
479 852 1
498 852 1
793 852 1
822 852 1
373 853 1
381 853 1
480 853 1
499 853 1
794 853 1
823 853 1
374 854 1
382 854 1
481 854 1
500 854 1
795 854 1
824 854 1
375 855 1
383 855 1
482 855 1
501 855 1
796 855 1
825 855 1
376 856 1
384 856 1
483 856 1
502 856 1
797 856 1
826 856 1
377 857 1
385 857 1
484 857 1
503 857 1
768 857 1
798 857 1
378 858 1
386 858 1
485 858 1
504 858 1
769 858 1
799 858 1
379 859 1
387 859 1
486 859 1
505 859 1
770 859 1
800 859 1
380 860 1
388 860 1
487 860 1
506 860 1
771 860 1
801 860 1
381 861 1
389 861 1
488 861 1
507 861 1
772 861 1
802 861 1
382 862 1
390 862 1
489 862 1
508 862 1
773 862 1
803 862 1
383 863 1
391 863 1
490 863 1
509 863 1
774 863 1
804 863 1
384 864 1
392 864 1
491 864 1
510 864 1
775 864 1
805 864 1
385 865 1
393 865 1
492 865 1
511 865 1
776 865 1
806 865 1
386 866 1
394 866 1
493 866 1
512 866 1
777 866 1
807 866 1
387 867 1
395 867 1
494 867 1
513 867 1
778 867 1
808 867 1
388 868 1
396 868 1
495 868 1
514 868 1
779 868 1
809 868 1
389 869 1
397 869 1
496 869 1
515 869 1
780 869 1
810 869 1
390 870 1
398 870 1
497 870 1
516 870 1
781 870 1
811 870 1
391 871 1
399 871 1
498 871 1
517 871 1
782 871 1
812 871 1
392 872 1
400 872 1
499 872 1
518 872 1
783 872 1
813 872 1
393 873 1
401 873 1
500 873 1
519 873 1
784 873 1
814 873 1
394 874 1
402 874 1
501 874 1
520 874 1
785 874 1
815 874 1
395 875 1
403 875 1
502 875 1
521 875 1
786 875 1
816 875 1
396 876 1
404 876 1
503 876 1
522 876 1
787 876 1
817 876 1
397 877 1
405 877 1
504 877 1
523 877 1
788 877 1
818 877 1
398 878 1
406 878 1
505 878 1
524 878 1
789 878 1
819 878 1
399 879 1
407 879 1
506 879 1
525 879 1
790 879 1
820 879 1
400 880 1
408 880 1
507 880 1
526 880 1
791 880 1
821 880 1
401 881 1
409 881 1
508 881 1
527 881 1
792 881 1
822 881 1
402 882 1
410 882 1
509 882 1
528 882 1
793 882 1
823 882 1
403 883 1
411 883 1
510 883 1
529 883 1
794 883 1
824 883 1
404 884 1
412 884 1
511 884 1
530 884 1
795 884 1
825 884 1
405 885 1
413 885 1
512 885 1
531 885 1
796 885 1
826 885 1
414 886 1
465 886 1
473 886 1
520 886 1
827 886 1
856 886 1
415 887 1
466 887 1
474 887 1
521 887 1
828 887 1
857 887 1
416 888 1
467 888 1
475 888 1
522 888 1
829 888 1
858 888 1
417 889 1
468 889 1
476 889 1
523 889 1
830 889 1
859 889 1
418 890 1
469 890 1
477 890 1
524 890 1
831 890 1
860 890 1
419 891 1
470 891 1
478 891 1
525 891 1
832 891 1
861 891 1
420 892 1
471 892 1
479 892 1
526 892 1
833 892 1
862 892 1
421 893 1
472 893 1
480 893 1
527 893 1
834 893 1
863 893 1
414 894 1
422 894 1
481 894 1
528 894 1
835 894 1
864 894 1
415 895 1
423 895 1
482 895 1
529 895 1
836 895 1
865 895 1
416 896 1
424 896 1
483 896 1
530 896 1
837 896 1
866 896 1
417 897 1
425 897 1
484 897 1
531 897 1
838 897 1
867 897 1
418 898 1
426 898 1
473 898 1
485 898 1
839 898 1
868 898 1
419 899 1
427 899 1
474 899 1
486 899 1
840 899 1
869 899 1
420 900 1
428 900 1
475 900 1
487 900 1
841 900 1
870 900 1
421 901 1
429 901 1
476 901 1
488 901 1
842 901 1
871 901 1
422 902 1
430 902 1
477 902 1
489 902 1
843 902 1
872 902 1
423 903 1
431 903 1
478 903 1
490 903 1
844 903 1
873 903 1
424 904 1
432 904 1
479 904 1
491 904 1
845 904 1
874 904 1
425 905 1
433 905 1
480 905 1
492 905 1
846 905 1
875 905 1
426 906 1
434 906 1
481 906 1
493 906 1
847 906 1
876 906 1
427 907 1
435 907 1
482 907 1
494 907 1
848 907 1
877 907 1
428 908 1
436 908 1
483 908 1
495 908 1
849 908 1
878 908 1
429 909 1
437 909 1
484 909 1
496 909 1
850 909 1
879 909 1
430 910 1
438 910 1
485 910 1
497 910 1
851 910 1
880 910 1
431 911 1
439 911 1
486 911 1
498 911 1
852 911 1
881 911 1
432 912 1
440 912 1
487 912 1
499 912 1
853 912 1
882 912 1
433 913 1
441 913 1
488 913 1
500 913 1
854 913 1
883 913 1
434 914 1
442 914 1
489 914 1
501 914 1
855 914 1
884 914 1
435 915 1
443 915 1
490 915 1
502 915 1
856 915 1
885 915 1
436 916 1
444 916 1
491 916 1
503 916 1
827 916 1
857 916 1
437 917 1
445 917 1
492 917 1
504 917 1
828 917 1
858 917 1
438 918 1
446 918 1
493 918 1
505 918 1
829 918 1
859 918 1
439 919 1
447 919 1
494 919 1
506 919 1
830 919 1
860 919 1
440 920 1
448 920 1
495 920 1
507 920 1
831 920 1
861 920 1
441 921 1
449 921 1
496 921 1
508 921 1
832 921 1
862 921 1
442 922 1
450 922 1
497 922 1
509 922 1
833 922 1
863 922 1
443 923 1
451 923 1
498 923 1
510 923 1
834 923 1
864 923 1
444 924 1
452 924 1
499 924 1
511 924 1
835 924 1
865 924 1
445 925 1
453 925 1
500 925 1
512 925 1
836 925 1
866 925 1
446 926 1
454 926 1
501 926 1
513 926 1
837 926 1
867 926 1
447 927 1
455 927 1
502 927 1
514 927 1
838 927 1
868 927 1
448 928 1
456 928 1
503 928 1
515 928 1
839 928 1
869 928 1
449 929 1
457 929 1
504 929 1
516 929 1
840 929 1
870 929 1
450 930 1
458 930 1
505 930 1
517 930 1
841 930 1
871 930 1
451 931 1
459 931 1
506 931 1
518 931 1
842 931 1
872 931 1
452 932 1
460 932 1
507 932 1
519 932 1
843 932 1
873 932 1
453 933 1
461 933 1
508 933 1
520 933 1
844 933 1
874 933 1
454 934 1
462 934 1
509 934 1
521 934 1
845 934 1
875 934 1
455 935 1
463 935 1
510 935 1
522 935 1
846 935 1
876 935 1
456 936 1
464 936 1
511 936 1
523 936 1
847 936 1
877 936 1
457 937 1
465 937 1
512 937 1
524 937 1
848 937 1
878 937 1
458 938 1
466 938 1
513 938 1
525 938 1
849 938 1
879 938 1
459 939 1
467 939 1
514 939 1
526 939 1
850 939 1
880 939 1
460 940 1
468 940 1
515 940 1
527 940 1
851 940 1
881 940 1
461 941 1
469 941 1
516 941 1
528 941 1
852 941 1
882 941 1
462 942 1
470 942 1
517 942 1
529 942 1
853 942 1
883 942 1
463 943 1
471 943 1
518 943 1
530 943 1
854 943 1
884 943 1
464 944 1
472 944 1
519 944 1
531 944 1
855 944 1
885 944 1
532 945 1
579 945 1
591 945 1
631 945 1
709 945 1
745 945 1
533 946 1
580 946 1
592 946 1
632 946 1
710 946 1
746 946 1
534 947 1
581 947 1
593 947 1
633 947 1
711 947 1
747 947 1
535 948 1
582 948 1
594 948 1
634 948 1
712 948 1
748 948 1
536 949 1
583 949 1
595 949 1
635 949 1
713 949 1
749 949 1
537 950 1
584 950 1
596 950 1
636 950 1
714 950 1
750 950 1
538 951 1
585 951 1
597 951 1
637 951 1
715 951 1
751 951 1
539 952 1
586 952 1
598 952 1
638 952 1
716 952 1
752 952 1
540 953 1
587 953 1
599 953 1
639 953 1
717 953 1
753 953 1
541 954 1
588 954 1
600 954 1
640 954 1
718 954 1
754 954 1
542 955 1
589 955 1
601 955 1
641 955 1
719 955 1
755 955 1
543 956 1
590 956 1
602 956 1
642 956 1
720 956 1
756 956 1
532 957 1
544 957 1
603 957 1
643 957 1
721 957 1
757 957 1
533 958 1
545 958 1
604 958 1
644 958 1
722 958 1
758 958 1
534 959 1
546 959 1
605 959 1
645 959 1
723 959 1
759 959 1
535 960 1
547 960 1
606 960 1
646 960 1
724 960 1
760 960 1
536 961 1
548 961 1
607 961 1
647 961 1
725 961 1
761 961 1
537 962 1
549 962 1
608 962 1
648 962 1
726 962 1
762 962 1
538 963 1
550 963 1
609 963 1
649 963 1
727 963 1
763 963 1
539 964 1
551 964 1
591 964 1
610 964 1
728 964 1
764 964 1
540 965 1
552 965 1
592 965 1
611 965 1
729 965 1
765 965 1
541 966 1
553 966 1
593 966 1
612 966 1
730 966 1
766 966 1
542 967 1
554 967 1
594 967 1
613 967 1
731 967 1
767 967 1
543 968 1
555 968 1
595 968 1
614 968 1
709 968 1
732 968 1
544 969 1
556 969 1
596 969 1
615 969 1
710 969 1
733 969 1
545 970 1
557 970 1
597 970 1
616 970 1
711 970 1
734 970 1
546 971 1
558 971 1
598 971 1
617 971 1
712 971 1
735 971 1
547 972 1
559 972 1
599 972 1
618 972 1
713 972 1
736 972 1
548 973 1
560 973 1
600 973 1
619 973 1
714 973 1
737 973 1
549 974 1
561 974 1
601 974 1
620 974 1
715 974 1
738 974 1
550 975 1
562 975 1
602 975 1
621 975 1
716 975 1
739 975 1
551 976 1
563 976 1
603 976 1
622 976 1
717 976 1
740 976 1
552 977 1
564 977 1
604 977 1
623 977 1
718 977 1
741 977 1
553 978 1
565 978 1
605 978 1
624 978 1
719 978 1
742 978 1
554 979 1
566 979 1
606 979 1
625 979 1
720 979 1
743 979 1
555 980 1
567 980 1
607 980 1
626 980 1
721 980 1
744 980 1
556 981 1
568 981 1
608 981 1
627 981 1
722 981 1
745 981 1
557 982 1
569 982 1
609 982 1
628 982 1
723 982 1
746 982 1
558 983 1
570 983 1
610 983 1
629 983 1
724 983 1
747 983 1
559 984 1
571 984 1
611 984 1
630 984 1
725 984 1
748 984 1
560 985 1
572 985 1
612 985 1
631 985 1
726 985 1
749 985 1
561 986 1
573 986 1
613 986 1
632 986 1
727 986 1
750 986 1
562 987 1
574 987 1
614 987 1
633 987 1
728 987 1
751 987 1
563 988 1
575 988 1
615 988 1
634 988 1
729 988 1
752 988 1
564 989 1
576 989 1
616 989 1
635 989 1
730 989 1
753 989 1
565 990 1
577 990 1
617 990 1
636 990 1
731 990 1
754 990 1
566 991 1
578 991 1
618 991 1
637 991 1
732 991 1
755 991 1
567 992 1
579 992 1
619 992 1
638 992 1
733 992 1
756 992 1
568 993 1
580 993 1
620 993 1
639 993 1
734 993 1
757 993 1
569 994 1
581 994 1
621 994 1
640 994 1
735 994 1
758 994 1
570 995 1
582 995 1
622 995 1
641 995 1
736 995 1
759 995 1
571 996 1
583 996 1
623 996 1
642 996 1
737 996 1
760 996 1
572 997 1
584 997 1
624 997 1
643 997 1
738 997 1
761 997 1
573 998 1
585 998 1
625 998 1
644 998 1
739 998 1
762 998 1
574 999 1
586 999 1
626 999 1
645 999 1
740 999 1
763 999 1
575 1000 1
587 1000 1
627 1000 1
646 1000 1
741 1000 1
764 1000 1
576 1001 1
588 1001 1
628 1001 1
647 1001 1
742 1001 1
765 1001 1
577 1002 1
589 1002 1
629 1002 1
648 1002 1
743 1002 1
766 1002 1
578 1003 1
590 1003 1
630 1003 1
649 1003 1
744 1003 1
767 1003 1
532 1004 1
583 1004 1
650 1004 1
690 1004 1
768 1004 1
804 1004 1
533 1005 1
584 1005 1
651 1005 1
691 1005 1
769 1005 1
805 1005 1
534 1006 1
585 1006 1
652 1006 1
692 1006 1
770 1006 1
806 1006 1
535 1007 1
586 1007 1
653 1007 1
693 1007 1
771 1007 1
807 1007 1
536 1008 1
587 1008 1
654 1008 1
694 1008 1
772 1008 1
808 1008 1
537 1009 1
588 1009 1
655 1009 1
695 1009 1
773 1009 1
809 1009 1
538 1010 1
589 1010 1
656 1010 1
696 1010 1
774 1010 1
810 1010 1
539 1011 1
590 1011 1
657 1011 1
697 1011 1
775 1011 1
811 1011 1
532 1012 1
540 1012 1
658 1012 1
698 1012 1
776 1012 1
812 1012 1
533 1013 1
541 1013 1
659 1013 1
699 1013 1
777 1013 1
813 1013 1
534 1014 1
542 1014 1
660 1014 1
700 1014 1
778 1014 1
814 1014 1
535 1015 1
543 1015 1
661 1015 1
701 1015 1
779 1015 1
815 1015 1
536 1016 1
544 1016 1
662 1016 1
702 1016 1
780 1016 1
816 1016 1
537 1017 1
545 1017 1
663 1017 1
703 1017 1
781 1017 1
817 1017 1
538 1018 1
546 1018 1
664 1018 1
704 1018 1
782 1018 1
818 1018 1
539 1019 1
547 1019 1
665 1019 1
705 1019 1
783 1019 1
819 1019 1
540 1020 1
548 1020 1
666 1020 1
706 1020 1
784 1020 1
820 1020 1
541 1021 1
549 1021 1
667 1021 1
707 1021 1
785 1021 1
821 1021 1
542 1022 1
550 1022 1
668 1022 1
708 1022 1
786 1022 1
822 1022 1
543 1023 1
551 1023 1
650 1023 1
669 1023 1
787 1023 1
823 1023 1
544 1024 1
552 1024 1
651 1024 1
670 1024 1
788 1024 1
824 1024 1
545 1025 1
553 1025 1
652 1025 1
671 1025 1
789 1025 1
825 1025 1
546 1026 1
554 1026 1
653 1026 1
672 1026 1
790 1026 1
826 1026 1
547 1027 1
555 1027 1
654 1027 1
673 1027 1
768 1027 1
791 1027 1
548 1028 1
556 1028 1
655 1028 1
674 1028 1
769 1028 1
792 1028 1
549 1029 1
557 1029 1
656 1029 1
675 1029 1
770 1029 1
793 1029 1
550 1030 1
558 1030 1
657 1030 1
676 1030 1
771 1030 1
794 1030 1
551 1031 1
559 1031 1
658 1031 1
677 1031 1
772 1031 1
795 1031 1
552 1032 1
560 1032 1
659 1032 1
678 1032 1
773 1032 1
796 1032 1
553 1033 1
561 1033 1
660 1033 1
679 1033 1
774 1033 1
797 1033 1
554 1034 1
562 1034 1
661 1034 1
680 1034 1
775 1034 1
798 1034 1
555 1035 1
563 1035 1
662 1035 1
681 1035 1
776 1035 1
799 1035 1
556 1036 1
564 1036 1
663 1036 1
682 1036 1
777 1036 1
800 1036 1
557 1037 1
565 1037 1
664 1037 1
683 1037 1
778 1037 1
801 1037 1
558 1038 1
566 1038 1
665 1038 1
684 1038 1
779 1038 1
802 1038 1
559 1039 1
567 1039 1
666 1039 1
685 1039 1
780 1039 1
803 1039 1
560 1040 1
568 1040 1
667 1040 1
686 1040 1
781 1040 1
804 1040 1
561 1041 1
569 1041 1
668 1041 1
687 1041 1
782 1041 1
805 1041 1
562 1042 1
570 1042 1
669 1042 1
688 1042 1
783 1042 1
806 1042 1
563 1043 1
571 1043 1
670 1043 1
689 1043 1
784 1043 1
807 1043 1
564 1044 1
572 1044 1
671 1044 1
690 1044 1
785 1044 1
808 1044 1
565 1045 1
573 1045 1
672 1045 1
691 1045 1
786 1045 1
809 1045 1
566 1046 1
574 1046 1
673 1046 1
692 1046 1
787 1046 1
810 1046 1
567 1047 1
575 1047 1
674 1047 1
693 1047 1
788 1047 1
811 1047 1
568 1048 1
576 1048 1
675 1048 1
694 1048 1
789 1048 1
812 1048 1
569 1049 1
577 1049 1
676 1049 1
695 1049 1
790 1049 1
813 1049 1
570 1050 1
578 1050 1
677 1050 1
696 1050 1
791 1050 1
814 1050 1
571 1051 1
579 1051 1
678 1051 1
697 1051 1
792 1051 1
815 1051 1
572 1052 1
580 1052 1
679 1052 1
698 1052 1
793 1052 1
816 1052 1
573 1053 1
581 1053 1
680 1053 1
699 1053 1
794 1053 1
817 1053 1
574 1054 1
582 1054 1
681 1054 1
700 1054 1
795 1054 1
818 1054 1
575 1055 1
583 1055 1
682 1055 1
701 1055 1
796 1055 1
819 1055 1
576 1056 1
584 1056 1
683 1056 1
702 1056 1
797 1056 1
820 1056 1
577 1057 1
585 1057 1
684 1057 1
703 1057 1
798 1057 1
821 1057 1
578 1058 1
586 1058 1
685 1058 1
704 1058 1
799 1058 1
822 1058 1
579 1059 1
587 1059 1
686 1059 1
705 1059 1
800 1059 1
823 1059 1
580 1060 1
588 1060 1
687 1060 1
706 1060 1
801 1060 1
824 1060 1
581 1061 1
589 1061 1
688 1061 1
707 1061 1
802 1061 1
825 1061 1
582 1062 1
590 1062 1
689 1062 1
708 1062 1
803 1062 1
826 1062 1
591 1063 1
642 1063 1
650 1063 1
697 1063 1
827 1063 1
863 1063 1
592 1064 1
643 1064 1
651 1064 1
698 1064 1
828 1064 1
864 1064 1
593 1065 1
644 1065 1
652 1065 1
699 1065 1
829 1065 1
865 1065 1
594 1066 1
645 1066 1
653 1066 1
700 1066 1
830 1066 1
866 1066 1
595 1067 1
646 1067 1
654 1067 1
701 1067 1
831 1067 1
867 1067 1
596 1068 1
647 1068 1
655 1068 1
702 1068 1
832 1068 1
868 1068 1
597 1069 1
648 1069 1
656 1069 1
703 1069 1
833 1069 1
869 1069 1
598 1070 1
649 1070 1
657 1070 1
704 1070 1
834 1070 1
870 1070 1
591 1071 1
599 1071 1
658 1071 1
705 1071 1
835 1071 1
871 1071 1
592 1072 1
600 1072 1
659 1072 1
706 1072 1
836 1072 1
872 1072 1
593 1073 1
601 1073 1
660 1073 1
707 1073 1
837 1073 1
873 1073 1
594 1074 1
602 1074 1
661 1074 1
708 1074 1
838 1074 1
874 1074 1
595 1075 1
603 1075 1
650 1075 1
662 1075 1
839 1075 1
875 1075 1
596 1076 1
604 1076 1
651 1076 1
663 1076 1
840 1076 1
876 1076 1
597 1077 1
605 1077 1
652 1077 1
664 1077 1
841 1077 1
877 1077 1
598 1078 1
606 1078 1
653 1078 1
665 1078 1
842 1078 1
878 1078 1
599 1079 1
607 1079 1
654 1079 1
666 1079 1
843 1079 1
879 1079 1
600 1080 1
608 1080 1
655 1080 1
667 1080 1
844 1080 1
880 1080 1
601 1081 1
609 1081 1
656 1081 1
668 1081 1
845 1081 1
881 1081 1
602 1082 1
610 1082 1
657 1082 1
669 1082 1
846 1082 1
882 1082 1
603 1083 1
611 1083 1
658 1083 1
670 1083 1
847 1083 1
883 1083 1
604 1084 1
612 1084 1
659 1084 1
671 1084 1
848 1084 1
884 1084 1
605 1085 1
613 1085 1
660 1085 1
672 1085 1
849 1085 1
885 1085 1
606 1086 1
614 1086 1
661 1086 1
673 1086 1
827 1086 1
850 1086 1
607 1087 1
615 1087 1
662 1087 1
674 1087 1
828 1087 1
851 1087 1
608 1088 1
616 1088 1
663 1088 1
675 1088 1
829 1088 1
852 1088 1
609 1089 1
617 1089 1
664 1089 1
676 1089 1
830 1089 1
853 1089 1
610 1090 1
618 1090 1
665 1090 1
677 1090 1
831 1090 1
854 1090 1
611 1091 1
619 1091 1
666 1091 1
678 1091 1
832 1091 1
855 1091 1
612 1092 1
620 1092 1
667 1092 1
679 1092 1
833 1092 1
856 1092 1
613 1093 1
621 1093 1
668 1093 1
680 1093 1
834 1093 1
857 1093 1
614 1094 1
622 1094 1
669 1094 1
681 1094 1
835 1094 1
858 1094 1
615 1095 1
623 1095 1
670 1095 1
682 1095 1
836 1095 1
859 1095 1
616 1096 1
624 1096 1
671 1096 1
683 1096 1
837 1096 1
860 1096 1
617 1097 1
625 1097 1
672 1097 1
684 1097 1
838 1097 1
861 1097 1
618 1098 1
626 1098 1
673 1098 1
685 1098 1
839 1098 1
862 1098 1
619 1099 1
627 1099 1
674 1099 1
686 1099 1
840 1099 1
863 1099 1
620 1100 1
628 1100 1
675 1100 1
687 1100 1
841 1100 1
864 1100 1
621 1101 1
629 1101 1
676 1101 1
688 1101 1
842 1101 1
865 1101 1
622 1102 1
630 1102 1
677 1102 1
689 1102 1
843 1102 1
866 1102 1
623 1103 1
631 1103 1
678 1103 1
690 1103 1
844 1103 1
867 1103 1
624 1104 1
632 1104 1
679 1104 1
691 1104 1
845 1104 1
868 1104 1
625 1105 1
633 1105 1
680 1105 1
692 1105 1
846 1105 1
869 1105 1
626 1106 1
634 1106 1
681 1106 1
693 1106 1
847 1106 1
870 1106 1
627 1107 1
635 1107 1
682 1107 1
694 1107 1
848 1107 1
871 1107 1
628 1108 1
636 1108 1
683 1108 1
695 1108 1
849 1108 1
872 1108 1
629 1109 1
637 1109 1
684 1109 1
696 1109 1
850 1109 1
873 1109 1
630 1110 1
638 1110 1
685 1110 1
697 1110 1
851 1110 1
874 1110 1
631 1111 1
639 1111 1
686 1111 1
698 1111 1
852 1111 1
875 1111 1
632 1112 1
640 1112 1
687 1112 1
699 1112 1
853 1112 1
876 1112 1
633 1113 1
641 1113 1
688 1113 1
700 1113 1
854 1113 1
877 1113 1
634 1114 1
642 1114 1
689 1114 1
701 1114 1
855 1114 1
878 1114 1
635 1115 1
643 1115 1
690 1115 1
702 1115 1
856 1115 1
879 1115 1
636 1116 1
644 1116 1
691 1116 1
703 1116 1
857 1116 1
880 1116 1
637 1117 1
645 1117 1
692 1117 1
704 1117 1
858 1117 1
881 1117 1
638 1118 1
646 1118 1
693 1118 1
705 1118 1
859 1118 1
882 1118 1
639 1119 1
647 1119 1
694 1119 1
706 1119 1
860 1119 1
883 1119 1
640 1120 1
648 1120 1
695 1120 1
707 1120 1
861 1120 1
884 1120 1
641 1121 1
649 1121 1
696 1121 1
708 1121 1
862 1121 1
885 1121 1
709 1122 1
760 1122 1
768 1122 1
815 1122 1
827 1122 1
867 1122 1
710 1123 1
761 1123 1
769 1123 1
816 1123 1
828 1123 1
868 1123 1
711 1124 1
762 1124 1
770 1124 1
817 1124 1
829 1124 1
869 1124 1
712 1125 1
763 1125 1
771 1125 1
818 1125 1
830 1125 1
870 1125 1
713 1126 1
764 1126 1
772 1126 1
819 1126 1
831 1126 1
871 1126 1
714 1127 1
765 1127 1
773 1127 1
820 1127 1
832 1127 1
872 1127 1
715 1128 1
766 1128 1
774 1128 1
821 1128 1
833 1128 1
873 1128 1
716 1129 1
767 1129 1
775 1129 1
822 1129 1
834 1129 1
874 1129 1
709 1130 1
717 1130 1
776 1130 1
823 1130 1
835 1130 1
875 1130 1
710 1131 1
718 1131 1
777 1131 1
824 1131 1
836 1131 1
876 1131 1
711 1132 1
719 1132 1
778 1132 1
825 1132 1
837 1132 1
877 1132 1
712 1133 1
720 1133 1
779 1133 1
826 1133 1
838 1133 1
878 1133 1
713 1134 1
721 1134 1
768 1134 1
780 1134 1
839 1134 1
879 1134 1
714 1135 1
722 1135 1
769 1135 1
781 1135 1
840 1135 1
880 1135 1
715 1136 1
723 1136 1
770 1136 1
782 1136 1
841 1136 1
881 1136 1
716 1137 1
724 1137 1
771 1137 1
783 1137 1
842 1137 1
882 1137 1
717 1138 1
725 1138 1
772 1138 1
784 1138 1
843 1138 1
883 1138 1
718 1139 1
726 1139 1
773 1139 1
785 1139 1
844 1139 1
884 1139 1
719 1140 1
727 1140 1
774 1140 1
786 1140 1
845 1140 1
885 1140 1
720 1141 1
728 1141 1
775 1141 1
787 1141 1
827 1141 1
846 1141 1
721 1142 1
729 1142 1
776 1142 1
788 1142 1
828 1142 1
847 1142 1
722 1143 1
730 1143 1
777 1143 1
789 1143 1
829 1143 1
848 1143 1
723 1144 1
731 1144 1
778 1144 1
790 1144 1
830 1144 1
849 1144 1
724 1145 1
732 1145 1
779 1145 1
791 1145 1
831 1145 1
850 1145 1
725 1146 1
733 1146 1
780 1146 1
792 1146 1
832 1146 1
851 1146 1
726 1147 1
734 1147 1
781 1147 1
793 1147 1
833 1147 1
852 1147 1
727 1148 1
735 1148 1
782 1148 1
794 1148 1
834 1148 1
853 1148 1
728 1149 1
736 1149 1
783 1149 1
795 1149 1
835 1149 1
854 1149 1
729 1150 1
737 1150 1
784 1150 1
796 1150 1
836 1150 1
855 1150 1
730 1151 1
738 1151 1
785 1151 1
797 1151 1
837 1151 1
856 1151 1
731 1152 1
739 1152 1
786 1152 1
798 1152 1
838 1152 1
857 1152 1
732 1153 1
740 1153 1
787 1153 1
799 1153 1
839 1153 1
858 1153 1
733 1154 1
741 1154 1
788 1154 1
800 1154 1
840 1154 1
859 1154 1
734 1155 1
742 1155 1
789 1155 1
801 1155 1
841 1155 1
860 1155 1
735 1156 1
743 1156 1
790 1156 1
802 1156 1
842 1156 1
861 1156 1
736 1157 1
744 1157 1
791 1157 1
803 1157 1
843 1157 1
862 1157 1
737 1158 1
745 1158 1
792 1158 1
804 1158 1
844 1158 1
863 1158 1
738 1159 1
746 1159 1
793 1159 1
805 1159 1
845 1159 1
864 1159 1
739 1160 1
747 1160 1
794 1160 1
806 1160 1
846 1160 1
865 1160 1
740 1161 1
748 1161 1
795 1161 1
807 1161 1
847 1161 1
866 1161 1
741 1162 1
749 1162 1
796 1162 1
808 1162 1
848 1162 1
867 1162 1
742 1163 1
750 1163 1
797 1163 1
809 1163 1
849 1163 1
868 1163 1
743 1164 1
751 1164 1
798 1164 1
810 1164 1
850 1164 1
869 1164 1
744 1165 1
752 1165 1
799 1165 1
811 1165 1
851 1165 1
870 1165 1
745 1166 1
753 1166 1
800 1166 1
812 1166 1
852 1166 1
871 1166 1
746 1167 1
754 1167 1
801 1167 1
813 1167 1
853 1167 1
872 1167 1
747 1168 1
755 1168 1
802 1168 1
814 1168 1
854 1168 1
873 1168 1
748 1169 1
756 1169 1
803 1169 1
815 1169 1
855 1169 1
874 1169 1
749 1170 1
757 1170 1
804 1170 1
816 1170 1
856 1170 1
875 1170 1
750 1171 1
758 1171 1
805 1171 1
817 1171 1
857 1171 1
876 1171 1
751 1172 1
759 1172 1
806 1172 1
818 1172 1
858 1172 1
877 1172 1
752 1173 1
760 1173 1
807 1173 1
819 1173 1
859 1173 1
878 1173 1
753 1174 1
761 1174 1
808 1174 1
820 1174 1
860 1174 1
879 1174 1
754 1175 1
762 1175 1
809 1175 1
821 1175 1
861 1175 1
880 1175 1
755 1176 1
763 1176 1
810 1176 1
822 1176 1
862 1176 1
881 1176 1
756 1177 1
764 1177 1
811 1177 1
823 1177 1
863 1177 1
882 1177 1
757 1178 1
765 1178 1
812 1178 1
824 1178 1
864 1178 1
883 1178 1
758 1179 1
766 1179 1
813 1179 1
825 1179 1
865 1179 1
884 1179 1
759 1180 1
767 1180 1
814 1180 1
826 1180 1
866 1180 1
885 1180 1
