%%MatrixMarket matrix coordinate integer general
% Binary matrix; one-based indices; arithmetic over GF(2)
540 810 3240
28 1 1
47 1 1
147 1 1
254 1 1
29 2 1
48 2 1
148 2 1
255 2 1
30 3 1
49 3 1
149 3 1
251 3 1
26 4 1
50 4 1
150 4 1
252 4 1
27 5 1
46 5 1
146 5 1
253 5 1
18 6 1
52 6 1
137 6 1
244 6 1
19 7 1
53 7 1
138 7 1
245 7 1
20 8 1
54 8 1
139 8 1
241 8 1
16 9 1
55 9 1
140 9 1
242 9 1
17 10 1
51 10 1
136 10 1
243 10 1
23 11 1
57 11 1
142 11 1
249 11 1
24 12 1
58 12 1
143 12 1
250 12 1
25 13 1
59 13 1
144 13 1
246 13 1
21 14 1
60 14 1
145 14 1
247 14 1
22 15 1
56 15 1
141 15 1
248 15 1
43 16 1
62 16 1
162 16 1
269 16 1
44 17 1
63 17 1
163 17 1
270 17 1
45 18 1
64 18 1
164 18 1
266 18 1
41 19 1
65 19 1
165 19 1
267 19 1
42 20 1
61 20 1
161 20 1
268 20 1
33 21 1
67 21 1
152 21 1
259 21 1
34 22 1
68 22 1
153 22 1
260 22 1
35 23 1
69 23 1
154 23 1
256 23 1
31 24 1
70 24 1
155 24 1
257 24 1
32 25 1
66 25 1
151 25 1
258 25 1
38 26 1
72 26 1
157 26 1
264 26 1
39 27 1
73 27 1
158 27 1
265 27 1
40 28 1
74 28 1
159 28 1
261 28 1
36 29 1
75 29 1
160 29 1
262 29 1
37 30 1
71 30 1
156 30 1
263 30 1
13 31 1
77 31 1
177 31 1
239 31 1
14 32 1
78 32 1
178 32 1
240 32 1
15 33 1
79 33 1
179 33 1
236 33 1
11 34 1
80 34 1
180 34 1
237 34 1
12 35 1
76 35 1
176 35 1
238 35 1
3 36 1
82 36 1
167 36 1
229 36 1
4 37 1
83 37 1
168 37 1
230 37 1
5 38 1
84 38 1
169 38 1
226 38 1
1 39 1
85 39 1
170 39 1
227 39 1
2 40 1
81 40 1
166 40 1
228 40 1
8 41 1
87 41 1
172 41 1
234 41 1
9 42 1
88 42 1
173 42 1
235 42 1
10 43 1
89 43 1
174 43 1
231 43 1
6 44 1
90 44 1
175 44 1
232 44 1
7 45 1
86 45 1
171 45 1
233 45 1
73 46 1
92 46 1
164 46 1
192 46 1
74 47 1
93 47 1
165 47 1
193 47 1
75 48 1
94 48 1
161 48 1
194 48 1
71 49 1
95 49 1
162 49 1
195 49 1
72 50 1
91 50 1
163 50 1
191 50 1
63 51 1
97 51 1
154 51 1
182 51 1
64 52 1
98 52 1
155 52 1
183 52 1
65 53 1
99 53 1
151 53 1
184 53 1
61 54 1
100 54 1
152 54 1
185 54 1
62 55 1
96 55 1
153 55 1
181 55 1
68 56 1
102 56 1
159 56 1
187 56 1
69 57 1
103 57 1
160 57 1
188 57 1
70 58 1
104 58 1
156 58 1
189 58 1
66 59 1
105 59 1
157 59 1
190 59 1
67 60 1
101 60 1
158 60 1
186 60 1
88 61 1
107 61 1
179 61 1
207 61 1
89 62 1
108 62 1
180 62 1
208 62 1
90 63 1
109 63 1
176 63 1
209 63 1
86 64 1
110 64 1
177 64 1
210 64 1
87 65 1
106 65 1
178 65 1
206 65 1
78 66 1
112 66 1
169 66 1
197 66 1
79 67 1
113 67 1
170 67 1
198 67 1
80 68 1
114 68 1
166 68 1
199 68 1
76 69 1
115 69 1
167 69 1
200 69 1
77 70 1
111 70 1
168 70 1
196 70 1
83 71 1
117 71 1
174 71 1
202 71 1
84 72 1
118 72 1
175 72 1
203 72 1
85 73 1
119 73 1
171 73 1
204 73 1
81 74 1
120 74 1
172 74 1
205 74 1
82 75 1
116 75 1
173 75 1
201 75 1
58 76 1
122 76 1
149 76 1
222 76 1
59 77 1
123 77 1
150 77 1
223 77 1
60 78 1
124 78 1
146 78 1
224 78 1
56 79 1
125 79 1
147 79 1
225 79 1
57 80 1
121 80 1
148 80 1
221 80 1
48 81 1
127 81 1
139 81 1
212 81 1
49 82 1
128 82 1
140 82 1
213 82 1
50 83 1
129 83 1
136 83 1
214 83 1
46 84 1
130 84 1
137 84 1
215 84 1
47 85 1
126 85 1
138 85 1
211 85 1
53 86 1
132 86 1
144 86 1
217 86 1
54 87 1
133 87 1
145 87 1
218 87 1
55 88 1
134 88 1
141 88 1
219 88 1
51 89 1
135 89 1
142 89 1
220 89 1
52 90 1
131 90 1
143 90 1
216 90 1
2 91 1
118 91 1
209 91 1
237 91 1
3 92 1
119 92 1
210 92 1
238 92 1
4 93 1
120 93 1
206 93 1
239 93 1
5 94 1
116 94 1
207 94 1
240 94 1
1 95 1
117 95 1
208 95 1
236 95 1
7 96 1
108 96 1
199 96 1
227 96 1
8 97 1
109 97 1
200 97 1
228 97 1
9 98 1
110 98 1
196 98 1
229 98 1
10 99 1
106 99 1
197 99 1
230 99 1
6 100 1
107 100 1
198 100 1
226 100 1
12 101 1
113 101 1
204 101 1
232 101 1
13 102 1
114 102 1
205 102 1
233 102 1
14 103 1
115 103 1
201 103 1
234 103 1
15 104 1
111 104 1
202 104 1
235 104 1
11 105 1
112 105 1
203 105 1
231 105 1
17 106 1
133 106 1
224 106 1
252 106 1
18 107 1
134 107 1
225 107 1
253 107 1
19 108 1
135 108 1
221 108 1
254 108 1
20 109 1
131 109 1
222 109 1
255 109 1
16 110 1
132 110 1
223 110 1
251 110 1
22 111 1
123 111 1
214 111 1
242 111 1
23 112 1
124 112 1
215 112 1
243 112 1
24 113 1
125 113 1
211 113 1
244 113 1
25 114 1
121 114 1
212 114 1
245 114 1
21 115 1
122 115 1
213 115 1
241 115 1
27 116 1
128 116 1
219 116 1
247 116 1
28 117 1
129 117 1
220 117 1
248 117 1
29 118 1
130 118 1
216 118 1
249 118 1
30 119 1
126 119 1
217 119 1
250 119 1
26 120 1
127 120 1
218 120 1
246 120 1
32 121 1
103 121 1
194 121 1
267 121 1
33 122 1
104 122 1
195 122 1
268 122 1
34 123 1
105 123 1
191 123 1
269 123 1
35 124 1
101 124 1
192 124 1
270 124 1
31 125 1
102 125 1
193 125 1
266 125 1
37 126 1
93 126 1
184 126 1
257 126 1
38 127 1
94 127 1
185 127 1
258 127 1
39 128 1
95 128 1
181 128 1
259 128 1
40 129 1
91 129 1
182 129 1
260 129 1
36 130 1
92 130 1
183 130 1
256 130 1
42 131 1
98 131 1
189 131 1
262 131 1
43 132 1
99 132 1
190 132 1
263 132 1
44 133 1
100 133 1
186 133 1
264 133 1
45 134 1
96 134 1
187 134 1
265 134 1
41 135 1
97 135 1
188 135 1
261 135 1
38 136 1
55 136 1
282 136 1
389 136 1
39 137 1
51 137 1
283 137 1
390 137 1
40 138 1
52 138 1
284 138 1
386 138 1
36 139 1
53 139 1
285 139 1
387 139 1
37 140 1
54 140 1
281 140 1
388 140 1
43 141 1
60 141 1
272 141 1
379 141 1
44 142 1
56 142 1
273 142 1
380 142 1
45 143 1
57 143 1
274 143 1
376 143 1
41 144 1
58 144 1
275 144 1
377 144 1
42 145 1
59 145 1
271 145 1
378 145 1
33 146 1
50 146 1
277 146 1
384 146 1
34 147 1
46 147 1
278 147 1
385 147 1
35 148 1
47 148 1
279 148 1
381 148 1
31 149 1
48 149 1
280 149 1
382 149 1
32 150 1
49 150 1
276 150 1
383 150 1
8 151 1
70 151 1
297 151 1
404 151 1
9 152 1
66 152 1
298 152 1
405 152 1
10 153 1
67 153 1
299 153 1
401 153 1
6 154 1
68 154 1
300 154 1
402 154 1
7 155 1
69 155 1
296 155 1
403 155 1
13 156 1
75 156 1
287 156 1
394 156 1
14 157 1
71 157 1
288 157 1
395 157 1
15 158 1
72 158 1
289 158 1
391 158 1
11 159 1
73 159 1
290 159 1
392 159 1
12 160 1
74 160 1
286 160 1
393 160 1
3 161 1
65 161 1
292 161 1
399 161 1
4 162 1
61 162 1
293 162 1
400 162 1
5 163 1
62 163 1
294 163 1
396 163 1
1 164 1
63 164 1
295 164 1
397 164 1
2 165 1
64 165 1
291 165 1
398 165 1
23 166 1
85 166 1
312 166 1
374 166 1
24 167 1
81 167 1
313 167 1
375 167 1
25 168 1
82 168 1
314 168 1
371 168 1
21 169 1
83 169 1
315 169 1
372 169 1
22 170 1
84 170 1
311 170 1
373 170 1
28 171 1
90 171 1
302 171 1
364 171 1
29 172 1
86 172 1
303 172 1
365 172 1
30 173 1
87 173 1
304 173 1
361 173 1
26 174 1
88 174 1
305 174 1
362 174 1
27 175 1
89 175 1
301 175 1
363 175 1
18 176 1
80 176 1
307 176 1
369 176 1
19 177 1
76 177 1
308 177 1
370 177 1
20 178 1
77 178 1
309 178 1
366 178 1
16 179 1
78 179 1
310 179 1
367 179 1
17 180 1
79 180 1
306 180 1
368 180 1
83 181 1
100 181 1
299 181 1
327 181 1
84 182 1
96 182 1
300 182 1
328 182 1
85 183 1
97 183 1
296 183 1
329 183 1
81 184 1
98 184 1
297 184 1
330 184 1
82 185 1
99 185 1
298 185 1
326 185 1
88 186 1
105 186 1
289 186 1
317 186 1
89 187 1
101 187 1
290 187 1
318 187 1
90 188 1
102 188 1
286 188 1
319 188 1
86 189 1
103 189 1
287 189 1
320 189 1
87 190 1
104 190 1
288 190 1
316 190 1
78 191 1
95 191 1
294 191 1
322 191 1
79 192 1
91 192 1
295 192 1
323 192 1
80 193 1
92 193 1
291 193 1
324 193 1
76 194 1
93 194 1
292 194 1
325 194 1
77 195 1
94 195 1
293 195 1
321 195 1
53 196 1
115 196 1
314 196 1
342 196 1
54 197 1
111 197 1
315 197 1
343 197 1
55 198 1
112 198 1
311 198 1
344 198 1
51 199 1
113 199 1
312 199 1
345 199 1
52 200 1
114 200 1
313 200 1
341 200 1
58 201 1
120 201 1
304 201 1
332 201 1
59 202 1
116 202 1
305 202 1
333 202 1
60 203 1
117 203 1
301 203 1
334 203 1
56 204 1
118 204 1
302 204 1
335 204 1
57 205 1
119 205 1
303 205 1
331 205 1
48 206 1
110 206 1
309 206 1
337 206 1
49 207 1
106 207 1
310 207 1
338 207 1
50 208 1
107 208 1
306 208 1
339 208 1
46 209 1
108 209 1
307 209 1
340 209 1
47 210 1
109 210 1
308 210 1
336 210 1
68 211 1
130 211 1
284 211 1
357 211 1
69 212 1
126 212 1
285 212 1
358 212 1
70 213 1
127 213 1
281 213 1
359 213 1
66 214 1
128 214 1
282 214 1
360 214 1
67 215 1
129 215 1
283 215 1
356 215 1
73 216 1
135 216 1
274 216 1
347 216 1
74 217 1
131 217 1
275 217 1
348 217 1
75 218 1
132 218 1
271 218 1
349 218 1
71 219 1
133 219 1
272 219 1
350 219 1
72 220 1
134 220 1
273 220 1
346 220 1
63 221 1
125 221 1
279 221 1
352 221 1
64 222 1
121 222 1
280 222 1
353 222 1
65 223 1
122 223 1
276 223 1
354 223 1
61 224 1
123 224 1
277 224 1
355 224 1
62 225 1
124 225 1
278 225 1
351 225 1
10 226 1
128 226 1
344 226 1
372 226 1
6 227 1
129 227 1
345 227 1
373 227 1
7 228 1
130 228 1
341 228 1
374 228 1
8 229 1
126 229 1
342 229 1
375 229 1
9 230 1
127 230 1
343 230 1
371 230 1
15 231 1
133 231 1
334 231 1
362 231 1
11 232 1
134 232 1
335 232 1
363 232 1
12 233 1
135 233 1
331 233 1
364 233 1
13 234 1
131 234 1
332 234 1
365 234 1
14 235 1
132 235 1
333 235 1
361 235 1
5 236 1
123 236 1
339 236 1
367 236 1
1 237 1
124 237 1
340 237 1
368 237 1
2 238 1
125 238 1
336 238 1
369 238 1
3 239 1
121 239 1
337 239 1
370 239 1
4 240 1
122 240 1
338 240 1
366 240 1
25 241 1
98 241 1
359 241 1
387 241 1
21 242 1
99 242 1
360 242 1
388 242 1
22 243 1
100 243 1
356 243 1
389 243 1
23 244 1
96 244 1
357 244 1
390 244 1
24 245 1
97 245 1
358 245 1
386 245 1
30 246 1
103 246 1
349 246 1
377 246 1
26 247 1
104 247 1
350 247 1
378 247 1
27 248 1
105 248 1
346 248 1
379 248 1
28 249 1
101 249 1
347 249 1
380 249 1
29 250 1
102 250 1
348 250 1
376 250 1
20 251 1
93 251 1
354 251 1
382 251 1
16 252 1
94 252 1
355 252 1
383 252 1
17 253 1
95 253 1
351 253 1
384 253 1
18 254 1
91 254 1
352 254 1
385 254 1
19 255 1
92 255 1
353 255 1
381 255 1
40 256 1
113 256 1
329 256 1
402 256 1
36 257 1
114 257 1
330 257 1
403 257 1
37 258 1
115 258 1
326 258 1
404 258 1
38 259 1
111 259 1
327 259 1
405 259 1
39 260 1
112 260 1
328 260 1
401 260 1
45 261 1
118 261 1
319 261 1
392 261 1
41 262 1
119 262 1
320 262 1
393 262 1
42 263 1
120 263 1
316 263 1
394 263 1
43 264 1
116 264 1
317 264 1
395 264 1
44 265 1
117 265 1
318 265 1
391 265 1
35 266 1
108 266 1
324 266 1
397 266 1
31 267 1
109 267 1
325 267 1
398 267 1
32 268 1
110 268 1
321 268 1
399 268 1
33 269 1
106 269 1
322 269 1
400 269 1
34 270 1
107 270 1
323 270 1
396 270 1
72 271 1
81 271 1
417 271 1
524 271 1
73 272 1
82 272 1
418 272 1
525 272 1
74 273 1
83 273 1
419 273 1
521 273 1
75 274 1
84 274 1
420 274 1
522 274 1
71 275 1
85 275 1
416 275 1
523 275 1
62 276 1
86 276 1
407 276 1
514 276 1
63 277 1
87 277 1
408 277 1
515 277 1
64 278 1
88 278 1
409 278 1
511 278 1
65 279 1
89 279 1
410 279 1
512 279 1
61 280 1
90 280 1
406 280 1
513 280 1
67 281 1
76 281 1
412 281 1
519 281 1
68 282 1
77 282 1
413 282 1
520 282 1
69 283 1
78 283 1
414 283 1
516 283 1
70 284 1
79 284 1
415 284 1
517 284 1
66 285 1
80 285 1
411 285 1
518 285 1
51 286 1
87 286 1
432 286 1
539 286 1
52 287 1
88 287 1
433 287 1
540 287 1
53 288 1
89 288 1
434 288 1
536 288 1
54 289 1
90 289 1
435 289 1
537 289 1
55 290 1
86 290 1
431 290 1
538 290 1
56 291 1
77 291 1
422 291 1
529 291 1
57 292 1
78 292 1
423 292 1
530 292 1
58 293 1
79 293 1
424 293 1
526 293 1
59 294 1
80 294 1
425 294 1
527 294 1
60 295 1
76 295 1
421 295 1
528 295 1
46 296 1
82 296 1
427 296 1
534 296 1
47 297 1
83 297 1
428 297 1
535 297 1
48 298 1
84 298 1
429 298 1
531 298 1
49 299 1
85 299 1
430 299 1
532 299 1
50 300 1
81 300 1
426 300 1
533 300 1
57 301 1
66 301 1
447 301 1
509 301 1
58 302 1
67 302 1
448 302 1
510 302 1
59 303 1
68 303 1
449 303 1
506 303 1
60 304 1
69 304 1
450 304 1
507 304 1
56 305 1
70 305 1
446 305 1
508 305 1
47 306 1
71 306 1
437 306 1
499 306 1
48 307 1
72 307 1
438 307 1
500 307 1
49 308 1
73 308 1
439 308 1
496 308 1
50 309 1
74 309 1
440 309 1
497 309 1
46 310 1
75 310 1
436 310 1
498 310 1
52 311 1
61 311 1
442 311 1
504 311 1
53 312 1
62 312 1
443 312 1
505 312 1
54 313 1
63 313 1
444 313 1
501 313 1
55 314 1
64 314 1
445 314 1
502 314 1
51 315 1
65 315 1
441 315 1
503 315 1
117 316 1
126 316 1
434 316 1
462 316 1
118 317 1
127 317 1
435 317 1
463 317 1
119 318 1
128 318 1
431 318 1
464 318 1
120 319 1
129 319 1
432 319 1
465 319 1
116 320 1
130 320 1
433 320 1
461 320 1
107 321 1
131 321 1
424 321 1
452 321 1
108 322 1
132 322 1
425 322 1
453 322 1
109 323 1
133 323 1
421 323 1
454 323 1
110 324 1
134 324 1
422 324 1
455 324 1
106 325 1
135 325 1
423 325 1
451 325 1
112 326 1
121 326 1
429 326 1
457 326 1
113 327 1
122 327 1
430 327 1
458 327 1
114 328 1
123 328 1
426 328 1
459 328 1
115 329 1
124 329 1
427 329 1
460 329 1
111 330 1
125 330 1
428 330 1
456 330 1
96 331 1
132 331 1
449 331 1
477 331 1
97 332 1
133 332 1
450 332 1
478 332 1
98 333 1
134 333 1
446 333 1
479 333 1
99 334 1
135 334 1
447 334 1
480 334 1
100 335 1
131 335 1
448 335 1
476 335 1
101 336 1
122 336 1
439 336 1
467 336 1
102 337 1
123 337 1
440 337 1
468 337 1
103 338 1
124 338 1
436 338 1
469 338 1
104 339 1
125 339 1
437 339 1
470 339 1
105 340 1
121 340 1
438 340 1
466 340 1
91 341 1
127 341 1
444 341 1
472 341 1
92 342 1
128 342 1
445 342 1
473 342 1
93 343 1
129 343 1
441 343 1
474 343 1
94 344 1
130 344 1
442 344 1
475 344 1
95 345 1
126 345 1
443 345 1
471 345 1
102 346 1
111 346 1
419 346 1
492 346 1
103 347 1
112 347 1
420 347 1
493 347 1
104 348 1
113 348 1
416 348 1
494 348 1
105 349 1
114 349 1
417 349 1
495 349 1
101 350 1
115 350 1
418 350 1
491 350 1
92 351 1
116 351 1
409 351 1
482 351 1
93 352 1
117 352 1
410 352 1
483 352 1
94 353 1
118 353 1
406 353 1
484 353 1
95 354 1
119 354 1
407 354 1
485 354 1
91 355 1
120 355 1
408 355 1
481 355 1
97 356 1
106 356 1
414 356 1
487 356 1
98 357 1
107 357 1
415 357 1
488 357 1
99 358 1
108 358 1
411 358 1
489 358 1
100 359 1
109 359 1
412 359 1
490 359 1
96 360 1
110 360 1
413 360 1
486 360 1
27 361 1
36 361 1
479 361 1
507 361 1
28 362 1
37 362 1
480 362 1
508 362 1
29 363 1
38 363 1
476 363 1
509 363 1
30 364 1
39 364 1
477 364 1
510 364 1
26 365 1
40 365 1
478 365 1
506 365 1
17 366 1
41 366 1
469 366 1
497 366 1
18 367 1
42 367 1
470 367 1
498 367 1
19 368 1
43 368 1
466 368 1
499 368 1
20 369 1
44 369 1
467 369 1
500 369 1
16 370 1
45 370 1
468 370 1
496 370 1
22 371 1
31 371 1
474 371 1
502 371 1
23 372 1
32 372 1
475 372 1
503 372 1
24 373 1
33 373 1
471 373 1
504 373 1
25 374 1
34 374 1
472 374 1
505 374 1
21 375 1
35 375 1
473 375 1
501 375 1
6 376 1
42 376 1
494 376 1
522 376 1
7 377 1
43 377 1
495 377 1
523 377 1
8 378 1
44 378 1
491 378 1
524 378 1
9 379 1
45 379 1
492 379 1
525 379 1
10 380 1
41 380 1
493 380 1
521 380 1
11 381 1
32 381 1
484 381 1
512 381 1
12 382 1
33 382 1
485 382 1
513 382 1
13 383 1
34 383 1
481 383 1
514 383 1
14 384 1
35 384 1
482 384 1
515 384 1
15 385 1
31 385 1
483 385 1
511 385 1
1 386 1
37 386 1
489 386 1
517 386 1
2 387 1
38 387 1
490 387 1
518 387 1
3 388 1
39 388 1
486 388 1
519 388 1
4 389 1
40 389 1
487 389 1
520 389 1
5 390 1
36 390 1
488 390 1
516 390 1
12 391 1
21 391 1
464 391 1
537 391 1
13 392 1
22 392 1
465 392 1
538 392 1
14 393 1
23 393 1
461 393 1
539 393 1
15 394 1
24 394 1
462 394 1
540 394 1
11 395 1
25 395 1
463 395 1
536 395 1
2 396 1
26 396 1
454 396 1
527 396 1
3 397 1
27 397 1
455 397 1
528 397 1
4 398 1
28 398 1
451 398 1
529 398 1
5 399 1
29 399 1
452 399 1
530 399 1
1 400 1
30 400 1
453 400 1
526 400 1
7 401 1
16 401 1
459 401 1
532 401 1
8 402 1
17 402 1
460 402 1
533 402 1
9 403 1
18 403 1
456 403 1
534 403 1
10 404 1
19 404 1
457 404 1
535 404 1
6 405 1
20 405 1
458 405 1
531 405 1
173 406 1
190 406 1
298 406 1
317 406 1
174 407 1
186 407 1
299 407 1
318 407 1
175 408 1
187 408 1
300 408 1
319 408 1
171 409 1
188 409 1
296 409 1
320 409 1
172 410 1
189 410 1
297 410 1
316 410 1
178 411 1
195 411 1
288 411 1
322 411 1
179 412 1
191 412 1
289 412 1
323 412 1
180 413 1
192 413 1
290 413 1
324 413 1
176 414 1
193 414 1
286 414 1
325 414 1
177 415 1
194 415 1
287 415 1
321 415 1
168 416 1
185 416 1
293 416 1
327 416 1
169 417 1
181 417 1
294 417 1
328 417 1
170 418 1
182 418 1
295 418 1
329 418 1
166 419 1
183 419 1
291 419 1
330 419 1
167 420 1
184 420 1
292 420 1
326 420 1
143 421 1
205 421 1
313 421 1
332 421 1
144 422 1
201 422 1
314 422 1
333 422 1
145 423 1
202 423 1
315 423 1
334 423 1
141 424 1
203 424 1
311 424 1
335 424 1
142 425 1
204 425 1
312 425 1
331 425 1
148 426 1
210 426 1
303 426 1
337 426 1
149 427 1
206 427 1
304 427 1
338 427 1
150 428 1
207 428 1
305 428 1
339 428 1
146 429 1
208 429 1
301 429 1
340 429 1
147 430 1
209 430 1
302 430 1
336 430 1
138 431 1
200 431 1
308 431 1
342 431 1
139 432 1
196 432 1
309 432 1
343 432 1
140 433 1
197 433 1
310 433 1
344 433 1
136 434 1
198 434 1
306 434 1
345 434 1
137 435 1
199 435 1
307 435 1
341 435 1
158 436 1
220 436 1
283 436 1
347 436 1
159 437 1
216 437 1
284 437 1
348 437 1
160 438 1
217 438 1
285 438 1
349 438 1
156 439 1
218 439 1
281 439 1
350 439 1
157 440 1
219 440 1
282 440 1
346 440 1
163 441 1
225 441 1
273 441 1
352 441 1
164 442 1
221 442 1
274 442 1
353 442 1
165 443 1
222 443 1
275 443 1
354 443 1
161 444 1
223 444 1
271 444 1
355 444 1
162 445 1
224 445 1
272 445 1
351 445 1
153 446 1
215 446 1
278 446 1
357 446 1
154 447 1
211 447 1
279 447 1
358 447 1
155 448 1
212 448 1
280 448 1
359 448 1
151 449 1
213 449 1
276 449 1
360 449 1
152 450 1
214 450 1
277 450 1
356 450 1
218 451 1
235 451 1
343 451 1
362 451 1
219 452 1
231 452 1
344 452 1
363 452 1
220 453 1
232 453 1
345 453 1
364 453 1
216 454 1
233 454 1
341 454 1
365 454 1
217 455 1
234 455 1
342 455 1
361 455 1
223 456 1
240 456 1
333 456 1
367 456 1
224 457 1
236 457 1
334 457 1
368 457 1
225 458 1
237 458 1
335 458 1
369 458 1
221 459 1
238 459 1
331 459 1
370 459 1
222 460 1
239 460 1
332 460 1
366 460 1
213 461 1
230 461 1
338 461 1
372 461 1
214 462 1
226 462 1
339 462 1
373 462 1
215 463 1
227 463 1
340 463 1
374 463 1
211 464 1
228 464 1
336 464 1
375 464 1
212 465 1
229 465 1
337 465 1
371 465 1
188 466 1
250 466 1
358 466 1
377 466 1
189 467 1
246 467 1
359 467 1
378 467 1
190 468 1
247 468 1
360 468 1
379 468 1
186 469 1
248 469 1
356 469 1
380 469 1
187 470 1
249 470 1
357 470 1
376 470 1
193 471 1
255 471 1
348 471 1
382 471 1
194 472 1
251 472 1
349 472 1
383 472 1
195 473 1
252 473 1
350 473 1
384 473 1
191 474 1
253 474 1
346 474 1
385 474 1
192 475 1
254 475 1
347 475 1
381 475 1
183 476 1
245 476 1
353 476 1
387 476 1
184 477 1
241 477 1
354 477 1
388 477 1
185 478 1
242 478 1
355 478 1
389 478 1
181 479 1
243 479 1
351 479 1
390 479 1
182 480 1
244 480 1
352 480 1
386 480 1
203 481 1
265 481 1
328 481 1
392 481 1
204 482 1
261 482 1
329 482 1
393 482 1
205 483 1
262 483 1
330 483 1
394 483 1
201 484 1
263 484 1
326 484 1
395 484 1
202 485 1
264 485 1
327 485 1
391 485 1
208 486 1
270 486 1
318 486 1
397 486 1
209 487 1
266 487 1
319 487 1
398 487 1
210 488 1
267 488 1
320 488 1
399 488 1
206 489 1
268 489 1
316 489 1
400 489 1
207 490 1
269 490 1
317 490 1
396 490 1
198 491 1
260 491 1
323 491 1
402 491 1
199 492 1
256 492 1
324 492 1
403 492 1
200 493 1
257 493 1
325 493 1
404 493 1
196 494 1
258 494 1
321 494 1
405 494 1
197 495 1
259 495 1
322 495 1
401 495 1
145 496 1
263 496 1
272 496 1
388 496 1
141 497 1
264 497 1
273 497 1
389 497 1
142 498 1
265 498 1
274 498 1
390 498 1
143 499 1
261 499 1
275 499 1
386 499 1
144 500 1
262 500 1
271 500 1
387 500 1
150 501 1
268 501 1
277 501 1
378 501 1
146 502 1
269 502 1
278 502 1
379 502 1
147 503 1
270 503 1
279 503 1
380 503 1
148 504 1
266 504 1
280 504 1
376 504 1
149 505 1
267 505 1
276 505 1
377 505 1
140 506 1
258 506 1
282 506 1
383 506 1
136 507 1
259 507 1
283 507 1
384 507 1
137 508 1
260 508 1
284 508 1
385 508 1
138 509 1
256 509 1
285 509 1
381 509 1
139 510 1
257 510 1
281 510 1
382 510 1
160 511 1
233 511 1
287 511 1
403 511 1
156 512 1
234 512 1
288 512 1
404 512 1
157 513 1
235 513 1
289 513 1
405 513 1
158 514 1
231 514 1
290 514 1
401 514 1
159 515 1
232 515 1
286 515 1
402 515 1
165 516 1
238 516 1
292 516 1
393 516 1
161 517 1
239 517 1
293 517 1
394 517 1
162 518 1
240 518 1
294 518 1
395 518 1
163 519 1
236 519 1
295 519 1
391 519 1
164 520 1
237 520 1
291 520 1
392 520 1
155 521 1
228 521 1
297 521 1
398 521 1
151 522 1
229 522 1
298 522 1
399 522 1
152 523 1
230 523 1
299 523 1
400 523 1
153 524 1
226 524 1
300 524 1
396 524 1
154 525 1
227 525 1
296 525 1
397 525 1
175 526 1
248 526 1
302 526 1
373 526 1
171 527 1
249 527 1
303 527 1
374 527 1
172 528 1
250 528 1
304 528 1
375 528 1
173 529 1
246 529 1
305 529 1
371 529 1
174 530 1
247 530 1
301 530 1
372 530 1
180 531 1
253 531 1
307 531 1
363 531 1
176 532 1
254 532 1
308 532 1
364 532 1
177 533 1
255 533 1
309 533 1
365 533 1
178 534 1
251 534 1
310 534 1
361 534 1
179 535 1
252 535 1
306 535 1
362 535 1
170 536 1
243 536 1
312 536 1
368 536 1
166 537 1
244 537 1
313 537 1
369 537 1
167 538 1
245 538 1
314 538 1
370 538 1
168 539 1
241 539 1
315 539 1
366 539 1
169 540 1
242 540 1
311 540 1
367 540 1
207 541 1
216 541 1
433 541 1
452 541 1
208 542 1
217 542 1
434 542 1
453 542 1
209 543 1
218 543 1
435 543 1
454 543 1
210 544 1
219 544 1
431 544 1
455 544 1
206 545 1
220 545 1
432 545 1
451 545 1
197 546 1
221 546 1
423 546 1
457 546 1
198 547 1
222 547 1
424 547 1
458 547 1
199 548 1
223 548 1
425 548 1
459 548 1
200 549 1
224 549 1
421 549 1
460 549 1
196 550 1
225 550 1
422 550 1
456 550 1
202 551 1
211 551 1
428 551 1
462 551 1
203 552 1
212 552 1
429 552 1
463 552 1
204 553 1
213 553 1
430 553 1
464 553 1
205 554 1
214 554 1
426 554 1
465 554 1
201 555 1
215 555 1
427 555 1
461 555 1
186 556 1
222 556 1
448 556 1
467 556 1
187 557 1
223 557 1
449 557 1
468 557 1
188 558 1
224 558 1
450 558 1
469 558 1
189 559 1
225 559 1
446 559 1
470 559 1
190 560 1
221 560 1
447 560 1
466 560 1
191 561 1
212 561 1
438 561 1
472 561 1
192 562 1
213 562 1
439 562 1
473 562 1
193 563 1
214 563 1
440 563 1
474 563 1
194 564 1
215 564 1
436 564 1
475 564 1
195 565 1
211 565 1
437 565 1
471 565 1
181 566 1
217 566 1
443 566 1
477 566 1
182 567 1
218 567 1
444 567 1
478 567 1
183 568 1
219 568 1
445 568 1
479 568 1
184 569 1
220 569 1
441 569 1
480 569 1
185 570 1
216 570 1
442 570 1
476 570 1
192 571 1
201 571 1
418 571 1
482 571 1
193 572 1
202 572 1
419 572 1
483 572 1
194 573 1
203 573 1
420 573 1
484 573 1
195 574 1
204 574 1
416 574 1
485 574 1
191 575 1
205 575 1
417 575 1
481 575 1
182 576 1
206 576 1
408 576 1
487 576 1
183 577 1
207 577 1
409 577 1
488 577 1
184 578 1
208 578 1
410 578 1
489 578 1
185 579 1
209 579 1
406 579 1
490 579 1
181 580 1
210 580 1
407 580 1
486 580 1
187 581 1
196 581 1
413 581 1
492 581 1
188 582 1
197 582 1
414 582 1
493 582 1
189 583 1
198 583 1
415 583 1
494 583 1
190 584 1
199 584 1
411 584 1
495 584 1
186 585 1
200 585 1
412 585 1
491 585 1
252 586 1
261 586 1
478 586 1
497 586 1
253 587 1
262 587 1
479 587 1
498 587 1
254 588 1
263 588 1
480 588 1
499 588 1
255 589 1
264 589 1
476 589 1
500 589 1
251 590 1
265 590 1
477 590 1
496 590 1
242 591 1
266 591 1
468 591 1
502 591 1
243 592 1
267 592 1
469 592 1
503 592 1
244 593 1
268 593 1
470 593 1
504 593 1
245 594 1
269 594 1
466 594 1
505 594 1
241 595 1
270 595 1
467 595 1
501 595 1
247 596 1
256 596 1
473 596 1
507 596 1
248 597 1
257 597 1
474 597 1
508 597 1
249 598 1
258 598 1
475 598 1
509 598 1
250 599 1
259 599 1
471 599 1
510 599 1
246 600 1
260 600 1
472 600 1
506 600 1
231 601 1
267 601 1
493 601 1
512 601 1
232 602 1
268 602 1
494 602 1
513 602 1
233 603 1
269 603 1
495 603 1
514 603 1
234 604 1
270 604 1
491 604 1
515 604 1
235 605 1
266 605 1
492 605 1
511 605 1
236 606 1
257 606 1
483 606 1
517 606 1
237 607 1
258 607 1
484 607 1
518 607 1
238 608 1
259 608 1
485 608 1
519 608 1
239 609 1
260 609 1
481 609 1
520 609 1
240 610 1
256 610 1
482 610 1
516 610 1
226 611 1
262 611 1
488 611 1
522 611 1
227 612 1
263 612 1
489 612 1
523 612 1
228 613 1
264 613 1
490 613 1
524 613 1
229 614 1
265 614 1
486 614 1
525 614 1
230 615 1
261 615 1
487 615 1
521 615 1
237 616 1
246 616 1
463 616 1
527 616 1
238 617 1
247 617 1
464 617 1
528 617 1
239 618 1
248 618 1
465 618 1
529 618 1
240 619 1
249 619 1
461 619 1
530 619 1
236 620 1
250 620 1
462 620 1
526 620 1
227 621 1
251 621 1
453 621 1
532 621 1
228 622 1
252 622 1
454 622 1
533 622 1
229 623 1
253 623 1
455 623 1
534 623 1
230 624 1
254 624 1
451 624 1
535 624 1
226 625 1
255 625 1
452 625 1
531 625 1
232 626 1
241 626 1
458 626 1
537 626 1
233 627 1
242 627 1
459 627 1
538 627 1
234 628 1
243 628 1
460 628 1
539 628 1
235 629 1
244 629 1
456 629 1
540 629 1
231 630 1
245 630 1
457 630 1
536 630 1
162 631 1
171 631 1
407 631 1
523 631 1
163 632 1
172 632 1
408 632 1
524 632 1
164 633 1
173 633 1
409 633 1
525 633 1
165 634 1
174 634 1
410 634 1
521 634 1
161 635 1
175 635 1
406 635 1
522 635 1
152 636 1
176 636 1
412 636 1
513 636 1
153 637 1
177 637 1
413 637 1
514 637 1
154 638 1
178 638 1
414 638 1
515 638 1
155 639 1
179 639 1
415 639 1
511 639 1
151 640 1
180 640 1
411 640 1
512 640 1
157 641 1
166 641 1
417 641 1
518 641 1
158 642 1
167 642 1
418 642 1
519 642 1
159 643 1
168 643 1
419 643 1
520 643 1
160 644 1
169 644 1
420 644 1
516 644 1
156 645 1
170 645 1
416 645 1
517 645 1
141 646 1
177 646 1
422 646 1
538 646 1
142 647 1
178 647 1
423 647 1
539 647 1
143 648 1
179 648 1
424 648 1
540 648 1
144 649 1
180 649 1
425 649 1
536 649 1
145 650 1
176 650 1
421 650 1
537 650 1
146 651 1
167 651 1
427 651 1
528 651 1
147 652 1
168 652 1
428 652 1
529 652 1
148 653 1
169 653 1
429 653 1
530 653 1
149 654 1
170 654 1
430 654 1
526 654 1
150 655 1
166 655 1
426 655 1
527 655 1
136 656 1
172 656 1
432 656 1
533 656 1
137 657 1
173 657 1
433 657 1
534 657 1
138 658 1
174 658 1
434 658 1
535 658 1
139 659 1
175 659 1
435 659 1
531 659 1
140 660 1
171 660 1
431 660 1
532 660 1
147 661 1
156 661 1
437 661 1
508 661 1
148 662 1
157 662 1
438 662 1
509 662 1
149 663 1
158 663 1
439 663 1
510 663 1
150 664 1
159 664 1
440 664 1
506 664 1
146 665 1
160 665 1
436 665 1
507 665 1
137 666 1
161 666 1
442 666 1
498 666 1
138 667 1
162 667 1
443 667 1
499 667 1
139 668 1
163 668 1
444 668 1
500 668 1
140 669 1
164 669 1
445 669 1
496 669 1
136 670 1
165 670 1
441 670 1
497 670 1
142 671 1
151 671 1
447 671 1
503 671 1
143 672 1
152 672 1
448 672 1
504 672 1
144 673 1
153 673 1
449 673 1
505 673 1
145 674 1
154 674 1
450 674 1
501 674 1
141 675 1
155 675 1
446 675 1
502 675 1
342 676 1
351 676 1
443 676 1
460 676 1
343 677 1
352 677 1
444 677 1
456 677 1
344 678 1
353 678 1
445 678 1
457 678 1
345 679 1
354 679 1
441 679 1
458 679 1
341 680 1
355 680 1
442 680 1
459 680 1
332 681 1
356 681 1
448 681 1
465 681 1
333 682 1
357 682 1
449 682 1
461 682 1
334 683 1
358 683 1
450 683 1
462 683 1
335 684 1
359 684 1
446 684 1
463 684 1
331 685 1
360 685 1
447 685 1
464 685 1
337 686 1
346 686 1
438 686 1
455 686 1
338 687 1
347 687 1
439 687 1
451 687 1
339 688 1
348 688 1
440 688 1
452 688 1
340 689 1
349 689 1
436 689 1
453 689 1
336 690 1
350 690 1
437 690 1
454 690 1
321 691 1
357 691 1
413 691 1
475 691 1
322 692 1
358 692 1
414 692 1
471 692 1
323 693 1
359 693 1
415 693 1
472 693 1
324 694 1
360 694 1
411 694 1
473 694 1
325 695 1
356 695 1
412 695 1
474 695 1
326 696 1
347 696 1
418 696 1
480 696 1
327 697 1
348 697 1
419 697 1
476 697 1
328 698 1
349 698 1
420 698 1
477 698 1
329 699 1
350 699 1
416 699 1
478 699 1
330 700 1
346 700 1
417 700 1
479 700 1
316 701 1
352 701 1
408 701 1
470 701 1
317 702 1
353 702 1
409 702 1
466 702 1
318 703 1
354 703 1
410 703 1
467 703 1
319 704 1
355 704 1
406 704 1
468 704 1
320 705 1
351 705 1
407 705 1
469 705 1
327 706 1
336 706 1
428 706 1
490 706 1
328 707 1
337 707 1
429 707 1
486 707 1
329 708 1
338 708 1
430 708 1
487 708 1
330 709 1
339 709 1
426 709 1
488 709 1
326 710 1
340 710 1
427 710 1
489 710 1
317 711 1
341 711 1
433 711 1
495 711 1
318 712 1
342 712 1
434 712 1
491 712 1
319 713 1
343 713 1
435 713 1
492 713 1
320 714 1
344 714 1
431 714 1
493 714 1
316 715 1
345 715 1
432 715 1
494 715 1
322 716 1
331 716 1
423 716 1
485 716 1
323 717 1
332 717 1
424 717 1
481 717 1
324 718 1
333 718 1
425 718 1
482 718 1
325 719 1
334 719 1
421 719 1
483 719 1
321 720 1
335 720 1
422 720 1
484 720 1
387 721 1
396 721 1
488 721 1
505 721 1
388 722 1
397 722 1
489 722 1
501 722 1
389 723 1
398 723 1
490 723 1
502 723 1
390 724 1
399 724 1
486 724 1
503 724 1
386 725 1
400 725 1
487 725 1
504 725 1
377 726 1
401 726 1
493 726 1
510 726 1
378 727 1
402 727 1
494 727 1
506 727 1
379 728 1
403 728 1
495 728 1
507 728 1
380 729 1
404 729 1
491 729 1
508 729 1
376 730 1
405 730 1
492 730 1
509 730 1
382 731 1
391 731 1
483 731 1
500 731 1
383 732 1
392 732 1
484 732 1
496 732 1
384 733 1
393 733 1
485 733 1
497 733 1
385 734 1
394 734 1
481 734 1
498 734 1
381 735 1
395 735 1
482 735 1
499 735 1
366 736 1
402 736 1
458 736 1
520 736 1
367 737 1
403 737 1
459 737 1
516 737 1
368 738 1
404 738 1
460 738 1
517 738 1
369 739 1
405 739 1
456 739 1
518 739 1
370 740 1
401 740 1
457 740 1
519 740 1
371 741 1
392 741 1
463 741 1
525 741 1
372 742 1
393 742 1
464 742 1
521 742 1
373 743 1
394 743 1
465 743 1
522 743 1
374 744 1
395 744 1
461 744 1
523 744 1
375 745 1
391 745 1
462 745 1
524 745 1
361 746 1
397 746 1
453 746 1
515 746 1
362 747 1
398 747 1
454 747 1
511 747 1
363 748 1
399 748 1
455 748 1
512 748 1
364 749 1
400 749 1
451 749 1
513 749 1
365 750 1
396 750 1
452 750 1
514 750 1
372 751 1
381 751 1
473 751 1
535 751 1
373 752 1
382 752 1
474 752 1
531 752 1
374 753 1
383 753 1
475 753 1
532 753 1
375 754 1
384 754 1
471 754 1
533 754 1
371 755 1
385 755 1
472 755 1
534 755 1
362 756 1
386 756 1
478 756 1
540 756 1
363 757 1
387 757 1
479 757 1
536 757 1
364 758 1
388 758 1
480 758 1
537 758 1
365 759 1
389 759 1
476 759 1
538 759 1
361 760 1
390 760 1
477 760 1
539 760 1
367 761 1
376 761 1
468 761 1
530 761 1
368 762 1
377 762 1
469 762 1
526 762 1
369 763 1
378 763 1
470 763 1
527 763 1
370 764 1
379 764 1
466 764 1
528 764 1
366 765 1
380 765 1
467 765 1
529 765 1
297 766 1
306 766 1
415 766 1
533 766 1
298 767 1
307 767 1
411 767 1
534 767 1
299 768 1
308 768 1
412 768 1
535 768 1
300 769 1
309 769 1
413 769 1
531 769 1
296 770 1
310 770 1
414 770 1
532 770 1
287 771 1
311 771 1
420 771 1
538 771 1
288 772 1
312 772 1
416 772 1
539 772 1
289 773 1
313 773 1
417 773 1
540 773 1
290 774 1
314 774 1
418 774 1
536 774 1
286 775 1
315 775 1
419 775 1
537 775 1
292 776 1
301 776 1
410 776 1
528 776 1
293 777 1
302 777 1
406 777 1
529 777 1
294 778 1
303 778 1
407 778 1
530 778 1
295 779 1
304 779 1
408 779 1
526 779 1
291 780 1
305 780 1
409 780 1
527 780 1
276 781 1
312 781 1
430 781 1
503 781 1
277 782 1
313 782 1
426 782 1
504 782 1
278 783 1
314 783 1
427 783 1
505 783 1
279 784 1
315 784 1
428 784 1
501 784 1
280 785 1
311 785 1
429 785 1
502 785 1
281 786 1
302 786 1
435 786 1
508 786 1
282 787 1
303 787 1
431 787 1
509 787 1
283 788 1
304 788 1
432 788 1
510 788 1
284 789 1
305 789 1
433 789 1
506 789 1
285 790 1
301 790 1
434 790 1
507 790 1
271 791 1
307 791 1
425 791 1
498 791 1
272 792 1
308 792 1
421 792 1
499 792 1
273 793 1
309 793 1
422 793 1
500 793 1
274 794 1
310 794 1
423 794 1
496 794 1
275 795 1
306 795 1
424 795 1
497 795 1
282 796 1
291 796 1
445 796 1
518 796 1
283 797 1
292 797 1
441 797 1
519 797 1
284 798 1
293 798 1
442 798 1
520 798 1
285 799 1
294 799 1
443 799 1
516 799 1
281 800 1
295 800 1
444 800 1
517 800 1
272 801 1
296 801 1
450 801 1
523 801 1
273 802 1
297 802 1
446 802 1
524 802 1
274 803 1
298 803 1
447 803 1
525 803 1
275 804 1
299 804 1
448 804 1
521 804 1
271 805 1
300 805 1
449 805 1
522 805 1
277 806 1
286 806 1
440 806 1
513 806 1
278 807 1
287 807 1
436 807 1
514 807 1
279 808 1
288 808 1
437 808 1
515 808 1
280 809 1
289 809 1
438 809 1
511 809 1
276 810 1
290 810 1
439 810 1
512 810 1
