%%MatrixMarket matrix coordinate integer general
% Binary matrix; one-based indices; arithmetic over GF(2)
480 480 2880
1 1 1
16 1 1
49 1 1
60 1 1
193 1 1
201 1 1
2 2 1
17 2 1
50 2 1
61 2 1
194 2 1
202 2 1
3 3 1
18 3 1
51 3 1
62 3 1
195 3 1
203 3 1
4 4 1
19 4 1
52 4 1
63 4 1
196 4 1
204 4 1
5 5 1
20 5 1
53 5 1
64 5 1
197 5 1
205 5 1
6 6 1
21 6 1
54 6 1
65 6 1
198 6 1
206 6 1
7 7 1
22 7 1
55 7 1
66 7 1
199 7 1
207 7 1
8 8 1
23 8 1
56 8 1
67 8 1
200 8 1
208 8 1
9 9 1
24 9 1
57 9 1
68 9 1
201 9 1
209 9 1
10 10 1
25 10 1
58 10 1
69 10 1
202 10 1
210 10 1
11 11 1
26 11 1
59 11 1
70 11 1
203 11 1
211 11 1
12 12 1
27 12 1
60 12 1
71 12 1
204 12 1
212 12 1
13 13 1
28 13 1
61 13 1
72 13 1
205 13 1
213 13 1
14 14 1
29 14 1
62 14 1
73 14 1
206 14 1
214 14 1
15 15 1
30 15 1
63 15 1
74 15 1
207 15 1
215 15 1
16 16 1
31 16 1
64 16 1
75 16 1
208 16 1
216 16 1
17 17 1
32 17 1
65 17 1
76 17 1
209 17 1
217 17 1
18 18 1
33 18 1
66 18 1
77 18 1
210 18 1
218 18 1
19 19 1
34 19 1
67 19 1
78 19 1
211 19 1
219 19 1
20 20 1
35 20 1
68 20 1
79 20 1
212 20 1
220 20 1
21 21 1
36 21 1
69 21 1
80 21 1
213 21 1
221 21 1
22 22 1
37 22 1
70 22 1
81 22 1
214 22 1
222 22 1
23 23 1
38 23 1
71 23 1
82 23 1
215 23 1
223 23 1
24 24 1
39 24 1
72 24 1
83 24 1
216 24 1
224 24 1
25 25 1
40 25 1
73 25 1
84 25 1
217 25 1
225 25 1
26 26 1
41 26 1
74 26 1
85 26 1
218 26 1
226 26 1
27 27 1
42 27 1
75 27 1
86 27 1
219 27 1
227 27 1
28 28 1
43 28 1
76 28 1
87 28 1
220 28 1
228 28 1
29 29 1
44 29 1
77 29 1
88 29 1
221 29 1
229 29 1
30 30 1
45 30 1
78 30 1
89 30 1
222 30 1
230 30 1
31 31 1
46 31 1
79 31 1
90 31 1
223 31 1
231 31 1
32 32 1
47 32 1
80 32 1
91 32 1
224 32 1
232 32 1
33 33 1
48 33 1
81 33 1
92 33 1
225 33 1
233 33 1
1 34 1
34 34 1
82 34 1
93 34 1
226 34 1
234 34 1
2 35 1
35 35 1
83 35 1
94 35 1
227 35 1
235 35 1
3 36 1
36 36 1
84 36 1
95 36 1
228 36 1
236 36 1
4 37 1
37 37 1
85 37 1
96 37 1
229 37 1
237 37 1
5 38 1
38 38 1
49 38 1
86 38 1
230 38 1
238 38 1
6 39 1
39 39 1
50 39 1
87 39 1
231 39 1
239 39 1
7 40 1
40 40 1
51 40 1
88 40 1
232 40 1
240 40 1
8 41 1
41 41 1
52 41 1
89 41 1
193 41 1
233 41 1
9 42 1
42 42 1
53 42 1
90 42 1
194 42 1
234 42 1
10 43 1
43 43 1
54 43 1
91 43 1
195 43 1
235 43 1
11 44 1
44 44 1
55 44 1
92 44 1
196 44 1
236 44 1
12 45 1
45 45 1
56 45 1
93 45 1
197 45 1
237 45 1
13 46 1
46 46 1
57 46 1
94 46 1
198 46 1
238 46 1
14 47 1
47 47 1
58 47 1
95 47 1
199 47 1
239 47 1
15 48 1
48 48 1
59 48 1
96 48 1
200 48 1
240 48 1
1 49 1
18 49 1
97 49 1
108 49 1
241 49 1
249 49 1
2 50 1
19 50 1
98 50 1
109 50 1
242 50 1
250 50 1
3 51 1
20 51 1
99 51 1
110 51 1
243 51 1
251 51 1
4 52 1
21 52 1
100 52 1
111 52 1
244 52 1
252 52 1
5 53 1
22 53 1
101 53 1
112 53 1
245 53 1
253 53 1
6 54 1
23 54 1
102 54 1
113 54 1
246 54 1
254 54 1
7 55 1
24 55 1
103 55 1
114 55 1
247 55 1
255 55 1
8 56 1
25 56 1
104 56 1
115 56 1
248 56 1
256 56 1
9 57 1
26 57 1
105 57 1
116 57 1
249 57 1
257 57 1
10 58 1
27 58 1
106 58 1
117 58 1
250 58 1
258 58 1
11 59 1
28 59 1
107 59 1
118 59 1
251 59 1
259 59 1
12 60 1
29 60 1
108 60 1
119 60 1
252 60 1
260 60 1
13 61 1
30 61 1
109 61 1
120 61 1
253 61 1
261 61 1
14 62 1
31 62 1
110 62 1
121 62 1
254 62 1
262 62 1
15 63 1
32 63 1
111 63 1
122 63 1
255 63 1
263 63 1
16 64 1
33 64 1
112 64 1
123 64 1
256 64 1
264 64 1
17 65 1
34 65 1
113 65 1
124 65 1
257 65 1
265 65 1
18 66 1
35 66 1
114 66 1
125 66 1
258 66 1
266 66 1
19 67 1
36 67 1
115 67 1
126 67 1
259 67 1
267 67 1
20 68 1
37 68 1
116 68 1
127 68 1
260 68 1
268 68 1
21 69 1
38 69 1
117 69 1
128 69 1
261 69 1
269 69 1
22 70 1
39 70 1
118 70 1
129 70 1
262 70 1
270 70 1
23 71 1
40 71 1
119 71 1
130 71 1
263 71 1
271 71 1
24 72 1
41 72 1
120 72 1
131 72 1
264 72 1
272 72 1
25 73 1
42 73 1
121 73 1
132 73 1
265 73 1
273 73 1
26 74 1
43 74 1
122 74 1
133 74 1
266 74 1
274 74 1
27 75 1
44 75 1
123 75 1
134 75 1
267 75 1
275 75 1
28 76 1
45 76 1
124 76 1
135 76 1
268 76 1
276 76 1
29 77 1
46 77 1
125 77 1
136 77 1
269 77 1
277 77 1
30 78 1
47 78 1
126 78 1
137 78 1
270 78 1
278 78 1
31 79 1
48 79 1
127 79 1
138 79 1
271 79 1
279 79 1
1 80 1
32 80 1
128 80 1
139 80 1
272 80 1
280 80 1
2 81 1
33 81 1
129 81 1
140 81 1
273 81 1
281 81 1
3 82 1
34 82 1
130 82 1
141 82 1
274 82 1
282 82 1
4 83 1
35 83 1
131 83 1
142 83 1
275 83 1
283 83 1
5 84 1
36 84 1
132 84 1
143 84 1
276 84 1
284 84 1
6 85 1
37 85 1
133 85 1
144 85 1
277 85 1
285 85 1
7 86 1
38 86 1
97 86 1
134 86 1
278 86 1
286 86 1
8 87 1
39 87 1
98 87 1
135 87 1
279 87 1
287 87 1
9 88 1
40 88 1
99 88 1
136 88 1
280 88 1
288 88 1
10 89 1
41 89 1
100 89 1
137 89 1
241 89 1
281 89 1
11 90 1
42 90 1
101 90 1
138 90 1
242 90 1
282 90 1
12 91 1
43 91 1
102 91 1
139 91 1
243 91 1
283 91 1
13 92 1
44 92 1
103 92 1
140 92 1
244 92 1
284 92 1
14 93 1
45 93 1
104 93 1
141 93 1
245 93 1
285 93 1
15 94 1
46 94 1
105 94 1
142 94 1
246 94 1
286 94 1
16 95 1
47 95 1
106 95 1
143 95 1
247 95 1
287 95 1
17 96 1
48 96 1
107 96 1
144 96 1
248 96 1
288 96 1
1 97 1
39 97 1
145 97 1
156 97 1
289 97 1
297 97 1
2 98 1
40 98 1
146 98 1
157 98 1
290 98 1
298 98 1
3 99 1
41 99 1
147 99 1
158 99 1
291 99 1
299 99 1
4 100 1
42 100 1
148 100 1
159 100 1
292 100 1
300 100 1
5 101 1
43 101 1
149 101 1
160 101 1
293 101 1
301 101 1
6 102 1
44 102 1
150 102 1
161 102 1
294 102 1
302 102 1
7 103 1
45 103 1
151 103 1
162 103 1
295 103 1
303 103 1
8 104 1
46 104 1
152 104 1
163 104 1
296 104 1
304 104 1
9 105 1
47 105 1
153 105 1
164 105 1
297 105 1
305 105 1
10 106 1
48 106 1
154 106 1
165 106 1
298 106 1
306 106 1
1 107 1
11 107 1
155 107 1
166 107 1
299 107 1
307 107 1
2 108 1
12 108 1
156 108 1
167 108 1
300 108 1
308 108 1
3 109 1
13 109 1
157 109 1
168 109 1
301 109 1
309 109 1
4 110 1
14 110 1
158 110 1
169 110 1
302 110 1
310 110 1
5 111 1
15 111 1
159 111 1
170 111 1
303 111 1
311 111 1
6 112 1
16 112 1
160 112 1
171 112 1
304 112 1
312 112 1
7 113 1
17 113 1
161 113 1
172 113 1
305 113 1
313 113 1
8 114 1
18 114 1
162 114 1
173 114 1
306 114 1
314 114 1
9 115 1
19 115 1
163 115 1
174 115 1
307 115 1
315 115 1
10 116 1
20 116 1
164 116 1
175 116 1
308 116 1
316 116 1
11 117 1
21 117 1
165 117 1
176 117 1
309 117 1
317 117 1
12 118 1
22 118 1
166 118 1
177 118 1
310 118 1
318 118 1
13 119 1
23 119 1
167 119 1
178 119 1
311 119 1
319 119 1
14 120 1
24 120 1
168 120 1
179 120 1
312 120 1
320 120 1
15 121 1
25 121 1
169 121 1
180 121 1
313 121 1
321 121 1
16 122 1
26 122 1
170 122 1
181 122 1
314 122 1
322 122 1
17 123 1
27 123 1
171 123 1
182 123 1
315 123 1
323 123 1
18 124 1
28 124 1
172 124 1
183 124 1
316 124 1
324 124 1
19 125 1
29 125 1
173 125 1
184 125 1
317 125 1
325 125 1
20 126 1
30 126 1
174 126 1
185 126 1
318 126 1
326 126 1
21 127 1
31 127 1
175 127 1
186 127 1
319 127 1
327 127 1
22 128 1
32 128 1
176 128 1
187 128 1
320 128 1
328 128 1
23 129 1
33 129 1
177 129 1
188 129 1
321 129 1
329 129 1
24 130 1
34 130 1
178 130 1
189 130 1
322 130 1
330 130 1
25 131 1
35 131 1
179 131 1
190 131 1
323 131 1
331 131 1
26 132 1
36 132 1
180 132 1
191 132 1
324 132 1
332 132 1
27 133 1
37 133 1
181 133 1
192 133 1
325 133 1
333 133 1
28 134 1
38 134 1
145 134 1
182 134 1
326 134 1
334 134 1
29 135 1
39 135 1
146 135 1
183 135 1
327 135 1
335 135 1
30 136 1
40 136 1
147 136 1
184 136 1
328 136 1
336 136 1
31 137 1
41 137 1
148 137 1
185 137 1
289 137 1
329 137 1
32 138 1
42 138 1
149 138 1
186 138 1
290 138 1
330 138 1
33 139 1
43 139 1
150 139 1
187 139 1
291 139 1
331 139 1
34 140 1
44 140 1
151 140 1
188 140 1
292 140 1
332 140 1
35 141 1
45 141 1
152 141 1
189 141 1
293 141 1
333 141 1
36 142 1
46 142 1
153 142 1
190 142 1
294 142 1
334 142 1
37 143 1
47 143 1
154 143 1
191 143 1
295 143 1
335 143 1
38 144 1
48 144 1
155 144 1
192 144 1
296 144 1
336 144 1
49 145 1
66 145 1
97 145 1
112 145 1
337 145 1
345 145 1
50 146 1
67 146 1
98 146 1
113 146 1
338 146 1
346 146 1
51 147 1
68 147 1
99 147 1
114 147 1
339 147 1
347 147 1
52 148 1
69 148 1
100 148 1
115 148 1
340 148 1
348 148 1
53 149 1
70 149 1
101 149 1
116 149 1
341 149 1
349 149 1
54 150 1
71 150 1
102 150 1
117 150 1
342 150 1
350 150 1
55 151 1
72 151 1
103 151 1
118 151 1
343 151 1
351 151 1
56 152 1
73 152 1
104 152 1
119 152 1
344 152 1
352 152 1
57 153 1
74 153 1
105 153 1
120 153 1
345 153 1
353 153 1
58 154 1
75 154 1
106 154 1
121 154 1
346 154 1
354 154 1
59 155 1
76 155 1
107 155 1
122 155 1
347 155 1
355 155 1
60 156 1
77 156 1
108 156 1
123 156 1
348 156 1
356 156 1
61 157 1
78 157 1
109 157 1
124 157 1
349 157 1
357 157 1
62 158 1
79 158 1
110 158 1
125 158 1
350 158 1
358 158 1
63 159 1
80 159 1
111 159 1
126 159 1
351 159 1
359 159 1
64 160 1
81 160 1
112 160 1
127 160 1
352 160 1
360 160 1
65 161 1
82 161 1
113 161 1
128 161 1
353 161 1
361 161 1
66 162 1
83 162 1
114 162 1
129 162 1
354 162 1
362 162 1
67 163 1
84 163 1
115 163 1
130 163 1
355 163 1
363 163 1
68 164 1
85 164 1
116 164 1
131 164 1
356 164 1
364 164 1
69 165 1
86 165 1
117 165 1
132 165 1
357 165 1
365 165 1
70 166 1
87 166 1
118 166 1
133 166 1
358 166 1
366 166 1
71 167 1
88 167 1
119 167 1
134 167 1
359 167 1
367 167 1
72 168 1
89 168 1
120 168 1
135 168 1
360 168 1
368 168 1
73 169 1
90 169 1
121 169 1
136 169 1
361 169 1
369 169 1
74 170 1
91 170 1
122 170 1
137 170 1
362 170 1
370 170 1
75 171 1
92 171 1
123 171 1
138 171 1
363 171 1
371 171 1
76 172 1
93 172 1
124 172 1
139 172 1
364 172 1
372 172 1
77 173 1
94 173 1
125 173 1
140 173 1
365 173 1
373 173 1
78 174 1
95 174 1
126 174 1
141 174 1
366 174 1
374 174 1
79 175 1
96 175 1
127 175 1
142 175 1
367 175 1
375 175 1
49 176 1
80 176 1
128 176 1
143 176 1
368 176 1
376 176 1
50 177 1
81 177 1
129 177 1
144 177 1
369 177 1
377 177 1
51 178 1
82 178 1
97 178 1
130 178 1
370 178 1
378 178 1
52 179 1
83 179 1
98 179 1
131 179 1
371 179 1
379 179 1
53 180 1
84 180 1
99 180 1
132 180 1
372 180 1
380 180 1
54 181 1
85 181 1
100 181 1
133 181 1
373 181 1
381 181 1
55 182 1
86 182 1
101 182 1
134 182 1
374 182 1
382 182 1
56 183 1
87 183 1
102 183 1
135 183 1
375 183 1
383 183 1
57 184 1
88 184 1
103 184 1
136 184 1
376 184 1
384 184 1
58 185 1
89 185 1
104 185 1
137 185 1
337 185 1
377 185 1
59 186 1
90 186 1
105 186 1
138 186 1
338 186 1
378 186 1
60 187 1
91 187 1
106 187 1
139 187 1
339 187 1
379 187 1
61 188 1
92 188 1
107 188 1
140 188 1
340 188 1
380 188 1
62 189 1
93 189 1
108 189 1
141 189 1
341 189 1
381 189 1
63 190 1
94 190 1
109 190 1
142 190 1
342 190 1
382 190 1
64 191 1
95 191 1
110 191 1
143 191 1
343 191 1
383 191 1
65 192 1
96 192 1
111 192 1
144 192 1
344 192 1
384 192 1
49 193 1
87 193 1
145 193 1
160 193 1
385 193 1
393 193 1
50 194 1
88 194 1
146 194 1
161 194 1
386 194 1
394 194 1
51 195 1
89 195 1
147 195 1
162 195 1
387 195 1
395 195 1
52 196 1
90 196 1
148 196 1
163 196 1
388 196 1
396 196 1
53 197 1
91 197 1
149 197 1
164 197 1
389 197 1
397 197 1
54 198 1
92 198 1
150 198 1
165 198 1
390 198 1
398 198 1
55 199 1
93 199 1
151 199 1
166 199 1
391 199 1
399 199 1
56 200 1
94 200 1
152 200 1
167 200 1
392 200 1
400 200 1
57 201 1
95 201 1
153 201 1
168 201 1
393 201 1
401 201 1
58 202 1
96 202 1
154 202 1
169 202 1
394 202 1
402 202 1
49 203 1
59 203 1
155 203 1
170 203 1
395 203 1
403 203 1
50 204 1
60 204 1
156 204 1
171 204 1
396 204 1
404 204 1
51 205 1
61 205 1
157 205 1
172 205 1
397 205 1
405 205 1
52 206 1
62 206 1
158 206 1
173 206 1
398 206 1
406 206 1
53 207 1
63 207 1
159 207 1
174 207 1
399 207 1
407 207 1
54 208 1
64 208 1
160 208 1
175 208 1
400 208 1
408 208 1
55 209 1
65 209 1
161 209 1
176 209 1
401 209 1
409 209 1
56 210 1
66 210 1
162 210 1
177 210 1
402 210 1
410 210 1
57 211 1
67 211 1
163 211 1
178 211 1
403 211 1
411 211 1
58 212 1
68 212 1
164 212 1
179 212 1
404 212 1
412 212 1
59 213 1
69 213 1
165 213 1
180 213 1
405 213 1
413 213 1
60 214 1
70 214 1
166 214 1
181 214 1
406 214 1
414 214 1
61 215 1
71 215 1
167 215 1
182 215 1
407 215 1
415 215 1
62 216 1
72 216 1
168 216 1
183 216 1
408 216 1
416 216 1
63 217 1
73 217 1
169 217 1
184 217 1
409 217 1
417 217 1
64 218 1
74 218 1
170 218 1
185 218 1
410 218 1
418 218 1
65 219 1
75 219 1
171 219 1
186 219 1
411 219 1
419 219 1
66 220 1
76 220 1
172 220 1
187 220 1
412 220 1
420 220 1
67 221 1
77 221 1
173 221 1
188 221 1
413 221 1
421 221 1
68 222 1
78 222 1
174 222 1
189 222 1
414 222 1
422 222 1
69 223 1
79 223 1
175 223 1
190 223 1
415 223 1
423 223 1
70 224 1
80 224 1
176 224 1
191 224 1
416 224 1
424 224 1
71 225 1
81 225 1
177 225 1
192 225 1
417 225 1
425 225 1
72 226 1
82 226 1
145 226 1
178 226 1
418 226 1
426 226 1
73 227 1
83 227 1
146 227 1
179 227 1
419 227 1
427 227 1
74 228 1
84 228 1
147 228 1
180 228 1
420 228 1
428 228 1
75 229 1
85 229 1
148 229 1
181 229 1
421 229 1
429 229 1
76 230 1
86 230 1
149 230 1
182 230 1
422 230 1
430 230 1
77 231 1
87 231 1
150 231 1
183 231 1
423 231 1
431 231 1
78 232 1
88 232 1
151 232 1
184 232 1
424 232 1
432 232 1
79 233 1
89 233 1
152 233 1
185 233 1
385 233 1
425 233 1
80 234 1
90 234 1
153 234 1
186 234 1
386 234 1
426 234 1
81 235 1
91 235 1
154 235 1
187 235 1
387 235 1
427 235 1
82 236 1
92 236 1
155 236 1
188 236 1
388 236 1
428 236 1
83 237 1
93 237 1
156 237 1
189 237 1
389 237 1
429 237 1
84 238 1
94 238 1
157 238 1
190 238 1
390 238 1
430 238 1
85 239 1
95 239 1
158 239 1
191 239 1
391 239 1
431 239 1
86 240 1
96 240 1
159 240 1
192 240 1
392 240 1
432 240 1
97 241 1
135 241 1
145 241 1
162 241 1
433 241 1
441 241 1
98 242 1
136 242 1
146 242 1
163 242 1
434 242 1
442 242 1
99 243 1
137 243 1
147 243 1
164 243 1
435 243 1
443 243 1
100 244 1
138 244 1
148 244 1
165 244 1
436 244 1
444 244 1
101 245 1
139 245 1
149 245 1
166 245 1
437 245 1
445 245 1
102 246 1
140 246 1
150 246 1
167 246 1
438 246 1
446 246 1
103 247 1
141 247 1
151 247 1
168 247 1
439 247 1
447 247 1
104 248 1
142 248 1
152 248 1
169 248 1
440 248 1
448 248 1
105 249 1
143 249 1
153 249 1
170 249 1
441 249 1
449 249 1
106 250 1
144 250 1
154 250 1
171 250 1
442 250 1
450 250 1
97 251 1
107 251 1
155 251 1
172 251 1
443 251 1
451 251 1
98 252 1
108 252 1
156 252 1
173 252 1
444 252 1
452 252 1
99 253 1
109 253 1
157 253 1
174 253 1
445 253 1
453 253 1
100 254 1
110 254 1
158 254 1
175 254 1
446 254 1
454 254 1
101 255 1
111 255 1
159 255 1
176 255 1
447 255 1
455 255 1
102 256 1
112 256 1
160 256 1
177 256 1
448 256 1
456 256 1
103 257 1
113 257 1
161 257 1
178 257 1
449 257 1
457 257 1
104 258 1
114 258 1
162 258 1
179 258 1
450 258 1
458 258 1
105 259 1
115 259 1
163 259 1
180 259 1
451 259 1
459 259 1
106 260 1
116 260 1
164 260 1
181 260 1
452 260 1
460 260 1
107 261 1
117 261 1
165 261 1
182 261 1
453 261 1
461 261 1
108 262 1
118 262 1
166 262 1
183 262 1
454 262 1
462 262 1
109 263 1
119 263 1
167 263 1
184 263 1
455 263 1
463 263 1
110 264 1
120 264 1
168 264 1
185 264 1
456 264 1
464 264 1
111 265 1
121 265 1
169 265 1
186 265 1
457 265 1
465 265 1
112 266 1
122 266 1
170 266 1
187 266 1
458 266 1
466 266 1
113 267 1
123 267 1
171 267 1
188 267 1
459 267 1
467 267 1
114 268 1
124 268 1
172 268 1
189 268 1
460 268 1
468 268 1
115 269 1
125 269 1
173 269 1
190 269 1
461 269 1
469 269 1
116 270 1
126 270 1
174 270 1
191 270 1
462 270 1
470 270 1
117 271 1
127 271 1
175 271 1
192 271 1
463 271 1
471 271 1
118 272 1
128 272 1
145 272 1
176 272 1
464 272 1
472 272 1
119 273 1
129 273 1
146 273 1
177 273 1
465 273 1
473 273 1
120 274 1
130 274 1
147 274 1
178 274 1
466 274 1
474 274 1
121 275 1
131 275 1
148 275 1
179 275 1
467 275 1
475 275 1
122 276 1
132 276 1
149 276 1
180 276 1
468 276 1
476 276 1
123 277 1
133 277 1
150 277 1
181 277 1
469 277 1
477 277 1
124 278 1
134 278 1
151 278 1
182 278 1
470 278 1
478 278 1
125 279 1
135 279 1
152 279 1
183 279 1
471 279 1
479 279 1
126 280 1
136 280 1
153 280 1
184 280 1
472 280 1
480 280 1
127 281 1
137 281 1
154 281 1
185 281 1
433 281 1
473 281 1
128 282 1
138 282 1
155 282 1
186 282 1
434 282 1
474 282 1
129 283 1
139 283 1
156 283 1
187 283 1
435 283 1
475 283 1
130 284 1
140 284 1
157 284 1
188 284 1
436 284 1
476 284 1
131 285 1
141 285 1
158 285 1
189 285 1
437 285 1
477 285 1
132 286 1
142 286 1
159 286 1
190 286 1
438 286 1
478 286 1
133 287 1
143 287 1
160 287 1
191 287 1
439 287 1
479 287 1
134 288 1
144 288 1
161 288 1
192 288 1
440 288 1
480 288 1
193 289 1
210 289 1
241 289 1
256 289 1
337 289 1
348 289 1
194 290 1
211 290 1
242 290 1
257 290 1
338 290 1
349 290 1
195 291 1
212 291 1
243 291 1
258 291 1
339 291 1
350 291 1
196 292 1
213 292 1
244 292 1
259 292 1
340 292 1
351 292 1
197 293 1
214 293 1
245 293 1
260 293 1
341 293 1
352 293 1
198 294 1
215 294 1
246 294 1
261 294 1
342 294 1
353 294 1
199 295 1
216 295 1
247 295 1
262 295 1
343 295 1
354 295 1
200 296 1
217 296 1
248 296 1
263 296 1
344 296 1
355 296 1
201 297 1
218 297 1
249 297 1
264 297 1
345 297 1
356 297 1
202 298 1
219 298 1
250 298 1
265 298 1
346 298 1
357 298 1
203 299 1
220 299 1
251 299 1
266 299 1
347 299 1
358 299 1
204 300 1
221 300 1
252 300 1
267 300 1
348 300 1
359 300 1
205 301 1
222 301 1
253 301 1
268 301 1
349 301 1
360 301 1
206 302 1
223 302 1
254 302 1
269 302 1
350 302 1
361 302 1
207 303 1
224 303 1
255 303 1
270 303 1
351 303 1
362 303 1
208 304 1
225 304 1
256 304 1
271 304 1
352 304 1
363 304 1
209 305 1
226 305 1
257 305 1
272 305 1
353 305 1
364 305 1
210 306 1
227 306 1
258 306 1
273 306 1
354 306 1
365 306 1
211 307 1
228 307 1
259 307 1
274 307 1
355 307 1
366 307 1
212 308 1
229 308 1
260 308 1
275 308 1
356 308 1
367 308 1
213 309 1
230 309 1
261 309 1
276 309 1
357 309 1
368 309 1
214 310 1
231 310 1
262 310 1
277 310 1
358 310 1
369 310 1
215 311 1
232 311 1
263 311 1
278 311 1
359 311 1
370 311 1
216 312 1
233 312 1
264 312 1
279 312 1
360 312 1
371 312 1
217 313 1
234 313 1
265 313 1
280 313 1
361 313 1
372 313 1
218 314 1
235 314 1
266 314 1
281 314 1
362 314 1
373 314 1
219 315 1
236 315 1
267 315 1
282 315 1
363 315 1
374 315 1
220 316 1
237 316 1
268 316 1
283 316 1
364 316 1
375 316 1
221 317 1
238 317 1
269 317 1
284 317 1
365 317 1
376 317 1
222 318 1
239 318 1
270 318 1
285 318 1
366 318 1
377 318 1
223 319 1
240 319 1
271 319 1
286 319 1
367 319 1
378 319 1
193 320 1
224 320 1
272 320 1
287 320 1
368 320 1
379 320 1
194 321 1
225 321 1
273 321 1
288 321 1
369 321 1
380 321 1
195 322 1
226 322 1
241 322 1
274 322 1
370 322 1
381 322 1
196 323 1
227 323 1
242 323 1
275 323 1
371 323 1
382 323 1
197 324 1
228 324 1
243 324 1
276 324 1
372 324 1
383 324 1
198 325 1
229 325 1
244 325 1
277 325 1
373 325 1
384 325 1
199 326 1
230 326 1
245 326 1
278 326 1
337 326 1
374 326 1
200 327 1
231 327 1
246 327 1
279 327 1
338 327 1
375 327 1
201 328 1
232 328 1
247 328 1
280 328 1
339 328 1
376 328 1
202 329 1
233 329 1
248 329 1
281 329 1
340 329 1
377 329 1
203 330 1
234 330 1
249 330 1
282 330 1
341 330 1
378 330 1
204 331 1
235 331 1
250 331 1
283 331 1
342 331 1
379 331 1
205 332 1
236 332 1
251 332 1
284 332 1
343 332 1
380 332 1
206 333 1
237 333 1
252 333 1
285 333 1
344 333 1
381 333 1
207 334 1
238 334 1
253 334 1
286 334 1
345 334 1
382 334 1
208 335 1
239 335 1
254 335 1
287 335 1
346 335 1
383 335 1
209 336 1
240 336 1
255 336 1
288 336 1
347 336 1
384 336 1
193 337 1
231 337 1
289 337 1
304 337 1
385 337 1
396 337 1
194 338 1
232 338 1
290 338 1
305 338 1
386 338 1
397 338 1
195 339 1
233 339 1
291 339 1
306 339 1
387 339 1
398 339 1
196 340 1
234 340 1
292 340 1
307 340 1
388 340 1
399 340 1
197 341 1
235 341 1
293 341 1
308 341 1
389 341 1
400 341 1
198 342 1
236 342 1
294 342 1
309 342 1
390 342 1
401 342 1
199 343 1
237 343 1
295 343 1
310 343 1
391 343 1
402 343 1
200 344 1
238 344 1
296 344 1
311 344 1
392 344 1
403 344 1
201 345 1
239 345 1
297 345 1
312 345 1
393 345 1
404 345 1
202 346 1
240 346 1
298 346 1
313 346 1
394 346 1
405 346 1
193 347 1
203 347 1
299 347 1
314 347 1
395 347 1
406 347 1
194 348 1
204 348 1
300 348 1
315 348 1
396 348 1
407 348 1
195 349 1
205 349 1
301 349 1
316 349 1
397 349 1
408 349 1
196 350 1
206 350 1
302 350 1
317 350 1
398 350 1
409 350 1
197 351 1
207 351 1
303 351 1
318 351 1
399 351 1
410 351 1
198 352 1
208 352 1
304 352 1
319 352 1
400 352 1
411 352 1
199 353 1
209 353 1
305 353 1
320 353 1
401 353 1
412 353 1
200 354 1
210 354 1
306 354 1
321 354 1
402 354 1
413 354 1
201 355 1
211 355 1
307 355 1
322 355 1
403 355 1
414 355 1
202 356 1
212 356 1
308 356 1
323 356 1
404 356 1
415 356 1
203 357 1
213 357 1
309 357 1
324 357 1
405 357 1
416 357 1
204 358 1
214 358 1
310 358 1
325 358 1
406 358 1
417 358 1
205 359 1
215 359 1
311 359 1
326 359 1
407 359 1
418 359 1
206 360 1
216 360 1
312 360 1
327 360 1
408 360 1
419 360 1
207 361 1
217 361 1
313 361 1
328 361 1
409 361 1
420 361 1
208 362 1
218 362 1
314 362 1
329 362 1
410 362 1
421 362 1
209 363 1
219 363 1
315 363 1
330 363 1
411 363 1
422 363 1
210 364 1
220 364 1
316 364 1
331 364 1
412 364 1
423 364 1
211 365 1
221 365 1
317 365 1
332 365 1
413 365 1
424 365 1
212 366 1
222 366 1
318 366 1
333 366 1
414 366 1
425 366 1
213 367 1
223 367 1
319 367 1
334 367 1
415 367 1
426 367 1
214 368 1
224 368 1
320 368 1
335 368 1
416 368 1
427 368 1
215 369 1
225 369 1
321 369 1
336 369 1
417 369 1
428 369 1
216 370 1
226 370 1
289 370 1
322 370 1
418 370 1
429 370 1
217 371 1
227 371 1
290 371 1
323 371 1
419 371 1
430 371 1
218 372 1
228 372 1
291 372 1
324 372 1
420 372 1
431 372 1
219 373 1
229 373 1
292 373 1
325 373 1
421 373 1
432 373 1
220 374 1
230 374 1
293 374 1
326 374 1
385 374 1
422 374 1
221 375 1
231 375 1
294 375 1
327 375 1
386 375 1
423 375 1
222 376 1
232 376 1
295 376 1
328 376 1
387 376 1
424 376 1
223 377 1
233 377 1
296 377 1
329 377 1
388 377 1
425 377 1
224 378 1
234 378 1
297 378 1
330 378 1
389 378 1
426 378 1
225 379 1
235 379 1
298 379 1
331 379 1
390 379 1
427 379 1
226 380 1
236 380 1
299 380 1
332 380 1
391 380 1
428 380 1
227 381 1
237 381 1
300 381 1
333 381 1
392 381 1
429 381 1
228 382 1
238 382 1
301 382 1
334 382 1
393 382 1
430 382 1
229 383 1
239 383 1
302 383 1
335 383 1
394 383 1
431 383 1
230 384 1
240 384 1
303 384 1
336 384 1
395 384 1
432 384 1
241 385 1
279 385 1
289 385 1
306 385 1
433 385 1
444 385 1
242 386 1
280 386 1
290 386 1
307 386 1
434 386 1
445 386 1
243 387 1
281 387 1
291 387 1
308 387 1
435 387 1
446 387 1
244 388 1
282 388 1
292 388 1
309 388 1
436 388 1
447 388 1
245 389 1
283 389 1
293 389 1
310 389 1
437 389 1
448 389 1
246 390 1
284 390 1
294 390 1
311 390 1
438 390 1
449 390 1
247 391 1
285 391 1
295 391 1
312 391 1
439 391 1
450 391 1
248 392 1
286 392 1
296 392 1
313 392 1
440 392 1
451 392 1
249 393 1
287 393 1
297 393 1
314 393 1
441 393 1
452 393 1
250 394 1
288 394 1
298 394 1
315 394 1
442 394 1
453 394 1
241 395 1
251 395 1
299 395 1
316 395 1
443 395 1
454 395 1
242 396 1
252 396 1
300 396 1
317 396 1
444 396 1
455 396 1
243 397 1
253 397 1
301 397 1
318 397 1
445 397 1
456 397 1
244 398 1
254 398 1
302 398 1
319 398 1
446 398 1
457 398 1
245 399 1
255 399 1
303 399 1
320 399 1
447 399 1
458 399 1
246 400 1
256 400 1
304 400 1
321 400 1
448 400 1
459 400 1
247 401 1
257 401 1
305 401 1
322 401 1
449 401 1
460 401 1
248 402 1
258 402 1
306 402 1
323 402 1
450 402 1
461 402 1
249 403 1
259 403 1
307 403 1
324 403 1
451 403 1
462 403 1
250 404 1
260 404 1
308 404 1
325 404 1
452 404 1
463 404 1
251 405 1
261 405 1
309 405 1
326 405 1
453 405 1
464 405 1
252 406 1
262 406 1
310 406 1
327 406 1
454 406 1
465 406 1
253 407 1
263 407 1
311 407 1
328 407 1
455 407 1
466 407 1
254 408 1
264 408 1
312 408 1
329 408 1
456 408 1
467 408 1
255 409 1
265 409 1
313 409 1
330 409 1
457 409 1
468 409 1
256 410 1
266 410 1
314 410 1
331 410 1
458 410 1
469 410 1
257 411 1
267 411 1
315 411 1
332 411 1
459 411 1
470 411 1
258 412 1
268 412 1
316 412 1
333 412 1
460 412 1
471 412 1
259 413 1
269 413 1
317 413 1
334 413 1
461 413 1
472 413 1
260 414 1
270 414 1
318 414 1
335 414 1
462 414 1
473 414 1
261 415 1
271 415 1
319 415 1
336 415 1
463 415 1
474 415 1
262 416 1
272 416 1
289 416 1
320 416 1
464 416 1
475 416 1
263 417 1
273 417 1
290 417 1
321 417 1
465 417 1
476 417 1
264 418 1
274 418 1
291 418 1
322 418 1
466 418 1
477 418 1
265 419 1
275 419 1
292 419 1
323 419 1
467 419 1
478 419 1
266 420 1
276 420 1
293 420 1
324 420 1
468 420 1
479 420 1
267 421 1
277 421 1
294 421 1
325 421 1
469 421 1
480 421 1
268 422 1
278 422 1
295 422 1
326 422 1
433 422 1
470 422 1
269 423 1
279 423 1
296 423 1
327 423 1
434 423 1
471 423 1
270 424 1
280 424 1
297 424 1
328 424 1
435 424 1
472 424 1
271 425 1
281 425 1
298 425 1
329 425 1
436 425 1
473 425 1
272 426 1
282 426 1
299 426 1
330 426 1
437 426 1
474 426 1
273 427 1
283 427 1
300 427 1
331 427 1
438 427 1
475 427 1
274 428 1
284 428 1
301 428 1
332 428 1
439 428 1
476 428 1
275 429 1
285 429 1
302 429 1
333 429 1
440 429 1
477 429 1
276 430 1
286 430 1
303 430 1
334 430 1
441 430 1
478 430 1
277 431 1
287 431 1
304 431 1
335 431 1
442 431 1
479 431 1
278 432 1
288 432 1
305 432 1
336 432 1
443 432 1
480 432 1
337 433 1
375 433 1
385 433 1
402 433 1
433 433 1
448 433 1
338 434 1
376 434 1
386 434 1
403 434 1
434 434 1
449 434 1
339 435 1
377 435 1
387 435 1
404 435 1
435 435 1
450 435 1
340 436 1
378 436 1
388 436 1
405 436 1
436 436 1
451 436 1
341 437 1
379 437 1
389 437 1
406 437 1
437 437 1
452 437 1
342 438 1
380 438 1
390 438 1
407 438 1
438 438 1
453 438 1
343 439 1
381 439 1
391 439 1
408 439 1
439 439 1
454 439 1
344 440 1
382 440 1
392 440 1
409 440 1
440 440 1
455 440 1
345 441 1
383 441 1
393 441 1
410 441 1
441 441 1
456 441 1
346 442 1
384 442 1
394 442 1
411 442 1
442 442 1
457 442 1
337 443 1
347 443 1
395 443 1
412 443 1
443 443 1
458 443 1
338 444 1
348 444 1
396 444 1
413 444 1
444 444 1
459 444 1
339 445 1
349 445 1
397 445 1
414 445 1
445 445 1
460 445 1
340 446 1
350 446 1
398 446 1
415 446 1
446 446 1
461 446 1
341 447 1
351 447 1
399 447 1
416 447 1
447 447 1
462 447 1
342 448 1
352 448 1
400 448 1
417 448 1
448 448 1
463 448 1
343 449 1
353 449 1
401 449 1
418 449 1
449 449 1
464 449 1
344 450 1
354 450 1
402 450 1
419 450 1
450 450 1
465 450 1
345 451 1
355 451 1
403 451 1
420 451 1
451 451 1
466 451 1
346 452 1
356 452 1
404 452 1
421 452 1
452 452 1
467 452 1
347 453 1
357 453 1
405 453 1
422 453 1
453 453 1
468 453 1
348 454 1
358 454 1
406 454 1
423 454 1
454 454 1
469 454 1
349 455 1
359 455 1
407 455 1
424 455 1
455 455 1
470 455 1
350 456 1
360 456 1
408 456 1
425 456 1
456 456 1
471 456 1
351 457 1
361 457 1
409 457 1
426 457 1
457 457 1
472 457 1
352 458 1
362 458 1
410 458 1
427 458 1
458 458 1
473 458 1
353 459 1
363 459 1
411 459 1
428 459 1
459 459 1
474 459 1
354 460 1
364 460 1
412 460 1
429 460 1
460 460 1
475 460 1
355 461 1
365 461 1
413 461 1
430 461 1
461 461 1
476 461 1
356 462 1
366 462 1
414 462 1
431 462 1
462 462 1
477 462 1
357 463 1
367 463 1
415 463 1
432 463 1
463 463 1
478 463 1
358 464 1
368 464 1
385 464 1
416 464 1
464 464 1
479 464 1
359 465 1
369 465 1
386 465 1
417 465 1
465 465 1
480 465 1
360 466 1
370 466 1
387 466 1
418 466 1
433 466 1
466 466 1
361 467 1
371 467 1
388 467 1
419 467 1
434 467 1
467 467 1
362 468 1
372 468 1
389 468 1
420 468 1
435 468 1
468 468 1
363 469 1
373 469 1
390 469 1
421 469 1
436 469 1
469 469 1
364 470 1
374 470 1
391 470 1
422 470 1
437 470 1
470 470 1
365 471 1
375 471 1
392 471 1
423 471 1
438 471 1
471 471 1
366 472 1
376 472 1
393 472 1
424 472 1
439 472 1
472 472 1
367 473 1
377 473 1
394 473 1
425 473 1
440 473 1
473 473 1
368 474 1
378 474 1
395 474 1
426 474 1
441 474 1
474 474 1
369 475 1
379 475 1
396 475 1
427 475 1
442 475 1
475 475 1
370 476 1
380 476 1
397 476 1
428 476 1
443 476 1
476 476 1
371 477 1
381 477 1
398 477 1
429 477 1
444 477 1
477 477 1
372 478 1
382 478 1
399 478 1
430 478 1
445 478 1
478 478 1
373 479 1
383 479 1
400 479 1
431 479 1
446 479 1
479 479 1
374 480 1
384 480 1
401 480 1
432 480 1
447 480 1
480 480 1
