%%MatrixMarket matrix coordinate integer general
% Binary matrix; one-based indices; arithmetic over GF(2)
140 210 840
1 1 1
7 1 1
36 1 1
37 1 1
2 2 1
8 2 1
37 2 1
38 2 1
3 3 1
9 3 1
38 3 1
39 3 1
4 4 1
10 4 1
39 4 1
40 4 1
5 5 1
11 5 1
40 5 1
41 5 1
6 6 1
12 6 1
41 6 1
42 6 1
7 7 1
13 7 1
42 7 1
43 7 1
8 8 1
14 8 1
43 8 1
44 8 1
9 9 1
15 9 1
44 9 1
45 9 1
10 10 1
16 10 1
45 10 1
46 10 1
11 11 1
17 11 1
46 11 1
47 11 1
12 12 1
18 12 1
47 12 1
48 12 1
13 13 1
19 13 1
48 13 1
49 13 1
14 14 1
20 14 1
49 14 1
50 14 1
15 15 1
21 15 1
50 15 1
51 15 1
16 16 1
22 16 1
51 16 1
52 16 1
17 17 1
23 17 1
52 17 1
53 17 1
18 18 1
24 18 1
53 18 1
54 18 1
19 19 1
25 19 1
54 19 1
55 19 1
20 20 1
26 20 1
55 20 1
56 20 1
21 21 1
27 21 1
56 21 1
57 21 1
22 22 1
28 22 1
57 22 1
58 22 1
23 23 1
29 23 1
58 23 1
59 23 1
24 24 1
30 24 1
59 24 1
60 24 1
25 25 1
31 25 1
60 25 1
61 25 1
26 26 1
32 26 1
61 26 1
62 26 1
27 27 1
33 27 1
62 27 1
63 27 1
28 28 1
34 28 1
63 28 1
64 28 1
29 29 1
35 29 1
64 29 1
65 29 1
1 30 1
30 30 1
65 30 1
66 30 1
2 31 1
31 31 1
66 31 1
67 31 1
3 32 1
32 32 1
67 32 1
68 32 1
4 33 1
33 33 1
68 33 1
69 33 1
5 34 1
34 34 1
69 34 1
70 34 1
6 35 1
35 35 1
36 35 1
70 35 1
1 36 1
11 36 1
71 36 1
72 36 1
2 37 1
12 37 1
72 37 1
73 37 1
3 38 1
13 38 1
73 38 1
74 38 1
4 39 1
14 39 1
74 39 1
75 39 1
5 40 1
15 40 1
75 40 1
76 40 1
6 41 1
16 41 1
76 41 1
77 41 1
7 42 1
17 42 1
77 42 1
78 42 1
8 43 1
18 43 1
78 43 1
79 43 1
9 44 1
19 44 1
79 44 1
80 44 1
10 45 1
20 45 1
80 45 1
81 45 1
11 46 1
21 46 1
81 46 1
82 46 1
12 47 1
22 47 1
82 47 1
83 47 1
13 48 1
23 48 1
83 48 1
84 48 1
14 49 1
24 49 1
84 49 1
85 49 1
15 50 1
25 50 1
85 50 1
86 50 1
16 51 1
26 51 1
86 51 1
87 51 1
17 52 1
27 52 1
87 52 1
88 52 1
18 53 1
28 53 1
88 53 1
89 53 1
19 54 1
29 54 1
89 54 1
90 54 1
20 55 1
30 55 1
90 55 1
91 55 1
21 56 1
31 56 1
91 56 1
92 56 1
22 57 1
32 57 1
92 57 1
93 57 1
23 58 1
33 58 1
93 58 1
94 58 1
24 59 1
34 59 1
94 59 1
95 59 1
25 60 1
35 60 1
95 60 1
96 60 1
1 61 1
26 61 1
96 61 1
97 61 1
2 62 1
27 62 1
97 62 1
98 62 1
3 63 1
28 63 1
98 63 1
99 63 1
4 64 1
29 64 1
99 64 1
100 64 1
5 65 1
30 65 1
100 65 1
101 65 1
6 66 1
31 66 1
101 66 1
102 66 1
7 67 1
32 67 1
102 67 1
103 67 1
8 68 1
33 68 1
103 68 1
104 68 1
9 69 1
34 69 1
104 69 1
105 69 1
10 70 1
35 70 1
71 70 1
105 70 1
36 71 1
46 71 1
71 71 1
77 71 1
37 72 1
47 72 1
72 72 1
78 72 1
38 73 1
48 73 1
73 73 1
79 73 1
39 74 1
49 74 1
74 74 1
80 74 1
40 75 1
50 75 1
75 75 1
81 75 1
41 76 1
51 76 1
76 76 1
82 76 1
42 77 1
52 77 1
77 77 1
83 77 1
43 78 1
53 78 1
78 78 1
84 78 1
44 79 1
54 79 1
79 79 1
85 79 1
45 80 1
55 80 1
80 80 1
86 80 1
46 81 1
56 81 1
81 81 1
87 81 1
47 82 1
57 82 1
82 82 1
88 82 1
48 83 1
58 83 1
83 83 1
89 83 1
49 84 1
59 84 1
84 84 1
90 84 1
50 85 1
60 85 1
85 85 1
91 85 1
51 86 1
61 86 1
86 86 1
92 86 1
52 87 1
62 87 1
87 87 1
93 87 1
53 88 1
63 88 1
88 88 1
94 88 1
54 89 1
64 89 1
89 89 1
95 89 1
55 90 1
65 90 1
90 90 1
96 90 1
56 91 1
66 91 1
91 91 1
97 91 1
57 92 1
67 92 1
92 92 1
98 92 1
58 93 1
68 93 1
93 93 1
99 93 1
59 94 1
69 94 1
94 94 1
100 94 1
60 95 1
70 95 1
95 95 1
101 95 1
36 96 1
61 96 1
96 96 1
102 96 1
37 97 1
62 97 1
97 97 1
103 97 1
38 98 1
63 98 1
98 98 1
104 98 1
39 99 1
64 99 1
99 99 1
105 99 1
40 100 1
65 100 1
71 100 1
100 100 1
41 101 1
66 101 1
72 101 1
101 101 1
42 102 1
67 102 1
73 102 1
102 102 1
43 103 1
68 103 1
74 103 1
103 103 1
44 104 1
69 104 1
75 104 1
104 104 1
45 105 1
70 105 1
76 105 1
105 105 1
1 106 1
23 106 1
106 106 1
107 106 1
2 107 1
24 107 1
107 107 1
108 107 1
3 108 1
25 108 1
108 108 1
109 108 1
4 109 1
26 109 1
109 109 1
110 109 1
5 110 1
27 110 1
110 110 1
111 110 1
6 111 1
28 111 1
111 111 1
112 111 1
7 112 1
29 112 1
112 112 1
113 112 1
8 113 1
30 113 1
113 113 1
114 113 1
9 114 1
31 114 1
114 114 1
115 114 1
10 115 1
32 115 1
115 115 1
116 115 1
11 116 1
33 116 1
116 116 1
117 116 1
12 117 1
34 117 1
117 117 1
118 117 1
13 118 1
35 118 1
118 118 1
119 118 1
1 119 1
14 119 1
119 119 1
120 119 1
2 120 1
15 120 1
120 120 1
121 120 1
3 121 1
16 121 1
121 121 1
122 121 1
4 122 1
17 122 1
122 122 1
123 122 1
5 123 1
18 123 1
123 123 1
124 123 1
6 124 1
19 124 1
124 124 1
125 124 1
7 125 1
20 125 1
125 125 1
126 125 1
8 126 1
21 126 1
126 126 1
127 126 1
9 127 1
22 127 1
127 127 1
128 127 1
10 128 1
23 128 1
128 128 1
129 128 1
11 129 1
24 129 1
129 129 1
130 129 1
12 130 1
25 130 1
130 130 1
131 130 1
13 131 1
26 131 1
131 131 1
132 131 1
14 132 1
27 132 1
132 132 1
133 132 1
15 133 1
28 133 1
133 133 1
134 133 1
16 134 1
29 134 1
134 134 1
135 134 1
17 135 1
30 135 1
135 135 1
136 135 1
18 136 1
31 136 1
136 136 1
137 136 1
19 137 1
32 137 1
137 137 1
138 137 1
20 138 1
33 138 1
138 138 1
139 138 1
21 139 1
34 139 1
139 139 1
140 139 1
22 140 1
35 140 1
106 140 1
140 140 1
36 141 1
58 141 1
106 141 1
112 141 1
37 142 1
59 142 1
107 142 1
113 142 1
38 143 1
60 143 1
108 143 1
114 143 1
39 144 1
61 144 1
109 144 1
115 144 1
40 145 1
62 145 1
110 145 1
116 145 1
41 146 1
63 146 1
111 146 1
117 146 1
42 147 1
64 147 1
112 147 1
118 147 1
43 148 1
65 148 1
113 148 1
119 148 1
44 149 1
66 149 1
114 149 1
120 149 1
45 150 1
67 150 1
115 150 1
121 150 1
46 151 1
68 151 1
116 151 1
122 151 1
47 152 1
69 152 1
117 152 1
123 152 1
48 153 1
70 153 1
118 153 1
124 153 1
36 154 1
49 154 1
119 154 1
125 154 1
37 155 1
50 155 1
120 155 1
126 155 1
38 156 1
51 156 1
121 156 1
127 156 1
39 157 1
52 157 1
122 157 1
128 157 1
40 158 1
53 158 1
123 158 1
129 158 1
41 159 1
54 159 1
124 159 1
130 159 1
42 160 1
55 160 1
125 160 1
131 160 1
43 161 1
56 161 1
126 161 1
132 161 1
44 162 1
57 162 1
127 162 1
133 162 1
45 163 1
58 163 1
128 163 1
134 163 1
46 164 1
59 164 1
129 164 1
135 164 1
47 165 1
60 165 1
130 165 1
136 165 1
48 166 1
61 166 1
131 166 1
137 166 1
49 167 1
62 167 1
132 167 1
138 167 1
50 168 1
63 168 1
133 168 1
139 168 1
51 169 1
64 169 1
134 169 1
140 169 1
52 170 1
65 170 1
106 170 1
135 170 1
53 171 1
66 171 1
107 171 1
136 171 1
54 172 1
67 172 1
108 172 1
137 172 1
55 173 1
68 173 1
109 173 1
138 173 1
56 174 1
69 174 1
110 174 1
139 174 1
57 175 1
70 175 1
111 175 1
140 175 1
71 176 1
93 176 1
106 176 1
116 176 1
72 177 1
94 177 1
107 177 1
117 177 1
73 178 1
95 178 1
108 178 1
118 178 1
74 179 1
96 179 1
109 179 1
119 179 1
75 180 1
97 180 1
110 180 1
120 180 1
76 181 1
98 181 1
111 181 1
121 181 1
77 182 1
99 182 1
112 182 1
122 182 1
78 183 1
100 183 1
113 183 1
123 183 1
79 184 1
101 184 1
114 184 1
124 184 1
80 185 1
102 185 1
115 185 1
125 185 1
81 186 1
103 186 1
116 186 1
126 186 1
82 187 1
104 187 1
117 187 1
127 187 1
83 188 1
105 188 1
118 188 1
128 188 1
71 189 1
84 189 1
119 189 1
129 189 1
72 190 1
85 190 1
120 190 1
130 190 1
73 191 1
86 191 1
121 191 1
131 191 1
74 192 1
87 192 1
122 192 1
132 192 1
75 193 1
88 193 1
123 193 1
133 193 1
76 194 1
89 194 1
124 194 1
134 194 1
77 195 1
90 195 1
125 195 1
135 195 1
78 196 1
91 196 1
126 196 1
136 196 1
79 197 1
92 197 1
127 197 1
137 197 1
80 198 1
93 198 1
128 198 1
138 198 1
81 199 1
94 199 1
129 199 1
139 199 1
82 200 1
95 200 1
130 200 1
140 200 1
83 201 1
96 201 1
106 201 1
131 201 1
84 202 1
97 202 1
107 202 1
132 202 1
85 203 1
98 203 1
108 203 1
133 203 1
86 204 1
99 204 1
109 204 1
134 204 1
87 205 1
100 205 1
110 205 1
135 205 1
88 206 1
101 206 1
111 206 1
136 206 1
89 207 1
102 207 1
112 207 1
137 207 1
90 208 1
103 208 1
113 208 1
138 208 1
91 209 1
104 209 1
114 209 1
139 209 1
92 210 1
105 210 1
115 210 1
140 210 1
