%%MatrixMarket matrix coordinate integer general
% Binary matrix; one-based indices; arithmetic over GF(2)
615 820 4920
1 1 1
5 1 1
42 1 1
45 1 1
206 1 1
208 1 1
2 2 1
6 2 1
43 2 1
46 2 1
207 2 1
209 2 1
3 3 1
7 3 1
44 3 1
47 3 1
208 3 1
210 3 1
4 4 1
8 4 1
45 4 1
48 4 1
209 4 1
211 4 1
5 5 1
9 5 1
46 5 1
49 5 1
210 5 1
212 5 1
6 6 1
10 6 1
47 6 1
50 6 1
211 6 1
213 6 1
7 7 1
11 7 1
48 7 1
51 7 1
212 7 1
214 7 1
8 8 1
12 8 1
49 8 1
52 8 1
213 8 1
215 8 1
9 9 1
13 9 1
50 9 1
53 9 1
214 9 1
216 9 1
10 10 1
14 10 1
51 10 1
54 10 1
215 10 1
217 10 1
11 11 1
15 11 1
52 11 1
55 11 1
216 11 1
218 11 1
12 12 1
16 12 1
53 12 1
56 12 1
217 12 1
219 12 1
13 13 1
17 13 1
54 13 1
57 13 1
218 13 1
220 13 1
14 14 1
18 14 1
55 14 1
58 14 1
219 14 1
221 14 1
15 15 1
19 15 1
56 15 1
59 15 1
220 15 1
222 15 1
16 16 1
20 16 1
57 16 1
60 16 1
221 16 1
223 16 1
17 17 1
21 17 1
58 17 1
61 17 1
222 17 1
224 17 1
18 18 1
22 18 1
59 18 1
62 18 1
223 18 1
225 18 1
19 19 1
23 19 1
60 19 1
63 19 1
224 19 1
226 19 1
20 20 1
24 20 1
61 20 1
64 20 1
225 20 1
227 20 1
21 21 1
25 21 1
62 21 1
65 21 1
226 21 1
228 21 1
22 22 1
26 22 1
63 22 1
66 22 1
227 22 1
229 22 1
23 23 1
27 23 1
64 23 1
67 23 1
228 23 1
230 23 1
24 24 1
28 24 1
65 24 1
68 24 1
229 24 1
231 24 1
25 25 1
29 25 1
66 25 1
69 25 1
230 25 1
232 25 1
26 26 1
30 26 1
67 26 1
70 26 1
231 26 1
233 26 1
27 27 1
31 27 1
68 27 1
71 27 1
232 27 1
234 27 1
28 28 1
32 28 1
69 28 1
72 28 1
233 28 1
235 28 1
29 29 1
33 29 1
70 29 1
73 29 1
234 29 1
236 29 1
30 30 1
34 30 1
71 30 1
74 30 1
235 30 1
237 30 1
31 31 1
35 31 1
72 31 1
75 31 1
236 31 1
238 31 1
32 32 1
36 32 1
73 32 1
76 32 1
237 32 1
239 32 1
33 33 1
37 33 1
74 33 1
77 33 1
238 33 1
240 33 1
34 34 1
38 34 1
75 34 1
78 34 1
239 34 1
241 34 1
35 35 1
39 35 1
76 35 1
79 35 1
240 35 1
242 35 1
36 36 1
40 36 1
77 36 1
80 36 1
241 36 1
243 36 1
37 37 1
41 37 1
78 37 1
81 37 1
242 37 1
244 37 1
1 38 1
38 38 1
79 38 1
82 38 1
243 38 1
245 38 1
2 39 1
39 39 1
42 39 1
80 39 1
244 39 1
246 39 1
3 40 1
40 40 1
43 40 1
81 40 1
206 40 1
245 40 1
4 41 1
41 41 1
44 41 1
82 41 1
207 41 1
246 41 1
1 42 1
10 42 1
83 42 1
86 42 1
247 42 1
249 42 1
2 43 1
11 43 1
84 43 1
87 43 1
248 43 1
250 43 1
3 44 1
12 44 1
85 44 1
88 44 1
249 44 1
251 44 1
4 45 1
13 45 1
86 45 1
89 45 1
250 45 1
252 45 1
5 46 1
14 46 1
87 46 1
90 46 1
251 46 1
253 46 1
6 47 1
15 47 1
88 47 1
91 47 1
252 47 1
254 47 1
7 48 1
16 48 1
89 48 1
92 48 1
253 48 1
255 48 1
8 49 1
17 49 1
90 49 1
93 49 1
254 49 1
256 49 1
9 50 1
18 50 1
91 50 1
94 50 1
255 50 1
257 50 1
10 51 1
19 51 1
92 51 1
95 51 1
256 51 1
258 51 1
11 52 1
20 52 1
93 52 1
96 52 1
257 52 1
259 52 1
12 53 1
21 53 1
94 53 1
97 53 1
258 53 1
260 53 1
13 54 1
22 54 1
95 54 1
98 54 1
259 54 1
261 54 1
14 55 1
23 55 1
96 55 1
99 55 1
260 55 1
262 55 1
15 56 1
24 56 1
97 56 1
100 56 1
261 56 1
263 56 1
16 57 1
25 57 1
98 57 1
101 57 1
262 57 1
264 57 1
17 58 1
26 58 1
99 58 1
102 58 1
263 58 1
265 58 1
18 59 1
27 59 1
100 59 1
103 59 1
264 59 1
266 59 1
19 60 1
28 60 1
101 60 1
104 60 1
265 60 1
267 60 1
20 61 1
29 61 1
102 61 1
105 61 1
266 61 1
268 61 1
21 62 1
30 62 1
103 62 1
106 62 1
267 62 1
269 62 1
22 63 1
31 63 1
104 63 1
107 63 1
268 63 1
270 63 1
23 64 1
32 64 1
105 64 1
108 64 1
269 64 1
271 64 1
24 65 1
33 65 1
106 65 1
109 65 1
270 65 1
272 65 1
25 66 1
34 66 1
107 66 1
110 66 1
271 66 1
273 66 1
26 67 1
35 67 1
108 67 1
111 67 1
272 67 1
274 67 1
27 68 1
36 68 1
109 68 1
112 68 1
273 68 1
275 68 1
28 69 1
37 69 1
110 69 1
113 69 1
274 69 1
276 69 1
29 70 1
38 70 1
111 70 1
114 70 1
275 70 1
277 70 1
30 71 1
39 71 1
112 71 1
115 71 1
276 71 1
278 71 1
31 72 1
40 72 1
113 72 1
116 72 1
277 72 1
279 72 1
32 73 1
41 73 1
114 73 1
117 73 1
278 73 1
280 73 1
1 74 1
33 74 1
115 74 1
118 74 1
279 74 1
281 74 1
2 75 1
34 75 1
116 75 1
119 75 1
280 75 1
282 75 1
3 76 1
35 76 1
117 76 1
120 76 1
281 76 1
283 76 1
4 77 1
36 77 1
118 77 1
121 77 1
282 77 1
284 77 1
5 78 1
37 78 1
119 78 1
122 78 1
283 78 1
285 78 1
6 79 1
38 79 1
120 79 1
123 79 1
284 79 1
286 79 1
7 80 1
39 80 1
83 80 1
121 80 1
285 80 1
287 80 1
8 81 1
40 81 1
84 81 1
122 81 1
247 81 1
286 81 1
9 82 1
41 82 1
85 82 1
123 82 1
248 82 1
287 82 1
1 83 1
17 83 1
124 83 1
127 83 1
288 83 1
290 83 1
2 84 1
18 84 1
125 84 1
128 84 1
289 84 1
291 84 1
3 85 1
19 85 1
126 85 1
129 85 1
290 85 1
292 85 1
4 86 1
20 86 1
127 86 1
130 86 1
291 86 1
293 86 1
5 87 1
21 87 1
128 87 1
131 87 1
292 87 1
294 87 1
6 88 1
22 88 1
129 88 1
132 88 1
293 88 1
295 88 1
7 89 1
23 89 1
130 89 1
133 89 1
294 89 1
296 89 1
8 90 1
24 90 1
131 90 1
134 90 1
295 90 1
297 90 1
9 91 1
25 91 1
132 91 1
135 91 1
296 91 1
298 91 1
10 92 1
26 92 1
133 92 1
136 92 1
297 92 1
299 92 1
11 93 1
27 93 1
134 93 1
137 93 1
298 93 1
300 93 1
12 94 1
28 94 1
135 94 1
138 94 1
299 94 1
301 94 1
13 95 1
29 95 1
136 95 1
139 95 1
300 95 1
302 95 1
14 96 1
30 96 1
137 96 1
140 96 1
301 96 1
303 96 1
15 97 1
31 97 1
138 97 1
141 97 1
302 97 1
304 97 1
16 98 1
32 98 1
139 98 1
142 98 1
303 98 1
305 98 1
17 99 1
33 99 1
140 99 1
143 99 1
304 99 1
306 99 1
18 100 1
34 100 1
141 100 1
144 100 1
305 100 1
307 100 1
19 101 1
35 101 1
142 101 1
145 101 1
306 101 1
308 101 1
20 102 1
36 102 1
143 102 1
146 102 1
307 102 1
309 102 1
21 103 1
37 103 1
144 103 1
147 103 1
308 103 1
310 103 1
22 104 1
38 104 1
145 104 1
148 104 1
309 104 1
311 104 1
23 105 1
39 105 1
146 105 1
149 105 1
310 105 1
312 105 1
24 106 1
40 106 1
147 106 1
150 106 1
311 106 1
313 106 1
25 107 1
41 107 1
148 107 1
151 107 1
312 107 1
314 107 1
1 108 1
26 108 1
149 108 1
152 108 1
313 108 1
315 108 1
2 109 1
27 109 1
150 109 1
153 109 1
314 109 1
316 109 1
3 110 1
28 110 1
151 110 1
154 110 1
315 110 1
317 110 1
4 111 1
29 111 1
152 111 1
155 111 1
316 111 1
318 111 1
5 112 1
30 112 1
153 112 1
156 112 1
317 112 1
319 112 1
6 113 1
31 113 1
154 113 1
157 113 1
318 113 1
320 113 1
7 114 1
32 114 1
155 114 1
158 114 1
319 114 1
321 114 1
8 115 1
33 115 1
156 115 1
159 115 1
320 115 1
322 115 1
9 116 1
34 116 1
157 116 1
160 116 1
321 116 1
323 116 1
10 117 1
35 117 1
158 117 1
161 117 1
322 117 1
324 117 1
11 118 1
36 118 1
159 118 1
162 118 1
323 118 1
325 118 1
12 119 1
37 119 1
160 119 1
163 119 1
324 119 1
326 119 1
13 120 1
38 120 1
161 120 1
164 120 1
325 120 1
327 120 1
14 121 1
39 121 1
124 121 1
162 121 1
326 121 1
328 121 1
15 122 1
40 122 1
125 122 1
163 122 1
288 122 1
327 122 1
16 123 1
41 123 1
126 123 1
164 123 1
289 123 1
328 123 1
1 124 1
27 124 1
165 124 1
168 124 1
329 124 1
331 124 1
2 125 1
28 125 1
166 125 1
169 125 1
330 125 1
332 125 1
3 126 1
29 126 1
167 126 1
170 126 1
331 126 1
333 126 1
4 127 1
30 127 1
168 127 1
171 127 1
332 127 1
334 127 1
5 128 1
31 128 1
169 128 1
172 128 1
333 128 1
335 128 1
6 129 1
32 129 1
170 129 1
173 129 1
334 129 1
336 129 1
7 130 1
33 130 1
171 130 1
174 130 1
335 130 1
337 130 1
8 131 1
34 131 1
172 131 1
175 131 1
336 131 1
338 131 1
9 132 1
35 132 1
173 132 1
176 132 1
337 132 1
339 132 1
10 133 1
36 133 1
174 133 1
177 133 1
338 133 1
340 133 1
11 134 1
37 134 1
175 134 1
178 134 1
339 134 1
341 134 1
12 135 1
38 135 1
176 135 1
179 135 1
340 135 1
342 135 1
13 136 1
39 136 1
177 136 1
180 136 1
341 136 1
343 136 1
14 137 1
40 137 1
178 137 1
181 137 1
342 137 1
344 137 1
15 138 1
41 138 1
179 138 1
182 138 1
343 138 1
345 138 1
1 139 1
16 139 1
180 139 1
183 139 1
344 139 1
346 139 1
2 140 1
17 140 1
181 140 1
184 140 1
345 140 1
347 140 1
3 141 1
18 141 1
182 141 1
185 141 1
346 141 1
348 141 1
4 142 1
19 142 1
183 142 1
186 142 1
347 142 1
349 142 1
5 143 1
20 143 1
184 143 1
187 143 1
348 143 1
350 143 1
6 144 1
21 144 1
185 144 1
188 144 1
349 144 1
351 144 1
7 145 1
22 145 1
186 145 1
189 145 1
350 145 1
352 145 1
8 146 1
23 146 1
187 146 1
190 146 1
351 146 1
353 146 1
9 147 1
24 147 1
188 147 1
191 147 1
352 147 1
354 147 1
10 148 1
25 148 1
189 148 1
192 148 1
353 148 1
355 148 1
11 149 1
26 149 1
190 149 1
193 149 1
354 149 1
356 149 1
12 150 1
27 150 1
191 150 1
194 150 1
355 150 1
357 150 1
13 151 1
28 151 1
192 151 1
195 151 1
356 151 1
358 151 1
14 152 1
29 152 1
193 152 1
196 152 1
357 152 1
359 152 1
15 153 1
30 153 1
194 153 1
197 153 1
358 153 1
360 153 1
16 154 1
31 154 1
195 154 1
198 154 1
359 154 1
361 154 1
17 155 1
32 155 1
196 155 1
199 155 1
360 155 1
362 155 1
18 156 1
33 156 1
197 156 1
200 156 1
361 156 1
363 156 1
19 157 1
34 157 1
198 157 1
201 157 1
362 157 1
364 157 1
20 158 1
35 158 1
199 158 1
202 158 1
363 158 1
365 158 1
21 159 1
36 159 1
200 159 1
203 159 1
364 159 1
366 159 1
22 160 1
37 160 1
201 160 1
204 160 1
365 160 1
367 160 1
23 161 1
38 161 1
202 161 1
205 161 1
366 161 1
368 161 1
24 162 1
39 162 1
165 162 1
203 162 1
367 162 1
369 162 1
25 163 1
40 163 1
166 163 1
204 163 1
329 163 1
368 163 1
26 164 1
41 164 1
167 164 1
205 164 1
330 164 1
369 164 1
42 165 1
51 165 1
83 165 1
87 165 1
370 165 1
372 165 1
43 166 1
52 166 1
84 166 1
88 166 1
371 166 1
373 166 1
44 167 1
53 167 1
85 167 1
89 167 1
372 167 1
374 167 1
45 168 1
54 168 1
86 168 1
90 168 1
373 168 1
375 168 1
46 169 1
55 169 1
87 169 1
91 169 1
374 169 1
376 169 1
47 170 1
56 170 1
88 170 1
92 170 1
375 170 1
377 170 1
48 171 1
57 171 1
89 171 1
93 171 1
376 171 1
378 171 1
49 172 1
58 172 1
90 172 1
94 172 1
377 172 1
379 172 1
50 173 1
59 173 1
91 173 1
95 173 1
378 173 1
380 173 1
51 174 1
60 174 1
92 174 1
96 174 1
379 174 1
381 174 1
52 175 1
61 175 1
93 175 1
97 175 1
380 175 1
382 175 1
53 176 1
62 176 1
94 176 1
98 176 1
381 176 1
383 176 1
54 177 1
63 177 1
95 177 1
99 177 1
382 177 1
384 177 1
55 178 1
64 178 1
96 178 1
100 178 1
383 178 1
385 178 1
56 179 1
65 179 1
97 179 1
101 179 1
384 179 1
386 179 1
57 180 1
66 180 1
98 180 1
102 180 1
385 180 1
387 180 1
58 181 1
67 181 1
99 181 1
103 181 1
386 181 1
388 181 1
59 182 1
68 182 1
100 182 1
104 182 1
387 182 1
389 182 1
60 183 1
69 183 1
101 183 1
105 183 1
388 183 1
390 183 1
61 184 1
70 184 1
102 184 1
106 184 1
389 184 1
391 184 1
62 185 1
71 185 1
103 185 1
107 185 1
390 185 1
392 185 1
63 186 1
72 186 1
104 186 1
108 186 1
391 186 1
393 186 1
64 187 1
73 187 1
105 187 1
109 187 1
392 187 1
394 187 1
65 188 1
74 188 1
106 188 1
110 188 1
393 188 1
395 188 1
66 189 1
75 189 1
107 189 1
111 189 1
394 189 1
396 189 1
67 190 1
76 190 1
108 190 1
112 190 1
395 190 1
397 190 1
68 191 1
77 191 1
109 191 1
113 191 1
396 191 1
398 191 1
69 192 1
78 192 1
110 192 1
114 192 1
397 192 1
399 192 1
70 193 1
79 193 1
111 193 1
115 193 1
398 193 1
400 193 1
71 194 1
80 194 1
112 194 1
116 194 1
399 194 1
401 194 1
72 195 1
81 195 1
113 195 1
117 195 1
400 195 1
402 195 1
73 196 1
82 196 1
114 196 1
118 196 1
401 196 1
403 196 1
42 197 1
74 197 1
115 197 1
119 197 1
402 197 1
404 197 1
43 198 1
75 198 1
116 198 1
120 198 1
403 198 1
405 198 1
44 199 1
76 199 1
117 199 1
121 199 1
404 199 1
406 199 1
45 200 1
77 200 1
118 200 1
122 200 1
405 200 1
407 200 1
46 201 1
78 201 1
119 201 1
123 201 1
406 201 1
408 201 1
47 202 1
79 202 1
83 202 1
120 202 1
407 202 1
409 202 1
48 203 1
80 203 1
84 203 1
121 203 1
408 203 1
410 203 1
49 204 1
81 204 1
85 204 1
122 204 1
370 204 1
409 204 1
50 205 1
82 205 1
86 205 1
123 205 1
371 205 1
410 205 1
42 206 1
58 206 1
124 206 1
128 206 1
411 206 1
413 206 1
43 207 1
59 207 1
125 207 1
129 207 1
412 207 1
414 207 1
44 208 1
60 208 1
126 208 1
130 208 1
413 208 1
415 208 1
45 209 1
61 209 1
127 209 1
131 209 1
414 209 1
416 209 1
46 210 1
62 210 1
128 210 1
132 210 1
415 210 1
417 210 1
47 211 1
63 211 1
129 211 1
133 211 1
416 211 1
418 211 1
48 212 1
64 212 1
130 212 1
134 212 1
417 212 1
419 212 1
49 213 1
65 213 1
131 213 1
135 213 1
418 213 1
420 213 1
50 214 1
66 214 1
132 214 1
136 214 1
419 214 1
421 214 1
51 215 1
67 215 1
133 215 1
137 215 1
420 215 1
422 215 1
52 216 1
68 216 1
134 216 1
138 216 1
421 216 1
423 216 1
53 217 1
69 217 1
135 217 1
139 217 1
422 217 1
424 217 1
54 218 1
70 218 1
136 218 1
140 218 1
423 218 1
425 218 1
55 219 1
71 219 1
137 219 1
141 219 1
424 219 1
426 219 1
56 220 1
72 220 1
138 220 1
142 220 1
425 220 1
427 220 1
57 221 1
73 221 1
139 221 1
143 221 1
426 221 1
428 221 1
58 222 1
74 222 1
140 222 1
144 222 1
427 222 1
429 222 1
59 223 1
75 223 1
141 223 1
145 223 1
428 223 1
430 223 1
60 224 1
76 224 1
142 224 1
146 224 1
429 224 1
431 224 1
61 225 1
77 225 1
143 225 1
147 225 1
430 225 1
432 225 1
62 226 1
78 226 1
144 226 1
148 226 1
431 226 1
433 226 1
63 227 1
79 227 1
145 227 1
149 227 1
432 227 1
434 227 1
64 228 1
80 228 1
146 228 1
150 228 1
433 228 1
435 228 1
65 229 1
81 229 1
147 229 1
151 229 1
434 229 1
436 229 1
66 230 1
82 230 1
148 230 1
152 230 1
435 230 1
437 230 1
42 231 1
67 231 1
149 231 1
153 231 1
436 231 1
438 231 1
43 232 1
68 232 1
150 232 1
154 232 1
437 232 1
439 232 1
44 233 1
69 233 1
151 233 1
155 233 1
438 233 1
440 233 1
45 234 1
70 234 1
152 234 1
156 234 1
439 234 1
441 234 1
46 235 1
71 235 1
153 235 1
157 235 1
440 235 1
442 235 1
47 236 1
72 236 1
154 236 1
158 236 1
441 236 1
443 236 1
48 237 1
73 237 1
155 237 1
159 237 1
442 237 1
444 237 1
49 238 1
74 238 1
156 238 1
160 238 1
443 238 1
445 238 1
50 239 1
75 239 1
157 239 1
161 239 1
444 239 1
446 239 1
51 240 1
76 240 1
158 240 1
162 240 1
445 240 1
447 240 1
52 241 1
77 241 1
159 241 1
163 241 1
446 241 1
448 241 1
53 242 1
78 242 1
160 242 1
164 242 1
447 242 1
449 242 1
54 243 1
79 243 1
124 243 1
161 243 1
448 243 1
450 243 1
55 244 1
80 244 1
125 244 1
162 244 1
449 244 1
451 244 1
56 245 1
81 245 1
126 245 1
163 245 1
411 245 1
450 245 1
57 246 1
82 246 1
127 246 1
164 246 1
412 246 1
451 246 1
42 247 1
68 247 1
165 247 1
169 247 1
452 247 1
454 247 1
43 248 1
69 248 1
166 248 1
170 248 1
453 248 1
455 248 1
44 249 1
70 249 1
167 249 1
171 249 1
454 249 1
456 249 1
45 250 1
71 250 1
168 250 1
172 250 1
455 250 1
457 250 1
46 251 1
72 251 1
169 251 1
173 251 1
456 251 1
458 251 1
47 252 1
73 252 1
170 252 1
174 252 1
457 252 1
459 252 1
48 253 1
74 253 1
171 253 1
175 253 1
458 253 1
460 253 1
49 254 1
75 254 1
172 254 1
176 254 1
459 254 1
461 254 1
50 255 1
76 255 1
173 255 1
177 255 1
460 255 1
462 255 1
51 256 1
77 256 1
174 256 1
178 256 1
461 256 1
463 256 1
52 257 1
78 257 1
175 257 1
179 257 1
462 257 1
464 257 1
53 258 1
79 258 1
176 258 1
180 258 1
463 258 1
465 258 1
54 259 1
80 259 1
177 259 1
181 259 1
464 259 1
466 259 1
55 260 1
81 260 1
178 260 1
182 260 1
465 260 1
467 260 1
56 261 1
82 261 1
179 261 1
183 261 1
466 261 1
468 261 1
42 262 1
57 262 1
180 262 1
184 262 1
467 262 1
469 262 1
43 263 1
58 263 1
181 263 1
185 263 1
468 263 1
470 263 1
44 264 1
59 264 1
182 264 1
186 264 1
469 264 1
471 264 1
45 265 1
60 265 1
183 265 1
187 265 1
470 265 1
472 265 1
46 266 1
61 266 1
184 266 1
188 266 1
471 266 1
473 266 1
47 267 1
62 267 1
185 267 1
189 267 1
472 267 1
474 267 1
48 268 1
63 268 1
186 268 1
190 268 1
473 268 1
475 268 1
49 269 1
64 269 1
187 269 1
191 269 1
474 269 1
476 269 1
50 270 1
65 270 1
188 270 1
192 270 1
475 270 1
477 270 1
51 271 1
66 271 1
189 271 1
193 271 1
476 271 1
478 271 1
52 272 1
67 272 1
190 272 1
194 272 1
477 272 1
479 272 1
53 273 1
68 273 1
191 273 1
195 273 1
478 273 1
480 273 1
54 274 1
69 274 1
192 274 1
196 274 1
479 274 1
481 274 1
55 275 1
70 275 1
193 275 1
197 275 1
480 275 1
482 275 1
56 276 1
71 276 1
194 276 1
198 276 1
481 276 1
483 276 1
57 277 1
72 277 1
195 277 1
199 277 1
482 277 1
484 277 1
58 278 1
73 278 1
196 278 1
200 278 1
483 278 1
485 278 1
59 279 1
74 279 1
197 279 1
201 279 1
484 279 1
486 279 1
60 280 1
75 280 1
198 280 1
202 280 1
485 280 1
487 280 1
61 281 1
76 281 1
199 281 1
203 281 1
486 281 1
488 281 1
62 282 1
77 282 1
200 282 1
204 282 1
487 282 1
489 282 1
63 283 1
78 283 1
201 283 1
205 283 1
488 283 1
490 283 1
64 284 1
79 284 1
165 284 1
202 284 1
489 284 1
491 284 1
65 285 1
80 285 1
166 285 1
203 285 1
490 285 1
492 285 1
66 286 1
81 286 1
167 286 1
204 286 1
452 286 1
491 286 1
67 287 1
82 287 1
168 287 1
205 287 1
453 287 1
492 287 1
83 288 1
99 288 1
124 288 1
133 288 1
493 288 1
495 288 1
84 289 1
100 289 1
125 289 1
134 289 1
494 289 1
496 289 1
85 290 1
101 290 1
126 290 1
135 290 1
495 290 1
497 290 1
86 291 1
102 291 1
127 291 1
136 291 1
496 291 1
498 291 1
87 292 1
103 292 1
128 292 1
137 292 1
497 292 1
499 292 1
88 293 1
104 293 1
129 293 1
138 293 1
498 293 1
500 293 1
89 294 1
105 294 1
130 294 1
139 294 1
499 294 1
501 294 1
90 295 1
106 295 1
131 295 1
140 295 1
500 295 1
502 295 1
91 296 1
107 296 1
132 296 1
141 296 1
501 296 1
503 296 1
92 297 1
108 297 1
133 297 1
142 297 1
502 297 1
504 297 1
93 298 1
109 298 1
134 298 1
143 298 1
503 298 1
505 298 1
94 299 1
110 299 1
135 299 1
144 299 1
504 299 1
506 299 1
95 300 1
111 300 1
136 300 1
145 300 1
505 300 1
507 300 1
96 301 1
112 301 1
137 301 1
146 301 1
506 301 1
508 301 1
97 302 1
113 302 1
138 302 1
147 302 1
507 302 1
509 302 1
98 303 1
114 303 1
139 303 1
148 303 1
508 303 1
510 303 1
99 304 1
115 304 1
140 304 1
149 304 1
509 304 1
511 304 1
100 305 1
116 305 1
141 305 1
150 305 1
510 305 1
512 305 1
101 306 1
117 306 1
142 306 1
151 306 1
511 306 1
513 306 1
102 307 1
118 307 1
143 307 1
152 307 1
512 307 1
514 307 1
103 308 1
119 308 1
144 308 1
153 308 1
513 308 1
515 308 1
104 309 1
120 309 1
145 309 1
154 309 1
514 309 1
516 309 1
105 310 1
121 310 1
146 310 1
155 310 1
515 310 1
517 310 1
106 311 1
122 311 1
147 311 1
156 311 1
516 311 1
518 311 1
107 312 1
123 312 1
148 312 1
157 312 1
517 312 1
519 312 1
83 313 1
108 313 1
149 313 1
158 313 1
518 313 1
520 313 1
84 314 1
109 314 1
150 314 1
159 314 1
519 314 1
521 314 1
85 315 1
110 315 1
151 315 1
160 315 1
520 315 1
522 315 1
86 316 1
111 316 1
152 316 1
161 316 1
521 316 1
523 316 1
87 317 1
112 317 1
153 317 1
162 317 1
522 317 1
524 317 1
88 318 1
113 318 1
154 318 1
163 318 1
523 318 1
525 318 1
89 319 1
114 319 1
155 319 1
164 319 1
524 319 1
526 319 1
90 320 1
115 320 1
124 320 1
156 320 1
525 320 1
527 320 1
91 321 1
116 321 1
125 321 1
157 321 1
526 321 1
528 321 1
92 322 1
117 322 1
126 322 1
158 322 1
527 322 1
529 322 1
93 323 1
118 323 1
127 323 1
159 323 1
528 323 1
530 323 1
94 324 1
119 324 1
128 324 1
160 324 1
529 324 1
531 324 1
95 325 1
120 325 1
129 325 1
161 325 1
530 325 1
532 325 1
96 326 1
121 326 1
130 326 1
162 326 1
531 326 1
533 326 1
97 327 1
122 327 1
131 327 1
163 327 1
493 327 1
532 327 1
98 328 1
123 328 1
132 328 1
164 328 1
494 328 1
533 328 1
83 329 1
109 329 1
165 329 1
174 329 1
534 329 1
536 329 1
84 330 1
110 330 1
166 330 1
175 330 1
535 330 1
537 330 1
85 331 1
111 331 1
167 331 1
176 331 1
536 331 1
538 331 1
86 332 1
112 332 1
168 332 1
177 332 1
537 332 1
539 332 1
87 333 1
113 333 1
169 333 1
178 333 1
538 333 1
540 333 1
88 334 1
114 334 1
170 334 1
179 334 1
539 334 1
541 334 1
89 335 1
115 335 1
171 335 1
180 335 1
540 335 1
542 335 1
90 336 1
116 336 1
172 336 1
181 336 1
541 336 1
543 336 1
91 337 1
117 337 1
173 337 1
182 337 1
542 337 1
544 337 1
92 338 1
118 338 1
174 338 1
183 338 1
543 338 1
545 338 1
93 339 1
119 339 1
175 339 1
184 339 1
544 339 1
546 339 1
94 340 1
120 340 1
176 340 1
185 340 1
545 340 1
547 340 1
95 341 1
121 341 1
177 341 1
186 341 1
546 341 1
548 341 1
96 342 1
122 342 1
178 342 1
187 342 1
547 342 1
549 342 1
97 343 1
123 343 1
179 343 1
188 343 1
548 343 1
550 343 1
83 344 1
98 344 1
180 344 1
189 344 1
549 344 1
551 344 1
84 345 1
99 345 1
181 345 1
190 345 1
550 345 1
552 345 1
85 346 1
100 346 1
182 346 1
191 346 1
551 346 1
553 346 1
86 347 1
101 347 1
183 347 1
192 347 1
552 347 1
554 347 1
87 348 1
102 348 1
184 348 1
193 348 1
553 348 1
555 348 1
88 349 1
103 349 1
185 349 1
194 349 1
554 349 1
556 349 1
89 350 1
104 350 1
186 350 1
195 350 1
555 350 1
557 350 1
90 351 1
105 351 1
187 351 1
196 351 1
556 351 1
558 351 1
91 352 1
106 352 1
188 352 1
197 352 1
557 352 1
559 352 1
92 353 1
107 353 1
189 353 1
198 353 1
558 353 1
560 353 1
93 354 1
108 354 1
190 354 1
199 354 1
559 354 1
561 354 1
94 355 1
109 355 1
191 355 1
200 355 1
560 355 1
562 355 1
95 356 1
110 356 1
192 356 1
201 356 1
561 356 1
563 356 1
96 357 1
111 357 1
193 357 1
202 357 1
562 357 1
564 357 1
97 358 1
112 358 1
194 358 1
203 358 1
563 358 1
565 358 1
98 359 1
113 359 1
195 359 1
204 359 1
564 359 1
566 359 1
99 360 1
114 360 1
196 360 1
205 360 1
565 360 1
567 360 1
100 361 1
115 361 1
165 361 1
197 361 1
566 361 1
568 361 1
101 362 1
116 362 1
166 362 1
198 362 1
567 362 1
569 362 1
102 363 1
117 363 1
167 363 1
199 363 1
568 363 1
570 363 1
103 364 1
118 364 1
168 364 1
200 364 1
569 364 1
571 364 1
104 365 1
119 365 1
169 365 1
201 365 1
570 365 1
572 365 1
105 366 1
120 366 1
170 366 1
202 366 1
571 366 1
573 366 1
106 367 1
121 367 1
171 367 1
203 367 1
572 367 1
574 367 1
107 368 1
122 368 1
172 368 1
204 368 1
534 368 1
573 368 1
108 369 1
123 369 1
173 369 1
205 369 1
535 369 1
574 369 1
124 370 1
150 370 1
165 370 1
181 370 1
575 370 1
577 370 1
125 371 1
151 371 1
166 371 1
182 371 1
576 371 1
578 371 1
126 372 1
152 372 1
167 372 1
183 372 1
577 372 1
579 372 1
127 373 1
153 373 1
168 373 1
184 373 1
578 373 1
580 373 1
128 374 1
154 374 1
169 374 1
185 374 1
579 374 1
581 374 1
129 375 1
155 375 1
170 375 1
186 375 1
580 375 1
582 375 1
130 376 1
156 376 1
171 376 1
187 376 1
581 376 1
583 376 1
131 377 1
157 377 1
172 377 1
188 377 1
582 377 1
584 377 1
132 378 1
158 378 1
173 378 1
189 378 1
583 378 1
585 378 1
133 379 1
159 379 1
174 379 1
190 379 1
584 379 1
586 379 1
134 380 1
160 380 1
175 380 1
191 380 1
585 380 1
587 380 1
135 381 1
161 381 1
176 381 1
192 381 1
586 381 1
588 381 1
136 382 1
162 382 1
177 382 1
193 382 1
587 382 1
589 382 1
137 383 1
163 383 1
178 383 1
194 383 1
588 383 1
590 383 1
138 384 1
164 384 1
179 384 1
195 384 1
589 384 1
591 384 1
124 385 1
139 385 1
180 385 1
196 385 1
590 385 1
592 385 1
125 386 1
140 386 1
181 386 1
197 386 1
591 386 1
593 386 1
126 387 1
141 387 1
182 387 1
198 387 1
592 387 1
594 387 1
127 388 1
142 388 1
183 388 1
199 388 1
593 388 1
595 388 1
128 389 1
143 389 1
184 389 1
200 389 1
594 389 1
596 389 1
129 390 1
144 390 1
185 390 1
201 390 1
595 390 1
597 390 1
130 391 1
145 391 1
186 391 1
202 391 1
596 391 1
598 391 1
131 392 1
146 392 1
187 392 1
203 392 1
597 392 1
599 392 1
132 393 1
147 393 1
188 393 1
204 393 1
598 393 1
600 393 1
133 394 1
148 394 1
189 394 1
205 394 1
599 394 1
601 394 1
134 395 1
149 395 1
165 395 1
190 395 1
600 395 1
602 395 1
135 396 1
150 396 1
166 396 1
191 396 1
601 396 1
603 396 1
136 397 1
151 397 1
167 397 1
192 397 1
602 397 1
604 397 1
137 398 1
152 398 1
168 398 1
193 398 1
603 398 1
605 398 1
138 399 1
153 399 1
169 399 1
194 399 1
604 399 1
606 399 1
139 400 1
154 400 1
170 400 1
195 400 1
605 400 1
607 400 1
140 401 1
155 401 1
171 401 1
196 401 1
606 401 1
608 401 1
141 402 1
156 402 1
172 402 1
197 402 1
607 402 1
609 402 1
142 403 1
157 403 1
173 403 1
198 403 1
608 403 1
610 403 1
143 404 1
158 404 1
174 404 1
199 404 1
609 404 1
611 404 1
144 405 1
159 405 1
175 405 1
200 405 1
610 405 1
612 405 1
145 406 1
160 406 1
176 406 1
201 406 1
611 406 1
613 406 1
146 407 1
161 407 1
177 407 1
202 407 1
612 407 1
614 407 1
147 408 1
162 408 1
178 408 1
203 408 1
613 408 1
615 408 1
148 409 1
163 409 1
179 409 1
204 409 1
575 409 1
614 409 1
149 410 1
164 410 1
180 410 1
205 410 1
576 410 1
615 410 1
206 411 1
215 411 1
247 411 1
251 411 1
370 411 1
373 411 1
207 412 1
216 412 1
248 412 1
252 412 1
371 412 1
374 412 1
208 413 1
217 413 1
249 413 1
253 413 1
372 413 1
375 413 1
209 414 1
218 414 1
250 414 1
254 414 1
373 414 1
376 414 1
210 415 1
219 415 1
251 415 1
255 415 1
374 415 1
377 415 1
211 416 1
220 416 1
252 416 1
256 416 1
375 416 1
378 416 1
212 417 1
221 417 1
253 417 1
257 417 1
376 417 1
379 417 1
213 418 1
222 418 1
254 418 1
258 418 1
377 418 1
380 418 1
214 419 1
223 419 1
255 419 1
259 419 1
378 419 1
381 419 1
215 420 1
224 420 1
256 420 1
260 420 1
379 420 1
382 420 1
216 421 1
225 421 1
257 421 1
261 421 1
380 421 1
383 421 1
217 422 1
226 422 1
258 422 1
262 422 1
381 422 1
384 422 1
218 423 1
227 423 1
259 423 1
263 423 1
382 423 1
385 423 1
219 424 1
228 424 1
260 424 1
264 424 1
383 424 1
386 424 1
220 425 1
229 425 1
261 425 1
265 425 1
384 425 1
387 425 1
221 426 1
230 426 1
262 426 1
266 426 1
385 426 1
388 426 1
222 427 1
231 427 1
263 427 1
267 427 1
386 427 1
389 427 1
223 428 1
232 428 1
264 428 1
268 428 1
387 428 1
390 428 1
224 429 1
233 429 1
265 429 1
269 429 1
388 429 1
391 429 1
225 430 1
234 430 1
266 430 1
270 430 1
389 430 1
392 430 1
226 431 1
235 431 1
267 431 1
271 431 1
390 431 1
393 431 1
227 432 1
236 432 1
268 432 1
272 432 1
391 432 1
394 432 1
228 433 1
237 433 1
269 433 1
273 433 1
392 433 1
395 433 1
229 434 1
238 434 1
270 434 1
274 434 1
393 434 1
396 434 1
230 435 1
239 435 1
271 435 1
275 435 1
394 435 1
397 435 1
231 436 1
240 436 1
272 436 1
276 436 1
395 436 1
398 436 1
232 437 1
241 437 1
273 437 1
277 437 1
396 437 1
399 437 1
233 438 1
242 438 1
274 438 1
278 438 1
397 438 1
400 438 1
234 439 1
243 439 1
275 439 1
279 439 1
398 439 1
401 439 1
235 440 1
244 440 1
276 440 1
280 440 1
399 440 1
402 440 1
236 441 1
245 441 1
277 441 1
281 441 1
400 441 1
403 441 1
237 442 1
246 442 1
278 442 1
282 442 1
401 442 1
404 442 1
206 443 1
238 443 1
279 443 1
283 443 1
402 443 1
405 443 1
207 444 1
239 444 1
280 444 1
284 444 1
403 444 1
406 444 1
208 445 1
240 445 1
281 445 1
285 445 1
404 445 1
407 445 1
209 446 1
241 446 1
282 446 1
286 446 1
405 446 1
408 446 1
210 447 1
242 447 1
283 447 1
287 447 1
406 447 1
409 447 1
211 448 1
243 448 1
247 448 1
284 448 1
407 448 1
410 448 1
212 449 1
244 449 1
248 449 1
285 449 1
370 449 1
408 449 1
213 450 1
245 450 1
249 450 1
286 450 1
371 450 1
409 450 1
214 451 1
246 451 1
250 451 1
287 451 1
372 451 1
410 451 1
206 452 1
222 452 1
288 452 1
292 452 1
411 452 1
414 452 1
207 453 1
223 453 1
289 453 1
293 453 1
412 453 1
415 453 1
208 454 1
224 454 1
290 454 1
294 454 1
413 454 1
416 454 1
209 455 1
225 455 1
291 455 1
295 455 1
414 455 1
417 455 1
210 456 1
226 456 1
292 456 1
296 456 1
415 456 1
418 456 1
211 457 1
227 457 1
293 457 1
297 457 1
416 457 1
419 457 1
212 458 1
228 458 1
294 458 1
298 458 1
417 458 1
420 458 1
213 459 1
229 459 1
295 459 1
299 459 1
418 459 1
421 459 1
214 460 1
230 460 1
296 460 1
300 460 1
419 460 1
422 460 1
215 461 1
231 461 1
297 461 1
301 461 1
420 461 1
423 461 1
216 462 1
232 462 1
298 462 1
302 462 1
421 462 1
424 462 1
217 463 1
233 463 1
299 463 1
303 463 1
422 463 1
425 463 1
218 464 1
234 464 1
300 464 1
304 464 1
423 464 1
426 464 1
219 465 1
235 465 1
301 465 1
305 465 1
424 465 1
427 465 1
220 466 1
236 466 1
302 466 1
306 466 1
425 466 1
428 466 1
221 467 1
237 467 1
303 467 1
307 467 1
426 467 1
429 467 1
222 468 1
238 468 1
304 468 1
308 468 1
427 468 1
430 468 1
223 469 1
239 469 1
305 469 1
309 469 1
428 469 1
431 469 1
224 470 1
240 470 1
306 470 1
310 470 1
429 470 1
432 470 1
225 471 1
241 471 1
307 471 1
311 471 1
430 471 1
433 471 1
226 472 1
242 472 1
308 472 1
312 472 1
431 472 1
434 472 1
227 473 1
243 473 1
309 473 1
313 473 1
432 473 1
435 473 1
228 474 1
244 474 1
310 474 1
314 474 1
433 474 1
436 474 1
229 475 1
245 475 1
311 475 1
315 475 1
434 475 1
437 475 1
230 476 1
246 476 1
312 476 1
316 476 1
435 476 1
438 476 1
206 477 1
231 477 1
313 477 1
317 477 1
436 477 1
439 477 1
207 478 1
232 478 1
314 478 1
318 478 1
437 478 1
440 478 1
208 479 1
233 479 1
315 479 1
319 479 1
438 479 1
441 479 1
209 480 1
234 480 1
316 480 1
320 480 1
439 480 1
442 480 1
210 481 1
235 481 1
317 481 1
321 481 1
440 481 1
443 481 1
211 482 1
236 482 1
318 482 1
322 482 1
441 482 1
444 482 1
212 483 1
237 483 1
319 483 1
323 483 1
442 483 1
445 483 1
213 484 1
238 484 1
320 484 1
324 484 1
443 484 1
446 484 1
214 485 1
239 485 1
321 485 1
325 485 1
444 485 1
447 485 1
215 486 1
240 486 1
322 486 1
326 486 1
445 486 1
448 486 1
216 487 1
241 487 1
323 487 1
327 487 1
446 487 1
449 487 1
217 488 1
242 488 1
324 488 1
328 488 1
447 488 1
450 488 1
218 489 1
243 489 1
288 489 1
325 489 1
448 489 1
451 489 1
219 490 1
244 490 1
289 490 1
326 490 1
411 490 1
449 490 1
220 491 1
245 491 1
290 491 1
327 491 1
412 491 1
450 491 1
221 492 1
246 492 1
291 492 1
328 492 1
413 492 1
451 492 1
206 493 1
232 493 1
329 493 1
333 493 1
452 493 1
455 493 1
207 494 1
233 494 1
330 494 1
334 494 1
453 494 1
456 494 1
208 495 1
234 495 1
331 495 1
335 495 1
454 495 1
457 495 1
209 496 1
235 496 1
332 496 1
336 496 1
455 496 1
458 496 1
210 497 1
236 497 1
333 497 1
337 497 1
456 497 1
459 497 1
211 498 1
237 498 1
334 498 1
338 498 1
457 498 1
460 498 1
212 499 1
238 499 1
335 499 1
339 499 1
458 499 1
461 499 1
213 500 1
239 500 1
336 500 1
340 500 1
459 500 1
462 500 1
214 501 1
240 501 1
337 501 1
341 501 1
460 501 1
463 501 1
215 502 1
241 502 1
338 502 1
342 502 1
461 502 1
464 502 1
216 503 1
242 503 1
339 503 1
343 503 1
462 503 1
465 503 1
217 504 1
243 504 1
340 504 1
344 504 1
463 504 1
466 504 1
218 505 1
244 505 1
341 505 1
345 505 1
464 505 1
467 505 1
219 506 1
245 506 1
342 506 1
346 506 1
465 506 1
468 506 1
220 507 1
246 507 1
343 507 1
347 507 1
466 507 1
469 507 1
206 508 1
221 508 1
344 508 1
348 508 1
467 508 1
470 508 1
207 509 1
222 509 1
345 509 1
349 509 1
468 509 1
471 509 1
208 510 1
223 510 1
346 510 1
350 510 1
469 510 1
472 510 1
209 511 1
224 511 1
347 511 1
351 511 1
470 511 1
473 511 1
210 512 1
225 512 1
348 512 1
352 512 1
471 512 1
474 512 1
211 513 1
226 513 1
349 513 1
353 513 1
472 513 1
475 513 1
212 514 1
227 514 1
350 514 1
354 514 1
473 514 1
476 514 1
213 515 1
228 515 1
351 515 1
355 515 1
474 515 1
477 515 1
214 516 1
229 516 1
352 516 1
356 516 1
475 516 1
478 516 1
215 517 1
230 517 1
353 517 1
357 517 1
476 517 1
479 517 1
216 518 1
231 518 1
354 518 1
358 518 1
477 518 1
480 518 1
217 519 1
232 519 1
355 519 1
359 519 1
478 519 1
481 519 1
218 520 1
233 520 1
356 520 1
360 520 1
479 520 1
482 520 1
219 521 1
234 521 1
357 521 1
361 521 1
480 521 1
483 521 1
220 522 1
235 522 1
358 522 1
362 522 1
481 522 1
484 522 1
221 523 1
236 523 1
359 523 1
363 523 1
482 523 1
485 523 1
222 524 1
237 524 1
360 524 1
364 524 1
483 524 1
486 524 1
223 525 1
238 525 1
361 525 1
365 525 1
484 525 1
487 525 1
224 526 1
239 526 1
362 526 1
366 526 1
485 526 1
488 526 1
225 527 1
240 527 1
363 527 1
367 527 1
486 527 1
489 527 1
226 528 1
241 528 1
364 528 1
368 528 1
487 528 1
490 528 1
227 529 1
242 529 1
365 529 1
369 529 1
488 529 1
491 529 1
228 530 1
243 530 1
329 530 1
366 530 1
489 530 1
492 530 1
229 531 1
244 531 1
330 531 1
367 531 1
452 531 1
490 531 1
230 532 1
245 532 1
331 532 1
368 532 1
453 532 1
491 532 1
231 533 1
246 533 1
332 533 1
369 533 1
454 533 1
492 533 1
247 534 1
263 534 1
288 534 1
297 534 1
493 534 1
496 534 1
248 535 1
264 535 1
289 535 1
298 535 1
494 535 1
497 535 1
249 536 1
265 536 1
290 536 1
299 536 1
495 536 1
498 536 1
250 537 1
266 537 1
291 537 1
300 537 1
496 537 1
499 537 1
251 538 1
267 538 1
292 538 1
301 538 1
497 538 1
500 538 1
252 539 1
268 539 1
293 539 1
302 539 1
498 539 1
501 539 1
253 540 1
269 540 1
294 540 1
303 540 1
499 540 1
502 540 1
254 541 1
270 541 1
295 541 1
304 541 1
500 541 1
503 541 1
255 542 1
271 542 1
296 542 1
305 542 1
501 542 1
504 542 1
256 543 1
272 543 1
297 543 1
306 543 1
502 543 1
505 543 1
257 544 1
273 544 1
298 544 1
307 544 1
503 544 1
506 544 1
258 545 1
274 545 1
299 545 1
308 545 1
504 545 1
507 545 1
259 546 1
275 546 1
300 546 1
309 546 1
505 546 1
508 546 1
260 547 1
276 547 1
301 547 1
310 547 1
506 547 1
509 547 1
261 548 1
277 548 1
302 548 1
311 548 1
507 548 1
510 548 1
262 549 1
278 549 1
303 549 1
312 549 1
508 549 1
511 549 1
263 550 1
279 550 1
304 550 1
313 550 1
509 550 1
512 550 1
264 551 1
280 551 1
305 551 1
314 551 1
510 551 1
513 551 1
265 552 1
281 552 1
306 552 1
315 552 1
511 552 1
514 552 1
266 553 1
282 553 1
307 553 1
316 553 1
512 553 1
515 553 1
267 554 1
283 554 1
308 554 1
317 554 1
513 554 1
516 554 1
268 555 1
284 555 1
309 555 1
318 555 1
514 555 1
517 555 1
269 556 1
285 556 1
310 556 1
319 556 1
515 556 1
518 556 1
270 557 1
286 557 1
311 557 1
320 557 1
516 557 1
519 557 1
271 558 1
287 558 1
312 558 1
321 558 1
517 558 1
520 558 1
247 559 1
272 559 1
313 559 1
322 559 1
518 559 1
521 559 1
248 560 1
273 560 1
314 560 1
323 560 1
519 560 1
522 560 1
249 561 1
274 561 1
315 561 1
324 561 1
520 561 1
523 561 1
250 562 1
275 562 1
316 562 1
325 562 1
521 562 1
524 562 1
251 563 1
276 563 1
317 563 1
326 563 1
522 563 1
525 563 1
252 564 1
277 564 1
318 564 1
327 564 1
523 564 1
526 564 1
253 565 1
278 565 1
319 565 1
328 565 1
524 565 1
527 565 1
254 566 1
279 566 1
288 566 1
320 566 1
525 566 1
528 566 1
255 567 1
280 567 1
289 567 1
321 567 1
526 567 1
529 567 1
256 568 1
281 568 1
290 568 1
322 568 1
527 568 1
530 568 1
257 569 1
282 569 1
291 569 1
323 569 1
528 569 1
531 569 1
258 570 1
283 570 1
292 570 1
324 570 1
529 570 1
532 570 1
259 571 1
284 571 1
293 571 1
325 571 1
530 571 1
533 571 1
260 572 1
285 572 1
294 572 1
326 572 1
493 572 1
531 572 1
261 573 1
286 573 1
295 573 1
327 573 1
494 573 1
532 573 1
262 574 1
287 574 1
296 574 1
328 574 1
495 574 1
533 574 1
247 575 1
273 575 1
329 575 1
338 575 1
534 575 1
537 575 1
248 576 1
274 576 1
330 576 1
339 576 1
535 576 1
538 576 1
249 577 1
275 577 1
331 577 1
340 577 1
536 577 1
539 577 1
250 578 1
276 578 1
332 578 1
341 578 1
537 578 1
540 578 1
251 579 1
277 579 1
333 579 1
342 579 1
538 579 1
541 579 1
252 580 1
278 580 1
334 580 1
343 580 1
539 580 1
542 580 1
253 581 1
279 581 1
335 581 1
344 581 1
540 581 1
543 581 1
254 582 1
280 582 1
336 582 1
345 582 1
541 582 1
544 582 1
255 583 1
281 583 1
337 583 1
346 583 1
542 583 1
545 583 1
256 584 1
282 584 1
338 584 1
347 584 1
543 584 1
546 584 1
257 585 1
283 585 1
339 585 1
348 585 1
544 585 1
547 585 1
258 586 1
284 586 1
340 586 1
349 586 1
545 586 1
548 586 1
259 587 1
285 587 1
341 587 1
350 587 1
546 587 1
549 587 1
260 588 1
286 588 1
342 588 1
351 588 1
547 588 1
550 588 1
261 589 1
287 589 1
343 589 1
352 589 1
548 589 1
551 589 1
247 590 1
262 590 1
344 590 1
353 590 1
549 590 1
552 590 1
248 591 1
263 591 1
345 591 1
354 591 1
550 591 1
553 591 1
249 592 1
264 592 1
346 592 1
355 592 1
551 592 1
554 592 1
250 593 1
265 593 1
347 593 1
356 593 1
552 593 1
555 593 1
251 594 1
266 594 1
348 594 1
357 594 1
553 594 1
556 594 1
252 595 1
267 595 1
349 595 1
358 595 1
554 595 1
557 595 1
253 596 1
268 596 1
350 596 1
359 596 1
555 596 1
558 596 1
254 597 1
269 597 1
351 597 1
360 597 1
556 597 1
559 597 1
255 598 1
270 598 1
352 598 1
361 598 1
557 598 1
560 598 1
256 599 1
271 599 1
353 599 1
362 599 1
558 599 1
561 599 1
257 600 1
272 600 1
354 600 1
363 600 1
559 600 1
562 600 1
258 601 1
273 601 1
355 601 1
364 601 1
560 601 1
563 601 1
259 602 1
274 602 1
356 602 1
365 602 1
561 602 1
564 602 1
260 603 1
275 603 1
357 603 1
366 603 1
562 603 1
565 603 1
261 604 1
276 604 1
358 604 1
367 604 1
563 604 1
566 604 1
262 605 1
277 605 1
359 605 1
368 605 1
564 605 1
567 605 1
263 606 1
278 606 1
360 606 1
369 606 1
565 606 1
568 606 1
264 607 1
279 607 1
329 607 1
361 607 1
566 607 1
569 607 1
265 608 1
280 608 1
330 608 1
362 608 1
567 608 1
570 608 1
266 609 1
281 609 1
331 609 1
363 609 1
568 609 1
571 609 1
267 610 1
282 610 1
332 610 1
364 610 1
569 610 1
572 610 1
268 611 1
283 611 1
333 611 1
365 611 1
570 611 1
573 611 1
269 612 1
284 612 1
334 612 1
366 612 1
571 612 1
574 612 1
270 613 1
285 613 1
335 613 1
367 613 1
534 613 1
572 613 1
271 614 1
286 614 1
336 614 1
368 614 1
535 614 1
573 614 1
272 615 1
287 615 1
337 615 1
369 615 1
536 615 1
574 615 1
288 616 1
314 616 1
329 616 1
345 616 1
575 616 1
578 616 1
289 617 1
315 617 1
330 617 1
346 617 1
576 617 1
579 617 1
290 618 1
316 618 1
331 618 1
347 618 1
577 618 1
580 618 1
291 619 1
317 619 1
332 619 1
348 619 1
578 619 1
581 619 1
292 620 1
318 620 1
333 620 1
349 620 1
579 620 1
582 620 1
293 621 1
319 621 1
334 621 1
350 621 1
580 621 1
583 621 1
294 622 1
320 622 1
335 622 1
351 622 1
581 622 1
584 622 1
295 623 1
321 623 1
336 623 1
352 623 1
582 623 1
585 623 1
296 624 1
322 624 1
337 624 1
353 624 1
583 624 1
586 624 1
297 625 1
323 625 1
338 625 1
354 625 1
584 625 1
587 625 1
298 626 1
324 626 1
339 626 1
355 626 1
585 626 1
588 626 1
299 627 1
325 627 1
340 627 1
356 627 1
586 627 1
589 627 1
300 628 1
326 628 1
341 628 1
357 628 1
587 628 1
590 628 1
301 629 1
327 629 1
342 629 1
358 629 1
588 629 1
591 629 1
302 630 1
328 630 1
343 630 1
359 630 1
589 630 1
592 630 1
288 631 1
303 631 1
344 631 1
360 631 1
590 631 1
593 631 1
289 632 1
304 632 1
345 632 1
361 632 1
591 632 1
594 632 1
290 633 1
305 633 1
346 633 1
362 633 1
592 633 1
595 633 1
291 634 1
306 634 1
347 634 1
363 634 1
593 634 1
596 634 1
292 635 1
307 635 1
348 635 1
364 635 1
594 635 1
597 635 1
293 636 1
308 636 1
349 636 1
365 636 1
595 636 1
598 636 1
294 637 1
309 637 1
350 637 1
366 637 1
596 637 1
599 637 1
295 638 1
310 638 1
351 638 1
367 638 1
597 638 1
600 638 1
296 639 1
311 639 1
352 639 1
368 639 1
598 639 1
601 639 1
297 640 1
312 640 1
353 640 1
369 640 1
599 640 1
602 640 1
298 641 1
313 641 1
329 641 1
354 641 1
600 641 1
603 641 1
299 642 1
314 642 1
330 642 1
355 642 1
601 642 1
604 642 1
300 643 1
315 643 1
331 643 1
356 643 1
602 643 1
605 643 1
301 644 1
316 644 1
332 644 1
357 644 1
603 644 1
606 644 1
302 645 1
317 645 1
333 645 1
358 645 1
604 645 1
607 645 1
303 646 1
318 646 1
334 646 1
359 646 1
605 646 1
608 646 1
304 647 1
319 647 1
335 647 1
360 647 1
606 647 1
609 647 1
305 648 1
320 648 1
336 648 1
361 648 1
607 648 1
610 648 1
306 649 1
321 649 1
337 649 1
362 649 1
608 649 1
611 649 1
307 650 1
322 650 1
338 650 1
363 650 1
609 650 1
612 650 1
308 651 1
323 651 1
339 651 1
364 651 1
610 651 1
613 651 1
309 652 1
324 652 1
340 652 1
365 652 1
611 652 1
614 652 1
310 653 1
325 653 1
341 653 1
366 653 1
612 653 1
615 653 1
311 654 1
326 654 1
342 654 1
367 654 1
575 654 1
613 654 1
312 655 1
327 655 1
343 655 1
368 655 1
576 655 1
614 655 1
313 656 1
328 656 1
344 656 1
369 656 1
577 656 1
615 656 1
370 657 1
386 657 1
411 657 1
420 657 1
493 657 1
497 657 1
371 658 1
387 658 1
412 658 1
421 658 1
494 658 1
498 658 1
372 659 1
388 659 1
413 659 1
422 659 1
495 659 1
499 659 1
373 660 1
389 660 1
414 660 1
423 660 1
496 660 1
500 660 1
374 661 1
390 661 1
415 661 1
424 661 1
497 661 1
501 661 1
375 662 1
391 662 1
416 662 1
425 662 1
498 662 1
502 662 1
376 663 1
392 663 1
417 663 1
426 663 1
499 663 1
503 663 1
377 664 1
393 664 1
418 664 1
427 664 1
500 664 1
504 664 1
378 665 1
394 665 1
419 665 1
428 665 1
501 665 1
505 665 1
379 666 1
395 666 1
420 666 1
429 666 1
502 666 1
506 666 1
380 667 1
396 667 1
421 667 1
430 667 1
503 667 1
507 667 1
381 668 1
397 668 1
422 668 1
431 668 1
504 668 1
508 668 1
382 669 1
398 669 1
423 669 1
432 669 1
505 669 1
509 669 1
383 670 1
399 670 1
424 670 1
433 670 1
506 670 1
510 670 1
384 671 1
400 671 1
425 671 1
434 671 1
507 671 1
511 671 1
385 672 1
401 672 1
426 672 1
435 672 1
508 672 1
512 672 1
386 673 1
402 673 1
427 673 1
436 673 1
509 673 1
513 673 1
387 674 1
403 674 1
428 674 1
437 674 1
510 674 1
514 674 1
388 675 1
404 675 1
429 675 1
438 675 1
511 675 1
515 675 1
389 676 1
405 676 1
430 676 1
439 676 1
512 676 1
516 676 1
390 677 1
406 677 1
431 677 1
440 677 1
513 677 1
517 677 1
391 678 1
407 678 1
432 678 1
441 678 1
514 678 1
518 678 1
392 679 1
408 679 1
433 679 1
442 679 1
515 679 1
519 679 1
393 680 1
409 680 1
434 680 1
443 680 1
516 680 1
520 680 1
394 681 1
410 681 1
435 681 1
444 681 1
517 681 1
521 681 1
370 682 1
395 682 1
436 682 1
445 682 1
518 682 1
522 682 1
371 683 1
396 683 1
437 683 1
446 683 1
519 683 1
523 683 1
372 684 1
397 684 1
438 684 1
447 684 1
520 684 1
524 684 1
373 685 1
398 685 1
439 685 1
448 685 1
521 685 1
525 685 1
374 686 1
399 686 1
440 686 1
449 686 1
522 686 1
526 686 1
375 687 1
400 687 1
441 687 1
450 687 1
523 687 1
527 687 1
376 688 1
401 688 1
442 688 1
451 688 1
524 688 1
528 688 1
377 689 1
402 689 1
411 689 1
443 689 1
525 689 1
529 689 1
378 690 1
403 690 1
412 690 1
444 690 1
526 690 1
530 690 1
379 691 1
404 691 1
413 691 1
445 691 1
527 691 1
531 691 1
380 692 1
405 692 1
414 692 1
446 692 1
528 692 1
532 692 1
381 693 1
406 693 1
415 693 1
447 693 1
529 693 1
533 693 1
382 694 1
407 694 1
416 694 1
448 694 1
493 694 1
530 694 1
383 695 1
408 695 1
417 695 1
449 695 1
494 695 1
531 695 1
384 696 1
409 696 1
418 696 1
450 696 1
495 696 1
532 696 1
385 697 1
410 697 1
419 697 1
451 697 1
496 697 1
533 697 1
370 698 1
396 698 1
452 698 1
461 698 1
534 698 1
538 698 1
371 699 1
397 699 1
453 699 1
462 699 1
535 699 1
539 699 1
372 700 1
398 700 1
454 700 1
463 700 1
536 700 1
540 700 1
373 701 1
399 701 1
455 701 1
464 701 1
537 701 1
541 701 1
374 702 1
400 702 1
456 702 1
465 702 1
538 702 1
542 702 1
375 703 1
401 703 1
457 703 1
466 703 1
539 703 1
543 703 1
376 704 1
402 704 1
458 704 1
467 704 1
540 704 1
544 704 1
377 705 1
403 705 1
459 705 1
468 705 1
541 705 1
545 705 1
378 706 1
404 706 1
460 706 1
469 706 1
542 706 1
546 706 1
379 707 1
405 707 1
461 707 1
470 707 1
543 707 1
547 707 1
380 708 1
406 708 1
462 708 1
471 708 1
544 708 1
548 708 1
381 709 1
407 709 1
463 709 1
472 709 1
545 709 1
549 709 1
382 710 1
408 710 1
464 710 1
473 710 1
546 710 1
550 710 1
383 711 1
409 711 1
465 711 1
474 711 1
547 711 1
551 711 1
384 712 1
410 712 1
466 712 1
475 712 1
548 712 1
552 712 1
370 713 1
385 713 1
467 713 1
476 713 1
549 713 1
553 713 1
371 714 1
386 714 1
468 714 1
477 714 1
550 714 1
554 714 1
372 715 1
387 715 1
469 715 1
478 715 1
551 715 1
555 715 1
373 716 1
388 716 1
470 716 1
479 716 1
552 716 1
556 716 1
374 717 1
389 717 1
471 717 1
480 717 1
553 717 1
557 717 1
375 718 1
390 718 1
472 718 1
481 718 1
554 718 1
558 718 1
376 719 1
391 719 1
473 719 1
482 719 1
555 719 1
559 719 1
377 720 1
392 720 1
474 720 1
483 720 1
556 720 1
560 720 1
378 721 1
393 721 1
475 721 1
484 721 1
557 721 1
561 721 1
379 722 1
394 722 1
476 722 1
485 722 1
558 722 1
562 722 1
380 723 1
395 723 1
477 723 1
486 723 1
559 723 1
563 723 1
381 724 1
396 724 1
478 724 1
487 724 1
560 724 1
564 724 1
382 725 1
397 725 1
479 725 1
488 725 1
561 725 1
565 725 1
383 726 1
398 726 1
480 726 1
489 726 1
562 726 1
566 726 1
384 727 1
399 727 1
481 727 1
490 727 1
563 727 1
567 727 1
385 728 1
400 728 1
482 728 1
491 728 1
564 728 1
568 728 1
386 729 1
401 729 1
483 729 1
492 729 1
565 729 1
569 729 1
387 730 1
402 730 1
452 730 1
484 730 1
566 730 1
570 730 1
388 731 1
403 731 1
453 731 1
485 731 1
567 731 1
571 731 1
389 732 1
404 732 1
454 732 1
486 732 1
568 732 1
572 732 1
390 733 1
405 733 1
455 733 1
487 733 1
569 733 1
573 733 1
391 734 1
406 734 1
456 734 1
488 734 1
570 734 1
574 734 1
392 735 1
407 735 1
457 735 1
489 735 1
534 735 1
571 735 1
393 736 1
408 736 1
458 736 1
490 736 1
535 736 1
572 736 1
394 737 1
409 737 1
459 737 1
491 737 1
536 737 1
573 737 1
395 738 1
410 738 1
460 738 1
492 738 1
537 738 1
574 738 1
411 739 1
437 739 1
452 739 1
468 739 1
575 739 1
579 739 1
412 740 1
438 740 1
453 740 1
469 740 1
576 740 1
580 740 1
413 741 1
439 741 1
454 741 1
470 741 1
577 741 1
581 741 1
414 742 1
440 742 1
455 742 1
471 742 1
578 742 1
582 742 1
415 743 1
441 743 1
456 743 1
472 743 1
579 743 1
583 743 1
416 744 1
442 744 1
457 744 1
473 744 1
580 744 1
584 744 1
417 745 1
443 745 1
458 745 1
474 745 1
581 745 1
585 745 1
418 746 1
444 746 1
459 746 1
475 746 1
582 746 1
586 746 1
419 747 1
445 747 1
460 747 1
476 747 1
583 747 1
587 747 1
420 748 1
446 748 1
461 748 1
477 748 1
584 748 1
588 748 1
421 749 1
447 749 1
462 749 1
478 749 1
585 749 1
589 749 1
422 750 1
448 750 1
463 750 1
479 750 1
586 750 1
590 750 1
423 751 1
449 751 1
464 751 1
480 751 1
587 751 1
591 751 1
424 752 1
450 752 1
465 752 1
481 752 1
588 752 1
592 752 1
425 753 1
451 753 1
466 753 1
482 753 1
589 753 1
593 753 1
411 754 1
426 754 1
467 754 1
483 754 1
590 754 1
594 754 1
412 755 1
427 755 1
468 755 1
484 755 1
591 755 1
595 755 1
413 756 1
428 756 1
469 756 1
485 756 1
592 756 1
596 756 1
414 757 1
429 757 1
470 757 1
486 757 1
593 757 1
597 757 1
415 758 1
430 758 1
471 758 1
487 758 1
594 758 1
598 758 1
416 759 1
431 759 1
472 759 1
488 759 1
595 759 1
599 759 1
417 760 1
432 760 1
473 760 1
489 760 1
596 760 1
600 760 1
418 761 1
433 761 1
474 761 1
490 761 1
597 761 1
601 761 1
419 762 1
434 762 1
475 762 1
491 762 1
598 762 1
602 762 1
420 763 1
435 763 1
476 763 1
492 763 1
599 763 1
603 763 1
421 764 1
436 764 1
452 764 1
477 764 1
600 764 1
604 764 1
422 765 1
437 765 1
453 765 1
478 765 1
601 765 1
605 765 1
423 766 1
438 766 1
454 766 1
479 766 1
602 766 1
606 766 1
424 767 1
439 767 1
455 767 1
480 767 1
603 767 1
607 767 1
425 768 1
440 768 1
456 768 1
481 768 1
604 768 1
608 768 1
426 769 1
441 769 1
457 769 1
482 769 1
605 769 1
609 769 1
427 770 1
442 770 1
458 770 1
483 770 1
606 770 1
610 770 1
428 771 1
443 771 1
459 771 1
484 771 1
607 771 1
611 771 1
429 772 1
444 772 1
460 772 1
485 772 1
608 772 1
612 772 1
430 773 1
445 773 1
461 773 1
486 773 1
609 773 1
613 773 1
431 774 1
446 774 1
462 774 1
487 774 1
610 774 1
614 774 1
432 775 1
447 775 1
463 775 1
488 775 1
611 775 1
615 775 1
433 776 1
448 776 1
464 776 1
489 776 1
575 776 1
612 776 1
434 777 1
449 777 1
465 777 1
490 777 1
576 777 1
613 777 1
435 778 1
450 778 1
466 778 1
491 778 1
577 778 1
614 778 1
436 779 1
451 779 1
467 779 1
492 779 1
578 779 1
615 779 1
493 780 1
519 780 1
534 780 1
550 780 1
575 780 1
584 780 1
494 781 1
520 781 1
535 781 1
551 781 1
576 781 1
585 781 1
495 782 1
521 782 1
536 782 1
552 782 1
577 782 1
586 782 1
496 783 1
522 783 1
537 783 1
553 783 1
578 783 1
587 783 1
497 784 1
523 784 1
538 784 1
554 784 1
579 784 1
588 784 1
498 785 1
524 785 1
539 785 1
555 785 1
580 785 1
589 785 1
499 786 1
525 786 1
540 786 1
556 786 1
581 786 1
590 786 1
500 787 1
526 787 1
541 787 1
557 787 1
582 787 1
591 787 1
501 788 1
527 788 1
542 788 1
558 788 1
583 788 1
592 788 1
502 789 1
528 789 1
543 789 1
559 789 1
584 789 1
593 789 1
503 790 1
529 790 1
544 790 1
560 790 1
585 790 1
594 790 1
504 791 1
530 791 1
545 791 1
561 791 1
586 791 1
595 791 1
505 792 1
531 792 1
546 792 1
562 792 1
587 792 1
596 792 1
506 793 1
532 793 1
547 793 1
563 793 1
588 793 1
597 793 1
507 794 1
533 794 1
548 794 1
564 794 1
589 794 1
598 794 1
493 795 1
508 795 1
549 795 1
565 795 1
590 795 1
599 795 1
494 796 1
509 796 1
550 796 1
566 796 1
591 796 1
600 796 1
495 797 1
510 797 1
551 797 1
567 797 1
592 797 1
601 797 1
496 798 1
511 798 1
552 798 1
568 798 1
593 798 1
602 798 1
497 799 1
512 799 1
553 799 1
569 799 1
594 799 1
603 799 1
498 800 1
513 800 1
554 800 1
570 800 1
595 800 1
604 800 1
499 801 1
514 801 1
555 801 1
571 801 1
596 801 1
605 801 1
500 802 1
515 802 1
556 802 1
572 802 1
597 802 1
606 802 1
501 803 1
516 803 1
557 803 1
573 803 1
598 803 1
607 803 1
502 804 1
517 804 1
558 804 1
574 804 1
599 804 1
608 804 1
503 805 1
518 805 1
534 805 1
559 805 1
600 805 1
609 805 1
504 806 1
519 806 1
535 806 1
560 806 1
601 806 1
610 806 1
505 807 1
520 807 1
536 807 1
561 807 1
602 807 1
611 807 1
506 808 1
521 808 1
537 808 1
562 808 1
603 808 1
612 808 1
507 809 1
522 809 1
538 809 1
563 809 1
604 809 1
613 809 1
508 810 1
523 810 1
539 810 1
564 810 1
605 810 1
614 810 1
509 811 1
524 811 1
540 811 1
565 811 1
606 811 1
615 811 1
510 812 1
525 812 1
541 812 1
566 812 1
575 812 1
607 812 1
511 813 1
526 813 1
542 813 1
567 813 1
576 813 1
608 813 1
512 814 1
527 814 1
543 814 1
568 814 1
577 814 1
609 814 1
513 815 1
528 815 1
544 815 1
569 815 1
578 815 1
610 815 1
514 816 1
529 816 1
545 816 1
570 816 1
579 816 1
611 816 1
515 817 1
530 817 1
546 817 1
571 817 1
580 817 1
612 817 1
516 818 1
531 818 1
547 818 1
572 818 1
581 818 1
613 818 1
517 819 1
532 819 1
548 819 1
573 819 1
582 819 1
614 819 1
518 820 1
533 820 1
549 820 1
574 820 1
583 820 1
615 820 1
