%%MatrixMarket matrix coordinate integer general
% Binary matrix; one-based indices; arithmetic over GF(2)
1386 1386 13860
1 1 1
7 1 1
12 1 1
17 1 1
67 1 1
71 1 1
232 1 1
235 1 1
617 1 1
619 1 1
2 2 1
8 2 1
13 2 1
18 2 1
68 2 1
72 2 1
233 2 1
236 2 1
618 2 1
620 2 1
3 3 1
9 3 1
14 3 1
19 3 1
69 3 1
73 3 1
234 3 1
237 3 1
619 3 1
621 3 1
4 4 1
10 4 1
15 4 1
20 4 1
70 4 1
74 4 1
235 4 1
238 4 1
620 4 1
622 4 1
5 5 1
11 5 1
16 5 1
21 5 1
71 5 1
75 5 1
236 5 1
239 5 1
621 5 1
623 5 1
1 6 1
6 6 1
17 6 1
22 6 1
72 6 1
76 6 1
237 6 1
240 6 1
622 6 1
624 6 1
2 7 1
7 7 1
12 7 1
18 7 1
73 7 1
77 7 1
238 7 1
241 7 1
623 7 1
625 7 1
3 8 1
8 8 1
13 8 1
19 8 1
67 8 1
74 8 1
239 8 1
242 8 1
624 8 1
626 8 1
4 9 1
9 9 1
14 9 1
20 9 1
68 9 1
75 9 1
232 9 1
240 9 1
625 9 1
627 9 1
5 10 1
10 10 1
15 10 1
21 10 1
69 10 1
76 10 1
233 10 1
241 10 1
617 10 1
626 10 1
6 11 1
11 11 1
16 11 1
22 11 1
70 11 1
77 11 1
234 11 1
242 11 1
618 11 1
627 11 1
1 12 1
8 12 1
23 12 1
28 12 1
78 12 1
82 12 1
243 12 1
246 12 1
628 12 1
630 12 1
2 13 1
9 13 1
24 13 1
29 13 1
79 13 1
83 13 1
244 13 1
247 13 1
629 13 1
631 13 1
3 14 1
10 14 1
25 14 1
30 14 1
80 14 1
84 14 1
245 14 1
248 14 1
630 14 1
632 14 1
4 15 1
11 15 1
26 15 1
31 15 1
81 15 1
85 15 1
246 15 1
249 15 1
631 15 1
633 15 1
1 16 1
5 16 1
27 16 1
32 16 1
82 16 1
86 16 1
247 16 1
250 16 1
632 16 1
634 16 1
2 17 1
6 17 1
28 17 1
33 17 1
83 17 1
87 17 1
248 17 1
251 17 1
633 17 1
635 17 1
3 18 1
7 18 1
23 18 1
29 18 1
84 18 1
88 18 1
249 18 1
252 18 1
634 18 1
636 18 1
4 19 1
8 19 1
24 19 1
30 19 1
78 19 1
85 19 1
250 19 1
253 19 1
635 19 1
637 19 1
5 20 1
9 20 1
25 20 1
31 20 1
79 20 1
86 20 1
243 20 1
251 20 1
636 20 1
638 20 1
6 21 1
10 21 1
26 21 1
32 21 1
80 21 1
87 21 1
244 21 1
252 21 1
628 21 1
637 21 1
7 22 1
11 22 1
27 22 1
33 22 1
81 22 1
88 22 1
245 22 1
253 22 1
629 22 1
638 22 1
1 23 1
9 23 1
34 23 1
39 23 1
89 23 1
93 23 1
254 23 1
257 23 1
639 23 1
641 23 1
2 24 1
10 24 1
35 24 1
40 24 1
90 24 1
94 24 1
255 24 1
258 24 1
640 24 1
642 24 1
3 25 1
11 25 1
36 25 1
41 25 1
91 25 1
95 25 1
256 25 1
259 25 1
641 25 1
643 25 1
1 26 1
4 26 1
37 26 1
42 26 1
92 26 1
96 26 1
257 26 1
260 26 1
642 26 1
644 26 1
2 27 1
5 27 1
38 27 1
43 27 1
93 27 1
97 27 1
258 27 1
261 27 1
643 27 1
645 27 1
3 28 1
6 28 1
39 28 1
44 28 1
94 28 1
98 28 1
259 28 1
262 28 1
644 28 1
646 28 1
4 29 1
7 29 1
34 29 1
40 29 1
95 29 1
99 29 1
260 29 1
263 29 1
645 29 1
647 29 1
5 30 1
8 30 1
35 30 1
41 30 1
89 30 1
96 30 1
261 30 1
264 30 1
646 30 1
648 30 1
6 31 1
9 31 1
36 31 1
42 31 1
90 31 1
97 31 1
254 31 1
262 31 1
647 31 1
649 31 1
7 32 1
10 32 1
37 32 1
43 32 1
91 32 1
98 32 1
255 32 1
263 32 1
639 32 1
648 32 1
8 33 1
11 33 1
38 33 1
44 33 1
92 33 1
99 33 1
256 33 1
264 33 1
640 33 1
649 33 1
1 34 1
10 34 1
45 34 1
50 34 1
100 34 1
104 34 1
265 34 1
268 34 1
650 34 1
652 34 1
2 35 1
11 35 1
46 35 1
51 35 1
101 35 1
105 35 1
266 35 1
269 35 1
651 35 1
653 35 1
1 36 1
3 36 1
47 36 1
52 36 1
102 36 1
106 36 1
267 36 1
270 36 1
652 36 1
654 36 1
2 37 1
4 37 1
48 37 1
53 37 1
103 37 1
107 37 1
268 37 1
271 37 1
653 37 1
655 37 1
3 38 1
5 38 1
49 38 1
54 38 1
104 38 1
108 38 1
269 38 1
272 38 1
654 38 1
656 38 1
4 39 1
6 39 1
50 39 1
55 39 1
105 39 1
109 39 1
270 39 1
273 39 1
655 39 1
657 39 1
5 40 1
7 40 1
45 40 1
51 40 1
106 40 1
110 40 1
271 40 1
274 40 1
656 40 1
658 40 1
6 41 1
8 41 1
46 41 1
52 41 1
100 41 1
107 41 1
272 41 1
275 41 1
657 41 1
659 41 1
7 42 1
9 42 1
47 42 1
53 42 1
101 42 1
108 42 1
265 42 1
273 42 1
658 42 1
660 42 1
8 43 1
10 43 1
48 43 1
54 43 1
102 43 1
109 43 1
266 43 1
274 43 1
650 43 1
659 43 1
9 44 1
11 44 1
49 44 1
55 44 1
103 44 1
110 44 1
267 44 1
275 44 1
651 44 1
660 44 1
1 45 1
11 45 1
56 45 1
61 45 1
111 45 1
115 45 1
276 45 1
279 45 1
661 45 1
663 45 1
1 46 1
2 46 1
57 46 1
62 46 1
112 46 1
116 46 1
277 46 1
280 46 1
662 46 1
664 46 1
2 47 1
3 47 1
58 47 1
63 47 1
113 47 1
117 47 1
278 47 1
281 47 1
663 47 1
665 47 1
3 48 1
4 48 1
59 48 1
64 48 1
114 48 1
118 48 1
279 48 1
282 48 1
664 48 1
666 48 1
4 49 1
5 49 1
60 49 1
65 49 1
115 49 1
119 49 1
280 49 1
283 49 1
665 49 1
667 49 1
5 50 1
6 50 1
61 50 1
66 50 1
116 50 1
120 50 1
281 50 1
284 50 1
666 50 1
668 50 1
6 51 1
7 51 1
56 51 1
62 51 1
117 51 1
121 51 1
282 51 1
285 51 1
667 51 1
669 51 1
7 52 1
8 52 1
57 52 1
63 52 1
111 52 1
118 52 1
283 52 1
286 52 1
668 52 1
670 52 1
8 53 1
9 53 1
58 53 1
64 53 1
112 53 1
119 53 1
276 53 1
284 53 1
669 53 1
671 53 1
9 54 1
10 54 1
59 54 1
65 54 1
113 54 1
120 54 1
277 54 1
285 54 1
661 54 1
670 54 1
10 55 1
11 55 1
60 55 1
66 55 1
114 55 1
121 55 1
278 55 1
286 55 1
662 55 1
671 55 1
12 56 1
19 56 1
23 56 1
29 56 1
122 56 1
126 56 1
287 56 1
290 56 1
672 56 1
674 56 1
13 57 1
20 57 1
24 57 1
30 57 1
123 57 1
127 57 1
288 57 1
291 57 1
673 57 1
675 57 1
14 58 1
21 58 1
25 58 1
31 58 1
124 58 1
128 58 1
289 58 1
292 58 1
674 58 1
676 58 1
15 59 1
22 59 1
26 59 1
32 59 1
125 59 1
129 59 1
290 59 1
293 59 1
675 59 1
677 59 1
12 60 1
16 60 1
27 60 1
33 60 1
126 60 1
130 60 1
291 60 1
294 60 1
676 60 1
678 60 1
13 61 1
17 61 1
23 61 1
28 61 1
127 61 1
131 61 1
292 61 1
295 61 1
677 61 1
679 61 1
14 62 1
18 62 1
24 62 1
29 62 1
128 62 1
132 62 1
293 62 1
296 62 1
678 62 1
680 62 1
15 63 1
19 63 1
25 63 1
30 63 1
122 63 1
129 63 1
294 63 1
297 63 1
679 63 1
681 63 1
16 64 1
20 64 1
26 64 1
31 64 1
123 64 1
130 64 1
287 64 1
295 64 1
680 64 1
682 64 1
17 65 1
21 65 1
27 65 1
32 65 1
124 65 1
131 65 1
288 65 1
296 65 1
672 65 1
681 65 1
18 66 1
22 66 1
28 66 1
33 66 1
125 66 1
132 66 1
289 66 1
297 66 1
673 66 1
682 66 1
12 67 1
20 67 1
34 67 1
40 67 1
133 67 1
137 67 1
298 67 1
301 67 1
683 67 1
685 67 1
13 68 1
21 68 1
35 68 1
41 68 1
134 68 1
138 68 1
299 68 1
302 68 1
684 68 1
686 68 1
14 69 1
22 69 1
36 69 1
42 69 1
135 69 1
139 69 1
300 69 1
303 69 1
685 69 1
687 69 1
12 70 1
15 70 1
37 70 1
43 70 1
136 70 1
140 70 1
301 70 1
304 70 1
686 70 1
688 70 1
13 71 1
16 71 1
38 71 1
44 71 1
137 71 1
141 71 1
302 71 1
305 71 1
687 71 1
689 71 1
14 72 1
17 72 1
34 72 1
39 72 1
138 72 1
142 72 1
303 72 1
306 72 1
688 72 1
690 72 1
15 73 1
18 73 1
35 73 1
40 73 1
139 73 1
143 73 1
304 73 1
307 73 1
689 73 1
691 73 1
16 74 1
19 74 1
36 74 1
41 74 1
133 74 1
140 74 1
305 74 1
308 74 1
690 74 1
692 74 1
17 75 1
20 75 1
37 75 1
42 75 1
134 75 1
141 75 1
298 75 1
306 75 1
691 75 1
693 75 1
18 76 1
21 76 1
38 76 1
43 76 1
135 76 1
142 76 1
299 76 1
307 76 1
683 76 1
692 76 1
19 77 1
22 77 1
39 77 1
44 77 1
136 77 1
143 77 1
300 77 1
308 77 1
684 77 1
693 77 1
12 78 1
21 78 1
45 78 1
51 78 1
144 78 1
148 78 1
309 78 1
312 78 1
694 78 1
696 78 1
13 79 1
22 79 1
46 79 1
52 79 1
145 79 1
149 79 1
310 79 1
313 79 1
695 79 1
697 79 1
12 80 1
14 80 1
47 80 1
53 80 1
146 80 1
150 80 1
311 80 1
314 80 1
696 80 1
698 80 1
13 81 1
15 81 1
48 81 1
54 81 1
147 81 1
151 81 1
312 81 1
315 81 1
697 81 1
699 81 1
14 82 1
16 82 1
49 82 1
55 82 1
148 82 1
152 82 1
313 82 1
316 82 1
698 82 1
700 82 1
15 83 1
17 83 1
45 83 1
50 83 1
149 83 1
153 83 1
314 83 1
317 83 1
699 83 1
701 83 1
16 84 1
18 84 1
46 84 1
51 84 1
150 84 1
154 84 1
315 84 1
318 84 1
700 84 1
702 84 1
17 85 1
19 85 1
47 85 1
52 85 1
144 85 1
151 85 1
316 85 1
319 85 1
701 85 1
703 85 1
18 86 1
20 86 1
48 86 1
53 86 1
145 86 1
152 86 1
309 86 1
317 86 1
702 86 1
704 86 1
19 87 1
21 87 1
49 87 1
54 87 1
146 87 1
153 87 1
310 87 1
318 87 1
694 87 1
703 87 1
20 88 1
22 88 1
50 88 1
55 88 1
147 88 1
154 88 1
311 88 1
319 88 1
695 88 1
704 88 1
12 89 1
22 89 1
56 89 1
62 89 1
155 89 1
159 89 1
320 89 1
323 89 1
705 89 1
707 89 1
12 90 1
13 90 1
57 90 1
63 90 1
156 90 1
160 90 1
321 90 1
324 90 1
706 90 1
708 90 1
13 91 1
14 91 1
58 91 1
64 91 1
157 91 1
161 91 1
322 91 1
325 91 1
707 91 1
709 91 1
14 92 1
15 92 1
59 92 1
65 92 1
158 92 1
162 92 1
323 92 1
326 92 1
708 92 1
710 92 1
15 93 1
16 93 1
60 93 1
66 93 1
159 93 1
163 93 1
324 93 1
327 93 1
709 93 1
711 93 1
16 94 1
17 94 1
56 94 1
61 94 1
160 94 1
164 94 1
325 94 1
328 94 1
710 94 1
712 94 1
17 95 1
18 95 1
57 95 1
62 95 1
161 95 1
165 95 1
326 95 1
329 95 1
711 95 1
713 95 1
18 96 1
19 96 1
58 96 1
63 96 1
155 96 1
162 96 1
327 96 1
330 96 1
712 96 1
714 96 1
19 97 1
20 97 1
59 97 1
64 97 1
156 97 1
163 97 1
320 97 1
328 97 1
713 97 1
715 97 1
20 98 1
21 98 1
60 98 1
65 98 1
157 98 1
164 98 1
321 98 1
329 98 1
705 98 1
714 98 1
21 99 1
22 99 1
61 99 1
66 99 1
158 99 1
165 99 1
322 99 1
330 99 1
706 99 1
715 99 1
23 100 1
31 100 1
34 100 1
41 100 1
166 100 1
170 100 1
331 100 1
334 100 1
716 100 1
718 100 1
24 101 1
32 101 1
35 101 1
42 101 1
167 101 1
171 101 1
332 101 1
335 101 1
717 101 1
719 101 1
25 102 1
33 102 1
36 102 1
43 102 1
168 102 1
172 102 1
333 102 1
336 102 1
718 102 1
720 102 1
23 103 1
26 103 1
37 103 1
44 103 1
169 103 1
173 103 1
334 103 1
337 103 1
719 103 1
721 103 1
24 104 1
27 104 1
34 104 1
38 104 1
170 104 1
174 104 1
335 104 1
338 104 1
720 104 1
722 104 1
25 105 1
28 105 1
35 105 1
39 105 1
171 105 1
175 105 1
336 105 1
339 105 1
721 105 1
723 105 1
26 106 1
29 106 1
36 106 1
40 106 1
172 106 1
176 106 1
337 106 1
340 106 1
722 106 1
724 106 1
27 107 1
30 107 1
37 107 1
41 107 1
166 107 1
173 107 1
338 107 1
341 107 1
723 107 1
725 107 1
28 108 1
31 108 1
38 108 1
42 108 1
167 108 1
174 108 1
331 108 1
339 108 1
724 108 1
726 108 1
29 109 1
32 109 1
39 109 1
43 109 1
168 109 1
175 109 1
332 109 1
340 109 1
716 109 1
725 109 1
30 110 1
33 110 1
40 110 1
44 110 1
169 110 1
176 110 1
333 110 1
341 110 1
717 110 1
726 110 1
23 111 1
32 111 1
45 111 1
52 111 1
177 111 1
181 111 1
342 111 1
345 111 1
727 111 1
729 111 1
24 112 1
33 112 1
46 112 1
53 112 1
178 112 1
182 112 1
343 112 1
346 112 1
728 112 1
730 112 1
23 113 1
25 113 1
47 113 1
54 113 1
179 113 1
183 113 1
344 113 1
347 113 1
729 113 1
731 113 1
24 114 1
26 114 1
48 114 1
55 114 1
180 114 1
184 114 1
345 114 1
348 114 1
730 114 1
732 114 1
25 115 1
27 115 1
45 115 1
49 115 1
181 115 1
185 115 1
346 115 1
349 115 1
731 115 1
733 115 1
26 116 1
28 116 1
46 116 1
50 116 1
182 116 1
186 116 1
347 116 1
350 116 1
732 116 1
734 116 1
27 117 1
29 117 1
47 117 1
51 117 1
183 117 1
187 117 1
348 117 1
351 117 1
733 117 1
735 117 1
28 118 1
30 118 1
48 118 1
52 118 1
177 118 1
184 118 1
349 118 1
352 118 1
734 118 1
736 118 1
29 119 1
31 119 1
49 119 1
53 119 1
178 119 1
185 119 1
342 119 1
350 119 1
735 119 1
737 119 1
30 120 1
32 120 1
50 120 1
54 120 1
179 120 1
186 120 1
343 120 1
351 120 1
727 120 1
736 120 1
31 121 1
33 121 1
51 121 1
55 121 1
180 121 1
187 121 1
344 121 1
352 121 1
728 121 1
737 121 1
23 122 1
33 122 1
56 122 1
63 122 1
188 122 1
192 122 1
353 122 1
356 122 1
738 122 1
740 122 1
23 123 1
24 123 1
57 123 1
64 123 1
189 123 1
193 123 1
354 123 1
357 123 1
739 123 1
741 123 1
24 124 1
25 124 1
58 124 1
65 124 1
190 124 1
194 124 1
355 124 1
358 124 1
740 124 1
742 124 1
25 125 1
26 125 1
59 125 1
66 125 1
191 125 1
195 125 1
356 125 1
359 125 1
741 125 1
743 125 1
26 126 1
27 126 1
56 126 1
60 126 1
192 126 1
196 126 1
357 126 1
360 126 1
742 126 1
744 126 1
27 127 1
28 127 1
57 127 1
61 127 1
193 127 1
197 127 1
358 127 1
361 127 1
743 127 1
745 127 1
28 128 1
29 128 1
58 128 1
62 128 1
194 128 1
198 128 1
359 128 1
362 128 1
744 128 1
746 128 1
29 129 1
30 129 1
59 129 1
63 129 1
188 129 1
195 129 1
360 129 1
363 129 1
745 129 1
747 129 1
30 130 1
31 130 1
60 130 1
64 130 1
189 130 1
196 130 1
353 130 1
361 130 1
746 130 1
748 130 1
31 131 1
32 131 1
61 131 1
65 131 1
190 131 1
197 131 1
354 131 1
362 131 1
738 131 1
747 131 1
32 132 1
33 132 1
62 132 1
66 132 1
191 132 1
198 132 1
355 132 1
363 132 1
739 132 1
748 132 1
34 133 1
43 133 1
45 133 1
53 133 1
199 133 1
203 133 1
364 133 1
367 133 1
749 133 1
751 133 1
35 134 1
44 134 1
46 134 1
54 134 1
200 134 1
204 134 1
365 134 1
368 134 1
750 134 1
752 134 1
34 135 1
36 135 1
47 135 1
55 135 1
201 135 1
205 135 1
366 135 1
369 135 1
751 135 1
753 135 1
35 136 1
37 136 1
45 136 1
48 136 1
202 136 1
206 136 1
367 136 1
370 136 1
752 136 1
754 136 1
36 137 1
38 137 1
46 137 1
49 137 1
203 137 1
207 137 1
368 137 1
371 137 1
753 137 1
755 137 1
37 138 1
39 138 1
47 138 1
50 138 1
204 138 1
208 138 1
369 138 1
372 138 1
754 138 1
756 138 1
38 139 1
40 139 1
48 139 1
51 139 1
205 139 1
209 139 1
370 139 1
373 139 1
755 139 1
757 139 1
39 140 1
41 140 1
49 140 1
52 140 1
199 140 1
206 140 1
371 140 1
374 140 1
756 140 1
758 140 1
40 141 1
42 141 1
50 141 1
53 141 1
200 141 1
207 141 1
364 141 1
372 141 1
757 141 1
759 141 1
41 142 1
43 142 1
51 142 1
54 142 1
201 142 1
208 142 1
365 142 1
373 142 1
749 142 1
758 142 1
42 143 1
44 143 1
52 143 1
55 143 1
202 143 1
209 143 1
366 143 1
374 143 1
750 143 1
759 143 1
34 144 1
44 144 1
56 144 1
64 144 1
210 144 1
214 144 1
375 144 1
378 144 1
760 144 1
762 144 1
34 145 1
35 145 1
57 145 1
65 145 1
211 145 1
215 145 1
376 145 1
379 145 1
761 145 1
763 145 1
35 146 1
36 146 1
58 146 1
66 146 1
212 146 1
216 146 1
377 146 1
380 146 1
762 146 1
764 146 1
36 147 1
37 147 1
56 147 1
59 147 1
213 147 1
217 147 1
378 147 1
381 147 1
763 147 1
765 147 1
37 148 1
38 148 1
57 148 1
60 148 1
214 148 1
218 148 1
379 148 1
382 148 1
764 148 1
766 148 1
38 149 1
39 149 1
58 149 1
61 149 1
215 149 1
219 149 1
380 149 1
383 149 1
765 149 1
767 149 1
39 150 1
40 150 1
59 150 1
62 150 1
216 150 1
220 150 1
381 150 1
384 150 1
766 150 1
768 150 1
40 151 1
41 151 1
60 151 1
63 151 1
210 151 1
217 151 1
382 151 1
385 151 1
767 151 1
769 151 1
41 152 1
42 152 1
61 152 1
64 152 1
211 152 1
218 152 1
375 152 1
383 152 1
768 152 1
770 152 1
42 153 1
43 153 1
62 153 1
65 153 1
212 153 1
219 153 1
376 153 1
384 153 1
760 153 1
769 153 1
43 154 1
44 154 1
63 154 1
66 154 1
213 154 1
220 154 1
377 154 1
385 154 1
761 154 1
770 154 1
45 155 1
55 155 1
56 155 1
65 155 1
221 155 1
225 155 1
386 155 1
389 155 1
771 155 1
773 155 1
45 156 1
46 156 1
57 156 1
66 156 1
222 156 1
226 156 1
387 156 1
390 156 1
772 156 1
774 156 1
46 157 1
47 157 1
56 157 1
58 157 1
223 157 1
227 157 1
388 157 1
391 157 1
773 157 1
775 157 1
47 158 1
48 158 1
57 158 1
59 158 1
224 158 1
228 158 1
389 158 1
392 158 1
774 158 1
776 158 1
48 159 1
49 159 1
58 159 1
60 159 1
225 159 1
229 159 1
390 159 1
393 159 1
775 159 1
777 159 1
49 160 1
50 160 1
59 160 1
61 160 1
226 160 1
230 160 1
391 160 1
394 160 1
776 160 1
778 160 1
50 161 1
51 161 1
60 161 1
62 161 1
227 161 1
231 161 1
392 161 1
395 161 1
777 161 1
779 161 1
51 162 1
52 162 1
61 162 1
63 162 1
221 162 1
228 162 1
393 162 1
396 162 1
778 162 1
780 162 1
52 163 1
53 163 1
62 163 1
64 163 1
222 163 1
229 163 1
386 163 1
394 163 1
779 163 1
781 163 1
53 164 1
54 164 1
63 164 1
65 164 1
223 164 1
230 164 1
387 164 1
395 164 1
771 164 1
780 164 1
54 165 1
55 165 1
64 165 1
66 165 1
224 165 1
231 165 1
388 165 1
396 165 1
772 165 1
781 165 1
67 166 1
74 166 1
78 166 1
84 166 1
122 166 1
127 166 1
397 166 1
400 166 1
782 166 1
784 166 1
68 167 1
75 167 1
79 167 1
85 167 1
123 167 1
128 167 1
398 167 1
401 167 1
783 167 1
785 167 1
69 168 1
76 168 1
80 168 1
86 168 1
124 168 1
129 168 1
399 168 1
402 168 1
784 168 1
786 168 1
70 169 1
77 169 1
81 169 1
87 169 1
125 169 1
130 169 1
400 169 1
403 169 1
785 169 1
787 169 1
67 170 1
71 170 1
82 170 1
88 170 1
126 170 1
131 170 1
401 170 1
404 170 1
786 170 1
788 170 1
68 171 1
72 171 1
78 171 1
83 171 1
127 171 1
132 171 1
402 171 1
405 171 1
787 171 1
789 171 1
69 172 1
73 172 1
79 172 1
84 172 1
122 172 1
128 172 1
403 172 1
406 172 1
788 172 1
790 172 1
70 173 1
74 173 1
80 173 1
85 173 1
123 173 1
129 173 1
404 173 1
407 173 1
789 173 1
791 173 1
71 174 1
75 174 1
81 174 1
86 174 1
124 174 1
130 174 1
397 174 1
405 174 1
790 174 1
792 174 1
72 175 1
76 175 1
82 175 1
87 175 1
125 175 1
131 175 1
398 175 1
406 175 1
782 175 1
791 175 1
73 176 1
77 176 1
83 176 1
88 176 1
126 176 1
132 176 1
399 176 1
407 176 1
783 176 1
792 176 1
67 177 1
75 177 1
89 177 1
95 177 1
133 177 1
138 177 1
408 177 1
411 177 1
793 177 1
795 177 1
68 178 1
76 178 1
90 178 1
96 178 1
134 178 1
139 178 1
409 178 1
412 178 1
794 178 1
796 178 1
69 179 1
77 179 1
91 179 1
97 179 1
135 179 1
140 179 1
410 179 1
413 179 1
795 179 1
797 179 1
67 180 1
70 180 1
92 180 1
98 180 1
136 180 1
141 180 1
411 180 1
414 180 1
796 180 1
798 180 1
68 181 1
71 181 1
93 181 1
99 181 1
137 181 1
142 181 1
412 181 1
415 181 1
797 181 1
799 181 1
69 182 1
72 182 1
89 182 1
94 182 1
138 182 1
143 182 1
413 182 1
416 182 1
798 182 1
800 182 1
70 183 1
73 183 1
90 183 1
95 183 1
133 183 1
139 183 1
414 183 1
417 183 1
799 183 1
801 183 1
71 184 1
74 184 1
91 184 1
96 184 1
134 184 1
140 184 1
415 184 1
418 184 1
800 184 1
802 184 1
72 185 1
75 185 1
92 185 1
97 185 1
135 185 1
141 185 1
408 185 1
416 185 1
801 185 1
803 185 1
73 186 1
76 186 1
93 186 1
98 186 1
136 186 1
142 186 1
409 186 1
417 186 1
793 186 1
802 186 1
74 187 1
77 187 1
94 187 1
99 187 1
137 187 1
143 187 1
410 187 1
418 187 1
794 187 1
803 187 1
67 188 1
76 188 1
100 188 1
106 188 1
144 188 1
149 188 1
419 188 1
422 188 1
804 188 1
806 188 1
68 189 1
77 189 1
101 189 1
107 189 1
145 189 1
150 189 1
420 189 1
423 189 1
805 189 1
807 189 1
67 190 1
69 190 1
102 190 1
108 190 1
146 190 1
151 190 1
421 190 1
424 190 1
806 190 1
808 190 1
68 191 1
70 191 1
103 191 1
109 191 1
147 191 1
152 191 1
422 191 1
425 191 1
807 191 1
809 191 1
69 192 1
71 192 1
104 192 1
110 192 1
148 192 1
153 192 1
423 192 1
426 192 1
808 192 1
810 192 1
70 193 1
72 193 1
100 193 1
105 193 1
149 193 1
154 193 1
424 193 1
427 193 1
809 193 1
811 193 1
71 194 1
73 194 1
101 194 1
106 194 1
144 194 1
150 194 1
425 194 1
428 194 1
810 194 1
812 194 1
72 195 1
74 195 1
102 195 1
107 195 1
145 195 1
151 195 1
426 195 1
429 195 1
811 195 1
813 195 1
73 196 1
75 196 1
103 196 1
108 196 1
146 196 1
152 196 1
419 196 1
427 196 1
812 196 1
814 196 1
74 197 1
76 197 1
104 197 1
109 197 1
147 197 1
153 197 1
420 197 1
428 197 1
804 197 1
813 197 1
75 198 1
77 198 1
105 198 1
110 198 1
148 198 1
154 198 1
421 198 1
429 198 1
805 198 1
814 198 1
67 199 1
77 199 1
111 199 1
117 199 1
155 199 1
160 199 1
430 199 1
433 199 1
815 199 1
817 199 1
67 200 1
68 200 1
112 200 1
118 200 1
156 200 1
161 200 1
431 200 1
434 200 1
816 200 1
818 200 1
68 201 1
69 201 1
113 201 1
119 201 1
157 201 1
162 201 1
432 201 1
435 201 1
817 201 1
819 201 1
69 202 1
70 202 1
114 202 1
120 202 1
158 202 1
163 202 1
433 202 1
436 202 1
818 202 1
820 202 1
70 203 1
71 203 1
115 203 1
121 203 1
159 203 1
164 203 1
434 203 1
437 203 1
819 203 1
821 203 1
71 204 1
72 204 1
111 204 1
116 204 1
160 204 1
165 204 1
435 204 1
438 204 1
820 204 1
822 204 1
72 205 1
73 205 1
112 205 1
117 205 1
155 205 1
161 205 1
436 205 1
439 205 1
821 205 1
823 205 1
73 206 1
74 206 1
113 206 1
118 206 1
156 206 1
162 206 1
437 206 1
440 206 1
822 206 1
824 206 1
74 207 1
75 207 1
114 207 1
119 207 1
157 207 1
163 207 1
430 207 1
438 207 1
823 207 1
825 207 1
75 208 1
76 208 1
115 208 1
120 208 1
158 208 1
164 208 1
431 208 1
439 208 1
815 208 1
824 208 1
76 209 1
77 209 1
116 209 1
121 209 1
159 209 1
165 209 1
432 209 1
440 209 1
816 209 1
825 209 1
78 210 1
86 210 1
89 210 1
96 210 1
166 210 1
171 210 1
441 210 1
444 210 1
826 210 1
828 210 1
79 211 1
87 211 1
90 211 1
97 211 1
167 211 1
172 211 1
442 211 1
445 211 1
827 211 1
829 211 1
80 212 1
88 212 1
91 212 1
98 212 1
168 212 1
173 212 1
443 212 1
446 212 1
828 212 1
830 212 1
78 213 1
81 213 1
92 213 1
99 213 1
169 213 1
174 213 1
444 213 1
447 213 1
829 213 1
831 213 1
79 214 1
82 214 1
89 214 1
93 214 1
170 214 1
175 214 1
445 214 1
448 214 1
830 214 1
832 214 1
80 215 1
83 215 1
90 215 1
94 215 1
171 215 1
176 215 1
446 215 1
449 215 1
831 215 1
833 215 1
81 216 1
84 216 1
91 216 1
95 216 1
166 216 1
172 216 1
447 216 1
450 216 1
832 216 1
834 216 1
82 217 1
85 217 1
92 217 1
96 217 1
167 217 1
173 217 1
448 217 1
451 217 1
833 217 1
835 217 1
83 218 1
86 218 1
93 218 1
97 218 1
168 218 1
174 218 1
441 218 1
449 218 1
834 218 1
836 218 1
84 219 1
87 219 1
94 219 1
98 219 1
169 219 1
175 219 1
442 219 1
450 219 1
826 219 1
835 219 1
85 220 1
88 220 1
95 220 1
99 220 1
170 220 1
176 220 1
443 220 1
451 220 1
827 220 1
836 220 1
78 221 1
87 221 1
100 221 1
107 221 1
177 221 1
182 221 1
452 221 1
455 221 1
837 221 1
839 221 1
79 222 1
88 222 1
101 222 1
108 222 1
178 222 1
183 222 1
453 222 1
456 222 1
838 222 1
840 222 1
78 223 1
80 223 1
102 223 1
109 223 1
179 223 1
184 223 1
454 223 1
457 223 1
839 223 1
841 223 1
79 224 1
81 224 1
103 224 1
110 224 1
180 224 1
185 224 1
455 224 1
458 224 1
840 224 1
842 224 1
80 225 1
82 225 1
100 225 1
104 225 1
181 225 1
186 225 1
456 225 1
459 225 1
841 225 1
843 225 1
81 226 1
83 226 1
101 226 1
105 226 1
182 226 1
187 226 1
457 226 1
460 226 1
842 226 1
844 226 1
82 227 1
84 227 1
102 227 1
106 227 1
177 227 1
183 227 1
458 227 1
461 227 1
843 227 1
845 227 1
83 228 1
85 228 1
103 228 1
107 228 1
178 228 1
184 228 1
459 228 1
462 228 1
844 228 1
846 228 1
84 229 1
86 229 1
104 229 1
108 229 1
179 229 1
185 229 1
452 229 1
460 229 1
845 229 1
847 229 1
85 230 1
87 230 1
105 230 1
109 230 1
180 230 1
186 230 1
453 230 1
461 230 1
837 230 1
846 230 1
86 231 1
88 231 1
106 231 1
110 231 1
181 231 1
187 231 1
454 231 1
462 231 1
838 231 1
847 231 1
78 232 1
88 232 1
111 232 1
118 232 1
188 232 1
193 232 1
463 232 1
466 232 1
848 232 1
850 232 1
78 233 1
79 233 1
112 233 1
119 233 1
189 233 1
194 233 1
464 233 1
467 233 1
849 233 1
851 233 1
79 234 1
80 234 1
113 234 1
120 234 1
190 234 1
195 234 1
465 234 1
468 234 1
850 234 1
852 234 1
80 235 1
81 235 1
114 235 1
121 235 1
191 235 1
196 235 1
466 235 1
469 235 1
851 235 1
853 235 1
81 236 1
82 236 1
111 236 1
115 236 1
192 236 1
197 236 1
467 236 1
470 236 1
852 236 1
854 236 1
82 237 1
83 237 1
112 237 1
116 237 1
193 237 1
198 237 1
468 237 1
471 237 1
853 237 1
855 237 1
83 238 1
84 238 1
113 238 1
117 238 1
188 238 1
194 238 1
469 238 1
472 238 1
854 238 1
856 238 1
84 239 1
85 239 1
114 239 1
118 239 1
189 239 1
195 239 1
470 239 1
473 239 1
855 239 1
857 239 1
85 240 1
86 240 1
115 240 1
119 240 1
190 240 1
196 240 1
463 240 1
471 240 1
856 240 1
858 240 1
86 241 1
87 241 1
116 241 1
120 241 1
191 241 1
197 241 1
464 241 1
472 241 1
848 241 1
857 241 1
87 242 1
88 242 1
117 242 1
121 242 1
192 242 1
198 242 1
465 242 1
473 242 1
849 242 1
858 242 1
89 243 1
98 243 1
100 243 1
108 243 1
199 243 1
204 243 1
474 243 1
477 243 1
859 243 1
861 243 1
90 244 1
99 244 1
101 244 1
109 244 1
200 244 1
205 244 1
475 244 1
478 244 1
860 244 1
862 244 1
89 245 1
91 245 1
102 245 1
110 245 1
201 245 1
206 245 1
476 245 1
479 245 1
861 245 1
863 245 1
90 246 1
92 246 1
100 246 1
103 246 1
202 246 1
207 246 1
477 246 1
480 246 1
862 246 1
864 246 1
91 247 1
93 247 1
101 247 1
104 247 1
203 247 1
208 247 1
478 247 1
481 247 1
863 247 1
865 247 1
92 248 1
94 248 1
102 248 1
105 248 1
204 248 1
209 248 1
479 248 1
482 248 1
864 248 1
866 248 1
93 249 1
95 249 1
103 249 1
106 249 1
199 249 1
205 249 1
480 249 1
483 249 1
865 249 1
867 249 1
94 250 1
96 250 1
104 250 1
107 250 1
200 250 1
206 250 1
481 250 1
484 250 1
866 250 1
868 250 1
95 251 1
97 251 1
105 251 1
108 251 1
201 251 1
207 251 1
474 251 1
482 251 1
867 251 1
869 251 1
96 252 1
98 252 1
106 252 1
109 252 1
202 252 1
208 252 1
475 252 1
483 252 1
859 252 1
868 252 1
97 253 1
99 253 1
107 253 1
110 253 1
203 253 1
209 253 1
476 253 1
484 253 1
860 253 1
869 253 1
89 254 1
99 254 1
111 254 1
119 254 1
210 254 1
215 254 1
485 254 1
488 254 1
870 254 1
872 254 1
89 255 1
90 255 1
112 255 1
120 255 1
211 255 1
216 255 1
486 255 1
489 255 1
871 255 1
873 255 1
90 256 1
91 256 1
113 256 1
121 256 1
212 256 1
217 256 1
487 256 1
490 256 1
872 256 1
874 256 1
91 257 1
92 257 1
111 257 1
114 257 1
213 257 1
218 257 1
488 257 1
491 257 1
873 257 1
875 257 1
92 258 1
93 258 1
112 258 1
115 258 1
214 258 1
219 258 1
489 258 1
492 258 1
874 258 1
876 258 1
93 259 1
94 259 1
113 259 1
116 259 1
215 259 1
220 259 1
490 259 1
493 259 1
875 259 1
877 259 1
94 260 1
95 260 1
114 260 1
117 260 1
210 260 1
216 260 1
491 260 1
494 260 1
876 260 1
878 260 1
95 261 1
96 261 1
115 261 1
118 261 1
211 261 1
217 261 1
492 261 1
495 261 1
877 261 1
879 261 1
96 262 1
97 262 1
116 262 1
119 262 1
212 262 1
218 262 1
485 262 1
493 262 1
878 262 1
880 262 1
97 263 1
98 263 1
117 263 1
120 263 1
213 263 1
219 263 1
486 263 1
494 263 1
870 263 1
879 263 1
98 264 1
99 264 1
118 264 1
121 264 1
214 264 1
220 264 1
487 264 1
495 264 1
871 264 1
880 264 1
100 265 1
110 265 1
111 265 1
120 265 1
221 265 1
226 265 1
496 265 1
499 265 1
881 265 1
883 265 1
100 266 1
101 266 1
112 266 1
121 266 1
222 266 1
227 266 1
497 266 1
500 266 1
882 266 1
884 266 1
101 267 1
102 267 1
111 267 1
113 267 1
223 267 1
228 267 1
498 267 1
501 267 1
883 267 1
885 267 1
102 268 1
103 268 1
112 268 1
114 268 1
224 268 1
229 268 1
499 268 1
502 268 1
884 268 1
886 268 1
103 269 1
104 269 1
113 269 1
115 269 1
225 269 1
230 269 1
500 269 1
503 269 1
885 269 1
887 269 1
104 270 1
105 270 1
114 270 1
116 270 1
226 270 1
231 270 1
501 270 1
504 270 1
886 270 1
888 270 1
105 271 1
106 271 1
115 271 1
117 271 1
221 271 1
227 271 1
502 271 1
505 271 1
887 271 1
889 271 1
106 272 1
107 272 1
116 272 1
118 272 1
222 272 1
228 272 1
503 272 1
506 272 1
888 272 1
890 272 1
107 273 1
108 273 1
117 273 1
119 273 1
223 273 1
229 273 1
496 273 1
504 273 1
889 273 1
891 273 1
108 274 1
109 274 1
118 274 1
120 274 1
224 274 1
230 274 1
497 274 1
505 274 1
881 274 1
890 274 1
109 275 1
110 275 1
119 275 1
121 275 1
225 275 1
231 275 1
498 275 1
506 275 1
882 275 1
891 275 1
122 276 1
130 276 1
133 276 1
140 276 1
166 276 1
172 276 1
507 276 1
510 276 1
892 276 1
894 276 1
123 277 1
131 277 1
134 277 1
141 277 1
167 277 1
173 277 1
508 277 1
511 277 1
893 277 1
895 277 1
124 278 1
132 278 1
135 278 1
142 278 1
168 278 1
174 278 1
509 278 1
512 278 1
894 278 1
896 278 1
122 279 1
125 279 1
136 279 1
143 279 1
169 279 1
175 279 1
510 279 1
513 279 1
895 279 1
897 279 1
123 280 1
126 280 1
133 280 1
137 280 1
170 280 1
176 280 1
511 280 1
514 280 1
896 280 1
898 280 1
124 281 1
127 281 1
134 281 1
138 281 1
166 281 1
171 281 1
512 281 1
515 281 1
897 281 1
899 281 1
125 282 1
128 282 1
135 282 1
139 282 1
167 282 1
172 282 1
513 282 1
516 282 1
898 282 1
900 282 1
126 283 1
129 283 1
136 283 1
140 283 1
168 283 1
173 283 1
514 283 1
517 283 1
899 283 1
901 283 1
127 284 1
130 284 1
137 284 1
141 284 1
169 284 1
174 284 1
507 284 1
515 284 1
900 284 1
902 284 1
128 285 1
131 285 1
138 285 1
142 285 1
170 285 1
175 285 1
508 285 1
516 285 1
892 285 1
901 285 1
129 286 1
132 286 1
139 286 1
143 286 1
171 286 1
176 286 1
509 286 1
517 286 1
893 286 1
902 286 1
122 287 1
131 287 1
144 287 1
151 287 1
177 287 1
183 287 1
518 287 1
521 287 1
903 287 1
905 287 1
123 288 1
132 288 1
145 288 1
152 288 1
178 288 1
184 288 1
519 288 1
522 288 1
904 288 1
906 288 1
122 289 1
124 289 1
146 289 1
153 289 1
179 289 1
185 289 1
520 289 1
523 289 1
905 289 1
907 289 1
123 290 1
125 290 1
147 290 1
154 290 1
180 290 1
186 290 1
521 290 1
524 290 1
906 290 1
908 290 1
124 291 1
126 291 1
144 291 1
148 291 1
181 291 1
187 291 1
522 291 1
525 291 1
907 291 1
909 291 1
125 292 1
127 292 1
145 292 1
149 292 1
177 292 1
182 292 1
523 292 1
526 292 1
908 292 1
910 292 1
126 293 1
128 293 1
146 293 1
150 293 1
178 293 1
183 293 1
524 293 1
527 293 1
909 293 1
911 293 1
127 294 1
129 294 1
147 294 1
151 294 1
179 294 1
184 294 1
525 294 1
528 294 1
910 294 1
912 294 1
128 295 1
130 295 1
148 295 1
152 295 1
180 295 1
185 295 1
518 295 1
526 295 1
911 295 1
913 295 1
129 296 1
131 296 1
149 296 1
153 296 1
181 296 1
186 296 1
519 296 1
527 296 1
903 296 1
912 296 1
130 297 1
132 297 1
150 297 1
154 297 1
182 297 1
187 297 1
520 297 1
528 297 1
904 297 1
913 297 1
122 298 1
132 298 1
155 298 1
162 298 1
188 298 1
194 298 1
529 298 1
532 298 1
914 298 1
916 298 1
122 299 1
123 299 1
156 299 1
163 299 1
189 299 1
195 299 1
530 299 1
533 299 1
915 299 1
917 299 1
123 300 1
124 300 1
157 300 1
164 300 1
190 300 1
196 300 1
531 300 1
534 300 1
916 300 1
918 300 1
124 301 1
125 301 1
158 301 1
165 301 1
191 301 1
197 301 1
532 301 1
535 301 1
917 301 1
919 301 1
125 302 1
126 302 1
155 302 1
159 302 1
192 302 1
198 302 1
533 302 1
536 302 1
918 302 1
920 302 1
126 303 1
127 303 1
156 303 1
160 303 1
188 303 1
193 303 1
534 303 1
537 303 1
919 303 1
921 303 1
127 304 1
128 304 1
157 304 1
161 304 1
189 304 1
194 304 1
535 304 1
538 304 1
920 304 1
922 304 1
128 305 1
129 305 1
158 305 1
162 305 1
190 305 1
195 305 1
536 305 1
539 305 1
921 305 1
923 305 1
129 306 1
130 306 1
159 306 1
163 306 1
191 306 1
196 306 1
529 306 1
537 306 1
922 306 1
924 306 1
130 307 1
131 307 1
160 307 1
164 307 1
192 307 1
197 307 1
530 307 1
538 307 1
914 307 1
923 307 1
131 308 1
132 308 1
161 308 1
165 308 1
193 308 1
198 308 1
531 308 1
539 308 1
915 308 1
924 308 1
133 309 1
142 309 1
144 309 1
152 309 1
199 309 1
205 309 1
540 309 1
543 309 1
925 309 1
927 309 1
134 310 1
143 310 1
145 310 1
153 310 1
200 310 1
206 310 1
541 310 1
544 310 1
926 310 1
928 310 1
133 311 1
135 311 1
146 311 1
154 311 1
201 311 1
207 311 1
542 311 1
545 311 1
927 311 1
929 311 1
134 312 1
136 312 1
144 312 1
147 312 1
202 312 1
208 312 1
543 312 1
546 312 1
928 312 1
930 312 1
135 313 1
137 313 1
145 313 1
148 313 1
203 313 1
209 313 1
544 313 1
547 313 1
929 313 1
931 313 1
136 314 1
138 314 1
146 314 1
149 314 1
199 314 1
204 314 1
545 314 1
548 314 1
930 314 1
932 314 1
137 315 1
139 315 1
147 315 1
150 315 1
200 315 1
205 315 1
546 315 1
549 315 1
931 315 1
933 315 1
138 316 1
140 316 1
148 316 1
151 316 1
201 316 1
206 316 1
547 316 1
550 316 1
932 316 1
934 316 1
139 317 1
141 317 1
149 317 1
152 317 1
202 317 1
207 317 1
540 317 1
548 317 1
933 317 1
935 317 1
140 318 1
142 318 1
150 318 1
153 318 1
203 318 1
208 318 1
541 318 1
549 318 1
925 318 1
934 318 1
141 319 1
143 319 1
151 319 1
154 319 1
204 319 1
209 319 1
542 319 1
550 319 1
926 319 1
935 319 1
133 320 1
143 320 1
155 320 1
163 320 1
210 320 1
216 320 1
551 320 1
554 320 1
936 320 1
938 320 1
133 321 1
134 321 1
156 321 1
164 321 1
211 321 1
217 321 1
552 321 1
555 321 1
937 321 1
939 321 1
134 322 1
135 322 1
157 322 1
165 322 1
212 322 1
218 322 1
553 322 1
556 322 1
938 322 1
940 322 1
135 323 1
136 323 1
155 323 1
158 323 1
213 323 1
219 323 1
554 323 1
557 323 1
939 323 1
941 323 1
136 324 1
137 324 1
156 324 1
159 324 1
214 324 1
220 324 1
555 324 1
558 324 1
940 324 1
942 324 1
137 325 1
138 325 1
157 325 1
160 325 1
210 325 1
215 325 1
556 325 1
559 325 1
941 325 1
943 325 1
138 326 1
139 326 1
158 326 1
161 326 1
211 326 1
216 326 1
557 326 1
560 326 1
942 326 1
944 326 1
139 327 1
140 327 1
159 327 1
162 327 1
212 327 1
217 327 1
558 327 1
561 327 1
943 327 1
945 327 1
140 328 1
141 328 1
160 328 1
163 328 1
213 328 1
218 328 1
551 328 1
559 328 1
944 328 1
946 328 1
141 329 1
142 329 1
161 329 1
164 329 1
214 329 1
219 329 1
552 329 1
560 329 1
936 329 1
945 329 1
142 330 1
143 330 1
162 330 1
165 330 1
215 330 1
220 330 1
553 330 1
561 330 1
937 330 1
946 330 1
144 331 1
154 331 1
155 331 1
164 331 1
221 331 1
227 331 1
562 331 1
565 331 1
947 331 1
949 331 1
144 332 1
145 332 1
156 332 1
165 332 1
222 332 1
228 332 1
563 332 1
566 332 1
948 332 1
950 332 1
145 333 1
146 333 1
155 333 1
157 333 1
223 333 1
229 333 1
564 333 1
567 333 1
949 333 1
951 333 1
146 334 1
147 334 1
156 334 1
158 334 1
224 334 1
230 334 1
565 334 1
568 334 1
950 334 1
952 334 1
147 335 1
148 335 1
157 335 1
159 335 1
225 335 1
231 335 1
566 335 1
569 335 1
951 335 1
953 335 1
148 336 1
149 336 1
158 336 1
160 336 1
221 336 1
226 336 1
567 336 1
570 336 1
952 336 1
954 336 1
149 337 1
150 337 1
159 337 1
161 337 1
222 337 1
227 337 1
568 337 1
571 337 1
953 337 1
955 337 1
150 338 1
151 338 1
160 338 1
162 338 1
223 338 1
228 338 1
569 338 1
572 338 1
954 338 1
956 338 1
151 339 1
152 339 1
161 339 1
163 339 1
224 339 1
229 339 1
562 339 1
570 339 1
955 339 1
957 339 1
152 340 1
153 340 1
162 340 1
164 340 1
225 340 1
230 340 1
563 340 1
571 340 1
947 340 1
956 340 1
153 341 1
154 341 1
163 341 1
165 341 1
226 341 1
231 341 1
564 341 1
572 341 1
948 341 1
957 341 1
166 342 1
175 342 1
177 342 1
185 342 1
199 342 1
206 342 1
573 342 1
576 342 1
958 342 1
960 342 1
167 343 1
176 343 1
178 343 1
186 343 1
200 343 1
207 343 1
574 343 1
577 343 1
959 343 1
961 343 1
166 344 1
168 344 1
179 344 1
187 344 1
201 344 1
208 344 1
575 344 1
578 344 1
960 344 1
962 344 1
167 345 1
169 345 1
177 345 1
180 345 1
202 345 1
209 345 1
576 345 1
579 345 1
961 345 1
963 345 1
168 346 1
170 346 1
178 346 1
181 346 1
199 346 1
203 346 1
577 346 1
580 346 1
962 346 1
964 346 1
169 347 1
171 347 1
179 347 1
182 347 1
200 347 1
204 347 1
578 347 1
581 347 1
963 347 1
965 347 1
170 348 1
172 348 1
180 348 1
183 348 1
201 348 1
205 348 1
579 348 1
582 348 1
964 348 1
966 348 1
171 349 1
173 349 1
181 349 1
184 349 1
202 349 1
206 349 1
580 349 1
583 349 1
965 349 1
967 349 1
172 350 1
174 350 1
182 350 1
185 350 1
203 350 1
207 350 1
573 350 1
581 350 1
966 350 1
968 350 1
173 351 1
175 351 1
183 351 1
186 351 1
204 351 1
208 351 1
574 351 1
582 351 1
958 351 1
967 351 1
174 352 1
176 352 1
184 352 1
187 352 1
205 352 1
209 352 1
575 352 1
583 352 1
959 352 1
968 352 1
166 353 1
176 353 1
188 353 1
196 353 1
210 353 1
217 353 1
584 353 1
587 353 1
969 353 1
971 353 1
166 354 1
167 354 1
189 354 1
197 354 1
211 354 1
218 354 1
585 354 1
588 354 1
970 354 1
972 354 1
167 355 1
168 355 1
190 355 1
198 355 1
212 355 1
219 355 1
586 355 1
589 355 1
971 355 1
973 355 1
168 356 1
169 356 1
188 356 1
191 356 1
213 356 1
220 356 1
587 356 1
590 356 1
972 356 1
974 356 1
169 357 1
170 357 1
189 357 1
192 357 1
210 357 1
214 357 1
588 357 1
591 357 1
973 357 1
975 357 1
170 358 1
171 358 1
190 358 1
193 358 1
211 358 1
215 358 1
589 358 1
592 358 1
974 358 1
976 358 1
171 359 1
172 359 1
191 359 1
194 359 1
212 359 1
216 359 1
590 359 1
593 359 1
975 359 1
977 359 1
172 360 1
173 360 1
192 360 1
195 360 1
213 360 1
217 360 1
591 360 1
594 360 1
976 360 1
978 360 1
173 361 1
174 361 1
193 361 1
196 361 1
214 361 1
218 361 1
584 361 1
592 361 1
977 361 1
979 361 1
174 362 1
175 362 1
194 362 1
197 362 1
215 362 1
219 362 1
585 362 1
593 362 1
969 362 1
978 362 1
175 363 1
176 363 1
195 363 1
198 363 1
216 363 1
220 363 1
586 363 1
594 363 1
970 363 1
979 363 1
177 364 1
187 364 1
188 364 1
197 364 1
221 364 1
228 364 1
595 364 1
598 364 1
980 364 1
982 364 1
177 365 1
178 365 1
189 365 1
198 365 1
222 365 1
229 365 1
596 365 1
599 365 1
981 365 1
983 365 1
178 366 1
179 366 1
188 366 1
190 366 1
223 366 1
230 366 1
597 366 1
600 366 1
982 366 1
984 366 1
179 367 1
180 367 1
189 367 1
191 367 1
224 367 1
231 367 1
598 367 1
601 367 1
983 367 1
985 367 1
180 368 1
181 368 1
190 368 1
192 368 1
221 368 1
225 368 1
599 368 1
602 368 1
984 368 1
986 368 1
181 369 1
182 369 1
191 369 1
193 369 1
222 369 1
226 369 1
600 369 1
603 369 1
985 369 1
987 369 1
182 370 1
183 370 1
192 370 1
194 370 1
223 370 1
227 370 1
601 370 1
604 370 1
986 370 1
988 370 1
183 371 1
184 371 1
193 371 1
195 371 1
224 371 1
228 371 1
602 371 1
605 371 1
987 371 1
989 371 1
184 372 1
185 372 1
194 372 1
196 372 1
225 372 1
229 372 1
595 372 1
603 372 1
988 372 1
990 372 1
185 373 1
186 373 1
195 373 1
197 373 1
226 373 1
230 373 1
596 373 1
604 373 1
980 373 1
989 373 1
186 374 1
187 374 1
196 374 1
198 374 1
227 374 1
231 374 1
597 374 1
605 374 1
981 374 1
990 374 1
199 375 1
209 375 1
210 375 1
219 375 1
221 375 1
229 375 1
606 375 1
609 375 1
991 375 1
993 375 1
199 376 1
200 376 1
211 376 1
220 376 1
222 376 1
230 376 1
607 376 1
610 376 1
992 376 1
994 376 1
200 377 1
201 377 1
210 377 1
212 377 1
223 377 1
231 377 1
608 377 1
611 377 1
993 377 1
995 377 1
201 378 1
202 378 1
211 378 1
213 378 1
221 378 1
224 378 1
609 378 1
612 378 1
994 378 1
996 378 1
202 379 1
203 379 1
212 379 1
214 379 1
222 379 1
225 379 1
610 379 1
613 379 1
995 379 1
997 379 1
203 380 1
204 380 1
213 380 1
215 380 1
223 380 1
226 380 1
611 380 1
614 380 1
996 380 1
998 380 1
204 381 1
205 381 1
214 381 1
216 381 1
224 381 1
227 381 1
612 381 1
615 381 1
997 381 1
999 381 1
205 382 1
206 382 1
215 382 1
217 382 1
225 382 1
228 382 1
613 382 1
616 382 1
998 382 1
1000 382 1
206 383 1
207 383 1
216 383 1
218 383 1
226 383 1
229 383 1
606 383 1
614 383 1
999 383 1
1001 383 1
207 384 1
208 384 1
217 384 1
219 384 1
227 384 1
230 384 1
607 384 1
615 384 1
991 384 1
1000 384 1
208 385 1
209 385 1
218 385 1
220 385 1
228 385 1
231 385 1
608 385 1
616 385 1
992 385 1
1001 385 1
232 386 1
239 386 1
243 386 1
249 386 1
287 386 1
292 386 1
397 386 1
401 386 1
1002 386 1
1004 386 1
233 387 1
240 387 1
244 387 1
250 387 1
288 387 1
293 387 1
398 387 1
402 387 1
1003 387 1
1005 387 1
234 388 1
241 388 1
245 388 1
251 388 1
289 388 1
294 388 1
399 388 1
403 388 1
1004 388 1
1006 388 1
235 389 1
242 389 1
246 389 1
252 389 1
290 389 1
295 389 1
400 389 1
404 389 1
1005 389 1
1007 389 1
232 390 1
236 390 1
247 390 1
253 390 1
291 390 1
296 390 1
401 390 1
405 390 1
1006 390 1
1008 390 1
233 391 1
237 391 1
243 391 1
248 391 1
292 391 1
297 391 1
402 391 1
406 391 1
1007 391 1
1009 391 1
234 392 1
238 392 1
244 392 1
249 392 1
287 392 1
293 392 1
403 392 1
407 392 1
1008 392 1
1010 392 1
235 393 1
239 393 1
245 393 1
250 393 1
288 393 1
294 393 1
397 393 1
404 393 1
1009 393 1
1011 393 1
236 394 1
240 394 1
246 394 1
251 394 1
289 394 1
295 394 1
398 394 1
405 394 1
1010 394 1
1012 394 1
237 395 1
241 395 1
247 395 1
252 395 1
290 395 1
296 395 1
399 395 1
406 395 1
1002 395 1
1011 395 1
238 396 1
242 396 1
248 396 1
253 396 1
291 396 1
297 396 1
400 396 1
407 396 1
1003 396 1
1012 396 1
232 397 1
240 397 1
254 397 1
260 397 1
298 397 1
303 397 1
408 397 1
412 397 1
1013 397 1
1015 397 1
233 398 1
241 398 1
255 398 1
261 398 1
299 398 1
304 398 1
409 398 1
413 398 1
1014 398 1
1016 398 1
234 399 1
242 399 1
256 399 1
262 399 1
300 399 1
305 399 1
410 399 1
414 399 1
1015 399 1
1017 399 1
232 400 1
235 400 1
257 400 1
263 400 1
301 400 1
306 400 1
411 400 1
415 400 1
1016 400 1
1018 400 1
233 401 1
236 401 1
258 401 1
264 401 1
302 401 1
307 401 1
412 401 1
416 401 1
1017 401 1
1019 401 1
234 402 1
237 402 1
254 402 1
259 402 1
303 402 1
308 402 1
413 402 1
417 402 1
1018 402 1
1020 402 1
235 403 1
238 403 1
255 403 1
260 403 1
298 403 1
304 403 1
414 403 1
418 403 1
1019 403 1
1021 403 1
236 404 1
239 404 1
256 404 1
261 404 1
299 404 1
305 404 1
408 404 1
415 404 1
1020 404 1
1022 404 1
237 405 1
240 405 1
257 405 1
262 405 1
300 405 1
306 405 1
409 405 1
416 405 1
1021 405 1
1023 405 1
238 406 1
241 406 1
258 406 1
263 406 1
301 406 1
307 406 1
410 406 1
417 406 1
1013 406 1
1022 406 1
239 407 1
242 407 1
259 407 1
264 407 1
302 407 1
308 407 1
411 407 1
418 407 1
1014 407 1
1023 407 1
232 408 1
241 408 1
265 408 1
271 408 1
309 408 1
314 408 1
419 408 1
423 408 1
1024 408 1
1026 408 1
233 409 1
242 409 1
266 409 1
272 409 1
310 409 1
315 409 1
420 409 1
424 409 1
1025 409 1
1027 409 1
232 410 1
234 410 1
267 410 1
273 410 1
311 410 1
316 410 1
421 410 1
425 410 1
1026 410 1
1028 410 1
233 411 1
235 411 1
268 411 1
274 411 1
312 411 1
317 411 1
422 411 1
426 411 1
1027 411 1
1029 411 1
234 412 1
236 412 1
269 412 1
275 412 1
313 412 1
318 412 1
423 412 1
427 412 1
1028 412 1
1030 412 1
235 413 1
237 413 1
265 413 1
270 413 1
314 413 1
319 413 1
424 413 1
428 413 1
1029 413 1
1031 413 1
236 414 1
238 414 1
266 414 1
271 414 1
309 414 1
315 414 1
425 414 1
429 414 1
1030 414 1
1032 414 1
237 415 1
239 415 1
267 415 1
272 415 1
310 415 1
316 415 1
419 415 1
426 415 1
1031 415 1
1033 415 1
238 416 1
240 416 1
268 416 1
273 416 1
311 416 1
317 416 1
420 416 1
427 416 1
1032 416 1
1034 416 1
239 417 1
241 417 1
269 417 1
274 417 1
312 417 1
318 417 1
421 417 1
428 417 1
1024 417 1
1033 417 1
240 418 1
242 418 1
270 418 1
275 418 1
313 418 1
319 418 1
422 418 1
429 418 1
1025 418 1
1034 418 1
232 419 1
242 419 1
276 419 1
282 419 1
320 419 1
325 419 1
430 419 1
434 419 1
1035 419 1
1037 419 1
232 420 1
233 420 1
277 420 1
283 420 1
321 420 1
326 420 1
431 420 1
435 420 1
1036 420 1
1038 420 1
233 421 1
234 421 1
278 421 1
284 421 1
322 421 1
327 421 1
432 421 1
436 421 1
1037 421 1
1039 421 1
234 422 1
235 422 1
279 422 1
285 422 1
323 422 1
328 422 1
433 422 1
437 422 1
1038 422 1
1040 422 1
235 423 1
236 423 1
280 423 1
286 423 1
324 423 1
329 423 1
434 423 1
438 423 1
1039 423 1
1041 423 1
236 424 1
237 424 1
276 424 1
281 424 1
325 424 1
330 424 1
435 424 1
439 424 1
1040 424 1
1042 424 1
237 425 1
238 425 1
277 425 1
282 425 1
320 425 1
326 425 1
436 425 1
440 425 1
1041 425 1
1043 425 1
238 426 1
239 426 1
278 426 1
283 426 1
321 426 1
327 426 1
430 426 1
437 426 1
1042 426 1
1044 426 1
239 427 1
240 427 1
279 427 1
284 427 1
322 427 1
328 427 1
431 427 1
438 427 1
1043 427 1
1045 427 1
240 428 1
241 428 1
280 428 1
285 428 1
323 428 1
329 428 1
432 428 1
439 428 1
1035 428 1
1044 428 1
241 429 1
242 429 1
281 429 1
286 429 1
324 429 1
330 429 1
433 429 1
440 429 1
1036 429 1
1045 429 1
243 430 1
251 430 1
254 430 1
261 430 1
331 430 1
336 430 1
441 430 1
445 430 1
1046 430 1
1048 430 1
244 431 1
252 431 1
255 431 1
262 431 1
332 431 1
337 431 1
442 431 1
446 431 1
1047 431 1
1049 431 1
245 432 1
253 432 1
256 432 1
263 432 1
333 432 1
338 432 1
443 432 1
447 432 1
1048 432 1
1050 432 1
243 433 1
246 433 1
257 433 1
264 433 1
334 433 1
339 433 1
444 433 1
448 433 1
1049 433 1
1051 433 1
244 434 1
247 434 1
254 434 1
258 434 1
335 434 1
340 434 1
445 434 1
449 434 1
1050 434 1
1052 434 1
245 435 1
248 435 1
255 435 1
259 435 1
336 435 1
341 435 1
446 435 1
450 435 1
1051 435 1
1053 435 1
246 436 1
249 436 1
256 436 1
260 436 1
331 436 1
337 436 1
447 436 1
451 436 1
1052 436 1
1054 436 1
247 437 1
250 437 1
257 437 1
261 437 1
332 437 1
338 437 1
441 437 1
448 437 1
1053 437 1
1055 437 1
248 438 1
251 438 1
258 438 1
262 438 1
333 438 1
339 438 1
442 438 1
449 438 1
1054 438 1
1056 438 1
249 439 1
252 439 1
259 439 1
263 439 1
334 439 1
340 439 1
443 439 1
450 439 1
1046 439 1
1055 439 1
250 440 1
253 440 1
260 440 1
264 440 1
335 440 1
341 440 1
444 440 1
451 440 1
1047 440 1
1056 440 1
243 441 1
252 441 1
265 441 1
272 441 1
342 441 1
347 441 1
452 441 1
456 441 1
1057 441 1
1059 441 1
244 442 1
253 442 1
266 442 1
273 442 1
343 442 1
348 442 1
453 442 1
457 442 1
1058 442 1
1060 442 1
243 443 1
245 443 1
267 443 1
274 443 1
344 443 1
349 443 1
454 443 1
458 443 1
1059 443 1
1061 443 1
244 444 1
246 444 1
268 444 1
275 444 1
345 444 1
350 444 1
455 444 1
459 444 1
1060 444 1
1062 444 1
245 445 1
247 445 1
265 445 1
269 445 1
346 445 1
351 445 1
456 445 1
460 445 1
1061 445 1
1063 445 1
246 446 1
248 446 1
266 446 1
270 446 1
347 446 1
352 446 1
457 446 1
461 446 1
1062 446 1
1064 446 1
247 447 1
249 447 1
267 447 1
271 447 1
342 447 1
348 447 1
458 447 1
462 447 1
1063 447 1
1065 447 1
248 448 1
250 448 1
268 448 1
272 448 1
343 448 1
349 448 1
452 448 1
459 448 1
1064 448 1
1066 448 1
249 449 1
251 449 1
269 449 1
273 449 1
344 449 1
350 449 1
453 449 1
460 449 1
1065 449 1
1067 449 1
250 450 1
252 450 1
270 450 1
274 450 1
345 450 1
351 450 1
454 450 1
461 450 1
1057 450 1
1066 450 1
251 451 1
253 451 1
271 451 1
275 451 1
346 451 1
352 451 1
455 451 1
462 451 1
1058 451 1
1067 451 1
243 452 1
253 452 1
276 452 1
283 452 1
353 452 1
358 452 1
463 452 1
467 452 1
1068 452 1
1070 452 1
243 453 1
244 453 1
277 453 1
284 453 1
354 453 1
359 453 1
464 453 1
468 453 1
1069 453 1
1071 453 1
244 454 1
245 454 1
278 454 1
285 454 1
355 454 1
360 454 1
465 454 1
469 454 1
1070 454 1
1072 454 1
245 455 1
246 455 1
279 455 1
286 455 1
356 455 1
361 455 1
466 455 1
470 455 1
1071 455 1
1073 455 1
246 456 1
247 456 1
276 456 1
280 456 1
357 456 1
362 456 1
467 456 1
471 456 1
1072 456 1
1074 456 1
247 457 1
248 457 1
277 457 1
281 457 1
358 457 1
363 457 1
468 457 1
472 457 1
1073 457 1
1075 457 1
248 458 1
249 458 1
278 458 1
282 458 1
353 458 1
359 458 1
469 458 1
473 458 1
1074 458 1
1076 458 1
249 459 1
250 459 1
279 459 1
283 459 1
354 459 1
360 459 1
463 459 1
470 459 1
1075 459 1
1077 459 1
250 460 1
251 460 1
280 460 1
284 460 1
355 460 1
361 460 1
464 460 1
471 460 1
1076 460 1
1078 460 1
251 461 1
252 461 1
281 461 1
285 461 1
356 461 1
362 461 1
465 461 1
472 461 1
1068 461 1
1077 461 1
252 462 1
253 462 1
282 462 1
286 462 1
357 462 1
363 462 1
466 462 1
473 462 1
1069 462 1
1078 462 1
254 463 1
263 463 1
265 463 1
273 463 1
364 463 1
369 463 1
474 463 1
478 463 1
1079 463 1
1081 463 1
255 464 1
264 464 1
266 464 1
274 464 1
365 464 1
370 464 1
475 464 1
479 464 1
1080 464 1
1082 464 1
254 465 1
256 465 1
267 465 1
275 465 1
366 465 1
371 465 1
476 465 1
480 465 1
1081 465 1
1083 465 1
255 466 1
257 466 1
265 466 1
268 466 1
367 466 1
372 466 1
477 466 1
481 466 1
1082 466 1
1084 466 1
256 467 1
258 467 1
266 467 1
269 467 1
368 467 1
373 467 1
478 467 1
482 467 1
1083 467 1
1085 467 1
257 468 1
259 468 1
267 468 1
270 468 1
369 468 1
374 468 1
479 468 1
483 468 1
1084 468 1
1086 468 1
258 469 1
260 469 1
268 469 1
271 469 1
364 469 1
370 469 1
480 469 1
484 469 1
1085 469 1
1087 469 1
259 470 1
261 470 1
269 470 1
272 470 1
365 470 1
371 470 1
474 470 1
481 470 1
1086 470 1
1088 470 1
260 471 1
262 471 1
270 471 1
273 471 1
366 471 1
372 471 1
475 471 1
482 471 1
1087 471 1
1089 471 1
261 472 1
263 472 1
271 472 1
274 472 1
367 472 1
373 472 1
476 472 1
483 472 1
1079 472 1
1088 472 1
262 473 1
264 473 1
272 473 1
275 473 1
368 473 1
374 473 1
477 473 1
484 473 1
1080 473 1
1089 473 1
254 474 1
264 474 1
276 474 1
284 474 1
375 474 1
380 474 1
485 474 1
489 474 1
1090 474 1
1092 474 1
254 475 1
255 475 1
277 475 1
285 475 1
376 475 1
381 475 1
486 475 1
490 475 1
1091 475 1
1093 475 1
255 476 1
256 476 1
278 476 1
286 476 1
377 476 1
382 476 1
487 476 1
491 476 1
1092 476 1
1094 476 1
256 477 1
257 477 1
276 477 1
279 477 1
378 477 1
383 477 1
488 477 1
492 477 1
1093 477 1
1095 477 1
257 478 1
258 478 1
277 478 1
280 478 1
379 478 1
384 478 1
489 478 1
493 478 1
1094 478 1
1096 478 1
258 479 1
259 479 1
278 479 1
281 479 1
380 479 1
385 479 1
490 479 1
494 479 1
1095 479 1
1097 479 1
259 480 1
260 480 1
279 480 1
282 480 1
375 480 1
381 480 1
491 480 1
495 480 1
1096 480 1
1098 480 1
260 481 1
261 481 1
280 481 1
283 481 1
376 481 1
382 481 1
485 481 1
492 481 1
1097 481 1
1099 481 1
261 482 1
262 482 1
281 482 1
284 482 1
377 482 1
383 482 1
486 482 1
493 482 1
1098 482 1
1100 482 1
262 483 1
263 483 1
282 483 1
285 483 1
378 483 1
384 483 1
487 483 1
494 483 1
1090 483 1
1099 483 1
263 484 1
264 484 1
283 484 1
286 484 1
379 484 1
385 484 1
488 484 1
495 484 1
1091 484 1
1100 484 1
265 485 1
275 485 1
276 485 1
285 485 1
386 485 1
391 485 1
496 485 1
500 485 1
1101 485 1
1103 485 1
265 486 1
266 486 1
277 486 1
286 486 1
387 486 1
392 486 1
497 486 1
501 486 1
1102 486 1
1104 486 1
266 487 1
267 487 1
276 487 1
278 487 1
388 487 1
393 487 1
498 487 1
502 487 1
1103 487 1
1105 487 1
267 488 1
268 488 1
277 488 1
279 488 1
389 488 1
394 488 1
499 488 1
503 488 1
1104 488 1
1106 488 1
268 489 1
269 489 1
278 489 1
280 489 1
390 489 1
395 489 1
500 489 1
504 489 1
1105 489 1
1107 489 1
269 490 1
270 490 1
279 490 1
281 490 1
391 490 1
396 490 1
501 490 1
505 490 1
1106 490 1
1108 490 1
270 491 1
271 491 1
280 491 1
282 491 1
386 491 1
392 491 1
502 491 1
506 491 1
1107 491 1
1109 491 1
271 492 1
272 492 1
281 492 1
283 492 1
387 492 1
393 492 1
496 492 1
503 492 1
1108 492 1
1110 492 1
272 493 1
273 493 1
282 493 1
284 493 1
388 493 1
394 493 1
497 493 1
504 493 1
1109 493 1
1111 493 1
273 494 1
274 494 1
283 494 1
285 494 1
389 494 1
395 494 1
498 494 1
505 494 1
1101 494 1
1110 494 1
274 495 1
275 495 1
284 495 1
286 495 1
390 495 1
396 495 1
499 495 1
506 495 1
1102 495 1
1111 495 1
287 496 1
295 496 1
298 496 1
305 496 1
331 496 1
337 496 1
507 496 1
511 496 1
1112 496 1
1114 496 1
288 497 1
296 497 1
299 497 1
306 497 1
332 497 1
338 497 1
508 497 1
512 497 1
1113 497 1
1115 497 1
289 498 1
297 498 1
300 498 1
307 498 1
333 498 1
339 498 1
509 498 1
513 498 1
1114 498 1
1116 498 1
287 499 1
290 499 1
301 499 1
308 499 1
334 499 1
340 499 1
510 499 1
514 499 1
1115 499 1
1117 499 1
288 500 1
291 500 1
298 500 1
302 500 1
335 500 1
341 500 1
511 500 1
515 500 1
1116 500 1
1118 500 1
289 501 1
292 501 1
299 501 1
303 501 1
331 501 1
336 501 1
512 501 1
516 501 1
1117 501 1
1119 501 1
290 502 1
293 502 1
300 502 1
304 502 1
332 502 1
337 502 1
513 502 1
517 502 1
1118 502 1
1120 502 1
291 503 1
294 503 1
301 503 1
305 503 1
333 503 1
338 503 1
507 503 1
514 503 1
1119 503 1
1121 503 1
292 504 1
295 504 1
302 504 1
306 504 1
334 504 1
339 504 1
508 504 1
515 504 1
1120 504 1
1122 504 1
293 505 1
296 505 1
303 505 1
307 505 1
335 505 1
340 505 1
509 505 1
516 505 1
1112 505 1
1121 505 1
294 506 1
297 506 1
304 506 1
308 506 1
336 506 1
341 506 1
510 506 1
517 506 1
1113 506 1
1122 506 1
287 507 1
296 507 1
309 507 1
316 507 1
342 507 1
348 507 1
518 507 1
522 507 1
1123 507 1
1125 507 1
288 508 1
297 508 1
310 508 1
317 508 1
343 508 1
349 508 1
519 508 1
523 508 1
1124 508 1
1126 508 1
287 509 1
289 509 1
311 509 1
318 509 1
344 509 1
350 509 1
520 509 1
524 509 1
1125 509 1
1127 509 1
288 510 1
290 510 1
312 510 1
319 510 1
345 510 1
351 510 1
521 510 1
525 510 1
1126 510 1
1128 510 1
289 511 1
291 511 1
309 511 1
313 511 1
346 511 1
352 511 1
522 511 1
526 511 1
1127 511 1
1129 511 1
290 512 1
292 512 1
310 512 1
314 512 1
342 512 1
347 512 1
523 512 1
527 512 1
1128 512 1
1130 512 1
291 513 1
293 513 1
311 513 1
315 513 1
343 513 1
348 513 1
524 513 1
528 513 1
1129 513 1
1131 513 1
292 514 1
294 514 1
312 514 1
316 514 1
344 514 1
349 514 1
518 514 1
525 514 1
1130 514 1
1132 514 1
293 515 1
295 515 1
313 515 1
317 515 1
345 515 1
350 515 1
519 515 1
526 515 1
1131 515 1
1133 515 1
294 516 1
296 516 1
314 516 1
318 516 1
346 516 1
351 516 1
520 516 1
527 516 1
1123 516 1
1132 516 1
295 517 1
297 517 1
315 517 1
319 517 1
347 517 1
352 517 1
521 517 1
528 517 1
1124 517 1
1133 517 1
287 518 1
297 518 1
320 518 1
327 518 1
353 518 1
359 518 1
529 518 1
533 518 1
1134 518 1
1136 518 1
287 519 1
288 519 1
321 519 1
328 519 1
354 519 1
360 519 1
530 519 1
534 519 1
1135 519 1
1137 519 1
288 520 1
289 520 1
322 520 1
329 520 1
355 520 1
361 520 1
531 520 1
535 520 1
1136 520 1
1138 520 1
289 521 1
290 521 1
323 521 1
330 521 1
356 521 1
362 521 1
532 521 1
536 521 1
1137 521 1
1139 521 1
290 522 1
291 522 1
320 522 1
324 522 1
357 522 1
363 522 1
533 522 1
537 522 1
1138 522 1
1140 522 1
291 523 1
292 523 1
321 523 1
325 523 1
353 523 1
358 523 1
534 523 1
538 523 1
1139 523 1
1141 523 1
292 524 1
293 524 1
322 524 1
326 524 1
354 524 1
359 524 1
535 524 1
539 524 1
1140 524 1
1142 524 1
293 525 1
294 525 1
323 525 1
327 525 1
355 525 1
360 525 1
529 525 1
536 525 1
1141 525 1
1143 525 1
294 526 1
295 526 1
324 526 1
328 526 1
356 526 1
361 526 1
530 526 1
537 526 1
1142 526 1
1144 526 1
295 527 1
296 527 1
325 527 1
329 527 1
357 527 1
362 527 1
531 527 1
538 527 1
1134 527 1
1143 527 1
296 528 1
297 528 1
326 528 1
330 528 1
358 528 1
363 528 1
532 528 1
539 528 1
1135 528 1
1144 528 1
298 529 1
307 529 1
309 529 1
317 529 1
364 529 1
370 529 1
540 529 1
544 529 1
1145 529 1
1147 529 1
299 530 1
308 530 1
310 530 1
318 530 1
365 530 1
371 530 1
541 530 1
545 530 1
1146 530 1
1148 530 1
298 531 1
300 531 1
311 531 1
319 531 1
366 531 1
372 531 1
542 531 1
546 531 1
1147 531 1
1149 531 1
299 532 1
301 532 1
309 532 1
312 532 1
367 532 1
373 532 1
543 532 1
547 532 1
1148 532 1
1150 532 1
300 533 1
302 533 1
310 533 1
313 533 1
368 533 1
374 533 1
544 533 1
548 533 1
1149 533 1
1151 533 1
301 534 1
303 534 1
311 534 1
314 534 1
364 534 1
369 534 1
545 534 1
549 534 1
1150 534 1
1152 534 1
302 535 1
304 535 1
312 535 1
315 535 1
365 535 1
370 535 1
546 535 1
550 535 1
1151 535 1
1153 535 1
303 536 1
305 536 1
313 536 1
316 536 1
366 536 1
371 536 1
540 536 1
547 536 1
1152 536 1
1154 536 1
304 537 1
306 537 1
314 537 1
317 537 1
367 537 1
372 537 1
541 537 1
548 537 1
1153 537 1
1155 537 1
305 538 1
307 538 1
315 538 1
318 538 1
368 538 1
373 538 1
542 538 1
549 538 1
1145 538 1
1154 538 1
306 539 1
308 539 1
316 539 1
319 539 1
369 539 1
374 539 1
543 539 1
550 539 1
1146 539 1
1155 539 1
298 540 1
308 540 1
320 540 1
328 540 1
375 540 1
381 540 1
551 540 1
555 540 1
1156 540 1
1158 540 1
298 541 1
299 541 1
321 541 1
329 541 1
376 541 1
382 541 1
552 541 1
556 541 1
1157 541 1
1159 541 1
299 542 1
300 542 1
322 542 1
330 542 1
377 542 1
383 542 1
553 542 1
557 542 1
1158 542 1
1160 542 1
300 543 1
301 543 1
320 543 1
323 543 1
378 543 1
384 543 1
554 543 1
558 543 1
1159 543 1
1161 543 1
301 544 1
302 544 1
321 544 1
324 544 1
379 544 1
385 544 1
555 544 1
559 544 1
1160 544 1
1162 544 1
302 545 1
303 545 1
322 545 1
325 545 1
375 545 1
380 545 1
556 545 1
560 545 1
1161 545 1
1163 545 1
303 546 1
304 546 1
323 546 1
326 546 1
376 546 1
381 546 1
557 546 1
561 546 1
1162 546 1
1164 546 1
304 547 1
305 547 1
324 547 1
327 547 1
377 547 1
382 547 1
551 547 1
558 547 1
1163 547 1
1165 547 1
305 548 1
306 548 1
325 548 1
328 548 1
378 548 1
383 548 1
552 548 1
559 548 1
1164 548 1
1166 548 1
306 549 1
307 549 1
326 549 1
329 549 1
379 549 1
384 549 1
553 549 1
560 549 1
1156 549 1
1165 549 1
307 550 1
308 550 1
327 550 1
330 550 1
380 550 1
385 550 1
554 550 1
561 550 1
1157 550 1
1166 550 1
309 551 1
319 551 1
320 551 1
329 551 1
386 551 1
392 551 1
562 551 1
566 551 1
1167 551 1
1169 551 1
309 552 1
310 552 1
321 552 1
330 552 1
387 552 1
393 552 1
563 552 1
567 552 1
1168 552 1
1170 552 1
310 553 1
311 553 1
320 553 1
322 553 1
388 553 1
394 553 1
564 553 1
568 553 1
1169 553 1
1171 553 1
311 554 1
312 554 1
321 554 1
323 554 1
389 554 1
395 554 1
565 554 1
569 554 1
1170 554 1
1172 554 1
312 555 1
313 555 1
322 555 1
324 555 1
390 555 1
396 555 1
566 555 1
570 555 1
1171 555 1
1173 555 1
313 556 1
314 556 1
323 556 1
325 556 1
386 556 1
391 556 1
567 556 1
571 556 1
1172 556 1
1174 556 1
314 557 1
315 557 1
324 557 1
326 557 1
387 557 1
392 557 1
568 557 1
572 557 1
1173 557 1
1175 557 1
315 558 1
316 558 1
325 558 1
327 558 1
388 558 1
393 558 1
562 558 1
569 558 1
1174 558 1
1176 558 1
316 559 1
317 559 1
326 559 1
328 559 1
389 559 1
394 559 1
563 559 1
570 559 1
1175 559 1
1177 559 1
317 560 1
318 560 1
327 560 1
329 560 1
390 560 1
395 560 1
564 560 1
571 560 1
1167 560 1
1176 560 1
318 561 1
319 561 1
328 561 1
330 561 1
391 561 1
396 561 1
565 561 1
572 561 1
1168 561 1
1177 561 1
331 562 1
340 562 1
342 562 1
350 562 1
364 562 1
371 562 1
573 562 1
577 562 1
1178 562 1
1180 562 1
332 563 1
341 563 1
343 563 1
351 563 1
365 563 1
372 563 1
574 563 1
578 563 1
1179 563 1
1181 563 1
331 564 1
333 564 1
344 564 1
352 564 1
366 564 1
373 564 1
575 564 1
579 564 1
1180 564 1
1182 564 1
332 565 1
334 565 1
342 565 1
345 565 1
367 565 1
374 565 1
576 565 1
580 565 1
1181 565 1
1183 565 1
333 566 1
335 566 1
343 566 1
346 566 1
364 566 1
368 566 1
577 566 1
581 566 1
1182 566 1
1184 566 1
334 567 1
336 567 1
344 567 1
347 567 1
365 567 1
369 567 1
578 567 1
582 567 1
1183 567 1
1185 567 1
335 568 1
337 568 1
345 568 1
348 568 1
366 568 1
370 568 1
579 568 1
583 568 1
1184 568 1
1186 568 1
336 569 1
338 569 1
346 569 1
349 569 1
367 569 1
371 569 1
573 569 1
580 569 1
1185 569 1
1187 569 1
337 570 1
339 570 1
347 570 1
350 570 1
368 570 1
372 570 1
574 570 1
581 570 1
1186 570 1
1188 570 1
338 571 1
340 571 1
348 571 1
351 571 1
369 571 1
373 571 1
575 571 1
582 571 1
1178 571 1
1187 571 1
339 572 1
341 572 1
349 572 1
352 572 1
370 572 1
374 572 1
576 572 1
583 572 1
1179 572 1
1188 572 1
331 573 1
341 573 1
353 573 1
361 573 1
375 573 1
382 573 1
584 573 1
588 573 1
1189 573 1
1191 573 1
331 574 1
332 574 1
354 574 1
362 574 1
376 574 1
383 574 1
585 574 1
589 574 1
1190 574 1
1192 574 1
332 575 1
333 575 1
355 575 1
363 575 1
377 575 1
384 575 1
586 575 1
590 575 1
1191 575 1
1193 575 1
333 576 1
334 576 1
353 576 1
356 576 1
378 576 1
385 576 1
587 576 1
591 576 1
1192 576 1
1194 576 1
334 577 1
335 577 1
354 577 1
357 577 1
375 577 1
379 577 1
588 577 1
592 577 1
1193 577 1
1195 577 1
335 578 1
336 578 1
355 578 1
358 578 1
376 578 1
380 578 1
589 578 1
593 578 1
1194 578 1
1196 578 1
336 579 1
337 579 1
356 579 1
359 579 1
377 579 1
381 579 1
590 579 1
594 579 1
1195 579 1
1197 579 1
337 580 1
338 580 1
357 580 1
360 580 1
378 580 1
382 580 1
584 580 1
591 580 1
1196 580 1
1198 580 1
338 581 1
339 581 1
358 581 1
361 581 1
379 581 1
383 581 1
585 581 1
592 581 1
1197 581 1
1199 581 1
339 582 1
340 582 1
359 582 1
362 582 1
380 582 1
384 582 1
586 582 1
593 582 1
1189 582 1
1198 582 1
340 583 1
341 583 1
360 583 1
363 583 1
381 583 1
385 583 1
587 583 1
594 583 1
1190 583 1
1199 583 1
342 584 1
352 584 1
353 584 1
362 584 1
386 584 1
393 584 1
595 584 1
599 584 1
1200 584 1
1202 584 1
342 585 1
343 585 1
354 585 1
363 585 1
387 585 1
394 585 1
596 585 1
600 585 1
1201 585 1
1203 585 1
343 586 1
344 586 1
353 586 1
355 586 1
388 586 1
395 586 1
597 586 1
601 586 1
1202 586 1
1204 586 1
344 587 1
345 587 1
354 587 1
356 587 1
389 587 1
396 587 1
598 587 1
602 587 1
1203 587 1
1205 587 1
345 588 1
346 588 1
355 588 1
357 588 1
386 588 1
390 588 1
599 588 1
603 588 1
1204 588 1
1206 588 1
346 589 1
347 589 1
356 589 1
358 589 1
387 589 1
391 589 1
600 589 1
604 589 1
1205 589 1
1207 589 1
347 590 1
348 590 1
357 590 1
359 590 1
388 590 1
392 590 1
601 590 1
605 590 1
1206 590 1
1208 590 1
348 591 1
349 591 1
358 591 1
360 591 1
389 591 1
393 591 1
595 591 1
602 591 1
1207 591 1
1209 591 1
349 592 1
350 592 1
359 592 1
361 592 1
390 592 1
394 592 1
596 592 1
603 592 1
1208 592 1
1210 592 1
350 593 1
351 593 1
360 593 1
362 593 1
391 593 1
395 593 1
597 593 1
604 593 1
1200 593 1
1209 593 1
351 594 1
352 594 1
361 594 1
363 594 1
392 594 1
396 594 1
598 594 1
605 594 1
1201 594 1
1210 594 1
364 595 1
374 595 1
375 595 1
384 595 1
386 595 1
394 595 1
606 595 1
610 595 1
1211 595 1
1213 595 1
364 596 1
365 596 1
376 596 1
385 596 1
387 596 1
395 596 1
607 596 1
611 596 1
1212 596 1
1214 596 1
365 597 1
366 597 1
375 597 1
377 597 1
388 597 1
396 597 1
608 597 1
612 597 1
1213 597 1
1215 597 1
366 598 1
367 598 1
376 598 1
378 598 1
386 598 1
389 598 1
609 598 1
613 598 1
1214 598 1
1216 598 1
367 599 1
368 599 1
377 599 1
379 599 1
387 599 1
390 599 1
610 599 1
614 599 1
1215 599 1
1217 599 1
368 600 1
369 600 1
378 600 1
380 600 1
388 600 1
391 600 1
611 600 1
615 600 1
1216 600 1
1218 600 1
369 601 1
370 601 1
379 601 1
381 601 1
389 601 1
392 601 1
612 601 1
616 601 1
1217 601 1
1219 601 1
370 602 1
371 602 1
380 602 1
382 602 1
390 602 1
393 602 1
606 602 1
613 602 1
1218 602 1
1220 602 1
371 603 1
372 603 1
381 603 1
383 603 1
391 603 1
394 603 1
607 603 1
614 603 1
1219 603 1
1221 603 1
372 604 1
373 604 1
382 604 1
384 604 1
392 604 1
395 604 1
608 604 1
615 604 1
1211 604 1
1220 604 1
373 605 1
374 605 1
383 605 1
385 605 1
393 605 1
396 605 1
609 605 1
616 605 1
1212 605 1
1221 605 1
397 606 1
405 606 1
408 606 1
415 606 1
441 606 1
447 606 1
507 606 1
512 606 1
1222 606 1
1224 606 1
398 607 1
406 607 1
409 607 1
416 607 1
442 607 1
448 607 1
508 607 1
513 607 1
1223 607 1
1225 607 1
399 608 1
407 608 1
410 608 1
417 608 1
443 608 1
449 608 1
509 608 1
514 608 1
1224 608 1
1226 608 1
397 609 1
400 609 1
411 609 1
418 609 1
444 609 1
450 609 1
510 609 1
515 609 1
1225 609 1
1227 609 1
398 610 1
401 610 1
408 610 1
412 610 1
445 610 1
451 610 1
511 610 1
516 610 1
1226 610 1
1228 610 1
399 611 1
402 611 1
409 611 1
413 611 1
441 611 1
446 611 1
512 611 1
517 611 1
1227 611 1
1229 611 1
400 612 1
403 612 1
410 612 1
414 612 1
442 612 1
447 612 1
507 612 1
513 612 1
1228 612 1
1230 612 1
401 613 1
404 613 1
411 613 1
415 613 1
443 613 1
448 613 1
508 613 1
514 613 1
1229 613 1
1231 613 1
402 614 1
405 614 1
412 614 1
416 614 1
444 614 1
449 614 1
509 614 1
515 614 1
1230 614 1
1232 614 1
403 615 1
406 615 1
413 615 1
417 615 1
445 615 1
450 615 1
510 615 1
516 615 1
1222 615 1
1231 615 1
404 616 1
407 616 1
414 616 1
418 616 1
446 616 1
451 616 1
511 616 1
517 616 1
1223 616 1
1232 616 1
397 617 1
406 617 1
419 617 1
426 617 1
452 617 1
458 617 1
518 617 1
523 617 1
1233 617 1
1235 617 1
398 618 1
407 618 1
420 618 1
427 618 1
453 618 1
459 618 1
519 618 1
524 618 1
1234 618 1
1236 618 1
397 619 1
399 619 1
421 619 1
428 619 1
454 619 1
460 619 1
520 619 1
525 619 1
1235 619 1
1237 619 1
398 620 1
400 620 1
422 620 1
429 620 1
455 620 1
461 620 1
521 620 1
526 620 1
1236 620 1
1238 620 1
399 621 1
401 621 1
419 621 1
423 621 1
456 621 1
462 621 1
522 621 1
527 621 1
1237 621 1
1239 621 1
400 622 1
402 622 1
420 622 1
424 622 1
452 622 1
457 622 1
523 622 1
528 622 1
1238 622 1
1240 622 1
401 623 1
403 623 1
421 623 1
425 623 1
453 623 1
458 623 1
518 623 1
524 623 1
1239 623 1
1241 623 1
402 624 1
404 624 1
422 624 1
426 624 1
454 624 1
459 624 1
519 624 1
525 624 1
1240 624 1
1242 624 1
403 625 1
405 625 1
423 625 1
427 625 1
455 625 1
460 625 1
520 625 1
526 625 1
1241 625 1
1243 625 1
404 626 1
406 626 1
424 626 1
428 626 1
456 626 1
461 626 1
521 626 1
527 626 1
1233 626 1
1242 626 1
405 627 1
407 627 1
425 627 1
429 627 1
457 627 1
462 627 1
522 627 1
528 627 1
1234 627 1
1243 627 1
397 628 1
407 628 1
430 628 1
437 628 1
463 628 1
469 628 1
529 628 1
534 628 1
1244 628 1
1246 628 1
397 629 1
398 629 1
431 629 1
438 629 1
464 629 1
470 629 1
530 629 1
535 629 1
1245 629 1
1247 629 1
398 630 1
399 630 1
432 630 1
439 630 1
465 630 1
471 630 1
531 630 1
536 630 1
1246 630 1
1248 630 1
399 631 1
400 631 1
433 631 1
440 631 1
466 631 1
472 631 1
532 631 1
537 631 1
1247 631 1
1249 631 1
400 632 1
401 632 1
430 632 1
434 632 1
467 632 1
473 632 1
533 632 1
538 632 1
1248 632 1
1250 632 1
401 633 1
402 633 1
431 633 1
435 633 1
463 633 1
468 633 1
534 633 1
539 633 1
1249 633 1
1251 633 1
402 634 1
403 634 1
432 634 1
436 634 1
464 634 1
469 634 1
529 634 1
535 634 1
1250 634 1
1252 634 1
403 635 1
404 635 1
433 635 1
437 635 1
465 635 1
470 635 1
530 635 1
536 635 1
1251 635 1
1253 635 1
404 636 1
405 636 1
434 636 1
438 636 1
466 636 1
471 636 1
531 636 1
537 636 1
1252 636 1
1254 636 1
405 637 1
406 637 1
435 637 1
439 637 1
467 637 1
472 637 1
532 637 1
538 637 1
1244 637 1
1253 637 1
406 638 1
407 638 1
436 638 1
440 638 1
468 638 1
473 638 1
533 638 1
539 638 1
1245 638 1
1254 638 1
408 639 1
417 639 1
419 639 1
427 639 1
474 639 1
480 639 1
540 639 1
545 639 1
1255 639 1
1257 639 1
409 640 1
418 640 1
420 640 1
428 640 1
475 640 1
481 640 1
541 640 1
546 640 1
1256 640 1
1258 640 1
408 641 1
410 641 1
421 641 1
429 641 1
476 641 1
482 641 1
542 641 1
547 641 1
1257 641 1
1259 641 1
409 642 1
411 642 1
419 642 1
422 642 1
477 642 1
483 642 1
543 642 1
548 642 1
1258 642 1
1260 642 1
410 643 1
412 643 1
420 643 1
423 643 1
478 643 1
484 643 1
544 643 1
549 643 1
1259 643 1
1261 643 1
411 644 1
413 644 1
421 644 1
424 644 1
474 644 1
479 644 1
545 644 1
550 644 1
1260 644 1
1262 644 1
412 645 1
414 645 1
422 645 1
425 645 1
475 645 1
480 645 1
540 645 1
546 645 1
1261 645 1
1263 645 1
413 646 1
415 646 1
423 646 1
426 646 1
476 646 1
481 646 1
541 646 1
547 646 1
1262 646 1
1264 646 1
414 647 1
416 647 1
424 647 1
427 647 1
477 647 1
482 647 1
542 647 1
548 647 1
1263 647 1
1265 647 1
415 648 1
417 648 1
425 648 1
428 648 1
478 648 1
483 648 1
543 648 1
549 648 1
1255 648 1
1264 648 1
416 649 1
418 649 1
426 649 1
429 649 1
479 649 1
484 649 1
544 649 1
550 649 1
1256 649 1
1265 649 1
408 650 1
418 650 1
430 650 1
438 650 1
485 650 1
491 650 1
551 650 1
556 650 1
1266 650 1
1268 650 1
408 651 1
409 651 1
431 651 1
439 651 1
486 651 1
492 651 1
552 651 1
557 651 1
1267 651 1
1269 651 1
409 652 1
410 652 1
432 652 1
440 652 1
487 652 1
493 652 1
553 652 1
558 652 1
1268 652 1
1270 652 1
410 653 1
411 653 1
430 653 1
433 653 1
488 653 1
494 653 1
554 653 1
559 653 1
1269 653 1
1271 653 1
411 654 1
412 654 1
431 654 1
434 654 1
489 654 1
495 654 1
555 654 1
560 654 1
1270 654 1
1272 654 1
412 655 1
413 655 1
432 655 1
435 655 1
485 655 1
490 655 1
556 655 1
561 655 1
1271 655 1
1273 655 1
413 656 1
414 656 1
433 656 1
436 656 1
486 656 1
491 656 1
551 656 1
557 656 1
1272 656 1
1274 656 1
414 657 1
415 657 1
434 657 1
437 657 1
487 657 1
492 657 1
552 657 1
558 657 1
1273 657 1
1275 657 1
415 658 1
416 658 1
435 658 1
438 658 1
488 658 1
493 658 1
553 658 1
559 658 1
1274 658 1
1276 658 1
416 659 1
417 659 1
436 659 1
439 659 1
489 659 1
494 659 1
554 659 1
560 659 1
1266 659 1
1275 659 1
417 660 1
418 660 1
437 660 1
440 660 1
490 660 1
495 660 1
555 660 1
561 660 1
1267 660 1
1276 660 1
419 661 1
429 661 1
430 661 1
439 661 1
496 661 1
502 661 1
562 661 1
567 661 1
1277 661 1
1279 661 1
419 662 1
420 662 1
431 662 1
440 662 1
497 662 1
503 662 1
563 662 1
568 662 1
1278 662 1
1280 662 1
420 663 1
421 663 1
430 663 1
432 663 1
498 663 1
504 663 1
564 663 1
569 663 1
1279 663 1
1281 663 1
421 664 1
422 664 1
431 664 1
433 664 1
499 664 1
505 664 1
565 664 1
570 664 1
1280 664 1
1282 664 1
422 665 1
423 665 1
432 665 1
434 665 1
500 665 1
506 665 1
566 665 1
571 665 1
1281 665 1
1283 665 1
423 666 1
424 666 1
433 666 1
435 666 1
496 666 1
501 666 1
567 666 1
572 666 1
1282 666 1
1284 666 1
424 667 1
425 667 1
434 667 1
436 667 1
497 667 1
502 667 1
562 667 1
568 667 1
1283 667 1
1285 667 1
425 668 1
426 668 1
435 668 1
437 668 1
498 668 1
503 668 1
563 668 1
569 668 1
1284 668 1
1286 668 1
426 669 1
427 669 1
436 669 1
438 669 1
499 669 1
504 669 1
564 669 1
570 669 1
1285 669 1
1287 669 1
427 670 1
428 670 1
437 670 1
439 670 1
500 670 1
505 670 1
565 670 1
571 670 1
1277 670 1
1286 670 1
428 671 1
429 671 1
438 671 1
440 671 1
501 671 1
506 671 1
566 671 1
572 671 1
1278 671 1
1287 671 1
441 672 1
450 672 1
452 672 1
460 672 1
474 672 1
481 672 1
573 672 1
578 672 1
1288 672 1
1290 672 1
442 673 1
451 673 1
453 673 1
461 673 1
475 673 1
482 673 1
574 673 1
579 673 1
1289 673 1
1291 673 1
441 674 1
443 674 1
454 674 1
462 674 1
476 674 1
483 674 1
575 674 1
580 674 1
1290 674 1
1292 674 1
442 675 1
444 675 1
452 675 1
455 675 1
477 675 1
484 675 1
576 675 1
581 675 1
1291 675 1
1293 675 1
443 676 1
445 676 1
453 676 1
456 676 1
474 676 1
478 676 1
577 676 1
582 676 1
1292 676 1
1294 676 1
444 677 1
446 677 1
454 677 1
457 677 1
475 677 1
479 677 1
578 677 1
583 677 1
1293 677 1
1295 677 1
445 678 1
447 678 1
455 678 1
458 678 1
476 678 1
480 678 1
573 678 1
579 678 1
1294 678 1
1296 678 1
446 679 1
448 679 1
456 679 1
459 679 1
477 679 1
481 679 1
574 679 1
580 679 1
1295 679 1
1297 679 1
447 680 1
449 680 1
457 680 1
460 680 1
478 680 1
482 680 1
575 680 1
581 680 1
1296 680 1
1298 680 1
448 681 1
450 681 1
458 681 1
461 681 1
479 681 1
483 681 1
576 681 1
582 681 1
1288 681 1
1297 681 1
449 682 1
451 682 1
459 682 1
462 682 1
480 682 1
484 682 1
577 682 1
583 682 1
1289 682 1
1298 682 1
441 683 1
451 683 1
463 683 1
471 683 1
485 683 1
492 683 1
584 683 1
589 683 1
1299 683 1
1301 683 1
441 684 1
442 684 1
464 684 1
472 684 1
486 684 1
493 684 1
585 684 1
590 684 1
1300 684 1
1302 684 1
442 685 1
443 685 1
465 685 1
473 685 1
487 685 1
494 685 1
586 685 1
591 685 1
1301 685 1
1303 685 1
443 686 1
444 686 1
463 686 1
466 686 1
488 686 1
495 686 1
587 686 1
592 686 1
1302 686 1
1304 686 1
444 687 1
445 687 1
464 687 1
467 687 1
485 687 1
489 687 1
588 687 1
593 687 1
1303 687 1
1305 687 1
445 688 1
446 688 1
465 688 1
468 688 1
486 688 1
490 688 1
589 688 1
594 688 1
1304 688 1
1306 688 1
446 689 1
447 689 1
466 689 1
469 689 1
487 689 1
491 689 1
584 689 1
590 689 1
1305 689 1
1307 689 1
447 690 1
448 690 1
467 690 1
470 690 1
488 690 1
492 690 1
585 690 1
591 690 1
1306 690 1
1308 690 1
448 691 1
449 691 1
468 691 1
471 691 1
489 691 1
493 691 1
586 691 1
592 691 1
1307 691 1
1309 691 1
449 692 1
450 692 1
469 692 1
472 692 1
490 692 1
494 692 1
587 692 1
593 692 1
1299 692 1
1308 692 1
450 693 1
451 693 1
470 693 1
473 693 1
491 693 1
495 693 1
588 693 1
594 693 1
1300 693 1
1309 693 1
452 694 1
462 694 1
463 694 1
472 694 1
496 694 1
503 694 1
595 694 1
600 694 1
1310 694 1
1312 694 1
452 695 1
453 695 1
464 695 1
473 695 1
497 695 1
504 695 1
596 695 1
601 695 1
1311 695 1
1313 695 1
453 696 1
454 696 1
463 696 1
465 696 1
498 696 1
505 696 1
597 696 1
602 696 1
1312 696 1
1314 696 1
454 697 1
455 697 1
464 697 1
466 697 1
499 697 1
506 697 1
598 697 1
603 697 1
1313 697 1
1315 697 1
455 698 1
456 698 1
465 698 1
467 698 1
496 698 1
500 698 1
599 698 1
604 698 1
1314 698 1
1316 698 1
456 699 1
457 699 1
466 699 1
468 699 1
497 699 1
501 699 1
600 699 1
605 699 1
1315 699 1
1317 699 1
457 700 1
458 700 1
467 700 1
469 700 1
498 700 1
502 700 1
595 700 1
601 700 1
1316 700 1
1318 700 1
458 701 1
459 701 1
468 701 1
470 701 1
499 701 1
503 701 1
596 701 1
602 701 1
1317 701 1
1319 701 1
459 702 1
460 702 1
469 702 1
471 702 1
500 702 1
504 702 1
597 702 1
603 702 1
1318 702 1
1320 702 1
460 703 1
461 703 1
470 703 1
472 703 1
501 703 1
505 703 1
598 703 1
604 703 1
1310 703 1
1319 703 1
461 704 1
462 704 1
471 704 1
473 704 1
502 704 1
506 704 1
599 704 1
605 704 1
1311 704 1
1320 704 1
474 705 1
484 705 1
485 705 1
494 705 1
496 705 1
504 705 1
606 705 1
611 705 1
1321 705 1
1323 705 1
474 706 1
475 706 1
486 706 1
495 706 1
497 706 1
505 706 1
607 706 1
612 706 1
1322 706 1
1324 706 1
475 707 1
476 707 1
485 707 1
487 707 1
498 707 1
506 707 1
608 707 1
613 707 1
1323 707 1
1325 707 1
476 708 1
477 708 1
486 708 1
488 708 1
496 708 1
499 708 1
609 708 1
614 708 1
1324 708 1
1326 708 1
477 709 1
478 709 1
487 709 1
489 709 1
497 709 1
500 709 1
610 709 1
615 709 1
1325 709 1
1327 709 1
478 710 1
479 710 1
488 710 1
490 710 1
498 710 1
501 710 1
611 710 1
616 710 1
1326 710 1
1328 710 1
479 711 1
480 711 1
489 711 1
491 711 1
499 711 1
502 711 1
606 711 1
612 711 1
1327 711 1
1329 711 1
480 712 1
481 712 1
490 712 1
492 712 1
500 712 1
503 712 1
607 712 1
613 712 1
1328 712 1
1330 712 1
481 713 1
482 713 1
491 713 1
493 713 1
501 713 1
504 713 1
608 713 1
614 713 1
1329 713 1
1331 713 1
482 714 1
483 714 1
492 714 1
494 714 1
502 714 1
505 714 1
609 714 1
615 714 1
1321 714 1
1330 714 1
483 715 1
484 715 1
493 715 1
495 715 1
503 715 1
506 715 1
610 715 1
616 715 1
1322 715 1
1331 715 1
507 716 1
516 716 1
518 716 1
526 716 1
540 716 1
547 716 1
573 716 1
579 716 1
1332 716 1
1334 716 1
508 717 1
517 717 1
519 717 1
527 717 1
541 717 1
548 717 1
574 717 1
580 717 1
1333 717 1
1335 717 1
507 718 1
509 718 1
520 718 1
528 718 1
542 718 1
549 718 1
575 718 1
581 718 1
1334 718 1
1336 718 1
508 719 1
510 719 1
518 719 1
521 719 1
543 719 1
550 719 1
576 719 1
582 719 1
1335 719 1
1337 719 1
509 720 1
511 720 1
519 720 1
522 720 1
540 720 1
544 720 1
577 720 1
583 720 1
1336 720 1
1338 720 1
510 721 1
512 721 1
520 721 1
523 721 1
541 721 1
545 721 1
573 721 1
578 721 1
1337 721 1
1339 721 1
511 722 1
513 722 1
521 722 1
524 722 1
542 722 1
546 722 1
574 722 1
579 722 1
1338 722 1
1340 722 1
512 723 1
514 723 1
522 723 1
525 723 1
543 723 1
547 723 1
575 723 1
580 723 1
1339 723 1
1341 723 1
513 724 1
515 724 1
523 724 1
526 724 1
544 724 1
548 724 1
576 724 1
581 724 1
1340 724 1
1342 724 1
514 725 1
516 725 1
524 725 1
527 725 1
545 725 1
549 725 1
577 725 1
582 725 1
1332 725 1
1341 725 1
515 726 1
517 726 1
525 726 1
528 726 1
546 726 1
550 726 1
578 726 1
583 726 1
1333 726 1
1342 726 1
507 727 1
517 727 1
529 727 1
537 727 1
551 727 1
558 727 1
584 727 1
590 727 1
1343 727 1
1345 727 1
507 728 1
508 728 1
530 728 1
538 728 1
552 728 1
559 728 1
585 728 1
591 728 1
1344 728 1
1346 728 1
508 729 1
509 729 1
531 729 1
539 729 1
553 729 1
560 729 1
586 729 1
592 729 1
1345 729 1
1347 729 1
509 730 1
510 730 1
529 730 1
532 730 1
554 730 1
561 730 1
587 730 1
593 730 1
1346 730 1
1348 730 1
510 731 1
511 731 1
530 731 1
533 731 1
551 731 1
555 731 1
588 731 1
594 731 1
1347 731 1
1349 731 1
511 732 1
512 732 1
531 732 1
534 732 1
552 732 1
556 732 1
584 732 1
589 732 1
1348 732 1
1350 732 1
512 733 1
513 733 1
532 733 1
535 733 1
553 733 1
557 733 1
585 733 1
590 733 1
1349 733 1
1351 733 1
513 734 1
514 734 1
533 734 1
536 734 1
554 734 1
558 734 1
586 734 1
591 734 1
1350 734 1
1352 734 1
514 735 1
515 735 1
534 735 1
537 735 1
555 735 1
559 735 1
587 735 1
592 735 1
1351 735 1
1353 735 1
515 736 1
516 736 1
535 736 1
538 736 1
556 736 1
560 736 1
588 736 1
593 736 1
1343 736 1
1352 736 1
516 737 1
517 737 1
536 737 1
539 737 1
557 737 1
561 737 1
589 737 1
594 737 1
1344 737 1
1353 737 1
518 738 1
528 738 1
529 738 1
538 738 1
562 738 1
569 738 1
595 738 1
601 738 1
1354 738 1
1356 738 1
518 739 1
519 739 1
530 739 1
539 739 1
563 739 1
570 739 1
596 739 1
602 739 1
1355 739 1
1357 739 1
519 740 1
520 740 1
529 740 1
531 740 1
564 740 1
571 740 1
597 740 1
603 740 1
1356 740 1
1358 740 1
520 741 1
521 741 1
530 741 1
532 741 1
565 741 1
572 741 1
598 741 1
604 741 1
1357 741 1
1359 741 1
521 742 1
522 742 1
531 742 1
533 742 1
562 742 1
566 742 1
599 742 1
605 742 1
1358 742 1
1360 742 1
522 743 1
523 743 1
532 743 1
534 743 1
563 743 1
567 743 1
595 743 1
600 743 1
1359 743 1
1361 743 1
523 744 1
524 744 1
533 744 1
535 744 1
564 744 1
568 744 1
596 744 1
601 744 1
1360 744 1
1362 744 1
524 745 1
525 745 1
534 745 1
536 745 1
565 745 1
569 745 1
597 745 1
602 745 1
1361 745 1
1363 745 1
525 746 1
526 746 1
535 746 1
537 746 1
566 746 1
570 746 1
598 746 1
603 746 1
1362 746 1
1364 746 1
526 747 1
527 747 1
536 747 1
538 747 1
567 747 1
571 747 1
599 747 1
604 747 1
1354 747 1
1363 747 1
527 748 1
528 748 1
537 748 1
539 748 1
568 748 1
572 748 1
600 748 1
605 748 1
1355 748 1
1364 748 1
540 749 1
550 749 1
551 749 1
560 749 1
562 749 1
570 749 1
606 749 1
612 749 1
1365 749 1
1367 749 1
540 750 1
541 750 1
552 750 1
561 750 1
563 750 1
571 750 1
607 750 1
613 750 1
1366 750 1
1368 750 1
541 751 1
542 751 1
551 751 1
553 751 1
564 751 1
572 751 1
608 751 1
614 751 1
1367 751 1
1369 751 1
542 752 1
543 752 1
552 752 1
554 752 1
562 752 1
565 752 1
609 752 1
615 752 1
1368 752 1
1370 752 1
543 753 1
544 753 1
553 753 1
555 753 1
563 753 1
566 753 1
610 753 1
616 753 1
1369 753 1
1371 753 1
544 754 1
545 754 1
554 754 1
556 754 1
564 754 1
567 754 1
606 754 1
611 754 1
1370 754 1
1372 754 1
545 755 1
546 755 1
555 755 1
557 755 1
565 755 1
568 755 1
607 755 1
612 755 1
1371 755 1
1373 755 1
546 756 1
547 756 1
556 756 1
558 756 1
566 756 1
569 756 1
608 756 1
613 756 1
1372 756 1
1374 756 1
547 757 1
548 757 1
557 757 1
559 757 1
567 757 1
570 757 1
609 757 1
614 757 1
1373 757 1
1375 757 1
548 758 1
549 758 1
558 758 1
560 758 1
568 758 1
571 758 1
610 758 1
615 758 1
1365 758 1
1374 758 1
549 759 1
550 759 1
559 759 1
561 759 1
569 759 1
572 759 1
611 759 1
616 759 1
1366 759 1
1375 759 1
573 760 1
583 760 1
584 760 1
593 760 1
595 760 1
603 760 1
606 760 1
613 760 1
1376 760 1
1378 760 1
573 761 1
574 761 1
585 761 1
594 761 1
596 761 1
604 761 1
607 761 1
614 761 1
1377 761 1
1379 761 1
574 762 1
575 762 1
584 762 1
586 762 1
597 762 1
605 762 1
608 762 1
615 762 1
1378 762 1
1380 762 1
575 763 1
576 763 1
585 763 1
587 763 1
595 763 1
598 763 1
609 763 1
616 763 1
1379 763 1
1381 763 1
576 764 1
577 764 1
586 764 1
588 764 1
596 764 1
599 764 1
606 764 1
610 764 1
1380 764 1
1382 764 1
577 765 1
578 765 1
587 765 1
589 765 1
597 765 1
600 765 1
607 765 1
611 765 1
1381 765 1
1383 765 1
578 766 1
579 766 1
588 766 1
590 766 1
598 766 1
601 766 1
608 766 1
612 766 1
1382 766 1
1384 766 1
579 767 1
580 767 1
589 767 1
591 767 1
599 767 1
602 767 1
609 767 1
613 767 1
1383 767 1
1385 767 1
580 768 1
581 768 1
590 768 1
592 768 1
600 768 1
603 768 1
610 768 1
614 768 1
1384 768 1
1386 768 1
581 769 1
582 769 1
591 769 1
593 769 1
601 769 1
604 769 1
611 769 1
615 769 1
1376 769 1
1385 769 1
582 770 1
583 770 1
592 770 1
594 770 1
602 770 1
605 770 1
612 770 1
616 770 1
1377 770 1
1386 770 1
617 771 1
624 771 1
628 771 1
634 771 1
672 771 1
677 771 1
782 771 1
786 771 1
1002 771 1
1005 771 1
618 772 1
625 772 1
629 772 1
635 772 1
673 772 1
678 772 1
783 772 1
787 772 1
1003 772 1
1006 772 1
619 773 1
626 773 1
630 773 1
636 773 1
674 773 1
679 773 1
784 773 1
788 773 1
1004 773 1
1007 773 1
620 774 1
627 774 1
631 774 1
637 774 1
675 774 1
680 774 1
785 774 1
789 774 1
1005 774 1
1008 774 1
617 775 1
621 775 1
632 775 1
638 775 1
676 775 1
681 775 1
786 775 1
790 775 1
1006 775 1
1009 775 1
618 776 1
622 776 1
628 776 1
633 776 1
677 776 1
682 776 1
787 776 1
791 776 1
1007 776 1
1010 776 1
619 777 1
623 777 1
629 777 1
634 777 1
672 777 1
678 777 1
788 777 1
792 777 1
1008 777 1
1011 777 1
620 778 1
624 778 1
630 778 1
635 778 1
673 778 1
679 778 1
782 778 1
789 778 1
1009 778 1
1012 778 1
621 779 1
625 779 1
631 779 1
636 779 1
674 779 1
680 779 1
783 779 1
790 779 1
1002 779 1
1010 779 1
622 780 1
626 780 1
632 780 1
637 780 1
675 780 1
681 780 1
784 780 1
791 780 1
1003 780 1
1011 780 1
623 781 1
627 781 1
633 781 1
638 781 1
676 781 1
682 781 1
785 781 1
792 781 1
1004 781 1
1012 781 1
617 782 1
625 782 1
639 782 1
645 782 1
683 782 1
688 782 1
793 782 1
797 782 1
1013 782 1
1016 782 1
618 783 1
626 783 1
640 783 1
646 783 1
684 783 1
689 783 1
794 783 1
798 783 1
1014 783 1
1017 783 1
619 784 1
627 784 1
641 784 1
647 784 1
685 784 1
690 784 1
795 784 1
799 784 1
1015 784 1
1018 784 1
617 785 1
620 785 1
642 785 1
648 785 1
686 785 1
691 785 1
796 785 1
800 785 1
1016 785 1
1019 785 1
618 786 1
621 786 1
643 786 1
649 786 1
687 786 1
692 786 1
797 786 1
801 786 1
1017 786 1
1020 786 1
619 787 1
622 787 1
639 787 1
644 787 1
688 787 1
693 787 1
798 787 1
802 787 1
1018 787 1
1021 787 1
620 788 1
623 788 1
640 788 1
645 788 1
683 788 1
689 788 1
799 788 1
803 788 1
1019 788 1
1022 788 1
621 789 1
624 789 1
641 789 1
646 789 1
684 789 1
690 789 1
793 789 1
800 789 1
1020 789 1
1023 789 1
622 790 1
625 790 1
642 790 1
647 790 1
685 790 1
691 790 1
794 790 1
801 790 1
1013 790 1
1021 790 1
623 791 1
626 791 1
643 791 1
648 791 1
686 791 1
692 791 1
795 791 1
802 791 1
1014 791 1
1022 791 1
624 792 1
627 792 1
644 792 1
649 792 1
687 792 1
693 792 1
796 792 1
803 792 1
1015 792 1
1023 792 1
617 793 1
626 793 1
650 793 1
656 793 1
694 793 1
699 793 1
804 793 1
808 793 1
1024 793 1
1027 793 1
618 794 1
627 794 1
651 794 1
657 794 1
695 794 1
700 794 1
805 794 1
809 794 1
1025 794 1
1028 794 1
617 795 1
619 795 1
652 795 1
658 795 1
696 795 1
701 795 1
806 795 1
810 795 1
1026 795 1
1029 795 1
618 796 1
620 796 1
653 796 1
659 796 1
697 796 1
702 796 1
807 796 1
811 796 1
1027 796 1
1030 796 1
619 797 1
621 797 1
654 797 1
660 797 1
698 797 1
703 797 1
808 797 1
812 797 1
1028 797 1
1031 797 1
620 798 1
622 798 1
650 798 1
655 798 1
699 798 1
704 798 1
809 798 1
813 798 1
1029 798 1
1032 798 1
621 799 1
623 799 1
651 799 1
656 799 1
694 799 1
700 799 1
810 799 1
814 799 1
1030 799 1
1033 799 1
622 800 1
624 800 1
652 800 1
657 800 1
695 800 1
701 800 1
804 800 1
811 800 1
1031 800 1
1034 800 1
623 801 1
625 801 1
653 801 1
658 801 1
696 801 1
702 801 1
805 801 1
812 801 1
1024 801 1
1032 801 1
624 802 1
626 802 1
654 802 1
659 802 1
697 802 1
703 802 1
806 802 1
813 802 1
1025 802 1
1033 802 1
625 803 1
627 803 1
655 803 1
660 803 1
698 803 1
704 803 1
807 803 1
814 803 1
1026 803 1
1034 803 1
617 804 1
627 804 1
661 804 1
667 804 1
705 804 1
710 804 1
815 804 1
819 804 1
1035 804 1
1038 804 1
617 805 1
618 805 1
662 805 1
668 805 1
706 805 1
711 805 1
816 805 1
820 805 1
1036 805 1
1039 805 1
618 806 1
619 806 1
663 806 1
669 806 1
707 806 1
712 806 1
817 806 1
821 806 1
1037 806 1
1040 806 1
619 807 1
620 807 1
664 807 1
670 807 1
708 807 1
713 807 1
818 807 1
822 807 1
1038 807 1
1041 807 1
620 808 1
621 808 1
665 808 1
671 808 1
709 808 1
714 808 1
819 808 1
823 808 1
1039 808 1
1042 808 1
621 809 1
622 809 1
661 809 1
666 809 1
710 809 1
715 809 1
820 809 1
824 809 1
1040 809 1
1043 809 1
622 810 1
623 810 1
662 810 1
667 810 1
705 810 1
711 810 1
821 810 1
825 810 1
1041 810 1
1044 810 1
623 811 1
624 811 1
663 811 1
668 811 1
706 811 1
712 811 1
815 811 1
822 811 1
1042 811 1
1045 811 1
624 812 1
625 812 1
664 812 1
669 812 1
707 812 1
713 812 1
816 812 1
823 812 1
1035 812 1
1043 812 1
625 813 1
626 813 1
665 813 1
670 813 1
708 813 1
714 813 1
817 813 1
824 813 1
1036 813 1
1044 813 1
626 814 1
627 814 1
666 814 1
671 814 1
709 814 1
715 814 1
818 814 1
825 814 1
1037 814 1
1045 814 1
628 815 1
636 815 1
639 815 1
646 815 1
716 815 1
721 815 1
826 815 1
830 815 1
1046 815 1
1049 815 1
629 816 1
637 816 1
640 816 1
647 816 1
717 816 1
722 816 1
827 816 1
831 816 1
1047 816 1
1050 816 1
630 817 1
638 817 1
641 817 1
648 817 1
718 817 1
723 817 1
828 817 1
832 817 1
1048 817 1
1051 817 1
628 818 1
631 818 1
642 818 1
649 818 1
719 818 1
724 818 1
829 818 1
833 818 1
1049 818 1
1052 818 1
629 819 1
632 819 1
639 819 1
643 819 1
720 819 1
725 819 1
830 819 1
834 819 1
1050 819 1
1053 819 1
630 820 1
633 820 1
640 820 1
644 820 1
721 820 1
726 820 1
831 820 1
835 820 1
1051 820 1
1054 820 1
631 821 1
634 821 1
641 821 1
645 821 1
716 821 1
722 821 1
832 821 1
836 821 1
1052 821 1
1055 821 1
632 822 1
635 822 1
642 822 1
646 822 1
717 822 1
723 822 1
826 822 1
833 822 1
1053 822 1
1056 822 1
633 823 1
636 823 1
643 823 1
647 823 1
718 823 1
724 823 1
827 823 1
834 823 1
1046 823 1
1054 823 1
634 824 1
637 824 1
644 824 1
648 824 1
719 824 1
725 824 1
828 824 1
835 824 1
1047 824 1
1055 824 1
635 825 1
638 825 1
645 825 1
649 825 1
720 825 1
726 825 1
829 825 1
836 825 1
1048 825 1
1056 825 1
628 826 1
637 826 1
650 826 1
657 826 1
727 826 1
732 826 1
837 826 1
841 826 1
1057 826 1
1060 826 1
629 827 1
638 827 1
651 827 1
658 827 1
728 827 1
733 827 1
838 827 1
842 827 1
1058 827 1
1061 827 1
628 828 1
630 828 1
652 828 1
659 828 1
729 828 1
734 828 1
839 828 1
843 828 1
1059 828 1
1062 828 1
629 829 1
631 829 1
653 829 1
660 829 1
730 829 1
735 829 1
840 829 1
844 829 1
1060 829 1
1063 829 1
630 830 1
632 830 1
650 830 1
654 830 1
731 830 1
736 830 1
841 830 1
845 830 1
1061 830 1
1064 830 1
631 831 1
633 831 1
651 831 1
655 831 1
732 831 1
737 831 1
842 831 1
846 831 1
1062 831 1
1065 831 1
632 832 1
634 832 1
652 832 1
656 832 1
727 832 1
733 832 1
843 832 1
847 832 1
1063 832 1
1066 832 1
633 833 1
635 833 1
653 833 1
657 833 1
728 833 1
734 833 1
837 833 1
844 833 1
1064 833 1
1067 833 1
634 834 1
636 834 1
654 834 1
658 834 1
729 834 1
735 834 1
838 834 1
845 834 1
1057 834 1
1065 834 1
635 835 1
637 835 1
655 835 1
659 835 1
730 835 1
736 835 1
839 835 1
846 835 1
1058 835 1
1066 835 1
636 836 1
638 836 1
656 836 1
660 836 1
731 836 1
737 836 1
840 836 1
847 836 1
1059 836 1
1067 836 1
628 837 1
638 837 1
661 837 1
668 837 1
738 837 1
743 837 1
848 837 1
852 837 1
1068 837 1
1071 837 1
628 838 1
629 838 1
662 838 1
669 838 1
739 838 1
744 838 1
849 838 1
853 838 1
1069 838 1
1072 838 1
629 839 1
630 839 1
663 839 1
670 839 1
740 839 1
745 839 1
850 839 1
854 839 1
1070 839 1
1073 839 1
630 840 1
631 840 1
664 840 1
671 840 1
741 840 1
746 840 1
851 840 1
855 840 1
1071 840 1
1074 840 1
631 841 1
632 841 1
661 841 1
665 841 1
742 841 1
747 841 1
852 841 1
856 841 1
1072 841 1
1075 841 1
632 842 1
633 842 1
662 842 1
666 842 1
743 842 1
748 842 1
853 842 1
857 842 1
1073 842 1
1076 842 1
633 843 1
634 843 1
663 843 1
667 843 1
738 843 1
744 843 1
854 843 1
858 843 1
1074 843 1
1077 843 1
634 844 1
635 844 1
664 844 1
668 844 1
739 844 1
745 844 1
848 844 1
855 844 1
1075 844 1
1078 844 1
635 845 1
636 845 1
665 845 1
669 845 1
740 845 1
746 845 1
849 845 1
856 845 1
1068 845 1
1076 845 1
636 846 1
637 846 1
666 846 1
670 846 1
741 846 1
747 846 1
850 846 1
857 846 1
1069 846 1
1077 846 1
637 847 1
638 847 1
667 847 1
671 847 1
742 847 1
748 847 1
851 847 1
858 847 1
1070 847 1
1078 847 1
639 848 1
648 848 1
650 848 1
658 848 1
749 848 1
754 848 1
859 848 1
863 848 1
1079 848 1
1082 848 1
640 849 1
649 849 1
651 849 1
659 849 1
750 849 1
755 849 1
860 849 1
864 849 1
1080 849 1
1083 849 1
639 850 1
641 850 1
652 850 1
660 850 1
751 850 1
756 850 1
861 850 1
865 850 1
1081 850 1
1084 850 1
640 851 1
642 851 1
650 851 1
653 851 1
752 851 1
757 851 1
862 851 1
866 851 1
1082 851 1
1085 851 1
641 852 1
643 852 1
651 852 1
654 852 1
753 852 1
758 852 1
863 852 1
867 852 1
1083 852 1
1086 852 1
642 853 1
644 853 1
652 853 1
655 853 1
754 853 1
759 853 1
864 853 1
868 853 1
1084 853 1
1087 853 1
643 854 1
645 854 1
653 854 1
656 854 1
749 854 1
755 854 1
865 854 1
869 854 1
1085 854 1
1088 854 1
644 855 1
646 855 1
654 855 1
657 855 1
750 855 1
756 855 1
859 855 1
866 855 1
1086 855 1
1089 855 1
645 856 1
647 856 1
655 856 1
658 856 1
751 856 1
757 856 1
860 856 1
867 856 1
1079 856 1
1087 856 1
646 857 1
648 857 1
656 857 1
659 857 1
752 857 1
758 857 1
861 857 1
868 857 1
1080 857 1
1088 857 1
647 858 1
649 858 1
657 858 1
660 858 1
753 858 1
759 858 1
862 858 1
869 858 1
1081 858 1
1089 858 1
639 859 1
649 859 1
661 859 1
669 859 1
760 859 1
765 859 1
870 859 1
874 859 1
1090 859 1
1093 859 1
639 860 1
640 860 1
662 860 1
670 860 1
761 860 1
766 860 1
871 860 1
875 860 1
1091 860 1
1094 860 1
640 861 1
641 861 1
663 861 1
671 861 1
762 861 1
767 861 1
872 861 1
876 861 1
1092 861 1
1095 861 1
641 862 1
642 862 1
661 862 1
664 862 1
763 862 1
768 862 1
873 862 1
877 862 1
1093 862 1
1096 862 1
642 863 1
643 863 1
662 863 1
665 863 1
764 863 1
769 863 1
874 863 1
878 863 1
1094 863 1
1097 863 1
643 864 1
644 864 1
663 864 1
666 864 1
765 864 1
770 864 1
875 864 1
879 864 1
1095 864 1
1098 864 1
644 865 1
645 865 1
664 865 1
667 865 1
760 865 1
766 865 1
876 865 1
880 865 1
1096 865 1
1099 865 1
645 866 1
646 866 1
665 866 1
668 866 1
761 866 1
767 866 1
870 866 1
877 866 1
1097 866 1
1100 866 1
646 867 1
647 867 1
666 867 1
669 867 1
762 867 1
768 867 1
871 867 1
878 867 1
1090 867 1
1098 867 1
647 868 1
648 868 1
667 868 1
670 868 1
763 868 1
769 868 1
872 868 1
879 868 1
1091 868 1
1099 868 1
648 869 1
649 869 1
668 869 1
671 869 1
764 869 1
770 869 1
873 869 1
880 869 1
1092 869 1
1100 869 1
650 870 1
660 870 1
661 870 1
670 870 1
771 870 1
776 870 1
881 870 1
885 870 1
1101 870 1
1104 870 1
650 871 1
651 871 1
662 871 1
671 871 1
772 871 1
777 871 1
882 871 1
886 871 1
1102 871 1
1105 871 1
651 872 1
652 872 1
661 872 1
663 872 1
773 872 1
778 872 1
883 872 1
887 872 1
1103 872 1
1106 872 1
652 873 1
653 873 1
662 873 1
664 873 1
774 873 1
779 873 1
884 873 1
888 873 1
1104 873 1
1107 873 1
653 874 1
654 874 1
663 874 1
665 874 1
775 874 1
780 874 1
885 874 1
889 874 1
1105 874 1
1108 874 1
654 875 1
655 875 1
664 875 1
666 875 1
776 875 1
781 875 1
886 875 1
890 875 1
1106 875 1
1109 875 1
655 876 1
656 876 1
665 876 1
667 876 1
771 876 1
777 876 1
887 876 1
891 876 1
1107 876 1
1110 876 1
656 877 1
657 877 1
666 877 1
668 877 1
772 877 1
778 877 1
881 877 1
888 877 1
1108 877 1
1111 877 1
657 878 1
658 878 1
667 878 1
669 878 1
773 878 1
779 878 1
882 878 1
889 878 1
1101 878 1
1109 878 1
658 879 1
659 879 1
668 879 1
670 879 1
774 879 1
780 879 1
883 879 1
890 879 1
1102 879 1
1110 879 1
659 880 1
660 880 1
669 880 1
671 880 1
775 880 1
781 880 1
884 880 1
891 880 1
1103 880 1
1111 880 1
672 881 1
680 881 1
683 881 1
690 881 1
716 881 1
722 881 1
892 881 1
896 881 1
1112 881 1
1115 881 1
673 882 1
681 882 1
684 882 1
691 882 1
717 882 1
723 882 1
893 882 1
897 882 1
1113 882 1
1116 882 1
674 883 1
682 883 1
685 883 1
692 883 1
718 883 1
724 883 1
894 883 1
898 883 1
1114 883 1
1117 883 1
672 884 1
675 884 1
686 884 1
693 884 1
719 884 1
725 884 1
895 884 1
899 884 1
1115 884 1
1118 884 1
673 885 1
676 885 1
683 885 1
687 885 1
720 885 1
726 885 1
896 885 1
900 885 1
1116 885 1
1119 885 1
674 886 1
677 886 1
684 886 1
688 886 1
716 886 1
721 886 1
897 886 1
901 886 1
1117 886 1
1120 886 1
675 887 1
678 887 1
685 887 1
689 887 1
717 887 1
722 887 1
898 887 1
902 887 1
1118 887 1
1121 887 1
676 888 1
679 888 1
686 888 1
690 888 1
718 888 1
723 888 1
892 888 1
899 888 1
1119 888 1
1122 888 1
677 889 1
680 889 1
687 889 1
691 889 1
719 889 1
724 889 1
893 889 1
900 889 1
1112 889 1
1120 889 1
678 890 1
681 890 1
688 890 1
692 890 1
720 890 1
725 890 1
894 890 1
901 890 1
1113 890 1
1121 890 1
679 891 1
682 891 1
689 891 1
693 891 1
721 891 1
726 891 1
895 891 1
902 891 1
1114 891 1
1122 891 1
672 892 1
681 892 1
694 892 1
701 892 1
727 892 1
733 892 1
903 892 1
907 892 1
1123 892 1
1126 892 1
673 893 1
682 893 1
695 893 1
702 893 1
728 893 1
734 893 1
904 893 1
908 893 1
1124 893 1
1127 893 1
672 894 1
674 894 1
696 894 1
703 894 1
729 894 1
735 894 1
905 894 1
909 894 1
1125 894 1
1128 894 1
673 895 1
675 895 1
697 895 1
704 895 1
730 895 1
736 895 1
906 895 1
910 895 1
1126 895 1
1129 895 1
674 896 1
676 896 1
694 896 1
698 896 1
731 896 1
737 896 1
907 896 1
911 896 1
1127 896 1
1130 896 1
675 897 1
677 897 1
695 897 1
699 897 1
727 897 1
732 897 1
908 897 1
912 897 1
1128 897 1
1131 897 1
676 898 1
678 898 1
696 898 1
700 898 1
728 898 1
733 898 1
909 898 1
913 898 1
1129 898 1
1132 898 1
677 899 1
679 899 1
697 899 1
701 899 1
729 899 1
734 899 1
903 899 1
910 899 1
1130 899 1
1133 899 1
678 900 1
680 900 1
698 900 1
702 900 1
730 900 1
735 900 1
904 900 1
911 900 1
1123 900 1
1131 900 1
679 901 1
681 901 1
699 901 1
703 901 1
731 901 1
736 901 1
905 901 1
912 901 1
1124 901 1
1132 901 1
680 902 1
682 902 1
700 902 1
704 902 1
732 902 1
737 902 1
906 902 1
913 902 1
1125 902 1
1133 902 1
672 903 1
682 903 1
705 903 1
712 903 1
738 903 1
744 903 1
914 903 1
918 903 1
1134 903 1
1137 903 1
672 904 1
673 904 1
706 904 1
713 904 1
739 904 1
745 904 1
915 904 1
919 904 1
1135 904 1
1138 904 1
673 905 1
674 905 1
707 905 1
714 905 1
740 905 1
746 905 1
916 905 1
920 905 1
1136 905 1
1139 905 1
674 906 1
675 906 1
708 906 1
715 906 1
741 906 1
747 906 1
917 906 1
921 906 1
1137 906 1
1140 906 1
675 907 1
676 907 1
705 907 1
709 907 1
742 907 1
748 907 1
918 907 1
922 907 1
1138 907 1
1141 907 1
676 908 1
677 908 1
706 908 1
710 908 1
738 908 1
743 908 1
919 908 1
923 908 1
1139 908 1
1142 908 1
677 909 1
678 909 1
707 909 1
711 909 1
739 909 1
744 909 1
920 909 1
924 909 1
1140 909 1
1143 909 1
678 910 1
679 910 1
708 910 1
712 910 1
740 910 1
745 910 1
914 910 1
921 910 1
1141 910 1
1144 910 1
679 911 1
680 911 1
709 911 1
713 911 1
741 911 1
746 911 1
915 911 1
922 911 1
1134 911 1
1142 911 1
680 912 1
681 912 1
710 912 1
714 912 1
742 912 1
747 912 1
916 912 1
923 912 1
1135 912 1
1143 912 1
681 913 1
682 913 1
711 913 1
715 913 1
743 913 1
748 913 1
917 913 1
924 913 1
1136 913 1
1144 913 1
683 914 1
692 914 1
694 914 1
702 914 1
749 914 1
755 914 1
925 914 1
929 914 1
1145 914 1
1148 914 1
684 915 1
693 915 1
695 915 1
703 915 1
750 915 1
756 915 1
926 915 1
930 915 1
1146 915 1
1149 915 1
683 916 1
685 916 1
696 916 1
704 916 1
751 916 1
757 916 1
927 916 1
931 916 1
1147 916 1
1150 916 1
684 917 1
686 917 1
694 917 1
697 917 1
752 917 1
758 917 1
928 917 1
932 917 1
1148 917 1
1151 917 1
685 918 1
687 918 1
695 918 1
698 918 1
753 918 1
759 918 1
929 918 1
933 918 1
1149 918 1
1152 918 1
686 919 1
688 919 1
696 919 1
699 919 1
749 919 1
754 919 1
930 919 1
934 919 1
1150 919 1
1153 919 1
687 920 1
689 920 1
697 920 1
700 920 1
750 920 1
755 920 1
931 920 1
935 920 1
1151 920 1
1154 920 1
688 921 1
690 921 1
698 921 1
701 921 1
751 921 1
756 921 1
925 921 1
932 921 1
1152 921 1
1155 921 1
689 922 1
691 922 1
699 922 1
702 922 1
752 922 1
757 922 1
926 922 1
933 922 1
1145 922 1
1153 922 1
690 923 1
692 923 1
700 923 1
703 923 1
753 923 1
758 923 1
927 923 1
934 923 1
1146 923 1
1154 923 1
691 924 1
693 924 1
701 924 1
704 924 1
754 924 1
759 924 1
928 924 1
935 924 1
1147 924 1
1155 924 1
683 925 1
693 925 1
705 925 1
713 925 1
760 925 1
766 925 1
936 925 1
940 925 1
1156 925 1
1159 925 1
683 926 1
684 926 1
706 926 1
714 926 1
761 926 1
767 926 1
937 926 1
941 926 1
1157 926 1
1160 926 1
684 927 1
685 927 1
707 927 1
715 927 1
762 927 1
768 927 1
938 927 1
942 927 1
1158 927 1
1161 927 1
685 928 1
686 928 1
705 928 1
708 928 1
763 928 1
769 928 1
939 928 1
943 928 1
1159 928 1
1162 928 1
686 929 1
687 929 1
706 929 1
709 929 1
764 929 1
770 929 1
940 929 1
944 929 1
1160 929 1
1163 929 1
687 930 1
688 930 1
707 930 1
710 930 1
760 930 1
765 930 1
941 930 1
945 930 1
1161 930 1
1164 930 1
688 931 1
689 931 1
708 931 1
711 931 1
761 931 1
766 931 1
942 931 1
946 931 1
1162 931 1
1165 931 1
689 932 1
690 932 1
709 932 1
712 932 1
762 932 1
767 932 1
936 932 1
943 932 1
1163 932 1
1166 932 1
690 933 1
691 933 1
710 933 1
713 933 1
763 933 1
768 933 1
937 933 1
944 933 1
1156 933 1
1164 933 1
691 934 1
692 934 1
711 934 1
714 934 1
764 934 1
769 934 1
938 934 1
945 934 1
1157 934 1
1165 934 1
692 935 1
693 935 1
712 935 1
715 935 1
765 935 1
770 935 1
939 935 1
946 935 1
1158 935 1
1166 935 1
694 936 1
704 936 1
705 936 1
714 936 1
771 936 1
777 936 1
947 936 1
951 936 1
1167 936 1
1170 936 1
694 937 1
695 937 1
706 937 1
715 937 1
772 937 1
778 937 1
948 937 1
952 937 1
1168 937 1
1171 937 1
695 938 1
696 938 1
705 938 1
707 938 1
773 938 1
779 938 1
949 938 1
953 938 1
1169 938 1
1172 938 1
696 939 1
697 939 1
706 939 1
708 939 1
774 939 1
780 939 1
950 939 1
954 939 1
1170 939 1
1173 939 1
697 940 1
698 940 1
707 940 1
709 940 1
775 940 1
781 940 1
951 940 1
955 940 1
1171 940 1
1174 940 1
698 941 1
699 941 1
708 941 1
710 941 1
771 941 1
776 941 1
952 941 1
956 941 1
1172 941 1
1175 941 1
699 942 1
700 942 1
709 942 1
711 942 1
772 942 1
777 942 1
953 942 1
957 942 1
1173 942 1
1176 942 1
700 943 1
701 943 1
710 943 1
712 943 1
773 943 1
778 943 1
947 943 1
954 943 1
1174 943 1
1177 943 1
701 944 1
702 944 1
711 944 1
713 944 1
774 944 1
779 944 1
948 944 1
955 944 1
1167 944 1
1175 944 1
702 945 1
703 945 1
712 945 1
714 945 1
775 945 1
780 945 1
949 945 1
956 945 1
1168 945 1
1176 945 1
703 946 1
704 946 1
713 946 1
715 946 1
776 946 1
781 946 1
950 946 1
957 946 1
1169 946 1
1177 946 1
716 947 1
725 947 1
727 947 1
735 947 1
749 947 1
756 947 1
958 947 1
962 947 1
1178 947 1
1181 947 1
717 948 1
726 948 1
728 948 1
736 948 1
750 948 1
757 948 1
959 948 1
963 948 1
1179 948 1
1182 948 1
716 949 1
718 949 1
729 949 1
737 949 1
751 949 1
758 949 1
960 949 1
964 949 1
1180 949 1
1183 949 1
717 950 1
719 950 1
727 950 1
730 950 1
752 950 1
759 950 1
961 950 1
965 950 1
1181 950 1
1184 950 1
718 951 1
720 951 1
728 951 1
731 951 1
749 951 1
753 951 1
962 951 1
966 951 1
1182 951 1
1185 951 1
719 952 1
721 952 1
729 952 1
732 952 1
750 952 1
754 952 1
963 952 1
967 952 1
1183 952 1
1186 952 1
720 953 1
722 953 1
730 953 1
733 953 1
751 953 1
755 953 1
964 953 1
968 953 1
1184 953 1
1187 953 1
721 954 1
723 954 1
731 954 1
734 954 1
752 954 1
756 954 1
958 954 1
965 954 1
1185 954 1
1188 954 1
722 955 1
724 955 1
732 955 1
735 955 1
753 955 1
757 955 1
959 955 1
966 955 1
1178 955 1
1186 955 1
723 956 1
725 956 1
733 956 1
736 956 1
754 956 1
758 956 1
960 956 1
967 956 1
1179 956 1
1187 956 1
724 957 1
726 957 1
734 957 1
737 957 1
755 957 1
759 957 1
961 957 1
968 957 1
1180 957 1
1188 957 1
716 958 1
726 958 1
738 958 1
746 958 1
760 958 1
767 958 1
969 958 1
973 958 1
1189 958 1
1192 958 1
716 959 1
717 959 1
739 959 1
747 959 1
761 959 1
768 959 1
970 959 1
974 959 1
1190 959 1
1193 959 1
717 960 1
718 960 1
740 960 1
748 960 1
762 960 1
769 960 1
971 960 1
975 960 1
1191 960 1
1194 960 1
718 961 1
719 961 1
738 961 1
741 961 1
763 961 1
770 961 1
972 961 1
976 961 1
1192 961 1
1195 961 1
719 962 1
720 962 1
739 962 1
742 962 1
760 962 1
764 962 1
973 962 1
977 962 1
1193 962 1
1196 962 1
720 963 1
721 963 1
740 963 1
743 963 1
761 963 1
765 963 1
974 963 1
978 963 1
1194 963 1
1197 963 1
721 964 1
722 964 1
741 964 1
744 964 1
762 964 1
766 964 1
975 964 1
979 964 1
1195 964 1
1198 964 1
722 965 1
723 965 1
742 965 1
745 965 1
763 965 1
767 965 1
969 965 1
976 965 1
1196 965 1
1199 965 1
723 966 1
724 966 1
743 966 1
746 966 1
764 966 1
768 966 1
970 966 1
977 966 1
1189 966 1
1197 966 1
724 967 1
725 967 1
744 967 1
747 967 1
765 967 1
769 967 1
971 967 1
978 967 1
1190 967 1
1198 967 1
725 968 1
726 968 1
745 968 1
748 968 1
766 968 1
770 968 1
972 968 1
979 968 1
1191 968 1
1199 968 1
727 969 1
737 969 1
738 969 1
747 969 1
771 969 1
778 969 1
980 969 1
984 969 1
1200 969 1
1203 969 1
727 970 1
728 970 1
739 970 1
748 970 1
772 970 1
779 970 1
981 970 1
985 970 1
1201 970 1
1204 970 1
728 971 1
729 971 1
738 971 1
740 971 1
773 971 1
780 971 1
982 971 1
986 971 1
1202 971 1
1205 971 1
729 972 1
730 972 1
739 972 1
741 972 1
774 972 1
781 972 1
983 972 1
987 972 1
1203 972 1
1206 972 1
730 973 1
731 973 1
740 973 1
742 973 1
771 973 1
775 973 1
984 973 1
988 973 1
1204 973 1
1207 973 1
731 974 1
732 974 1
741 974 1
743 974 1
772 974 1
776 974 1
985 974 1
989 974 1
1205 974 1
1208 974 1
732 975 1
733 975 1
742 975 1
744 975 1
773 975 1
777 975 1
986 975 1
990 975 1
1206 975 1
1209 975 1
733 976 1
734 976 1
743 976 1
745 976 1
774 976 1
778 976 1
980 976 1
987 976 1
1207 976 1
1210 976 1
734 977 1
735 977 1
744 977 1
746 977 1
775 977 1
779 977 1
981 977 1
988 977 1
1200 977 1
1208 977 1
735 978 1
736 978 1
745 978 1
747 978 1
776 978 1
780 978 1
982 978 1
989 978 1
1201 978 1
1209 978 1
736 979 1
737 979 1
746 979 1
748 979 1
777 979 1
781 979 1
983 979 1
990 979 1
1202 979 1
1210 979 1
749 980 1
759 980 1
760 980 1
769 980 1
771 980 1
779 980 1
991 980 1
995 980 1
1211 980 1
1214 980 1
749 981 1
750 981 1
761 981 1
770 981 1
772 981 1
780 981 1
992 981 1
996 981 1
1212 981 1
1215 981 1
750 982 1
751 982 1
760 982 1
762 982 1
773 982 1
781 982 1
993 982 1
997 982 1
1213 982 1
1216 982 1
751 983 1
752 983 1
761 983 1
763 983 1
771 983 1
774 983 1
994 983 1
998 983 1
1214 983 1
1217 983 1
752 984 1
753 984 1
762 984 1
764 984 1
772 984 1
775 984 1
995 984 1
999 984 1
1215 984 1
1218 984 1
753 985 1
754 985 1
763 985 1
765 985 1
773 985 1
776 985 1
996 985 1
1000 985 1
1216 985 1
1219 985 1
754 986 1
755 986 1
764 986 1
766 986 1
774 986 1
777 986 1
997 986 1
1001 986 1
1217 986 1
1220 986 1
755 987 1
756 987 1
765 987 1
767 987 1
775 987 1
778 987 1
991 987 1
998 987 1
1218 987 1
1221 987 1
756 988 1
757 988 1
766 988 1
768 988 1
776 988 1
779 988 1
992 988 1
999 988 1
1211 988 1
1219 988 1
757 989 1
758 989 1
767 989 1
769 989 1
777 989 1
780 989 1
993 989 1
1000 989 1
1212 989 1
1220 989 1
758 990 1
759 990 1
768 990 1
770 990 1
778 990 1
781 990 1
994 990 1
1001 990 1
1213 990 1
1221 990 1
782 991 1
790 991 1
793 991 1
800 991 1
826 991 1
832 991 1
892 991 1
897 991 1
1222 991 1
1225 991 1
783 992 1
791 992 1
794 992 1
801 992 1
827 992 1
833 992 1
893 992 1
898 992 1
1223 992 1
1226 992 1
784 993 1
792 993 1
795 993 1
802 993 1
828 993 1
834 993 1
894 993 1
899 993 1
1224 993 1
1227 993 1
782 994 1
785 994 1
796 994 1
803 994 1
829 994 1
835 994 1
895 994 1
900 994 1
1225 994 1
1228 994 1
783 995 1
786 995 1
793 995 1
797 995 1
830 995 1
836 995 1
896 995 1
901 995 1
1226 995 1
1229 995 1
784 996 1
787 996 1
794 996 1
798 996 1
826 996 1
831 996 1
897 996 1
902 996 1
1227 996 1
1230 996 1
785 997 1
788 997 1
795 997 1
799 997 1
827 997 1
832 997 1
892 997 1
898 997 1
1228 997 1
1231 997 1
786 998 1
789 998 1
796 998 1
800 998 1
828 998 1
833 998 1
893 998 1
899 998 1
1229 998 1
1232 998 1
787 999 1
790 999 1
797 999 1
801 999 1
829 999 1
834 999 1
894 999 1
900 999 1
1222 999 1
1230 999 1
788 1000 1
791 1000 1
798 1000 1
802 1000 1
830 1000 1
835 1000 1
895 1000 1
901 1000 1
1223 1000 1
1231 1000 1
789 1001 1
792 1001 1
799 1001 1
803 1001 1
831 1001 1
836 1001 1
896 1001 1
902 1001 1
1224 1001 1
1232 1001 1
782 1002 1
791 1002 1
804 1002 1
811 1002 1
837 1002 1
843 1002 1
903 1002 1
908 1002 1
1233 1002 1
1236 1002 1
783 1003 1
792 1003 1
805 1003 1
812 1003 1
838 1003 1
844 1003 1
904 1003 1
909 1003 1
1234 1003 1
1237 1003 1
782 1004 1
784 1004 1
806 1004 1
813 1004 1
839 1004 1
845 1004 1
905 1004 1
910 1004 1
1235 1004 1
1238 1004 1
783 1005 1
785 1005 1
807 1005 1
814 1005 1
840 1005 1
846 1005 1
906 1005 1
911 1005 1
1236 1005 1
1239 1005 1
784 1006 1
786 1006 1
804 1006 1
808 1006 1
841 1006 1
847 1006 1
907 1006 1
912 1006 1
1237 1006 1
1240 1006 1
785 1007 1
787 1007 1
805 1007 1
809 1007 1
837 1007 1
842 1007 1
908 1007 1
913 1007 1
1238 1007 1
1241 1007 1
786 1008 1
788 1008 1
806 1008 1
810 1008 1
838 1008 1
843 1008 1
903 1008 1
909 1008 1
1239 1008 1
1242 1008 1
787 1009 1
789 1009 1
807 1009 1
811 1009 1
839 1009 1
844 1009 1
904 1009 1
910 1009 1
1240 1009 1
1243 1009 1
788 1010 1
790 1010 1
808 1010 1
812 1010 1
840 1010 1
845 1010 1
905 1010 1
911 1010 1
1233 1010 1
1241 1010 1
789 1011 1
791 1011 1
809 1011 1
813 1011 1
841 1011 1
846 1011 1
906 1011 1
912 1011 1
1234 1011 1
1242 1011 1
790 1012 1
792 1012 1
810 1012 1
814 1012 1
842 1012 1
847 1012 1
907 1012 1
913 1012 1
1235 1012 1
1243 1012 1
782 1013 1
792 1013 1
815 1013 1
822 1013 1
848 1013 1
854 1013 1
914 1013 1
919 1013 1
1244 1013 1
1247 1013 1
782 1014 1
783 1014 1
816 1014 1
823 1014 1
849 1014 1
855 1014 1
915 1014 1
920 1014 1
1245 1014 1
1248 1014 1
783 1015 1
784 1015 1
817 1015 1
824 1015 1
850 1015 1
856 1015 1
916 1015 1
921 1015 1
1246 1015 1
1249 1015 1
784 1016 1
785 1016 1
818 1016 1
825 1016 1
851 1016 1
857 1016 1
917 1016 1
922 1016 1
1247 1016 1
1250 1016 1
785 1017 1
786 1017 1
815 1017 1
819 1017 1
852 1017 1
858 1017 1
918 1017 1
923 1017 1
1248 1017 1
1251 1017 1
786 1018 1
787 1018 1
816 1018 1
820 1018 1
848 1018 1
853 1018 1
919 1018 1
924 1018 1
1249 1018 1
1252 1018 1
787 1019 1
788 1019 1
817 1019 1
821 1019 1
849 1019 1
854 1019 1
914 1019 1
920 1019 1
1250 1019 1
1253 1019 1
788 1020 1
789 1020 1
818 1020 1
822 1020 1
850 1020 1
855 1020 1
915 1020 1
921 1020 1
1251 1020 1
1254 1020 1
789 1021 1
790 1021 1
819 1021 1
823 1021 1
851 1021 1
856 1021 1
916 1021 1
922 1021 1
1244 1021 1
1252 1021 1
790 1022 1
791 1022 1
820 1022 1
824 1022 1
852 1022 1
857 1022 1
917 1022 1
923 1022 1
1245 1022 1
1253 1022 1
791 1023 1
792 1023 1
821 1023 1
825 1023 1
853 1023 1
858 1023 1
918 1023 1
924 1023 1
1246 1023 1
1254 1023 1
793 1024 1
802 1024 1
804 1024 1
812 1024 1
859 1024 1
865 1024 1
925 1024 1
930 1024 1
1255 1024 1
1258 1024 1
794 1025 1
803 1025 1
805 1025 1
813 1025 1
860 1025 1
866 1025 1
926 1025 1
931 1025 1
1256 1025 1
1259 1025 1
793 1026 1
795 1026 1
806 1026 1
814 1026 1
861 1026 1
867 1026 1
927 1026 1
932 1026 1
1257 1026 1
1260 1026 1
794 1027 1
796 1027 1
804 1027 1
807 1027 1
862 1027 1
868 1027 1
928 1027 1
933 1027 1
1258 1027 1
1261 1027 1
795 1028 1
797 1028 1
805 1028 1
808 1028 1
863 1028 1
869 1028 1
929 1028 1
934 1028 1
1259 1028 1
1262 1028 1
796 1029 1
798 1029 1
806 1029 1
809 1029 1
859 1029 1
864 1029 1
930 1029 1
935 1029 1
1260 1029 1
1263 1029 1
797 1030 1
799 1030 1
807 1030 1
810 1030 1
860 1030 1
865 1030 1
925 1030 1
931 1030 1
1261 1030 1
1264 1030 1
798 1031 1
800 1031 1
808 1031 1
811 1031 1
861 1031 1
866 1031 1
926 1031 1
932 1031 1
1262 1031 1
1265 1031 1
799 1032 1
801 1032 1
809 1032 1
812 1032 1
862 1032 1
867 1032 1
927 1032 1
933 1032 1
1255 1032 1
1263 1032 1
800 1033 1
802 1033 1
810 1033 1
813 1033 1
863 1033 1
868 1033 1
928 1033 1
934 1033 1
1256 1033 1
1264 1033 1
801 1034 1
803 1034 1
811 1034 1
814 1034 1
864 1034 1
869 1034 1
929 1034 1
935 1034 1
1257 1034 1
1265 1034 1
793 1035 1
803 1035 1
815 1035 1
823 1035 1
870 1035 1
876 1035 1
936 1035 1
941 1035 1
1266 1035 1
1269 1035 1
793 1036 1
794 1036 1
816 1036 1
824 1036 1
871 1036 1
877 1036 1
937 1036 1
942 1036 1
1267 1036 1
1270 1036 1
794 1037 1
795 1037 1
817 1037 1
825 1037 1
872 1037 1
878 1037 1
938 1037 1
943 1037 1
1268 1037 1
1271 1037 1
795 1038 1
796 1038 1
815 1038 1
818 1038 1
873 1038 1
879 1038 1
939 1038 1
944 1038 1
1269 1038 1
1272 1038 1
796 1039 1
797 1039 1
816 1039 1
819 1039 1
874 1039 1
880 1039 1
940 1039 1
945 1039 1
1270 1039 1
1273 1039 1
797 1040 1
798 1040 1
817 1040 1
820 1040 1
870 1040 1
875 1040 1
941 1040 1
946 1040 1
1271 1040 1
1274 1040 1
798 1041 1
799 1041 1
818 1041 1
821 1041 1
871 1041 1
876 1041 1
936 1041 1
942 1041 1
1272 1041 1
1275 1041 1
799 1042 1
800 1042 1
819 1042 1
822 1042 1
872 1042 1
877 1042 1
937 1042 1
943 1042 1
1273 1042 1
1276 1042 1
800 1043 1
801 1043 1
820 1043 1
823 1043 1
873 1043 1
878 1043 1
938 1043 1
944 1043 1
1266 1043 1
1274 1043 1
801 1044 1
802 1044 1
821 1044 1
824 1044 1
874 1044 1
879 1044 1
939 1044 1
945 1044 1
1267 1044 1
1275 1044 1
802 1045 1
803 1045 1
822 1045 1
825 1045 1
875 1045 1
880 1045 1
940 1045 1
946 1045 1
1268 1045 1
1276 1045 1
804 1046 1
814 1046 1
815 1046 1
824 1046 1
881 1046 1
887 1046 1
947 1046 1
952 1046 1
1277 1046 1
1280 1046 1
804 1047 1
805 1047 1
816 1047 1
825 1047 1
882 1047 1
888 1047 1
948 1047 1
953 1047 1
1278 1047 1
1281 1047 1
805 1048 1
806 1048 1
815 1048 1
817 1048 1
883 1048 1
889 1048 1
949 1048 1
954 1048 1
1279 1048 1
1282 1048 1
806 1049 1
807 1049 1
816 1049 1
818 1049 1
884 1049 1
890 1049 1
950 1049 1
955 1049 1
1280 1049 1
1283 1049 1
807 1050 1
808 1050 1
817 1050 1
819 1050 1
885 1050 1
891 1050 1
951 1050 1
956 1050 1
1281 1050 1
1284 1050 1
808 1051 1
809 1051 1
818 1051 1
820 1051 1
881 1051 1
886 1051 1
952 1051 1
957 1051 1
1282 1051 1
1285 1051 1
809 1052 1
810 1052 1
819 1052 1
821 1052 1
882 1052 1
887 1052 1
947 1052 1
953 1052 1
1283 1052 1
1286 1052 1
810 1053 1
811 1053 1
820 1053 1
822 1053 1
883 1053 1
888 1053 1
948 1053 1
954 1053 1
1284 1053 1
1287 1053 1
811 1054 1
812 1054 1
821 1054 1
823 1054 1
884 1054 1
889 1054 1
949 1054 1
955 1054 1
1277 1054 1
1285 1054 1
812 1055 1
813 1055 1
822 1055 1
824 1055 1
885 1055 1
890 1055 1
950 1055 1
956 1055 1
1278 1055 1
1286 1055 1
813 1056 1
814 1056 1
823 1056 1
825 1056 1
886 1056 1
891 1056 1
951 1056 1
957 1056 1
1279 1056 1
1287 1056 1
826 1057 1
835 1057 1
837 1057 1
845 1057 1
859 1057 1
866 1057 1
958 1057 1
963 1057 1
1288 1057 1
1291 1057 1
827 1058 1
836 1058 1
838 1058 1
846 1058 1
860 1058 1
867 1058 1
959 1058 1
964 1058 1
1289 1058 1
1292 1058 1
826 1059 1
828 1059 1
839 1059 1
847 1059 1
861 1059 1
868 1059 1
960 1059 1
965 1059 1
1290 1059 1
1293 1059 1
827 1060 1
829 1060 1
837 1060 1
840 1060 1
862 1060 1
869 1060 1
961 1060 1
966 1060 1
1291 1060 1
1294 1060 1
828 1061 1
830 1061 1
838 1061 1
841 1061 1
859 1061 1
863 1061 1
962 1061 1
967 1061 1
1292 1061 1
1295 1061 1
829 1062 1
831 1062 1
839 1062 1
842 1062 1
860 1062 1
864 1062 1
963 1062 1
968 1062 1
1293 1062 1
1296 1062 1
830 1063 1
832 1063 1
840 1063 1
843 1063 1
861 1063 1
865 1063 1
958 1063 1
964 1063 1
1294 1063 1
1297 1063 1
831 1064 1
833 1064 1
841 1064 1
844 1064 1
862 1064 1
866 1064 1
959 1064 1
965 1064 1
1295 1064 1
1298 1064 1
832 1065 1
834 1065 1
842 1065 1
845 1065 1
863 1065 1
867 1065 1
960 1065 1
966 1065 1
1288 1065 1
1296 1065 1
833 1066 1
835 1066 1
843 1066 1
846 1066 1
864 1066 1
868 1066 1
961 1066 1
967 1066 1
1289 1066 1
1297 1066 1
834 1067 1
836 1067 1
844 1067 1
847 1067 1
865 1067 1
869 1067 1
962 1067 1
968 1067 1
1290 1067 1
1298 1067 1
826 1068 1
836 1068 1
848 1068 1
856 1068 1
870 1068 1
877 1068 1
969 1068 1
974 1068 1
1299 1068 1
1302 1068 1
826 1069 1
827 1069 1
849 1069 1
857 1069 1
871 1069 1
878 1069 1
970 1069 1
975 1069 1
1300 1069 1
1303 1069 1
827 1070 1
828 1070 1
850 1070 1
858 1070 1
872 1070 1
879 1070 1
971 1070 1
976 1070 1
1301 1070 1
1304 1070 1
828 1071 1
829 1071 1
848 1071 1
851 1071 1
873 1071 1
880 1071 1
972 1071 1
977 1071 1
1302 1071 1
1305 1071 1
829 1072 1
830 1072 1
849 1072 1
852 1072 1
870 1072 1
874 1072 1
973 1072 1
978 1072 1
1303 1072 1
1306 1072 1
830 1073 1
831 1073 1
850 1073 1
853 1073 1
871 1073 1
875 1073 1
974 1073 1
979 1073 1
1304 1073 1
1307 1073 1
831 1074 1
832 1074 1
851 1074 1
854 1074 1
872 1074 1
876 1074 1
969 1074 1
975 1074 1
1305 1074 1
1308 1074 1
832 1075 1
833 1075 1
852 1075 1
855 1075 1
873 1075 1
877 1075 1
970 1075 1
976 1075 1
1306 1075 1
1309 1075 1
833 1076 1
834 1076 1
853 1076 1
856 1076 1
874 1076 1
878 1076 1
971 1076 1
977 1076 1
1299 1076 1
1307 1076 1
834 1077 1
835 1077 1
854 1077 1
857 1077 1
875 1077 1
879 1077 1
972 1077 1
978 1077 1
1300 1077 1
1308 1077 1
835 1078 1
836 1078 1
855 1078 1
858 1078 1
876 1078 1
880 1078 1
973 1078 1
979 1078 1
1301 1078 1
1309 1078 1
837 1079 1
847 1079 1
848 1079 1
857 1079 1
881 1079 1
888 1079 1
980 1079 1
985 1079 1
1310 1079 1
1313 1079 1
837 1080 1
838 1080 1
849 1080 1
858 1080 1
882 1080 1
889 1080 1
981 1080 1
986 1080 1
1311 1080 1
1314 1080 1
838 1081 1
839 1081 1
848 1081 1
850 1081 1
883 1081 1
890 1081 1
982 1081 1
987 1081 1
1312 1081 1
1315 1081 1
839 1082 1
840 1082 1
849 1082 1
851 1082 1
884 1082 1
891 1082 1
983 1082 1
988 1082 1
1313 1082 1
1316 1082 1
840 1083 1
841 1083 1
850 1083 1
852 1083 1
881 1083 1
885 1083 1
984 1083 1
989 1083 1
1314 1083 1
1317 1083 1
841 1084 1
842 1084 1
851 1084 1
853 1084 1
882 1084 1
886 1084 1
985 1084 1
990 1084 1
1315 1084 1
1318 1084 1
842 1085 1
843 1085 1
852 1085 1
854 1085 1
883 1085 1
887 1085 1
980 1085 1
986 1085 1
1316 1085 1
1319 1085 1
843 1086 1
844 1086 1
853 1086 1
855 1086 1
884 1086 1
888 1086 1
981 1086 1
987 1086 1
1317 1086 1
1320 1086 1
844 1087 1
845 1087 1
854 1087 1
856 1087 1
885 1087 1
889 1087 1
982 1087 1
988 1087 1
1310 1087 1
1318 1087 1
845 1088 1
846 1088 1
855 1088 1
857 1088 1
886 1088 1
890 1088 1
983 1088 1
989 1088 1
1311 1088 1
1319 1088 1
846 1089 1
847 1089 1
856 1089 1
858 1089 1
887 1089 1
891 1089 1
984 1089 1
990 1089 1
1312 1089 1
1320 1089 1
859 1090 1
869 1090 1
870 1090 1
879 1090 1
881 1090 1
889 1090 1
991 1090 1
996 1090 1
1321 1090 1
1324 1090 1
859 1091 1
860 1091 1
871 1091 1
880 1091 1
882 1091 1
890 1091 1
992 1091 1
997 1091 1
1322 1091 1
1325 1091 1
860 1092 1
861 1092 1
870 1092 1
872 1092 1
883 1092 1
891 1092 1
993 1092 1
998 1092 1
1323 1092 1
1326 1092 1
861 1093 1
862 1093 1
871 1093 1
873 1093 1
881 1093 1
884 1093 1
994 1093 1
999 1093 1
1324 1093 1
1327 1093 1
862 1094 1
863 1094 1
872 1094 1
874 1094 1
882 1094 1
885 1094 1
995 1094 1
1000 1094 1
1325 1094 1
1328 1094 1
863 1095 1
864 1095 1
873 1095 1
875 1095 1
883 1095 1
886 1095 1
996 1095 1
1001 1095 1
1326 1095 1
1329 1095 1
864 1096 1
865 1096 1
874 1096 1
876 1096 1
884 1096 1
887 1096 1
991 1096 1
997 1096 1
1327 1096 1
1330 1096 1
865 1097 1
866 1097 1
875 1097 1
877 1097 1
885 1097 1
888 1097 1
992 1097 1
998 1097 1
1328 1097 1
1331 1097 1
866 1098 1
867 1098 1
876 1098 1
878 1098 1
886 1098 1
889 1098 1
993 1098 1
999 1098 1
1321 1098 1
1329 1098 1
867 1099 1
868 1099 1
877 1099 1
879 1099 1
887 1099 1
890 1099 1
994 1099 1
1000 1099 1
1322 1099 1
1330 1099 1
868 1100 1
869 1100 1
878 1100 1
880 1100 1
888 1100 1
891 1100 1
995 1100 1
1001 1100 1
1323 1100 1
1331 1100 1
892 1101 1
901 1101 1
903 1101 1
911 1101 1
925 1101 1
932 1101 1
958 1101 1
964 1101 1
1332 1101 1
1335 1101 1
893 1102 1
902 1102 1
904 1102 1
912 1102 1
926 1102 1
933 1102 1
959 1102 1
965 1102 1
1333 1102 1
1336 1102 1
892 1103 1
894 1103 1
905 1103 1
913 1103 1
927 1103 1
934 1103 1
960 1103 1
966 1103 1
1334 1103 1
1337 1103 1
893 1104 1
895 1104 1
903 1104 1
906 1104 1
928 1104 1
935 1104 1
961 1104 1
967 1104 1
1335 1104 1
1338 1104 1
894 1105 1
896 1105 1
904 1105 1
907 1105 1
925 1105 1
929 1105 1
962 1105 1
968 1105 1
1336 1105 1
1339 1105 1
895 1106 1
897 1106 1
905 1106 1
908 1106 1
926 1106 1
930 1106 1
958 1106 1
963 1106 1
1337 1106 1
1340 1106 1
896 1107 1
898 1107 1
906 1107 1
909 1107 1
927 1107 1
931 1107 1
959 1107 1
964 1107 1
1338 1107 1
1341 1107 1
897 1108 1
899 1108 1
907 1108 1
910 1108 1
928 1108 1
932 1108 1
960 1108 1
965 1108 1
1339 1108 1
1342 1108 1
898 1109 1
900 1109 1
908 1109 1
911 1109 1
929 1109 1
933 1109 1
961 1109 1
966 1109 1
1332 1109 1
1340 1109 1
899 1110 1
901 1110 1
909 1110 1
912 1110 1
930 1110 1
934 1110 1
962 1110 1
967 1110 1
1333 1110 1
1341 1110 1
900 1111 1
902 1111 1
910 1111 1
913 1111 1
931 1111 1
935 1111 1
963 1111 1
968 1111 1
1334 1111 1
1342 1111 1
892 1112 1
902 1112 1
914 1112 1
922 1112 1
936 1112 1
943 1112 1
969 1112 1
975 1112 1
1343 1112 1
1346 1112 1
892 1113 1
893 1113 1
915 1113 1
923 1113 1
937 1113 1
944 1113 1
970 1113 1
976 1113 1
1344 1113 1
1347 1113 1
893 1114 1
894 1114 1
916 1114 1
924 1114 1
938 1114 1
945 1114 1
971 1114 1
977 1114 1
1345 1114 1
1348 1114 1
894 1115 1
895 1115 1
914 1115 1
917 1115 1
939 1115 1
946 1115 1
972 1115 1
978 1115 1
1346 1115 1
1349 1115 1
895 1116 1
896 1116 1
915 1116 1
918 1116 1
936 1116 1
940 1116 1
973 1116 1
979 1116 1
1347 1116 1
1350 1116 1
896 1117 1
897 1117 1
916 1117 1
919 1117 1
937 1117 1
941 1117 1
969 1117 1
974 1117 1
1348 1117 1
1351 1117 1
897 1118 1
898 1118 1
917 1118 1
920 1118 1
938 1118 1
942 1118 1
970 1118 1
975 1118 1
1349 1118 1
1352 1118 1
898 1119 1
899 1119 1
918 1119 1
921 1119 1
939 1119 1
943 1119 1
971 1119 1
976 1119 1
1350 1119 1
1353 1119 1
899 1120 1
900 1120 1
919 1120 1
922 1120 1
940 1120 1
944 1120 1
972 1120 1
977 1120 1
1343 1120 1
1351 1120 1
900 1121 1
901 1121 1
920 1121 1
923 1121 1
941 1121 1
945 1121 1
973 1121 1
978 1121 1
1344 1121 1
1352 1121 1
901 1122 1
902 1122 1
921 1122 1
924 1122 1
942 1122 1
946 1122 1
974 1122 1
979 1122 1
1345 1122 1
1353 1122 1
903 1123 1
913 1123 1
914 1123 1
923 1123 1
947 1123 1
954 1123 1
980 1123 1
986 1123 1
1354 1123 1
1357 1123 1
903 1124 1
904 1124 1
915 1124 1
924 1124 1
948 1124 1
955 1124 1
981 1124 1
987 1124 1
1355 1124 1
1358 1124 1
904 1125 1
905 1125 1
914 1125 1
916 1125 1
949 1125 1
956 1125 1
982 1125 1
988 1125 1
1356 1125 1
1359 1125 1
905 1126 1
906 1126 1
915 1126 1
917 1126 1
950 1126 1
957 1126 1
983 1126 1
989 1126 1
1357 1126 1
1360 1126 1
906 1127 1
907 1127 1
916 1127 1
918 1127 1
947 1127 1
951 1127 1
984 1127 1
990 1127 1
1358 1127 1
1361 1127 1
907 1128 1
908 1128 1
917 1128 1
919 1128 1
948 1128 1
952 1128 1
980 1128 1
985 1128 1
1359 1128 1
1362 1128 1
908 1129 1
909 1129 1
918 1129 1
920 1129 1
949 1129 1
953 1129 1
981 1129 1
986 1129 1
1360 1129 1
1363 1129 1
909 1130 1
910 1130 1
919 1130 1
921 1130 1
950 1130 1
954 1130 1
982 1130 1
987 1130 1
1361 1130 1
1364 1130 1
910 1131 1
911 1131 1
920 1131 1
922 1131 1
951 1131 1
955 1131 1
983 1131 1
988 1131 1
1354 1131 1
1362 1131 1
911 1132 1
912 1132 1
921 1132 1
923 1132 1
952 1132 1
956 1132 1
984 1132 1
989 1132 1
1355 1132 1
1363 1132 1
912 1133 1
913 1133 1
922 1133 1
924 1133 1
953 1133 1
957 1133 1
985 1133 1
990 1133 1
1356 1133 1
1364 1133 1
925 1134 1
935 1134 1
936 1134 1
945 1134 1
947 1134 1
955 1134 1
991 1134 1
997 1134 1
1365 1134 1
1368 1134 1
925 1135 1
926 1135 1
937 1135 1
946 1135 1
948 1135 1
956 1135 1
992 1135 1
998 1135 1
1366 1135 1
1369 1135 1
926 1136 1
927 1136 1
936 1136 1
938 1136 1
949 1136 1
957 1136 1
993 1136 1
999 1136 1
1367 1136 1
1370 1136 1
927 1137 1
928 1137 1
937 1137 1
939 1137 1
947 1137 1
950 1137 1
994 1137 1
1000 1137 1
1368 1137 1
1371 1137 1
928 1138 1
929 1138 1
938 1138 1
940 1138 1
948 1138 1
951 1138 1
995 1138 1
1001 1138 1
1369 1138 1
1372 1138 1
929 1139 1
930 1139 1
939 1139 1
941 1139 1
949 1139 1
952 1139 1
991 1139 1
996 1139 1
1370 1139 1
1373 1139 1
930 1140 1
931 1140 1
940 1140 1
942 1140 1
950 1140 1
953 1140 1
992 1140 1
997 1140 1
1371 1140 1
1374 1140 1
931 1141 1
932 1141 1
941 1141 1
943 1141 1
951 1141 1
954 1141 1
993 1141 1
998 1141 1
1372 1141 1
1375 1141 1
932 1142 1
933 1142 1
942 1142 1
944 1142 1
952 1142 1
955 1142 1
994 1142 1
999 1142 1
1365 1142 1
1373 1142 1
933 1143 1
934 1143 1
943 1143 1
945 1143 1
953 1143 1
956 1143 1
995 1143 1
1000 1143 1
1366 1143 1
1374 1143 1
934 1144 1
935 1144 1
944 1144 1
946 1144 1
954 1144 1
957 1144 1
996 1144 1
1001 1144 1
1367 1144 1
1375 1144 1
958 1145 1
968 1145 1
969 1145 1
978 1145 1
980 1145 1
988 1145 1
991 1145 1
998 1145 1
1376 1145 1
1379 1145 1
958 1146 1
959 1146 1
970 1146 1
979 1146 1
981 1146 1
989 1146 1
992 1146 1
999 1146 1
1377 1146 1
1380 1146 1
959 1147 1
960 1147 1
969 1147 1
971 1147 1
982 1147 1
990 1147 1
993 1147 1
1000 1147 1
1378 1147 1
1381 1147 1
960 1148 1
961 1148 1
970 1148 1
972 1148 1
980 1148 1
983 1148 1
994 1148 1
1001 1148 1
1379 1148 1
1382 1148 1
961 1149 1
962 1149 1
971 1149 1
973 1149 1
981 1149 1
984 1149 1
991 1149 1
995 1149 1
1380 1149 1
1383 1149 1
962 1150 1
963 1150 1
972 1150 1
974 1150 1
982 1150 1
985 1150 1
992 1150 1
996 1150 1
1381 1150 1
1384 1150 1
963 1151 1
964 1151 1
973 1151 1
975 1151 1
983 1151 1
986 1151 1
993 1151 1
997 1151 1
1382 1151 1
1385 1151 1
964 1152 1
965 1152 1
974 1152 1
976 1152 1
984 1152 1
987 1152 1
994 1152 1
998 1152 1
1383 1152 1
1386 1152 1
965 1153 1
966 1153 1
975 1153 1
977 1153 1
985 1153 1
988 1153 1
995 1153 1
999 1153 1
1376 1153 1
1384 1153 1
966 1154 1
967 1154 1
976 1154 1
978 1154 1
986 1154 1
989 1154 1
996 1154 1
1000 1154 1
1377 1154 1
1385 1154 1
967 1155 1
968 1155 1
977 1155 1
979 1155 1
987 1155 1
990 1155 1
997 1155 1
1001 1155 1
1378 1155 1
1386 1155 1
1002 1156 1
1010 1156 1
1013 1156 1
1020 1156 1
1046 1156 1
1052 1156 1
1112 1156 1
1117 1156 1
1222 1156 1
1226 1156 1
1003 1157 1
1011 1157 1
1014 1157 1
1021 1157 1
1047 1157 1
1053 1157 1
1113 1157 1
1118 1157 1
1223 1157 1
1227 1157 1
1004 1158 1
1012 1158 1
1015 1158 1
1022 1158 1
1048 1158 1
1054 1158 1
1114 1158 1
1119 1158 1
1224 1158 1
1228 1158 1
1002 1159 1
1005 1159 1
1016 1159 1
1023 1159 1
1049 1159 1
1055 1159 1
1115 1159 1
1120 1159 1
1225 1159 1
1229 1159 1
1003 1160 1
1006 1160 1
1013 1160 1
1017 1160 1
1050 1160 1
1056 1160 1
1116 1160 1
1121 1160 1
1226 1160 1
1230 1160 1
1004 1161 1
1007 1161 1
1014 1161 1
1018 1161 1
1046 1161 1
1051 1161 1
1117 1161 1
1122 1161 1
1227 1161 1
1231 1161 1
1005 1162 1
1008 1162 1
1015 1162 1
1019 1162 1
1047 1162 1
1052 1162 1
1112 1162 1
1118 1162 1
1228 1162 1
1232 1162 1
1006 1163 1
1009 1163 1
1016 1163 1
1020 1163 1
1048 1163 1
1053 1163 1
1113 1163 1
1119 1163 1
1222 1163 1
1229 1163 1
1007 1164 1
1010 1164 1
1017 1164 1
1021 1164 1
1049 1164 1
1054 1164 1
1114 1164 1
1120 1164 1
1223 1164 1
1230 1164 1
1008 1165 1
1011 1165 1
1018 1165 1
1022 1165 1
1050 1165 1
1055 1165 1
1115 1165 1
1121 1165 1
1224 1165 1
1231 1165 1
1009 1166 1
1012 1166 1
1019 1166 1
1023 1166 1
1051 1166 1
1056 1166 1
1116 1166 1
1122 1166 1
1225 1166 1
1232 1166 1
1002 1167 1
1011 1167 1
1024 1167 1
1031 1167 1
1057 1167 1
1063 1167 1
1123 1167 1
1128 1167 1
1233 1167 1
1237 1167 1
1003 1168 1
1012 1168 1
1025 1168 1
1032 1168 1
1058 1168 1
1064 1168 1
1124 1168 1
1129 1168 1
1234 1168 1
1238 1168 1
1002 1169 1
1004 1169 1
1026 1169 1
1033 1169 1
1059 1169 1
1065 1169 1
1125 1169 1
1130 1169 1
1235 1169 1
1239 1169 1
1003 1170 1
1005 1170 1
1027 1170 1
1034 1170 1
1060 1170 1
1066 1170 1
1126 1170 1
1131 1170 1
1236 1170 1
1240 1170 1
1004 1171 1
1006 1171 1
1024 1171 1
1028 1171 1
1061 1171 1
1067 1171 1
1127 1171 1
1132 1171 1
1237 1171 1
1241 1171 1
1005 1172 1
1007 1172 1
1025 1172 1
1029 1172 1
1057 1172 1
1062 1172 1
1128 1172 1
1133 1172 1
1238 1172 1
1242 1172 1
1006 1173 1
1008 1173 1
1026 1173 1
1030 1173 1
1058 1173 1
1063 1173 1
1123 1173 1
1129 1173 1
1239 1173 1
1243 1173 1
1007 1174 1
1009 1174 1
1027 1174 1
1031 1174 1
1059 1174 1
1064 1174 1
1124 1174 1
1130 1174 1
1233 1174 1
1240 1174 1
1008 1175 1
1010 1175 1
1028 1175 1
1032 1175 1
1060 1175 1
1065 1175 1
1125 1175 1
1131 1175 1
1234 1175 1
1241 1175 1
1009 1176 1
1011 1176 1
1029 1176 1
1033 1176 1
1061 1176 1
1066 1176 1
1126 1176 1
1132 1176 1
1235 1176 1
1242 1176 1
1010 1177 1
1012 1177 1
1030 1177 1
1034 1177 1
1062 1177 1
1067 1177 1
1127 1177 1
1133 1177 1
1236 1177 1
1243 1177 1
1002 1178 1
1012 1178 1
1035 1178 1
1042 1178 1
1068 1178 1
1074 1178 1
1134 1178 1
1139 1178 1
1244 1178 1
1248 1178 1
1002 1179 1
1003 1179 1
1036 1179 1
1043 1179 1
1069 1179 1
1075 1179 1
1135 1179 1
1140 1179 1
1245 1179 1
1249 1179 1
1003 1180 1
1004 1180 1
1037 1180 1
1044 1180 1
1070 1180 1
1076 1180 1
1136 1180 1
1141 1180 1
1246 1180 1
1250 1180 1
1004 1181 1
1005 1181 1
1038 1181 1
1045 1181 1
1071 1181 1
1077 1181 1
1137 1181 1
1142 1181 1
1247 1181 1
1251 1181 1
1005 1182 1
1006 1182 1
1035 1182 1
1039 1182 1
1072 1182 1
1078 1182 1
1138 1182 1
1143 1182 1
1248 1182 1
1252 1182 1
1006 1183 1
1007 1183 1
1036 1183 1
1040 1183 1
1068 1183 1
1073 1183 1
1139 1183 1
1144 1183 1
1249 1183 1
1253 1183 1
1007 1184 1
1008 1184 1
1037 1184 1
1041 1184 1
1069 1184 1
1074 1184 1
1134 1184 1
1140 1184 1
1250 1184 1
1254 1184 1
1008 1185 1
1009 1185 1
1038 1185 1
1042 1185 1
1070 1185 1
1075 1185 1
1135 1185 1
1141 1185 1
1244 1185 1
1251 1185 1
1009 1186 1
1010 1186 1
1039 1186 1
1043 1186 1
1071 1186 1
1076 1186 1
1136 1186 1
1142 1186 1
1245 1186 1
1252 1186 1
1010 1187 1
1011 1187 1
1040 1187 1
1044 1187 1
1072 1187 1
1077 1187 1
1137 1187 1
1143 1187 1
1246 1187 1
1253 1187 1
1011 1188 1
1012 1188 1
1041 1188 1
1045 1188 1
1073 1188 1
1078 1188 1
1138 1188 1
1144 1188 1
1247 1188 1
1254 1188 1
1013 1189 1
1022 1189 1
1024 1189 1
1032 1189 1
1079 1189 1
1085 1189 1
1145 1189 1
1150 1189 1
1255 1189 1
1259 1189 1
1014 1190 1
1023 1190 1
1025 1190 1
1033 1190 1
1080 1190 1
1086 1190 1
1146 1190 1
1151 1190 1
1256 1190 1
1260 1190 1
1013 1191 1
1015 1191 1
1026 1191 1
1034 1191 1
1081 1191 1
1087 1191 1
1147 1191 1
1152 1191 1
1257 1191 1
1261 1191 1
1014 1192 1
1016 1192 1
1024 1192 1
1027 1192 1
1082 1192 1
1088 1192 1
1148 1192 1
1153 1192 1
1258 1192 1
1262 1192 1
1015 1193 1
1017 1193 1
1025 1193 1
1028 1193 1
1083 1193 1
1089 1193 1
1149 1193 1
1154 1193 1
1259 1193 1
1263 1193 1
1016 1194 1
1018 1194 1
1026 1194 1
1029 1194 1
1079 1194 1
1084 1194 1
1150 1194 1
1155 1194 1
1260 1194 1
1264 1194 1
1017 1195 1
1019 1195 1
1027 1195 1
1030 1195 1
1080 1195 1
1085 1195 1
1145 1195 1
1151 1195 1
1261 1195 1
1265 1195 1
1018 1196 1
1020 1196 1
1028 1196 1
1031 1196 1
1081 1196 1
1086 1196 1
1146 1196 1
1152 1196 1
1255 1196 1
1262 1196 1
1019 1197 1
1021 1197 1
1029 1197 1
1032 1197 1
1082 1197 1
1087 1197 1
1147 1197 1
1153 1197 1
1256 1197 1
1263 1197 1
1020 1198 1
1022 1198 1
1030 1198 1
1033 1198 1
1083 1198 1
1088 1198 1
1148 1198 1
1154 1198 1
1257 1198 1
1264 1198 1
1021 1199 1
1023 1199 1
1031 1199 1
1034 1199 1
1084 1199 1
1089 1199 1
1149 1199 1
1155 1199 1
1258 1199 1
1265 1199 1
1013 1200 1
1023 1200 1
1035 1200 1
1043 1200 1
1090 1200 1
1096 1200 1
1156 1200 1
1161 1200 1
1266 1200 1
1270 1200 1
1013 1201 1
1014 1201 1
1036 1201 1
1044 1201 1
1091 1201 1
1097 1201 1
1157 1201 1
1162 1201 1
1267 1201 1
1271 1201 1
1014 1202 1
1015 1202 1
1037 1202 1
1045 1202 1
1092 1202 1
1098 1202 1
1158 1202 1
1163 1202 1
1268 1202 1
1272 1202 1
1015 1203 1
1016 1203 1
1035 1203 1
1038 1203 1
1093 1203 1
1099 1203 1
1159 1203 1
1164 1203 1
1269 1203 1
1273 1203 1
1016 1204 1
1017 1204 1
1036 1204 1
1039 1204 1
1094 1204 1
1100 1204 1
1160 1204 1
1165 1204 1
1270 1204 1
1274 1204 1
1017 1205 1
1018 1205 1
1037 1205 1
1040 1205 1
1090 1205 1
1095 1205 1
1161 1205 1
1166 1205 1
1271 1205 1
1275 1205 1
1018 1206 1
1019 1206 1
1038 1206 1
1041 1206 1
1091 1206 1
1096 1206 1
1156 1206 1
1162 1206 1
1272 1206 1
1276 1206 1
1019 1207 1
1020 1207 1
1039 1207 1
1042 1207 1
1092 1207 1
1097 1207 1
1157 1207 1
1163 1207 1
1266 1207 1
1273 1207 1
1020 1208 1
1021 1208 1
1040 1208 1
1043 1208 1
1093 1208 1
1098 1208 1
1158 1208 1
1164 1208 1
1267 1208 1
1274 1208 1
1021 1209 1
1022 1209 1
1041 1209 1
1044 1209 1
1094 1209 1
1099 1209 1
1159 1209 1
1165 1209 1
1268 1209 1
1275 1209 1
1022 1210 1
1023 1210 1
1042 1210 1
1045 1210 1
1095 1210 1
1100 1210 1
1160 1210 1
1166 1210 1
1269 1210 1
1276 1210 1
1024 1211 1
1034 1211 1
1035 1211 1
1044 1211 1
1101 1211 1
1107 1211 1
1167 1211 1
1172 1211 1
1277 1211 1
1281 1211 1
1024 1212 1
1025 1212 1
1036 1212 1
1045 1212 1
1102 1212 1
1108 1212 1
1168 1212 1
1173 1212 1
1278 1212 1
1282 1212 1
1025 1213 1
1026 1213 1
1035 1213 1
1037 1213 1
1103 1213 1
1109 1213 1
1169 1213 1
1174 1213 1
1279 1213 1
1283 1213 1
1026 1214 1
1027 1214 1
1036 1214 1
1038 1214 1
1104 1214 1
1110 1214 1
1170 1214 1
1175 1214 1
1280 1214 1
1284 1214 1
1027 1215 1
1028 1215 1
1037 1215 1
1039 1215 1
1105 1215 1
1111 1215 1
1171 1215 1
1176 1215 1
1281 1215 1
1285 1215 1
1028 1216 1
1029 1216 1
1038 1216 1
1040 1216 1
1101 1216 1
1106 1216 1
1172 1216 1
1177 1216 1
1282 1216 1
1286 1216 1
1029 1217 1
1030 1217 1
1039 1217 1
1041 1217 1
1102 1217 1
1107 1217 1
1167 1217 1
1173 1217 1
1283 1217 1
1287 1217 1
1030 1218 1
1031 1218 1
1040 1218 1
1042 1218 1
1103 1218 1
1108 1218 1
1168 1218 1
1174 1218 1
1277 1218 1
1284 1218 1
1031 1219 1
1032 1219 1
1041 1219 1
1043 1219 1
1104 1219 1
1109 1219 1
1169 1219 1
1175 1219 1
1278 1219 1
1285 1219 1
1032 1220 1
1033 1220 1
1042 1220 1
1044 1220 1
1105 1220 1
1110 1220 1
1170 1220 1
1176 1220 1
1279 1220 1
1286 1220 1
1033 1221 1
1034 1221 1
1043 1221 1
1045 1221 1
1106 1221 1
1111 1221 1
1171 1221 1
1177 1221 1
1280 1221 1
1287 1221 1
1046 1222 1
1055 1222 1
1057 1222 1
1065 1222 1
1079 1222 1
1086 1222 1
1178 1222 1
1183 1222 1
1288 1222 1
1292 1222 1
1047 1223 1
1056 1223 1
1058 1223 1
1066 1223 1
1080 1223 1
1087 1223 1
1179 1223 1
1184 1223 1
1289 1223 1
1293 1223 1
1046 1224 1
1048 1224 1
1059 1224 1
1067 1224 1
1081 1224 1
1088 1224 1
1180 1224 1
1185 1224 1
1290 1224 1
1294 1224 1
1047 1225 1
1049 1225 1
1057 1225 1
1060 1225 1
1082 1225 1
1089 1225 1
1181 1225 1
1186 1225 1
1291 1225 1
1295 1225 1
1048 1226 1
1050 1226 1
1058 1226 1
1061 1226 1
1079 1226 1
1083 1226 1
1182 1226 1
1187 1226 1
1292 1226 1
1296 1226 1
1049 1227 1
1051 1227 1
1059 1227 1
1062 1227 1
1080 1227 1
1084 1227 1
1183 1227 1
1188 1227 1
1293 1227 1
1297 1227 1
1050 1228 1
1052 1228 1
1060 1228 1
1063 1228 1
1081 1228 1
1085 1228 1
1178 1228 1
1184 1228 1
1294 1228 1
1298 1228 1
1051 1229 1
1053 1229 1
1061 1229 1
1064 1229 1
1082 1229 1
1086 1229 1
1179 1229 1
1185 1229 1
1288 1229 1
1295 1229 1
1052 1230 1
1054 1230 1
1062 1230 1
1065 1230 1
1083 1230 1
1087 1230 1
1180 1230 1
1186 1230 1
1289 1230 1
1296 1230 1
1053 1231 1
1055 1231 1
1063 1231 1
1066 1231 1
1084 1231 1
1088 1231 1
1181 1231 1
1187 1231 1
1290 1231 1
1297 1231 1
1054 1232 1
1056 1232 1
1064 1232 1
1067 1232 1
1085 1232 1
1089 1232 1
1182 1232 1
1188 1232 1
1291 1232 1
1298 1232 1
1046 1233 1
1056 1233 1
1068 1233 1
1076 1233 1
1090 1233 1
1097 1233 1
1189 1233 1
1194 1233 1
1299 1233 1
1303 1233 1
1046 1234 1
1047 1234 1
1069 1234 1
1077 1234 1
1091 1234 1
1098 1234 1
1190 1234 1
1195 1234 1
1300 1234 1
1304 1234 1
1047 1235 1
1048 1235 1
1070 1235 1
1078 1235 1
1092 1235 1
1099 1235 1
1191 1235 1
1196 1235 1
1301 1235 1
1305 1235 1
1048 1236 1
1049 1236 1
1068 1236 1
1071 1236 1
1093 1236 1
1100 1236 1
1192 1236 1
1197 1236 1
1302 1236 1
1306 1236 1
1049 1237 1
1050 1237 1
1069 1237 1
1072 1237 1
1090 1237 1
1094 1237 1
1193 1237 1
1198 1237 1
1303 1237 1
1307 1237 1
1050 1238 1
1051 1238 1
1070 1238 1
1073 1238 1
1091 1238 1
1095 1238 1
1194 1238 1
1199 1238 1
1304 1238 1
1308 1238 1
1051 1239 1
1052 1239 1
1071 1239 1
1074 1239 1
1092 1239 1
1096 1239 1
1189 1239 1
1195 1239 1
1305 1239 1
1309 1239 1
1052 1240 1
1053 1240 1
1072 1240 1
1075 1240 1
1093 1240 1
1097 1240 1
1190 1240 1
1196 1240 1
1299 1240 1
1306 1240 1
1053 1241 1
1054 1241 1
1073 1241 1
1076 1241 1
1094 1241 1
1098 1241 1
1191 1241 1
1197 1241 1
1300 1241 1
1307 1241 1
1054 1242 1
1055 1242 1
1074 1242 1
1077 1242 1
1095 1242 1
1099 1242 1
1192 1242 1
1198 1242 1
1301 1242 1
1308 1242 1
1055 1243 1
1056 1243 1
1075 1243 1
1078 1243 1
1096 1243 1
1100 1243 1
1193 1243 1
1199 1243 1
1302 1243 1
1309 1243 1
1057 1244 1
1067 1244 1
1068 1244 1
1077 1244 1
1101 1244 1
1108 1244 1
1200 1244 1
1205 1244 1
1310 1244 1
1314 1244 1
1057 1245 1
1058 1245 1
1069 1245 1
1078 1245 1
1102 1245 1
1109 1245 1
1201 1245 1
1206 1245 1
1311 1245 1
1315 1245 1
1058 1246 1
1059 1246 1
1068 1246 1
1070 1246 1
1103 1246 1
1110 1246 1
1202 1246 1
1207 1246 1
1312 1246 1
1316 1246 1
1059 1247 1
1060 1247 1
1069 1247 1
1071 1247 1
1104 1247 1
1111 1247 1
1203 1247 1
1208 1247 1
1313 1247 1
1317 1247 1
1060 1248 1
1061 1248 1
1070 1248 1
1072 1248 1
1101 1248 1
1105 1248 1
1204 1248 1
1209 1248 1
1314 1248 1
1318 1248 1
1061 1249 1
1062 1249 1
1071 1249 1
1073 1249 1
1102 1249 1
1106 1249 1
1205 1249 1
1210 1249 1
1315 1249 1
1319 1249 1
1062 1250 1
1063 1250 1
1072 1250 1
1074 1250 1
1103 1250 1
1107 1250 1
1200 1250 1
1206 1250 1
1316 1250 1
1320 1250 1
1063 1251 1
1064 1251 1
1073 1251 1
1075 1251 1
1104 1251 1
1108 1251 1
1201 1251 1
1207 1251 1
1310 1251 1
1317 1251 1
1064 1252 1
1065 1252 1
1074 1252 1
1076 1252 1
1105 1252 1
1109 1252 1
1202 1252 1
1208 1252 1
1311 1252 1
1318 1252 1
1065 1253 1
1066 1253 1
1075 1253 1
1077 1253 1
1106 1253 1
1110 1253 1
1203 1253 1
1209 1253 1
1312 1253 1
1319 1253 1
1066 1254 1
1067 1254 1
1076 1254 1
1078 1254 1
1107 1254 1
1111 1254 1
1204 1254 1
1210 1254 1
1313 1254 1
1320 1254 1
1079 1255 1
1089 1255 1
1090 1255 1
1099 1255 1
1101 1255 1
1109 1255 1
1211 1255 1
1216 1255 1
1321 1255 1
1325 1255 1
1079 1256 1
1080 1256 1
1091 1256 1
1100 1256 1
1102 1256 1
1110 1256 1
1212 1256 1
1217 1256 1
1322 1256 1
1326 1256 1
1080 1257 1
1081 1257 1
1090 1257 1
1092 1257 1
1103 1257 1
1111 1257 1
1213 1257 1
1218 1257 1
1323 1257 1
1327 1257 1
1081 1258 1
1082 1258 1
1091 1258 1
1093 1258 1
1101 1258 1
1104 1258 1
1214 1258 1
1219 1258 1
1324 1258 1
1328 1258 1
1082 1259 1
1083 1259 1
1092 1259 1
1094 1259 1
1102 1259 1
1105 1259 1
1215 1259 1
1220 1259 1
1325 1259 1
1329 1259 1
1083 1260 1
1084 1260 1
1093 1260 1
1095 1260 1
1103 1260 1
1106 1260 1
1216 1260 1
1221 1260 1
1326 1260 1
1330 1260 1
1084 1261 1
1085 1261 1
1094 1261 1
1096 1261 1
1104 1261 1
1107 1261 1
1211 1261 1
1217 1261 1
1327 1261 1
1331 1261 1
1085 1262 1
1086 1262 1
1095 1262 1
1097 1262 1
1105 1262 1
1108 1262 1
1212 1262 1
1218 1262 1
1321 1262 1
1328 1262 1
1086 1263 1
1087 1263 1
1096 1263 1
1098 1263 1
1106 1263 1
1109 1263 1
1213 1263 1
1219 1263 1
1322 1263 1
1329 1263 1
1087 1264 1
1088 1264 1
1097 1264 1
1099 1264 1
1107 1264 1
1110 1264 1
1214 1264 1
1220 1264 1
1323 1264 1
1330 1264 1
1088 1265 1
1089 1265 1
1098 1265 1
1100 1265 1
1108 1265 1
1111 1265 1
1215 1265 1
1221 1265 1
1324 1265 1
1331 1265 1
1112 1266 1
1121 1266 1
1123 1266 1
1131 1266 1
1145 1266 1
1152 1266 1
1178 1266 1
1184 1266 1
1332 1266 1
1336 1266 1
1113 1267 1
1122 1267 1
1124 1267 1
1132 1267 1
1146 1267 1
1153 1267 1
1179 1267 1
1185 1267 1
1333 1267 1
1337 1267 1
1112 1268 1
1114 1268 1
1125 1268 1
1133 1268 1
1147 1268 1
1154 1268 1
1180 1268 1
1186 1268 1
1334 1268 1
1338 1268 1
1113 1269 1
1115 1269 1
1123 1269 1
1126 1269 1
1148 1269 1
1155 1269 1
1181 1269 1
1187 1269 1
1335 1269 1
1339 1269 1
1114 1270 1
1116 1270 1
1124 1270 1
1127 1270 1
1145 1270 1
1149 1270 1
1182 1270 1
1188 1270 1
1336 1270 1
1340 1270 1
1115 1271 1
1117 1271 1
1125 1271 1
1128 1271 1
1146 1271 1
1150 1271 1
1178 1271 1
1183 1271 1
1337 1271 1
1341 1271 1
1116 1272 1
1118 1272 1
1126 1272 1
1129 1272 1
1147 1272 1
1151 1272 1
1179 1272 1
1184 1272 1
1338 1272 1
1342 1272 1
1117 1273 1
1119 1273 1
1127 1273 1
1130 1273 1
1148 1273 1
1152 1273 1
1180 1273 1
1185 1273 1
1332 1273 1
1339 1273 1
1118 1274 1
1120 1274 1
1128 1274 1
1131 1274 1
1149 1274 1
1153 1274 1
1181 1274 1
1186 1274 1
1333 1274 1
1340 1274 1
1119 1275 1
1121 1275 1
1129 1275 1
1132 1275 1
1150 1275 1
1154 1275 1
1182 1275 1
1187 1275 1
1334 1275 1
1341 1275 1
1120 1276 1
1122 1276 1
1130 1276 1
1133 1276 1
1151 1276 1
1155 1276 1
1183 1276 1
1188 1276 1
1335 1276 1
1342 1276 1
1112 1277 1
1122 1277 1
1134 1277 1
1142 1277 1
1156 1277 1
1163 1277 1
1189 1277 1
1195 1277 1
1343 1277 1
1347 1277 1
1112 1278 1
1113 1278 1
1135 1278 1
1143 1278 1
1157 1278 1
1164 1278 1
1190 1278 1
1196 1278 1
1344 1278 1
1348 1278 1
1113 1279 1
1114 1279 1
1136 1279 1
1144 1279 1
1158 1279 1
1165 1279 1
1191 1279 1
1197 1279 1
1345 1279 1
1349 1279 1
1114 1280 1
1115 1280 1
1134 1280 1
1137 1280 1
1159 1280 1
1166 1280 1
1192 1280 1
1198 1280 1
1346 1280 1
1350 1280 1
1115 1281 1
1116 1281 1
1135 1281 1
1138 1281 1
1156 1281 1
1160 1281 1
1193 1281 1
1199 1281 1
1347 1281 1
1351 1281 1
1116 1282 1
1117 1282 1
1136 1282 1
1139 1282 1
1157 1282 1
1161 1282 1
1189 1282 1
1194 1282 1
1348 1282 1
1352 1282 1
1117 1283 1
1118 1283 1
1137 1283 1
1140 1283 1
1158 1283 1
1162 1283 1
1190 1283 1
1195 1283 1
1349 1283 1
1353 1283 1
1118 1284 1
1119 1284 1
1138 1284 1
1141 1284 1
1159 1284 1
1163 1284 1
1191 1284 1
1196 1284 1
1343 1284 1
1350 1284 1
1119 1285 1
1120 1285 1
1139 1285 1
1142 1285 1
1160 1285 1
1164 1285 1
1192 1285 1
1197 1285 1
1344 1285 1
1351 1285 1
1120 1286 1
1121 1286 1
1140 1286 1
1143 1286 1
1161 1286 1
1165 1286 1
1193 1286 1
1198 1286 1
1345 1286 1
1352 1286 1
1121 1287 1
1122 1287 1
1141 1287 1
1144 1287 1
1162 1287 1
1166 1287 1
1194 1287 1
1199 1287 1
1346 1287 1
1353 1287 1
1123 1288 1
1133 1288 1
1134 1288 1
1143 1288 1
1167 1288 1
1174 1288 1
1200 1288 1
1206 1288 1
1354 1288 1
1358 1288 1
1123 1289 1
1124 1289 1
1135 1289 1
1144 1289 1
1168 1289 1
1175 1289 1
1201 1289 1
1207 1289 1
1355 1289 1
1359 1289 1
1124 1290 1
1125 1290 1
1134 1290 1
1136 1290 1
1169 1290 1
1176 1290 1
1202 1290 1
1208 1290 1
1356 1290 1
1360 1290 1
1125 1291 1
1126 1291 1
1135 1291 1
1137 1291 1
1170 1291 1
1177 1291 1
1203 1291 1
1209 1291 1
1357 1291 1
1361 1291 1
1126 1292 1
1127 1292 1
1136 1292 1
1138 1292 1
1167 1292 1
1171 1292 1
1204 1292 1
1210 1292 1
1358 1292 1
1362 1292 1
1127 1293 1
1128 1293 1
1137 1293 1
1139 1293 1
1168 1293 1
1172 1293 1
1200 1293 1
1205 1293 1
1359 1293 1
1363 1293 1
1128 1294 1
1129 1294 1
1138 1294 1
1140 1294 1
1169 1294 1
1173 1294 1
1201 1294 1
1206 1294 1
1360 1294 1
1364 1294 1
1129 1295 1
1130 1295 1
1139 1295 1
1141 1295 1
1170 1295 1
1174 1295 1
1202 1295 1
1207 1295 1
1354 1295 1
1361 1295 1
1130 1296 1
1131 1296 1
1140 1296 1
1142 1296 1
1171 1296 1
1175 1296 1
1203 1296 1
1208 1296 1
1355 1296 1
1362 1296 1
1131 1297 1
1132 1297 1
1141 1297 1
1143 1297 1
1172 1297 1
1176 1297 1
1204 1297 1
1209 1297 1
1356 1297 1
1363 1297 1
1132 1298 1
1133 1298 1
1142 1298 1
1144 1298 1
1173 1298 1
1177 1298 1
1205 1298 1
1210 1298 1
1357 1298 1
1364 1298 1
1145 1299 1
1155 1299 1
1156 1299 1
1165 1299 1
1167 1299 1
1175 1299 1
1211 1299 1
1217 1299 1
1365 1299 1
1369 1299 1
1145 1300 1
1146 1300 1
1157 1300 1
1166 1300 1
1168 1300 1
1176 1300 1
1212 1300 1
1218 1300 1
1366 1300 1
1370 1300 1
1146 1301 1
1147 1301 1
1156 1301 1
1158 1301 1
1169 1301 1
1177 1301 1
1213 1301 1
1219 1301 1
1367 1301 1
1371 1301 1
1147 1302 1
1148 1302 1
1157 1302 1
1159 1302 1
1167 1302 1
1170 1302 1
1214 1302 1
1220 1302 1
1368 1302 1
1372 1302 1
1148 1303 1
1149 1303 1
1158 1303 1
1160 1303 1
1168 1303 1
1171 1303 1
1215 1303 1
1221 1303 1
1369 1303 1
1373 1303 1
1149 1304 1
1150 1304 1
1159 1304 1
1161 1304 1
1169 1304 1
1172 1304 1
1211 1304 1
1216 1304 1
1370 1304 1
1374 1304 1
1150 1305 1
1151 1305 1
1160 1305 1
1162 1305 1
1170 1305 1
1173 1305 1
1212 1305 1
1217 1305 1
1371 1305 1
1375 1305 1
1151 1306 1
1152 1306 1
1161 1306 1
1163 1306 1
1171 1306 1
1174 1306 1
1213 1306 1
1218 1306 1
1365 1306 1
1372 1306 1
1152 1307 1
1153 1307 1
1162 1307 1
1164 1307 1
1172 1307 1
1175 1307 1
1214 1307 1
1219 1307 1
1366 1307 1
1373 1307 1
1153 1308 1
1154 1308 1
1163 1308 1
1165 1308 1
1173 1308 1
1176 1308 1
1215 1308 1
1220 1308 1
1367 1308 1
1374 1308 1
1154 1309 1
1155 1309 1
1164 1309 1
1166 1309 1
1174 1309 1
1177 1309 1
1216 1309 1
1221 1309 1
1368 1309 1
1375 1309 1
1178 1310 1
1188 1310 1
1189 1310 1
1198 1310 1
1200 1310 1
1208 1310 1
1211 1310 1
1218 1310 1
1376 1310 1
1380 1310 1
1178 1311 1
1179 1311 1
1190 1311 1
1199 1311 1
1201 1311 1
1209 1311 1
1212 1311 1
1219 1311 1
1377 1311 1
1381 1311 1
1179 1312 1
1180 1312 1
1189 1312 1
1191 1312 1
1202 1312 1
1210 1312 1
1213 1312 1
1220 1312 1
1378 1312 1
1382 1312 1
1180 1313 1
1181 1313 1
1190 1313 1
1192 1313 1
1200 1313 1
1203 1313 1
1214 1313 1
1221 1313 1
1379 1313 1
1383 1313 1
1181 1314 1
1182 1314 1
1191 1314 1
1193 1314 1
1201 1314 1
1204 1314 1
1211 1314 1
1215 1314 1
1380 1314 1
1384 1314 1
1182 1315 1
1183 1315 1
1192 1315 1
1194 1315 1
1202 1315 1
1205 1315 1
1212 1315 1
1216 1315 1
1381 1315 1
1385 1315 1
1183 1316 1
1184 1316 1
1193 1316 1
1195 1316 1
1203 1316 1
1206 1316 1
1213 1316 1
1217 1316 1
1382 1316 1
1386 1316 1
1184 1317 1
1185 1317 1
1194 1317 1
1196 1317 1
1204 1317 1
1207 1317 1
1214 1317 1
1218 1317 1
1376 1317 1
1383 1317 1
1185 1318 1
1186 1318 1
1195 1318 1
1197 1318 1
1205 1318 1
1208 1318 1
1215 1318 1
1219 1318 1
1377 1318 1
1384 1318 1
1186 1319 1
1187 1319 1
1196 1319 1
1198 1319 1
1206 1319 1
1209 1319 1
1216 1319 1
1220 1319 1
1378 1319 1
1385 1319 1
1187 1320 1
1188 1320 1
1197 1320 1
1199 1320 1
1207 1320 1
1210 1320 1
1217 1320 1
1221 1320 1
1379 1320 1
1386 1320 1
1222 1321 1
1231 1321 1
1233 1321 1
1241 1321 1
1255 1321 1
1262 1321 1
1288 1321 1
1294 1321 1
1332 1321 1
1337 1321 1
1223 1322 1
1232 1322 1
1234 1322 1
1242 1322 1
1256 1322 1
1263 1322 1
1289 1322 1
1295 1322 1
1333 1322 1
1338 1322 1
1222 1323 1
1224 1323 1
1235 1323 1
1243 1323 1
1257 1323 1
1264 1323 1
1290 1323 1
1296 1323 1
1334 1323 1
1339 1323 1
1223 1324 1
1225 1324 1
1233 1324 1
1236 1324 1
1258 1324 1
1265 1324 1
1291 1324 1
1297 1324 1
1335 1324 1
1340 1324 1
1224 1325 1
1226 1325 1
1234 1325 1
1237 1325 1
1255 1325 1
1259 1325 1
1292 1325 1
1298 1325 1
1336 1325 1
1341 1325 1
1225 1326 1
1227 1326 1
1235 1326 1
1238 1326 1
1256 1326 1
1260 1326 1
1288 1326 1
1293 1326 1
1337 1326 1
1342 1326 1
1226 1327 1
1228 1327 1
1236 1327 1
1239 1327 1
1257 1327 1
1261 1327 1
1289 1327 1
1294 1327 1
1332 1327 1
1338 1327 1
1227 1328 1
1229 1328 1
1237 1328 1
1240 1328 1
1258 1328 1
1262 1328 1
1290 1328 1
1295 1328 1
1333 1328 1
1339 1328 1
1228 1329 1
1230 1329 1
1238 1329 1
1241 1329 1
1259 1329 1
1263 1329 1
1291 1329 1
1296 1329 1
1334 1329 1
1340 1329 1
1229 1330 1
1231 1330 1
1239 1330 1
1242 1330 1
1260 1330 1
1264 1330 1
1292 1330 1
1297 1330 1
1335 1330 1
1341 1330 1
1230 1331 1
1232 1331 1
1240 1331 1
1243 1331 1
1261 1331 1
1265 1331 1
1293 1331 1
1298 1331 1
1336 1331 1
1342 1331 1
1222 1332 1
1232 1332 1
1244 1332 1
1252 1332 1
1266 1332 1
1273 1332 1
1299 1332 1
1305 1332 1
1343 1332 1
1348 1332 1
1222 1333 1
1223 1333 1
1245 1333 1
1253 1333 1
1267 1333 1
1274 1333 1
1300 1333 1
1306 1333 1
1344 1333 1
1349 1333 1
1223 1334 1
1224 1334 1
1246 1334 1
1254 1334 1
1268 1334 1
1275 1334 1
1301 1334 1
1307 1334 1
1345 1334 1
1350 1334 1
1224 1335 1
1225 1335 1
1244 1335 1
1247 1335 1
1269 1335 1
1276 1335 1
1302 1335 1
1308 1335 1
1346 1335 1
1351 1335 1
1225 1336 1
1226 1336 1
1245 1336 1
1248 1336 1
1266 1336 1
1270 1336 1
1303 1336 1
1309 1336 1
1347 1336 1
1352 1336 1
1226 1337 1
1227 1337 1
1246 1337 1
1249 1337 1
1267 1337 1
1271 1337 1
1299 1337 1
1304 1337 1
1348 1337 1
1353 1337 1
1227 1338 1
1228 1338 1
1247 1338 1
1250 1338 1
1268 1338 1
1272 1338 1
1300 1338 1
1305 1338 1
1343 1338 1
1349 1338 1
1228 1339 1
1229 1339 1
1248 1339 1
1251 1339 1
1269 1339 1
1273 1339 1
1301 1339 1
1306 1339 1
1344 1339 1
1350 1339 1
1229 1340 1
1230 1340 1
1249 1340 1
1252 1340 1
1270 1340 1
1274 1340 1
1302 1340 1
1307 1340 1
1345 1340 1
1351 1340 1
1230 1341 1
1231 1341 1
1250 1341 1
1253 1341 1
1271 1341 1
1275 1341 1
1303 1341 1
1308 1341 1
1346 1341 1
1352 1341 1
1231 1342 1
1232 1342 1
1251 1342 1
1254 1342 1
1272 1342 1
1276 1342 1
1304 1342 1
1309 1342 1
1347 1342 1
1353 1342 1
1233 1343 1
1243 1343 1
1244 1343 1
1253 1343 1
1277 1343 1
1284 1343 1
1310 1343 1
1316 1343 1
1354 1343 1
1359 1343 1
1233 1344 1
1234 1344 1
1245 1344 1
1254 1344 1
1278 1344 1
1285 1344 1
1311 1344 1
1317 1344 1
1355 1344 1
1360 1344 1
1234 1345 1
1235 1345 1
1244 1345 1
1246 1345 1
1279 1345 1
1286 1345 1
1312 1345 1
1318 1345 1
1356 1345 1
1361 1345 1
1235 1346 1
1236 1346 1
1245 1346 1
1247 1346 1
1280 1346 1
1287 1346 1
1313 1346 1
1319 1346 1
1357 1346 1
1362 1346 1
1236 1347 1
1237 1347 1
1246 1347 1
1248 1347 1
1277 1347 1
1281 1347 1
1314 1347 1
1320 1347 1
1358 1347 1
1363 1347 1
1237 1348 1
1238 1348 1
1247 1348 1
1249 1348 1
1278 1348 1
1282 1348 1
1310 1348 1
1315 1348 1
1359 1348 1
1364 1348 1
1238 1349 1
1239 1349 1
1248 1349 1
1250 1349 1
1279 1349 1
1283 1349 1
1311 1349 1
1316 1349 1
1354 1349 1
1360 1349 1
1239 1350 1
1240 1350 1
1249 1350 1
1251 1350 1
1280 1350 1
1284 1350 1
1312 1350 1
1317 1350 1
1355 1350 1
1361 1350 1
1240 1351 1
1241 1351 1
1250 1351 1
1252 1351 1
1281 1351 1
1285 1351 1
1313 1351 1
1318 1351 1
1356 1351 1
1362 1351 1
1241 1352 1
1242 1352 1
1251 1352 1
1253 1352 1
1282 1352 1
1286 1352 1
1314 1352 1
1319 1352 1
1357 1352 1
1363 1352 1
1242 1353 1
1243 1353 1
1252 1353 1
1254 1353 1
1283 1353 1
1287 1353 1
1315 1353 1
1320 1353 1
1358 1353 1
1364 1353 1
1255 1354 1
1265 1354 1
1266 1354 1
1275 1354 1
1277 1354 1
1285 1354 1
1321 1354 1
1327 1354 1
1365 1354 1
1370 1354 1
1255 1355 1
1256 1355 1
1267 1355 1
1276 1355 1
1278 1355 1
1286 1355 1
1322 1355 1
1328 1355 1
1366 1355 1
1371 1355 1
1256 1356 1
1257 1356 1
1266 1356 1
1268 1356 1
1279 1356 1
1287 1356 1
1323 1356 1
1329 1356 1
1367 1356 1
1372 1356 1
1257 1357 1
1258 1357 1
1267 1357 1
1269 1357 1
1277 1357 1
1280 1357 1
1324 1357 1
1330 1357 1
1368 1357 1
1373 1357 1
1258 1358 1
1259 1358 1
1268 1358 1
1270 1358 1
1278 1358 1
1281 1358 1
1325 1358 1
1331 1358 1
1369 1358 1
1374 1358 1
1259 1359 1
1260 1359 1
1269 1359 1
1271 1359 1
1279 1359 1
1282 1359 1
1321 1359 1
1326 1359 1
1370 1359 1
1375 1359 1
1260 1360 1
1261 1360 1
1270 1360 1
1272 1360 1
1280 1360 1
1283 1360 1
1322 1360 1
1327 1360 1
1365 1360 1
1371 1360 1
1261 1361 1
1262 1361 1
1271 1361 1
1273 1361 1
1281 1361 1
1284 1361 1
1323 1361 1
1328 1361 1
1366 1361 1
1372 1361 1
1262 1362 1
1263 1362 1
1272 1362 1
1274 1362 1
1282 1362 1
1285 1362 1
1324 1362 1
1329 1362 1
1367 1362 1
1373 1362 1
1263 1363 1
1264 1363 1
1273 1363 1
1275 1363 1
1283 1363 1
1286 1363 1
1325 1363 1
1330 1363 1
1368 1363 1
1374 1363 1
1264 1364 1
1265 1364 1
1274 1364 1
1276 1364 1
1284 1364 1
1287 1364 1
1326 1364 1
1331 1364 1
1369 1364 1
1375 1364 1
1288 1365 1
1298 1365 1
1299 1365 1
1308 1365 1
1310 1365 1
1318 1365 1
1321 1365 1
1328 1365 1
1376 1365 1
1381 1365 1
1288 1366 1
1289 1366 1
1300 1366 1
1309 1366 1
1311 1366 1
1319 1366 1
1322 1366 1
1329 1366 1
1377 1366 1
1382 1366 1
1289 1367 1
1290 1367 1
1299 1367 1
1301 1367 1
1312 1367 1
1320 1367 1
1323 1367 1
1330 1367 1
1378 1367 1
1383 1367 1
1290 1368 1
1291 1368 1
1300 1368 1
1302 1368 1
1310 1368 1
1313 1368 1
1324 1368 1
1331 1368 1
1379 1368 1
1384 1368 1
1291 1369 1
1292 1369 1
1301 1369 1
1303 1369 1
1311 1369 1
1314 1369 1
1321 1369 1
1325 1369 1
1380 1369 1
1385 1369 1
1292 1370 1
1293 1370 1
1302 1370 1
1304 1370 1
1312 1370 1
1315 1370 1
1322 1370 1
1326 1370 1
1381 1370 1
1386 1370 1
1293 1371 1
1294 1371 1
1303 1371 1
1305 1371 1
1313 1371 1
1316 1371 1
1323 1371 1
1327 1371 1
1376 1371 1
1382 1371 1
1294 1372 1
1295 1372 1
1304 1372 1
1306 1372 1
1314 1372 1
1317 1372 1
1324 1372 1
1328 1372 1
1377 1372 1
1383 1372 1
1295 1373 1
1296 1373 1
1305 1373 1
1307 1373 1
1315 1373 1
1318 1373 1
1325 1373 1
1329 1373 1
1378 1373 1
1384 1373 1
1296 1374 1
1297 1374 1
1306 1374 1
1308 1374 1
1316 1374 1
1319 1374 1
1326 1374 1
1330 1374 1
1379 1374 1
1385 1374 1
1297 1375 1
1298 1375 1
1307 1375 1
1309 1375 1
1317 1375 1
1320 1375 1
1327 1375 1
1331 1375 1
1380 1375 1
1386 1375 1
1332 1376 1
1342 1376 1
1343 1376 1
1352 1376 1
1354 1376 1
1362 1376 1
1365 1376 1
1372 1376 1
1376 1376 1
1382 1376 1
1332 1377 1
1333 1377 1
1344 1377 1
1353 1377 1
1355 1377 1
1363 1377 1
1366 1377 1
1373 1377 1
1377 1377 1
1383 1377 1
1333 1378 1
1334 1378 1
1343 1378 1
1345 1378 1
1356 1378 1
1364 1378 1
1367 1378 1
1374 1378 1
1378 1378 1
1384 1378 1
1334 1379 1
1335 1379 1
1344 1379 1
1346 1379 1
1354 1379 1
1357 1379 1
1368 1379 1
1375 1379 1
1379 1379 1
1385 1379 1
1335 1380 1
1336 1380 1
1345 1380 1
1347 1380 1
1355 1380 1
1358 1380 1
1365 1380 1
1369 1380 1
1380 1380 1
1386 1380 1
1336 1381 1
1337 1381 1
1346 1381 1
1348 1381 1
1356 1381 1
1359 1381 1
1366 1381 1
1370 1381 1
1376 1381 1
1381 1381 1
1337 1382 1
1338 1382 1
1347 1382 1
1349 1382 1
1357 1382 1
1360 1382 1
1367 1382 1
1371 1382 1
1377 1382 1
1382 1382 1
1338 1383 1
1339 1383 1
1348 1383 1
1350 1383 1
1358 1383 1
1361 1383 1
1368 1383 1
1372 1383 1
1378 1383 1
1383 1383 1
1339 1384 1
1340 1384 1
1349 1384 1
1351 1384 1
1359 1384 1
1362 1384 1
1369 1384 1
1373 1384 1
1379 1384 1
1384 1384 1
1340 1385 1
1341 1385 1
1350 1385 1
1352 1385 1
1360 1385 1
1363 1385 1
1370 1385 1
1374 1385 1
1380 1385 1
1385 1385 1
1341 1386 1
1342 1386 1
1351 1386 1
1353 1386 1
1361 1386 1
1364 1386 1
1371 1386 1
1375 1386 1
1381 1386 1
1386 1386 1
