%%MatrixMarket matrix coordinate integer general
% Binary matrix; one-based indices; arithmetic over GF(2)
370 370 2220
1 1 1
22 1 1
38 1 1
42 1 1
149 1 1
151 1 1
2 2 1
23 2 1
39 2 1
43 2 1
150 2 1
152 2 1
3 3 1
24 3 1
40 3 1
44 3 1
151 3 1
153 3 1
4 4 1
25 4 1
41 4 1
45 4 1
152 4 1
154 4 1
5 5 1
26 5 1
42 5 1
46 5 1
153 5 1
155 5 1
6 6 1
27 6 1
43 6 1
47 6 1
154 6 1
156 6 1
7 7 1
28 7 1
44 7 1
48 7 1
155 7 1
157 7 1
8 8 1
29 8 1
45 8 1
49 8 1
156 8 1
158 8 1
9 9 1
30 9 1
46 9 1
50 9 1
157 9 1
159 9 1
10 10 1
31 10 1
47 10 1
51 10 1
158 10 1
160 10 1
11 11 1
32 11 1
48 11 1
52 11 1
159 11 1
161 11 1
12 12 1
33 12 1
49 12 1
53 12 1
160 12 1
162 12 1
13 13 1
34 13 1
50 13 1
54 13 1
161 13 1
163 13 1
14 14 1
35 14 1
51 14 1
55 14 1
162 14 1
164 14 1
15 15 1
36 15 1
52 15 1
56 15 1
163 15 1
165 15 1
16 16 1
37 16 1
53 16 1
57 16 1
164 16 1
166 16 1
1 17 1
17 17 1
54 17 1
58 17 1
165 17 1
167 17 1
2 18 1
18 18 1
55 18 1
59 18 1
166 18 1
168 18 1
3 19 1
19 19 1
56 19 1
60 19 1
167 19 1
169 19 1
4 20 1
20 20 1
57 20 1
61 20 1
168 20 1
170 20 1
5 21 1
21 21 1
58 21 1
62 21 1
169 21 1
171 21 1
6 22 1
22 22 1
59 22 1
63 22 1
170 22 1
172 22 1
7 23 1
23 23 1
60 23 1
64 23 1
171 23 1
173 23 1
8 24 1
24 24 1
61 24 1
65 24 1
172 24 1
174 24 1
9 25 1
25 25 1
62 25 1
66 25 1
173 25 1
175 25 1
10 26 1
26 26 1
63 26 1
67 26 1
174 26 1
176 26 1
11 27 1
27 27 1
64 27 1
68 27 1
175 27 1
177 27 1
12 28 1
28 28 1
65 28 1
69 28 1
176 28 1
178 28 1
13 29 1
29 29 1
66 29 1
70 29 1
177 29 1
179 29 1
14 30 1
30 30 1
67 30 1
71 30 1
178 30 1
180 30 1
15 31 1
31 31 1
68 31 1
72 31 1
179 31 1
181 31 1
16 32 1
32 32 1
69 32 1
73 32 1
180 32 1
182 32 1
17 33 1
33 33 1
70 33 1
74 33 1
181 33 1
183 33 1
18 34 1
34 34 1
38 34 1
71 34 1
182 34 1
184 34 1
19 35 1
35 35 1
39 35 1
72 35 1
183 35 1
185 35 1
20 36 1
36 36 1
40 36 1
73 36 1
149 36 1
184 36 1
21 37 1
37 37 1
41 37 1
74 37 1
150 37 1
185 37 1
1 38 1
28 38 1
75 38 1
79 38 1
186 38 1
188 38 1
2 39 1
29 39 1
76 39 1
80 39 1
187 39 1
189 39 1
3 40 1
30 40 1
77 40 1
81 40 1
188 40 1
190 40 1
4 41 1
31 41 1
78 41 1
82 41 1
189 41 1
191 41 1
5 42 1
32 42 1
79 42 1
83 42 1
190 42 1
192 42 1
6 43 1
33 43 1
80 43 1
84 43 1
191 43 1
193 43 1
7 44 1
34 44 1
81 44 1
85 44 1
192 44 1
194 44 1
8 45 1
35 45 1
82 45 1
86 45 1
193 45 1
195 45 1
9 46 1
36 46 1
83 46 1
87 46 1
194 46 1
196 46 1
10 47 1
37 47 1
84 47 1
88 47 1
195 47 1
197 47 1
1 48 1
11 48 1
85 48 1
89 48 1
196 48 1
198 48 1
2 49 1
12 49 1
86 49 1
90 49 1
197 49 1
199 49 1
3 50 1
13 50 1
87 50 1
91 50 1
198 50 1
200 50 1
4 51 1
14 51 1
88 51 1
92 51 1
199 51 1
201 51 1
5 52 1
15 52 1
89 52 1
93 52 1
200 52 1
202 52 1
6 53 1
16 53 1
90 53 1
94 53 1
201 53 1
203 53 1
7 54 1
17 54 1
91 54 1
95 54 1
202 54 1
204 54 1
8 55 1
18 55 1
92 55 1
96 55 1
203 55 1
205 55 1
9 56 1
19 56 1
93 56 1
97 56 1
204 56 1
206 56 1
10 57 1
20 57 1
94 57 1
98 57 1
205 57 1
207 57 1
11 58 1
21 58 1
95 58 1
99 58 1
206 58 1
208 58 1
12 59 1
22 59 1
96 59 1
100 59 1
207 59 1
209 59 1
13 60 1
23 60 1
97 60 1
101 60 1
208 60 1
210 60 1
14 61 1
24 61 1
98 61 1
102 61 1
209 61 1
211 61 1
15 62 1
25 62 1
99 62 1
103 62 1
210 62 1
212 62 1
16 63 1
26 63 1
100 63 1
104 63 1
211 63 1
213 63 1
17 64 1
27 64 1
101 64 1
105 64 1
212 64 1
214 64 1
18 65 1
28 65 1
102 65 1
106 65 1
213 65 1
215 65 1
19 66 1
29 66 1
103 66 1
107 66 1
214 66 1
216 66 1
20 67 1
30 67 1
104 67 1
108 67 1
215 67 1
217 67 1
21 68 1
31 68 1
105 68 1
109 68 1
216 68 1
218 68 1
22 69 1
32 69 1
106 69 1
110 69 1
217 69 1
219 69 1
23 70 1
33 70 1
107 70 1
111 70 1
218 70 1
220 70 1
24 71 1
34 71 1
75 71 1
108 71 1
219 71 1
221 71 1
25 72 1
35 72 1
76 72 1
109 72 1
220 72 1
222 72 1
26 73 1
36 73 1
77 73 1
110 73 1
186 73 1
221 73 1
27 74 1
37 74 1
78 74 1
111 74 1
187 74 1
222 74 1
1 75 1
29 75 1
112 75 1
116 75 1
223 75 1
225 75 1
2 76 1
30 76 1
113 76 1
117 76 1
224 76 1
226 76 1
3 77 1
31 77 1
114 77 1
118 77 1
225 77 1
227 77 1
4 78 1
32 78 1
115 78 1
119 78 1
226 78 1
228 78 1
5 79 1
33 79 1
116 79 1
120 79 1
227 79 1
229 79 1
6 80 1
34 80 1
117 80 1
121 80 1
228 80 1
230 80 1
7 81 1
35 81 1
118 81 1
122 81 1
229 81 1
231 81 1
8 82 1
36 82 1
119 82 1
123 82 1
230 82 1
232 82 1
9 83 1
37 83 1
120 83 1
124 83 1
231 83 1
233 83 1
1 84 1
10 84 1
121 84 1
125 84 1
232 84 1
234 84 1
2 85 1
11 85 1
122 85 1
126 85 1
233 85 1
235 85 1
3 86 1
12 86 1
123 86 1
127 86 1
234 86 1
236 86 1
4 87 1
13 87 1
124 87 1
128 87 1
235 87 1
237 87 1
5 88 1
14 88 1
125 88 1
129 88 1
236 88 1
238 88 1
6 89 1
15 89 1
126 89 1
130 89 1
237 89 1
239 89 1
7 90 1
16 90 1
127 90 1
131 90 1
238 90 1
240 90 1
8 91 1
17 91 1
128 91 1
132 91 1
239 91 1
241 91 1
9 92 1
18 92 1
129 92 1
133 92 1
240 92 1
242 92 1
10 93 1
19 93 1
130 93 1
134 93 1
241 93 1
243 93 1
11 94 1
20 94 1
131 94 1
135 94 1
242 94 1
244 94 1
12 95 1
21 95 1
132 95 1
136 95 1
243 95 1
245 95 1
13 96 1
22 96 1
133 96 1
137 96 1
244 96 1
246 96 1
14 97 1
23 97 1
134 97 1
138 97 1
245 97 1
247 97 1
15 98 1
24 98 1
135 98 1
139 98 1
246 98 1
248 98 1
16 99 1
25 99 1
136 99 1
140 99 1
247 99 1
249 99 1
17 100 1
26 100 1
137 100 1
141 100 1
248 100 1
250 100 1
18 101 1
27 101 1
138 101 1
142 101 1
249 101 1
251 101 1
19 102 1
28 102 1
139 102 1
143 102 1
250 102 1
252 102 1
20 103 1
29 103 1
140 103 1
144 103 1
251 103 1
253 103 1
21 104 1
30 104 1
141 104 1
145 104 1
252 104 1
254 104 1
22 105 1
31 105 1
142 105 1
146 105 1
253 105 1
255 105 1
23 106 1
32 106 1
143 106 1
147 106 1
254 106 1
256 106 1
24 107 1
33 107 1
144 107 1
148 107 1
255 107 1
257 107 1
25 108 1
34 108 1
112 108 1
145 108 1
256 108 1
258 108 1
26 109 1
35 109 1
113 109 1
146 109 1
257 109 1
259 109 1
27 110 1
36 110 1
114 110 1
147 110 1
223 110 1
258 110 1
28 111 1
37 111 1
115 111 1
148 111 1
224 111 1
259 111 1
38 112 1
65 112 1
75 112 1
96 112 1
260 112 1
262 112 1
39 113 1
66 113 1
76 113 1
97 113 1
261 113 1
263 113 1
40 114 1
67 114 1
77 114 1
98 114 1
262 114 1
264 114 1
41 115 1
68 115 1
78 115 1
99 115 1
263 115 1
265 115 1
42 116 1
69 116 1
79 116 1
100 116 1
264 116 1
266 116 1
43 117 1
70 117 1
80 117 1
101 117 1
265 117 1
267 117 1
44 118 1
71 118 1
81 118 1
102 118 1
266 118 1
268 118 1
45 119 1
72 119 1
82 119 1
103 119 1
267 119 1
269 119 1
46 120 1
73 120 1
83 120 1
104 120 1
268 120 1
270 120 1
47 121 1
74 121 1
84 121 1
105 121 1
269 121 1
271 121 1
38 122 1
48 122 1
85 122 1
106 122 1
270 122 1
272 122 1
39 123 1
49 123 1
86 123 1
107 123 1
271 123 1
273 123 1
40 124 1
50 124 1
87 124 1
108 124 1
272 124 1
274 124 1
41 125 1
51 125 1
88 125 1
109 125 1
273 125 1
275 125 1
42 126 1
52 126 1
89 126 1
110 126 1
274 126 1
276 126 1
43 127 1
53 127 1
90 127 1
111 127 1
275 127 1
277 127 1
44 128 1
54 128 1
75 128 1
91 128 1
276 128 1
278 128 1
45 129 1
55 129 1
76 129 1
92 129 1
277 129 1
279 129 1
46 130 1
56 130 1
77 130 1
93 130 1
278 130 1
280 130 1
47 131 1
57 131 1
78 131 1
94 131 1
279 131 1
281 131 1
48 132 1
58 132 1
79 132 1
95 132 1
280 132 1
282 132 1
49 133 1
59 133 1
80 133 1
96 133 1
281 133 1
283 133 1
50 134 1
60 134 1
81 134 1
97 134 1
282 134 1
284 134 1
51 135 1
61 135 1
82 135 1
98 135 1
283 135 1
285 135 1
52 136 1
62 136 1
83 136 1
99 136 1
284 136 1
286 136 1
53 137 1
63 137 1
84 137 1
100 137 1
285 137 1
287 137 1
54 138 1
64 138 1
85 138 1
101 138 1
286 138 1
288 138 1
55 139 1
65 139 1
86 139 1
102 139 1
287 139 1
289 139 1
56 140 1
66 140 1
87 140 1
103 140 1
288 140 1
290 140 1
57 141 1
67 141 1
88 141 1
104 141 1
289 141 1
291 141 1
58 142 1
68 142 1
89 142 1
105 142 1
290 142 1
292 142 1
59 143 1
69 143 1
90 143 1
106 143 1
291 143 1
293 143 1
60 144 1
70 144 1
91 144 1
107 144 1
292 144 1
294 144 1
61 145 1
71 145 1
92 145 1
108 145 1
293 145 1
295 145 1
62 146 1
72 146 1
93 146 1
109 146 1
294 146 1
296 146 1
63 147 1
73 147 1
94 147 1
110 147 1
260 147 1
295 147 1
64 148 1
74 148 1
95 148 1
111 148 1
261 148 1
296 148 1
38 149 1
66 149 1
112 149 1
133 149 1
297 149 1
299 149 1
39 150 1
67 150 1
113 150 1
134 150 1
298 150 1
300 150 1
40 151 1
68 151 1
114 151 1
135 151 1
299 151 1
301 151 1
41 152 1
69 152 1
115 152 1
136 152 1
300 152 1
302 152 1
42 153 1
70 153 1
116 153 1
137 153 1
301 153 1
303 153 1
43 154 1
71 154 1
117 154 1
138 154 1
302 154 1
304 154 1
44 155 1
72 155 1
118 155 1
139 155 1
303 155 1
305 155 1
45 156 1
73 156 1
119 156 1
140 156 1
304 156 1
306 156 1
46 157 1
74 157 1
120 157 1
141 157 1
305 157 1
307 157 1
38 158 1
47 158 1
121 158 1
142 158 1
306 158 1
308 158 1
39 159 1
48 159 1
122 159 1
143 159 1
307 159 1
309 159 1
40 160 1
49 160 1
123 160 1
144 160 1
308 160 1
310 160 1
41 161 1
50 161 1
124 161 1
145 161 1
309 161 1
311 161 1
42 162 1
51 162 1
125 162 1
146 162 1
310 162 1
312 162 1
43 163 1
52 163 1
126 163 1
147 163 1
311 163 1
313 163 1
44 164 1
53 164 1
127 164 1
148 164 1
312 164 1
314 164 1
45 165 1
54 165 1
112 165 1
128 165 1
313 165 1
315 165 1
46 166 1
55 166 1
113 166 1
129 166 1
314 166 1
316 166 1
47 167 1
56 167 1
114 167 1
130 167 1
315 167 1
317 167 1
48 168 1
57 168 1
115 168 1
131 168 1
316 168 1
318 168 1
49 169 1
58 169 1
116 169 1
132 169 1
317 169 1
319 169 1
50 170 1
59 170 1
117 170 1
133 170 1
318 170 1
320 170 1
51 171 1
60 171 1
118 171 1
134 171 1
319 171 1
321 171 1
52 172 1
61 172 1
119 172 1
135 172 1
320 172 1
322 172 1
53 173 1
62 173 1
120 173 1
136 173 1
321 173 1
323 173 1
54 174 1
63 174 1
121 174 1
137 174 1
322 174 1
324 174 1
55 175 1
64 175 1
122 175 1
138 175 1
323 175 1
325 175 1
56 176 1
65 176 1
123 176 1
139 176 1
324 176 1
326 176 1
57 177 1
66 177 1
124 177 1
140 177 1
325 177 1
327 177 1
58 178 1
67 178 1
125 178 1
141 178 1
326 178 1
328 178 1
59 179 1
68 179 1
126 179 1
142 179 1
327 179 1
329 179 1
60 180 1
69 180 1
127 180 1
143 180 1
328 180 1
330 180 1
61 181 1
70 181 1
128 181 1
144 181 1
329 181 1
331 181 1
62 182 1
71 182 1
129 182 1
145 182 1
330 182 1
332 182 1
63 183 1
72 183 1
130 183 1
146 183 1
331 183 1
333 183 1
64 184 1
73 184 1
131 184 1
147 184 1
297 184 1
332 184 1
65 185 1
74 185 1
132 185 1
148 185 1
298 185 1
333 185 1
75 186 1
103 186 1
112 186 1
139 186 1
334 186 1
336 186 1
76 187 1
104 187 1
113 187 1
140 187 1
335 187 1
337 187 1
77 188 1
105 188 1
114 188 1
141 188 1
336 188 1
338 188 1
78 189 1
106 189 1
115 189 1
142 189 1
337 189 1
339 189 1
79 190 1
107 190 1
116 190 1
143 190 1
338 190 1
340 190 1
80 191 1
108 191 1
117 191 1
144 191 1
339 191 1
341 191 1
81 192 1
109 192 1
118 192 1
145 192 1
340 192 1
342 192 1
82 193 1
110 193 1
119 193 1
146 193 1
341 193 1
343 193 1
83 194 1
111 194 1
120 194 1
147 194 1
342 194 1
344 194 1
75 195 1
84 195 1
121 195 1
148 195 1
343 195 1
345 195 1
76 196 1
85 196 1
112 196 1
122 196 1
344 196 1
346 196 1
77 197 1
86 197 1
113 197 1
123 197 1
345 197 1
347 197 1
78 198 1
87 198 1
114 198 1
124 198 1
346 198 1
348 198 1
79 199 1
88 199 1
115 199 1
125 199 1
347 199 1
349 199 1
80 200 1
89 200 1
116 200 1
126 200 1
348 200 1
350 200 1
81 201 1
90 201 1
117 201 1
127 201 1
349 201 1
351 201 1
82 202 1
91 202 1
118 202 1
128 202 1
350 202 1
352 202 1
83 203 1
92 203 1
119 203 1
129 203 1
351 203 1
353 203 1
84 204 1
93 204 1
120 204 1
130 204 1
352 204 1
354 204 1
85 205 1
94 205 1
121 205 1
131 205 1
353 205 1
355 205 1
86 206 1
95 206 1
122 206 1
132 206 1
354 206 1
356 206 1
87 207 1
96 207 1
123 207 1
133 207 1
355 207 1
357 207 1
88 208 1
97 208 1
124 208 1
134 208 1
356 208 1
358 208 1
89 209 1
98 209 1
125 209 1
135 209 1
357 209 1
359 209 1
90 210 1
99 210 1
126 210 1
136 210 1
358 210 1
360 210 1
91 211 1
100 211 1
127 211 1
137 211 1
359 211 1
361 211 1
92 212 1
101 212 1
128 212 1
138 212 1
360 212 1
362 212 1
93 213 1
102 213 1
129 213 1
139 213 1
361 213 1
363 213 1
94 214 1
103 214 1
130 214 1
140 214 1
362 214 1
364 214 1
95 215 1
104 215 1
131 215 1
141 215 1
363 215 1
365 215 1
96 216 1
105 216 1
132 216 1
142 216 1
364 216 1
366 216 1
97 217 1
106 217 1
133 217 1
143 217 1
365 217 1
367 217 1
98 218 1
107 218 1
134 218 1
144 218 1
366 218 1
368 218 1
99 219 1
108 219 1
135 219 1
145 219 1
367 219 1
369 219 1
100 220 1
109 220 1
136 220 1
146 220 1
368 220 1
370 220 1
101 221 1
110 221 1
137 221 1
147 221 1
334 221 1
369 221 1
102 222 1
111 222 1
138 222 1
148 222 1
335 222 1
370 222 1
149 223 1
176 223 1
186 223 1
207 223 1
260 223 1
264 223 1
150 224 1
177 224 1
187 224 1
208 224 1
261 224 1
265 224 1
151 225 1
178 225 1
188 225 1
209 225 1
262 225 1
266 225 1
152 226 1
179 226 1
189 226 1
210 226 1
263 226 1
267 226 1
153 227 1
180 227 1
190 227 1
211 227 1
264 227 1
268 227 1
154 228 1
181 228 1
191 228 1
212 228 1
265 228 1
269 228 1
155 229 1
182 229 1
192 229 1
213 229 1
266 229 1
270 229 1
156 230 1
183 230 1
193 230 1
214 230 1
267 230 1
271 230 1
157 231 1
184 231 1
194 231 1
215 231 1
268 231 1
272 231 1
158 232 1
185 232 1
195 232 1
216 232 1
269 232 1
273 232 1
149 233 1
159 233 1
196 233 1
217 233 1
270 233 1
274 233 1
150 234 1
160 234 1
197 234 1
218 234 1
271 234 1
275 234 1
151 235 1
161 235 1
198 235 1
219 235 1
272 235 1
276 235 1
152 236 1
162 236 1
199 236 1
220 236 1
273 236 1
277 236 1
153 237 1
163 237 1
200 237 1
221 237 1
274 237 1
278 237 1
154 238 1
164 238 1
201 238 1
222 238 1
275 238 1
279 238 1
155 239 1
165 239 1
186 239 1
202 239 1
276 239 1
280 239 1
156 240 1
166 240 1
187 240 1
203 240 1
277 240 1
281 240 1
157 241 1
167 241 1
188 241 1
204 241 1
278 241 1
282 241 1
158 242 1
168 242 1
189 242 1
205 242 1
279 242 1
283 242 1
159 243 1
169 243 1
190 243 1
206 243 1
280 243 1
284 243 1
160 244 1
170 244 1
191 244 1
207 244 1
281 244 1
285 244 1
161 245 1
171 245 1
192 245 1
208 245 1
282 245 1
286 245 1
162 246 1
172 246 1
193 246 1
209 246 1
283 246 1
287 246 1
163 247 1
173 247 1
194 247 1
210 247 1
284 247 1
288 247 1
164 248 1
174 248 1
195 248 1
211 248 1
285 248 1
289 248 1
165 249 1
175 249 1
196 249 1
212 249 1
286 249 1
290 249 1
166 250 1
176 250 1
197 250 1
213 250 1
287 250 1
291 250 1
167 251 1
177 251 1
198 251 1
214 251 1
288 251 1
292 251 1
168 252 1
178 252 1
199 252 1
215 252 1
289 252 1
293 252 1
169 253 1
179 253 1
200 253 1
216 253 1
290 253 1
294 253 1
170 254 1
180 254 1
201 254 1
217 254 1
291 254 1
295 254 1
171 255 1
181 255 1
202 255 1
218 255 1
292 255 1
296 255 1
172 256 1
182 256 1
203 256 1
219 256 1
260 256 1
293 256 1
173 257 1
183 257 1
204 257 1
220 257 1
261 257 1
294 257 1
174 258 1
184 258 1
205 258 1
221 258 1
262 258 1
295 258 1
175 259 1
185 259 1
206 259 1
222 259 1
263 259 1
296 259 1
149 260 1
177 260 1
223 260 1
244 260 1
297 260 1
301 260 1
150 261 1
178 261 1
224 261 1
245 261 1
298 261 1
302 261 1
151 262 1
179 262 1
225 262 1
246 262 1
299 262 1
303 262 1
152 263 1
180 263 1
226 263 1
247 263 1
300 263 1
304 263 1
153 264 1
181 264 1
227 264 1
248 264 1
301 264 1
305 264 1
154 265 1
182 265 1
228 265 1
249 265 1
302 265 1
306 265 1
155 266 1
183 266 1
229 266 1
250 266 1
303 266 1
307 266 1
156 267 1
184 267 1
230 267 1
251 267 1
304 267 1
308 267 1
157 268 1
185 268 1
231 268 1
252 268 1
305 268 1
309 268 1
149 269 1
158 269 1
232 269 1
253 269 1
306 269 1
310 269 1
150 270 1
159 270 1
233 270 1
254 270 1
307 270 1
311 270 1
151 271 1
160 271 1
234 271 1
255 271 1
308 271 1
312 271 1
152 272 1
161 272 1
235 272 1
256 272 1
309 272 1
313 272 1
153 273 1
162 273 1
236 273 1
257 273 1
310 273 1
314 273 1
154 274 1
163 274 1
237 274 1
258 274 1
311 274 1
315 274 1
155 275 1
164 275 1
238 275 1
259 275 1
312 275 1
316 275 1
156 276 1
165 276 1
223 276 1
239 276 1
313 276 1
317 276 1
157 277 1
166 277 1
224 277 1
240 277 1
314 277 1
318 277 1
158 278 1
167 278 1
225 278 1
241 278 1
315 278 1
319 278 1
159 279 1
168 279 1
226 279 1
242 279 1
316 279 1
320 279 1
160 280 1
169 280 1
227 280 1
243 280 1
317 280 1
321 280 1
161 281 1
170 281 1
228 281 1
244 281 1
318 281 1
322 281 1
162 282 1
171 282 1
229 282 1
245 282 1
319 282 1
323 282 1
163 283 1
172 283 1
230 283 1
246 283 1
320 283 1
324 283 1
164 284 1
173 284 1
231 284 1
247 284 1
321 284 1
325 284 1
165 285 1
174 285 1
232 285 1
248 285 1
322 285 1
326 285 1
166 286 1
175 286 1
233 286 1
249 286 1
323 286 1
327 286 1
167 287 1
176 287 1
234 287 1
250 287 1
324 287 1
328 287 1
168 288 1
177 288 1
235 288 1
251 288 1
325 288 1
329 288 1
169 289 1
178 289 1
236 289 1
252 289 1
326 289 1
330 289 1
170 290 1
179 290 1
237 290 1
253 290 1
327 290 1
331 290 1
171 291 1
180 291 1
238 291 1
254 291 1
328 291 1
332 291 1
172 292 1
181 292 1
239 292 1
255 292 1
329 292 1
333 292 1
173 293 1
182 293 1
240 293 1
256 293 1
297 293 1
330 293 1
174 294 1
183 294 1
241 294 1
257 294 1
298 294 1
331 294 1
175 295 1
184 295 1
242 295 1
258 295 1
299 295 1
332 295 1
176 296 1
185 296 1
243 296 1
259 296 1
300 296 1
333 296 1
186 297 1
214 297 1
223 297 1
250 297 1
334 297 1
338 297 1
187 298 1
215 298 1
224 298 1
251 298 1
335 298 1
339 298 1
188 299 1
216 299 1
225 299 1
252 299 1
336 299 1
340 299 1
189 300 1
217 300 1
226 300 1
253 300 1
337 300 1
341 300 1
190 301 1
218 301 1
227 301 1
254 301 1
338 301 1
342 301 1
191 302 1
219 302 1
228 302 1
255 302 1
339 302 1
343 302 1
192 303 1
220 303 1
229 303 1
256 303 1
340 303 1
344 303 1
193 304 1
221 304 1
230 304 1
257 304 1
341 304 1
345 304 1
194 305 1
222 305 1
231 305 1
258 305 1
342 305 1
346 305 1
186 306 1
195 306 1
232 306 1
259 306 1
343 306 1
347 306 1
187 307 1
196 307 1
223 307 1
233 307 1
344 307 1
348 307 1
188 308 1
197 308 1
224 308 1
234 308 1
345 308 1
349 308 1
189 309 1
198 309 1
225 309 1
235 309 1
346 309 1
350 309 1
190 310 1
199 310 1
226 310 1
236 310 1
347 310 1
351 310 1
191 311 1
200 311 1
227 311 1
237 311 1
348 311 1
352 311 1
192 312 1
201 312 1
228 312 1
238 312 1
349 312 1
353 312 1
193 313 1
202 313 1
229 313 1
239 313 1
350 313 1
354 313 1
194 314 1
203 314 1
230 314 1
240 314 1
351 314 1
355 314 1
195 315 1
204 315 1
231 315 1
241 315 1
352 315 1
356 315 1
196 316 1
205 316 1
232 316 1
242 316 1
353 316 1
357 316 1
197 317 1
206 317 1
233 317 1
243 317 1
354 317 1
358 317 1
198 318 1
207 318 1
234 318 1
244 318 1
355 318 1
359 318 1
199 319 1
208 319 1
235 319 1
245 319 1
356 319 1
360 319 1
200 320 1
209 320 1
236 320 1
246 320 1
357 320 1
361 320 1
201 321 1
210 321 1
237 321 1
247 321 1
358 321 1
362 321 1
202 322 1
211 322 1
238 322 1
248 322 1
359 322 1
363 322 1
203 323 1
212 323 1
239 323 1
249 323 1
360 323 1
364 323 1
204 324 1
213 324 1
240 324 1
250 324 1
361 324 1
365 324 1
205 325 1
214 325 1
241 325 1
251 325 1
362 325 1
366 325 1
206 326 1
215 326 1
242 326 1
252 326 1
363 326 1
367 326 1
207 327 1
216 327 1
243 327 1
253 327 1
364 327 1
368 327 1
208 328 1
217 328 1
244 328 1
254 328 1
365 328 1
369 328 1
209 329 1
218 329 1
245 329 1
255 329 1
366 329 1
370 329 1
210 330 1
219 330 1
246 330 1
256 330 1
334 330 1
367 330 1
211 331 1
220 331 1
247 331 1
257 331 1
335 331 1
368 331 1
212 332 1
221 332 1
248 332 1
258 332 1
336 332 1
369 332 1
213 333 1
222 333 1
249 333 1
259 333 1
337 333 1
370 333 1
260 334 1
288 334 1
297 334 1
324 334 1
334 334 1
355 334 1
261 335 1
289 335 1
298 335 1
325 335 1
335 335 1
356 335 1
262 336 1
290 336 1
299 336 1
326 336 1
336 336 1
357 336 1
263 337 1
291 337 1
300 337 1
327 337 1
337 337 1
358 337 1
264 338 1
292 338 1
301 338 1
328 338 1
338 338 1
359 338 1
265 339 1
293 339 1
302 339 1
329 339 1
339 339 1
360 339 1
266 340 1
294 340 1
303 340 1
330 340 1
340 340 1
361 340 1
267 341 1
295 341 1
304 341 1
331 341 1
341 341 1
362 341 1
268 342 1
296 342 1
305 342 1
332 342 1
342 342 1
363 342 1
260 343 1
269 343 1
306 343 1
333 343 1
343 343 1
364 343 1
261 344 1
270 344 1
297 344 1
307 344 1
344 344 1
365 344 1
262 345 1
271 345 1
298 345 1
308 345 1
345 345 1
366 345 1
263 346 1
272 346 1
299 346 1
309 346 1
346 346 1
367 346 1
264 347 1
273 347 1
300 347 1
310 347 1
347 347 1
368 347 1
265 348 1
274 348 1
301 348 1
311 348 1
348 348 1
369 348 1
266 349 1
275 349 1
302 349 1
312 349 1
349 349 1
370 349 1
267 350 1
276 350 1
303 350 1
313 350 1
334 350 1
350 350 1
268 351 1
277 351 1
304 351 1
314 351 1
335 351 1
351 351 1
269 352 1
278 352 1
305 352 1
315 352 1
336 352 1
352 352 1
270 353 1
279 353 1
306 353 1
316 353 1
337 353 1
353 353 1
271 354 1
280 354 1
307 354 1
317 354 1
338 354 1
354 354 1
272 355 1
281 355 1
308 355 1
318 355 1
339 355 1
355 355 1
273 356 1
282 356 1
309 356 1
319 356 1
340 356 1
356 356 1
274 357 1
283 357 1
310 357 1
320 357 1
341 357 1
357 357 1
275 358 1
284 358 1
311 358 1
321 358 1
342 358 1
358 358 1
276 359 1
285 359 1
312 359 1
322 359 1
343 359 1
359 359 1
277 360 1
286 360 1
313 360 1
323 360 1
344 360 1
360 360 1
278 361 1
287 361 1
314 361 1
324 361 1
345 361 1
361 361 1
279 362 1
288 362 1
315 362 1
325 362 1
346 362 1
362 362 1
280 363 1
289 363 1
316 363 1
326 363 1
347 363 1
363 363 1
281 364 1
290 364 1
317 364 1
327 364 1
348 364 1
364 364 1
282 365 1
291 365 1
318 365 1
328 365 1
349 365 1
365 365 1
283 366 1
292 366 1
319 366 1
329 366 1
350 366 1
366 366 1
284 367 1
293 367 1
320 367 1
330 367 1
351 367 1
367 367 1
285 368 1
294 368 1
321 368 1
331 368 1
352 368 1
368 368 1
286 369 1
295 369 1
322 369 1
332 369 1
353 369 1
369 369 1
287 370 1
296 370 1
323 370 1
333 370 1
354 370 1
370 370 1
