%%MatrixMarket matrix coordinate integer general
% Binary matrix; one-based indices; arithmetic over GF(2)
624 936 3744
6 1 1
82 1 1
194 1 1
247 1 1
7 2 1
83 2 1
195 2 1
235 2 1
8 3 1
84 3 1
183 3 1
236 3 1
9 4 1
85 4 1
184 4 1
237 4 1
10 5 1
86 5 1
185 5 1
238 5 1
11 6 1
87 6 1
186 6 1
239 6 1
12 7 1
88 7 1
187 7 1
240 7 1
13 8 1
89 8 1
188 8 1
241 8 1
1 9 1
90 9 1
189 9 1
242 9 1
2 10 1
91 10 1
190 10 1
243 10 1
3 11 1
79 11 1
191 11 1
244 11 1
4 12 1
80 12 1
192 12 1
245 12 1
5 13 1
81 13 1
193 13 1
246 13 1
19 14 1
95 14 1
168 14 1
260 14 1
20 15 1
96 15 1
169 15 1
248 15 1
21 16 1
97 16 1
157 16 1
249 16 1
22 17 1
98 17 1
158 17 1
250 17 1
23 18 1
99 18 1
159 18 1
251 18 1
24 19 1
100 19 1
160 19 1
252 19 1
25 20 1
101 20 1
161 20 1
253 20 1
26 21 1
102 21 1
162 21 1
254 21 1
14 22 1
103 22 1
163 22 1
255 22 1
15 23 1
104 23 1
164 23 1
256 23 1
16 24 1
92 24 1
165 24 1
257 24 1
17 25 1
93 25 1
166 25 1
258 25 1
18 26 1
94 26 1
167 26 1
259 26 1
32 27 1
108 27 1
181 27 1
273 27 1
33 28 1
109 28 1
182 28 1
261 28 1
34 29 1
110 29 1
170 29 1
262 29 1
35 30 1
111 30 1
171 30 1
263 30 1
36 31 1
112 31 1
172 31 1
264 31 1
37 32 1
113 32 1
173 32 1
265 32 1
38 33 1
114 33 1
174 33 1
266 33 1
39 34 1
115 34 1
175 34 1
267 34 1
27 35 1
116 35 1
176 35 1
268 35 1
28 36 1
117 36 1
177 36 1
269 36 1
29 37 1
105 37 1
178 37 1
270 37 1
30 38 1
106 38 1
179 38 1
271 38 1
31 39 1
107 39 1
180 39 1
272 39 1
45 40 1
121 40 1
233 40 1
286 40 1
46 41 1
122 41 1
234 41 1
274 41 1
47 42 1
123 42 1
222 42 1
275 42 1
48 43 1
124 43 1
223 43 1
276 43 1
49 44 1
125 44 1
224 44 1
277 44 1
50 45 1
126 45 1
225 45 1
278 45 1
51 46 1
127 46 1
226 46 1
279 46 1
52 47 1
128 47 1
227 47 1
280 47 1
40 48 1
129 48 1
228 48 1
281 48 1
41 49 1
130 49 1
229 49 1
282 49 1
42 50 1
118 50 1
230 50 1
283 50 1
43 51 1
119 51 1
231 51 1
284 51 1
44 52 1
120 52 1
232 52 1
285 52 1
58 53 1
134 53 1
207 53 1
299 53 1
59 54 1
135 54 1
208 54 1
287 54 1
60 55 1
136 55 1
196 55 1
288 55 1
61 56 1
137 56 1
197 56 1
289 56 1
62 57 1
138 57 1
198 57 1
290 57 1
63 58 1
139 58 1
199 58 1
291 58 1
64 59 1
140 59 1
200 59 1
292 59 1
65 60 1
141 60 1
201 60 1
293 60 1
53 61 1
142 61 1
202 61 1
294 61 1
54 62 1
143 62 1
203 62 1
295 62 1
55 63 1
131 63 1
204 63 1
296 63 1
56 64 1
132 64 1
205 64 1
297 64 1
57 65 1
133 65 1
206 65 1
298 65 1
71 66 1
147 66 1
220 66 1
312 66 1
72 67 1
148 67 1
221 67 1
300 67 1
73 68 1
149 68 1
209 68 1
301 68 1
74 69 1
150 69 1
210 69 1
302 69 1
75 70 1
151 70 1
211 70 1
303 70 1
76 71 1
152 71 1
212 71 1
304 71 1
77 72 1
153 72 1
213 72 1
305 72 1
78 73 1
154 73 1
214 73 1
306 73 1
66 74 1
155 74 1
215 74 1
307 74 1
67 75 1
156 75 1
216 75 1
308 75 1
68 76 1
144 76 1
217 76 1
309 76 1
69 77 1
145 77 1
218 77 1
310 77 1
70 78 1
146 78 1
219 78 1
311 78 1
4 79 1
84 79 1
169 79 1
272 79 1
5 80 1
85 80 1
157 80 1
273 80 1
6 81 1
86 81 1
158 81 1
261 81 1
7 82 1
87 82 1
159 82 1
262 82 1
8 83 1
88 83 1
160 83 1
263 83 1
9 84 1
89 84 1
161 84 1
264 84 1
10 85 1
90 85 1
162 85 1
265 85 1
11 86 1
91 86 1
163 86 1
266 86 1
12 87 1
79 87 1
164 87 1
267 87 1
13 88 1
80 88 1
165 88 1
268 88 1
1 89 1
81 89 1
166 89 1
269 89 1
2 90 1
82 90 1
167 90 1
270 90 1
3 91 1
83 91 1
168 91 1
271 91 1
17 92 1
97 92 1
182 92 1
246 92 1
18 93 1
98 93 1
170 93 1
247 93 1
19 94 1
99 94 1
171 94 1
235 94 1
20 95 1
100 95 1
172 95 1
236 95 1
21 96 1
101 96 1
173 96 1
237 96 1
22 97 1
102 97 1
174 97 1
238 97 1
23 98 1
103 98 1
175 98 1
239 98 1
24 99 1
104 99 1
176 99 1
240 99 1
25 100 1
92 100 1
177 100 1
241 100 1
26 101 1
93 101 1
178 101 1
242 101 1
14 102 1
94 102 1
179 102 1
243 102 1
15 103 1
95 103 1
180 103 1
244 103 1
16 104 1
96 104 1
181 104 1
245 104 1
30 105 1
110 105 1
195 105 1
259 105 1
31 106 1
111 106 1
183 106 1
260 106 1
32 107 1
112 107 1
184 107 1
248 107 1
33 108 1
113 108 1
185 108 1
249 108 1
34 109 1
114 109 1
186 109 1
250 109 1
35 110 1
115 110 1
187 110 1
251 110 1
36 111 1
116 111 1
188 111 1
252 111 1
37 112 1
117 112 1
189 112 1
253 112 1
38 113 1
105 113 1
190 113 1
254 113 1
39 114 1
106 114 1
191 114 1
255 114 1
27 115 1
107 115 1
192 115 1
256 115 1
28 116 1
108 116 1
193 116 1
257 116 1
29 117 1
109 117 1
194 117 1
258 117 1
43 118 1
123 118 1
208 118 1
311 118 1
44 119 1
124 119 1
196 119 1
312 119 1
45 120 1
125 120 1
197 120 1
300 120 1
46 121 1
126 121 1
198 121 1
301 121 1
47 122 1
127 122 1
199 122 1
302 122 1
48 123 1
128 123 1
200 123 1
303 123 1
49 124 1
129 124 1
201 124 1
304 124 1
50 125 1
130 125 1
202 125 1
305 125 1
51 126 1
118 126 1
203 126 1
306 126 1
52 127 1
119 127 1
204 127 1
307 127 1
40 128 1
120 128 1
205 128 1
308 128 1
41 129 1
121 129 1
206 129 1
309 129 1
42 130 1
122 130 1
207 130 1
310 130 1
56 131 1
136 131 1
221 131 1
285 131 1
57 132 1
137 132 1
209 132 1
286 132 1
58 133 1
138 133 1
210 133 1
274 133 1
59 134 1
139 134 1
211 134 1
275 134 1
60 135 1
140 135 1
212 135 1
276 135 1
61 136 1
141 136 1
213 136 1
277 136 1
62 137 1
142 137 1
214 137 1
278 137 1
63 138 1
143 138 1
215 138 1
279 138 1
64 139 1
131 139 1
216 139 1
280 139 1
65 140 1
132 140 1
217 140 1
281 140 1
53 141 1
133 141 1
218 141 1
282 141 1
54 142 1
134 142 1
219 142 1
283 142 1
55 143 1
135 143 1
220 143 1
284 143 1
69 144 1
149 144 1
234 144 1
298 144 1
70 145 1
150 145 1
222 145 1
299 145 1
71 146 1
151 146 1
223 146 1
287 146 1
72 147 1
152 147 1
224 147 1
288 147 1
73 148 1
153 148 1
225 148 1
289 148 1
74 149 1
154 149 1
226 149 1
290 149 1
75 150 1
155 150 1
227 150 1
291 150 1
76 151 1
156 151 1
228 151 1
292 151 1
77 152 1
144 152 1
229 152 1
293 152 1
78 153 1
145 153 1
230 153 1
294 153 1
66 154 1
146 154 1
231 154 1
295 154 1
67 155 1
147 155 1
232 155 1
296 155 1
68 156 1
148 156 1
233 156 1
297 156 1
3 157 1
116 157 1
350 157 1
403 157 1
4 158 1
117 158 1
351 158 1
391 158 1
5 159 1
105 159 1
339 159 1
392 159 1
6 160 1
106 160 1
340 160 1
393 160 1
7 161 1
107 161 1
341 161 1
394 161 1
8 162 1
108 162 1
342 162 1
395 162 1
9 163 1
109 163 1
343 163 1
396 163 1
10 164 1
110 164 1
344 164 1
397 164 1
11 165 1
111 165 1
345 165 1
398 165 1
12 166 1
112 166 1
346 166 1
399 166 1
13 167 1
113 167 1
347 167 1
400 167 1
1 168 1
114 168 1
348 168 1
401 168 1
2 169 1
115 169 1
349 169 1
402 169 1
16 170 1
90 170 1
324 170 1
416 170 1
17 171 1
91 171 1
325 171 1
404 171 1
18 172 1
79 172 1
313 172 1
405 172 1
19 173 1
80 173 1
314 173 1
406 173 1
20 174 1
81 174 1
315 174 1
407 174 1
21 175 1
82 175 1
316 175 1
408 175 1
22 176 1
83 176 1
317 176 1
409 176 1
23 177 1
84 177 1
318 177 1
410 177 1
24 178 1
85 178 1
319 178 1
411 178 1
25 179 1
86 179 1
320 179 1
412 179 1
26 180 1
87 180 1
321 180 1
413 180 1
14 181 1
88 181 1
322 181 1
414 181 1
15 182 1
89 182 1
323 182 1
415 182 1
29 183 1
103 183 1
337 183 1
429 183 1
30 184 1
104 184 1
338 184 1
417 184 1
31 185 1
92 185 1
326 185 1
418 185 1
32 186 1
93 186 1
327 186 1
419 186 1
33 187 1
94 187 1
328 187 1
420 187 1
34 188 1
95 188 1
329 188 1
421 188 1
35 189 1
96 189 1
330 189 1
422 189 1
36 190 1
97 190 1
331 190 1
423 190 1
37 191 1
98 191 1
332 191 1
424 191 1
38 192 1
99 192 1
333 192 1
425 192 1
39 193 1
100 193 1
334 193 1
426 193 1
27 194 1
101 194 1
335 194 1
427 194 1
28 195 1
102 195 1
336 195 1
428 195 1
42 196 1
155 196 1
389 196 1
442 196 1
43 197 1
156 197 1
390 197 1
430 197 1
44 198 1
144 198 1
378 198 1
431 198 1
45 199 1
145 199 1
379 199 1
432 199 1
46 200 1
146 200 1
380 200 1
433 200 1
47 201 1
147 201 1
381 201 1
434 201 1
48 202 1
148 202 1
382 202 1
435 202 1
49 203 1
149 203 1
383 203 1
436 203 1
50 204 1
150 204 1
384 204 1
437 204 1
51 205 1
151 205 1
385 205 1
438 205 1
52 206 1
152 206 1
386 206 1
439 206 1
40 207 1
153 207 1
387 207 1
440 207 1
41 208 1
154 208 1
388 208 1
441 208 1
55 209 1
129 209 1
363 209 1
455 209 1
56 210 1
130 210 1
364 210 1
443 210 1
57 211 1
118 211 1
352 211 1
444 211 1
58 212 1
119 212 1
353 212 1
445 212 1
59 213 1
120 213 1
354 213 1
446 213 1
60 214 1
121 214 1
355 214 1
447 214 1
61 215 1
122 215 1
356 215 1
448 215 1
62 216 1
123 216 1
357 216 1
449 216 1
63 217 1
124 217 1
358 217 1
450 217 1
64 218 1
125 218 1
359 218 1
451 218 1
65 219 1
126 219 1
360 219 1
452 219 1
53 220 1
127 220 1
361 220 1
453 220 1
54 221 1
128 221 1
362 221 1
454 221 1
68 222 1
142 222 1
376 222 1
468 222 1
69 223 1
143 223 1
377 223 1
456 223 1
70 224 1
131 224 1
365 224 1
457 224 1
71 225 1
132 225 1
366 225 1
458 225 1
72 226 1
133 226 1
367 226 1
459 226 1
73 227 1
134 227 1
368 227 1
460 227 1
74 228 1
135 228 1
369 228 1
461 228 1
75 229 1
136 229 1
370 229 1
462 229 1
76 230 1
137 230 1
371 230 1
463 230 1
77 231 1
138 231 1
372 231 1
464 231 1
78 232 1
139 232 1
373 232 1
465 232 1
66 233 1
140 233 1
374 233 1
466 233 1
67 234 1
141 234 1
375 234 1
467 234 1
38 235 1
81 235 1
325 235 1
428 235 1
39 236 1
82 236 1
313 236 1
429 236 1
27 237 1
83 237 1
314 237 1
417 237 1
28 238 1
84 238 1
315 238 1
418 238 1
29 239 1
85 239 1
316 239 1
419 239 1
30 240 1
86 240 1
317 240 1
420 240 1
31 241 1
87 241 1
318 241 1
421 241 1
32 242 1
88 242 1
319 242 1
422 242 1
33 243 1
89 243 1
320 243 1
423 243 1
34 244 1
90 244 1
321 244 1
424 244 1
35 245 1
91 245 1
322 245 1
425 245 1
36 246 1
79 246 1
323 246 1
426 246 1
37 247 1
80 247 1
324 247 1
427 247 1
12 248 1
94 248 1
338 248 1
402 248 1
13 249 1
95 249 1
326 249 1
403 249 1
1 250 1
96 250 1
327 250 1
391 250 1
2 251 1
97 251 1
328 251 1
392 251 1
3 252 1
98 252 1
329 252 1
393 252 1
4 253 1
99 253 1
330 253 1
394 253 1
5 254 1
100 254 1
331 254 1
395 254 1
6 255 1
101 255 1
332 255 1
396 255 1
7 256 1
102 256 1
333 256 1
397 256 1
8 257 1
103 257 1
334 257 1
398 257 1
9 258 1
104 258 1
335 258 1
399 258 1
10 259 1
92 259 1
336 259 1
400 259 1
11 260 1
93 260 1
337 260 1
401 260 1
25 261 1
107 261 1
351 261 1
415 261 1
26 262 1
108 262 1
339 262 1
416 262 1
14 263 1
109 263 1
340 263 1
404 263 1
15 264 1
110 264 1
341 264 1
405 264 1
16 265 1
111 265 1
342 265 1
406 265 1
17 266 1
112 266 1
343 266 1
407 266 1
18 267 1
113 267 1
344 267 1
408 267 1
19 268 1
114 268 1
345 268 1
409 268 1
20 269 1
115 269 1
346 269 1
410 269 1
21 270 1
116 270 1
347 270 1
411 270 1
22 271 1
117 271 1
348 271 1
412 271 1
23 272 1
105 272 1
349 272 1
413 272 1
24 273 1
106 273 1
350 273 1
414 273 1
77 274 1
120 274 1
364 274 1
467 274 1
78 275 1
121 275 1
352 275 1
468 275 1
66 276 1
122 276 1
353 276 1
456 276 1
67 277 1
123 277 1
354 277 1
457 277 1
68 278 1
124 278 1
355 278 1
458 278 1
69 279 1
125 279 1
356 279 1
459 279 1
70 280 1
126 280 1
357 280 1
460 280 1
71 281 1
127 281 1
358 281 1
461 281 1
72 282 1
128 282 1
359 282 1
462 282 1
73 283 1
129 283 1
360 283 1
463 283 1
74 284 1
130 284 1
361 284 1
464 284 1
75 285 1
118 285 1
362 285 1
465 285 1
76 286 1
119 286 1
363 286 1
466 286 1
51 287 1
133 287 1
377 287 1
441 287 1
52 288 1
134 288 1
365 288 1
442 288 1
40 289 1
135 289 1
366 289 1
430 289 1
41 290 1
136 290 1
367 290 1
431 290 1
42 291 1
137 291 1
368 291 1
432 291 1
43 292 1
138 292 1
369 292 1
433 292 1
44 293 1
139 293 1
370 293 1
434 293 1
45 294 1
140 294 1
371 294 1
435 294 1
46 295 1
141 295 1
372 295 1
436 295 1
47 296 1
142 296 1
373 296 1
437 296 1
48 297 1
143 297 1
374 297 1
438 297 1
49 298 1
131 298 1
375 298 1
439 298 1
50 299 1
132 299 1
376 299 1
440 299 1
64 300 1
146 300 1
390 300 1
454 300 1
65 301 1
147 301 1
378 301 1
455 301 1
53 302 1
148 302 1
379 302 1
443 302 1
54 303 1
149 303 1
380 303 1
444 303 1
55 304 1
150 304 1
381 304 1
445 304 1
56 305 1
151 305 1
382 305 1
446 305 1
57 306 1
152 306 1
383 306 1
447 306 1
58 307 1
153 307 1
384 307 1
448 307 1
59 308 1
154 308 1
385 308 1
449 308 1
60 309 1
155 309 1
386 309 1
450 309 1
61 310 1
156 310 1
387 310 1
451 310 1
62 311 1
144 311 1
388 311 1
452 311 1
63 312 1
145 312 1
389 312 1
453 312 1
107 313 1
118 313 1
506 313 1
559 313 1
108 314 1
119 314 1
507 314 1
547 314 1
109 315 1
120 315 1
495 315 1
548 315 1
110 316 1
121 316 1
496 316 1
549 316 1
111 317 1
122 317 1
497 317 1
550 317 1
112 318 1
123 318 1
498 318 1
551 318 1
113 319 1
124 319 1
499 319 1
552 319 1
114 320 1
125 320 1
500 320 1
553 320 1
115 321 1
126 321 1
501 321 1
554 321 1
116 322 1
127 322 1
502 322 1
555 322 1
117 323 1
128 323 1
503 323 1
556 323 1
105 324 1
129 324 1
504 324 1
557 324 1
106 325 1
130 325 1
505 325 1
558 325 1
81 326 1
131 326 1
480 326 1
572 326 1
82 327 1
132 327 1
481 327 1
560 327 1
83 328 1
133 328 1
469 328 1
561 328 1
84 329 1
134 329 1
470 329 1
562 329 1
85 330 1
135 330 1
471 330 1
563 330 1
86 331 1
136 331 1
472 331 1
564 331 1
87 332 1
137 332 1
473 332 1
565 332 1
88 333 1
138 333 1
474 333 1
566 333 1
89 334 1
139 334 1
475 334 1
567 334 1
90 335 1
140 335 1
476 335 1
568 335 1
91 336 1
141 336 1
477 336 1
569 336 1
79 337 1
142 337 1
478 337 1
570 337 1
80 338 1
143 338 1
479 338 1
571 338 1
94 339 1
144 339 1
493 339 1
585 339 1
95 340 1
145 340 1
494 340 1
573 340 1
96 341 1
146 341 1
482 341 1
574 341 1
97 342 1
147 342 1
483 342 1
575 342 1
98 343 1
148 343 1
484 343 1
576 343 1
99 344 1
149 344 1
485 344 1
577 344 1
100 345 1
150 345 1
486 345 1
578 345 1
101 346 1
151 346 1
487 346 1
579 346 1
102 347 1
152 347 1
488 347 1
580 347 1
103 348 1
153 348 1
489 348 1
581 348 1
104 349 1
154 349 1
490 349 1
582 349 1
92 350 1
155 350 1
491 350 1
583 350 1
93 351 1
156 351 1
492 351 1
584 351 1
79 352 1
146 352 1
545 352 1
598 352 1
80 353 1
147 353 1
546 353 1
586 353 1
81 354 1
148 354 1
534 354 1
587 354 1
82 355 1
149 355 1
535 355 1
588 355 1
83 356 1
150 356 1
536 356 1
589 356 1
84 357 1
151 357 1
537 357 1
590 357 1
85 358 1
152 358 1
538 358 1
591 358 1
86 359 1
153 359 1
539 359 1
592 359 1
87 360 1
154 360 1
540 360 1
593 360 1
88 361 1
155 361 1
541 361 1
594 361 1
89 362 1
156 362 1
542 362 1
595 362 1
90 363 1
144 363 1
543 363 1
596 363 1
91 364 1
145 364 1
544 364 1
597 364 1
92 365 1
120 365 1
519 365 1
611 365 1
93 366 1
121 366 1
520 366 1
599 366 1
94 367 1
122 367 1
508 367 1
600 367 1
95 368 1
123 368 1
509 368 1
601 368 1
96 369 1
124 369 1
510 369 1
602 369 1
97 370 1
125 370 1
511 370 1
603 370 1
98 371 1
126 371 1
512 371 1
604 371 1
99 372 1
127 372 1
513 372 1
605 372 1
100 373 1
128 373 1
514 373 1
606 373 1
101 374 1
129 374 1
515 374 1
607 374 1
102 375 1
130 375 1
516 375 1
608 375 1
103 376 1
118 376 1
517 376 1
609 376 1
104 377 1
119 377 1
518 377 1
610 377 1
105 378 1
133 378 1
532 378 1
624 378 1
106 379 1
134 379 1
533 379 1
612 379 1
107 380 1
135 380 1
521 380 1
613 380 1
108 381 1
136 381 1
522 381 1
614 381 1
109 382 1
137 382 1
523 382 1
615 382 1
110 383 1
138 383 1
524 383 1
616 383 1
111 384 1
139 384 1
525 384 1
617 384 1
112 385 1
140 385 1
526 385 1
618 385 1
113 386 1
141 386 1
527 386 1
619 386 1
114 387 1
142 387 1
528 387 1
620 387 1
115 388 1
143 388 1
529 388 1
621 388 1
116 389 1
131 389 1
530 389 1
622 389 1
117 390 1
132 390 1
531 390 1
623 390 1
29 391 1
40 391 1
481 391 1
584 391 1
30 392 1
41 392 1
469 392 1
585 392 1
31 393 1
42 393 1
470 393 1
573 393 1
32 394 1
43 394 1
471 394 1
574 394 1
33 395 1
44 395 1
472 395 1
575 395 1
34 396 1
45 396 1
473 396 1
576 396 1
35 397 1
46 397 1
474 397 1
577 397 1
36 398 1
47 398 1
475 398 1
578 398 1
37 399 1
48 399 1
476 399 1
579 399 1
38 400 1
49 400 1
477 400 1
580 400 1
39 401 1
50 401 1
478 401 1
581 401 1
27 402 1
51 402 1
479 402 1
582 402 1
28 403 1
52 403 1
480 403 1
583 403 1
3 404 1
53 404 1
494 404 1
558 404 1
4 405 1
54 405 1
482 405 1
559 405 1
5 406 1
55 406 1
483 406 1
547 406 1
6 407 1
56 407 1
484 407 1
548 407 1
7 408 1
57 408 1
485 408 1
549 408 1
8 409 1
58 409 1
486 409 1
550 409 1
9 410 1
59 410 1
487 410 1
551 410 1
10 411 1
60 411 1
488 411 1
552 411 1
11 412 1
61 412 1
489 412 1
553 412 1
12 413 1
62 413 1
490 413 1
554 413 1
13 414 1
63 414 1
491 414 1
555 414 1
1 415 1
64 415 1
492 415 1
556 415 1
2 416 1
65 416 1
493 416 1
557 416 1
16 417 1
66 417 1
507 417 1
571 417 1
17 418 1
67 418 1
495 418 1
572 418 1
18 419 1
68 419 1
496 419 1
560 419 1
19 420 1
69 420 1
497 420 1
561 420 1
20 421 1
70 421 1
498 421 1
562 421 1
21 422 1
71 422 1
499 422 1
563 422 1
22 423 1
72 423 1
500 423 1
564 423 1
23 424 1
73 424 1
501 424 1
565 424 1
24 425 1
74 425 1
502 425 1
566 425 1
25 426 1
75 426 1
503 426 1
567 426 1
26 427 1
76 427 1
504 427 1
568 427 1
14 428 1
77 428 1
505 428 1
569 428 1
15 429 1
78 429 1
506 429 1
570 429 1
1 430 1
68 430 1
520 430 1
623 430 1
2 431 1
69 431 1
508 431 1
624 431 1
3 432 1
70 432 1
509 432 1
612 432 1
4 433 1
71 433 1
510 433 1
613 433 1
5 434 1
72 434 1
511 434 1
614 434 1
6 435 1
73 435 1
512 435 1
615 435 1
7 436 1
74 436 1
513 436 1
616 436 1
8 437 1
75 437 1
514 437 1
617 437 1
9 438 1
76 438 1
515 438 1
618 438 1
10 439 1
77 439 1
516 439 1
619 439 1
11 440 1
78 440 1
517 440 1
620 440 1
12 441 1
66 441 1
518 441 1
621 441 1
13 442 1
67 442 1
519 442 1
622 442 1
14 443 1
42 443 1
533 443 1
597 443 1
15 444 1
43 444 1
521 444 1
598 444 1
16 445 1
44 445 1
522 445 1
586 445 1
17 446 1
45 446 1
523 446 1
587 446 1
18 447 1
46 447 1
524 447 1
588 447 1
19 448 1
47 448 1
525 448 1
589 448 1
20 449 1
48 449 1
526 449 1
590 449 1
21 450 1
49 450 1
527 450 1
591 450 1
22 451 1
50 451 1
528 451 1
592 451 1
23 452 1
51 452 1
529 452 1
593 452 1
24 453 1
52 453 1
530 453 1
594 453 1
25 454 1
40 454 1
531 454 1
595 454 1
26 455 1
41 455 1
532 455 1
596 455 1
27 456 1
55 456 1
546 456 1
610 456 1
28 457 1
56 457 1
534 457 1
611 457 1
29 458 1
57 458 1
535 458 1
599 458 1
30 459 1
58 459 1
536 459 1
600 459 1
31 460 1
59 460 1
537 460 1
601 460 1
32 461 1
60 461 1
538 461 1
602 461 1
33 462 1
61 462 1
539 462 1
603 462 1
34 463 1
62 463 1
540 463 1
604 463 1
35 464 1
63 464 1
541 464 1
605 464 1
36 465 1
64 465 1
542 465 1
606 465 1
37 466 1
65 466 1
543 466 1
607 466 1
38 467 1
53 467 1
544 467 1
608 467 1
39 468 1
54 468 1
545 468 1
609 468 1
159 469 1
272 469 1
318 469 1
394 469 1
160 470 1
273 470 1
319 470 1
395 470 1
161 471 1
261 471 1
320 471 1
396 471 1
162 472 1
262 472 1
321 472 1
397 472 1
163 473 1
263 473 1
322 473 1
398 473 1
164 474 1
264 474 1
323 474 1
399 474 1
165 475 1
265 475 1
324 475 1
400 475 1
166 476 1
266 476 1
325 476 1
401 476 1
167 477 1
267 477 1
313 477 1
402 477 1
168 478 1
268 478 1
314 478 1
403 478 1
169 479 1
269 479 1
315 479 1
391 479 1
157 480 1
270 480 1
316 480 1
392 480 1
158 481 1
271 481 1
317 481 1
393 481 1
172 482 1
246 482 1
331 482 1
407 482 1
173 483 1
247 483 1
332 483 1
408 483 1
174 484 1
235 484 1
333 484 1
409 484 1
175 485 1
236 485 1
334 485 1
410 485 1
176 486 1
237 486 1
335 486 1
411 486 1
177 487 1
238 487 1
336 487 1
412 487 1
178 488 1
239 488 1
337 488 1
413 488 1
179 489 1
240 489 1
338 489 1
414 489 1
180 490 1
241 490 1
326 490 1
415 490 1
181 491 1
242 491 1
327 491 1
416 491 1
182 492 1
243 492 1
328 492 1
404 492 1
170 493 1
244 493 1
329 493 1
405 493 1
171 494 1
245 494 1
330 494 1
406 494 1
185 495 1
259 495 1
344 495 1
420 495 1
186 496 1
260 496 1
345 496 1
421 496 1
187 497 1
248 497 1
346 497 1
422 497 1
188 498 1
249 498 1
347 498 1
423 498 1
189 499 1
250 499 1
348 499 1
424 499 1
190 500 1
251 500 1
349 500 1
425 500 1
191 501 1
252 501 1
350 501 1
426 501 1
192 502 1
253 502 1
351 502 1
427 502 1
193 503 1
254 503 1
339 503 1
428 503 1
194 504 1
255 504 1
340 504 1
429 504 1
195 505 1
256 505 1
341 505 1
417 505 1
183 506 1
257 506 1
342 506 1
418 506 1
184 507 1
258 507 1
343 507 1
419 507 1
198 508 1
311 508 1
357 508 1
433 508 1
199 509 1
312 509 1
358 509 1
434 509 1
200 510 1
300 510 1
359 510 1
435 510 1
201 511 1
301 511 1
360 511 1
436 511 1
202 512 1
302 512 1
361 512 1
437 512 1
203 513 1
303 513 1
362 513 1
438 513 1
204 514 1
304 514 1
363 514 1
439 514 1
205 515 1
305 515 1
364 515 1
440 515 1
206 516 1
306 516 1
352 516 1
441 516 1
207 517 1
307 517 1
353 517 1
442 517 1
208 518 1
308 518 1
354 518 1
430 518 1
196 519 1
309 519 1
355 519 1
431 519 1
197 520 1
310 520 1
356 520 1
432 520 1
211 521 1
285 521 1
370 521 1
446 521 1
212 522 1
286 522 1
371 522 1
447 522 1
213 523 1
274 523 1
372 523 1
448 523 1
214 524 1
275 524 1
373 524 1
449 524 1
215 525 1
276 525 1
374 525 1
450 525 1
216 526 1
277 526 1
375 526 1
451 526 1
217 527 1
278 527 1
376 527 1
452 527 1
218 528 1
279 528 1
377 528 1
453 528 1
219 529 1
280 529 1
365 529 1
454 529 1
220 530 1
281 530 1
366 530 1
455 530 1
221 531 1
282 531 1
367 531 1
443 531 1
209 532 1
283 532 1
368 532 1
444 532 1
210 533 1
284 533 1
369 533 1
445 533 1
224 534 1
298 534 1
383 534 1
459 534 1
225 535 1
299 535 1
384 535 1
460 535 1
226 536 1
287 536 1
385 536 1
461 536 1
227 537 1
288 537 1
386 537 1
462 537 1
228 538 1
289 538 1
387 538 1
463 538 1
229 539 1
290 539 1
388 539 1
464 539 1
230 540 1
291 540 1
389 540 1
465 540 1
231 541 1
292 541 1
390 541 1
466 541 1
232 542 1
293 542 1
378 542 1
467 542 1
233 543 1
294 543 1
379 543 1
468 543 1
234 544 1
295 544 1
380 544 1
456 544 1
222 545 1
296 545 1
381 545 1
457 545 1
223 546 1
297 546 1
382 546 1
458 546 1
194 547 1
237 547 1
316 547 1
396 547 1
195 548 1
238 548 1
317 548 1
397 548 1
183 549 1
239 549 1
318 549 1
398 549 1
184 550 1
240 550 1
319 550 1
399 550 1
185 551 1
241 551 1
320 551 1
400 551 1
186 552 1
242 552 1
321 552 1
401 552 1
187 553 1
243 553 1
322 553 1
402 553 1
188 554 1
244 554 1
323 554 1
403 554 1
189 555 1
245 555 1
324 555 1
391 555 1
190 556 1
246 556 1
325 556 1
392 556 1
191 557 1
247 557 1
313 557 1
393 557 1
192 558 1
235 558 1
314 558 1
394 558 1
193 559 1
236 559 1
315 559 1
395 559 1
168 560 1
250 560 1
329 560 1
409 560 1
169 561 1
251 561 1
330 561 1
410 561 1
157 562 1
252 562 1
331 562 1
411 562 1
158 563 1
253 563 1
332 563 1
412 563 1
159 564 1
254 564 1
333 564 1
413 564 1
160 565 1
255 565 1
334 565 1
414 565 1
161 566 1
256 566 1
335 566 1
415 566 1
162 567 1
257 567 1
336 567 1
416 567 1
163 568 1
258 568 1
337 568 1
404 568 1
164 569 1
259 569 1
338 569 1
405 569 1
165 570 1
260 570 1
326 570 1
406 570 1
166 571 1
248 571 1
327 571 1
407 571 1
167 572 1
249 572 1
328 572 1
408 572 1
181 573 1
263 573 1
342 573 1
422 573 1
182 574 1
264 574 1
343 574 1
423 574 1
170 575 1
265 575 1
344 575 1
424 575 1
171 576 1
266 576 1
345 576 1
425 576 1
172 577 1
267 577 1
346 577 1
426 577 1
173 578 1
268 578 1
347 578 1
427 578 1
174 579 1
269 579 1
348 579 1
428 579 1
175 580 1
270 580 1
349 580 1
429 580 1
176 581 1
271 581 1
350 581 1
417 581 1
177 582 1
272 582 1
351 582 1
418 582 1
178 583 1
273 583 1
339 583 1
419 583 1
179 584 1
261 584 1
340 584 1
420 584 1
180 585 1
262 585 1
341 585 1
421 585 1
233 586 1
276 586 1
355 586 1
435 586 1
234 587 1
277 587 1
356 587 1
436 587 1
222 588 1
278 588 1
357 588 1
437 588 1
223 589 1
279 589 1
358 589 1
438 589 1
224 590 1
280 590 1
359 590 1
439 590 1
225 591 1
281 591 1
360 591 1
440 591 1
226 592 1
282 592 1
361 592 1
441 592 1
227 593 1
283 593 1
362 593 1
442 593 1
228 594 1
284 594 1
363 594 1
430 594 1
229 595 1
285 595 1
364 595 1
431 595 1
230 596 1
286 596 1
352 596 1
432 596 1
231 597 1
274 597 1
353 597 1
433 597 1
232 598 1
275 598 1
354 598 1
434 598 1
207 599 1
289 599 1
368 599 1
448 599 1
208 600 1
290 600 1
369 600 1
449 600 1
196 601 1
291 601 1
370 601 1
450 601 1
197 602 1
292 602 1
371 602 1
451 602 1
198 603 1
293 603 1
372 603 1
452 603 1
199 604 1
294 604 1
373 604 1
453 604 1
200 605 1
295 605 1
374 605 1
454 605 1
201 606 1
296 606 1
375 606 1
455 606 1
202 607 1
297 607 1
376 607 1
443 607 1
203 608 1
298 608 1
377 608 1
444 608 1
204 609 1
299 609 1
365 609 1
445 609 1
205 610 1
287 610 1
366 610 1
446 610 1
206 611 1
288 611 1
367 611 1
447 611 1
220 612 1
302 612 1
381 612 1
461 612 1
221 613 1
303 613 1
382 613 1
462 613 1
209 614 1
304 614 1
383 614 1
463 614 1
210 615 1
305 615 1
384 615 1
464 615 1
211 616 1
306 616 1
385 616 1
465 616 1
212 617 1
307 617 1
386 617 1
466 617 1
213 618 1
308 618 1
387 618 1
467 618 1
214 619 1
309 619 1
388 619 1
468 619 1
215 620 1
310 620 1
389 620 1
456 620 1
216 621 1
311 621 1
390 621 1
457 621 1
217 622 1
312 622 1
378 622 1
458 622 1
218 623 1
300 623 1
379 623 1
459 623 1
219 624 1
301 624 1
380 624 1
460 624 1
263 625 1
274 625 1
474 625 1
550 625 1
264 626 1
275 626 1
475 626 1
551 626 1
265 627 1
276 627 1
476 627 1
552 627 1
266 628 1
277 628 1
477 628 1
553 628 1
267 629 1
278 629 1
478 629 1
554 629 1
268 630 1
279 630 1
479 630 1
555 630 1
269 631 1
280 631 1
480 631 1
556 631 1
270 632 1
281 632 1
481 632 1
557 632 1
271 633 1
282 633 1
469 633 1
558 633 1
272 634 1
283 634 1
470 634 1
559 634 1
273 635 1
284 635 1
471 635 1
547 635 1
261 636 1
285 636 1
472 636 1
548 636 1
262 637 1
286 637 1
473 637 1
549 637 1
237 638 1
287 638 1
487 638 1
563 638 1
238 639 1
288 639 1
488 639 1
564 639 1
239 640 1
289 640 1
489 640 1
565 640 1
240 641 1
290 641 1
490 641 1
566 641 1
241 642 1
291 642 1
491 642 1
567 642 1
242 643 1
292 643 1
492 643 1
568 643 1
243 644 1
293 644 1
493 644 1
569 644 1
244 645 1
294 645 1
494 645 1
570 645 1
245 646 1
295 646 1
482 646 1
571 646 1
246 647 1
296 647 1
483 647 1
572 647 1
247 648 1
297 648 1
484 648 1
560 648 1
235 649 1
298 649 1
485 649 1
561 649 1
236 650 1
299 650 1
486 650 1
562 650 1
250 651 1
300 651 1
500 651 1
576 651 1
251 652 1
301 652 1
501 652 1
577 652 1
252 653 1
302 653 1
502 653 1
578 653 1
253 654 1
303 654 1
503 654 1
579 654 1
254 655 1
304 655 1
504 655 1
580 655 1
255 656 1
305 656 1
505 656 1
581 656 1
256 657 1
306 657 1
506 657 1
582 657 1
257 658 1
307 658 1
507 658 1
583 658 1
258 659 1
308 659 1
495 659 1
584 659 1
259 660 1
309 660 1
496 660 1
585 660 1
260 661 1
310 661 1
497 661 1
573 661 1
248 662 1
311 662 1
498 662 1
574 662 1
249 663 1
312 663 1
499 663 1
575 663 1
235 664 1
302 664 1
513 664 1
589 664 1
236 665 1
303 665 1
514 665 1
590 665 1
237 666 1
304 666 1
515 666 1
591 666 1
238 667 1
305 667 1
516 667 1
592 667 1
239 668 1
306 668 1
517 668 1
593 668 1
240 669 1
307 669 1
518 669 1
594 669 1
241 670 1
308 670 1
519 670 1
595 670 1
242 671 1
309 671 1
520 671 1
596 671 1
243 672 1
310 672 1
508 672 1
597 672 1
244 673 1
311 673 1
509 673 1
598 673 1
245 674 1
312 674 1
510 674 1
586 674 1
246 675 1
300 675 1
511 675 1
587 675 1
247 676 1
301 676 1
512 676 1
588 676 1
248 677 1
276 677 1
526 677 1
602 677 1
249 678 1
277 678 1
527 678 1
603 678 1
250 679 1
278 679 1
528 679 1
604 679 1
251 680 1
279 680 1
529 680 1
605 680 1
252 681 1
280 681 1
530 681 1
606 681 1
253 682 1
281 682 1
531 682 1
607 682 1
254 683 1
282 683 1
532 683 1
608 683 1
255 684 1
283 684 1
533 684 1
609 684 1
256 685 1
284 685 1
521 685 1
610 685 1
257 686 1
285 686 1
522 686 1
611 686 1
258 687 1
286 687 1
523 687 1
599 687 1
259 688 1
274 688 1
524 688 1
600 688 1
260 689 1
275 689 1
525 689 1
601 689 1
261 690 1
289 690 1
539 690 1
615 690 1
262 691 1
290 691 1
540 691 1
616 691 1
263 692 1
291 692 1
541 692 1
617 692 1
264 693 1
292 693 1
542 693 1
618 693 1
265 694 1
293 694 1
543 694 1
619 694 1
266 695 1
294 695 1
544 695 1
620 695 1
267 696 1
295 696 1
545 696 1
621 696 1
268 697 1
296 697 1
546 697 1
622 697 1
269 698 1
297 698 1
534 698 1
623 698 1
270 699 1
298 699 1
535 699 1
624 699 1
271 700 1
299 700 1
536 700 1
612 700 1
272 701 1
287 701 1
537 701 1
613 701 1
273 702 1
288 702 1
538 702 1
614 702 1
185 703 1
196 703 1
472 703 1
552 703 1
186 704 1
197 704 1
473 704 1
553 704 1
187 705 1
198 705 1
474 705 1
554 705 1
188 706 1
199 706 1
475 706 1
555 706 1
189 707 1
200 707 1
476 707 1
556 707 1
190 708 1
201 708 1
477 708 1
557 708 1
191 709 1
202 709 1
478 709 1
558 709 1
192 710 1
203 710 1
479 710 1
559 710 1
193 711 1
204 711 1
480 711 1
547 711 1
194 712 1
205 712 1
481 712 1
548 712 1
195 713 1
206 713 1
469 713 1
549 713 1
183 714 1
207 714 1
470 714 1
550 714 1
184 715 1
208 715 1
471 715 1
551 715 1
159 716 1
209 716 1
485 716 1
565 716 1
160 717 1
210 717 1
486 717 1
566 717 1
161 718 1
211 718 1
487 718 1
567 718 1
162 719 1
212 719 1
488 719 1
568 719 1
163 720 1
213 720 1
489 720 1
569 720 1
164 721 1
214 721 1
490 721 1
570 721 1
165 722 1
215 722 1
491 722 1
571 722 1
166 723 1
216 723 1
492 723 1
572 723 1
167 724 1
217 724 1
493 724 1
560 724 1
168 725 1
218 725 1
494 725 1
561 725 1
169 726 1
219 726 1
482 726 1
562 726 1
157 727 1
220 727 1
483 727 1
563 727 1
158 728 1
221 728 1
484 728 1
564 728 1
172 729 1
222 729 1
498 729 1
578 729 1
173 730 1
223 730 1
499 730 1
579 730 1
174 731 1
224 731 1
500 731 1
580 731 1
175 732 1
225 732 1
501 732 1
581 732 1
176 733 1
226 733 1
502 733 1
582 733 1
177 734 1
227 734 1
503 734 1
583 734 1
178 735 1
228 735 1
504 735 1
584 735 1
179 736 1
229 736 1
505 736 1
585 736 1
180 737 1
230 737 1
506 737 1
573 737 1
181 738 1
231 738 1
507 738 1
574 738 1
182 739 1
232 739 1
495 739 1
575 739 1
170 740 1
233 740 1
496 740 1
576 740 1
171 741 1
234 741 1
497 741 1
577 741 1
157 742 1
224 742 1
511 742 1
591 742 1
158 743 1
225 743 1
512 743 1
592 743 1
159 744 1
226 744 1
513 744 1
593 744 1
160 745 1
227 745 1
514 745 1
594 745 1
161 746 1
228 746 1
515 746 1
595 746 1
162 747 1
229 747 1
516 747 1
596 747 1
163 748 1
230 748 1
517 748 1
597 748 1
164 749 1
231 749 1
518 749 1
598 749 1
165 750 1
232 750 1
519 750 1
586 750 1
166 751 1
233 751 1
520 751 1
587 751 1
167 752 1
234 752 1
508 752 1
588 752 1
168 753 1
222 753 1
509 753 1
589 753 1
169 754 1
223 754 1
510 754 1
590 754 1
170 755 1
198 755 1
524 755 1
604 755 1
171 756 1
199 756 1
525 756 1
605 756 1
172 757 1
200 757 1
526 757 1
606 757 1
173 758 1
201 758 1
527 758 1
607 758 1
174 759 1
202 759 1
528 759 1
608 759 1
175 760 1
203 760 1
529 760 1
609 760 1
176 761 1
204 761 1
530 761 1
610 761 1
177 762 1
205 762 1
531 762 1
611 762 1
178 763 1
206 763 1
532 763 1
599 763 1
179 764 1
207 764 1
533 764 1
600 764 1
180 765 1
208 765 1
521 765 1
601 765 1
181 766 1
196 766 1
522 766 1
602 766 1
182 767 1
197 767 1
523 767 1
603 767 1
183 768 1
211 768 1
537 768 1
617 768 1
184 769 1
212 769 1
538 769 1
618 769 1
185 770 1
213 770 1
539 770 1
619 770 1
186 771 1
214 771 1
540 771 1
620 771 1
187 772 1
215 772 1
541 772 1
621 772 1
188 773 1
216 773 1
542 773 1
622 773 1
189 774 1
217 774 1
543 774 1
623 774 1
190 775 1
218 775 1
544 775 1
624 775 1
191 776 1
219 776 1
545 776 1
612 776 1
192 777 1
220 777 1
546 777 1
613 777 1
193 778 1
221 778 1
534 778 1
614 778 1
194 779 1
209 779 1
535 779 1
615 779 1
195 780 1
210 780 1
536 780 1
616 780 1
419 781 1
430 781 1
471 781 1
584 781 1
420 782 1
431 782 1
472 782 1
585 782 1
421 783 1
432 783 1
473 783 1
573 783 1
422 784 1
433 784 1
474 784 1
574 784 1
423 785 1
434 785 1
475 785 1
575 785 1
424 786 1
435 786 1
476 786 1
576 786 1
425 787 1
436 787 1
477 787 1
577 787 1
426 788 1
437 788 1
478 788 1
578 788 1
427 789 1
438 789 1
479 789 1
579 789 1
428 790 1
439 790 1
480 790 1
580 790 1
429 791 1
440 791 1
481 791 1
581 791 1
417 792 1
441 792 1
469 792 1
582 792 1
418 793 1
442 793 1
470 793 1
583 793 1
393 794 1
443 794 1
484 794 1
558 794 1
394 795 1
444 795 1
485 795 1
559 795 1
395 796 1
445 796 1
486 796 1
547 796 1
396 797 1
446 797 1
487 797 1
548 797 1
397 798 1
447 798 1
488 798 1
549 798 1
398 799 1
448 799 1
489 799 1
550 799 1
399 800 1
449 800 1
490 800 1
551 800 1
400 801 1
450 801 1
491 801 1
552 801 1
401 802 1
451 802 1
492 802 1
553 802 1
402 803 1
452 803 1
493 803 1
554 803 1
403 804 1
453 804 1
494 804 1
555 804 1
391 805 1
454 805 1
482 805 1
556 805 1
392 806 1
455 806 1
483 806 1
557 806 1
406 807 1
456 807 1
497 807 1
571 807 1
407 808 1
457 808 1
498 808 1
572 808 1
408 809 1
458 809 1
499 809 1
560 809 1
409 810 1
459 810 1
500 810 1
561 810 1
410 811 1
460 811 1
501 811 1
562 811 1
411 812 1
461 812 1
502 812 1
563 812 1
412 813 1
462 813 1
503 813 1
564 813 1
413 814 1
463 814 1
504 814 1
565 814 1
414 815 1
464 815 1
505 815 1
566 815 1
415 816 1
465 816 1
506 816 1
567 816 1
416 817 1
466 817 1
507 817 1
568 817 1
404 818 1
467 818 1
495 818 1
569 818 1
405 819 1
468 819 1
496 819 1
570 819 1
391 820 1
458 820 1
510 820 1
623 820 1
392 821 1
459 821 1
511 821 1
624 821 1
393 822 1
460 822 1
512 822 1
612 822 1
394 823 1
461 823 1
513 823 1
613 823 1
395 824 1
462 824 1
514 824 1
614 824 1
396 825 1
463 825 1
515 825 1
615 825 1
397 826 1
464 826 1
516 826 1
616 826 1
398 827 1
465 827 1
517 827 1
617 827 1
399 828 1
466 828 1
518 828 1
618 828 1
400 829 1
467 829 1
519 829 1
619 829 1
401 830 1
468 830 1
520 830 1
620 830 1
402 831 1
456 831 1
508 831 1
621 831 1
403 832 1
457 832 1
509 832 1
622 832 1
404 833 1
432 833 1
523 833 1
597 833 1
405 834 1
433 834 1
524 834 1
598 834 1
406 835 1
434 835 1
525 835 1
586 835 1
407 836 1
435 836 1
526 836 1
587 836 1
408 837 1
436 837 1
527 837 1
588 837 1
409 838 1
437 838 1
528 838 1
589 838 1
410 839 1
438 839 1
529 839 1
590 839 1
411 840 1
439 840 1
530 840 1
591 840 1
412 841 1
440 841 1
531 841 1
592 841 1
413 842 1
441 842 1
532 842 1
593 842 1
414 843 1
442 843 1
533 843 1
594 843 1
415 844 1
430 844 1
521 844 1
595 844 1
416 845 1
431 845 1
522 845 1
596 845 1
417 846 1
445 846 1
536 846 1
610 846 1
418 847 1
446 847 1
537 847 1
611 847 1
419 848 1
447 848 1
538 848 1
599 848 1
420 849 1
448 849 1
539 849 1
600 849 1
421 850 1
449 850 1
540 850 1
601 850 1
422 851 1
450 851 1
541 851 1
602 851 1
423 852 1
451 852 1
542 852 1
603 852 1
424 853 1
452 853 1
543 853 1
604 853 1
425 854 1
453 854 1
544 854 1
605 854 1
426 855 1
454 855 1
545 855 1
606 855 1
427 856 1
455 856 1
546 856 1
607 856 1
428 857 1
443 857 1
534 857 1
608 857 1
429 858 1
444 858 1
535 858 1
609 858 1
341 859 1
352 859 1
506 859 1
549 859 1
342 860 1
353 860 1
507 860 1
550 860 1
343 861 1
354 861 1
495 861 1
551 861 1
344 862 1
355 862 1
496 862 1
552 862 1
345 863 1
356 863 1
497 863 1
553 863 1
346 864 1
357 864 1
498 864 1
554 864 1
347 865 1
358 865 1
499 865 1
555 865 1
348 866 1
359 866 1
500 866 1
556 866 1
349 867 1
360 867 1
501 867 1
557 867 1
350 868 1
361 868 1
502 868 1
558 868 1
351 869 1
362 869 1
503 869 1
559 869 1
339 870 1
363 870 1
504 870 1
547 870 1
340 871 1
364 871 1
505 871 1
548 871 1
315 872 1
365 872 1
480 872 1
562 872 1
316 873 1
366 873 1
481 873 1
563 873 1
317 874 1
367 874 1
469 874 1
564 874 1
318 875 1
368 875 1
470 875 1
565 875 1
319 876 1
369 876 1
471 876 1
566 876 1
320 877 1
370 877 1
472 877 1
567 877 1
321 878 1
371 878 1
473 878 1
568 878 1
322 879 1
372 879 1
474 879 1
569 879 1
323 880 1
373 880 1
475 880 1
570 880 1
324 881 1
374 881 1
476 881 1
571 881 1
325 882 1
375 882 1
477 882 1
572 882 1
313 883 1
376 883 1
478 883 1
560 883 1
314 884 1
377 884 1
479 884 1
561 884 1
328 885 1
378 885 1
493 885 1
575 885 1
329 886 1
379 886 1
494 886 1
576 886 1
330 887 1
380 887 1
482 887 1
577 887 1
331 888 1
381 888 1
483 888 1
578 888 1
332 889 1
382 889 1
484 889 1
579 889 1
333 890 1
383 890 1
485 890 1
580 890 1
334 891 1
384 891 1
486 891 1
581 891 1
335 892 1
385 892 1
487 892 1
582 892 1
336 893 1
386 893 1
488 893 1
583 893 1
337 894 1
387 894 1
489 894 1
584 894 1
338 895 1
388 895 1
490 895 1
585 895 1
326 896 1
389 896 1
491 896 1
573 896 1
327 897 1
390 897 1
492 897 1
574 897 1
313 898 1
380 898 1
545 898 1
588 898 1
314 899 1
381 899 1
546 899 1
589 899 1
315 900 1
382 900 1
534 900 1
590 900 1
316 901 1
383 901 1
535 901 1
591 901 1
317 902 1
384 902 1
536 902 1
592 902 1
318 903 1
385 903 1
537 903 1
593 903 1
319 904 1
386 904 1
538 904 1
594 904 1
320 905 1
387 905 1
539 905 1
595 905 1
321 906 1
388 906 1
540 906 1
596 906 1
322 907 1
389 907 1
541 907 1
597 907 1
323 908 1
390 908 1
542 908 1
598 908 1
324 909 1
378 909 1
543 909 1
586 909 1
325 910 1
379 910 1
544 910 1
587 910 1
326 911 1
354 911 1
519 911 1
601 911 1
327 912 1
355 912 1
520 912 1
602 912 1
328 913 1
356 913 1
508 913 1
603 913 1
329 914 1
357 914 1
509 914 1
604 914 1
330 915 1
358 915 1
510 915 1
605 915 1
331 916 1
359 916 1
511 916 1
606 916 1
332 917 1
360 917 1
512 917 1
607 917 1
333 918 1
361 918 1
513 918 1
608 918 1
334 919 1
362 919 1
514 919 1
609 919 1
335 920 1
363 920 1
515 920 1
610 920 1
336 921 1
364 921 1
516 921 1
611 921 1
337 922 1
352 922 1
517 922 1
599 922 1
338 923 1
353 923 1
518 923 1
600 923 1
339 924 1
367 924 1
532 924 1
614 924 1
340 925 1
368 925 1
533 925 1
615 925 1
341 926 1
369 926 1
521 926 1
616 926 1
342 927 1
370 927 1
522 927 1
617 927 1
343 928 1
371 928 1
523 928 1
618 928 1
344 929 1
372 929 1
524 929 1
619 929 1
345 930 1
373 930 1
525 930 1
620 930 1
346 931 1
374 931 1
526 931 1
621 931 1
347 932 1
375 932 1
527 932 1
622 932 1
348 933 1
376 933 1
528 933 1
623 933 1
349 934 1
377 934 1
529 934 1
624 934 1
350 935 1
365 935 1
530 935 1
612 935 1
351 936 1
366 936 1
531 936 1
613 936 1
