%%MatrixMarket matrix coordinate integer general
% Binary matrix; one-based indices; arithmetic over GF(2)
525 700 4200
1 1 1
13 1 1
36 1 1
44 1 1
71 1 1
74 1 1
2 2 1
14 2 1
37 2 1
45 2 1
72 2 1
75 2 1
3 3 1
15 3 1
38 3 1
46 3 1
73 3 1
76 3 1
4 4 1
16 4 1
39 4 1
47 4 1
74 4 1
77 4 1
5 5 1
17 5 1
40 5 1
48 5 1
75 5 1
78 5 1
6 6 1
18 6 1
41 6 1
49 6 1
76 6 1
79 6 1
7 7 1
19 7 1
42 7 1
50 7 1
77 7 1
80 7 1
8 8 1
20 8 1
43 8 1
51 8 1
78 8 1
81 8 1
9 9 1
21 9 1
44 9 1
52 9 1
79 9 1
82 9 1
10 10 1
22 10 1
45 10 1
53 10 1
80 10 1
83 10 1
11 11 1
23 11 1
46 11 1
54 11 1
81 11 1
84 11 1
12 12 1
24 12 1
47 12 1
55 12 1
82 12 1
85 12 1
13 13 1
25 13 1
48 13 1
56 13 1
83 13 1
86 13 1
14 14 1
26 14 1
49 14 1
57 14 1
84 14 1
87 14 1
15 15 1
27 15 1
50 15 1
58 15 1
85 15 1
88 15 1
16 16 1
28 16 1
51 16 1
59 16 1
86 16 1
89 16 1
17 17 1
29 17 1
52 17 1
60 17 1
87 17 1
90 17 1
18 18 1
30 18 1
53 18 1
61 18 1
88 18 1
91 18 1
19 19 1
31 19 1
54 19 1
62 19 1
89 19 1
92 19 1
20 20 1
32 20 1
55 20 1
63 20 1
90 20 1
93 20 1
21 21 1
33 21 1
56 21 1
64 21 1
91 21 1
94 21 1
22 22 1
34 22 1
57 22 1
65 22 1
92 22 1
95 22 1
23 23 1
35 23 1
58 23 1
66 23 1
93 23 1
96 23 1
1 24 1
24 24 1
59 24 1
67 24 1
94 24 1
97 24 1
2 25 1
25 25 1
60 25 1
68 25 1
95 25 1
98 25 1
3 26 1
26 26 1
61 26 1
69 26 1
96 26 1
99 26 1
4 27 1
27 27 1
62 27 1
70 27 1
97 27 1
100 27 1
5 28 1
28 28 1
36 28 1
63 28 1
98 28 1
101 28 1
6 29 1
29 29 1
37 29 1
64 29 1
99 29 1
102 29 1
7 30 1
30 30 1
38 30 1
65 30 1
100 30 1
103 30 1
8 31 1
31 31 1
39 31 1
66 31 1
101 31 1
104 31 1
9 32 1
32 32 1
40 32 1
67 32 1
102 32 1
105 32 1
10 33 1
33 33 1
41 33 1
68 33 1
71 33 1
103 33 1
11 34 1
34 34 1
42 34 1
69 34 1
72 34 1
104 34 1
12 35 1
35 35 1
43 35 1
70 35 1
73 35 1
105 35 1
1 36 1
20 36 1
106 36 1
114 36 1
141 36 1
144 36 1
2 37 1
21 37 1
107 37 1
115 37 1
142 37 1
145 37 1
3 38 1
22 38 1
108 38 1
116 38 1
143 38 1
146 38 1
4 39 1
23 39 1
109 39 1
117 39 1
144 39 1
147 39 1
5 40 1
24 40 1
110 40 1
118 40 1
145 40 1
148 40 1
6 41 1
25 41 1
111 41 1
119 41 1
146 41 1
149 41 1
7 42 1
26 42 1
112 42 1
120 42 1
147 42 1
150 42 1
8 43 1
27 43 1
113 43 1
121 43 1
148 43 1
151 43 1
9 44 1
28 44 1
114 44 1
122 44 1
149 44 1
152 44 1
10 45 1
29 45 1
115 45 1
123 45 1
150 45 1
153 45 1
11 46 1
30 46 1
116 46 1
124 46 1
151 46 1
154 46 1
12 47 1
31 47 1
117 47 1
125 47 1
152 47 1
155 47 1
13 48 1
32 48 1
118 48 1
126 48 1
153 48 1
156 48 1
14 49 1
33 49 1
119 49 1
127 49 1
154 49 1
157 49 1
15 50 1
34 50 1
120 50 1
128 50 1
155 50 1
158 50 1
16 51 1
35 51 1
121 51 1
129 51 1
156 51 1
159 51 1
1 52 1
17 52 1
122 52 1
130 52 1
157 52 1
160 52 1
2 53 1
18 53 1
123 53 1
131 53 1
158 53 1
161 53 1
3 54 1
19 54 1
124 54 1
132 54 1
159 54 1
162 54 1
4 55 1
20 55 1
125 55 1
133 55 1
160 55 1
163 55 1
5 56 1
21 56 1
126 56 1
134 56 1
161 56 1
164 56 1
6 57 1
22 57 1
127 57 1
135 57 1
162 57 1
165 57 1
7 58 1
23 58 1
128 58 1
136 58 1
163 58 1
166 58 1
8 59 1
24 59 1
129 59 1
137 59 1
164 59 1
167 59 1
9 60 1
25 60 1
130 60 1
138 60 1
165 60 1
168 60 1
10 61 1
26 61 1
131 61 1
139 61 1
166 61 1
169 61 1
11 62 1
27 62 1
132 62 1
140 62 1
167 62 1
170 62 1
12 63 1
28 63 1
106 63 1
133 63 1
168 63 1
171 63 1
13 64 1
29 64 1
107 64 1
134 64 1
169 64 1
172 64 1
14 65 1
30 65 1
108 65 1
135 65 1
170 65 1
173 65 1
15 66 1
31 66 1
109 66 1
136 66 1
171 66 1
174 66 1
16 67 1
32 67 1
110 67 1
137 67 1
172 67 1
175 67 1
17 68 1
33 68 1
111 68 1
138 68 1
141 68 1
173 68 1
18 69 1
34 69 1
112 69 1
139 69 1
142 69 1
174 69 1
19 70 1
35 70 1
113 70 1
140 70 1
143 70 1
175 70 1
36 71 1
55 71 1
106 71 1
118 71 1
176 71 1
179 71 1
37 72 1
56 72 1
107 72 1
119 72 1
177 72 1
180 72 1
38 73 1
57 73 1
108 73 1
120 73 1
178 73 1
181 73 1
39 74 1
58 74 1
109 74 1
121 74 1
179 74 1
182 74 1
40 75 1
59 75 1
110 75 1
122 75 1
180 75 1
183 75 1
41 76 1
60 76 1
111 76 1
123 76 1
181 76 1
184 76 1
42 77 1
61 77 1
112 77 1
124 77 1
182 77 1
185 77 1
43 78 1
62 78 1
113 78 1
125 78 1
183 78 1
186 78 1
44 79 1
63 79 1
114 79 1
126 79 1
184 79 1
187 79 1
45 80 1
64 80 1
115 80 1
127 80 1
185 80 1
188 80 1
46 81 1
65 81 1
116 81 1
128 81 1
186 81 1
189 81 1
47 82 1
66 82 1
117 82 1
129 82 1
187 82 1
190 82 1
48 83 1
67 83 1
118 83 1
130 83 1
188 83 1
191 83 1
49 84 1
68 84 1
119 84 1
131 84 1
189 84 1
192 84 1
50 85 1
69 85 1
120 85 1
132 85 1
190 85 1
193 85 1
51 86 1
70 86 1
121 86 1
133 86 1
191 86 1
194 86 1
36 87 1
52 87 1
122 87 1
134 87 1
192 87 1
195 87 1
37 88 1
53 88 1
123 88 1
135 88 1
193 88 1
196 88 1
38 89 1
54 89 1
124 89 1
136 89 1
194 89 1
197 89 1
39 90 1
55 90 1
125 90 1
137 90 1
195 90 1
198 90 1
40 91 1
56 91 1
126 91 1
138 91 1
196 91 1
199 91 1
41 92 1
57 92 1
127 92 1
139 92 1
197 92 1
200 92 1
42 93 1
58 93 1
128 93 1
140 93 1
198 93 1
201 93 1
43 94 1
59 94 1
106 94 1
129 94 1
199 94 1
202 94 1
44 95 1
60 95 1
107 95 1
130 95 1
200 95 1
203 95 1
45 96 1
61 96 1
108 96 1
131 96 1
201 96 1
204 96 1
46 97 1
62 97 1
109 97 1
132 97 1
202 97 1
205 97 1
47 98 1
63 98 1
110 98 1
133 98 1
203 98 1
206 98 1
48 99 1
64 99 1
111 99 1
134 99 1
204 99 1
207 99 1
49 100 1
65 100 1
112 100 1
135 100 1
205 100 1
208 100 1
50 101 1
66 101 1
113 101 1
136 101 1
206 101 1
209 101 1
51 102 1
67 102 1
114 102 1
137 102 1
207 102 1
210 102 1
52 103 1
68 103 1
115 103 1
138 103 1
176 103 1
208 103 1
53 104 1
69 104 1
116 104 1
139 104 1
177 104 1
209 104 1
54 105 1
70 105 1
117 105 1
140 105 1
178 105 1
210 105 1
71 106 1
90 106 1
141 106 1
153 106 1
176 106 1
184 106 1
72 107 1
91 107 1
142 107 1
154 107 1
177 107 1
185 107 1
73 108 1
92 108 1
143 108 1
155 108 1
178 108 1
186 108 1
74 109 1
93 109 1
144 109 1
156 109 1
179 109 1
187 109 1
75 110 1
94 110 1
145 110 1
157 110 1
180 110 1
188 110 1
76 111 1
95 111 1
146 111 1
158 111 1
181 111 1
189 111 1
77 112 1
96 112 1
147 112 1
159 112 1
182 112 1
190 112 1
78 113 1
97 113 1
148 113 1
160 113 1
183 113 1
191 113 1
79 114 1
98 114 1
149 114 1
161 114 1
184 114 1
192 114 1
80 115 1
99 115 1
150 115 1
162 115 1
185 115 1
193 115 1
81 116 1
100 116 1
151 116 1
163 116 1
186 116 1
194 116 1
82 117 1
101 117 1
152 117 1
164 117 1
187 117 1
195 117 1
83 118 1
102 118 1
153 118 1
165 118 1
188 118 1
196 118 1
84 119 1
103 119 1
154 119 1
166 119 1
189 119 1
197 119 1
85 120 1
104 120 1
155 120 1
167 120 1
190 120 1
198 120 1
86 121 1
105 121 1
156 121 1
168 121 1
191 121 1
199 121 1
71 122 1
87 122 1
157 122 1
169 122 1
192 122 1
200 122 1
72 123 1
88 123 1
158 123 1
170 123 1
193 123 1
201 123 1
73 124 1
89 124 1
159 124 1
171 124 1
194 124 1
202 124 1
74 125 1
90 125 1
160 125 1
172 125 1
195 125 1
203 125 1
75 126 1
91 126 1
161 126 1
173 126 1
196 126 1
204 126 1
76 127 1
92 127 1
162 127 1
174 127 1
197 127 1
205 127 1
77 128 1
93 128 1
163 128 1
175 128 1
198 128 1
206 128 1
78 129 1
94 129 1
141 129 1
164 129 1
199 129 1
207 129 1
79 130 1
95 130 1
142 130 1
165 130 1
200 130 1
208 130 1
80 131 1
96 131 1
143 131 1
166 131 1
201 131 1
209 131 1
81 132 1
97 132 1
144 132 1
167 132 1
202 132 1
210 132 1
82 133 1
98 133 1
145 133 1
168 133 1
176 133 1
203 133 1
83 134 1
99 134 1
146 134 1
169 134 1
177 134 1
204 134 1
84 135 1
100 135 1
147 135 1
170 135 1
178 135 1
205 135 1
85 136 1
101 136 1
148 136 1
171 136 1
179 136 1
206 136 1
86 137 1
102 137 1
149 137 1
172 137 1
180 137 1
207 137 1
87 138 1
103 138 1
150 138 1
173 138 1
181 138 1
208 138 1
88 139 1
104 139 1
151 139 1
174 139 1
182 139 1
209 139 1
89 140 1
105 140 1
152 140 1
175 140 1
183 140 1
210 140 1
1 141 1
26 141 1
211 141 1
219 141 1
246 141 1
249 141 1
2 142 1
27 142 1
212 142 1
220 142 1
247 142 1
250 142 1
3 143 1
28 143 1
213 143 1
221 143 1
248 143 1
251 143 1
4 144 1
29 144 1
214 144 1
222 144 1
249 144 1
252 144 1
5 145 1
30 145 1
215 145 1
223 145 1
250 145 1
253 145 1
6 146 1
31 146 1
216 146 1
224 146 1
251 146 1
254 146 1
7 147 1
32 147 1
217 147 1
225 147 1
252 147 1
255 147 1
8 148 1
33 148 1
218 148 1
226 148 1
253 148 1
256 148 1
9 149 1
34 149 1
219 149 1
227 149 1
254 149 1
257 149 1
10 150 1
35 150 1
220 150 1
228 150 1
255 150 1
258 150 1
1 151 1
11 151 1
221 151 1
229 151 1
256 151 1
259 151 1
2 152 1
12 152 1
222 152 1
230 152 1
257 152 1
260 152 1
3 153 1
13 153 1
223 153 1
231 153 1
258 153 1
261 153 1
4 154 1
14 154 1
224 154 1
232 154 1
259 154 1
262 154 1
5 155 1
15 155 1
225 155 1
233 155 1
260 155 1
263 155 1
6 156 1
16 156 1
226 156 1
234 156 1
261 156 1
264 156 1
7 157 1
17 157 1
227 157 1
235 157 1
262 157 1
265 157 1
8 158 1
18 158 1
228 158 1
236 158 1
263 158 1
266 158 1
9 159 1
19 159 1
229 159 1
237 159 1
264 159 1
267 159 1
10 160 1
20 160 1
230 160 1
238 160 1
265 160 1
268 160 1
11 161 1
21 161 1
231 161 1
239 161 1
266 161 1
269 161 1
12 162 1
22 162 1
232 162 1
240 162 1
267 162 1
270 162 1
13 163 1
23 163 1
233 163 1
241 163 1
268 163 1
271 163 1
14 164 1
24 164 1
234 164 1
242 164 1
269 164 1
272 164 1
15 165 1
25 165 1
235 165 1
243 165 1
270 165 1
273 165 1
16 166 1
26 166 1
236 166 1
244 166 1
271 166 1
274 166 1
17 167 1
27 167 1
237 167 1
245 167 1
272 167 1
275 167 1
18 168 1
28 168 1
211 168 1
238 168 1
273 168 1
276 168 1
19 169 1
29 169 1
212 169 1
239 169 1
274 169 1
277 169 1
20 170 1
30 170 1
213 170 1
240 170 1
275 170 1
278 170 1
21 171 1
31 171 1
214 171 1
241 171 1
276 171 1
279 171 1
22 172 1
32 172 1
215 172 1
242 172 1
277 172 1
280 172 1
23 173 1
33 173 1
216 173 1
243 173 1
246 173 1
278 173 1
24 174 1
34 174 1
217 174 1
244 174 1
247 174 1
279 174 1
25 175 1
35 175 1
218 175 1
245 175 1
248 175 1
280 175 1
36 176 1
61 176 1
211 176 1
223 176 1
281 176 1
284 176 1
37 177 1
62 177 1
212 177 1
224 177 1
282 177 1
285 177 1
38 178 1
63 178 1
213 178 1
225 178 1
283 178 1
286 178 1
39 179 1
64 179 1
214 179 1
226 179 1
284 179 1
287 179 1
40 180 1
65 180 1
215 180 1
227 180 1
285 180 1
288 180 1
41 181 1
66 181 1
216 181 1
228 181 1
286 181 1
289 181 1
42 182 1
67 182 1
217 182 1
229 182 1
287 182 1
290 182 1
43 183 1
68 183 1
218 183 1
230 183 1
288 183 1
291 183 1
44 184 1
69 184 1
219 184 1
231 184 1
289 184 1
292 184 1
45 185 1
70 185 1
220 185 1
232 185 1
290 185 1
293 185 1
36 186 1
46 186 1
221 186 1
233 186 1
291 186 1
294 186 1
37 187 1
47 187 1
222 187 1
234 187 1
292 187 1
295 187 1
38 188 1
48 188 1
223 188 1
235 188 1
293 188 1
296 188 1
39 189 1
49 189 1
224 189 1
236 189 1
294 189 1
297 189 1
40 190 1
50 190 1
225 190 1
237 190 1
295 190 1
298 190 1
41 191 1
51 191 1
226 191 1
238 191 1
296 191 1
299 191 1
42 192 1
52 192 1
227 192 1
239 192 1
297 192 1
300 192 1
43 193 1
53 193 1
228 193 1
240 193 1
298 193 1
301 193 1
44 194 1
54 194 1
229 194 1
241 194 1
299 194 1
302 194 1
45 195 1
55 195 1
230 195 1
242 195 1
300 195 1
303 195 1
46 196 1
56 196 1
231 196 1
243 196 1
301 196 1
304 196 1
47 197 1
57 197 1
232 197 1
244 197 1
302 197 1
305 197 1
48 198 1
58 198 1
233 198 1
245 198 1
303 198 1
306 198 1
49 199 1
59 199 1
211 199 1
234 199 1
304 199 1
307 199 1
50 200 1
60 200 1
212 200 1
235 200 1
305 200 1
308 200 1
51 201 1
61 201 1
213 201 1
236 201 1
306 201 1
309 201 1
52 202 1
62 202 1
214 202 1
237 202 1
307 202 1
310 202 1
53 203 1
63 203 1
215 203 1
238 203 1
308 203 1
311 203 1
54 204 1
64 204 1
216 204 1
239 204 1
309 204 1
312 204 1
55 205 1
65 205 1
217 205 1
240 205 1
310 205 1
313 205 1
56 206 1
66 206 1
218 206 1
241 206 1
311 206 1
314 206 1
57 207 1
67 207 1
219 207 1
242 207 1
312 207 1
315 207 1
58 208 1
68 208 1
220 208 1
243 208 1
281 208 1
313 208 1
59 209 1
69 209 1
221 209 1
244 209 1
282 209 1
314 209 1
60 210 1
70 210 1
222 210 1
245 210 1
283 210 1
315 210 1
71 211 1
96 211 1
246 211 1
258 211 1
281 211 1
289 211 1
72 212 1
97 212 1
247 212 1
259 212 1
282 212 1
290 212 1
73 213 1
98 213 1
248 213 1
260 213 1
283 213 1
291 213 1
74 214 1
99 214 1
249 214 1
261 214 1
284 214 1
292 214 1
75 215 1
100 215 1
250 215 1
262 215 1
285 215 1
293 215 1
76 216 1
101 216 1
251 216 1
263 216 1
286 216 1
294 216 1
77 217 1
102 217 1
252 217 1
264 217 1
287 217 1
295 217 1
78 218 1
103 218 1
253 218 1
265 218 1
288 218 1
296 218 1
79 219 1
104 219 1
254 219 1
266 219 1
289 219 1
297 219 1
80 220 1
105 220 1
255 220 1
267 220 1
290 220 1
298 220 1
71 221 1
81 221 1
256 221 1
268 221 1
291 221 1
299 221 1
72 222 1
82 222 1
257 222 1
269 222 1
292 222 1
300 222 1
73 223 1
83 223 1
258 223 1
270 223 1
293 223 1
301 223 1
74 224 1
84 224 1
259 224 1
271 224 1
294 224 1
302 224 1
75 225 1
85 225 1
260 225 1
272 225 1
295 225 1
303 225 1
76 226 1
86 226 1
261 226 1
273 226 1
296 226 1
304 226 1
77 227 1
87 227 1
262 227 1
274 227 1
297 227 1
305 227 1
78 228 1
88 228 1
263 228 1
275 228 1
298 228 1
306 228 1
79 229 1
89 229 1
264 229 1
276 229 1
299 229 1
307 229 1
80 230 1
90 230 1
265 230 1
277 230 1
300 230 1
308 230 1
81 231 1
91 231 1
266 231 1
278 231 1
301 231 1
309 231 1
82 232 1
92 232 1
267 232 1
279 232 1
302 232 1
310 232 1
83 233 1
93 233 1
268 233 1
280 233 1
303 233 1
311 233 1
84 234 1
94 234 1
246 234 1
269 234 1
304 234 1
312 234 1
85 235 1
95 235 1
247 235 1
270 235 1
305 235 1
313 235 1
86 236 1
96 236 1
248 236 1
271 236 1
306 236 1
314 236 1
87 237 1
97 237 1
249 237 1
272 237 1
307 237 1
315 237 1
88 238 1
98 238 1
250 238 1
273 238 1
281 238 1
308 238 1
89 239 1
99 239 1
251 239 1
274 239 1
282 239 1
309 239 1
90 240 1
100 240 1
252 240 1
275 240 1
283 240 1
310 240 1
91 241 1
101 241 1
253 241 1
276 241 1
284 241 1
311 241 1
92 242 1
102 242 1
254 242 1
277 242 1
285 242 1
312 242 1
93 243 1
103 243 1
255 243 1
278 243 1
286 243 1
313 243 1
94 244 1
104 244 1
256 244 1
279 244 1
287 244 1
314 244 1
95 245 1
105 245 1
257 245 1
280 245 1
288 245 1
315 245 1
106 246 1
131 246 1
211 246 1
230 246 1
316 246 1
319 246 1
107 247 1
132 247 1
212 247 1
231 247 1
317 247 1
320 247 1
108 248 1
133 248 1
213 248 1
232 248 1
318 248 1
321 248 1
109 249 1
134 249 1
214 249 1
233 249 1
319 249 1
322 249 1
110 250 1
135 250 1
215 250 1
234 250 1
320 250 1
323 250 1
111 251 1
136 251 1
216 251 1
235 251 1
321 251 1
324 251 1
112 252 1
137 252 1
217 252 1
236 252 1
322 252 1
325 252 1
113 253 1
138 253 1
218 253 1
237 253 1
323 253 1
326 253 1
114 254 1
139 254 1
219 254 1
238 254 1
324 254 1
327 254 1
115 255 1
140 255 1
220 255 1
239 255 1
325 255 1
328 255 1
106 256 1
116 256 1
221 256 1
240 256 1
326 256 1
329 256 1
107 257 1
117 257 1
222 257 1
241 257 1
327 257 1
330 257 1
108 258 1
118 258 1
223 258 1
242 258 1
328 258 1
331 258 1
109 259 1
119 259 1
224 259 1
243 259 1
329 259 1
332 259 1
110 260 1
120 260 1
225 260 1
244 260 1
330 260 1
333 260 1
111 261 1
121 261 1
226 261 1
245 261 1
331 261 1
334 261 1
112 262 1
122 262 1
211 262 1
227 262 1
332 262 1
335 262 1
113 263 1
123 263 1
212 263 1
228 263 1
333 263 1
336 263 1
114 264 1
124 264 1
213 264 1
229 264 1
334 264 1
337 264 1
115 265 1
125 265 1
214 265 1
230 265 1
335 265 1
338 265 1
116 266 1
126 266 1
215 266 1
231 266 1
336 266 1
339 266 1
117 267 1
127 267 1
216 267 1
232 267 1
337 267 1
340 267 1
118 268 1
128 268 1
217 268 1
233 268 1
338 268 1
341 268 1
119 269 1
129 269 1
218 269 1
234 269 1
339 269 1
342 269 1
120 270 1
130 270 1
219 270 1
235 270 1
340 270 1
343 270 1
121 271 1
131 271 1
220 271 1
236 271 1
341 271 1
344 271 1
122 272 1
132 272 1
221 272 1
237 272 1
342 272 1
345 272 1
123 273 1
133 273 1
222 273 1
238 273 1
343 273 1
346 273 1
124 274 1
134 274 1
223 274 1
239 274 1
344 274 1
347 274 1
125 275 1
135 275 1
224 275 1
240 275 1
345 275 1
348 275 1
126 276 1
136 276 1
225 276 1
241 276 1
346 276 1
349 276 1
127 277 1
137 277 1
226 277 1
242 277 1
347 277 1
350 277 1
128 278 1
138 278 1
227 278 1
243 278 1
316 278 1
348 278 1
129 279 1
139 279 1
228 279 1
244 279 1
317 279 1
349 279 1
130 280 1
140 280 1
229 280 1
245 280 1
318 280 1
350 280 1
141 281 1
166 281 1
246 281 1
265 281 1
316 281 1
324 281 1
142 282 1
167 282 1
247 282 1
266 282 1
317 282 1
325 282 1
143 283 1
168 283 1
248 283 1
267 283 1
318 283 1
326 283 1
144 284 1
169 284 1
249 284 1
268 284 1
319 284 1
327 284 1
145 285 1
170 285 1
250 285 1
269 285 1
320 285 1
328 285 1
146 286 1
171 286 1
251 286 1
270 286 1
321 286 1
329 286 1
147 287 1
172 287 1
252 287 1
271 287 1
322 287 1
330 287 1
148 288 1
173 288 1
253 288 1
272 288 1
323 288 1
331 288 1
149 289 1
174 289 1
254 289 1
273 289 1
324 289 1
332 289 1
150 290 1
175 290 1
255 290 1
274 290 1
325 290 1
333 290 1
141 291 1
151 291 1
256 291 1
275 291 1
326 291 1
334 291 1
142 292 1
152 292 1
257 292 1
276 292 1
327 292 1
335 292 1
143 293 1
153 293 1
258 293 1
277 293 1
328 293 1
336 293 1
144 294 1
154 294 1
259 294 1
278 294 1
329 294 1
337 294 1
145 295 1
155 295 1
260 295 1
279 295 1
330 295 1
338 295 1
146 296 1
156 296 1
261 296 1
280 296 1
331 296 1
339 296 1
147 297 1
157 297 1
246 297 1
262 297 1
332 297 1
340 297 1
148 298 1
158 298 1
247 298 1
263 298 1
333 298 1
341 298 1
149 299 1
159 299 1
248 299 1
264 299 1
334 299 1
342 299 1
150 300 1
160 300 1
249 300 1
265 300 1
335 300 1
343 300 1
151 301 1
161 301 1
250 301 1
266 301 1
336 301 1
344 301 1
152 302 1
162 302 1
251 302 1
267 302 1
337 302 1
345 302 1
153 303 1
163 303 1
252 303 1
268 303 1
338 303 1
346 303 1
154 304 1
164 304 1
253 304 1
269 304 1
339 304 1
347 304 1
155 305 1
165 305 1
254 305 1
270 305 1
340 305 1
348 305 1
156 306 1
166 306 1
255 306 1
271 306 1
341 306 1
349 306 1
157 307 1
167 307 1
256 307 1
272 307 1
342 307 1
350 307 1
158 308 1
168 308 1
257 308 1
273 308 1
316 308 1
343 308 1
159 309 1
169 309 1
258 309 1
274 309 1
317 309 1
344 309 1
160 310 1
170 310 1
259 310 1
275 310 1
318 310 1
345 310 1
161 311 1
171 311 1
260 311 1
276 311 1
319 311 1
346 311 1
162 312 1
172 312 1
261 312 1
277 312 1
320 312 1
347 312 1
163 313 1
173 313 1
262 313 1
278 313 1
321 313 1
348 313 1
164 314 1
174 314 1
263 314 1
279 314 1
322 314 1
349 314 1
165 315 1
175 315 1
264 315 1
280 315 1
323 315 1
350 315 1
176 316 1
201 316 1
281 316 1
300 316 1
316 316 1
328 316 1
177 317 1
202 317 1
282 317 1
301 317 1
317 317 1
329 317 1
178 318 1
203 318 1
283 318 1
302 318 1
318 318 1
330 318 1
179 319 1
204 319 1
284 319 1
303 319 1
319 319 1
331 319 1
180 320 1
205 320 1
285 320 1
304 320 1
320 320 1
332 320 1
181 321 1
206 321 1
286 321 1
305 321 1
321 321 1
333 321 1
182 322 1
207 322 1
287 322 1
306 322 1
322 322 1
334 322 1
183 323 1
208 323 1
288 323 1
307 323 1
323 323 1
335 323 1
184 324 1
209 324 1
289 324 1
308 324 1
324 324 1
336 324 1
185 325 1
210 325 1
290 325 1
309 325 1
325 325 1
337 325 1
176 326 1
186 326 1
291 326 1
310 326 1
326 326 1
338 326 1
177 327 1
187 327 1
292 327 1
311 327 1
327 327 1
339 327 1
178 328 1
188 328 1
293 328 1
312 328 1
328 328 1
340 328 1
179 329 1
189 329 1
294 329 1
313 329 1
329 329 1
341 329 1
180 330 1
190 330 1
295 330 1
314 330 1
330 330 1
342 330 1
181 331 1
191 331 1
296 331 1
315 331 1
331 331 1
343 331 1
182 332 1
192 332 1
281 332 1
297 332 1
332 332 1
344 332 1
183 333 1
193 333 1
282 333 1
298 333 1
333 333 1
345 333 1
184 334 1
194 334 1
283 334 1
299 334 1
334 334 1
346 334 1
185 335 1
195 335 1
284 335 1
300 335 1
335 335 1
347 335 1
186 336 1
196 336 1
285 336 1
301 336 1
336 336 1
348 336 1
187 337 1
197 337 1
286 337 1
302 337 1
337 337 1
349 337 1
188 338 1
198 338 1
287 338 1
303 338 1
338 338 1
350 338 1
189 339 1
199 339 1
288 339 1
304 339 1
316 339 1
339 339 1
190 340 1
200 340 1
289 340 1
305 340 1
317 340 1
340 340 1
191 341 1
201 341 1
290 341 1
306 341 1
318 341 1
341 341 1
192 342 1
202 342 1
291 342 1
307 342 1
319 342 1
342 342 1
193 343 1
203 343 1
292 343 1
308 343 1
320 343 1
343 343 1
194 344 1
204 344 1
293 344 1
309 344 1
321 344 1
344 344 1
195 345 1
205 345 1
294 345 1
310 345 1
322 345 1
345 345 1
196 346 1
206 346 1
295 346 1
311 346 1
323 346 1
346 346 1
197 347 1
207 347 1
296 347 1
312 347 1
324 347 1
347 347 1
198 348 1
208 348 1
297 348 1
313 348 1
325 348 1
348 348 1
199 349 1
209 349 1
298 349 1
314 349 1
326 349 1
349 349 1
200 350 1
210 350 1
299 350 1
315 350 1
327 350 1
350 350 1
1 351 1
34 351 1
351 351 1
359 351 1
386 351 1
389 351 1
2 352 1
35 352 1
352 352 1
360 352 1
387 352 1
390 352 1
1 353 1
3 353 1
353 353 1
361 353 1
388 353 1
391 353 1
2 354 1
4 354 1
354 354 1
362 354 1
389 354 1
392 354 1
3 355 1
5 355 1
355 355 1
363 355 1
390 355 1
393 355 1
4 356 1
6 356 1
356 356 1
364 356 1
391 356 1
394 356 1
5 357 1
7 357 1
357 357 1
365 357 1
392 357 1
395 357 1
6 358 1
8 358 1
358 358 1
366 358 1
393 358 1
396 358 1
7 359 1
9 359 1
359 359 1
367 359 1
394 359 1
397 359 1
8 360 1
10 360 1
360 360 1
368 360 1
395 360 1
398 360 1
9 361 1
11 361 1
361 361 1
369 361 1
396 361 1
399 361 1
10 362 1
12 362 1
362 362 1
370 362 1
397 362 1
400 362 1
11 363 1
13 363 1
363 363 1
371 363 1
398 363 1
401 363 1
12 364 1
14 364 1
364 364 1
372 364 1
399 364 1
402 364 1
13 365 1
15 365 1
365 365 1
373 365 1
400 365 1
403 365 1
14 366 1
16 366 1
366 366 1
374 366 1
401 366 1
404 366 1
15 367 1
17 367 1
367 367 1
375 367 1
402 367 1
405 367 1
16 368 1
18 368 1
368 368 1
376 368 1
403 368 1
406 368 1
17 369 1
19 369 1
369 369 1
377 369 1
404 369 1
407 369 1
18 370 1
20 370 1
370 370 1
378 370 1
405 370 1
408 370 1
19 371 1
21 371 1
371 371 1
379 371 1
406 371 1
409 371 1
20 372 1
22 372 1
372 372 1
380 372 1
407 372 1
410 372 1
21 373 1
23 373 1
373 373 1
381 373 1
408 373 1
411 373 1
22 374 1
24 374 1
374 374 1
382 374 1
409 374 1
412 374 1
23 375 1
25 375 1
375 375 1
383 375 1
410 375 1
413 375 1
24 376 1
26 376 1
376 376 1
384 376 1
411 376 1
414 376 1
25 377 1
27 377 1
377 377 1
385 377 1
412 377 1
415 377 1
26 378 1
28 378 1
351 378 1
378 378 1
413 378 1
416 378 1
27 379 1
29 379 1
352 379 1
379 379 1
414 379 1
417 379 1
28 380 1
30 380 1
353 380 1
380 380 1
415 380 1
418 380 1
29 381 1
31 381 1
354 381 1
381 381 1
416 381 1
419 381 1
30 382 1
32 382 1
355 382 1
382 382 1
417 382 1
420 382 1
31 383 1
33 383 1
356 383 1
383 383 1
386 383 1
418 383 1
32 384 1
34 384 1
357 384 1
384 384 1
387 384 1
419 384 1
33 385 1
35 385 1
358 385 1
385 385 1
388 385 1
420 385 1
36 386 1
69 386 1
351 386 1
363 386 1
421 386 1
424 386 1
37 387 1
70 387 1
352 387 1
364 387 1
422 387 1
425 387 1
36 388 1
38 388 1
353 388 1
365 388 1
423 388 1
426 388 1
37 389 1
39 389 1
354 389 1
366 389 1
424 389 1
427 389 1
38 390 1
40 390 1
355 390 1
367 390 1
425 390 1
428 390 1
39 391 1
41 391 1
356 391 1
368 391 1
426 391 1
429 391 1
40 392 1
42 392 1
357 392 1
369 392 1
427 392 1
430 392 1
41 393 1
43 393 1
358 393 1
370 393 1
428 393 1
431 393 1
42 394 1
44 394 1
359 394 1
371 394 1
429 394 1
432 394 1
43 395 1
45 395 1
360 395 1
372 395 1
430 395 1
433 395 1
44 396 1
46 396 1
361 396 1
373 396 1
431 396 1
434 396 1
45 397 1
47 397 1
362 397 1
374 397 1
432 397 1
435 397 1
46 398 1
48 398 1
363 398 1
375 398 1
433 398 1
436 398 1
47 399 1
49 399 1
364 399 1
376 399 1
434 399 1
437 399 1
48 400 1
50 400 1
365 400 1
377 400 1
435 400 1
438 400 1
49 401 1
51 401 1
366 401 1
378 401 1
436 401 1
439 401 1
50 402 1
52 402 1
367 402 1
379 402 1
437 402 1
440 402 1
51 403 1
53 403 1
368 403 1
380 403 1
438 403 1
441 403 1
52 404 1
54 404 1
369 404 1
381 404 1
439 404 1
442 404 1
53 405 1
55 405 1
370 405 1
382 405 1
440 405 1
443 405 1
54 406 1
56 406 1
371 406 1
383 406 1
441 406 1
444 406 1
55 407 1
57 407 1
372 407 1
384 407 1
442 407 1
445 407 1
56 408 1
58 408 1
373 408 1
385 408 1
443 408 1
446 408 1
57 409 1
59 409 1
351 409 1
374 409 1
444 409 1
447 409 1
58 410 1
60 410 1
352 410 1
375 410 1
445 410 1
448 410 1
59 411 1
61 411 1
353 411 1
376 411 1
446 411 1
449 411 1
60 412 1
62 412 1
354 412 1
377 412 1
447 412 1
450 412 1
61 413 1
63 413 1
355 413 1
378 413 1
448 413 1
451 413 1
62 414 1
64 414 1
356 414 1
379 414 1
449 414 1
452 414 1
63 415 1
65 415 1
357 415 1
380 415 1
450 415 1
453 415 1
64 416 1
66 416 1
358 416 1
381 416 1
451 416 1
454 416 1
65 417 1
67 417 1
359 417 1
382 417 1
452 417 1
455 417 1
66 418 1
68 418 1
360 418 1
383 418 1
421 418 1
453 418 1
67 419 1
69 419 1
361 419 1
384 419 1
422 419 1
454 419 1
68 420 1
70 420 1
362 420 1
385 420 1
423 420 1
455 420 1
71 421 1
104 421 1
386 421 1
398 421 1
421 421 1
429 421 1
72 422 1
105 422 1
387 422 1
399 422 1
422 422 1
430 422 1
71 423 1
73 423 1
388 423 1
400 423 1
423 423 1
431 423 1
72 424 1
74 424 1
389 424 1
401 424 1
424 424 1
432 424 1
73 425 1
75 425 1
390 425 1
402 425 1
425 425 1
433 425 1
74 426 1
76 426 1
391 426 1
403 426 1
426 426 1
434 426 1
75 427 1
77 427 1
392 427 1
404 427 1
427 427 1
435 427 1
76 428 1
78 428 1
393 428 1
405 428 1
428 428 1
436 428 1
77 429 1
79 429 1
394 429 1
406 429 1
429 429 1
437 429 1
78 430 1
80 430 1
395 430 1
407 430 1
430 430 1
438 430 1
79 431 1
81 431 1
396 431 1
408 431 1
431 431 1
439 431 1
80 432 1
82 432 1
397 432 1
409 432 1
432 432 1
440 432 1
81 433 1
83 433 1
398 433 1
410 433 1
433 433 1
441 433 1
82 434 1
84 434 1
399 434 1
411 434 1
434 434 1
442 434 1
83 435 1
85 435 1
400 435 1
412 435 1
435 435 1
443 435 1
84 436 1
86 436 1
401 436 1
413 436 1
436 436 1
444 436 1
85 437 1
87 437 1
402 437 1
414 437 1
437 437 1
445 437 1
86 438 1
88 438 1
403 438 1
415 438 1
438 438 1
446 438 1
87 439 1
89 439 1
404 439 1
416 439 1
439 439 1
447 439 1
88 440 1
90 440 1
405 440 1
417 440 1
440 440 1
448 440 1
89 441 1
91 441 1
406 441 1
418 441 1
441 441 1
449 441 1
90 442 1
92 442 1
407 442 1
419 442 1
442 442 1
450 442 1
91 443 1
93 443 1
408 443 1
420 443 1
443 443 1
451 443 1
92 444 1
94 444 1
386 444 1
409 444 1
444 444 1
452 444 1
93 445 1
95 445 1
387 445 1
410 445 1
445 445 1
453 445 1
94 446 1
96 446 1
388 446 1
411 446 1
446 446 1
454 446 1
95 447 1
97 447 1
389 447 1
412 447 1
447 447 1
455 447 1
96 448 1
98 448 1
390 448 1
413 448 1
421 448 1
448 448 1
97 449 1
99 449 1
391 449 1
414 449 1
422 449 1
449 449 1
98 450 1
100 450 1
392 450 1
415 450 1
423 450 1
450 450 1
99 451 1
101 451 1
393 451 1
416 451 1
424 451 1
451 451 1
100 452 1
102 452 1
394 452 1
417 452 1
425 452 1
452 452 1
101 453 1
103 453 1
395 453 1
418 453 1
426 453 1
453 453 1
102 454 1
104 454 1
396 454 1
419 454 1
427 454 1
454 454 1
103 455 1
105 455 1
397 455 1
420 455 1
428 455 1
455 455 1
106 456 1
139 456 1
351 456 1
370 456 1
456 456 1
459 456 1
107 457 1
140 457 1
352 457 1
371 457 1
457 457 1
460 457 1
106 458 1
108 458 1
353 458 1
372 458 1
458 458 1
461 458 1
107 459 1
109 459 1
354 459 1
373 459 1
459 459 1
462 459 1
108 460 1
110 460 1
355 460 1
374 460 1
460 460 1
463 460 1
109 461 1
111 461 1
356 461 1
375 461 1
461 461 1
464 461 1
110 462 1
112 462 1
357 462 1
376 462 1
462 462 1
465 462 1
111 463 1
113 463 1
358 463 1
377 463 1
463 463 1
466 463 1
112 464 1
114 464 1
359 464 1
378 464 1
464 464 1
467 464 1
113 465 1
115 465 1
360 465 1
379 465 1
465 465 1
468 465 1
114 466 1
116 466 1
361 466 1
380 466 1
466 466 1
469 466 1
115 467 1
117 467 1
362 467 1
381 467 1
467 467 1
470 467 1
116 468 1
118 468 1
363 468 1
382 468 1
468 468 1
471 468 1
117 469 1
119 469 1
364 469 1
383 469 1
469 469 1
472 469 1
118 470 1
120 470 1
365 470 1
384 470 1
470 470 1
473 470 1
119 471 1
121 471 1
366 471 1
385 471 1
471 471 1
474 471 1
120 472 1
122 472 1
351 472 1
367 472 1
472 472 1
475 472 1
121 473 1
123 473 1
352 473 1
368 473 1
473 473 1
476 473 1
122 474 1
124 474 1
353 474 1
369 474 1
474 474 1
477 474 1
123 475 1
125 475 1
354 475 1
370 475 1
475 475 1
478 475 1
124 476 1
126 476 1
355 476 1
371 476 1
476 476 1
479 476 1
125 477 1
127 477 1
356 477 1
372 477 1
477 477 1
480 477 1
126 478 1
128 478 1
357 478 1
373 478 1
478 478 1
481 478 1
127 479 1
129 479 1
358 479 1
374 479 1
479 479 1
482 479 1
128 480 1
130 480 1
359 480 1
375 480 1
480 480 1
483 480 1
129 481 1
131 481 1
360 481 1
376 481 1
481 481 1
484 481 1
130 482 1
132 482 1
361 482 1
377 482 1
482 482 1
485 482 1
131 483 1
133 483 1
362 483 1
378 483 1
483 483 1
486 483 1
132 484 1
134 484 1
363 484 1
379 484 1
484 484 1
487 484 1
133 485 1
135 485 1
364 485 1
380 485 1
485 485 1
488 485 1
134 486 1
136 486 1
365 486 1
381 486 1
486 486 1
489 486 1
135 487 1
137 487 1
366 487 1
382 487 1
487 487 1
490 487 1
136 488 1
138 488 1
367 488 1
383 488 1
456 488 1
488 488 1
137 489 1
139 489 1
368 489 1
384 489 1
457 489 1
489 489 1
138 490 1
140 490 1
369 490 1
385 490 1
458 490 1
490 490 1
141 491 1
174 491 1
386 491 1
405 491 1
456 491 1
464 491 1
142 492 1
175 492 1
387 492 1
406 492 1
457 492 1
465 492 1
141 493 1
143 493 1
388 493 1
407 493 1
458 493 1
466 493 1
142 494 1
144 494 1
389 494 1
408 494 1
459 494 1
467 494 1
143 495 1
145 495 1
390 495 1
409 495 1
460 495 1
468 495 1
144 496 1
146 496 1
391 496 1
410 496 1
461 496 1
469 496 1
145 497 1
147 497 1
392 497 1
411 497 1
462 497 1
470 497 1
146 498 1
148 498 1
393 498 1
412 498 1
463 498 1
471 498 1
147 499 1
149 499 1
394 499 1
413 499 1
464 499 1
472 499 1
148 500 1
150 500 1
395 500 1
414 500 1
465 500 1
473 500 1
149 501 1
151 501 1
396 501 1
415 501 1
466 501 1
474 501 1
150 502 1
152 502 1
397 502 1
416 502 1
467 502 1
475 502 1
151 503 1
153 503 1
398 503 1
417 503 1
468 503 1
476 503 1
152 504 1
154 504 1
399 504 1
418 504 1
469 504 1
477 504 1
153 505 1
155 505 1
400 505 1
419 505 1
470 505 1
478 505 1
154 506 1
156 506 1
401 506 1
420 506 1
471 506 1
479 506 1
155 507 1
157 507 1
386 507 1
402 507 1
472 507 1
480 507 1
156 508 1
158 508 1
387 508 1
403 508 1
473 508 1
481 508 1
157 509 1
159 509 1
388 509 1
404 509 1
474 509 1
482 509 1
158 510 1
160 510 1
389 510 1
405 510 1
475 510 1
483 510 1
159 511 1
161 511 1
390 511 1
406 511 1
476 511 1
484 511 1
160 512 1
162 512 1
391 512 1
407 512 1
477 512 1
485 512 1
161 513 1
163 513 1
392 513 1
408 513 1
478 513 1
486 513 1
162 514 1
164 514 1
393 514 1
409 514 1
479 514 1
487 514 1
163 515 1
165 515 1
394 515 1
410 515 1
480 515 1
488 515 1
164 516 1
166 516 1
395 516 1
411 516 1
481 516 1
489 516 1
165 517 1
167 517 1
396 517 1
412 517 1
482 517 1
490 517 1
166 518 1
168 518 1
397 518 1
413 518 1
456 518 1
483 518 1
167 519 1
169 519 1
398 519 1
414 519 1
457 519 1
484 519 1
168 520 1
170 520 1
399 520 1
415 520 1
458 520 1
485 520 1
169 521 1
171 521 1
400 521 1
416 521 1
459 521 1
486 521 1
170 522 1
172 522 1
401 522 1
417 522 1
460 522 1
487 522 1
171 523 1
173 523 1
402 523 1
418 523 1
461 523 1
488 523 1
172 524 1
174 524 1
403 524 1
419 524 1
462 524 1
489 524 1
173 525 1
175 525 1
404 525 1
420 525 1
463 525 1
490 525 1
176 526 1
209 526 1
421 526 1
440 526 1
456 526 1
468 526 1
177 527 1
210 527 1
422 527 1
441 527 1
457 527 1
469 527 1
176 528 1
178 528 1
423 528 1
442 528 1
458 528 1
470 528 1
177 529 1
179 529 1
424 529 1
443 529 1
459 529 1
471 529 1
178 530 1
180 530 1
425 530 1
444 530 1
460 530 1
472 530 1
179 531 1
181 531 1
426 531 1
445 531 1
461 531 1
473 531 1
180 532 1
182 532 1
427 532 1
446 532 1
462 532 1
474 532 1
181 533 1
183 533 1
428 533 1
447 533 1
463 533 1
475 533 1
182 534 1
184 534 1
429 534 1
448 534 1
464 534 1
476 534 1
183 535 1
185 535 1
430 535 1
449 535 1
465 535 1
477 535 1
184 536 1
186 536 1
431 536 1
450 536 1
466 536 1
478 536 1
185 537 1
187 537 1
432 537 1
451 537 1
467 537 1
479 537 1
186 538 1
188 538 1
433 538 1
452 538 1
468 538 1
480 538 1
187 539 1
189 539 1
434 539 1
453 539 1
469 539 1
481 539 1
188 540 1
190 540 1
435 540 1
454 540 1
470 540 1
482 540 1
189 541 1
191 541 1
436 541 1
455 541 1
471 541 1
483 541 1
190 542 1
192 542 1
421 542 1
437 542 1
472 542 1
484 542 1
191 543 1
193 543 1
422 543 1
438 543 1
473 543 1
485 543 1
192 544 1
194 544 1
423 544 1
439 544 1
474 544 1
486 544 1
193 545 1
195 545 1
424 545 1
440 545 1
475 545 1
487 545 1
194 546 1
196 546 1
425 546 1
441 546 1
476 546 1
488 546 1
195 547 1
197 547 1
426 547 1
442 547 1
477 547 1
489 547 1
196 548 1
198 548 1
427 548 1
443 548 1
478 548 1
490 548 1
197 549 1
199 549 1
428 549 1
444 549 1
456 549 1
479 549 1
198 550 1
200 550 1
429 550 1
445 550 1
457 550 1
480 550 1
199 551 1
201 551 1
430 551 1
446 551 1
458 551 1
481 551 1
200 552 1
202 552 1
431 552 1
447 552 1
459 552 1
482 552 1
201 553 1
203 553 1
432 553 1
448 553 1
460 553 1
483 553 1
202 554 1
204 554 1
433 554 1
449 554 1
461 554 1
484 554 1
203 555 1
205 555 1
434 555 1
450 555 1
462 555 1
485 555 1
204 556 1
206 556 1
435 556 1
451 556 1
463 556 1
486 556 1
205 557 1
207 557 1
436 557 1
452 557 1
464 557 1
487 557 1
206 558 1
208 558 1
437 558 1
453 558 1
465 558 1
488 558 1
207 559 1
209 559 1
438 559 1
454 559 1
466 559 1
489 559 1
208 560 1
210 560 1
439 560 1
455 560 1
467 560 1
490 560 1
211 561 1
244 561 1
351 561 1
376 561 1
491 561 1
494 561 1
212 562 1
245 562 1
352 562 1
377 562 1
492 562 1
495 562 1
211 563 1
213 563 1
353 563 1
378 563 1
493 563 1
496 563 1
212 564 1
214 564 1
354 564 1
379 564 1
494 564 1
497 564 1
213 565 1
215 565 1
355 565 1
380 565 1
495 565 1
498 565 1
214 566 1
216 566 1
356 566 1
381 566 1
496 566 1
499 566 1
215 567 1
217 567 1
357 567 1
382 567 1
497 567 1
500 567 1
216 568 1
218 568 1
358 568 1
383 568 1
498 568 1
501 568 1
217 569 1
219 569 1
359 569 1
384 569 1
499 569 1
502 569 1
218 570 1
220 570 1
360 570 1
385 570 1
500 570 1
503 570 1
219 571 1
221 571 1
351 571 1
361 571 1
501 571 1
504 571 1
220 572 1
222 572 1
352 572 1
362 572 1
502 572 1
505 572 1
221 573 1
223 573 1
353 573 1
363 573 1
503 573 1
506 573 1
222 574 1
224 574 1
354 574 1
364 574 1
504 574 1
507 574 1
223 575 1
225 575 1
355 575 1
365 575 1
505 575 1
508 575 1
224 576 1
226 576 1
356 576 1
366 576 1
506 576 1
509 576 1
225 577 1
227 577 1
357 577 1
367 577 1
507 577 1
510 577 1
226 578 1
228 578 1
358 578 1
368 578 1
508 578 1
511 578 1
227 579 1
229 579 1
359 579 1
369 579 1
509 579 1
512 579 1
228 580 1
230 580 1
360 580 1
370 580 1
510 580 1
513 580 1
229 581 1
231 581 1
361 581 1
371 581 1
511 581 1
514 581 1
230 582 1
232 582 1
362 582 1
372 582 1
512 582 1
515 582 1
231 583 1
233 583 1
363 583 1
373 583 1
513 583 1
516 583 1
232 584 1
234 584 1
364 584 1
374 584 1
514 584 1
517 584 1
233 585 1
235 585 1
365 585 1
375 585 1
515 585 1
518 585 1
234 586 1
236 586 1
366 586 1
376 586 1
516 586 1
519 586 1
235 587 1
237 587 1
367 587 1
377 587 1
517 587 1
520 587 1
236 588 1
238 588 1
368 588 1
378 588 1
518 588 1
521 588 1
237 589 1
239 589 1
369 589 1
379 589 1
519 589 1
522 589 1
238 590 1
240 590 1
370 590 1
380 590 1
520 590 1
523 590 1
239 591 1
241 591 1
371 591 1
381 591 1
521 591 1
524 591 1
240 592 1
242 592 1
372 592 1
382 592 1
522 592 1
525 592 1
241 593 1
243 593 1
373 593 1
383 593 1
491 593 1
523 593 1
242 594 1
244 594 1
374 594 1
384 594 1
492 594 1
524 594 1
243 595 1
245 595 1
375 595 1
385 595 1
493 595 1
525 595 1
246 596 1
279 596 1
386 596 1
411 596 1
491 596 1
499 596 1
247 597 1
280 597 1
387 597 1
412 597 1
492 597 1
500 597 1
246 598 1
248 598 1
388 598 1
413 598 1
493 598 1
501 598 1
247 599 1
249 599 1
389 599 1
414 599 1
494 599 1
502 599 1
248 600 1
250 600 1
390 600 1
415 600 1
495 600 1
503 600 1
249 601 1
251 601 1
391 601 1
416 601 1
496 601 1
504 601 1
250 602 1
252 602 1
392 602 1
417 602 1
497 602 1
505 602 1
251 603 1
253 603 1
393 603 1
418 603 1
498 603 1
506 603 1
252 604 1
254 604 1
394 604 1
419 604 1
499 604 1
507 604 1
253 605 1
255 605 1
395 605 1
420 605 1
500 605 1
508 605 1
254 606 1
256 606 1
386 606 1
396 606 1
501 606 1
509 606 1
255 607 1
257 607 1
387 607 1
397 607 1
502 607 1
510 607 1
256 608 1
258 608 1
388 608 1
398 608 1
503 608 1
511 608 1
257 609 1
259 609 1
389 609 1
399 609 1
504 609 1
512 609 1
258 610 1
260 610 1
390 610 1
400 610 1
505 610 1
513 610 1
259 611 1
261 611 1
391 611 1
401 611 1
506 611 1
514 611 1
260 612 1
262 612 1
392 612 1
402 612 1
507 612 1
515 612 1
261 613 1
263 613 1
393 613 1
403 613 1
508 613 1
516 613 1
262 614 1
264 614 1
394 614 1
404 614 1
509 614 1
517 614 1
263 615 1
265 615 1
395 615 1
405 615 1
510 615 1
518 615 1
264 616 1
266 616 1
396 616 1
406 616 1
511 616 1
519 616 1
265 617 1
267 617 1
397 617 1
407 617 1
512 617 1
520 617 1
266 618 1
268 618 1
398 618 1
408 618 1
513 618 1
521 618 1
267 619 1
269 619 1
399 619 1
409 619 1
514 619 1
522 619 1
268 620 1
270 620 1
400 620 1
410 620 1
515 620 1
523 620 1
269 621 1
271 621 1
401 621 1
411 621 1
516 621 1
524 621 1
270 622 1
272 622 1
402 622 1
412 622 1
517 622 1
525 622 1
271 623 1
273 623 1
403 623 1
413 623 1
491 623 1
518 623 1
272 624 1
274 624 1
404 624 1
414 624 1
492 624 1
519 624 1
273 625 1
275 625 1
405 625 1
415 625 1
493 625 1
520 625 1
274 626 1
276 626 1
406 626 1
416 626 1
494 626 1
521 626 1
275 627 1
277 627 1
407 627 1
417 627 1
495 627 1
522 627 1
276 628 1
278 628 1
408 628 1
418 628 1
496 628 1
523 628 1
277 629 1
279 629 1
409 629 1
419 629 1
497 629 1
524 629 1
278 630 1
280 630 1
410 630 1
420 630 1
498 630 1
525 630 1
281 631 1
314 631 1
421 631 1
446 631 1
491 631 1
503 631 1
282 632 1
315 632 1
422 632 1
447 632 1
492 632 1
504 632 1
281 633 1
283 633 1
423 633 1
448 633 1
493 633 1
505 633 1
282 634 1
284 634 1
424 634 1
449 634 1
494 634 1
506 634 1
283 635 1
285 635 1
425 635 1
450 635 1
495 635 1
507 635 1
284 636 1
286 636 1
426 636 1
451 636 1
496 636 1
508 636 1
285 637 1
287 637 1
427 637 1
452 637 1
497 637 1
509 637 1
286 638 1
288 638 1
428 638 1
453 638 1
498 638 1
510 638 1
287 639 1
289 639 1
429 639 1
454 639 1
499 639 1
511 639 1
288 640 1
290 640 1
430 640 1
455 640 1
500 640 1
512 640 1
289 641 1
291 641 1
421 641 1
431 641 1
501 641 1
513 641 1
290 642 1
292 642 1
422 642 1
432 642 1
502 642 1
514 642 1
291 643 1
293 643 1
423 643 1
433 643 1
503 643 1
515 643 1
292 644 1
294 644 1
424 644 1
434 644 1
504 644 1
516 644 1
293 645 1
295 645 1
425 645 1
435 645 1
505 645 1
517 645 1
294 646 1
296 646 1
426 646 1
436 646 1
506 646 1
518 646 1
295 647 1
297 647 1
427 647 1
437 647 1
507 647 1
519 647 1
296 648 1
298 648 1
428 648 1
438 648 1
508 648 1
520 648 1
297 649 1
299 649 1
429 649 1
439 649 1
509 649 1
521 649 1
298 650 1
300 650 1
430 650 1
440 650 1
510 650 1
522 650 1
299 651 1
301 651 1
431 651 1
441 651 1
511 651 1
523 651 1
300 652 1
302 652 1
432 652 1
442 652 1
512 652 1
524 652 1
301 653 1
303 653 1
433 653 1
443 653 1
513 653 1
525 653 1
302 654 1
304 654 1
434 654 1
444 654 1
491 654 1
514 654 1
303 655 1
305 655 1
435 655 1
445 655 1
492 655 1
515 655 1
304 656 1
306 656 1
436 656 1
446 656 1
493 656 1
516 656 1
305 657 1
307 657 1
437 657 1
447 657 1
494 657 1
517 657 1
306 658 1
308 658 1
438 658 1
448 658 1
495 658 1
518 658 1
307 659 1
309 659 1
439 659 1
449 659 1
496 659 1
519 659 1
308 660 1
310 660 1
440 660 1
450 660 1
497 660 1
520 660 1
309 661 1
311 661 1
441 661 1
451 661 1
498 661 1
521 661 1
310 662 1
312 662 1
442 662 1
452 662 1
499 662 1
522 662 1
311 663 1
313 663 1
443 663 1
453 663 1
500 663 1
523 663 1
312 664 1
314 664 1
444 664 1
454 664 1
501 664 1
524 664 1
313 665 1
315 665 1
445 665 1
455 665 1
502 665 1
525 665 1
316 666 1
349 666 1
456 666 1
481 666 1
491 666 1
510 666 1
317 667 1
350 667 1
457 667 1
482 667 1
492 667 1
511 667 1
316 668 1
318 668 1
458 668 1
483 668 1
493 668 1
512 668 1
317 669 1
319 669 1
459 669 1
484 669 1
494 669 1
513 669 1
318 670 1
320 670 1
460 670 1
485 670 1
495 670 1
514 670 1
319 671 1
321 671 1
461 671 1
486 671 1
496 671 1
515 671 1
320 672 1
322 672 1
462 672 1
487 672 1
497 672 1
516 672 1
321 673 1
323 673 1
463 673 1
488 673 1
498 673 1
517 673 1
322 674 1
324 674 1
464 674 1
489 674 1
499 674 1
518 674 1
323 675 1
325 675 1
465 675 1
490 675 1
500 675 1
519 675 1
324 676 1
326 676 1
456 676 1
466 676 1
501 676 1
520 676 1
325 677 1
327 677 1
457 677 1
467 677 1
502 677 1
521 677 1
326 678 1
328 678 1
458 678 1
468 678 1
503 678 1
522 678 1
327 679 1
329 679 1
459 679 1
469 679 1
504 679 1
523 679 1
328 680 1
330 680 1
460 680 1
470 680 1
505 680 1
524 680 1
329 681 1
331 681 1
461 681 1
471 681 1
506 681 1
525 681 1
330 682 1
332 682 1
462 682 1
472 682 1
491 682 1
507 682 1
331 683 1
333 683 1
463 683 1
473 683 1
492 683 1
508 683 1
332 684 1
334 684 1
464 684 1
474 684 1
493 684 1
509 684 1
333 685 1
335 685 1
465 685 1
475 685 1
494 685 1
510 685 1
334 686 1
336 686 1
466 686 1
476 686 1
495 686 1
511 686 1
335 687 1
337 687 1
467 687 1
477 687 1
496 687 1
512 687 1
336 688 1
338 688 1
468 688 1
478 688 1
497 688 1
513 688 1
337 689 1
339 689 1
469 689 1
479 689 1
498 689 1
514 689 1
338 690 1
340 690 1
470 690 1
480 690 1
499 690 1
515 690 1
339 691 1
341 691 1
471 691 1
481 691 1
500 691 1
516 691 1
340 692 1
342 692 1
472 692 1
482 692 1
501 692 1
517 692 1
341 693 1
343 693 1
473 693 1
483 693 1
502 693 1
518 693 1
342 694 1
344 694 1
474 694 1
484 694 1
503 694 1
519 694 1
343 695 1
345 695 1
475 695 1
485 695 1
504 695 1
520 695 1
344 696 1
346 696 1
476 696 1
486 696 1
505 696 1
521 696 1
345 697 1
347 697 1
477 697 1
487 697 1
506 697 1
522 697 1
346 698 1
348 698 1
478 698 1
488 698 1
507 698 1
523 698 1
347 699 1
349 699 1
479 699 1
489 699 1
508 699 1
524 699 1
348 700 1
350 700 1
480 700 1
490 700 1
509 700 1
525 700 1
