%%MatrixMarket matrix coordinate integer general
% Binary matrix; one-based indices; arithmetic over GF(2)
288 432 2592
55 1 1
62 1 1
67 1 1
97 1 1
125 1 1
128 1 1
56 2 1
63 2 1
68 2 1
98 2 1
126 2 1
129 2 1
57 3 1
64 3 1
69 3 1
99 3 1
121 3 1
130 3 1
58 4 1
65 4 1
70 4 1
100 4 1
122 4 1
131 4 1
59 5 1
66 5 1
71 5 1
101 5 1
123 5 1
132 5 1
60 6 1
61 6 1
72 6 1
102 6 1
124 6 1
127 6 1
55 7 1
61 7 1
68 7 1
103 7 1
113 7 1
134 7 1
56 8 1
62 8 1
69 8 1
104 8 1
114 8 1
135 8 1
57 9 1
63 9 1
70 9 1
105 9 1
109 9 1
136 9 1
58 10 1
64 10 1
71 10 1
106 10 1
110 10 1
137 10 1
59 11 1
65 11 1
72 11 1
107 11 1
111 11 1
138 11 1
60 12 1
66 12 1
67 12 1
108 12 1
112 12 1
133 12 1
56 13 1
61 13 1
67 13 1
91 13 1
119 13 1
140 13 1
57 14 1
62 14 1
68 14 1
92 14 1
120 14 1
141 14 1
58 15 1
63 15 1
69 15 1
93 15 1
115 15 1
142 15 1
59 16 1
64 16 1
70 16 1
94 16 1
116 16 1
143 16 1
60 17 1
65 17 1
71 17 1
95 17 1
117 17 1
144 17 1
55 18 1
66 18 1
72 18 1
96 18 1
118 18 1
139 18 1
37 19 1
44 19 1
49 19 1
79 19 1
110 19 1
143 19 1
38 20 1
45 20 1
50 20 1
80 20 1
111 20 1
144 20 1
39 21 1
46 21 1
51 21 1
81 21 1
112 21 1
139 21 1
40 22 1
47 22 1
52 22 1
82 22 1
113 22 1
140 22 1
41 23 1
48 23 1
53 23 1
83 23 1
114 23 1
141 23 1
42 24 1
43 24 1
54 24 1
84 24 1
109 24 1
142 24 1
37 25 1
43 25 1
50 25 1
85 25 1
116 25 1
131 25 1
38 26 1
44 26 1
51 26 1
86 26 1
117 26 1
132 26 1
39 27 1
45 27 1
52 27 1
87 27 1
118 27 1
127 27 1
40 28 1
46 28 1
53 28 1
88 28 1
119 28 1
128 28 1
41 29 1
47 29 1
54 29 1
89 29 1
120 29 1
129 29 1
42 30 1
48 30 1
49 30 1
90 30 1
115 30 1
130 30 1
38 31 1
43 31 1
49 31 1
73 31 1
122 31 1
137 31 1
39 32 1
44 32 1
50 32 1
74 32 1
123 32 1
138 32 1
40 33 1
45 33 1
51 33 1
75 33 1
124 33 1
133 33 1
41 34 1
46 34 1
52 34 1
76 34 1
125 34 1
134 34 1
42 35 1
47 35 1
53 35 1
77 35 1
126 35 1
135 35 1
37 36 1
48 36 1
54 36 1
78 36 1
121 36 1
136 36 1
19 37 1
26 37 1
31 37 1
89 37 1
92 37 1
133 37 1
20 38 1
27 38 1
32 38 1
90 38 1
93 38 1
134 38 1
21 39 1
28 39 1
33 39 1
85 39 1
94 39 1
135 39 1
22 40 1
29 40 1
34 40 1
86 40 1
95 40 1
136 40 1
23 41 1
30 41 1
35 41 1
87 41 1
96 41 1
137 41 1
24 42 1
25 42 1
36 42 1
88 42 1
91 42 1
138 42 1
19 43 1
25 43 1
32 43 1
77 43 1
98 43 1
139 43 1
20 44 1
26 44 1
33 44 1
78 44 1
99 44 1
140 44 1
21 45 1
27 45 1
34 45 1
73 45 1
100 45 1
141 45 1
22 46 1
28 46 1
35 46 1
74 46 1
101 46 1
142 46 1
23 47 1
29 47 1
36 47 1
75 47 1
102 47 1
143 47 1
24 48 1
30 48 1
31 48 1
76 48 1
97 48 1
144 48 1
20 49 1
25 49 1
31 49 1
83 49 1
104 49 1
127 49 1
21 50 1
26 50 1
32 50 1
84 50 1
105 50 1
128 50 1
22 51 1
27 51 1
33 51 1
79 51 1
106 51 1
129 51 1
23 52 1
28 52 1
34 52 1
80 52 1
107 52 1
130 52 1
24 53 1
29 53 1
35 53 1
81 53 1
108 53 1
131 53 1
19 54 1
30 54 1
36 54 1
82 54 1
103 54 1
132 54 1
1 55 1
8 55 1
13 55 1
74 55 1
107 55 1
115 55 1
2 56 1
9 56 1
14 56 1
75 56 1
108 56 1
116 56 1
3 57 1
10 57 1
15 57 1
76 57 1
103 57 1
117 57 1
4 58 1
11 58 1
16 58 1
77 58 1
104 58 1
118 58 1
5 59 1
12 59 1
17 59 1
78 59 1
105 59 1
119 59 1
6 60 1
7 60 1
18 60 1
73 60 1
106 60 1
120 60 1
1 61 1
7 61 1
14 61 1
80 61 1
95 61 1
121 61 1
2 62 1
8 62 1
15 62 1
81 62 1
96 62 1
122 62 1
3 63 1
9 63 1
16 63 1
82 63 1
91 63 1
123 63 1
4 64 1
10 64 1
17 64 1
83 64 1
92 64 1
124 64 1
5 65 1
11 65 1
18 65 1
84 65 1
93 65 1
125 65 1
6 66 1
12 66 1
13 66 1
79 66 1
94 66 1
126 66 1
2 67 1
7 67 1
13 67 1
86 67 1
101 67 1
109 67 1
3 68 1
8 68 1
14 68 1
87 68 1
102 68 1
110 68 1
4 69 1
9 69 1
15 69 1
88 69 1
97 69 1
111 69 1
5 70 1
10 70 1
16 70 1
89 70 1
98 70 1
112 70 1
6 71 1
11 71 1
17 71 1
90 71 1
99 71 1
113 71 1
1 72 1
12 72 1
18 72 1
85 72 1
100 72 1
114 72 1
21 73 1
44 73 1
71 73 1
169 73 1
197 73 1
200 73 1
22 74 1
45 74 1
72 74 1
170 74 1
198 74 1
201 74 1
23 75 1
46 75 1
67 75 1
171 75 1
193 75 1
202 75 1
24 76 1
47 76 1
68 76 1
172 76 1
194 76 1
203 76 1
19 77 1
48 77 1
69 77 1
173 77 1
195 77 1
204 77 1
20 78 1
43 78 1
70 78 1
174 78 1
196 78 1
199 78 1
27 79 1
50 79 1
59 79 1
175 79 1
185 79 1
206 79 1
28 80 1
51 80 1
60 80 1
176 80 1
186 80 1
207 80 1
29 81 1
52 81 1
55 81 1
177 81 1
181 81 1
208 81 1
30 82 1
53 82 1
56 82 1
178 82 1
182 82 1
209 82 1
25 83 1
54 83 1
57 83 1
179 83 1
183 83 1
210 83 1
26 84 1
49 84 1
58 84 1
180 84 1
184 84 1
205 84 1
33 85 1
38 85 1
65 85 1
163 85 1
191 85 1
212 85 1
34 86 1
39 86 1
66 86 1
164 86 1
192 86 1
213 86 1
35 87 1
40 87 1
61 87 1
165 87 1
187 87 1
214 87 1
36 88 1
41 88 1
62 88 1
166 88 1
188 88 1
215 88 1
31 89 1
42 89 1
63 89 1
167 89 1
189 89 1
216 89 1
32 90 1
37 90 1
64 90 1
168 90 1
190 90 1
211 90 1
3 91 1
53 91 1
62 91 1
151 91 1
182 91 1
215 91 1
4 92 1
54 92 1
63 92 1
152 92 1
183 92 1
216 92 1
5 93 1
49 93 1
64 93 1
153 93 1
184 93 1
211 93 1
6 94 1
50 94 1
65 94 1
154 94 1
185 94 1
212 94 1
1 95 1
51 95 1
66 95 1
155 95 1
186 95 1
213 95 1
2 96 1
52 96 1
61 96 1
156 96 1
181 96 1
214 96 1
9 97 1
41 97 1
68 97 1
157 97 1
188 97 1
203 97 1
10 98 1
42 98 1
69 98 1
158 98 1
189 98 1
204 98 1
11 99 1
37 99 1
70 99 1
159 99 1
190 99 1
199 99 1
12 100 1
38 100 1
71 100 1
160 100 1
191 100 1
200 100 1
7 101 1
39 101 1
72 101 1
161 101 1
192 101 1
201 101 1
8 102 1
40 102 1
67 102 1
162 102 1
187 102 1
202 102 1
15 103 1
47 103 1
56 103 1
145 103 1
194 103 1
209 103 1
16 104 1
48 104 1
57 104 1
146 104 1
195 104 1
210 104 1
17 105 1
43 105 1
58 105 1
147 105 1
196 105 1
205 105 1
18 106 1
44 106 1
59 106 1
148 106 1
197 106 1
206 106 1
13 107 1
45 107 1
60 107 1
149 107 1
198 107 1
207 107 1
14 108 1
46 108 1
55 108 1
150 108 1
193 108 1
208 108 1
8 109 1
35 109 1
57 109 1
161 109 1
164 109 1
205 109 1
9 110 1
36 110 1
58 110 1
162 110 1
165 110 1
206 110 1
10 111 1
31 111 1
59 111 1
157 111 1
166 111 1
207 111 1
11 112 1
32 112 1
60 112 1
158 112 1
167 112 1
208 112 1
12 113 1
33 113 1
55 113 1
159 113 1
168 113 1
209 113 1
7 114 1
34 114 1
56 114 1
160 114 1
163 114 1
210 114 1
14 115 1
23 115 1
63 115 1
149 115 1
170 115 1
211 115 1
15 116 1
24 116 1
64 116 1
150 116 1
171 116 1
212 116 1
16 117 1
19 117 1
65 117 1
145 117 1
172 117 1
213 117 1
17 118 1
20 118 1
66 118 1
146 118 1
173 118 1
214 118 1
18 119 1
21 119 1
61 119 1
147 119 1
174 119 1
215 119 1
13 120 1
22 120 1
62 120 1
148 120 1
169 120 1
216 120 1
2 121 1
29 121 1
69 121 1
155 121 1
176 121 1
199 121 1
3 122 1
30 122 1
70 122 1
156 122 1
177 122 1
200 122 1
4 123 1
25 123 1
71 123 1
151 123 1
178 123 1
201 123 1
5 124 1
26 124 1
72 124 1
152 124 1
179 124 1
202 124 1
6 125 1
27 125 1
67 125 1
153 125 1
180 125 1
203 125 1
1 126 1
28 126 1
68 126 1
154 126 1
175 126 1
204 126 1
17 127 1
26 127 1
39 127 1
146 127 1
179 127 1
187 127 1
18 128 1
27 128 1
40 128 1
147 128 1
180 128 1
188 128 1
13 129 1
28 129 1
41 129 1
148 129 1
175 129 1
189 129 1
14 130 1
29 130 1
42 130 1
149 130 1
176 130 1
190 130 1
15 131 1
30 131 1
37 131 1
150 131 1
177 131 1
191 131 1
16 132 1
25 132 1
38 132 1
145 132 1
178 132 1
192 132 1
5 133 1
32 133 1
45 133 1
152 133 1
167 133 1
193 133 1
6 134 1
33 134 1
46 134 1
153 134 1
168 134 1
194 134 1
1 135 1
34 135 1
47 135 1
154 135 1
163 135 1
195 135 1
2 136 1
35 136 1
48 136 1
155 136 1
164 136 1
196 136 1
3 137 1
36 137 1
43 137 1
156 137 1
165 137 1
197 137 1
4 138 1
31 138 1
44 138 1
151 138 1
166 138 1
198 138 1
11 139 1
20 139 1
51 139 1
158 139 1
173 139 1
181 139 1
12 140 1
21 140 1
52 140 1
159 140 1
174 140 1
182 140 1
7 141 1
22 141 1
53 141 1
160 141 1
169 141 1
183 141 1
8 142 1
23 142 1
54 142 1
161 142 1
170 142 1
184 142 1
9 143 1
24 143 1
49 143 1
162 143 1
171 143 1
185 143 1
10 144 1
19 144 1
50 144 1
157 144 1
172 144 1
186 144 1
23 145 1
47 145 1
72 145 1
241 145 1
269 145 1
272 145 1
24 146 1
48 146 1
67 146 1
242 146 1
270 146 1
273 146 1
19 147 1
43 147 1
68 147 1
243 147 1
265 147 1
274 147 1
20 148 1
44 148 1
69 148 1
244 148 1
266 148 1
275 148 1
21 149 1
45 149 1
70 149 1
245 149 1
267 149 1
276 149 1
22 150 1
46 150 1
71 150 1
246 150 1
268 150 1
271 150 1
29 151 1
53 151 1
60 151 1
247 151 1
257 151 1
278 151 1
30 152 1
54 152 1
55 152 1
248 152 1
258 152 1
279 152 1
25 153 1
49 153 1
56 153 1
249 153 1
253 153 1
280 153 1
26 154 1
50 154 1
57 154 1
250 154 1
254 154 1
281 154 1
27 155 1
51 155 1
58 155 1
251 155 1
255 155 1
282 155 1
28 156 1
52 156 1
59 156 1
252 156 1
256 156 1
277 156 1
35 157 1
41 157 1
66 157 1
235 157 1
263 157 1
284 157 1
36 158 1
42 158 1
61 158 1
236 158 1
264 158 1
285 158 1
31 159 1
37 159 1
62 159 1
237 159 1
259 159 1
286 159 1
32 160 1
38 160 1
63 160 1
238 160 1
260 160 1
287 160 1
33 161 1
39 161 1
64 161 1
239 161 1
261 161 1
288 161 1
34 162 1
40 162 1
65 162 1
240 162 1
262 162 1
283 162 1
5 163 1
54 163 1
65 163 1
223 163 1
254 163 1
287 163 1
6 164 1
49 164 1
66 164 1
224 164 1
255 164 1
288 164 1
1 165 1
50 165 1
61 165 1
225 165 1
256 165 1
283 165 1
2 166 1
51 166 1
62 166 1
226 166 1
257 166 1
284 166 1
3 167 1
52 167 1
63 167 1
227 167 1
258 167 1
285 167 1
4 168 1
53 168 1
64 168 1
228 168 1
253 168 1
286 168 1
11 169 1
42 169 1
71 169 1
229 169 1
260 169 1
275 169 1
12 170 1
37 170 1
72 170 1
230 170 1
261 170 1
276 170 1
7 171 1
38 171 1
67 171 1
231 171 1
262 171 1
271 171 1
8 172 1
39 172 1
68 172 1
232 172 1
263 172 1
272 172 1
9 173 1
40 173 1
69 173 1
233 173 1
264 173 1
273 173 1
10 174 1
41 174 1
70 174 1
234 174 1
259 174 1
274 174 1
17 175 1
48 175 1
59 175 1
217 175 1
266 175 1
281 175 1
18 176 1
43 176 1
60 176 1
218 176 1
267 176 1
282 176 1
13 177 1
44 177 1
55 177 1
219 177 1
268 177 1
277 177 1
14 178 1
45 178 1
56 178 1
220 178 1
269 178 1
278 178 1
15 179 1
46 179 1
57 179 1
221 179 1
270 179 1
279 179 1
16 180 1
47 180 1
58 180 1
222 180 1
265 180 1
280 180 1
11 181 1
36 181 1
59 181 1
233 181 1
236 181 1
277 181 1
12 182 1
31 182 1
60 182 1
234 182 1
237 182 1
278 182 1
7 183 1
32 183 1
55 183 1
229 183 1
238 183 1
279 183 1
8 184 1
33 184 1
56 184 1
230 184 1
239 184 1
280 184 1
9 185 1
34 185 1
57 185 1
231 185 1
240 185 1
281 185 1
10 186 1
35 186 1
58 186 1
232 186 1
235 186 1
282 186 1
17 187 1
24 187 1
65 187 1
221 187 1
242 187 1
283 187 1
18 188 1
19 188 1
66 188 1
222 188 1
243 188 1
284 188 1
13 189 1
20 189 1
61 189 1
217 189 1
244 189 1
285 189 1
14 190 1
21 190 1
62 190 1
218 190 1
245 190 1
286 190 1
15 191 1
22 191 1
63 191 1
219 191 1
246 191 1
287 191 1
16 192 1
23 192 1
64 192 1
220 192 1
241 192 1
288 192 1
5 193 1
30 193 1
71 193 1
227 193 1
248 193 1
271 193 1
6 194 1
25 194 1
72 194 1
228 194 1
249 194 1
272 194 1
1 195 1
26 195 1
67 195 1
223 195 1
250 195 1
273 195 1
2 196 1
27 196 1
68 196 1
224 196 1
251 196 1
274 196 1
3 197 1
28 197 1
69 197 1
225 197 1
252 197 1
275 197 1
4 198 1
29 198 1
70 198 1
226 198 1
247 198 1
276 198 1
18 199 1
29 199 1
41 199 1
218 199 1
251 199 1
259 199 1
13 200 1
30 200 1
42 200 1
219 200 1
252 200 1
260 200 1
14 201 1
25 201 1
37 201 1
220 201 1
247 201 1
261 201 1
15 202 1
26 202 1
38 202 1
221 202 1
248 202 1
262 202 1
16 203 1
27 203 1
39 203 1
222 203 1
249 203 1
263 203 1
17 204 1
28 204 1
40 204 1
217 204 1
250 204 1
264 204 1
6 205 1
35 205 1
47 205 1
224 205 1
239 205 1
265 205 1
1 206 1
36 206 1
48 206 1
225 206 1
240 206 1
266 206 1
2 207 1
31 207 1
43 207 1
226 207 1
235 207 1
267 207 1
3 208 1
32 208 1
44 208 1
227 208 1
236 208 1
268 208 1
4 209 1
33 209 1
45 209 1
228 209 1
237 209 1
269 209 1
5 210 1
34 210 1
46 210 1
223 210 1
238 210 1
270 210 1
12 211 1
23 211 1
53 211 1
230 211 1
245 211 1
253 211 1
7 212 1
24 212 1
54 212 1
231 212 1
246 212 1
254 212 1
8 213 1
19 213 1
49 213 1
232 213 1
241 213 1
255 213 1
9 214 1
20 214 1
50 214 1
233 214 1
242 214 1
256 214 1
10 215 1
21 215 1
51 215 1
234 215 1
243 215 1
257 215 1
11 216 1
22 216 1
52 216 1
229 216 1
244 216 1
258 216 1
93 217 1
116 217 1
143 217 1
199 217 1
206 217 1
211 217 1
94 218 1
117 218 1
144 218 1
200 218 1
207 218 1
212 218 1
95 219 1
118 219 1
139 219 1
201 219 1
208 219 1
213 219 1
96 220 1
119 220 1
140 220 1
202 220 1
209 220 1
214 220 1
91 221 1
120 221 1
141 221 1
203 221 1
210 221 1
215 221 1
92 222 1
115 222 1
142 222 1
204 222 1
205 222 1
216 222 1
99 223 1
122 223 1
131 223 1
199 223 1
205 223 1
212 223 1
100 224 1
123 224 1
132 224 1
200 224 1
206 224 1
213 224 1
101 225 1
124 225 1
127 225 1
201 225 1
207 225 1
214 225 1
102 226 1
125 226 1
128 226 1
202 226 1
208 226 1
215 226 1
97 227 1
126 227 1
129 227 1
203 227 1
209 227 1
216 227 1
98 228 1
121 228 1
130 228 1
204 228 1
210 228 1
211 228 1
105 229 1
110 229 1
137 229 1
200 229 1
205 229 1
211 229 1
106 230 1
111 230 1
138 230 1
201 230 1
206 230 1
212 230 1
107 231 1
112 231 1
133 231 1
202 231 1
207 231 1
213 231 1
108 232 1
113 232 1
134 232 1
203 232 1
208 232 1
214 232 1
103 233 1
114 233 1
135 233 1
204 233 1
209 233 1
215 233 1
104 234 1
109 234 1
136 234 1
199 234 1
210 234 1
216 234 1
75 235 1
125 235 1
134 235 1
181 235 1
188 235 1
193 235 1
76 236 1
126 236 1
135 236 1
182 236 1
189 236 1
194 236 1
77 237 1
121 237 1
136 237 1
183 237 1
190 237 1
195 237 1
78 238 1
122 238 1
137 238 1
184 238 1
191 238 1
196 238 1
73 239 1
123 239 1
138 239 1
185 239 1
192 239 1
197 239 1
74 240 1
124 240 1
133 240 1
186 240 1
187 240 1
198 240 1
81 241 1
113 241 1
140 241 1
181 241 1
187 241 1
194 241 1
82 242 1
114 242 1
141 242 1
182 242 1
188 242 1
195 242 1
83 243 1
109 243 1
142 243 1
183 243 1
189 243 1
196 243 1
84 244 1
110 244 1
143 244 1
184 244 1
190 244 1
197 244 1
79 245 1
111 245 1
144 245 1
185 245 1
191 245 1
198 245 1
80 246 1
112 246 1
139 246 1
186 246 1
192 246 1
193 246 1
87 247 1
119 247 1
128 247 1
182 247 1
187 247 1
193 247 1
88 248 1
120 248 1
129 248 1
183 248 1
188 248 1
194 248 1
89 249 1
115 249 1
130 249 1
184 249 1
189 249 1
195 249 1
90 250 1
116 250 1
131 250 1
185 250 1
190 250 1
196 250 1
85 251 1
117 251 1
132 251 1
186 251 1
191 251 1
197 251 1
86 252 1
118 252 1
127 252 1
181 252 1
192 252 1
198 252 1
80 253 1
107 253 1
129 253 1
163 253 1
170 253 1
175 253 1
81 254 1
108 254 1
130 254 1
164 254 1
171 254 1
176 254 1
82 255 1
103 255 1
131 255 1
165 255 1
172 255 1
177 255 1
83 256 1
104 256 1
132 256 1
166 256 1
173 256 1
178 256 1
84 257 1
105 257 1
127 257 1
167 257 1
174 257 1
179 257 1
79 258 1
106 258 1
128 258 1
168 258 1
169 258 1
180 258 1
86 259 1
95 259 1
135 259 1
163 259 1
169 259 1
176 259 1
87 260 1
96 260 1
136 260 1
164 260 1
170 260 1
177 260 1
88 261 1
91 261 1
137 261 1
165 261 1
171 261 1
178 261 1
89 262 1
92 262 1
138 262 1
166 262 1
172 262 1
179 262 1
90 263 1
93 263 1
133 263 1
167 263 1
173 263 1
180 263 1
85 264 1
94 264 1
134 264 1
168 264 1
174 264 1
175 264 1
74 265 1
101 265 1
141 265 1
164 265 1
169 265 1
175 265 1
75 266 1
102 266 1
142 266 1
165 266 1
170 266 1
176 266 1
76 267 1
97 267 1
143 267 1
166 267 1
171 267 1
177 267 1
77 268 1
98 268 1
144 268 1
167 268 1
172 268 1
178 268 1
78 269 1
99 269 1
139 269 1
168 269 1
173 269 1
179 269 1
73 270 1
100 270 1
140 270 1
163 270 1
174 270 1
180 270 1
89 271 1
98 271 1
111 271 1
145 271 1
152 271 1
157 271 1
90 272 1
99 272 1
112 272 1
146 272 1
153 272 1
158 272 1
85 273 1
100 273 1
113 273 1
147 273 1
154 273 1
159 273 1
86 274 1
101 274 1
114 274 1
148 274 1
155 274 1
160 274 1
87 275 1
102 275 1
109 275 1
149 275 1
156 275 1
161 275 1
88 276 1
97 276 1
110 276 1
150 276 1
151 276 1
162 276 1
77 277 1
104 277 1
117 277 1
145 277 1
151 277 1
158 277 1
78 278 1
105 278 1
118 278 1
146 278 1
152 278 1
159 278 1
73 279 1
106 279 1
119 279 1
147 279 1
153 279 1
160 279 1
74 280 1
107 280 1
120 280 1
148 280 1
154 280 1
161 280 1
75 281 1
108 281 1
115 281 1
149 281 1
155 281 1
162 281 1
76 282 1
103 282 1
116 282 1
150 282 1
156 282 1
157 282 1
83 283 1
92 283 1
123 283 1
146 283 1
151 283 1
157 283 1
84 284 1
93 284 1
124 284 1
147 284 1
152 284 1
158 284 1
79 285 1
94 285 1
125 285 1
148 285 1
153 285 1
159 285 1
80 286 1
95 286 1
126 286 1
149 286 1
154 286 1
160 286 1
81 287 1
96 287 1
121 287 1
150 287 1
155 287 1
161 287 1
82 288 1
91 288 1
122 288 1
145 288 1
156 288 1
162 288 1
95 289 1
119 289 1
144 289 1
271 289 1
278 289 1
283 289 1
96 290 1
120 290 1
139 290 1
272 290 1
279 290 1
284 290 1
91 291 1
115 291 1
140 291 1
273 291 1
280 291 1
285 291 1
92 292 1
116 292 1
141 292 1
274 292 1
281 292 1
286 292 1
93 293 1
117 293 1
142 293 1
275 293 1
282 293 1
287 293 1
94 294 1
118 294 1
143 294 1
276 294 1
277 294 1
288 294 1
101 295 1
125 295 1
132 295 1
271 295 1
277 295 1
284 295 1
102 296 1
126 296 1
127 296 1
272 296 1
278 296 1
285 296 1
97 297 1
121 297 1
128 297 1
273 297 1
279 297 1
286 297 1
98 298 1
122 298 1
129 298 1
274 298 1
280 298 1
287 298 1
99 299 1
123 299 1
130 299 1
275 299 1
281 299 1
288 299 1
100 300 1
124 300 1
131 300 1
276 300 1
282 300 1
283 300 1
107 301 1
113 301 1
138 301 1
272 301 1
277 301 1
283 301 1
108 302 1
114 302 1
133 302 1
273 302 1
278 302 1
284 302 1
103 303 1
109 303 1
134 303 1
274 303 1
279 303 1
285 303 1
104 304 1
110 304 1
135 304 1
275 304 1
280 304 1
286 304 1
105 305 1
111 305 1
136 305 1
276 305 1
281 305 1
287 305 1
106 306 1
112 306 1
137 306 1
271 306 1
282 306 1
288 306 1
77 307 1
126 307 1
137 307 1
253 307 1
260 307 1
265 307 1
78 308 1
121 308 1
138 308 1
254 308 1
261 308 1
266 308 1
73 309 1
122 309 1
133 309 1
255 309 1
262 309 1
267 309 1
74 310 1
123 310 1
134 310 1
256 310 1
263 310 1
268 310 1
75 311 1
124 311 1
135 311 1
257 311 1
264 311 1
269 311 1
76 312 1
125 312 1
136 312 1
258 312 1
259 312 1
270 312 1
83 313 1
114 313 1
143 313 1
253 313 1
259 313 1
266 313 1
84 314 1
109 314 1
144 314 1
254 314 1
260 314 1
267 314 1
79 315 1
110 315 1
139 315 1
255 315 1
261 315 1
268 315 1
80 316 1
111 316 1
140 316 1
256 316 1
262 316 1
269 316 1
81 317 1
112 317 1
141 317 1
257 317 1
263 317 1
270 317 1
82 318 1
113 318 1
142 318 1
258 318 1
264 318 1
265 318 1
89 319 1
120 319 1
131 319 1
254 319 1
259 319 1
265 319 1
90 320 1
115 320 1
132 320 1
255 320 1
260 320 1
266 320 1
85 321 1
116 321 1
127 321 1
256 321 1
261 321 1
267 321 1
86 322 1
117 322 1
128 322 1
257 322 1
262 322 1
268 322 1
87 323 1
118 323 1
129 323 1
258 323 1
263 323 1
269 323 1
88 324 1
119 324 1
130 324 1
253 324 1
264 324 1
270 324 1
83 325 1
108 325 1
131 325 1
235 325 1
242 325 1
247 325 1
84 326 1
103 326 1
132 326 1
236 326 1
243 326 1
248 326 1
79 327 1
104 327 1
127 327 1
237 327 1
244 327 1
249 327 1
80 328 1
105 328 1
128 328 1
238 328 1
245 328 1
250 328 1
81 329 1
106 329 1
129 329 1
239 329 1
246 329 1
251 329 1
82 330 1
107 330 1
130 330 1
240 330 1
241 330 1
252 330 1
89 331 1
96 331 1
137 331 1
235 331 1
241 331 1
248 331 1
90 332 1
91 332 1
138 332 1
236 332 1
242 332 1
249 332 1
85 333 1
92 333 1
133 333 1
237 333 1
243 333 1
250 333 1
86 334 1
93 334 1
134 334 1
238 334 1
244 334 1
251 334 1
87 335 1
94 335 1
135 335 1
239 335 1
245 335 1
252 335 1
88 336 1
95 336 1
136 336 1
240 336 1
246 336 1
247 336 1
77 337 1
102 337 1
143 337 1
236 337 1
241 337 1
247 337 1
78 338 1
97 338 1
144 338 1
237 338 1
242 338 1
248 338 1
73 339 1
98 339 1
139 339 1
238 339 1
243 339 1
249 339 1
74 340 1
99 340 1
140 340 1
239 340 1
244 340 1
250 340 1
75 341 1
100 341 1
141 341 1
240 341 1
245 341 1
251 341 1
76 342 1
101 342 1
142 342 1
235 342 1
246 342 1
252 342 1
90 343 1
101 343 1
113 343 1
217 343 1
224 343 1
229 343 1
85 344 1
102 344 1
114 344 1
218 344 1
225 344 1
230 344 1
86 345 1
97 345 1
109 345 1
219 345 1
226 345 1
231 345 1
87 346 1
98 346 1
110 346 1
220 346 1
227 346 1
232 346 1
88 347 1
99 347 1
111 347 1
221 347 1
228 347 1
233 347 1
89 348 1
100 348 1
112 348 1
222 348 1
223 348 1
234 348 1
78 349 1
107 349 1
119 349 1
217 349 1
223 349 1
230 349 1
73 350 1
108 350 1
120 350 1
218 350 1
224 350 1
231 350 1
74 351 1
103 351 1
115 351 1
219 351 1
225 351 1
232 351 1
75 352 1
104 352 1
116 352 1
220 352 1
226 352 1
233 352 1
76 353 1
105 353 1
117 353 1
221 353 1
227 353 1
234 353 1
77 354 1
106 354 1
118 354 1
222 354 1
228 354 1
229 354 1
84 355 1
95 355 1
125 355 1
218 355 1
223 355 1
229 355 1
79 356 1
96 356 1
126 356 1
219 356 1
224 356 1
230 356 1
80 357 1
91 357 1
121 357 1
220 357 1
225 357 1
231 357 1
81 358 1
92 358 1
122 358 1
221 358 1
226 358 1
232 358 1
82 359 1
93 359 1
123 359 1
222 359 1
227 359 1
233 359 1
83 360 1
94 360 1
124 360 1
217 360 1
228 360 1
234 360 1
167 361 1
191 361 1
216 361 1
237 361 1
260 361 1
287 361 1
168 362 1
192 362 1
211 362 1
238 362 1
261 362 1
288 362 1
163 363 1
187 363 1
212 363 1
239 363 1
262 363 1
283 363 1
164 364 1
188 364 1
213 364 1
240 364 1
263 364 1
284 364 1
165 365 1
189 365 1
214 365 1
235 365 1
264 365 1
285 365 1
166 366 1
190 366 1
215 366 1
236 366 1
259 366 1
286 366 1
173 367 1
197 367 1
204 367 1
243 367 1
266 367 1
275 367 1
174 368 1
198 368 1
199 368 1
244 368 1
267 368 1
276 368 1
169 369 1
193 369 1
200 369 1
245 369 1
268 369 1
271 369 1
170 370 1
194 370 1
201 370 1
246 370 1
269 370 1
272 370 1
171 371 1
195 371 1
202 371 1
241 371 1
270 371 1
273 371 1
172 372 1
196 372 1
203 372 1
242 372 1
265 372 1
274 372 1
179 373 1
185 373 1
210 373 1
249 373 1
254 373 1
281 373 1
180 374 1
186 374 1
205 374 1
250 374 1
255 374 1
282 374 1
175 375 1
181 375 1
206 375 1
251 375 1
256 375 1
277 375 1
176 376 1
182 376 1
207 376 1
252 376 1
257 376 1
278 376 1
177 377 1
183 377 1
208 377 1
247 377 1
258 377 1
279 377 1
178 378 1
184 378 1
209 378 1
248 378 1
253 378 1
280 378 1
149 379 1
198 379 1
209 379 1
219 379 1
269 379 1
278 379 1
150 380 1
193 380 1
210 380 1
220 380 1
270 380 1
279 380 1
145 381 1
194 381 1
205 381 1
221 381 1
265 381 1
280 381 1
146 382 1
195 382 1
206 382 1
222 382 1
266 382 1
281 382 1
147 383 1
196 383 1
207 383 1
217 383 1
267 383 1
282 383 1
148 384 1
197 384 1
208 384 1
218 384 1
268 384 1
277 384 1
155 385 1
186 385 1
215 385 1
225 385 1
257 385 1
284 385 1
156 386 1
181 386 1
216 386 1
226 386 1
258 386 1
285 386 1
151 387 1
182 387 1
211 387 1
227 387 1
253 387 1
286 387 1
152 388 1
183 388 1
212 388 1
228 388 1
254 388 1
287 388 1
153 389 1
184 389 1
213 389 1
223 389 1
255 389 1
288 389 1
154 390 1
185 390 1
214 390 1
224 390 1
256 390 1
283 390 1
161 391 1
192 391 1
203 391 1
231 391 1
263 391 1
272 391 1
162 392 1
187 392 1
204 392 1
232 392 1
264 392 1
273 392 1
157 393 1
188 393 1
199 393 1
233 393 1
259 393 1
274 393 1
158 394 1
189 394 1
200 394 1
234 394 1
260 394 1
275 394 1
159 395 1
190 395 1
201 395 1
229 395 1
261 395 1
276 395 1
160 396 1
191 396 1
202 396 1
230 396 1
262 396 1
271 396 1
155 397 1
180 397 1
203 397 1
224 397 1
251 397 1
273 397 1
156 398 1
175 398 1
204 398 1
225 398 1
252 398 1
274 398 1
151 399 1
176 399 1
199 399 1
226 399 1
247 399 1
275 399 1
152 400 1
177 400 1
200 400 1
227 400 1
248 400 1
276 400 1
153 401 1
178 401 1
201 401 1
228 401 1
249 401 1
271 401 1
154 402 1
179 402 1
202 402 1
223 402 1
250 402 1
272 402 1
161 403 1
168 403 1
209 403 1
230 403 1
239 403 1
279 403 1
162 404 1
163 404 1
210 404 1
231 404 1
240 404 1
280 404 1
157 405 1
164 405 1
205 405 1
232 405 1
235 405 1
281 405 1
158 406 1
165 406 1
206 406 1
233 406 1
236 406 1
282 406 1
159 407 1
166 407 1
207 407 1
234 407 1
237 407 1
277 407 1
160 408 1
167 408 1
208 408 1
229 408 1
238 408 1
278 408 1
149 409 1
174 409 1
215 409 1
218 409 1
245 409 1
285 409 1
150 410 1
169 410 1
216 410 1
219 410 1
246 410 1
286 410 1
145 411 1
170 411 1
211 411 1
220 411 1
241 411 1
287 411 1
146 412 1
171 412 1
212 412 1
221 412 1
242 412 1
288 412 1
147 413 1
172 413 1
213 413 1
222 413 1
243 413 1
283 413 1
148 414 1
173 414 1
214 414 1
217 414 1
244 414 1
284 414 1
162 415 1
173 415 1
185 415 1
233 415 1
242 415 1
255 415 1
157 416 1
174 416 1
186 416 1
234 416 1
243 416 1
256 416 1
158 417 1
169 417 1
181 417 1
229 417 1
244 417 1
257 417 1
159 418 1
170 418 1
182 418 1
230 418 1
245 418 1
258 418 1
160 419 1
171 419 1
183 419 1
231 419 1
246 419 1
253 419 1
161 420 1
172 420 1
184 420 1
232 420 1
241 420 1
254 420 1
150 421 1
179 421 1
191 421 1
221 421 1
248 421 1
261 421 1
145 422 1
180 422 1
192 422 1
222 422 1
249 422 1
262 422 1
146 423 1
175 423 1
187 423 1
217 423 1
250 423 1
263 423 1
147 424 1
176 424 1
188 424 1
218 424 1
251 424 1
264 424 1
148 425 1
177 425 1
189 425 1
219 425 1
252 425 1
259 425 1
149 426 1
178 426 1
190 426 1
220 426 1
247 426 1
260 426 1
156 427 1
167 427 1
197 427 1
227 427 1
236 427 1
267 427 1
151 428 1
168 428 1
198 428 1
228 428 1
237 428 1
268 428 1
152 429 1
163 429 1
193 429 1
223 429 1
238 429 1
269 429 1
153 430 1
164 430 1
194 430 1
224 430 1
239 430 1
270 430 1
154 431 1
165 431 1
195 431 1
225 431 1
240 431 1
265 431 1
155 432 1
166 432 1
196 432 1
226 432 1
235 432 1
266 432 1
