%%MatrixMarket matrix coordinate integer general
% Binary matrix; one-based indices; arithmetic over GF(2)
1512 1890 15120
1 1 1
15 1 1
28 1 1
37 1 1
55 1 1
59 1 1
82 1 1
85 1 1
2 2 1
16 2 1
29 2 1
38 2 1
56 2 1
60 2 1
83 2 1
86 2 1
3 3 1
17 3 1
30 3 1
39 3 1
57 3 1
61 3 1
84 3 1
87 3 1
4 4 1
18 4 1
31 4 1
40 4 1
58 4 1
62 4 1
85 4 1
88 4 1
5 5 1
19 5 1
32 5 1
41 5 1
59 5 1
63 5 1
86 5 1
89 5 1
6 6 1
20 6 1
33 6 1
42 6 1
60 6 1
64 6 1
87 6 1
90 6 1
7 7 1
21 7 1
34 7 1
43 7 1
61 7 1
65 7 1
88 7 1
91 7 1
8 8 1
22 8 1
35 8 1
44 8 1
62 8 1
66 8 1
89 8 1
92 8 1
9 9 1
23 9 1
36 9 1
45 9 1
63 9 1
67 9 1
90 9 1
93 9 1
10 10 1
24 10 1
37 10 1
46 10 1
64 10 1
68 10 1
91 10 1
94 10 1
11 11 1
25 11 1
38 11 1
47 11 1
65 11 1
69 11 1
92 11 1
95 11 1
12 12 1
26 12 1
39 12 1
48 12 1
66 12 1
70 12 1
93 12 1
96 12 1
13 13 1
27 13 1
40 13 1
49 13 1
67 13 1
71 13 1
94 13 1
97 13 1
1 14 1
14 14 1
41 14 1
50 14 1
68 14 1
72 14 1
95 14 1
98 14 1
2 15 1
15 15 1
42 15 1
51 15 1
69 15 1
73 15 1
96 15 1
99 15 1
3 16 1
16 16 1
43 16 1
52 16 1
70 16 1
74 16 1
97 16 1
100 16 1
4 17 1
17 17 1
44 17 1
53 17 1
71 17 1
75 17 1
98 17 1
101 17 1
5 18 1
18 18 1
45 18 1
54 18 1
72 18 1
76 18 1
99 18 1
102 18 1
6 19 1
19 19 1
28 19 1
46 19 1
73 19 1
77 19 1
100 19 1
103 19 1
7 20 1
20 20 1
29 20 1
47 20 1
74 20 1
78 20 1
101 20 1
104 20 1
8 21 1
21 21 1
30 21 1
48 21 1
75 21 1
79 21 1
102 21 1
105 21 1
9 22 1
22 22 1
31 22 1
49 22 1
76 22 1
80 22 1
103 22 1
106 22 1
10 23 1
23 23 1
32 23 1
50 23 1
77 23 1
81 23 1
104 23 1
107 23 1
11 24 1
24 24 1
33 24 1
51 24 1
55 24 1
78 24 1
105 24 1
108 24 1
12 25 1
25 25 1
34 25 1
52 25 1
56 25 1
79 25 1
82 25 1
106 25 1
13 26 1
26 26 1
35 26 1
53 26 1
57 26 1
80 26 1
83 26 1
107 26 1
14 27 1
27 27 1
36 27 1
54 27 1
58 27 1
81 27 1
84 27 1
108 27 1
1 28 1
17 28 1
109 28 1
118 28 1
136 28 1
140 28 1
163 28 1
166 28 1
2 29 1
18 29 1
110 29 1
119 29 1
137 29 1
141 29 1
164 29 1
167 29 1
3 30 1
19 30 1
111 30 1
120 30 1
138 30 1
142 30 1
165 30 1
168 30 1
4 31 1
20 31 1
112 31 1
121 31 1
139 31 1
143 31 1
166 31 1
169 31 1
5 32 1
21 32 1
113 32 1
122 32 1
140 32 1
144 32 1
167 32 1
170 32 1
6 33 1
22 33 1
114 33 1
123 33 1
141 33 1
145 33 1
168 33 1
171 33 1
7 34 1
23 34 1
115 34 1
124 34 1
142 34 1
146 34 1
169 34 1
172 34 1
8 35 1
24 35 1
116 35 1
125 35 1
143 35 1
147 35 1
170 35 1
173 35 1
9 36 1
25 36 1
117 36 1
126 36 1
144 36 1
148 36 1
171 36 1
174 36 1
10 37 1
26 37 1
118 37 1
127 37 1
145 37 1
149 37 1
172 37 1
175 37 1
11 38 1
27 38 1
119 38 1
128 38 1
146 38 1
150 38 1
173 38 1
176 38 1
1 39 1
12 39 1
120 39 1
129 39 1
147 39 1
151 39 1
174 39 1
177 39 1
2 40 1
13 40 1
121 40 1
130 40 1
148 40 1
152 40 1
175 40 1
178 40 1
3 41 1
14 41 1
122 41 1
131 41 1
149 41 1
153 41 1
176 41 1
179 41 1
4 42 1
15 42 1
123 42 1
132 42 1
150 42 1
154 42 1
177 42 1
180 42 1
5 43 1
16 43 1
124 43 1
133 43 1
151 43 1
155 43 1
178 43 1
181 43 1
6 44 1
17 44 1
125 44 1
134 44 1
152 44 1
156 44 1
179 44 1
182 44 1
7 45 1
18 45 1
126 45 1
135 45 1
153 45 1
157 45 1
180 45 1
183 45 1
8 46 1
19 46 1
109 46 1
127 46 1
154 46 1
158 46 1
181 46 1
184 46 1
9 47 1
20 47 1
110 47 1
128 47 1
155 47 1
159 47 1
182 47 1
185 47 1
10 48 1
21 48 1
111 48 1
129 48 1
156 48 1
160 48 1
183 48 1
186 48 1
11 49 1
22 49 1
112 49 1
130 49 1
157 49 1
161 49 1
184 49 1
187 49 1
12 50 1
23 50 1
113 50 1
131 50 1
158 50 1
162 50 1
185 50 1
188 50 1
13 51 1
24 51 1
114 51 1
132 51 1
136 51 1
159 51 1
186 51 1
189 51 1
14 52 1
25 52 1
115 52 1
133 52 1
137 52 1
160 52 1
163 52 1
187 52 1
15 53 1
26 53 1
116 53 1
134 53 1
138 53 1
161 53 1
164 53 1
188 53 1
16 54 1
27 54 1
117 54 1
135 54 1
139 54 1
162 54 1
165 54 1
189 54 1
28 55 1
44 55 1
109 55 1
123 55 1
190 55 1
194 55 1
217 55 1
220 55 1
29 56 1
45 56 1
110 56 1
124 56 1
191 56 1
195 56 1
218 56 1
221 56 1
30 57 1
46 57 1
111 57 1
125 57 1
192 57 1
196 57 1
219 57 1
222 57 1
31 58 1
47 58 1
112 58 1
126 58 1
193 58 1
197 58 1
220 58 1
223 58 1
32 59 1
48 59 1
113 59 1
127 59 1
194 59 1
198 59 1
221 59 1
224 59 1
33 60 1
49 60 1
114 60 1
128 60 1
195 60 1
199 60 1
222 60 1
225 60 1
34 61 1
50 61 1
115 61 1
129 61 1
196 61 1
200 61 1
223 61 1
226 61 1
35 62 1
51 62 1
116 62 1
130 62 1
197 62 1
201 62 1
224 62 1
227 62 1
36 63 1
52 63 1
117 63 1
131 63 1
198 63 1
202 63 1
225 63 1
228 63 1
37 64 1
53 64 1
118 64 1
132 64 1
199 64 1
203 64 1
226 64 1
229 64 1
38 65 1
54 65 1
119 65 1
133 65 1
200 65 1
204 65 1
227 65 1
230 65 1
28 66 1
39 66 1
120 66 1
134 66 1
201 66 1
205 66 1
228 66 1
231 66 1
29 67 1
40 67 1
121 67 1
135 67 1
202 67 1
206 67 1
229 67 1
232 67 1
30 68 1
41 68 1
109 68 1
122 68 1
203 68 1
207 68 1
230 68 1
233 68 1
31 69 1
42 69 1
110 69 1
123 69 1
204 69 1
208 69 1
231 69 1
234 69 1
32 70 1
43 70 1
111 70 1
124 70 1
205 70 1
209 70 1
232 70 1
235 70 1
33 71 1
44 71 1
112 71 1
125 71 1
206 71 1
210 71 1
233 71 1
236 71 1
34 72 1
45 72 1
113 72 1
126 72 1
207 72 1
211 72 1
234 72 1
237 72 1
35 73 1
46 73 1
114 73 1
127 73 1
208 73 1
212 73 1
235 73 1
238 73 1
36 74 1
47 74 1
115 74 1
128 74 1
209 74 1
213 74 1
236 74 1
239 74 1
37 75 1
48 75 1
116 75 1
129 75 1
210 75 1
214 75 1
237 75 1
240 75 1
38 76 1
49 76 1
117 76 1
130 76 1
211 76 1
215 76 1
238 76 1
241 76 1
39 77 1
50 77 1
118 77 1
131 77 1
212 77 1
216 77 1
239 77 1
242 77 1
40 78 1
51 78 1
119 78 1
132 78 1
190 78 1
213 78 1
240 78 1
243 78 1
41 79 1
52 79 1
120 79 1
133 79 1
191 79 1
214 79 1
217 79 1
241 79 1
42 80 1
53 80 1
121 80 1
134 80 1
192 80 1
215 80 1
218 80 1
242 80 1
43 81 1
54 81 1
122 81 1
135 81 1
193 81 1
216 81 1
219 81 1
243 81 1
55 82 1
71 82 1
136 82 1
150 82 1
190 82 1
199 82 1
244 82 1
247 82 1
56 83 1
72 83 1
137 83 1
151 83 1
191 83 1
200 83 1
245 83 1
248 83 1
57 84 1
73 84 1
138 84 1
152 84 1
192 84 1
201 84 1
246 84 1
249 84 1
58 85 1
74 85 1
139 85 1
153 85 1
193 85 1
202 85 1
247 85 1
250 85 1
59 86 1
75 86 1
140 86 1
154 86 1
194 86 1
203 86 1
248 86 1
251 86 1
60 87 1
76 87 1
141 87 1
155 87 1
195 87 1
204 87 1
249 87 1
252 87 1
61 88 1
77 88 1
142 88 1
156 88 1
196 88 1
205 88 1
250 88 1
253 88 1
62 89 1
78 89 1
143 89 1
157 89 1
197 89 1
206 89 1
251 89 1
254 89 1
63 90 1
79 90 1
144 90 1
158 90 1
198 90 1
207 90 1
252 90 1
255 90 1
64 91 1
80 91 1
145 91 1
159 91 1
199 91 1
208 91 1
253 91 1
256 91 1
65 92 1
81 92 1
146 92 1
160 92 1
200 92 1
209 92 1
254 92 1
257 92 1
55 93 1
66 93 1
147 93 1
161 93 1
201 93 1
210 93 1
255 93 1
258 93 1
56 94 1
67 94 1
148 94 1
162 94 1
202 94 1
211 94 1
256 94 1
259 94 1
57 95 1
68 95 1
136 95 1
149 95 1
203 95 1
212 95 1
257 95 1
260 95 1
58 96 1
69 96 1
137 96 1
150 96 1
204 96 1
213 96 1
258 96 1
261 96 1
59 97 1
70 97 1
138 97 1
151 97 1
205 97 1
214 97 1
259 97 1
262 97 1
60 98 1
71 98 1
139 98 1
152 98 1
206 98 1
215 98 1
260 98 1
263 98 1
61 99 1
72 99 1
140 99 1
153 99 1
207 99 1
216 99 1
261 99 1
264 99 1
62 100 1
73 100 1
141 100 1
154 100 1
190 100 1
208 100 1
262 100 1
265 100 1
63 101 1
74 101 1
142 101 1
155 101 1
191 101 1
209 101 1
263 101 1
266 101 1
64 102 1
75 102 1
143 102 1
156 102 1
192 102 1
210 102 1
264 102 1
267 102 1
65 103 1
76 103 1
144 103 1
157 103 1
193 103 1
211 103 1
265 103 1
268 103 1
66 104 1
77 104 1
145 104 1
158 104 1
194 104 1
212 104 1
266 104 1
269 104 1
67 105 1
78 105 1
146 105 1
159 105 1
195 105 1
213 105 1
267 105 1
270 105 1
68 106 1
79 106 1
147 106 1
160 106 1
196 106 1
214 106 1
244 106 1
268 106 1
69 107 1
80 107 1
148 107 1
161 107 1
197 107 1
215 107 1
245 107 1
269 107 1
70 108 1
81 108 1
149 108 1
162 108 1
198 108 1
216 108 1
246 108 1
270 108 1
82 109 1
98 109 1
163 109 1
177 109 1
217 109 1
226 109 1
244 109 1
248 109 1
83 110 1
99 110 1
164 110 1
178 110 1
218 110 1
227 110 1
245 110 1
249 110 1
84 111 1
100 111 1
165 111 1
179 111 1
219 111 1
228 111 1
246 111 1
250 111 1
85 112 1
101 112 1
166 112 1
180 112 1
220 112 1
229 112 1
247 112 1
251 112 1
86 113 1
102 113 1
167 113 1
181 113 1
221 113 1
230 113 1
248 113 1
252 113 1
87 114 1
103 114 1
168 114 1
182 114 1
222 114 1
231 114 1
249 114 1
253 114 1
88 115 1
104 115 1
169 115 1
183 115 1
223 115 1
232 115 1
250 115 1
254 115 1
89 116 1
105 116 1
170 116 1
184 116 1
224 116 1
233 116 1
251 116 1
255 116 1
90 117 1
106 117 1
171 117 1
185 117 1
225 117 1
234 117 1
252 117 1
256 117 1
91 118 1
107 118 1
172 118 1
186 118 1
226 118 1
235 118 1
253 118 1
257 118 1
92 119 1
108 119 1
173 119 1
187 119 1
227 119 1
236 119 1
254 119 1
258 119 1
82 120 1
93 120 1
174 120 1
188 120 1
228 120 1
237 120 1
255 120 1
259 120 1
83 121 1
94 121 1
175 121 1
189 121 1
229 121 1
238 121 1
256 121 1
260 121 1
84 122 1
95 122 1
163 122 1
176 122 1
230 122 1
239 122 1
257 122 1
261 122 1
85 123 1
96 123 1
164 123 1
177 123 1
231 123 1
240 123 1
258 123 1
262 123 1
86 124 1
97 124 1
165 124 1
178 124 1
232 124 1
241 124 1
259 124 1
263 124 1
87 125 1
98 125 1
166 125 1
179 125 1
233 125 1
242 125 1
260 125 1
264 125 1
88 126 1
99 126 1
167 126 1
180 126 1
234 126 1
243 126 1
261 126 1
265 126 1
89 127 1
100 127 1
168 127 1
181 127 1
217 127 1
235 127 1
262 127 1
266 127 1
90 128 1
101 128 1
169 128 1
182 128 1
218 128 1
236 128 1
263 128 1
267 128 1
91 129 1
102 129 1
170 129 1
183 129 1
219 129 1
237 129 1
264 129 1
268 129 1
92 130 1
103 130 1
171 130 1
184 130 1
220 130 1
238 130 1
265 130 1
269 130 1
93 131 1
104 131 1
172 131 1
185 131 1
221 131 1
239 131 1
266 131 1
270 131 1
94 132 1
105 132 1
173 132 1
186 132 1
222 132 1
240 132 1
244 132 1
267 132 1
95 133 1
106 133 1
174 133 1
187 133 1
223 133 1
241 133 1
245 133 1
268 133 1
96 134 1
107 134 1
175 134 1
188 134 1
224 134 1
242 134 1
246 134 1
269 134 1
97 135 1
108 135 1
176 135 1
189 135 1
225 135 1
243 135 1
247 135 1
270 135 1
1 136 1
20 136 1
271 136 1
280 136 1
298 136 1
302 136 1
325 136 1
328 136 1
2 137 1
21 137 1
272 137 1
281 137 1
299 137 1
303 137 1
326 137 1
329 137 1
3 138 1
22 138 1
273 138 1
282 138 1
300 138 1
304 138 1
327 138 1
330 138 1
4 139 1
23 139 1
274 139 1
283 139 1
301 139 1
305 139 1
328 139 1
331 139 1
5 140 1
24 140 1
275 140 1
284 140 1
302 140 1
306 140 1
329 140 1
332 140 1
6 141 1
25 141 1
276 141 1
285 141 1
303 141 1
307 141 1
330 141 1
333 141 1
7 142 1
26 142 1
277 142 1
286 142 1
304 142 1
308 142 1
331 142 1
334 142 1
8 143 1
27 143 1
278 143 1
287 143 1
305 143 1
309 143 1
332 143 1
335 143 1
1 144 1
9 144 1
279 144 1
288 144 1
306 144 1
310 144 1
333 144 1
336 144 1
2 145 1
10 145 1
280 145 1
289 145 1
307 145 1
311 145 1
334 145 1
337 145 1
3 146 1
11 146 1
281 146 1
290 146 1
308 146 1
312 146 1
335 146 1
338 146 1
4 147 1
12 147 1
282 147 1
291 147 1
309 147 1
313 147 1
336 147 1
339 147 1
5 148 1
13 148 1
283 148 1
292 148 1
310 148 1
314 148 1
337 148 1
340 148 1
6 149 1
14 149 1
284 149 1
293 149 1
311 149 1
315 149 1
338 149 1
341 149 1
7 150 1
15 150 1
285 150 1
294 150 1
312 150 1
316 150 1
339 150 1
342 150 1
8 151 1
16 151 1
286 151 1
295 151 1
313 151 1
317 151 1
340 151 1
343 151 1
9 152 1
17 152 1
287 152 1
296 152 1
314 152 1
318 152 1
341 152 1
344 152 1
10 153 1
18 153 1
288 153 1
297 153 1
315 153 1
319 153 1
342 153 1
345 153 1
11 154 1
19 154 1
271 154 1
289 154 1
316 154 1
320 154 1
343 154 1
346 154 1
12 155 1
20 155 1
272 155 1
290 155 1
317 155 1
321 155 1
344 155 1
347 155 1
13 156 1
21 156 1
273 156 1
291 156 1
318 156 1
322 156 1
345 156 1
348 156 1
14 157 1
22 157 1
274 157 1
292 157 1
319 157 1
323 157 1
346 157 1
349 157 1
15 158 1
23 158 1
275 158 1
293 158 1
320 158 1
324 158 1
347 158 1
350 158 1
16 159 1
24 159 1
276 159 1
294 159 1
298 159 1
321 159 1
348 159 1
351 159 1
17 160 1
25 160 1
277 160 1
295 160 1
299 160 1
322 160 1
325 160 1
349 160 1
18 161 1
26 161 1
278 161 1
296 161 1
300 161 1
323 161 1
326 161 1
350 161 1
19 162 1
27 162 1
279 162 1
297 162 1
301 162 1
324 162 1
327 162 1
351 162 1
28 163 1
47 163 1
271 163 1
285 163 1
352 163 1
356 163 1
379 163 1
382 163 1
29 164 1
48 164 1
272 164 1
286 164 1
353 164 1
357 164 1
380 164 1
383 164 1
30 165 1
49 165 1
273 165 1
287 165 1
354 165 1
358 165 1
381 165 1
384 165 1
31 166 1
50 166 1
274 166 1
288 166 1
355 166 1
359 166 1
382 166 1
385 166 1
32 167 1
51 167 1
275 167 1
289 167 1
356 167 1
360 167 1
383 167 1
386 167 1
33 168 1
52 168 1
276 168 1
290 168 1
357 168 1
361 168 1
384 168 1
387 168 1
34 169 1
53 169 1
277 169 1
291 169 1
358 169 1
362 169 1
385 169 1
388 169 1
35 170 1
54 170 1
278 170 1
292 170 1
359 170 1
363 170 1
386 170 1
389 170 1
28 171 1
36 171 1
279 171 1
293 171 1
360 171 1
364 171 1
387 171 1
390 171 1
29 172 1
37 172 1
280 172 1
294 172 1
361 172 1
365 172 1
388 172 1
391 172 1
30 173 1
38 173 1
281 173 1
295 173 1
362 173 1
366 173 1
389 173 1
392 173 1
31 174 1
39 174 1
282 174 1
296 174 1
363 174 1
367 174 1
390 174 1
393 174 1
32 175 1
40 175 1
283 175 1
297 175 1
364 175 1
368 175 1
391 175 1
394 175 1
33 176 1
41 176 1
271 176 1
284 176 1
365 176 1
369 176 1
392 176 1
395 176 1
34 177 1
42 177 1
272 177 1
285 177 1
366 177 1
370 177 1
393 177 1
396 177 1
35 178 1
43 178 1
273 178 1
286 178 1
367 178 1
371 178 1
394 178 1
397 178 1
36 179 1
44 179 1
274 179 1
287 179 1
368 179 1
372 179 1
395 179 1
398 179 1
37 180 1
45 180 1
275 180 1
288 180 1
369 180 1
373 180 1
396 180 1
399 180 1
38 181 1
46 181 1
276 181 1
289 181 1
370 181 1
374 181 1
397 181 1
400 181 1
39 182 1
47 182 1
277 182 1
290 182 1
371 182 1
375 182 1
398 182 1
401 182 1
40 183 1
48 183 1
278 183 1
291 183 1
372 183 1
376 183 1
399 183 1
402 183 1
41 184 1
49 184 1
279 184 1
292 184 1
373 184 1
377 184 1
400 184 1
403 184 1
42 185 1
50 185 1
280 185 1
293 185 1
374 185 1
378 185 1
401 185 1
404 185 1
43 186 1
51 186 1
281 186 1
294 186 1
352 186 1
375 186 1
402 186 1
405 186 1
44 187 1
52 187 1
282 187 1
295 187 1
353 187 1
376 187 1
379 187 1
403 187 1
45 188 1
53 188 1
283 188 1
296 188 1
354 188 1
377 188 1
380 188 1
404 188 1
46 189 1
54 189 1
284 189 1
297 189 1
355 189 1
378 189 1
381 189 1
405 189 1
55 190 1
74 190 1
298 190 1
312 190 1
352 190 1
361 190 1
406 190 1
409 190 1
56 191 1
75 191 1
299 191 1
313 191 1
353 191 1
362 191 1
407 191 1
410 191 1
57 192 1
76 192 1
300 192 1
314 192 1
354 192 1
363 192 1
408 192 1
411 192 1
58 193 1
77 193 1
301 193 1
315 193 1
355 193 1
364 193 1
409 193 1
412 193 1
59 194 1
78 194 1
302 194 1
316 194 1
356 194 1
365 194 1
410 194 1
413 194 1
60 195 1
79 195 1
303 195 1
317 195 1
357 195 1
366 195 1
411 195 1
414 195 1
61 196 1
80 196 1
304 196 1
318 196 1
358 196 1
367 196 1
412 196 1
415 196 1
62 197 1
81 197 1
305 197 1
319 197 1
359 197 1
368 197 1
413 197 1
416 197 1
55 198 1
63 198 1
306 198 1
320 198 1
360 198 1
369 198 1
414 198 1
417 198 1
56 199 1
64 199 1
307 199 1
321 199 1
361 199 1
370 199 1
415 199 1
418 199 1
57 200 1
65 200 1
308 200 1
322 200 1
362 200 1
371 200 1
416 200 1
419 200 1
58 201 1
66 201 1
309 201 1
323 201 1
363 201 1
372 201 1
417 201 1
420 201 1
59 202 1
67 202 1
310 202 1
324 202 1
364 202 1
373 202 1
418 202 1
421 202 1
60 203 1
68 203 1
298 203 1
311 203 1
365 203 1
374 203 1
419 203 1
422 203 1
61 204 1
69 204 1
299 204 1
312 204 1
366 204 1
375 204 1
420 204 1
423 204 1
62 205 1
70 205 1
300 205 1
313 205 1
367 205 1
376 205 1
421 205 1
424 205 1
63 206 1
71 206 1
301 206 1
314 206 1
368 206 1
377 206 1
422 206 1
425 206 1
64 207 1
72 207 1
302 207 1
315 207 1
369 207 1
378 207 1
423 207 1
426 207 1
65 208 1
73 208 1
303 208 1
316 208 1
352 208 1
370 208 1
424 208 1
427 208 1
66 209 1
74 209 1
304 209 1
317 209 1
353 209 1
371 209 1
425 209 1
428 209 1
67 210 1
75 210 1
305 210 1
318 210 1
354 210 1
372 210 1
426 210 1
429 210 1
68 211 1
76 211 1
306 211 1
319 211 1
355 211 1
373 211 1
427 211 1
430 211 1
69 212 1
77 212 1
307 212 1
320 212 1
356 212 1
374 212 1
428 212 1
431 212 1
70 213 1
78 213 1
308 213 1
321 213 1
357 213 1
375 213 1
429 213 1
432 213 1
71 214 1
79 214 1
309 214 1
322 214 1
358 214 1
376 214 1
406 214 1
430 214 1
72 215 1
80 215 1
310 215 1
323 215 1
359 215 1
377 215 1
407 215 1
431 215 1
73 216 1
81 216 1
311 216 1
324 216 1
360 216 1
378 216 1
408 216 1
432 216 1
82 217 1
101 217 1
325 217 1
339 217 1
379 217 1
388 217 1
406 217 1
410 217 1
83 218 1
102 218 1
326 218 1
340 218 1
380 218 1
389 218 1
407 218 1
411 218 1
84 219 1
103 219 1
327 219 1
341 219 1
381 219 1
390 219 1
408 219 1
412 219 1
85 220 1
104 220 1
328 220 1
342 220 1
382 220 1
391 220 1
409 220 1
413 220 1
86 221 1
105 221 1
329 221 1
343 221 1
383 221 1
392 221 1
410 221 1
414 221 1
87 222 1
106 222 1
330 222 1
344 222 1
384 222 1
393 222 1
411 222 1
415 222 1
88 223 1
107 223 1
331 223 1
345 223 1
385 223 1
394 223 1
412 223 1
416 223 1
89 224 1
108 224 1
332 224 1
346 224 1
386 224 1
395 224 1
413 224 1
417 224 1
82 225 1
90 225 1
333 225 1
347 225 1
387 225 1
396 225 1
414 225 1
418 225 1
83 226 1
91 226 1
334 226 1
348 226 1
388 226 1
397 226 1
415 226 1
419 226 1
84 227 1
92 227 1
335 227 1
349 227 1
389 227 1
398 227 1
416 227 1
420 227 1
85 228 1
93 228 1
336 228 1
350 228 1
390 228 1
399 228 1
417 228 1
421 228 1
86 229 1
94 229 1
337 229 1
351 229 1
391 229 1
400 229 1
418 229 1
422 229 1
87 230 1
95 230 1
325 230 1
338 230 1
392 230 1
401 230 1
419 230 1
423 230 1
88 231 1
96 231 1
326 231 1
339 231 1
393 231 1
402 231 1
420 231 1
424 231 1
89 232 1
97 232 1
327 232 1
340 232 1
394 232 1
403 232 1
421 232 1
425 232 1
90 233 1
98 233 1
328 233 1
341 233 1
395 233 1
404 233 1
422 233 1
426 233 1
91 234 1
99 234 1
329 234 1
342 234 1
396 234 1
405 234 1
423 234 1
427 234 1
92 235 1
100 235 1
330 235 1
343 235 1
379 235 1
397 235 1
424 235 1
428 235 1
93 236 1
101 236 1
331 236 1
344 236 1
380 236 1
398 236 1
425 236 1
429 236 1
94 237 1
102 237 1
332 237 1
345 237 1
381 237 1
399 237 1
426 237 1
430 237 1
95 238 1
103 238 1
333 238 1
346 238 1
382 238 1
400 238 1
427 238 1
431 238 1
96 239 1
104 239 1
334 239 1
347 239 1
383 239 1
401 239 1
428 239 1
432 239 1
97 240 1
105 240 1
335 240 1
348 240 1
384 240 1
402 240 1
406 240 1
429 240 1
98 241 1
106 241 1
336 241 1
349 241 1
385 241 1
403 241 1
407 241 1
430 241 1
99 242 1
107 242 1
337 242 1
350 242 1
386 242 1
404 242 1
408 242 1
431 242 1
100 243 1
108 243 1
338 243 1
351 243 1
387 243 1
405 243 1
409 243 1
432 243 1
109 244 1
128 244 1
271 244 1
287 244 1
433 244 1
437 244 1
460 244 1
463 244 1
110 245 1
129 245 1
272 245 1
288 245 1
434 245 1
438 245 1
461 245 1
464 245 1
111 246 1
130 246 1
273 246 1
289 246 1
435 246 1
439 246 1
462 246 1
465 246 1
112 247 1
131 247 1
274 247 1
290 247 1
436 247 1
440 247 1
463 247 1
466 247 1
113 248 1
132 248 1
275 248 1
291 248 1
437 248 1
441 248 1
464 248 1
467 248 1
114 249 1
133 249 1
276 249 1
292 249 1
438 249 1
442 249 1
465 249 1
468 249 1
115 250 1
134 250 1
277 250 1
293 250 1
439 250 1
443 250 1
466 250 1
469 250 1
116 251 1
135 251 1
278 251 1
294 251 1
440 251 1
444 251 1
467 251 1
470 251 1
109 252 1
117 252 1
279 252 1
295 252 1
441 252 1
445 252 1
468 252 1
471 252 1
110 253 1
118 253 1
280 253 1
296 253 1
442 253 1
446 253 1
469 253 1
472 253 1
111 254 1
119 254 1
281 254 1
297 254 1
443 254 1
447 254 1
470 254 1
473 254 1
112 255 1
120 255 1
271 255 1
282 255 1
444 255 1
448 255 1
471 255 1
474 255 1
113 256 1
121 256 1
272 256 1
283 256 1
445 256 1
449 256 1
472 256 1
475 256 1
114 257 1
122 257 1
273 257 1
284 257 1
446 257 1
450 257 1
473 257 1
476 257 1
115 258 1
123 258 1
274 258 1
285 258 1
447 258 1
451 258 1
474 258 1
477 258 1
116 259 1
124 259 1
275 259 1
286 259 1
448 259 1
452 259 1
475 259 1
478 259 1
117 260 1
125 260 1
276 260 1
287 260 1
449 260 1
453 260 1
476 260 1
479 260 1
118 261 1
126 261 1
277 261 1
288 261 1
450 261 1
454 261 1
477 261 1
480 261 1
119 262 1
127 262 1
278 262 1
289 262 1
451 262 1
455 262 1
478 262 1
481 262 1
120 263 1
128 263 1
279 263 1
290 263 1
452 263 1
456 263 1
479 263 1
482 263 1
121 264 1
129 264 1
280 264 1
291 264 1
453 264 1
457 264 1
480 264 1
483 264 1
122 265 1
130 265 1
281 265 1
292 265 1
454 265 1
458 265 1
481 265 1
484 265 1
123 266 1
131 266 1
282 266 1
293 266 1
455 266 1
459 266 1
482 266 1
485 266 1
124 267 1
132 267 1
283 267 1
294 267 1
433 267 1
456 267 1
483 267 1
486 267 1
125 268 1
133 268 1
284 268 1
295 268 1
434 268 1
457 268 1
460 268 1
484 268 1
126 269 1
134 269 1
285 269 1
296 269 1
435 269 1
458 269 1
461 269 1
485 269 1
127 270 1
135 270 1
286 270 1
297 270 1
436 270 1
459 270 1
462 270 1
486 270 1
136 271 1
155 271 1
298 271 1
314 271 1
433 271 1
442 271 1
487 271 1
490 271 1
137 272 1
156 272 1
299 272 1
315 272 1
434 272 1
443 272 1
488 272 1
491 272 1
138 273 1
157 273 1
300 273 1
316 273 1
435 273 1
444 273 1
489 273 1
492 273 1
139 274 1
158 274 1
301 274 1
317 274 1
436 274 1
445 274 1
490 274 1
493 274 1
140 275 1
159 275 1
302 275 1
318 275 1
437 275 1
446 275 1
491 275 1
494 275 1
141 276 1
160 276 1
303 276 1
319 276 1
438 276 1
447 276 1
492 276 1
495 276 1
142 277 1
161 277 1
304 277 1
320 277 1
439 277 1
448 277 1
493 277 1
496 277 1
143 278 1
162 278 1
305 278 1
321 278 1
440 278 1
449 278 1
494 278 1
497 278 1
136 279 1
144 279 1
306 279 1
322 279 1
441 279 1
450 279 1
495 279 1
498 279 1
137 280 1
145 280 1
307 280 1
323 280 1
442 280 1
451 280 1
496 280 1
499 280 1
138 281 1
146 281 1
308 281 1
324 281 1
443 281 1
452 281 1
497 281 1
500 281 1
139 282 1
147 282 1
298 282 1
309 282 1
444 282 1
453 282 1
498 282 1
501 282 1
140 283 1
148 283 1
299 283 1
310 283 1
445 283 1
454 283 1
499 283 1
502 283 1
141 284 1
149 284 1
300 284 1
311 284 1
446 284 1
455 284 1
500 284 1
503 284 1
142 285 1
150 285 1
301 285 1
312 285 1
447 285 1
456 285 1
501 285 1
504 285 1
143 286 1
151 286 1
302 286 1
313 286 1
448 286 1
457 286 1
502 286 1
505 286 1
144 287 1
152 287 1
303 287 1
314 287 1
449 287 1
458 287 1
503 287 1
506 287 1
145 288 1
153 288 1
304 288 1
315 288 1
450 288 1
459 288 1
504 288 1
507 288 1
146 289 1
154 289 1
305 289 1
316 289 1
433 289 1
451 289 1
505 289 1
508 289 1
147 290 1
155 290 1
306 290 1
317 290 1
434 290 1
452 290 1
506 290 1
509 290 1
148 291 1
156 291 1
307 291 1
318 291 1
435 291 1
453 291 1
507 291 1
510 291 1
149 292 1
157 292 1
308 292 1
319 292 1
436 292 1
454 292 1
508 292 1
511 292 1
150 293 1
158 293 1
309 293 1
320 293 1
437 293 1
455 293 1
509 293 1
512 293 1
151 294 1
159 294 1
310 294 1
321 294 1
438 294 1
456 294 1
510 294 1
513 294 1
152 295 1
160 295 1
311 295 1
322 295 1
439 295 1
457 295 1
487 295 1
511 295 1
153 296 1
161 296 1
312 296 1
323 296 1
440 296 1
458 296 1
488 296 1
512 296 1
154 297 1
162 297 1
313 297 1
324 297 1
441 297 1
459 297 1
489 297 1
513 297 1
163 298 1
182 298 1
325 298 1
341 298 1
460 298 1
469 298 1
487 298 1
491 298 1
164 299 1
183 299 1
326 299 1
342 299 1
461 299 1
470 299 1
488 299 1
492 299 1
165 300 1
184 300 1
327 300 1
343 300 1
462 300 1
471 300 1
489 300 1
493 300 1
166 301 1
185 301 1
328 301 1
344 301 1
463 301 1
472 301 1
490 301 1
494 301 1
167 302 1
186 302 1
329 302 1
345 302 1
464 302 1
473 302 1
491 302 1
495 302 1
168 303 1
187 303 1
330 303 1
346 303 1
465 303 1
474 303 1
492 303 1
496 303 1
169 304 1
188 304 1
331 304 1
347 304 1
466 304 1
475 304 1
493 304 1
497 304 1
170 305 1
189 305 1
332 305 1
348 305 1
467 305 1
476 305 1
494 305 1
498 305 1
163 306 1
171 306 1
333 306 1
349 306 1
468 306 1
477 306 1
495 306 1
499 306 1
164 307 1
172 307 1
334 307 1
350 307 1
469 307 1
478 307 1
496 307 1
500 307 1
165 308 1
173 308 1
335 308 1
351 308 1
470 308 1
479 308 1
497 308 1
501 308 1
166 309 1
174 309 1
325 309 1
336 309 1
471 309 1
480 309 1
498 309 1
502 309 1
167 310 1
175 310 1
326 310 1
337 310 1
472 310 1
481 310 1
499 310 1
503 310 1
168 311 1
176 311 1
327 311 1
338 311 1
473 311 1
482 311 1
500 311 1
504 311 1
169 312 1
177 312 1
328 312 1
339 312 1
474 312 1
483 312 1
501 312 1
505 312 1
170 313 1
178 313 1
329 313 1
340 313 1
475 313 1
484 313 1
502 313 1
506 313 1
171 314 1
179 314 1
330 314 1
341 314 1
476 314 1
485 314 1
503 314 1
507 314 1
172 315 1
180 315 1
331 315 1
342 315 1
477 315 1
486 315 1
504 315 1
508 315 1
173 316 1
181 316 1
332 316 1
343 316 1
460 316 1
478 316 1
505 316 1
509 316 1
174 317 1
182 317 1
333 317 1
344 317 1
461 317 1
479 317 1
506 317 1
510 317 1
175 318 1
183 318 1
334 318 1
345 318 1
462 318 1
480 318 1
507 318 1
511 318 1
176 319 1
184 319 1
335 319 1
346 319 1
463 319 1
481 319 1
508 319 1
512 319 1
177 320 1
185 320 1
336 320 1
347 320 1
464 320 1
482 320 1
509 320 1
513 320 1
178 321 1
186 321 1
337 321 1
348 321 1
465 321 1
483 321 1
487 321 1
510 321 1
179 322 1
187 322 1
338 322 1
349 322 1
466 322 1
484 322 1
488 322 1
511 322 1
180 323 1
188 323 1
339 323 1
350 323 1
467 323 1
485 323 1
489 323 1
512 323 1
181 324 1
189 324 1
340 324 1
351 324 1
468 324 1
486 324 1
490 324 1
513 324 1
190 325 1
209 325 1
352 325 1
368 325 1
433 325 1
447 325 1
514 325 1
517 325 1
191 326 1
210 326 1
353 326 1
369 326 1
434 326 1
448 326 1
515 326 1
518 326 1
192 327 1
211 327 1
354 327 1
370 327 1
435 327 1
449 327 1
516 327 1
519 327 1
193 328 1
212 328 1
355 328 1
371 328 1
436 328 1
450 328 1
517 328 1
520 328 1
194 329 1
213 329 1
356 329 1
372 329 1
437 329 1
451 329 1
518 329 1
521 329 1
195 330 1
214 330 1
357 330 1
373 330 1
438 330 1
452 330 1
519 330 1
522 330 1
196 331 1
215 331 1
358 331 1
374 331 1
439 331 1
453 331 1
520 331 1
523 331 1
197 332 1
216 332 1
359 332 1
375 332 1
440 332 1
454 332 1
521 332 1
524 332 1
190 333 1
198 333 1
360 333 1
376 333 1
441 333 1
455 333 1
522 333 1
525 333 1
191 334 1
199 334 1
361 334 1
377 334 1
442 334 1
456 334 1
523 334 1
526 334 1
192 335 1
200 335 1
362 335 1
378 335 1
443 335 1
457 335 1
524 335 1
527 335 1
193 336 1
201 336 1
352 336 1
363 336 1
444 336 1
458 336 1
525 336 1
528 336 1
194 337 1
202 337 1
353 337 1
364 337 1
445 337 1
459 337 1
526 337 1
529 337 1
195 338 1
203 338 1
354 338 1
365 338 1
433 338 1
446 338 1
527 338 1
530 338 1
196 339 1
204 339 1
355 339 1
366 339 1
434 339 1
447 339 1
528 339 1
531 339 1
197 340 1
205 340 1
356 340 1
367 340 1
435 340 1
448 340 1
529 340 1
532 340 1
198 341 1
206 341 1
357 341 1
368 341 1
436 341 1
449 341 1
530 341 1
533 341 1
199 342 1
207 342 1
358 342 1
369 342 1
437 342 1
450 342 1
531 342 1
534 342 1
200 343 1
208 343 1
359 343 1
370 343 1
438 343 1
451 343 1
532 343 1
535 343 1
201 344 1
209 344 1
360 344 1
371 344 1
439 344 1
452 344 1
533 344 1
536 344 1
202 345 1
210 345 1
361 345 1
372 345 1
440 345 1
453 345 1
534 345 1
537 345 1
203 346 1
211 346 1
362 346 1
373 346 1
441 346 1
454 346 1
535 346 1
538 346 1
204 347 1
212 347 1
363 347 1
374 347 1
442 347 1
455 347 1
536 347 1
539 347 1
205 348 1
213 348 1
364 348 1
375 348 1
443 348 1
456 348 1
537 348 1
540 348 1
206 349 1
214 349 1
365 349 1
376 349 1
444 349 1
457 349 1
514 349 1
538 349 1
207 350 1
215 350 1
366 350 1
377 350 1
445 350 1
458 350 1
515 350 1
539 350 1
208 351 1
216 351 1
367 351 1
378 351 1
446 351 1
459 351 1
516 351 1
540 351 1
217 352 1
236 352 1
379 352 1
395 352 1
460 352 1
474 352 1
514 352 1
518 352 1
218 353 1
237 353 1
380 353 1
396 353 1
461 353 1
475 353 1
515 353 1
519 353 1
219 354 1
238 354 1
381 354 1
397 354 1
462 354 1
476 354 1
516 354 1
520 354 1
220 355 1
239 355 1
382 355 1
398 355 1
463 355 1
477 355 1
517 355 1
521 355 1
221 356 1
240 356 1
383 356 1
399 356 1
464 356 1
478 356 1
518 356 1
522 356 1
222 357 1
241 357 1
384 357 1
400 357 1
465 357 1
479 357 1
519 357 1
523 357 1
223 358 1
242 358 1
385 358 1
401 358 1
466 358 1
480 358 1
520 358 1
524 358 1
224 359 1
243 359 1
386 359 1
402 359 1
467 359 1
481 359 1
521 359 1
525 359 1
217 360 1
225 360 1
387 360 1
403 360 1
468 360 1
482 360 1
522 360 1
526 360 1
218 361 1
226 361 1
388 361 1
404 361 1
469 361 1
483 361 1
523 361 1
527 361 1
219 362 1
227 362 1
389 362 1
405 362 1
470 362 1
484 362 1
524 362 1
528 362 1
220 363 1
228 363 1
379 363 1
390 363 1
471 363 1
485 363 1
525 363 1
529 363 1
221 364 1
229 364 1
380 364 1
391 364 1
472 364 1
486 364 1
526 364 1
530 364 1
222 365 1
230 365 1
381 365 1
392 365 1
460 365 1
473 365 1
527 365 1
531 365 1
223 366 1
231 366 1
382 366 1
393 366 1
461 366 1
474 366 1
528 366 1
532 366 1
224 367 1
232 367 1
383 367 1
394 367 1
462 367 1
475 367 1
529 367 1
533 367 1
225 368 1
233 368 1
384 368 1
395 368 1
463 368 1
476 368 1
530 368 1
534 368 1
226 369 1
234 369 1
385 369 1
396 369 1
464 369 1
477 369 1
531 369 1
535 369 1
227 370 1
235 370 1
386 370 1
397 370 1
465 370 1
478 370 1
532 370 1
536 370 1
228 371 1
236 371 1
387 371 1
398 371 1
466 371 1
479 371 1
533 371 1
537 371 1
229 372 1
237 372 1
388 372 1
399 372 1
467 372 1
480 372 1
534 372 1
538 372 1
230 373 1
238 373 1
389 373 1
400 373 1
468 373 1
481 373 1
535 373 1
539 373 1
231 374 1
239 374 1
390 374 1
401 374 1
469 374 1
482 374 1
536 374 1
540 374 1
232 375 1
240 375 1
391 375 1
402 375 1
470 375 1
483 375 1
514 375 1
537 375 1
233 376 1
241 376 1
392 376 1
403 376 1
471 376 1
484 376 1
515 376 1
538 376 1
234 377 1
242 377 1
393 377 1
404 377 1
472 377 1
485 377 1
516 377 1
539 377 1
235 378 1
243 378 1
394 378 1
405 378 1
473 378 1
486 378 1
517 378 1
540 378 1
244 379 1
263 379 1
406 379 1
422 379 1
487 379 1
501 379 1
514 379 1
523 379 1
245 380 1
264 380 1
407 380 1
423 380 1
488 380 1
502 380 1
515 380 1
524 380 1
246 381 1
265 381 1
408 381 1
424 381 1
489 381 1
503 381 1
516 381 1
525 381 1
247 382 1
266 382 1
409 382 1
425 382 1
490 382 1
504 382 1
517 382 1
526 382 1
248 383 1
267 383 1
410 383 1
426 383 1
491 383 1
505 383 1
518 383 1
527 383 1
249 384 1
268 384 1
411 384 1
427 384 1
492 384 1
506 384 1
519 384 1
528 384 1
250 385 1
269 385 1
412 385 1
428 385 1
493 385 1
507 385 1
520 385 1
529 385 1
251 386 1
270 386 1
413 386 1
429 386 1
494 386 1
508 386 1
521 386 1
530 386 1
244 387 1
252 387 1
414 387 1
430 387 1
495 387 1
509 387 1
522 387 1
531 387 1
245 388 1
253 388 1
415 388 1
431 388 1
496 388 1
510 388 1
523 388 1
532 388 1
246 389 1
254 389 1
416 389 1
432 389 1
497 389 1
511 389 1
524 389 1
533 389 1
247 390 1
255 390 1
406 390 1
417 390 1
498 390 1
512 390 1
525 390 1
534 390 1
248 391 1
256 391 1
407 391 1
418 391 1
499 391 1
513 391 1
526 391 1
535 391 1
249 392 1
257 392 1
408 392 1
419 392 1
487 392 1
500 392 1
527 392 1
536 392 1
250 393 1
258 393 1
409 393 1
420 393 1
488 393 1
501 393 1
528 393 1
537 393 1
251 394 1
259 394 1
410 394 1
421 394 1
489 394 1
502 394 1
529 394 1
538 394 1
252 395 1
260 395 1
411 395 1
422 395 1
490 395 1
503 395 1
530 395 1
539 395 1
253 396 1
261 396 1
412 396 1
423 396 1
491 396 1
504 396 1
531 396 1
540 396 1
254 397 1
262 397 1
413 397 1
424 397 1
492 397 1
505 397 1
514 397 1
532 397 1
255 398 1
263 398 1
414 398 1
425 398 1
493 398 1
506 398 1
515 398 1
533 398 1
256 399 1
264 399 1
415 399 1
426 399 1
494 399 1
507 399 1
516 399 1
534 399 1
257 400 1
265 400 1
416 400 1
427 400 1
495 400 1
508 400 1
517 400 1
535 400 1
258 401 1
266 401 1
417 401 1
428 401 1
496 401 1
509 401 1
518 401 1
536 401 1
259 402 1
267 402 1
418 402 1
429 402 1
497 402 1
510 402 1
519 402 1
537 402 1
260 403 1
268 403 1
419 403 1
430 403 1
498 403 1
511 403 1
520 403 1
538 403 1
261 404 1
269 404 1
420 404 1
431 404 1
499 404 1
512 404 1
521 404 1
539 404 1
262 405 1
270 405 1
421 405 1
432 405 1
500 405 1
513 405 1
522 405 1
540 405 1
1 406 1
23 406 1
541 406 1
550 406 1
568 406 1
572 406 1
595 406 1
598 406 1
2 407 1
24 407 1
542 407 1
551 407 1
569 407 1
573 407 1
596 407 1
599 407 1
3 408 1
25 408 1
543 408 1
552 408 1
570 408 1
574 408 1
597 408 1
600 408 1
4 409 1
26 409 1
544 409 1
553 409 1
571 409 1
575 409 1
598 409 1
601 409 1
5 410 1
27 410 1
545 410 1
554 410 1
572 410 1
576 410 1
599 410 1
602 410 1
1 411 1
6 411 1
546 411 1
555 411 1
573 411 1
577 411 1
600 411 1
603 411 1
2 412 1
7 412 1
547 412 1
556 412 1
574 412 1
578 412 1
601 412 1
604 412 1
3 413 1
8 413 1
548 413 1
557 413 1
575 413 1
579 413 1
602 413 1
605 413 1
4 414 1
9 414 1
549 414 1
558 414 1
576 414 1
580 414 1
603 414 1
606 414 1
5 415 1
10 415 1
550 415 1
559 415 1
577 415 1
581 415 1
604 415 1
607 415 1
6 416 1
11 416 1
551 416 1
560 416 1
578 416 1
582 416 1
605 416 1
608 416 1
7 417 1
12 417 1
552 417 1
561 417 1
579 417 1
583 417 1
606 417 1
609 417 1
8 418 1
13 418 1
553 418 1
562 418 1
580 418 1
584 418 1
607 418 1
610 418 1
9 419 1
14 419 1
554 419 1
563 419 1
581 419 1
585 419 1
608 419 1
611 419 1
10 420 1
15 420 1
555 420 1
564 420 1
582 420 1
586 420 1
609 420 1
612 420 1
11 421 1
16 421 1
556 421 1
565 421 1
583 421 1
587 421 1
610 421 1
613 421 1
12 422 1
17 422 1
557 422 1
566 422 1
584 422 1
588 422 1
611 422 1
614 422 1
13 423 1
18 423 1
558 423 1
567 423 1
585 423 1
589 423 1
612 423 1
615 423 1
14 424 1
19 424 1
541 424 1
559 424 1
586 424 1
590 424 1
613 424 1
616 424 1
15 425 1
20 425 1
542 425 1
560 425 1
587 425 1
591 425 1
614 425 1
617 425 1
16 426 1
21 426 1
543 426 1
561 426 1
588 426 1
592 426 1
615 426 1
618 426 1
17 427 1
22 427 1
544 427 1
562 427 1
589 427 1
593 427 1
616 427 1
619 427 1
18 428 1
23 428 1
545 428 1
563 428 1
590 428 1
594 428 1
617 428 1
620 428 1
19 429 1
24 429 1
546 429 1
564 429 1
568 429 1
591 429 1
618 429 1
621 429 1
20 430 1
25 430 1
547 430 1
565 430 1
569 430 1
592 430 1
595 430 1
619 430 1
21 431 1
26 431 1
548 431 1
566 431 1
570 431 1
593 431 1
596 431 1
620 431 1
22 432 1
27 432 1
549 432 1
567 432 1
571 432 1
594 432 1
597 432 1
621 432 1
28 433 1
50 433 1
541 433 1
555 433 1
622 433 1
626 433 1
649 433 1
652 433 1
29 434 1
51 434 1
542 434 1
556 434 1
623 434 1
627 434 1
650 434 1
653 434 1
30 435 1
52 435 1
543 435 1
557 435 1
624 435 1
628 435 1
651 435 1
654 435 1
31 436 1
53 436 1
544 436 1
558 436 1
625 436 1
629 436 1
652 436 1
655 436 1
32 437 1
54 437 1
545 437 1
559 437 1
626 437 1
630 437 1
653 437 1
656 437 1
28 438 1
33 438 1
546 438 1
560 438 1
627 438 1
631 438 1
654 438 1
657 438 1
29 439 1
34 439 1
547 439 1
561 439 1
628 439 1
632 439 1
655 439 1
658 439 1
30 440 1
35 440 1
548 440 1
562 440 1
629 440 1
633 440 1
656 440 1
659 440 1
31 441 1
36 441 1
549 441 1
563 441 1
630 441 1
634 441 1
657 441 1
660 441 1
32 442 1
37 442 1
550 442 1
564 442 1
631 442 1
635 442 1
658 442 1
661 442 1
33 443 1
38 443 1
551 443 1
565 443 1
632 443 1
636 443 1
659 443 1
662 443 1
34 444 1
39 444 1
552 444 1
566 444 1
633 444 1
637 444 1
660 444 1
663 444 1
35 445 1
40 445 1
553 445 1
567 445 1
634 445 1
638 445 1
661 445 1
664 445 1
36 446 1
41 446 1
541 446 1
554 446 1
635 446 1
639 446 1
662 446 1
665 446 1
37 447 1
42 447 1
542 447 1
555 447 1
636 447 1
640 447 1
663 447 1
666 447 1
38 448 1
43 448 1
543 448 1
556 448 1
637 448 1
641 448 1
664 448 1
667 448 1
39 449 1
44 449 1
544 449 1
557 449 1
638 449 1
642 449 1
665 449 1
668 449 1
40 450 1
45 450 1
545 450 1
558 450 1
639 450 1
643 450 1
666 450 1
669 450 1
41 451 1
46 451 1
546 451 1
559 451 1
640 451 1
644 451 1
667 451 1
670 451 1
42 452 1
47 452 1
547 452 1
560 452 1
641 452 1
645 452 1
668 452 1
671 452 1
43 453 1
48 453 1
548 453 1
561 453 1
642 453 1
646 453 1
669 453 1
672 453 1
44 454 1
49 454 1
549 454 1
562 454 1
643 454 1
647 454 1
670 454 1
673 454 1
45 455 1
50 455 1
550 455 1
563 455 1
644 455 1
648 455 1
671 455 1
674 455 1
46 456 1
51 456 1
551 456 1
564 456 1
622 456 1
645 456 1
672 456 1
675 456 1
47 457 1
52 457 1
552 457 1
565 457 1
623 457 1
646 457 1
649 457 1
673 457 1
48 458 1
53 458 1
553 458 1
566 458 1
624 458 1
647 458 1
650 458 1
674 458 1
49 459 1
54 459 1
554 459 1
567 459 1
625 459 1
648 459 1
651 459 1
675 459 1
55 460 1
77 460 1
568 460 1
582 460 1
622 460 1
631 460 1
676 460 1
679 460 1
56 461 1
78 461 1
569 461 1
583 461 1
623 461 1
632 461 1
677 461 1
680 461 1
57 462 1
79 462 1
570 462 1
584 462 1
624 462 1
633 462 1
678 462 1
681 462 1
58 463 1
80 463 1
571 463 1
585 463 1
625 463 1
634 463 1
679 463 1
682 463 1
59 464 1
81 464 1
572 464 1
586 464 1
626 464 1
635 464 1
680 464 1
683 464 1
55 465 1
60 465 1
573 465 1
587 465 1
627 465 1
636 465 1
681 465 1
684 465 1
56 466 1
61 466 1
574 466 1
588 466 1
628 466 1
637 466 1
682 466 1
685 466 1
57 467 1
62 467 1
575 467 1
589 467 1
629 467 1
638 467 1
683 467 1
686 467 1
58 468 1
63 468 1
576 468 1
590 468 1
630 468 1
639 468 1
684 468 1
687 468 1
59 469 1
64 469 1
577 469 1
591 469 1
631 469 1
640 469 1
685 469 1
688 469 1
60 470 1
65 470 1
578 470 1
592 470 1
632 470 1
641 470 1
686 470 1
689 470 1
61 471 1
66 471 1
579 471 1
593 471 1
633 471 1
642 471 1
687 471 1
690 471 1
62 472 1
67 472 1
580 472 1
594 472 1
634 472 1
643 472 1
688 472 1
691 472 1
63 473 1
68 473 1
568 473 1
581 473 1
635 473 1
644 473 1
689 473 1
692 473 1
64 474 1
69 474 1
569 474 1
582 474 1
636 474 1
645 474 1
690 474 1
693 474 1
65 475 1
70 475 1
570 475 1
583 475 1
637 475 1
646 475 1
691 475 1
694 475 1
66 476 1
71 476 1
571 476 1
584 476 1
638 476 1
647 476 1
692 476 1
695 476 1
67 477 1
72 477 1
572 477 1
585 477 1
639 477 1
648 477 1
693 477 1
696 477 1
68 478 1
73 478 1
573 478 1
586 478 1
622 478 1
640 478 1
694 478 1
697 478 1
69 479 1
74 479 1
574 479 1
587 479 1
623 479 1
641 479 1
695 479 1
698 479 1
70 480 1
75 480 1
575 480 1
588 480 1
624 480 1
642 480 1
696 480 1
699 480 1
71 481 1
76 481 1
576 481 1
589 481 1
625 481 1
643 481 1
697 481 1
700 481 1
72 482 1
77 482 1
577 482 1
590 482 1
626 482 1
644 482 1
698 482 1
701 482 1
73 483 1
78 483 1
578 483 1
591 483 1
627 483 1
645 483 1
699 483 1
702 483 1
74 484 1
79 484 1
579 484 1
592 484 1
628 484 1
646 484 1
676 484 1
700 484 1
75 485 1
80 485 1
580 485 1
593 485 1
629 485 1
647 485 1
677 485 1
701 485 1
76 486 1
81 486 1
581 486 1
594 486 1
630 486 1
648 486 1
678 486 1
702 486 1
82 487 1
104 487 1
595 487 1
609 487 1
649 487 1
658 487 1
676 487 1
680 487 1
83 488 1
105 488 1
596 488 1
610 488 1
650 488 1
659 488 1
677 488 1
681 488 1
84 489 1
106 489 1
597 489 1
611 489 1
651 489 1
660 489 1
678 489 1
682 489 1
85 490 1
107 490 1
598 490 1
612 490 1
652 490 1
661 490 1
679 490 1
683 490 1
86 491 1
108 491 1
599 491 1
613 491 1
653 491 1
662 491 1
680 491 1
684 491 1
82 492 1
87 492 1
600 492 1
614 492 1
654 492 1
663 492 1
681 492 1
685 492 1
83 493 1
88 493 1
601 493 1
615 493 1
655 493 1
664 493 1
682 493 1
686 493 1
84 494 1
89 494 1
602 494 1
616 494 1
656 494 1
665 494 1
683 494 1
687 494 1
85 495 1
90 495 1
603 495 1
617 495 1
657 495 1
666 495 1
684 495 1
688 495 1
86 496 1
91 496 1
604 496 1
618 496 1
658 496 1
667 496 1
685 496 1
689 496 1
87 497 1
92 497 1
605 497 1
619 497 1
659 497 1
668 497 1
686 497 1
690 497 1
88 498 1
93 498 1
606 498 1
620 498 1
660 498 1
669 498 1
687 498 1
691 498 1
89 499 1
94 499 1
607 499 1
621 499 1
661 499 1
670 499 1
688 499 1
692 499 1
90 500 1
95 500 1
595 500 1
608 500 1
662 500 1
671 500 1
689 500 1
693 500 1
91 501 1
96 501 1
596 501 1
609 501 1
663 501 1
672 501 1
690 501 1
694 501 1
92 502 1
97 502 1
597 502 1
610 502 1
664 502 1
673 502 1
691 502 1
695 502 1
93 503 1
98 503 1
598 503 1
611 503 1
665 503 1
674 503 1
692 503 1
696 503 1
94 504 1
99 504 1
599 504 1
612 504 1
666 504 1
675 504 1
693 504 1
697 504 1
95 505 1
100 505 1
600 505 1
613 505 1
649 505 1
667 505 1
694 505 1
698 505 1
96 506 1
101 506 1
601 506 1
614 506 1
650 506 1
668 506 1
695 506 1
699 506 1
97 507 1
102 507 1
602 507 1
615 507 1
651 507 1
669 507 1
696 507 1
700 507 1
98 508 1
103 508 1
603 508 1
616 508 1
652 508 1
670 508 1
697 508 1
701 508 1
99 509 1
104 509 1
604 509 1
617 509 1
653 509 1
671 509 1
698 509 1
702 509 1
100 510 1
105 510 1
605 510 1
618 510 1
654 510 1
672 510 1
676 510 1
699 510 1
101 511 1
106 511 1
606 511 1
619 511 1
655 511 1
673 511 1
677 511 1
700 511 1
102 512 1
107 512 1
607 512 1
620 512 1
656 512 1
674 512 1
678 512 1
701 512 1
103 513 1
108 513 1
608 513 1
621 513 1
657 513 1
675 513 1
679 513 1
702 513 1
109 514 1
131 514 1
541 514 1
557 514 1
703 514 1
707 514 1
730 514 1
733 514 1
110 515 1
132 515 1
542 515 1
558 515 1
704 515 1
708 515 1
731 515 1
734 515 1
111 516 1
133 516 1
543 516 1
559 516 1
705 516 1
709 516 1
732 516 1
735 516 1
112 517 1
134 517 1
544 517 1
560 517 1
706 517 1
710 517 1
733 517 1
736 517 1
113 518 1
135 518 1
545 518 1
561 518 1
707 518 1
711 518 1
734 518 1
737 518 1
109 519 1
114 519 1
546 519 1
562 519 1
708 519 1
712 519 1
735 519 1
738 519 1
110 520 1
115 520 1
547 520 1
563 520 1
709 520 1
713 520 1
736 520 1
739 520 1
111 521 1
116 521 1
548 521 1
564 521 1
710 521 1
714 521 1
737 521 1
740 521 1
112 522 1
117 522 1
549 522 1
565 522 1
711 522 1
715 522 1
738 522 1
741 522 1
113 523 1
118 523 1
550 523 1
566 523 1
712 523 1
716 523 1
739 523 1
742 523 1
114 524 1
119 524 1
551 524 1
567 524 1
713 524 1
717 524 1
740 524 1
743 524 1
115 525 1
120 525 1
541 525 1
552 525 1
714 525 1
718 525 1
741 525 1
744 525 1
116 526 1
121 526 1
542 526 1
553 526 1
715 526 1
719 526 1
742 526 1
745 526 1
117 527 1
122 527 1
543 527 1
554 527 1
716 527 1
720 527 1
743 527 1
746 527 1
118 528 1
123 528 1
544 528 1
555 528 1
717 528 1
721 528 1
744 528 1
747 528 1
119 529 1
124 529 1
545 529 1
556 529 1
718 529 1
722 529 1
745 529 1
748 529 1
120 530 1
125 530 1
546 530 1
557 530 1
719 530 1
723 530 1
746 530 1
749 530 1
121 531 1
126 531 1
547 531 1
558 531 1
720 531 1
724 531 1
747 531 1
750 531 1
122 532 1
127 532 1
548 532 1
559 532 1
721 532 1
725 532 1
748 532 1
751 532 1
123 533 1
128 533 1
549 533 1
560 533 1
722 533 1
726 533 1
749 533 1
752 533 1
124 534 1
129 534 1
550 534 1
561 534 1
723 534 1
727 534 1
750 534 1
753 534 1
125 535 1
130 535 1
551 535 1
562 535 1
724 535 1
728 535 1
751 535 1
754 535 1
126 536 1
131 536 1
552 536 1
563 536 1
725 536 1
729 536 1
752 536 1
755 536 1
127 537 1
132 537 1
553 537 1
564 537 1
703 537 1
726 537 1
753 537 1
756 537 1
128 538 1
133 538 1
554 538 1
565 538 1
704 538 1
727 538 1
730 538 1
754 538 1
129 539 1
134 539 1
555 539 1
566 539 1
705 539 1
728 539 1
731 539 1
755 539 1
130 540 1
135 540 1
556 540 1
567 540 1
706 540 1
729 540 1
732 540 1
756 540 1
136 541 1
158 541 1
568 541 1
584 541 1
703 541 1
712 541 1
757 541 1
760 541 1
137 542 1
159 542 1
569 542 1
585 542 1
704 542 1
713 542 1
758 542 1
761 542 1
138 543 1
160 543 1
570 543 1
586 543 1
705 543 1
714 543 1
759 543 1
762 543 1
139 544 1
161 544 1
571 544 1
587 544 1
706 544 1
715 544 1
760 544 1
763 544 1
140 545 1
162 545 1
572 545 1
588 545 1
707 545 1
716 545 1
761 545 1
764 545 1
136 546 1
141 546 1
573 546 1
589 546 1
708 546 1
717 546 1
762 546 1
765 546 1
137 547 1
142 547 1
574 547 1
590 547 1
709 547 1
718 547 1
763 547 1
766 547 1
138 548 1
143 548 1
575 548 1
591 548 1
710 548 1
719 548 1
764 548 1
767 548 1
139 549 1
144 549 1
576 549 1
592 549 1
711 549 1
720 549 1
765 549 1
768 549 1
140 550 1
145 550 1
577 550 1
593 550 1
712 550 1
721 550 1
766 550 1
769 550 1
141 551 1
146 551 1
578 551 1
594 551 1
713 551 1
722 551 1
767 551 1
770 551 1
142 552 1
147 552 1
568 552 1
579 552 1
714 552 1
723 552 1
768 552 1
771 552 1
143 553 1
148 553 1
569 553 1
580 553 1
715 553 1
724 553 1
769 553 1
772 553 1
144 554 1
149 554 1
570 554 1
581 554 1
716 554 1
725 554 1
770 554 1
773 554 1
145 555 1
150 555 1
571 555 1
582 555 1
717 555 1
726 555 1
771 555 1
774 555 1
146 556 1
151 556 1
572 556 1
583 556 1
718 556 1
727 556 1
772 556 1
775 556 1
147 557 1
152 557 1
573 557 1
584 557 1
719 557 1
728 557 1
773 557 1
776 557 1
148 558 1
153 558 1
574 558 1
585 558 1
720 558 1
729 558 1
774 558 1
777 558 1
149 559 1
154 559 1
575 559 1
586 559 1
703 559 1
721 559 1
775 559 1
778 559 1
150 560 1
155 560 1
576 560 1
587 560 1
704 560 1
722 560 1
776 560 1
779 560 1
151 561 1
156 561 1
577 561 1
588 561 1
705 561 1
723 561 1
777 561 1
780 561 1
152 562 1
157 562 1
578 562 1
589 562 1
706 562 1
724 562 1
778 562 1
781 562 1
153 563 1
158 563 1
579 563 1
590 563 1
707 563 1
725 563 1
779 563 1
782 563 1
154 564 1
159 564 1
580 564 1
591 564 1
708 564 1
726 564 1
780 564 1
783 564 1
155 565 1
160 565 1
581 565 1
592 565 1
709 565 1
727 565 1
757 565 1
781 565 1
156 566 1
161 566 1
582 566 1
593 566 1
710 566 1
728 566 1
758 566 1
782 566 1
157 567 1
162 567 1
583 567 1
594 567 1
711 567 1
729 567 1
759 567 1
783 567 1
163 568 1
185 568 1
595 568 1
611 568 1
730 568 1
739 568 1
757 568 1
761 568 1
164 569 1
186 569 1
596 569 1
612 569 1
731 569 1
740 569 1
758 569 1
762 569 1
165 570 1
187 570 1
597 570 1
613 570 1
732 570 1
741 570 1
759 570 1
763 570 1
166 571 1
188 571 1
598 571 1
614 571 1
733 571 1
742 571 1
760 571 1
764 571 1
167 572 1
189 572 1
599 572 1
615 572 1
734 572 1
743 572 1
761 572 1
765 572 1
163 573 1
168 573 1
600 573 1
616 573 1
735 573 1
744 573 1
762 573 1
766 573 1
164 574 1
169 574 1
601 574 1
617 574 1
736 574 1
745 574 1
763 574 1
767 574 1
165 575 1
170 575 1
602 575 1
618 575 1
737 575 1
746 575 1
764 575 1
768 575 1
166 576 1
171 576 1
603 576 1
619 576 1
738 576 1
747 576 1
765 576 1
769 576 1
167 577 1
172 577 1
604 577 1
620 577 1
739 577 1
748 577 1
766 577 1
770 577 1
168 578 1
173 578 1
605 578 1
621 578 1
740 578 1
749 578 1
767 578 1
771 578 1
169 579 1
174 579 1
595 579 1
606 579 1
741 579 1
750 579 1
768 579 1
772 579 1
170 580 1
175 580 1
596 580 1
607 580 1
742 580 1
751 580 1
769 580 1
773 580 1
171 581 1
176 581 1
597 581 1
608 581 1
743 581 1
752 581 1
770 581 1
774 581 1
172 582 1
177 582 1
598 582 1
609 582 1
744 582 1
753 582 1
771 582 1
775 582 1
173 583 1
178 583 1
599 583 1
610 583 1
745 583 1
754 583 1
772 583 1
776 583 1
174 584 1
179 584 1
600 584 1
611 584 1
746 584 1
755 584 1
773 584 1
777 584 1
175 585 1
180 585 1
601 585 1
612 585 1
747 585 1
756 585 1
774 585 1
778 585 1
176 586 1
181 586 1
602 586 1
613 586 1
730 586 1
748 586 1
775 586 1
779 586 1
177 587 1
182 587 1
603 587 1
614 587 1
731 587 1
749 587 1
776 587 1
780 587 1
178 588 1
183 588 1
604 588 1
615 588 1
732 588 1
750 588 1
777 588 1
781 588 1
179 589 1
184 589 1
605 589 1
616 589 1
733 589 1
751 589 1
778 589 1
782 589 1
180 590 1
185 590 1
606 590 1
617 590 1
734 590 1
752 590 1
779 590 1
783 590 1
181 591 1
186 591 1
607 591 1
618 591 1
735 591 1
753 591 1
757 591 1
780 591 1
182 592 1
187 592 1
608 592 1
619 592 1
736 592 1
754 592 1
758 592 1
781 592 1
183 593 1
188 593 1
609 593 1
620 593 1
737 593 1
755 593 1
759 593 1
782 593 1
184 594 1
189 594 1
610 594 1
621 594 1
738 594 1
756 594 1
760 594 1
783 594 1
190 595 1
212 595 1
622 595 1
638 595 1
703 595 1
717 595 1
784 595 1
787 595 1
191 596 1
213 596 1
623 596 1
639 596 1
704 596 1
718 596 1
785 596 1
788 596 1
192 597 1
214 597 1
624 597 1
640 597 1
705 597 1
719 597 1
786 597 1
789 597 1
193 598 1
215 598 1
625 598 1
641 598 1
706 598 1
720 598 1
787 598 1
790 598 1
194 599 1
216 599 1
626 599 1
642 599 1
707 599 1
721 599 1
788 599 1
791 599 1
190 600 1
195 600 1
627 600 1
643 600 1
708 600 1
722 600 1
789 600 1
792 600 1
191 601 1
196 601 1
628 601 1
644 601 1
709 601 1
723 601 1
790 601 1
793 601 1
192 602 1
197 602 1
629 602 1
645 602 1
710 602 1
724 602 1
791 602 1
794 602 1
193 603 1
198 603 1
630 603 1
646 603 1
711 603 1
725 603 1
792 603 1
795 603 1
194 604 1
199 604 1
631 604 1
647 604 1
712 604 1
726 604 1
793 604 1
796 604 1
195 605 1
200 605 1
632 605 1
648 605 1
713 605 1
727 605 1
794 605 1
797 605 1
196 606 1
201 606 1
622 606 1
633 606 1
714 606 1
728 606 1
795 606 1
798 606 1
197 607 1
202 607 1
623 607 1
634 607 1
715 607 1
729 607 1
796 607 1
799 607 1
198 608 1
203 608 1
624 608 1
635 608 1
703 608 1
716 608 1
797 608 1
800 608 1
199 609 1
204 609 1
625 609 1
636 609 1
704 609 1
717 609 1
798 609 1
801 609 1
200 610 1
205 610 1
626 610 1
637 610 1
705 610 1
718 610 1
799 610 1
802 610 1
201 611 1
206 611 1
627 611 1
638 611 1
706 611 1
719 611 1
800 611 1
803 611 1
202 612 1
207 612 1
628 612 1
639 612 1
707 612 1
720 612 1
801 612 1
804 612 1
203 613 1
208 613 1
629 613 1
640 613 1
708 613 1
721 613 1
802 613 1
805 613 1
204 614 1
209 614 1
630 614 1
641 614 1
709 614 1
722 614 1
803 614 1
806 614 1
205 615 1
210 615 1
631 615 1
642 615 1
710 615 1
723 615 1
804 615 1
807 615 1
206 616 1
211 616 1
632 616 1
643 616 1
711 616 1
724 616 1
805 616 1
808 616 1
207 617 1
212 617 1
633 617 1
644 617 1
712 617 1
725 617 1
806 617 1
809 617 1
208 618 1
213 618 1
634 618 1
645 618 1
713 618 1
726 618 1
807 618 1
810 618 1
209 619 1
214 619 1
635 619 1
646 619 1
714 619 1
727 619 1
784 619 1
808 619 1
210 620 1
215 620 1
636 620 1
647 620 1
715 620 1
728 620 1
785 620 1
809 620 1
211 621 1
216 621 1
637 621 1
648 621 1
716 621 1
729 621 1
786 621 1
810 621 1
217 622 1
239 622 1
649 622 1
665 622 1
730 622 1
744 622 1
784 622 1
788 622 1
218 623 1
240 623 1
650 623 1
666 623 1
731 623 1
745 623 1
785 623 1
789 623 1
219 624 1
241 624 1
651 624 1
667 624 1
732 624 1
746 624 1
786 624 1
790 624 1
220 625 1
242 625 1
652 625 1
668 625 1
733 625 1
747 625 1
787 625 1
791 625 1
221 626 1
243 626 1
653 626 1
669 626 1
734 626 1
748 626 1
788 626 1
792 626 1
217 627 1
222 627 1
654 627 1
670 627 1
735 627 1
749 627 1
789 627 1
793 627 1
218 628 1
223 628 1
655 628 1
671 628 1
736 628 1
750 628 1
790 628 1
794 628 1
219 629 1
224 629 1
656 629 1
672 629 1
737 629 1
751 629 1
791 629 1
795 629 1
220 630 1
225 630 1
657 630 1
673 630 1
738 630 1
752 630 1
792 630 1
796 630 1
221 631 1
226 631 1
658 631 1
674 631 1
739 631 1
753 631 1
793 631 1
797 631 1
222 632 1
227 632 1
659 632 1
675 632 1
740 632 1
754 632 1
794 632 1
798 632 1
223 633 1
228 633 1
649 633 1
660 633 1
741 633 1
755 633 1
795 633 1
799 633 1
224 634 1
229 634 1
650 634 1
661 634 1
742 634 1
756 634 1
796 634 1
800 634 1
225 635 1
230 635 1
651 635 1
662 635 1
730 635 1
743 635 1
797 635 1
801 635 1
226 636 1
231 636 1
652 636 1
663 636 1
731 636 1
744 636 1
798 636 1
802 636 1
227 637 1
232 637 1
653 637 1
664 637 1
732 637 1
745 637 1
799 637 1
803 637 1
228 638 1
233 638 1
654 638 1
665 638 1
733 638 1
746 638 1
800 638 1
804 638 1
229 639 1
234 639 1
655 639 1
666 639 1
734 639 1
747 639 1
801 639 1
805 639 1
230 640 1
235 640 1
656 640 1
667 640 1
735 640 1
748 640 1
802 640 1
806 640 1
231 641 1
236 641 1
657 641 1
668 641 1
736 641 1
749 641 1
803 641 1
807 641 1
232 642 1
237 642 1
658 642 1
669 642 1
737 642 1
750 642 1
804 642 1
808 642 1
233 643 1
238 643 1
659 643 1
670 643 1
738 643 1
751 643 1
805 643 1
809 643 1
234 644 1
239 644 1
660 644 1
671 644 1
739 644 1
752 644 1
806 644 1
810 644 1
235 645 1
240 645 1
661 645 1
672 645 1
740 645 1
753 645 1
784 645 1
807 645 1
236 646 1
241 646 1
662 646 1
673 646 1
741 646 1
754 646 1
785 646 1
808 646 1
237 647 1
242 647 1
663 647 1
674 647 1
742 647 1
755 647 1
786 647 1
809 647 1
238 648 1
243 648 1
664 648 1
675 648 1
743 648 1
756 648 1
787 648 1
810 648 1
244 649 1
266 649 1
676 649 1
692 649 1
757 649 1
771 649 1
784 649 1
793 649 1
245 650 1
267 650 1
677 650 1
693 650 1
758 650 1
772 650 1
785 650 1
794 650 1
246 651 1
268 651 1
678 651 1
694 651 1
759 651 1
773 651 1
786 651 1
795 651 1
247 652 1
269 652 1
679 652 1
695 652 1
760 652 1
774 652 1
787 652 1
796 652 1
248 653 1
270 653 1
680 653 1
696 653 1
761 653 1
775 653 1
788 653 1
797 653 1
244 654 1
249 654 1
681 654 1
697 654 1
762 654 1
776 654 1
789 654 1
798 654 1
245 655 1
250 655 1
682 655 1
698 655 1
763 655 1
777 655 1
790 655 1
799 655 1
246 656 1
251 656 1
683 656 1
699 656 1
764 656 1
778 656 1
791 656 1
800 656 1
247 657 1
252 657 1
684 657 1
700 657 1
765 657 1
779 657 1
792 657 1
801 657 1
248 658 1
253 658 1
685 658 1
701 658 1
766 658 1
780 658 1
793 658 1
802 658 1
249 659 1
254 659 1
686 659 1
702 659 1
767 659 1
781 659 1
794 659 1
803 659 1
250 660 1
255 660 1
676 660 1
687 660 1
768 660 1
782 660 1
795 660 1
804 660 1
251 661 1
256 661 1
677 661 1
688 661 1
769 661 1
783 661 1
796 661 1
805 661 1
252 662 1
257 662 1
678 662 1
689 662 1
757 662 1
770 662 1
797 662 1
806 662 1
253 663 1
258 663 1
679 663 1
690 663 1
758 663 1
771 663 1
798 663 1
807 663 1
254 664 1
259 664 1
680 664 1
691 664 1
759 664 1
772 664 1
799 664 1
808 664 1
255 665 1
260 665 1
681 665 1
692 665 1
760 665 1
773 665 1
800 665 1
809 665 1
256 666 1
261 666 1
682 666 1
693 666 1
761 666 1
774 666 1
801 666 1
810 666 1
257 667 1
262 667 1
683 667 1
694 667 1
762 667 1
775 667 1
784 667 1
802 667 1
258 668 1
263 668 1
684 668 1
695 668 1
763 668 1
776 668 1
785 668 1
803 668 1
259 669 1
264 669 1
685 669 1
696 669 1
764 669 1
777 669 1
786 669 1
804 669 1
260 670 1
265 670 1
686 670 1
697 670 1
765 670 1
778 670 1
787 670 1
805 670 1
261 671 1
266 671 1
687 671 1
698 671 1
766 671 1
779 671 1
788 671 1
806 671 1
262 672 1
267 672 1
688 672 1
699 672 1
767 672 1
780 672 1
789 672 1
807 672 1
263 673 1
268 673 1
689 673 1
700 673 1
768 673 1
781 673 1
790 673 1
808 673 1
264 674 1
269 674 1
690 674 1
701 674 1
769 674 1
782 674 1
791 674 1
809 674 1
265 675 1
270 675 1
691 675 1
702 675 1
770 675 1
783 675 1
792 675 1
810 675 1
271 676 1
293 676 1
541 676 1
560 676 1
811 676 1
815 676 1
838 676 1
841 676 1
272 677 1
294 677 1
542 677 1
561 677 1
812 677 1
816 677 1
839 677 1
842 677 1
273 678 1
295 678 1
543 678 1
562 678 1
813 678 1
817 678 1
840 678 1
843 678 1
274 679 1
296 679 1
544 679 1
563 679 1
814 679 1
818 679 1
841 679 1
844 679 1
275 680 1
297 680 1
545 680 1
564 680 1
815 680 1
819 680 1
842 680 1
845 680 1
271 681 1
276 681 1
546 681 1
565 681 1
816 681 1
820 681 1
843 681 1
846 681 1
272 682 1
277 682 1
547 682 1
566 682 1
817 682 1
821 682 1
844 682 1
847 682 1
273 683 1
278 683 1
548 683 1
567 683 1
818 683 1
822 683 1
845 683 1
848 683 1
274 684 1
279 684 1
541 684 1
549 684 1
819 684 1
823 684 1
846 684 1
849 684 1
275 685 1
280 685 1
542 685 1
550 685 1
820 685 1
824 685 1
847 685 1
850 685 1
276 686 1
281 686 1
543 686 1
551 686 1
821 686 1
825 686 1
848 686 1
851 686 1
277 687 1
282 687 1
544 687 1
552 687 1
822 687 1
826 687 1
849 687 1
852 687 1
278 688 1
283 688 1
545 688 1
553 688 1
823 688 1
827 688 1
850 688 1
853 688 1
279 689 1
284 689 1
546 689 1
554 689 1
824 689 1
828 689 1
851 689 1
854 689 1
280 690 1
285 690 1
547 690 1
555 690 1
825 690 1
829 690 1
852 690 1
855 690 1
281 691 1
286 691 1
548 691 1
556 691 1
826 691 1
830 691 1
853 691 1
856 691 1
282 692 1
287 692 1
549 692 1
557 692 1
827 692 1
831 692 1
854 692 1
857 692 1
283 693 1
288 693 1
550 693 1
558 693 1
828 693 1
832 693 1
855 693 1
858 693 1
284 694 1
289 694 1
551 694 1
559 694 1
829 694 1
833 694 1
856 694 1
859 694 1
285 695 1
290 695 1
552 695 1
560 695 1
830 695 1
834 695 1
857 695 1
860 695 1
286 696 1
291 696 1
553 696 1
561 696 1
831 696 1
835 696 1
858 696 1
861 696 1
287 697 1
292 697 1
554 697 1
562 697 1
832 697 1
836 697 1
859 697 1
862 697 1
288 698 1
293 698 1
555 698 1
563 698 1
833 698 1
837 698 1
860 698 1
863 698 1
289 699 1
294 699 1
556 699 1
564 699 1
811 699 1
834 699 1
861 699 1
864 699 1
290 700 1
295 700 1
557 700 1
565 700 1
812 700 1
835 700 1
838 700 1
862 700 1
291 701 1
296 701 1
558 701 1
566 701 1
813 701 1
836 701 1
839 701 1
863 701 1
292 702 1
297 702 1
559 702 1
567 702 1
814 702 1
837 702 1
840 702 1
864 702 1
298 703 1
320 703 1
568 703 1
587 703 1
811 703 1
820 703 1
865 703 1
868 703 1
299 704 1
321 704 1
569 704 1
588 704 1
812 704 1
821 704 1
866 704 1
869 704 1
300 705 1
322 705 1
570 705 1
589 705 1
813 705 1
822 705 1
867 705 1
870 705 1
301 706 1
323 706 1
571 706 1
590 706 1
814 706 1
823 706 1
868 706 1
871 706 1
302 707 1
324 707 1
572 707 1
591 707 1
815 707 1
824 707 1
869 707 1
872 707 1
298 708 1
303 708 1
573 708 1
592 708 1
816 708 1
825 708 1
870 708 1
873 708 1
299 709 1
304 709 1
574 709 1
593 709 1
817 709 1
826 709 1
871 709 1
874 709 1
300 710 1
305 710 1
575 710 1
594 710 1
818 710 1
827 710 1
872 710 1
875 710 1
301 711 1
306 711 1
568 711 1
576 711 1
819 711 1
828 711 1
873 711 1
876 711 1
302 712 1
307 712 1
569 712 1
577 712 1
820 712 1
829 712 1
874 712 1
877 712 1
303 713 1
308 713 1
570 713 1
578 713 1
821 713 1
830 713 1
875 713 1
878 713 1
304 714 1
309 714 1
571 714 1
579 714 1
822 714 1
831 714 1
876 714 1
879 714 1
305 715 1
310 715 1
572 715 1
580 715 1
823 715 1
832 715 1
877 715 1
880 715 1
306 716 1
311 716 1
573 716 1
581 716 1
824 716 1
833 716 1
878 716 1
881 716 1
307 717 1
312 717 1
574 717 1
582 717 1
825 717 1
834 717 1
879 717 1
882 717 1
308 718 1
313 718 1
575 718 1
583 718 1
826 718 1
835 718 1
880 718 1
883 718 1
309 719 1
314 719 1
576 719 1
584 719 1
827 719 1
836 719 1
881 719 1
884 719 1
310 720 1
315 720 1
577 720 1
585 720 1
828 720 1
837 720 1
882 720 1
885 720 1
311 721 1
316 721 1
578 721 1
586 721 1
811 721 1
829 721 1
883 721 1
886 721 1
312 722 1
317 722 1
579 722 1
587 722 1
812 722 1
830 722 1
884 722 1
887 722 1
313 723 1
318 723 1
580 723 1
588 723 1
813 723 1
831 723 1
885 723 1
888 723 1
314 724 1
319 724 1
581 724 1
589 724 1
814 724 1
832 724 1
886 724 1
889 724 1
315 725 1
320 725 1
582 725 1
590 725 1
815 725 1
833 725 1
887 725 1
890 725 1
316 726 1
321 726 1
583 726 1
591 726 1
816 726 1
834 726 1
888 726 1
891 726 1
317 727 1
322 727 1
584 727 1
592 727 1
817 727 1
835 727 1
865 727 1
889 727 1
318 728 1
323 728 1
585 728 1
593 728 1
818 728 1
836 728 1
866 728 1
890 728 1
319 729 1
324 729 1
586 729 1
594 729 1
819 729 1
837 729 1
867 729 1
891 729 1
325 730 1
347 730 1
595 730 1
614 730 1
838 730 1
847 730 1
865 730 1
869 730 1
326 731 1
348 731 1
596 731 1
615 731 1
839 731 1
848 731 1
866 731 1
870 731 1
327 732 1
349 732 1
597 732 1
616 732 1
840 732 1
849 732 1
867 732 1
871 732 1
328 733 1
350 733 1
598 733 1
617 733 1
841 733 1
850 733 1
868 733 1
872 733 1
329 734 1
351 734 1
599 734 1
618 734 1
842 734 1
851 734 1
869 734 1
873 734 1
325 735 1
330 735 1
600 735 1
619 735 1
843 735 1
852 735 1
870 735 1
874 735 1
326 736 1
331 736 1
601 736 1
620 736 1
844 736 1
853 736 1
871 736 1
875 736 1
327 737 1
332 737 1
602 737 1
621 737 1
845 737 1
854 737 1
872 737 1
876 737 1
328 738 1
333 738 1
595 738 1
603 738 1
846 738 1
855 738 1
873 738 1
877 738 1
329 739 1
334 739 1
596 739 1
604 739 1
847 739 1
856 739 1
874 739 1
878 739 1
330 740 1
335 740 1
597 740 1
605 740 1
848 740 1
857 740 1
875 740 1
879 740 1
331 741 1
336 741 1
598 741 1
606 741 1
849 741 1
858 741 1
876 741 1
880 741 1
332 742 1
337 742 1
599 742 1
607 742 1
850 742 1
859 742 1
877 742 1
881 742 1
333 743 1
338 743 1
600 743 1
608 743 1
851 743 1
860 743 1
878 743 1
882 743 1
334 744 1
339 744 1
601 744 1
609 744 1
852 744 1
861 744 1
879 744 1
883 744 1
335 745 1
340 745 1
602 745 1
610 745 1
853 745 1
862 745 1
880 745 1
884 745 1
336 746 1
341 746 1
603 746 1
611 746 1
854 746 1
863 746 1
881 746 1
885 746 1
337 747 1
342 747 1
604 747 1
612 747 1
855 747 1
864 747 1
882 747 1
886 747 1
338 748 1
343 748 1
605 748 1
613 748 1
838 748 1
856 748 1
883 748 1
887 748 1
339 749 1
344 749 1
606 749 1
614 749 1
839 749 1
857 749 1
884 749 1
888 749 1
340 750 1
345 750 1
607 750 1
615 750 1
840 750 1
858 750 1
885 750 1
889 750 1
341 751 1
346 751 1
608 751 1
616 751 1
841 751 1
859 751 1
886 751 1
890 751 1
342 752 1
347 752 1
609 752 1
617 752 1
842 752 1
860 752 1
887 752 1
891 752 1
343 753 1
348 753 1
610 753 1
618 753 1
843 753 1
861 753 1
865 753 1
888 753 1
344 754 1
349 754 1
611 754 1
619 754 1
844 754 1
862 754 1
866 754 1
889 754 1
345 755 1
350 755 1
612 755 1
620 755 1
845 755 1
863 755 1
867 755 1
890 755 1
346 756 1
351 756 1
613 756 1
621 756 1
846 756 1
864 756 1
868 756 1
891 756 1
352 757 1
374 757 1
622 757 1
641 757 1
811 757 1
825 757 1
892 757 1
895 757 1
353 758 1
375 758 1
623 758 1
642 758 1
812 758 1
826 758 1
893 758 1
896 758 1
354 759 1
376 759 1
624 759 1
643 759 1
813 759 1
827 759 1
894 759 1
897 759 1
355 760 1
377 760 1
625 760 1
644 760 1
814 760 1
828 760 1
895 760 1
898 760 1
356 761 1
378 761 1
626 761 1
645 761 1
815 761 1
829 761 1
896 761 1
899 761 1
352 762 1
357 762 1
627 762 1
646 762 1
816 762 1
830 762 1
897 762 1
900 762 1
353 763 1
358 763 1
628 763 1
647 763 1
817 763 1
831 763 1
898 763 1
901 763 1
354 764 1
359 764 1
629 764 1
648 764 1
818 764 1
832 764 1
899 764 1
902 764 1
355 765 1
360 765 1
622 765 1
630 765 1
819 765 1
833 765 1
900 765 1
903 765 1
356 766 1
361 766 1
623 766 1
631 766 1
820 766 1
834 766 1
901 766 1
904 766 1
357 767 1
362 767 1
624 767 1
632 767 1
821 767 1
835 767 1
902 767 1
905 767 1
358 768 1
363 768 1
625 768 1
633 768 1
822 768 1
836 768 1
903 768 1
906 768 1
359 769 1
364 769 1
626 769 1
634 769 1
823 769 1
837 769 1
904 769 1
907 769 1
360 770 1
365 770 1
627 770 1
635 770 1
811 770 1
824 770 1
905 770 1
908 770 1
361 771 1
366 771 1
628 771 1
636 771 1
812 771 1
825 771 1
906 771 1
909 771 1
362 772 1
367 772 1
629 772 1
637 772 1
813 772 1
826 772 1
907 772 1
910 772 1
363 773 1
368 773 1
630 773 1
638 773 1
814 773 1
827 773 1
908 773 1
911 773 1
364 774 1
369 774 1
631 774 1
639 774 1
815 774 1
828 774 1
909 774 1
912 774 1
365 775 1
370 775 1
632 775 1
640 775 1
816 775 1
829 775 1
910 775 1
913 775 1
366 776 1
371 776 1
633 776 1
641 776 1
817 776 1
830 776 1
911 776 1
914 776 1
367 777 1
372 777 1
634 777 1
642 777 1
818 777 1
831 777 1
912 777 1
915 777 1
368 778 1
373 778 1
635 778 1
643 778 1
819 778 1
832 778 1
913 778 1
916 778 1
369 779 1
374 779 1
636 779 1
644 779 1
820 779 1
833 779 1
914 779 1
917 779 1
370 780 1
375 780 1
637 780 1
645 780 1
821 780 1
834 780 1
915 780 1
918 780 1
371 781 1
376 781 1
638 781 1
646 781 1
822 781 1
835 781 1
892 781 1
916 781 1
372 782 1
377 782 1
639 782 1
647 782 1
823 782 1
836 782 1
893 782 1
917 782 1
373 783 1
378 783 1
640 783 1
648 783 1
824 783 1
837 783 1
894 783 1
918 783 1
379 784 1
401 784 1
649 784 1
668 784 1
838 784 1
852 784 1
892 784 1
896 784 1
380 785 1
402 785 1
650 785 1
669 785 1
839 785 1
853 785 1
893 785 1
897 785 1
381 786 1
403 786 1
651 786 1
670 786 1
840 786 1
854 786 1
894 786 1
898 786 1
382 787 1
404 787 1
652 787 1
671 787 1
841 787 1
855 787 1
895 787 1
899 787 1
383 788 1
405 788 1
653 788 1
672 788 1
842 788 1
856 788 1
896 788 1
900 788 1
379 789 1
384 789 1
654 789 1
673 789 1
843 789 1
857 789 1
897 789 1
901 789 1
380 790 1
385 790 1
655 790 1
674 790 1
844 790 1
858 790 1
898 790 1
902 790 1
381 791 1
386 791 1
656 791 1
675 791 1
845 791 1
859 791 1
899 791 1
903 791 1
382 792 1
387 792 1
649 792 1
657 792 1
846 792 1
860 792 1
900 792 1
904 792 1
383 793 1
388 793 1
650 793 1
658 793 1
847 793 1
861 793 1
901 793 1
905 793 1
384 794 1
389 794 1
651 794 1
659 794 1
848 794 1
862 794 1
902 794 1
906 794 1
385 795 1
390 795 1
652 795 1
660 795 1
849 795 1
863 795 1
903 795 1
907 795 1
386 796 1
391 796 1
653 796 1
661 796 1
850 796 1
864 796 1
904 796 1
908 796 1
387 797 1
392 797 1
654 797 1
662 797 1
838 797 1
851 797 1
905 797 1
909 797 1
388 798 1
393 798 1
655 798 1
663 798 1
839 798 1
852 798 1
906 798 1
910 798 1
389 799 1
394 799 1
656 799 1
664 799 1
840 799 1
853 799 1
907 799 1
911 799 1
390 800 1
395 800 1
657 800 1
665 800 1
841 800 1
854 800 1
908 800 1
912 800 1
391 801 1
396 801 1
658 801 1
666 801 1
842 801 1
855 801 1
909 801 1
913 801 1
392 802 1
397 802 1
659 802 1
667 802 1
843 802 1
856 802 1
910 802 1
914 802 1
393 803 1
398 803 1
660 803 1
668 803 1
844 803 1
857 803 1
911 803 1
915 803 1
394 804 1
399 804 1
661 804 1
669 804 1
845 804 1
858 804 1
912 804 1
916 804 1
395 805 1
400 805 1
662 805 1
670 805 1
846 805 1
859 805 1
913 805 1
917 805 1
396 806 1
401 806 1
663 806 1
671 806 1
847 806 1
860 806 1
914 806 1
918 806 1
397 807 1
402 807 1
664 807 1
672 807 1
848 807 1
861 807 1
892 807 1
915 807 1
398 808 1
403 808 1
665 808 1
673 808 1
849 808 1
862 808 1
893 808 1
916 808 1
399 809 1
404 809 1
666 809 1
674 809 1
850 809 1
863 809 1
894 809 1
917 809 1
400 810 1
405 810 1
667 810 1
675 810 1
851 810 1
864 810 1
895 810 1
918 810 1
406 811 1
428 811 1
676 811 1
695 811 1
865 811 1
879 811 1
892 811 1
901 811 1
407 812 1
429 812 1
677 812 1
696 812 1
866 812 1
880 812 1
893 812 1
902 812 1
408 813 1
430 813 1
678 813 1
697 813 1
867 813 1
881 813 1
894 813 1
903 813 1
409 814 1
431 814 1
679 814 1
698 814 1
868 814 1
882 814 1
895 814 1
904 814 1
410 815 1
432 815 1
680 815 1
699 815 1
869 815 1
883 815 1
896 815 1
905 815 1
406 816 1
411 816 1
681 816 1
700 816 1
870 816 1
884 816 1
897 816 1
906 816 1
407 817 1
412 817 1
682 817 1
701 817 1
871 817 1
885 817 1
898 817 1
907 817 1
408 818 1
413 818 1
683 818 1
702 818 1
872 818 1
886 818 1
899 818 1
908 818 1
409 819 1
414 819 1
676 819 1
684 819 1
873 819 1
887 819 1
900 819 1
909 819 1
410 820 1
415 820 1
677 820 1
685 820 1
874 820 1
888 820 1
901 820 1
910 820 1
411 821 1
416 821 1
678 821 1
686 821 1
875 821 1
889 821 1
902 821 1
911 821 1
412 822 1
417 822 1
679 822 1
687 822 1
876 822 1
890 822 1
903 822 1
912 822 1
413 823 1
418 823 1
680 823 1
688 823 1
877 823 1
891 823 1
904 823 1
913 823 1
414 824 1
419 824 1
681 824 1
689 824 1
865 824 1
878 824 1
905 824 1
914 824 1
415 825 1
420 825 1
682 825 1
690 825 1
866 825 1
879 825 1
906 825 1
915 825 1
416 826 1
421 826 1
683 826 1
691 826 1
867 826 1
880 826 1
907 826 1
916 826 1
417 827 1
422 827 1
684 827 1
692 827 1
868 827 1
881 827 1
908 827 1
917 827 1
418 828 1
423 828 1
685 828 1
693 828 1
869 828 1
882 828 1
909 828 1
918 828 1
419 829 1
424 829 1
686 829 1
694 829 1
870 829 1
883 829 1
892 829 1
910 829 1
420 830 1
425 830 1
687 830 1
695 830 1
871 830 1
884 830 1
893 830 1
911 830 1
421 831 1
426 831 1
688 831 1
696 831 1
872 831 1
885 831 1
894 831 1
912 831 1
422 832 1
427 832 1
689 832 1
697 832 1
873 832 1
886 832 1
895 832 1
913 832 1
423 833 1
428 833 1
690 833 1
698 833 1
874 833 1
887 833 1
896 833 1
914 833 1
424 834 1
429 834 1
691 834 1
699 834 1
875 834 1
888 834 1
897 834 1
915 834 1
425 835 1
430 835 1
692 835 1
700 835 1
876 835 1
889 835 1
898 835 1
916 835 1
426 836 1
431 836 1
693 836 1
701 836 1
877 836 1
890 836 1
899 836 1
917 836 1
427 837 1
432 837 1
694 837 1
702 837 1
878 837 1
891 837 1
900 837 1
918 837 1
433 838 1
455 838 1
703 838 1
722 838 1
811 838 1
827 838 1
919 838 1
922 838 1
434 839 1
456 839 1
704 839 1
723 839 1
812 839 1
828 839 1
920 839 1
923 839 1
435 840 1
457 840 1
705 840 1
724 840 1
813 840 1
829 840 1
921 840 1
924 840 1
436 841 1
458 841 1
706 841 1
725 841 1
814 841 1
830 841 1
922 841 1
925 841 1
437 842 1
459 842 1
707 842 1
726 842 1
815 842 1
831 842 1
923 842 1
926 842 1
433 843 1
438 843 1
708 843 1
727 843 1
816 843 1
832 843 1
924 843 1
927 843 1
434 844 1
439 844 1
709 844 1
728 844 1
817 844 1
833 844 1
925 844 1
928 844 1
435 845 1
440 845 1
710 845 1
729 845 1
818 845 1
834 845 1
926 845 1
929 845 1
436 846 1
441 846 1
703 846 1
711 846 1
819 846 1
835 846 1
927 846 1
930 846 1
437 847 1
442 847 1
704 847 1
712 847 1
820 847 1
836 847 1
928 847 1
931 847 1
438 848 1
443 848 1
705 848 1
713 848 1
821 848 1
837 848 1
929 848 1
932 848 1
439 849 1
444 849 1
706 849 1
714 849 1
811 849 1
822 849 1
930 849 1
933 849 1
440 850 1
445 850 1
707 850 1
715 850 1
812 850 1
823 850 1
931 850 1
934 850 1
441 851 1
446 851 1
708 851 1
716 851 1
813 851 1
824 851 1
932 851 1
935 851 1
442 852 1
447 852 1
709 852 1
717 852 1
814 852 1
825 852 1
933 852 1
936 852 1
443 853 1
448 853 1
710 853 1
718 853 1
815 853 1
826 853 1
934 853 1
937 853 1
444 854 1
449 854 1
711 854 1
719 854 1
816 854 1
827 854 1
935 854 1
938 854 1
445 855 1
450 855 1
712 855 1
720 855 1
817 855 1
828 855 1
936 855 1
939 855 1
446 856 1
451 856 1
713 856 1
721 856 1
818 856 1
829 856 1
937 856 1
940 856 1
447 857 1
452 857 1
714 857 1
722 857 1
819 857 1
830 857 1
938 857 1
941 857 1
448 858 1
453 858 1
715 858 1
723 858 1
820 858 1
831 858 1
939 858 1
942 858 1
449 859 1
454 859 1
716 859 1
724 859 1
821 859 1
832 859 1
940 859 1
943 859 1
450 860 1
455 860 1
717 860 1
725 860 1
822 860 1
833 860 1
941 860 1
944 860 1
451 861 1
456 861 1
718 861 1
726 861 1
823 861 1
834 861 1
942 861 1
945 861 1
452 862 1
457 862 1
719 862 1
727 862 1
824 862 1
835 862 1
919 862 1
943 862 1
453 863 1
458 863 1
720 863 1
728 863 1
825 863 1
836 863 1
920 863 1
944 863 1
454 864 1
459 864 1
721 864 1
729 864 1
826 864 1
837 864 1
921 864 1
945 864 1
460 865 1
482 865 1
730 865 1
749 865 1
838 865 1
854 865 1
919 865 1
923 865 1
461 866 1
483 866 1
731 866 1
750 866 1
839 866 1
855 866 1
920 866 1
924 866 1
462 867 1
484 867 1
732 867 1
751 867 1
840 867 1
856 867 1
921 867 1
925 867 1
463 868 1
485 868 1
733 868 1
752 868 1
841 868 1
857 868 1
922 868 1
926 868 1
464 869 1
486 869 1
734 869 1
753 869 1
842 869 1
858 869 1
923 869 1
927 869 1
460 870 1
465 870 1
735 870 1
754 870 1
843 870 1
859 870 1
924 870 1
928 870 1
461 871 1
466 871 1
736 871 1
755 871 1
844 871 1
860 871 1
925 871 1
929 871 1
462 872 1
467 872 1
737 872 1
756 872 1
845 872 1
861 872 1
926 872 1
930 872 1
463 873 1
468 873 1
730 873 1
738 873 1
846 873 1
862 873 1
927 873 1
931 873 1
464 874 1
469 874 1
731 874 1
739 874 1
847 874 1
863 874 1
928 874 1
932 874 1
465 875 1
470 875 1
732 875 1
740 875 1
848 875 1
864 875 1
929 875 1
933 875 1
466 876 1
471 876 1
733 876 1
741 876 1
838 876 1
849 876 1
930 876 1
934 876 1
467 877 1
472 877 1
734 877 1
742 877 1
839 877 1
850 877 1
931 877 1
935 877 1
468 878 1
473 878 1
735 878 1
743 878 1
840 878 1
851 878 1
932 878 1
936 878 1
469 879 1
474 879 1
736 879 1
744 879 1
841 879 1
852 879 1
933 879 1
937 879 1
470 880 1
475 880 1
737 880 1
745 880 1
842 880 1
853 880 1
934 880 1
938 880 1
471 881 1
476 881 1
738 881 1
746 881 1
843 881 1
854 881 1
935 881 1
939 881 1
472 882 1
477 882 1
739 882 1
747 882 1
844 882 1
855 882 1
936 882 1
940 882 1
473 883 1
478 883 1
740 883 1
748 883 1
845 883 1
856 883 1
937 883 1
941 883 1
474 884 1
479 884 1
741 884 1
749 884 1
846 884 1
857 884 1
938 884 1
942 884 1
475 885 1
480 885 1
742 885 1
750 885 1
847 885 1
858 885 1
939 885 1
943 885 1
476 886 1
481 886 1
743 886 1
751 886 1
848 886 1
859 886 1
940 886 1
944 886 1
477 887 1
482 887 1
744 887 1
752 887 1
849 887 1
860 887 1
941 887 1
945 887 1
478 888 1
483 888 1
745 888 1
753 888 1
850 888 1
861 888 1
919 888 1
942 888 1
479 889 1
484 889 1
746 889 1
754 889 1
851 889 1
862 889 1
920 889 1
943 889 1
480 890 1
485 890 1
747 890 1
755 890 1
852 890 1
863 890 1
921 890 1
944 890 1
481 891 1
486 891 1
748 891 1
756 891 1
853 891 1
864 891 1
922 891 1
945 891 1
487 892 1
509 892 1
757 892 1
776 892 1
865 892 1
881 892 1
919 892 1
928 892 1
488 893 1
510 893 1
758 893 1
777 893 1
866 893 1
882 893 1
920 893 1
929 893 1
489 894 1
511 894 1
759 894 1
778 894 1
867 894 1
883 894 1
921 894 1
930 894 1
490 895 1
512 895 1
760 895 1
779 895 1
868 895 1
884 895 1
922 895 1
931 895 1
491 896 1
513 896 1
761 896 1
780 896 1
869 896 1
885 896 1
923 896 1
932 896 1
487 897 1
492 897 1
762 897 1
781 897 1
870 897 1
886 897 1
924 897 1
933 897 1
488 898 1
493 898 1
763 898 1
782 898 1
871 898 1
887 898 1
925 898 1
934 898 1
489 899 1
494 899 1
764 899 1
783 899 1
872 899 1
888 899 1
926 899 1
935 899 1
490 900 1
495 900 1
757 900 1
765 900 1
873 900 1
889 900 1
927 900 1
936 900 1
491 901 1
496 901 1
758 901 1
766 901 1
874 901 1
890 901 1
928 901 1
937 901 1
492 902 1
497 902 1
759 902 1
767 902 1
875 902 1
891 902 1
929 902 1
938 902 1
493 903 1
498 903 1
760 903 1
768 903 1
865 903 1
876 903 1
930 903 1
939 903 1
494 904 1
499 904 1
761 904 1
769 904 1
866 904 1
877 904 1
931 904 1
940 904 1
495 905 1
500 905 1
762 905 1
770 905 1
867 905 1
878 905 1
932 905 1
941 905 1
496 906 1
501 906 1
763 906 1
771 906 1
868 906 1
879 906 1
933 906 1
942 906 1
497 907 1
502 907 1
764 907 1
772 907 1
869 907 1
880 907 1
934 907 1
943 907 1
498 908 1
503 908 1
765 908 1
773 908 1
870 908 1
881 908 1
935 908 1
944 908 1
499 909 1
504 909 1
766 909 1
774 909 1
871 909 1
882 909 1
936 909 1
945 909 1
500 910 1
505 910 1
767 910 1
775 910 1
872 910 1
883 910 1
919 910 1
937 910 1
501 911 1
506 911 1
768 911 1
776 911 1
873 911 1
884 911 1
920 911 1
938 911 1
502 912 1
507 912 1
769 912 1
777 912 1
874 912 1
885 912 1
921 912 1
939 912 1
503 913 1
508 913 1
770 913 1
778 913 1
875 913 1
886 913 1
922 913 1
940 913 1
504 914 1
509 914 1
771 914 1
779 914 1
876 914 1
887 914 1
923 914 1
941 914 1
505 915 1
510 915 1
772 915 1
780 915 1
877 915 1
888 915 1
924 915 1
942 915 1
506 916 1
511 916 1
773 916 1
781 916 1
878 916 1
889 916 1
925 916 1
943 916 1
507 917 1
512 917 1
774 917 1
782 917 1
879 917 1
890 917 1
926 917 1
944 917 1
508 918 1
513 918 1
775 918 1
783 918 1
880 918 1
891 918 1
927 918 1
945 918 1
514 919 1
536 919 1
784 919 1
803 919 1
892 919 1
908 919 1
919 919 1
933 919 1
515 920 1
537 920 1
785 920 1
804 920 1
893 920 1
909 920 1
920 920 1
934 920 1
516 921 1
538 921 1
786 921 1
805 921 1
894 921 1
910 921 1
921 921 1
935 921 1
517 922 1
539 922 1
787 922 1
806 922 1
895 922 1
911 922 1
922 922 1
936 922 1
518 923 1
540 923 1
788 923 1
807 923 1
896 923 1
912 923 1
923 923 1
937 923 1
514 924 1
519 924 1
789 924 1
808 924 1
897 924 1
913 924 1
924 924 1
938 924 1
515 925 1
520 925 1
790 925 1
809 925 1
898 925 1
914 925 1
925 925 1
939 925 1
516 926 1
521 926 1
791 926 1
810 926 1
899 926 1
915 926 1
926 926 1
940 926 1
517 927 1
522 927 1
784 927 1
792 927 1
900 927 1
916 927 1
927 927 1
941 927 1
518 928 1
523 928 1
785 928 1
793 928 1
901 928 1
917 928 1
928 928 1
942 928 1
519 929 1
524 929 1
786 929 1
794 929 1
902 929 1
918 929 1
929 929 1
943 929 1
520 930 1
525 930 1
787 930 1
795 930 1
892 930 1
903 930 1
930 930 1
944 930 1
521 931 1
526 931 1
788 931 1
796 931 1
893 931 1
904 931 1
931 931 1
945 931 1
522 932 1
527 932 1
789 932 1
797 932 1
894 932 1
905 932 1
919 932 1
932 932 1
523 933 1
528 933 1
790 933 1
798 933 1
895 933 1
906 933 1
920 933 1
933 933 1
524 934 1
529 934 1
791 934 1
799 934 1
896 934 1
907 934 1
921 934 1
934 934 1
525 935 1
530 935 1
792 935 1
800 935 1
897 935 1
908 935 1
922 935 1
935 935 1
526 936 1
531 936 1
793 936 1
801 936 1
898 936 1
909 936 1
923 936 1
936 936 1
527 937 1
532 937 1
794 937 1
802 937 1
899 937 1
910 937 1
924 937 1
937 937 1
528 938 1
533 938 1
795 938 1
803 938 1
900 938 1
911 938 1
925 938 1
938 938 1
529 939 1
534 939 1
796 939 1
804 939 1
901 939 1
912 939 1
926 939 1
939 939 1
530 940 1
535 940 1
797 940 1
805 940 1
902 940 1
913 940 1
927 940 1
940 940 1
531 941 1
536 941 1
798 941 1
806 941 1
903 941 1
914 941 1
928 941 1
941 941 1
532 942 1
537 942 1
799 942 1
807 942 1
904 942 1
915 942 1
929 942 1
942 942 1
533 943 1
538 943 1
800 943 1
808 943 1
905 943 1
916 943 1
930 943 1
943 943 1
534 944 1
539 944 1
801 944 1
809 944 1
906 944 1
917 944 1
931 944 1
944 944 1
535 945 1
540 945 1
802 945 1
810 945 1
907 945 1
918 945 1
932 945 1
945 945 1
1 946 1
27 946 1
946 946 1
955 946 1
973 946 1
977 946 1
1000 946 1
1003 946 1
1 947 1
2 947 1
947 947 1
956 947 1
974 947 1
978 947 1
1001 947 1
1004 947 1
2 948 1
3 948 1
948 948 1
957 948 1
975 948 1
979 948 1
1002 948 1
1005 948 1
3 949 1
4 949 1
949 949 1
958 949 1
976 949 1
980 949 1
1003 949 1
1006 949 1
4 950 1
5 950 1
950 950 1
959 950 1
977 950 1
981 950 1
1004 950 1
1007 950 1
5 951 1
6 951 1
951 951 1
960 951 1
978 951 1
982 951 1
1005 951 1
1008 951 1
6 952 1
7 952 1
952 952 1
961 952 1
979 952 1
983 952 1
1006 952 1
1009 952 1
7 953 1
8 953 1
953 953 1
962 953 1
980 953 1
984 953 1
1007 953 1
1010 953 1
8 954 1
9 954 1
954 954 1
963 954 1
981 954 1
985 954 1
1008 954 1
1011 954 1
9 955 1
10 955 1
955 955 1
964 955 1
982 955 1
986 955 1
1009 955 1
1012 955 1
10 956 1
11 956 1
956 956 1
965 956 1
983 956 1
987 956 1
1010 956 1
1013 956 1
11 957 1
12 957 1
957 957 1
966 957 1
984 957 1
988 957 1
1011 957 1
1014 957 1
12 958 1
13 958 1
958 958 1
967 958 1
985 958 1
989 958 1
1012 958 1
1015 958 1
13 959 1
14 959 1
959 959 1
968 959 1
986 959 1
990 959 1
1013 959 1
1016 959 1
14 960 1
15 960 1
960 960 1
969 960 1
987 960 1
991 960 1
1014 960 1
1017 960 1
15 961 1
16 961 1
961 961 1
970 961 1
988 961 1
992 961 1
1015 961 1
1018 961 1
16 962 1
17 962 1
962 962 1
971 962 1
989 962 1
993 962 1
1016 962 1
1019 962 1
17 963 1
18 963 1
963 963 1
972 963 1
990 963 1
994 963 1
1017 963 1
1020 963 1
18 964 1
19 964 1
946 964 1
964 964 1
991 964 1
995 964 1
1018 964 1
1021 964 1
19 965 1
20 965 1
947 965 1
965 965 1
992 965 1
996 965 1
1019 965 1
1022 965 1
20 966 1
21 966 1
948 966 1
966 966 1
993 966 1
997 966 1
1020 966 1
1023 966 1
21 967 1
22 967 1
949 967 1
967 967 1
994 967 1
998 967 1
1021 967 1
1024 967 1
22 968 1
23 968 1
950 968 1
968 968 1
995 968 1
999 968 1
1022 968 1
1025 968 1
23 969 1
24 969 1
951 969 1
969 969 1
973 969 1
996 969 1
1023 969 1
1026 969 1
24 970 1
25 970 1
952 970 1
970 970 1
974 970 1
997 970 1
1000 970 1
1024 970 1
25 971 1
26 971 1
953 971 1
971 971 1
975 971 1
998 971 1
1001 971 1
1025 971 1
26 972 1
27 972 1
954 972 1
972 972 1
976 972 1
999 972 1
1002 972 1
1026 972 1
28 973 1
54 973 1
946 973 1
960 973 1
1027 973 1
1031 973 1
1054 973 1
1057 973 1
28 974 1
29 974 1
947 974 1
961 974 1
1028 974 1
1032 974 1
1055 974 1
1058 974 1
29 975 1
30 975 1
948 975 1
962 975 1
1029 975 1
1033 975 1
1056 975 1
1059 975 1
30 976 1
31 976 1
949 976 1
963 976 1
1030 976 1
1034 976 1
1057 976 1
1060 976 1
31 977 1
32 977 1
950 977 1
964 977 1
1031 977 1
1035 977 1
1058 977 1
1061 977 1
32 978 1
33 978 1
951 978 1
965 978 1
1032 978 1
1036 978 1
1059 978 1
1062 978 1
33 979 1
34 979 1
952 979 1
966 979 1
1033 979 1
1037 979 1
1060 979 1
1063 979 1
34 980 1
35 980 1
953 980 1
967 980 1
1034 980 1
1038 980 1
1061 980 1
1064 980 1
35 981 1
36 981 1
954 981 1
968 981 1
1035 981 1
1039 981 1
1062 981 1
1065 981 1
36 982 1
37 982 1
955 982 1
969 982 1
1036 982 1
1040 982 1
1063 982 1
1066 982 1
37 983 1
38 983 1
956 983 1
970 983 1
1037 983 1
1041 983 1
1064 983 1
1067 983 1
38 984 1
39 984 1
957 984 1
971 984 1
1038 984 1
1042 984 1
1065 984 1
1068 984 1
39 985 1
40 985 1
958 985 1
972 985 1
1039 985 1
1043 985 1
1066 985 1
1069 985 1
40 986 1
41 986 1
946 986 1
959 986 1
1040 986 1
1044 986 1
1067 986 1
1070 986 1
41 987 1
42 987 1
947 987 1
960 987 1
1041 987 1
1045 987 1
1068 987 1
1071 987 1
42 988 1
43 988 1
948 988 1
961 988 1
1042 988 1
1046 988 1
1069 988 1
1072 988 1
43 989 1
44 989 1
949 989 1
962 989 1
1043 989 1
1047 989 1
1070 989 1
1073 989 1
44 990 1
45 990 1
950 990 1
963 990 1
1044 990 1
1048 990 1
1071 990 1
1074 990 1
45 991 1
46 991 1
951 991 1
964 991 1
1045 991 1
1049 991 1
1072 991 1
1075 991 1
46 992 1
47 992 1
952 992 1
965 992 1
1046 992 1
1050 992 1
1073 992 1
1076 992 1
47 993 1
48 993 1
953 993 1
966 993 1
1047 993 1
1051 993 1
1074 993 1
1077 993 1
48 994 1
49 994 1
954 994 1
967 994 1
1048 994 1
1052 994 1
1075 994 1
1078 994 1
49 995 1
50 995 1
955 995 1
968 995 1
1049 995 1
1053 995 1
1076 995 1
1079 995 1
50 996 1
51 996 1
956 996 1
969 996 1
1027 996 1
1050 996 1
1077 996 1
1080 996 1
51 997 1
52 997 1
957 997 1
970 997 1
1028 997 1
1051 997 1
1054 997 1
1078 997 1
52 998 1
53 998 1
958 998 1
971 998 1
1029 998 1
1052 998 1
1055 998 1
1079 998 1
53 999 1
54 999 1
959 999 1
972 999 1
1030 999 1
1053 999 1
1056 999 1
1080 999 1
55 1000 1
81 1000 1
973 1000 1
987 1000 1
1027 1000 1
1036 1000 1
1081 1000 1
1084 1000 1
55 1001 1
56 1001 1
974 1001 1
988 1001 1
1028 1001 1
1037 1001 1
1082 1001 1
1085 1001 1
56 1002 1
57 1002 1
975 1002 1
989 1002 1
1029 1002 1
1038 1002 1
1083 1002 1
1086 1002 1
57 1003 1
58 1003 1
976 1003 1
990 1003 1
1030 1003 1
1039 1003 1
1084 1003 1
1087 1003 1
58 1004 1
59 1004 1
977 1004 1
991 1004 1
1031 1004 1
1040 1004 1
1085 1004 1
1088 1004 1
59 1005 1
60 1005 1
978 1005 1
992 1005 1
1032 1005 1
1041 1005 1
1086 1005 1
1089 1005 1
60 1006 1
61 1006 1
979 1006 1
993 1006 1
1033 1006 1
1042 1006 1
1087 1006 1
1090 1006 1
61 1007 1
62 1007 1
980 1007 1
994 1007 1
1034 1007 1
1043 1007 1
1088 1007 1
1091 1007 1
62 1008 1
63 1008 1
981 1008 1
995 1008 1
1035 1008 1
1044 1008 1
1089 1008 1
1092 1008 1
63 1009 1
64 1009 1
982 1009 1
996 1009 1
1036 1009 1
1045 1009 1
1090 1009 1
1093 1009 1
64 1010 1
65 1010 1
983 1010 1
997 1010 1
1037 1010 1
1046 1010 1
1091 1010 1
1094 1010 1
65 1011 1
66 1011 1
984 1011 1
998 1011 1
1038 1011 1
1047 1011 1
1092 1011 1
1095 1011 1
66 1012 1
67 1012 1
985 1012 1
999 1012 1
1039 1012 1
1048 1012 1
1093 1012 1
1096 1012 1
67 1013 1
68 1013 1
973 1013 1
986 1013 1
1040 1013 1
1049 1013 1
1094 1013 1
1097 1013 1
68 1014 1
69 1014 1
974 1014 1
987 1014 1
1041 1014 1
1050 1014 1
1095 1014 1
1098 1014 1
69 1015 1
70 1015 1
975 1015 1
988 1015 1
1042 1015 1
1051 1015 1
1096 1015 1
1099 1015 1
70 1016 1
71 1016 1
976 1016 1
989 1016 1
1043 1016 1
1052 1016 1
1097 1016 1
1100 1016 1
71 1017 1
72 1017 1
977 1017 1
990 1017 1
1044 1017 1
1053 1017 1
1098 1017 1
1101 1017 1
72 1018 1
73 1018 1
978 1018 1
991 1018 1
1027 1018 1
1045 1018 1
1099 1018 1
1102 1018 1
73 1019 1
74 1019 1
979 1019 1
992 1019 1
1028 1019 1
1046 1019 1
1100 1019 1
1103 1019 1
74 1020 1
75 1020 1
980 1020 1
993 1020 1
1029 1020 1
1047 1020 1
1101 1020 1
1104 1020 1
75 1021 1
76 1021 1
981 1021 1
994 1021 1
1030 1021 1
1048 1021 1
1102 1021 1
1105 1021 1
76 1022 1
77 1022 1
982 1022 1
995 1022 1
1031 1022 1
1049 1022 1
1103 1022 1
1106 1022 1
77 1023 1
78 1023 1
983 1023 1
996 1023 1
1032 1023 1
1050 1023 1
1104 1023 1
1107 1023 1
78 1024 1
79 1024 1
984 1024 1
997 1024 1
1033 1024 1
1051 1024 1
1081 1024 1
1105 1024 1
79 1025 1
80 1025 1
985 1025 1
998 1025 1
1034 1025 1
1052 1025 1
1082 1025 1
1106 1025 1
80 1026 1
81 1026 1
986 1026 1
999 1026 1
1035 1026 1
1053 1026 1
1083 1026 1
1107 1026 1
82 1027 1
108 1027 1
1000 1027 1
1014 1027 1
1054 1027 1
1063 1027 1
1081 1027 1
1085 1027 1
82 1028 1
83 1028 1
1001 1028 1
1015 1028 1
1055 1028 1
1064 1028 1
1082 1028 1
1086 1028 1
83 1029 1
84 1029 1
1002 1029 1
1016 1029 1
1056 1029 1
1065 1029 1
1083 1029 1
1087 1029 1
84 1030 1
85 1030 1
1003 1030 1
1017 1030 1
1057 1030 1
1066 1030 1
1084 1030 1
1088 1030 1
85 1031 1
86 1031 1
1004 1031 1
1018 1031 1
1058 1031 1
1067 1031 1
1085 1031 1
1089 1031 1
86 1032 1
87 1032 1
1005 1032 1
1019 1032 1
1059 1032 1
1068 1032 1
1086 1032 1
1090 1032 1
87 1033 1
88 1033 1
1006 1033 1
1020 1033 1
1060 1033 1
1069 1033 1
1087 1033 1
1091 1033 1
88 1034 1
89 1034 1
1007 1034 1
1021 1034 1
1061 1034 1
1070 1034 1
1088 1034 1
1092 1034 1
89 1035 1
90 1035 1
1008 1035 1
1022 1035 1
1062 1035 1
1071 1035 1
1089 1035 1
1093 1035 1
90 1036 1
91 1036 1
1009 1036 1
1023 1036 1
1063 1036 1
1072 1036 1
1090 1036 1
1094 1036 1
91 1037 1
92 1037 1
1010 1037 1
1024 1037 1
1064 1037 1
1073 1037 1
1091 1037 1
1095 1037 1
92 1038 1
93 1038 1
1011 1038 1
1025 1038 1
1065 1038 1
1074 1038 1
1092 1038 1
1096 1038 1
93 1039 1
94 1039 1
1012 1039 1
1026 1039 1
1066 1039 1
1075 1039 1
1093 1039 1
1097 1039 1
94 1040 1
95 1040 1
1000 1040 1
1013 1040 1
1067 1040 1
1076 1040 1
1094 1040 1
1098 1040 1
95 1041 1
96 1041 1
1001 1041 1
1014 1041 1
1068 1041 1
1077 1041 1
1095 1041 1
1099 1041 1
96 1042 1
97 1042 1
1002 1042 1
1015 1042 1
1069 1042 1
1078 1042 1
1096 1042 1
1100 1042 1
97 1043 1
98 1043 1
1003 1043 1
1016 1043 1
1070 1043 1
1079 1043 1
1097 1043 1
1101 1043 1
98 1044 1
99 1044 1
1004 1044 1
1017 1044 1
1071 1044 1
1080 1044 1
1098 1044 1
1102 1044 1
99 1045 1
100 1045 1
1005 1045 1
1018 1045 1
1054 1045 1
1072 1045 1
1099 1045 1
1103 1045 1
100 1046 1
101 1046 1
1006 1046 1
1019 1046 1
1055 1046 1
1073 1046 1
1100 1046 1
1104 1046 1
101 1047 1
102 1047 1
1007 1047 1
1020 1047 1
1056 1047 1
1074 1047 1
1101 1047 1
1105 1047 1
102 1048 1
103 1048 1
1008 1048 1
1021 1048 1
1057 1048 1
1075 1048 1
1102 1048 1
1106 1048 1
103 1049 1
104 1049 1
1009 1049 1
1022 1049 1
1058 1049 1
1076 1049 1
1103 1049 1
1107 1049 1
104 1050 1
105 1050 1
1010 1050 1
1023 1050 1
1059 1050 1
1077 1050 1
1081 1050 1
1104 1050 1
105 1051 1
106 1051 1
1011 1051 1
1024 1051 1
1060 1051 1
1078 1051 1
1082 1051 1
1105 1051 1
106 1052 1
107 1052 1
1012 1052 1
1025 1052 1
1061 1052 1
1079 1052 1
1083 1052 1
1106 1052 1
107 1053 1
108 1053 1
1013 1053 1
1026 1053 1
1062 1053 1
1080 1053 1
1084 1053 1
1107 1053 1
109 1054 1
135 1054 1
946 1054 1
962 1054 1
1108 1054 1
1112 1054 1
1135 1054 1
1138 1054 1
109 1055 1
110 1055 1
947 1055 1
963 1055 1
1109 1055 1
1113 1055 1
1136 1055 1
1139 1055 1
110 1056 1
111 1056 1
948 1056 1
964 1056 1
1110 1056 1
1114 1056 1
1137 1056 1
1140 1056 1
111 1057 1
112 1057 1
949 1057 1
965 1057 1
1111 1057 1
1115 1057 1
1138 1057 1
1141 1057 1
112 1058 1
113 1058 1
950 1058 1
966 1058 1
1112 1058 1
1116 1058 1
1139 1058 1
1142 1058 1
113 1059 1
114 1059 1
951 1059 1
967 1059 1
1113 1059 1
1117 1059 1
1140 1059 1
1143 1059 1
114 1060 1
115 1060 1
952 1060 1
968 1060 1
1114 1060 1
1118 1060 1
1141 1060 1
1144 1060 1
115 1061 1
116 1061 1
953 1061 1
969 1061 1
1115 1061 1
1119 1061 1
1142 1061 1
1145 1061 1
116 1062 1
117 1062 1
954 1062 1
970 1062 1
1116 1062 1
1120 1062 1
1143 1062 1
1146 1062 1
117 1063 1
118 1063 1
955 1063 1
971 1063 1
1117 1063 1
1121 1063 1
1144 1063 1
1147 1063 1
118 1064 1
119 1064 1
956 1064 1
972 1064 1
1118 1064 1
1122 1064 1
1145 1064 1
1148 1064 1
119 1065 1
120 1065 1
946 1065 1
957 1065 1
1119 1065 1
1123 1065 1
1146 1065 1
1149 1065 1
120 1066 1
121 1066 1
947 1066 1
958 1066 1
1120 1066 1
1124 1066 1
1147 1066 1
1150 1066 1
121 1067 1
122 1067 1
948 1067 1
959 1067 1
1121 1067 1
1125 1067 1
1148 1067 1
1151 1067 1
122 1068 1
123 1068 1
949 1068 1
960 1068 1
1122 1068 1
1126 1068 1
1149 1068 1
1152 1068 1
123 1069 1
124 1069 1
950 1069 1
961 1069 1
1123 1069 1
1127 1069 1
1150 1069 1
1153 1069 1
124 1070 1
125 1070 1
951 1070 1
962 1070 1
1124 1070 1
1128 1070 1
1151 1070 1
1154 1070 1
125 1071 1
126 1071 1
952 1071 1
963 1071 1
1125 1071 1
1129 1071 1
1152 1071 1
1155 1071 1
126 1072 1
127 1072 1
953 1072 1
964 1072 1
1126 1072 1
1130 1072 1
1153 1072 1
1156 1072 1
127 1073 1
128 1073 1
954 1073 1
965 1073 1
1127 1073 1
1131 1073 1
1154 1073 1
1157 1073 1
128 1074 1
129 1074 1
955 1074 1
966 1074 1
1128 1074 1
1132 1074 1
1155 1074 1
1158 1074 1
129 1075 1
130 1075 1
956 1075 1
967 1075 1
1129 1075 1
1133 1075 1
1156 1075 1
1159 1075 1
130 1076 1
131 1076 1
957 1076 1
968 1076 1
1130 1076 1
1134 1076 1
1157 1076 1
1160 1076 1
131 1077 1
132 1077 1
958 1077 1
969 1077 1
1108 1077 1
1131 1077 1
1158 1077 1
1161 1077 1
132 1078 1
133 1078 1
959 1078 1
970 1078 1
1109 1078 1
1132 1078 1
1135 1078 1
1159 1078 1
133 1079 1
134 1079 1
960 1079 1
971 1079 1
1110 1079 1
1133 1079 1
1136 1079 1
1160 1079 1
134 1080 1
135 1080 1
961 1080 1
972 1080 1
1111 1080 1
1134 1080 1
1137 1080 1
1161 1080 1
136 1081 1
162 1081 1
973 1081 1
989 1081 1
1108 1081 1
1117 1081 1
1162 1081 1
1165 1081 1
136 1082 1
137 1082 1
974 1082 1
990 1082 1
1109 1082 1
1118 1082 1
1163 1082 1
1166 1082 1
137 1083 1
138 1083 1
975 1083 1
991 1083 1
1110 1083 1
1119 1083 1
1164 1083 1
1167 1083 1
138 1084 1
139 1084 1
976 1084 1
992 1084 1
1111 1084 1
1120 1084 1
1165 1084 1
1168 1084 1
139 1085 1
140 1085 1
977 1085 1
993 1085 1
1112 1085 1
1121 1085 1
1166 1085 1
1169 1085 1
140 1086 1
141 1086 1
978 1086 1
994 1086 1
1113 1086 1
1122 1086 1
1167 1086 1
1170 1086 1
141 1087 1
142 1087 1
979 1087 1
995 1087 1
1114 1087 1
1123 1087 1
1168 1087 1
1171 1087 1
142 1088 1
143 1088 1
980 1088 1
996 1088 1
1115 1088 1
1124 1088 1
1169 1088 1
1172 1088 1
143 1089 1
144 1089 1
981 1089 1
997 1089 1
1116 1089 1
1125 1089 1
1170 1089 1
1173 1089 1
144 1090 1
145 1090 1
982 1090 1
998 1090 1
1117 1090 1
1126 1090 1
1171 1090 1
1174 1090 1
145 1091 1
146 1091 1
983 1091 1
999 1091 1
1118 1091 1
1127 1091 1
1172 1091 1
1175 1091 1
146 1092 1
147 1092 1
973 1092 1
984 1092 1
1119 1092 1
1128 1092 1
1173 1092 1
1176 1092 1
147 1093 1
148 1093 1
974 1093 1
985 1093 1
1120 1093 1
1129 1093 1
1174 1093 1
1177 1093 1
148 1094 1
149 1094 1
975 1094 1
986 1094 1
1121 1094 1
1130 1094 1
1175 1094 1
1178 1094 1
149 1095 1
150 1095 1
976 1095 1
987 1095 1
1122 1095 1
1131 1095 1
1176 1095 1
1179 1095 1
150 1096 1
151 1096 1
977 1096 1
988 1096 1
1123 1096 1
1132 1096 1
1177 1096 1
1180 1096 1
151 1097 1
152 1097 1
978 1097 1
989 1097 1
1124 1097 1
1133 1097 1
1178 1097 1
1181 1097 1
152 1098 1
153 1098 1
979 1098 1
990 1098 1
1125 1098 1
1134 1098 1
1179 1098 1
1182 1098 1
153 1099 1
154 1099 1
980 1099 1
991 1099 1
1108 1099 1
1126 1099 1
1180 1099 1
1183 1099 1
154 1100 1
155 1100 1
981 1100 1
992 1100 1
1109 1100 1
1127 1100 1
1181 1100 1
1184 1100 1
155 1101 1
156 1101 1
982 1101 1
993 1101 1
1110 1101 1
1128 1101 1
1182 1101 1
1185 1101 1
156 1102 1
157 1102 1
983 1102 1
994 1102 1
1111 1102 1
1129 1102 1
1183 1102 1
1186 1102 1
157 1103 1
158 1103 1
984 1103 1
995 1103 1
1112 1103 1
1130 1103 1
1184 1103 1
1187 1103 1
158 1104 1
159 1104 1
985 1104 1
996 1104 1
1113 1104 1
1131 1104 1
1185 1104 1
1188 1104 1
159 1105 1
160 1105 1
986 1105 1
997 1105 1
1114 1105 1
1132 1105 1
1162 1105 1
1186 1105 1
160 1106 1
161 1106 1
987 1106 1
998 1106 1
1115 1106 1
1133 1106 1
1163 1106 1
1187 1106 1
161 1107 1
162 1107 1
988 1107 1
999 1107 1
1116 1107 1
1134 1107 1
1164 1107 1
1188 1107 1
163 1108 1
189 1108 1
1000 1108 1
1016 1108 1
1135 1108 1
1144 1108 1
1162 1108 1
1166 1108 1
163 1109 1
164 1109 1
1001 1109 1
1017 1109 1
1136 1109 1
1145 1109 1
1163 1109 1
1167 1109 1
164 1110 1
165 1110 1
1002 1110 1
1018 1110 1
1137 1110 1
1146 1110 1
1164 1110 1
1168 1110 1
165 1111 1
166 1111 1
1003 1111 1
1019 1111 1
1138 1111 1
1147 1111 1
1165 1111 1
1169 1111 1
166 1112 1
167 1112 1
1004 1112 1
1020 1112 1
1139 1112 1
1148 1112 1
1166 1112 1
1170 1112 1
167 1113 1
168 1113 1
1005 1113 1
1021 1113 1
1140 1113 1
1149 1113 1
1167 1113 1
1171 1113 1
168 1114 1
169 1114 1
1006 1114 1
1022 1114 1
1141 1114 1
1150 1114 1
1168 1114 1
1172 1114 1
169 1115 1
170 1115 1
1007 1115 1
1023 1115 1
1142 1115 1
1151 1115 1
1169 1115 1
1173 1115 1
170 1116 1
171 1116 1
1008 1116 1
1024 1116 1
1143 1116 1
1152 1116 1
1170 1116 1
1174 1116 1
171 1117 1
172 1117 1
1009 1117 1
1025 1117 1
1144 1117 1
1153 1117 1
1171 1117 1
1175 1117 1
172 1118 1
173 1118 1
1010 1118 1
1026 1118 1
1145 1118 1
1154 1118 1
1172 1118 1
1176 1118 1
173 1119 1
174 1119 1
1000 1119 1
1011 1119 1
1146 1119 1
1155 1119 1
1173 1119 1
1177 1119 1
174 1120 1
175 1120 1
1001 1120 1
1012 1120 1
1147 1120 1
1156 1120 1
1174 1120 1
1178 1120 1
175 1121 1
176 1121 1
1002 1121 1
1013 1121 1
1148 1121 1
1157 1121 1
1175 1121 1
1179 1121 1
176 1122 1
177 1122 1
1003 1122 1
1014 1122 1
1149 1122 1
1158 1122 1
1176 1122 1
1180 1122 1
177 1123 1
178 1123 1
1004 1123 1
1015 1123 1
1150 1123 1
1159 1123 1
1177 1123 1
1181 1123 1
178 1124 1
179 1124 1
1005 1124 1
1016 1124 1
1151 1124 1
1160 1124 1
1178 1124 1
1182 1124 1
179 1125 1
180 1125 1
1006 1125 1
1017 1125 1
1152 1125 1
1161 1125 1
1179 1125 1
1183 1125 1
180 1126 1
181 1126 1
1007 1126 1
1018 1126 1
1135 1126 1
1153 1126 1
1180 1126 1
1184 1126 1
181 1127 1
182 1127 1
1008 1127 1
1019 1127 1
1136 1127 1
1154 1127 1
1181 1127 1
1185 1127 1
182 1128 1
183 1128 1
1009 1128 1
1020 1128 1
1137 1128 1
1155 1128 1
1182 1128 1
1186 1128 1
183 1129 1
184 1129 1
1010 1129 1
1021 1129 1
1138 1129 1
1156 1129 1
1183 1129 1
1187 1129 1
184 1130 1
185 1130 1
1011 1130 1
1022 1130 1
1139 1130 1
1157 1130 1
1184 1130 1
1188 1130 1
185 1131 1
186 1131 1
1012 1131 1
1023 1131 1
1140 1131 1
1158 1131 1
1162 1131 1
1185 1131 1
186 1132 1
187 1132 1
1013 1132 1
1024 1132 1
1141 1132 1
1159 1132 1
1163 1132 1
1186 1132 1
187 1133 1
188 1133 1
1014 1133 1
1025 1133 1
1142 1133 1
1160 1133 1
1164 1133 1
1187 1133 1
188 1134 1
189 1134 1
1015 1134 1
1026 1134 1
1143 1134 1
1161 1134 1
1165 1134 1
1188 1134 1
190 1135 1
216 1135 1
1027 1135 1
1043 1135 1
1108 1135 1
1122 1135 1
1189 1135 1
1192 1135 1
190 1136 1
191 1136 1
1028 1136 1
1044 1136 1
1109 1136 1
1123 1136 1
1190 1136 1
1193 1136 1
191 1137 1
192 1137 1
1029 1137 1
1045 1137 1
1110 1137 1
1124 1137 1
1191 1137 1
1194 1137 1
192 1138 1
193 1138 1
1030 1138 1
1046 1138 1
1111 1138 1
1125 1138 1
1192 1138 1
1195 1138 1
193 1139 1
194 1139 1
1031 1139 1
1047 1139 1
1112 1139 1
1126 1139 1
1193 1139 1
1196 1139 1
194 1140 1
195 1140 1
1032 1140 1
1048 1140 1
1113 1140 1
1127 1140 1
1194 1140 1
1197 1140 1
195 1141 1
196 1141 1
1033 1141 1
1049 1141 1
1114 1141 1
1128 1141 1
1195 1141 1
1198 1141 1
196 1142 1
197 1142 1
1034 1142 1
1050 1142 1
1115 1142 1
1129 1142 1
1196 1142 1
1199 1142 1
197 1143 1
198 1143 1
1035 1143 1
1051 1143 1
1116 1143 1
1130 1143 1
1197 1143 1
1200 1143 1
198 1144 1
199 1144 1
1036 1144 1
1052 1144 1
1117 1144 1
1131 1144 1
1198 1144 1
1201 1144 1
199 1145 1
200 1145 1
1037 1145 1
1053 1145 1
1118 1145 1
1132 1145 1
1199 1145 1
1202 1145 1
200 1146 1
201 1146 1
1027 1146 1
1038 1146 1
1119 1146 1
1133 1146 1
1200 1146 1
1203 1146 1
201 1147 1
202 1147 1
1028 1147 1
1039 1147 1
1120 1147 1
1134 1147 1
1201 1147 1
1204 1147 1
202 1148 1
203 1148 1
1029 1148 1
1040 1148 1
1108 1148 1
1121 1148 1
1202 1148 1
1205 1148 1
203 1149 1
204 1149 1
1030 1149 1
1041 1149 1
1109 1149 1
1122 1149 1
1203 1149 1
1206 1149 1
204 1150 1
205 1150 1
1031 1150 1
1042 1150 1
1110 1150 1
1123 1150 1
1204 1150 1
1207 1150 1
205 1151 1
206 1151 1
1032 1151 1
1043 1151 1
1111 1151 1
1124 1151 1
1205 1151 1
1208 1151 1
206 1152 1
207 1152 1
1033 1152 1
1044 1152 1
1112 1152 1
1125 1152 1
1206 1152 1
1209 1152 1
207 1153 1
208 1153 1
1034 1153 1
1045 1153 1
1113 1153 1
1126 1153 1
1207 1153 1
1210 1153 1
208 1154 1
209 1154 1
1035 1154 1
1046 1154 1
1114 1154 1
1127 1154 1
1208 1154 1
1211 1154 1
209 1155 1
210 1155 1
1036 1155 1
1047 1155 1
1115 1155 1
1128 1155 1
1209 1155 1
1212 1155 1
210 1156 1
211 1156 1
1037 1156 1
1048 1156 1
1116 1156 1
1129 1156 1
1210 1156 1
1213 1156 1
211 1157 1
212 1157 1
1038 1157 1
1049 1157 1
1117 1157 1
1130 1157 1
1211 1157 1
1214 1157 1
212 1158 1
213 1158 1
1039 1158 1
1050 1158 1
1118 1158 1
1131 1158 1
1212 1158 1
1215 1158 1
213 1159 1
214 1159 1
1040 1159 1
1051 1159 1
1119 1159 1
1132 1159 1
1189 1159 1
1213 1159 1
214 1160 1
215 1160 1
1041 1160 1
1052 1160 1
1120 1160 1
1133 1160 1
1190 1160 1
1214 1160 1
215 1161 1
216 1161 1
1042 1161 1
1053 1161 1
1121 1161 1
1134 1161 1
1191 1161 1
1215 1161 1
217 1162 1
243 1162 1
1054 1162 1
1070 1162 1
1135 1162 1
1149 1162 1
1189 1162 1
1193 1162 1
217 1163 1
218 1163 1
1055 1163 1
1071 1163 1
1136 1163 1
1150 1163 1
1190 1163 1
1194 1163 1
218 1164 1
219 1164 1
1056 1164 1
1072 1164 1
1137 1164 1
1151 1164 1
1191 1164 1
1195 1164 1
219 1165 1
220 1165 1
1057 1165 1
1073 1165 1
1138 1165 1
1152 1165 1
1192 1165 1
1196 1165 1
220 1166 1
221 1166 1
1058 1166 1
1074 1166 1
1139 1166 1
1153 1166 1
1193 1166 1
1197 1166 1
221 1167 1
222 1167 1
1059 1167 1
1075 1167 1
1140 1167 1
1154 1167 1
1194 1167 1
1198 1167 1
222 1168 1
223 1168 1
1060 1168 1
1076 1168 1
1141 1168 1
1155 1168 1
1195 1168 1
1199 1168 1
223 1169 1
224 1169 1
1061 1169 1
1077 1169 1
1142 1169 1
1156 1169 1
1196 1169 1
1200 1169 1
224 1170 1
225 1170 1
1062 1170 1
1078 1170 1
1143 1170 1
1157 1170 1
1197 1170 1
1201 1170 1
225 1171 1
226 1171 1
1063 1171 1
1079 1171 1
1144 1171 1
1158 1171 1
1198 1171 1
1202 1171 1
226 1172 1
227 1172 1
1064 1172 1
1080 1172 1
1145 1172 1
1159 1172 1
1199 1172 1
1203 1172 1
227 1173 1
228 1173 1
1054 1173 1
1065 1173 1
1146 1173 1
1160 1173 1
1200 1173 1
1204 1173 1
228 1174 1
229 1174 1
1055 1174 1
1066 1174 1
1147 1174 1
1161 1174 1
1201 1174 1
1205 1174 1
229 1175 1
230 1175 1
1056 1175 1
1067 1175 1
1135 1175 1
1148 1175 1
1202 1175 1
1206 1175 1
230 1176 1
231 1176 1
1057 1176 1
1068 1176 1
1136 1176 1
1149 1176 1
1203 1176 1
1207 1176 1
231 1177 1
232 1177 1
1058 1177 1
1069 1177 1
1137 1177 1
1150 1177 1
1204 1177 1
1208 1177 1
232 1178 1
233 1178 1
1059 1178 1
1070 1178 1
1138 1178 1
1151 1178 1
1205 1178 1
1209 1178 1
233 1179 1
234 1179 1
1060 1179 1
1071 1179 1
1139 1179 1
1152 1179 1
1206 1179 1
1210 1179 1
234 1180 1
235 1180 1
1061 1180 1
1072 1180 1
1140 1180 1
1153 1180 1
1207 1180 1
1211 1180 1
235 1181 1
236 1181 1
1062 1181 1
1073 1181 1
1141 1181 1
1154 1181 1
1208 1181 1
1212 1181 1
236 1182 1
237 1182 1
1063 1182 1
1074 1182 1
1142 1182 1
1155 1182 1
1209 1182 1
1213 1182 1
237 1183 1
238 1183 1
1064 1183 1
1075 1183 1
1143 1183 1
1156 1183 1
1210 1183 1
1214 1183 1
238 1184 1
239 1184 1
1065 1184 1
1076 1184 1
1144 1184 1
1157 1184 1
1211 1184 1
1215 1184 1
239 1185 1
240 1185 1
1066 1185 1
1077 1185 1
1145 1185 1
1158 1185 1
1189 1185 1
1212 1185 1
240 1186 1
241 1186 1
1067 1186 1
1078 1186 1
1146 1186 1
1159 1186 1
1190 1186 1
1213 1186 1
241 1187 1
242 1187 1
1068 1187 1
1079 1187 1
1147 1187 1
1160 1187 1
1191 1187 1
1214 1187 1
242 1188 1
243 1188 1
1069 1188 1
1080 1188 1
1148 1188 1
1161 1188 1
1192 1188 1
1215 1188 1
244 1189 1
270 1189 1
1081 1189 1
1097 1189 1
1162 1189 1
1176 1189 1
1189 1189 1
1198 1189 1
244 1190 1
245 1190 1
1082 1190 1
1098 1190 1
1163 1190 1
1177 1190 1
1190 1190 1
1199 1190 1
245 1191 1
246 1191 1
1083 1191 1
1099 1191 1
1164 1191 1
1178 1191 1
1191 1191 1
1200 1191 1
246 1192 1
247 1192 1
1084 1192 1
1100 1192 1
1165 1192 1
1179 1192 1
1192 1192 1
1201 1192 1
247 1193 1
248 1193 1
1085 1193 1
1101 1193 1
1166 1193 1
1180 1193 1
1193 1193 1
1202 1193 1
248 1194 1
249 1194 1
1086 1194 1
1102 1194 1
1167 1194 1
1181 1194 1
1194 1194 1
1203 1194 1
249 1195 1
250 1195 1
1087 1195 1
1103 1195 1
1168 1195 1
1182 1195 1
1195 1195 1
1204 1195 1
250 1196 1
251 1196 1
1088 1196 1
1104 1196 1
1169 1196 1
1183 1196 1
1196 1196 1
1205 1196 1
251 1197 1
252 1197 1
1089 1197 1
1105 1197 1
1170 1197 1
1184 1197 1
1197 1197 1
1206 1197 1
252 1198 1
253 1198 1
1090 1198 1
1106 1198 1
1171 1198 1
1185 1198 1
1198 1198 1
1207 1198 1
253 1199 1
254 1199 1
1091 1199 1
1107 1199 1
1172 1199 1
1186 1199 1
1199 1199 1
1208 1199 1
254 1200 1
255 1200 1
1081 1200 1
1092 1200 1
1173 1200 1
1187 1200 1
1200 1200 1
1209 1200 1
255 1201 1
256 1201 1
1082 1201 1
1093 1201 1
1174 1201 1
1188 1201 1
1201 1201 1
1210 1201 1
256 1202 1
257 1202 1
1083 1202 1
1094 1202 1
1162 1202 1
1175 1202 1
1202 1202 1
1211 1202 1
257 1203 1
258 1203 1
1084 1203 1
1095 1203 1
1163 1203 1
1176 1203 1
1203 1203 1
1212 1203 1
258 1204 1
259 1204 1
1085 1204 1
1096 1204 1
1164 1204 1
1177 1204 1
1204 1204 1
1213 1204 1
259 1205 1
260 1205 1
1086 1205 1
1097 1205 1
1165 1205 1
1178 1205 1
1205 1205 1
1214 1205 1
260 1206 1
261 1206 1
1087 1206 1
1098 1206 1
1166 1206 1
1179 1206 1
1206 1206 1
1215 1206 1
261 1207 1
262 1207 1
1088 1207 1
1099 1207 1
1167 1207 1
1180 1207 1
1189 1207 1
1207 1207 1
262 1208 1
263 1208 1
1089 1208 1
1100 1208 1
1168 1208 1
1181 1208 1
1190 1208 1
1208 1208 1
263 1209 1
264 1209 1
1090 1209 1
1101 1209 1
1169 1209 1
1182 1209 1
1191 1209 1
1209 1209 1
264 1210 1
265 1210 1
1091 1210 1
1102 1210 1
1170 1210 1
1183 1210 1
1192 1210 1
1210 1210 1
265 1211 1
266 1211 1
1092 1211 1
1103 1211 1
1171 1211 1
1184 1211 1
1193 1211 1
1211 1211 1
266 1212 1
267 1212 1
1093 1212 1
1104 1212 1
1172 1212 1
1185 1212 1
1194 1212 1
1212 1212 1
267 1213 1
268 1213 1
1094 1213 1
1105 1213 1
1173 1213 1
1186 1213 1
1195 1213 1
1213 1213 1
268 1214 1
269 1214 1
1095 1214 1
1106 1214 1
1174 1214 1
1187 1214 1
1196 1214 1
1214 1214 1
269 1215 1
270 1215 1
1096 1215 1
1107 1215 1
1175 1215 1
1188 1215 1
1197 1215 1
1215 1215 1
271 1216 1
297 1216 1
946 1216 1
965 1216 1
1216 1216 1
1220 1216 1
1243 1216 1
1246 1216 1
271 1217 1
272 1217 1
947 1217 1
966 1217 1
1217 1217 1
1221 1217 1
1244 1217 1
1247 1217 1
272 1218 1
273 1218 1
948 1218 1
967 1218 1
1218 1218 1
1222 1218 1
1245 1218 1
1248 1218 1
273 1219 1
274 1219 1
949 1219 1
968 1219 1
1219 1219 1
1223 1219 1
1246 1219 1
1249 1219 1
274 1220 1
275 1220 1
950 1220 1
969 1220 1
1220 1220 1
1224 1220 1
1247 1220 1
1250 1220 1
275 1221 1
276 1221 1
951 1221 1
970 1221 1
1221 1221 1
1225 1221 1
1248 1221 1
1251 1221 1
276 1222 1
277 1222 1
952 1222 1
971 1222 1
1222 1222 1
1226 1222 1
1249 1222 1
1252 1222 1
277 1223 1
278 1223 1
953 1223 1
972 1223 1
1223 1223 1
1227 1223 1
1250 1223 1
1253 1223 1
278 1224 1
279 1224 1
946 1224 1
954 1224 1
1224 1224 1
1228 1224 1
1251 1224 1
1254 1224 1
279 1225 1
280 1225 1
947 1225 1
955 1225 1
1225 1225 1
1229 1225 1
1252 1225 1
1255 1225 1
280 1226 1
281 1226 1
948 1226 1
956 1226 1
1226 1226 1
1230 1226 1
1253 1226 1
1256 1226 1
281 1227 1
282 1227 1
949 1227 1
957 1227 1
1227 1227 1
1231 1227 1
1254 1227 1
1257 1227 1
282 1228 1
283 1228 1
950 1228 1
958 1228 1
1228 1228 1
1232 1228 1
1255 1228 1
1258 1228 1
283 1229 1
284 1229 1
951 1229 1
959 1229 1
1229 1229 1
1233 1229 1
1256 1229 1
1259 1229 1
284 1230 1
285 1230 1
952 1230 1
960 1230 1
1230 1230 1
1234 1230 1
1257 1230 1
1260 1230 1
285 1231 1
286 1231 1
953 1231 1
961 1231 1
1231 1231 1
1235 1231 1
1258 1231 1
1261 1231 1
286 1232 1
287 1232 1
954 1232 1
962 1232 1
1232 1232 1
1236 1232 1
1259 1232 1
1262 1232 1
287 1233 1
288 1233 1
955 1233 1
963 1233 1
1233 1233 1
1237 1233 1
1260 1233 1
1263 1233 1
288 1234 1
289 1234 1
956 1234 1
964 1234 1
1234 1234 1
1238 1234 1
1261 1234 1
1264 1234 1
289 1235 1
290 1235 1
957 1235 1
965 1235 1
1235 1235 1
1239 1235 1
1262 1235 1
1265 1235 1
290 1236 1
291 1236 1
958 1236 1
966 1236 1
1236 1236 1
1240 1236 1
1263 1236 1
1266 1236 1
291 1237 1
292 1237 1
959 1237 1
967 1237 1
1237 1237 1
1241 1237 1
1264 1237 1
1267 1237 1
292 1238 1
293 1238 1
960 1238 1
968 1238 1
1238 1238 1
1242 1238 1
1265 1238 1
1268 1238 1
293 1239 1
294 1239 1
961 1239 1
969 1239 1
1216 1239 1
1239 1239 1
1266 1239 1
1269 1239 1
294 1240 1
295 1240 1
962 1240 1
970 1240 1
1217 1240 1
1240 1240 1
1243 1240 1
1267 1240 1
295 1241 1
296 1241 1
963 1241 1
971 1241 1
1218 1241 1
1241 1241 1
1244 1241 1
1268 1241 1
296 1242 1
297 1242 1
964 1242 1
972 1242 1
1219 1242 1
1242 1242 1
1245 1242 1
1269 1242 1
298 1243 1
324 1243 1
973 1243 1
992 1243 1
1216 1243 1
1225 1243 1
1270 1243 1
1273 1243 1
298 1244 1
299 1244 1
974 1244 1
993 1244 1
1217 1244 1
1226 1244 1
1271 1244 1
1274 1244 1
299 1245 1
300 1245 1
975 1245 1
994 1245 1
1218 1245 1
1227 1245 1
1272 1245 1
1275 1245 1
300 1246 1
301 1246 1
976 1246 1
995 1246 1
1219 1246 1
1228 1246 1
1273 1246 1
1276 1246 1
301 1247 1
302 1247 1
977 1247 1
996 1247 1
1220 1247 1
1229 1247 1
1274 1247 1
1277 1247 1
302 1248 1
303 1248 1
978 1248 1
997 1248 1
1221 1248 1
1230 1248 1
1275 1248 1
1278 1248 1
303 1249 1
304 1249 1
979 1249 1
998 1249 1
1222 1249 1
1231 1249 1
1276 1249 1
1279 1249 1
304 1250 1
305 1250 1
980 1250 1
999 1250 1
1223 1250 1
1232 1250 1
1277 1250 1
1280 1250 1
305 1251 1
306 1251 1
973 1251 1
981 1251 1
1224 1251 1
1233 1251 1
1278 1251 1
1281 1251 1
306 1252 1
307 1252 1
974 1252 1
982 1252 1
1225 1252 1
1234 1252 1
1279 1252 1
1282 1252 1
307 1253 1
308 1253 1
975 1253 1
983 1253 1
1226 1253 1
1235 1253 1
1280 1253 1
1283 1253 1
308 1254 1
309 1254 1
976 1254 1
984 1254 1
1227 1254 1
1236 1254 1
1281 1254 1
1284 1254 1
309 1255 1
310 1255 1
977 1255 1
985 1255 1
1228 1255 1
1237 1255 1
1282 1255 1
1285 1255 1
310 1256 1
311 1256 1
978 1256 1
986 1256 1
1229 1256 1
1238 1256 1
1283 1256 1
1286 1256 1
311 1257 1
312 1257 1
979 1257 1
987 1257 1
1230 1257 1
1239 1257 1
1284 1257 1
1287 1257 1
312 1258 1
313 1258 1
980 1258 1
988 1258 1
1231 1258 1
1240 1258 1
1285 1258 1
1288 1258 1
313 1259 1
314 1259 1
981 1259 1
989 1259 1
1232 1259 1
1241 1259 1
1286 1259 1
1289 1259 1
314 1260 1
315 1260 1
982 1260 1
990 1260 1
1233 1260 1
1242 1260 1
1287 1260 1
1290 1260 1
315 1261 1
316 1261 1
983 1261 1
991 1261 1
1216 1261 1
1234 1261 1
1288 1261 1
1291 1261 1
316 1262 1
317 1262 1
984 1262 1
992 1262 1
1217 1262 1
1235 1262 1
1289 1262 1
1292 1262 1
317 1263 1
318 1263 1
985 1263 1
993 1263 1
1218 1263 1
1236 1263 1
1290 1263 1
1293 1263 1
318 1264 1
319 1264 1
986 1264 1
994 1264 1
1219 1264 1
1237 1264 1
1291 1264 1
1294 1264 1
319 1265 1
320 1265 1
987 1265 1
995 1265 1
1220 1265 1
1238 1265 1
1292 1265 1
1295 1265 1
320 1266 1
321 1266 1
988 1266 1
996 1266 1
1221 1266 1
1239 1266 1
1293 1266 1
1296 1266 1
321 1267 1
322 1267 1
989 1267 1
997 1267 1
1222 1267 1
1240 1267 1
1270 1267 1
1294 1267 1
322 1268 1
323 1268 1
990 1268 1
998 1268 1
1223 1268 1
1241 1268 1
1271 1268 1
1295 1268 1
323 1269 1
324 1269 1
991 1269 1
999 1269 1
1224 1269 1
1242 1269 1
1272 1269 1
1296 1269 1
325 1270 1
351 1270 1
1000 1270 1
1019 1270 1
1243 1270 1
1252 1270 1
1270 1270 1
1274 1270 1
325 1271 1
326 1271 1
1001 1271 1
1020 1271 1
1244 1271 1
1253 1271 1
1271 1271 1
1275 1271 1
326 1272 1
327 1272 1
1002 1272 1
1021 1272 1
1245 1272 1
1254 1272 1
1272 1272 1
1276 1272 1
327 1273 1
328 1273 1
1003 1273 1
1022 1273 1
1246 1273 1
1255 1273 1
1273 1273 1
1277 1273 1
328 1274 1
329 1274 1
1004 1274 1
1023 1274 1
1247 1274 1
1256 1274 1
1274 1274 1
1278 1274 1
329 1275 1
330 1275 1
1005 1275 1
1024 1275 1
1248 1275 1
1257 1275 1
1275 1275 1
1279 1275 1
330 1276 1
331 1276 1
1006 1276 1
1025 1276 1
1249 1276 1
1258 1276 1
1276 1276 1
1280 1276 1
331 1277 1
332 1277 1
1007 1277 1
1026 1277 1
1250 1277 1
1259 1277 1
1277 1277 1
1281 1277 1
332 1278 1
333 1278 1
1000 1278 1
1008 1278 1
1251 1278 1
1260 1278 1
1278 1278 1
1282 1278 1
333 1279 1
334 1279 1
1001 1279 1
1009 1279 1
1252 1279 1
1261 1279 1
1279 1279 1
1283 1279 1
334 1280 1
335 1280 1
1002 1280 1
1010 1280 1
1253 1280 1
1262 1280 1
1280 1280 1
1284 1280 1
335 1281 1
336 1281 1
1003 1281 1
1011 1281 1
1254 1281 1
1263 1281 1
1281 1281 1
1285 1281 1
336 1282 1
337 1282 1
1004 1282 1
1012 1282 1
1255 1282 1
1264 1282 1
1282 1282 1
1286 1282 1
337 1283 1
338 1283 1
1005 1283 1
1013 1283 1
1256 1283 1
1265 1283 1
1283 1283 1
1287 1283 1
338 1284 1
339 1284 1
1006 1284 1
1014 1284 1
1257 1284 1
1266 1284 1
1284 1284 1
1288 1284 1
339 1285 1
340 1285 1
1007 1285 1
1015 1285 1
1258 1285 1
1267 1285 1
1285 1285 1
1289 1285 1
340 1286 1
341 1286 1
1008 1286 1
1016 1286 1
1259 1286 1
1268 1286 1
1286 1286 1
1290 1286 1
341 1287 1
342 1287 1
1009 1287 1
1017 1287 1
1260 1287 1
1269 1287 1
1287 1287 1
1291 1287 1
342 1288 1
343 1288 1
1010 1288 1
1018 1288 1
1243 1288 1
1261 1288 1
1288 1288 1
1292 1288 1
343 1289 1
344 1289 1
1011 1289 1
1019 1289 1
1244 1289 1
1262 1289 1
1289 1289 1
1293 1289 1
344 1290 1
345 1290 1
1012 1290 1
1020 1290 1
1245 1290 1
1263 1290 1
1290 1290 1
1294 1290 1
345 1291 1
346 1291 1
1013 1291 1
1021 1291 1
1246 1291 1
1264 1291 1
1291 1291 1
1295 1291 1
346 1292 1
347 1292 1
1014 1292 1
1022 1292 1
1247 1292 1
1265 1292 1
1292 1292 1
1296 1292 1
347 1293 1
348 1293 1
1015 1293 1
1023 1293 1
1248 1293 1
1266 1293 1
1270 1293 1
1293 1293 1
348 1294 1
349 1294 1
1016 1294 1
1024 1294 1
1249 1294 1
1267 1294 1
1271 1294 1
1294 1294 1
349 1295 1
350 1295 1
1017 1295 1
1025 1295 1
1250 1295 1
1268 1295 1
1272 1295 1
1295 1295 1
350 1296 1
351 1296 1
1018 1296 1
1026 1296 1
1251 1296 1
1269 1296 1
1273 1296 1
1296 1296 1
352 1297 1
378 1297 1
1027 1297 1
1046 1297 1
1216 1297 1
1230 1297 1
1297 1297 1
1300 1297 1
352 1298 1
353 1298 1
1028 1298 1
1047 1298 1
1217 1298 1
1231 1298 1
1298 1298 1
1301 1298 1
353 1299 1
354 1299 1
1029 1299 1
1048 1299 1
1218 1299 1
1232 1299 1
1299 1299 1
1302 1299 1
354 1300 1
355 1300 1
1030 1300 1
1049 1300 1
1219 1300 1
1233 1300 1
1300 1300 1
1303 1300 1
355 1301 1
356 1301 1
1031 1301 1
1050 1301 1
1220 1301 1
1234 1301 1
1301 1301 1
1304 1301 1
356 1302 1
357 1302 1
1032 1302 1
1051 1302 1
1221 1302 1
1235 1302 1
1302 1302 1
1305 1302 1
357 1303 1
358 1303 1
1033 1303 1
1052 1303 1
1222 1303 1
1236 1303 1
1303 1303 1
1306 1303 1
358 1304 1
359 1304 1
1034 1304 1
1053 1304 1
1223 1304 1
1237 1304 1
1304 1304 1
1307 1304 1
359 1305 1
360 1305 1
1027 1305 1
1035 1305 1
1224 1305 1
1238 1305 1
1305 1305 1
1308 1305 1
360 1306 1
361 1306 1
1028 1306 1
1036 1306 1
1225 1306 1
1239 1306 1
1306 1306 1
1309 1306 1
361 1307 1
362 1307 1
1029 1307 1
1037 1307 1
1226 1307 1
1240 1307 1
1307 1307 1
1310 1307 1
362 1308 1
363 1308 1
1030 1308 1
1038 1308 1
1227 1308 1
1241 1308 1
1308 1308 1
1311 1308 1
363 1309 1
364 1309 1
1031 1309 1
1039 1309 1
1228 1309 1
1242 1309 1
1309 1309 1
1312 1309 1
364 1310 1
365 1310 1
1032 1310 1
1040 1310 1
1216 1310 1
1229 1310 1
1310 1310 1
1313 1310 1
365 1311 1
366 1311 1
1033 1311 1
1041 1311 1
1217 1311 1
1230 1311 1
1311 1311 1
1314 1311 1
366 1312 1
367 1312 1
1034 1312 1
1042 1312 1
1218 1312 1
1231 1312 1
1312 1312 1
1315 1312 1
367 1313 1
368 1313 1
1035 1313 1
1043 1313 1
1219 1313 1
1232 1313 1
1313 1313 1
1316 1313 1
368 1314 1
369 1314 1
1036 1314 1
1044 1314 1
1220 1314 1
1233 1314 1
1314 1314 1
1317 1314 1
369 1315 1
370 1315 1
1037 1315 1
1045 1315 1
1221 1315 1
1234 1315 1
1315 1315 1
1318 1315 1
370 1316 1
371 1316 1
1038 1316 1
1046 1316 1
1222 1316 1
1235 1316 1
1316 1316 1
1319 1316 1
371 1317 1
372 1317 1
1039 1317 1
1047 1317 1
1223 1317 1
1236 1317 1
1317 1317 1
1320 1317 1
372 1318 1
373 1318 1
1040 1318 1
1048 1318 1
1224 1318 1
1237 1318 1
1318 1318 1
1321 1318 1
373 1319 1
374 1319 1
1041 1319 1
1049 1319 1
1225 1319 1
1238 1319 1
1319 1319 1
1322 1319 1
374 1320 1
375 1320 1
1042 1320 1
1050 1320 1
1226 1320 1
1239 1320 1
1320 1320 1
1323 1320 1
375 1321 1
376 1321 1
1043 1321 1
1051 1321 1
1227 1321 1
1240 1321 1
1297 1321 1
1321 1321 1
376 1322 1
377 1322 1
1044 1322 1
1052 1322 1
1228 1322 1
1241 1322 1
1298 1322 1
1322 1322 1
377 1323 1
378 1323 1
1045 1323 1
1053 1323 1
1229 1323 1
1242 1323 1
1299 1323 1
1323 1323 1
379 1324 1
405 1324 1
1054 1324 1
1073 1324 1
1243 1324 1
1257 1324 1
1297 1324 1
1301 1324 1
379 1325 1
380 1325 1
1055 1325 1
1074 1325 1
1244 1325 1
1258 1325 1
1298 1325 1
1302 1325 1
380 1326 1
381 1326 1
1056 1326 1
1075 1326 1
1245 1326 1
1259 1326 1
1299 1326 1
1303 1326 1
381 1327 1
382 1327 1
1057 1327 1
1076 1327 1
1246 1327 1
1260 1327 1
1300 1327 1
1304 1327 1
382 1328 1
383 1328 1
1058 1328 1
1077 1328 1
1247 1328 1
1261 1328 1
1301 1328 1
1305 1328 1
383 1329 1
384 1329 1
1059 1329 1
1078 1329 1
1248 1329 1
1262 1329 1
1302 1329 1
1306 1329 1
384 1330 1
385 1330 1
1060 1330 1
1079 1330 1
1249 1330 1
1263 1330 1
1303 1330 1
1307 1330 1
385 1331 1
386 1331 1
1061 1331 1
1080 1331 1
1250 1331 1
1264 1331 1
1304 1331 1
1308 1331 1
386 1332 1
387 1332 1
1054 1332 1
1062 1332 1
1251 1332 1
1265 1332 1
1305 1332 1
1309 1332 1
387 1333 1
388 1333 1
1055 1333 1
1063 1333 1
1252 1333 1
1266 1333 1
1306 1333 1
1310 1333 1
388 1334 1
389 1334 1
1056 1334 1
1064 1334 1
1253 1334 1
1267 1334 1
1307 1334 1
1311 1334 1
389 1335 1
390 1335 1
1057 1335 1
1065 1335 1
1254 1335 1
1268 1335 1
1308 1335 1
1312 1335 1
390 1336 1
391 1336 1
1058 1336 1
1066 1336 1
1255 1336 1
1269 1336 1
1309 1336 1
1313 1336 1
391 1337 1
392 1337 1
1059 1337 1
1067 1337 1
1243 1337 1
1256 1337 1
1310 1337 1
1314 1337 1
392 1338 1
393 1338 1
1060 1338 1
1068 1338 1
1244 1338 1
1257 1338 1
1311 1338 1
1315 1338 1
393 1339 1
394 1339 1
1061 1339 1
1069 1339 1
1245 1339 1
1258 1339 1
1312 1339 1
1316 1339 1
394 1340 1
395 1340 1
1062 1340 1
1070 1340 1
1246 1340 1
1259 1340 1
1313 1340 1
1317 1340 1
395 1341 1
396 1341 1
1063 1341 1
1071 1341 1
1247 1341 1
1260 1341 1
1314 1341 1
1318 1341 1
396 1342 1
397 1342 1
1064 1342 1
1072 1342 1
1248 1342 1
1261 1342 1
1315 1342 1
1319 1342 1
397 1343 1
398 1343 1
1065 1343 1
1073 1343 1
1249 1343 1
1262 1343 1
1316 1343 1
1320 1343 1
398 1344 1
399 1344 1
1066 1344 1
1074 1344 1
1250 1344 1
1263 1344 1
1317 1344 1
1321 1344 1
399 1345 1
400 1345 1
1067 1345 1
1075 1345 1
1251 1345 1
1264 1345 1
1318 1345 1
1322 1345 1
400 1346 1
401 1346 1
1068 1346 1
1076 1346 1
1252 1346 1
1265 1346 1
1319 1346 1
1323 1346 1
401 1347 1
402 1347 1
1069 1347 1
1077 1347 1
1253 1347 1
1266 1347 1
1297 1347 1
1320 1347 1
402 1348 1
403 1348 1
1070 1348 1
1078 1348 1
1254 1348 1
1267 1348 1
1298 1348 1
1321 1348 1
403 1349 1
404 1349 1
1071 1349 1
1079 1349 1
1255 1349 1
1268 1349 1
1299 1349 1
1322 1349 1
404 1350 1
405 1350 1
1072 1350 1
1080 1350 1
1256 1350 1
1269 1350 1
1300 1350 1
1323 1350 1
406 1351 1
432 1351 1
1081 1351 1
1100 1351 1
1270 1351 1
1284 1351 1
1297 1351 1
1306 1351 1
406 1352 1
407 1352 1
1082 1352 1
1101 1352 1
1271 1352 1
1285 1352 1
1298 1352 1
1307 1352 1
407 1353 1
408 1353 1
1083 1353 1
1102 1353 1
1272 1353 1
1286 1353 1
1299 1353 1
1308 1353 1
408 1354 1
409 1354 1
1084 1354 1
1103 1354 1
1273 1354 1
1287 1354 1
1300 1354 1
1309 1354 1
409 1355 1
410 1355 1
1085 1355 1
1104 1355 1
1274 1355 1
1288 1355 1
1301 1355 1
1310 1355 1
410 1356 1
411 1356 1
1086 1356 1
1105 1356 1
1275 1356 1
1289 1356 1
1302 1356 1
1311 1356 1
411 1357 1
412 1357 1
1087 1357 1
1106 1357 1
1276 1357 1
1290 1357 1
1303 1357 1
1312 1357 1
412 1358 1
413 1358 1
1088 1358 1
1107 1358 1
1277 1358 1
1291 1358 1
1304 1358 1
1313 1358 1
413 1359 1
414 1359 1
1081 1359 1
1089 1359 1
1278 1359 1
1292 1359 1
1305 1359 1
1314 1359 1
414 1360 1
415 1360 1
1082 1360 1
1090 1360 1
1279 1360 1
1293 1360 1
1306 1360 1
1315 1360 1
415 1361 1
416 1361 1
1083 1361 1
1091 1361 1
1280 1361 1
1294 1361 1
1307 1361 1
1316 1361 1
416 1362 1
417 1362 1
1084 1362 1
1092 1362 1
1281 1362 1
1295 1362 1
1308 1362 1
1317 1362 1
417 1363 1
418 1363 1
1085 1363 1
1093 1363 1
1282 1363 1
1296 1363 1
1309 1363 1
1318 1363 1
418 1364 1
419 1364 1
1086 1364 1
1094 1364 1
1270 1364 1
1283 1364 1
1310 1364 1
1319 1364 1
419 1365 1
420 1365 1
1087 1365 1
1095 1365 1
1271 1365 1
1284 1365 1
1311 1365 1
1320 1365 1
420 1366 1
421 1366 1
1088 1366 1
1096 1366 1
1272 1366 1
1285 1366 1
1312 1366 1
1321 1366 1
421 1367 1
422 1367 1
1089 1367 1
1097 1367 1
1273 1367 1
1286 1367 1
1313 1367 1
1322 1367 1
422 1368 1
423 1368 1
1090 1368 1
1098 1368 1
1274 1368 1
1287 1368 1
1314 1368 1
1323 1368 1
423 1369 1
424 1369 1
1091 1369 1
1099 1369 1
1275 1369 1
1288 1369 1
1297 1369 1
1315 1369 1
424 1370 1
425 1370 1
1092 1370 1
1100 1370 1
1276 1370 1
1289 1370 1
1298 1370 1
1316 1370 1
425 1371 1
426 1371 1
1093 1371 1
1101 1371 1
1277 1371 1
1290 1371 1
1299 1371 1
1317 1371 1
426 1372 1
427 1372 1
1094 1372 1
1102 1372 1
1278 1372 1
1291 1372 1
1300 1372 1
1318 1372 1
427 1373 1
428 1373 1
1095 1373 1
1103 1373 1
1279 1373 1
1292 1373 1
1301 1373 1
1319 1373 1
428 1374 1
429 1374 1
1096 1374 1
1104 1374 1
1280 1374 1
1293 1374 1
1302 1374 1
1320 1374 1
429 1375 1
430 1375 1
1097 1375 1
1105 1375 1
1281 1375 1
1294 1375 1
1303 1375 1
1321 1375 1
430 1376 1
431 1376 1
1098 1376 1
1106 1376 1
1282 1376 1
1295 1376 1
1304 1376 1
1322 1376 1
431 1377 1
432 1377 1
1099 1377 1
1107 1377 1
1283 1377 1
1296 1377 1
1305 1377 1
1323 1377 1
433 1378 1
459 1378 1
1108 1378 1
1127 1378 1
1216 1378 1
1232 1378 1
1324 1378 1
1327 1378 1
433 1379 1
434 1379 1
1109 1379 1
1128 1379 1
1217 1379 1
1233 1379 1
1325 1379 1
1328 1379 1
434 1380 1
435 1380 1
1110 1380 1
1129 1380 1
1218 1380 1
1234 1380 1
1326 1380 1
1329 1380 1
435 1381 1
436 1381 1
1111 1381 1
1130 1381 1
1219 1381 1
1235 1381 1
1327 1381 1
1330 1381 1
436 1382 1
437 1382 1
1112 1382 1
1131 1382 1
1220 1382 1
1236 1382 1
1328 1382 1
1331 1382 1
437 1383 1
438 1383 1
1113 1383 1
1132 1383 1
1221 1383 1
1237 1383 1
1329 1383 1
1332 1383 1
438 1384 1
439 1384 1
1114 1384 1
1133 1384 1
1222 1384 1
1238 1384 1
1330 1384 1
1333 1384 1
439 1385 1
440 1385 1
1115 1385 1
1134 1385 1
1223 1385 1
1239 1385 1
1331 1385 1
1334 1385 1
440 1386 1
441 1386 1
1108 1386 1
1116 1386 1
1224 1386 1
1240 1386 1
1332 1386 1
1335 1386 1
441 1387 1
442 1387 1
1109 1387 1
1117 1387 1
1225 1387 1
1241 1387 1
1333 1387 1
1336 1387 1
442 1388 1
443 1388 1
1110 1388 1
1118 1388 1
1226 1388 1
1242 1388 1
1334 1388 1
1337 1388 1
443 1389 1
444 1389 1
1111 1389 1
1119 1389 1
1216 1389 1
1227 1389 1
1335 1389 1
1338 1389 1
444 1390 1
445 1390 1
1112 1390 1
1120 1390 1
1217 1390 1
1228 1390 1
1336 1390 1
1339 1390 1
445 1391 1
446 1391 1
1113 1391 1
1121 1391 1
1218 1391 1
1229 1391 1
1337 1391 1
1340 1391 1
446 1392 1
447 1392 1
1114 1392 1
1122 1392 1
1219 1392 1
1230 1392 1
1338 1392 1
1341 1392 1
447 1393 1
448 1393 1
1115 1393 1
1123 1393 1
1220 1393 1
1231 1393 1
1339 1393 1
1342 1393 1
448 1394 1
449 1394 1
1116 1394 1
1124 1394 1
1221 1394 1
1232 1394 1
1340 1394 1
1343 1394 1
449 1395 1
450 1395 1
1117 1395 1
1125 1395 1
1222 1395 1
1233 1395 1
1341 1395 1
1344 1395 1
450 1396 1
451 1396 1
1118 1396 1
1126 1396 1
1223 1396 1
1234 1396 1
1342 1396 1
1345 1396 1
451 1397 1
452 1397 1
1119 1397 1
1127 1397 1
1224 1397 1
1235 1397 1
1343 1397 1
1346 1397 1
452 1398 1
453 1398 1
1120 1398 1
1128 1398 1
1225 1398 1
1236 1398 1
1344 1398 1
1347 1398 1
453 1399 1
454 1399 1
1121 1399 1
1129 1399 1
1226 1399 1
1237 1399 1
1345 1399 1
1348 1399 1
454 1400 1
455 1400 1
1122 1400 1
1130 1400 1
1227 1400 1
1238 1400 1
1346 1400 1
1349 1400 1
455 1401 1
456 1401 1
1123 1401 1
1131 1401 1
1228 1401 1
1239 1401 1
1347 1401 1
1350 1401 1
456 1402 1
457 1402 1
1124 1402 1
1132 1402 1
1229 1402 1
1240 1402 1
1324 1402 1
1348 1402 1
457 1403 1
458 1403 1
1125 1403 1
1133 1403 1
1230 1403 1
1241 1403 1
1325 1403 1
1349 1403 1
458 1404 1
459 1404 1
1126 1404 1
1134 1404 1
1231 1404 1
1242 1404 1
1326 1404 1
1350 1404 1
460 1405 1
486 1405 1
1135 1405 1
1154 1405 1
1243 1405 1
1259 1405 1
1324 1405 1
1328 1405 1
460 1406 1
461 1406 1
1136 1406 1
1155 1406 1
1244 1406 1
1260 1406 1
1325 1406 1
1329 1406 1
461 1407 1
462 1407 1
1137 1407 1
1156 1407 1
1245 1407 1
1261 1407 1
1326 1407 1
1330 1407 1
462 1408 1
463 1408 1
1138 1408 1
1157 1408 1
1246 1408 1
1262 1408 1
1327 1408 1
1331 1408 1
463 1409 1
464 1409 1
1139 1409 1
1158 1409 1
1247 1409 1
1263 1409 1
1328 1409 1
1332 1409 1
464 1410 1
465 1410 1
1140 1410 1
1159 1410 1
1248 1410 1
1264 1410 1
1329 1410 1
1333 1410 1
465 1411 1
466 1411 1
1141 1411 1
1160 1411 1
1249 1411 1
1265 1411 1
1330 1411 1
1334 1411 1
466 1412 1
467 1412 1
1142 1412 1
1161 1412 1
1250 1412 1
1266 1412 1
1331 1412 1
1335 1412 1
467 1413 1
468 1413 1
1135 1413 1
1143 1413 1
1251 1413 1
1267 1413 1
1332 1413 1
1336 1413 1
468 1414 1
469 1414 1
1136 1414 1
1144 1414 1
1252 1414 1
1268 1414 1
1333 1414 1
1337 1414 1
469 1415 1
470 1415 1
1137 1415 1
1145 1415 1
1253 1415 1
1269 1415 1
1334 1415 1
1338 1415 1
470 1416 1
471 1416 1
1138 1416 1
1146 1416 1
1243 1416 1
1254 1416 1
1335 1416 1
1339 1416 1
471 1417 1
472 1417 1
1139 1417 1
1147 1417 1
1244 1417 1
1255 1417 1
1336 1417 1
1340 1417 1
472 1418 1
473 1418 1
1140 1418 1
1148 1418 1
1245 1418 1
1256 1418 1
1337 1418 1
1341 1418 1
473 1419 1
474 1419 1
1141 1419 1
1149 1419 1
1246 1419 1
1257 1419 1
1338 1419 1
1342 1419 1
474 1420 1
475 1420 1
1142 1420 1
1150 1420 1
1247 1420 1
1258 1420 1
1339 1420 1
1343 1420 1
475 1421 1
476 1421 1
1143 1421 1
1151 1421 1
1248 1421 1
1259 1421 1
1340 1421 1
1344 1421 1
476 1422 1
477 1422 1
1144 1422 1
1152 1422 1
1249 1422 1
1260 1422 1
1341 1422 1
1345 1422 1
477 1423 1
478 1423 1
1145 1423 1
1153 1423 1
1250 1423 1
1261 1423 1
1342 1423 1
1346 1423 1
478 1424 1
479 1424 1
1146 1424 1
1154 1424 1
1251 1424 1
1262 1424 1
1343 1424 1
1347 1424 1
479 1425 1
480 1425 1
1147 1425 1
1155 1425 1
1252 1425 1
1263 1425 1
1344 1425 1
1348 1425 1
480 1426 1
481 1426 1
1148 1426 1
1156 1426 1
1253 1426 1
1264 1426 1
1345 1426 1
1349 1426 1
481 1427 1
482 1427 1
1149 1427 1
1157 1427 1
1254 1427 1
1265 1427 1
1346 1427 1
1350 1427 1
482 1428 1
483 1428 1
1150 1428 1
1158 1428 1
1255 1428 1
1266 1428 1
1324 1428 1
1347 1428 1
483 1429 1
484 1429 1
1151 1429 1
1159 1429 1
1256 1429 1
1267 1429 1
1325 1429 1
1348 1429 1
484 1430 1
485 1430 1
1152 1430 1
1160 1430 1
1257 1430 1
1268 1430 1
1326 1430 1
1349 1430 1
485 1431 1
486 1431 1
1153 1431 1
1161 1431 1
1258 1431 1
1269 1431 1
1327 1431 1
1350 1431 1
487 1432 1
513 1432 1
1162 1432 1
1181 1432 1
1270 1432 1
1286 1432 1
1324 1432 1
1333 1432 1
487 1433 1
488 1433 1
1163 1433 1
1182 1433 1
1271 1433 1
1287 1433 1
1325 1433 1
1334 1433 1
488 1434 1
489 1434 1
1164 1434 1
1183 1434 1
1272 1434 1
1288 1434 1
1326 1434 1
1335 1434 1
489 1435 1
490 1435 1
1165 1435 1
1184 1435 1
1273 1435 1
1289 1435 1
1327 1435 1
1336 1435 1
490 1436 1
491 1436 1
1166 1436 1
1185 1436 1
1274 1436 1
1290 1436 1
1328 1436 1
1337 1436 1
491 1437 1
492 1437 1
1167 1437 1
1186 1437 1
1275 1437 1
1291 1437 1
1329 1437 1
1338 1437 1
492 1438 1
493 1438 1
1168 1438 1
1187 1438 1
1276 1438 1
1292 1438 1
1330 1438 1
1339 1438 1
493 1439 1
494 1439 1
1169 1439 1
1188 1439 1
1277 1439 1
1293 1439 1
1331 1439 1
1340 1439 1
494 1440 1
495 1440 1
1162 1440 1
1170 1440 1
1278 1440 1
1294 1440 1
1332 1440 1
1341 1440 1
495 1441 1
496 1441 1
1163 1441 1
1171 1441 1
1279 1441 1
1295 1441 1
1333 1441 1
1342 1441 1
496 1442 1
497 1442 1
1164 1442 1
1172 1442 1
1280 1442 1
1296 1442 1
1334 1442 1
1343 1442 1
497 1443 1
498 1443 1
1165 1443 1
1173 1443 1
1270 1443 1
1281 1443 1
1335 1443 1
1344 1443 1
498 1444 1
499 1444 1
1166 1444 1
1174 1444 1
1271 1444 1
1282 1444 1
1336 1444 1
1345 1444 1
499 1445 1
500 1445 1
1167 1445 1
1175 1445 1
1272 1445 1
1283 1445 1
1337 1445 1
1346 1445 1
500 1446 1
501 1446 1
1168 1446 1
1176 1446 1
1273 1446 1
1284 1446 1
1338 1446 1
1347 1446 1
501 1447 1
502 1447 1
1169 1447 1
1177 1447 1
1274 1447 1
1285 1447 1
1339 1447 1
1348 1447 1
502 1448 1
503 1448 1
1170 1448 1
1178 1448 1
1275 1448 1
1286 1448 1
1340 1448 1
1349 1448 1
503 1449 1
504 1449 1
1171 1449 1
1179 1449 1
1276 1449 1
1287 1449 1
1341 1449 1
1350 1449 1
504 1450 1
505 1450 1
1172 1450 1
1180 1450 1
1277 1450 1
1288 1450 1
1324 1450 1
1342 1450 1
505 1451 1
506 1451 1
1173 1451 1
1181 1451 1
1278 1451 1
1289 1451 1
1325 1451 1
1343 1451 1
506 1452 1
507 1452 1
1174 1452 1
1182 1452 1
1279 1452 1
1290 1452 1
1326 1452 1
1344 1452 1
507 1453 1
508 1453 1
1175 1453 1
1183 1453 1
1280 1453 1
1291 1453 1
1327 1453 1
1345 1453 1
508 1454 1
509 1454 1
1176 1454 1
1184 1454 1
1281 1454 1
1292 1454 1
1328 1454 1
1346 1454 1
509 1455 1
510 1455 1
1177 1455 1
1185 1455 1
1282 1455 1
1293 1455 1
1329 1455 1
1347 1455 1
510 1456 1
511 1456 1
1178 1456 1
1186 1456 1
1283 1456 1
1294 1456 1
1330 1456 1
1348 1456 1
511 1457 1
512 1457 1
1179 1457 1
1187 1457 1
1284 1457 1
1295 1457 1
1331 1457 1
1349 1457 1
512 1458 1
513 1458 1
1180 1458 1
1188 1458 1
1285 1458 1
1296 1458 1
1332 1458 1
1350 1458 1
514 1459 1
540 1459 1
1189 1459 1
1208 1459 1
1297 1459 1
1313 1459 1
1324 1459 1
1338 1459 1
514 1460 1
515 1460 1
1190 1460 1
1209 1460 1
1298 1460 1
1314 1460 1
1325 1460 1
1339 1460 1
515 1461 1
516 1461 1
1191 1461 1
1210 1461 1
1299 1461 1
1315 1461 1
1326 1461 1
1340 1461 1
516 1462 1
517 1462 1
1192 1462 1
1211 1462 1
1300 1462 1
1316 1462 1
1327 1462 1
1341 1462 1
517 1463 1
518 1463 1
1193 1463 1
1212 1463 1
1301 1463 1
1317 1463 1
1328 1463 1
1342 1463 1
518 1464 1
519 1464 1
1194 1464 1
1213 1464 1
1302 1464 1
1318 1464 1
1329 1464 1
1343 1464 1
519 1465 1
520 1465 1
1195 1465 1
1214 1465 1
1303 1465 1
1319 1465 1
1330 1465 1
1344 1465 1
520 1466 1
521 1466 1
1196 1466 1
1215 1466 1
1304 1466 1
1320 1466 1
1331 1466 1
1345 1466 1
521 1467 1
522 1467 1
1189 1467 1
1197 1467 1
1305 1467 1
1321 1467 1
1332 1467 1
1346 1467 1
522 1468 1
523 1468 1
1190 1468 1
1198 1468 1
1306 1468 1
1322 1468 1
1333 1468 1
1347 1468 1
523 1469 1
524 1469 1
1191 1469 1
1199 1469 1
1307 1469 1
1323 1469 1
1334 1469 1
1348 1469 1
524 1470 1
525 1470 1
1192 1470 1
1200 1470 1
1297 1470 1
1308 1470 1
1335 1470 1
1349 1470 1
525 1471 1
526 1471 1
1193 1471 1
1201 1471 1
1298 1471 1
1309 1471 1
1336 1471 1
1350 1471 1
526 1472 1
527 1472 1
1194 1472 1
1202 1472 1
1299 1472 1
1310 1472 1
1324 1472 1
1337 1472 1
527 1473 1
528 1473 1
1195 1473 1
1203 1473 1
1300 1473 1
1311 1473 1
1325 1473 1
1338 1473 1
528 1474 1
529 1474 1
1196 1474 1
1204 1474 1
1301 1474 1
1312 1474 1
1326 1474 1
1339 1474 1
529 1475 1
530 1475 1
1197 1475 1
1205 1475 1
1302 1475 1
1313 1475 1
1327 1475 1
1340 1475 1
530 1476 1
531 1476 1
1198 1476 1
1206 1476 1
1303 1476 1
1314 1476 1
1328 1476 1
1341 1476 1
531 1477 1
532 1477 1
1199 1477 1
1207 1477 1
1304 1477 1
1315 1477 1
1329 1477 1
1342 1477 1
532 1478 1
533 1478 1
1200 1478 1
1208 1478 1
1305 1478 1
1316 1478 1
1330 1478 1
1343 1478 1
533 1479 1
534 1479 1
1201 1479 1
1209 1479 1
1306 1479 1
1317 1479 1
1331 1479 1
1344 1479 1
534 1480 1
535 1480 1
1202 1480 1
1210 1480 1
1307 1480 1
1318 1480 1
1332 1480 1
1345 1480 1
535 1481 1
536 1481 1
1203 1481 1
1211 1481 1
1308 1481 1
1319 1481 1
1333 1481 1
1346 1481 1
536 1482 1
537 1482 1
1204 1482 1
1212 1482 1
1309 1482 1
1320 1482 1
1334 1482 1
1347 1482 1
537 1483 1
538 1483 1
1205 1483 1
1213 1483 1
1310 1483 1
1321 1483 1
1335 1483 1
1348 1483 1
538 1484 1
539 1484 1
1206 1484 1
1214 1484 1
1311 1484 1
1322 1484 1
1336 1484 1
1349 1484 1
539 1485 1
540 1485 1
1207 1485 1
1215 1485 1
1312 1485 1
1323 1485 1
1337 1485 1
1350 1485 1
541 1486 1
567 1486 1
946 1486 1
968 1486 1
1351 1486 1
1355 1486 1
1378 1486 1
1381 1486 1
541 1487 1
542 1487 1
947 1487 1
969 1487 1
1352 1487 1
1356 1487 1
1379 1487 1
1382 1487 1
542 1488 1
543 1488 1
948 1488 1
970 1488 1
1353 1488 1
1357 1488 1
1380 1488 1
1383 1488 1
543 1489 1
544 1489 1
949 1489 1
971 1489 1
1354 1489 1
1358 1489 1
1381 1489 1
1384 1489 1
544 1490 1
545 1490 1
950 1490 1
972 1490 1
1355 1490 1
1359 1490 1
1382 1490 1
1385 1490 1
545 1491 1
546 1491 1
946 1491 1
951 1491 1
1356 1491 1
1360 1491 1
1383 1491 1
1386 1491 1
546 1492 1
547 1492 1
947 1492 1
952 1492 1
1357 1492 1
1361 1492 1
1384 1492 1
1387 1492 1
547 1493 1
548 1493 1
948 1493 1
953 1493 1
1358 1493 1
1362 1493 1
1385 1493 1
1388 1493 1
548 1494 1
549 1494 1
949 1494 1
954 1494 1
1359 1494 1
1363 1494 1
1386 1494 1
1389 1494 1
549 1495 1
550 1495 1
950 1495 1
955 1495 1
1360 1495 1
1364 1495 1
1387 1495 1
1390 1495 1
550 1496 1
551 1496 1
951 1496 1
956 1496 1
1361 1496 1
1365 1496 1
1388 1496 1
1391 1496 1
551 1497 1
552 1497 1
952 1497 1
957 1497 1
1362 1497 1
1366 1497 1
1389 1497 1
1392 1497 1
552 1498 1
553 1498 1
953 1498 1
958 1498 1
1363 1498 1
1367 1498 1
1390 1498 1
1393 1498 1
553 1499 1
554 1499 1
954 1499 1
959 1499 1
1364 1499 1
1368 1499 1
1391 1499 1
1394 1499 1
554 1500 1
555 1500 1
955 1500 1
960 1500 1
1365 1500 1
1369 1500 1
1392 1500 1
1395 1500 1
555 1501 1
556 1501 1
956 1501 1
961 1501 1
1366 1501 1
1370 1501 1
1393 1501 1
1396 1501 1
556 1502 1
557 1502 1
957 1502 1
962 1502 1
1367 1502 1
1371 1502 1
1394 1502 1
1397 1502 1
557 1503 1
558 1503 1
958 1503 1
963 1503 1
1368 1503 1
1372 1503 1
1395 1503 1
1398 1503 1
558 1504 1
559 1504 1
959 1504 1
964 1504 1
1369 1504 1
1373 1504 1
1396 1504 1
1399 1504 1
559 1505 1
560 1505 1
960 1505 1
965 1505 1
1370 1505 1
1374 1505 1
1397 1505 1
1400 1505 1
560 1506 1
561 1506 1
961 1506 1
966 1506 1
1371 1506 1
1375 1506 1
1398 1506 1
1401 1506 1
561 1507 1
562 1507 1
962 1507 1
967 1507 1
1372 1507 1
1376 1507 1
1399 1507 1
1402 1507 1
562 1508 1
563 1508 1
963 1508 1
968 1508 1
1373 1508 1
1377 1508 1
1400 1508 1
1403 1508 1
563 1509 1
564 1509 1
964 1509 1
969 1509 1
1351 1509 1
1374 1509 1
1401 1509 1
1404 1509 1
564 1510 1
565 1510 1
965 1510 1
970 1510 1
1352 1510 1
1375 1510 1
1378 1510 1
1402 1510 1
565 1511 1
566 1511 1
966 1511 1
971 1511 1
1353 1511 1
1376 1511 1
1379 1511 1
1403 1511 1
566 1512 1
567 1512 1
967 1512 1
972 1512 1
1354 1512 1
1377 1512 1
1380 1512 1
1404 1512 1
568 1513 1
594 1513 1
973 1513 1
995 1513 1
1351 1513 1
1360 1513 1
1405 1513 1
1408 1513 1
568 1514 1
569 1514 1
974 1514 1
996 1514 1
1352 1514 1
1361 1514 1
1406 1514 1
1409 1514 1
569 1515 1
570 1515 1
975 1515 1
997 1515 1
1353 1515 1
1362 1515 1
1407 1515 1
1410 1515 1
570 1516 1
571 1516 1
976 1516 1
998 1516 1
1354 1516 1
1363 1516 1
1408 1516 1
1411 1516 1
571 1517 1
572 1517 1
977 1517 1
999 1517 1
1355 1517 1
1364 1517 1
1409 1517 1
1412 1517 1
572 1518 1
573 1518 1
973 1518 1
978 1518 1
1356 1518 1
1365 1518 1
1410 1518 1
1413 1518 1
573 1519 1
574 1519 1
974 1519 1
979 1519 1
1357 1519 1
1366 1519 1
1411 1519 1
1414 1519 1
574 1520 1
575 1520 1
975 1520 1
980 1520 1
1358 1520 1
1367 1520 1
1412 1520 1
1415 1520 1
575 1521 1
576 1521 1
976 1521 1
981 1521 1
1359 1521 1
1368 1521 1
1413 1521 1
1416 1521 1
576 1522 1
577 1522 1
977 1522 1
982 1522 1
1360 1522 1
1369 1522 1
1414 1522 1
1417 1522 1
577 1523 1
578 1523 1
978 1523 1
983 1523 1
1361 1523 1
1370 1523 1
1415 1523 1
1418 1523 1
578 1524 1
579 1524 1
979 1524 1
984 1524 1
1362 1524 1
1371 1524 1
1416 1524 1
1419 1524 1
579 1525 1
580 1525 1
980 1525 1
985 1525 1
1363 1525 1
1372 1525 1
1417 1525 1
1420 1525 1
580 1526 1
581 1526 1
981 1526 1
986 1526 1
1364 1526 1
1373 1526 1
1418 1526 1
1421 1526 1
581 1527 1
582 1527 1
982 1527 1
987 1527 1
1365 1527 1
1374 1527 1
1419 1527 1
1422 1527 1
582 1528 1
583 1528 1
983 1528 1
988 1528 1
1366 1528 1
1375 1528 1
1420 1528 1
1423 1528 1
583 1529 1
584 1529 1
984 1529 1
989 1529 1
1367 1529 1
1376 1529 1
1421 1529 1
1424 1529 1
584 1530 1
585 1530 1
985 1530 1
990 1530 1
1368 1530 1
1377 1530 1
1422 1530 1
1425 1530 1
585 1531 1
586 1531 1
986 1531 1
991 1531 1
1351 1531 1
1369 1531 1
1423 1531 1
1426 1531 1
586 1532 1
587 1532 1
987 1532 1
992 1532 1
1352 1532 1
1370 1532 1
1424 1532 1
1427 1532 1
587 1533 1
588 1533 1
988 1533 1
993 1533 1
1353 1533 1
1371 1533 1
1425 1533 1
1428 1533 1
588 1534 1
589 1534 1
989 1534 1
994 1534 1
1354 1534 1
1372 1534 1
1426 1534 1
1429 1534 1
589 1535 1
590 1535 1
990 1535 1
995 1535 1
1355 1535 1
1373 1535 1
1427 1535 1
1430 1535 1
590 1536 1
591 1536 1
991 1536 1
996 1536 1
1356 1536 1
1374 1536 1
1428 1536 1
1431 1536 1
591 1537 1
592 1537 1
992 1537 1
997 1537 1
1357 1537 1
1375 1537 1
1405 1537 1
1429 1537 1
592 1538 1
593 1538 1
993 1538 1
998 1538 1
1358 1538 1
1376 1538 1
1406 1538 1
1430 1538 1
593 1539 1
594 1539 1
994 1539 1
999 1539 1
1359 1539 1
1377 1539 1
1407 1539 1
1431 1539 1
595 1540 1
621 1540 1
1000 1540 1
1022 1540 1
1378 1540 1
1387 1540 1
1405 1540 1
1409 1540 1
595 1541 1
596 1541 1
1001 1541 1
1023 1541 1
1379 1541 1
1388 1541 1
1406 1541 1
1410 1541 1
596 1542 1
597 1542 1
1002 1542 1
1024 1542 1
1380 1542 1
1389 1542 1
1407 1542 1
1411 1542 1
597 1543 1
598 1543 1
1003 1543 1
1025 1543 1
1381 1543 1
1390 1543 1
1408 1543 1
1412 1543 1
598 1544 1
599 1544 1
1004 1544 1
1026 1544 1
1382 1544 1
1391 1544 1
1409 1544 1
1413 1544 1
599 1545 1
600 1545 1
1000 1545 1
1005 1545 1
1383 1545 1
1392 1545 1
1410 1545 1
1414 1545 1
600 1546 1
601 1546 1
1001 1546 1
1006 1546 1
1384 1546 1
1393 1546 1
1411 1546 1
1415 1546 1
601 1547 1
602 1547 1
1002 1547 1
1007 1547 1
1385 1547 1
1394 1547 1
1412 1547 1
1416 1547 1
602 1548 1
603 1548 1
1003 1548 1
1008 1548 1
1386 1548 1
1395 1548 1
1413 1548 1
1417 1548 1
603 1549 1
604 1549 1
1004 1549 1
1009 1549 1
1387 1549 1
1396 1549 1
1414 1549 1
1418 1549 1
604 1550 1
605 1550 1
1005 1550 1
1010 1550 1
1388 1550 1
1397 1550 1
1415 1550 1
1419 1550 1
605 1551 1
606 1551 1
1006 1551 1
1011 1551 1
1389 1551 1
1398 1551 1
1416 1551 1
1420 1551 1
606 1552 1
607 1552 1
1007 1552 1
1012 1552 1
1390 1552 1
1399 1552 1
1417 1552 1
1421 1552 1
607 1553 1
608 1553 1
1008 1553 1
1013 1553 1
1391 1553 1
1400 1553 1
1418 1553 1
1422 1553 1
608 1554 1
609 1554 1
1009 1554 1
1014 1554 1
1392 1554 1
1401 1554 1
1419 1554 1
1423 1554 1
609 1555 1
610 1555 1
1010 1555 1
1015 1555 1
1393 1555 1
1402 1555 1
1420 1555 1
1424 1555 1
610 1556 1
611 1556 1
1011 1556 1
1016 1556 1
1394 1556 1
1403 1556 1
1421 1556 1
1425 1556 1
611 1557 1
612 1557 1
1012 1557 1
1017 1557 1
1395 1557 1
1404 1557 1
1422 1557 1
1426 1557 1
612 1558 1
613 1558 1
1013 1558 1
1018 1558 1
1378 1558 1
1396 1558 1
1423 1558 1
1427 1558 1
613 1559 1
614 1559 1
1014 1559 1
1019 1559 1
1379 1559 1
1397 1559 1
1424 1559 1
1428 1559 1
614 1560 1
615 1560 1
1015 1560 1
1020 1560 1
1380 1560 1
1398 1560 1
1425 1560 1
1429 1560 1
615 1561 1
616 1561 1
1016 1561 1
1021 1561 1
1381 1561 1
1399 1561 1
1426 1561 1
1430 1561 1
616 1562 1
617 1562 1
1017 1562 1
1022 1562 1
1382 1562 1
1400 1562 1
1427 1562 1
1431 1562 1
617 1563 1
618 1563 1
1018 1563 1
1023 1563 1
1383 1563 1
1401 1563 1
1405 1563 1
1428 1563 1
618 1564 1
619 1564 1
1019 1564 1
1024 1564 1
1384 1564 1
1402 1564 1
1406 1564 1
1429 1564 1
619 1565 1
620 1565 1
1020 1565 1
1025 1565 1
1385 1565 1
1403 1565 1
1407 1565 1
1430 1565 1
620 1566 1
621 1566 1
1021 1566 1
1026 1566 1
1386 1566 1
1404 1566 1
1408 1566 1
1431 1566 1
622 1567 1
648 1567 1
1027 1567 1
1049 1567 1
1351 1567 1
1365 1567 1
1432 1567 1
1435 1567 1
622 1568 1
623 1568 1
1028 1568 1
1050 1568 1
1352 1568 1
1366 1568 1
1433 1568 1
1436 1568 1
623 1569 1
624 1569 1
1029 1569 1
1051 1569 1
1353 1569 1
1367 1569 1
1434 1569 1
1437 1569 1
624 1570 1
625 1570 1
1030 1570 1
1052 1570 1
1354 1570 1
1368 1570 1
1435 1570 1
1438 1570 1
625 1571 1
626 1571 1
1031 1571 1
1053 1571 1
1355 1571 1
1369 1571 1
1436 1571 1
1439 1571 1
626 1572 1
627 1572 1
1027 1572 1
1032 1572 1
1356 1572 1
1370 1572 1
1437 1572 1
1440 1572 1
627 1573 1
628 1573 1
1028 1573 1
1033 1573 1
1357 1573 1
1371 1573 1
1438 1573 1
1441 1573 1
628 1574 1
629 1574 1
1029 1574 1
1034 1574 1
1358 1574 1
1372 1574 1
1439 1574 1
1442 1574 1
629 1575 1
630 1575 1
1030 1575 1
1035 1575 1
1359 1575 1
1373 1575 1
1440 1575 1
1443 1575 1
630 1576 1
631 1576 1
1031 1576 1
1036 1576 1
1360 1576 1
1374 1576 1
1441 1576 1
1444 1576 1
631 1577 1
632 1577 1
1032 1577 1
1037 1577 1
1361 1577 1
1375 1577 1
1442 1577 1
1445 1577 1
632 1578 1
633 1578 1
1033 1578 1
1038 1578 1
1362 1578 1
1376 1578 1
1443 1578 1
1446 1578 1
633 1579 1
634 1579 1
1034 1579 1
1039 1579 1
1363 1579 1
1377 1579 1
1444 1579 1
1447 1579 1
634 1580 1
635 1580 1
1035 1580 1
1040 1580 1
1351 1580 1
1364 1580 1
1445 1580 1
1448 1580 1
635 1581 1
636 1581 1
1036 1581 1
1041 1581 1
1352 1581 1
1365 1581 1
1446 1581 1
1449 1581 1
636 1582 1
637 1582 1
1037 1582 1
1042 1582 1
1353 1582 1
1366 1582 1
1447 1582 1
1450 1582 1
637 1583 1
638 1583 1
1038 1583 1
1043 1583 1
1354 1583 1
1367 1583 1
1448 1583 1
1451 1583 1
638 1584 1
639 1584 1
1039 1584 1
1044 1584 1
1355 1584 1
1368 1584 1
1449 1584 1
1452 1584 1
639 1585 1
640 1585 1
1040 1585 1
1045 1585 1
1356 1585 1
1369 1585 1
1450 1585 1
1453 1585 1
640 1586 1
641 1586 1
1041 1586 1
1046 1586 1
1357 1586 1
1370 1586 1
1451 1586 1
1454 1586 1
641 1587 1
642 1587 1
1042 1587 1
1047 1587 1
1358 1587 1
1371 1587 1
1452 1587 1
1455 1587 1
642 1588 1
643 1588 1
1043 1588 1
1048 1588 1
1359 1588 1
1372 1588 1
1453 1588 1
1456 1588 1
643 1589 1
644 1589 1
1044 1589 1
1049 1589 1
1360 1589 1
1373 1589 1
1454 1589 1
1457 1589 1
644 1590 1
645 1590 1
1045 1590 1
1050 1590 1
1361 1590 1
1374 1590 1
1455 1590 1
1458 1590 1
645 1591 1
646 1591 1
1046 1591 1
1051 1591 1
1362 1591 1
1375 1591 1
1432 1591 1
1456 1591 1
646 1592 1
647 1592 1
1047 1592 1
1052 1592 1
1363 1592 1
1376 1592 1
1433 1592 1
1457 1592 1
647 1593 1
648 1593 1
1048 1593 1
1053 1593 1
1364 1593 1
1377 1593 1
1434 1593 1
1458 1593 1
649 1594 1
675 1594 1
1054 1594 1
1076 1594 1
1378 1594 1
1392 1594 1
1432 1594 1
1436 1594 1
649 1595 1
650 1595 1
1055 1595 1
1077 1595 1
1379 1595 1
1393 1595 1
1433 1595 1
1437 1595 1
650 1596 1
651 1596 1
1056 1596 1
1078 1596 1
1380 1596 1
1394 1596 1
1434 1596 1
1438 1596 1
651 1597 1
652 1597 1
1057 1597 1
1079 1597 1
1381 1597 1
1395 1597 1
1435 1597 1
1439 1597 1
652 1598 1
653 1598 1
1058 1598 1
1080 1598 1
1382 1598 1
1396 1598 1
1436 1598 1
1440 1598 1
653 1599 1
654 1599 1
1054 1599 1
1059 1599 1
1383 1599 1
1397 1599 1
1437 1599 1
1441 1599 1
654 1600 1
655 1600 1
1055 1600 1
1060 1600 1
1384 1600 1
1398 1600 1
1438 1600 1
1442 1600 1
655 1601 1
656 1601 1
1056 1601 1
1061 1601 1
1385 1601 1
1399 1601 1
1439 1601 1
1443 1601 1
656 1602 1
657 1602 1
1057 1602 1
1062 1602 1
1386 1602 1
1400 1602 1
1440 1602 1
1444 1602 1
657 1603 1
658 1603 1
1058 1603 1
1063 1603 1
1387 1603 1
1401 1603 1
1441 1603 1
1445 1603 1
658 1604 1
659 1604 1
1059 1604 1
1064 1604 1
1388 1604 1
1402 1604 1
1442 1604 1
1446 1604 1
659 1605 1
660 1605 1
1060 1605 1
1065 1605 1
1389 1605 1
1403 1605 1
1443 1605 1
1447 1605 1
660 1606 1
661 1606 1
1061 1606 1
1066 1606 1
1390 1606 1
1404 1606 1
1444 1606 1
1448 1606 1
661 1607 1
662 1607 1
1062 1607 1
1067 1607 1
1378 1607 1
1391 1607 1
1445 1607 1
1449 1607 1
662 1608 1
663 1608 1
1063 1608 1
1068 1608 1
1379 1608 1
1392 1608 1
1446 1608 1
1450 1608 1
663 1609 1
664 1609 1
1064 1609 1
1069 1609 1
1380 1609 1
1393 1609 1
1447 1609 1
1451 1609 1
664 1610 1
665 1610 1
1065 1610 1
1070 1610 1
1381 1610 1
1394 1610 1
1448 1610 1
1452 1610 1
665 1611 1
666 1611 1
1066 1611 1
1071 1611 1
1382 1611 1
1395 1611 1
1449 1611 1
1453 1611 1
666 1612 1
667 1612 1
1067 1612 1
1072 1612 1
1383 1612 1
1396 1612 1
1450 1612 1
1454 1612 1
667 1613 1
668 1613 1
1068 1613 1
1073 1613 1
1384 1613 1
1397 1613 1
1451 1613 1
1455 1613 1
668 1614 1
669 1614 1
1069 1614 1
1074 1614 1
1385 1614 1
1398 1614 1
1452 1614 1
1456 1614 1
669 1615 1
670 1615 1
1070 1615 1
1075 1615 1
1386 1615 1
1399 1615 1
1453 1615 1
1457 1615 1
670 1616 1
671 1616 1
1071 1616 1
1076 1616 1
1387 1616 1
1400 1616 1
1454 1616 1
1458 1616 1
671 1617 1
672 1617 1
1072 1617 1
1077 1617 1
1388 1617 1
1401 1617 1
1432 1617 1
1455 1617 1
672 1618 1
673 1618 1
1073 1618 1
1078 1618 1
1389 1618 1
1402 1618 1
1433 1618 1
1456 1618 1
673 1619 1
674 1619 1
1074 1619 1
1079 1619 1
1390 1619 1
1403 1619 1
1434 1619 1
1457 1619 1
674 1620 1
675 1620 1
1075 1620 1
1080 1620 1
1391 1620 1
1404 1620 1
1435 1620 1
1458 1620 1
676 1621 1
702 1621 1
1081 1621 1
1103 1621 1
1405 1621 1
1419 1621 1
1432 1621 1
1441 1621 1
676 1622 1
677 1622 1
1082 1622 1
1104 1622 1
1406 1622 1
1420 1622 1
1433 1622 1
1442 1622 1
677 1623 1
678 1623 1
1083 1623 1
1105 1623 1
1407 1623 1
1421 1623 1
1434 1623 1
1443 1623 1
678 1624 1
679 1624 1
1084 1624 1
1106 1624 1
1408 1624 1
1422 1624 1
1435 1624 1
1444 1624 1
679 1625 1
680 1625 1
1085 1625 1
1107 1625 1
1409 1625 1
1423 1625 1
1436 1625 1
1445 1625 1
680 1626 1
681 1626 1
1081 1626 1
1086 1626 1
1410 1626 1
1424 1626 1
1437 1626 1
1446 1626 1
681 1627 1
682 1627 1
1082 1627 1
1087 1627 1
1411 1627 1
1425 1627 1
1438 1627 1
1447 1627 1
682 1628 1
683 1628 1
1083 1628 1
1088 1628 1
1412 1628 1
1426 1628 1
1439 1628 1
1448 1628 1
683 1629 1
684 1629 1
1084 1629 1
1089 1629 1
1413 1629 1
1427 1629 1
1440 1629 1
1449 1629 1
684 1630 1
685 1630 1
1085 1630 1
1090 1630 1
1414 1630 1
1428 1630 1
1441 1630 1
1450 1630 1
685 1631 1
686 1631 1
1086 1631 1
1091 1631 1
1415 1631 1
1429 1631 1
1442 1631 1
1451 1631 1
686 1632 1
687 1632 1
1087 1632 1
1092 1632 1
1416 1632 1
1430 1632 1
1443 1632 1
1452 1632 1
687 1633 1
688 1633 1
1088 1633 1
1093 1633 1
1417 1633 1
1431 1633 1
1444 1633 1
1453 1633 1
688 1634 1
689 1634 1
1089 1634 1
1094 1634 1
1405 1634 1
1418 1634 1
1445 1634 1
1454 1634 1
689 1635 1
690 1635 1
1090 1635 1
1095 1635 1
1406 1635 1
1419 1635 1
1446 1635 1
1455 1635 1
690 1636 1
691 1636 1
1091 1636 1
1096 1636 1
1407 1636 1
1420 1636 1
1447 1636 1
1456 1636 1
691 1637 1
692 1637 1
1092 1637 1
1097 1637 1
1408 1637 1
1421 1637 1
1448 1637 1
1457 1637 1
692 1638 1
693 1638 1
1093 1638 1
1098 1638 1
1409 1638 1
1422 1638 1
1449 1638 1
1458 1638 1
693 1639 1
694 1639 1
1094 1639 1
1099 1639 1
1410 1639 1
1423 1639 1
1432 1639 1
1450 1639 1
694 1640 1
695 1640 1
1095 1640 1
1100 1640 1
1411 1640 1
1424 1640 1
1433 1640 1
1451 1640 1
695 1641 1
696 1641 1
1096 1641 1
1101 1641 1
1412 1641 1
1425 1641 1
1434 1641 1
1452 1641 1
696 1642 1
697 1642 1
1097 1642 1
1102 1642 1
1413 1642 1
1426 1642 1
1435 1642 1
1453 1642 1
697 1643 1
698 1643 1
1098 1643 1
1103 1643 1
1414 1643 1
1427 1643 1
1436 1643 1
1454 1643 1
698 1644 1
699 1644 1
1099 1644 1
1104 1644 1
1415 1644 1
1428 1644 1
1437 1644 1
1455 1644 1
699 1645 1
700 1645 1
1100 1645 1
1105 1645 1
1416 1645 1
1429 1645 1
1438 1645 1
1456 1645 1
700 1646 1
701 1646 1
1101 1646 1
1106 1646 1
1417 1646 1
1430 1646 1
1439 1646 1
1457 1646 1
701 1647 1
702 1647 1
1102 1647 1
1107 1647 1
1418 1647 1
1431 1647 1
1440 1647 1
1458 1647 1
703 1648 1
729 1648 1
1108 1648 1
1130 1648 1
1351 1648 1
1367 1648 1
1459 1648 1
1462 1648 1
703 1649 1
704 1649 1
1109 1649 1
1131 1649 1
1352 1649 1
1368 1649 1
1460 1649 1
1463 1649 1
704 1650 1
705 1650 1
1110 1650 1
1132 1650 1
1353 1650 1
1369 1650 1
1461 1650 1
1464 1650 1
705 1651 1
706 1651 1
1111 1651 1
1133 1651 1
1354 1651 1
1370 1651 1
1462 1651 1
1465 1651 1
706 1652 1
707 1652 1
1112 1652 1
1134 1652 1
1355 1652 1
1371 1652 1
1463 1652 1
1466 1652 1
707 1653 1
708 1653 1
1108 1653 1
1113 1653 1
1356 1653 1
1372 1653 1
1464 1653 1
1467 1653 1
708 1654 1
709 1654 1
1109 1654 1
1114 1654 1
1357 1654 1
1373 1654 1
1465 1654 1
1468 1654 1
709 1655 1
710 1655 1
1110 1655 1
1115 1655 1
1358 1655 1
1374 1655 1
1466 1655 1
1469 1655 1
710 1656 1
711 1656 1
1111 1656 1
1116 1656 1
1359 1656 1
1375 1656 1
1467 1656 1
1470 1656 1
711 1657 1
712 1657 1
1112 1657 1
1117 1657 1
1360 1657 1
1376 1657 1
1468 1657 1
1471 1657 1
712 1658 1
713 1658 1
1113 1658 1
1118 1658 1
1361 1658 1
1377 1658 1
1469 1658 1
1472 1658 1
713 1659 1
714 1659 1
1114 1659 1
1119 1659 1
1351 1659 1
1362 1659 1
1470 1659 1
1473 1659 1
714 1660 1
715 1660 1
1115 1660 1
1120 1660 1
1352 1660 1
1363 1660 1
1471 1660 1
1474 1660 1
715 1661 1
716 1661 1
1116 1661 1
1121 1661 1
1353 1661 1
1364 1661 1
1472 1661 1
1475 1661 1
716 1662 1
717 1662 1
1117 1662 1
1122 1662 1
1354 1662 1
1365 1662 1
1473 1662 1
1476 1662 1
717 1663 1
718 1663 1
1118 1663 1
1123 1663 1
1355 1663 1
1366 1663 1
1474 1663 1
1477 1663 1
718 1664 1
719 1664 1
1119 1664 1
1124 1664 1
1356 1664 1
1367 1664 1
1475 1664 1
1478 1664 1
719 1665 1
720 1665 1
1120 1665 1
1125 1665 1
1357 1665 1
1368 1665 1
1476 1665 1
1479 1665 1
720 1666 1
721 1666 1
1121 1666 1
1126 1666 1
1358 1666 1
1369 1666 1
1477 1666 1
1480 1666 1
721 1667 1
722 1667 1
1122 1667 1
1127 1667 1
1359 1667 1
1370 1667 1
1478 1667 1
1481 1667 1
722 1668 1
723 1668 1
1123 1668 1
1128 1668 1
1360 1668 1
1371 1668 1
1479 1668 1
1482 1668 1
723 1669 1
724 1669 1
1124 1669 1
1129 1669 1
1361 1669 1
1372 1669 1
1480 1669 1
1483 1669 1
724 1670 1
725 1670 1
1125 1670 1
1130 1670 1
1362 1670 1
1373 1670 1
1481 1670 1
1484 1670 1
725 1671 1
726 1671 1
1126 1671 1
1131 1671 1
1363 1671 1
1374 1671 1
1482 1671 1
1485 1671 1
726 1672 1
727 1672 1
1127 1672 1
1132 1672 1
1364 1672 1
1375 1672 1
1459 1672 1
1483 1672 1
727 1673 1
728 1673 1
1128 1673 1
1133 1673 1
1365 1673 1
1376 1673 1
1460 1673 1
1484 1673 1
728 1674 1
729 1674 1
1129 1674 1
1134 1674 1
1366 1674 1
1377 1674 1
1461 1674 1
1485 1674 1
730 1675 1
756 1675 1
1135 1675 1
1157 1675 1
1378 1675 1
1394 1675 1
1459 1675 1
1463 1675 1
730 1676 1
731 1676 1
1136 1676 1
1158 1676 1
1379 1676 1
1395 1676 1
1460 1676 1
1464 1676 1
731 1677 1
732 1677 1
1137 1677 1
1159 1677 1
1380 1677 1
1396 1677 1
1461 1677 1
1465 1677 1
732 1678 1
733 1678 1
1138 1678 1
1160 1678 1
1381 1678 1
1397 1678 1
1462 1678 1
1466 1678 1
733 1679 1
734 1679 1
1139 1679 1
1161 1679 1
1382 1679 1
1398 1679 1
1463 1679 1
1467 1679 1
734 1680 1
735 1680 1
1135 1680 1
1140 1680 1
1383 1680 1
1399 1680 1
1464 1680 1
1468 1680 1
735 1681 1
736 1681 1
1136 1681 1
1141 1681 1
1384 1681 1
1400 1681 1
1465 1681 1
1469 1681 1
736 1682 1
737 1682 1
1137 1682 1
1142 1682 1
1385 1682 1
1401 1682 1
1466 1682 1
1470 1682 1
737 1683 1
738 1683 1
1138 1683 1
1143 1683 1
1386 1683 1
1402 1683 1
1467 1683 1
1471 1683 1
738 1684 1
739 1684 1
1139 1684 1
1144 1684 1
1387 1684 1
1403 1684 1
1468 1684 1
1472 1684 1
739 1685 1
740 1685 1
1140 1685 1
1145 1685 1
1388 1685 1
1404 1685 1
1469 1685 1
1473 1685 1
740 1686 1
741 1686 1
1141 1686 1
1146 1686 1
1378 1686 1
1389 1686 1
1470 1686 1
1474 1686 1
741 1687 1
742 1687 1
1142 1687 1
1147 1687 1
1379 1687 1
1390 1687 1
1471 1687 1
1475 1687 1
742 1688 1
743 1688 1
1143 1688 1
1148 1688 1
1380 1688 1
1391 1688 1
1472 1688 1
1476 1688 1
743 1689 1
744 1689 1
1144 1689 1
1149 1689 1
1381 1689 1
1392 1689 1
1473 1689 1
1477 1689 1
744 1690 1
745 1690 1
1145 1690 1
1150 1690 1
1382 1690 1
1393 1690 1
1474 1690 1
1478 1690 1
745 1691 1
746 1691 1
1146 1691 1
1151 1691 1
1383 1691 1
1394 1691 1
1475 1691 1
1479 1691 1
746 1692 1
747 1692 1
1147 1692 1
1152 1692 1
1384 1692 1
1395 1692 1
1476 1692 1
1480 1692 1
747 1693 1
748 1693 1
1148 1693 1
1153 1693 1
1385 1693 1
1396 1693 1
1477 1693 1
1481 1693 1
748 1694 1
749 1694 1
1149 1694 1
1154 1694 1
1386 1694 1
1397 1694 1
1478 1694 1
1482 1694 1
749 1695 1
750 1695 1
1150 1695 1
1155 1695 1
1387 1695 1
1398 1695 1
1479 1695 1
1483 1695 1
750 1696 1
751 1696 1
1151 1696 1
1156 1696 1
1388 1696 1
1399 1696 1
1480 1696 1
1484 1696 1
751 1697 1
752 1697 1
1152 1697 1
1157 1697 1
1389 1697 1
1400 1697 1
1481 1697 1
1485 1697 1
752 1698 1
753 1698 1
1153 1698 1
1158 1698 1
1390 1698 1
1401 1698 1
1459 1698 1
1482 1698 1
753 1699 1
754 1699 1
1154 1699 1
1159 1699 1
1391 1699 1
1402 1699 1
1460 1699 1
1483 1699 1
754 1700 1
755 1700 1
1155 1700 1
1160 1700 1
1392 1700 1
1403 1700 1
1461 1700 1
1484 1700 1
755 1701 1
756 1701 1
1156 1701 1
1161 1701 1
1393 1701 1
1404 1701 1
1462 1701 1
1485 1701 1
757 1702 1
783 1702 1
1162 1702 1
1184 1702 1
1405 1702 1
1421 1702 1
1459 1702 1
1468 1702 1
757 1703 1
758 1703 1
1163 1703 1
1185 1703 1
1406 1703 1
1422 1703 1
1460 1703 1
1469 1703 1
758 1704 1
759 1704 1
1164 1704 1
1186 1704 1
1407 1704 1
1423 1704 1
1461 1704 1
1470 1704 1
759 1705 1
760 1705 1
1165 1705 1
1187 1705 1
1408 1705 1
1424 1705 1
1462 1705 1
1471 1705 1
760 1706 1
761 1706 1
1166 1706 1
1188 1706 1
1409 1706 1
1425 1706 1
1463 1706 1
1472 1706 1
761 1707 1
762 1707 1
1162 1707 1
1167 1707 1
1410 1707 1
1426 1707 1
1464 1707 1
1473 1707 1
762 1708 1
763 1708 1
1163 1708 1
1168 1708 1
1411 1708 1
1427 1708 1
1465 1708 1
1474 1708 1
763 1709 1
764 1709 1
1164 1709 1
1169 1709 1
1412 1709 1
1428 1709 1
1466 1709 1
1475 1709 1
764 1710 1
765 1710 1
1165 1710 1
1170 1710 1
1413 1710 1
1429 1710 1
1467 1710 1
1476 1710 1
765 1711 1
766 1711 1
1166 1711 1
1171 1711 1
1414 1711 1
1430 1711 1
1468 1711 1
1477 1711 1
766 1712 1
767 1712 1
1167 1712 1
1172 1712 1
1415 1712 1
1431 1712 1
1469 1712 1
1478 1712 1
767 1713 1
768 1713 1
1168 1713 1
1173 1713 1
1405 1713 1
1416 1713 1
1470 1713 1
1479 1713 1
768 1714 1
769 1714 1
1169 1714 1
1174 1714 1
1406 1714 1
1417 1714 1
1471 1714 1
1480 1714 1
769 1715 1
770 1715 1
1170 1715 1
1175 1715 1
1407 1715 1
1418 1715 1
1472 1715 1
1481 1715 1
770 1716 1
771 1716 1
1171 1716 1
1176 1716 1
1408 1716 1
1419 1716 1
1473 1716 1
1482 1716 1
771 1717 1
772 1717 1
1172 1717 1
1177 1717 1
1409 1717 1
1420 1717 1
1474 1717 1
1483 1717 1
772 1718 1
773 1718 1
1173 1718 1
1178 1718 1
1410 1718 1
1421 1718 1
1475 1718 1
1484 1718 1
773 1719 1
774 1719 1
1174 1719 1
1179 1719 1
1411 1719 1
1422 1719 1
1476 1719 1
1485 1719 1
774 1720 1
775 1720 1
1175 1720 1
1180 1720 1
1412 1720 1
1423 1720 1
1459 1720 1
1477 1720 1
775 1721 1
776 1721 1
1176 1721 1
1181 1721 1
1413 1721 1
1424 1721 1
1460 1721 1
1478 1721 1
776 1722 1
777 1722 1
1177 1722 1
1182 1722 1
1414 1722 1
1425 1722 1
1461 1722 1
1479 1722 1
777 1723 1
778 1723 1
1178 1723 1
1183 1723 1
1415 1723 1
1426 1723 1
1462 1723 1
1480 1723 1
778 1724 1
779 1724 1
1179 1724 1
1184 1724 1
1416 1724 1
1427 1724 1
1463 1724 1
1481 1724 1
779 1725 1
780 1725 1
1180 1725 1
1185 1725 1
1417 1725 1
1428 1725 1
1464 1725 1
1482 1725 1
780 1726 1
781 1726 1
1181 1726 1
1186 1726 1
1418 1726 1
1429 1726 1
1465 1726 1
1483 1726 1
781 1727 1
782 1727 1
1182 1727 1
1187 1727 1
1419 1727 1
1430 1727 1
1466 1727 1
1484 1727 1
782 1728 1
783 1728 1
1183 1728 1
1188 1728 1
1420 1728 1
1431 1728 1
1467 1728 1
1485 1728 1
784 1729 1
810 1729 1
1189 1729 1
1211 1729 1
1432 1729 1
1448 1729 1
1459 1729 1
1473 1729 1
784 1730 1
785 1730 1
1190 1730 1
1212 1730 1
1433 1730 1
1449 1730 1
1460 1730 1
1474 1730 1
785 1731 1
786 1731 1
1191 1731 1
1213 1731 1
1434 1731 1
1450 1731 1
1461 1731 1
1475 1731 1
786 1732 1
787 1732 1
1192 1732 1
1214 1732 1
1435 1732 1
1451 1732 1
1462 1732 1
1476 1732 1
787 1733 1
788 1733 1
1193 1733 1
1215 1733 1
1436 1733 1
1452 1733 1
1463 1733 1
1477 1733 1
788 1734 1
789 1734 1
1189 1734 1
1194 1734 1
1437 1734 1
1453 1734 1
1464 1734 1
1478 1734 1
789 1735 1
790 1735 1
1190 1735 1
1195 1735 1
1438 1735 1
1454 1735 1
1465 1735 1
1479 1735 1
790 1736 1
791 1736 1
1191 1736 1
1196 1736 1
1439 1736 1
1455 1736 1
1466 1736 1
1480 1736 1
791 1737 1
792 1737 1
1192 1737 1
1197 1737 1
1440 1737 1
1456 1737 1
1467 1737 1
1481 1737 1
792 1738 1
793 1738 1
1193 1738 1
1198 1738 1
1441 1738 1
1457 1738 1
1468 1738 1
1482 1738 1
793 1739 1
794 1739 1
1194 1739 1
1199 1739 1
1442 1739 1
1458 1739 1
1469 1739 1
1483 1739 1
794 1740 1
795 1740 1
1195 1740 1
1200 1740 1
1432 1740 1
1443 1740 1
1470 1740 1
1484 1740 1
795 1741 1
796 1741 1
1196 1741 1
1201 1741 1
1433 1741 1
1444 1741 1
1471 1741 1
1485 1741 1
796 1742 1
797 1742 1
1197 1742 1
1202 1742 1
1434 1742 1
1445 1742 1
1459 1742 1
1472 1742 1
797 1743 1
798 1743 1
1198 1743 1
1203 1743 1
1435 1743 1
1446 1743 1
1460 1743 1
1473 1743 1
798 1744 1
799 1744 1
1199 1744 1
1204 1744 1
1436 1744 1
1447 1744 1
1461 1744 1
1474 1744 1
799 1745 1
800 1745 1
1200 1745 1
1205 1745 1
1437 1745 1
1448 1745 1
1462 1745 1
1475 1745 1
800 1746 1
801 1746 1
1201 1746 1
1206 1746 1
1438 1746 1
1449 1746 1
1463 1746 1
1476 1746 1
801 1747 1
802 1747 1
1202 1747 1
1207 1747 1
1439 1747 1
1450 1747 1
1464 1747 1
1477 1747 1
802 1748 1
803 1748 1
1203 1748 1
1208 1748 1
1440 1748 1
1451 1748 1
1465 1748 1
1478 1748 1
803 1749 1
804 1749 1
1204 1749 1
1209 1749 1
1441 1749 1
1452 1749 1
1466 1749 1
1479 1749 1
804 1750 1
805 1750 1
1205 1750 1
1210 1750 1
1442 1750 1
1453 1750 1
1467 1750 1
1480 1750 1
805 1751 1
806 1751 1
1206 1751 1
1211 1751 1
1443 1751 1
1454 1751 1
1468 1751 1
1481 1751 1
806 1752 1
807 1752 1
1207 1752 1
1212 1752 1
1444 1752 1
1455 1752 1
1469 1752 1
1482 1752 1
807 1753 1
808 1753 1
1208 1753 1
1213 1753 1
1445 1753 1
1456 1753 1
1470 1753 1
1483 1753 1
808 1754 1
809 1754 1
1209 1754 1
1214 1754 1
1446 1754 1
1457 1754 1
1471 1754 1
1484 1754 1
809 1755 1
810 1755 1
1210 1755 1
1215 1755 1
1447 1755 1
1458 1755 1
1472 1755 1
1485 1755 1
811 1756 1
837 1756 1
1216 1756 1
1238 1756 1
1351 1756 1
1370 1756 1
1486 1756 1
1489 1756 1
811 1757 1
812 1757 1
1217 1757 1
1239 1757 1
1352 1757 1
1371 1757 1
1487 1757 1
1490 1757 1
812 1758 1
813 1758 1
1218 1758 1
1240 1758 1
1353 1758 1
1372 1758 1
1488 1758 1
1491 1758 1
813 1759 1
814 1759 1
1219 1759 1
1241 1759 1
1354 1759 1
1373 1759 1
1489 1759 1
1492 1759 1
814 1760 1
815 1760 1
1220 1760 1
1242 1760 1
1355 1760 1
1374 1760 1
1490 1760 1
1493 1760 1
815 1761 1
816 1761 1
1216 1761 1
1221 1761 1
1356 1761 1
1375 1761 1
1491 1761 1
1494 1761 1
816 1762 1
817 1762 1
1217 1762 1
1222 1762 1
1357 1762 1
1376 1762 1
1492 1762 1
1495 1762 1
817 1763 1
818 1763 1
1218 1763 1
1223 1763 1
1358 1763 1
1377 1763 1
1493 1763 1
1496 1763 1
818 1764 1
819 1764 1
1219 1764 1
1224 1764 1
1351 1764 1
1359 1764 1
1494 1764 1
1497 1764 1
819 1765 1
820 1765 1
1220 1765 1
1225 1765 1
1352 1765 1
1360 1765 1
1495 1765 1
1498 1765 1
820 1766 1
821 1766 1
1221 1766 1
1226 1766 1
1353 1766 1
1361 1766 1
1496 1766 1
1499 1766 1
821 1767 1
822 1767 1
1222 1767 1
1227 1767 1
1354 1767 1
1362 1767 1
1497 1767 1
1500 1767 1
822 1768 1
823 1768 1
1223 1768 1
1228 1768 1
1355 1768 1
1363 1768 1
1498 1768 1
1501 1768 1
823 1769 1
824 1769 1
1224 1769 1
1229 1769 1
1356 1769 1
1364 1769 1
1499 1769 1
1502 1769 1
824 1770 1
825 1770 1
1225 1770 1
1230 1770 1
1357 1770 1
1365 1770 1
1500 1770 1
1503 1770 1
825 1771 1
826 1771 1
1226 1771 1
1231 1771 1
1358 1771 1
1366 1771 1
1501 1771 1
1504 1771 1
826 1772 1
827 1772 1
1227 1772 1
1232 1772 1
1359 1772 1
1367 1772 1
1502 1772 1
1505 1772 1
827 1773 1
828 1773 1
1228 1773 1
1233 1773 1
1360 1773 1
1368 1773 1
1503 1773 1
1506 1773 1
828 1774 1
829 1774 1
1229 1774 1
1234 1774 1
1361 1774 1
1369 1774 1
1504 1774 1
1507 1774 1
829 1775 1
830 1775 1
1230 1775 1
1235 1775 1
1362 1775 1
1370 1775 1
1505 1775 1
1508 1775 1
830 1776 1
831 1776 1
1231 1776 1
1236 1776 1
1363 1776 1
1371 1776 1
1506 1776 1
1509 1776 1
831 1777 1
832 1777 1
1232 1777 1
1237 1777 1
1364 1777 1
1372 1777 1
1507 1777 1
1510 1777 1
832 1778 1
833 1778 1
1233 1778 1
1238 1778 1
1365 1778 1
1373 1778 1
1508 1778 1
1511 1778 1
833 1779 1
834 1779 1
1234 1779 1
1239 1779 1
1366 1779 1
1374 1779 1
1509 1779 1
1512 1779 1
834 1780 1
835 1780 1
1235 1780 1
1240 1780 1
1367 1780 1
1375 1780 1
1486 1780 1
1510 1780 1
835 1781 1
836 1781 1
1236 1781 1
1241 1781 1
1368 1781 1
1376 1781 1
1487 1781 1
1511 1781 1
836 1782 1
837 1782 1
1237 1782 1
1242 1782 1
1369 1782 1
1377 1782 1
1488 1782 1
1512 1782 1
838 1783 1
864 1783 1
1243 1783 1
1265 1783 1
1378 1783 1
1397 1783 1
1486 1783 1
1490 1783 1
838 1784 1
839 1784 1
1244 1784 1
1266 1784 1
1379 1784 1
1398 1784 1
1487 1784 1
1491 1784 1
839 1785 1
840 1785 1
1245 1785 1
1267 1785 1
1380 1785 1
1399 1785 1
1488 1785 1
1492 1785 1
840 1786 1
841 1786 1
1246 1786 1
1268 1786 1
1381 1786 1
1400 1786 1
1489 1786 1
1493 1786 1
841 1787 1
842 1787 1
1247 1787 1
1269 1787 1
1382 1787 1
1401 1787 1
1490 1787 1
1494 1787 1
842 1788 1
843 1788 1
1243 1788 1
1248 1788 1
1383 1788 1
1402 1788 1
1491 1788 1
1495 1788 1
843 1789 1
844 1789 1
1244 1789 1
1249 1789 1
1384 1789 1
1403 1789 1
1492 1789 1
1496 1789 1
844 1790 1
845 1790 1
1245 1790 1
1250 1790 1
1385 1790 1
1404 1790 1
1493 1790 1
1497 1790 1
845 1791 1
846 1791 1
1246 1791 1
1251 1791 1
1378 1791 1
1386 1791 1
1494 1791 1
1498 1791 1
846 1792 1
847 1792 1
1247 1792 1
1252 1792 1
1379 1792 1
1387 1792 1
1495 1792 1
1499 1792 1
847 1793 1
848 1793 1
1248 1793 1
1253 1793 1
1380 1793 1
1388 1793 1
1496 1793 1
1500 1793 1
848 1794 1
849 1794 1
1249 1794 1
1254 1794 1
1381 1794 1
1389 1794 1
1497 1794 1
1501 1794 1
849 1795 1
850 1795 1
1250 1795 1
1255 1795 1
1382 1795 1
1390 1795 1
1498 1795 1
1502 1795 1
850 1796 1
851 1796 1
1251 1796 1
1256 1796 1
1383 1796 1
1391 1796 1
1499 1796 1
1503 1796 1
851 1797 1
852 1797 1
1252 1797 1
1257 1797 1
1384 1797 1
1392 1797 1
1500 1797 1
1504 1797 1
852 1798 1
853 1798 1
1253 1798 1
1258 1798 1
1385 1798 1
1393 1798 1
1501 1798 1
1505 1798 1
853 1799 1
854 1799 1
1254 1799 1
1259 1799 1
1386 1799 1
1394 1799 1
1502 1799 1
1506 1799 1
854 1800 1
855 1800 1
1255 1800 1
1260 1800 1
1387 1800 1
1395 1800 1
1503 1800 1
1507 1800 1
855 1801 1
856 1801 1
1256 1801 1
1261 1801 1
1388 1801 1
1396 1801 1
1504 1801 1
1508 1801 1
856 1802 1
857 1802 1
1257 1802 1
1262 1802 1
1389 1802 1
1397 1802 1
1505 1802 1
1509 1802 1
857 1803 1
858 1803 1
1258 1803 1
1263 1803 1
1390 1803 1
1398 1803 1
1506 1803 1
1510 1803 1
858 1804 1
859 1804 1
1259 1804 1
1264 1804 1
1391 1804 1
1399 1804 1
1507 1804 1
1511 1804 1
859 1805 1
860 1805 1
1260 1805 1
1265 1805 1
1392 1805 1
1400 1805 1
1508 1805 1
1512 1805 1
860 1806 1
861 1806 1
1261 1806 1
1266 1806 1
1393 1806 1
1401 1806 1
1486 1806 1
1509 1806 1
861 1807 1
862 1807 1
1262 1807 1
1267 1807 1
1394 1807 1
1402 1807 1
1487 1807 1
1510 1807 1
862 1808 1
863 1808 1
1263 1808 1
1268 1808 1
1395 1808 1
1403 1808 1
1488 1808 1
1511 1808 1
863 1809 1
864 1809 1
1264 1809 1
1269 1809 1
1396 1809 1
1404 1809 1
1489 1809 1
1512 1809 1
865 1810 1
891 1810 1
1270 1810 1
1292 1810 1
1405 1810 1
1424 1810 1
1486 1810 1
1495 1810 1
865 1811 1
866 1811 1
1271 1811 1
1293 1811 1
1406 1811 1
1425 1811 1
1487 1811 1
1496 1811 1
866 1812 1
867 1812 1
1272 1812 1
1294 1812 1
1407 1812 1
1426 1812 1
1488 1812 1
1497 1812 1
867 1813 1
868 1813 1
1273 1813 1
1295 1813 1
1408 1813 1
1427 1813 1
1489 1813 1
1498 1813 1
868 1814 1
869 1814 1
1274 1814 1
1296 1814 1
1409 1814 1
1428 1814 1
1490 1814 1
1499 1814 1
869 1815 1
870 1815 1
1270 1815 1
1275 1815 1
1410 1815 1
1429 1815 1
1491 1815 1
1500 1815 1
870 1816 1
871 1816 1
1271 1816 1
1276 1816 1
1411 1816 1
1430 1816 1
1492 1816 1
1501 1816 1
871 1817 1
872 1817 1
1272 1817 1
1277 1817 1
1412 1817 1
1431 1817 1
1493 1817 1
1502 1817 1
872 1818 1
873 1818 1
1273 1818 1
1278 1818 1
1405 1818 1
1413 1818 1
1494 1818 1
1503 1818 1
873 1819 1
874 1819 1
1274 1819 1
1279 1819 1
1406 1819 1
1414 1819 1
1495 1819 1
1504 1819 1
874 1820 1
875 1820 1
1275 1820 1
1280 1820 1
1407 1820 1
1415 1820 1
1496 1820 1
1505 1820 1
875 1821 1
876 1821 1
1276 1821 1
1281 1821 1
1408 1821 1
1416 1821 1
1497 1821 1
1506 1821 1
876 1822 1
877 1822 1
1277 1822 1
1282 1822 1
1409 1822 1
1417 1822 1
1498 1822 1
1507 1822 1
877 1823 1
878 1823 1
1278 1823 1
1283 1823 1
1410 1823 1
1418 1823 1
1499 1823 1
1508 1823 1
878 1824 1
879 1824 1
1279 1824 1
1284 1824 1
1411 1824 1
1419 1824 1
1500 1824 1
1509 1824 1
879 1825 1
880 1825 1
1280 1825 1
1285 1825 1
1412 1825 1
1420 1825 1
1501 1825 1
1510 1825 1
880 1826 1
881 1826 1
1281 1826 1
1286 1826 1
1413 1826 1
1421 1826 1
1502 1826 1
1511 1826 1
881 1827 1
882 1827 1
1282 1827 1
1287 1827 1
1414 1827 1
1422 1827 1
1503 1827 1
1512 1827 1
882 1828 1
883 1828 1
1283 1828 1
1288 1828 1
1415 1828 1
1423 1828 1
1486 1828 1
1504 1828 1
883 1829 1
884 1829 1
1284 1829 1
1289 1829 1
1416 1829 1
1424 1829 1
1487 1829 1
1505 1829 1
884 1830 1
885 1830 1
1285 1830 1
1290 1830 1
1417 1830 1
1425 1830 1
1488 1830 1
1506 1830 1
885 1831 1
886 1831 1
1286 1831 1
1291 1831 1
1418 1831 1
1426 1831 1
1489 1831 1
1507 1831 1
886 1832 1
887 1832 1
1287 1832 1
1292 1832 1
1419 1832 1
1427 1832 1
1490 1832 1
1508 1832 1
887 1833 1
888 1833 1
1288 1833 1
1293 1833 1
1420 1833 1
1428 1833 1
1491 1833 1
1509 1833 1
888 1834 1
889 1834 1
1289 1834 1
1294 1834 1
1421 1834 1
1429 1834 1
1492 1834 1
1510 1834 1
889 1835 1
890 1835 1
1290 1835 1
1295 1835 1
1422 1835 1
1430 1835 1
1493 1835 1
1511 1835 1
890 1836 1
891 1836 1
1291 1836 1
1296 1836 1
1423 1836 1
1431 1836 1
1494 1836 1
1512 1836 1
892 1837 1
918 1837 1
1297 1837 1
1319 1837 1
1432 1837 1
1451 1837 1
1486 1837 1
1500 1837 1
892 1838 1
893 1838 1
1298 1838 1
1320 1838 1
1433 1838 1
1452 1838 1
1487 1838 1
1501 1838 1
893 1839 1
894 1839 1
1299 1839 1
1321 1839 1
1434 1839 1
1453 1839 1
1488 1839 1
1502 1839 1
894 1840 1
895 1840 1
1300 1840 1
1322 1840 1
1435 1840 1
1454 1840 1
1489 1840 1
1503 1840 1
895 1841 1
896 1841 1
1301 1841 1
1323 1841 1
1436 1841 1
1455 1841 1
1490 1841 1
1504 1841 1
896 1842 1
897 1842 1
1297 1842 1
1302 1842 1
1437 1842 1
1456 1842 1
1491 1842 1
1505 1842 1
897 1843 1
898 1843 1
1298 1843 1
1303 1843 1
1438 1843 1
1457 1843 1
1492 1843 1
1506 1843 1
898 1844 1
899 1844 1
1299 1844 1
1304 1844 1
1439 1844 1
1458 1844 1
1493 1844 1
1507 1844 1
899 1845 1
900 1845 1
1300 1845 1
1305 1845 1
1432 1845 1
1440 1845 1
1494 1845 1
1508 1845 1
900 1846 1
901 1846 1
1301 1846 1
1306 1846 1
1433 1846 1
1441 1846 1
1495 1846 1
1509 1846 1
901 1847 1
902 1847 1
1302 1847 1
1307 1847 1
1434 1847 1
1442 1847 1
1496 1847 1
1510 1847 1
902 1848 1
903 1848 1
1303 1848 1
1308 1848 1
1435 1848 1
1443 1848 1
1497 1848 1
1511 1848 1
903 1849 1
904 1849 1
1304 1849 1
1309 1849 1
1436 1849 1
1444 1849 1
1498 1849 1
1512 1849 1
904 1850 1
905 1850 1
1305 1850 1
1310 1850 1
1437 1850 1
1445 1850 1
1486 1850 1
1499 1850 1
905 1851 1
906 1851 1
1306 1851 1
1311 1851 1
1438 1851 1
1446 1851 1
1487 1851 1
1500 1851 1
906 1852 1
907 1852 1
1307 1852 1
1312 1852 1
1439 1852 1
1447 1852 1
1488 1852 1
1501 1852 1
907 1853 1
908 1853 1
1308 1853 1
1313 1853 1
1440 1853 1
1448 1853 1
1489 1853 1
1502 1853 1
908 1854 1
909 1854 1
1309 1854 1
1314 1854 1
1441 1854 1
1449 1854 1
1490 1854 1
1503 1854 1
909 1855 1
910 1855 1
1310 1855 1
1315 1855 1
1442 1855 1
1450 1855 1
1491 1855 1
1504 1855 1
910 1856 1
911 1856 1
1311 1856 1
1316 1856 1
1443 1856 1
1451 1856 1
1492 1856 1
1505 1856 1
911 1857 1
912 1857 1
1312 1857 1
1317 1857 1
1444 1857 1
1452 1857 1
1493 1857 1
1506 1857 1
912 1858 1
913 1858 1
1313 1858 1
1318 1858 1
1445 1858 1
1453 1858 1
1494 1858 1
1507 1858 1
913 1859 1
914 1859 1
1314 1859 1
1319 1859 1
1446 1859 1
1454 1859 1
1495 1859 1
1508 1859 1
914 1860 1
915 1860 1
1315 1860 1
1320 1860 1
1447 1860 1
1455 1860 1
1496 1860 1
1509 1860 1
915 1861 1
916 1861 1
1316 1861 1
1321 1861 1
1448 1861 1
1456 1861 1
1497 1861 1
1510 1861 1
916 1862 1
917 1862 1
1317 1862 1
1322 1862 1
1449 1862 1
1457 1862 1
1498 1862 1
1511 1862 1
917 1863 1
918 1863 1
1318 1863 1
1323 1863 1
1450 1863 1
1458 1863 1
1499 1863 1
1512 1863 1
919 1864 1
945 1864 1
1324 1864 1
1346 1864 1
1459 1864 1
1478 1864 1
1486 1864 1
1502 1864 1
919 1865 1
920 1865 1
1325 1865 1
1347 1865 1
1460 1865 1
1479 1865 1
1487 1865 1
1503 1865 1
920 1866 1
921 1866 1
1326 1866 1
1348 1866 1
1461 1866 1
1480 1866 1
1488 1866 1
1504 1866 1
921 1867 1
922 1867 1
1327 1867 1
1349 1867 1
1462 1867 1
1481 1867 1
1489 1867 1
1505 1867 1
922 1868 1
923 1868 1
1328 1868 1
1350 1868 1
1463 1868 1
1482 1868 1
1490 1868 1
1506 1868 1
923 1869 1
924 1869 1
1324 1869 1
1329 1869 1
1464 1869 1
1483 1869 1
1491 1869 1
1507 1869 1
924 1870 1
925 1870 1
1325 1870 1
1330 1870 1
1465 1870 1
1484 1870 1
1492 1870 1
1508 1870 1
925 1871 1
926 1871 1
1326 1871 1
1331 1871 1
1466 1871 1
1485 1871 1
1493 1871 1
1509 1871 1
926 1872 1
927 1872 1
1327 1872 1
1332 1872 1
1459 1872 1
1467 1872 1
1494 1872 1
1510 1872 1
927 1873 1
928 1873 1
1328 1873 1
1333 1873 1
1460 1873 1
1468 1873 1
1495 1873 1
1511 1873 1
928 1874 1
929 1874 1
1329 1874 1
1334 1874 1
1461 1874 1
1469 1874 1
1496 1874 1
1512 1874 1
929 1875 1
930 1875 1
1330 1875 1
1335 1875 1
1462 1875 1
1470 1875 1
1486 1875 1
1497 1875 1
930 1876 1
931 1876 1
1331 1876 1
1336 1876 1
1463 1876 1
1471 1876 1
1487 1876 1
1498 1876 1
931 1877 1
932 1877 1
1332 1877 1
1337 1877 1
1464 1877 1
1472 1877 1
1488 1877 1
1499 1877 1
932 1878 1
933 1878 1
1333 1878 1
1338 1878 1
1465 1878 1
1473 1878 1
1489 1878 1
1500 1878 1
933 1879 1
934 1879 1
1334 1879 1
1339 1879 1
1466 1879 1
1474 1879 1
1490 1879 1
1501 1879 1
934 1880 1
935 1880 1
1335 1880 1
1340 1880 1
1467 1880 1
1475 1880 1
1491 1880 1
1502 1880 1
935 1881 1
936 1881 1
1336 1881 1
1341 1881 1
1468 1881 1
1476 1881 1
1492 1881 1
1503 1881 1
936 1882 1
937 1882 1
1337 1882 1
1342 1882 1
1469 1882 1
1477 1882 1
1493 1882 1
1504 1882 1
937 1883 1
938 1883 1
1338 1883 1
1343 1883 1
1470 1883 1
1478 1883 1
1494 1883 1
1505 1883 1
938 1884 1
939 1884 1
1339 1884 1
1344 1884 1
1471 1884 1
1479 1884 1
1495 1884 1
1506 1884 1
939 1885 1
940 1885 1
1340 1885 1
1345 1885 1
1472 1885 1
1480 1885 1
1496 1885 1
1507 1885 1
940 1886 1
941 1886 1
1341 1886 1
1346 1886 1
1473 1886 1
1481 1886 1
1497 1886 1
1508 1886 1
941 1887 1
942 1887 1
1342 1887 1
1347 1887 1
1474 1887 1
1482 1887 1
1498 1887 1
1509 1887 1
942 1888 1
943 1888 1
1343 1888 1
1348 1888 1
1475 1888 1
1483 1888 1
1499 1888 1
1510 1888 1
943 1889 1
944 1889 1
1344 1889 1
1349 1889 1
1476 1889 1
1484 1889 1
1500 1889 1
1511 1889 1
944 1890 1
945 1890 1
1345 1890 1
1350 1890 1
1477 1890 1
1485 1890 1
1501 1890 1
1512 1890 1
