%%MatrixMarket matrix coordinate integer general
% Binary matrix; one-based indices; arithmetic over GF(2)
1512 1890 15120
1 1 1
12 1 1
28 1 1
36 1 1
163 1 1
168 1 1
568 1 1
569 1 1
2 2 1
13 2 1
29 2 1
37 2 1
164 2 1
169 2 1
569 2 1
570 2 1
3 3 1
14 3 1
30 3 1
38 3 1
165 3 1
170 3 1
570 3 1
571 3 1
4 4 1
15 4 1
31 4 1
39 4 1
166 4 1
171 4 1
571 4 1
572 4 1
5 5 1
16 5 1
32 5 1
40 5 1
167 5 1
172 5 1
572 5 1
573 5 1
6 6 1
17 6 1
33 6 1
41 6 1
168 6 1
173 6 1
573 6 1
574 6 1
7 7 1
18 7 1
34 7 1
42 7 1
169 7 1
174 7 1
574 7 1
575 7 1
8 8 1
19 8 1
35 8 1
43 8 1
170 8 1
175 8 1
575 8 1
576 8 1
9 9 1
20 9 1
36 9 1
44 9 1
171 9 1
176 9 1
576 9 1
577 9 1
10 10 1
21 10 1
37 10 1
45 10 1
172 10 1
177 10 1
577 10 1
578 10 1
11 11 1
22 11 1
38 11 1
46 11 1
173 11 1
178 11 1
578 11 1
579 11 1
12 12 1
23 12 1
39 12 1
47 12 1
174 12 1
179 12 1
579 12 1
580 12 1
13 13 1
24 13 1
40 13 1
48 13 1
175 13 1
180 13 1
580 13 1
581 13 1
14 14 1
25 14 1
41 14 1
49 14 1
176 14 1
181 14 1
581 14 1
582 14 1
15 15 1
26 15 1
42 15 1
50 15 1
177 15 1
182 15 1
582 15 1
583 15 1
16 16 1
27 16 1
43 16 1
51 16 1
178 16 1
183 16 1
583 16 1
584 16 1
1 17 1
17 17 1
44 17 1
52 17 1
179 17 1
184 17 1
584 17 1
585 17 1
2 18 1
18 18 1
45 18 1
53 18 1
180 18 1
185 18 1
585 18 1
586 18 1
3 19 1
19 19 1
46 19 1
54 19 1
181 19 1
186 19 1
586 19 1
587 19 1
4 20 1
20 20 1
28 20 1
47 20 1
182 20 1
187 20 1
587 20 1
588 20 1
5 21 1
21 21 1
29 21 1
48 21 1
183 21 1
188 21 1
588 21 1
589 21 1
6 22 1
22 22 1
30 22 1
49 22 1
184 22 1
189 22 1
589 22 1
590 22 1
7 23 1
23 23 1
31 23 1
50 23 1
163 23 1
185 23 1
590 23 1
591 23 1
8 24 1
24 24 1
32 24 1
51 24 1
164 24 1
186 24 1
591 24 1
592 24 1
9 25 1
25 25 1
33 25 1
52 25 1
165 25 1
187 25 1
592 25 1
593 25 1
10 26 1
26 26 1
34 26 1
53 26 1
166 26 1
188 26 1
593 26 1
594 26 1
11 27 1
27 27 1
35 27 1
54 27 1
167 27 1
189 27 1
568 27 1
594 27 1
1 28 1
14 28 1
55 28 1
63 28 1
190 28 1
195 28 1
595 28 1
596 28 1
2 29 1
15 29 1
56 29 1
64 29 1
191 29 1
196 29 1
596 29 1
597 29 1
3 30 1
16 30 1
57 30 1
65 30 1
192 30 1
197 30 1
597 30 1
598 30 1
4 31 1
17 31 1
58 31 1
66 31 1
193 31 1
198 31 1
598 31 1
599 31 1
5 32 1
18 32 1
59 32 1
67 32 1
194 32 1
199 32 1
599 32 1
600 32 1
6 33 1
19 33 1
60 33 1
68 33 1
195 33 1
200 33 1
600 33 1
601 33 1
7 34 1
20 34 1
61 34 1
69 34 1
196 34 1
201 34 1
601 34 1
602 34 1
8 35 1
21 35 1
62 35 1
70 35 1
197 35 1
202 35 1
602 35 1
603 35 1
9 36 1
22 36 1
63 36 1
71 36 1
198 36 1
203 36 1
603 36 1
604 36 1
10 37 1
23 37 1
64 37 1
72 37 1
199 37 1
204 37 1
604 37 1
605 37 1
11 38 1
24 38 1
65 38 1
73 38 1
200 38 1
205 38 1
605 38 1
606 38 1
12 39 1
25 39 1
66 39 1
74 39 1
201 39 1
206 39 1
606 39 1
607 39 1
13 40 1
26 40 1
67 40 1
75 40 1
202 40 1
207 40 1
607 40 1
608 40 1
14 41 1
27 41 1
68 41 1
76 41 1
203 41 1
208 41 1
608 41 1
609 41 1
1 42 1
15 42 1
69 42 1
77 42 1
204 42 1
209 42 1
609 42 1
610 42 1
2 43 1
16 43 1
70 43 1
78 43 1
205 43 1
210 43 1
610 43 1
611 43 1
3 44 1
17 44 1
71 44 1
79 44 1
206 44 1
211 44 1
611 44 1
612 44 1
4 45 1
18 45 1
72 45 1
80 45 1
207 45 1
212 45 1
612 45 1
613 45 1
5 46 1
19 46 1
73 46 1
81 46 1
208 46 1
213 46 1
613 46 1
614 46 1
6 47 1
20 47 1
55 47 1
74 47 1
209 47 1
214 47 1
614 47 1
615 47 1
7 48 1
21 48 1
56 48 1
75 48 1
210 48 1
215 48 1
615 48 1
616 48 1
8 49 1
22 49 1
57 49 1
76 49 1
211 49 1
216 49 1
616 49 1
617 49 1
9 50 1
23 50 1
58 50 1
77 50 1
190 50 1
212 50 1
617 50 1
618 50 1
10 51 1
24 51 1
59 51 1
78 51 1
191 51 1
213 51 1
618 51 1
619 51 1
11 52 1
25 52 1
60 52 1
79 52 1
192 52 1
214 52 1
619 52 1
620 52 1
12 53 1
26 53 1
61 53 1
80 53 1
193 53 1
215 53 1
620 53 1
621 53 1
13 54 1
27 54 1
62 54 1
81 54 1
194 54 1
216 54 1
595 54 1
621 54 1
1 55 1
19 55 1
82 55 1
90 55 1
217 55 1
222 55 1
622 55 1
623 55 1
2 56 1
20 56 1
83 56 1
91 56 1
218 56 1
223 56 1
623 56 1
624 56 1
3 57 1
21 57 1
84 57 1
92 57 1
219 57 1
224 57 1
624 57 1
625 57 1
4 58 1
22 58 1
85 58 1
93 58 1
220 58 1
225 58 1
625 58 1
626 58 1
5 59 1
23 59 1
86 59 1
94 59 1
221 59 1
226 59 1
626 59 1
627 59 1
6 60 1
24 60 1
87 60 1
95 60 1
222 60 1
227 60 1
627 60 1
628 60 1
7 61 1
25 61 1
88 61 1
96 61 1
223 61 1
228 61 1
628 61 1
629 61 1
8 62 1
26 62 1
89 62 1
97 62 1
224 62 1
229 62 1
629 62 1
630 62 1
9 63 1
27 63 1
90 63 1
98 63 1
225 63 1
230 63 1
630 63 1
631 63 1
1 64 1
10 64 1
91 64 1
99 64 1
226 64 1
231 64 1
631 64 1
632 64 1
2 65 1
11 65 1
92 65 1
100 65 1
227 65 1
232 65 1
632 65 1
633 65 1
3 66 1
12 66 1
93 66 1
101 66 1
228 66 1
233 66 1
633 66 1
634 66 1
4 67 1
13 67 1
94 67 1
102 67 1
229 67 1
234 67 1
634 67 1
635 67 1
5 68 1
14 68 1
95 68 1
103 68 1
230 68 1
235 68 1
635 68 1
636 68 1
6 69 1
15 69 1
96 69 1
104 69 1
231 69 1
236 69 1
636 69 1
637 69 1
7 70 1
16 70 1
97 70 1
105 70 1
232 70 1
237 70 1
637 70 1
638 70 1
8 71 1
17 71 1
98 71 1
106 71 1
233 71 1
238 71 1
638 71 1
639 71 1
9 72 1
18 72 1
99 72 1
107 72 1
234 72 1
239 72 1
639 72 1
640 72 1
10 73 1
19 73 1
100 73 1
108 73 1
235 73 1
240 73 1
640 73 1
641 73 1
11 74 1
20 74 1
82 74 1
101 74 1
236 74 1
241 74 1
641 74 1
642 74 1
12 75 1
21 75 1
83 75 1
102 75 1
237 75 1
242 75 1
642 75 1
643 75 1
13 76 1
22 76 1
84 76 1
103 76 1
238 76 1
243 76 1
643 76 1
644 76 1
14 77 1
23 77 1
85 77 1
104 77 1
217 77 1
239 77 1
644 77 1
645 77 1
15 78 1
24 78 1
86 78 1
105 78 1
218 78 1
240 78 1
645 78 1
646 78 1
16 79 1
25 79 1
87 79 1
106 79 1
219 79 1
241 79 1
646 79 1
647 79 1
17 80 1
26 80 1
88 80 1
107 80 1
220 80 1
242 80 1
647 80 1
648 80 1
18 81 1
27 81 1
89 81 1
108 81 1
221 81 1
243 81 1
622 81 1
648 81 1
1 82 1
24 82 1
109 82 1
117 82 1
244 82 1
249 82 1
649 82 1
650 82 1
2 83 1
25 83 1
110 83 1
118 83 1
245 83 1
250 83 1
650 83 1
651 83 1
3 84 1
26 84 1
111 84 1
119 84 1
246 84 1
251 84 1
651 84 1
652 84 1
4 85 1
27 85 1
112 85 1
120 85 1
247 85 1
252 85 1
652 85 1
653 85 1
1 86 1
5 86 1
113 86 1
121 86 1
248 86 1
253 86 1
653 86 1
654 86 1
2 87 1
6 87 1
114 87 1
122 87 1
249 87 1
254 87 1
654 87 1
655 87 1
3 88 1
7 88 1
115 88 1
123 88 1
250 88 1
255 88 1
655 88 1
656 88 1
4 89 1
8 89 1
116 89 1
124 89 1
251 89 1
256 89 1
656 89 1
657 89 1
5 90 1
9 90 1
117 90 1
125 90 1
252 90 1
257 90 1
657 90 1
658 90 1
6 91 1
10 91 1
118 91 1
126 91 1
253 91 1
258 91 1
658 91 1
659 91 1
7 92 1
11 92 1
119 92 1
127 92 1
254 92 1
259 92 1
659 92 1
660 92 1
8 93 1
12 93 1
120 93 1
128 93 1
255 93 1
260 93 1
660 93 1
661 93 1
9 94 1
13 94 1
121 94 1
129 94 1
256 94 1
261 94 1
661 94 1
662 94 1
10 95 1
14 95 1
122 95 1
130 95 1
257 95 1
262 95 1
662 95 1
663 95 1
11 96 1
15 96 1
123 96 1
131 96 1
258 96 1
263 96 1
663 96 1
664 96 1
12 97 1
16 97 1
124 97 1
132 97 1
259 97 1
264 97 1
664 97 1
665 97 1
13 98 1
17 98 1
125 98 1
133 98 1
260 98 1
265 98 1
665 98 1
666 98 1
14 99 1
18 99 1
126 99 1
134 99 1
261 99 1
266 99 1
666 99 1
667 99 1
15 100 1
19 100 1
127 100 1
135 100 1
262 100 1
267 100 1
667 100 1
668 100 1
16 101 1
20 101 1
109 101 1
128 101 1
263 101 1
268 101 1
668 101 1
669 101 1
17 102 1
21 102 1
110 102 1
129 102 1
264 102 1
269 102 1
669 102 1
670 102 1
18 103 1
22 103 1
111 103 1
130 103 1
265 103 1
270 103 1
670 103 1
671 103 1
19 104 1
23 104 1
112 104 1
131 104 1
244 104 1
266 104 1
671 104 1
672 104 1
20 105 1
24 105 1
113 105 1
132 105 1
245 105 1
267 105 1
672 105 1
673 105 1
21 106 1
25 106 1
114 106 1
133 106 1
246 106 1
268 106 1
673 106 1
674 106 1
22 107 1
26 107 1
115 107 1
134 107 1
247 107 1
269 107 1
674 107 1
675 107 1
23 108 1
27 108 1
116 108 1
135 108 1
248 108 1
270 108 1
649 108 1
675 108 1
1 109 1
25 109 1
136 109 1
144 109 1
271 109 1
276 109 1
676 109 1
677 109 1
2 110 1
26 110 1
137 110 1
145 110 1
272 110 1
277 110 1
677 110 1
678 110 1
3 111 1
27 111 1
138 111 1
146 111 1
273 111 1
278 111 1
678 111 1
679 111 1
1 112 1
4 112 1
139 112 1
147 112 1
274 112 1
279 112 1
679 112 1
680 112 1
2 113 1
5 113 1
140 113 1
148 113 1
275 113 1
280 113 1
680 113 1
681 113 1
3 114 1
6 114 1
141 114 1
149 114 1
276 114 1
281 114 1
681 114 1
682 114 1
4 115 1
7 115 1
142 115 1
150 115 1
277 115 1
282 115 1
682 115 1
683 115 1
5 116 1
8 116 1
143 116 1
151 116 1
278 116 1
283 116 1
683 116 1
684 116 1
6 117 1
9 117 1
144 117 1
152 117 1
279 117 1
284 117 1
684 117 1
685 117 1
7 118 1
10 118 1
145 118 1
153 118 1
280 118 1
285 118 1
685 118 1
686 118 1
8 119 1
11 119 1
146 119 1
154 119 1
281 119 1
286 119 1
686 119 1
687 119 1
9 120 1
12 120 1
147 120 1
155 120 1
282 120 1
287 120 1
687 120 1
688 120 1
10 121 1
13 121 1
148 121 1
156 121 1
283 121 1
288 121 1
688 121 1
689 121 1
11 122 1
14 122 1
149 122 1
157 122 1
284 122 1
289 122 1
689 122 1
690 122 1
12 123 1
15 123 1
150 123 1
158 123 1
285 123 1
290 123 1
690 123 1
691 123 1
13 124 1
16 124 1
151 124 1
159 124 1
286 124 1
291 124 1
691 124 1
692 124 1
14 125 1
17 125 1
152 125 1
160 125 1
287 125 1
292 125 1
692 125 1
693 125 1
15 126 1
18 126 1
153 126 1
161 126 1
288 126 1
293 126 1
693 126 1
694 126 1
16 127 1
19 127 1
154 127 1
162 127 1
289 127 1
294 127 1
694 127 1
695 127 1
17 128 1
20 128 1
136 128 1
155 128 1
290 128 1
295 128 1
695 128 1
696 128 1
18 129 1
21 129 1
137 129 1
156 129 1
291 129 1
296 129 1
696 129 1
697 129 1
19 130 1
22 130 1
138 130 1
157 130 1
292 130 1
297 130 1
697 130 1
698 130 1
20 131 1
23 131 1
139 131 1
158 131 1
271 131 1
293 131 1
698 131 1
699 131 1
21 132 1
24 132 1
140 132 1
159 132 1
272 132 1
294 132 1
699 132 1
700 132 1
22 133 1
25 133 1
141 133 1
160 133 1
273 133 1
295 133 1
700 133 1
701 133 1
23 134 1
26 134 1
142 134 1
161 134 1
274 134 1
296 134 1
701 134 1
702 134 1
24 135 1
27 135 1
143 135 1
162 135 1
275 135 1
297 135 1
676 135 1
702 135 1
28 136 1
41 136 1
55 136 1
66 136 1
298 136 1
303 136 1
703 136 1
704 136 1
29 137 1
42 137 1
56 137 1
67 137 1
299 137 1
304 137 1
704 137 1
705 137 1
30 138 1
43 138 1
57 138 1
68 138 1
300 138 1
305 138 1
705 138 1
706 138 1
31 139 1
44 139 1
58 139 1
69 139 1
301 139 1
306 139 1
706 139 1
707 139 1
32 140 1
45 140 1
59 140 1
70 140 1
302 140 1
307 140 1
707 140 1
708 140 1
33 141 1
46 141 1
60 141 1
71 141 1
303 141 1
308 141 1
708 141 1
709 141 1
34 142 1
47 142 1
61 142 1
72 142 1
304 142 1
309 142 1
709 142 1
710 142 1
35 143 1
48 143 1
62 143 1
73 143 1
305 143 1
310 143 1
710 143 1
711 143 1
36 144 1
49 144 1
63 144 1
74 144 1
306 144 1
311 144 1
711 144 1
712 144 1
37 145 1
50 145 1
64 145 1
75 145 1
307 145 1
312 145 1
712 145 1
713 145 1
38 146 1
51 146 1
65 146 1
76 146 1
308 146 1
313 146 1
713 146 1
714 146 1
39 147 1
52 147 1
66 147 1
77 147 1
309 147 1
314 147 1
714 147 1
715 147 1
40 148 1
53 148 1
67 148 1
78 148 1
310 148 1
315 148 1
715 148 1
716 148 1
41 149 1
54 149 1
68 149 1
79 149 1
311 149 1
316 149 1
716 149 1
717 149 1
28 150 1
42 150 1
69 150 1
80 150 1
312 150 1
317 150 1
717 150 1
718 150 1
29 151 1
43 151 1
70 151 1
81 151 1
313 151 1
318 151 1
718 151 1
719 151 1
30 152 1
44 152 1
55 152 1
71 152 1
314 152 1
319 152 1
719 152 1
720 152 1
31 153 1
45 153 1
56 153 1
72 153 1
315 153 1
320 153 1
720 153 1
721 153 1
32 154 1
46 154 1
57 154 1
73 154 1
316 154 1
321 154 1
721 154 1
722 154 1
33 155 1
47 155 1
58 155 1
74 155 1
317 155 1
322 155 1
722 155 1
723 155 1
34 156 1
48 156 1
59 156 1
75 156 1
318 156 1
323 156 1
723 156 1
724 156 1
35 157 1
49 157 1
60 157 1
76 157 1
319 157 1
324 157 1
724 157 1
725 157 1
36 158 1
50 158 1
61 158 1
77 158 1
298 158 1
320 158 1
725 158 1
726 158 1
37 159 1
51 159 1
62 159 1
78 159 1
299 159 1
321 159 1
726 159 1
727 159 1
38 160 1
52 160 1
63 160 1
79 160 1
300 160 1
322 160 1
727 160 1
728 160 1
39 161 1
53 161 1
64 161 1
80 161 1
301 161 1
323 161 1
728 161 1
729 161 1
40 162 1
54 162 1
65 162 1
81 162 1
302 162 1
324 162 1
703 162 1
729 162 1
28 163 1
46 163 1
82 163 1
93 163 1
325 163 1
330 163 1
730 163 1
731 163 1
29 164 1
47 164 1
83 164 1
94 164 1
326 164 1
331 164 1
731 164 1
732 164 1
30 165 1
48 165 1
84 165 1
95 165 1
327 165 1
332 165 1
732 165 1
733 165 1
31 166 1
49 166 1
85 166 1
96 166 1
328 166 1
333 166 1
733 166 1
734 166 1
32 167 1
50 167 1
86 167 1
97 167 1
329 167 1
334 167 1
734 167 1
735 167 1
33 168 1
51 168 1
87 168 1
98 168 1
330 168 1
335 168 1
735 168 1
736 168 1
34 169 1
52 169 1
88 169 1
99 169 1
331 169 1
336 169 1
736 169 1
737 169 1
35 170 1
53 170 1
89 170 1
100 170 1
332 170 1
337 170 1
737 170 1
738 170 1
36 171 1
54 171 1
90 171 1
101 171 1
333 171 1
338 171 1
738 171 1
739 171 1
28 172 1
37 172 1
91 172 1
102 172 1
334 172 1
339 172 1
739 172 1
740 172 1
29 173 1
38 173 1
92 173 1
103 173 1
335 173 1
340 173 1
740 173 1
741 173 1
30 174 1
39 174 1
93 174 1
104 174 1
336 174 1
341 174 1
741 174 1
742 174 1
31 175 1
40 175 1
94 175 1
105 175 1
337 175 1
342 175 1
742 175 1
743 175 1
32 176 1
41 176 1
95 176 1
106 176 1
338 176 1
343 176 1
743 176 1
744 176 1
33 177 1
42 177 1
96 177 1
107 177 1
339 177 1
344 177 1
744 177 1
745 177 1
34 178 1
43 178 1
97 178 1
108 178 1
340 178 1
345 178 1
745 178 1
746 178 1
35 179 1
44 179 1
82 179 1
98 179 1
341 179 1
346 179 1
746 179 1
747 179 1
36 180 1
45 180 1
83 180 1
99 180 1
342 180 1
347 180 1
747 180 1
748 180 1
37 181 1
46 181 1
84 181 1
100 181 1
343 181 1
348 181 1
748 181 1
749 181 1
38 182 1
47 182 1
85 182 1
101 182 1
344 182 1
349 182 1
749 182 1
750 182 1
39 183 1
48 183 1
86 183 1
102 183 1
345 183 1
350 183 1
750 183 1
751 183 1
40 184 1
49 184 1
87 184 1
103 184 1
346 184 1
351 184 1
751 184 1
752 184 1
41 185 1
50 185 1
88 185 1
104 185 1
325 185 1
347 185 1
752 185 1
753 185 1
42 186 1
51 186 1
89 186 1
105 186 1
326 186 1
348 186 1
753 186 1
754 186 1
43 187 1
52 187 1
90 187 1
106 187 1
327 187 1
349 187 1
754 187 1
755 187 1
44 188 1
53 188 1
91 188 1
107 188 1
328 188 1
350 188 1
755 188 1
756 188 1
45 189 1
54 189 1
92 189 1
108 189 1
329 189 1
351 189 1
730 189 1
756 189 1
28 190 1
51 190 1
109 190 1
120 190 1
352 190 1
357 190 1
757 190 1
758 190 1
29 191 1
52 191 1
110 191 1
121 191 1
353 191 1
358 191 1
758 191 1
759 191 1
30 192 1
53 192 1
111 192 1
122 192 1
354 192 1
359 192 1
759 192 1
760 192 1
31 193 1
54 193 1
112 193 1
123 193 1
355 193 1
360 193 1
760 193 1
761 193 1
28 194 1
32 194 1
113 194 1
124 194 1
356 194 1
361 194 1
761 194 1
762 194 1
29 195 1
33 195 1
114 195 1
125 195 1
357 195 1
362 195 1
762 195 1
763 195 1
30 196 1
34 196 1
115 196 1
126 196 1
358 196 1
363 196 1
763 196 1
764 196 1
31 197 1
35 197 1
116 197 1
127 197 1
359 197 1
364 197 1
764 197 1
765 197 1
32 198 1
36 198 1
117 198 1
128 198 1
360 198 1
365 198 1
765 198 1
766 198 1
33 199 1
37 199 1
118 199 1
129 199 1
361 199 1
366 199 1
766 199 1
767 199 1
34 200 1
38 200 1
119 200 1
130 200 1
362 200 1
367 200 1
767 200 1
768 200 1
35 201 1
39 201 1
120 201 1
131 201 1
363 201 1
368 201 1
768 201 1
769 201 1
36 202 1
40 202 1
121 202 1
132 202 1
364 202 1
369 202 1
769 202 1
770 202 1
37 203 1
41 203 1
122 203 1
133 203 1
365 203 1
370 203 1
770 203 1
771 203 1
38 204 1
42 204 1
123 204 1
134 204 1
366 204 1
371 204 1
771 204 1
772 204 1
39 205 1
43 205 1
124 205 1
135 205 1
367 205 1
372 205 1
772 205 1
773 205 1
40 206 1
44 206 1
109 206 1
125 206 1
368 206 1
373 206 1
773 206 1
774 206 1
41 207 1
45 207 1
110 207 1
126 207 1
369 207 1
374 207 1
774 207 1
775 207 1
42 208 1
46 208 1
111 208 1
127 208 1
370 208 1
375 208 1
775 208 1
776 208 1
43 209 1
47 209 1
112 209 1
128 209 1
371 209 1
376 209 1
776 209 1
777 209 1
44 210 1
48 210 1
113 210 1
129 210 1
372 210 1
377 210 1
777 210 1
778 210 1
45 211 1
49 211 1
114 211 1
130 211 1
373 211 1
378 211 1
778 211 1
779 211 1
46 212 1
50 212 1
115 212 1
131 212 1
352 212 1
374 212 1
779 212 1
780 212 1
47 213 1
51 213 1
116 213 1
132 213 1
353 213 1
375 213 1
780 213 1
781 213 1
48 214 1
52 214 1
117 214 1
133 214 1
354 214 1
376 214 1
781 214 1
782 214 1
49 215 1
53 215 1
118 215 1
134 215 1
355 215 1
377 215 1
782 215 1
783 215 1
50 216 1
54 216 1
119 216 1
135 216 1
356 216 1
378 216 1
757 216 1
783 216 1
28 217 1
52 217 1
136 217 1
147 217 1
379 217 1
384 217 1
784 217 1
785 217 1
29 218 1
53 218 1
137 218 1
148 218 1
380 218 1
385 218 1
785 218 1
786 218 1
30 219 1
54 219 1
138 219 1
149 219 1
381 219 1
386 219 1
786 219 1
787 219 1
28 220 1
31 220 1
139 220 1
150 220 1
382 220 1
387 220 1
787 220 1
788 220 1
29 221 1
32 221 1
140 221 1
151 221 1
383 221 1
388 221 1
788 221 1
789 221 1
30 222 1
33 222 1
141 222 1
152 222 1
384 222 1
389 222 1
789 222 1
790 222 1
31 223 1
34 223 1
142 223 1
153 223 1
385 223 1
390 223 1
790 223 1
791 223 1
32 224 1
35 224 1
143 224 1
154 224 1
386 224 1
391 224 1
791 224 1
792 224 1
33 225 1
36 225 1
144 225 1
155 225 1
387 225 1
392 225 1
792 225 1
793 225 1
34 226 1
37 226 1
145 226 1
156 226 1
388 226 1
393 226 1
793 226 1
794 226 1
35 227 1
38 227 1
146 227 1
157 227 1
389 227 1
394 227 1
794 227 1
795 227 1
36 228 1
39 228 1
147 228 1
158 228 1
390 228 1
395 228 1
795 228 1
796 228 1
37 229 1
40 229 1
148 229 1
159 229 1
391 229 1
396 229 1
796 229 1
797 229 1
38 230 1
41 230 1
149 230 1
160 230 1
392 230 1
397 230 1
797 230 1
798 230 1
39 231 1
42 231 1
150 231 1
161 231 1
393 231 1
398 231 1
798 231 1
799 231 1
40 232 1
43 232 1
151 232 1
162 232 1
394 232 1
399 232 1
799 232 1
800 232 1
41 233 1
44 233 1
136 233 1
152 233 1
395 233 1
400 233 1
800 233 1
801 233 1
42 234 1
45 234 1
137 234 1
153 234 1
396 234 1
401 234 1
801 234 1
802 234 1
43 235 1
46 235 1
138 235 1
154 235 1
397 235 1
402 235 1
802 235 1
803 235 1
44 236 1
47 236 1
139 236 1
155 236 1
398 236 1
403 236 1
803 236 1
804 236 1
45 237 1
48 237 1
140 237 1
156 237 1
399 237 1
404 237 1
804 237 1
805 237 1
46 238 1
49 238 1
141 238 1
157 238 1
400 238 1
405 238 1
805 238 1
806 238 1
47 239 1
50 239 1
142 239 1
158 239 1
379 239 1
401 239 1
806 239 1
807 239 1
48 240 1
51 240 1
143 240 1
159 240 1
380 240 1
402 240 1
807 240 1
808 240 1
49 241 1
52 241 1
144 241 1
160 241 1
381 241 1
403 241 1
808 241 1
809 241 1
50 242 1
53 242 1
145 242 1
161 242 1
382 242 1
404 242 1
809 242 1
810 242 1
51 243 1
54 243 1
146 243 1
162 243 1
383 243 1
405 243 1
784 243 1
810 243 1
55 244 1
73 244 1
82 244 1
95 244 1
406 244 1
411 244 1
811 244 1
812 244 1
56 245 1
74 245 1
83 245 1
96 245 1
407 245 1
412 245 1
812 245 1
813 245 1
57 246 1
75 246 1
84 246 1
97 246 1
408 246 1
413 246 1
813 246 1
814 246 1
58 247 1
76 247 1
85 247 1
98 247 1
409 247 1
414 247 1
814 247 1
815 247 1
59 248 1
77 248 1
86 248 1
99 248 1
410 248 1
415 248 1
815 248 1
816 248 1
60 249 1
78 249 1
87 249 1
100 249 1
411 249 1
416 249 1
816 249 1
817 249 1
61 250 1
79 250 1
88 250 1
101 250 1
412 250 1
417 250 1
817 250 1
818 250 1
62 251 1
80 251 1
89 251 1
102 251 1
413 251 1
418 251 1
818 251 1
819 251 1
63 252 1
81 252 1
90 252 1
103 252 1
414 252 1
419 252 1
819 252 1
820 252 1
55 253 1
64 253 1
91 253 1
104 253 1
415 253 1
420 253 1
820 253 1
821 253 1
56 254 1
65 254 1
92 254 1
105 254 1
416 254 1
421 254 1
821 254 1
822 254 1
57 255 1
66 255 1
93 255 1
106 255 1
417 255 1
422 255 1
822 255 1
823 255 1
58 256 1
67 256 1
94 256 1
107 256 1
418 256 1
423 256 1
823 256 1
824 256 1
59 257 1
68 257 1
95 257 1
108 257 1
419 257 1
424 257 1
824 257 1
825 257 1
60 258 1
69 258 1
82 258 1
96 258 1
420 258 1
425 258 1
825 258 1
826 258 1
61 259 1
70 259 1
83 259 1
97 259 1
421 259 1
426 259 1
826 259 1
827 259 1
62 260 1
71 260 1
84 260 1
98 260 1
422 260 1
427 260 1
827 260 1
828 260 1
63 261 1
72 261 1
85 261 1
99 261 1
423 261 1
428 261 1
828 261 1
829 261 1
64 262 1
73 262 1
86 262 1
100 262 1
424 262 1
429 262 1
829 262 1
830 262 1
65 263 1
74 263 1
87 263 1
101 263 1
425 263 1
430 263 1
830 263 1
831 263 1
66 264 1
75 264 1
88 264 1
102 264 1
426 264 1
431 264 1
831 264 1
832 264 1
67 265 1
76 265 1
89 265 1
103 265 1
427 265 1
432 265 1
832 265 1
833 265 1
68 266 1
77 266 1
90 266 1
104 266 1
406 266 1
428 266 1
833 266 1
834 266 1
69 267 1
78 267 1
91 267 1
105 267 1
407 267 1
429 267 1
834 267 1
835 267 1
70 268 1
79 268 1
92 268 1
106 268 1
408 268 1
430 268 1
835 268 1
836 268 1
71 269 1
80 269 1
93 269 1
107 269 1
409 269 1
431 269 1
836 269 1
837 269 1
72 270 1
81 270 1
94 270 1
108 270 1
410 270 1
432 270 1
811 270 1
837 270 1
55 271 1
78 271 1
109 271 1
122 271 1
433 271 1
438 271 1
838 271 1
839 271 1
56 272 1
79 272 1
110 272 1
123 272 1
434 272 1
439 272 1
839 272 1
840 272 1
57 273 1
80 273 1
111 273 1
124 273 1
435 273 1
440 273 1
840 273 1
841 273 1
58 274 1
81 274 1
112 274 1
125 274 1
436 274 1
441 274 1
841 274 1
842 274 1
55 275 1
59 275 1
113 275 1
126 275 1
437 275 1
442 275 1
842 275 1
843 275 1
56 276 1
60 276 1
114 276 1
127 276 1
438 276 1
443 276 1
843 276 1
844 276 1
57 277 1
61 277 1
115 277 1
128 277 1
439 277 1
444 277 1
844 277 1
845 277 1
58 278 1
62 278 1
116 278 1
129 278 1
440 278 1
445 278 1
845 278 1
846 278 1
59 279 1
63 279 1
117 279 1
130 279 1
441 279 1
446 279 1
846 279 1
847 279 1
60 280 1
64 280 1
118 280 1
131 280 1
442 280 1
447 280 1
847 280 1
848 280 1
61 281 1
65 281 1
119 281 1
132 281 1
443 281 1
448 281 1
848 281 1
849 281 1
62 282 1
66 282 1
120 282 1
133 282 1
444 282 1
449 282 1
849 282 1
850 282 1
63 283 1
67 283 1
121 283 1
134 283 1
445 283 1
450 283 1
850 283 1
851 283 1
64 284 1
68 284 1
122 284 1
135 284 1
446 284 1
451 284 1
851 284 1
852 284 1
65 285 1
69 285 1
109 285 1
123 285 1
447 285 1
452 285 1
852 285 1
853 285 1
66 286 1
70 286 1
110 286 1
124 286 1
448 286 1
453 286 1
853 286 1
854 286 1
67 287 1
71 287 1
111 287 1
125 287 1
449 287 1
454 287 1
854 287 1
855 287 1
68 288 1
72 288 1
112 288 1
126 288 1
450 288 1
455 288 1
855 288 1
856 288 1
69 289 1
73 289 1
113 289 1
127 289 1
451 289 1
456 289 1
856 289 1
857 289 1
70 290 1
74 290 1
114 290 1
128 290 1
452 290 1
457 290 1
857 290 1
858 290 1
71 291 1
75 291 1
115 291 1
129 291 1
453 291 1
458 291 1
858 291 1
859 291 1
72 292 1
76 292 1
116 292 1
130 292 1
454 292 1
459 292 1
859 292 1
860 292 1
73 293 1
77 293 1
117 293 1
131 293 1
433 293 1
455 293 1
860 293 1
861 293 1
74 294 1
78 294 1
118 294 1
132 294 1
434 294 1
456 294 1
861 294 1
862 294 1
75 295 1
79 295 1
119 295 1
133 295 1
435 295 1
457 295 1
862 295 1
863 295 1
76 296 1
80 296 1
120 296 1
134 296 1
436 296 1
458 296 1
863 296 1
864 296 1
77 297 1
81 297 1
121 297 1
135 297 1
437 297 1
459 297 1
838 297 1
864 297 1
55 298 1
79 298 1
136 298 1
149 298 1
460 298 1
465 298 1
865 298 1
866 298 1
56 299 1
80 299 1
137 299 1
150 299 1
461 299 1
466 299 1
866 299 1
867 299 1
57 300 1
81 300 1
138 300 1
151 300 1
462 300 1
467 300 1
867 300 1
868 300 1
55 301 1
58 301 1
139 301 1
152 301 1
463 301 1
468 301 1
868 301 1
869 301 1
56 302 1
59 302 1
140 302 1
153 302 1
464 302 1
469 302 1
869 302 1
870 302 1
57 303 1
60 303 1
141 303 1
154 303 1
465 303 1
470 303 1
870 303 1
871 303 1
58 304 1
61 304 1
142 304 1
155 304 1
466 304 1
471 304 1
871 304 1
872 304 1
59 305 1
62 305 1
143 305 1
156 305 1
467 305 1
472 305 1
872 305 1
873 305 1
60 306 1
63 306 1
144 306 1
157 306 1
468 306 1
473 306 1
873 306 1
874 306 1
61 307 1
64 307 1
145 307 1
158 307 1
469 307 1
474 307 1
874 307 1
875 307 1
62 308 1
65 308 1
146 308 1
159 308 1
470 308 1
475 308 1
875 308 1
876 308 1
63 309 1
66 309 1
147 309 1
160 309 1
471 309 1
476 309 1
876 309 1
877 309 1
64 310 1
67 310 1
148 310 1
161 310 1
472 310 1
477 310 1
877 310 1
878 310 1
65 311 1
68 311 1
149 311 1
162 311 1
473 311 1
478 311 1
878 311 1
879 311 1
66 312 1
69 312 1
136 312 1
150 312 1
474 312 1
479 312 1
879 312 1
880 312 1
67 313 1
70 313 1
137 313 1
151 313 1
475 313 1
480 313 1
880 313 1
881 313 1
68 314 1
71 314 1
138 314 1
152 314 1
476 314 1
481 314 1
881 314 1
882 314 1
69 315 1
72 315 1
139 315 1
153 315 1
477 315 1
482 315 1
882 315 1
883 315 1
70 316 1
73 316 1
140 316 1
154 316 1
478 316 1
483 316 1
883 316 1
884 316 1
71 317 1
74 317 1
141 317 1
155 317 1
479 317 1
484 317 1
884 317 1
885 317 1
72 318 1
75 318 1
142 318 1
156 318 1
480 318 1
485 318 1
885 318 1
886 318 1
73 319 1
76 319 1
143 319 1
157 319 1
481 319 1
486 319 1
886 319 1
887 319 1
74 320 1
77 320 1
144 320 1
158 320 1
460 320 1
482 320 1
887 320 1
888 320 1
75 321 1
78 321 1
145 321 1
159 321 1
461 321 1
483 321 1
888 321 1
889 321 1
76 322 1
79 322 1
146 322 1
160 322 1
462 322 1
484 322 1
889 322 1
890 322 1
77 323 1
80 323 1
147 323 1
161 323 1
463 323 1
485 323 1
890 323 1
891 323 1
78 324 1
81 324 1
148 324 1
162 324 1
464 324 1
486 324 1
865 324 1
891 324 1
82 325 1
105 325 1
109 325 1
127 325 1
487 325 1
492 325 1
892 325 1
893 325 1
83 326 1
106 326 1
110 326 1
128 326 1
488 326 1
493 326 1
893 326 1
894 326 1
84 327 1
107 327 1
111 327 1
129 327 1
489 327 1
494 327 1
894 327 1
895 327 1
85 328 1
108 328 1
112 328 1
130 328 1
490 328 1
495 328 1
895 328 1
896 328 1
82 329 1
86 329 1
113 329 1
131 329 1
491 329 1
496 329 1
896 329 1
897 329 1
83 330 1
87 330 1
114 330 1
132 330 1
492 330 1
497 330 1
897 330 1
898 330 1
84 331 1
88 331 1
115 331 1
133 331 1
493 331 1
498 331 1
898 331 1
899 331 1
85 332 1
89 332 1
116 332 1
134 332 1
494 332 1
499 332 1
899 332 1
900 332 1
86 333 1
90 333 1
117 333 1
135 333 1
495 333 1
500 333 1
900 333 1
901 333 1
87 334 1
91 334 1
109 334 1
118 334 1
496 334 1
501 334 1
901 334 1
902 334 1
88 335 1
92 335 1
110 335 1
119 335 1
497 335 1
502 335 1
902 335 1
903 335 1
89 336 1
93 336 1
111 336 1
120 336 1
498 336 1
503 336 1
903 336 1
904 336 1
90 337 1
94 337 1
112 337 1
121 337 1
499 337 1
504 337 1
904 337 1
905 337 1
91 338 1
95 338 1
113 338 1
122 338 1
500 338 1
505 338 1
905 338 1
906 338 1
92 339 1
96 339 1
114 339 1
123 339 1
501 339 1
506 339 1
906 339 1
907 339 1
93 340 1
97 340 1
115 340 1
124 340 1
502 340 1
507 340 1
907 340 1
908 340 1
94 341 1
98 341 1
116 341 1
125 341 1
503 341 1
508 341 1
908 341 1
909 341 1
95 342 1
99 342 1
117 342 1
126 342 1
504 342 1
509 342 1
909 342 1
910 342 1
96 343 1
100 343 1
118 343 1
127 343 1
505 343 1
510 343 1
910 343 1
911 343 1
97 344 1
101 344 1
119 344 1
128 344 1
506 344 1
511 344 1
911 344 1
912 344 1
98 345 1
102 345 1
120 345 1
129 345 1
507 345 1
512 345 1
912 345 1
913 345 1
99 346 1
103 346 1
121 346 1
130 346 1
508 346 1
513 346 1
913 346 1
914 346 1
100 347 1
104 347 1
122 347 1
131 347 1
487 347 1
509 347 1
914 347 1
915 347 1
101 348 1
105 348 1
123 348 1
132 348 1
488 348 1
510 348 1
915 348 1
916 348 1
102 349 1
106 349 1
124 349 1
133 349 1
489 349 1
511 349 1
916 349 1
917 349 1
103 350 1
107 350 1
125 350 1
134 350 1
490 350 1
512 350 1
917 350 1
918 350 1
104 351 1
108 351 1
126 351 1
135 351 1
491 351 1
513 351 1
892 351 1
918 351 1
82 352 1
106 352 1
136 352 1
154 352 1
514 352 1
519 352 1
919 352 1
920 352 1
83 353 1
107 353 1
137 353 1
155 353 1
515 353 1
520 353 1
920 353 1
921 353 1
84 354 1
108 354 1
138 354 1
156 354 1
516 354 1
521 354 1
921 354 1
922 354 1
82 355 1
85 355 1
139 355 1
157 355 1
517 355 1
522 355 1
922 355 1
923 355 1
83 356 1
86 356 1
140 356 1
158 356 1
518 356 1
523 356 1
923 356 1
924 356 1
84 357 1
87 357 1
141 357 1
159 357 1
519 357 1
524 357 1
924 357 1
925 357 1
85 358 1
88 358 1
142 358 1
160 358 1
520 358 1
525 358 1
925 358 1
926 358 1
86 359 1
89 359 1
143 359 1
161 359 1
521 359 1
526 359 1
926 359 1
927 359 1
87 360 1
90 360 1
144 360 1
162 360 1
522 360 1
527 360 1
927 360 1
928 360 1
88 361 1
91 361 1
136 361 1
145 361 1
523 361 1
528 361 1
928 361 1
929 361 1
89 362 1
92 362 1
137 362 1
146 362 1
524 362 1
529 362 1
929 362 1
930 362 1
90 363 1
93 363 1
138 363 1
147 363 1
525 363 1
530 363 1
930 363 1
931 363 1
91 364 1
94 364 1
139 364 1
148 364 1
526 364 1
531 364 1
931 364 1
932 364 1
92 365 1
95 365 1
140 365 1
149 365 1
527 365 1
532 365 1
932 365 1
933 365 1
93 366 1
96 366 1
141 366 1
150 366 1
528 366 1
533 366 1
933 366 1
934 366 1
94 367 1
97 367 1
142 367 1
151 367 1
529 367 1
534 367 1
934 367 1
935 367 1
95 368 1
98 368 1
143 368 1
152 368 1
530 368 1
535 368 1
935 368 1
936 368 1
96 369 1
99 369 1
144 369 1
153 369 1
531 369 1
536 369 1
936 369 1
937 369 1
97 370 1
100 370 1
145 370 1
154 370 1
532 370 1
537 370 1
937 370 1
938 370 1
98 371 1
101 371 1
146 371 1
155 371 1
533 371 1
538 371 1
938 371 1
939 371 1
99 372 1
102 372 1
147 372 1
156 372 1
534 372 1
539 372 1
939 372 1
940 372 1
100 373 1
103 373 1
148 373 1
157 373 1
535 373 1
540 373 1
940 373 1
941 373 1
101 374 1
104 374 1
149 374 1
158 374 1
514 374 1
536 374 1
941 374 1
942 374 1
102 375 1
105 375 1
150 375 1
159 375 1
515 375 1
537 375 1
942 375 1
943 375 1
103 376 1
106 376 1
151 376 1
160 376 1
516 376 1
538 376 1
943 376 1
944 376 1
104 377 1
107 377 1
152 377 1
161 377 1
517 377 1
539 377 1
944 377 1
945 377 1
105 378 1
108 378 1
153 378 1
162 378 1
518 378 1
540 378 1
919 378 1
945 378 1
109 379 1
133 379 1
136 379 1
159 379 1
541 379 1
546 379 1
946 379 1
947 379 1
110 380 1
134 380 1
137 380 1
160 380 1
542 380 1
547 380 1
947 380 1
948 380 1
111 381 1
135 381 1
138 381 1
161 381 1
543 381 1
548 381 1
948 381 1
949 381 1
109 382 1
112 382 1
139 382 1
162 382 1
544 382 1
549 382 1
949 382 1
950 382 1
110 383 1
113 383 1
136 383 1
140 383 1
545 383 1
550 383 1
950 383 1
951 383 1
111 384 1
114 384 1
137 384 1
141 384 1
546 384 1
551 384 1
951 384 1
952 384 1
112 385 1
115 385 1
138 385 1
142 385 1
547 385 1
552 385 1
952 385 1
953 385 1
113 386 1
116 386 1
139 386 1
143 386 1
548 386 1
553 386 1
953 386 1
954 386 1
114 387 1
117 387 1
140 387 1
144 387 1
549 387 1
554 387 1
954 387 1
955 387 1
115 388 1
118 388 1
141 388 1
145 388 1
550 388 1
555 388 1
955 388 1
956 388 1
116 389 1
119 389 1
142 389 1
146 389 1
551 389 1
556 389 1
956 389 1
957 389 1
117 390 1
120 390 1
143 390 1
147 390 1
552 390 1
557 390 1
957 390 1
958 390 1
118 391 1
121 391 1
144 391 1
148 391 1
553 391 1
558 391 1
958 391 1
959 391 1
119 392 1
122 392 1
145 392 1
149 392 1
554 392 1
559 392 1
959 392 1
960 392 1
120 393 1
123 393 1
146 393 1
150 393 1
555 393 1
560 393 1
960 393 1
961 393 1
121 394 1
124 394 1
147 394 1
151 394 1
556 394 1
561 394 1
961 394 1
962 394 1
122 395 1
125 395 1
148 395 1
152 395 1
557 395 1
562 395 1
962 395 1
963 395 1
123 396 1
126 396 1
149 396 1
153 396 1
558 396 1
563 396 1
963 396 1
964 396 1
124 397 1
127 397 1
150 397 1
154 397 1
559 397 1
564 397 1
964 397 1
965 397 1
125 398 1
128 398 1
151 398 1
155 398 1
560 398 1
565 398 1
965 398 1
966 398 1
126 399 1
129 399 1
152 399 1
156 399 1
561 399 1
566 399 1
966 399 1
967 399 1
127 400 1
130 400 1
153 400 1
157 400 1
562 400 1
567 400 1
967 400 1
968 400 1
128 401 1
131 401 1
154 401 1
158 401 1
541 401 1
563 401 1
968 401 1
969 401 1
129 402 1
132 402 1
155 402 1
159 402 1
542 402 1
564 402 1
969 402 1
970 402 1
130 403 1
133 403 1
156 403 1
160 403 1
543 403 1
565 403 1
970 403 1
971 403 1
131 404 1
134 404 1
157 404 1
161 404 1
544 404 1
566 404 1
971 404 1
972 404 1
132 405 1
135 405 1
158 405 1
162 405 1
545 405 1
567 405 1
946 405 1
972 405 1
163 406 1
176 406 1
190 406 1
201 406 1
298 406 1
306 406 1
973 406 1
974 406 1
164 407 1
177 407 1
191 407 1
202 407 1
299 407 1
307 407 1
974 407 1
975 407 1
165 408 1
178 408 1
192 408 1
203 408 1
300 408 1
308 408 1
975 408 1
976 408 1
166 409 1
179 409 1
193 409 1
204 409 1
301 409 1
309 409 1
976 409 1
977 409 1
167 410 1
180 410 1
194 410 1
205 410 1
302 410 1
310 410 1
977 410 1
978 410 1
168 411 1
181 411 1
195 411 1
206 411 1
303 411 1
311 411 1
978 411 1
979 411 1
169 412 1
182 412 1
196 412 1
207 412 1
304 412 1
312 412 1
979 412 1
980 412 1
170 413 1
183 413 1
197 413 1
208 413 1
305 413 1
313 413 1
980 413 1
981 413 1
171 414 1
184 414 1
198 414 1
209 414 1
306 414 1
314 414 1
981 414 1
982 414 1
172 415 1
185 415 1
199 415 1
210 415 1
307 415 1
315 415 1
982 415 1
983 415 1
173 416 1
186 416 1
200 416 1
211 416 1
308 416 1
316 416 1
983 416 1
984 416 1
174 417 1
187 417 1
201 417 1
212 417 1
309 417 1
317 417 1
984 417 1
985 417 1
175 418 1
188 418 1
202 418 1
213 418 1
310 418 1
318 418 1
985 418 1
986 418 1
176 419 1
189 419 1
203 419 1
214 419 1
311 419 1
319 419 1
986 419 1
987 419 1
163 420 1
177 420 1
204 420 1
215 420 1
312 420 1
320 420 1
987 420 1
988 420 1
164 421 1
178 421 1
205 421 1
216 421 1
313 421 1
321 421 1
988 421 1
989 421 1
165 422 1
179 422 1
190 422 1
206 422 1
314 422 1
322 422 1
989 422 1
990 422 1
166 423 1
180 423 1
191 423 1
207 423 1
315 423 1
323 423 1
990 423 1
991 423 1
167 424 1
181 424 1
192 424 1
208 424 1
316 424 1
324 424 1
991 424 1
992 424 1
168 425 1
182 425 1
193 425 1
209 425 1
298 425 1
317 425 1
992 425 1
993 425 1
169 426 1
183 426 1
194 426 1
210 426 1
299 426 1
318 426 1
993 426 1
994 426 1
170 427 1
184 427 1
195 427 1
211 427 1
300 427 1
319 427 1
994 427 1
995 427 1
171 428 1
185 428 1
196 428 1
212 428 1
301 428 1
320 428 1
995 428 1
996 428 1
172 429 1
186 429 1
197 429 1
213 429 1
302 429 1
321 429 1
996 429 1
997 429 1
173 430 1
187 430 1
198 430 1
214 430 1
303 430 1
322 430 1
997 430 1
998 430 1
174 431 1
188 431 1
199 431 1
215 431 1
304 431 1
323 431 1
998 431 1
999 431 1
175 432 1
189 432 1
200 432 1
216 432 1
305 432 1
324 432 1
973 432 1
999 432 1
163 433 1
181 433 1
217 433 1
228 433 1
325 433 1
333 433 1
1000 433 1
1001 433 1
164 434 1
182 434 1
218 434 1
229 434 1
326 434 1
334 434 1
1001 434 1
1002 434 1
165 435 1
183 435 1
219 435 1
230 435 1
327 435 1
335 435 1
1002 435 1
1003 435 1
166 436 1
184 436 1
220 436 1
231 436 1
328 436 1
336 436 1
1003 436 1
1004 436 1
167 437 1
185 437 1
221 437 1
232 437 1
329 437 1
337 437 1
1004 437 1
1005 437 1
168 438 1
186 438 1
222 438 1
233 438 1
330 438 1
338 438 1
1005 438 1
1006 438 1
169 439 1
187 439 1
223 439 1
234 439 1
331 439 1
339 439 1
1006 439 1
1007 439 1
170 440 1
188 440 1
224 440 1
235 440 1
332 440 1
340 440 1
1007 440 1
1008 440 1
171 441 1
189 441 1
225 441 1
236 441 1
333 441 1
341 441 1
1008 441 1
1009 441 1
163 442 1
172 442 1
226 442 1
237 442 1
334 442 1
342 442 1
1009 442 1
1010 442 1
164 443 1
173 443 1
227 443 1
238 443 1
335 443 1
343 443 1
1010 443 1
1011 443 1
165 444 1
174 444 1
228 444 1
239 444 1
336 444 1
344 444 1
1011 444 1
1012 444 1
166 445 1
175 445 1
229 445 1
240 445 1
337 445 1
345 445 1
1012 445 1
1013 445 1
167 446 1
176 446 1
230 446 1
241 446 1
338 446 1
346 446 1
1013 446 1
1014 446 1
168 447 1
177 447 1
231 447 1
242 447 1
339 447 1
347 447 1
1014 447 1
1015 447 1
169 448 1
178 448 1
232 448 1
243 448 1
340 448 1
348 448 1
1015 448 1
1016 448 1
170 449 1
179 449 1
217 449 1
233 449 1
341 449 1
349 449 1
1016 449 1
1017 449 1
171 450 1
180 450 1
218 450 1
234 450 1
342 450 1
350 450 1
1017 450 1
1018 450 1
172 451 1
181 451 1
219 451 1
235 451 1
343 451 1
351 451 1
1018 451 1
1019 451 1
173 452 1
182 452 1
220 452 1
236 452 1
325 452 1
344 452 1
1019 452 1
1020 452 1
174 453 1
183 453 1
221 453 1
237 453 1
326 453 1
345 453 1
1020 453 1
1021 453 1
175 454 1
184 454 1
222 454 1
238 454 1
327 454 1
346 454 1
1021 454 1
1022 454 1
176 455 1
185 455 1
223 455 1
239 455 1
328 455 1
347 455 1
1022 455 1
1023 455 1
177 456 1
186 456 1
224 456 1
240 456 1
329 456 1
348 456 1
1023 456 1
1024 456 1
178 457 1
187 457 1
225 457 1
241 457 1
330 457 1
349 457 1
1024 457 1
1025 457 1
179 458 1
188 458 1
226 458 1
242 458 1
331 458 1
350 458 1
1025 458 1
1026 458 1
180 459 1
189 459 1
227 459 1
243 459 1
332 459 1
351 459 1
1000 459 1
1026 459 1
163 460 1
186 460 1
244 460 1
255 460 1
352 460 1
360 460 1
1027 460 1
1028 460 1
164 461 1
187 461 1
245 461 1
256 461 1
353 461 1
361 461 1
1028 461 1
1029 461 1
165 462 1
188 462 1
246 462 1
257 462 1
354 462 1
362 462 1
1029 462 1
1030 462 1
166 463 1
189 463 1
247 463 1
258 463 1
355 463 1
363 463 1
1030 463 1
1031 463 1
163 464 1
167 464 1
248 464 1
259 464 1
356 464 1
364 464 1
1031 464 1
1032 464 1
164 465 1
168 465 1
249 465 1
260 465 1
357 465 1
365 465 1
1032 465 1
1033 465 1
165 466 1
169 466 1
250 466 1
261 466 1
358 466 1
366 466 1
1033 466 1
1034 466 1
166 467 1
170 467 1
251 467 1
262 467 1
359 467 1
367 467 1
1034 467 1
1035 467 1
167 468 1
171 468 1
252 468 1
263 468 1
360 468 1
368 468 1
1035 468 1
1036 468 1
168 469 1
172 469 1
253 469 1
264 469 1
361 469 1
369 469 1
1036 469 1
1037 469 1
169 470 1
173 470 1
254 470 1
265 470 1
362 470 1
370 470 1
1037 470 1
1038 470 1
170 471 1
174 471 1
255 471 1
266 471 1
363 471 1
371 471 1
1038 471 1
1039 471 1
171 472 1
175 472 1
256 472 1
267 472 1
364 472 1
372 472 1
1039 472 1
1040 472 1
172 473 1
176 473 1
257 473 1
268 473 1
365 473 1
373 473 1
1040 473 1
1041 473 1
173 474 1
177 474 1
258 474 1
269 474 1
366 474 1
374 474 1
1041 474 1
1042 474 1
174 475 1
178 475 1
259 475 1
270 475 1
367 475 1
375 475 1
1042 475 1
1043 475 1
175 476 1
179 476 1
244 476 1
260 476 1
368 476 1
376 476 1
1043 476 1
1044 476 1
176 477 1
180 477 1
245 477 1
261 477 1
369 477 1
377 477 1
1044 477 1
1045 477 1
177 478 1
181 478 1
246 478 1
262 478 1
370 478 1
378 478 1
1045 478 1
1046 478 1
178 479 1
182 479 1
247 479 1
263 479 1
352 479 1
371 479 1
1046 479 1
1047 479 1
179 480 1
183 480 1
248 480 1
264 480 1
353 480 1
372 480 1
1047 480 1
1048 480 1
180 481 1
184 481 1
249 481 1
265 481 1
354 481 1
373 481 1
1048 481 1
1049 481 1
181 482 1
185 482 1
250 482 1
266 482 1
355 482 1
374 482 1
1049 482 1
1050 482 1
182 483 1
186 483 1
251 483 1
267 483 1
356 483 1
375 483 1
1050 483 1
1051 483 1
183 484 1
187 484 1
252 484 1
268 484 1
357 484 1
376 484 1
1051 484 1
1052 484 1
184 485 1
188 485 1
253 485 1
269 485 1
358 485 1
377 485 1
1052 485 1
1053 485 1
185 486 1
189 486 1
254 486 1
270 486 1
359 486 1
378 486 1
1027 486 1
1053 486 1
163 487 1
187 487 1
271 487 1
282 487 1
379 487 1
387 487 1
1054 487 1
1055 487 1
164 488 1
188 488 1
272 488 1
283 488 1
380 488 1
388 488 1
1055 488 1
1056 488 1
165 489 1
189 489 1
273 489 1
284 489 1
381 489 1
389 489 1
1056 489 1
1057 489 1
163 490 1
166 490 1
274 490 1
285 490 1
382 490 1
390 490 1
1057 490 1
1058 490 1
164 491 1
167 491 1
275 491 1
286 491 1
383 491 1
391 491 1
1058 491 1
1059 491 1
165 492 1
168 492 1
276 492 1
287 492 1
384 492 1
392 492 1
1059 492 1
1060 492 1
166 493 1
169 493 1
277 493 1
288 493 1
385 493 1
393 493 1
1060 493 1
1061 493 1
167 494 1
170 494 1
278 494 1
289 494 1
386 494 1
394 494 1
1061 494 1
1062 494 1
168 495 1
171 495 1
279 495 1
290 495 1
387 495 1
395 495 1
1062 495 1
1063 495 1
169 496 1
172 496 1
280 496 1
291 496 1
388 496 1
396 496 1
1063 496 1
1064 496 1
170 497 1
173 497 1
281 497 1
292 497 1
389 497 1
397 497 1
1064 497 1
1065 497 1
171 498 1
174 498 1
282 498 1
293 498 1
390 498 1
398 498 1
1065 498 1
1066 498 1
172 499 1
175 499 1
283 499 1
294 499 1
391 499 1
399 499 1
1066 499 1
1067 499 1
173 500 1
176 500 1
284 500 1
295 500 1
392 500 1
400 500 1
1067 500 1
1068 500 1
174 501 1
177 501 1
285 501 1
296 501 1
393 501 1
401 501 1
1068 501 1
1069 501 1
175 502 1
178 502 1
286 502 1
297 502 1
394 502 1
402 502 1
1069 502 1
1070 502 1
176 503 1
179 503 1
271 503 1
287 503 1
395 503 1
403 503 1
1070 503 1
1071 503 1
177 504 1
180 504 1
272 504 1
288 504 1
396 504 1
404 504 1
1071 504 1
1072 504 1
178 505 1
181 505 1
273 505 1
289 505 1
397 505 1
405 505 1
1072 505 1
1073 505 1
179 506 1
182 506 1
274 506 1
290 506 1
379 506 1
398 506 1
1073 506 1
1074 506 1
180 507 1
183 507 1
275 507 1
291 507 1
380 507 1
399 507 1
1074 507 1
1075 507 1
181 508 1
184 508 1
276 508 1
292 508 1
381 508 1
400 508 1
1075 508 1
1076 508 1
182 509 1
185 509 1
277 509 1
293 509 1
382 509 1
401 509 1
1076 509 1
1077 509 1
183 510 1
186 510 1
278 510 1
294 510 1
383 510 1
402 510 1
1077 510 1
1078 510 1
184 511 1
187 511 1
279 511 1
295 511 1
384 511 1
403 511 1
1078 511 1
1079 511 1
185 512 1
188 512 1
280 512 1
296 512 1
385 512 1
404 512 1
1079 512 1
1080 512 1
186 513 1
189 513 1
281 513 1
297 513 1
386 513 1
405 513 1
1054 513 1
1080 513 1
190 514 1
208 514 1
217 514 1
230 514 1
406 514 1
414 514 1
1081 514 1
1082 514 1
191 515 1
209 515 1
218 515 1
231 515 1
407 515 1
415 515 1
1082 515 1
1083 515 1
192 516 1
210 516 1
219 516 1
232 516 1
408 516 1
416 516 1
1083 516 1
1084 516 1
193 517 1
211 517 1
220 517 1
233 517 1
409 517 1
417 517 1
1084 517 1
1085 517 1
194 518 1
212 518 1
221 518 1
234 518 1
410 518 1
418 518 1
1085 518 1
1086 518 1
195 519 1
213 519 1
222 519 1
235 519 1
411 519 1
419 519 1
1086 519 1
1087 519 1
196 520 1
214 520 1
223 520 1
236 520 1
412 520 1
420 520 1
1087 520 1
1088 520 1
197 521 1
215 521 1
224 521 1
237 521 1
413 521 1
421 521 1
1088 521 1
1089 521 1
198 522 1
216 522 1
225 522 1
238 522 1
414 522 1
422 522 1
1089 522 1
1090 522 1
190 523 1
199 523 1
226 523 1
239 523 1
415 523 1
423 523 1
1090 523 1
1091 523 1
191 524 1
200 524 1
227 524 1
240 524 1
416 524 1
424 524 1
1091 524 1
1092 524 1
192 525 1
201 525 1
228 525 1
241 525 1
417 525 1
425 525 1
1092 525 1
1093 525 1
193 526 1
202 526 1
229 526 1
242 526 1
418 526 1
426 526 1
1093 526 1
1094 526 1
194 527 1
203 527 1
230 527 1
243 527 1
419 527 1
427 527 1
1094 527 1
1095 527 1
195 528 1
204 528 1
217 528 1
231 528 1
420 528 1
428 528 1
1095 528 1
1096 528 1
196 529 1
205 529 1
218 529 1
232 529 1
421 529 1
429 529 1
1096 529 1
1097 529 1
197 530 1
206 530 1
219 530 1
233 530 1
422 530 1
430 530 1
1097 530 1
1098 530 1
198 531 1
207 531 1
220 531 1
234 531 1
423 531 1
431 531 1
1098 531 1
1099 531 1
199 532 1
208 532 1
221 532 1
235 532 1
424 532 1
432 532 1
1099 532 1
1100 532 1
200 533 1
209 533 1
222 533 1
236 533 1
406 533 1
425 533 1
1100 533 1
1101 533 1
201 534 1
210 534 1
223 534 1
237 534 1
407 534 1
426 534 1
1101 534 1
1102 534 1
202 535 1
211 535 1
224 535 1
238 535 1
408 535 1
427 535 1
1102 535 1
1103 535 1
203 536 1
212 536 1
225 536 1
239 536 1
409 536 1
428 536 1
1103 536 1
1104 536 1
204 537 1
213 537 1
226 537 1
240 537 1
410 537 1
429 537 1
1104 537 1
1105 537 1
205 538 1
214 538 1
227 538 1
241 538 1
411 538 1
430 538 1
1105 538 1
1106 538 1
206 539 1
215 539 1
228 539 1
242 539 1
412 539 1
431 539 1
1106 539 1
1107 539 1
207 540 1
216 540 1
229 540 1
243 540 1
413 540 1
432 540 1
1081 540 1
1107 540 1
190 541 1
213 541 1
244 541 1
257 541 1
433 541 1
441 541 1
1108 541 1
1109 541 1
191 542 1
214 542 1
245 542 1
258 542 1
434 542 1
442 542 1
1109 542 1
1110 542 1
192 543 1
215 543 1
246 543 1
259 543 1
435 543 1
443 543 1
1110 543 1
1111 543 1
193 544 1
216 544 1
247 544 1
260 544 1
436 544 1
444 544 1
1111 544 1
1112 544 1
190 545 1
194 545 1
248 545 1
261 545 1
437 545 1
445 545 1
1112 545 1
1113 545 1
191 546 1
195 546 1
249 546 1
262 546 1
438 546 1
446 546 1
1113 546 1
1114 546 1
192 547 1
196 547 1
250 547 1
263 547 1
439 547 1
447 547 1
1114 547 1
1115 547 1
193 548 1
197 548 1
251 548 1
264 548 1
440 548 1
448 548 1
1115 548 1
1116 548 1
194 549 1
198 549 1
252 549 1
265 549 1
441 549 1
449 549 1
1116 549 1
1117 549 1
195 550 1
199 550 1
253 550 1
266 550 1
442 550 1
450 550 1
1117 550 1
1118 550 1
196 551 1
200 551 1
254 551 1
267 551 1
443 551 1
451 551 1
1118 551 1
1119 551 1
197 552 1
201 552 1
255 552 1
268 552 1
444 552 1
452 552 1
1119 552 1
1120 552 1
198 553 1
202 553 1
256 553 1
269 553 1
445 553 1
453 553 1
1120 553 1
1121 553 1
199 554 1
203 554 1
257 554 1
270 554 1
446 554 1
454 554 1
1121 554 1
1122 554 1
200 555 1
204 555 1
244 555 1
258 555 1
447 555 1
455 555 1
1122 555 1
1123 555 1
201 556 1
205 556 1
245 556 1
259 556 1
448 556 1
456 556 1
1123 556 1
1124 556 1
202 557 1
206 557 1
246 557 1
260 557 1
449 557 1
457 557 1
1124 557 1
1125 557 1
203 558 1
207 558 1
247 558 1
261 558 1
450 558 1
458 558 1
1125 558 1
1126 558 1
204 559 1
208 559 1
248 559 1
262 559 1
451 559 1
459 559 1
1126 559 1
1127 559 1
205 560 1
209 560 1
249 560 1
263 560 1
433 560 1
452 560 1
1127 560 1
1128 560 1
206 561 1
210 561 1
250 561 1
264 561 1
434 561 1
453 561 1
1128 561 1
1129 561 1
207 562 1
211 562 1
251 562 1
265 562 1
435 562 1
454 562 1
1129 562 1
1130 562 1
208 563 1
212 563 1
252 563 1
266 563 1
436 563 1
455 563 1
1130 563 1
1131 563 1
209 564 1
213 564 1
253 564 1
267 564 1
437 564 1
456 564 1
1131 564 1
1132 564 1
210 565 1
214 565 1
254 565 1
268 565 1
438 565 1
457 565 1
1132 565 1
1133 565 1
211 566 1
215 566 1
255 566 1
269 566 1
439 566 1
458 566 1
1133 566 1
1134 566 1
212 567 1
216 567 1
256 567 1
270 567 1
440 567 1
459 567 1
1108 567 1
1134 567 1
190 568 1
214 568 1
271 568 1
284 568 1
460 568 1
468 568 1
1135 568 1
1136 568 1
191 569 1
215 569 1
272 569 1
285 569 1
461 569 1
469 569 1
1136 569 1
1137 569 1
192 570 1
216 570 1
273 570 1
286 570 1
462 570 1
470 570 1
1137 570 1
1138 570 1
190 571 1
193 571 1
274 571 1
287 571 1
463 571 1
471 571 1
1138 571 1
1139 571 1
191 572 1
194 572 1
275 572 1
288 572 1
464 572 1
472 572 1
1139 572 1
1140 572 1
192 573 1
195 573 1
276 573 1
289 573 1
465 573 1
473 573 1
1140 573 1
1141 573 1
193 574 1
196 574 1
277 574 1
290 574 1
466 574 1
474 574 1
1141 574 1
1142 574 1
194 575 1
197 575 1
278 575 1
291 575 1
467 575 1
475 575 1
1142 575 1
1143 575 1
195 576 1
198 576 1
279 576 1
292 576 1
468 576 1
476 576 1
1143 576 1
1144 576 1
196 577 1
199 577 1
280 577 1
293 577 1
469 577 1
477 577 1
1144 577 1
1145 577 1
197 578 1
200 578 1
281 578 1
294 578 1
470 578 1
478 578 1
1145 578 1
1146 578 1
198 579 1
201 579 1
282 579 1
295 579 1
471 579 1
479 579 1
1146 579 1
1147 579 1
199 580 1
202 580 1
283 580 1
296 580 1
472 580 1
480 580 1
1147 580 1
1148 580 1
200 581 1
203 581 1
284 581 1
297 581 1
473 581 1
481 581 1
1148 581 1
1149 581 1
201 582 1
204 582 1
271 582 1
285 582 1
474 582 1
482 582 1
1149 582 1
1150 582 1
202 583 1
205 583 1
272 583 1
286 583 1
475 583 1
483 583 1
1150 583 1
1151 583 1
203 584 1
206 584 1
273 584 1
287 584 1
476 584 1
484 584 1
1151 584 1
1152 584 1
204 585 1
207 585 1
274 585 1
288 585 1
477 585 1
485 585 1
1152 585 1
1153 585 1
205 586 1
208 586 1
275 586 1
289 586 1
478 586 1
486 586 1
1153 586 1
1154 586 1
206 587 1
209 587 1
276 587 1
290 587 1
460 587 1
479 587 1
1154 587 1
1155 587 1
207 588 1
210 588 1
277 588 1
291 588 1
461 588 1
480 588 1
1155 588 1
1156 588 1
208 589 1
211 589 1
278 589 1
292 589 1
462 589 1
481 589 1
1156 589 1
1157 589 1
209 590 1
212 590 1
279 590 1
293 590 1
463 590 1
482 590 1
1157 590 1
1158 590 1
210 591 1
213 591 1
280 591 1
294 591 1
464 591 1
483 591 1
1158 591 1
1159 591 1
211 592 1
214 592 1
281 592 1
295 592 1
465 592 1
484 592 1
1159 592 1
1160 592 1
212 593 1
215 593 1
282 593 1
296 593 1
466 593 1
485 593 1
1160 593 1
1161 593 1
213 594 1
216 594 1
283 594 1
297 594 1
467 594 1
486 594 1
1135 594 1
1161 594 1
217 595 1
240 595 1
244 595 1
262 595 1
487 595 1
495 595 1
1162 595 1
1163 595 1
218 596 1
241 596 1
245 596 1
263 596 1
488 596 1
496 596 1
1163 596 1
1164 596 1
219 597 1
242 597 1
246 597 1
264 597 1
489 597 1
497 597 1
1164 597 1
1165 597 1
220 598 1
243 598 1
247 598 1
265 598 1
490 598 1
498 598 1
1165 598 1
1166 598 1
217 599 1
221 599 1
248 599 1
266 599 1
491 599 1
499 599 1
1166 599 1
1167 599 1
218 600 1
222 600 1
249 600 1
267 600 1
492 600 1
500 600 1
1167 600 1
1168 600 1
219 601 1
223 601 1
250 601 1
268 601 1
493 601 1
501 601 1
1168 601 1
1169 601 1
220 602 1
224 602 1
251 602 1
269 602 1
494 602 1
502 602 1
1169 602 1
1170 602 1
221 603 1
225 603 1
252 603 1
270 603 1
495 603 1
503 603 1
1170 603 1
1171 603 1
222 604 1
226 604 1
244 604 1
253 604 1
496 604 1
504 604 1
1171 604 1
1172 604 1
223 605 1
227 605 1
245 605 1
254 605 1
497 605 1
505 605 1
1172 605 1
1173 605 1
224 606 1
228 606 1
246 606 1
255 606 1
498 606 1
506 606 1
1173 606 1
1174 606 1
225 607 1
229 607 1
247 607 1
256 607 1
499 607 1
507 607 1
1174 607 1
1175 607 1
226 608 1
230 608 1
248 608 1
257 608 1
500 608 1
508 608 1
1175 608 1
1176 608 1
227 609 1
231 609 1
249 609 1
258 609 1
501 609 1
509 609 1
1176 609 1
1177 609 1
228 610 1
232 610 1
250 610 1
259 610 1
502 610 1
510 610 1
1177 610 1
1178 610 1
229 611 1
233 611 1
251 611 1
260 611 1
503 611 1
511 611 1
1178 611 1
1179 611 1
230 612 1
234 612 1
252 612 1
261 612 1
504 612 1
512 612 1
1179 612 1
1180 612 1
231 613 1
235 613 1
253 613 1
262 613 1
505 613 1
513 613 1
1180 613 1
1181 613 1
232 614 1
236 614 1
254 614 1
263 614 1
487 614 1
506 614 1
1181 614 1
1182 614 1
233 615 1
237 615 1
255 615 1
264 615 1
488 615 1
507 615 1
1182 615 1
1183 615 1
234 616 1
238 616 1
256 616 1
265 616 1
489 616 1
508 616 1
1183 616 1
1184 616 1
235 617 1
239 617 1
257 617 1
266 617 1
490 617 1
509 617 1
1184 617 1
1185 617 1
236 618 1
240 618 1
258 618 1
267 618 1
491 618 1
510 618 1
1185 618 1
1186 618 1
237 619 1
241 619 1
259 619 1
268 619 1
492 619 1
511 619 1
1186 619 1
1187 619 1
238 620 1
242 620 1
260 620 1
269 620 1
493 620 1
512 620 1
1187 620 1
1188 620 1
239 621 1
243 621 1
261 621 1
270 621 1
494 621 1
513 621 1
1162 621 1
1188 621 1
217 622 1
241 622 1
271 622 1
289 622 1
514 622 1
522 622 1
1189 622 1
1190 622 1
218 623 1
242 623 1
272 623 1
290 623 1
515 623 1
523 623 1
1190 623 1
1191 623 1
219 624 1
243 624 1
273 624 1
291 624 1
516 624 1
524 624 1
1191 624 1
1192 624 1
217 625 1
220 625 1
274 625 1
292 625 1
517 625 1
525 625 1
1192 625 1
1193 625 1
218 626 1
221 626 1
275 626 1
293 626 1
518 626 1
526 626 1
1193 626 1
1194 626 1
219 627 1
222 627 1
276 627 1
294 627 1
519 627 1
527 627 1
1194 627 1
1195 627 1
220 628 1
223 628 1
277 628 1
295 628 1
520 628 1
528 628 1
1195 628 1
1196 628 1
221 629 1
224 629 1
278 629 1
296 629 1
521 629 1
529 629 1
1196 629 1
1197 629 1
222 630 1
225 630 1
279 630 1
297 630 1
522 630 1
530 630 1
1197 630 1
1198 630 1
223 631 1
226 631 1
271 631 1
280 631 1
523 631 1
531 631 1
1198 631 1
1199 631 1
224 632 1
227 632 1
272 632 1
281 632 1
524 632 1
532 632 1
1199 632 1
1200 632 1
225 633 1
228 633 1
273 633 1
282 633 1
525 633 1
533 633 1
1200 633 1
1201 633 1
226 634 1
229 634 1
274 634 1
283 634 1
526 634 1
534 634 1
1201 634 1
1202 634 1
227 635 1
230 635 1
275 635 1
284 635 1
527 635 1
535 635 1
1202 635 1
1203 635 1
228 636 1
231 636 1
276 636 1
285 636 1
528 636 1
536 636 1
1203 636 1
1204 636 1
229 637 1
232 637 1
277 637 1
286 637 1
529 637 1
537 637 1
1204 637 1
1205 637 1
230 638 1
233 638 1
278 638 1
287 638 1
530 638 1
538 638 1
1205 638 1
1206 638 1
231 639 1
234 639 1
279 639 1
288 639 1
531 639 1
539 639 1
1206 639 1
1207 639 1
232 640 1
235 640 1
280 640 1
289 640 1
532 640 1
540 640 1
1207 640 1
1208 640 1
233 641 1
236 641 1
281 641 1
290 641 1
514 641 1
533 641 1
1208 641 1
1209 641 1
234 642 1
237 642 1
282 642 1
291 642 1
515 642 1
534 642 1
1209 642 1
1210 642 1
235 643 1
238 643 1
283 643 1
292 643 1
516 643 1
535 643 1
1210 643 1
1211 643 1
236 644 1
239 644 1
284 644 1
293 644 1
517 644 1
536 644 1
1211 644 1
1212 644 1
237 645 1
240 645 1
285 645 1
294 645 1
518 645 1
537 645 1
1212 645 1
1213 645 1
238 646 1
241 646 1
286 646 1
295 646 1
519 646 1
538 646 1
1213 646 1
1214 646 1
239 647 1
242 647 1
287 647 1
296 647 1
520 647 1
539 647 1
1214 647 1
1215 647 1
240 648 1
243 648 1
288 648 1
297 648 1
521 648 1
540 648 1
1189 648 1
1215 648 1
244 649 1
268 649 1
271 649 1
294 649 1
541 649 1
549 649 1
1216 649 1
1217 649 1
245 650 1
269 650 1
272 650 1
295 650 1
542 650 1
550 650 1
1217 650 1
1218 650 1
246 651 1
270 651 1
273 651 1
296 651 1
543 651 1
551 651 1
1218 651 1
1219 651 1
244 652 1
247 652 1
274 652 1
297 652 1
544 652 1
552 652 1
1219 652 1
1220 652 1
245 653 1
248 653 1
271 653 1
275 653 1
545 653 1
553 653 1
1220 653 1
1221 653 1
246 654 1
249 654 1
272 654 1
276 654 1
546 654 1
554 654 1
1221 654 1
1222 654 1
247 655 1
250 655 1
273 655 1
277 655 1
547 655 1
555 655 1
1222 655 1
1223 655 1
248 656 1
251 656 1
274 656 1
278 656 1
548 656 1
556 656 1
1223 656 1
1224 656 1
249 657 1
252 657 1
275 657 1
279 657 1
549 657 1
557 657 1
1224 657 1
1225 657 1
250 658 1
253 658 1
276 658 1
280 658 1
550 658 1
558 658 1
1225 658 1
1226 658 1
251 659 1
254 659 1
277 659 1
281 659 1
551 659 1
559 659 1
1226 659 1
1227 659 1
252 660 1
255 660 1
278 660 1
282 660 1
552 660 1
560 660 1
1227 660 1
1228 660 1
253 661 1
256 661 1
279 661 1
283 661 1
553 661 1
561 661 1
1228 661 1
1229 661 1
254 662 1
257 662 1
280 662 1
284 662 1
554 662 1
562 662 1
1229 662 1
1230 662 1
255 663 1
258 663 1
281 663 1
285 663 1
555 663 1
563 663 1
1230 663 1
1231 663 1
256 664 1
259 664 1
282 664 1
286 664 1
556 664 1
564 664 1
1231 664 1
1232 664 1
257 665 1
260 665 1
283 665 1
287 665 1
557 665 1
565 665 1
1232 665 1
1233 665 1
258 666 1
261 666 1
284 666 1
288 666 1
558 666 1
566 666 1
1233 666 1
1234 666 1
259 667 1
262 667 1
285 667 1
289 667 1
559 667 1
567 667 1
1234 667 1
1235 667 1
260 668 1
263 668 1
286 668 1
290 668 1
541 668 1
560 668 1
1235 668 1
1236 668 1
261 669 1
264 669 1
287 669 1
291 669 1
542 669 1
561 669 1
1236 669 1
1237 669 1
262 670 1
265 670 1
288 670 1
292 670 1
543 670 1
562 670 1
1237 670 1
1238 670 1
263 671 1
266 671 1
289 671 1
293 671 1
544 671 1
563 671 1
1238 671 1
1239 671 1
264 672 1
267 672 1
290 672 1
294 672 1
545 672 1
564 672 1
1239 672 1
1240 672 1
265 673 1
268 673 1
291 673 1
295 673 1
546 673 1
565 673 1
1240 673 1
1241 673 1
266 674 1
269 674 1
292 674 1
296 674 1
547 674 1
566 674 1
1241 674 1
1242 674 1
267 675 1
270 675 1
293 675 1
297 675 1
548 675 1
567 675 1
1216 675 1
1242 675 1
298 676 1
316 676 1
325 676 1
338 676 1
406 676 1
417 676 1
1243 676 1
1244 676 1
299 677 1
317 677 1
326 677 1
339 677 1
407 677 1
418 677 1
1244 677 1
1245 677 1
300 678 1
318 678 1
327 678 1
340 678 1
408 678 1
419 678 1
1245 678 1
1246 678 1
301 679 1
319 679 1
328 679 1
341 679 1
409 679 1
420 679 1
1246 679 1
1247 679 1
302 680 1
320 680 1
329 680 1
342 680 1
410 680 1
421 680 1
1247 680 1
1248 680 1
303 681 1
321 681 1
330 681 1
343 681 1
411 681 1
422 681 1
1248 681 1
1249 681 1
304 682 1
322 682 1
331 682 1
344 682 1
412 682 1
423 682 1
1249 682 1
1250 682 1
305 683 1
323 683 1
332 683 1
345 683 1
413 683 1
424 683 1
1250 683 1
1251 683 1
306 684 1
324 684 1
333 684 1
346 684 1
414 684 1
425 684 1
1251 684 1
1252 684 1
298 685 1
307 685 1
334 685 1
347 685 1
415 685 1
426 685 1
1252 685 1
1253 685 1
299 686 1
308 686 1
335 686 1
348 686 1
416 686 1
427 686 1
1253 686 1
1254 686 1
300 687 1
309 687 1
336 687 1
349 687 1
417 687 1
428 687 1
1254 687 1
1255 687 1
301 688 1
310 688 1
337 688 1
350 688 1
418 688 1
429 688 1
1255 688 1
1256 688 1
302 689 1
311 689 1
338 689 1
351 689 1
419 689 1
430 689 1
1256 689 1
1257 689 1
303 690 1
312 690 1
325 690 1
339 690 1
420 690 1
431 690 1
1257 690 1
1258 690 1
304 691 1
313 691 1
326 691 1
340 691 1
421 691 1
432 691 1
1258 691 1
1259 691 1
305 692 1
314 692 1
327 692 1
341 692 1
406 692 1
422 692 1
1259 692 1
1260 692 1
306 693 1
315 693 1
328 693 1
342 693 1
407 693 1
423 693 1
1260 693 1
1261 693 1
307 694 1
316 694 1
329 694 1
343 694 1
408 694 1
424 694 1
1261 694 1
1262 694 1
308 695 1
317 695 1
330 695 1
344 695 1
409 695 1
425 695 1
1262 695 1
1263 695 1
309 696 1
318 696 1
331 696 1
345 696 1
410 696 1
426 696 1
1263 696 1
1264 696 1
310 697 1
319 697 1
332 697 1
346 697 1
411 697 1
427 697 1
1264 697 1
1265 697 1
311 698 1
320 698 1
333 698 1
347 698 1
412 698 1
428 698 1
1265 698 1
1266 698 1
312 699 1
321 699 1
334 699 1
348 699 1
413 699 1
429 699 1
1266 699 1
1267 699 1
313 700 1
322 700 1
335 700 1
349 700 1
414 700 1
430 700 1
1267 700 1
1268 700 1
314 701 1
323 701 1
336 701 1
350 701 1
415 701 1
431 701 1
1268 701 1
1269 701 1
315 702 1
324 702 1
337 702 1
351 702 1
416 702 1
432 702 1
1243 702 1
1269 702 1
298 703 1
321 703 1
352 703 1
365 703 1
433 703 1
444 703 1
1270 703 1
1271 703 1
299 704 1
322 704 1
353 704 1
366 704 1
434 704 1
445 704 1
1271 704 1
1272 704 1
300 705 1
323 705 1
354 705 1
367 705 1
435 705 1
446 705 1
1272 705 1
1273 705 1
301 706 1
324 706 1
355 706 1
368 706 1
436 706 1
447 706 1
1273 706 1
1274 706 1
298 707 1
302 707 1
356 707 1
369 707 1
437 707 1
448 707 1
1274 707 1
1275 707 1
299 708 1
303 708 1
357 708 1
370 708 1
438 708 1
449 708 1
1275 708 1
1276 708 1
300 709 1
304 709 1
358 709 1
371 709 1
439 709 1
450 709 1
1276 709 1
1277 709 1
301 710 1
305 710 1
359 710 1
372 710 1
440 710 1
451 710 1
1277 710 1
1278 710 1
302 711 1
306 711 1
360 711 1
373 711 1
441 711 1
452 711 1
1278 711 1
1279 711 1
303 712 1
307 712 1
361 712 1
374 712 1
442 712 1
453 712 1
1279 712 1
1280 712 1
304 713 1
308 713 1
362 713 1
375 713 1
443 713 1
454 713 1
1280 713 1
1281 713 1
305 714 1
309 714 1
363 714 1
376 714 1
444 714 1
455 714 1
1281 714 1
1282 714 1
306 715 1
310 715 1
364 715 1
377 715 1
445 715 1
456 715 1
1282 715 1
1283 715 1
307 716 1
311 716 1
365 716 1
378 716 1
446 716 1
457 716 1
1283 716 1
1284 716 1
308 717 1
312 717 1
352 717 1
366 717 1
447 717 1
458 717 1
1284 717 1
1285 717 1
309 718 1
313 718 1
353 718 1
367 718 1
448 718 1
459 718 1
1285 718 1
1286 718 1
310 719 1
314 719 1
354 719 1
368 719 1
433 719 1
449 719 1
1286 719 1
1287 719 1
311 720 1
315 720 1
355 720 1
369 720 1
434 720 1
450 720 1
1287 720 1
1288 720 1
312 721 1
316 721 1
356 721 1
370 721 1
435 721 1
451 721 1
1288 721 1
1289 721 1
313 722 1
317 722 1
357 722 1
371 722 1
436 722 1
452 722 1
1289 722 1
1290 722 1
314 723 1
318 723 1
358 723 1
372 723 1
437 723 1
453 723 1
1290 723 1
1291 723 1
315 724 1
319 724 1
359 724 1
373 724 1
438 724 1
454 724 1
1291 724 1
1292 724 1
316 725 1
320 725 1
360 725 1
374 725 1
439 725 1
455 725 1
1292 725 1
1293 725 1
317 726 1
321 726 1
361 726 1
375 726 1
440 726 1
456 726 1
1293 726 1
1294 726 1
318 727 1
322 727 1
362 727 1
376 727 1
441 727 1
457 727 1
1294 727 1
1295 727 1
319 728 1
323 728 1
363 728 1
377 728 1
442 728 1
458 728 1
1295 728 1
1296 728 1
320 729 1
324 729 1
364 729 1
378 729 1
443 729 1
459 729 1
1270 729 1
1296 729 1
298 730 1
322 730 1
379 730 1
392 730 1
460 730 1
471 730 1
1297 730 1
1298 730 1
299 731 1
323 731 1
380 731 1
393 731 1
461 731 1
472 731 1
1298 731 1
1299 731 1
300 732 1
324 732 1
381 732 1
394 732 1
462 732 1
473 732 1
1299 732 1
1300 732 1
298 733 1
301 733 1
382 733 1
395 733 1
463 733 1
474 733 1
1300 733 1
1301 733 1
299 734 1
302 734 1
383 734 1
396 734 1
464 734 1
475 734 1
1301 734 1
1302 734 1
300 735 1
303 735 1
384 735 1
397 735 1
465 735 1
476 735 1
1302 735 1
1303 735 1
301 736 1
304 736 1
385 736 1
398 736 1
466 736 1
477 736 1
1303 736 1
1304 736 1
302 737 1
305 737 1
386 737 1
399 737 1
467 737 1
478 737 1
1304 737 1
1305 737 1
303 738 1
306 738 1
387 738 1
400 738 1
468 738 1
479 738 1
1305 738 1
1306 738 1
304 739 1
307 739 1
388 739 1
401 739 1
469 739 1
480 739 1
1306 739 1
1307 739 1
305 740 1
308 740 1
389 740 1
402 740 1
470 740 1
481 740 1
1307 740 1
1308 740 1
306 741 1
309 741 1
390 741 1
403 741 1
471 741 1
482 741 1
1308 741 1
1309 741 1
307 742 1
310 742 1
391 742 1
404 742 1
472 742 1
483 742 1
1309 742 1
1310 742 1
308 743 1
311 743 1
392 743 1
405 743 1
473 743 1
484 743 1
1310 743 1
1311 743 1
309 744 1
312 744 1
379 744 1
393 744 1
474 744 1
485 744 1
1311 744 1
1312 744 1
310 745 1
313 745 1
380 745 1
394 745 1
475 745 1
486 745 1
1312 745 1
1313 745 1
311 746 1
314 746 1
381 746 1
395 746 1
460 746 1
476 746 1
1313 746 1
1314 746 1
312 747 1
315 747 1
382 747 1
396 747 1
461 747 1
477 747 1
1314 747 1
1315 747 1
313 748 1
316 748 1
383 748 1
397 748 1
462 748 1
478 748 1
1315 748 1
1316 748 1
314 749 1
317 749 1
384 749 1
398 749 1
463 749 1
479 749 1
1316 749 1
1317 749 1
315 750 1
318 750 1
385 750 1
399 750 1
464 750 1
480 750 1
1317 750 1
1318 750 1
316 751 1
319 751 1
386 751 1
400 751 1
465 751 1
481 751 1
1318 751 1
1319 751 1
317 752 1
320 752 1
387 752 1
401 752 1
466 752 1
482 752 1
1319 752 1
1320 752 1
318 753 1
321 753 1
388 753 1
402 753 1
467 753 1
483 753 1
1320 753 1
1321 753 1
319 754 1
322 754 1
389 754 1
403 754 1
468 754 1
484 754 1
1321 754 1
1322 754 1
320 755 1
323 755 1
390 755 1
404 755 1
469 755 1
485 755 1
1322 755 1
1323 755 1
321 756 1
324 756 1
391 756 1
405 756 1
470 756 1
486 756 1
1297 756 1
1323 756 1
325 757 1
348 757 1
352 757 1
370 757 1
487 757 1
498 757 1
1324 757 1
1325 757 1
326 758 1
349 758 1
353 758 1
371 758 1
488 758 1
499 758 1
1325 758 1
1326 758 1
327 759 1
350 759 1
354 759 1
372 759 1
489 759 1
500 759 1
1326 759 1
1327 759 1
328 760 1
351 760 1
355 760 1
373 760 1
490 760 1
501 760 1
1327 760 1
1328 760 1
325 761 1
329 761 1
356 761 1
374 761 1
491 761 1
502 761 1
1328 761 1
1329 761 1
326 762 1
330 762 1
357 762 1
375 762 1
492 762 1
503 762 1
1329 762 1
1330 762 1
327 763 1
331 763 1
358 763 1
376 763 1
493 763 1
504 763 1
1330 763 1
1331 763 1
328 764 1
332 764 1
359 764 1
377 764 1
494 764 1
505 764 1
1331 764 1
1332 764 1
329 765 1
333 765 1
360 765 1
378 765 1
495 765 1
506 765 1
1332 765 1
1333 765 1
330 766 1
334 766 1
352 766 1
361 766 1
496 766 1
507 766 1
1333 766 1
1334 766 1
331 767 1
335 767 1
353 767 1
362 767 1
497 767 1
508 767 1
1334 767 1
1335 767 1
332 768 1
336 768 1
354 768 1
363 768 1
498 768 1
509 768 1
1335 768 1
1336 768 1
333 769 1
337 769 1
355 769 1
364 769 1
499 769 1
510 769 1
1336 769 1
1337 769 1
334 770 1
338 770 1
356 770 1
365 770 1
500 770 1
511 770 1
1337 770 1
1338 770 1
335 771 1
339 771 1
357 771 1
366 771 1
501 771 1
512 771 1
1338 771 1
1339 771 1
336 772 1
340 772 1
358 772 1
367 772 1
502 772 1
513 772 1
1339 772 1
1340 772 1
337 773 1
341 773 1
359 773 1
368 773 1
487 773 1
503 773 1
1340 773 1
1341 773 1
338 774 1
342 774 1
360 774 1
369 774 1
488 774 1
504 774 1
1341 774 1
1342 774 1
339 775 1
343 775 1
361 775 1
370 775 1
489 775 1
505 775 1
1342 775 1
1343 775 1
340 776 1
344 776 1
362 776 1
371 776 1
490 776 1
506 776 1
1343 776 1
1344 776 1
341 777 1
345 777 1
363 777 1
372 777 1
491 777 1
507 777 1
1344 777 1
1345 777 1
342 778 1
346 778 1
364 778 1
373 778 1
492 778 1
508 778 1
1345 778 1
1346 778 1
343 779 1
347 779 1
365 779 1
374 779 1
493 779 1
509 779 1
1346 779 1
1347 779 1
344 780 1
348 780 1
366 780 1
375 780 1
494 780 1
510 780 1
1347 780 1
1348 780 1
345 781 1
349 781 1
367 781 1
376 781 1
495 781 1
511 781 1
1348 781 1
1349 781 1
346 782 1
350 782 1
368 782 1
377 782 1
496 782 1
512 782 1
1349 782 1
1350 782 1
347 783 1
351 783 1
369 783 1
378 783 1
497 783 1
513 783 1
1324 783 1
1350 783 1
325 784 1
349 784 1
379 784 1
397 784 1
514 784 1
525 784 1
1351 784 1
1352 784 1
326 785 1
350 785 1
380 785 1
398 785 1
515 785 1
526 785 1
1352 785 1
1353 785 1
327 786 1
351 786 1
381 786 1
399 786 1
516 786 1
527 786 1
1353 786 1
1354 786 1
325 787 1
328 787 1
382 787 1
400 787 1
517 787 1
528 787 1
1354 787 1
1355 787 1
326 788 1
329 788 1
383 788 1
401 788 1
518 788 1
529 788 1
1355 788 1
1356 788 1
327 789 1
330 789 1
384 789 1
402 789 1
519 789 1
530 789 1
1356 789 1
1357 789 1
328 790 1
331 790 1
385 790 1
403 790 1
520 790 1
531 790 1
1357 790 1
1358 790 1
329 791 1
332 791 1
386 791 1
404 791 1
521 791 1
532 791 1
1358 791 1
1359 791 1
330 792 1
333 792 1
387 792 1
405 792 1
522 792 1
533 792 1
1359 792 1
1360 792 1
331 793 1
334 793 1
379 793 1
388 793 1
523 793 1
534 793 1
1360 793 1
1361 793 1
332 794 1
335 794 1
380 794 1
389 794 1
524 794 1
535 794 1
1361 794 1
1362 794 1
333 795 1
336 795 1
381 795 1
390 795 1
525 795 1
536 795 1
1362 795 1
1363 795 1
334 796 1
337 796 1
382 796 1
391 796 1
526 796 1
537 796 1
1363 796 1
1364 796 1
335 797 1
338 797 1
383 797 1
392 797 1
527 797 1
538 797 1
1364 797 1
1365 797 1
336 798 1
339 798 1
384 798 1
393 798 1
528 798 1
539 798 1
1365 798 1
1366 798 1
337 799 1
340 799 1
385 799 1
394 799 1
529 799 1
540 799 1
1366 799 1
1367 799 1
338 800 1
341 800 1
386 800 1
395 800 1
514 800 1
530 800 1
1367 800 1
1368 800 1
339 801 1
342 801 1
387 801 1
396 801 1
515 801 1
531 801 1
1368 801 1
1369 801 1
340 802 1
343 802 1
388 802 1
397 802 1
516 802 1
532 802 1
1369 802 1
1370 802 1
341 803 1
344 803 1
389 803 1
398 803 1
517 803 1
533 803 1
1370 803 1
1371 803 1
342 804 1
345 804 1
390 804 1
399 804 1
518 804 1
534 804 1
1371 804 1
1372 804 1
343 805 1
346 805 1
391 805 1
400 805 1
519 805 1
535 805 1
1372 805 1
1373 805 1
344 806 1
347 806 1
392 806 1
401 806 1
520 806 1
536 806 1
1373 806 1
1374 806 1
345 807 1
348 807 1
393 807 1
402 807 1
521 807 1
537 807 1
1374 807 1
1375 807 1
346 808 1
349 808 1
394 808 1
403 808 1
522 808 1
538 808 1
1375 808 1
1376 808 1
347 809 1
350 809 1
395 809 1
404 809 1
523 809 1
539 809 1
1376 809 1
1377 809 1
348 810 1
351 810 1
396 810 1
405 810 1
524 810 1
540 810 1
1351 810 1
1377 810 1
352 811 1
376 811 1
379 811 1
402 811 1
541 811 1
552 811 1
1378 811 1
1379 811 1
353 812 1
377 812 1
380 812 1
403 812 1
542 812 1
553 812 1
1379 812 1
1380 812 1
354 813 1
378 813 1
381 813 1
404 813 1
543 813 1
554 813 1
1380 813 1
1381 813 1
352 814 1
355 814 1
382 814 1
405 814 1
544 814 1
555 814 1
1381 814 1
1382 814 1
353 815 1
356 815 1
379 815 1
383 815 1
545 815 1
556 815 1
1382 815 1
1383 815 1
354 816 1
357 816 1
380 816 1
384 816 1
546 816 1
557 816 1
1383 816 1
1384 816 1
355 817 1
358 817 1
381 817 1
385 817 1
547 817 1
558 817 1
1384 817 1
1385 817 1
356 818 1
359 818 1
382 818 1
386 818 1
548 818 1
559 818 1
1385 818 1
1386 818 1
357 819 1
360 819 1
383 819 1
387 819 1
549 819 1
560 819 1
1386 819 1
1387 819 1
358 820 1
361 820 1
384 820 1
388 820 1
550 820 1
561 820 1
1387 820 1
1388 820 1
359 821 1
362 821 1
385 821 1
389 821 1
551 821 1
562 821 1
1388 821 1
1389 821 1
360 822 1
363 822 1
386 822 1
390 822 1
552 822 1
563 822 1
1389 822 1
1390 822 1
361 823 1
364 823 1
387 823 1
391 823 1
553 823 1
564 823 1
1390 823 1
1391 823 1
362 824 1
365 824 1
388 824 1
392 824 1
554 824 1
565 824 1
1391 824 1
1392 824 1
363 825 1
366 825 1
389 825 1
393 825 1
555 825 1
566 825 1
1392 825 1
1393 825 1
364 826 1
367 826 1
390 826 1
394 826 1
556 826 1
567 826 1
1393 826 1
1394 826 1
365 827 1
368 827 1
391 827 1
395 827 1
541 827 1
557 827 1
1394 827 1
1395 827 1
366 828 1
369 828 1
392 828 1
396 828 1
542 828 1
558 828 1
1395 828 1
1396 828 1
367 829 1
370 829 1
393 829 1
397 829 1
543 829 1
559 829 1
1396 829 1
1397 829 1
368 830 1
371 830 1
394 830 1
398 830 1
544 830 1
560 830 1
1397 830 1
1398 830 1
369 831 1
372 831 1
395 831 1
399 831 1
545 831 1
561 831 1
1398 831 1
1399 831 1
370 832 1
373 832 1
396 832 1
400 832 1
546 832 1
562 832 1
1399 832 1
1400 832 1
371 833 1
374 833 1
397 833 1
401 833 1
547 833 1
563 833 1
1400 833 1
1401 833 1
372 834 1
375 834 1
398 834 1
402 834 1
548 834 1
564 834 1
1401 834 1
1402 834 1
373 835 1
376 835 1
399 835 1
403 835 1
549 835 1
565 835 1
1402 835 1
1403 835 1
374 836 1
377 836 1
400 836 1
404 836 1
550 836 1
566 836 1
1403 836 1
1404 836 1
375 837 1
378 837 1
401 837 1
405 837 1
551 837 1
567 837 1
1378 837 1
1404 837 1
406 838 1
429 838 1
433 838 1
451 838 1
487 838 1
500 838 1
1405 838 1
1406 838 1
407 839 1
430 839 1
434 839 1
452 839 1
488 839 1
501 839 1
1406 839 1
1407 839 1
408 840 1
431 840 1
435 840 1
453 840 1
489 840 1
502 840 1
1407 840 1
1408 840 1
409 841 1
432 841 1
436 841 1
454 841 1
490 841 1
503 841 1
1408 841 1
1409 841 1
406 842 1
410 842 1
437 842 1
455 842 1
491 842 1
504 842 1
1409 842 1
1410 842 1
407 843 1
411 843 1
438 843 1
456 843 1
492 843 1
505 843 1
1410 843 1
1411 843 1
408 844 1
412 844 1
439 844 1
457 844 1
493 844 1
506 844 1
1411 844 1
1412 844 1
409 845 1
413 845 1
440 845 1
458 845 1
494 845 1
507 845 1
1412 845 1
1413 845 1
410 846 1
414 846 1
441 846 1
459 846 1
495 846 1
508 846 1
1413 846 1
1414 846 1
411 847 1
415 847 1
433 847 1
442 847 1
496 847 1
509 847 1
1414 847 1
1415 847 1
412 848 1
416 848 1
434 848 1
443 848 1
497 848 1
510 848 1
1415 848 1
1416 848 1
413 849 1
417 849 1
435 849 1
444 849 1
498 849 1
511 849 1
1416 849 1
1417 849 1
414 850 1
418 850 1
436 850 1
445 850 1
499 850 1
512 850 1
1417 850 1
1418 850 1
415 851 1
419 851 1
437 851 1
446 851 1
500 851 1
513 851 1
1418 851 1
1419 851 1
416 852 1
420 852 1
438 852 1
447 852 1
487 852 1
501 852 1
1419 852 1
1420 852 1
417 853 1
421 853 1
439 853 1
448 853 1
488 853 1
502 853 1
1420 853 1
1421 853 1
418 854 1
422 854 1
440 854 1
449 854 1
489 854 1
503 854 1
1421 854 1
1422 854 1
419 855 1
423 855 1
441 855 1
450 855 1
490 855 1
504 855 1
1422 855 1
1423 855 1
420 856 1
424 856 1
442 856 1
451 856 1
491 856 1
505 856 1
1423 856 1
1424 856 1
421 857 1
425 857 1
443 857 1
452 857 1
492 857 1
506 857 1
1424 857 1
1425 857 1
422 858 1
426 858 1
444 858 1
453 858 1
493 858 1
507 858 1
1425 858 1
1426 858 1
423 859 1
427 859 1
445 859 1
454 859 1
494 859 1
508 859 1
1426 859 1
1427 859 1
424 860 1
428 860 1
446 860 1
455 860 1
495 860 1
509 860 1
1427 860 1
1428 860 1
425 861 1
429 861 1
447 861 1
456 861 1
496 861 1
510 861 1
1428 861 1
1429 861 1
426 862 1
430 862 1
448 862 1
457 862 1
497 862 1
511 862 1
1429 862 1
1430 862 1
427 863 1
431 863 1
449 863 1
458 863 1
498 863 1
512 863 1
1430 863 1
1431 863 1
428 864 1
432 864 1
450 864 1
459 864 1
499 864 1
513 864 1
1405 864 1
1431 864 1
406 865 1
430 865 1
460 865 1
478 865 1
514 865 1
527 865 1
1432 865 1
1433 865 1
407 866 1
431 866 1
461 866 1
479 866 1
515 866 1
528 866 1
1433 866 1
1434 866 1
408 867 1
432 867 1
462 867 1
480 867 1
516 867 1
529 867 1
1434 867 1
1435 867 1
406 868 1
409 868 1
463 868 1
481 868 1
517 868 1
530 868 1
1435 868 1
1436 868 1
407 869 1
410 869 1
464 869 1
482 869 1
518 869 1
531 869 1
1436 869 1
1437 869 1
408 870 1
411 870 1
465 870 1
483 870 1
519 870 1
532 870 1
1437 870 1
1438 870 1
409 871 1
412 871 1
466 871 1
484 871 1
520 871 1
533 871 1
1438 871 1
1439 871 1
410 872 1
413 872 1
467 872 1
485 872 1
521 872 1
534 872 1
1439 872 1
1440 872 1
411 873 1
414 873 1
468 873 1
486 873 1
522 873 1
535 873 1
1440 873 1
1441 873 1
412 874 1
415 874 1
460 874 1
469 874 1
523 874 1
536 874 1
1441 874 1
1442 874 1
413 875 1
416 875 1
461 875 1
470 875 1
524 875 1
537 875 1
1442 875 1
1443 875 1
414 876 1
417 876 1
462 876 1
471 876 1
525 876 1
538 876 1
1443 876 1
1444 876 1
415 877 1
418 877 1
463 877 1
472 877 1
526 877 1
539 877 1
1444 877 1
1445 877 1
416 878 1
419 878 1
464 878 1
473 878 1
527 878 1
540 878 1
1445 878 1
1446 878 1
417 879 1
420 879 1
465 879 1
474 879 1
514 879 1
528 879 1
1446 879 1
1447 879 1
418 880 1
421 880 1
466 880 1
475 880 1
515 880 1
529 880 1
1447 880 1
1448 880 1
419 881 1
422 881 1
467 881 1
476 881 1
516 881 1
530 881 1
1448 881 1
1449 881 1
420 882 1
423 882 1
468 882 1
477 882 1
517 882 1
531 882 1
1449 882 1
1450 882 1
421 883 1
424 883 1
469 883 1
478 883 1
518 883 1
532 883 1
1450 883 1
1451 883 1
422 884 1
425 884 1
470 884 1
479 884 1
519 884 1
533 884 1
1451 884 1
1452 884 1
423 885 1
426 885 1
471 885 1
480 885 1
520 885 1
534 885 1
1452 885 1
1453 885 1
424 886 1
427 886 1
472 886 1
481 886 1
521 886 1
535 886 1
1453 886 1
1454 886 1
425 887 1
428 887 1
473 887 1
482 887 1
522 887 1
536 887 1
1454 887 1
1455 887 1
426 888 1
429 888 1
474 888 1
483 888 1
523 888 1
537 888 1
1455 888 1
1456 888 1
427 889 1
430 889 1
475 889 1
484 889 1
524 889 1
538 889 1
1456 889 1
1457 889 1
428 890 1
431 890 1
476 890 1
485 890 1
525 890 1
539 890 1
1457 890 1
1458 890 1
429 891 1
432 891 1
477 891 1
486 891 1
526 891 1
540 891 1
1432 891 1
1458 891 1
433 892 1
457 892 1
460 892 1
483 892 1
541 892 1
554 892 1
1459 892 1
1460 892 1
434 893 1
458 893 1
461 893 1
484 893 1
542 893 1
555 893 1
1460 893 1
1461 893 1
435 894 1
459 894 1
462 894 1
485 894 1
543 894 1
556 894 1
1461 894 1
1462 894 1
433 895 1
436 895 1
463 895 1
486 895 1
544 895 1
557 895 1
1462 895 1
1463 895 1
434 896 1
437 896 1
460 896 1
464 896 1
545 896 1
558 896 1
1463 896 1
1464 896 1
435 897 1
438 897 1
461 897 1
465 897 1
546 897 1
559 897 1
1464 897 1
1465 897 1
436 898 1
439 898 1
462 898 1
466 898 1
547 898 1
560 898 1
1465 898 1
1466 898 1
437 899 1
440 899 1
463 899 1
467 899 1
548 899 1
561 899 1
1466 899 1
1467 899 1
438 900 1
441 900 1
464 900 1
468 900 1
549 900 1
562 900 1
1467 900 1
1468 900 1
439 901 1
442 901 1
465 901 1
469 901 1
550 901 1
563 901 1
1468 901 1
1469 901 1
440 902 1
443 902 1
466 902 1
470 902 1
551 902 1
564 902 1
1469 902 1
1470 902 1
441 903 1
444 903 1
467 903 1
471 903 1
552 903 1
565 903 1
1470 903 1
1471 903 1
442 904 1
445 904 1
468 904 1
472 904 1
553 904 1
566 904 1
1471 904 1
1472 904 1
443 905 1
446 905 1
469 905 1
473 905 1
554 905 1
567 905 1
1472 905 1
1473 905 1
444 906 1
447 906 1
470 906 1
474 906 1
541 906 1
555 906 1
1473 906 1
1474 906 1
445 907 1
448 907 1
471 907 1
475 907 1
542 907 1
556 907 1
1474 907 1
1475 907 1
446 908 1
449 908 1
472 908 1
476 908 1
543 908 1
557 908 1
1475 908 1
1476 908 1
447 909 1
450 909 1
473 909 1
477 909 1
544 909 1
558 909 1
1476 909 1
1477 909 1
448 910 1
451 910 1
474 910 1
478 910 1
545 910 1
559 910 1
1477 910 1
1478 910 1
449 911 1
452 911 1
475 911 1
479 911 1
546 911 1
560 911 1
1478 911 1
1479 911 1
450 912 1
453 912 1
476 912 1
480 912 1
547 912 1
561 912 1
1479 912 1
1480 912 1
451 913 1
454 913 1
477 913 1
481 913 1
548 913 1
562 913 1
1480 913 1
1481 913 1
452 914 1
455 914 1
478 914 1
482 914 1
549 914 1
563 914 1
1481 914 1
1482 914 1
453 915 1
456 915 1
479 915 1
483 915 1
550 915 1
564 915 1
1482 915 1
1483 915 1
454 916 1
457 916 1
480 916 1
484 916 1
551 916 1
565 916 1
1483 916 1
1484 916 1
455 917 1
458 917 1
481 917 1
485 917 1
552 917 1
566 917 1
1484 917 1
1485 917 1
456 918 1
459 918 1
482 918 1
486 918 1
553 918 1
567 918 1
1459 918 1
1485 918 1
487 919 1
511 919 1
514 919 1
537 919 1
541 919 1
559 919 1
1486 919 1
1487 919 1
488 920 1
512 920 1
515 920 1
538 920 1
542 920 1
560 920 1
1487 920 1
1488 920 1
489 921 1
513 921 1
516 921 1
539 921 1
543 921 1
561 921 1
1488 921 1
1489 921 1
487 922 1
490 922 1
517 922 1
540 922 1
544 922 1
562 922 1
1489 922 1
1490 922 1
488 923 1
491 923 1
514 923 1
518 923 1
545 923 1
563 923 1
1490 923 1
1491 923 1
489 924 1
492 924 1
515 924 1
519 924 1
546 924 1
564 924 1
1491 924 1
1492 924 1
490 925 1
493 925 1
516 925 1
520 925 1
547 925 1
565 925 1
1492 925 1
1493 925 1
491 926 1
494 926 1
517 926 1
521 926 1
548 926 1
566 926 1
1493 926 1
1494 926 1
492 927 1
495 927 1
518 927 1
522 927 1
549 927 1
567 927 1
1494 927 1
1495 927 1
493 928 1
496 928 1
519 928 1
523 928 1
541 928 1
550 928 1
1495 928 1
1496 928 1
494 929 1
497 929 1
520 929 1
524 929 1
542 929 1
551 929 1
1496 929 1
1497 929 1
495 930 1
498 930 1
521 930 1
525 930 1
543 930 1
552 930 1
1497 930 1
1498 930 1
496 931 1
499 931 1
522 931 1
526 931 1
544 931 1
553 931 1
1498 931 1
1499 931 1
497 932 1
500 932 1
523 932 1
527 932 1
545 932 1
554 932 1
1499 932 1
1500 932 1
498 933 1
501 933 1
524 933 1
528 933 1
546 933 1
555 933 1
1500 933 1
1501 933 1
499 934 1
502 934 1
525 934 1
529 934 1
547 934 1
556 934 1
1501 934 1
1502 934 1
500 935 1
503 935 1
526 935 1
530 935 1
548 935 1
557 935 1
1502 935 1
1503 935 1
501 936 1
504 936 1
527 936 1
531 936 1
549 936 1
558 936 1
1503 936 1
1504 936 1
502 937 1
505 937 1
528 937 1
532 937 1
550 937 1
559 937 1
1504 937 1
1505 937 1
503 938 1
506 938 1
529 938 1
533 938 1
551 938 1
560 938 1
1505 938 1
1506 938 1
504 939 1
507 939 1
530 939 1
534 939 1
552 939 1
561 939 1
1506 939 1
1507 939 1
505 940 1
508 940 1
531 940 1
535 940 1
553 940 1
562 940 1
1507 940 1
1508 940 1
506 941 1
509 941 1
532 941 1
536 941 1
554 941 1
563 941 1
1508 941 1
1509 941 1
507 942 1
510 942 1
533 942 1
537 942 1
555 942 1
564 942 1
1509 942 1
1510 942 1
508 943 1
511 943 1
534 943 1
538 943 1
556 943 1
565 943 1
1510 943 1
1511 943 1
509 944 1
512 944 1
535 944 1
539 944 1
557 944 1
566 944 1
1511 944 1
1512 944 1
510 945 1
513 945 1
536 945 1
540 945 1
558 945 1
567 945 1
1486 945 1
1512 945 1
568 946 1
581 946 1
595 946 1
606 946 1
703 946 1
711 946 1
973 946 1
978 946 1
569 947 1
582 947 1
596 947 1
607 947 1
704 947 1
712 947 1
974 947 1
979 947 1
570 948 1
583 948 1
597 948 1
608 948 1
705 948 1
713 948 1
975 948 1
980 948 1
571 949 1
584 949 1
598 949 1
609 949 1
706 949 1
714 949 1
976 949 1
981 949 1
572 950 1
585 950 1
599 950 1
610 950 1
707 950 1
715 950 1
977 950 1
982 950 1
573 951 1
586 951 1
600 951 1
611 951 1
708 951 1
716 951 1
978 951 1
983 951 1
574 952 1
587 952 1
601 952 1
612 952 1
709 952 1
717 952 1
979 952 1
984 952 1
575 953 1
588 953 1
602 953 1
613 953 1
710 953 1
718 953 1
980 953 1
985 953 1
576 954 1
589 954 1
603 954 1
614 954 1
711 954 1
719 954 1
981 954 1
986 954 1
577 955 1
590 955 1
604 955 1
615 955 1
712 955 1
720 955 1
982 955 1
987 955 1
578 956 1
591 956 1
605 956 1
616 956 1
713 956 1
721 956 1
983 956 1
988 956 1
579 957 1
592 957 1
606 957 1
617 957 1
714 957 1
722 957 1
984 957 1
989 957 1
580 958 1
593 958 1
607 958 1
618 958 1
715 958 1
723 958 1
985 958 1
990 958 1
581 959 1
594 959 1
608 959 1
619 959 1
716 959 1
724 959 1
986 959 1
991 959 1
568 960 1
582 960 1
609 960 1
620 960 1
717 960 1
725 960 1
987 960 1
992 960 1
569 961 1
583 961 1
610 961 1
621 961 1
718 961 1
726 961 1
988 961 1
993 961 1
570 962 1
584 962 1
595 962 1
611 962 1
719 962 1
727 962 1
989 962 1
994 962 1
571 963 1
585 963 1
596 963 1
612 963 1
720 963 1
728 963 1
990 963 1
995 963 1
572 964 1
586 964 1
597 964 1
613 964 1
721 964 1
729 964 1
991 964 1
996 964 1
573 965 1
587 965 1
598 965 1
614 965 1
703 965 1
722 965 1
992 965 1
997 965 1
574 966 1
588 966 1
599 966 1
615 966 1
704 966 1
723 966 1
993 966 1
998 966 1
575 967 1
589 967 1
600 967 1
616 967 1
705 967 1
724 967 1
994 967 1
999 967 1
576 968 1
590 968 1
601 968 1
617 968 1
706 968 1
725 968 1
973 968 1
995 968 1
577 969 1
591 969 1
602 969 1
618 969 1
707 969 1
726 969 1
974 969 1
996 969 1
578 970 1
592 970 1
603 970 1
619 970 1
708 970 1
727 970 1
975 970 1
997 970 1
579 971 1
593 971 1
604 971 1
620 971 1
709 971 1
728 971 1
976 971 1
998 971 1
580 972 1
594 972 1
605 972 1
621 972 1
710 972 1
729 972 1
977 972 1
999 972 1
568 973 1
586 973 1
622 973 1
633 973 1
730 973 1
738 973 1
1000 973 1
1005 973 1
569 974 1
587 974 1
623 974 1
634 974 1
731 974 1
739 974 1
1001 974 1
1006 974 1
570 975 1
588 975 1
624 975 1
635 975 1
732 975 1
740 975 1
1002 975 1
1007 975 1
571 976 1
589 976 1
625 976 1
636 976 1
733 976 1
741 976 1
1003 976 1
1008 976 1
572 977 1
590 977 1
626 977 1
637 977 1
734 977 1
742 977 1
1004 977 1
1009 977 1
573 978 1
591 978 1
627 978 1
638 978 1
735 978 1
743 978 1
1005 978 1
1010 978 1
574 979 1
592 979 1
628 979 1
639 979 1
736 979 1
744 979 1
1006 979 1
1011 979 1
575 980 1
593 980 1
629 980 1
640 980 1
737 980 1
745 980 1
1007 980 1
1012 980 1
576 981 1
594 981 1
630 981 1
641 981 1
738 981 1
746 981 1
1008 981 1
1013 981 1
568 982 1
577 982 1
631 982 1
642 982 1
739 982 1
747 982 1
1009 982 1
1014 982 1
569 983 1
578 983 1
632 983 1
643 983 1
740 983 1
748 983 1
1010 983 1
1015 983 1
570 984 1
579 984 1
633 984 1
644 984 1
741 984 1
749 984 1
1011 984 1
1016 984 1
571 985 1
580 985 1
634 985 1
645 985 1
742 985 1
750 985 1
1012 985 1
1017 985 1
572 986 1
581 986 1
635 986 1
646 986 1
743 986 1
751 986 1
1013 986 1
1018 986 1
573 987 1
582 987 1
636 987 1
647 987 1
744 987 1
752 987 1
1014 987 1
1019 987 1
574 988 1
583 988 1
637 988 1
648 988 1
745 988 1
753 988 1
1015 988 1
1020 988 1
575 989 1
584 989 1
622 989 1
638 989 1
746 989 1
754 989 1
1016 989 1
1021 989 1
576 990 1
585 990 1
623 990 1
639 990 1
747 990 1
755 990 1
1017 990 1
1022 990 1
577 991 1
586 991 1
624 991 1
640 991 1
748 991 1
756 991 1
1018 991 1
1023 991 1
578 992 1
587 992 1
625 992 1
641 992 1
730 992 1
749 992 1
1019 992 1
1024 992 1
579 993 1
588 993 1
626 993 1
642 993 1
731 993 1
750 993 1
1020 993 1
1025 993 1
580 994 1
589 994 1
627 994 1
643 994 1
732 994 1
751 994 1
1021 994 1
1026 994 1
581 995 1
590 995 1
628 995 1
644 995 1
733 995 1
752 995 1
1000 995 1
1022 995 1
582 996 1
591 996 1
629 996 1
645 996 1
734 996 1
753 996 1
1001 996 1
1023 996 1
583 997 1
592 997 1
630 997 1
646 997 1
735 997 1
754 997 1
1002 997 1
1024 997 1
584 998 1
593 998 1
631 998 1
647 998 1
736 998 1
755 998 1
1003 998 1
1025 998 1
585 999 1
594 999 1
632 999 1
648 999 1
737 999 1
756 999 1
1004 999 1
1026 999 1
568 1000 1
591 1000 1
649 1000 1
660 1000 1
757 1000 1
765 1000 1
1027 1000 1
1032 1000 1
569 1001 1
592 1001 1
650 1001 1
661 1001 1
758 1001 1
766 1001 1
1028 1001 1
1033 1001 1
570 1002 1
593 1002 1
651 1002 1
662 1002 1
759 1002 1
767 1002 1
1029 1002 1
1034 1002 1
571 1003 1
594 1003 1
652 1003 1
663 1003 1
760 1003 1
768 1003 1
1030 1003 1
1035 1003 1
568 1004 1
572 1004 1
653 1004 1
664 1004 1
761 1004 1
769 1004 1
1031 1004 1
1036 1004 1
569 1005 1
573 1005 1
654 1005 1
665 1005 1
762 1005 1
770 1005 1
1032 1005 1
1037 1005 1
570 1006 1
574 1006 1
655 1006 1
666 1006 1
763 1006 1
771 1006 1
1033 1006 1
1038 1006 1
571 1007 1
575 1007 1
656 1007 1
667 1007 1
764 1007 1
772 1007 1
1034 1007 1
1039 1007 1
572 1008 1
576 1008 1
657 1008 1
668 1008 1
765 1008 1
773 1008 1
1035 1008 1
1040 1008 1
573 1009 1
577 1009 1
658 1009 1
669 1009 1
766 1009 1
774 1009 1
1036 1009 1
1041 1009 1
574 1010 1
578 1010 1
659 1010 1
670 1010 1
767 1010 1
775 1010 1
1037 1010 1
1042 1010 1
575 1011 1
579 1011 1
660 1011 1
671 1011 1
768 1011 1
776 1011 1
1038 1011 1
1043 1011 1
576 1012 1
580 1012 1
661 1012 1
672 1012 1
769 1012 1
777 1012 1
1039 1012 1
1044 1012 1
577 1013 1
581 1013 1
662 1013 1
673 1013 1
770 1013 1
778 1013 1
1040 1013 1
1045 1013 1
578 1014 1
582 1014 1
663 1014 1
674 1014 1
771 1014 1
779 1014 1
1041 1014 1
1046 1014 1
579 1015 1
583 1015 1
664 1015 1
675 1015 1
772 1015 1
780 1015 1
1042 1015 1
1047 1015 1
580 1016 1
584 1016 1
649 1016 1
665 1016 1
773 1016 1
781 1016 1
1043 1016 1
1048 1016 1
581 1017 1
585 1017 1
650 1017 1
666 1017 1
774 1017 1
782 1017 1
1044 1017 1
1049 1017 1
582 1018 1
586 1018 1
651 1018 1
667 1018 1
775 1018 1
783 1018 1
1045 1018 1
1050 1018 1
583 1019 1
587 1019 1
652 1019 1
668 1019 1
757 1019 1
776 1019 1
1046 1019 1
1051 1019 1
584 1020 1
588 1020 1
653 1020 1
669 1020 1
758 1020 1
777 1020 1
1047 1020 1
1052 1020 1
585 1021 1
589 1021 1
654 1021 1
670 1021 1
759 1021 1
778 1021 1
1048 1021 1
1053 1021 1
586 1022 1
590 1022 1
655 1022 1
671 1022 1
760 1022 1
779 1022 1
1027 1022 1
1049 1022 1
587 1023 1
591 1023 1
656 1023 1
672 1023 1
761 1023 1
780 1023 1
1028 1023 1
1050 1023 1
588 1024 1
592 1024 1
657 1024 1
673 1024 1
762 1024 1
781 1024 1
1029 1024 1
1051 1024 1
589 1025 1
593 1025 1
658 1025 1
674 1025 1
763 1025 1
782 1025 1
1030 1025 1
1052 1025 1
590 1026 1
594 1026 1
659 1026 1
675 1026 1
764 1026 1
783 1026 1
1031 1026 1
1053 1026 1
568 1027 1
592 1027 1
676 1027 1
687 1027 1
784 1027 1
792 1027 1
1054 1027 1
1059 1027 1
569 1028 1
593 1028 1
677 1028 1
688 1028 1
785 1028 1
793 1028 1
1055 1028 1
1060 1028 1
570 1029 1
594 1029 1
678 1029 1
689 1029 1
786 1029 1
794 1029 1
1056 1029 1
1061 1029 1
568 1030 1
571 1030 1
679 1030 1
690 1030 1
787 1030 1
795 1030 1
1057 1030 1
1062 1030 1
569 1031 1
572 1031 1
680 1031 1
691 1031 1
788 1031 1
796 1031 1
1058 1031 1
1063 1031 1
570 1032 1
573 1032 1
681 1032 1
692 1032 1
789 1032 1
797 1032 1
1059 1032 1
1064 1032 1
571 1033 1
574 1033 1
682 1033 1
693 1033 1
790 1033 1
798 1033 1
1060 1033 1
1065 1033 1
572 1034 1
575 1034 1
683 1034 1
694 1034 1
791 1034 1
799 1034 1
1061 1034 1
1066 1034 1
573 1035 1
576 1035 1
684 1035 1
695 1035 1
792 1035 1
800 1035 1
1062 1035 1
1067 1035 1
574 1036 1
577 1036 1
685 1036 1
696 1036 1
793 1036 1
801 1036 1
1063 1036 1
1068 1036 1
575 1037 1
578 1037 1
686 1037 1
697 1037 1
794 1037 1
802 1037 1
1064 1037 1
1069 1037 1
576 1038 1
579 1038 1
687 1038 1
698 1038 1
795 1038 1
803 1038 1
1065 1038 1
1070 1038 1
577 1039 1
580 1039 1
688 1039 1
699 1039 1
796 1039 1
804 1039 1
1066 1039 1
1071 1039 1
578 1040 1
581 1040 1
689 1040 1
700 1040 1
797 1040 1
805 1040 1
1067 1040 1
1072 1040 1
579 1041 1
582 1041 1
690 1041 1
701 1041 1
798 1041 1
806 1041 1
1068 1041 1
1073 1041 1
580 1042 1
583 1042 1
691 1042 1
702 1042 1
799 1042 1
807 1042 1
1069 1042 1
1074 1042 1
581 1043 1
584 1043 1
676 1043 1
692 1043 1
800 1043 1
808 1043 1
1070 1043 1
1075 1043 1
582 1044 1
585 1044 1
677 1044 1
693 1044 1
801 1044 1
809 1044 1
1071 1044 1
1076 1044 1
583 1045 1
586 1045 1
678 1045 1
694 1045 1
802 1045 1
810 1045 1
1072 1045 1
1077 1045 1
584 1046 1
587 1046 1
679 1046 1
695 1046 1
784 1046 1
803 1046 1
1073 1046 1
1078 1046 1
585 1047 1
588 1047 1
680 1047 1
696 1047 1
785 1047 1
804 1047 1
1074 1047 1
1079 1047 1
586 1048 1
589 1048 1
681 1048 1
697 1048 1
786 1048 1
805 1048 1
1075 1048 1
1080 1048 1
587 1049 1
590 1049 1
682 1049 1
698 1049 1
787 1049 1
806 1049 1
1054 1049 1
1076 1049 1
588 1050 1
591 1050 1
683 1050 1
699 1050 1
788 1050 1
807 1050 1
1055 1050 1
1077 1050 1
589 1051 1
592 1051 1
684 1051 1
700 1051 1
789 1051 1
808 1051 1
1056 1051 1
1078 1051 1
590 1052 1
593 1052 1
685 1052 1
701 1052 1
790 1052 1
809 1052 1
1057 1052 1
1079 1052 1
591 1053 1
594 1053 1
686 1053 1
702 1053 1
791 1053 1
810 1053 1
1058 1053 1
1080 1053 1
595 1054 1
613 1054 1
622 1054 1
635 1054 1
811 1054 1
819 1054 1
1081 1054 1
1086 1054 1
596 1055 1
614 1055 1
623 1055 1
636 1055 1
812 1055 1
820 1055 1
1082 1055 1
1087 1055 1
597 1056 1
615 1056 1
624 1056 1
637 1056 1
813 1056 1
821 1056 1
1083 1056 1
1088 1056 1
598 1057 1
616 1057 1
625 1057 1
638 1057 1
814 1057 1
822 1057 1
1084 1057 1
1089 1057 1
599 1058 1
617 1058 1
626 1058 1
639 1058 1
815 1058 1
823 1058 1
1085 1058 1
1090 1058 1
600 1059 1
618 1059 1
627 1059 1
640 1059 1
816 1059 1
824 1059 1
1086 1059 1
1091 1059 1
601 1060 1
619 1060 1
628 1060 1
641 1060 1
817 1060 1
825 1060 1
1087 1060 1
1092 1060 1
602 1061 1
620 1061 1
629 1061 1
642 1061 1
818 1061 1
826 1061 1
1088 1061 1
1093 1061 1
603 1062 1
621 1062 1
630 1062 1
643 1062 1
819 1062 1
827 1062 1
1089 1062 1
1094 1062 1
595 1063 1
604 1063 1
631 1063 1
644 1063 1
820 1063 1
828 1063 1
1090 1063 1
1095 1063 1
596 1064 1
605 1064 1
632 1064 1
645 1064 1
821 1064 1
829 1064 1
1091 1064 1
1096 1064 1
597 1065 1
606 1065 1
633 1065 1
646 1065 1
822 1065 1
830 1065 1
1092 1065 1
1097 1065 1
598 1066 1
607 1066 1
634 1066 1
647 1066 1
823 1066 1
831 1066 1
1093 1066 1
1098 1066 1
599 1067 1
608 1067 1
635 1067 1
648 1067 1
824 1067 1
832 1067 1
1094 1067 1
1099 1067 1
600 1068 1
609 1068 1
622 1068 1
636 1068 1
825 1068 1
833 1068 1
1095 1068 1
1100 1068 1
601 1069 1
610 1069 1
623 1069 1
637 1069 1
826 1069 1
834 1069 1
1096 1069 1
1101 1069 1
602 1070 1
611 1070 1
624 1070 1
638 1070 1
827 1070 1
835 1070 1
1097 1070 1
1102 1070 1
603 1071 1
612 1071 1
625 1071 1
639 1071 1
828 1071 1
836 1071 1
1098 1071 1
1103 1071 1
604 1072 1
613 1072 1
626 1072 1
640 1072 1
829 1072 1
837 1072 1
1099 1072 1
1104 1072 1
605 1073 1
614 1073 1
627 1073 1
641 1073 1
811 1073 1
830 1073 1
1100 1073 1
1105 1073 1
606 1074 1
615 1074 1
628 1074 1
642 1074 1
812 1074 1
831 1074 1
1101 1074 1
1106 1074 1
607 1075 1
616 1075 1
629 1075 1
643 1075 1
813 1075 1
832 1075 1
1102 1075 1
1107 1075 1
608 1076 1
617 1076 1
630 1076 1
644 1076 1
814 1076 1
833 1076 1
1081 1076 1
1103 1076 1
609 1077 1
618 1077 1
631 1077 1
645 1077 1
815 1077 1
834 1077 1
1082 1077 1
1104 1077 1
610 1078 1
619 1078 1
632 1078 1
646 1078 1
816 1078 1
835 1078 1
1083 1078 1
1105 1078 1
611 1079 1
620 1079 1
633 1079 1
647 1079 1
817 1079 1
836 1079 1
1084 1079 1
1106 1079 1
612 1080 1
621 1080 1
634 1080 1
648 1080 1
818 1080 1
837 1080 1
1085 1080 1
1107 1080 1
595 1081 1
618 1081 1
649 1081 1
662 1081 1
838 1081 1
846 1081 1
1108 1081 1
1113 1081 1
596 1082 1
619 1082 1
650 1082 1
663 1082 1
839 1082 1
847 1082 1
1109 1082 1
1114 1082 1
597 1083 1
620 1083 1
651 1083 1
664 1083 1
840 1083 1
848 1083 1
1110 1083 1
1115 1083 1
598 1084 1
621 1084 1
652 1084 1
665 1084 1
841 1084 1
849 1084 1
1111 1084 1
1116 1084 1
595 1085 1
599 1085 1
653 1085 1
666 1085 1
842 1085 1
850 1085 1
1112 1085 1
1117 1085 1
596 1086 1
600 1086 1
654 1086 1
667 1086 1
843 1086 1
851 1086 1
1113 1086 1
1118 1086 1
597 1087 1
601 1087 1
655 1087 1
668 1087 1
844 1087 1
852 1087 1
1114 1087 1
1119 1087 1
598 1088 1
602 1088 1
656 1088 1
669 1088 1
845 1088 1
853 1088 1
1115 1088 1
1120 1088 1
599 1089 1
603 1089 1
657 1089 1
670 1089 1
846 1089 1
854 1089 1
1116 1089 1
1121 1089 1
600 1090 1
604 1090 1
658 1090 1
671 1090 1
847 1090 1
855 1090 1
1117 1090 1
1122 1090 1
601 1091 1
605 1091 1
659 1091 1
672 1091 1
848 1091 1
856 1091 1
1118 1091 1
1123 1091 1
602 1092 1
606 1092 1
660 1092 1
673 1092 1
849 1092 1
857 1092 1
1119 1092 1
1124 1092 1
603 1093 1
607 1093 1
661 1093 1
674 1093 1
850 1093 1
858 1093 1
1120 1093 1
1125 1093 1
604 1094 1
608 1094 1
662 1094 1
675 1094 1
851 1094 1
859 1094 1
1121 1094 1
1126 1094 1
605 1095 1
609 1095 1
649 1095 1
663 1095 1
852 1095 1
860 1095 1
1122 1095 1
1127 1095 1
606 1096 1
610 1096 1
650 1096 1
664 1096 1
853 1096 1
861 1096 1
1123 1096 1
1128 1096 1
607 1097 1
611 1097 1
651 1097 1
665 1097 1
854 1097 1
862 1097 1
1124 1097 1
1129 1097 1
608 1098 1
612 1098 1
652 1098 1
666 1098 1
855 1098 1
863 1098 1
1125 1098 1
1130 1098 1
609 1099 1
613 1099 1
653 1099 1
667 1099 1
856 1099 1
864 1099 1
1126 1099 1
1131 1099 1
610 1100 1
614 1100 1
654 1100 1
668 1100 1
838 1100 1
857 1100 1
1127 1100 1
1132 1100 1
611 1101 1
615 1101 1
655 1101 1
669 1101 1
839 1101 1
858 1101 1
1128 1101 1
1133 1101 1
612 1102 1
616 1102 1
656 1102 1
670 1102 1
840 1102 1
859 1102 1
1129 1102 1
1134 1102 1
613 1103 1
617 1103 1
657 1103 1
671 1103 1
841 1103 1
860 1103 1
1108 1103 1
1130 1103 1
614 1104 1
618 1104 1
658 1104 1
672 1104 1
842 1104 1
861 1104 1
1109 1104 1
1131 1104 1
615 1105 1
619 1105 1
659 1105 1
673 1105 1
843 1105 1
862 1105 1
1110 1105 1
1132 1105 1
616 1106 1
620 1106 1
660 1106 1
674 1106 1
844 1106 1
863 1106 1
1111 1106 1
1133 1106 1
617 1107 1
621 1107 1
661 1107 1
675 1107 1
845 1107 1
864 1107 1
1112 1107 1
1134 1107 1
595 1108 1
619 1108 1
676 1108 1
689 1108 1
865 1108 1
873 1108 1
1135 1108 1
1140 1108 1
596 1109 1
620 1109 1
677 1109 1
690 1109 1
866 1109 1
874 1109 1
1136 1109 1
1141 1109 1
597 1110 1
621 1110 1
678 1110 1
691 1110 1
867 1110 1
875 1110 1
1137 1110 1
1142 1110 1
595 1111 1
598 1111 1
679 1111 1
692 1111 1
868 1111 1
876 1111 1
1138 1111 1
1143 1111 1
596 1112 1
599 1112 1
680 1112 1
693 1112 1
869 1112 1
877 1112 1
1139 1112 1
1144 1112 1
597 1113 1
600 1113 1
681 1113 1
694 1113 1
870 1113 1
878 1113 1
1140 1113 1
1145 1113 1
598 1114 1
601 1114 1
682 1114 1
695 1114 1
871 1114 1
879 1114 1
1141 1114 1
1146 1114 1
599 1115 1
602 1115 1
683 1115 1
696 1115 1
872 1115 1
880 1115 1
1142 1115 1
1147 1115 1
600 1116 1
603 1116 1
684 1116 1
697 1116 1
873 1116 1
881 1116 1
1143 1116 1
1148 1116 1
601 1117 1
604 1117 1
685 1117 1
698 1117 1
874 1117 1
882 1117 1
1144 1117 1
1149 1117 1
602 1118 1
605 1118 1
686 1118 1
699 1118 1
875 1118 1
883 1118 1
1145 1118 1
1150 1118 1
603 1119 1
606 1119 1
687 1119 1
700 1119 1
876 1119 1
884 1119 1
1146 1119 1
1151 1119 1
604 1120 1
607 1120 1
688 1120 1
701 1120 1
877 1120 1
885 1120 1
1147 1120 1
1152 1120 1
605 1121 1
608 1121 1
689 1121 1
702 1121 1
878 1121 1
886 1121 1
1148 1121 1
1153 1121 1
606 1122 1
609 1122 1
676 1122 1
690 1122 1
879 1122 1
887 1122 1
1149 1122 1
1154 1122 1
607 1123 1
610 1123 1
677 1123 1
691 1123 1
880 1123 1
888 1123 1
1150 1123 1
1155 1123 1
608 1124 1
611 1124 1
678 1124 1
692 1124 1
881 1124 1
889 1124 1
1151 1124 1
1156 1124 1
609 1125 1
612 1125 1
679 1125 1
693 1125 1
882 1125 1
890 1125 1
1152 1125 1
1157 1125 1
610 1126 1
613 1126 1
680 1126 1
694 1126 1
883 1126 1
891 1126 1
1153 1126 1
1158 1126 1
611 1127 1
614 1127 1
681 1127 1
695 1127 1
865 1127 1
884 1127 1
1154 1127 1
1159 1127 1
612 1128 1
615 1128 1
682 1128 1
696 1128 1
866 1128 1
885 1128 1
1155 1128 1
1160 1128 1
613 1129 1
616 1129 1
683 1129 1
697 1129 1
867 1129 1
886 1129 1
1156 1129 1
1161 1129 1
614 1130 1
617 1130 1
684 1130 1
698 1130 1
868 1130 1
887 1130 1
1135 1130 1
1157 1130 1
615 1131 1
618 1131 1
685 1131 1
699 1131 1
869 1131 1
888 1131 1
1136 1131 1
1158 1131 1
616 1132 1
619 1132 1
686 1132 1
700 1132 1
870 1132 1
889 1132 1
1137 1132 1
1159 1132 1
617 1133 1
620 1133 1
687 1133 1
701 1133 1
871 1133 1
890 1133 1
1138 1133 1
1160 1133 1
618 1134 1
621 1134 1
688 1134 1
702 1134 1
872 1134 1
891 1134 1
1139 1134 1
1161 1134 1
622 1135 1
645 1135 1
649 1135 1
667 1135 1
892 1135 1
900 1135 1
1162 1135 1
1167 1135 1
623 1136 1
646 1136 1
650 1136 1
668 1136 1
893 1136 1
901 1136 1
1163 1136 1
1168 1136 1
624 1137 1
647 1137 1
651 1137 1
669 1137 1
894 1137 1
902 1137 1
1164 1137 1
1169 1137 1
625 1138 1
648 1138 1
652 1138 1
670 1138 1
895 1138 1
903 1138 1
1165 1138 1
1170 1138 1
622 1139 1
626 1139 1
653 1139 1
671 1139 1
896 1139 1
904 1139 1
1166 1139 1
1171 1139 1
623 1140 1
627 1140 1
654 1140 1
672 1140 1
897 1140 1
905 1140 1
1167 1140 1
1172 1140 1
624 1141 1
628 1141 1
655 1141 1
673 1141 1
898 1141 1
906 1141 1
1168 1141 1
1173 1141 1
625 1142 1
629 1142 1
656 1142 1
674 1142 1
899 1142 1
907 1142 1
1169 1142 1
1174 1142 1
626 1143 1
630 1143 1
657 1143 1
675 1143 1
900 1143 1
908 1143 1
1170 1143 1
1175 1143 1
627 1144 1
631 1144 1
649 1144 1
658 1144 1
901 1144 1
909 1144 1
1171 1144 1
1176 1144 1
628 1145 1
632 1145 1
650 1145 1
659 1145 1
902 1145 1
910 1145 1
1172 1145 1
1177 1145 1
629 1146 1
633 1146 1
651 1146 1
660 1146 1
903 1146 1
911 1146 1
1173 1146 1
1178 1146 1
630 1147 1
634 1147 1
652 1147 1
661 1147 1
904 1147 1
912 1147 1
1174 1147 1
1179 1147 1
631 1148 1
635 1148 1
653 1148 1
662 1148 1
905 1148 1
913 1148 1
1175 1148 1
1180 1148 1
632 1149 1
636 1149 1
654 1149 1
663 1149 1
906 1149 1
914 1149 1
1176 1149 1
1181 1149 1
633 1150 1
637 1150 1
655 1150 1
664 1150 1
907 1150 1
915 1150 1
1177 1150 1
1182 1150 1
634 1151 1
638 1151 1
656 1151 1
665 1151 1
908 1151 1
916 1151 1
1178 1151 1
1183 1151 1
635 1152 1
639 1152 1
657 1152 1
666 1152 1
909 1152 1
917 1152 1
1179 1152 1
1184 1152 1
636 1153 1
640 1153 1
658 1153 1
667 1153 1
910 1153 1
918 1153 1
1180 1153 1
1185 1153 1
637 1154 1
641 1154 1
659 1154 1
668 1154 1
892 1154 1
911 1154 1
1181 1154 1
1186 1154 1
638 1155 1
642 1155 1
660 1155 1
669 1155 1
893 1155 1
912 1155 1
1182 1155 1
1187 1155 1
639 1156 1
643 1156 1
661 1156 1
670 1156 1
894 1156 1
913 1156 1
1183 1156 1
1188 1156 1
640 1157 1
644 1157 1
662 1157 1
671 1157 1
895 1157 1
914 1157 1
1162 1157 1
1184 1157 1
641 1158 1
645 1158 1
663 1158 1
672 1158 1
896 1158 1
915 1158 1
1163 1158 1
1185 1158 1
642 1159 1
646 1159 1
664 1159 1
673 1159 1
897 1159 1
916 1159 1
1164 1159 1
1186 1159 1
643 1160 1
647 1160 1
665 1160 1
674 1160 1
898 1160 1
917 1160 1
1165 1160 1
1187 1160 1
644 1161 1
648 1161 1
666 1161 1
675 1161 1
899 1161 1
918 1161 1
1166 1161 1
1188 1161 1
622 1162 1
646 1162 1
676 1162 1
694 1162 1
919 1162 1
927 1162 1
1189 1162 1
1194 1162 1
623 1163 1
647 1163 1
677 1163 1
695 1163 1
920 1163 1
928 1163 1
1190 1163 1
1195 1163 1
624 1164 1
648 1164 1
678 1164 1
696 1164 1
921 1164 1
929 1164 1
1191 1164 1
1196 1164 1
622 1165 1
625 1165 1
679 1165 1
697 1165 1
922 1165 1
930 1165 1
1192 1165 1
1197 1165 1
623 1166 1
626 1166 1
680 1166 1
698 1166 1
923 1166 1
931 1166 1
1193 1166 1
1198 1166 1
624 1167 1
627 1167 1
681 1167 1
699 1167 1
924 1167 1
932 1167 1
1194 1167 1
1199 1167 1
625 1168 1
628 1168 1
682 1168 1
700 1168 1
925 1168 1
933 1168 1
1195 1168 1
1200 1168 1
626 1169 1
629 1169 1
683 1169 1
701 1169 1
926 1169 1
934 1169 1
1196 1169 1
1201 1169 1
627 1170 1
630 1170 1
684 1170 1
702 1170 1
927 1170 1
935 1170 1
1197 1170 1
1202 1170 1
628 1171 1
631 1171 1
676 1171 1
685 1171 1
928 1171 1
936 1171 1
1198 1171 1
1203 1171 1
629 1172 1
632 1172 1
677 1172 1
686 1172 1
929 1172 1
937 1172 1
1199 1172 1
1204 1172 1
630 1173 1
633 1173 1
678 1173 1
687 1173 1
930 1173 1
938 1173 1
1200 1173 1
1205 1173 1
631 1174 1
634 1174 1
679 1174 1
688 1174 1
931 1174 1
939 1174 1
1201 1174 1
1206 1174 1
632 1175 1
635 1175 1
680 1175 1
689 1175 1
932 1175 1
940 1175 1
1202 1175 1
1207 1175 1
633 1176 1
636 1176 1
681 1176 1
690 1176 1
933 1176 1
941 1176 1
1203 1176 1
1208 1176 1
634 1177 1
637 1177 1
682 1177 1
691 1177 1
934 1177 1
942 1177 1
1204 1177 1
1209 1177 1
635 1178 1
638 1178 1
683 1178 1
692 1178 1
935 1178 1
943 1178 1
1205 1178 1
1210 1178 1
636 1179 1
639 1179 1
684 1179 1
693 1179 1
936 1179 1
944 1179 1
1206 1179 1
1211 1179 1
637 1180 1
640 1180 1
685 1180 1
694 1180 1
937 1180 1
945 1180 1
1207 1180 1
1212 1180 1
638 1181 1
641 1181 1
686 1181 1
695 1181 1
919 1181 1
938 1181 1
1208 1181 1
1213 1181 1
639 1182 1
642 1182 1
687 1182 1
696 1182 1
920 1182 1
939 1182 1
1209 1182 1
1214 1182 1
640 1183 1
643 1183 1
688 1183 1
697 1183 1
921 1183 1
940 1183 1
1210 1183 1
1215 1183 1
641 1184 1
644 1184 1
689 1184 1
698 1184 1
922 1184 1
941 1184 1
1189 1184 1
1211 1184 1
642 1185 1
645 1185 1
690 1185 1
699 1185 1
923 1185 1
942 1185 1
1190 1185 1
1212 1185 1
643 1186 1
646 1186 1
691 1186 1
700 1186 1
924 1186 1
943 1186 1
1191 1186 1
1213 1186 1
644 1187 1
647 1187 1
692 1187 1
701 1187 1
925 1187 1
944 1187 1
1192 1187 1
1214 1187 1
645 1188 1
648 1188 1
693 1188 1
702 1188 1
926 1188 1
945 1188 1
1193 1188 1
1215 1188 1
649 1189 1
673 1189 1
676 1189 1
699 1189 1
946 1189 1
954 1189 1
1216 1189 1
1221 1189 1
650 1190 1
674 1190 1
677 1190 1
700 1190 1
947 1190 1
955 1190 1
1217 1190 1
1222 1190 1
651 1191 1
675 1191 1
678 1191 1
701 1191 1
948 1191 1
956 1191 1
1218 1191 1
1223 1191 1
649 1192 1
652 1192 1
679 1192 1
702 1192 1
949 1192 1
957 1192 1
1219 1192 1
1224 1192 1
650 1193 1
653 1193 1
676 1193 1
680 1193 1
950 1193 1
958 1193 1
1220 1193 1
1225 1193 1
651 1194 1
654 1194 1
677 1194 1
681 1194 1
951 1194 1
959 1194 1
1221 1194 1
1226 1194 1
652 1195 1
655 1195 1
678 1195 1
682 1195 1
952 1195 1
960 1195 1
1222 1195 1
1227 1195 1
653 1196 1
656 1196 1
679 1196 1
683 1196 1
953 1196 1
961 1196 1
1223 1196 1
1228 1196 1
654 1197 1
657 1197 1
680 1197 1
684 1197 1
954 1197 1
962 1197 1
1224 1197 1
1229 1197 1
655 1198 1
658 1198 1
681 1198 1
685 1198 1
955 1198 1
963 1198 1
1225 1198 1
1230 1198 1
656 1199 1
659 1199 1
682 1199 1
686 1199 1
956 1199 1
964 1199 1
1226 1199 1
1231 1199 1
657 1200 1
660 1200 1
683 1200 1
687 1200 1
957 1200 1
965 1200 1
1227 1200 1
1232 1200 1
658 1201 1
661 1201 1
684 1201 1
688 1201 1
958 1201 1
966 1201 1
1228 1201 1
1233 1201 1
659 1202 1
662 1202 1
685 1202 1
689 1202 1
959 1202 1
967 1202 1
1229 1202 1
1234 1202 1
660 1203 1
663 1203 1
686 1203 1
690 1203 1
960 1203 1
968 1203 1
1230 1203 1
1235 1203 1
661 1204 1
664 1204 1
687 1204 1
691 1204 1
961 1204 1
969 1204 1
1231 1204 1
1236 1204 1
662 1205 1
665 1205 1
688 1205 1
692 1205 1
962 1205 1
970 1205 1
1232 1205 1
1237 1205 1
663 1206 1
666 1206 1
689 1206 1
693 1206 1
963 1206 1
971 1206 1
1233 1206 1
1238 1206 1
664 1207 1
667 1207 1
690 1207 1
694 1207 1
964 1207 1
972 1207 1
1234 1207 1
1239 1207 1
665 1208 1
668 1208 1
691 1208 1
695 1208 1
946 1208 1
965 1208 1
1235 1208 1
1240 1208 1
666 1209 1
669 1209 1
692 1209 1
696 1209 1
947 1209 1
966 1209 1
1236 1209 1
1241 1209 1
667 1210 1
670 1210 1
693 1210 1
697 1210 1
948 1210 1
967 1210 1
1237 1210 1
1242 1210 1
668 1211 1
671 1211 1
694 1211 1
698 1211 1
949 1211 1
968 1211 1
1216 1211 1
1238 1211 1
669 1212 1
672 1212 1
695 1212 1
699 1212 1
950 1212 1
969 1212 1
1217 1212 1
1239 1212 1
670 1213 1
673 1213 1
696 1213 1
700 1213 1
951 1213 1
970 1213 1
1218 1213 1
1240 1213 1
671 1214 1
674 1214 1
697 1214 1
701 1214 1
952 1214 1
971 1214 1
1219 1214 1
1241 1214 1
672 1215 1
675 1215 1
698 1215 1
702 1215 1
953 1215 1
972 1215 1
1220 1215 1
1242 1215 1
703 1216 1
721 1216 1
730 1216 1
743 1216 1
811 1216 1
822 1216 1
1243 1216 1
1248 1216 1
704 1217 1
722 1217 1
731 1217 1
744 1217 1
812 1217 1
823 1217 1
1244 1217 1
1249 1217 1
705 1218 1
723 1218 1
732 1218 1
745 1218 1
813 1218 1
824 1218 1
1245 1218 1
1250 1218 1
706 1219 1
724 1219 1
733 1219 1
746 1219 1
814 1219 1
825 1219 1
1246 1219 1
1251 1219 1
707 1220 1
725 1220 1
734 1220 1
747 1220 1
815 1220 1
826 1220 1
1247 1220 1
1252 1220 1
708 1221 1
726 1221 1
735 1221 1
748 1221 1
816 1221 1
827 1221 1
1248 1221 1
1253 1221 1
709 1222 1
727 1222 1
736 1222 1
749 1222 1
817 1222 1
828 1222 1
1249 1222 1
1254 1222 1
710 1223 1
728 1223 1
737 1223 1
750 1223 1
818 1223 1
829 1223 1
1250 1223 1
1255 1223 1
711 1224 1
729 1224 1
738 1224 1
751 1224 1
819 1224 1
830 1224 1
1251 1224 1
1256 1224 1
703 1225 1
712 1225 1
739 1225 1
752 1225 1
820 1225 1
831 1225 1
1252 1225 1
1257 1225 1
704 1226 1
713 1226 1
740 1226 1
753 1226 1
821 1226 1
832 1226 1
1253 1226 1
1258 1226 1
705 1227 1
714 1227 1
741 1227 1
754 1227 1
822 1227 1
833 1227 1
1254 1227 1
1259 1227 1
706 1228 1
715 1228 1
742 1228 1
755 1228 1
823 1228 1
834 1228 1
1255 1228 1
1260 1228 1
707 1229 1
716 1229 1
743 1229 1
756 1229 1
824 1229 1
835 1229 1
1256 1229 1
1261 1229 1
708 1230 1
717 1230 1
730 1230 1
744 1230 1
825 1230 1
836 1230 1
1257 1230 1
1262 1230 1
709 1231 1
718 1231 1
731 1231 1
745 1231 1
826 1231 1
837 1231 1
1258 1231 1
1263 1231 1
710 1232 1
719 1232 1
732 1232 1
746 1232 1
811 1232 1
827 1232 1
1259 1232 1
1264 1232 1
711 1233 1
720 1233 1
733 1233 1
747 1233 1
812 1233 1
828 1233 1
1260 1233 1
1265 1233 1
712 1234 1
721 1234 1
734 1234 1
748 1234 1
813 1234 1
829 1234 1
1261 1234 1
1266 1234 1
713 1235 1
722 1235 1
735 1235 1
749 1235 1
814 1235 1
830 1235 1
1262 1235 1
1267 1235 1
714 1236 1
723 1236 1
736 1236 1
750 1236 1
815 1236 1
831 1236 1
1263 1236 1
1268 1236 1
715 1237 1
724 1237 1
737 1237 1
751 1237 1
816 1237 1
832 1237 1
1264 1237 1
1269 1237 1
716 1238 1
725 1238 1
738 1238 1
752 1238 1
817 1238 1
833 1238 1
1243 1238 1
1265 1238 1
717 1239 1
726 1239 1
739 1239 1
753 1239 1
818 1239 1
834 1239 1
1244 1239 1
1266 1239 1
718 1240 1
727 1240 1
740 1240 1
754 1240 1
819 1240 1
835 1240 1
1245 1240 1
1267 1240 1
719 1241 1
728 1241 1
741 1241 1
755 1241 1
820 1241 1
836 1241 1
1246 1241 1
1268 1241 1
720 1242 1
729 1242 1
742 1242 1
756 1242 1
821 1242 1
837 1242 1
1247 1242 1
1269 1242 1
703 1243 1
726 1243 1
757 1243 1
770 1243 1
838 1243 1
849 1243 1
1270 1243 1
1275 1243 1
704 1244 1
727 1244 1
758 1244 1
771 1244 1
839 1244 1
850 1244 1
1271 1244 1
1276 1244 1
705 1245 1
728 1245 1
759 1245 1
772 1245 1
840 1245 1
851 1245 1
1272 1245 1
1277 1245 1
706 1246 1
729 1246 1
760 1246 1
773 1246 1
841 1246 1
852 1246 1
1273 1246 1
1278 1246 1
703 1247 1
707 1247 1
761 1247 1
774 1247 1
842 1247 1
853 1247 1
1274 1247 1
1279 1247 1
704 1248 1
708 1248 1
762 1248 1
775 1248 1
843 1248 1
854 1248 1
1275 1248 1
1280 1248 1
705 1249 1
709 1249 1
763 1249 1
776 1249 1
844 1249 1
855 1249 1
1276 1249 1
1281 1249 1
706 1250 1
710 1250 1
764 1250 1
777 1250 1
845 1250 1
856 1250 1
1277 1250 1
1282 1250 1
707 1251 1
711 1251 1
765 1251 1
778 1251 1
846 1251 1
857 1251 1
1278 1251 1
1283 1251 1
708 1252 1
712 1252 1
766 1252 1
779 1252 1
847 1252 1
858 1252 1
1279 1252 1
1284 1252 1
709 1253 1
713 1253 1
767 1253 1
780 1253 1
848 1253 1
859 1253 1
1280 1253 1
1285 1253 1
710 1254 1
714 1254 1
768 1254 1
781 1254 1
849 1254 1
860 1254 1
1281 1254 1
1286 1254 1
711 1255 1
715 1255 1
769 1255 1
782 1255 1
850 1255 1
861 1255 1
1282 1255 1
1287 1255 1
712 1256 1
716 1256 1
770 1256 1
783 1256 1
851 1256 1
862 1256 1
1283 1256 1
1288 1256 1
713 1257 1
717 1257 1
757 1257 1
771 1257 1
852 1257 1
863 1257 1
1284 1257 1
1289 1257 1
714 1258 1
718 1258 1
758 1258 1
772 1258 1
853 1258 1
864 1258 1
1285 1258 1
1290 1258 1
715 1259 1
719 1259 1
759 1259 1
773 1259 1
838 1259 1
854 1259 1
1286 1259 1
1291 1259 1
716 1260 1
720 1260 1
760 1260 1
774 1260 1
839 1260 1
855 1260 1
1287 1260 1
1292 1260 1
717 1261 1
721 1261 1
761 1261 1
775 1261 1
840 1261 1
856 1261 1
1288 1261 1
1293 1261 1
718 1262 1
722 1262 1
762 1262 1
776 1262 1
841 1262 1
857 1262 1
1289 1262 1
1294 1262 1
719 1263 1
723 1263 1
763 1263 1
777 1263 1
842 1263 1
858 1263 1
1290 1263 1
1295 1263 1
720 1264 1
724 1264 1
764 1264 1
778 1264 1
843 1264 1
859 1264 1
1291 1264 1
1296 1264 1
721 1265 1
725 1265 1
765 1265 1
779 1265 1
844 1265 1
860 1265 1
1270 1265 1
1292 1265 1
722 1266 1
726 1266 1
766 1266 1
780 1266 1
845 1266 1
861 1266 1
1271 1266 1
1293 1266 1
723 1267 1
727 1267 1
767 1267 1
781 1267 1
846 1267 1
862 1267 1
1272 1267 1
1294 1267 1
724 1268 1
728 1268 1
768 1268 1
782 1268 1
847 1268 1
863 1268 1
1273 1268 1
1295 1268 1
725 1269 1
729 1269 1
769 1269 1
783 1269 1
848 1269 1
864 1269 1
1274 1269 1
1296 1269 1
703 1270 1
727 1270 1
784 1270 1
797 1270 1
865 1270 1
876 1270 1
1297 1270 1
1302 1270 1
704 1271 1
728 1271 1
785 1271 1
798 1271 1
866 1271 1
877 1271 1
1298 1271 1
1303 1271 1
705 1272 1
729 1272 1
786 1272 1
799 1272 1
867 1272 1
878 1272 1
1299 1272 1
1304 1272 1
703 1273 1
706 1273 1
787 1273 1
800 1273 1
868 1273 1
879 1273 1
1300 1273 1
1305 1273 1
704 1274 1
707 1274 1
788 1274 1
801 1274 1
869 1274 1
880 1274 1
1301 1274 1
1306 1274 1
705 1275 1
708 1275 1
789 1275 1
802 1275 1
870 1275 1
881 1275 1
1302 1275 1
1307 1275 1
706 1276 1
709 1276 1
790 1276 1
803 1276 1
871 1276 1
882 1276 1
1303 1276 1
1308 1276 1
707 1277 1
710 1277 1
791 1277 1
804 1277 1
872 1277 1
883 1277 1
1304 1277 1
1309 1277 1
708 1278 1
711 1278 1
792 1278 1
805 1278 1
873 1278 1
884 1278 1
1305 1278 1
1310 1278 1
709 1279 1
712 1279 1
793 1279 1
806 1279 1
874 1279 1
885 1279 1
1306 1279 1
1311 1279 1
710 1280 1
713 1280 1
794 1280 1
807 1280 1
875 1280 1
886 1280 1
1307 1280 1
1312 1280 1
711 1281 1
714 1281 1
795 1281 1
808 1281 1
876 1281 1
887 1281 1
1308 1281 1
1313 1281 1
712 1282 1
715 1282 1
796 1282 1
809 1282 1
877 1282 1
888 1282 1
1309 1282 1
1314 1282 1
713 1283 1
716 1283 1
797 1283 1
810 1283 1
878 1283 1
889 1283 1
1310 1283 1
1315 1283 1
714 1284 1
717 1284 1
784 1284 1
798 1284 1
879 1284 1
890 1284 1
1311 1284 1
1316 1284 1
715 1285 1
718 1285 1
785 1285 1
799 1285 1
880 1285 1
891 1285 1
1312 1285 1
1317 1285 1
716 1286 1
719 1286 1
786 1286 1
800 1286 1
865 1286 1
881 1286 1
1313 1286 1
1318 1286 1
717 1287 1
720 1287 1
787 1287 1
801 1287 1
866 1287 1
882 1287 1
1314 1287 1
1319 1287 1
718 1288 1
721 1288 1
788 1288 1
802 1288 1
867 1288 1
883 1288 1
1315 1288 1
1320 1288 1
719 1289 1
722 1289 1
789 1289 1
803 1289 1
868 1289 1
884 1289 1
1316 1289 1
1321 1289 1
720 1290 1
723 1290 1
790 1290 1
804 1290 1
869 1290 1
885 1290 1
1317 1290 1
1322 1290 1
721 1291 1
724 1291 1
791 1291 1
805 1291 1
870 1291 1
886 1291 1
1318 1291 1
1323 1291 1
722 1292 1
725 1292 1
792 1292 1
806 1292 1
871 1292 1
887 1292 1
1297 1292 1
1319 1292 1
723 1293 1
726 1293 1
793 1293 1
807 1293 1
872 1293 1
888 1293 1
1298 1293 1
1320 1293 1
724 1294 1
727 1294 1
794 1294 1
808 1294 1
873 1294 1
889 1294 1
1299 1294 1
1321 1294 1
725 1295 1
728 1295 1
795 1295 1
809 1295 1
874 1295 1
890 1295 1
1300 1295 1
1322 1295 1
726 1296 1
729 1296 1
796 1296 1
810 1296 1
875 1296 1
891 1296 1
1301 1296 1
1323 1296 1
730 1297 1
753 1297 1
757 1297 1
775 1297 1
892 1297 1
903 1297 1
1324 1297 1
1329 1297 1
731 1298 1
754 1298 1
758 1298 1
776 1298 1
893 1298 1
904 1298 1
1325 1298 1
1330 1298 1
732 1299 1
755 1299 1
759 1299 1
777 1299 1
894 1299 1
905 1299 1
1326 1299 1
1331 1299 1
733 1300 1
756 1300 1
760 1300 1
778 1300 1
895 1300 1
906 1300 1
1327 1300 1
1332 1300 1
730 1301 1
734 1301 1
761 1301 1
779 1301 1
896 1301 1
907 1301 1
1328 1301 1
1333 1301 1
731 1302 1
735 1302 1
762 1302 1
780 1302 1
897 1302 1
908 1302 1
1329 1302 1
1334 1302 1
732 1303 1
736 1303 1
763 1303 1
781 1303 1
898 1303 1
909 1303 1
1330 1303 1
1335 1303 1
733 1304 1
737 1304 1
764 1304 1
782 1304 1
899 1304 1
910 1304 1
1331 1304 1
1336 1304 1
734 1305 1
738 1305 1
765 1305 1
783 1305 1
900 1305 1
911 1305 1
1332 1305 1
1337 1305 1
735 1306 1
739 1306 1
757 1306 1
766 1306 1
901 1306 1
912 1306 1
1333 1306 1
1338 1306 1
736 1307 1
740 1307 1
758 1307 1
767 1307 1
902 1307 1
913 1307 1
1334 1307 1
1339 1307 1
737 1308 1
741 1308 1
759 1308 1
768 1308 1
903 1308 1
914 1308 1
1335 1308 1
1340 1308 1
738 1309 1
742 1309 1
760 1309 1
769 1309 1
904 1309 1
915 1309 1
1336 1309 1
1341 1309 1
739 1310 1
743 1310 1
761 1310 1
770 1310 1
905 1310 1
916 1310 1
1337 1310 1
1342 1310 1
740 1311 1
744 1311 1
762 1311 1
771 1311 1
906 1311 1
917 1311 1
1338 1311 1
1343 1311 1
741 1312 1
745 1312 1
763 1312 1
772 1312 1
907 1312 1
918 1312 1
1339 1312 1
1344 1312 1
742 1313 1
746 1313 1
764 1313 1
773 1313 1
892 1313 1
908 1313 1
1340 1313 1
1345 1313 1
743 1314 1
747 1314 1
765 1314 1
774 1314 1
893 1314 1
909 1314 1
1341 1314 1
1346 1314 1
744 1315 1
748 1315 1
766 1315 1
775 1315 1
894 1315 1
910 1315 1
1342 1315 1
1347 1315 1
745 1316 1
749 1316 1
767 1316 1
776 1316 1
895 1316 1
911 1316 1
1343 1316 1
1348 1316 1
746 1317 1
750 1317 1
768 1317 1
777 1317 1
896 1317 1
912 1317 1
1344 1317 1
1349 1317 1
747 1318 1
751 1318 1
769 1318 1
778 1318 1
897 1318 1
913 1318 1
1345 1318 1
1350 1318 1
748 1319 1
752 1319 1
770 1319 1
779 1319 1
898 1319 1
914 1319 1
1324 1319 1
1346 1319 1
749 1320 1
753 1320 1
771 1320 1
780 1320 1
899 1320 1
915 1320 1
1325 1320 1
1347 1320 1
750 1321 1
754 1321 1
772 1321 1
781 1321 1
900 1321 1
916 1321 1
1326 1321 1
1348 1321 1
751 1322 1
755 1322 1
773 1322 1
782 1322 1
901 1322 1
917 1322 1
1327 1322 1
1349 1322 1
752 1323 1
756 1323 1
774 1323 1
783 1323 1
902 1323 1
918 1323 1
1328 1323 1
1350 1323 1
730 1324 1
754 1324 1
784 1324 1
802 1324 1
919 1324 1
930 1324 1
1351 1324 1
1356 1324 1
731 1325 1
755 1325 1
785 1325 1
803 1325 1
920 1325 1
931 1325 1
1352 1325 1
1357 1325 1
732 1326 1
756 1326 1
786 1326 1
804 1326 1
921 1326 1
932 1326 1
1353 1326 1
1358 1326 1
730 1327 1
733 1327 1
787 1327 1
805 1327 1
922 1327 1
933 1327 1
1354 1327 1
1359 1327 1
731 1328 1
734 1328 1
788 1328 1
806 1328 1
923 1328 1
934 1328 1
1355 1328 1
1360 1328 1
732 1329 1
735 1329 1
789 1329 1
807 1329 1
924 1329 1
935 1329 1
1356 1329 1
1361 1329 1
733 1330 1
736 1330 1
790 1330 1
808 1330 1
925 1330 1
936 1330 1
1357 1330 1
1362 1330 1
734 1331 1
737 1331 1
791 1331 1
809 1331 1
926 1331 1
937 1331 1
1358 1331 1
1363 1331 1
735 1332 1
738 1332 1
792 1332 1
810 1332 1
927 1332 1
938 1332 1
1359 1332 1
1364 1332 1
736 1333 1
739 1333 1
784 1333 1
793 1333 1
928 1333 1
939 1333 1
1360 1333 1
1365 1333 1
737 1334 1
740 1334 1
785 1334 1
794 1334 1
929 1334 1
940 1334 1
1361 1334 1
1366 1334 1
738 1335 1
741 1335 1
786 1335 1
795 1335 1
930 1335 1
941 1335 1
1362 1335 1
1367 1335 1
739 1336 1
742 1336 1
787 1336 1
796 1336 1
931 1336 1
942 1336 1
1363 1336 1
1368 1336 1
740 1337 1
743 1337 1
788 1337 1
797 1337 1
932 1337 1
943 1337 1
1364 1337 1
1369 1337 1
741 1338 1
744 1338 1
789 1338 1
798 1338 1
933 1338 1
944 1338 1
1365 1338 1
1370 1338 1
742 1339 1
745 1339 1
790 1339 1
799 1339 1
934 1339 1
945 1339 1
1366 1339 1
1371 1339 1
743 1340 1
746 1340 1
791 1340 1
800 1340 1
919 1340 1
935 1340 1
1367 1340 1
1372 1340 1
744 1341 1
747 1341 1
792 1341 1
801 1341 1
920 1341 1
936 1341 1
1368 1341 1
1373 1341 1
745 1342 1
748 1342 1
793 1342 1
802 1342 1
921 1342 1
937 1342 1
1369 1342 1
1374 1342 1
746 1343 1
749 1343 1
794 1343 1
803 1343 1
922 1343 1
938 1343 1
1370 1343 1
1375 1343 1
747 1344 1
750 1344 1
795 1344 1
804 1344 1
923 1344 1
939 1344 1
1371 1344 1
1376 1344 1
748 1345 1
751 1345 1
796 1345 1
805 1345 1
924 1345 1
940 1345 1
1372 1345 1
1377 1345 1
749 1346 1
752 1346 1
797 1346 1
806 1346 1
925 1346 1
941 1346 1
1351 1346 1
1373 1346 1
750 1347 1
753 1347 1
798 1347 1
807 1347 1
926 1347 1
942 1347 1
1352 1347 1
1374 1347 1
751 1348 1
754 1348 1
799 1348 1
808 1348 1
927 1348 1
943 1348 1
1353 1348 1
1375 1348 1
752 1349 1
755 1349 1
800 1349 1
809 1349 1
928 1349 1
944 1349 1
1354 1349 1
1376 1349 1
753 1350 1
756 1350 1
801 1350 1
810 1350 1
929 1350 1
945 1350 1
1355 1350 1
1377 1350 1
757 1351 1
781 1351 1
784 1351 1
807 1351 1
946 1351 1
957 1351 1
1378 1351 1
1383 1351 1
758 1352 1
782 1352 1
785 1352 1
808 1352 1
947 1352 1
958 1352 1
1379 1352 1
1384 1352 1
759 1353 1
783 1353 1
786 1353 1
809 1353 1
948 1353 1
959 1353 1
1380 1353 1
1385 1353 1
757 1354 1
760 1354 1
787 1354 1
810 1354 1
949 1354 1
960 1354 1
1381 1354 1
1386 1354 1
758 1355 1
761 1355 1
784 1355 1
788 1355 1
950 1355 1
961 1355 1
1382 1355 1
1387 1355 1
759 1356 1
762 1356 1
785 1356 1
789 1356 1
951 1356 1
962 1356 1
1383 1356 1
1388 1356 1
760 1357 1
763 1357 1
786 1357 1
790 1357 1
952 1357 1
963 1357 1
1384 1357 1
1389 1357 1
761 1358 1
764 1358 1
787 1358 1
791 1358 1
953 1358 1
964 1358 1
1385 1358 1
1390 1358 1
762 1359 1
765 1359 1
788 1359 1
792 1359 1
954 1359 1
965 1359 1
1386 1359 1
1391 1359 1
763 1360 1
766 1360 1
789 1360 1
793 1360 1
955 1360 1
966 1360 1
1387 1360 1
1392 1360 1
764 1361 1
767 1361 1
790 1361 1
794 1361 1
956 1361 1
967 1361 1
1388 1361 1
1393 1361 1
765 1362 1
768 1362 1
791 1362 1
795 1362 1
957 1362 1
968 1362 1
1389 1362 1
1394 1362 1
766 1363 1
769 1363 1
792 1363 1
796 1363 1
958 1363 1
969 1363 1
1390 1363 1
1395 1363 1
767 1364 1
770 1364 1
793 1364 1
797 1364 1
959 1364 1
970 1364 1
1391 1364 1
1396 1364 1
768 1365 1
771 1365 1
794 1365 1
798 1365 1
960 1365 1
971 1365 1
1392 1365 1
1397 1365 1
769 1366 1
772 1366 1
795 1366 1
799 1366 1
961 1366 1
972 1366 1
1393 1366 1
1398 1366 1
770 1367 1
773 1367 1
796 1367 1
800 1367 1
946 1367 1
962 1367 1
1394 1367 1
1399 1367 1
771 1368 1
774 1368 1
797 1368 1
801 1368 1
947 1368 1
963 1368 1
1395 1368 1
1400 1368 1
772 1369 1
775 1369 1
798 1369 1
802 1369 1
948 1369 1
964 1369 1
1396 1369 1
1401 1369 1
773 1370 1
776 1370 1
799 1370 1
803 1370 1
949 1370 1
965 1370 1
1397 1370 1
1402 1370 1
774 1371 1
777 1371 1
800 1371 1
804 1371 1
950 1371 1
966 1371 1
1398 1371 1
1403 1371 1
775 1372 1
778 1372 1
801 1372 1
805 1372 1
951 1372 1
967 1372 1
1399 1372 1
1404 1372 1
776 1373 1
779 1373 1
802 1373 1
806 1373 1
952 1373 1
968 1373 1
1378 1373 1
1400 1373 1
777 1374 1
780 1374 1
803 1374 1
807 1374 1
953 1374 1
969 1374 1
1379 1374 1
1401 1374 1
778 1375 1
781 1375 1
804 1375 1
808 1375 1
954 1375 1
970 1375 1
1380 1375 1
1402 1375 1
779 1376 1
782 1376 1
805 1376 1
809 1376 1
955 1376 1
971 1376 1
1381 1376 1
1403 1376 1
780 1377 1
783 1377 1
806 1377 1
810 1377 1
956 1377 1
972 1377 1
1382 1377 1
1404 1377 1
811 1378 1
834 1378 1
838 1378 1
856 1378 1
892 1378 1
905 1378 1
1405 1378 1
1410 1378 1
812 1379 1
835 1379 1
839 1379 1
857 1379 1
893 1379 1
906 1379 1
1406 1379 1
1411 1379 1
813 1380 1
836 1380 1
840 1380 1
858 1380 1
894 1380 1
907 1380 1
1407 1380 1
1412 1380 1
814 1381 1
837 1381 1
841 1381 1
859 1381 1
895 1381 1
908 1381 1
1408 1381 1
1413 1381 1
811 1382 1
815 1382 1
842 1382 1
860 1382 1
896 1382 1
909 1382 1
1409 1382 1
1414 1382 1
812 1383 1
816 1383 1
843 1383 1
861 1383 1
897 1383 1
910 1383 1
1410 1383 1
1415 1383 1
813 1384 1
817 1384 1
844 1384 1
862 1384 1
898 1384 1
911 1384 1
1411 1384 1
1416 1384 1
814 1385 1
818 1385 1
845 1385 1
863 1385 1
899 1385 1
912 1385 1
1412 1385 1
1417 1385 1
815 1386 1
819 1386 1
846 1386 1
864 1386 1
900 1386 1
913 1386 1
1413 1386 1
1418 1386 1
816 1387 1
820 1387 1
838 1387 1
847 1387 1
901 1387 1
914 1387 1
1414 1387 1
1419 1387 1
817 1388 1
821 1388 1
839 1388 1
848 1388 1
902 1388 1
915 1388 1
1415 1388 1
1420 1388 1
818 1389 1
822 1389 1
840 1389 1
849 1389 1
903 1389 1
916 1389 1
1416 1389 1
1421 1389 1
819 1390 1
823 1390 1
841 1390 1
850 1390 1
904 1390 1
917 1390 1
1417 1390 1
1422 1390 1
820 1391 1
824 1391 1
842 1391 1
851 1391 1
905 1391 1
918 1391 1
1418 1391 1
1423 1391 1
821 1392 1
825 1392 1
843 1392 1
852 1392 1
892 1392 1
906 1392 1
1419 1392 1
1424 1392 1
822 1393 1
826 1393 1
844 1393 1
853 1393 1
893 1393 1
907 1393 1
1420 1393 1
1425 1393 1
823 1394 1
827 1394 1
845 1394 1
854 1394 1
894 1394 1
908 1394 1
1421 1394 1
1426 1394 1
824 1395 1
828 1395 1
846 1395 1
855 1395 1
895 1395 1
909 1395 1
1422 1395 1
1427 1395 1
825 1396 1
829 1396 1
847 1396 1
856 1396 1
896 1396 1
910 1396 1
1423 1396 1
1428 1396 1
826 1397 1
830 1397 1
848 1397 1
857 1397 1
897 1397 1
911 1397 1
1424 1397 1
1429 1397 1
827 1398 1
831 1398 1
849 1398 1
858 1398 1
898 1398 1
912 1398 1
1425 1398 1
1430 1398 1
828 1399 1
832 1399 1
850 1399 1
859 1399 1
899 1399 1
913 1399 1
1426 1399 1
1431 1399 1
829 1400 1
833 1400 1
851 1400 1
860 1400 1
900 1400 1
914 1400 1
1405 1400 1
1427 1400 1
830 1401 1
834 1401 1
852 1401 1
861 1401 1
901 1401 1
915 1401 1
1406 1401 1
1428 1401 1
831 1402 1
835 1402 1
853 1402 1
862 1402 1
902 1402 1
916 1402 1
1407 1402 1
1429 1402 1
832 1403 1
836 1403 1
854 1403 1
863 1403 1
903 1403 1
917 1403 1
1408 1403 1
1430 1403 1
833 1404 1
837 1404 1
855 1404 1
864 1404 1
904 1404 1
918 1404 1
1409 1404 1
1431 1404 1
811 1405 1
835 1405 1
865 1405 1
883 1405 1
919 1405 1
932 1405 1
1432 1405 1
1437 1405 1
812 1406 1
836 1406 1
866 1406 1
884 1406 1
920 1406 1
933 1406 1
1433 1406 1
1438 1406 1
813 1407 1
837 1407 1
867 1407 1
885 1407 1
921 1407 1
934 1407 1
1434 1407 1
1439 1407 1
811 1408 1
814 1408 1
868 1408 1
886 1408 1
922 1408 1
935 1408 1
1435 1408 1
1440 1408 1
812 1409 1
815 1409 1
869 1409 1
887 1409 1
923 1409 1
936 1409 1
1436 1409 1
1441 1409 1
813 1410 1
816 1410 1
870 1410 1
888 1410 1
924 1410 1
937 1410 1
1437 1410 1
1442 1410 1
814 1411 1
817 1411 1
871 1411 1
889 1411 1
925 1411 1
938 1411 1
1438 1411 1
1443 1411 1
815 1412 1
818 1412 1
872 1412 1
890 1412 1
926 1412 1
939 1412 1
1439 1412 1
1444 1412 1
816 1413 1
819 1413 1
873 1413 1
891 1413 1
927 1413 1
940 1413 1
1440 1413 1
1445 1413 1
817 1414 1
820 1414 1
865 1414 1
874 1414 1
928 1414 1
941 1414 1
1441 1414 1
1446 1414 1
818 1415 1
821 1415 1
866 1415 1
875 1415 1
929 1415 1
942 1415 1
1442 1415 1
1447 1415 1
819 1416 1
822 1416 1
867 1416 1
876 1416 1
930 1416 1
943 1416 1
1443 1416 1
1448 1416 1
820 1417 1
823 1417 1
868 1417 1
877 1417 1
931 1417 1
944 1417 1
1444 1417 1
1449 1417 1
821 1418 1
824 1418 1
869 1418 1
878 1418 1
932 1418 1
945 1418 1
1445 1418 1
1450 1418 1
822 1419 1
825 1419 1
870 1419 1
879 1419 1
919 1419 1
933 1419 1
1446 1419 1
1451 1419 1
823 1420 1
826 1420 1
871 1420 1
880 1420 1
920 1420 1
934 1420 1
1447 1420 1
1452 1420 1
824 1421 1
827 1421 1
872 1421 1
881 1421 1
921 1421 1
935 1421 1
1448 1421 1
1453 1421 1
825 1422 1
828 1422 1
873 1422 1
882 1422 1
922 1422 1
936 1422 1
1449 1422 1
1454 1422 1
826 1423 1
829 1423 1
874 1423 1
883 1423 1
923 1423 1
937 1423 1
1450 1423 1
1455 1423 1
827 1424 1
830 1424 1
875 1424 1
884 1424 1
924 1424 1
938 1424 1
1451 1424 1
1456 1424 1
828 1425 1
831 1425 1
876 1425 1
885 1425 1
925 1425 1
939 1425 1
1452 1425 1
1457 1425 1
829 1426 1
832 1426 1
877 1426 1
886 1426 1
926 1426 1
940 1426 1
1453 1426 1
1458 1426 1
830 1427 1
833 1427 1
878 1427 1
887 1427 1
927 1427 1
941 1427 1
1432 1427 1
1454 1427 1
831 1428 1
834 1428 1
879 1428 1
888 1428 1
928 1428 1
942 1428 1
1433 1428 1
1455 1428 1
832 1429 1
835 1429 1
880 1429 1
889 1429 1
929 1429 1
943 1429 1
1434 1429 1
1456 1429 1
833 1430 1
836 1430 1
881 1430 1
890 1430 1
930 1430 1
944 1430 1
1435 1430 1
1457 1430 1
834 1431 1
837 1431 1
882 1431 1
891 1431 1
931 1431 1
945 1431 1
1436 1431 1
1458 1431 1
838 1432 1
862 1432 1
865 1432 1
888 1432 1
946 1432 1
959 1432 1
1459 1432 1
1464 1432 1
839 1433 1
863 1433 1
866 1433 1
889 1433 1
947 1433 1
960 1433 1
1460 1433 1
1465 1433 1
840 1434 1
864 1434 1
867 1434 1
890 1434 1
948 1434 1
961 1434 1
1461 1434 1
1466 1434 1
838 1435 1
841 1435 1
868 1435 1
891 1435 1
949 1435 1
962 1435 1
1462 1435 1
1467 1435 1
839 1436 1
842 1436 1
865 1436 1
869 1436 1
950 1436 1
963 1436 1
1463 1436 1
1468 1436 1
840 1437 1
843 1437 1
866 1437 1
870 1437 1
951 1437 1
964 1437 1
1464 1437 1
1469 1437 1
841 1438 1
844 1438 1
867 1438 1
871 1438 1
952 1438 1
965 1438 1
1465 1438 1
1470 1438 1
842 1439 1
845 1439 1
868 1439 1
872 1439 1
953 1439 1
966 1439 1
1466 1439 1
1471 1439 1
843 1440 1
846 1440 1
869 1440 1
873 1440 1
954 1440 1
967 1440 1
1467 1440 1
1472 1440 1
844 1441 1
847 1441 1
870 1441 1
874 1441 1
955 1441 1
968 1441 1
1468 1441 1
1473 1441 1
845 1442 1
848 1442 1
871 1442 1
875 1442 1
956 1442 1
969 1442 1
1469 1442 1
1474 1442 1
846 1443 1
849 1443 1
872 1443 1
876 1443 1
957 1443 1
970 1443 1
1470 1443 1
1475 1443 1
847 1444 1
850 1444 1
873 1444 1
877 1444 1
958 1444 1
971 1444 1
1471 1444 1
1476 1444 1
848 1445 1
851 1445 1
874 1445 1
878 1445 1
959 1445 1
972 1445 1
1472 1445 1
1477 1445 1
849 1446 1
852 1446 1
875 1446 1
879 1446 1
946 1446 1
960 1446 1
1473 1446 1
1478 1446 1
850 1447 1
853 1447 1
876 1447 1
880 1447 1
947 1447 1
961 1447 1
1474 1447 1
1479 1447 1
851 1448 1
854 1448 1
877 1448 1
881 1448 1
948 1448 1
962 1448 1
1475 1448 1
1480 1448 1
852 1449 1
855 1449 1
878 1449 1
882 1449 1
949 1449 1
963 1449 1
1476 1449 1
1481 1449 1
853 1450 1
856 1450 1
879 1450 1
883 1450 1
950 1450 1
964 1450 1
1477 1450 1
1482 1450 1
854 1451 1
857 1451 1
880 1451 1
884 1451 1
951 1451 1
965 1451 1
1478 1451 1
1483 1451 1
855 1452 1
858 1452 1
881 1452 1
885 1452 1
952 1452 1
966 1452 1
1479 1452 1
1484 1452 1
856 1453 1
859 1453 1
882 1453 1
886 1453 1
953 1453 1
967 1453 1
1480 1453 1
1485 1453 1
857 1454 1
860 1454 1
883 1454 1
887 1454 1
954 1454 1
968 1454 1
1459 1454 1
1481 1454 1
858 1455 1
861 1455 1
884 1455 1
888 1455 1
955 1455 1
969 1455 1
1460 1455 1
1482 1455 1
859 1456 1
862 1456 1
885 1456 1
889 1456 1
956 1456 1
970 1456 1
1461 1456 1
1483 1456 1
860 1457 1
863 1457 1
886 1457 1
890 1457 1
957 1457 1
971 1457 1
1462 1457 1
1484 1457 1
861 1458 1
864 1458 1
887 1458 1
891 1458 1
958 1458 1
972 1458 1
1463 1458 1
1485 1458 1
892 1459 1
916 1459 1
919 1459 1
942 1459 1
946 1459 1
964 1459 1
1486 1459 1
1491 1459 1
893 1460 1
917 1460 1
920 1460 1
943 1460 1
947 1460 1
965 1460 1
1487 1460 1
1492 1460 1
894 1461 1
918 1461 1
921 1461 1
944 1461 1
948 1461 1
966 1461 1
1488 1461 1
1493 1461 1
892 1462 1
895 1462 1
922 1462 1
945 1462 1
949 1462 1
967 1462 1
1489 1462 1
1494 1462 1
893 1463 1
896 1463 1
919 1463 1
923 1463 1
950 1463 1
968 1463 1
1490 1463 1
1495 1463 1
894 1464 1
897 1464 1
920 1464 1
924 1464 1
951 1464 1
969 1464 1
1491 1464 1
1496 1464 1
895 1465 1
898 1465 1
921 1465 1
925 1465 1
952 1465 1
970 1465 1
1492 1465 1
1497 1465 1
896 1466 1
899 1466 1
922 1466 1
926 1466 1
953 1466 1
971 1466 1
1493 1466 1
1498 1466 1
897 1467 1
900 1467 1
923 1467 1
927 1467 1
954 1467 1
972 1467 1
1494 1467 1
1499 1467 1
898 1468 1
901 1468 1
924 1468 1
928 1468 1
946 1468 1
955 1468 1
1495 1468 1
1500 1468 1
899 1469 1
902 1469 1
925 1469 1
929 1469 1
947 1469 1
956 1469 1
1496 1469 1
1501 1469 1
900 1470 1
903 1470 1
926 1470 1
930 1470 1
948 1470 1
957 1470 1
1497 1470 1
1502 1470 1
901 1471 1
904 1471 1
927 1471 1
931 1471 1
949 1471 1
958 1471 1
1498 1471 1
1503 1471 1
902 1472 1
905 1472 1
928 1472 1
932 1472 1
950 1472 1
959 1472 1
1499 1472 1
1504 1472 1
903 1473 1
906 1473 1
929 1473 1
933 1473 1
951 1473 1
960 1473 1
1500 1473 1
1505 1473 1
904 1474 1
907 1474 1
930 1474 1
934 1474 1
952 1474 1
961 1474 1
1501 1474 1
1506 1474 1
905 1475 1
908 1475 1
931 1475 1
935 1475 1
953 1475 1
962 1475 1
1502 1475 1
1507 1475 1
906 1476 1
909 1476 1
932 1476 1
936 1476 1
954 1476 1
963 1476 1
1503 1476 1
1508 1476 1
907 1477 1
910 1477 1
933 1477 1
937 1477 1
955 1477 1
964 1477 1
1504 1477 1
1509 1477 1
908 1478 1
911 1478 1
934 1478 1
938 1478 1
956 1478 1
965 1478 1
1505 1478 1
1510 1478 1
909 1479 1
912 1479 1
935 1479 1
939 1479 1
957 1479 1
966 1479 1
1506 1479 1
1511 1479 1
910 1480 1
913 1480 1
936 1480 1
940 1480 1
958 1480 1
967 1480 1
1507 1480 1
1512 1480 1
911 1481 1
914 1481 1
937 1481 1
941 1481 1
959 1481 1
968 1481 1
1486 1481 1
1508 1481 1
912 1482 1
915 1482 1
938 1482 1
942 1482 1
960 1482 1
969 1482 1
1487 1482 1
1509 1482 1
913 1483 1
916 1483 1
939 1483 1
943 1483 1
961 1483 1
970 1483 1
1488 1483 1
1510 1483 1
914 1484 1
917 1484 1
940 1484 1
944 1484 1
962 1484 1
971 1484 1
1489 1484 1
1511 1484 1
915 1485 1
918 1485 1
941 1485 1
945 1485 1
963 1485 1
972 1485 1
1490 1485 1
1512 1485 1
973 1486 1
991 1486 1
1000 1486 1
1013 1486 1
1081 1486 1
1092 1486 1
1243 1486 1
1251 1486 1
974 1487 1
992 1487 1
1001 1487 1
1014 1487 1
1082 1487 1
1093 1487 1
1244 1487 1
1252 1487 1
975 1488 1
993 1488 1
1002 1488 1
1015 1488 1
1083 1488 1
1094 1488 1
1245 1488 1
1253 1488 1
976 1489 1
994 1489 1
1003 1489 1
1016 1489 1
1084 1489 1
1095 1489 1
1246 1489 1
1254 1489 1
977 1490 1
995 1490 1
1004 1490 1
1017 1490 1
1085 1490 1
1096 1490 1
1247 1490 1
1255 1490 1
978 1491 1
996 1491 1
1005 1491 1
1018 1491 1
1086 1491 1
1097 1491 1
1248 1491 1
1256 1491 1
979 1492 1
997 1492 1
1006 1492 1
1019 1492 1
1087 1492 1
1098 1492 1
1249 1492 1
1257 1492 1
980 1493 1
998 1493 1
1007 1493 1
1020 1493 1
1088 1493 1
1099 1493 1
1250 1493 1
1258 1493 1
981 1494 1
999 1494 1
1008 1494 1
1021 1494 1
1089 1494 1
1100 1494 1
1251 1494 1
1259 1494 1
973 1495 1
982 1495 1
1009 1495 1
1022 1495 1
1090 1495 1
1101 1495 1
1252 1495 1
1260 1495 1
974 1496 1
983 1496 1
1010 1496 1
1023 1496 1
1091 1496 1
1102 1496 1
1253 1496 1
1261 1496 1
975 1497 1
984 1497 1
1011 1497 1
1024 1497 1
1092 1497 1
1103 1497 1
1254 1497 1
1262 1497 1
976 1498 1
985 1498 1
1012 1498 1
1025 1498 1
1093 1498 1
1104 1498 1
1255 1498 1
1263 1498 1
977 1499 1
986 1499 1
1013 1499 1
1026 1499 1
1094 1499 1
1105 1499 1
1256 1499 1
1264 1499 1
978 1500 1
987 1500 1
1000 1500 1
1014 1500 1
1095 1500 1
1106 1500 1
1257 1500 1
1265 1500 1
979 1501 1
988 1501 1
1001 1501 1
1015 1501 1
1096 1501 1
1107 1501 1
1258 1501 1
1266 1501 1
980 1502 1
989 1502 1
1002 1502 1
1016 1502 1
1081 1502 1
1097 1502 1
1259 1502 1
1267 1502 1
981 1503 1
990 1503 1
1003 1503 1
1017 1503 1
1082 1503 1
1098 1503 1
1260 1503 1
1268 1503 1
982 1504 1
991 1504 1
1004 1504 1
1018 1504 1
1083 1504 1
1099 1504 1
1261 1504 1
1269 1504 1
983 1505 1
992 1505 1
1005 1505 1
1019 1505 1
1084 1505 1
1100 1505 1
1243 1505 1
1262 1505 1
984 1506 1
993 1506 1
1006 1506 1
1020 1506 1
1085 1506 1
1101 1506 1
1244 1506 1
1263 1506 1
985 1507 1
994 1507 1
1007 1507 1
1021 1507 1
1086 1507 1
1102 1507 1
1245 1507 1
1264 1507 1
986 1508 1
995 1508 1
1008 1508 1
1022 1508 1
1087 1508 1
1103 1508 1
1246 1508 1
1265 1508 1
987 1509 1
996 1509 1
1009 1509 1
1023 1509 1
1088 1509 1
1104 1509 1
1247 1509 1
1266 1509 1
988 1510 1
997 1510 1
1010 1510 1
1024 1510 1
1089 1510 1
1105 1510 1
1248 1510 1
1267 1510 1
989 1511 1
998 1511 1
1011 1511 1
1025 1511 1
1090 1511 1
1106 1511 1
1249 1511 1
1268 1511 1
990 1512 1
999 1512 1
1012 1512 1
1026 1512 1
1091 1512 1
1107 1512 1
1250 1512 1
1269 1512 1
973 1513 1
996 1513 1
1027 1513 1
1040 1513 1
1108 1513 1
1119 1513 1
1270 1513 1
1278 1513 1
974 1514 1
997 1514 1
1028 1514 1
1041 1514 1
1109 1514 1
1120 1514 1
1271 1514 1
1279 1514 1
975 1515 1
998 1515 1
1029 1515 1
1042 1515 1
1110 1515 1
1121 1515 1
1272 1515 1
1280 1515 1
976 1516 1
999 1516 1
1030 1516 1
1043 1516 1
1111 1516 1
1122 1516 1
1273 1516 1
1281 1516 1
973 1517 1
977 1517 1
1031 1517 1
1044 1517 1
1112 1517 1
1123 1517 1
1274 1517 1
1282 1517 1
974 1518 1
978 1518 1
1032 1518 1
1045 1518 1
1113 1518 1
1124 1518 1
1275 1518 1
1283 1518 1
975 1519 1
979 1519 1
1033 1519 1
1046 1519 1
1114 1519 1
1125 1519 1
1276 1519 1
1284 1519 1
976 1520 1
980 1520 1
1034 1520 1
1047 1520 1
1115 1520 1
1126 1520 1
1277 1520 1
1285 1520 1
977 1521 1
981 1521 1
1035 1521 1
1048 1521 1
1116 1521 1
1127 1521 1
1278 1521 1
1286 1521 1
978 1522 1
982 1522 1
1036 1522 1
1049 1522 1
1117 1522 1
1128 1522 1
1279 1522 1
1287 1522 1
979 1523 1
983 1523 1
1037 1523 1
1050 1523 1
1118 1523 1
1129 1523 1
1280 1523 1
1288 1523 1
980 1524 1
984 1524 1
1038 1524 1
1051 1524 1
1119 1524 1
1130 1524 1
1281 1524 1
1289 1524 1
981 1525 1
985 1525 1
1039 1525 1
1052 1525 1
1120 1525 1
1131 1525 1
1282 1525 1
1290 1525 1
982 1526 1
986 1526 1
1040 1526 1
1053 1526 1
1121 1526 1
1132 1526 1
1283 1526 1
1291 1526 1
983 1527 1
987 1527 1
1027 1527 1
1041 1527 1
1122 1527 1
1133 1527 1
1284 1527 1
1292 1527 1
984 1528 1
988 1528 1
1028 1528 1
1042 1528 1
1123 1528 1
1134 1528 1
1285 1528 1
1293 1528 1
985 1529 1
989 1529 1
1029 1529 1
1043 1529 1
1108 1529 1
1124 1529 1
1286 1529 1
1294 1529 1
986 1530 1
990 1530 1
1030 1530 1
1044 1530 1
1109 1530 1
1125 1530 1
1287 1530 1
1295 1530 1
987 1531 1
991 1531 1
1031 1531 1
1045 1531 1
1110 1531 1
1126 1531 1
1288 1531 1
1296 1531 1
988 1532 1
992 1532 1
1032 1532 1
1046 1532 1
1111 1532 1
1127 1532 1
1270 1532 1
1289 1532 1
989 1533 1
993 1533 1
1033 1533 1
1047 1533 1
1112 1533 1
1128 1533 1
1271 1533 1
1290 1533 1
990 1534 1
994 1534 1
1034 1534 1
1048 1534 1
1113 1534 1
1129 1534 1
1272 1534 1
1291 1534 1
991 1535 1
995 1535 1
1035 1535 1
1049 1535 1
1114 1535 1
1130 1535 1
1273 1535 1
1292 1535 1
992 1536 1
996 1536 1
1036 1536 1
1050 1536 1
1115 1536 1
1131 1536 1
1274 1536 1
1293 1536 1
993 1537 1
997 1537 1
1037 1537 1
1051 1537 1
1116 1537 1
1132 1537 1
1275 1537 1
1294 1537 1
994 1538 1
998 1538 1
1038 1538 1
1052 1538 1
1117 1538 1
1133 1538 1
1276 1538 1
1295 1538 1
995 1539 1
999 1539 1
1039 1539 1
1053 1539 1
1118 1539 1
1134 1539 1
1277 1539 1
1296 1539 1
973 1540 1
997 1540 1
1054 1540 1
1067 1540 1
1135 1540 1
1146 1540 1
1297 1540 1
1305 1540 1
974 1541 1
998 1541 1
1055 1541 1
1068 1541 1
1136 1541 1
1147 1541 1
1298 1541 1
1306 1541 1
975 1542 1
999 1542 1
1056 1542 1
1069 1542 1
1137 1542 1
1148 1542 1
1299 1542 1
1307 1542 1
973 1543 1
976 1543 1
1057 1543 1
1070 1543 1
1138 1543 1
1149 1543 1
1300 1543 1
1308 1543 1
974 1544 1
977 1544 1
1058 1544 1
1071 1544 1
1139 1544 1
1150 1544 1
1301 1544 1
1309 1544 1
975 1545 1
978 1545 1
1059 1545 1
1072 1545 1
1140 1545 1
1151 1545 1
1302 1545 1
1310 1545 1
976 1546 1
979 1546 1
1060 1546 1
1073 1546 1
1141 1546 1
1152 1546 1
1303 1546 1
1311 1546 1
977 1547 1
980 1547 1
1061 1547 1
1074 1547 1
1142 1547 1
1153 1547 1
1304 1547 1
1312 1547 1
978 1548 1
981 1548 1
1062 1548 1
1075 1548 1
1143 1548 1
1154 1548 1
1305 1548 1
1313 1548 1
979 1549 1
982 1549 1
1063 1549 1
1076 1549 1
1144 1549 1
1155 1549 1
1306 1549 1
1314 1549 1
980 1550 1
983 1550 1
1064 1550 1
1077 1550 1
1145 1550 1
1156 1550 1
1307 1550 1
1315 1550 1
981 1551 1
984 1551 1
1065 1551 1
1078 1551 1
1146 1551 1
1157 1551 1
1308 1551 1
1316 1551 1
982 1552 1
985 1552 1
1066 1552 1
1079 1552 1
1147 1552 1
1158 1552 1
1309 1552 1
1317 1552 1
983 1553 1
986 1553 1
1067 1553 1
1080 1553 1
1148 1553 1
1159 1553 1
1310 1553 1
1318 1553 1
984 1554 1
987 1554 1
1054 1554 1
1068 1554 1
1149 1554 1
1160 1554 1
1311 1554 1
1319 1554 1
985 1555 1
988 1555 1
1055 1555 1
1069 1555 1
1150 1555 1
1161 1555 1
1312 1555 1
1320 1555 1
986 1556 1
989 1556 1
1056 1556 1
1070 1556 1
1135 1556 1
1151 1556 1
1313 1556 1
1321 1556 1
987 1557 1
990 1557 1
1057 1557 1
1071 1557 1
1136 1557 1
1152 1557 1
1314 1557 1
1322 1557 1
988 1558 1
991 1558 1
1058 1558 1
1072 1558 1
1137 1558 1
1153 1558 1
1315 1558 1
1323 1558 1
989 1559 1
992 1559 1
1059 1559 1
1073 1559 1
1138 1559 1
1154 1559 1
1297 1559 1
1316 1559 1
990 1560 1
993 1560 1
1060 1560 1
1074 1560 1
1139 1560 1
1155 1560 1
1298 1560 1
1317 1560 1
991 1561 1
994 1561 1
1061 1561 1
1075 1561 1
1140 1561 1
1156 1561 1
1299 1561 1
1318 1561 1
992 1562 1
995 1562 1
1062 1562 1
1076 1562 1
1141 1562 1
1157 1562 1
1300 1562 1
1319 1562 1
993 1563 1
996 1563 1
1063 1563 1
1077 1563 1
1142 1563 1
1158 1563 1
1301 1563 1
1320 1563 1
994 1564 1
997 1564 1
1064 1564 1
1078 1564 1
1143 1564 1
1159 1564 1
1302 1564 1
1321 1564 1
995 1565 1
998 1565 1
1065 1565 1
1079 1565 1
1144 1565 1
1160 1565 1
1303 1565 1
1322 1565 1
996 1566 1
999 1566 1
1066 1566 1
1080 1566 1
1145 1566 1
1161 1566 1
1304 1566 1
1323 1566 1
1000 1567 1
1023 1567 1
1027 1567 1
1045 1567 1
1162 1567 1
1173 1567 1
1324 1567 1
1332 1567 1
1001 1568 1
1024 1568 1
1028 1568 1
1046 1568 1
1163 1568 1
1174 1568 1
1325 1568 1
1333 1568 1
1002 1569 1
1025 1569 1
1029 1569 1
1047 1569 1
1164 1569 1
1175 1569 1
1326 1569 1
1334 1569 1
1003 1570 1
1026 1570 1
1030 1570 1
1048 1570 1
1165 1570 1
1176 1570 1
1327 1570 1
1335 1570 1
1000 1571 1
1004 1571 1
1031 1571 1
1049 1571 1
1166 1571 1
1177 1571 1
1328 1571 1
1336 1571 1
1001 1572 1
1005 1572 1
1032 1572 1
1050 1572 1
1167 1572 1
1178 1572 1
1329 1572 1
1337 1572 1
1002 1573 1
1006 1573 1
1033 1573 1
1051 1573 1
1168 1573 1
1179 1573 1
1330 1573 1
1338 1573 1
1003 1574 1
1007 1574 1
1034 1574 1
1052 1574 1
1169 1574 1
1180 1574 1
1331 1574 1
1339 1574 1
1004 1575 1
1008 1575 1
1035 1575 1
1053 1575 1
1170 1575 1
1181 1575 1
1332 1575 1
1340 1575 1
1005 1576 1
1009 1576 1
1027 1576 1
1036 1576 1
1171 1576 1
1182 1576 1
1333 1576 1
1341 1576 1
1006 1577 1
1010 1577 1
1028 1577 1
1037 1577 1
1172 1577 1
1183 1577 1
1334 1577 1
1342 1577 1
1007 1578 1
1011 1578 1
1029 1578 1
1038 1578 1
1173 1578 1
1184 1578 1
1335 1578 1
1343 1578 1
1008 1579 1
1012 1579 1
1030 1579 1
1039 1579 1
1174 1579 1
1185 1579 1
1336 1579 1
1344 1579 1
1009 1580 1
1013 1580 1
1031 1580 1
1040 1580 1
1175 1580 1
1186 1580 1
1337 1580 1
1345 1580 1
1010 1581 1
1014 1581 1
1032 1581 1
1041 1581 1
1176 1581 1
1187 1581 1
1338 1581 1
1346 1581 1
1011 1582 1
1015 1582 1
1033 1582 1
1042 1582 1
1177 1582 1
1188 1582 1
1339 1582 1
1347 1582 1
1012 1583 1
1016 1583 1
1034 1583 1
1043 1583 1
1162 1583 1
1178 1583 1
1340 1583 1
1348 1583 1
1013 1584 1
1017 1584 1
1035 1584 1
1044 1584 1
1163 1584 1
1179 1584 1
1341 1584 1
1349 1584 1
1014 1585 1
1018 1585 1
1036 1585 1
1045 1585 1
1164 1585 1
1180 1585 1
1342 1585 1
1350 1585 1
1015 1586 1
1019 1586 1
1037 1586 1
1046 1586 1
1165 1586 1
1181 1586 1
1324 1586 1
1343 1586 1
1016 1587 1
1020 1587 1
1038 1587 1
1047 1587 1
1166 1587 1
1182 1587 1
1325 1587 1
1344 1587 1
1017 1588 1
1021 1588 1
1039 1588 1
1048 1588 1
1167 1588 1
1183 1588 1
1326 1588 1
1345 1588 1
1018 1589 1
1022 1589 1
1040 1589 1
1049 1589 1
1168 1589 1
1184 1589 1
1327 1589 1
1346 1589 1
1019 1590 1
1023 1590 1
1041 1590 1
1050 1590 1
1169 1590 1
1185 1590 1
1328 1590 1
1347 1590 1
1020 1591 1
1024 1591 1
1042 1591 1
1051 1591 1
1170 1591 1
1186 1591 1
1329 1591 1
1348 1591 1
1021 1592 1
1025 1592 1
1043 1592 1
1052 1592 1
1171 1592 1
1187 1592 1
1330 1592 1
1349 1592 1
1022 1593 1
1026 1593 1
1044 1593 1
1053 1593 1
1172 1593 1
1188 1593 1
1331 1593 1
1350 1593 1
1000 1594 1
1024 1594 1
1054 1594 1
1072 1594 1
1189 1594 1
1200 1594 1
1351 1594 1
1359 1594 1
1001 1595 1
1025 1595 1
1055 1595 1
1073 1595 1
1190 1595 1
1201 1595 1
1352 1595 1
1360 1595 1
1002 1596 1
1026 1596 1
1056 1596 1
1074 1596 1
1191 1596 1
1202 1596 1
1353 1596 1
1361 1596 1
1000 1597 1
1003 1597 1
1057 1597 1
1075 1597 1
1192 1597 1
1203 1597 1
1354 1597 1
1362 1597 1
1001 1598 1
1004 1598 1
1058 1598 1
1076 1598 1
1193 1598 1
1204 1598 1
1355 1598 1
1363 1598 1
1002 1599 1
1005 1599 1
1059 1599 1
1077 1599 1
1194 1599 1
1205 1599 1
1356 1599 1
1364 1599 1
1003 1600 1
1006 1600 1
1060 1600 1
1078 1600 1
1195 1600 1
1206 1600 1
1357 1600 1
1365 1600 1
1004 1601 1
1007 1601 1
1061 1601 1
1079 1601 1
1196 1601 1
1207 1601 1
1358 1601 1
1366 1601 1
1005 1602 1
1008 1602 1
1062 1602 1
1080 1602 1
1197 1602 1
1208 1602 1
1359 1602 1
1367 1602 1
1006 1603 1
1009 1603 1
1054 1603 1
1063 1603 1
1198 1603 1
1209 1603 1
1360 1603 1
1368 1603 1
1007 1604 1
1010 1604 1
1055 1604 1
1064 1604 1
1199 1604 1
1210 1604 1
1361 1604 1
1369 1604 1
1008 1605 1
1011 1605 1
1056 1605 1
1065 1605 1
1200 1605 1
1211 1605 1
1362 1605 1
1370 1605 1
1009 1606 1
1012 1606 1
1057 1606 1
1066 1606 1
1201 1606 1
1212 1606 1
1363 1606 1
1371 1606 1
1010 1607 1
1013 1607 1
1058 1607 1
1067 1607 1
1202 1607 1
1213 1607 1
1364 1607 1
1372 1607 1
1011 1608 1
1014 1608 1
1059 1608 1
1068 1608 1
1203 1608 1
1214 1608 1
1365 1608 1
1373 1608 1
1012 1609 1
1015 1609 1
1060 1609 1
1069 1609 1
1204 1609 1
1215 1609 1
1366 1609 1
1374 1609 1
1013 1610 1
1016 1610 1
1061 1610 1
1070 1610 1
1189 1610 1
1205 1610 1
1367 1610 1
1375 1610 1
1014 1611 1
1017 1611 1
1062 1611 1
1071 1611 1
1190 1611 1
1206 1611 1
1368 1611 1
1376 1611 1
1015 1612 1
1018 1612 1
1063 1612 1
1072 1612 1
1191 1612 1
1207 1612 1
1369 1612 1
1377 1612 1
1016 1613 1
1019 1613 1
1064 1613 1
1073 1613 1
1192 1613 1
1208 1613 1
1351 1613 1
1370 1613 1
1017 1614 1
1020 1614 1
1065 1614 1
1074 1614 1
1193 1614 1
1209 1614 1
1352 1614 1
1371 1614 1
1018 1615 1
1021 1615 1
1066 1615 1
1075 1615 1
1194 1615 1
1210 1615 1
1353 1615 1
1372 1615 1
1019 1616 1
1022 1616 1
1067 1616 1
1076 1616 1
1195 1616 1
1211 1616 1
1354 1616 1
1373 1616 1
1020 1617 1
1023 1617 1
1068 1617 1
1077 1617 1
1196 1617 1
1212 1617 1
1355 1617 1
1374 1617 1
1021 1618 1
1024 1618 1
1069 1618 1
1078 1618 1
1197 1618 1
1213 1618 1
1356 1618 1
1375 1618 1
1022 1619 1
1025 1619 1
1070 1619 1
1079 1619 1
1198 1619 1
1214 1619 1
1357 1619 1
1376 1619 1
1023 1620 1
1026 1620 1
1071 1620 1
1080 1620 1
1199 1620 1
1215 1620 1
1358 1620 1
1377 1620 1
1027 1621 1
1051 1621 1
1054 1621 1
1077 1621 1
1216 1621 1
1227 1621 1
1378 1621 1
1386 1621 1
1028 1622 1
1052 1622 1
1055 1622 1
1078 1622 1
1217 1622 1
1228 1622 1
1379 1622 1
1387 1622 1
1029 1623 1
1053 1623 1
1056 1623 1
1079 1623 1
1218 1623 1
1229 1623 1
1380 1623 1
1388 1623 1
1027 1624 1
1030 1624 1
1057 1624 1
1080 1624 1
1219 1624 1
1230 1624 1
1381 1624 1
1389 1624 1
1028 1625 1
1031 1625 1
1054 1625 1
1058 1625 1
1220 1625 1
1231 1625 1
1382 1625 1
1390 1625 1
1029 1626 1
1032 1626 1
1055 1626 1
1059 1626 1
1221 1626 1
1232 1626 1
1383 1626 1
1391 1626 1
1030 1627 1
1033 1627 1
1056 1627 1
1060 1627 1
1222 1627 1
1233 1627 1
1384 1627 1
1392 1627 1
1031 1628 1
1034 1628 1
1057 1628 1
1061 1628 1
1223 1628 1
1234 1628 1
1385 1628 1
1393 1628 1
1032 1629 1
1035 1629 1
1058 1629 1
1062 1629 1
1224 1629 1
1235 1629 1
1386 1629 1
1394 1629 1
1033 1630 1
1036 1630 1
1059 1630 1
1063 1630 1
1225 1630 1
1236 1630 1
1387 1630 1
1395 1630 1
1034 1631 1
1037 1631 1
1060 1631 1
1064 1631 1
1226 1631 1
1237 1631 1
1388 1631 1
1396 1631 1
1035 1632 1
1038 1632 1
1061 1632 1
1065 1632 1
1227 1632 1
1238 1632 1
1389 1632 1
1397 1632 1
1036 1633 1
1039 1633 1
1062 1633 1
1066 1633 1
1228 1633 1
1239 1633 1
1390 1633 1
1398 1633 1
1037 1634 1
1040 1634 1
1063 1634 1
1067 1634 1
1229 1634 1
1240 1634 1
1391 1634 1
1399 1634 1
1038 1635 1
1041 1635 1
1064 1635 1
1068 1635 1
1230 1635 1
1241 1635 1
1392 1635 1
1400 1635 1
1039 1636 1
1042 1636 1
1065 1636 1
1069 1636 1
1231 1636 1
1242 1636 1
1393 1636 1
1401 1636 1
1040 1637 1
1043 1637 1
1066 1637 1
1070 1637 1
1216 1637 1
1232 1637 1
1394 1637 1
1402 1637 1
1041 1638 1
1044 1638 1
1067 1638 1
1071 1638 1
1217 1638 1
1233 1638 1
1395 1638 1
1403 1638 1
1042 1639 1
1045 1639 1
1068 1639 1
1072 1639 1
1218 1639 1
1234 1639 1
1396 1639 1
1404 1639 1
1043 1640 1
1046 1640 1
1069 1640 1
1073 1640 1
1219 1640 1
1235 1640 1
1378 1640 1
1397 1640 1
1044 1641 1
1047 1641 1
1070 1641 1
1074 1641 1
1220 1641 1
1236 1641 1
1379 1641 1
1398 1641 1
1045 1642 1
1048 1642 1
1071 1642 1
1075 1642 1
1221 1642 1
1237 1642 1
1380 1642 1
1399 1642 1
1046 1643 1
1049 1643 1
1072 1643 1
1076 1643 1
1222 1643 1
1238 1643 1
1381 1643 1
1400 1643 1
1047 1644 1
1050 1644 1
1073 1644 1
1077 1644 1
1223 1644 1
1239 1644 1
1382 1644 1
1401 1644 1
1048 1645 1
1051 1645 1
1074 1645 1
1078 1645 1
1224 1645 1
1240 1645 1
1383 1645 1
1402 1645 1
1049 1646 1
1052 1646 1
1075 1646 1
1079 1646 1
1225 1646 1
1241 1646 1
1384 1646 1
1403 1646 1
1050 1647 1
1053 1647 1
1076 1647 1
1080 1647 1
1226 1647 1
1242 1647 1
1385 1647 1
1404 1647 1
1081 1648 1
1104 1648 1
1108 1648 1
1126 1648 1
1162 1648 1
1175 1648 1
1405 1648 1
1413 1648 1
1082 1649 1
1105 1649 1
1109 1649 1
1127 1649 1
1163 1649 1
1176 1649 1
1406 1649 1
1414 1649 1
1083 1650 1
1106 1650 1
1110 1650 1
1128 1650 1
1164 1650 1
1177 1650 1
1407 1650 1
1415 1650 1
1084 1651 1
1107 1651 1
1111 1651 1
1129 1651 1
1165 1651 1
1178 1651 1
1408 1651 1
1416 1651 1
1081 1652 1
1085 1652 1
1112 1652 1
1130 1652 1
1166 1652 1
1179 1652 1
1409 1652 1
1417 1652 1
1082 1653 1
1086 1653 1
1113 1653 1
1131 1653 1
1167 1653 1
1180 1653 1
1410 1653 1
1418 1653 1
1083 1654 1
1087 1654 1
1114 1654 1
1132 1654 1
1168 1654 1
1181 1654 1
1411 1654 1
1419 1654 1
1084 1655 1
1088 1655 1
1115 1655 1
1133 1655 1
1169 1655 1
1182 1655 1
1412 1655 1
1420 1655 1
1085 1656 1
1089 1656 1
1116 1656 1
1134 1656 1
1170 1656 1
1183 1656 1
1413 1656 1
1421 1656 1
1086 1657 1
1090 1657 1
1108 1657 1
1117 1657 1
1171 1657 1
1184 1657 1
1414 1657 1
1422 1657 1
1087 1658 1
1091 1658 1
1109 1658 1
1118 1658 1
1172 1658 1
1185 1658 1
1415 1658 1
1423 1658 1
1088 1659 1
1092 1659 1
1110 1659 1
1119 1659 1
1173 1659 1
1186 1659 1
1416 1659 1
1424 1659 1
1089 1660 1
1093 1660 1
1111 1660 1
1120 1660 1
1174 1660 1
1187 1660 1
1417 1660 1
1425 1660 1
1090 1661 1
1094 1661 1
1112 1661 1
1121 1661 1
1175 1661 1
1188 1661 1
1418 1661 1
1426 1661 1
1091 1662 1
1095 1662 1
1113 1662 1
1122 1662 1
1162 1662 1
1176 1662 1
1419 1662 1
1427 1662 1
1092 1663 1
1096 1663 1
1114 1663 1
1123 1663 1
1163 1663 1
1177 1663 1
1420 1663 1
1428 1663 1
1093 1664 1
1097 1664 1
1115 1664 1
1124 1664 1
1164 1664 1
1178 1664 1
1421 1664 1
1429 1664 1
1094 1665 1
1098 1665 1
1116 1665 1
1125 1665 1
1165 1665 1
1179 1665 1
1422 1665 1
1430 1665 1
1095 1666 1
1099 1666 1
1117 1666 1
1126 1666 1
1166 1666 1
1180 1666 1
1423 1666 1
1431 1666 1
1096 1667 1
1100 1667 1
1118 1667 1
1127 1667 1
1167 1667 1
1181 1667 1
1405 1667 1
1424 1667 1
1097 1668 1
1101 1668 1
1119 1668 1
1128 1668 1
1168 1668 1
1182 1668 1
1406 1668 1
1425 1668 1
1098 1669 1
1102 1669 1
1120 1669 1
1129 1669 1
1169 1669 1
1183 1669 1
1407 1669 1
1426 1669 1
1099 1670 1
1103 1670 1
1121 1670 1
1130 1670 1
1170 1670 1
1184 1670 1
1408 1670 1
1427 1670 1
1100 1671 1
1104 1671 1
1122 1671 1
1131 1671 1
1171 1671 1
1185 1671 1
1409 1671 1
1428 1671 1
1101 1672 1
1105 1672 1
1123 1672 1
1132 1672 1
1172 1672 1
1186 1672 1
1410 1672 1
1429 1672 1
1102 1673 1
1106 1673 1
1124 1673 1
1133 1673 1
1173 1673 1
1187 1673 1
1411 1673 1
1430 1673 1
1103 1674 1
1107 1674 1
1125 1674 1
1134 1674 1
1174 1674 1
1188 1674 1
1412 1674 1
1431 1674 1
1081 1675 1
1105 1675 1
1135 1675 1
1153 1675 1
1189 1675 1
1202 1675 1
1432 1675 1
1440 1675 1
1082 1676 1
1106 1676 1
1136 1676 1
1154 1676 1
1190 1676 1
1203 1676 1
1433 1676 1
1441 1676 1
1083 1677 1
1107 1677 1
1137 1677 1
1155 1677 1
1191 1677 1
1204 1677 1
1434 1677 1
1442 1677 1
1081 1678 1
1084 1678 1
1138 1678 1
1156 1678 1
1192 1678 1
1205 1678 1
1435 1678 1
1443 1678 1
1082 1679 1
1085 1679 1
1139 1679 1
1157 1679 1
1193 1679 1
1206 1679 1
1436 1679 1
1444 1679 1
1083 1680 1
1086 1680 1
1140 1680 1
1158 1680 1
1194 1680 1
1207 1680 1
1437 1680 1
1445 1680 1
1084 1681 1
1087 1681 1
1141 1681 1
1159 1681 1
1195 1681 1
1208 1681 1
1438 1681 1
1446 1681 1
1085 1682 1
1088 1682 1
1142 1682 1
1160 1682 1
1196 1682 1
1209 1682 1
1439 1682 1
1447 1682 1
1086 1683 1
1089 1683 1
1143 1683 1
1161 1683 1
1197 1683 1
1210 1683 1
1440 1683 1
1448 1683 1
1087 1684 1
1090 1684 1
1135 1684 1
1144 1684 1
1198 1684 1
1211 1684 1
1441 1684 1
1449 1684 1
1088 1685 1
1091 1685 1
1136 1685 1
1145 1685 1
1199 1685 1
1212 1685 1
1442 1685 1
1450 1685 1
1089 1686 1
1092 1686 1
1137 1686 1
1146 1686 1
1200 1686 1
1213 1686 1
1443 1686 1
1451 1686 1
1090 1687 1
1093 1687 1
1138 1687 1
1147 1687 1
1201 1687 1
1214 1687 1
1444 1687 1
1452 1687 1
1091 1688 1
1094 1688 1
1139 1688 1
1148 1688 1
1202 1688 1
1215 1688 1
1445 1688 1
1453 1688 1
1092 1689 1
1095 1689 1
1140 1689 1
1149 1689 1
1189 1689 1
1203 1689 1
1446 1689 1
1454 1689 1
1093 1690 1
1096 1690 1
1141 1690 1
1150 1690 1
1190 1690 1
1204 1690 1
1447 1690 1
1455 1690 1
1094 1691 1
1097 1691 1
1142 1691 1
1151 1691 1
1191 1691 1
1205 1691 1
1448 1691 1
1456 1691 1
1095 1692 1
1098 1692 1
1143 1692 1
1152 1692 1
1192 1692 1
1206 1692 1
1449 1692 1
1457 1692 1
1096 1693 1
1099 1693 1
1144 1693 1
1153 1693 1
1193 1693 1
1207 1693 1
1450 1693 1
1458 1693 1
1097 1694 1
1100 1694 1
1145 1694 1
1154 1694 1
1194 1694 1
1208 1694 1
1432 1694 1
1451 1694 1
1098 1695 1
1101 1695 1
1146 1695 1
1155 1695 1
1195 1695 1
1209 1695 1
1433 1695 1
1452 1695 1
1099 1696 1
1102 1696 1
1147 1696 1
1156 1696 1
1196 1696 1
1210 1696 1
1434 1696 1
1453 1696 1
1100 1697 1
1103 1697 1
1148 1697 1
1157 1697 1
1197 1697 1
1211 1697 1
1435 1697 1
1454 1697 1
1101 1698 1
1104 1698 1
1149 1698 1
1158 1698 1
1198 1698 1
1212 1698 1
1436 1698 1
1455 1698 1
1102 1699 1
1105 1699 1
1150 1699 1
1159 1699 1
1199 1699 1
1213 1699 1
1437 1699 1
1456 1699 1
1103 1700 1
1106 1700 1
1151 1700 1
1160 1700 1
1200 1700 1
1214 1700 1
1438 1700 1
1457 1700 1
1104 1701 1
1107 1701 1
1152 1701 1
1161 1701 1
1201 1701 1
1215 1701 1
1439 1701 1
1458 1701 1
1108 1702 1
1132 1702 1
1135 1702 1
1158 1702 1
1216 1702 1
1229 1702 1
1459 1702 1
1467 1702 1
1109 1703 1
1133 1703 1
1136 1703 1
1159 1703 1
1217 1703 1
1230 1703 1
1460 1703 1
1468 1703 1
1110 1704 1
1134 1704 1
1137 1704 1
1160 1704 1
1218 1704 1
1231 1704 1
1461 1704 1
1469 1704 1
1108 1705 1
1111 1705 1
1138 1705 1
1161 1705 1
1219 1705 1
1232 1705 1
1462 1705 1
1470 1705 1
1109 1706 1
1112 1706 1
1135 1706 1
1139 1706 1
1220 1706 1
1233 1706 1
1463 1706 1
1471 1706 1
1110 1707 1
1113 1707 1
1136 1707 1
1140 1707 1
1221 1707 1
1234 1707 1
1464 1707 1
1472 1707 1
1111 1708 1
1114 1708 1
1137 1708 1
1141 1708 1
1222 1708 1
1235 1708 1
1465 1708 1
1473 1708 1
1112 1709 1
1115 1709 1
1138 1709 1
1142 1709 1
1223 1709 1
1236 1709 1
1466 1709 1
1474 1709 1
1113 1710 1
1116 1710 1
1139 1710 1
1143 1710 1
1224 1710 1
1237 1710 1
1467 1710 1
1475 1710 1
1114 1711 1
1117 1711 1
1140 1711 1
1144 1711 1
1225 1711 1
1238 1711 1
1468 1711 1
1476 1711 1
1115 1712 1
1118 1712 1
1141 1712 1
1145 1712 1
1226 1712 1
1239 1712 1
1469 1712 1
1477 1712 1
1116 1713 1
1119 1713 1
1142 1713 1
1146 1713 1
1227 1713 1
1240 1713 1
1470 1713 1
1478 1713 1
1117 1714 1
1120 1714 1
1143 1714 1
1147 1714 1
1228 1714 1
1241 1714 1
1471 1714 1
1479 1714 1
1118 1715 1
1121 1715 1
1144 1715 1
1148 1715 1
1229 1715 1
1242 1715 1
1472 1715 1
1480 1715 1
1119 1716 1
1122 1716 1
1145 1716 1
1149 1716 1
1216 1716 1
1230 1716 1
1473 1716 1
1481 1716 1
1120 1717 1
1123 1717 1
1146 1717 1
1150 1717 1
1217 1717 1
1231 1717 1
1474 1717 1
1482 1717 1
1121 1718 1
1124 1718 1
1147 1718 1
1151 1718 1
1218 1718 1
1232 1718 1
1475 1718 1
1483 1718 1
1122 1719 1
1125 1719 1
1148 1719 1
1152 1719 1
1219 1719 1
1233 1719 1
1476 1719 1
1484 1719 1
1123 1720 1
1126 1720 1
1149 1720 1
1153 1720 1
1220 1720 1
1234 1720 1
1477 1720 1
1485 1720 1
1124 1721 1
1127 1721 1
1150 1721 1
1154 1721 1
1221 1721 1
1235 1721 1
1459 1721 1
1478 1721 1
1125 1722 1
1128 1722 1
1151 1722 1
1155 1722 1
1222 1722 1
1236 1722 1
1460 1722 1
1479 1722 1
1126 1723 1
1129 1723 1
1152 1723 1
1156 1723 1
1223 1723 1
1237 1723 1
1461 1723 1
1480 1723 1
1127 1724 1
1130 1724 1
1153 1724 1
1157 1724 1
1224 1724 1
1238 1724 1
1462 1724 1
1481 1724 1
1128 1725 1
1131 1725 1
1154 1725 1
1158 1725 1
1225 1725 1
1239 1725 1
1463 1725 1
1482 1725 1
1129 1726 1
1132 1726 1
1155 1726 1
1159 1726 1
1226 1726 1
1240 1726 1
1464 1726 1
1483 1726 1
1130 1727 1
1133 1727 1
1156 1727 1
1160 1727 1
1227 1727 1
1241 1727 1
1465 1727 1
1484 1727 1
1131 1728 1
1134 1728 1
1157 1728 1
1161 1728 1
1228 1728 1
1242 1728 1
1466 1728 1
1485 1728 1
1162 1729 1
1186 1729 1
1189 1729 1
1212 1729 1
1216 1729 1
1234 1729 1
1486 1729 1
1494 1729 1
1163 1730 1
1187 1730 1
1190 1730 1
1213 1730 1
1217 1730 1
1235 1730 1
1487 1730 1
1495 1730 1
1164 1731 1
1188 1731 1
1191 1731 1
1214 1731 1
1218 1731 1
1236 1731 1
1488 1731 1
1496 1731 1
1162 1732 1
1165 1732 1
1192 1732 1
1215 1732 1
1219 1732 1
1237 1732 1
1489 1732 1
1497 1732 1
1163 1733 1
1166 1733 1
1189 1733 1
1193 1733 1
1220 1733 1
1238 1733 1
1490 1733 1
1498 1733 1
1164 1734 1
1167 1734 1
1190 1734 1
1194 1734 1
1221 1734 1
1239 1734 1
1491 1734 1
1499 1734 1
1165 1735 1
1168 1735 1
1191 1735 1
1195 1735 1
1222 1735 1
1240 1735 1
1492 1735 1
1500 1735 1
1166 1736 1
1169 1736 1
1192 1736 1
1196 1736 1
1223 1736 1
1241 1736 1
1493 1736 1
1501 1736 1
1167 1737 1
1170 1737 1
1193 1737 1
1197 1737 1
1224 1737 1
1242 1737 1
1494 1737 1
1502 1737 1
1168 1738 1
1171 1738 1
1194 1738 1
1198 1738 1
1216 1738 1
1225 1738 1
1495 1738 1
1503 1738 1
1169 1739 1
1172 1739 1
1195 1739 1
1199 1739 1
1217 1739 1
1226 1739 1
1496 1739 1
1504 1739 1
1170 1740 1
1173 1740 1
1196 1740 1
1200 1740 1
1218 1740 1
1227 1740 1
1497 1740 1
1505 1740 1
1171 1741 1
1174 1741 1
1197 1741 1
1201 1741 1
1219 1741 1
1228 1741 1
1498 1741 1
1506 1741 1
1172 1742 1
1175 1742 1
1198 1742 1
1202 1742 1
1220 1742 1
1229 1742 1
1499 1742 1
1507 1742 1
1173 1743 1
1176 1743 1
1199 1743 1
1203 1743 1
1221 1743 1
1230 1743 1
1500 1743 1
1508 1743 1
1174 1744 1
1177 1744 1
1200 1744 1
1204 1744 1
1222 1744 1
1231 1744 1
1501 1744 1
1509 1744 1
1175 1745 1
1178 1745 1
1201 1745 1
1205 1745 1
1223 1745 1
1232 1745 1
1502 1745 1
1510 1745 1
1176 1746 1
1179 1746 1
1202 1746 1
1206 1746 1
1224 1746 1
1233 1746 1
1503 1746 1
1511 1746 1
1177 1747 1
1180 1747 1
1203 1747 1
1207 1747 1
1225 1747 1
1234 1747 1
1504 1747 1
1512 1747 1
1178 1748 1
1181 1748 1
1204 1748 1
1208 1748 1
1226 1748 1
1235 1748 1
1486 1748 1
1505 1748 1
1179 1749 1
1182 1749 1
1205 1749 1
1209 1749 1
1227 1749 1
1236 1749 1
1487 1749 1
1506 1749 1
1180 1750 1
1183 1750 1
1206 1750 1
1210 1750 1
1228 1750 1
1237 1750 1
1488 1750 1
1507 1750 1
1181 1751 1
1184 1751 1
1207 1751 1
1211 1751 1
1229 1751 1
1238 1751 1
1489 1751 1
1508 1751 1
1182 1752 1
1185 1752 1
1208 1752 1
1212 1752 1
1230 1752 1
1239 1752 1
1490 1752 1
1509 1752 1
1183 1753 1
1186 1753 1
1209 1753 1
1213 1753 1
1231 1753 1
1240 1753 1
1491 1753 1
1510 1753 1
1184 1754 1
1187 1754 1
1210 1754 1
1214 1754 1
1232 1754 1
1241 1754 1
1492 1754 1
1511 1754 1
1185 1755 1
1188 1755 1
1211 1755 1
1215 1755 1
1233 1755 1
1242 1755 1
1493 1755 1
1512 1755 1
1243 1756 1
1266 1756 1
1270 1756 1
1288 1756 1
1324 1756 1
1337 1756 1
1405 1756 1
1416 1756 1
1244 1757 1
1267 1757 1
1271 1757 1
1289 1757 1
1325 1757 1
1338 1757 1
1406 1757 1
1417 1757 1
1245 1758 1
1268 1758 1
1272 1758 1
1290 1758 1
1326 1758 1
1339 1758 1
1407 1758 1
1418 1758 1
1246 1759 1
1269 1759 1
1273 1759 1
1291 1759 1
1327 1759 1
1340 1759 1
1408 1759 1
1419 1759 1
1243 1760 1
1247 1760 1
1274 1760 1
1292 1760 1
1328 1760 1
1341 1760 1
1409 1760 1
1420 1760 1
1244 1761 1
1248 1761 1
1275 1761 1
1293 1761 1
1329 1761 1
1342 1761 1
1410 1761 1
1421 1761 1
1245 1762 1
1249 1762 1
1276 1762 1
1294 1762 1
1330 1762 1
1343 1762 1
1411 1762 1
1422 1762 1
1246 1763 1
1250 1763 1
1277 1763 1
1295 1763 1
1331 1763 1
1344 1763 1
1412 1763 1
1423 1763 1
1247 1764 1
1251 1764 1
1278 1764 1
1296 1764 1
1332 1764 1
1345 1764 1
1413 1764 1
1424 1764 1
1248 1765 1
1252 1765 1
1270 1765 1
1279 1765 1
1333 1765 1
1346 1765 1
1414 1765 1
1425 1765 1
1249 1766 1
1253 1766 1
1271 1766 1
1280 1766 1
1334 1766 1
1347 1766 1
1415 1766 1
1426 1766 1
1250 1767 1
1254 1767 1
1272 1767 1
1281 1767 1
1335 1767 1
1348 1767 1
1416 1767 1
1427 1767 1
1251 1768 1
1255 1768 1
1273 1768 1
1282 1768 1
1336 1768 1
1349 1768 1
1417 1768 1
1428 1768 1
1252 1769 1
1256 1769 1
1274 1769 1
1283 1769 1
1337 1769 1
1350 1769 1
1418 1769 1
1429 1769 1
1253 1770 1
1257 1770 1
1275 1770 1
1284 1770 1
1324 1770 1
1338 1770 1
1419 1770 1
1430 1770 1
1254 1771 1
1258 1771 1
1276 1771 1
1285 1771 1
1325 1771 1
1339 1771 1
1420 1771 1
1431 1771 1
1255 1772 1
1259 1772 1
1277 1772 1
1286 1772 1
1326 1772 1
1340 1772 1
1405 1772 1
1421 1772 1
1256 1773 1
1260 1773 1
1278 1773 1
1287 1773 1
1327 1773 1
1341 1773 1
1406 1773 1
1422 1773 1
1257 1774 1
1261 1774 1
1279 1774 1
1288 1774 1
1328 1774 1
1342 1774 1
1407 1774 1
1423 1774 1
1258 1775 1
1262 1775 1
1280 1775 1
1289 1775 1
1329 1775 1
1343 1775 1
1408 1775 1
1424 1775 1
1259 1776 1
1263 1776 1
1281 1776 1
1290 1776 1
1330 1776 1
1344 1776 1
1409 1776 1
1425 1776 1
1260 1777 1
1264 1777 1
1282 1777 1
1291 1777 1
1331 1777 1
1345 1777 1
1410 1777 1
1426 1777 1
1261 1778 1
1265 1778 1
1283 1778 1
1292 1778 1
1332 1778 1
1346 1778 1
1411 1778 1
1427 1778 1
1262 1779 1
1266 1779 1
1284 1779 1
1293 1779 1
1333 1779 1
1347 1779 1
1412 1779 1
1428 1779 1
1263 1780 1
1267 1780 1
1285 1780 1
1294 1780 1
1334 1780 1
1348 1780 1
1413 1780 1
1429 1780 1
1264 1781 1
1268 1781 1
1286 1781 1
1295 1781 1
1335 1781 1
1349 1781 1
1414 1781 1
1430 1781 1
1265 1782 1
1269 1782 1
1287 1782 1
1296 1782 1
1336 1782 1
1350 1782 1
1415 1782 1
1431 1782 1
1243 1783 1
1267 1783 1
1297 1783 1
1315 1783 1
1351 1783 1
1364 1783 1
1432 1783 1
1443 1783 1
1244 1784 1
1268 1784 1
1298 1784 1
1316 1784 1
1352 1784 1
1365 1784 1
1433 1784 1
1444 1784 1
1245 1785 1
1269 1785 1
1299 1785 1
1317 1785 1
1353 1785 1
1366 1785 1
1434 1785 1
1445 1785 1
1243 1786 1
1246 1786 1
1300 1786 1
1318 1786 1
1354 1786 1
1367 1786 1
1435 1786 1
1446 1786 1
1244 1787 1
1247 1787 1
1301 1787 1
1319 1787 1
1355 1787 1
1368 1787 1
1436 1787 1
1447 1787 1
1245 1788 1
1248 1788 1
1302 1788 1
1320 1788 1
1356 1788 1
1369 1788 1
1437 1788 1
1448 1788 1
1246 1789 1
1249 1789 1
1303 1789 1
1321 1789 1
1357 1789 1
1370 1789 1
1438 1789 1
1449 1789 1
1247 1790 1
1250 1790 1
1304 1790 1
1322 1790 1
1358 1790 1
1371 1790 1
1439 1790 1
1450 1790 1
1248 1791 1
1251 1791 1
1305 1791 1
1323 1791 1
1359 1791 1
1372 1791 1
1440 1791 1
1451 1791 1
1249 1792 1
1252 1792 1
1297 1792 1
1306 1792 1
1360 1792 1
1373 1792 1
1441 1792 1
1452 1792 1
1250 1793 1
1253 1793 1
1298 1793 1
1307 1793 1
1361 1793 1
1374 1793 1
1442 1793 1
1453 1793 1
1251 1794 1
1254 1794 1
1299 1794 1
1308 1794 1
1362 1794 1
1375 1794 1
1443 1794 1
1454 1794 1
1252 1795 1
1255 1795 1
1300 1795 1
1309 1795 1
1363 1795 1
1376 1795 1
1444 1795 1
1455 1795 1
1253 1796 1
1256 1796 1
1301 1796 1
1310 1796 1
1364 1796 1
1377 1796 1
1445 1796 1
1456 1796 1
1254 1797 1
1257 1797 1
1302 1797 1
1311 1797 1
1351 1797 1
1365 1797 1
1446 1797 1
1457 1797 1
1255 1798 1
1258 1798 1
1303 1798 1
1312 1798 1
1352 1798 1
1366 1798 1
1447 1798 1
1458 1798 1
1256 1799 1
1259 1799 1
1304 1799 1
1313 1799 1
1353 1799 1
1367 1799 1
1432 1799 1
1448 1799 1
1257 1800 1
1260 1800 1
1305 1800 1
1314 1800 1
1354 1800 1
1368 1800 1
1433 1800 1
1449 1800 1
1258 1801 1
1261 1801 1
1306 1801 1
1315 1801 1
1355 1801 1
1369 1801 1
1434 1801 1
1450 1801 1
1259 1802 1
1262 1802 1
1307 1802 1
1316 1802 1
1356 1802 1
1370 1802 1
1435 1802 1
1451 1802 1
1260 1803 1
1263 1803 1
1308 1803 1
1317 1803 1
1357 1803 1
1371 1803 1
1436 1803 1
1452 1803 1
1261 1804 1
1264 1804 1
1309 1804 1
1318 1804 1
1358 1804 1
1372 1804 1
1437 1804 1
1453 1804 1
1262 1805 1
1265 1805 1
1310 1805 1
1319 1805 1
1359 1805 1
1373 1805 1
1438 1805 1
1454 1805 1
1263 1806 1
1266 1806 1
1311 1806 1
1320 1806 1
1360 1806 1
1374 1806 1
1439 1806 1
1455 1806 1
1264 1807 1
1267 1807 1
1312 1807 1
1321 1807 1
1361 1807 1
1375 1807 1
1440 1807 1
1456 1807 1
1265 1808 1
1268 1808 1
1313 1808 1
1322 1808 1
1362 1808 1
1376 1808 1
1441 1808 1
1457 1808 1
1266 1809 1
1269 1809 1
1314 1809 1
1323 1809 1
1363 1809 1
1377 1809 1
1442 1809 1
1458 1809 1
1270 1810 1
1294 1810 1
1297 1810 1
1320 1810 1
1378 1810 1
1391 1810 1
1459 1810 1
1470 1810 1
1271 1811 1
1295 1811 1
1298 1811 1
1321 1811 1
1379 1811 1
1392 1811 1
1460 1811 1
1471 1811 1
1272 1812 1
1296 1812 1
1299 1812 1
1322 1812 1
1380 1812 1
1393 1812 1
1461 1812 1
1472 1812 1
1270 1813 1
1273 1813 1
1300 1813 1
1323 1813 1
1381 1813 1
1394 1813 1
1462 1813 1
1473 1813 1
1271 1814 1
1274 1814 1
1297 1814 1
1301 1814 1
1382 1814 1
1395 1814 1
1463 1814 1
1474 1814 1
1272 1815 1
1275 1815 1
1298 1815 1
1302 1815 1
1383 1815 1
1396 1815 1
1464 1815 1
1475 1815 1
1273 1816 1
1276 1816 1
1299 1816 1
1303 1816 1
1384 1816 1
1397 1816 1
1465 1816 1
1476 1816 1
1274 1817 1
1277 1817 1
1300 1817 1
1304 1817 1
1385 1817 1
1398 1817 1
1466 1817 1
1477 1817 1
1275 1818 1
1278 1818 1
1301 1818 1
1305 1818 1
1386 1818 1
1399 1818 1
1467 1818 1
1478 1818 1
1276 1819 1
1279 1819 1
1302 1819 1
1306 1819 1
1387 1819 1
1400 1819 1
1468 1819 1
1479 1819 1
1277 1820 1
1280 1820 1
1303 1820 1
1307 1820 1
1388 1820 1
1401 1820 1
1469 1820 1
1480 1820 1
1278 1821 1
1281 1821 1
1304 1821 1
1308 1821 1
1389 1821 1
1402 1821 1
1470 1821 1
1481 1821 1
1279 1822 1
1282 1822 1
1305 1822 1
1309 1822 1
1390 1822 1
1403 1822 1
1471 1822 1
1482 1822 1
1280 1823 1
1283 1823 1
1306 1823 1
1310 1823 1
1391 1823 1
1404 1823 1
1472 1823 1
1483 1823 1
1281 1824 1
1284 1824 1
1307 1824 1
1311 1824 1
1378 1824 1
1392 1824 1
1473 1824 1
1484 1824 1
1282 1825 1
1285 1825 1
1308 1825 1
1312 1825 1
1379 1825 1
1393 1825 1
1474 1825 1
1485 1825 1
1283 1826 1
1286 1826 1
1309 1826 1
1313 1826 1
1380 1826 1
1394 1826 1
1459 1826 1
1475 1826 1
1284 1827 1
1287 1827 1
1310 1827 1
1314 1827 1
1381 1827 1
1395 1827 1
1460 1827 1
1476 1827 1
1285 1828 1
1288 1828 1
1311 1828 1
1315 1828 1
1382 1828 1
1396 1828 1
1461 1828 1
1477 1828 1
1286 1829 1
1289 1829 1
1312 1829 1
1316 1829 1
1383 1829 1
1397 1829 1
1462 1829 1
1478 1829 1
1287 1830 1
1290 1830 1
1313 1830 1
1317 1830 1
1384 1830 1
1398 1830 1
1463 1830 1
1479 1830 1
1288 1831 1
1291 1831 1
1314 1831 1
1318 1831 1
1385 1831 1
1399 1831 1
1464 1831 1
1480 1831 1
1289 1832 1
1292 1832 1
1315 1832 1
1319 1832 1
1386 1832 1
1400 1832 1
1465 1832 1
1481 1832 1
1290 1833 1
1293 1833 1
1316 1833 1
1320 1833 1
1387 1833 1
1401 1833 1
1466 1833 1
1482 1833 1
1291 1834 1
1294 1834 1
1317 1834 1
1321 1834 1
1388 1834 1
1402 1834 1
1467 1834 1
1483 1834 1
1292 1835 1
1295 1835 1
1318 1835 1
1322 1835 1
1389 1835 1
1403 1835 1
1468 1835 1
1484 1835 1
1293 1836 1
1296 1836 1
1319 1836 1
1323 1836 1
1390 1836 1
1404 1836 1
1469 1836 1
1485 1836 1
1324 1837 1
1348 1837 1
1351 1837 1
1374 1837 1
1378 1837 1
1396 1837 1
1486 1837 1
1497 1837 1
1325 1838 1
1349 1838 1
1352 1838 1
1375 1838 1
1379 1838 1
1397 1838 1
1487 1838 1
1498 1838 1
1326 1839 1
1350 1839 1
1353 1839 1
1376 1839 1
1380 1839 1
1398 1839 1
1488 1839 1
1499 1839 1
1324 1840 1
1327 1840 1
1354 1840 1
1377 1840 1
1381 1840 1
1399 1840 1
1489 1840 1
1500 1840 1
1325 1841 1
1328 1841 1
1351 1841 1
1355 1841 1
1382 1841 1
1400 1841 1
1490 1841 1
1501 1841 1
1326 1842 1
1329 1842 1
1352 1842 1
1356 1842 1
1383 1842 1
1401 1842 1
1491 1842 1
1502 1842 1
1327 1843 1
1330 1843 1
1353 1843 1
1357 1843 1
1384 1843 1
1402 1843 1
1492 1843 1
1503 1843 1
1328 1844 1
1331 1844 1
1354 1844 1
1358 1844 1
1385 1844 1
1403 1844 1
1493 1844 1
1504 1844 1
1329 1845 1
1332 1845 1
1355 1845 1
1359 1845 1
1386 1845 1
1404 1845 1
1494 1845 1
1505 1845 1
1330 1846 1
1333 1846 1
1356 1846 1
1360 1846 1
1378 1846 1
1387 1846 1
1495 1846 1
1506 1846 1
1331 1847 1
1334 1847 1
1357 1847 1
1361 1847 1
1379 1847 1
1388 1847 1
1496 1847 1
1507 1847 1
1332 1848 1
1335 1848 1
1358 1848 1
1362 1848 1
1380 1848 1
1389 1848 1
1497 1848 1
1508 1848 1
1333 1849 1
1336 1849 1
1359 1849 1
1363 1849 1
1381 1849 1
1390 1849 1
1498 1849 1
1509 1849 1
1334 1850 1
1337 1850 1
1360 1850 1
1364 1850 1
1382 1850 1
1391 1850 1
1499 1850 1
1510 1850 1
1335 1851 1
1338 1851 1
1361 1851 1
1365 1851 1
1383 1851 1
1392 1851 1
1500 1851 1
1511 1851 1
1336 1852 1
1339 1852 1
1362 1852 1
1366 1852 1
1384 1852 1
1393 1852 1
1501 1852 1
1512 1852 1
1337 1853 1
1340 1853 1
1363 1853 1
1367 1853 1
1385 1853 1
1394 1853 1
1486 1853 1
1502 1853 1
1338 1854 1
1341 1854 1
1364 1854 1
1368 1854 1
1386 1854 1
1395 1854 1
1487 1854 1
1503 1854 1
1339 1855 1
1342 1855 1
1365 1855 1
1369 1855 1
1387 1855 1
1396 1855 1
1488 1855 1
1504 1855 1
1340 1856 1
1343 1856 1
1366 1856 1
1370 1856 1
1388 1856 1
1397 1856 1
1489 1856 1
1505 1856 1
1341 1857 1
1344 1857 1
1367 1857 1
1371 1857 1
1389 1857 1
1398 1857 1
1490 1857 1
1506 1857 1
1342 1858 1
1345 1858 1
1368 1858 1
1372 1858 1
1390 1858 1
1399 1858 1
1491 1858 1
1507 1858 1
1343 1859 1
1346 1859 1
1369 1859 1
1373 1859 1
1391 1859 1
1400 1859 1
1492 1859 1
1508 1859 1
1344 1860 1
1347 1860 1
1370 1860 1
1374 1860 1
1392 1860 1
1401 1860 1
1493 1860 1
1509 1860 1
1345 1861 1
1348 1861 1
1371 1861 1
1375 1861 1
1393 1861 1
1402 1861 1
1494 1861 1
1510 1861 1
1346 1862 1
1349 1862 1
1372 1862 1
1376 1862 1
1394 1862 1
1403 1862 1
1495 1862 1
1511 1862 1
1347 1863 1
1350 1863 1
1373 1863 1
1377 1863 1
1395 1863 1
1404 1863 1
1496 1863 1
1512 1863 1
1405 1864 1
1429 1864 1
1432 1864 1
1455 1864 1
1459 1864 1
1477 1864 1
1486 1864 1
1499 1864 1
1406 1865 1
1430 1865 1
1433 1865 1
1456 1865 1
1460 1865 1
1478 1865 1
1487 1865 1
1500 1865 1
1407 1866 1
1431 1866 1
1434 1866 1
1457 1866 1
1461 1866 1
1479 1866 1
1488 1866 1
1501 1866 1
1405 1867 1
1408 1867 1
1435 1867 1
1458 1867 1
1462 1867 1
1480 1867 1
1489 1867 1
1502 1867 1
1406 1868 1
1409 1868 1
1432 1868 1
1436 1868 1
1463 1868 1
1481 1868 1
1490 1868 1
1503 1868 1
1407 1869 1
1410 1869 1
1433 1869 1
1437 1869 1
1464 1869 1
1482 1869 1
1491 1869 1
1504 1869 1
1408 1870 1
1411 1870 1
1434 1870 1
1438 1870 1
1465 1870 1
1483 1870 1
1492 1870 1
1505 1870 1
1409 1871 1
1412 1871 1
1435 1871 1
1439 1871 1
1466 1871 1
1484 1871 1
1493 1871 1
1506 1871 1
1410 1872 1
1413 1872 1
1436 1872 1
1440 1872 1
1467 1872 1
1485 1872 1
1494 1872 1
1507 1872 1
1411 1873 1
1414 1873 1
1437 1873 1
1441 1873 1
1459 1873 1
1468 1873 1
1495 1873 1
1508 1873 1
1412 1874 1
1415 1874 1
1438 1874 1
1442 1874 1
1460 1874 1
1469 1874 1
1496 1874 1
1509 1874 1
1413 1875 1
1416 1875 1
1439 1875 1
1443 1875 1
1461 1875 1
1470 1875 1
1497 1875 1
1510 1875 1
1414 1876 1
1417 1876 1
1440 1876 1
1444 1876 1
1462 1876 1
1471 1876 1
1498 1876 1
1511 1876 1
1415 1877 1
1418 1877 1
1441 1877 1
1445 1877 1
1463 1877 1
1472 1877 1
1499 1877 1
1512 1877 1
1416 1878 1
1419 1878 1
1442 1878 1
1446 1878 1
1464 1878 1
1473 1878 1
1486 1878 1
1500 1878 1
1417 1879 1
1420 1879 1
1443 1879 1
1447 1879 1
1465 1879 1
1474 1879 1
1487 1879 1
1501 1879 1
1418 1880 1
1421 1880 1
1444 1880 1
1448 1880 1
1466 1880 1
1475 1880 1
1488 1880 1
1502 1880 1
1419 1881 1
1422 1881 1
1445 1881 1
1449 1881 1
1467 1881 1
1476 1881 1
1489 1881 1
1503 1881 1
1420 1882 1
1423 1882 1
1446 1882 1
1450 1882 1
1468 1882 1
1477 1882 1
1490 1882 1
1504 1882 1
1421 1883 1
1424 1883 1
1447 1883 1
1451 1883 1
1469 1883 1
1478 1883 1
1491 1883 1
1505 1883 1
1422 1884 1
1425 1884 1
1448 1884 1
1452 1884 1
1470 1884 1
1479 1884 1
1492 1884 1
1506 1884 1
1423 1885 1
1426 1885 1
1449 1885 1
1453 1885 1
1471 1885 1
1480 1885 1
1493 1885 1
1507 1885 1
1424 1886 1
1427 1886 1
1450 1886 1
1454 1886 1
1472 1886 1
1481 1886 1
1494 1886 1
1508 1886 1
1425 1887 1
1428 1887 1
1451 1887 1
1455 1887 1
1473 1887 1
1482 1887 1
1495 1887 1
1509 1887 1
1426 1888 1
1429 1888 1
1452 1888 1
1456 1888 1
1474 1888 1
1483 1888 1
1496 1888 1
1510 1888 1
1427 1889 1
1430 1889 1
1453 1889 1
1457 1889 1
1475 1889 1
1484 1889 1
1497 1889 1
1511 1889 1
1428 1890 1
1431 1890 1
1454 1890 1
1458 1890 1
1476 1890 1
1485 1890 1
1498 1890 1
1512 1890 1
