%%MatrixMarket matrix coordinate integer general
% Binary matrix; one-based indices; arithmetic over GF(2)
378 756 2268
11 1 1
18 1 1
55 1 1
1 2 1
12 2 1
56 2 1
2 3 1
13 3 1
57 3 1
3 4 1
14 4 1
58 4 1
4 5 1
15 5 1
59 5 1
5 6 1
16 6 1
60 6 1
6 7 1
17 7 1
61 7 1
7 8 1
18 8 1
62 8 1
1 9 1
8 9 1
63 9 1
2 10 1
9 10 1
64 10 1
3 11 1
10 11 1
65 11 1
4 12 1
11 12 1
66 12 1
5 13 1
12 13 1
67 13 1
6 14 1
13 14 1
68 14 1
7 15 1
14 15 1
69 15 1
8 16 1
15 16 1
70 16 1
9 17 1
16 17 1
71 17 1
10 18 1
17 18 1
72 18 1
29 19 1
36 19 1
73 19 1
19 20 1
30 20 1
74 20 1
20 21 1
31 21 1
75 21 1
21 22 1
32 22 1
76 22 1
22 23 1
33 23 1
77 23 1
23 24 1
34 24 1
78 24 1
24 25 1
35 25 1
79 25 1
25 26 1
36 26 1
80 26 1
19 27 1
26 27 1
81 27 1
20 28 1
27 28 1
82 28 1
21 29 1
28 29 1
83 29 1
22 30 1
29 30 1
84 30 1
23 31 1
30 31 1
85 31 1
24 32 1
31 32 1
86 32 1
25 33 1
32 33 1
87 33 1
26 34 1
33 34 1
88 34 1
27 35 1
34 35 1
89 35 1
28 36 1
35 36 1
90 36 1
47 37 1
54 37 1
91 37 1
37 38 1
48 38 1
92 38 1
38 39 1
49 39 1
93 39 1
39 40 1
50 40 1
94 40 1
40 41 1
51 41 1
95 41 1
41 42 1
52 42 1
96 42 1
42 43 1
53 43 1
97 43 1
43 44 1
54 44 1
98 44 1
37 45 1
44 45 1
99 45 1
38 46 1
45 46 1
100 46 1
39 47 1
46 47 1
101 47 1
40 48 1
47 48 1
102 48 1
41 49 1
48 49 1
103 49 1
42 50 1
49 50 1
104 50 1
43 51 1
50 51 1
105 51 1
44 52 1
51 52 1
106 52 1
45 53 1
52 53 1
107 53 1
46 54 1
53 54 1
108 54 1
65 55 1
72 55 1
109 55 1
55 56 1
66 56 1
110 56 1
56 57 1
67 57 1
111 57 1
57 58 1
68 58 1
112 58 1
58 59 1
69 59 1
113 59 1
59 60 1
70 60 1
114 60 1
60 61 1
71 61 1
115 61 1
61 62 1
72 62 1
116 62 1
55 63 1
62 63 1
117 63 1
56 64 1
63 64 1
118 64 1
57 65 1
64 65 1
119 65 1
58 66 1
65 66 1
120 66 1
59 67 1
66 67 1
121 67 1
60 68 1
67 68 1
122 68 1
61 69 1
68 69 1
123 69 1
62 70 1
69 70 1
124 70 1
63 71 1
70 71 1
125 71 1
64 72 1
71 72 1
126 72 1
83 73 1
90 73 1
127 73 1
73 74 1
84 74 1
128 74 1
74 75 1
85 75 1
129 75 1
75 76 1
86 76 1
130 76 1
76 77 1
87 77 1
131 77 1
77 78 1
88 78 1
132 78 1
78 79 1
89 79 1
133 79 1
79 80 1
90 80 1
134 80 1
73 81 1
80 81 1
135 81 1
74 82 1
81 82 1
136 82 1
75 83 1
82 83 1
137 83 1
76 84 1
83 84 1
138 84 1
77 85 1
84 85 1
139 85 1
78 86 1
85 86 1
140 86 1
79 87 1
86 87 1
141 87 1
80 88 1
87 88 1
142 88 1
81 89 1
88 89 1
143 89 1
82 90 1
89 90 1
144 90 1
101 91 1
108 91 1
145 91 1
91 92 1
102 92 1
146 92 1
92 93 1
103 93 1
147 93 1
93 94 1
104 94 1
148 94 1
94 95 1
105 95 1
149 95 1
95 96 1
106 96 1
150 96 1
96 97 1
107 97 1
151 97 1
97 98 1
108 98 1
152 98 1
91 99 1
98 99 1
153 99 1
92 100 1
99 100 1
154 100 1
93 101 1
100 101 1
155 101 1
94 102 1
101 102 1
156 102 1
95 103 1
102 103 1
157 103 1
96 104 1
103 104 1
158 104 1
97 105 1
104 105 1
159 105 1
98 106 1
105 106 1
160 106 1
99 107 1
106 107 1
161 107 1
100 108 1
107 108 1
162 108 1
119 109 1
126 109 1
163 109 1
109 110 1
120 110 1
164 110 1
110 111 1
121 111 1
165 111 1
111 112 1
122 112 1
166 112 1
112 113 1
123 113 1
167 113 1
113 114 1
124 114 1
168 114 1
114 115 1
125 115 1
169 115 1
115 116 1
126 116 1
170 116 1
109 117 1
116 117 1
171 117 1
110 118 1
117 118 1
172 118 1
111 119 1
118 119 1
173 119 1
112 120 1
119 120 1
174 120 1
113 121 1
120 121 1
175 121 1
114 122 1
121 122 1
176 122 1
115 123 1
122 123 1
177 123 1
116 124 1
123 124 1
178 124 1
117 125 1
124 125 1
179 125 1
118 126 1
125 126 1
180 126 1
137 127 1
144 127 1
181 127 1
127 128 1
138 128 1
182 128 1
128 129 1
139 129 1
183 129 1
129 130 1
140 130 1
184 130 1
130 131 1
141 131 1
185 131 1
131 132 1
142 132 1
186 132 1
132 133 1
143 133 1
187 133 1
133 134 1
144 134 1
188 134 1
127 135 1
134 135 1
189 135 1
128 136 1
135 136 1
190 136 1
129 137 1
136 137 1
191 137 1
130 138 1
137 138 1
192 138 1
131 139 1
138 139 1
193 139 1
132 140 1
139 140 1
194 140 1
133 141 1
140 141 1
195 141 1
134 142 1
141 142 1
196 142 1
135 143 1
142 143 1
197 143 1
136 144 1
143 144 1
198 144 1
155 145 1
162 145 1
199 145 1
145 146 1
156 146 1
200 146 1
146 147 1
157 147 1
201 147 1
147 148 1
158 148 1
202 148 1
148 149 1
159 149 1
203 149 1
149 150 1
160 150 1
204 150 1
150 151 1
161 151 1
205 151 1
151 152 1
162 152 1
206 152 1
145 153 1
152 153 1
207 153 1
146 154 1
153 154 1
208 154 1
147 155 1
154 155 1
209 155 1
148 156 1
155 156 1
210 156 1
149 157 1
156 157 1
211 157 1
150 158 1
157 158 1
212 158 1
151 159 1
158 159 1
213 159 1
152 160 1
159 160 1
214 160 1
153 161 1
160 161 1
215 161 1
154 162 1
161 162 1
216 162 1
173 163 1
180 163 1
217 163 1
163 164 1
174 164 1
218 164 1
164 165 1
175 165 1
219 165 1
165 166 1
176 166 1
220 166 1
166 167 1
177 167 1
221 167 1
167 168 1
178 168 1
222 168 1
168 169 1
179 169 1
223 169 1
169 170 1
180 170 1
224 170 1
163 171 1
170 171 1
225 171 1
164 172 1
171 172 1
226 172 1
165 173 1
172 173 1
227 173 1
166 174 1
173 174 1
228 174 1
167 175 1
174 175 1
229 175 1
168 176 1
175 176 1
230 176 1
169 177 1
176 177 1
231 177 1
170 178 1
177 178 1
232 178 1
171 179 1
178 179 1
233 179 1
172 180 1
179 180 1
234 180 1
191 181 1
198 181 1
235 181 1
181 182 1
192 182 1
236 182 1
182 183 1
193 183 1
237 183 1
183 184 1
194 184 1
238 184 1
184 185 1
195 185 1
239 185 1
185 186 1
196 186 1
240 186 1
186 187 1
197 187 1
241 187 1
187 188 1
198 188 1
242 188 1
181 189 1
188 189 1
243 189 1
182 190 1
189 190 1
244 190 1
183 191 1
190 191 1
245 191 1
184 192 1
191 192 1
246 192 1
185 193 1
192 193 1
247 193 1
186 194 1
193 194 1
248 194 1
187 195 1
194 195 1
249 195 1
188 196 1
195 196 1
250 196 1
189 197 1
196 197 1
251 197 1
190 198 1
197 198 1
252 198 1
209 199 1
216 199 1
253 199 1
199 200 1
210 200 1
254 200 1
200 201 1
211 201 1
255 201 1
201 202 1
212 202 1
256 202 1
202 203 1
213 203 1
257 203 1
203 204 1
214 204 1
258 204 1
204 205 1
215 205 1
259 205 1
205 206 1
216 206 1
260 206 1
199 207 1
206 207 1
261 207 1
200 208 1
207 208 1
262 208 1
201 209 1
208 209 1
263 209 1
202 210 1
209 210 1
264 210 1
203 211 1
210 211 1
265 211 1
204 212 1
211 212 1
266 212 1
205 213 1
212 213 1
267 213 1
206 214 1
213 214 1
268 214 1
207 215 1
214 215 1
269 215 1
208 216 1
215 216 1
270 216 1
227 217 1
234 217 1
271 217 1
217 218 1
228 218 1
272 218 1
218 219 1
229 219 1
273 219 1
219 220 1
230 220 1
274 220 1
220 221 1
231 221 1
275 221 1
221 222 1
232 222 1
276 222 1
222 223 1
233 223 1
277 223 1
223 224 1
234 224 1
278 224 1
217 225 1
224 225 1
279 225 1
218 226 1
225 226 1
280 226 1
219 227 1
226 227 1
281 227 1
220 228 1
227 228 1
282 228 1
221 229 1
228 229 1
283 229 1
222 230 1
229 230 1
284 230 1
223 231 1
230 231 1
285 231 1
224 232 1
231 232 1
286 232 1
225 233 1
232 233 1
287 233 1
226 234 1
233 234 1
288 234 1
245 235 1
252 235 1
289 235 1
235 236 1
246 236 1
290 236 1
236 237 1
247 237 1
291 237 1
237 238 1
248 238 1
292 238 1
238 239 1
249 239 1
293 239 1
239 240 1
250 240 1
294 240 1
240 241 1
251 241 1
295 241 1
241 242 1
252 242 1
296 242 1
235 243 1
242 243 1
297 243 1
236 244 1
243 244 1
298 244 1
237 245 1
244 245 1
299 245 1
238 246 1
245 246 1
300 246 1
239 247 1
246 247 1
301 247 1
240 248 1
247 248 1
302 248 1
241 249 1
248 249 1
303 249 1
242 250 1
249 250 1
304 250 1
243 251 1
250 251 1
305 251 1
244 252 1
251 252 1
306 252 1
263 253 1
270 253 1
307 253 1
253 254 1
264 254 1
308 254 1
254 255 1
265 255 1
309 255 1
255 256 1
266 256 1
310 256 1
256 257 1
267 257 1
311 257 1
257 258 1
268 258 1
312 258 1
258 259 1
269 259 1
313 259 1
259 260 1
270 260 1
314 260 1
253 261 1
260 261 1
315 261 1
254 262 1
261 262 1
316 262 1
255 263 1
262 263 1
317 263 1
256 264 1
263 264 1
318 264 1
257 265 1
264 265 1
319 265 1
258 266 1
265 266 1
320 266 1
259 267 1
266 267 1
321 267 1
260 268 1
267 268 1
322 268 1
261 269 1
268 269 1
323 269 1
262 270 1
269 270 1
324 270 1
281 271 1
288 271 1
325 271 1
271 272 1
282 272 1
326 272 1
272 273 1
283 273 1
327 273 1
273 274 1
284 274 1
328 274 1
274 275 1
285 275 1
329 275 1
275 276 1
286 276 1
330 276 1
276 277 1
287 277 1
331 277 1
277 278 1
288 278 1
332 278 1
271 279 1
278 279 1
333 279 1
272 280 1
279 280 1
334 280 1
273 281 1
280 281 1
335 281 1
274 282 1
281 282 1
336 282 1
275 283 1
282 283 1
337 283 1
276 284 1
283 284 1
338 284 1
277 285 1
284 285 1
339 285 1
278 286 1
285 286 1
340 286 1
279 287 1
286 287 1
341 287 1
280 288 1
287 288 1
342 288 1
299 289 1
306 289 1
343 289 1
289 290 1
300 290 1
344 290 1
290 291 1
301 291 1
345 291 1
291 292 1
302 292 1
346 292 1
292 293 1
303 293 1
347 293 1
293 294 1
304 294 1
348 294 1
294 295 1
305 295 1
349 295 1
295 296 1
306 296 1
350 296 1
289 297 1
296 297 1
351 297 1
290 298 1
297 298 1
352 298 1
291 299 1
298 299 1
353 299 1
292 300 1
299 300 1
354 300 1
293 301 1
300 301 1
355 301 1
294 302 1
301 302 1
356 302 1
295 303 1
302 303 1
357 303 1
296 304 1
303 304 1
358 304 1
297 305 1
304 305 1
359 305 1
298 306 1
305 306 1
360 306 1
317 307 1
324 307 1
361 307 1
307 308 1
318 308 1
362 308 1
308 309 1
319 309 1
363 309 1
309 310 1
320 310 1
364 310 1
310 311 1
321 311 1
365 311 1
311 312 1
322 312 1
366 312 1
312 313 1
323 313 1
367 313 1
313 314 1
324 314 1
368 314 1
307 315 1
314 315 1
369 315 1
308 316 1
315 316 1
370 316 1
309 317 1
316 317 1
371 317 1
310 318 1
317 318 1
372 318 1
311 319 1
318 319 1
373 319 1
312 320 1
319 320 1
374 320 1
313 321 1
320 321 1
375 321 1
314 322 1
321 322 1
376 322 1
315 323 1
322 323 1
377 323 1
316 324 1
323 324 1
378 324 1
1 325 1
335 325 1
342 325 1
2 326 1
325 326 1
336 326 1
3 327 1
326 327 1
337 327 1
4 328 1
327 328 1
338 328 1
5 329 1
328 329 1
339 329 1
6 330 1
329 330 1
340 330 1
7 331 1
330 331 1
341 331 1
8 332 1
331 332 1
342 332 1
9 333 1
325 333 1
332 333 1
10 334 1
326 334 1
333 334 1
11 335 1
327 335 1
334 335 1
12 336 1
328 336 1
335 336 1
13 337 1
329 337 1
336 337 1
14 338 1
330 338 1
337 338 1
15 339 1
331 339 1
338 339 1
16 340 1
332 340 1
339 340 1
17 341 1
333 341 1
340 341 1
18 342 1
334 342 1
341 342 1
19 343 1
353 343 1
360 343 1
20 344 1
343 344 1
354 344 1
21 345 1
344 345 1
355 345 1
22 346 1
345 346 1
356 346 1
23 347 1
346 347 1
357 347 1
24 348 1
347 348 1
358 348 1
25 349 1
348 349 1
359 349 1
26 350 1
349 350 1
360 350 1
27 351 1
343 351 1
350 351 1
28 352 1
344 352 1
351 352 1
29 353 1
345 353 1
352 353 1
30 354 1
346 354 1
353 354 1
31 355 1
347 355 1
354 355 1
32 356 1
348 356 1
355 356 1
33 357 1
349 357 1
356 357 1
34 358 1
350 358 1
357 358 1
35 359 1
351 359 1
358 359 1
36 360 1
352 360 1
359 360 1
37 361 1
371 361 1
378 361 1
38 362 1
361 362 1
372 362 1
39 363 1
362 363 1
373 363 1
40 364 1
363 364 1
374 364 1
41 365 1
364 365 1
375 365 1
42 366 1
365 366 1
376 366 1
43 367 1
366 367 1
377 367 1
44 368 1
367 368 1
378 368 1
45 369 1
361 369 1
368 369 1
46 370 1
362 370 1
369 370 1
47 371 1
363 371 1
370 371 1
48 372 1
364 372 1
371 372 1
49 373 1
365 373 1
372 373 1
50 374 1
366 374 1
373 374 1
51 375 1
367 375 1
374 375 1
52 376 1
368 376 1
375 376 1
53 377 1
369 377 1
376 377 1
54 378 1
370 378 1
377 378 1
6 379 1
55 379 1
343 379 1
7 380 1
56 380 1
344 380 1
8 381 1
57 381 1
345 381 1
9 382 1
58 382 1
346 382 1
10 383 1
59 383 1
347 383 1
11 384 1
60 384 1
348 384 1
12 385 1
61 385 1
349 385 1
13 386 1
62 386 1
350 386 1
14 387 1
63 387 1
351 387 1
15 388 1
64 388 1
352 388 1
16 389 1
65 389 1
353 389 1
17 390 1
66 390 1
354 390 1
18 391 1
67 391 1
355 391 1
1 392 1
68 392 1
356 392 1
2 393 1
69 393 1
357 393 1
3 394 1
70 394 1
358 394 1
4 395 1
71 395 1
359 395 1
5 396 1
72 396 1
360 396 1
24 397 1
73 397 1
361 397 1
25 398 1
74 398 1
362 398 1
26 399 1
75 399 1
363 399 1
27 400 1
76 400 1
364 400 1
28 401 1
77 401 1
365 401 1
29 402 1
78 402 1
366 402 1
30 403 1
79 403 1
367 403 1
31 404 1
80 404 1
368 404 1
32 405 1
81 405 1
369 405 1
33 406 1
82 406 1
370 406 1
34 407 1
83 407 1
371 407 1
35 408 1
84 408 1
372 408 1
36 409 1
85 409 1
373 409 1
19 410 1
86 410 1
374 410 1
20 411 1
87 411 1
375 411 1
21 412 1
88 412 1
376 412 1
22 413 1
89 413 1
377 413 1
23 414 1
90 414 1
378 414 1
1 415 1
42 415 1
91 415 1
2 416 1
43 416 1
92 416 1
3 417 1
44 417 1
93 417 1
4 418 1
45 418 1
94 418 1
5 419 1
46 419 1
95 419 1
6 420 1
47 420 1
96 420 1
7 421 1
48 421 1
97 421 1
8 422 1
49 422 1
98 422 1
9 423 1
50 423 1
99 423 1
10 424 1
51 424 1
100 424 1
11 425 1
52 425 1
101 425 1
12 426 1
53 426 1
102 426 1
13 427 1
54 427 1
103 427 1
14 428 1
37 428 1
104 428 1
15 429 1
38 429 1
105 429 1
16 430 1
39 430 1
106 430 1
17 431 1
40 431 1
107 431 1
18 432 1
41 432 1
108 432 1
19 433 1
60 433 1
109 433 1
20 434 1
61 434 1
110 434 1
21 435 1
62 435 1
111 435 1
22 436 1
63 436 1
112 436 1
23 437 1
64 437 1
113 437 1
24 438 1
65 438 1
114 438 1
25 439 1
66 439 1
115 439 1
26 440 1
67 440 1
116 440 1
27 441 1
68 441 1
117 441 1
28 442 1
69 442 1
118 442 1
29 443 1
70 443 1
119 443 1
30 444 1
71 444 1
120 444 1
31 445 1
72 445 1
121 445 1
32 446 1
55 446 1
122 446 1
33 447 1
56 447 1
123 447 1
34 448 1
57 448 1
124 448 1
35 449 1
58 449 1
125 449 1
36 450 1
59 450 1
126 450 1
37 451 1
78 451 1
127 451 1
38 452 1
79 452 1
128 452 1
39 453 1
80 453 1
129 453 1
40 454 1
81 454 1
130 454 1
41 455 1
82 455 1
131 455 1
42 456 1
83 456 1
132 456 1
43 457 1
84 457 1
133 457 1
44 458 1
85 458 1
134 458 1
45 459 1
86 459 1
135 459 1
46 460 1
87 460 1
136 460 1
47 461 1
88 461 1
137 461 1
48 462 1
89 462 1
138 462 1
49 463 1
90 463 1
139 463 1
50 464 1
73 464 1
140 464 1
51 465 1
74 465 1
141 465 1
52 466 1
75 466 1
142 466 1
53 467 1
76 467 1
143 467 1
54 468 1
77 468 1
144 468 1
55 469 1
96 469 1
145 469 1
56 470 1
97 470 1
146 470 1
57 471 1
98 471 1
147 471 1
58 472 1
99 472 1
148 472 1
59 473 1
100 473 1
149 473 1
60 474 1
101 474 1
150 474 1
61 475 1
102 475 1
151 475 1
62 476 1
103 476 1
152 476 1
63 477 1
104 477 1
153 477 1
64 478 1
105 478 1
154 478 1
65 479 1
106 479 1
155 479 1
66 480 1
107 480 1
156 480 1
67 481 1
108 481 1
157 481 1
68 482 1
91 482 1
158 482 1
69 483 1
92 483 1
159 483 1
70 484 1
93 484 1
160 484 1
71 485 1
94 485 1
161 485 1
72 486 1
95 486 1
162 486 1
73 487 1
114 487 1
163 487 1
74 488 1
115 488 1
164 488 1
75 489 1
116 489 1
165 489 1
76 490 1
117 490 1
166 490 1
77 491 1
118 491 1
167 491 1
78 492 1
119 492 1
168 492 1
79 493 1
120 493 1
169 493 1
80 494 1
121 494 1
170 494 1
81 495 1
122 495 1
171 495 1
82 496 1
123 496 1
172 496 1
83 497 1
124 497 1
173 497 1
84 498 1
125 498 1
174 498 1
85 499 1
126 499 1
175 499 1
86 500 1
109 500 1
176 500 1
87 501 1
110 501 1
177 501 1
88 502 1
111 502 1
178 502 1
89 503 1
112 503 1
179 503 1
90 504 1
113 504 1
180 504 1
91 505 1
132 505 1
181 505 1
92 506 1
133 506 1
182 506 1
93 507 1
134 507 1
183 507 1
94 508 1
135 508 1
184 508 1
95 509 1
136 509 1
185 509 1
96 510 1
137 510 1
186 510 1
97 511 1
138 511 1
187 511 1
98 512 1
139 512 1
188 512 1
99 513 1
140 513 1
189 513 1
100 514 1
141 514 1
190 514 1
101 515 1
142 515 1
191 515 1
102 516 1
143 516 1
192 516 1
103 517 1
144 517 1
193 517 1
104 518 1
127 518 1
194 518 1
105 519 1
128 519 1
195 519 1
106 520 1
129 520 1
196 520 1
107 521 1
130 521 1
197 521 1
108 522 1
131 522 1
198 522 1
109 523 1
150 523 1
199 523 1
110 524 1
151 524 1
200 524 1
111 525 1
152 525 1
201 525 1
112 526 1
153 526 1
202 526 1
113 527 1
154 527 1
203 527 1
114 528 1
155 528 1
204 528 1
115 529 1
156 529 1
205 529 1
116 530 1
157 530 1
206 530 1
117 531 1
158 531 1
207 531 1
118 532 1
159 532 1
208 532 1
119 533 1
160 533 1
209 533 1
120 534 1
161 534 1
210 534 1
121 535 1
162 535 1
211 535 1
122 536 1
145 536 1
212 536 1
123 537 1
146 537 1
213 537 1
124 538 1
147 538 1
214 538 1
125 539 1
148 539 1
215 539 1
126 540 1
149 540 1
216 540 1
127 541 1
168 541 1
217 541 1
128 542 1
169 542 1
218 542 1
129 543 1
170 543 1
219 543 1
130 544 1
171 544 1
220 544 1
131 545 1
172 545 1
221 545 1
132 546 1
173 546 1
222 546 1
133 547 1
174 547 1
223 547 1
134 548 1
175 548 1
224 548 1
135 549 1
176 549 1
225 549 1
136 550 1
177 550 1
226 550 1
137 551 1
178 551 1
227 551 1
138 552 1
179 552 1
228 552 1
139 553 1
180 553 1
229 553 1
140 554 1
163 554 1
230 554 1
141 555 1
164 555 1
231 555 1
142 556 1
165 556 1
232 556 1
143 557 1
166 557 1
233 557 1
144 558 1
167 558 1
234 558 1
145 559 1
186 559 1
235 559 1
146 560 1
187 560 1
236 560 1
147 561 1
188 561 1
237 561 1
148 562 1
189 562 1
238 562 1
149 563 1
190 563 1
239 563 1
150 564 1
191 564 1
240 564 1
151 565 1
192 565 1
241 565 1
152 566 1
193 566 1
242 566 1
153 567 1
194 567 1
243 567 1
154 568 1
195 568 1
244 568 1
155 569 1
196 569 1
245 569 1
156 570 1
197 570 1
246 570 1
157 571 1
198 571 1
247 571 1
158 572 1
181 572 1
248 572 1
159 573 1
182 573 1
249 573 1
160 574 1
183 574 1
250 574 1
161 575 1
184 575 1
251 575 1
162 576 1
185 576 1
252 576 1
163 577 1
204 577 1
253 577 1
164 578 1
205 578 1
254 578 1
165 579 1
206 579 1
255 579 1
166 580 1
207 580 1
256 580 1
167 581 1
208 581 1
257 581 1
168 582 1
209 582 1
258 582 1
169 583 1
210 583 1
259 583 1
170 584 1
211 584 1
260 584 1
171 585 1
212 585 1
261 585 1
172 586 1
213 586 1
262 586 1
173 587 1
214 587 1
263 587 1
174 588 1
215 588 1
264 588 1
175 589 1
216 589 1
265 589 1
176 590 1
199 590 1
266 590 1
177 591 1
200 591 1
267 591 1
178 592 1
201 592 1
268 592 1
179 593 1
202 593 1
269 593 1
180 594 1
203 594 1
270 594 1
181 595 1
222 595 1
271 595 1
182 596 1
223 596 1
272 596 1
183 597 1
224 597 1
273 597 1
184 598 1
225 598 1
274 598 1
185 599 1
226 599 1
275 599 1
186 600 1
227 600 1
276 600 1
187 601 1
228 601 1
277 601 1
188 602 1
229 602 1
278 602 1
189 603 1
230 603 1
279 603 1
190 604 1
231 604 1
280 604 1
191 605 1
232 605 1
281 605 1
192 606 1
233 606 1
282 606 1
193 607 1
234 607 1
283 607 1
194 608 1
217 608 1
284 608 1
195 609 1
218 609 1
285 609 1
196 610 1
219 610 1
286 610 1
197 611 1
220 611 1
287 611 1
198 612 1
221 612 1
288 612 1
199 613 1
240 613 1
289 613 1
200 614 1
241 614 1
290 614 1
201 615 1
242 615 1
291 615 1
202 616 1
243 616 1
292 616 1
203 617 1
244 617 1
293 617 1
204 618 1
245 618 1
294 618 1
205 619 1
246 619 1
295 619 1
206 620 1
247 620 1
296 620 1
207 621 1
248 621 1
297 621 1
208 622 1
249 622 1
298 622 1
209 623 1
250 623 1
299 623 1
210 624 1
251 624 1
300 624 1
211 625 1
252 625 1
301 625 1
212 626 1
235 626 1
302 626 1
213 627 1
236 627 1
303 627 1
214 628 1
237 628 1
304 628 1
215 629 1
238 629 1
305 629 1
216 630 1
239 630 1
306 630 1
217 631 1
258 631 1
307 631 1
218 632 1
259 632 1
308 632 1
219 633 1
260 633 1
309 633 1
220 634 1
261 634 1
310 634 1
221 635 1
262 635 1
311 635 1
222 636 1
263 636 1
312 636 1
223 637 1
264 637 1
313 637 1
224 638 1
265 638 1
314 638 1
225 639 1
266 639 1
315 639 1
226 640 1
267 640 1
316 640 1
227 641 1
268 641 1
317 641 1
228 642 1
269 642 1
318 642 1
229 643 1
270 643 1
319 643 1
230 644 1
253 644 1
320 644 1
231 645 1
254 645 1
321 645 1
232 646 1
255 646 1
322 646 1
233 647 1
256 647 1
323 647 1
234 648 1
257 648 1
324 648 1
235 649 1
276 649 1
325 649 1
236 650 1
277 650 1
326 650 1
237 651 1
278 651 1
327 651 1
238 652 1
279 652 1
328 652 1
239 653 1
280 653 1
329 653 1
240 654 1
281 654 1
330 654 1
241 655 1
282 655 1
331 655 1
242 656 1
283 656 1
332 656 1
243 657 1
284 657 1
333 657 1
244 658 1
285 658 1
334 658 1
245 659 1
286 659 1
335 659 1
246 660 1
287 660 1
336 660 1
247 661 1
288 661 1
337 661 1
248 662 1
271 662 1
338 662 1
249 663 1
272 663 1
339 663 1
250 664 1
273 664 1
340 664 1
251 665 1
274 665 1
341 665 1
252 666 1
275 666 1
342 666 1
253 667 1
294 667 1
343 667 1
254 668 1
295 668 1
344 668 1
255 669 1
296 669 1
345 669 1
256 670 1
297 670 1
346 670 1
257 671 1
298 671 1
347 671 1
258 672 1
299 672 1
348 672 1
259 673 1
300 673 1
349 673 1
260 674 1
301 674 1
350 674 1
261 675 1
302 675 1
351 675 1
262 676 1
303 676 1
352 676 1
263 677 1
304 677 1
353 677 1
264 678 1
305 678 1
354 678 1
265 679 1
306 679 1
355 679 1
266 680 1
289 680 1
356 680 1
267 681 1
290 681 1
357 681 1
268 682 1
291 682 1
358 682 1
269 683 1
292 683 1
359 683 1
270 684 1
293 684 1
360 684 1
271 685 1
312 685 1
361 685 1
272 686 1
313 686 1
362 686 1
273 687 1
314 687 1
363 687 1
274 688 1
315 688 1
364 688 1
275 689 1
316 689 1
365 689 1
276 690 1
317 690 1
366 690 1
277 691 1
318 691 1
367 691 1
278 692 1
319 692 1
368 692 1
279 693 1
320 693 1
369 693 1
280 694 1
321 694 1
370 694 1
281 695 1
322 695 1
371 695 1
282 696 1
323 696 1
372 696 1
283 697 1
324 697 1
373 697 1
284 698 1
307 698 1
374 698 1
285 699 1
308 699 1
375 699 1
286 700 1
309 700 1
376 700 1
287 701 1
310 701 1
377 701 1
288 702 1
311 702 1
378 702 1
1 703 1
289 703 1
330 703 1
2 704 1
290 704 1
331 704 1
3 705 1
291 705 1
332 705 1
4 706 1
292 706 1
333 706 1
5 707 1
293 707 1
334 707 1
6 708 1
294 708 1
335 708 1
7 709 1
295 709 1
336 709 1
8 710 1
296 710 1
337 710 1
9 711 1
297 711 1
338 711 1
10 712 1
298 712 1
339 712 1
11 713 1
299 713 1
340 713 1
12 714 1
300 714 1
341 714 1
13 715 1
301 715 1
342 715 1
14 716 1
302 716 1
325 716 1
15 717 1
303 717 1
326 717 1
16 718 1
304 718 1
327 718 1
17 719 1
305 719 1
328 719 1
18 720 1
306 720 1
329 720 1
19 721 1
307 721 1
348 721 1
20 722 1
308 722 1
349 722 1
21 723 1
309 723 1
350 723 1
22 724 1
310 724 1
351 724 1
23 725 1
311 725 1
352 725 1
24 726 1
312 726 1
353 726 1
25 727 1
313 727 1
354 727 1
26 728 1
314 728 1
355 728 1
27 729 1
315 729 1
356 729 1
28 730 1
316 730 1
357 730 1
29 731 1
317 731 1
358 731 1
30 732 1
318 732 1
359 732 1
31 733 1
319 733 1
360 733 1
32 734 1
320 734 1
343 734 1
33 735 1
321 735 1
344 735 1
34 736 1
322 736 1
345 736 1
35 737 1
323 737 1
346 737 1
36 738 1
324 738 1
347 738 1
37 739 1
325 739 1
366 739 1
38 740 1
326 740 1
367 740 1
39 741 1
327 741 1
368 741 1
40 742 1
328 742 1
369 742 1
41 743 1
329 743 1
370 743 1
42 744 1
330 744 1
371 744 1
43 745 1
331 745 1
372 745 1
44 746 1
332 746 1
373 746 1
45 747 1
333 747 1
374 747 1
46 748 1
334 748 1
375 748 1
47 749 1
335 749 1
376 749 1
48 750 1
336 750 1
377 750 1
49 751 1
337 751 1
378 751 1
50 752 1
338 752 1
361 752 1
51 753 1
339 753 1
362 753 1
52 754 1
340 754 1
363 754 1
53 755 1
341 755 1
364 755 1
54 756 1
342 756 1
365 756 1
