%%MatrixMarket matrix coordinate integer general
% Binary matrix; one-based indices; arithmetic over GF(2)
160 240 1920
16 1 1
31 1 1
36 1 1
40 1 1
42 1 1
64 1 1
73 1 1
79 1 1
17 2 1
32 2 1
36 2 1
37 2 1
43 2 1
65 2 1
74 2 1
80 2 1
18 3 1
33 3 1
37 3 1
38 3 1
44 3 1
61 3 1
75 3 1
76 3 1
19 4 1
34 4 1
38 4 1
39 4 1
45 4 1
62 4 1
71 4 1
77 4 1
20 5 1
35 5 1
39 5 1
40 5 1
41 5 1
63 5 1
72 5 1
78 5 1
11 6 1
31 6 1
35 6 1
36 6 1
47 6 1
69 6 1
74 6 1
78 6 1
12 7 1
31 7 1
32 7 1
37 7 1
48 7 1
70 7 1
75 7 1
79 7 1
13 8 1
32 8 1
33 8 1
38 8 1
49 8 1
66 8 1
71 8 1
80 8 1
14 9 1
33 9 1
34 9 1
39 9 1
50 9 1
67 9 1
72 9 1
76 9 1
15 10 1
34 10 1
35 10 1
40 10 1
46 10 1
68 10 1
73 10 1
77 10 1
6 11 1
21 11 1
26 11 1
30 11 1
52 11 1
63 11 1
69 11 1
74 11 1
7 12 1
22 12 1
26 12 1
27 12 1
53 12 1
64 12 1
70 12 1
75 12 1
8 13 1
23 13 1
27 13 1
28 13 1
54 13 1
65 13 1
66 13 1
71 13 1
9 14 1
24 14 1
28 14 1
29 14 1
55 14 1
61 14 1
67 14 1
72 14 1
10 15 1
25 15 1
29 15 1
30 15 1
51 15 1
62 15 1
68 15 1
73 15 1
1 16 1
21 16 1
25 16 1
26 16 1
57 16 1
64 16 1
68 16 1
79 16 1
2 17 1
21 17 1
22 17 1
27 17 1
58 17 1
65 17 1
69 17 1
80 17 1
3 18 1
22 18 1
23 18 1
28 18 1
59 18 1
61 18 1
70 18 1
76 18 1
4 19 1
23 19 1
24 19 1
29 19 1
60 19 1
62 19 1
66 19 1
77 19 1
5 20 1
24 20 1
25 20 1
30 20 1
56 20 1
63 20 1
67 20 1
78 20 1
11 21 1
16 21 1
20 21 1
36 21 1
44 21 1
53 21 1
59 21 1
62 21 1
12 22 1
16 22 1
17 22 1
37 22 1
45 22 1
54 22 1
60 22 1
63 22 1
13 23 1
17 23 1
18 23 1
38 23 1
41 23 1
55 23 1
56 23 1
64 23 1
14 24 1
18 24 1
19 24 1
39 24 1
42 24 1
51 24 1
57 24 1
65 24 1
15 25 1
19 25 1
20 25 1
40 25 1
43 25 1
52 25 1
58 25 1
61 25 1
11 26 1
15 26 1
16 26 1
31 26 1
49 26 1
54 26 1
58 26 1
67 26 1
11 27 1
12 27 1
17 27 1
32 27 1
50 27 1
55 27 1
59 27 1
68 27 1
12 28 1
13 28 1
18 28 1
33 28 1
46 28 1
51 28 1
60 28 1
69 28 1
13 29 1
14 29 1
19 29 1
34 29 1
47 29 1
52 29 1
56 29 1
70 29 1
14 30 1
15 30 1
20 30 1
35 30 1
48 30 1
53 30 1
57 30 1
66 30 1
1 31 1
6 31 1
10 31 1
26 31 1
43 31 1
49 31 1
54 31 1
72 31 1
2 32 1
6 32 1
7 32 1
27 32 1
44 32 1
50 32 1
55 32 1
73 32 1
3 33 1
7 33 1
8 33 1
28 33 1
45 33 1
46 33 1
51 33 1
74 33 1
4 34 1
8 34 1
9 34 1
29 34 1
41 34 1
47 34 1
52 34 1
75 34 1
5 35 1
9 35 1
10 35 1
30 35 1
42 35 1
48 35 1
53 35 1
71 35 1
1 36 1
5 36 1
6 36 1
21 36 1
44 36 1
48 36 1
59 36 1
77 36 1
1 37 1
2 37 1
7 37 1
22 37 1
45 37 1
49 37 1
60 37 1
78 37 1
2 38 1
3 38 1
8 38 1
23 38 1
41 38 1
50 38 1
56 38 1
79 38 1
3 39 1
4 39 1
9 39 1
24 39 1
42 39 1
46 39 1
57 39 1
80 39 1
4 40 1
5 40 1
10 40 1
25 40 1
43 40 1
47 40 1
58 40 1
76 40 1
9 41 1
23 41 1
29 41 1
30 41 1
82 41 1
104 41 1
113 41 1
119 41 1
10 42 1
24 42 1
26 42 1
30 42 1
83 42 1
105 42 1
114 42 1
120 42 1
6 43 1
25 43 1
26 43 1
27 43 1
84 43 1
101 43 1
115 43 1
116 43 1
7 44 1
21 44 1
27 44 1
28 44 1
85 44 1
102 44 1
111 44 1
117 44 1
8 45 1
22 45 1
28 45 1
29 45 1
81 45 1
103 45 1
112 45 1
118 45 1
4 46 1
24 46 1
25 46 1
28 46 1
87 46 1
109 46 1
114 46 1
118 46 1
5 47 1
21 47 1
25 47 1
29 47 1
88 47 1
110 47 1
115 47 1
119 47 1
1 48 1
21 48 1
22 48 1
30 48 1
89 48 1
106 48 1
111 48 1
120 48 1
2 49 1
22 49 1
23 49 1
26 49 1
90 49 1
107 49 1
112 49 1
116 49 1
3 50 1
23 50 1
24 50 1
27 50 1
86 50 1
108 50 1
113 50 1
117 50 1
19 51 1
33 51 1
39 51 1
40 51 1
92 51 1
103 51 1
109 51 1
114 51 1
20 52 1
34 52 1
36 52 1
40 52 1
93 52 1
104 52 1
110 52 1
115 52 1
16 53 1
35 53 1
36 53 1
37 53 1
94 53 1
105 53 1
106 53 1
111 53 1
17 54 1
31 54 1
37 54 1
38 54 1
95 54 1
101 54 1
107 54 1
112 54 1
18 55 1
32 55 1
38 55 1
39 55 1
91 55 1
102 55 1
108 55 1
113 55 1
14 56 1
34 56 1
35 56 1
38 56 1
97 56 1
104 56 1
108 56 1
119 56 1
15 57 1
31 57 1
35 57 1
39 57 1
98 57 1
105 57 1
109 57 1
120 57 1
11 58 1
31 58 1
32 58 1
40 58 1
99 58 1
101 58 1
110 58 1
116 58 1
12 59 1
32 59 1
33 59 1
36 59 1
100 59 1
102 59 1
106 59 1
117 59 1
13 60 1
33 60 1
34 60 1
37 60 1
96 60 1
103 60 1
107 60 1
118 60 1
3 61 1
9 61 1
10 61 1
29 61 1
84 61 1
93 61 1
99 61 1
102 61 1
4 62 1
6 62 1
10 62 1
30 62 1
85 62 1
94 62 1
100 62 1
103 62 1
5 63 1
6 63 1
7 63 1
26 63 1
81 63 1
95 63 1
96 63 1
104 63 1
1 64 1
7 64 1
8 64 1
27 64 1
82 64 1
91 64 1
97 64 1
105 64 1
2 65 1
8 65 1
9 65 1
28 65 1
83 65 1
92 65 1
98 65 1
101 65 1
4 66 1
5 66 1
8 66 1
24 66 1
89 66 1
94 66 1
98 66 1
107 66 1
1 67 1
5 67 1
9 67 1
25 67 1
90 67 1
95 67 1
99 67 1
108 67 1
1 68 1
2 68 1
10 68 1
21 68 1
86 68 1
91 68 1
100 68 1
109 68 1
2 69 1
3 69 1
6 69 1
22 69 1
87 69 1
92 69 1
96 69 1
110 69 1
3 70 1
4 70 1
7 70 1
23 70 1
88 70 1
93 70 1
97 70 1
106 70 1
13 71 1
19 71 1
20 71 1
39 71 1
83 71 1
89 71 1
94 71 1
112 71 1
14 72 1
16 72 1
20 72 1
40 72 1
84 72 1
90 72 1
95 72 1
113 72 1
15 73 1
16 73 1
17 73 1
36 73 1
85 73 1
86 73 1
91 73 1
114 73 1
11 74 1
17 74 1
18 74 1
37 74 1
81 74 1
87 74 1
92 74 1
115 74 1
12 75 1
18 75 1
19 75 1
38 75 1
82 75 1
88 75 1
93 75 1
111 75 1
14 76 1
15 76 1
18 76 1
34 76 1
84 76 1
88 76 1
99 76 1
117 76 1
11 77 1
15 77 1
19 77 1
35 77 1
85 77 1
89 77 1
100 77 1
118 77 1
11 78 1
12 78 1
20 78 1
31 78 1
81 78 1
90 78 1
96 78 1
119 78 1
12 79 1
13 79 1
16 79 1
32 79 1
82 79 1
86 79 1
97 79 1
120 79 1
13 80 1
14 80 1
17 80 1
33 80 1
83 80 1
87 80 1
98 80 1
116 80 1
22 81 1
30 81 1
31 81 1
37 81 1
122 81 1
144 81 1
153 81 1
159 81 1
23 82 1
26 82 1
32 82 1
38 82 1
123 82 1
145 82 1
154 82 1
160 82 1
24 83 1
27 83 1
33 83 1
39 83 1
124 83 1
141 83 1
155 83 1
156 83 1
25 84 1
28 84 1
34 84 1
40 84 1
125 84 1
142 84 1
151 84 1
157 84 1
21 85 1
29 85 1
35 85 1
36 85 1
121 85 1
143 85 1
152 85 1
158 85 1
25 86 1
27 86 1
32 86 1
36 86 1
127 86 1
149 86 1
154 86 1
158 86 1
21 87 1
28 87 1
33 87 1
37 87 1
128 87 1
150 87 1
155 87 1
159 87 1
22 88 1
29 88 1
34 88 1
38 88 1
129 88 1
146 88 1
151 88 1
160 88 1
23 89 1
30 89 1
35 89 1
39 89 1
130 89 1
147 89 1
152 89 1
156 89 1
24 90 1
26 90 1
31 90 1
40 90 1
126 90 1
148 90 1
153 90 1
157 90 1
21 91 1
27 91 1
32 91 1
40 91 1
132 91 1
143 91 1
149 91 1
154 91 1
22 92 1
28 92 1
33 92 1
36 92 1
133 92 1
144 92 1
150 92 1
155 92 1
23 93 1
29 93 1
34 93 1
37 93 1
134 93 1
145 93 1
146 93 1
151 93 1
24 94 1
30 94 1
35 94 1
38 94 1
135 94 1
141 94 1
147 94 1
152 94 1
25 95 1
26 95 1
31 95 1
39 95 1
131 95 1
142 95 1
148 95 1
153 95 1
22 96 1
26 96 1
35 96 1
37 96 1
137 96 1
144 96 1
148 96 1
159 96 1
23 97 1
27 97 1
31 97 1
38 97 1
138 97 1
145 97 1
149 97 1
160 97 1
24 98 1
28 98 1
32 98 1
39 98 1
139 98 1
141 98 1
150 98 1
156 98 1
25 99 1
29 99 1
33 99 1
40 99 1
140 99 1
142 99 1
146 99 1
157 99 1
21 100 1
30 100 1
34 100 1
36 100 1
136 100 1
143 100 1
147 100 1
158 100 1
2 101 1
10 101 1
11 101 1
17 101 1
124 101 1
133 101 1
139 101 1
142 101 1
3 102 1
6 102 1
12 102 1
18 102 1
125 102 1
134 102 1
140 102 1
143 102 1
4 103 1
7 103 1
13 103 1
19 103 1
121 103 1
135 103 1
136 103 1
144 103 1
5 104 1
8 104 1
14 104 1
20 104 1
122 104 1
131 104 1
137 104 1
145 104 1
1 105 1
9 105 1
15 105 1
16 105 1
123 105 1
132 105 1
138 105 1
141 105 1
5 106 1
7 106 1
12 106 1
16 106 1
129 106 1
134 106 1
138 106 1
147 106 1
1 107 1
8 107 1
13 107 1
17 107 1
130 107 1
135 107 1
139 107 1
148 107 1
2 108 1
9 108 1
14 108 1
18 108 1
126 108 1
131 108 1
140 108 1
149 108 1
3 109 1
10 109 1
15 109 1
19 109 1
127 109 1
132 109 1
136 109 1
150 109 1
4 110 1
6 110 1
11 110 1
20 110 1
128 110 1
133 110 1
137 110 1
146 110 1
1 111 1
7 111 1
12 111 1
20 111 1
123 111 1
129 111 1
134 111 1
152 111 1
2 112 1
8 112 1
13 112 1
16 112 1
124 112 1
130 112 1
135 112 1
153 112 1
3 113 1
9 113 1
14 113 1
17 113 1
125 113 1
126 113 1
131 113 1
154 113 1
4 114 1
10 114 1
15 114 1
18 114 1
121 114 1
127 114 1
132 114 1
155 114 1
5 115 1
6 115 1
11 115 1
19 115 1
122 115 1
128 115 1
133 115 1
151 115 1
2 116 1
6 116 1
15 116 1
17 116 1
124 116 1
128 116 1
139 116 1
157 116 1
3 117 1
7 117 1
11 117 1
18 117 1
125 117 1
129 117 1
140 117 1
158 117 1
4 118 1
8 118 1
12 118 1
19 118 1
121 118 1
130 118 1
136 118 1
159 118 1
5 119 1
9 119 1
13 119 1
20 119 1
122 119 1
126 119 1
137 119 1
160 119 1
1 120 1
10 120 1
14 120 1
16 120 1
123 120 1
127 120 1
138 120 1
156 120 1
49 121 1
63 121 1
69 121 1
70 121 1
96 121 1
111 121 1
116 121 1
120 121 1
50 122 1
64 122 1
66 122 1
70 122 1
97 122 1
112 122 1
116 122 1
117 122 1
46 123 1
65 123 1
66 123 1
67 123 1
98 123 1
113 123 1
117 123 1
118 123 1
47 124 1
61 124 1
67 124 1
68 124 1
99 124 1
114 124 1
118 124 1
119 124 1
48 125 1
62 125 1
68 125 1
69 125 1
100 125 1
115 125 1
119 125 1
120 125 1
44 126 1
64 126 1
65 126 1
68 126 1
91 126 1
111 126 1
115 126 1
116 126 1
45 127 1
61 127 1
65 127 1
69 127 1
92 127 1
111 127 1
112 127 1
117 127 1
41 128 1
61 128 1
62 128 1
70 128 1
93 128 1
112 128 1
113 128 1
118 128 1
42 129 1
62 129 1
63 129 1
66 129 1
94 129 1
113 129 1
114 129 1
119 129 1
43 130 1
63 130 1
64 130 1
67 130 1
95 130 1
114 130 1
115 130 1
120 130 1
59 131 1
73 131 1
79 131 1
80 131 1
86 131 1
101 131 1
106 131 1
110 131 1
60 132 1
74 132 1
76 132 1
80 132 1
87 132 1
102 132 1
106 132 1
107 132 1
56 133 1
75 133 1
76 133 1
77 133 1
88 133 1
103 133 1
107 133 1
108 133 1
57 134 1
71 134 1
77 134 1
78 134 1
89 134 1
104 134 1
108 134 1
109 134 1
58 135 1
72 135 1
78 135 1
79 135 1
90 135 1
105 135 1
109 135 1
110 135 1
54 136 1
74 136 1
75 136 1
78 136 1
81 136 1
101 136 1
105 136 1
106 136 1
55 137 1
71 137 1
75 137 1
79 137 1
82 137 1
101 137 1
102 137 1
107 137 1
51 138 1
71 138 1
72 138 1
80 138 1
83 138 1
102 138 1
103 138 1
108 138 1
52 139 1
72 139 1
73 139 1
76 139 1
84 139 1
103 139 1
104 139 1
109 139 1
53 140 1
73 140 1
74 140 1
77 140 1
85 140 1
104 140 1
105 140 1
110 140 1
43 141 1
49 141 1
50 141 1
69 141 1
91 141 1
96 141 1
100 141 1
116 141 1
44 142 1
46 142 1
50 142 1
70 142 1
92 142 1
96 142 1
97 142 1
117 142 1
45 143 1
46 143 1
47 143 1
66 143 1
93 143 1
97 143 1
98 143 1
118 143 1
41 144 1
47 144 1
48 144 1
67 144 1
94 144 1
98 144 1
99 144 1
119 144 1
42 145 1
48 145 1
49 145 1
68 145 1
95 145 1
99 145 1
100 145 1
120 145 1
44 146 1
45 146 1
48 146 1
64 146 1
91 146 1
95 146 1
96 146 1
111 146 1
41 147 1
45 147 1
49 147 1
65 147 1
91 147 1
92 147 1
97 147 1
112 147 1
41 148 1
42 148 1
50 148 1
61 148 1
92 148 1
93 148 1
98 148 1
113 148 1
42 149 1
43 149 1
46 149 1
62 149 1
93 149 1
94 149 1
99 149 1
114 149 1
43 150 1
44 150 1
47 150 1
63 150 1
94 150 1
95 150 1
100 150 1
115 150 1
53 151 1
59 151 1
60 151 1
79 151 1
81 151 1
86 151 1
90 151 1
106 151 1
54 152 1
56 152 1
60 152 1
80 152 1
82 152 1
86 152 1
87 152 1
107 152 1
55 153 1
56 153 1
57 153 1
76 153 1
83 153 1
87 153 1
88 153 1
108 153 1
51 154 1
57 154 1
58 154 1
77 154 1
84 154 1
88 154 1
89 154 1
109 154 1
52 155 1
58 155 1
59 155 1
78 155 1
85 155 1
89 155 1
90 155 1
110 155 1
54 156 1
55 156 1
58 156 1
74 156 1
81 156 1
85 156 1
86 156 1
101 156 1
51 157 1
55 157 1
59 157 1
75 157 1
81 157 1
82 157 1
87 157 1
102 157 1
51 158 1
52 158 1
60 158 1
71 158 1
82 158 1
83 158 1
88 158 1
103 158 1
52 159 1
53 159 1
56 159 1
72 159 1
83 159 1
84 159 1
89 159 1
104 159 1
53 160 1
54 160 1
57 160 1
73 160 1
84 160 1
85 160 1
90 160 1
105 160 1
62 161 1
70 161 1
71 161 1
77 161 1
136 161 1
151 161 1
156 161 1
160 161 1
63 162 1
66 162 1
72 162 1
78 162 1
137 162 1
152 162 1
156 162 1
157 162 1
64 163 1
67 163 1
73 163 1
79 163 1
138 163 1
153 163 1
157 163 1
158 163 1
65 164 1
68 164 1
74 164 1
80 164 1
139 164 1
154 164 1
158 164 1
159 164 1
61 165 1
69 165 1
75 165 1
76 165 1
140 165 1
155 165 1
159 165 1
160 165 1
65 166 1
67 166 1
72 166 1
76 166 1
131 166 1
151 166 1
155 166 1
156 166 1
61 167 1
68 167 1
73 167 1
77 167 1
132 167 1
151 167 1
152 167 1
157 167 1
62 168 1
69 168 1
74 168 1
78 168 1
133 168 1
152 168 1
153 168 1
158 168 1
63 169 1
70 169 1
75 169 1
79 169 1
134 169 1
153 169 1
154 169 1
159 169 1
64 170 1
66 170 1
71 170 1
80 170 1
135 170 1
154 170 1
155 170 1
160 170 1
61 171 1
67 171 1
72 171 1
80 171 1
126 171 1
141 171 1
146 171 1
150 171 1
62 172 1
68 172 1
73 172 1
76 172 1
127 172 1
142 172 1
146 172 1
147 172 1
63 173 1
69 173 1
74 173 1
77 173 1
128 173 1
143 173 1
147 173 1
148 173 1
64 174 1
70 174 1
75 174 1
78 174 1
129 174 1
144 174 1
148 174 1
149 174 1
65 175 1
66 175 1
71 175 1
79 175 1
130 175 1
145 175 1
149 175 1
150 175 1
62 176 1
66 176 1
75 176 1
77 176 1
121 176 1
141 176 1
145 176 1
146 176 1
63 177 1
67 177 1
71 177 1
78 177 1
122 177 1
141 177 1
142 177 1
147 177 1
64 178 1
68 178 1
72 178 1
79 178 1
123 178 1
142 178 1
143 178 1
148 178 1
65 179 1
69 179 1
73 179 1
80 179 1
124 179 1
143 179 1
144 179 1
149 179 1
61 180 1
70 180 1
74 180 1
76 180 1
125 180 1
144 180 1
145 180 1
150 180 1
42 181 1
50 181 1
51 181 1
57 181 1
131 181 1
136 181 1
140 181 1
156 181 1
43 182 1
46 182 1
52 182 1
58 182 1
132 182 1
136 182 1
137 182 1
157 182 1
44 183 1
47 183 1
53 183 1
59 183 1
133 183 1
137 183 1
138 183 1
158 183 1
45 184 1
48 184 1
54 184 1
60 184 1
134 184 1
138 184 1
139 184 1
159 184 1
41 185 1
49 185 1
55 185 1
56 185 1
135 185 1
139 185 1
140 185 1
160 185 1
45 186 1
47 186 1
52 186 1
56 186 1
131 186 1
135 186 1
136 186 1
151 186 1
41 187 1
48 187 1
53 187 1
57 187 1
131 187 1
132 187 1
137 187 1
152 187 1
42 188 1
49 188 1
54 188 1
58 188 1
132 188 1
133 188 1
138 188 1
153 188 1
43 189 1
50 189 1
55 189 1
59 189 1
133 189 1
134 189 1
139 189 1
154 189 1
44 190 1
46 190 1
51 190 1
60 190 1
134 190 1
135 190 1
140 190 1
155 190 1
41 191 1
47 191 1
52 191 1
60 191 1
121 191 1
126 191 1
130 191 1
146 191 1
42 192 1
48 192 1
53 192 1
56 192 1
122 192 1
126 192 1
127 192 1
147 192 1
43 193 1
49 193 1
54 193 1
57 193 1
123 193 1
127 193 1
128 193 1
148 193 1
44 194 1
50 194 1
55 194 1
58 194 1
124 194 1
128 194 1
129 194 1
149 194 1
45 195 1
46 195 1
51 195 1
59 195 1
125 195 1
129 195 1
130 195 1
150 195 1
42 196 1
46 196 1
55 196 1
57 196 1
121 196 1
125 196 1
126 196 1
141 196 1
43 197 1
47 197 1
51 197 1
58 197 1
121 197 1
122 197 1
127 197 1
142 197 1
44 198 1
48 198 1
52 198 1
59 198 1
122 198 1
123 198 1
128 198 1
143 198 1
45 199 1
49 199 1
53 199 1
60 199 1
123 199 1
124 199 1
129 199 1
144 199 1
41 200 1
50 200 1
54 200 1
56 200 1
124 200 1
125 200 1
130 200 1
145 200 1
102 201 1
110 201 1
111 201 1
117 201 1
129 201 1
143 201 1
149 201 1
150 201 1
103 202 1
106 202 1
112 202 1
118 202 1
130 202 1
144 202 1
146 202 1
150 202 1
104 203 1
107 203 1
113 203 1
119 203 1
126 203 1
145 203 1
146 203 1
147 203 1
105 204 1
108 204 1
114 204 1
120 204 1
127 204 1
141 204 1
147 204 1
148 204 1
101 205 1
109 205 1
115 205 1
116 205 1
128 205 1
142 205 1
148 205 1
149 205 1
105 206 1
107 206 1
112 206 1
116 206 1
124 206 1
144 206 1
145 206 1
148 206 1
101 207 1
108 207 1
113 207 1
117 207 1
125 207 1
141 207 1
145 207 1
149 207 1
102 208 1
109 208 1
114 208 1
118 208 1
121 208 1
141 208 1
142 208 1
150 208 1
103 209 1
110 209 1
115 209 1
119 209 1
122 209 1
142 209 1
143 209 1
146 209 1
104 210 1
106 210 1
111 210 1
120 210 1
123 210 1
143 210 1
144 210 1
147 210 1
101 211 1
107 211 1
112 211 1
120 211 1
139 211 1
153 211 1
159 211 1
160 211 1
102 212 1
108 212 1
113 212 1
116 212 1
140 212 1
154 212 1
156 212 1
160 212 1
103 213 1
109 213 1
114 213 1
117 213 1
136 213 1
155 213 1
156 213 1
157 213 1
104 214 1
110 214 1
115 214 1
118 214 1
137 214 1
151 214 1
157 214 1
158 214 1
105 215 1
106 215 1
111 215 1
119 215 1
138 215 1
152 215 1
158 215 1
159 215 1
102 216 1
106 216 1
115 216 1
117 216 1
134 216 1
154 216 1
155 216 1
158 216 1
103 217 1
107 217 1
111 217 1
118 217 1
135 217 1
151 217 1
155 217 1
159 217 1
104 218 1
108 218 1
112 218 1
119 218 1
131 218 1
151 218 1
152 218 1
160 218 1
105 219 1
109 219 1
113 219 1
120 219 1
132 219 1
152 219 1
153 219 1
156 219 1
101 220 1
110 220 1
114 220 1
116 220 1
133 220 1
153 220 1
154 220 1
157 220 1
82 221 1
90 221 1
91 221 1
97 221 1
123 221 1
129 221 1
130 221 1
149 221 1
83 222 1
86 222 1
92 222 1
98 222 1
124 222 1
126 222 1
130 222 1
150 222 1
84 223 1
87 223 1
93 223 1
99 223 1
125 223 1
126 223 1
127 223 1
146 223 1
85 224 1
88 224 1
94 224 1
100 224 1
121 224 1
127 224 1
128 224 1
147 224 1
81 225 1
89 225 1
95 225 1
96 225 1
122 225 1
128 225 1
129 225 1
148 225 1
85 226 1
87 226 1
92 226 1
96 226 1
124 226 1
125 226 1
128 226 1
144 226 1
81 227 1
88 227 1
93 227 1
97 227 1
121 227 1
125 227 1
129 227 1
145 227 1
82 228 1
89 228 1
94 228 1
98 228 1
121 228 1
122 228 1
130 228 1
141 228 1
83 229 1
90 229 1
95 229 1
99 229 1
122 229 1
123 229 1
126 229 1
142 229 1
84 230 1
86 230 1
91 230 1
100 230 1
123 230 1
124 230 1
127 230 1
143 230 1
81 231 1
87 231 1
92 231 1
100 231 1
133 231 1
139 231 1
140 231 1
159 231 1
82 232 1
88 232 1
93 232 1
96 232 1
134 232 1
136 232 1
140 232 1
160 232 1
83 233 1
89 233 1
94 233 1
97 233 1
135 233 1
136 233 1
137 233 1
156 233 1
84 234 1
90 234 1
95 234 1
98 234 1
131 234 1
137 234 1
138 234 1
157 234 1
85 235 1
86 235 1
91 235 1
99 235 1
132 235 1
138 235 1
139 235 1
158 235 1
82 236 1
86 236 1
95 236 1
97 236 1
134 236 1
135 236 1
138 236 1
154 236 1
83 237 1
87 237 1
91 237 1
98 237 1
131 237 1
135 237 1
139 237 1
155 237 1
84 238 1
88 238 1
92 238 1
99 238 1
131 238 1
132 238 1
140 238 1
151 238 1
85 239 1
89 239 1
93 239 1
100 239 1
132 239 1
133 239 1
136 239 1
152 239 1
81 240 1
90 240 1
94 240 1
96 240 1
133 240 1
134 240 1
137 240 1
153 240 1
