%%MatrixMarket matrix coordinate integer general
% Binary matrix; one-based indices; arithmetic over GF(2)
296 444 1776
1 1 1
27 1 1
75 1 1
81 1 1
2 2 1
28 2 1
76 2 1
82 2 1
3 3 1
29 3 1
77 3 1
83 3 1
4 4 1
30 4 1
78 4 1
84 4 1
5 5 1
31 5 1
79 5 1
85 5 1
6 6 1
32 6 1
80 6 1
86 6 1
7 7 1
33 7 1
81 7 1
87 7 1
8 8 1
34 8 1
82 8 1
88 8 1
9 9 1
35 9 1
83 9 1
89 9 1
10 10 1
36 10 1
84 10 1
90 10 1
11 11 1
37 11 1
85 11 1
91 11 1
12 12 1
38 12 1
86 12 1
92 12 1
13 13 1
39 13 1
87 13 1
93 13 1
14 14 1
40 14 1
88 14 1
94 14 1
15 15 1
41 15 1
89 15 1
95 15 1
16 16 1
42 16 1
90 16 1
96 16 1
17 17 1
43 17 1
91 17 1
97 17 1
18 18 1
44 18 1
92 18 1
98 18 1
19 19 1
45 19 1
93 19 1
99 19 1
20 20 1
46 20 1
94 20 1
100 20 1
21 21 1
47 21 1
95 21 1
101 21 1
22 22 1
48 22 1
96 22 1
102 22 1
23 23 1
49 23 1
97 23 1
103 23 1
24 24 1
50 24 1
98 24 1
104 24 1
25 25 1
51 25 1
99 25 1
105 25 1
26 26 1
52 26 1
100 26 1
106 26 1
27 27 1
53 27 1
101 27 1
107 27 1
28 28 1
54 28 1
102 28 1
108 28 1
29 29 1
55 29 1
103 29 1
109 29 1
30 30 1
56 30 1
104 30 1
110 30 1
31 31 1
57 31 1
105 31 1
111 31 1
32 32 1
58 32 1
106 32 1
112 32 1
33 33 1
59 33 1
107 33 1
113 33 1
34 34 1
60 34 1
108 34 1
114 34 1
35 35 1
61 35 1
109 35 1
115 35 1
36 36 1
62 36 1
110 36 1
116 36 1
37 37 1
63 37 1
111 37 1
117 37 1
38 38 1
64 38 1
112 38 1
118 38 1
39 39 1
65 39 1
113 39 1
119 39 1
40 40 1
66 40 1
114 40 1
120 40 1
41 41 1
67 41 1
115 41 1
121 41 1
42 42 1
68 42 1
116 42 1
122 42 1
43 43 1
69 43 1
117 43 1
123 43 1
44 44 1
70 44 1
118 44 1
124 44 1
45 45 1
71 45 1
119 45 1
125 45 1
46 46 1
72 46 1
120 46 1
126 46 1
47 47 1
73 47 1
121 47 1
127 47 1
48 48 1
74 48 1
122 48 1
128 48 1
1 49 1
49 49 1
123 49 1
129 49 1
2 50 1
50 50 1
124 50 1
130 50 1
3 51 1
51 51 1
125 51 1
131 51 1
4 52 1
52 52 1
126 52 1
132 52 1
5 53 1
53 53 1
127 53 1
133 53 1
6 54 1
54 54 1
128 54 1
134 54 1
7 55 1
55 55 1
129 55 1
135 55 1
8 56 1
56 56 1
130 56 1
136 56 1
9 57 1
57 57 1
131 57 1
137 57 1
10 58 1
58 58 1
132 58 1
138 58 1
11 59 1
59 59 1
133 59 1
139 59 1
12 60 1
60 60 1
134 60 1
140 60 1
13 61 1
61 61 1
135 61 1
141 61 1
14 62 1
62 62 1
136 62 1
142 62 1
15 63 1
63 63 1
137 63 1
143 63 1
16 64 1
64 64 1
138 64 1
144 64 1
17 65 1
65 65 1
139 65 1
145 65 1
18 66 1
66 66 1
140 66 1
146 66 1
19 67 1
67 67 1
141 67 1
147 67 1
20 68 1
68 68 1
142 68 1
148 68 1
21 69 1
69 69 1
75 69 1
143 69 1
22 70 1
70 70 1
76 70 1
144 70 1
23 71 1
71 71 1
77 71 1
145 71 1
24 72 1
72 72 1
78 72 1
146 72 1
25 73 1
73 73 1
79 73 1
147 73 1
26 74 1
74 74 1
80 74 1
148 74 1
1 75 1
50 75 1
149 75 1
155 75 1
2 76 1
51 76 1
150 76 1
156 76 1
3 77 1
52 77 1
151 77 1
157 77 1
4 78 1
53 78 1
152 78 1
158 78 1
5 79 1
54 79 1
153 79 1
159 79 1
6 80 1
55 80 1
154 80 1
160 80 1
7 81 1
56 81 1
155 81 1
161 81 1
8 82 1
57 82 1
156 82 1
162 82 1
9 83 1
58 83 1
157 83 1
163 83 1
10 84 1
59 84 1
158 84 1
164 84 1
11 85 1
60 85 1
159 85 1
165 85 1
12 86 1
61 86 1
160 86 1
166 86 1
13 87 1
62 87 1
161 87 1
167 87 1
14 88 1
63 88 1
162 88 1
168 88 1
15 89 1
64 89 1
163 89 1
169 89 1
16 90 1
65 90 1
164 90 1
170 90 1
17 91 1
66 91 1
165 91 1
171 91 1
18 92 1
67 92 1
166 92 1
172 92 1
19 93 1
68 93 1
167 93 1
173 93 1
20 94 1
69 94 1
168 94 1
174 94 1
21 95 1
70 95 1
169 95 1
175 95 1
22 96 1
71 96 1
170 96 1
176 96 1
23 97 1
72 97 1
171 97 1
177 97 1
24 98 1
73 98 1
172 98 1
178 98 1
25 99 1
74 99 1
173 99 1
179 99 1
1 100 1
26 100 1
174 100 1
180 100 1
2 101 1
27 101 1
175 101 1
181 101 1
3 102 1
28 102 1
176 102 1
182 102 1
4 103 1
29 103 1
177 103 1
183 103 1
5 104 1
30 104 1
178 104 1
184 104 1
6 105 1
31 105 1
179 105 1
185 105 1
7 106 1
32 106 1
180 106 1
186 106 1
8 107 1
33 107 1
181 107 1
187 107 1
9 108 1
34 108 1
182 108 1
188 108 1
10 109 1
35 109 1
183 109 1
189 109 1
11 110 1
36 110 1
184 110 1
190 110 1
12 111 1
37 111 1
185 111 1
191 111 1
13 112 1
38 112 1
186 112 1
192 112 1
14 113 1
39 113 1
187 113 1
193 113 1
15 114 1
40 114 1
188 114 1
194 114 1
16 115 1
41 115 1
189 115 1
195 115 1
17 116 1
42 116 1
190 116 1
196 116 1
18 117 1
43 117 1
191 117 1
197 117 1
19 118 1
44 118 1
192 118 1
198 118 1
20 119 1
45 119 1
193 119 1
199 119 1
21 120 1
46 120 1
194 120 1
200 120 1
22 121 1
47 121 1
195 121 1
201 121 1
23 122 1
48 122 1
196 122 1
202 122 1
24 123 1
49 123 1
197 123 1
203 123 1
25 124 1
50 124 1
198 124 1
204 124 1
26 125 1
51 125 1
199 125 1
205 125 1
27 126 1
52 126 1
200 126 1
206 126 1
28 127 1
53 127 1
201 127 1
207 127 1
29 128 1
54 128 1
202 128 1
208 128 1
30 129 1
55 129 1
203 129 1
209 129 1
31 130 1
56 130 1
204 130 1
210 130 1
32 131 1
57 131 1
205 131 1
211 131 1
33 132 1
58 132 1
206 132 1
212 132 1
34 133 1
59 133 1
207 133 1
213 133 1
35 134 1
60 134 1
208 134 1
214 134 1
36 135 1
61 135 1
209 135 1
215 135 1
37 136 1
62 136 1
210 136 1
216 136 1
38 137 1
63 137 1
211 137 1
217 137 1
39 138 1
64 138 1
212 138 1
218 138 1
40 139 1
65 139 1
213 139 1
219 139 1
41 140 1
66 140 1
214 140 1
220 140 1
42 141 1
67 141 1
215 141 1
221 141 1
43 142 1
68 142 1
216 142 1
222 142 1
44 143 1
69 143 1
149 143 1
217 143 1
45 144 1
70 144 1
150 144 1
218 144 1
46 145 1
71 145 1
151 145 1
219 145 1
47 146 1
72 146 1
152 146 1
220 146 1
48 147 1
73 147 1
153 147 1
221 147 1
49 148 1
74 148 1
154 148 1
222 148 1
1 149 1
60 149 1
223 149 1
229 149 1
2 150 1
61 150 1
224 150 1
230 150 1
3 151 1
62 151 1
225 151 1
231 151 1
4 152 1
63 152 1
226 152 1
232 152 1
5 153 1
64 153 1
227 153 1
233 153 1
6 154 1
65 154 1
228 154 1
234 154 1
7 155 1
66 155 1
229 155 1
235 155 1
8 156 1
67 156 1
230 156 1
236 156 1
9 157 1
68 157 1
231 157 1
237 157 1
10 158 1
69 158 1
232 158 1
238 158 1
11 159 1
70 159 1
233 159 1
239 159 1
12 160 1
71 160 1
234 160 1
240 160 1
13 161 1
72 161 1
235 161 1
241 161 1
14 162 1
73 162 1
236 162 1
242 162 1
15 163 1
74 163 1
237 163 1
243 163 1
1 164 1
16 164 1
238 164 1
244 164 1
2 165 1
17 165 1
239 165 1
245 165 1
3 166 1
18 166 1
240 166 1
246 166 1
4 167 1
19 167 1
241 167 1
247 167 1
5 168 1
20 168 1
242 168 1
248 168 1
6 169 1
21 169 1
243 169 1
249 169 1
7 170 1
22 170 1
244 170 1
250 170 1
8 171 1
23 171 1
245 171 1
251 171 1
9 172 1
24 172 1
246 172 1
252 172 1
10 173 1
25 173 1
247 173 1
253 173 1
11 174 1
26 174 1
248 174 1
254 174 1
12 175 1
27 175 1
249 175 1
255 175 1
13 176 1
28 176 1
250 176 1
256 176 1
14 177 1
29 177 1
251 177 1
257 177 1
15 178 1
30 178 1
252 178 1
258 178 1
16 179 1
31 179 1
253 179 1
259 179 1
17 180 1
32 180 1
254 180 1
260 180 1
18 181 1
33 181 1
255 181 1
261 181 1
19 182 1
34 182 1
256 182 1
262 182 1
20 183 1
35 183 1
257 183 1
263 183 1
21 184 1
36 184 1
258 184 1
264 184 1
22 185 1
37 185 1
259 185 1
265 185 1
23 186 1
38 186 1
260 186 1
266 186 1
24 187 1
39 187 1
261 187 1
267 187 1
25 188 1
40 188 1
262 188 1
268 188 1
26 189 1
41 189 1
263 189 1
269 189 1
27 190 1
42 190 1
264 190 1
270 190 1
28 191 1
43 191 1
265 191 1
271 191 1
29 192 1
44 192 1
266 192 1
272 192 1
30 193 1
45 193 1
267 193 1
273 193 1
31 194 1
46 194 1
268 194 1
274 194 1
32 195 1
47 195 1
269 195 1
275 195 1
33 196 1
48 196 1
270 196 1
276 196 1
34 197 1
49 197 1
271 197 1
277 197 1
35 198 1
50 198 1
272 198 1
278 198 1
36 199 1
51 199 1
273 199 1
279 199 1
37 200 1
52 200 1
274 200 1
280 200 1
38 201 1
53 201 1
275 201 1
281 201 1
39 202 1
54 202 1
276 202 1
282 202 1
40 203 1
55 203 1
277 203 1
283 203 1
41 204 1
56 204 1
278 204 1
284 204 1
42 205 1
57 205 1
279 205 1
285 205 1
43 206 1
58 206 1
280 206 1
286 206 1
44 207 1
59 207 1
281 207 1
287 207 1
45 208 1
60 208 1
282 208 1
288 208 1
46 209 1
61 209 1
283 209 1
289 209 1
47 210 1
62 210 1
284 210 1
290 210 1
48 211 1
63 211 1
285 211 1
291 211 1
49 212 1
64 212 1
286 212 1
292 212 1
50 213 1
65 213 1
287 213 1
293 213 1
51 214 1
66 214 1
288 214 1
294 214 1
52 215 1
67 215 1
289 215 1
295 215 1
53 216 1
68 216 1
290 216 1
296 216 1
54 217 1
69 217 1
223 217 1
291 217 1
55 218 1
70 218 1
224 218 1
292 218 1
56 219 1
71 219 1
225 219 1
293 219 1
57 220 1
72 220 1
226 220 1
294 220 1
58 221 1
73 221 1
227 221 1
295 221 1
59 222 1
74 222 1
228 222 1
296 222 1
75 223 1
124 223 1
149 223 1
175 223 1
76 224 1
125 224 1
150 224 1
176 224 1
77 225 1
126 225 1
151 225 1
177 225 1
78 226 1
127 226 1
152 226 1
178 226 1
79 227 1
128 227 1
153 227 1
179 227 1
80 228 1
129 228 1
154 228 1
180 228 1
81 229 1
130 229 1
155 229 1
181 229 1
82 230 1
131 230 1
156 230 1
182 230 1
83 231 1
132 231 1
157 231 1
183 231 1
84 232 1
133 232 1
158 232 1
184 232 1
85 233 1
134 233 1
159 233 1
185 233 1
86 234 1
135 234 1
160 234 1
186 234 1
87 235 1
136 235 1
161 235 1
187 235 1
88 236 1
137 236 1
162 236 1
188 236 1
89 237 1
138 237 1
163 237 1
189 237 1
90 238 1
139 238 1
164 238 1
190 238 1
91 239 1
140 239 1
165 239 1
191 239 1
92 240 1
141 240 1
166 240 1
192 240 1
93 241 1
142 241 1
167 241 1
193 241 1
94 242 1
143 242 1
168 242 1
194 242 1
95 243 1
144 243 1
169 243 1
195 243 1
96 244 1
145 244 1
170 244 1
196 244 1
97 245 1
146 245 1
171 245 1
197 245 1
98 246 1
147 246 1
172 246 1
198 246 1
99 247 1
148 247 1
173 247 1
199 247 1
75 248 1
100 248 1
174 248 1
200 248 1
76 249 1
101 249 1
175 249 1
201 249 1
77 250 1
102 250 1
176 250 1
202 250 1
78 251 1
103 251 1
177 251 1
203 251 1
79 252 1
104 252 1
178 252 1
204 252 1
80 253 1
105 253 1
179 253 1
205 253 1
81 254 1
106 254 1
180 254 1
206 254 1
82 255 1
107 255 1
181 255 1
207 255 1
83 256 1
108 256 1
182 256 1
208 256 1
84 257 1
109 257 1
183 257 1
209 257 1
85 258 1
110 258 1
184 258 1
210 258 1
86 259 1
111 259 1
185 259 1
211 259 1
87 260 1
112 260 1
186 260 1
212 260 1
88 261 1
113 261 1
187 261 1
213 261 1
89 262 1
114 262 1
188 262 1
214 262 1
90 263 1
115 263 1
189 263 1
215 263 1
91 264 1
116 264 1
190 264 1
216 264 1
92 265 1
117 265 1
191 265 1
217 265 1
93 266 1
118 266 1
192 266 1
218 266 1
94 267 1
119 267 1
193 267 1
219 267 1
95 268 1
120 268 1
194 268 1
220 268 1
96 269 1
121 269 1
195 269 1
221 269 1
97 270 1
122 270 1
196 270 1
222 270 1
98 271 1
123 271 1
149 271 1
197 271 1
99 272 1
124 272 1
150 272 1
198 272 1
100 273 1
125 273 1
151 273 1
199 273 1
101 274 1
126 274 1
152 274 1
200 274 1
102 275 1
127 275 1
153 275 1
201 275 1
103 276 1
128 276 1
154 276 1
202 276 1
104 277 1
129 277 1
155 277 1
203 277 1
105 278 1
130 278 1
156 278 1
204 278 1
106 279 1
131 279 1
157 279 1
205 279 1
107 280 1
132 280 1
158 280 1
206 280 1
108 281 1
133 281 1
159 281 1
207 281 1
109 282 1
134 282 1
160 282 1
208 282 1
110 283 1
135 283 1
161 283 1
209 283 1
111 284 1
136 284 1
162 284 1
210 284 1
112 285 1
137 285 1
163 285 1
211 285 1
113 286 1
138 286 1
164 286 1
212 286 1
114 287 1
139 287 1
165 287 1
213 287 1
115 288 1
140 288 1
166 288 1
214 288 1
116 289 1
141 289 1
167 289 1
215 289 1
117 290 1
142 290 1
168 290 1
216 290 1
118 291 1
143 291 1
169 291 1
217 291 1
119 292 1
144 292 1
170 292 1
218 292 1
120 293 1
145 293 1
171 293 1
219 293 1
121 294 1
146 294 1
172 294 1
220 294 1
122 295 1
147 295 1
173 295 1
221 295 1
123 296 1
148 296 1
174 296 1
222 296 1
75 297 1
134 297 1
223 297 1
249 297 1
76 298 1
135 298 1
224 298 1
250 298 1
77 299 1
136 299 1
225 299 1
251 299 1
78 300 1
137 300 1
226 300 1
252 300 1
79 301 1
138 301 1
227 301 1
253 301 1
80 302 1
139 302 1
228 302 1
254 302 1
81 303 1
140 303 1
229 303 1
255 303 1
82 304 1
141 304 1
230 304 1
256 304 1
83 305 1
142 305 1
231 305 1
257 305 1
84 306 1
143 306 1
232 306 1
258 306 1
85 307 1
144 307 1
233 307 1
259 307 1
86 308 1
145 308 1
234 308 1
260 308 1
87 309 1
146 309 1
235 309 1
261 309 1
88 310 1
147 310 1
236 310 1
262 310 1
89 311 1
148 311 1
237 311 1
263 311 1
75 312 1
90 312 1
238 312 1
264 312 1
76 313 1
91 313 1
239 313 1
265 313 1
77 314 1
92 314 1
240 314 1
266 314 1
78 315 1
93 315 1
241 315 1
267 315 1
79 316 1
94 316 1
242 316 1
268 316 1
80 317 1
95 317 1
243 317 1
269 317 1
81 318 1
96 318 1
244 318 1
270 318 1
82 319 1
97 319 1
245 319 1
271 319 1
83 320 1
98 320 1
246 320 1
272 320 1
84 321 1
99 321 1
247 321 1
273 321 1
85 322 1
100 322 1
248 322 1
274 322 1
86 323 1
101 323 1
249 323 1
275 323 1
87 324 1
102 324 1
250 324 1
276 324 1
88 325 1
103 325 1
251 325 1
277 325 1
89 326 1
104 326 1
252 326 1
278 326 1
90 327 1
105 327 1
253 327 1
279 327 1
91 328 1
106 328 1
254 328 1
280 328 1
92 329 1
107 329 1
255 329 1
281 329 1
93 330 1
108 330 1
256 330 1
282 330 1
94 331 1
109 331 1
257 331 1
283 331 1
95 332 1
110 332 1
258 332 1
284 332 1
96 333 1
111 333 1
259 333 1
285 333 1
97 334 1
112 334 1
260 334 1
286 334 1
98 335 1
113 335 1
261 335 1
287 335 1
99 336 1
114 336 1
262 336 1
288 336 1
100 337 1
115 337 1
263 337 1
289 337 1
101 338 1
116 338 1
264 338 1
290 338 1
102 339 1
117 339 1
265 339 1
291 339 1
103 340 1
118 340 1
266 340 1
292 340 1
104 341 1
119 341 1
267 341 1
293 341 1
105 342 1
120 342 1
268 342 1
294 342 1
106 343 1
121 343 1
269 343 1
295 343 1
107 344 1
122 344 1
270 344 1
296 344 1
108 345 1
123 345 1
223 345 1
271 345 1
109 346 1
124 346 1
224 346 1
272 346 1
110 347 1
125 347 1
225 347 1
273 347 1
111 348 1
126 348 1
226 348 1
274 348 1
112 349 1
127 349 1
227 349 1
275 349 1
113 350 1
128 350 1
228 350 1
276 350 1
114 351 1
129 351 1
229 351 1
277 351 1
115 352 1
130 352 1
230 352 1
278 352 1
116 353 1
131 353 1
231 353 1
279 353 1
117 354 1
132 354 1
232 354 1
280 354 1
118 355 1
133 355 1
233 355 1
281 355 1
119 356 1
134 356 1
234 356 1
282 356 1
120 357 1
135 357 1
235 357 1
283 357 1
121 358 1
136 358 1
236 358 1
284 358 1
122 359 1
137 359 1
237 359 1
285 359 1
123 360 1
138 360 1
238 360 1
286 360 1
124 361 1
139 361 1
239 361 1
287 361 1
125 362 1
140 362 1
240 362 1
288 362 1
126 363 1
141 363 1
241 363 1
289 363 1
127 364 1
142 364 1
242 364 1
290 364 1
128 365 1
143 365 1
243 365 1
291 365 1
129 366 1
144 366 1
244 366 1
292 366 1
130 367 1
145 367 1
245 367 1
293 367 1
131 368 1
146 368 1
246 368 1
294 368 1
132 369 1
147 369 1
247 369 1
295 369 1
133 370 1
148 370 1
248 370 1
296 370 1
149 371 1
208 371 1
223 371 1
272 371 1
150 372 1
209 372 1
224 372 1
273 372 1
151 373 1
210 373 1
225 373 1
274 373 1
152 374 1
211 374 1
226 374 1
275 374 1
153 375 1
212 375 1
227 375 1
276 375 1
154 376 1
213 376 1
228 376 1
277 376 1
155 377 1
214 377 1
229 377 1
278 377 1
156 378 1
215 378 1
230 378 1
279 378 1
157 379 1
216 379 1
231 379 1
280 379 1
158 380 1
217 380 1
232 380 1
281 380 1
159 381 1
218 381 1
233 381 1
282 381 1
160 382 1
219 382 1
234 382 1
283 382 1
161 383 1
220 383 1
235 383 1
284 383 1
162 384 1
221 384 1
236 384 1
285 384 1
163 385 1
222 385 1
237 385 1
286 385 1
149 386 1
164 386 1
238 386 1
287 386 1
150 387 1
165 387 1
239 387 1
288 387 1
151 388 1
166 388 1
240 388 1
289 388 1
152 389 1
167 389 1
241 389 1
290 389 1
153 390 1
168 390 1
242 390 1
291 390 1
154 391 1
169 391 1
243 391 1
292 391 1
155 392 1
170 392 1
244 392 1
293 392 1
156 393 1
171 393 1
245 393 1
294 393 1
157 394 1
172 394 1
246 394 1
295 394 1
158 395 1
173 395 1
247 395 1
296 395 1
159 396 1
174 396 1
223 396 1
248 396 1
160 397 1
175 397 1
224 397 1
249 397 1
161 398 1
176 398 1
225 398 1
250 398 1
162 399 1
177 399 1
226 399 1
251 399 1
163 400 1
178 400 1
227 400 1
252 400 1
164 401 1
179 401 1
228 401 1
253 401 1
165 402 1
180 402 1
229 402 1
254 402 1
166 403 1
181 403 1
230 403 1
255 403 1
167 404 1
182 404 1
231 404 1
256 404 1
168 405 1
183 405 1
232 405 1
257 405 1
169 406 1
184 406 1
233 406 1
258 406 1
170 407 1
185 407 1
234 407 1
259 407 1
171 408 1
186 408 1
235 408 1
260 408 1
172 409 1
187 409 1
236 409 1
261 409 1
173 410 1
188 410 1
237 410 1
262 410 1
174 411 1
189 411 1
238 411 1
263 411 1
175 412 1
190 412 1
239 412 1
264 412 1
176 413 1
191 413 1
240 413 1
265 413 1
177 414 1
192 414 1
241 414 1
266 414 1
178 415 1
193 415 1
242 415 1
267 415 1
179 416 1
194 416 1
243 416 1
268 416 1
180 417 1
195 417 1
244 417 1
269 417 1
181 418 1
196 418 1
245 418 1
270 418 1
182 419 1
197 419 1
246 419 1
271 419 1
183 420 1
198 420 1
247 420 1
272 420 1
184 421 1
199 421 1
248 421 1
273 421 1
185 422 1
200 422 1
249 422 1
274 422 1
186 423 1
201 423 1
250 423 1
275 423 1
187 424 1
202 424 1
251 424 1
276 424 1
188 425 1
203 425 1
252 425 1
277 425 1
189 426 1
204 426 1
253 426 1
278 426 1
190 427 1
205 427 1
254 427 1
279 427 1
191 428 1
206 428 1
255 428 1
280 428 1
192 429 1
207 429 1
256 429 1
281 429 1
193 430 1
208 430 1
257 430 1
282 430 1
194 431 1
209 431 1
258 431 1
283 431 1
195 432 1
210 432 1
259 432 1
284 432 1
196 433 1
211 433 1
260 433 1
285 433 1
197 434 1
212 434 1
261 434 1
286 434 1
198 435 1
213 435 1
262 435 1
287 435 1
199 436 1
214 436 1
263 436 1
288 436 1
200 437 1
215 437 1
264 437 1
289 437 1
201 438 1
216 438 1
265 438 1
290 438 1
202 439 1
217 439 1
266 439 1
291 439 1
203 440 1
218 440 1
267 440 1
292 440 1
204 441 1
219 441 1
268 441 1
293 441 1
205 442 1
220 442 1
269 442 1
294 442 1
206 443 1
221 443 1
270 443 1
295 443 1
207 444 1
222 444 1
271 444 1
296 444 1
