%%MatrixMarket matrix coordinate integer general
% Binary matrix; one-based indices; arithmetic over GF(2)
288 432 1728
1 1 1
23 1 1
73 1 1
85 1 1
2 2 1
24 2 1
74 2 1
86 2 1
3 3 1
25 3 1
75 3 1
87 3 1
4 4 1
26 4 1
76 4 1
88 4 1
5 5 1
27 5 1
77 5 1
89 5 1
6 6 1
28 6 1
78 6 1
90 6 1
7 7 1
29 7 1
79 7 1
91 7 1
8 8 1
30 8 1
80 8 1
92 8 1
9 9 1
31 9 1
81 9 1
93 9 1
10 10 1
32 10 1
82 10 1
94 10 1
11 11 1
33 11 1
83 11 1
95 11 1
12 12 1
34 12 1
84 12 1
96 12 1
13 13 1
35 13 1
85 13 1
97 13 1
14 14 1
36 14 1
86 14 1
98 14 1
15 15 1
37 15 1
87 15 1
99 15 1
16 16 1
38 16 1
88 16 1
100 16 1
17 17 1
39 17 1
89 17 1
101 17 1
18 18 1
40 18 1
90 18 1
102 18 1
19 19 1
41 19 1
91 19 1
103 19 1
20 20 1
42 20 1
92 20 1
104 20 1
21 21 1
43 21 1
93 21 1
105 21 1
22 22 1
44 22 1
94 22 1
106 22 1
23 23 1
45 23 1
95 23 1
107 23 1
24 24 1
46 24 1
96 24 1
108 24 1
25 25 1
47 25 1
97 25 1
109 25 1
26 26 1
48 26 1
98 26 1
110 26 1
27 27 1
49 27 1
99 27 1
111 27 1
28 28 1
50 28 1
100 28 1
112 28 1
29 29 1
51 29 1
101 29 1
113 29 1
30 30 1
52 30 1
102 30 1
114 30 1
31 31 1
53 31 1
103 31 1
115 31 1
32 32 1
54 32 1
104 32 1
116 32 1
33 33 1
55 33 1
105 33 1
117 33 1
34 34 1
56 34 1
106 34 1
118 34 1
35 35 1
57 35 1
107 35 1
119 35 1
36 36 1
58 36 1
108 36 1
120 36 1
37 37 1
59 37 1
109 37 1
121 37 1
38 38 1
60 38 1
110 38 1
122 38 1
39 39 1
61 39 1
111 39 1
123 39 1
40 40 1
62 40 1
112 40 1
124 40 1
41 41 1
63 41 1
113 41 1
125 41 1
42 42 1
64 42 1
114 42 1
126 42 1
43 43 1
65 43 1
115 43 1
127 43 1
44 44 1
66 44 1
116 44 1
128 44 1
45 45 1
67 45 1
117 45 1
129 45 1
46 46 1
68 46 1
118 46 1
130 46 1
47 47 1
69 47 1
119 47 1
131 47 1
48 48 1
70 48 1
120 48 1
132 48 1
49 49 1
71 49 1
121 49 1
133 49 1
50 50 1
72 50 1
122 50 1
134 50 1
1 51 1
51 51 1
123 51 1
135 51 1
2 52 1
52 52 1
124 52 1
136 52 1
3 53 1
53 53 1
125 53 1
137 53 1
4 54 1
54 54 1
126 54 1
138 54 1
5 55 1
55 55 1
127 55 1
139 55 1
6 56 1
56 56 1
128 56 1
140 56 1
7 57 1
57 57 1
129 57 1
141 57 1
8 58 1
58 58 1
130 58 1
142 58 1
9 59 1
59 59 1
131 59 1
143 59 1
10 60 1
60 60 1
132 60 1
144 60 1
11 61 1
61 61 1
73 61 1
133 61 1
12 62 1
62 62 1
74 62 1
134 62 1
13 63 1
63 63 1
75 63 1
135 63 1
14 64 1
64 64 1
76 64 1
136 64 1
15 65 1
65 65 1
77 65 1
137 65 1
16 66 1
66 66 1
78 66 1
138 66 1
17 67 1
67 67 1
79 67 1
139 67 1
18 68 1
68 68 1
80 68 1
140 68 1
19 69 1
69 69 1
81 69 1
141 69 1
20 70 1
70 70 1
82 70 1
142 70 1
21 71 1
71 71 1
83 71 1
143 71 1
22 72 1
72 72 1
84 72 1
144 72 1
1 73 1
60 73 1
145 73 1
157 73 1
2 74 1
61 74 1
146 74 1
158 74 1
3 75 1
62 75 1
147 75 1
159 75 1
4 76 1
63 76 1
148 76 1
160 76 1
5 77 1
64 77 1
149 77 1
161 77 1
6 78 1
65 78 1
150 78 1
162 78 1
7 79 1
66 79 1
151 79 1
163 79 1
8 80 1
67 80 1
152 80 1
164 80 1
9 81 1
68 81 1
153 81 1
165 81 1
10 82 1
69 82 1
154 82 1
166 82 1
11 83 1
70 83 1
155 83 1
167 83 1
12 84 1
71 84 1
156 84 1
168 84 1
13 85 1
72 85 1
157 85 1
169 85 1
1 86 1
14 86 1
158 86 1
170 86 1
2 87 1
15 87 1
159 87 1
171 87 1
3 88 1
16 88 1
160 88 1
172 88 1
4 89 1
17 89 1
161 89 1
173 89 1
5 90 1
18 90 1
162 90 1
174 90 1
6 91 1
19 91 1
163 91 1
175 91 1
7 92 1
20 92 1
164 92 1
176 92 1
8 93 1
21 93 1
165 93 1
177 93 1
9 94 1
22 94 1
166 94 1
178 94 1
10 95 1
23 95 1
167 95 1
179 95 1
11 96 1
24 96 1
168 96 1
180 96 1
12 97 1
25 97 1
169 97 1
181 97 1
13 98 1
26 98 1
170 98 1
182 98 1
14 99 1
27 99 1
171 99 1
183 99 1
15 100 1
28 100 1
172 100 1
184 100 1
16 101 1
29 101 1
173 101 1
185 101 1
17 102 1
30 102 1
174 102 1
186 102 1
18 103 1
31 103 1
175 103 1
187 103 1
19 104 1
32 104 1
176 104 1
188 104 1
20 105 1
33 105 1
177 105 1
189 105 1
21 106 1
34 106 1
178 106 1
190 106 1
22 107 1
35 107 1
179 107 1
191 107 1
23 108 1
36 108 1
180 108 1
192 108 1
24 109 1
37 109 1
181 109 1
193 109 1
25 110 1
38 110 1
182 110 1
194 110 1
26 111 1
39 111 1
183 111 1
195 111 1
27 112 1
40 112 1
184 112 1
196 112 1
28 113 1
41 113 1
185 113 1
197 113 1
29 114 1
42 114 1
186 114 1
198 114 1
30 115 1
43 115 1
187 115 1
199 115 1
31 116 1
44 116 1
188 116 1
200 116 1
32 117 1
45 117 1
189 117 1
201 117 1
33 118 1
46 118 1
190 118 1
202 118 1
34 119 1
47 119 1
191 119 1
203 119 1
35 120 1
48 120 1
192 120 1
204 120 1
36 121 1
49 121 1
193 121 1
205 121 1
37 122 1
50 122 1
194 122 1
206 122 1
38 123 1
51 123 1
195 123 1
207 123 1
39 124 1
52 124 1
196 124 1
208 124 1
40 125 1
53 125 1
197 125 1
209 125 1
41 126 1
54 126 1
198 126 1
210 126 1
42 127 1
55 127 1
199 127 1
211 127 1
43 128 1
56 128 1
200 128 1
212 128 1
44 129 1
57 129 1
201 129 1
213 129 1
45 130 1
58 130 1
202 130 1
214 130 1
46 131 1
59 131 1
203 131 1
215 131 1
47 132 1
60 132 1
204 132 1
216 132 1
48 133 1
61 133 1
145 133 1
205 133 1
49 134 1
62 134 1
146 134 1
206 134 1
50 135 1
63 135 1
147 135 1
207 135 1
51 136 1
64 136 1
148 136 1
208 136 1
52 137 1
65 137 1
149 137 1
209 137 1
53 138 1
66 138 1
150 138 1
210 138 1
54 139 1
67 139 1
151 139 1
211 139 1
55 140 1
68 140 1
152 140 1
212 140 1
56 141 1
69 141 1
153 141 1
213 141 1
57 142 1
70 142 1
154 142 1
214 142 1
58 143 1
71 143 1
155 143 1
215 143 1
59 144 1
72 144 1
156 144 1
216 144 1
73 145 1
132 145 1
145 145 1
167 145 1
74 146 1
133 146 1
146 146 1
168 146 1
75 147 1
134 147 1
147 147 1
169 147 1
76 148 1
135 148 1
148 148 1
170 148 1
77 149 1
136 149 1
149 149 1
171 149 1
78 150 1
137 150 1
150 150 1
172 150 1
79 151 1
138 151 1
151 151 1
173 151 1
80 152 1
139 152 1
152 152 1
174 152 1
81 153 1
140 153 1
153 153 1
175 153 1
82 154 1
141 154 1
154 154 1
176 154 1
83 155 1
142 155 1
155 155 1
177 155 1
84 156 1
143 156 1
156 156 1
178 156 1
85 157 1
144 157 1
157 157 1
179 157 1
73 158 1
86 158 1
158 158 1
180 158 1
74 159 1
87 159 1
159 159 1
181 159 1
75 160 1
88 160 1
160 160 1
182 160 1
76 161 1
89 161 1
161 161 1
183 161 1
77 162 1
90 162 1
162 162 1
184 162 1
78 163 1
91 163 1
163 163 1
185 163 1
79 164 1
92 164 1
164 164 1
186 164 1
80 165 1
93 165 1
165 165 1
187 165 1
81 166 1
94 166 1
166 166 1
188 166 1
82 167 1
95 167 1
167 167 1
189 167 1
83 168 1
96 168 1
168 168 1
190 168 1
84 169 1
97 169 1
169 169 1
191 169 1
85 170 1
98 170 1
170 170 1
192 170 1
86 171 1
99 171 1
171 171 1
193 171 1
87 172 1
100 172 1
172 172 1
194 172 1
88 173 1
101 173 1
173 173 1
195 173 1
89 174 1
102 174 1
174 174 1
196 174 1
90 175 1
103 175 1
175 175 1
197 175 1
91 176 1
104 176 1
176 176 1
198 176 1
92 177 1
105 177 1
177 177 1
199 177 1
93 178 1
106 178 1
178 178 1
200 178 1
94 179 1
107 179 1
179 179 1
201 179 1
95 180 1
108 180 1
180 180 1
202 180 1
96 181 1
109 181 1
181 181 1
203 181 1
97 182 1
110 182 1
182 182 1
204 182 1
98 183 1
111 183 1
183 183 1
205 183 1
99 184 1
112 184 1
184 184 1
206 184 1
100 185 1
113 185 1
185 185 1
207 185 1
101 186 1
114 186 1
186 186 1
208 186 1
102 187 1
115 187 1
187 187 1
209 187 1
103 188 1
116 188 1
188 188 1
210 188 1
104 189 1
117 189 1
189 189 1
211 189 1
105 190 1
118 190 1
190 190 1
212 190 1
106 191 1
119 191 1
191 191 1
213 191 1
107 192 1
120 192 1
192 192 1
214 192 1
108 193 1
121 193 1
193 193 1
215 193 1
109 194 1
122 194 1
194 194 1
216 194 1
110 195 1
123 195 1
145 195 1
195 195 1
111 196 1
124 196 1
146 196 1
196 196 1
112 197 1
125 197 1
147 197 1
197 197 1
113 198 1
126 198 1
148 198 1
198 198 1
114 199 1
127 199 1
149 199 1
199 199 1
115 200 1
128 200 1
150 200 1
200 200 1
116 201 1
129 201 1
151 201 1
201 201 1
117 202 1
130 202 1
152 202 1
202 202 1
118 203 1
131 203 1
153 203 1
203 203 1
119 204 1
132 204 1
154 204 1
204 204 1
120 205 1
133 205 1
155 205 1
205 205 1
121 206 1
134 206 1
156 206 1
206 206 1
122 207 1
135 207 1
157 207 1
207 207 1
123 208 1
136 208 1
158 208 1
208 208 1
124 209 1
137 209 1
159 209 1
209 209 1
125 210 1
138 210 1
160 210 1
210 210 1
126 211 1
139 211 1
161 211 1
211 211 1
127 212 1
140 212 1
162 212 1
212 212 1
128 213 1
141 213 1
163 213 1
213 213 1
129 214 1
142 214 1
164 214 1
214 214 1
130 215 1
143 215 1
165 215 1
215 215 1
131 216 1
144 216 1
166 216 1
216 216 1
1 217 1
68 217 1
217 217 1
229 217 1
2 218 1
69 218 1
218 218 1
230 218 1
3 219 1
70 219 1
219 219 1
231 219 1
4 220 1
71 220 1
220 220 1
232 220 1
5 221 1
72 221 1
221 221 1
233 221 1
1 222 1
6 222 1
222 222 1
234 222 1
2 223 1
7 223 1
223 223 1
235 223 1
3 224 1
8 224 1
224 224 1
236 224 1
4 225 1
9 225 1
225 225 1
237 225 1
5 226 1
10 226 1
226 226 1
238 226 1
6 227 1
11 227 1
227 227 1
239 227 1
7 228 1
12 228 1
228 228 1
240 228 1
8 229 1
13 229 1
229 229 1
241 229 1
9 230 1
14 230 1
230 230 1
242 230 1
10 231 1
15 231 1
231 231 1
243 231 1
11 232 1
16 232 1
232 232 1
244 232 1
12 233 1
17 233 1
233 233 1
245 233 1
13 234 1
18 234 1
234 234 1
246 234 1
14 235 1
19 235 1
235 235 1
247 235 1
15 236 1
20 236 1
236 236 1
248 236 1
16 237 1
21 237 1
237 237 1
249 237 1
17 238 1
22 238 1
238 238 1
250 238 1
18 239 1
23 239 1
239 239 1
251 239 1
19 240 1
24 240 1
240 240 1
252 240 1
20 241 1
25 241 1
241 241 1
253 241 1
21 242 1
26 242 1
242 242 1
254 242 1
22 243 1
27 243 1
243 243 1
255 243 1
23 244 1
28 244 1
244 244 1
256 244 1
24 245 1
29 245 1
245 245 1
257 245 1
25 246 1
30 246 1
246 246 1
258 246 1
26 247 1
31 247 1
247 247 1
259 247 1
27 248 1
32 248 1
248 248 1
260 248 1
28 249 1
33 249 1
249 249 1
261 249 1
29 250 1
34 250 1
250 250 1
262 250 1
30 251 1
35 251 1
251 251 1
263 251 1
31 252 1
36 252 1
252 252 1
264 252 1
32 253 1
37 253 1
253 253 1
265 253 1
33 254 1
38 254 1
254 254 1
266 254 1
34 255 1
39 255 1
255 255 1
267 255 1
35 256 1
40 256 1
256 256 1
268 256 1
36 257 1
41 257 1
257 257 1
269 257 1
37 258 1
42 258 1
258 258 1
270 258 1
38 259 1
43 259 1
259 259 1
271 259 1
39 260 1
44 260 1
260 260 1
272 260 1
40 261 1
45 261 1
261 261 1
273 261 1
41 262 1
46 262 1
262 262 1
274 262 1
42 263 1
47 263 1
263 263 1
275 263 1
43 264 1
48 264 1
264 264 1
276 264 1
44 265 1
49 265 1
265 265 1
277 265 1
45 266 1
50 266 1
266 266 1
278 266 1
46 267 1
51 267 1
267 267 1
279 267 1
47 268 1
52 268 1
268 268 1
280 268 1
48 269 1
53 269 1
269 269 1
281 269 1
49 270 1
54 270 1
270 270 1
282 270 1
50 271 1
55 271 1
271 271 1
283 271 1
51 272 1
56 272 1
272 272 1
284 272 1
52 273 1
57 273 1
273 273 1
285 273 1
53 274 1
58 274 1
274 274 1
286 274 1
54 275 1
59 275 1
275 275 1
287 275 1
55 276 1
60 276 1
276 276 1
288 276 1
56 277 1
61 277 1
217 277 1
277 277 1
57 278 1
62 278 1
218 278 1
278 278 1
58 279 1
63 279 1
219 279 1
279 279 1
59 280 1
64 280 1
220 280 1
280 280 1
60 281 1
65 281 1
221 281 1
281 281 1
61 282 1
66 282 1
222 282 1
282 282 1
62 283 1
67 283 1
223 283 1
283 283 1
63 284 1
68 284 1
224 284 1
284 284 1
64 285 1
69 285 1
225 285 1
285 285 1
65 286 1
70 286 1
226 286 1
286 286 1
66 287 1
71 287 1
227 287 1
287 287 1
67 288 1
72 288 1
228 288 1
288 288 1
73 289 1
140 289 1
217 289 1
239 289 1
74 290 1
141 290 1
218 290 1
240 290 1
75 291 1
142 291 1
219 291 1
241 291 1
76 292 1
143 292 1
220 292 1
242 292 1
77 293 1
144 293 1
221 293 1
243 293 1
73 294 1
78 294 1
222 294 1
244 294 1
74 295 1
79 295 1
223 295 1
245 295 1
75 296 1
80 296 1
224 296 1
246 296 1
76 297 1
81 297 1
225 297 1
247 297 1
77 298 1
82 298 1
226 298 1
248 298 1
78 299 1
83 299 1
227 299 1
249 299 1
79 300 1
84 300 1
228 300 1
250 300 1
80 301 1
85 301 1
229 301 1
251 301 1
81 302 1
86 302 1
230 302 1
252 302 1
82 303 1
87 303 1
231 303 1
253 303 1
83 304 1
88 304 1
232 304 1
254 304 1
84 305 1
89 305 1
233 305 1
255 305 1
85 306 1
90 306 1
234 306 1
256 306 1
86 307 1
91 307 1
235 307 1
257 307 1
87 308 1
92 308 1
236 308 1
258 308 1
88 309 1
93 309 1
237 309 1
259 309 1
89 310 1
94 310 1
238 310 1
260 310 1
90 311 1
95 311 1
239 311 1
261 311 1
91 312 1
96 312 1
240 312 1
262 312 1
92 313 1
97 313 1
241 313 1
263 313 1
93 314 1
98 314 1
242 314 1
264 314 1
94 315 1
99 315 1
243 315 1
265 315 1
95 316 1
100 316 1
244 316 1
266 316 1
96 317 1
101 317 1
245 317 1
267 317 1
97 318 1
102 318 1
246 318 1
268 318 1
98 319 1
103 319 1
247 319 1
269 319 1
99 320 1
104 320 1
248 320 1
270 320 1
100 321 1
105 321 1
249 321 1
271 321 1
101 322 1
106 322 1
250 322 1
272 322 1
102 323 1
107 323 1
251 323 1
273 323 1
103 324 1
108 324 1
252 324 1
274 324 1
104 325 1
109 325 1
253 325 1
275 325 1
105 326 1
110 326 1
254 326 1
276 326 1
106 327 1
111 327 1
255 327 1
277 327 1
107 328 1
112 328 1
256 328 1
278 328 1
108 329 1
113 329 1
257 329 1
279 329 1
109 330 1
114 330 1
258 330 1
280 330 1
110 331 1
115 331 1
259 331 1
281 331 1
111 332 1
116 332 1
260 332 1
282 332 1
112 333 1
117 333 1
261 333 1
283 333 1
113 334 1
118 334 1
262 334 1
284 334 1
114 335 1
119 335 1
263 335 1
285 335 1
115 336 1
120 336 1
264 336 1
286 336 1
116 337 1
121 337 1
265 337 1
287 337 1
117 338 1
122 338 1
266 338 1
288 338 1
118 339 1
123 339 1
217 339 1
267 339 1
119 340 1
124 340 1
218 340 1
268 340 1
120 341 1
125 341 1
219 341 1
269 341 1
121 342 1
126 342 1
220 342 1
270 342 1
122 343 1
127 343 1
221 343 1
271 343 1
123 344 1
128 344 1
222 344 1
272 344 1
124 345 1
129 345 1
223 345 1
273 345 1
125 346 1
130 346 1
224 346 1
274 346 1
126 347 1
131 347 1
225 347 1
275 347 1
127 348 1
132 348 1
226 348 1
276 348 1
128 349 1
133 349 1
227 349 1
277 349 1
129 350 1
134 350 1
228 350 1
278 350 1
130 351 1
135 351 1
229 351 1
279 351 1
131 352 1
136 352 1
230 352 1
280 352 1
132 353 1
137 353 1
231 353 1
281 353 1
133 354 1
138 354 1
232 354 1
282 354 1
134 355 1
139 355 1
233 355 1
283 355 1
135 356 1
140 356 1
234 356 1
284 356 1
136 357 1
141 357 1
235 357 1
285 357 1
137 358 1
142 358 1
236 358 1
286 358 1
138 359 1
143 359 1
237 359 1
287 359 1
139 360 1
144 360 1
238 360 1
288 360 1
145 361 1
212 361 1
217 361 1
276 361 1
146 362 1
213 362 1
218 362 1
277 362 1
147 363 1
214 363 1
219 363 1
278 363 1
148 364 1
215 364 1
220 364 1
279 364 1
149 365 1
216 365 1
221 365 1
280 365 1
145 366 1
150 366 1
222 366 1
281 366 1
146 367 1
151 367 1
223 367 1
282 367 1
147 368 1
152 368 1
224 368 1
283 368 1
148 369 1
153 369 1
225 369 1
284 369 1
149 370 1
154 370 1
226 370 1
285 370 1
150 371 1
155 371 1
227 371 1
286 371 1
151 372 1
156 372 1
228 372 1
287 372 1
152 373 1
157 373 1
229 373 1
288 373 1
153 374 1
158 374 1
217 374 1
230 374 1
154 375 1
159 375 1
218 375 1
231 375 1
155 376 1
160 376 1
219 376 1
232 376 1
156 377 1
161 377 1
220 377 1
233 377 1
157 378 1
162 378 1
221 378 1
234 378 1
158 379 1
163 379 1
222 379 1
235 379 1
159 380 1
164 380 1
223 380 1
236 380 1
160 381 1
165 381 1
224 381 1
237 381 1
161 382 1
166 382 1
225 382 1
238 382 1
162 383 1
167 383 1
226 383 1
239 383 1
163 384 1
168 384 1
227 384 1
240 384 1
164 385 1
169 385 1
228 385 1
241 385 1
165 386 1
170 386 1
229 386 1
242 386 1
166 387 1
171 387 1
230 387 1
243 387 1
167 388 1
172 388 1
231 388 1
244 388 1
168 389 1
173 389 1
232 389 1
245 389 1
169 390 1
174 390 1
233 390 1
246 390 1
170 391 1
175 391 1
234 391 1
247 391 1
171 392 1
176 392 1
235 392 1
248 392 1
172 393 1
177 393 1
236 393 1
249 393 1
173 394 1
178 394 1
237 394 1
250 394 1
174 395 1
179 395 1
238 395 1
251 395 1
175 396 1
180 396 1
239 396 1
252 396 1
176 397 1
181 397 1
240 397 1
253 397 1
177 398 1
182 398 1
241 398 1
254 398 1
178 399 1
183 399 1
242 399 1
255 399 1
179 400 1
184 400 1
243 400 1
256 400 1
180 401 1
185 401 1
244 401 1
257 401 1
181 402 1
186 402 1
245 402 1
258 402 1
182 403 1
187 403 1
246 403 1
259 403 1
183 404 1
188 404 1
247 404 1
260 404 1
184 405 1
189 405 1
248 405 1
261 405 1
185 406 1
190 406 1
249 406 1
262 406 1
186 407 1
191 407 1
250 407 1
263 407 1
187 408 1
192 408 1
251 408 1
264 408 1
188 409 1
193 409 1
252 409 1
265 409 1
189 410 1
194 410 1
253 410 1
266 410 1
190 411 1
195 411 1
254 411 1
267 411 1
191 412 1
196 412 1
255 412 1
268 412 1
192 413 1
197 413 1
256 413 1
269 413 1
193 414 1
198 414 1
257 414 1
270 414 1
194 415 1
199 415 1
258 415 1
271 415 1
195 416 1
200 416 1
259 416 1
272 416 1
196 417 1
201 417 1
260 417 1
273 417 1
197 418 1
202 418 1
261 418 1
274 418 1
198 419 1
203 419 1
262 419 1
275 419 1
199 420 1
204 420 1
263 420 1
276 420 1
200 421 1
205 421 1
264 421 1
277 421 1
201 422 1
206 422 1
265 422 1
278 422 1
202 423 1
207 423 1
266 423 1
279 423 1
203 424 1
208 424 1
267 424 1
280 424 1
204 425 1
209 425 1
268 425 1
281 425 1
205 426 1
210 426 1
269 426 1
282 426 1
206 427 1
211 427 1
270 427 1
283 427 1
207 428 1
212 428 1
271 428 1
284 428 1
208 429 1
213 429 1
272 429 1
285 429 1
209 430 1
214 430 1
273 430 1
286 430 1
210 431 1
215 431 1
274 431 1
287 431 1
211 432 1
216 432 1
275 432 1
288 432 1
