%%MatrixMarket matrix coordinate integer general
% Binary matrix; one-based indices; arithmetic over GF(2)
730 730 4380
1 1 1
57 1 1
74 1 1
126 1 1
293 1 1
336 1 1
2 2 1
58 2 1
75 2 1
127 2 1
294 2 1
337 2 1
3 3 1
59 3 1
76 3 1
128 3 1
295 3 1
338 3 1
4 4 1
60 4 1
77 4 1
129 4 1
296 4 1
339 4 1
5 5 1
61 5 1
78 5 1
130 5 1
297 5 1
340 5 1
6 6 1
62 6 1
79 6 1
131 6 1
298 6 1
341 6 1
7 7 1
63 7 1
80 7 1
132 7 1
299 7 1
342 7 1
8 8 1
64 8 1
81 8 1
133 8 1
300 8 1
343 8 1
9 9 1
65 9 1
82 9 1
134 9 1
301 9 1
344 9 1
10 10 1
66 10 1
83 10 1
135 10 1
302 10 1
345 10 1
11 11 1
67 11 1
84 11 1
136 11 1
303 11 1
346 11 1
12 12 1
68 12 1
85 12 1
137 12 1
304 12 1
347 12 1
13 13 1
69 13 1
86 13 1
138 13 1
305 13 1
348 13 1
14 14 1
70 14 1
87 14 1
139 14 1
306 14 1
349 14 1
15 15 1
71 15 1
88 15 1
140 15 1
307 15 1
350 15 1
16 16 1
72 16 1
89 16 1
141 16 1
308 16 1
351 16 1
17 17 1
73 17 1
90 17 1
142 17 1
309 17 1
352 17 1
1 18 1
18 18 1
91 18 1
143 18 1
310 18 1
353 18 1
2 19 1
19 19 1
92 19 1
144 19 1
311 19 1
354 19 1
3 20 1
20 20 1
93 20 1
145 20 1
312 20 1
355 20 1
4 21 1
21 21 1
94 21 1
146 21 1
313 21 1
356 21 1
5 22 1
22 22 1
74 22 1
95 22 1
314 22 1
357 22 1
6 23 1
23 23 1
75 23 1
96 23 1
315 23 1
358 23 1
7 24 1
24 24 1
76 24 1
97 24 1
316 24 1
359 24 1
8 25 1
25 25 1
77 25 1
98 25 1
317 25 1
360 25 1
9 26 1
26 26 1
78 26 1
99 26 1
318 26 1
361 26 1
10 27 1
27 27 1
79 27 1
100 27 1
319 27 1
362 27 1
11 28 1
28 28 1
80 28 1
101 28 1
320 28 1
363 28 1
12 29 1
29 29 1
81 29 1
102 29 1
321 29 1
364 29 1
13 30 1
30 30 1
82 30 1
103 30 1
322 30 1
365 30 1
14 31 1
31 31 1
83 31 1
104 31 1
293 31 1
323 31 1
15 32 1
32 32 1
84 32 1
105 32 1
294 32 1
324 32 1
16 33 1
33 33 1
85 33 1
106 33 1
295 33 1
325 33 1
17 34 1
34 34 1
86 34 1
107 34 1
296 34 1
326 34 1
18 35 1
35 35 1
87 35 1
108 35 1
297 35 1
327 35 1
19 36 1
36 36 1
88 36 1
109 36 1
298 36 1
328 36 1
20 37 1
37 37 1
89 37 1
110 37 1
299 37 1
329 37 1
21 38 1
38 38 1
90 38 1
111 38 1
300 38 1
330 38 1
22 39 1
39 39 1
91 39 1
112 39 1
301 39 1
331 39 1
23 40 1
40 40 1
92 40 1
113 40 1
302 40 1
332 40 1
24 41 1
41 41 1
93 41 1
114 41 1
303 41 1
333 41 1
25 42 1
42 42 1
94 42 1
115 42 1
304 42 1
334 42 1
26 43 1
43 43 1
95 43 1
116 43 1
305 43 1
335 43 1
27 44 1
44 44 1
96 44 1
117 44 1
306 44 1
336 44 1
28 45 1
45 45 1
97 45 1
118 45 1
307 45 1
337 45 1
29 46 1
46 46 1
98 46 1
119 46 1
308 46 1
338 46 1
30 47 1
47 47 1
99 47 1
120 47 1
309 47 1
339 47 1
31 48 1
48 48 1
100 48 1
121 48 1
310 48 1
340 48 1
32 49 1
49 49 1
101 49 1
122 49 1
311 49 1
341 49 1
33 50 1
50 50 1
102 50 1
123 50 1
312 50 1
342 50 1
34 51 1
51 51 1
103 51 1
124 51 1
313 51 1
343 51 1
35 52 1
52 52 1
104 52 1
125 52 1
314 52 1
344 52 1
36 53 1
53 53 1
105 53 1
126 53 1
315 53 1
345 53 1
37 54 1
54 54 1
106 54 1
127 54 1
316 54 1
346 54 1
38 55 1
55 55 1
107 55 1
128 55 1
317 55 1
347 55 1
39 56 1
56 56 1
108 56 1
129 56 1
318 56 1
348 56 1
40 57 1
57 57 1
109 57 1
130 57 1
319 57 1
349 57 1
41 58 1
58 58 1
110 58 1
131 58 1
320 58 1
350 58 1
42 59 1
59 59 1
111 59 1
132 59 1
321 59 1
351 59 1
43 60 1
60 60 1
112 60 1
133 60 1
322 60 1
352 60 1
44 61 1
61 61 1
113 61 1
134 61 1
323 61 1
353 61 1
45 62 1
62 62 1
114 62 1
135 62 1
324 62 1
354 62 1
46 63 1
63 63 1
115 63 1
136 63 1
325 63 1
355 63 1
47 64 1
64 64 1
116 64 1
137 64 1
326 64 1
356 64 1
48 65 1
65 65 1
117 65 1
138 65 1
327 65 1
357 65 1
49 66 1
66 66 1
118 66 1
139 66 1
328 66 1
358 66 1
50 67 1
67 67 1
119 67 1
140 67 1
329 67 1
359 67 1
51 68 1
68 68 1
120 68 1
141 68 1
330 68 1
360 68 1
52 69 1
69 69 1
121 69 1
142 69 1
331 69 1
361 69 1
53 70 1
70 70 1
122 70 1
143 70 1
332 70 1
362 70 1
54 71 1
71 71 1
123 71 1
144 71 1
333 71 1
363 71 1
55 72 1
72 72 1
124 72 1
145 72 1
334 72 1
364 72 1
56 73 1
73 73 1
125 73 1
146 73 1
335 73 1
365 73 1
1 74 1
60 74 1
147 74 1
199 74 1
366 74 1
409 74 1
2 75 1
61 75 1
148 75 1
200 75 1
367 75 1
410 75 1
3 76 1
62 76 1
149 76 1
201 76 1
368 76 1
411 76 1
4 77 1
63 77 1
150 77 1
202 77 1
369 77 1
412 77 1
5 78 1
64 78 1
151 78 1
203 78 1
370 78 1
413 78 1
6 79 1
65 79 1
152 79 1
204 79 1
371 79 1
414 79 1
7 80 1
66 80 1
153 80 1
205 80 1
372 80 1
415 80 1
8 81 1
67 81 1
154 81 1
206 81 1
373 81 1
416 81 1
9 82 1
68 82 1
155 82 1
207 82 1
374 82 1
417 82 1
10 83 1
69 83 1
156 83 1
208 83 1
375 83 1
418 83 1
11 84 1
70 84 1
157 84 1
209 84 1
376 84 1
419 84 1
12 85 1
71 85 1
158 85 1
210 85 1
377 85 1
420 85 1
13 86 1
72 86 1
159 86 1
211 86 1
378 86 1
421 86 1
14 87 1
73 87 1
160 87 1
212 87 1
379 87 1
422 87 1
1 88 1
15 88 1
161 88 1
213 88 1
380 88 1
423 88 1
2 89 1
16 89 1
162 89 1
214 89 1
381 89 1
424 89 1
3 90 1
17 90 1
163 90 1
215 90 1
382 90 1
425 90 1
4 91 1
18 91 1
164 91 1
216 91 1
383 91 1
426 91 1
5 92 1
19 92 1
165 92 1
217 92 1
384 92 1
427 92 1
6 93 1
20 93 1
166 93 1
218 93 1
385 93 1
428 93 1
7 94 1
21 94 1
167 94 1
219 94 1
386 94 1
429 94 1
8 95 1
22 95 1
147 95 1
168 95 1
387 95 1
430 95 1
9 96 1
23 96 1
148 96 1
169 96 1
388 96 1
431 96 1
10 97 1
24 97 1
149 97 1
170 97 1
389 97 1
432 97 1
11 98 1
25 98 1
150 98 1
171 98 1
390 98 1
433 98 1
12 99 1
26 99 1
151 99 1
172 99 1
391 99 1
434 99 1
13 100 1
27 100 1
152 100 1
173 100 1
392 100 1
435 100 1
14 101 1
28 101 1
153 101 1
174 101 1
393 101 1
436 101 1
15 102 1
29 102 1
154 102 1
175 102 1
394 102 1
437 102 1
16 103 1
30 103 1
155 103 1
176 103 1
395 103 1
438 103 1
17 104 1
31 104 1
156 104 1
177 104 1
366 104 1
396 104 1
18 105 1
32 105 1
157 105 1
178 105 1
367 105 1
397 105 1
19 106 1
33 106 1
158 106 1
179 106 1
368 106 1
398 106 1
20 107 1
34 107 1
159 107 1
180 107 1
369 107 1
399 107 1
21 108 1
35 108 1
160 108 1
181 108 1
370 108 1
400 108 1
22 109 1
36 109 1
161 109 1
182 109 1
371 109 1
401 109 1
23 110 1
37 110 1
162 110 1
183 110 1
372 110 1
402 110 1
24 111 1
38 111 1
163 111 1
184 111 1
373 111 1
403 111 1
25 112 1
39 112 1
164 112 1
185 112 1
374 112 1
404 112 1
26 113 1
40 113 1
165 113 1
186 113 1
375 113 1
405 113 1
27 114 1
41 114 1
166 114 1
187 114 1
376 114 1
406 114 1
28 115 1
42 115 1
167 115 1
188 115 1
377 115 1
407 115 1
29 116 1
43 116 1
168 116 1
189 116 1
378 116 1
408 116 1
30 117 1
44 117 1
169 117 1
190 117 1
379 117 1
409 117 1
31 118 1
45 118 1
170 118 1
191 118 1
380 118 1
410 118 1
32 119 1
46 119 1
171 119 1
192 119 1
381 119 1
411 119 1
33 120 1
47 120 1
172 120 1
193 120 1
382 120 1
412 120 1
34 121 1
48 121 1
173 121 1
194 121 1
383 121 1
413 121 1
35 122 1
49 122 1
174 122 1
195 122 1
384 122 1
414 122 1
36 123 1
50 123 1
175 123 1
196 123 1
385 123 1
415 123 1
37 124 1
51 124 1
176 124 1
197 124 1
386 124 1
416 124 1
38 125 1
52 125 1
177 125 1
198 125 1
387 125 1
417 125 1
39 126 1
53 126 1
178 126 1
199 126 1
388 126 1
418 126 1
40 127 1
54 127 1
179 127 1
200 127 1
389 127 1
419 127 1
41 128 1
55 128 1
180 128 1
201 128 1
390 128 1
420 128 1
42 129 1
56 129 1
181 129 1
202 129 1
391 129 1
421 129 1
43 130 1
57 130 1
182 130 1
203 130 1
392 130 1
422 130 1
44 131 1
58 131 1
183 131 1
204 131 1
393 131 1
423 131 1
45 132 1
59 132 1
184 132 1
205 132 1
394 132 1
424 132 1
46 133 1
60 133 1
185 133 1
206 133 1
395 133 1
425 133 1
47 134 1
61 134 1
186 134 1
207 134 1
396 134 1
426 134 1
48 135 1
62 135 1
187 135 1
208 135 1
397 135 1
427 135 1
49 136 1
63 136 1
188 136 1
209 136 1
398 136 1
428 136 1
50 137 1
64 137 1
189 137 1
210 137 1
399 137 1
429 137 1
51 138 1
65 138 1
190 138 1
211 138 1
400 138 1
430 138 1
52 139 1
66 139 1
191 139 1
212 139 1
401 139 1
431 139 1
53 140 1
67 140 1
192 140 1
213 140 1
402 140 1
432 140 1
54 141 1
68 141 1
193 141 1
214 141 1
403 141 1
433 141 1
55 142 1
69 142 1
194 142 1
215 142 1
404 142 1
434 142 1
56 143 1
70 143 1
195 143 1
216 143 1
405 143 1
435 143 1
57 144 1
71 144 1
196 144 1
217 144 1
406 144 1
436 144 1
58 145 1
72 145 1
197 145 1
218 145 1
407 145 1
437 145 1
59 146 1
73 146 1
198 146 1
219 146 1
408 146 1
438 146 1
1 147 1
72 147 1
220 147 1
272 147 1
439 147 1
482 147 1
2 148 1
73 148 1
221 148 1
273 148 1
440 148 1
483 148 1
1 149 1
3 149 1
222 149 1
274 149 1
441 149 1
484 149 1
2 150 1
4 150 1
223 150 1
275 150 1
442 150 1
485 150 1
3 151 1
5 151 1
224 151 1
276 151 1
443 151 1
486 151 1
4 152 1
6 152 1
225 152 1
277 152 1
444 152 1
487 152 1
5 153 1
7 153 1
226 153 1
278 153 1
445 153 1
488 153 1
6 154 1
8 154 1
227 154 1
279 154 1
446 154 1
489 154 1
7 155 1
9 155 1
228 155 1
280 155 1
447 155 1
490 155 1
8 156 1
10 156 1
229 156 1
281 156 1
448 156 1
491 156 1
9 157 1
11 157 1
230 157 1
282 157 1
449 157 1
492 157 1
10 158 1
12 158 1
231 158 1
283 158 1
450 158 1
493 158 1
11 159 1
13 159 1
232 159 1
284 159 1
451 159 1
494 159 1
12 160 1
14 160 1
233 160 1
285 160 1
452 160 1
495 160 1
13 161 1
15 161 1
234 161 1
286 161 1
453 161 1
496 161 1
14 162 1
16 162 1
235 162 1
287 162 1
454 162 1
497 162 1
15 163 1
17 163 1
236 163 1
288 163 1
455 163 1
498 163 1
16 164 1
18 164 1
237 164 1
289 164 1
456 164 1
499 164 1
17 165 1
19 165 1
238 165 1
290 165 1
457 165 1
500 165 1
18 166 1
20 166 1
239 166 1
291 166 1
458 166 1
501 166 1
19 167 1
21 167 1
240 167 1
292 167 1
459 167 1
502 167 1
20 168 1
22 168 1
220 168 1
241 168 1
460 168 1
503 168 1
21 169 1
23 169 1
221 169 1
242 169 1
461 169 1
504 169 1
22 170 1
24 170 1
222 170 1
243 170 1
462 170 1
505 170 1
23 171 1
25 171 1
223 171 1
244 171 1
463 171 1
506 171 1
24 172 1
26 172 1
224 172 1
245 172 1
464 172 1
507 172 1
25 173 1
27 173 1
225 173 1
246 173 1
465 173 1
508 173 1
26 174 1
28 174 1
226 174 1
247 174 1
466 174 1
509 174 1
27 175 1
29 175 1
227 175 1
248 175 1
467 175 1
510 175 1
28 176 1
30 176 1
228 176 1
249 176 1
468 176 1
511 176 1
29 177 1
31 177 1
229 177 1
250 177 1
439 177 1
469 177 1
30 178 1
32 178 1
230 178 1
251 178 1
440 178 1
470 178 1
31 179 1
33 179 1
231 179 1
252 179 1
441 179 1
471 179 1
32 180 1
34 180 1
232 180 1
253 180 1
442 180 1
472 180 1
33 181 1
35 181 1
233 181 1
254 181 1
443 181 1
473 181 1
34 182 1
36 182 1
234 182 1
255 182 1
444 182 1
474 182 1
35 183 1
37 183 1
235 183 1
256 183 1
445 183 1
475 183 1
36 184 1
38 184 1
236 184 1
257 184 1
446 184 1
476 184 1
37 185 1
39 185 1
237 185 1
258 185 1
447 185 1
477 185 1
38 186 1
40 186 1
238 186 1
259 186 1
448 186 1
478 186 1
39 187 1
41 187 1
239 187 1
260 187 1
449 187 1
479 187 1
40 188 1
42 188 1
240 188 1
261 188 1
450 188 1
480 188 1
41 189 1
43 189 1
241 189 1
262 189 1
451 189 1
481 189 1
42 190 1
44 190 1
242 190 1
263 190 1
452 190 1
482 190 1
43 191 1
45 191 1
243 191 1
264 191 1
453 191 1
483 191 1
44 192 1
46 192 1
244 192 1
265 192 1
454 192 1
484 192 1
45 193 1
47 193 1
245 193 1
266 193 1
455 193 1
485 193 1
46 194 1
48 194 1
246 194 1
267 194 1
456 194 1
486 194 1
47 195 1
49 195 1
247 195 1
268 195 1
457 195 1
487 195 1
48 196 1
50 196 1
248 196 1
269 196 1
458 196 1
488 196 1
49 197 1
51 197 1
249 197 1
270 197 1
459 197 1
489 197 1
50 198 1
52 198 1
250 198 1
271 198 1
460 198 1
490 198 1
51 199 1
53 199 1
251 199 1
272 199 1
461 199 1
491 199 1
52 200 1
54 200 1
252 200 1
273 200 1
462 200 1
492 200 1
53 201 1
55 201 1
253 201 1
274 201 1
463 201 1
493 201 1
54 202 1
56 202 1
254 202 1
275 202 1
464 202 1
494 202 1
55 203 1
57 203 1
255 203 1
276 203 1
465 203 1
495 203 1
56 204 1
58 204 1
256 204 1
277 204 1
466 204 1
496 204 1
57 205 1
59 205 1
257 205 1
278 205 1
467 205 1
497 205 1
58 206 1
60 206 1
258 206 1
279 206 1
468 206 1
498 206 1
59 207 1
61 207 1
259 207 1
280 207 1
469 207 1
499 207 1
60 208 1
62 208 1
260 208 1
281 208 1
470 208 1
500 208 1
61 209 1
63 209 1
261 209 1
282 209 1
471 209 1
501 209 1
62 210 1
64 210 1
262 210 1
283 210 1
472 210 1
502 210 1
63 211 1
65 211 1
263 211 1
284 211 1
473 211 1
503 211 1
64 212 1
66 212 1
264 212 1
285 212 1
474 212 1
504 212 1
65 213 1
67 213 1
265 213 1
286 213 1
475 213 1
505 213 1
66 214 1
68 214 1
266 214 1
287 214 1
476 214 1
506 214 1
67 215 1
69 215 1
267 215 1
288 215 1
477 215 1
507 215 1
68 216 1
70 216 1
268 216 1
289 216 1
478 216 1
508 216 1
69 217 1
71 217 1
269 217 1
290 217 1
479 217 1
509 217 1
70 218 1
72 218 1
270 218 1
291 218 1
480 218 1
510 218 1
71 219 1
73 219 1
271 219 1
292 219 1
481 219 1
511 219 1
74 220 1
133 220 1
147 220 1
203 220 1
512 220 1
555 220 1
75 221 1
134 221 1
148 221 1
204 221 1
513 221 1
556 221 1
76 222 1
135 222 1
149 222 1
205 222 1
514 222 1
557 222 1
77 223 1
136 223 1
150 223 1
206 223 1
515 223 1
558 223 1
78 224 1
137 224 1
151 224 1
207 224 1
516 224 1
559 224 1
79 225 1
138 225 1
152 225 1
208 225 1
517 225 1
560 225 1
80 226 1
139 226 1
153 226 1
209 226 1
518 226 1
561 226 1
81 227 1
140 227 1
154 227 1
210 227 1
519 227 1
562 227 1
82 228 1
141 228 1
155 228 1
211 228 1
520 228 1
563 228 1
83 229 1
142 229 1
156 229 1
212 229 1
521 229 1
564 229 1
84 230 1
143 230 1
157 230 1
213 230 1
522 230 1
565 230 1
85 231 1
144 231 1
158 231 1
214 231 1
523 231 1
566 231 1
86 232 1
145 232 1
159 232 1
215 232 1
524 232 1
567 232 1
87 233 1
146 233 1
160 233 1
216 233 1
525 233 1
568 233 1
74 234 1
88 234 1
161 234 1
217 234 1
526 234 1
569 234 1
75 235 1
89 235 1
162 235 1
218 235 1
527 235 1
570 235 1
76 236 1
90 236 1
163 236 1
219 236 1
528 236 1
571 236 1
77 237 1
91 237 1
147 237 1
164 237 1
529 237 1
572 237 1
78 238 1
92 238 1
148 238 1
165 238 1
530 238 1
573 238 1
79 239 1
93 239 1
149 239 1
166 239 1
531 239 1
574 239 1
80 240 1
94 240 1
150 240 1
167 240 1
532 240 1
575 240 1
81 241 1
95 241 1
151 241 1
168 241 1
533 241 1
576 241 1
82 242 1
96 242 1
152 242 1
169 242 1
534 242 1
577 242 1
83 243 1
97 243 1
153 243 1
170 243 1
535 243 1
578 243 1
84 244 1
98 244 1
154 244 1
171 244 1
536 244 1
579 244 1
85 245 1
99 245 1
155 245 1
172 245 1
537 245 1
580 245 1
86 246 1
100 246 1
156 246 1
173 246 1
538 246 1
581 246 1
87 247 1
101 247 1
157 247 1
174 247 1
539 247 1
582 247 1
88 248 1
102 248 1
158 248 1
175 248 1
540 248 1
583 248 1
89 249 1
103 249 1
159 249 1
176 249 1
541 249 1
584 249 1
90 250 1
104 250 1
160 250 1
177 250 1
512 250 1
542 250 1
91 251 1
105 251 1
161 251 1
178 251 1
513 251 1
543 251 1
92 252 1
106 252 1
162 252 1
179 252 1
514 252 1
544 252 1
93 253 1
107 253 1
163 253 1
180 253 1
515 253 1
545 253 1
94 254 1
108 254 1
164 254 1
181 254 1
516 254 1
546 254 1
95 255 1
109 255 1
165 255 1
182 255 1
517 255 1
547 255 1
96 256 1
110 256 1
166 256 1
183 256 1
518 256 1
548 256 1
97 257 1
111 257 1
167 257 1
184 257 1
519 257 1
549 257 1
98 258 1
112 258 1
168 258 1
185 258 1
520 258 1
550 258 1
99 259 1
113 259 1
169 259 1
186 259 1
521 259 1
551 259 1
100 260 1
114 260 1
170 260 1
187 260 1
522 260 1
552 260 1
101 261 1
115 261 1
171 261 1
188 261 1
523 261 1
553 261 1
102 262 1
116 262 1
172 262 1
189 262 1
524 262 1
554 262 1
103 263 1
117 263 1
173 263 1
190 263 1
525 263 1
555 263 1
104 264 1
118 264 1
174 264 1
191 264 1
526 264 1
556 264 1
105 265 1
119 265 1
175 265 1
192 265 1
527 265 1
557 265 1
106 266 1
120 266 1
176 266 1
193 266 1
528 266 1
558 266 1
107 267 1
121 267 1
177 267 1
194 267 1
529 267 1
559 267 1
108 268 1
122 268 1
178 268 1
195 268 1
530 268 1
560 268 1
109 269 1
123 269 1
179 269 1
196 269 1
531 269 1
561 269 1
110 270 1
124 270 1
180 270 1
197 270 1
532 270 1
562 270 1
111 271 1
125 271 1
181 271 1
198 271 1
533 271 1
563 271 1
112 272 1
126 272 1
182 272 1
199 272 1
534 272 1
564 272 1
113 273 1
127 273 1
183 273 1
200 273 1
535 273 1
565 273 1
114 274 1
128 274 1
184 274 1
201 274 1
536 274 1
566 274 1
115 275 1
129 275 1
185 275 1
202 275 1
537 275 1
567 275 1
116 276 1
130 276 1
186 276 1
203 276 1
538 276 1
568 276 1
117 277 1
131 277 1
187 277 1
204 277 1
539 277 1
569 277 1
118 278 1
132 278 1
188 278 1
205 278 1
540 278 1
570 278 1
119 279 1
133 279 1
189 279 1
206 279 1
541 279 1
571 279 1
120 280 1
134 280 1
190 280 1
207 280 1
542 280 1
572 280 1
121 281 1
135 281 1
191 281 1
208 281 1
543 281 1
573 281 1
122 282 1
136 282 1
192 282 1
209 282 1
544 282 1
574 282 1
123 283 1
137 283 1
193 283 1
210 283 1
545 283 1
575 283 1
124 284 1
138 284 1
194 284 1
211 284 1
546 284 1
576 284 1
125 285 1
139 285 1
195 285 1
212 285 1
547 285 1
577 285 1
126 286 1
140 286 1
196 286 1
213 286 1
548 286 1
578 286 1
127 287 1
141 287 1
197 287 1
214 287 1
549 287 1
579 287 1
128 288 1
142 288 1
198 288 1
215 288 1
550 288 1
580 288 1
129 289 1
143 289 1
199 289 1
216 289 1
551 289 1
581 289 1
130 290 1
144 290 1
200 290 1
217 290 1
552 290 1
582 290 1
131 291 1
145 291 1
201 291 1
218 291 1
553 291 1
583 291 1
132 292 1
146 292 1
202 292 1
219 292 1
554 292 1
584 292 1
74 293 1
145 293 1
220 293 1
276 293 1
585 293 1
628 293 1
75 294 1
146 294 1
221 294 1
277 294 1
586 294 1
629 294 1
74 295 1
76 295 1
222 295 1
278 295 1
587 295 1
630 295 1
75 296 1
77 296 1
223 296 1
279 296 1
588 296 1
631 296 1
76 297 1
78 297 1
224 297 1
280 297 1
589 297 1
632 297 1
77 298 1
79 298 1
225 298 1
281 298 1
590 298 1
633 298 1
78 299 1
80 299 1
226 299 1
282 299 1
591 299 1
634 299 1
79 300 1
81 300 1
227 300 1
283 300 1
592 300 1
635 300 1
80 301 1
82 301 1
228 301 1
284 301 1
593 301 1
636 301 1
81 302 1
83 302 1
229 302 1
285 302 1
594 302 1
637 302 1
82 303 1
84 303 1
230 303 1
286 303 1
595 303 1
638 303 1
83 304 1
85 304 1
231 304 1
287 304 1
596 304 1
639 304 1
84 305 1
86 305 1
232 305 1
288 305 1
597 305 1
640 305 1
85 306 1
87 306 1
233 306 1
289 306 1
598 306 1
641 306 1
86 307 1
88 307 1
234 307 1
290 307 1
599 307 1
642 307 1
87 308 1
89 308 1
235 308 1
291 308 1
600 308 1
643 308 1
88 309 1
90 309 1
236 309 1
292 309 1
601 309 1
644 309 1
89 310 1
91 310 1
220 310 1
237 310 1
602 310 1
645 310 1
90 311 1
92 311 1
221 311 1
238 311 1
603 311 1
646 311 1
91 312 1
93 312 1
222 312 1
239 312 1
604 312 1
647 312 1
92 313 1
94 313 1
223 313 1
240 313 1
605 313 1
648 313 1
93 314 1
95 314 1
224 314 1
241 314 1
606 314 1
649 314 1
94 315 1
96 315 1
225 315 1
242 315 1
607 315 1
650 315 1
95 316 1
97 316 1
226 316 1
243 316 1
608 316 1
651 316 1
96 317 1
98 317 1
227 317 1
244 317 1
609 317 1
652 317 1
97 318 1
99 318 1
228 318 1
245 318 1
610 318 1
653 318 1
98 319 1
100 319 1
229 319 1
246 319 1
611 319 1
654 319 1
99 320 1
101 320 1
230 320 1
247 320 1
612 320 1
655 320 1
100 321 1
102 321 1
231 321 1
248 321 1
613 321 1
656 321 1
101 322 1
103 322 1
232 322 1
249 322 1
614 322 1
657 322 1
102 323 1
104 323 1
233 323 1
250 323 1
585 323 1
615 323 1
103 324 1
105 324 1
234 324 1
251 324 1
586 324 1
616 324 1
104 325 1
106 325 1
235 325 1
252 325 1
587 325 1
617 325 1
105 326 1
107 326 1
236 326 1
253 326 1
588 326 1
618 326 1
106 327 1
108 327 1
237 327 1
254 327 1
589 327 1
619 327 1
107 328 1
109 328 1
238 328 1
255 328 1
590 328 1
620 328 1
108 329 1
110 329 1
239 329 1
256 329 1
591 329 1
621 329 1
109 330 1
111 330 1
240 330 1
257 330 1
592 330 1
622 330 1
110 331 1
112 331 1
241 331 1
258 331 1
593 331 1
623 331 1
111 332 1
113 332 1
242 332 1
259 332 1
594 332 1
624 332 1
112 333 1
114 333 1
243 333 1
260 333 1
595 333 1
625 333 1
113 334 1
115 334 1
244 334 1
261 334 1
596 334 1
626 334 1
114 335 1
116 335 1
245 335 1
262 335 1
597 335 1
627 335 1
115 336 1
117 336 1
246 336 1
263 336 1
598 336 1
628 336 1
116 337 1
118 337 1
247 337 1
264 337 1
599 337 1
629 337 1
117 338 1
119 338 1
248 338 1
265 338 1
600 338 1
630 338 1
118 339 1
120 339 1
249 339 1
266 339 1
601 339 1
631 339 1
119 340 1
121 340 1
250 340 1
267 340 1
602 340 1
632 340 1
120 341 1
122 341 1
251 341 1
268 341 1
603 341 1
633 341 1
121 342 1
123 342 1
252 342 1
269 342 1
604 342 1
634 342 1
122 343 1
124 343 1
253 343 1
270 343 1
605 343 1
635 343 1
123 344 1
125 344 1
254 344 1
271 344 1
606 344 1
636 344 1
124 345 1
126 345 1
255 345 1
272 345 1
607 345 1
637 345 1
125 346 1
127 346 1
256 346 1
273 346 1
608 346 1
638 346 1
126 347 1
128 347 1
257 347 1
274 347 1
609 347 1
639 347 1
127 348 1
129 348 1
258 348 1
275 348 1
610 348 1
640 348 1
128 349 1
130 349 1
259 349 1
276 349 1
611 349 1
641 349 1
129 350 1
131 350 1
260 350 1
277 350 1
612 350 1
642 350 1
130 351 1
132 351 1
261 351 1
278 351 1
613 351 1
643 351 1
131 352 1
133 352 1
262 352 1
279 352 1
614 352 1
644 352 1
132 353 1
134 353 1
263 353 1
280 353 1
615 353 1
645 353 1
133 354 1
135 354 1
264 354 1
281 354 1
616 354 1
646 354 1
134 355 1
136 355 1
265 355 1
282 355 1
617 355 1
647 355 1
135 356 1
137 356 1
266 356 1
283 356 1
618 356 1
648 356 1
136 357 1
138 357 1
267 357 1
284 357 1
619 357 1
649 357 1
137 358 1
139 358 1
268 358 1
285 358 1
620 358 1
650 358 1
138 359 1
140 359 1
269 359 1
286 359 1
621 359 1
651 359 1
139 360 1
141 360 1
270 360 1
287 360 1
622 360 1
652 360 1
140 361 1
142 361 1
271 361 1
288 361 1
623 361 1
653 361 1
141 362 1
143 362 1
272 362 1
289 362 1
624 362 1
654 362 1
142 363 1
144 363 1
273 363 1
290 363 1
625 363 1
655 363 1
143 364 1
145 364 1
274 364 1
291 364 1
626 364 1
656 364 1
144 365 1
146 365 1
275 365 1
292 365 1
627 365 1
657 365 1
147 366 1
218 366 1
220 366 1
279 366 1
658 366 1
701 366 1
148 367 1
219 367 1
221 367 1
280 367 1
659 367 1
702 367 1
147 368 1
149 368 1
222 368 1
281 368 1
660 368 1
703 368 1
148 369 1
150 369 1
223 369 1
282 369 1
661 369 1
704 369 1
149 370 1
151 370 1
224 370 1
283 370 1
662 370 1
705 370 1
150 371 1
152 371 1
225 371 1
284 371 1
663 371 1
706 371 1
151 372 1
153 372 1
226 372 1
285 372 1
664 372 1
707 372 1
152 373 1
154 373 1
227 373 1
286 373 1
665 373 1
708 373 1
153 374 1
155 374 1
228 374 1
287 374 1
666 374 1
709 374 1
154 375 1
156 375 1
229 375 1
288 375 1
667 375 1
710 375 1
155 376 1
157 376 1
230 376 1
289 376 1
668 376 1
711 376 1
156 377 1
158 377 1
231 377 1
290 377 1
669 377 1
712 377 1
157 378 1
159 378 1
232 378 1
291 378 1
670 378 1
713 378 1
158 379 1
160 379 1
233 379 1
292 379 1
671 379 1
714 379 1
159 380 1
161 380 1
220 380 1
234 380 1
672 380 1
715 380 1
160 381 1
162 381 1
221 381 1
235 381 1
673 381 1
716 381 1
161 382 1
163 382 1
222 382 1
236 382 1
674 382 1
717 382 1
162 383 1
164 383 1
223 383 1
237 383 1
675 383 1
718 383 1
163 384 1
165 384 1
224 384 1
238 384 1
676 384 1
719 384 1
164 385 1
166 385 1
225 385 1
239 385 1
677 385 1
720 385 1
165 386 1
167 386 1
226 386 1
240 386 1
678 386 1
721 386 1
166 387 1
168 387 1
227 387 1
241 387 1
679 387 1
722 387 1
167 388 1
169 388 1
228 388 1
242 388 1
680 388 1
723 388 1
168 389 1
170 389 1
229 389 1
243 389 1
681 389 1
724 389 1
169 390 1
171 390 1
230 390 1
244 390 1
682 390 1
725 390 1
170 391 1
172 391 1
231 391 1
245 391 1
683 391 1
726 391 1
171 392 1
173 392 1
232 392 1
246 392 1
684 392 1
727 392 1
172 393 1
174 393 1
233 393 1
247 393 1
685 393 1
728 393 1
173 394 1
175 394 1
234 394 1
248 394 1
686 394 1
729 394 1
174 395 1
176 395 1
235 395 1
249 395 1
687 395 1
730 395 1
175 396 1
177 396 1
236 396 1
250 396 1
658 396 1
688 396 1
176 397 1
178 397 1
237 397 1
251 397 1
659 397 1
689 397 1
177 398 1
179 398 1
238 398 1
252 398 1
660 398 1
690 398 1
178 399 1
180 399 1
239 399 1
253 399 1
661 399 1
691 399 1
179 400 1
181 400 1
240 400 1
254 400 1
662 400 1
692 400 1
180 401 1
182 401 1
241 401 1
255 401 1
663 401 1
693 401 1
181 402 1
183 402 1
242 402 1
256 402 1
664 402 1
694 402 1
182 403 1
184 403 1
243 403 1
257 403 1
665 403 1
695 403 1
183 404 1
185 404 1
244 404 1
258 404 1
666 404 1
696 404 1
184 405 1
186 405 1
245 405 1
259 405 1
667 405 1
697 405 1
185 406 1
187 406 1
246 406 1
260 406 1
668 406 1
698 406 1
186 407 1
188 407 1
247 407 1
261 407 1
669 407 1
699 407 1
187 408 1
189 408 1
248 408 1
262 408 1
670 408 1
700 408 1
188 409 1
190 409 1
249 409 1
263 409 1
671 409 1
701 409 1
189 410 1
191 410 1
250 410 1
264 410 1
672 410 1
702 410 1
190 411 1
192 411 1
251 411 1
265 411 1
673 411 1
703 411 1
191 412 1
193 412 1
252 412 1
266 412 1
674 412 1
704 412 1
192 413 1
194 413 1
253 413 1
267 413 1
675 413 1
705 413 1
193 414 1
195 414 1
254 414 1
268 414 1
676 414 1
706 414 1
194 415 1
196 415 1
255 415 1
269 415 1
677 415 1
707 415 1
195 416 1
197 416 1
256 416 1
270 416 1
678 416 1
708 416 1
196 417 1
198 417 1
257 417 1
271 417 1
679 417 1
709 417 1
197 418 1
199 418 1
258 418 1
272 418 1
680 418 1
710 418 1
198 419 1
200 419 1
259 419 1
273 419 1
681 419 1
711 419 1
199 420 1
201 420 1
260 420 1
274 420 1
682 420 1
712 420 1
200 421 1
202 421 1
261 421 1
275 421 1
683 421 1
713 421 1
201 422 1
203 422 1
262 422 1
276 422 1
684 422 1
714 422 1
202 423 1
204 423 1
263 423 1
277 423 1
685 423 1
715 423 1
203 424 1
205 424 1
264 424 1
278 424 1
686 424 1
716 424 1
204 425 1
206 425 1
265 425 1
279 425 1
687 425 1
717 425 1
205 426 1
207 426 1
266 426 1
280 426 1
688 426 1
718 426 1
206 427 1
208 427 1
267 427 1
281 427 1
689 427 1
719 427 1
207 428 1
209 428 1
268 428 1
282 428 1
690 428 1
720 428 1
208 429 1
210 429 1
269 429 1
283 429 1
691 429 1
721 429 1
209 430 1
211 430 1
270 430 1
284 430 1
692 430 1
722 430 1
210 431 1
212 431 1
271 431 1
285 431 1
693 431 1
723 431 1
211 432 1
213 432 1
272 432 1
286 432 1
694 432 1
724 432 1
212 433 1
214 433 1
273 433 1
287 433 1
695 433 1
725 433 1
213 434 1
215 434 1
274 434 1
288 434 1
696 434 1
726 434 1
214 435 1
216 435 1
275 435 1
289 435 1
697 435 1
727 435 1
215 436 1
217 436 1
276 436 1
290 436 1
698 436 1
728 436 1
216 437 1
218 437 1
277 437 1
291 437 1
699 437 1
729 437 1
217 438 1
219 438 1
278 438 1
292 438 1
700 438 1
730 438 1
293 439 1
352 439 1
366 439 1
422 439 1
512 439 1
564 439 1
294 440 1
353 440 1
367 440 1
423 440 1
513 440 1
565 440 1
295 441 1
354 441 1
368 441 1
424 441 1
514 441 1
566 441 1
296 442 1
355 442 1
369 442 1
425 442 1
515 442 1
567 442 1
297 443 1
356 443 1
370 443 1
426 443 1
516 443 1
568 443 1
298 444 1
357 444 1
371 444 1
427 444 1
517 444 1
569 444 1
299 445 1
358 445 1
372 445 1
428 445 1
518 445 1
570 445 1
300 446 1
359 446 1
373 446 1
429 446 1
519 446 1
571 446 1
301 447 1
360 447 1
374 447 1
430 447 1
520 447 1
572 447 1
302 448 1
361 448 1
375 448 1
431 448 1
521 448 1
573 448 1
303 449 1
362 449 1
376 449 1
432 449 1
522 449 1
574 449 1
304 450 1
363 450 1
377 450 1
433 450 1
523 450 1
575 450 1
305 451 1
364 451 1
378 451 1
434 451 1
524 451 1
576 451 1
306 452 1
365 452 1
379 452 1
435 452 1
525 452 1
577 452 1
293 453 1
307 453 1
380 453 1
436 453 1
526 453 1
578 453 1
294 454 1
308 454 1
381 454 1
437 454 1
527 454 1
579 454 1
295 455 1
309 455 1
382 455 1
438 455 1
528 455 1
580 455 1
296 456 1
310 456 1
366 456 1
383 456 1
529 456 1
581 456 1
297 457 1
311 457 1
367 457 1
384 457 1
530 457 1
582 457 1
298 458 1
312 458 1
368 458 1
385 458 1
531 458 1
583 458 1
299 459 1
313 459 1
369 459 1
386 459 1
532 459 1
584 459 1
300 460 1
314 460 1
370 460 1
387 460 1
512 460 1
533 460 1
301 461 1
315 461 1
371 461 1
388 461 1
513 461 1
534 461 1
302 462 1
316 462 1
372 462 1
389 462 1
514 462 1
535 462 1
303 463 1
317 463 1
373 463 1
390 463 1
515 463 1
536 463 1
304 464 1
318 464 1
374 464 1
391 464 1
516 464 1
537 464 1
305 465 1
319 465 1
375 465 1
392 465 1
517 465 1
538 465 1
306 466 1
320 466 1
376 466 1
393 466 1
518 466 1
539 466 1
307 467 1
321 467 1
377 467 1
394 467 1
519 467 1
540 467 1
308 468 1
322 468 1
378 468 1
395 468 1
520 468 1
541 468 1
309 469 1
323 469 1
379 469 1
396 469 1
521 469 1
542 469 1
310 470 1
324 470 1
380 470 1
397 470 1
522 470 1
543 470 1
311 471 1
325 471 1
381 471 1
398 471 1
523 471 1
544 471 1
312 472 1
326 472 1
382 472 1
399 472 1
524 472 1
545 472 1
313 473 1
327 473 1
383 473 1
400 473 1
525 473 1
546 473 1
314 474 1
328 474 1
384 474 1
401 474 1
526 474 1
547 474 1
315 475 1
329 475 1
385 475 1
402 475 1
527 475 1
548 475 1
316 476 1
330 476 1
386 476 1
403 476 1
528 476 1
549 476 1
317 477 1
331 477 1
387 477 1
404 477 1
529 477 1
550 477 1
318 478 1
332 478 1
388 478 1
405 478 1
530 478 1
551 478 1
319 479 1
333 479 1
389 479 1
406 479 1
531 479 1
552 479 1
320 480 1
334 480 1
390 480 1
407 480 1
532 480 1
553 480 1
321 481 1
335 481 1
391 481 1
408 481 1
533 481 1
554 481 1
322 482 1
336 482 1
392 482 1
409 482 1
534 482 1
555 482 1
323 483 1
337 483 1
393 483 1
410 483 1
535 483 1
556 483 1
324 484 1
338 484 1
394 484 1
411 484 1
536 484 1
557 484 1
325 485 1
339 485 1
395 485 1
412 485 1
537 485 1
558 485 1
326 486 1
340 486 1
396 486 1
413 486 1
538 486 1
559 486 1
327 487 1
341 487 1
397 487 1
414 487 1
539 487 1
560 487 1
328 488 1
342 488 1
398 488 1
415 488 1
540 488 1
561 488 1
329 489 1
343 489 1
399 489 1
416 489 1
541 489 1
562 489 1
330 490 1
344 490 1
400 490 1
417 490 1
542 490 1
563 490 1
331 491 1
345 491 1
401 491 1
418 491 1
543 491 1
564 491 1
332 492 1
346 492 1
402 492 1
419 492 1
544 492 1
565 492 1
333 493 1
347 493 1
403 493 1
420 493 1
545 493 1
566 493 1
334 494 1
348 494 1
404 494 1
421 494 1
546 494 1
567 494 1
335 495 1
349 495 1
405 495 1
422 495 1
547 495 1
568 495 1
336 496 1
350 496 1
406 496 1
423 496 1
548 496 1
569 496 1
337 497 1
351 497 1
407 497 1
424 497 1
549 497 1
570 497 1
338 498 1
352 498 1
408 498 1
425 498 1
550 498 1
571 498 1
339 499 1
353 499 1
409 499 1
426 499 1
551 499 1
572 499 1
340 500 1
354 500 1
410 500 1
427 500 1
552 500 1
573 500 1
341 501 1
355 501 1
411 501 1
428 501 1
553 501 1
574 501 1
342 502 1
356 502 1
412 502 1
429 502 1
554 502 1
575 502 1
343 503 1
357 503 1
413 503 1
430 503 1
555 503 1
576 503 1
344 504 1
358 504 1
414 504 1
431 504 1
556 504 1
577 504 1
345 505 1
359 505 1
415 505 1
432 505 1
557 505 1
578 505 1
346 506 1
360 506 1
416 506 1
433 506 1
558 506 1
579 506 1
347 507 1
361 507 1
417 507 1
434 507 1
559 507 1
580 507 1
348 508 1
362 508 1
418 508 1
435 508 1
560 508 1
581 508 1
349 509 1
363 509 1
419 509 1
436 509 1
561 509 1
582 509 1
350 510 1
364 510 1
420 510 1
437 510 1
562 510 1
583 510 1
351 511 1
365 511 1
421 511 1
438 511 1
563 511 1
584 511 1
293 512 1
364 512 1
439 512 1
495 512 1
585 512 1
637 512 1
294 513 1
365 513 1
440 513 1
496 513 1
586 513 1
638 513 1
293 514 1
295 514 1
441 514 1
497 514 1
587 514 1
639 514 1
294 515 1
296 515 1
442 515 1
498 515 1
588 515 1
640 515 1
295 516 1
297 516 1
443 516 1
499 516 1
589 516 1
641 516 1
296 517 1
298 517 1
444 517 1
500 517 1
590 517 1
642 517 1
297 518 1
299 518 1
445 518 1
501 518 1
591 518 1
643 518 1
298 519 1
300 519 1
446 519 1
502 519 1
592 519 1
644 519 1
299 520 1
301 520 1
447 520 1
503 520 1
593 520 1
645 520 1
300 521 1
302 521 1
448 521 1
504 521 1
594 521 1
646 521 1
301 522 1
303 522 1
449 522 1
505 522 1
595 522 1
647 522 1
302 523 1
304 523 1
450 523 1
506 523 1
596 523 1
648 523 1
303 524 1
305 524 1
451 524 1
507 524 1
597 524 1
649 524 1
304 525 1
306 525 1
452 525 1
508 525 1
598 525 1
650 525 1
305 526 1
307 526 1
453 526 1
509 526 1
599 526 1
651 526 1
306 527 1
308 527 1
454 527 1
510 527 1
600 527 1
652 527 1
307 528 1
309 528 1
455 528 1
511 528 1
601 528 1
653 528 1
308 529 1
310 529 1
439 529 1
456 529 1
602 529 1
654 529 1
309 530 1
311 530 1
440 530 1
457 530 1
603 530 1
655 530 1
310 531 1
312 531 1
441 531 1
458 531 1
604 531 1
656 531 1
311 532 1
313 532 1
442 532 1
459 532 1
605 532 1
657 532 1
312 533 1
314 533 1
443 533 1
460 533 1
585 533 1
606 533 1
313 534 1
315 534 1
444 534 1
461 534 1
586 534 1
607 534 1
314 535 1
316 535 1
445 535 1
462 535 1
587 535 1
608 535 1
315 536 1
317 536 1
446 536 1
463 536 1
588 536 1
609 536 1
316 537 1
318 537 1
447 537 1
464 537 1
589 537 1
610 537 1
317 538 1
319 538 1
448 538 1
465 538 1
590 538 1
611 538 1
318 539 1
320 539 1
449 539 1
466 539 1
591 539 1
612 539 1
319 540 1
321 540 1
450 540 1
467 540 1
592 540 1
613 540 1
320 541 1
322 541 1
451 541 1
468 541 1
593 541 1
614 541 1
321 542 1
323 542 1
452 542 1
469 542 1
594 542 1
615 542 1
322 543 1
324 543 1
453 543 1
470 543 1
595 543 1
616 543 1
323 544 1
325 544 1
454 544 1
471 544 1
596 544 1
617 544 1
324 545 1
326 545 1
455 545 1
472 545 1
597 545 1
618 545 1
325 546 1
327 546 1
456 546 1
473 546 1
598 546 1
619 546 1
326 547 1
328 547 1
457 547 1
474 547 1
599 547 1
620 547 1
327 548 1
329 548 1
458 548 1
475 548 1
600 548 1
621 548 1
328 549 1
330 549 1
459 549 1
476 549 1
601 549 1
622 549 1
329 550 1
331 550 1
460 550 1
477 550 1
602 550 1
623 550 1
330 551 1
332 551 1
461 551 1
478 551 1
603 551 1
624 551 1
331 552 1
333 552 1
462 552 1
479 552 1
604 552 1
625 552 1
332 553 1
334 553 1
463 553 1
480 553 1
605 553 1
626 553 1
333 554 1
335 554 1
464 554 1
481 554 1
606 554 1
627 554 1
334 555 1
336 555 1
465 555 1
482 555 1
607 555 1
628 555 1
335 556 1
337 556 1
466 556 1
483 556 1
608 556 1
629 556 1
336 557 1
338 557 1
467 557 1
484 557 1
609 557 1
630 557 1
337 558 1
339 558 1
468 558 1
485 558 1
610 558 1
631 558 1
338 559 1
340 559 1
469 559 1
486 559 1
611 559 1
632 559 1
339 560 1
341 560 1
470 560 1
487 560 1
612 560 1
633 560 1
340 561 1
342 561 1
471 561 1
488 561 1
613 561 1
634 561 1
341 562 1
343 562 1
472 562 1
489 562 1
614 562 1
635 562 1
342 563 1
344 563 1
473 563 1
490 563 1
615 563 1
636 563 1
343 564 1
345 564 1
474 564 1
491 564 1
616 564 1
637 564 1
344 565 1
346 565 1
475 565 1
492 565 1
617 565 1
638 565 1
345 566 1
347 566 1
476 566 1
493 566 1
618 566 1
639 566 1
346 567 1
348 567 1
477 567 1
494 567 1
619 567 1
640 567 1
347 568 1
349 568 1
478 568 1
495 568 1
620 568 1
641 568 1
348 569 1
350 569 1
479 569 1
496 569 1
621 569 1
642 569 1
349 570 1
351 570 1
480 570 1
497 570 1
622 570 1
643 570 1
350 571 1
352 571 1
481 571 1
498 571 1
623 571 1
644 571 1
351 572 1
353 572 1
482 572 1
499 572 1
624 572 1
645 572 1
352 573 1
354 573 1
483 573 1
500 573 1
625 573 1
646 573 1
353 574 1
355 574 1
484 574 1
501 574 1
626 574 1
647 574 1
354 575 1
356 575 1
485 575 1
502 575 1
627 575 1
648 575 1
355 576 1
357 576 1
486 576 1
503 576 1
628 576 1
649 576 1
356 577 1
358 577 1
487 577 1
504 577 1
629 577 1
650 577 1
357 578 1
359 578 1
488 578 1
505 578 1
630 578 1
651 578 1
358 579 1
360 579 1
489 579 1
506 579 1
631 579 1
652 579 1
359 580 1
361 580 1
490 580 1
507 580 1
632 580 1
653 580 1
360 581 1
362 581 1
491 581 1
508 581 1
633 581 1
654 581 1
361 582 1
363 582 1
492 582 1
509 582 1
634 582 1
655 582 1
362 583 1
364 583 1
493 583 1
510 583 1
635 583 1
656 583 1
363 584 1
365 584 1
494 584 1
511 584 1
636 584 1
657 584 1
366 585 1
437 585 1
439 585 1
498 585 1
658 585 1
710 585 1
367 586 1
438 586 1
440 586 1
499 586 1
659 586 1
711 586 1
366 587 1
368 587 1
441 587 1
500 587 1
660 587 1
712 587 1
367 588 1
369 588 1
442 588 1
501 588 1
661 588 1
713 588 1
368 589 1
370 589 1
443 589 1
502 589 1
662 589 1
714 589 1
369 590 1
371 590 1
444 590 1
503 590 1
663 590 1
715 590 1
370 591 1
372 591 1
445 591 1
504 591 1
664 591 1
716 591 1
371 592 1
373 592 1
446 592 1
505 592 1
665 592 1
717 592 1
372 593 1
374 593 1
447 593 1
506 593 1
666 593 1
718 593 1
373 594 1
375 594 1
448 594 1
507 594 1
667 594 1
719 594 1
374 595 1
376 595 1
449 595 1
508 595 1
668 595 1
720 595 1
375 596 1
377 596 1
450 596 1
509 596 1
669 596 1
721 596 1
376 597 1
378 597 1
451 597 1
510 597 1
670 597 1
722 597 1
377 598 1
379 598 1
452 598 1
511 598 1
671 598 1
723 598 1
378 599 1
380 599 1
439 599 1
453 599 1
672 599 1
724 599 1
379 600 1
381 600 1
440 600 1
454 600 1
673 600 1
725 600 1
380 601 1
382 601 1
441 601 1
455 601 1
674 601 1
726 601 1
381 602 1
383 602 1
442 602 1
456 602 1
675 602 1
727 602 1
382 603 1
384 603 1
443 603 1
457 603 1
676 603 1
728 603 1
383 604 1
385 604 1
444 604 1
458 604 1
677 604 1
729 604 1
384 605 1
386 605 1
445 605 1
459 605 1
678 605 1
730 605 1
385 606 1
387 606 1
446 606 1
460 606 1
658 606 1
679 606 1
386 607 1
388 607 1
447 607 1
461 607 1
659 607 1
680 607 1
387 608 1
389 608 1
448 608 1
462 608 1
660 608 1
681 608 1
388 609 1
390 609 1
449 609 1
463 609 1
661 609 1
682 609 1
389 610 1
391 610 1
450 610 1
464 610 1
662 610 1
683 610 1
390 611 1
392 611 1
451 611 1
465 611 1
663 611 1
684 611 1
391 612 1
393 612 1
452 612 1
466 612 1
664 612 1
685 612 1
392 613 1
394 613 1
453 613 1
467 613 1
665 613 1
686 613 1
393 614 1
395 614 1
454 614 1
468 614 1
666 614 1
687 614 1
394 615 1
396 615 1
455 615 1
469 615 1
667 615 1
688 615 1
395 616 1
397 616 1
456 616 1
470 616 1
668 616 1
689 616 1
396 617 1
398 617 1
457 617 1
471 617 1
669 617 1
690 617 1
397 618 1
399 618 1
458 618 1
472 618 1
670 618 1
691 618 1
398 619 1
400 619 1
459 619 1
473 619 1
671 619 1
692 619 1
399 620 1
401 620 1
460 620 1
474 620 1
672 620 1
693 620 1
400 621 1
402 621 1
461 621 1
475 621 1
673 621 1
694 621 1
401 622 1
403 622 1
462 622 1
476 622 1
674 622 1
695 622 1
402 623 1
404 623 1
463 623 1
477 623 1
675 623 1
696 623 1
403 624 1
405 624 1
464 624 1
478 624 1
676 624 1
697 624 1
404 625 1
406 625 1
465 625 1
479 625 1
677 625 1
698 625 1
405 626 1
407 626 1
466 626 1
480 626 1
678 626 1
699 626 1
406 627 1
408 627 1
467 627 1
481 627 1
679 627 1
700 627 1
407 628 1
409 628 1
468 628 1
482 628 1
680 628 1
701 628 1
408 629 1
410 629 1
469 629 1
483 629 1
681 629 1
702 629 1
409 630 1
411 630 1
470 630 1
484 630 1
682 630 1
703 630 1
410 631 1
412 631 1
471 631 1
485 631 1
683 631 1
704 631 1
411 632 1
413 632 1
472 632 1
486 632 1
684 632 1
705 632 1
412 633 1
414 633 1
473 633 1
487 633 1
685 633 1
706 633 1
413 634 1
415 634 1
474 634 1
488 634 1
686 634 1
707 634 1
414 635 1
416 635 1
475 635 1
489 635 1
687 635 1
708 635 1
415 636 1
417 636 1
476 636 1
490 636 1
688 636 1
709 636 1
416 637 1
418 637 1
477 637 1
491 637 1
689 637 1
710 637 1
417 638 1
419 638 1
478 638 1
492 638 1
690 638 1
711 638 1
418 639 1
420 639 1
479 639 1
493 639 1
691 639 1
712 639 1
419 640 1
421 640 1
480 640 1
494 640 1
692 640 1
713 640 1
420 641 1
422 641 1
481 641 1
495 641 1
693 641 1
714 641 1
421 642 1
423 642 1
482 642 1
496 642 1
694 642 1
715 642 1
422 643 1
424 643 1
483 643 1
497 643 1
695 643 1
716 643 1
423 644 1
425 644 1
484 644 1
498 644 1
696 644 1
717 644 1
424 645 1
426 645 1
485 645 1
499 645 1
697 645 1
718 645 1
425 646 1
427 646 1
486 646 1
500 646 1
698 646 1
719 646 1
426 647 1
428 647 1
487 647 1
501 647 1
699 647 1
720 647 1
427 648 1
429 648 1
488 648 1
502 648 1
700 648 1
721 648 1
428 649 1
430 649 1
489 649 1
503 649 1
701 649 1
722 649 1
429 650 1
431 650 1
490 650 1
504 650 1
702 650 1
723 650 1
430 651 1
432 651 1
491 651 1
505 651 1
703 651 1
724 651 1
431 652 1
433 652 1
492 652 1
506 652 1
704 652 1
725 652 1
432 653 1
434 653 1
493 653 1
507 653 1
705 653 1
726 653 1
433 654 1
435 654 1
494 654 1
508 654 1
706 654 1
727 654 1
434 655 1
436 655 1
495 655 1
509 655 1
707 655 1
728 655 1
435 656 1
437 656 1
496 656 1
510 656 1
708 656 1
729 656 1
436 657 1
438 657 1
497 657 1
511 657 1
709 657 1
730 657 1
512 658 1
583 658 1
585 658 1
644 658 1
658 658 1
714 658 1
513 659 1
584 659 1
586 659 1
645 659 1
659 659 1
715 659 1
512 660 1
514 660 1
587 660 1
646 660 1
660 660 1
716 660 1
513 661 1
515 661 1
588 661 1
647 661 1
661 661 1
717 661 1
514 662 1
516 662 1
589 662 1
648 662 1
662 662 1
718 662 1
515 663 1
517 663 1
590 663 1
649 663 1
663 663 1
719 663 1
516 664 1
518 664 1
591 664 1
650 664 1
664 664 1
720 664 1
517 665 1
519 665 1
592 665 1
651 665 1
665 665 1
721 665 1
518 666 1
520 666 1
593 666 1
652 666 1
666 666 1
722 666 1
519 667 1
521 667 1
594 667 1
653 667 1
667 667 1
723 667 1
520 668 1
522 668 1
595 668 1
654 668 1
668 668 1
724 668 1
521 669 1
523 669 1
596 669 1
655 669 1
669 669 1
725 669 1
522 670 1
524 670 1
597 670 1
656 670 1
670 670 1
726 670 1
523 671 1
525 671 1
598 671 1
657 671 1
671 671 1
727 671 1
524 672 1
526 672 1
585 672 1
599 672 1
672 672 1
728 672 1
525 673 1
527 673 1
586 673 1
600 673 1
673 673 1
729 673 1
526 674 1
528 674 1
587 674 1
601 674 1
674 674 1
730 674 1
527 675 1
529 675 1
588 675 1
602 675 1
658 675 1
675 675 1
528 676 1
530 676 1
589 676 1
603 676 1
659 676 1
676 676 1
529 677 1
531 677 1
590 677 1
604 677 1
660 677 1
677 677 1
530 678 1
532 678 1
591 678 1
605 678 1
661 678 1
678 678 1
531 679 1
533 679 1
592 679 1
606 679 1
662 679 1
679 679 1
532 680 1
534 680 1
593 680 1
607 680 1
663 680 1
680 680 1
533 681 1
535 681 1
594 681 1
608 681 1
664 681 1
681 681 1
534 682 1
536 682 1
595 682 1
609 682 1
665 682 1
682 682 1
535 683 1
537 683 1
596 683 1
610 683 1
666 683 1
683 683 1
536 684 1
538 684 1
597 684 1
611 684 1
667 684 1
684 684 1
537 685 1
539 685 1
598 685 1
612 685 1
668 685 1
685 685 1
538 686 1
540 686 1
599 686 1
613 686 1
669 686 1
686 686 1
539 687 1
541 687 1
600 687 1
614 687 1
670 687 1
687 687 1
540 688 1
542 688 1
601 688 1
615 688 1
671 688 1
688 688 1
541 689 1
543 689 1
602 689 1
616 689 1
672 689 1
689 689 1
542 690 1
544 690 1
603 690 1
617 690 1
673 690 1
690 690 1
543 691 1
545 691 1
604 691 1
618 691 1
674 691 1
691 691 1
544 692 1
546 692 1
605 692 1
619 692 1
675 692 1
692 692 1
545 693 1
547 693 1
606 693 1
620 693 1
676 693 1
693 693 1
546 694 1
548 694 1
607 694 1
621 694 1
677 694 1
694 694 1
547 695 1
549 695 1
608 695 1
622 695 1
678 695 1
695 695 1
548 696 1
550 696 1
609 696 1
623 696 1
679 696 1
696 696 1
549 697 1
551 697 1
610 697 1
624 697 1
680 697 1
697 697 1
550 698 1
552 698 1
611 698 1
625 698 1
681 698 1
698 698 1
551 699 1
553 699 1
612 699 1
626 699 1
682 699 1
699 699 1
552 700 1
554 700 1
613 700 1
627 700 1
683 700 1
700 700 1
553 701 1
555 701 1
614 701 1
628 701 1
684 701 1
701 701 1
554 702 1
556 702 1
615 702 1
629 702 1
685 702 1
702 702 1
555 703 1
557 703 1
616 703 1
630 703 1
686 703 1
703 703 1
556 704 1
558 704 1
617 704 1
631 704 1
687 704 1
704 704 1
557 705 1
559 705 1
618 705 1
632 705 1
688 705 1
705 705 1
558 706 1
560 706 1
619 706 1
633 706 1
689 706 1
706 706 1
559 707 1
561 707 1
620 707 1
634 707 1
690 707 1
707 707 1
560 708 1
562 708 1
621 708 1
635 708 1
691 708 1
708 708 1
561 709 1
563 709 1
622 709 1
636 709 1
692 709 1
709 709 1
562 710 1
564 710 1
623 710 1
637 710 1
693 710 1
710 710 1
563 711 1
565 711 1
624 711 1
638 711 1
694 711 1
711 711 1
564 712 1
566 712 1
625 712 1
639 712 1
695 712 1
712 712 1
565 713 1
567 713 1
626 713 1
640 713 1
696 713 1
713 713 1
566 714 1
568 714 1
627 714 1
641 714 1
697 714 1
714 714 1
567 715 1
569 715 1
628 715 1
642 715 1
698 715 1
715 715 1
568 716 1
570 716 1
629 716 1
643 716 1
699 716 1
716 716 1
569 717 1
571 717 1
630 717 1
644 717 1
700 717 1
717 717 1
570 718 1
572 718 1
631 718 1
645 718 1
701 718 1
718 718 1
571 719 1
573 719 1
632 719 1
646 719 1
702 719 1
719 719 1
572 720 1
574 720 1
633 720 1
647 720 1
703 720 1
720 720 1
573 721 1
575 721 1
634 721 1
648 721 1
704 721 1
721 721 1
574 722 1
576 722 1
635 722 1
649 722 1
705 722 1
722 722 1
575 723 1
577 723 1
636 723 1
650 723 1
706 723 1
723 723 1
576 724 1
578 724 1
637 724 1
651 724 1
707 724 1
724 724 1
577 725 1
579 725 1
638 725 1
652 725 1
708 725 1
725 725 1
578 726 1
580 726 1
639 726 1
653 726 1
709 726 1
726 726 1
579 727 1
581 727 1
640 727 1
654 727 1
710 727 1
727 727 1
580 728 1
582 728 1
641 728 1
655 728 1
711 728 1
728 728 1
581 729 1
583 729 1
642 729 1
656 729 1
712 729 1
729 729 1
582 730 1
584 730 1
643 730 1
657 730 1
713 730 1
730 730 1
