%%MatrixMarket matrix coordinate integer general
% Binary matrix; one-based indices; arithmetic over GF(2)
104 156 624
1 1 1
5 1 1
27 1 1
31 1 1
2 2 1
6 2 1
28 2 1
32 2 1
3 3 1
7 3 1
29 3 1
33 3 1
4 4 1
8 4 1
30 4 1
34 4 1
5 5 1
9 5 1
31 5 1
35 5 1
6 6 1
10 6 1
32 6 1
36 6 1
7 7 1
11 7 1
33 7 1
37 7 1
8 8 1
12 8 1
34 8 1
38 8 1
9 9 1
13 9 1
35 9 1
39 9 1
10 10 1
14 10 1
36 10 1
40 10 1
11 11 1
15 11 1
37 11 1
41 11 1
12 12 1
16 12 1
38 12 1
42 12 1
13 13 1
17 13 1
39 13 1
43 13 1
14 14 1
18 14 1
40 14 1
44 14 1
15 15 1
19 15 1
41 15 1
45 15 1
16 16 1
20 16 1
42 16 1
46 16 1
17 17 1
21 17 1
43 17 1
47 17 1
18 18 1
22 18 1
44 18 1
48 18 1
19 19 1
23 19 1
45 19 1
49 19 1
20 20 1
24 20 1
46 20 1
50 20 1
21 21 1
25 21 1
47 21 1
51 21 1
22 22 1
26 22 1
48 22 1
52 22 1
1 23 1
23 23 1
27 23 1
49 23 1
2 24 1
24 24 1
28 24 1
50 24 1
3 25 1
25 25 1
29 25 1
51 25 1
4 26 1
26 26 1
30 26 1
52 26 1
1 27 1
8 27 1
53 27 1
57 27 1
2 28 1
9 28 1
54 28 1
58 28 1
3 29 1
10 29 1
55 29 1
59 29 1
4 30 1
11 30 1
56 30 1
60 30 1
5 31 1
12 31 1
57 31 1
61 31 1
6 32 1
13 32 1
58 32 1
62 32 1
7 33 1
14 33 1
59 33 1
63 33 1
8 34 1
15 34 1
60 34 1
64 34 1
9 35 1
16 35 1
61 35 1
65 35 1
10 36 1
17 36 1
62 36 1
66 36 1
11 37 1
18 37 1
63 37 1
67 37 1
12 38 1
19 38 1
64 38 1
68 38 1
13 39 1
20 39 1
65 39 1
69 39 1
14 40 1
21 40 1
66 40 1
70 40 1
15 41 1
22 41 1
67 41 1
71 41 1
16 42 1
23 42 1
68 42 1
72 42 1
17 43 1
24 43 1
69 43 1
73 43 1
18 44 1
25 44 1
70 44 1
74 44 1
19 45 1
26 45 1
71 45 1
75 45 1
1 46 1
20 46 1
72 46 1
76 46 1
2 47 1
21 47 1
73 47 1
77 47 1
3 48 1
22 48 1
74 48 1
78 48 1
4 49 1
23 49 1
53 49 1
75 49 1
5 50 1
24 50 1
54 50 1
76 50 1
6 51 1
25 51 1
55 51 1
77 51 1
7 52 1
26 52 1
56 52 1
78 52 1
27 53 1
34 53 1
53 53 1
57 53 1
28 54 1
35 54 1
54 54 1
58 54 1
29 55 1
36 55 1
55 55 1
59 55 1
30 56 1
37 56 1
56 56 1
60 56 1
31 57 1
38 57 1
57 57 1
61 57 1
32 58 1
39 58 1
58 58 1
62 58 1
33 59 1
40 59 1
59 59 1
63 59 1
34 60 1
41 60 1
60 60 1
64 60 1
35 61 1
42 61 1
61 61 1
65 61 1
36 62 1
43 62 1
62 62 1
66 62 1
37 63 1
44 63 1
63 63 1
67 63 1
38 64 1
45 64 1
64 64 1
68 64 1
39 65 1
46 65 1
65 65 1
69 65 1
40 66 1
47 66 1
66 66 1
70 66 1
41 67 1
48 67 1
67 67 1
71 67 1
42 68 1
49 68 1
68 68 1
72 68 1
43 69 1
50 69 1
69 69 1
73 69 1
44 70 1
51 70 1
70 70 1
74 70 1
45 71 1
52 71 1
71 71 1
75 71 1
27 72 1
46 72 1
72 72 1
76 72 1
28 73 1
47 73 1
73 73 1
77 73 1
29 74 1
48 74 1
74 74 1
78 74 1
30 75 1
49 75 1
53 75 1
75 75 1
31 76 1
50 76 1
54 76 1
76 76 1
32 77 1
51 77 1
55 77 1
77 77 1
33 78 1
52 78 1
56 78 1
78 78 1
1 79 1
11 79 1
79 79 1
83 79 1
2 80 1
12 80 1
80 80 1
84 80 1
3 81 1
13 81 1
81 81 1
85 81 1
4 82 1
14 82 1
82 82 1
86 82 1
5 83 1
15 83 1
83 83 1
87 83 1
6 84 1
16 84 1
84 84 1
88 84 1
7 85 1
17 85 1
85 85 1
89 85 1
8 86 1
18 86 1
86 86 1
90 86 1
9 87 1
19 87 1
87 87 1
91 87 1
10 88 1
20 88 1
88 88 1
92 88 1
11 89 1
21 89 1
89 89 1
93 89 1
12 90 1
22 90 1
90 90 1
94 90 1
13 91 1
23 91 1
91 91 1
95 91 1
14 92 1
24 92 1
92 92 1
96 92 1
15 93 1
25 93 1
93 93 1
97 93 1
16 94 1
26 94 1
94 94 1
98 94 1
1 95 1
17 95 1
95 95 1
99 95 1
2 96 1
18 96 1
96 96 1
100 96 1
3 97 1
19 97 1
97 97 1
101 97 1
4 98 1
20 98 1
98 98 1
102 98 1
5 99 1
21 99 1
99 99 1
103 99 1
6 100 1
22 100 1
100 100 1
104 100 1
7 101 1
23 101 1
79 101 1
101 101 1
8 102 1
24 102 1
80 102 1
102 102 1
9 103 1
25 103 1
81 103 1
103 103 1
10 104 1
26 104 1
82 104 1
104 104 1
27 105 1
37 105 1
79 105 1
83 105 1
28 106 1
38 106 1
80 106 1
84 106 1
29 107 1
39 107 1
81 107 1
85 107 1
30 108 1
40 108 1
82 108 1
86 108 1
31 109 1
41 109 1
83 109 1
87 109 1
32 110 1
42 110 1
84 110 1
88 110 1
33 111 1
43 111 1
85 111 1
89 111 1
34 112 1
44 112 1
86 112 1
90 112 1
35 113 1
45 113 1
87 113 1
91 113 1
36 114 1
46 114 1
88 114 1
92 114 1
37 115 1
47 115 1
89 115 1
93 115 1
38 116 1
48 116 1
90 116 1
94 116 1
39 117 1
49 117 1
91 117 1
95 117 1
40 118 1
50 118 1
92 118 1
96 118 1
41 119 1
51 119 1
93 119 1
97 119 1
42 120 1
52 120 1
94 120 1
98 120 1
27 121 1
43 121 1
95 121 1
99 121 1
28 122 1
44 122 1
96 122 1
100 122 1
29 123 1
45 123 1
97 123 1
101 123 1
30 124 1
46 124 1
98 124 1
102 124 1
31 125 1
47 125 1
99 125 1
103 125 1
32 126 1
48 126 1
100 126 1
104 126 1
33 127 1
49 127 1
79 127 1
101 127 1
34 128 1
50 128 1
80 128 1
102 128 1
35 129 1
51 129 1
81 129 1
103 129 1
36 130 1
52 130 1
82 130 1
104 130 1
53 131 1
63 131 1
79 131 1
86 131 1
54 132 1
64 132 1
80 132 1
87 132 1
55 133 1
65 133 1
81 133 1
88 133 1
56 134 1
66 134 1
82 134 1
89 134 1
57 135 1
67 135 1
83 135 1
90 135 1
58 136 1
68 136 1
84 136 1
91 136 1
59 137 1
69 137 1
85 137 1
92 137 1
60 138 1
70 138 1
86 138 1
93 138 1
61 139 1
71 139 1
87 139 1
94 139 1
62 140 1
72 140 1
88 140 1
95 140 1
63 141 1
73 141 1
89 141 1
96 141 1
64 142 1
74 142 1
90 142 1
97 142 1
65 143 1
75 143 1
91 143 1
98 143 1
66 144 1
76 144 1
92 144 1
99 144 1
67 145 1
77 145 1
93 145 1
100 145 1
68 146 1
78 146 1
94 146 1
101 146 1
53 147 1
69 147 1
95 147 1
102 147 1
54 148 1
70 148 1
96 148 1
103 148 1
55 149 1
71 149 1
97 149 1
104 149 1
56 150 1
72 150 1
79 150 1
98 150 1
57 151 1
73 151 1
80 151 1
99 151 1
58 152 1
74 152 1
81 152 1
100 152 1
59 153 1
75 153 1
82 153 1
101 153 1
60 154 1
76 154 1
83 154 1
102 154 1
61 155 1
77 155 1
84 155 1
103 155 1
62 156 1
78 156 1
85 156 1
104 156 1
