%%MatrixMarket matrix coordinate integer general
% Binary matrix; one-based indices; arithmetic over GF(2)
260 520 2080
1 1 1
8 1 1
53 1 1
54 1 1
2 2 1
9 2 1
54 2 1
55 2 1
3 3 1
10 3 1
55 3 1
56 3 1
4 4 1
11 4 1
56 4 1
57 4 1
5 5 1
12 5 1
57 5 1
58 5 1
6 6 1
13 6 1
58 6 1
59 6 1
7 7 1
14 7 1
59 7 1
60 7 1
8 8 1
15 8 1
60 8 1
61 8 1
9 9 1
16 9 1
61 9 1
62 9 1
10 10 1
17 10 1
62 10 1
63 10 1
11 11 1
18 11 1
63 11 1
64 11 1
12 12 1
19 12 1
64 12 1
65 12 1
13 13 1
20 13 1
65 13 1
66 13 1
14 14 1
21 14 1
66 14 1
67 14 1
15 15 1
22 15 1
67 15 1
68 15 1
16 16 1
23 16 1
68 16 1
69 16 1
17 17 1
24 17 1
69 17 1
70 17 1
18 18 1
25 18 1
70 18 1
71 18 1
19 19 1
26 19 1
71 19 1
72 19 1
20 20 1
27 20 1
72 20 1
73 20 1
21 21 1
28 21 1
73 21 1
74 21 1
22 22 1
29 22 1
74 22 1
75 22 1
23 23 1
30 23 1
75 23 1
76 23 1
24 24 1
31 24 1
76 24 1
77 24 1
25 25 1
32 25 1
77 25 1
78 25 1
26 26 1
33 26 1
78 26 1
79 26 1
27 27 1
34 27 1
79 27 1
80 27 1
28 28 1
35 28 1
80 28 1
81 28 1
29 29 1
36 29 1
81 29 1
82 29 1
30 30 1
37 30 1
82 30 1
83 30 1
31 31 1
38 31 1
83 31 1
84 31 1
32 32 1
39 32 1
84 32 1
85 32 1
33 33 1
40 33 1
85 33 1
86 33 1
34 34 1
41 34 1
86 34 1
87 34 1
35 35 1
42 35 1
87 35 1
88 35 1
36 36 1
43 36 1
88 36 1
89 36 1
37 37 1
44 37 1
89 37 1
90 37 1
38 38 1
45 38 1
90 38 1
91 38 1
39 39 1
46 39 1
91 39 1
92 39 1
40 40 1
47 40 1
92 40 1
93 40 1
41 41 1
48 41 1
93 41 1
94 41 1
42 42 1
49 42 1
94 42 1
95 42 1
43 43 1
50 43 1
95 43 1
96 43 1
44 44 1
51 44 1
96 44 1
97 44 1
45 45 1
52 45 1
97 45 1
98 45 1
1 46 1
46 46 1
98 46 1
99 46 1
2 47 1
47 47 1
99 47 1
100 47 1
3 48 1
48 48 1
100 48 1
101 48 1
4 49 1
49 49 1
101 49 1
102 49 1
5 50 1
50 50 1
102 50 1
103 50 1
6 51 1
51 51 1
103 51 1
104 51 1
7 52 1
52 52 1
53 52 1
104 52 1
1 53 1
14 53 1
105 53 1
106 53 1
2 54 1
15 54 1
106 54 1
107 54 1
3 55 1
16 55 1
107 55 1
108 55 1
4 56 1
17 56 1
108 56 1
109 56 1
5 57 1
18 57 1
109 57 1
110 57 1
6 58 1
19 58 1
110 58 1
111 58 1
7 59 1
20 59 1
111 59 1
112 59 1
8 60 1
21 60 1
112 60 1
113 60 1
9 61 1
22 61 1
113 61 1
114 61 1
10 62 1
23 62 1
114 62 1
115 62 1
11 63 1
24 63 1
115 63 1
116 63 1
12 64 1
25 64 1
116 64 1
117 64 1
13 65 1
26 65 1
117 65 1
118 65 1
14 66 1
27 66 1
118 66 1
119 66 1
15 67 1
28 67 1
119 67 1
120 67 1
16 68 1
29 68 1
120 68 1
121 68 1
17 69 1
30 69 1
121 69 1
122 69 1
18 70 1
31 70 1
122 70 1
123 70 1
19 71 1
32 71 1
123 71 1
124 71 1
20 72 1
33 72 1
124 72 1
125 72 1
21 73 1
34 73 1
125 73 1
126 73 1
22 74 1
35 74 1
126 74 1
127 74 1
23 75 1
36 75 1
127 75 1
128 75 1
24 76 1
37 76 1
128 76 1
129 76 1
25 77 1
38 77 1
129 77 1
130 77 1
26 78 1
39 78 1
130 78 1
131 78 1
27 79 1
40 79 1
131 79 1
132 79 1
28 80 1
41 80 1
132 80 1
133 80 1
29 81 1
42 81 1
133 81 1
134 81 1
30 82 1
43 82 1
134 82 1
135 82 1
31 83 1
44 83 1
135 83 1
136 83 1
32 84 1
45 84 1
136 84 1
137 84 1
33 85 1
46 85 1
137 85 1
138 85 1
34 86 1
47 86 1
138 86 1
139 86 1
35 87 1
48 87 1
139 87 1
140 87 1
36 88 1
49 88 1
140 88 1
141 88 1
37 89 1
50 89 1
141 89 1
142 89 1
38 90 1
51 90 1
142 90 1
143 90 1
39 91 1
52 91 1
143 91 1
144 91 1
1 92 1
40 92 1
144 92 1
145 92 1
2 93 1
41 93 1
145 93 1
146 93 1
3 94 1
42 94 1
146 94 1
147 94 1
4 95 1
43 95 1
147 95 1
148 95 1
5 96 1
44 96 1
148 96 1
149 96 1
6 97 1
45 97 1
149 97 1
150 97 1
7 98 1
46 98 1
150 98 1
151 98 1
8 99 1
47 99 1
151 99 1
152 99 1
9 100 1
48 100 1
152 100 1
153 100 1
10 101 1
49 101 1
153 101 1
154 101 1
11 102 1
50 102 1
154 102 1
155 102 1
12 103 1
51 103 1
155 103 1
156 103 1
13 104 1
52 104 1
105 104 1
156 104 1
53 105 1
66 105 1
105 105 1
112 105 1
54 106 1
67 106 1
106 106 1
113 106 1
55 107 1
68 107 1
107 107 1
114 107 1
56 108 1
69 108 1
108 108 1
115 108 1
57 109 1
70 109 1
109 109 1
116 109 1
58 110 1
71 110 1
110 110 1
117 110 1
59 111 1
72 111 1
111 111 1
118 111 1
60 112 1
73 112 1
112 112 1
119 112 1
61 113 1
74 113 1
113 113 1
120 113 1
62 114 1
75 114 1
114 114 1
121 114 1
63 115 1
76 115 1
115 115 1
122 115 1
64 116 1
77 116 1
116 116 1
123 116 1
65 117 1
78 117 1
117 117 1
124 117 1
66 118 1
79 118 1
118 118 1
125 118 1
67 119 1
80 119 1
119 119 1
126 119 1
68 120 1
81 120 1
120 120 1
127 120 1
69 121 1
82 121 1
121 121 1
128 121 1
70 122 1
83 122 1
122 122 1
129 122 1
71 123 1
84 123 1
123 123 1
130 123 1
72 124 1
85 124 1
124 124 1
131 124 1
73 125 1
86 125 1
125 125 1
132 125 1
74 126 1
87 126 1
126 126 1
133 126 1
75 127 1
88 127 1
127 127 1
134 127 1
76 128 1
89 128 1
128 128 1
135 128 1
77 129 1
90 129 1
129 129 1
136 129 1
78 130 1
91 130 1
130 130 1
137 130 1
79 131 1
92 131 1
131 131 1
138 131 1
80 132 1
93 132 1
132 132 1
139 132 1
81 133 1
94 133 1
133 133 1
140 133 1
82 134 1
95 134 1
134 134 1
141 134 1
83 135 1
96 135 1
135 135 1
142 135 1
84 136 1
97 136 1
136 136 1
143 136 1
85 137 1
98 137 1
137 137 1
144 137 1
86 138 1
99 138 1
138 138 1
145 138 1
87 139 1
100 139 1
139 139 1
146 139 1
88 140 1
101 140 1
140 140 1
147 140 1
89 141 1
102 141 1
141 141 1
148 141 1
90 142 1
103 142 1
142 142 1
149 142 1
91 143 1
104 143 1
143 143 1
150 143 1
53 144 1
92 144 1
144 144 1
151 144 1
54 145 1
93 145 1
145 145 1
152 145 1
55 146 1
94 146 1
146 146 1
153 146 1
56 147 1
95 147 1
147 147 1
154 147 1
57 148 1
96 148 1
148 148 1
155 148 1
58 149 1
97 149 1
149 149 1
156 149 1
59 150 1
98 150 1
105 150 1
150 150 1
60 151 1
99 151 1
106 151 1
151 151 1
61 152 1
100 152 1
107 152 1
152 152 1
62 153 1
101 153 1
108 153 1
153 153 1
63 154 1
102 154 1
109 154 1
154 154 1
64 155 1
103 155 1
110 155 1
155 155 1
65 156 1
104 156 1
111 156 1
156 156 1
1 157 1
30 157 1
157 157 1
158 157 1
2 158 1
31 158 1
158 158 1
159 158 1
3 159 1
32 159 1
159 159 1
160 159 1
4 160 1
33 160 1
160 160 1
161 160 1
5 161 1
34 161 1
161 161 1
162 161 1
6 162 1
35 162 1
162 162 1
163 162 1
7 163 1
36 163 1
163 163 1
164 163 1
8 164 1
37 164 1
164 164 1
165 164 1
9 165 1
38 165 1
165 165 1
166 165 1
10 166 1
39 166 1
166 166 1
167 166 1
11 167 1
40 167 1
167 167 1
168 167 1
12 168 1
41 168 1
168 168 1
169 168 1
13 169 1
42 169 1
169 169 1
170 169 1
14 170 1
43 170 1
170 170 1
171 170 1
15 171 1
44 171 1
171 171 1
172 171 1
16 172 1
45 172 1
172 172 1
173 172 1
17 173 1
46 173 1
173 173 1
174 173 1
18 174 1
47 174 1
174 174 1
175 174 1
19 175 1
48 175 1
175 175 1
176 175 1
20 176 1
49 176 1
176 176 1
177 176 1
21 177 1
50 177 1
177 177 1
178 177 1
22 178 1
51 178 1
178 178 1
179 178 1
23 179 1
52 179 1
179 179 1
180 179 1
1 180 1
24 180 1
180 180 1
181 180 1
2 181 1
25 181 1
181 181 1
182 181 1
3 182 1
26 182 1
182 182 1
183 182 1
4 183 1
27 183 1
183 183 1
184 183 1
5 184 1
28 184 1
184 184 1
185 184 1
6 185 1
29 185 1
185 185 1
186 185 1
7 186 1
30 186 1
186 186 1
187 186 1
8 187 1
31 187 1
187 187 1
188 187 1
9 188 1
32 188 1
188 188 1
189 188 1
10 189 1
33 189 1
189 189 1
190 189 1
11 190 1
34 190 1
190 190 1
191 190 1
12 191 1
35 191 1
191 191 1
192 191 1
13 192 1
36 192 1
192 192 1
193 192 1
14 193 1
37 193 1
193 193 1
194 193 1
15 194 1
38 194 1
194 194 1
195 194 1
16 195 1
39 195 1
195 195 1
196 195 1
17 196 1
40 196 1
196 196 1
197 196 1
18 197 1
41 197 1
197 197 1
198 197 1
19 198 1
42 198 1
198 198 1
199 198 1
20 199 1
43 199 1
199 199 1
200 199 1
21 200 1
44 200 1
200 200 1
201 200 1
22 201 1
45 201 1
201 201 1
202 201 1
23 202 1
46 202 1
202 202 1
203 202 1
24 203 1
47 203 1
203 203 1
204 203 1
25 204 1
48 204 1
204 204 1
205 204 1
26 205 1
49 205 1
205 205 1
206 205 1
27 206 1
50 206 1
206 206 1
207 206 1
28 207 1
51 207 1
207 207 1
208 207 1
29 208 1
52 208 1
157 208 1
208 208 1
53 209 1
82 209 1
157 209 1
164 209 1
54 210 1
83 210 1
158 210 1
165 210 1
55 211 1
84 211 1
159 211 1
166 211 1
56 212 1
85 212 1
160 212 1
167 212 1
57 213 1
86 213 1
161 213 1
168 213 1
58 214 1
87 214 1
162 214 1
169 214 1
59 215 1
88 215 1
163 215 1
170 215 1
60 216 1
89 216 1
164 216 1
171 216 1
61 217 1
90 217 1
165 217 1
172 217 1
62 218 1
91 218 1
166 218 1
173 218 1
63 219 1
92 219 1
167 219 1
174 219 1
64 220 1
93 220 1
168 220 1
175 220 1
65 221 1
94 221 1
169 221 1
176 221 1
66 222 1
95 222 1
170 222 1
177 222 1
67 223 1
96 223 1
171 223 1
178 223 1
68 224 1
97 224 1
172 224 1
179 224 1
69 225 1
98 225 1
173 225 1
180 225 1
70 226 1
99 226 1
174 226 1
181 226 1
71 227 1
100 227 1
175 227 1
182 227 1
72 228 1
101 228 1
176 228 1
183 228 1
73 229 1
102 229 1
177 229 1
184 229 1
74 230 1
103 230 1
178 230 1
185 230 1
75 231 1
104 231 1
179 231 1
186 231 1
53 232 1
76 232 1
180 232 1
187 232 1
54 233 1
77 233 1
181 233 1
188 233 1
55 234 1
78 234 1
182 234 1
189 234 1
56 235 1
79 235 1
183 235 1
190 235 1
57 236 1
80 236 1
184 236 1
191 236 1
58 237 1
81 237 1
185 237 1
192 237 1
59 238 1
82 238 1
186 238 1
193 238 1
60 239 1
83 239 1
187 239 1
194 239 1
61 240 1
84 240 1
188 240 1
195 240 1
62 241 1
85 241 1
189 241 1
196 241 1
63 242 1
86 242 1
190 242 1
197 242 1
64 243 1
87 243 1
191 243 1
198 243 1
65 244 1
88 244 1
192 244 1
199 244 1
66 245 1
89 245 1
193 245 1
200 245 1
67 246 1
90 246 1
194 246 1
201 246 1
68 247 1
91 247 1
195 247 1
202 247 1
69 248 1
92 248 1
196 248 1
203 248 1
70 249 1
93 249 1
197 249 1
204 249 1
71 250 1
94 250 1
198 250 1
205 250 1
72 251 1
95 251 1
199 251 1
206 251 1
73 252 1
96 252 1
200 252 1
207 252 1
74 253 1
97 253 1
201 253 1
208 253 1
75 254 1
98 254 1
157 254 1
202 254 1
76 255 1
99 255 1
158 255 1
203 255 1
77 256 1
100 256 1
159 256 1
204 256 1
78 257 1
101 257 1
160 257 1
205 257 1
79 258 1
102 258 1
161 258 1
206 258 1
80 259 1
103 259 1
162 259 1
207 259 1
81 260 1
104 260 1
163 260 1
208 260 1
105 261 1
134 261 1
157 261 1
170 261 1
106 262 1
135 262 1
158 262 1
171 262 1
107 263 1
136 263 1
159 263 1
172 263 1
108 264 1
137 264 1
160 264 1
173 264 1
109 265 1
138 265 1
161 265 1
174 265 1
110 266 1
139 266 1
162 266 1
175 266 1
111 267 1
140 267 1
163 267 1
176 267 1
112 268 1
141 268 1
164 268 1
177 268 1
113 269 1
142 269 1
165 269 1
178 269 1
114 270 1
143 270 1
166 270 1
179 270 1
115 271 1
144 271 1
167 271 1
180 271 1
116 272 1
145 272 1
168 272 1
181 272 1
117 273 1
146 273 1
169 273 1
182 273 1
118 274 1
147 274 1
170 274 1
183 274 1
119 275 1
148 275 1
171 275 1
184 275 1
120 276 1
149 276 1
172 276 1
185 276 1
121 277 1
150 277 1
173 277 1
186 277 1
122 278 1
151 278 1
174 278 1
187 278 1
123 279 1
152 279 1
175 279 1
188 279 1
124 280 1
153 280 1
176 280 1
189 280 1
125 281 1
154 281 1
177 281 1
190 281 1
126 282 1
155 282 1
178 282 1
191 282 1
127 283 1
156 283 1
179 283 1
192 283 1
105 284 1
128 284 1
180 284 1
193 284 1
106 285 1
129 285 1
181 285 1
194 285 1
107 286 1
130 286 1
182 286 1
195 286 1
108 287 1
131 287 1
183 287 1
196 287 1
109 288 1
132 288 1
184 288 1
197 288 1
110 289 1
133 289 1
185 289 1
198 289 1
111 290 1
134 290 1
186 290 1
199 290 1
112 291 1
135 291 1
187 291 1
200 291 1
113 292 1
136 292 1
188 292 1
201 292 1
114 293 1
137 293 1
189 293 1
202 293 1
115 294 1
138 294 1
190 294 1
203 294 1
116 295 1
139 295 1
191 295 1
204 295 1
117 296 1
140 296 1
192 296 1
205 296 1
118 297 1
141 297 1
193 297 1
206 297 1
119 298 1
142 298 1
194 298 1
207 298 1
120 299 1
143 299 1
195 299 1
208 299 1
121 300 1
144 300 1
157 300 1
196 300 1
122 301 1
145 301 1
158 301 1
197 301 1
123 302 1
146 302 1
159 302 1
198 302 1
124 303 1
147 303 1
160 303 1
199 303 1
125 304 1
148 304 1
161 304 1
200 304 1
126 305 1
149 305 1
162 305 1
201 305 1
127 306 1
150 306 1
163 306 1
202 306 1
128 307 1
151 307 1
164 307 1
203 307 1
129 308 1
152 308 1
165 308 1
204 308 1
130 309 1
153 309 1
166 309 1
205 309 1
131 310 1
154 310 1
167 310 1
206 310 1
132 311 1
155 311 1
168 311 1
207 311 1
133 312 1
156 312 1
169 312 1
208 312 1
1 313 1
48 313 1
209 313 1
210 313 1
2 314 1
49 314 1
210 314 1
211 314 1
3 315 1
50 315 1
211 315 1
212 315 1
4 316 1
51 316 1
212 316 1
213 316 1
5 317 1
52 317 1
213 317 1
214 317 1
1 318 1
6 318 1
214 318 1
215 318 1
2 319 1
7 319 1
215 319 1
216 319 1
3 320 1
8 320 1
216 320 1
217 320 1
4 321 1
9 321 1
217 321 1
218 321 1
5 322 1
10 322 1
218 322 1
219 322 1
6 323 1
11 323 1
219 323 1
220 323 1
7 324 1
12 324 1
220 324 1
221 324 1
8 325 1
13 325 1
221 325 1
222 325 1
9 326 1
14 326 1
222 326 1
223 326 1
10 327 1
15 327 1
223 327 1
224 327 1
11 328 1
16 328 1
224 328 1
225 328 1
12 329 1
17 329 1
225 329 1
226 329 1
13 330 1
18 330 1
226 330 1
227 330 1
14 331 1
19 331 1
227 331 1
228 331 1
15 332 1
20 332 1
228 332 1
229 332 1
16 333 1
21 333 1
229 333 1
230 333 1
17 334 1
22 334 1
230 334 1
231 334 1
18 335 1
23 335 1
231 335 1
232 335 1
19 336 1
24 336 1
232 336 1
233 336 1
20 337 1
25 337 1
233 337 1
234 337 1
21 338 1
26 338 1
234 338 1
235 338 1
22 339 1
27 339 1
235 339 1
236 339 1
23 340 1
28 340 1
236 340 1
237 340 1
24 341 1
29 341 1
237 341 1
238 341 1
25 342 1
30 342 1
238 342 1
239 342 1
26 343 1
31 343 1
239 343 1
240 343 1
27 344 1
32 344 1
240 344 1
241 344 1
28 345 1
33 345 1
241 345 1
242 345 1
29 346 1
34 346 1
242 346 1
243 346 1
30 347 1
35 347 1
243 347 1
244 347 1
31 348 1
36 348 1
244 348 1
245 348 1
32 349 1
37 349 1
245 349 1
246 349 1
33 350 1
38 350 1
246 350 1
247 350 1
34 351 1
39 351 1
247 351 1
248 351 1
35 352 1
40 352 1
248 352 1
249 352 1
36 353 1
41 353 1
249 353 1
250 353 1
37 354 1
42 354 1
250 354 1
251 354 1
38 355 1
43 355 1
251 355 1
252 355 1
39 356 1
44 356 1
252 356 1
253 356 1
40 357 1
45 357 1
253 357 1
254 357 1
41 358 1
46 358 1
254 358 1
255 358 1
42 359 1
47 359 1
255 359 1
256 359 1
43 360 1
48 360 1
256 360 1
257 360 1
44 361 1
49 361 1
257 361 1
258 361 1
45 362 1
50 362 1
258 362 1
259 362 1
46 363 1
51 363 1
259 363 1
260 363 1
47 364 1
52 364 1
209 364 1
260 364 1
53 365 1
100 365 1
209 365 1
216 365 1
54 366 1
101 366 1
210 366 1
217 366 1
55 367 1
102 367 1
211 367 1
218 367 1
56 368 1
103 368 1
212 368 1
219 368 1
57 369 1
104 369 1
213 369 1
220 369 1
53 370 1
58 370 1
214 370 1
221 370 1
54 371 1
59 371 1
215 371 1
222 371 1
55 372 1
60 372 1
216 372 1
223 372 1
56 373 1
61 373 1
217 373 1
224 373 1
57 374 1
62 374 1
218 374 1
225 374 1
58 375 1
63 375 1
219 375 1
226 375 1
59 376 1
64 376 1
220 376 1
227 376 1
60 377 1
65 377 1
221 377 1
228 377 1
61 378 1
66 378 1
222 378 1
229 378 1
62 379 1
67 379 1
223 379 1
230 379 1
63 380 1
68 380 1
224 380 1
231 380 1
64 381 1
69 381 1
225 381 1
232 381 1
65 382 1
70 382 1
226 382 1
233 382 1
66 383 1
71 383 1
227 383 1
234 383 1
67 384 1
72 384 1
228 384 1
235 384 1
68 385 1
73 385 1
229 385 1
236 385 1
69 386 1
74 386 1
230 386 1
237 386 1
70 387 1
75 387 1
231 387 1
238 387 1
71 388 1
76 388 1
232 388 1
239 388 1
72 389 1
77 389 1
233 389 1
240 389 1
73 390 1
78 390 1
234 390 1
241 390 1
74 391 1
79 391 1
235 391 1
242 391 1
75 392 1
80 392 1
236 392 1
243 392 1
76 393 1
81 393 1
237 393 1
244 393 1
77 394 1
82 394 1
238 394 1
245 394 1
78 395 1
83 395 1
239 395 1
246 395 1
79 396 1
84 396 1
240 396 1
247 396 1
80 397 1
85 397 1
241 397 1
248 397 1
81 398 1
86 398 1
242 398 1
249 398 1
82 399 1
87 399 1
243 399 1
250 399 1
83 400 1
88 400 1
244 400 1
251 400 1
84 401 1
89 401 1
245 401 1
252 401 1
85 402 1
90 402 1
246 402 1
253 402 1
86 403 1
91 403 1
247 403 1
254 403 1
87 404 1
92 404 1
248 404 1
255 404 1
88 405 1
93 405 1
249 405 1
256 405 1
89 406 1
94 406 1
250 406 1
257 406 1
90 407 1
95 407 1
251 407 1
258 407 1
91 408 1
96 408 1
252 408 1
259 408 1
92 409 1
97 409 1
253 409 1
260 409 1
93 410 1
98 410 1
209 410 1
254 410 1
94 411 1
99 411 1
210 411 1
255 411 1
95 412 1
100 412 1
211 412 1
256 412 1
96 413 1
101 413 1
212 413 1
257 413 1
97 414 1
102 414 1
213 414 1
258 414 1
98 415 1
103 415 1
214 415 1
259 415 1
99 416 1
104 416 1
215 416 1
260 416 1
105 417 1
152 417 1
209 417 1
222 417 1
106 418 1
153 418 1
210 418 1
223 418 1
107 419 1
154 419 1
211 419 1
224 419 1
108 420 1
155 420 1
212 420 1
225 420 1
109 421 1
156 421 1
213 421 1
226 421 1
105 422 1
110 422 1
214 422 1
227 422 1
106 423 1
111 423 1
215 423 1
228 423 1
107 424 1
112 424 1
216 424 1
229 424 1
108 425 1
113 425 1
217 425 1
230 425 1
109 426 1
114 426 1
218 426 1
231 426 1
110 427 1
115 427 1
219 427 1
232 427 1
111 428 1
116 428 1
220 428 1
233 428 1
112 429 1
117 429 1
221 429 1
234 429 1
113 430 1
118 430 1
222 430 1
235 430 1
114 431 1
119 431 1
223 431 1
236 431 1
115 432 1
120 432 1
224 432 1
237 432 1
116 433 1
121 433 1
225 433 1
238 433 1
117 434 1
122 434 1
226 434 1
239 434 1
118 435 1
123 435 1
227 435 1
240 435 1
119 436 1
124 436 1
228 436 1
241 436 1
120 437 1
125 437 1
229 437 1
242 437 1
121 438 1
126 438 1
230 438 1
243 438 1
122 439 1
127 439 1
231 439 1
244 439 1
123 440 1
128 440 1
232 440 1
245 440 1
124 441 1
129 441 1
233 441 1
246 441 1
125 442 1
130 442 1
234 442 1
247 442 1
126 443 1
131 443 1
235 443 1
248 443 1
127 444 1
132 444 1
236 444 1
249 444 1
128 445 1
133 445 1
237 445 1
250 445 1
129 446 1
134 446 1
238 446 1
251 446 1
130 447 1
135 447 1
239 447 1
252 447 1
131 448 1
136 448 1
240 448 1
253 448 1
132 449 1
137 449 1
241 449 1
254 449 1
133 450 1
138 450 1
242 450 1
255 450 1
134 451 1
139 451 1
243 451 1
256 451 1
135 452 1
140 452 1
244 452 1
257 452 1
136 453 1
141 453 1
245 453 1
258 453 1
137 454 1
142 454 1
246 454 1
259 454 1
138 455 1
143 455 1
247 455 1
260 455 1
139 456 1
144 456 1
209 456 1
248 456 1
140 457 1
145 457 1
210 457 1
249 457 1
141 458 1
146 458 1
211 458 1
250 458 1
142 459 1
147 459 1
212 459 1
251 459 1
143 460 1
148 460 1
213 460 1
252 460 1
144 461 1
149 461 1
214 461 1
253 461 1
145 462 1
150 462 1
215 462 1
254 462 1
146 463 1
151 463 1
216 463 1
255 463 1
147 464 1
152 464 1
217 464 1
256 464 1
148 465 1
153 465 1
218 465 1
257 465 1
149 466 1
154 466 1
219 466 1
258 466 1
150 467 1
155 467 1
220 467 1
259 467 1
151 468 1
156 468 1
221 468 1
260 468 1
157 469 1
204 469 1
209 469 1
238 469 1
158 470 1
205 470 1
210 470 1
239 470 1
159 471 1
206 471 1
211 471 1
240 471 1
160 472 1
207 472 1
212 472 1
241 472 1
161 473 1
208 473 1
213 473 1
242 473 1
157 474 1
162 474 1
214 474 1
243 474 1
158 475 1
163 475 1
215 475 1
244 475 1
159 476 1
164 476 1
216 476 1
245 476 1
160 477 1
165 477 1
217 477 1
246 477 1
161 478 1
166 478 1
218 478 1
247 478 1
162 479 1
167 479 1
219 479 1
248 479 1
163 480 1
168 480 1
220 480 1
249 480 1
164 481 1
169 481 1
221 481 1
250 481 1
165 482 1
170 482 1
222 482 1
251 482 1
166 483 1
171 483 1
223 483 1
252 483 1
167 484 1
172 484 1
224 484 1
253 484 1
168 485 1
173 485 1
225 485 1
254 485 1
169 486 1
174 486 1
226 486 1
255 486 1
170 487 1
175 487 1
227 487 1
256 487 1
171 488 1
176 488 1
228 488 1
257 488 1
172 489 1
177 489 1
229 489 1
258 489 1
173 490 1
178 490 1
230 490 1
259 490 1
174 491 1
179 491 1
231 491 1
260 491 1
175 492 1
180 492 1
209 492 1
232 492 1
176 493 1
181 493 1
210 493 1
233 493 1
177 494 1
182 494 1
211 494 1
234 494 1
178 495 1
183 495 1
212 495 1
235 495 1
179 496 1
184 496 1
213 496 1
236 496 1
180 497 1
185 497 1
214 497 1
237 497 1
181 498 1
186 498 1
215 498 1
238 498 1
182 499 1
187 499 1
216 499 1
239 499 1
183 500 1
188 500 1
217 500 1
240 500 1
184 501 1
189 501 1
218 501 1
241 501 1
185 502 1
190 502 1
219 502 1
242 502 1
186 503 1
191 503 1
220 503 1
243 503 1
187 504 1
192 504 1
221 504 1
244 504 1
188 505 1
193 505 1
222 505 1
245 505 1
189 506 1
194 506 1
223 506 1
246 506 1
190 507 1
195 507 1
224 507 1
247 507 1
191 508 1
196 508 1
225 508 1
248 508 1
192 509 1
197 509 1
226 509 1
249 509 1
193 510 1
198 510 1
227 510 1
250 510 1
194 511 1
199 511 1
228 511 1
251 511 1
195 512 1
200 512 1
229 512 1
252 512 1
196 513 1
201 513 1
230 513 1
253 513 1
197 514 1
202 514 1
231 514 1
254 514 1
198 515 1
203 515 1
232 515 1
255 515 1
199 516 1
204 516 1
233 516 1
256 516 1
200 517 1
205 517 1
234 517 1
257 517 1
201 518 1
206 518 1
235 518 1
258 518 1
202 519 1
207 519 1
236 519 1
259 519 1
203 520 1
208 520 1
237 520 1
260 520 1
