%%MatrixMarket matrix coordinate integer general
% Binary matrix; one-based indices; arithmetic over GF(2)
150 150 900
1 1 1
12 1 1
16 1 1
24 1 1
61 1 1
66 1 1
2 2 1
13 2 1
17 2 1
25 2 1
62 2 1
67 2 1
3 3 1
14 3 1
18 3 1
26 3 1
63 3 1
68 3 1
4 4 1
15 4 1
19 4 1
27 4 1
64 4 1
69 4 1
1 5 1
5 5 1
20 5 1
28 5 1
65 5 1
70 5 1
2 6 1
6 6 1
21 6 1
29 6 1
66 6 1
71 6 1
3 7 1
7 7 1
22 7 1
30 7 1
67 7 1
72 7 1
4 8 1
8 8 1
16 8 1
23 8 1
68 8 1
73 8 1
5 9 1
9 9 1
17 9 1
24 9 1
69 9 1
74 9 1
6 10 1
10 10 1
18 10 1
25 10 1
70 10 1
75 10 1
7 11 1
11 11 1
19 11 1
26 11 1
61 11 1
71 11 1
8 12 1
12 12 1
20 12 1
27 12 1
62 12 1
72 12 1
9 13 1
13 13 1
21 13 1
28 13 1
63 13 1
73 13 1
10 14 1
14 14 1
22 14 1
29 14 1
64 14 1
74 14 1
11 15 1
15 15 1
23 15 1
30 15 1
65 15 1
75 15 1
1 16 1
14 16 1
31 16 1
39 16 1
76 16 1
81 16 1
2 17 1
15 17 1
32 17 1
40 17 1
77 17 1
82 17 1
1 18 1
3 18 1
33 18 1
41 18 1
78 18 1
83 18 1
2 19 1
4 19 1
34 19 1
42 19 1
79 19 1
84 19 1
3 20 1
5 20 1
35 20 1
43 20 1
80 20 1
85 20 1
4 21 1
6 21 1
36 21 1
44 21 1
81 21 1
86 21 1
5 22 1
7 22 1
37 22 1
45 22 1
82 22 1
87 22 1
6 23 1
8 23 1
31 23 1
38 23 1
83 23 1
88 23 1
7 24 1
9 24 1
32 24 1
39 24 1
84 24 1
89 24 1
8 25 1
10 25 1
33 25 1
40 25 1
85 25 1
90 25 1
9 26 1
11 26 1
34 26 1
41 26 1
76 26 1
86 26 1
10 27 1
12 27 1
35 27 1
42 27 1
77 27 1
87 27 1
11 28 1
13 28 1
36 28 1
43 28 1
78 28 1
88 28 1
12 29 1
14 29 1
37 29 1
44 29 1
79 29 1
89 29 1
13 30 1
15 30 1
38 30 1
45 30 1
80 30 1
90 30 1
1 31 1
15 31 1
46 31 1
54 31 1
91 31 1
96 31 1
1 32 1
2 32 1
47 32 1
55 32 1
92 32 1
97 32 1
2 33 1
3 33 1
48 33 1
56 33 1
93 33 1
98 33 1
3 34 1
4 34 1
49 34 1
57 34 1
94 34 1
99 34 1
4 35 1
5 35 1
50 35 1
58 35 1
95 35 1
100 35 1
5 36 1
6 36 1
51 36 1
59 36 1
96 36 1
101 36 1
6 37 1
7 37 1
52 37 1
60 37 1
97 37 1
102 37 1
7 38 1
8 38 1
46 38 1
53 38 1
98 38 1
103 38 1
8 39 1
9 39 1
47 39 1
54 39 1
99 39 1
104 39 1
9 40 1
10 40 1
48 40 1
55 40 1
100 40 1
105 40 1
10 41 1
11 41 1
49 41 1
56 41 1
91 41 1
101 41 1
11 42 1
12 42 1
50 42 1
57 42 1
92 42 1
102 42 1
12 43 1
13 43 1
51 43 1
58 43 1
93 43 1
103 43 1
13 44 1
14 44 1
52 44 1
59 44 1
94 44 1
104 44 1
14 45 1
15 45 1
53 45 1
60 45 1
95 45 1
105 45 1
16 46 1
29 46 1
31 46 1
42 46 1
106 46 1
111 46 1
17 47 1
30 47 1
32 47 1
43 47 1
107 47 1
112 47 1
16 48 1
18 48 1
33 48 1
44 48 1
108 48 1
113 48 1
17 49 1
19 49 1
34 49 1
45 49 1
109 49 1
114 49 1
18 50 1
20 50 1
31 50 1
35 50 1
110 50 1
115 50 1
19 51 1
21 51 1
32 51 1
36 51 1
111 51 1
116 51 1
20 52 1
22 52 1
33 52 1
37 52 1
112 52 1
117 52 1
21 53 1
23 53 1
34 53 1
38 53 1
113 53 1
118 53 1
22 54 1
24 54 1
35 54 1
39 54 1
114 54 1
119 54 1
23 55 1
25 55 1
36 55 1
40 55 1
115 55 1
120 55 1
24 56 1
26 56 1
37 56 1
41 56 1
106 56 1
116 56 1
25 57 1
27 57 1
38 57 1
42 57 1
107 57 1
117 57 1
26 58 1
28 58 1
39 58 1
43 58 1
108 58 1
118 58 1
27 59 1
29 59 1
40 59 1
44 59 1
109 59 1
119 59 1
28 60 1
30 60 1
41 60 1
45 60 1
110 60 1
120 60 1
16 61 1
30 61 1
46 61 1
57 61 1
121 61 1
126 61 1
16 62 1
17 62 1
47 62 1
58 62 1
122 62 1
127 62 1
17 63 1
18 63 1
48 63 1
59 63 1
123 63 1
128 63 1
18 64 1
19 64 1
49 64 1
60 64 1
124 64 1
129 64 1
19 65 1
20 65 1
46 65 1
50 65 1
125 65 1
130 65 1
20 66 1
21 66 1
47 66 1
51 66 1
126 66 1
131 66 1
21 67 1
22 67 1
48 67 1
52 67 1
127 67 1
132 67 1
22 68 1
23 68 1
49 68 1
53 68 1
128 68 1
133 68 1
23 69 1
24 69 1
50 69 1
54 69 1
129 69 1
134 69 1
24 70 1
25 70 1
51 70 1
55 70 1
130 70 1
135 70 1
25 71 1
26 71 1
52 71 1
56 71 1
121 71 1
131 71 1
26 72 1
27 72 1
53 72 1
57 72 1
122 72 1
132 72 1
27 73 1
28 73 1
54 73 1
58 73 1
123 73 1
133 73 1
28 74 1
29 74 1
55 74 1
59 74 1
124 74 1
134 74 1
29 75 1
30 75 1
56 75 1
60 75 1
125 75 1
135 75 1
31 76 1
45 76 1
46 76 1
59 76 1
136 76 1
141 76 1
31 77 1
32 77 1
47 77 1
60 77 1
137 77 1
142 77 1
32 78 1
33 78 1
46 78 1
48 78 1
138 78 1
143 78 1
33 79 1
34 79 1
47 79 1
49 79 1
139 79 1
144 79 1
34 80 1
35 80 1
48 80 1
50 80 1
140 80 1
145 80 1
35 81 1
36 81 1
49 81 1
51 81 1
141 81 1
146 81 1
36 82 1
37 82 1
50 82 1
52 82 1
142 82 1
147 82 1
37 83 1
38 83 1
51 83 1
53 83 1
143 83 1
148 83 1
38 84 1
39 84 1
52 84 1
54 84 1
144 84 1
149 84 1
39 85 1
40 85 1
53 85 1
55 85 1
145 85 1
150 85 1
40 86 1
41 86 1
54 86 1
56 86 1
136 86 1
146 86 1
41 87 1
42 87 1
55 87 1
57 87 1
137 87 1
147 87 1
42 88 1
43 88 1
56 88 1
58 88 1
138 88 1
148 88 1
43 89 1
44 89 1
57 89 1
59 89 1
139 89 1
149 89 1
44 90 1
45 90 1
58 90 1
60 90 1
140 90 1
150 90 1
61 91 1
74 91 1
76 91 1
87 91 1
106 91 1
114 91 1
62 92 1
75 92 1
77 92 1
88 92 1
107 92 1
115 92 1
61 93 1
63 93 1
78 93 1
89 93 1
108 93 1
116 93 1
62 94 1
64 94 1
79 94 1
90 94 1
109 94 1
117 94 1
63 95 1
65 95 1
76 95 1
80 95 1
110 95 1
118 95 1
64 96 1
66 96 1
77 96 1
81 96 1
111 96 1
119 96 1
65 97 1
67 97 1
78 97 1
82 97 1
112 97 1
120 97 1
66 98 1
68 98 1
79 98 1
83 98 1
106 98 1
113 98 1
67 99 1
69 99 1
80 99 1
84 99 1
107 99 1
114 99 1
68 100 1
70 100 1
81 100 1
85 100 1
108 100 1
115 100 1
69 101 1
71 101 1
82 101 1
86 101 1
109 101 1
116 101 1
70 102 1
72 102 1
83 102 1
87 102 1
110 102 1
117 102 1
71 103 1
73 103 1
84 103 1
88 103 1
111 103 1
118 103 1
72 104 1
74 104 1
85 104 1
89 104 1
112 104 1
119 104 1
73 105 1
75 105 1
86 105 1
90 105 1
113 105 1
120 105 1
61 106 1
75 106 1
91 106 1
102 106 1
121 106 1
129 106 1
61 107 1
62 107 1
92 107 1
103 107 1
122 107 1
130 107 1
62 108 1
63 108 1
93 108 1
104 108 1
123 108 1
131 108 1
63 109 1
64 109 1
94 109 1
105 109 1
124 109 1
132 109 1
64 110 1
65 110 1
91 110 1
95 110 1
125 110 1
133 110 1
65 111 1
66 111 1
92 111 1
96 111 1
126 111 1
134 111 1
66 112 1
67 112 1
93 112 1
97 112 1
127 112 1
135 112 1
67 113 1
68 113 1
94 113 1
98 113 1
121 113 1
128 113 1
68 114 1
69 114 1
95 114 1
99 114 1
122 114 1
129 114 1
69 115 1
70 115 1
96 115 1
100 115 1
123 115 1
130 115 1
70 116 1
71 116 1
97 116 1
101 116 1
124 116 1
131 116 1
71 117 1
72 117 1
98 117 1
102 117 1
125 117 1
132 117 1
72 118 1
73 118 1
99 118 1
103 118 1
126 118 1
133 118 1
73 119 1
74 119 1
100 119 1
104 119 1
127 119 1
134 119 1
74 120 1
75 120 1
101 120 1
105 120 1
128 120 1
135 120 1
76 121 1
90 121 1
91 121 1
104 121 1
136 121 1
144 121 1
76 122 1
77 122 1
92 122 1
105 122 1
137 122 1
145 122 1
77 123 1
78 123 1
91 123 1
93 123 1
138 123 1
146 123 1
78 124 1
79 124 1
92 124 1
94 124 1
139 124 1
147 124 1
79 125 1
80 125 1
93 125 1
95 125 1
140 125 1
148 125 1
80 126 1
81 126 1
94 126 1
96 126 1
141 126 1
149 126 1
81 127 1
82 127 1
95 127 1
97 127 1
142 127 1
150 127 1
82 128 1
83 128 1
96 128 1
98 128 1
136 128 1
143 128 1
83 129 1
84 129 1
97 129 1
99 129 1
137 129 1
144 129 1
84 130 1
85 130 1
98 130 1
100 130 1
138 130 1
145 130 1
85 131 1
86 131 1
99 131 1
101 131 1
139 131 1
146 131 1
86 132 1
87 132 1
100 132 1
102 132 1
140 132 1
147 132 1
87 133 1
88 133 1
101 133 1
103 133 1
141 133 1
148 133 1
88 134 1
89 134 1
102 134 1
104 134 1
142 134 1
149 134 1
89 135 1
90 135 1
103 135 1
105 135 1
143 135 1
150 135 1
106 136 1
120 136 1
121 136 1
134 136 1
136 136 1
147 136 1
106 137 1
107 137 1
122 137 1
135 137 1
137 137 1
148 137 1
107 138 1
108 138 1
121 138 1
123 138 1
138 138 1
149 138 1
108 139 1
109 139 1
122 139 1
124 139 1
139 139 1
150 139 1
109 140 1
110 140 1
123 140 1
125 140 1
136 140 1
140 140 1
110 141 1
111 141 1
124 141 1
126 141 1
137 141 1
141 141 1
111 142 1
112 142 1
125 142 1
127 142 1
138 142 1
142 142 1
112 143 1
113 143 1
126 143 1
128 143 1
139 143 1
143 143 1
113 144 1
114 144 1
127 144 1
129 144 1
140 144 1
144 144 1
114 145 1
115 145 1
128 145 1
130 145 1
141 145 1
145 145 1
115 146 1
116 146 1
129 146 1
131 146 1
142 146 1
146 146 1
116 147 1
117 147 1
130 147 1
132 147 1
143 147 1
147 147 1
117 148 1
118 148 1
131 148 1
133 148 1
144 148 1
148 148 1
118 149 1
119 149 1
132 149 1
134 149 1
145 149 1
149 149 1
119 150 1
120 150 1
133 150 1
135 150 1
146 150 1
150 150 1
