%%MatrixMarket matrix coordinate integer general
% Binary matrix; one-based indices; arithmetic over GF(2)
460 920 3680
1 1 1
44 1 1
93 1 1
133 1 1
2 2 1
45 2 1
94 2 1
134 2 1
3 3 1
46 3 1
95 3 1
135 3 1
4 4 1
47 4 1
96 4 1
136 4 1
5 5 1
48 5 1
97 5 1
137 5 1
6 6 1
49 6 1
98 6 1
138 6 1
7 7 1
50 7 1
99 7 1
139 7 1
8 8 1
51 8 1
100 8 1
140 8 1
9 9 1
52 9 1
101 9 1
141 9 1
10 10 1
53 10 1
102 10 1
142 10 1
11 11 1
54 11 1
103 11 1
143 11 1
12 12 1
55 12 1
104 12 1
144 12 1
13 13 1
56 13 1
105 13 1
145 13 1
14 14 1
57 14 1
106 14 1
146 14 1
15 15 1
58 15 1
107 15 1
147 15 1
16 16 1
59 16 1
108 16 1
148 16 1
17 17 1
60 17 1
109 17 1
149 17 1
18 18 1
61 18 1
110 18 1
150 18 1
19 19 1
62 19 1
111 19 1
151 19 1
20 20 1
63 20 1
112 20 1
152 20 1
21 21 1
64 21 1
113 21 1
153 21 1
22 22 1
65 22 1
114 22 1
154 22 1
23 23 1
66 23 1
115 23 1
155 23 1
24 24 1
67 24 1
116 24 1
156 24 1
25 25 1
68 25 1
117 25 1
157 25 1
26 26 1
69 26 1
118 26 1
158 26 1
27 27 1
70 27 1
119 27 1
159 27 1
28 28 1
71 28 1
120 28 1
160 28 1
29 29 1
72 29 1
121 29 1
161 29 1
30 30 1
73 30 1
122 30 1
162 30 1
31 31 1
74 31 1
123 31 1
163 31 1
32 32 1
75 32 1
124 32 1
164 32 1
33 33 1
76 33 1
125 33 1
165 33 1
34 34 1
77 34 1
126 34 1
166 34 1
35 35 1
78 35 1
127 35 1
167 35 1
36 36 1
79 36 1
128 36 1
168 36 1
37 37 1
80 37 1
129 37 1
169 37 1
38 38 1
81 38 1
130 38 1
170 38 1
39 39 1
82 39 1
131 39 1
171 39 1
40 40 1
83 40 1
132 40 1
172 40 1
41 41 1
84 41 1
133 41 1
173 41 1
42 42 1
85 42 1
134 42 1
174 42 1
43 43 1
86 43 1
135 43 1
175 43 1
44 44 1
87 44 1
136 44 1
176 44 1
45 45 1
88 45 1
137 45 1
177 45 1
46 46 1
89 46 1
138 46 1
178 46 1
47 47 1
90 47 1
139 47 1
179 47 1
48 48 1
91 48 1
140 48 1
180 48 1
49 49 1
92 49 1
141 49 1
181 49 1
1 50 1
50 50 1
142 50 1
182 50 1
2 51 1
51 51 1
143 51 1
183 51 1
3 52 1
52 52 1
144 52 1
184 52 1
4 53 1
53 53 1
93 53 1
145 53 1
5 54 1
54 54 1
94 54 1
146 54 1
6 55 1
55 55 1
95 55 1
147 55 1
7 56 1
56 56 1
96 56 1
148 56 1
8 57 1
57 57 1
97 57 1
149 57 1
9 58 1
58 58 1
98 58 1
150 58 1
10 59 1
59 59 1
99 59 1
151 59 1
11 60 1
60 60 1
100 60 1
152 60 1
12 61 1
61 61 1
101 61 1
153 61 1
13 62 1
62 62 1
102 62 1
154 62 1
14 63 1
63 63 1
103 63 1
155 63 1
15 64 1
64 64 1
104 64 1
156 64 1
16 65 1
65 65 1
105 65 1
157 65 1
17 66 1
66 66 1
106 66 1
158 66 1
18 67 1
67 67 1
107 67 1
159 67 1
19 68 1
68 68 1
108 68 1
160 68 1
20 69 1
69 69 1
109 69 1
161 69 1
21 70 1
70 70 1
110 70 1
162 70 1
22 71 1
71 71 1
111 71 1
163 71 1
23 72 1
72 72 1
112 72 1
164 72 1
24 73 1
73 73 1
113 73 1
165 73 1
25 74 1
74 74 1
114 74 1
166 74 1
26 75 1
75 75 1
115 75 1
167 75 1
27 76 1
76 76 1
116 76 1
168 76 1
28 77 1
77 77 1
117 77 1
169 77 1
29 78 1
78 78 1
118 78 1
170 78 1
30 79 1
79 79 1
119 79 1
171 79 1
31 80 1
80 80 1
120 80 1
172 80 1
32 81 1
81 81 1
121 81 1
173 81 1
33 82 1
82 82 1
122 82 1
174 82 1
34 83 1
83 83 1
123 83 1
175 83 1
35 84 1
84 84 1
124 84 1
176 84 1
36 85 1
85 85 1
125 85 1
177 85 1
37 86 1
86 86 1
126 86 1
178 86 1
38 87 1
87 87 1
127 87 1
179 87 1
39 88 1
88 88 1
128 88 1
180 88 1
40 89 1
89 89 1
129 89 1
181 89 1
41 90 1
90 90 1
130 90 1
182 90 1
42 91 1
91 91 1
131 91 1
183 91 1
43 92 1
92 92 1
132 92 1
184 92 1
1 93 1
56 93 1
185 93 1
225 93 1
2 94 1
57 94 1
186 94 1
226 94 1
3 95 1
58 95 1
187 95 1
227 95 1
4 96 1
59 96 1
188 96 1
228 96 1
5 97 1
60 97 1
189 97 1
229 97 1
6 98 1
61 98 1
190 98 1
230 98 1
7 99 1
62 99 1
191 99 1
231 99 1
8 100 1
63 100 1
192 100 1
232 100 1
9 101 1
64 101 1
193 101 1
233 101 1
10 102 1
65 102 1
194 102 1
234 102 1
11 103 1
66 103 1
195 103 1
235 103 1
12 104 1
67 104 1
196 104 1
236 104 1
13 105 1
68 105 1
197 105 1
237 105 1
14 106 1
69 106 1
198 106 1
238 106 1
15 107 1
70 107 1
199 107 1
239 107 1
16 108 1
71 108 1
200 108 1
240 108 1
17 109 1
72 109 1
201 109 1
241 109 1
18 110 1
73 110 1
202 110 1
242 110 1
19 111 1
74 111 1
203 111 1
243 111 1
20 112 1
75 112 1
204 112 1
244 112 1
21 113 1
76 113 1
205 113 1
245 113 1
22 114 1
77 114 1
206 114 1
246 114 1
23 115 1
78 115 1
207 115 1
247 115 1
24 116 1
79 116 1
208 116 1
248 116 1
25 117 1
80 117 1
209 117 1
249 117 1
26 118 1
81 118 1
210 118 1
250 118 1
27 119 1
82 119 1
211 119 1
251 119 1
28 120 1
83 120 1
212 120 1
252 120 1
29 121 1
84 121 1
213 121 1
253 121 1
30 122 1
85 122 1
214 122 1
254 122 1
31 123 1
86 123 1
215 123 1
255 123 1
32 124 1
87 124 1
216 124 1
256 124 1
33 125 1
88 125 1
217 125 1
257 125 1
34 126 1
89 126 1
218 126 1
258 126 1
35 127 1
90 127 1
219 127 1
259 127 1
36 128 1
91 128 1
220 128 1
260 128 1
37 129 1
92 129 1
221 129 1
261 129 1
1 130 1
38 130 1
222 130 1
262 130 1
2 131 1
39 131 1
223 131 1
263 131 1
3 132 1
40 132 1
224 132 1
264 132 1
4 133 1
41 133 1
225 133 1
265 133 1
5 134 1
42 134 1
226 134 1
266 134 1
6 135 1
43 135 1
227 135 1
267 135 1
7 136 1
44 136 1
228 136 1
268 136 1
8 137 1
45 137 1
229 137 1
269 137 1
9 138 1
46 138 1
230 138 1
270 138 1
10 139 1
47 139 1
231 139 1
271 139 1
11 140 1
48 140 1
232 140 1
272 140 1
12 141 1
49 141 1
233 141 1
273 141 1
13 142 1
50 142 1
234 142 1
274 142 1
14 143 1
51 143 1
235 143 1
275 143 1
15 144 1
52 144 1
236 144 1
276 144 1
16 145 1
53 145 1
185 145 1
237 145 1
17 146 1
54 146 1
186 146 1
238 146 1
18 147 1
55 147 1
187 147 1
239 147 1
19 148 1
56 148 1
188 148 1
240 148 1
20 149 1
57 149 1
189 149 1
241 149 1
21 150 1
58 150 1
190 150 1
242 150 1
22 151 1
59 151 1
191 151 1
243 151 1
23 152 1
60 152 1
192 152 1
244 152 1
24 153 1
61 153 1
193 153 1
245 153 1
25 154 1
62 154 1
194 154 1
246 154 1
26 155 1
63 155 1
195 155 1
247 155 1
27 156 1
64 156 1
196 156 1
248 156 1
28 157 1
65 157 1
197 157 1
249 157 1
29 158 1
66 158 1
198 158 1
250 158 1
30 159 1
67 159 1
199 159 1
251 159 1
31 160 1
68 160 1
200 160 1
252 160 1
32 161 1
69 161 1
201 161 1
253 161 1
33 162 1
70 162 1
202 162 1
254 162 1
34 163 1
71 163 1
203 163 1
255 163 1
35 164 1
72 164 1
204 164 1
256 164 1
36 165 1
73 165 1
205 165 1
257 165 1
37 166 1
74 166 1
206 166 1
258 166 1
38 167 1
75 167 1
207 167 1
259 167 1
39 168 1
76 168 1
208 168 1
260 168 1
40 169 1
77 169 1
209 169 1
261 169 1
41 170 1
78 170 1
210 170 1
262 170 1
42 171 1
79 171 1
211 171 1
263 171 1
43 172 1
80 172 1
212 172 1
264 172 1
44 173 1
81 173 1
213 173 1
265 173 1
45 174 1
82 174 1
214 174 1
266 174 1
46 175 1
83 175 1
215 175 1
267 175 1
47 176 1
84 176 1
216 176 1
268 176 1
48 177 1
85 177 1
217 177 1
269 177 1
49 178 1
86 178 1
218 178 1
270 178 1
50 179 1
87 179 1
219 179 1
271 179 1
51 180 1
88 180 1
220 180 1
272 180 1
52 181 1
89 181 1
221 181 1
273 181 1
53 182 1
90 182 1
222 182 1
274 182 1
54 183 1
91 183 1
223 183 1
275 183 1
55 184 1
92 184 1
224 184 1
276 184 1
93 185 1
148 185 1
185 185 1
228 185 1
94 186 1
149 186 1
186 186 1
229 186 1
95 187 1
150 187 1
187 187 1
230 187 1
96 188 1
151 188 1
188 188 1
231 188 1
97 189 1
152 189 1
189 189 1
232 189 1
98 190 1
153 190 1
190 190 1
233 190 1
99 191 1
154 191 1
191 191 1
234 191 1
100 192 1
155 192 1
192 192 1
235 192 1
101 193 1
156 193 1
193 193 1
236 193 1
102 194 1
157 194 1
194 194 1
237 194 1
103 195 1
158 195 1
195 195 1
238 195 1
104 196 1
159 196 1
196 196 1
239 196 1
105 197 1
160 197 1
197 197 1
240 197 1
106 198 1
161 198 1
198 198 1
241 198 1
107 199 1
162 199 1
199 199 1
242 199 1
108 200 1
163 200 1
200 200 1
243 200 1
109 201 1
164 201 1
201 201 1
244 201 1
110 202 1
165 202 1
202 202 1
245 202 1
111 203 1
166 203 1
203 203 1
246 203 1
112 204 1
167 204 1
204 204 1
247 204 1
113 205 1
168 205 1
205 205 1
248 205 1
114 206 1
169 206 1
206 206 1
249 206 1
115 207 1
170 207 1
207 207 1
250 207 1
116 208 1
171 208 1
208 208 1
251 208 1
117 209 1
172 209 1
209 209 1
252 209 1
118 210 1
173 210 1
210 210 1
253 210 1
119 211 1
174 211 1
211 211 1
254 211 1
120 212 1
175 212 1
212 212 1
255 212 1
121 213 1
176 213 1
213 213 1
256 213 1
122 214 1
177 214 1
214 214 1
257 214 1
123 215 1
178 215 1
215 215 1
258 215 1
124 216 1
179 216 1
216 216 1
259 216 1
125 217 1
180 217 1
217 217 1
260 217 1
126 218 1
181 218 1
218 218 1
261 218 1
127 219 1
182 219 1
219 219 1
262 219 1
128 220 1
183 220 1
220 220 1
263 220 1
129 221 1
184 221 1
221 221 1
264 221 1
93 222 1
130 222 1
222 222 1
265 222 1
94 223 1
131 223 1
223 223 1
266 223 1
95 224 1
132 224 1
224 224 1
267 224 1
96 225 1
133 225 1
225 225 1
268 225 1
97 226 1
134 226 1
226 226 1
269 226 1
98 227 1
135 227 1
227 227 1
270 227 1
99 228 1
136 228 1
228 228 1
271 228 1
100 229 1
137 229 1
229 229 1
272 229 1
101 230 1
138 230 1
230 230 1
273 230 1
102 231 1
139 231 1
231 231 1
274 231 1
103 232 1
140 232 1
232 232 1
275 232 1
104 233 1
141 233 1
233 233 1
276 233 1
105 234 1
142 234 1
185 234 1
234 234 1
106 235 1
143 235 1
186 235 1
235 235 1
107 236 1
144 236 1
187 236 1
236 236 1
108 237 1
145 237 1
188 237 1
237 237 1
109 238 1
146 238 1
189 238 1
238 238 1
110 239 1
147 239 1
190 239 1
239 239 1
111 240 1
148 240 1
191 240 1
240 240 1
112 241 1
149 241 1
192 241 1
241 241 1
113 242 1
150 242 1
193 242 1
242 242 1
114 243 1
151 243 1
194 243 1
243 243 1
115 244 1
152 244 1
195 244 1
244 244 1
116 245 1
153 245 1
196 245 1
245 245 1
117 246 1
154 246 1
197 246 1
246 246 1
118 247 1
155 247 1
198 247 1
247 247 1
119 248 1
156 248 1
199 248 1
248 248 1
120 249 1
157 249 1
200 249 1
249 249 1
121 250 1
158 250 1
201 250 1
250 250 1
122 251 1
159 251 1
202 251 1
251 251 1
123 252 1
160 252 1
203 252 1
252 252 1
124 253 1
161 253 1
204 253 1
253 253 1
125 254 1
162 254 1
205 254 1
254 254 1
126 255 1
163 255 1
206 255 1
255 255 1
127 256 1
164 256 1
207 256 1
256 256 1
128 257 1
165 257 1
208 257 1
257 257 1
129 258 1
166 258 1
209 258 1
258 258 1
130 259 1
167 259 1
210 259 1
259 259 1
131 260 1
168 260 1
211 260 1
260 260 1
132 261 1
169 261 1
212 261 1
261 261 1
133 262 1
170 262 1
213 262 1
262 262 1
134 263 1
171 263 1
214 263 1
263 263 1
135 264 1
172 264 1
215 264 1
264 264 1
136 265 1
173 265 1
216 265 1
265 265 1
137 266 1
174 266 1
217 266 1
266 266 1
138 267 1
175 267 1
218 267 1
267 267 1
139 268 1
176 268 1
219 268 1
268 268 1
140 269 1
177 269 1
220 269 1
269 269 1
141 270 1
178 270 1
221 270 1
270 270 1
142 271 1
179 271 1
222 271 1
271 271 1
143 272 1
180 272 1
223 272 1
272 272 1
144 273 1
181 273 1
224 273 1
273 273 1
145 274 1
182 274 1
225 274 1
274 274 1
146 275 1
183 275 1
226 275 1
275 275 1
147 276 1
184 276 1
227 276 1
276 276 1
1 277 1
58 277 1
277 277 1
317 277 1
2 278 1
59 278 1
278 278 1
318 278 1
3 279 1
60 279 1
279 279 1
319 279 1
4 280 1
61 280 1
280 280 1
320 280 1
5 281 1
62 281 1
281 281 1
321 281 1
6 282 1
63 282 1
282 282 1
322 282 1
7 283 1
64 283 1
283 283 1
323 283 1
8 284 1
65 284 1
284 284 1
324 284 1
9 285 1
66 285 1
285 285 1
325 285 1
10 286 1
67 286 1
286 286 1
326 286 1
11 287 1
68 287 1
287 287 1
327 287 1
12 288 1
69 288 1
288 288 1
328 288 1
13 289 1
70 289 1
289 289 1
329 289 1
14 290 1
71 290 1
290 290 1
330 290 1
15 291 1
72 291 1
291 291 1
331 291 1
16 292 1
73 292 1
292 292 1
332 292 1
17 293 1
74 293 1
293 293 1
333 293 1
18 294 1
75 294 1
294 294 1
334 294 1
19 295 1
76 295 1
295 295 1
335 295 1
20 296 1
77 296 1
296 296 1
336 296 1
21 297 1
78 297 1
297 297 1
337 297 1
22 298 1
79 298 1
298 298 1
338 298 1
23 299 1
80 299 1
299 299 1
339 299 1
24 300 1
81 300 1
300 300 1
340 300 1
25 301 1
82 301 1
301 301 1
341 301 1
26 302 1
83 302 1
302 302 1
342 302 1
27 303 1
84 303 1
303 303 1
343 303 1
28 304 1
85 304 1
304 304 1
344 304 1
29 305 1
86 305 1
305 305 1
345 305 1
30 306 1
87 306 1
306 306 1
346 306 1
31 307 1
88 307 1
307 307 1
347 307 1
32 308 1
89 308 1
308 308 1
348 308 1
33 309 1
90 309 1
309 309 1
349 309 1
34 310 1
91 310 1
310 310 1
350 310 1
35 311 1
92 311 1
311 311 1
351 311 1
1 312 1
36 312 1
312 312 1
352 312 1
2 313 1
37 313 1
313 313 1
353 313 1
3 314 1
38 314 1
314 314 1
354 314 1
4 315 1
39 315 1
315 315 1
355 315 1
5 316 1
40 316 1
316 316 1
356 316 1
6 317 1
41 317 1
317 317 1
357 317 1
7 318 1
42 318 1
318 318 1
358 318 1
8 319 1
43 319 1
319 319 1
359 319 1
9 320 1
44 320 1
320 320 1
360 320 1
10 321 1
45 321 1
321 321 1
361 321 1
11 322 1
46 322 1
322 322 1
362 322 1
12 323 1
47 323 1
323 323 1
363 323 1
13 324 1
48 324 1
324 324 1
364 324 1
14 325 1
49 325 1
325 325 1
365 325 1
15 326 1
50 326 1
326 326 1
366 326 1
16 327 1
51 327 1
327 327 1
367 327 1
17 328 1
52 328 1
328 328 1
368 328 1
18 329 1
53 329 1
277 329 1
329 329 1
19 330 1
54 330 1
278 330 1
330 330 1
20 331 1
55 331 1
279 331 1
331 331 1
21 332 1
56 332 1
280 332 1
332 332 1
22 333 1
57 333 1
281 333 1
333 333 1
23 334 1
58 334 1
282 334 1
334 334 1
24 335 1
59 335 1
283 335 1
335 335 1
25 336 1
60 336 1
284 336 1
336 336 1
26 337 1
61 337 1
285 337 1
337 337 1
27 338 1
62 338 1
286 338 1
338 338 1
28 339 1
63 339 1
287 339 1
339 339 1
29 340 1
64 340 1
288 340 1
340 340 1
30 341 1
65 341 1
289 341 1
341 341 1
31 342 1
66 342 1
290 342 1
342 342 1
32 343 1
67 343 1
291 343 1
343 343 1
33 344 1
68 344 1
292 344 1
344 344 1
34 345 1
69 345 1
293 345 1
345 345 1
35 346 1
70 346 1
294 346 1
346 346 1
36 347 1
71 347 1
295 347 1
347 347 1
37 348 1
72 348 1
296 348 1
348 348 1
38 349 1
73 349 1
297 349 1
349 349 1
39 350 1
74 350 1
298 350 1
350 350 1
40 351 1
75 351 1
299 351 1
351 351 1
41 352 1
76 352 1
300 352 1
352 352 1
42 353 1
77 353 1
301 353 1
353 353 1
43 354 1
78 354 1
302 354 1
354 354 1
44 355 1
79 355 1
303 355 1
355 355 1
45 356 1
80 356 1
304 356 1
356 356 1
46 357 1
81 357 1
305 357 1
357 357 1
47 358 1
82 358 1
306 358 1
358 358 1
48 359 1
83 359 1
307 359 1
359 359 1
49 360 1
84 360 1
308 360 1
360 360 1
50 361 1
85 361 1
309 361 1
361 361 1
51 362 1
86 362 1
310 362 1
362 362 1
52 363 1
87 363 1
311 363 1
363 363 1
53 364 1
88 364 1
312 364 1
364 364 1
54 365 1
89 365 1
313 365 1
365 365 1
55 366 1
90 366 1
314 366 1
366 366 1
56 367 1
91 367 1
315 367 1
367 367 1
57 368 1
92 368 1
316 368 1
368 368 1
93 369 1
150 369 1
277 369 1
320 369 1
94 370 1
151 370 1
278 370 1
321 370 1
95 371 1
152 371 1
279 371 1
322 371 1
96 372 1
153 372 1
280 372 1
323 372 1
97 373 1
154 373 1
281 373 1
324 373 1
98 374 1
155 374 1
282 374 1
325 374 1
99 375 1
156 375 1
283 375 1
326 375 1
100 376 1
157 376 1
284 376 1
327 376 1
101 377 1
158 377 1
285 377 1
328 377 1
102 378 1
159 378 1
286 378 1
329 378 1
103 379 1
160 379 1
287 379 1
330 379 1
104 380 1
161 380 1
288 380 1
331 380 1
105 381 1
162 381 1
289 381 1
332 381 1
106 382 1
163 382 1
290 382 1
333 382 1
107 383 1
164 383 1
291 383 1
334 383 1
108 384 1
165 384 1
292 384 1
335 384 1
109 385 1
166 385 1
293 385 1
336 385 1
110 386 1
167 386 1
294 386 1
337 386 1
111 387 1
168 387 1
295 387 1
338 387 1
112 388 1
169 388 1
296 388 1
339 388 1
113 389 1
170 389 1
297 389 1
340 389 1
114 390 1
171 390 1
298 390 1
341 390 1
115 391 1
172 391 1
299 391 1
342 391 1
116 392 1
173 392 1
300 392 1
343 392 1
117 393 1
174 393 1
301 393 1
344 393 1
118 394 1
175 394 1
302 394 1
345 394 1
119 395 1
176 395 1
303 395 1
346 395 1
120 396 1
177 396 1
304 396 1
347 396 1
121 397 1
178 397 1
305 397 1
348 397 1
122 398 1
179 398 1
306 398 1
349 398 1
123 399 1
180 399 1
307 399 1
350 399 1
124 400 1
181 400 1
308 400 1
351 400 1
125 401 1
182 401 1
309 401 1
352 401 1
126 402 1
183 402 1
310 402 1
353 402 1
127 403 1
184 403 1
311 403 1
354 403 1
93 404 1
128 404 1
312 404 1
355 404 1
94 405 1
129 405 1
313 405 1
356 405 1
95 406 1
130 406 1
314 406 1
357 406 1
96 407 1
131 407 1
315 407 1
358 407 1
97 408 1
132 408 1
316 408 1
359 408 1
98 409 1
133 409 1
317 409 1
360 409 1
99 410 1
134 410 1
318 410 1
361 410 1
100 411 1
135 411 1
319 411 1
362 411 1
101 412 1
136 412 1
320 412 1
363 412 1
102 413 1
137 413 1
321 413 1
364 413 1
103 414 1
138 414 1
322 414 1
365 414 1
104 415 1
139 415 1
323 415 1
366 415 1
105 416 1
140 416 1
324 416 1
367 416 1
106 417 1
141 417 1
325 417 1
368 417 1
107 418 1
142 418 1
277 418 1
326 418 1
108 419 1
143 419 1
278 419 1
327 419 1
109 420 1
144 420 1
279 420 1
328 420 1
110 421 1
145 421 1
280 421 1
329 421 1
111 422 1
146 422 1
281 422 1
330 422 1
112 423 1
147 423 1
282 423 1
331 423 1
113 424 1
148 424 1
283 424 1
332 424 1
114 425 1
149 425 1
284 425 1
333 425 1
115 426 1
150 426 1
285 426 1
334 426 1
116 427 1
151 427 1
286 427 1
335 427 1
117 428 1
152 428 1
287 428 1
336 428 1
118 429 1
153 429 1
288 429 1
337 429 1
119 430 1
154 430 1
289 430 1
338 430 1
120 431 1
155 431 1
290 431 1
339 431 1
121 432 1
156 432 1
291 432 1
340 432 1
122 433 1
157 433 1
292 433 1
341 433 1
123 434 1
158 434 1
293 434 1
342 434 1
124 435 1
159 435 1
294 435 1
343 435 1
125 436 1
160 436 1
295 436 1
344 436 1
126 437 1
161 437 1
296 437 1
345 437 1
127 438 1
162 438 1
297 438 1
346 438 1
128 439 1
163 439 1
298 439 1
347 439 1
129 440 1
164 440 1
299 440 1
348 440 1
130 441 1
165 441 1
300 441 1
349 441 1
131 442 1
166 442 1
301 442 1
350 442 1
132 443 1
167 443 1
302 443 1
351 443 1
133 444 1
168 444 1
303 444 1
352 444 1
134 445 1
169 445 1
304 445 1
353 445 1
135 446 1
170 446 1
305 446 1
354 446 1
136 447 1
171 447 1
306 447 1
355 447 1
137 448 1
172 448 1
307 448 1
356 448 1
138 449 1
173 449 1
308 449 1
357 449 1
139 450 1
174 450 1
309 450 1
358 450 1
140 451 1
175 451 1
310 451 1
359 451 1
141 452 1
176 452 1
311 452 1
360 452 1
142 453 1
177 453 1
312 453 1
361 453 1
143 454 1
178 454 1
313 454 1
362 454 1
144 455 1
179 455 1
314 455 1
363 455 1
145 456 1
180 456 1
315 456 1
364 456 1
146 457 1
181 457 1
316 457 1
365 457 1
147 458 1
182 458 1
317 458 1
366 458 1
148 459 1
183 459 1
318 459 1
367 459 1
149 460 1
184 460 1
319 460 1
368 460 1
185 461 1
242 461 1
277 461 1
332 461 1
186 462 1
243 462 1
278 462 1
333 462 1
187 463 1
244 463 1
279 463 1
334 463 1
188 464 1
245 464 1
280 464 1
335 464 1
189 465 1
246 465 1
281 465 1
336 465 1
190 466 1
247 466 1
282 466 1
337 466 1
191 467 1
248 467 1
283 467 1
338 467 1
192 468 1
249 468 1
284 468 1
339 468 1
193 469 1
250 469 1
285 469 1
340 469 1
194 470 1
251 470 1
286 470 1
341 470 1
195 471 1
252 471 1
287 471 1
342 471 1
196 472 1
253 472 1
288 472 1
343 472 1
197 473 1
254 473 1
289 473 1
344 473 1
198 474 1
255 474 1
290 474 1
345 474 1
199 475 1
256 475 1
291 475 1
346 475 1
200 476 1
257 476 1
292 476 1
347 476 1
201 477 1
258 477 1
293 477 1
348 477 1
202 478 1
259 478 1
294 478 1
349 478 1
203 479 1
260 479 1
295 479 1
350 479 1
204 480 1
261 480 1
296 480 1
351 480 1
205 481 1
262 481 1
297 481 1
352 481 1
206 482 1
263 482 1
298 482 1
353 482 1
207 483 1
264 483 1
299 483 1
354 483 1
208 484 1
265 484 1
300 484 1
355 484 1
209 485 1
266 485 1
301 485 1
356 485 1
210 486 1
267 486 1
302 486 1
357 486 1
211 487 1
268 487 1
303 487 1
358 487 1
212 488 1
269 488 1
304 488 1
359 488 1
213 489 1
270 489 1
305 489 1
360 489 1
214 490 1
271 490 1
306 490 1
361 490 1
215 491 1
272 491 1
307 491 1
362 491 1
216 492 1
273 492 1
308 492 1
363 492 1
217 493 1
274 493 1
309 493 1
364 493 1
218 494 1
275 494 1
310 494 1
365 494 1
219 495 1
276 495 1
311 495 1
366 495 1
185 496 1
220 496 1
312 496 1
367 496 1
186 497 1
221 497 1
313 497 1
368 497 1
187 498 1
222 498 1
277 498 1
314 498 1
188 499 1
223 499 1
278 499 1
315 499 1
189 500 1
224 500 1
279 500 1
316 500 1
190 501 1
225 501 1
280 501 1
317 501 1
191 502 1
226 502 1
281 502 1
318 502 1
192 503 1
227 503 1
282 503 1
319 503 1
193 504 1
228 504 1
283 504 1
320 504 1
194 505 1
229 505 1
284 505 1
321 505 1
195 506 1
230 506 1
285 506 1
322 506 1
196 507 1
231 507 1
286 507 1
323 507 1
197 508 1
232 508 1
287 508 1
324 508 1
198 509 1
233 509 1
288 509 1
325 509 1
199 510 1
234 510 1
289 510 1
326 510 1
200 511 1
235 511 1
290 511 1
327 511 1
201 512 1
236 512 1
291 512 1
328 512 1
202 513 1
237 513 1
292 513 1
329 513 1
203 514 1
238 514 1
293 514 1
330 514 1
204 515 1
239 515 1
294 515 1
331 515 1
205 516 1
240 516 1
295 516 1
332 516 1
206 517 1
241 517 1
296 517 1
333 517 1
207 518 1
242 518 1
297 518 1
334 518 1
208 519 1
243 519 1
298 519 1
335 519 1
209 520 1
244 520 1
299 520 1
336 520 1
210 521 1
245 521 1
300 521 1
337 521 1
211 522 1
246 522 1
301 522 1
338 522 1
212 523 1
247 523 1
302 523 1
339 523 1
213 524 1
248 524 1
303 524 1
340 524 1
214 525 1
249 525 1
304 525 1
341 525 1
215 526 1
250 526 1
305 526 1
342 526 1
216 527 1
251 527 1
306 527 1
343 527 1
217 528 1
252 528 1
307 528 1
344 528 1
218 529 1
253 529 1
308 529 1
345 529 1
219 530 1
254 530 1
309 530 1
346 530 1
220 531 1
255 531 1
310 531 1
347 531 1
221 532 1
256 532 1
311 532 1
348 532 1
222 533 1
257 533 1
312 533 1
349 533 1
223 534 1
258 534 1
313 534 1
350 534 1
224 535 1
259 535 1
314 535 1
351 535 1
225 536 1
260 536 1
315 536 1
352 536 1
226 537 1
261 537 1
316 537 1
353 537 1
227 538 1
262 538 1
317 538 1
354 538 1
228 539 1
263 539 1
318 539 1
355 539 1
229 540 1
264 540 1
319 540 1
356 540 1
230 541 1
265 541 1
320 541 1
357 541 1
231 542 1
266 542 1
321 542 1
358 542 1
232 543 1
267 543 1
322 543 1
359 543 1
233 544 1
268 544 1
323 544 1
360 544 1
234 545 1
269 545 1
324 545 1
361 545 1
235 546 1
270 546 1
325 546 1
362 546 1
236 547 1
271 547 1
326 547 1
363 547 1
237 548 1
272 548 1
327 548 1
364 548 1
238 549 1
273 549 1
328 549 1
365 549 1
239 550 1
274 550 1
329 550 1
366 550 1
240 551 1
275 551 1
330 551 1
367 551 1
241 552 1
276 552 1
331 552 1
368 552 1
1 553 1
60 553 1
369 553 1
409 553 1
2 554 1
61 554 1
370 554 1
410 554 1
3 555 1
62 555 1
371 555 1
411 555 1
4 556 1
63 556 1
372 556 1
412 556 1
5 557 1
64 557 1
373 557 1
413 557 1
6 558 1
65 558 1
374 558 1
414 558 1
7 559 1
66 559 1
375 559 1
415 559 1
8 560 1
67 560 1
376 560 1
416 560 1
9 561 1
68 561 1
377 561 1
417 561 1
10 562 1
69 562 1
378 562 1
418 562 1
11 563 1
70 563 1
379 563 1
419 563 1
12 564 1
71 564 1
380 564 1
420 564 1
13 565 1
72 565 1
381 565 1
421 565 1
14 566 1
73 566 1
382 566 1
422 566 1
15 567 1
74 567 1
383 567 1
423 567 1
16 568 1
75 568 1
384 568 1
424 568 1
17 569 1
76 569 1
385 569 1
425 569 1
18 570 1
77 570 1
386 570 1
426 570 1
19 571 1
78 571 1
387 571 1
427 571 1
20 572 1
79 572 1
388 572 1
428 572 1
21 573 1
80 573 1
389 573 1
429 573 1
22 574 1
81 574 1
390 574 1
430 574 1
23 575 1
82 575 1
391 575 1
431 575 1
24 576 1
83 576 1
392 576 1
432 576 1
25 577 1
84 577 1
393 577 1
433 577 1
26 578 1
85 578 1
394 578 1
434 578 1
27 579 1
86 579 1
395 579 1
435 579 1
28 580 1
87 580 1
396 580 1
436 580 1
29 581 1
88 581 1
397 581 1
437 581 1
30 582 1
89 582 1
398 582 1
438 582 1
31 583 1
90 583 1
399 583 1
439 583 1
32 584 1
91 584 1
400 584 1
440 584 1
33 585 1
92 585 1
401 585 1
441 585 1
1 586 1
34 586 1
402 586 1
442 586 1
2 587 1
35 587 1
403 587 1
443 587 1
3 588 1
36 588 1
404 588 1
444 588 1
4 589 1
37 589 1
405 589 1
445 589 1
5 590 1
38 590 1
406 590 1
446 590 1
6 591 1
39 591 1
407 591 1
447 591 1
7 592 1
40 592 1
408 592 1
448 592 1
8 593 1
41 593 1
409 593 1
449 593 1
9 594 1
42 594 1
410 594 1
450 594 1
10 595 1
43 595 1
411 595 1
451 595 1
11 596 1
44 596 1
412 596 1
452 596 1
12 597 1
45 597 1
413 597 1
453 597 1
13 598 1
46 598 1
414 598 1
454 598 1
14 599 1
47 599 1
415 599 1
455 599 1
15 600 1
48 600 1
416 600 1
456 600 1
16 601 1
49 601 1
417 601 1
457 601 1
17 602 1
50 602 1
418 602 1
458 602 1
18 603 1
51 603 1
419 603 1
459 603 1
19 604 1
52 604 1
420 604 1
460 604 1
20 605 1
53 605 1
369 605 1
421 605 1
21 606 1
54 606 1
370 606 1
422 606 1
22 607 1
55 607 1
371 607 1
423 607 1
23 608 1
56 608 1
372 608 1
424 608 1
24 609 1
57 609 1
373 609 1
425 609 1
25 610 1
58 610 1
374 610 1
426 610 1
26 611 1
59 611 1
375 611 1
427 611 1
27 612 1
60 612 1
376 612 1
428 612 1
28 613 1
61 613 1
377 613 1
429 613 1
29 614 1
62 614 1
378 614 1
430 614 1
30 615 1
63 615 1
379 615 1
431 615 1
31 616 1
64 616 1
380 616 1
432 616 1
32 617 1
65 617 1
381 617 1
433 617 1
33 618 1
66 618 1
382 618 1
434 618 1
34 619 1
67 619 1
383 619 1
435 619 1
35 620 1
68 620 1
384 620 1
436 620 1
36 621 1
69 621 1
385 621 1
437 621 1
37 622 1
70 622 1
386 622 1
438 622 1
38 623 1
71 623 1
387 623 1
439 623 1
39 624 1
72 624 1
388 624 1
440 624 1
40 625 1
73 625 1
389 625 1
441 625 1
41 626 1
74 626 1
390 626 1
442 626 1
42 627 1
75 627 1
391 627 1
443 627 1
43 628 1
76 628 1
392 628 1
444 628 1
44 629 1
77 629 1
393 629 1
445 629 1
45 630 1
78 630 1
394 630 1
446 630 1
46 631 1
79 631 1
395 631 1
447 631 1
47 632 1
80 632 1
396 632 1
448 632 1
48 633 1
81 633 1
397 633 1
449 633 1
49 634 1
82 634 1
398 634 1
450 634 1
50 635 1
83 635 1
399 635 1
451 635 1
51 636 1
84 636 1
400 636 1
452 636 1
52 637 1
85 637 1
401 637 1
453 637 1
53 638 1
86 638 1
402 638 1
454 638 1
54 639 1
87 639 1
403 639 1
455 639 1
55 640 1
88 640 1
404 640 1
456 640 1
56 641 1
89 641 1
405 641 1
457 641 1
57 642 1
90 642 1
406 642 1
458 642 1
58 643 1
91 643 1
407 643 1
459 643 1
59 644 1
92 644 1
408 644 1
460 644 1
93 645 1
152 645 1
369 645 1
412 645 1
94 646 1
153 646 1
370 646 1
413 646 1
95 647 1
154 647 1
371 647 1
414 647 1
96 648 1
155 648 1
372 648 1
415 648 1
97 649 1
156 649 1
373 649 1
416 649 1
98 650 1
157 650 1
374 650 1
417 650 1
99 651 1
158 651 1
375 651 1
418 651 1
100 652 1
159 652 1
376 652 1
419 652 1
101 653 1
160 653 1
377 653 1
420 653 1
102 654 1
161 654 1
378 654 1
421 654 1
103 655 1
162 655 1
379 655 1
422 655 1
104 656 1
163 656 1
380 656 1
423 656 1
105 657 1
164 657 1
381 657 1
424 657 1
106 658 1
165 658 1
382 658 1
425 658 1
107 659 1
166 659 1
383 659 1
426 659 1
108 660 1
167 660 1
384 660 1
427 660 1
109 661 1
168 661 1
385 661 1
428 661 1
110 662 1
169 662 1
386 662 1
429 662 1
111 663 1
170 663 1
387 663 1
430 663 1
112 664 1
171 664 1
388 664 1
431 664 1
113 665 1
172 665 1
389 665 1
432 665 1
114 666 1
173 666 1
390 666 1
433 666 1
115 667 1
174 667 1
391 667 1
434 667 1
116 668 1
175 668 1
392 668 1
435 668 1
117 669 1
176 669 1
393 669 1
436 669 1
118 670 1
177 670 1
394 670 1
437 670 1
119 671 1
178 671 1
395 671 1
438 671 1
120 672 1
179 672 1
396 672 1
439 672 1
121 673 1
180 673 1
397 673 1
440 673 1
122 674 1
181 674 1
398 674 1
441 674 1
123 675 1
182 675 1
399 675 1
442 675 1
124 676 1
183 676 1
400 676 1
443 676 1
125 677 1
184 677 1
401 677 1
444 677 1
93 678 1
126 678 1
402 678 1
445 678 1
94 679 1
127 679 1
403 679 1
446 679 1
95 680 1
128 680 1
404 680 1
447 680 1
96 681 1
129 681 1
405 681 1
448 681 1
97 682 1
130 682 1
406 682 1
449 682 1
98 683 1
131 683 1
407 683 1
450 683 1
99 684 1
132 684 1
408 684 1
451 684 1
100 685 1
133 685 1
409 685 1
452 685 1
101 686 1
134 686 1
410 686 1
453 686 1
102 687 1
135 687 1
411 687 1
454 687 1
103 688 1
136 688 1
412 688 1
455 688 1
104 689 1
137 689 1
413 689 1
456 689 1
105 690 1
138 690 1
414 690 1
457 690 1
106 691 1
139 691 1
415 691 1
458 691 1
107 692 1
140 692 1
416 692 1
459 692 1
108 693 1
141 693 1
417 693 1
460 693 1
109 694 1
142 694 1
369 694 1
418 694 1
110 695 1
143 695 1
370 695 1
419 695 1
111 696 1
144 696 1
371 696 1
420 696 1
112 697 1
145 697 1
372 697 1
421 697 1
113 698 1
146 698 1
373 698 1
422 698 1
114 699 1
147 699 1
374 699 1
423 699 1
115 700 1
148 700 1
375 700 1
424 700 1
116 701 1
149 701 1
376 701 1
425 701 1
117 702 1
150 702 1
377 702 1
426 702 1
118 703 1
151 703 1
378 703 1
427 703 1
119 704 1
152 704 1
379 704 1
428 704 1
120 705 1
153 705 1
380 705 1
429 705 1
121 706 1
154 706 1
381 706 1
430 706 1
122 707 1
155 707 1
382 707 1
431 707 1
123 708 1
156 708 1
383 708 1
432 708 1
124 709 1
157 709 1
384 709 1
433 709 1
125 710 1
158 710 1
385 710 1
434 710 1
126 711 1
159 711 1
386 711 1
435 711 1
127 712 1
160 712 1
387 712 1
436 712 1
128 713 1
161 713 1
388 713 1
437 713 1
129 714 1
162 714 1
389 714 1
438 714 1
130 715 1
163 715 1
390 715 1
439 715 1
131 716 1
164 716 1
391 716 1
440 716 1
132 717 1
165 717 1
392 717 1
441 717 1
133 718 1
166 718 1
393 718 1
442 718 1
134 719 1
167 719 1
394 719 1
443 719 1
135 720 1
168 720 1
395 720 1
444 720 1
136 721 1
169 721 1
396 721 1
445 721 1
137 722 1
170 722 1
397 722 1
446 722 1
138 723 1
171 723 1
398 723 1
447 723 1
139 724 1
172 724 1
399 724 1
448 724 1
140 725 1
173 725 1
400 725 1
449 725 1
141 726 1
174 726 1
401 726 1
450 726 1
142 727 1
175 727 1
402 727 1
451 727 1
143 728 1
176 728 1
403 728 1
452 728 1
144 729 1
177 729 1
404 729 1
453 729 1
145 730 1
178 730 1
405 730 1
454 730 1
146 731 1
179 731 1
406 731 1
455 731 1
147 732 1
180 732 1
407 732 1
456 732 1
148 733 1
181 733 1
408 733 1
457 733 1
149 734 1
182 734 1
409 734 1
458 734 1
150 735 1
183 735 1
410 735 1
459 735 1
151 736 1
184 736 1
411 736 1
460 736 1
185 737 1
244 737 1
369 737 1
424 737 1
186 738 1
245 738 1
370 738 1
425 738 1
187 739 1
246 739 1
371 739 1
426 739 1
188 740 1
247 740 1
372 740 1
427 740 1
189 741 1
248 741 1
373 741 1
428 741 1
190 742 1
249 742 1
374 742 1
429 742 1
191 743 1
250 743 1
375 743 1
430 743 1
192 744 1
251 744 1
376 744 1
431 744 1
193 745 1
252 745 1
377 745 1
432 745 1
194 746 1
253 746 1
378 746 1
433 746 1
195 747 1
254 747 1
379 747 1
434 747 1
196 748 1
255 748 1
380 748 1
435 748 1
197 749 1
256 749 1
381 749 1
436 749 1
198 750 1
257 750 1
382 750 1
437 750 1
199 751 1
258 751 1
383 751 1
438 751 1
200 752 1
259 752 1
384 752 1
439 752 1
201 753 1
260 753 1
385 753 1
440 753 1
202 754 1
261 754 1
386 754 1
441 754 1
203 755 1
262 755 1
387 755 1
442 755 1
204 756 1
263 756 1
388 756 1
443 756 1
205 757 1
264 757 1
389 757 1
444 757 1
206 758 1
265 758 1
390 758 1
445 758 1
207 759 1
266 759 1
391 759 1
446 759 1
208 760 1
267 760 1
392 760 1
447 760 1
209 761 1
268 761 1
393 761 1
448 761 1
210 762 1
269 762 1
394 762 1
449 762 1
211 763 1
270 763 1
395 763 1
450 763 1
212 764 1
271 764 1
396 764 1
451 764 1
213 765 1
272 765 1
397 765 1
452 765 1
214 766 1
273 766 1
398 766 1
453 766 1
215 767 1
274 767 1
399 767 1
454 767 1
216 768 1
275 768 1
400 768 1
455 768 1
217 769 1
276 769 1
401 769 1
456 769 1
185 770 1
218 770 1
402 770 1
457 770 1
186 771 1
219 771 1
403 771 1
458 771 1
187 772 1
220 772 1
404 772 1
459 772 1
188 773 1
221 773 1
405 773 1
460 773 1
189 774 1
222 774 1
369 774 1
406 774 1
190 775 1
223 775 1
370 775 1
407 775 1
191 776 1
224 776 1
371 776 1
408 776 1
192 777 1
225 777 1
372 777 1
409 777 1
193 778 1
226 778 1
373 778 1
410 778 1
194 779 1
227 779 1
374 779 1
411 779 1
195 780 1
228 780 1
375 780 1
412 780 1
196 781 1
229 781 1
376 781 1
413 781 1
197 782 1
230 782 1
377 782 1
414 782 1
198 783 1
231 783 1
378 783 1
415 783 1
199 784 1
232 784 1
379 784 1
416 784 1
200 785 1
233 785 1
380 785 1
417 785 1
201 786 1
234 786 1
381 786 1
418 786 1
202 787 1
235 787 1
382 787 1
419 787 1
203 788 1
236 788 1
383 788 1
420 788 1
204 789 1
237 789 1
384 789 1
421 789 1
205 790 1
238 790 1
385 790 1
422 790 1
206 791 1
239 791 1
386 791 1
423 791 1
207 792 1
240 792 1
387 792 1
424 792 1
208 793 1
241 793 1
388 793 1
425 793 1
209 794 1
242 794 1
389 794 1
426 794 1
210 795 1
243 795 1
390 795 1
427 795 1
211 796 1
244 796 1
391 796 1
428 796 1
212 797 1
245 797 1
392 797 1
429 797 1
213 798 1
246 798 1
393 798 1
430 798 1
214 799 1
247 799 1
394 799 1
431 799 1
215 800 1
248 800 1
395 800 1
432 800 1
216 801 1
249 801 1
396 801 1
433 801 1
217 802 1
250 802 1
397 802 1
434 802 1
218 803 1
251 803 1
398 803 1
435 803 1
219 804 1
252 804 1
399 804 1
436 804 1
220 805 1
253 805 1
400 805 1
437 805 1
221 806 1
254 806 1
401 806 1
438 806 1
222 807 1
255 807 1
402 807 1
439 807 1
223 808 1
256 808 1
403 808 1
440 808 1
224 809 1
257 809 1
404 809 1
441 809 1
225 810 1
258 810 1
405 810 1
442 810 1
226 811 1
259 811 1
406 811 1
443 811 1
227 812 1
260 812 1
407 812 1
444 812 1
228 813 1
261 813 1
408 813 1
445 813 1
229 814 1
262 814 1
409 814 1
446 814 1
230 815 1
263 815 1
410 815 1
447 815 1
231 816 1
264 816 1
411 816 1
448 816 1
232 817 1
265 817 1
412 817 1
449 817 1
233 818 1
266 818 1
413 818 1
450 818 1
234 819 1
267 819 1
414 819 1
451 819 1
235 820 1
268 820 1
415 820 1
452 820 1
236 821 1
269 821 1
416 821 1
453 821 1
237 822 1
270 822 1
417 822 1
454 822 1
238 823 1
271 823 1
418 823 1
455 823 1
239 824 1
272 824 1
419 824 1
456 824 1
240 825 1
273 825 1
420 825 1
457 825 1
241 826 1
274 826 1
421 826 1
458 826 1
242 827 1
275 827 1
422 827 1
459 827 1
243 828 1
276 828 1
423 828 1
460 828 1
277 829 1
336 829 1
369 829 1
426 829 1
278 830 1
337 830 1
370 830 1
427 830 1
279 831 1
338 831 1
371 831 1
428 831 1
280 832 1
339 832 1
372 832 1
429 832 1
281 833 1
340 833 1
373 833 1
430 833 1
282 834 1
341 834 1
374 834 1
431 834 1
283 835 1
342 835 1
375 835 1
432 835 1
284 836 1
343 836 1
376 836 1
433 836 1
285 837 1
344 837 1
377 837 1
434 837 1
286 838 1
345 838 1
378 838 1
435 838 1
287 839 1
346 839 1
379 839 1
436 839 1
288 840 1
347 840 1
380 840 1
437 840 1
289 841 1
348 841 1
381 841 1
438 841 1
290 842 1
349 842 1
382 842 1
439 842 1
291 843 1
350 843 1
383 843 1
440 843 1
292 844 1
351 844 1
384 844 1
441 844 1
293 845 1
352 845 1
385 845 1
442 845 1
294 846 1
353 846 1
386 846 1
443 846 1
295 847 1
354 847 1
387 847 1
444 847 1
296 848 1
355 848 1
388 848 1
445 848 1
297 849 1
356 849 1
389 849 1
446 849 1
298 850 1
357 850 1
390 850 1
447 850 1
299 851 1
358 851 1
391 851 1
448 851 1
300 852 1
359 852 1
392 852 1
449 852 1
301 853 1
360 853 1
393 853 1
450 853 1
302 854 1
361 854 1
394 854 1
451 854 1
303 855 1
362 855 1
395 855 1
452 855 1
304 856 1
363 856 1
396 856 1
453 856 1
305 857 1
364 857 1
397 857 1
454 857 1
306 858 1
365 858 1
398 858 1
455 858 1
307 859 1
366 859 1
399 859 1
456 859 1
308 860 1
367 860 1
400 860 1
457 860 1
309 861 1
368 861 1
401 861 1
458 861 1
277 862 1
310 862 1
402 862 1
459 862 1
278 863 1
311 863 1
403 863 1
460 863 1
279 864 1
312 864 1
369 864 1
404 864 1
280 865 1
313 865 1
370 865 1
405 865 1
281 866 1
314 866 1
371 866 1
406 866 1
282 867 1
315 867 1
372 867 1
407 867 1
283 868 1
316 868 1
373 868 1
408 868 1
284 869 1
317 869 1
374 869 1
409 869 1
285 870 1
318 870 1
375 870 1
410 870 1
286 871 1
319 871 1
376 871 1
411 871 1
287 872 1
320 872 1
377 872 1
412 872 1
288 873 1
321 873 1
378 873 1
413 873 1
289 874 1
322 874 1
379 874 1
414 874 1
290 875 1
323 875 1
380 875 1
415 875 1
291 876 1
324 876 1
381 876 1
416 876 1
292 877 1
325 877 1
382 877 1
417 877 1
293 878 1
326 878 1
383 878 1
418 878 1
294 879 1
327 879 1
384 879 1
419 879 1
295 880 1
328 880 1
385 880 1
420 880 1
296 881 1
329 881 1
386 881 1
421 881 1
297 882 1
330 882 1
387 882 1
422 882 1
298 883 1
331 883 1
388 883 1
423 883 1
299 884 1
332 884 1
389 884 1
424 884 1
300 885 1
333 885 1
390 885 1
425 885 1
301 886 1
334 886 1
391 886 1
426 886 1
302 887 1
335 887 1
392 887 1
427 887 1
303 888 1
336 888 1
393 888 1
428 888 1
304 889 1
337 889 1
394 889 1
429 889 1
305 890 1
338 890 1
395 890 1
430 890 1
306 891 1
339 891 1
396 891 1
431 891 1
307 892 1
340 892 1
397 892 1
432 892 1
308 893 1
341 893 1
398 893 1
433 893 1
309 894 1
342 894 1
399 894 1
434 894 1
310 895 1
343 895 1
400 895 1
435 895 1
311 896 1
344 896 1
401 896 1
436 896 1
312 897 1
345 897 1
402 897 1
437 897 1
313 898 1
346 898 1
403 898 1
438 898 1
314 899 1
347 899 1
404 899 1
439 899 1
315 900 1
348 900 1
405 900 1
440 900 1
316 901 1
349 901 1
406 901 1
441 901 1
317 902 1
350 902 1
407 902 1
442 902 1
318 903 1
351 903 1
408 903 1
443 903 1
319 904 1
352 904 1
409 904 1
444 904 1
320 905 1
353 905 1
410 905 1
445 905 1
321 906 1
354 906 1
411 906 1
446 906 1
322 907 1
355 907 1
412 907 1
447 907 1
323 908 1
356 908 1
413 908 1
448 908 1
324 909 1
357 909 1
414 909 1
449 909 1
325 910 1
358 910 1
415 910 1
450 910 1
326 911 1
359 911 1
416 911 1
451 911 1
327 912 1
360 912 1
417 912 1
452 912 1
328 913 1
361 913 1
418 913 1
453 913 1
329 914 1
362 914 1
419 914 1
454 914 1
330 915 1
363 915 1
420 915 1
455 915 1
331 916 1
364 916 1
421 916 1
456 916 1
332 917 1
365 917 1
422 917 1
457 917 1
333 918 1
366 918 1
423 918 1
458 918 1
334 919 1
367 919 1
424 919 1
459 919 1
335 920 1
368 920 1
425 920 1
460 920 1
