%%MatrixMarket matrix coordinate integer general
% Binary matrix; one-based indices; arithmetic over GF(2)
805 805 6440
1 1 1
13 1 1
24 1 1
34 1 1
116 1 1
123 1 1
346 1 1
350 1 1
2 2 1
14 2 1
25 2 1
35 2 1
117 2 1
124 2 1
347 2 1
351 2 1
3 3 1
15 3 1
26 3 1
36 3 1
118 3 1
125 3 1
348 3 1
352 3 1
4 4 1
16 4 1
27 4 1
37 4 1
119 4 1
126 4 1
349 4 1
353 4 1
5 5 1
17 5 1
28 5 1
38 5 1
120 5 1
127 5 1
350 5 1
354 5 1
6 6 1
18 6 1
29 6 1
39 6 1
121 6 1
128 6 1
351 6 1
355 6 1
7 7 1
19 7 1
30 7 1
40 7 1
122 7 1
129 7 1
352 7 1
356 7 1
8 8 1
20 8 1
31 8 1
41 8 1
123 8 1
130 8 1
353 8 1
357 8 1
9 9 1
21 9 1
32 9 1
42 9 1
124 9 1
131 9 1
354 9 1
358 9 1
10 10 1
22 10 1
33 10 1
43 10 1
125 10 1
132 10 1
355 10 1
359 10 1
11 11 1
23 11 1
34 11 1
44 11 1
126 11 1
133 11 1
356 11 1
360 11 1
1 12 1
12 12 1
35 12 1
45 12 1
127 12 1
134 12 1
357 12 1
361 12 1
2 13 1
13 13 1
36 13 1
46 13 1
128 13 1
135 13 1
358 13 1
362 13 1
3 14 1
14 14 1
24 14 1
37 14 1
129 14 1
136 14 1
359 14 1
363 14 1
4 15 1
15 15 1
25 15 1
38 15 1
130 15 1
137 15 1
360 15 1
364 15 1
5 16 1
16 16 1
26 16 1
39 16 1
131 16 1
138 16 1
361 16 1
365 16 1
6 17 1
17 17 1
27 17 1
40 17 1
116 17 1
132 17 1
362 17 1
366 17 1
7 18 1
18 18 1
28 18 1
41 18 1
117 18 1
133 18 1
363 18 1
367 18 1
8 19 1
19 19 1
29 19 1
42 19 1
118 19 1
134 19 1
364 19 1
368 19 1
9 20 1
20 20 1
30 20 1
43 20 1
119 20 1
135 20 1
346 20 1
365 20 1
10 21 1
21 21 1
31 21 1
44 21 1
120 21 1
136 21 1
347 21 1
366 21 1
11 22 1
22 22 1
32 22 1
45 22 1
121 22 1
137 22 1
348 22 1
367 22 1
12 23 1
23 23 1
33 23 1
46 23 1
122 23 1
138 23 1
349 23 1
368 23 1
1 24 1
19 24 1
47 24 1
57 24 1
139 24 1
146 24 1
369 24 1
373 24 1
2 25 1
20 25 1
48 25 1
58 25 1
140 25 1
147 25 1
370 25 1
374 25 1
3 26 1
21 26 1
49 26 1
59 26 1
141 26 1
148 26 1
371 26 1
375 26 1
4 27 1
22 27 1
50 27 1
60 27 1
142 27 1
149 27 1
372 27 1
376 27 1
5 28 1
23 28 1
51 28 1
61 28 1
143 28 1
150 28 1
373 28 1
377 28 1
1 29 1
6 29 1
52 29 1
62 29 1
144 29 1
151 29 1
374 29 1
378 29 1
2 30 1
7 30 1
53 30 1
63 30 1
145 30 1
152 30 1
375 30 1
379 30 1
3 31 1
8 31 1
54 31 1
64 31 1
146 31 1
153 31 1
376 31 1
380 31 1
4 32 1
9 32 1
55 32 1
65 32 1
147 32 1
154 32 1
377 32 1
381 32 1
5 33 1
10 33 1
56 33 1
66 33 1
148 33 1
155 33 1
378 33 1
382 33 1
6 34 1
11 34 1
57 34 1
67 34 1
149 34 1
156 34 1
379 34 1
383 34 1
7 35 1
12 35 1
58 35 1
68 35 1
150 35 1
157 35 1
380 35 1
384 35 1
8 36 1
13 36 1
59 36 1
69 36 1
151 36 1
158 36 1
381 36 1
385 36 1
9 37 1
14 37 1
47 37 1
60 37 1
152 37 1
159 37 1
382 37 1
386 37 1
10 38 1
15 38 1
48 38 1
61 38 1
153 38 1
160 38 1
383 38 1
387 38 1
11 39 1
16 39 1
49 39 1
62 39 1
154 39 1
161 39 1
384 39 1
388 39 1
12 40 1
17 40 1
50 40 1
63 40 1
139 40 1
155 40 1
385 40 1
389 40 1
13 41 1
18 41 1
51 41 1
64 41 1
140 41 1
156 41 1
386 41 1
390 41 1
14 42 1
19 42 1
52 42 1
65 42 1
141 42 1
157 42 1
387 42 1
391 42 1
15 43 1
20 43 1
53 43 1
66 43 1
142 43 1
158 43 1
369 43 1
388 43 1
16 44 1
21 44 1
54 44 1
67 44 1
143 44 1
159 44 1
370 44 1
389 44 1
17 45 1
22 45 1
55 45 1
68 45 1
144 45 1
160 45 1
371 45 1
390 45 1
18 46 1
23 46 1
56 46 1
69 46 1
145 46 1
161 46 1
372 46 1
391 46 1
1 47 1
21 47 1
70 47 1
80 47 1
162 47 1
169 47 1
392 47 1
396 47 1
2 48 1
22 48 1
71 48 1
81 48 1
163 48 1
170 48 1
393 48 1
397 48 1
3 49 1
23 49 1
72 49 1
82 49 1
164 49 1
171 49 1
394 49 1
398 49 1
1 50 1
4 50 1
73 50 1
83 50 1
165 50 1
172 50 1
395 50 1
399 50 1
2 51 1
5 51 1
74 51 1
84 51 1
166 51 1
173 51 1
396 51 1
400 51 1
3 52 1
6 52 1
75 52 1
85 52 1
167 52 1
174 52 1
397 52 1
401 52 1
4 53 1
7 53 1
76 53 1
86 53 1
168 53 1
175 53 1
398 53 1
402 53 1
5 54 1
8 54 1
77 54 1
87 54 1
169 54 1
176 54 1
399 54 1
403 54 1
6 55 1
9 55 1
78 55 1
88 55 1
170 55 1
177 55 1
400 55 1
404 55 1
7 56 1
10 56 1
79 56 1
89 56 1
171 56 1
178 56 1
401 56 1
405 56 1
8 57 1
11 57 1
80 57 1
90 57 1
172 57 1
179 57 1
402 57 1
406 57 1
9 58 1
12 58 1
81 58 1
91 58 1
173 58 1
180 58 1
403 58 1
407 58 1
10 59 1
13 59 1
82 59 1
92 59 1
174 59 1
181 59 1
404 59 1
408 59 1
11 60 1
14 60 1
70 60 1
83 60 1
175 60 1
182 60 1
405 60 1
409 60 1
12 61 1
15 61 1
71 61 1
84 61 1
176 61 1
183 61 1
406 61 1
410 61 1
13 62 1
16 62 1
72 62 1
85 62 1
177 62 1
184 62 1
407 62 1
411 62 1
14 63 1
17 63 1
73 63 1
86 63 1
162 63 1
178 63 1
408 63 1
412 63 1
15 64 1
18 64 1
74 64 1
87 64 1
163 64 1
179 64 1
409 64 1
413 64 1
16 65 1
19 65 1
75 65 1
88 65 1
164 65 1
180 65 1
410 65 1
414 65 1
17 66 1
20 66 1
76 66 1
89 66 1
165 66 1
181 66 1
392 66 1
411 66 1
18 67 1
21 67 1
77 67 1
90 67 1
166 67 1
182 67 1
393 67 1
412 67 1
19 68 1
22 68 1
78 68 1
91 68 1
167 68 1
183 68 1
394 68 1
413 68 1
20 69 1
23 69 1
79 69 1
92 69 1
168 69 1
184 69 1
395 69 1
414 69 1
1 70 1
23 70 1
93 70 1
103 70 1
185 70 1
192 70 1
415 70 1
419 70 1
1 71 1
2 71 1
94 71 1
104 71 1
186 71 1
193 71 1
416 71 1
420 71 1
2 72 1
3 72 1
95 72 1
105 72 1
187 72 1
194 72 1
417 72 1
421 72 1
3 73 1
4 73 1
96 73 1
106 73 1
188 73 1
195 73 1
418 73 1
422 73 1
4 74 1
5 74 1
97 74 1
107 74 1
189 74 1
196 74 1
419 74 1
423 74 1
5 75 1
6 75 1
98 75 1
108 75 1
190 75 1
197 75 1
420 75 1
424 75 1
6 76 1
7 76 1
99 76 1
109 76 1
191 76 1
198 76 1
421 76 1
425 76 1
7 77 1
8 77 1
100 77 1
110 77 1
192 77 1
199 77 1
422 77 1
426 77 1
8 78 1
9 78 1
101 78 1
111 78 1
193 78 1
200 78 1
423 78 1
427 78 1
9 79 1
10 79 1
102 79 1
112 79 1
194 79 1
201 79 1
424 79 1
428 79 1
10 80 1
11 80 1
103 80 1
113 80 1
195 80 1
202 80 1
425 80 1
429 80 1
11 81 1
12 81 1
104 81 1
114 81 1
196 81 1
203 81 1
426 81 1
430 81 1
12 82 1
13 82 1
105 82 1
115 82 1
197 82 1
204 82 1
427 82 1
431 82 1
13 83 1
14 83 1
93 83 1
106 83 1
198 83 1
205 83 1
428 83 1
432 83 1
14 84 1
15 84 1
94 84 1
107 84 1
199 84 1
206 84 1
429 84 1
433 84 1
15 85 1
16 85 1
95 85 1
108 85 1
200 85 1
207 85 1
430 85 1
434 85 1
16 86 1
17 86 1
96 86 1
109 86 1
185 86 1
201 86 1
431 86 1
435 86 1
17 87 1
18 87 1
97 87 1
110 87 1
186 87 1
202 87 1
432 87 1
436 87 1
18 88 1
19 88 1
98 88 1
111 88 1
187 88 1
203 88 1
433 88 1
437 88 1
19 89 1
20 89 1
99 89 1
112 89 1
188 89 1
204 89 1
415 89 1
434 89 1
20 90 1
21 90 1
100 90 1
113 90 1
189 90 1
205 90 1
416 90 1
435 90 1
21 91 1
22 91 1
101 91 1
114 91 1
190 91 1
206 91 1
417 91 1
436 91 1
22 92 1
23 92 1
102 92 1
115 92 1
191 92 1
207 92 1
418 92 1
437 92 1
24 93 1
42 93 1
47 93 1
59 93 1
208 93 1
215 93 1
438 93 1
442 93 1
25 94 1
43 94 1
48 94 1
60 94 1
209 94 1
216 94 1
439 94 1
443 94 1
26 95 1
44 95 1
49 95 1
61 95 1
210 95 1
217 95 1
440 95 1
444 95 1
27 96 1
45 96 1
50 96 1
62 96 1
211 96 1
218 96 1
441 96 1
445 96 1
28 97 1
46 97 1
51 97 1
63 97 1
212 97 1
219 97 1
442 97 1
446 97 1
24 98 1
29 98 1
52 98 1
64 98 1
213 98 1
220 98 1
443 98 1
447 98 1
25 99 1
30 99 1
53 99 1
65 99 1
214 99 1
221 99 1
444 99 1
448 99 1
26 100 1
31 100 1
54 100 1
66 100 1
215 100 1
222 100 1
445 100 1
449 100 1
27 101 1
32 101 1
55 101 1
67 101 1
216 101 1
223 101 1
446 101 1
450 101 1
28 102 1
33 102 1
56 102 1
68 102 1
217 102 1
224 102 1
447 102 1
451 102 1
29 103 1
34 103 1
57 103 1
69 103 1
218 103 1
225 103 1
448 103 1
452 103 1
30 104 1
35 104 1
47 104 1
58 104 1
219 104 1
226 104 1
449 104 1
453 104 1
31 105 1
36 105 1
48 105 1
59 105 1
220 105 1
227 105 1
450 105 1
454 105 1
32 106 1
37 106 1
49 106 1
60 106 1
221 106 1
228 106 1
451 106 1
455 106 1
33 107 1
38 107 1
50 107 1
61 107 1
222 107 1
229 107 1
452 107 1
456 107 1
34 108 1
39 108 1
51 108 1
62 108 1
223 108 1
230 108 1
453 108 1
457 108 1
35 109 1
40 109 1
52 109 1
63 109 1
208 109 1
224 109 1
454 109 1
458 109 1
36 110 1
41 110 1
53 110 1
64 110 1
209 110 1
225 110 1
455 110 1
459 110 1
37 111 1
42 111 1
54 111 1
65 111 1
210 111 1
226 111 1
456 111 1
460 111 1
38 112 1
43 112 1
55 112 1
66 112 1
211 112 1
227 112 1
438 112 1
457 112 1
39 113 1
44 113 1
56 113 1
67 113 1
212 113 1
228 113 1
439 113 1
458 113 1
40 114 1
45 114 1
57 114 1
68 114 1
213 114 1
229 114 1
440 114 1
459 114 1
41 115 1
46 115 1
58 115 1
69 115 1
214 115 1
230 115 1
441 115 1
460 115 1
24 116 1
44 116 1
70 116 1
82 116 1
231 116 1
238 116 1
461 116 1
465 116 1
25 117 1
45 117 1
71 117 1
83 117 1
232 117 1
239 117 1
462 117 1
466 117 1
26 118 1
46 118 1
72 118 1
84 118 1
233 118 1
240 118 1
463 118 1
467 118 1
24 119 1
27 119 1
73 119 1
85 119 1
234 119 1
241 119 1
464 119 1
468 119 1
25 120 1
28 120 1
74 120 1
86 120 1
235 120 1
242 120 1
465 120 1
469 120 1
26 121 1
29 121 1
75 121 1
87 121 1
236 121 1
243 121 1
466 121 1
470 121 1
27 122 1
30 122 1
76 122 1
88 122 1
237 122 1
244 122 1
467 122 1
471 122 1
28 123 1
31 123 1
77 123 1
89 123 1
238 123 1
245 123 1
468 123 1
472 123 1
29 124 1
32 124 1
78 124 1
90 124 1
239 124 1
246 124 1
469 124 1
473 124 1
30 125 1
33 125 1
79 125 1
91 125 1
240 125 1
247 125 1
470 125 1
474 125 1
31 126 1
34 126 1
80 126 1
92 126 1
241 126 1
248 126 1
471 126 1
475 126 1
32 127 1
35 127 1
70 127 1
81 127 1
242 127 1
249 127 1
472 127 1
476 127 1
33 128 1
36 128 1
71 128 1
82 128 1
243 128 1
250 128 1
473 128 1
477 128 1
34 129 1
37 129 1
72 129 1
83 129 1
244 129 1
251 129 1
474 129 1
478 129 1
35 130 1
38 130 1
73 130 1
84 130 1
245 130 1
252 130 1
475 130 1
479 130 1
36 131 1
39 131 1
74 131 1
85 131 1
246 131 1
253 131 1
476 131 1
480 131 1
37 132 1
40 132 1
75 132 1
86 132 1
231 132 1
247 132 1
477 132 1
481 132 1
38 133 1
41 133 1
76 133 1
87 133 1
232 133 1
248 133 1
478 133 1
482 133 1
39 134 1
42 134 1
77 134 1
88 134 1
233 134 1
249 134 1
479 134 1
483 134 1
40 135 1
43 135 1
78 135 1
89 135 1
234 135 1
250 135 1
461 135 1
480 135 1
41 136 1
44 136 1
79 136 1
90 136 1
235 136 1
251 136 1
462 136 1
481 136 1
42 137 1
45 137 1
80 137 1
91 137 1
236 137 1
252 137 1
463 137 1
482 137 1
43 138 1
46 138 1
81 138 1
92 138 1
237 138 1
253 138 1
464 138 1
483 138 1
24 139 1
46 139 1
93 139 1
105 139 1
254 139 1
261 139 1
484 139 1
488 139 1
24 140 1
25 140 1
94 140 1
106 140 1
255 140 1
262 140 1
485 140 1
489 140 1
25 141 1
26 141 1
95 141 1
107 141 1
256 141 1
263 141 1
486 141 1
490 141 1
26 142 1
27 142 1
96 142 1
108 142 1
257 142 1
264 142 1
487 142 1
491 142 1
27 143 1
28 143 1
97 143 1
109 143 1
258 143 1
265 143 1
488 143 1
492 143 1
28 144 1
29 144 1
98 144 1
110 144 1
259 144 1
266 144 1
489 144 1
493 144 1
29 145 1
30 145 1
99 145 1
111 145 1
260 145 1
267 145 1
490 145 1
494 145 1
30 146 1
31 146 1
100 146 1
112 146 1
261 146 1
268 146 1
491 146 1
495 146 1
31 147 1
32 147 1
101 147 1
113 147 1
262 147 1
269 147 1
492 147 1
496 147 1
32 148 1
33 148 1
102 148 1
114 148 1
263 148 1
270 148 1
493 148 1
497 148 1
33 149 1
34 149 1
103 149 1
115 149 1
264 149 1
271 149 1
494 149 1
498 149 1
34 150 1
35 150 1
93 150 1
104 150 1
265 150 1
272 150 1
495 150 1
499 150 1
35 151 1
36 151 1
94 151 1
105 151 1
266 151 1
273 151 1
496 151 1
500 151 1
36 152 1
37 152 1
95 152 1
106 152 1
267 152 1
274 152 1
497 152 1
501 152 1
37 153 1
38 153 1
96 153 1
107 153 1
268 153 1
275 153 1
498 153 1
502 153 1
38 154 1
39 154 1
97 154 1
108 154 1
269 154 1
276 154 1
499 154 1
503 154 1
39 155 1
40 155 1
98 155 1
109 155 1
254 155 1
270 155 1
500 155 1
504 155 1
40 156 1
41 156 1
99 156 1
110 156 1
255 156 1
271 156 1
501 156 1
505 156 1
41 157 1
42 157 1
100 157 1
111 157 1
256 157 1
272 157 1
502 157 1
506 157 1
42 158 1
43 158 1
101 158 1
112 158 1
257 158 1
273 158 1
484 158 1
503 158 1
43 159 1
44 159 1
102 159 1
113 159 1
258 159 1
274 159 1
485 159 1
504 159 1
44 160 1
45 160 1
103 160 1
114 160 1
259 160 1
275 160 1
486 160 1
505 160 1
45 161 1
46 161 1
104 161 1
115 161 1
260 161 1
276 161 1
487 161 1
506 161 1
47 162 1
67 162 1
70 162 1
88 162 1
277 162 1
284 162 1
507 162 1
511 162 1
48 163 1
68 163 1
71 163 1
89 163 1
278 163 1
285 163 1
508 163 1
512 163 1
49 164 1
69 164 1
72 164 1
90 164 1
279 164 1
286 164 1
509 164 1
513 164 1
47 165 1
50 165 1
73 165 1
91 165 1
280 165 1
287 165 1
510 165 1
514 165 1
48 166 1
51 166 1
74 166 1
92 166 1
281 166 1
288 166 1
511 166 1
515 166 1
49 167 1
52 167 1
70 167 1
75 167 1
282 167 1
289 167 1
512 167 1
516 167 1
50 168 1
53 168 1
71 168 1
76 168 1
283 168 1
290 168 1
513 168 1
517 168 1
51 169 1
54 169 1
72 169 1
77 169 1
284 169 1
291 169 1
514 169 1
518 169 1
52 170 1
55 170 1
73 170 1
78 170 1
285 170 1
292 170 1
515 170 1
519 170 1
53 171 1
56 171 1
74 171 1
79 171 1
286 171 1
293 171 1
516 171 1
520 171 1
54 172 1
57 172 1
75 172 1
80 172 1
287 172 1
294 172 1
517 172 1
521 172 1
55 173 1
58 173 1
76 173 1
81 173 1
288 173 1
295 173 1
518 173 1
522 173 1
56 174 1
59 174 1
77 174 1
82 174 1
289 174 1
296 174 1
519 174 1
523 174 1
57 175 1
60 175 1
78 175 1
83 175 1
290 175 1
297 175 1
520 175 1
524 175 1
58 176 1
61 176 1
79 176 1
84 176 1
291 176 1
298 176 1
521 176 1
525 176 1
59 177 1
62 177 1
80 177 1
85 177 1
292 177 1
299 177 1
522 177 1
526 177 1
60 178 1
63 178 1
81 178 1
86 178 1
277 178 1
293 178 1
523 178 1
527 178 1
61 179 1
64 179 1
82 179 1
87 179 1
278 179 1
294 179 1
524 179 1
528 179 1
62 180 1
65 180 1
83 180 1
88 180 1
279 180 1
295 180 1
525 180 1
529 180 1
63 181 1
66 181 1
84 181 1
89 181 1
280 181 1
296 181 1
507 181 1
526 181 1
64 182 1
67 182 1
85 182 1
90 182 1
281 182 1
297 182 1
508 182 1
527 182 1
65 183 1
68 183 1
86 183 1
91 183 1
282 183 1
298 183 1
509 183 1
528 183 1
66 184 1
69 184 1
87 184 1
92 184 1
283 184 1
299 184 1
510 184 1
529 184 1
47 185 1
69 185 1
93 185 1
111 185 1
300 185 1
307 185 1
530 185 1
534 185 1
47 186 1
48 186 1
94 186 1
112 186 1
301 186 1
308 186 1
531 186 1
535 186 1
48 187 1
49 187 1
95 187 1
113 187 1
302 187 1
309 187 1
532 187 1
536 187 1
49 188 1
50 188 1
96 188 1
114 188 1
303 188 1
310 188 1
533 188 1
537 188 1
50 189 1
51 189 1
97 189 1
115 189 1
304 189 1
311 189 1
534 189 1
538 189 1
51 190 1
52 190 1
93 190 1
98 190 1
305 190 1
312 190 1
535 190 1
539 190 1
52 191 1
53 191 1
94 191 1
99 191 1
306 191 1
313 191 1
536 191 1
540 191 1
53 192 1
54 192 1
95 192 1
100 192 1
307 192 1
314 192 1
537 192 1
541 192 1
54 193 1
55 193 1
96 193 1
101 193 1
308 193 1
315 193 1
538 193 1
542 193 1
55 194 1
56 194 1
97 194 1
102 194 1
309 194 1
316 194 1
539 194 1
543 194 1
56 195 1
57 195 1
98 195 1
103 195 1
310 195 1
317 195 1
540 195 1
544 195 1
57 196 1
58 196 1
99 196 1
104 196 1
311 196 1
318 196 1
541 196 1
545 196 1
58 197 1
59 197 1
100 197 1
105 197 1
312 197 1
319 197 1
542 197 1
546 197 1
59 198 1
60 198 1
101 198 1
106 198 1
313 198 1
320 198 1
543 198 1
547 198 1
60 199 1
61 199 1
102 199 1
107 199 1
314 199 1
321 199 1
544 199 1
548 199 1
61 200 1
62 200 1
103 200 1
108 200 1
315 200 1
322 200 1
545 200 1
549 200 1
62 201 1
63 201 1
104 201 1
109 201 1
300 201 1
316 201 1
546 201 1
550 201 1
63 202 1
64 202 1
105 202 1
110 202 1
301 202 1
317 202 1
547 202 1
551 202 1
64 203 1
65 203 1
106 203 1
111 203 1
302 203 1
318 203 1
548 203 1
552 203 1
65 204 1
66 204 1
107 204 1
112 204 1
303 204 1
319 204 1
530 204 1
549 204 1
66 205 1
67 205 1
108 205 1
113 205 1
304 205 1
320 205 1
531 205 1
550 205 1
67 206 1
68 206 1
109 206 1
114 206 1
305 206 1
321 206 1
532 206 1
551 206 1
68 207 1
69 207 1
110 207 1
115 207 1
306 207 1
322 207 1
533 207 1
552 207 1
70 208 1
92 208 1
93 208 1
113 208 1
323 208 1
330 208 1
553 208 1
557 208 1
70 209 1
71 209 1
94 209 1
114 209 1
324 209 1
331 209 1
554 209 1
558 209 1
71 210 1
72 210 1
95 210 1
115 210 1
325 210 1
332 210 1
555 210 1
559 210 1
72 211 1
73 211 1
93 211 1
96 211 1
326 211 1
333 211 1
556 211 1
560 211 1
73 212 1
74 212 1
94 212 1
97 212 1
327 212 1
334 212 1
557 212 1
561 212 1
74 213 1
75 213 1
95 213 1
98 213 1
328 213 1
335 213 1
558 213 1
562 213 1
75 214 1
76 214 1
96 214 1
99 214 1
329 214 1
336 214 1
559 214 1
563 214 1
76 215 1
77 215 1
97 215 1
100 215 1
330 215 1
337 215 1
560 215 1
564 215 1
77 216 1
78 216 1
98 216 1
101 216 1
331 216 1
338 216 1
561 216 1
565 216 1
78 217 1
79 217 1
99 217 1
102 217 1
332 217 1
339 217 1
562 217 1
566 217 1
79 218 1
80 218 1
100 218 1
103 218 1
333 218 1
340 218 1
563 218 1
567 218 1
80 219 1
81 219 1
101 219 1
104 219 1
334 219 1
341 219 1
564 219 1
568 219 1
81 220 1
82 220 1
102 220 1
105 220 1
335 220 1
342 220 1
565 220 1
569 220 1
82 221 1
83 221 1
103 221 1
106 221 1
336 221 1
343 221 1
566 221 1
570 221 1
83 222 1
84 222 1
104 222 1
107 222 1
337 222 1
344 222 1
567 222 1
571 222 1
84 223 1
85 223 1
105 223 1
108 223 1
338 223 1
345 223 1
568 223 1
572 223 1
85 224 1
86 224 1
106 224 1
109 224 1
323 224 1
339 224 1
569 224 1
573 224 1
86 225 1
87 225 1
107 225 1
110 225 1
324 225 1
340 225 1
570 225 1
574 225 1
87 226 1
88 226 1
108 226 1
111 226 1
325 226 1
341 226 1
571 226 1
575 226 1
88 227 1
89 227 1
109 227 1
112 227 1
326 227 1
342 227 1
553 227 1
572 227 1
89 228 1
90 228 1
110 228 1
113 228 1
327 228 1
343 228 1
554 228 1
573 228 1
90 229 1
91 229 1
111 229 1
114 229 1
328 229 1
344 229 1
555 229 1
574 229 1
91 230 1
92 230 1
112 230 1
115 230 1
329 230 1
345 230 1
556 230 1
575 230 1
116 231 1
134 231 1
139 231 1
151 231 1
208 231 1
218 231 1
576 231 1
580 231 1
117 232 1
135 232 1
140 232 1
152 232 1
209 232 1
219 232 1
577 232 1
581 232 1
118 233 1
136 233 1
141 233 1
153 233 1
210 233 1
220 233 1
578 233 1
582 233 1
119 234 1
137 234 1
142 234 1
154 234 1
211 234 1
221 234 1
579 234 1
583 234 1
120 235 1
138 235 1
143 235 1
155 235 1
212 235 1
222 235 1
580 235 1
584 235 1
116 236 1
121 236 1
144 236 1
156 236 1
213 236 1
223 236 1
581 236 1
585 236 1
117 237 1
122 237 1
145 237 1
157 237 1
214 237 1
224 237 1
582 237 1
586 237 1
118 238 1
123 238 1
146 238 1
158 238 1
215 238 1
225 238 1
583 238 1
587 238 1
119 239 1
124 239 1
147 239 1
159 239 1
216 239 1
226 239 1
584 239 1
588 239 1
120 240 1
125 240 1
148 240 1
160 240 1
217 240 1
227 240 1
585 240 1
589 240 1
121 241 1
126 241 1
149 241 1
161 241 1
218 241 1
228 241 1
586 241 1
590 241 1
122 242 1
127 242 1
139 242 1
150 242 1
219 242 1
229 242 1
587 242 1
591 242 1
123 243 1
128 243 1
140 243 1
151 243 1
220 243 1
230 243 1
588 243 1
592 243 1
124 244 1
129 244 1
141 244 1
152 244 1
208 244 1
221 244 1
589 244 1
593 244 1
125 245 1
130 245 1
142 245 1
153 245 1
209 245 1
222 245 1
590 245 1
594 245 1
126 246 1
131 246 1
143 246 1
154 246 1
210 246 1
223 246 1
591 246 1
595 246 1
127 247 1
132 247 1
144 247 1
155 247 1
211 247 1
224 247 1
592 247 1
596 247 1
128 248 1
133 248 1
145 248 1
156 248 1
212 248 1
225 248 1
593 248 1
597 248 1
129 249 1
134 249 1
146 249 1
157 249 1
213 249 1
226 249 1
594 249 1
598 249 1
130 250 1
135 250 1
147 250 1
158 250 1
214 250 1
227 250 1
576 250 1
595 250 1
131 251 1
136 251 1
148 251 1
159 251 1
215 251 1
228 251 1
577 251 1
596 251 1
132 252 1
137 252 1
149 252 1
160 252 1
216 252 1
229 252 1
578 252 1
597 252 1
133 253 1
138 253 1
150 253 1
161 253 1
217 253 1
230 253 1
579 253 1
598 253 1
116 254 1
136 254 1
162 254 1
174 254 1
231 254 1
241 254 1
599 254 1
603 254 1
117 255 1
137 255 1
163 255 1
175 255 1
232 255 1
242 255 1
600 255 1
604 255 1
118 256 1
138 256 1
164 256 1
176 256 1
233 256 1
243 256 1
601 256 1
605 256 1
116 257 1
119 257 1
165 257 1
177 257 1
234 257 1
244 257 1
602 257 1
606 257 1
117 258 1
120 258 1
166 258 1
178 258 1
235 258 1
245 258 1
603 258 1
607 258 1
118 259 1
121 259 1
167 259 1
179 259 1
236 259 1
246 259 1
604 259 1
608 259 1
119 260 1
122 260 1
168 260 1
180 260 1
237 260 1
247 260 1
605 260 1
609 260 1
120 261 1
123 261 1
169 261 1
181 261 1
238 261 1
248 261 1
606 261 1
610 261 1
121 262 1
124 262 1
170 262 1
182 262 1
239 262 1
249 262 1
607 262 1
611 262 1
122 263 1
125 263 1
171 263 1
183 263 1
240 263 1
250 263 1
608 263 1
612 263 1
123 264 1
126 264 1
172 264 1
184 264 1
241 264 1
251 264 1
609 264 1
613 264 1
124 265 1
127 265 1
162 265 1
173 265 1
242 265 1
252 265 1
610 265 1
614 265 1
125 266 1
128 266 1
163 266 1
174 266 1
243 266 1
253 266 1
611 266 1
615 266 1
126 267 1
129 267 1
164 267 1
175 267 1
231 267 1
244 267 1
612 267 1
616 267 1
127 268 1
130 268 1
165 268 1
176 268 1
232 268 1
245 268 1
613 268 1
617 268 1
128 269 1
131 269 1
166 269 1
177 269 1
233 269 1
246 269 1
614 269 1
618 269 1
129 270 1
132 270 1
167 270 1
178 270 1
234 270 1
247 270 1
615 270 1
619 270 1
130 271 1
133 271 1
168 271 1
179 271 1
235 271 1
248 271 1
616 271 1
620 271 1
131 272 1
134 272 1
169 272 1
180 272 1
236 272 1
249 272 1
617 272 1
621 272 1
132 273 1
135 273 1
170 273 1
181 273 1
237 273 1
250 273 1
599 273 1
618 273 1
133 274 1
136 274 1
171 274 1
182 274 1
238 274 1
251 274 1
600 274 1
619 274 1
134 275 1
137 275 1
172 275 1
183 275 1
239 275 1
252 275 1
601 275 1
620 275 1
135 276 1
138 276 1
173 276 1
184 276 1
240 276 1
253 276 1
602 276 1
621 276 1
116 277 1
138 277 1
185 277 1
197 277 1
254 277 1
264 277 1
622 277 1
626 277 1
116 278 1
117 278 1
186 278 1
198 278 1
255 278 1
265 278 1
623 278 1
627 278 1
117 279 1
118 279 1
187 279 1
199 279 1
256 279 1
266 279 1
624 279 1
628 279 1
118 280 1
119 280 1
188 280 1
200 280 1
257 280 1
267 280 1
625 280 1
629 280 1
119 281 1
120 281 1
189 281 1
201 281 1
258 281 1
268 281 1
626 281 1
630 281 1
120 282 1
121 282 1
190 282 1
202 282 1
259 282 1
269 282 1
627 282 1
631 282 1
121 283 1
122 283 1
191 283 1
203 283 1
260 283 1
270 283 1
628 283 1
632 283 1
122 284 1
123 284 1
192 284 1
204 284 1
261 284 1
271 284 1
629 284 1
633 284 1
123 285 1
124 285 1
193 285 1
205 285 1
262 285 1
272 285 1
630 285 1
634 285 1
124 286 1
125 286 1
194 286 1
206 286 1
263 286 1
273 286 1
631 286 1
635 286 1
125 287 1
126 287 1
195 287 1
207 287 1
264 287 1
274 287 1
632 287 1
636 287 1
126 288 1
127 288 1
185 288 1
196 288 1
265 288 1
275 288 1
633 288 1
637 288 1
127 289 1
128 289 1
186 289 1
197 289 1
266 289 1
276 289 1
634 289 1
638 289 1
128 290 1
129 290 1
187 290 1
198 290 1
254 290 1
267 290 1
635 290 1
639 290 1
129 291 1
130 291 1
188 291 1
199 291 1
255 291 1
268 291 1
636 291 1
640 291 1
130 292 1
131 292 1
189 292 1
200 292 1
256 292 1
269 292 1
637 292 1
641 292 1
131 293 1
132 293 1
190 293 1
201 293 1
257 293 1
270 293 1
638 293 1
642 293 1
132 294 1
133 294 1
191 294 1
202 294 1
258 294 1
271 294 1
639 294 1
643 294 1
133 295 1
134 295 1
192 295 1
203 295 1
259 295 1
272 295 1
640 295 1
644 295 1
134 296 1
135 296 1
193 296 1
204 296 1
260 296 1
273 296 1
622 296 1
641 296 1
135 297 1
136 297 1
194 297 1
205 297 1
261 297 1
274 297 1
623 297 1
642 297 1
136 298 1
137 298 1
195 298 1
206 298 1
262 298 1
275 298 1
624 298 1
643 298 1
137 299 1
138 299 1
196 299 1
207 299 1
263 299 1
276 299 1
625 299 1
644 299 1
139 300 1
159 300 1
162 300 1
180 300 1
277 300 1
287 300 1
645 300 1
649 300 1
140 301 1
160 301 1
163 301 1
181 301 1
278 301 1
288 301 1
646 301 1
650 301 1
141 302 1
161 302 1
164 302 1
182 302 1
279 302 1
289 302 1
647 302 1
651 302 1
139 303 1
142 303 1
165 303 1
183 303 1
280 303 1
290 303 1
648 303 1
652 303 1
140 304 1
143 304 1
166 304 1
184 304 1
281 304 1
291 304 1
649 304 1
653 304 1
141 305 1
144 305 1
162 305 1
167 305 1
282 305 1
292 305 1
650 305 1
654 305 1
142 306 1
145 306 1
163 306 1
168 306 1
283 306 1
293 306 1
651 306 1
655 306 1
143 307 1
146 307 1
164 307 1
169 307 1
284 307 1
294 307 1
652 307 1
656 307 1
144 308 1
147 308 1
165 308 1
170 308 1
285 308 1
295 308 1
653 308 1
657 308 1
145 309 1
148 309 1
166 309 1
171 309 1
286 309 1
296 309 1
654 309 1
658 309 1
146 310 1
149 310 1
167 310 1
172 310 1
287 310 1
297 310 1
655 310 1
659 310 1
147 311 1
150 311 1
168 311 1
173 311 1
288 311 1
298 311 1
656 311 1
660 311 1
148 312 1
151 312 1
169 312 1
174 312 1
289 312 1
299 312 1
657 312 1
661 312 1
149 313 1
152 313 1
170 313 1
175 313 1
277 313 1
290 313 1
658 313 1
662 313 1
150 314 1
153 314 1
171 314 1
176 314 1
278 314 1
291 314 1
659 314 1
663 314 1
151 315 1
154 315 1
172 315 1
177 315 1
279 315 1
292 315 1
660 315 1
664 315 1
152 316 1
155 316 1
173 316 1
178 316 1
280 316 1
293 316 1
661 316 1
665 316 1
153 317 1
156 317 1
174 317 1
179 317 1
281 317 1
294 317 1
662 317 1
666 317 1
154 318 1
157 318 1
175 318 1
180 318 1
282 318 1
295 318 1
663 318 1
667 318 1
155 319 1
158 319 1
176 319 1
181 319 1
283 319 1
296 319 1
645 319 1
664 319 1
156 320 1
159 320 1
177 320 1
182 320 1
284 320 1
297 320 1
646 320 1
665 320 1
157 321 1
160 321 1
178 321 1
183 321 1
285 321 1
298 321 1
647 321 1
666 321 1
158 322 1
161 322 1
179 322 1
184 322 1
286 322 1
299 322 1
648 322 1
667 322 1
139 323 1
161 323 1
185 323 1
203 323 1
300 323 1
310 323 1
668 323 1
672 323 1
139 324 1
140 324 1
186 324 1
204 324 1
301 324 1
311 324 1
669 324 1
673 324 1
140 325 1
141 325 1
187 325 1
205 325 1
302 325 1
312 325 1
670 325 1
674 325 1
141 326 1
142 326 1
188 326 1
206 326 1
303 326 1
313 326 1
671 326 1
675 326 1
142 327 1
143 327 1
189 327 1
207 327 1
304 327 1
314 327 1
672 327 1
676 327 1
143 328 1
144 328 1
185 328 1
190 328 1
305 328 1
315 328 1
673 328 1
677 328 1
144 329 1
145 329 1
186 329 1
191 329 1
306 329 1
316 329 1
674 329 1
678 329 1
145 330 1
146 330 1
187 330 1
192 330 1
307 330 1
317 330 1
675 330 1
679 330 1
146 331 1
147 331 1
188 331 1
193 331 1
308 331 1
318 331 1
676 331 1
680 331 1
147 332 1
148 332 1
189 332 1
194 332 1
309 332 1
319 332 1
677 332 1
681 332 1
148 333 1
149 333 1
190 333 1
195 333 1
310 333 1
320 333 1
678 333 1
682 333 1
149 334 1
150 334 1
191 334 1
196 334 1
311 334 1
321 334 1
679 334 1
683 334 1
150 335 1
151 335 1
192 335 1
197 335 1
312 335 1
322 335 1
680 335 1
684 335 1
151 336 1
152 336 1
193 336 1
198 336 1
300 336 1
313 336 1
681 336 1
685 336 1
152 337 1
153 337 1
194 337 1
199 337 1
301 337 1
314 337 1
682 337 1
686 337 1
153 338 1
154 338 1
195 338 1
200 338 1
302 338 1
315 338 1
683 338 1
687 338 1
154 339 1
155 339 1
196 339 1
201 339 1
303 339 1
316 339 1
684 339 1
688 339 1
155 340 1
156 340 1
197 340 1
202 340 1
304 340 1
317 340 1
685 340 1
689 340 1
156 341 1
157 341 1
198 341 1
203 341 1
305 341 1
318 341 1
686 341 1
690 341 1
157 342 1
158 342 1
199 342 1
204 342 1
306 342 1
319 342 1
668 342 1
687 342 1
158 343 1
159 343 1
200 343 1
205 343 1
307 343 1
320 343 1
669 343 1
688 343 1
159 344 1
160 344 1
201 344 1
206 344 1
308 344 1
321 344 1
670 344 1
689 344 1
160 345 1
161 345 1
202 345 1
207 345 1
309 345 1
322 345 1
671 345 1
690 345 1
162 346 1
184 346 1
185 346 1
205 346 1
323 346 1
333 346 1
691 346 1
695 346 1
162 347 1
163 347 1
186 347 1
206 347 1
324 347 1
334 347 1
692 347 1
696 347 1
163 348 1
164 348 1
187 348 1
207 348 1
325 348 1
335 348 1
693 348 1
697 348 1
164 349 1
165 349 1
185 349 1
188 349 1
326 349 1
336 349 1
694 349 1
698 349 1
165 350 1
166 350 1
186 350 1
189 350 1
327 350 1
337 350 1
695 350 1
699 350 1
166 351 1
167 351 1
187 351 1
190 351 1
328 351 1
338 351 1
696 351 1
700 351 1
167 352 1
168 352 1
188 352 1
191 352 1
329 352 1
339 352 1
697 352 1
701 352 1
168 353 1
169 353 1
189 353 1
192 353 1
330 353 1
340 353 1
698 353 1
702 353 1
169 354 1
170 354 1
190 354 1
193 354 1
331 354 1
341 354 1
699 354 1
703 354 1
170 355 1
171 355 1
191 355 1
194 355 1
332 355 1
342 355 1
700 355 1
704 355 1
171 356 1
172 356 1
192 356 1
195 356 1
333 356 1
343 356 1
701 356 1
705 356 1
172 357 1
173 357 1
193 357 1
196 357 1
334 357 1
344 357 1
702 357 1
706 357 1
173 358 1
174 358 1
194 358 1
197 358 1
335 358 1
345 358 1
703 358 1
707 358 1
174 359 1
175 359 1
195 359 1
198 359 1
323 359 1
336 359 1
704 359 1
708 359 1
175 360 1
176 360 1
196 360 1
199 360 1
324 360 1
337 360 1
705 360 1
709 360 1
176 361 1
177 361 1
197 361 1
200 361 1
325 361 1
338 361 1
706 361 1
710 361 1
177 362 1
178 362 1
198 362 1
201 362 1
326 362 1
339 362 1
707 362 1
711 362 1
178 363 1
179 363 1
199 363 1
202 363 1
327 363 1
340 363 1
708 363 1
712 363 1
179 364 1
180 364 1
200 364 1
203 364 1
328 364 1
341 364 1
709 364 1
713 364 1
180 365 1
181 365 1
201 365 1
204 365 1
329 365 1
342 365 1
691 365 1
710 365 1
181 366 1
182 366 1
202 366 1
205 366 1
330 366 1
343 366 1
692 366 1
711 366 1
182 367 1
183 367 1
203 367 1
206 367 1
331 367 1
344 367 1
693 367 1
712 367 1
183 368 1
184 368 1
204 368 1
207 368 1
332 368 1
345 368 1
694 368 1
713 368 1
208 369 1
228 369 1
231 369 1
249 369 1
277 369 1
289 369 1
714 369 1
718 369 1
209 370 1
229 370 1
232 370 1
250 370 1
278 370 1
290 370 1
715 370 1
719 370 1
210 371 1
230 371 1
233 371 1
251 371 1
279 371 1
291 371 1
716 371 1
720 371 1
208 372 1
211 372 1
234 372 1
252 372 1
280 372 1
292 372 1
717 372 1
721 372 1
209 373 1
212 373 1
235 373 1
253 373 1
281 373 1
293 373 1
718 373 1
722 373 1
210 374 1
213 374 1
231 374 1
236 374 1
282 374 1
294 374 1
719 374 1
723 374 1
211 375 1
214 375 1
232 375 1
237 375 1
283 375 1
295 375 1
720 375 1
724 375 1
212 376 1
215 376 1
233 376 1
238 376 1
284 376 1
296 376 1
721 376 1
725 376 1
213 377 1
216 377 1
234 377 1
239 377 1
285 377 1
297 377 1
722 377 1
726 377 1
214 378 1
217 378 1
235 378 1
240 378 1
286 378 1
298 378 1
723 378 1
727 378 1
215 379 1
218 379 1
236 379 1
241 379 1
287 379 1
299 379 1
724 379 1
728 379 1
216 380 1
219 380 1
237 380 1
242 380 1
277 380 1
288 380 1
725 380 1
729 380 1
217 381 1
220 381 1
238 381 1
243 381 1
278 381 1
289 381 1
726 381 1
730 381 1
218 382 1
221 382 1
239 382 1
244 382 1
279 382 1
290 382 1
727 382 1
731 382 1
219 383 1
222 383 1
240 383 1
245 383 1
280 383 1
291 383 1
728 383 1
732 383 1
220 384 1
223 384 1
241 384 1
246 384 1
281 384 1
292 384 1
729 384 1
733 384 1
221 385 1
224 385 1
242 385 1
247 385 1
282 385 1
293 385 1
730 385 1
734 385 1
222 386 1
225 386 1
243 386 1
248 386 1
283 386 1
294 386 1
731 386 1
735 386 1
223 387 1
226 387 1
244 387 1
249 387 1
284 387 1
295 387 1
732 387 1
736 387 1
224 388 1
227 388 1
245 388 1
250 388 1
285 388 1
296 388 1
714 388 1
733 388 1
225 389 1
228 389 1
246 389 1
251 389 1
286 389 1
297 389 1
715 389 1
734 389 1
226 390 1
229 390 1
247 390 1
252 390 1
287 390 1
298 390 1
716 390 1
735 390 1
227 391 1
230 391 1
248 391 1
253 391 1
288 391 1
299 391 1
717 391 1
736 391 1
208 392 1
230 392 1
254 392 1
272 392 1
300 392 1
312 392 1
737 392 1
741 392 1
208 393 1
209 393 1
255 393 1
273 393 1
301 393 1
313 393 1
738 393 1
742 393 1
209 394 1
210 394 1
256 394 1
274 394 1
302 394 1
314 394 1
739 394 1
743 394 1
210 395 1
211 395 1
257 395 1
275 395 1
303 395 1
315 395 1
740 395 1
744 395 1
211 396 1
212 396 1
258 396 1
276 396 1
304 396 1
316 396 1
741 396 1
745 396 1
212 397 1
213 397 1
254 397 1
259 397 1
305 397 1
317 397 1
742 397 1
746 397 1
213 398 1
214 398 1
255 398 1
260 398 1
306 398 1
318 398 1
743 398 1
747 398 1
214 399 1
215 399 1
256 399 1
261 399 1
307 399 1
319 399 1
744 399 1
748 399 1
215 400 1
216 400 1
257 400 1
262 400 1
308 400 1
320 400 1
745 400 1
749 400 1
216 401 1
217 401 1
258 401 1
263 401 1
309 401 1
321 401 1
746 401 1
750 401 1
217 402 1
218 402 1
259 402 1
264 402 1
310 402 1
322 402 1
747 402 1
751 402 1
218 403 1
219 403 1
260 403 1
265 403 1
300 403 1
311 403 1
748 403 1
752 403 1
219 404 1
220 404 1
261 404 1
266 404 1
301 404 1
312 404 1
749 404 1
753 404 1
220 405 1
221 405 1
262 405 1
267 405 1
302 405 1
313 405 1
750 405 1
754 405 1
221 406 1
222 406 1
263 406 1
268 406 1
303 406 1
314 406 1
751 406 1
755 406 1
222 407 1
223 407 1
264 407 1
269 407 1
304 407 1
315 407 1
752 407 1
756 407 1
223 408 1
224 408 1
265 408 1
270 408 1
305 408 1
316 408 1
753 408 1
757 408 1
224 409 1
225 409 1
266 409 1
271 409 1
306 409 1
317 409 1
754 409 1
758 409 1
225 410 1
226 410 1
267 410 1
272 410 1
307 410 1
318 410 1
755 410 1
759 410 1
226 411 1
227 411 1
268 411 1
273 411 1
308 411 1
319 411 1
737 411 1
756 411 1
227 412 1
228 412 1
269 412 1
274 412 1
309 412 1
320 412 1
738 412 1
757 412 1
228 413 1
229 413 1
270 413 1
275 413 1
310 413 1
321 413 1
739 413 1
758 413 1
229 414 1
230 414 1
271 414 1
276 414 1
311 414 1
322 414 1
740 414 1
759 414 1
231 415 1
253 415 1
254 415 1
274 415 1
323 415 1
335 415 1
760 415 1
764 415 1
231 416 1
232 416 1
255 416 1
275 416 1
324 416 1
336 416 1
761 416 1
765 416 1
232 417 1
233 417 1
256 417 1
276 417 1
325 417 1
337 417 1
762 417 1
766 417 1
233 418 1
234 418 1
254 418 1
257 418 1
326 418 1
338 418 1
763 418 1
767 418 1
234 419 1
235 419 1
255 419 1
258 419 1
327 419 1
339 419 1
764 419 1
768 419 1
235 420 1
236 420 1
256 420 1
259 420 1
328 420 1
340 420 1
765 420 1
769 420 1
236 421 1
237 421 1
257 421 1
260 421 1
329 421 1
341 421 1
766 421 1
770 421 1
237 422 1
238 422 1
258 422 1
261 422 1
330 422 1
342 422 1
767 422 1
771 422 1
238 423 1
239 423 1
259 423 1
262 423 1
331 423 1
343 423 1
768 423 1
772 423 1
239 424 1
240 424 1
260 424 1
263 424 1
332 424 1
344 424 1
769 424 1
773 424 1
240 425 1
241 425 1
261 425 1
264 425 1
333 425 1
345 425 1
770 425 1
774 425 1
241 426 1
242 426 1
262 426 1
265 426 1
323 426 1
334 426 1
771 426 1
775 426 1
242 427 1
243 427 1
263 427 1
266 427 1
324 427 1
335 427 1
772 427 1
776 427 1
243 428 1
244 428 1
264 428 1
267 428 1
325 428 1
336 428 1
773 428 1
777 428 1
244 429 1
245 429 1
265 429 1
268 429 1
326 429 1
337 429 1
774 429 1
778 429 1
245 430 1
246 430 1
266 430 1
269 430 1
327 430 1
338 430 1
775 430 1
779 430 1
246 431 1
247 431 1
267 431 1
270 431 1
328 431 1
339 431 1
776 431 1
780 431 1
247 432 1
248 432 1
268 432 1
271 432 1
329 432 1
340 432 1
777 432 1
781 432 1
248 433 1
249 433 1
269 433 1
272 433 1
330 433 1
341 433 1
778 433 1
782 433 1
249 434 1
250 434 1
270 434 1
273 434 1
331 434 1
342 434 1
760 434 1
779 434 1
250 435 1
251 435 1
271 435 1
274 435 1
332 435 1
343 435 1
761 435 1
780 435 1
251 436 1
252 436 1
272 436 1
275 436 1
333 436 1
344 436 1
762 436 1
781 436 1
252 437 1
253 437 1
273 437 1
276 437 1
334 437 1
345 437 1
763 437 1
782 437 1
277 438 1
299 438 1
300 438 1
320 438 1
323 438 1
341 438 1
783 438 1
787 438 1
277 439 1
278 439 1
301 439 1
321 439 1
324 439 1
342 439 1
784 439 1
788 439 1
278 440 1
279 440 1
302 440 1
322 440 1
325 440 1
343 440 1
785 440 1
789 440 1
279 441 1
280 441 1
300 441 1
303 441 1
326 441 1
344 441 1
786 441 1
790 441 1
280 442 1
281 442 1
301 442 1
304 442 1
327 442 1
345 442 1
787 442 1
791 442 1
281 443 1
282 443 1
302 443 1
305 443 1
323 443 1
328 443 1
788 443 1
792 443 1
282 444 1
283 444 1
303 444 1
306 444 1
324 444 1
329 444 1
789 444 1
793 444 1
283 445 1
284 445 1
304 445 1
307 445 1
325 445 1
330 445 1
790 445 1
794 445 1
284 446 1
285 446 1
305 446 1
308 446 1
326 446 1
331 446 1
791 446 1
795 446 1
285 447 1
286 447 1
306 447 1
309 447 1
327 447 1
332 447 1
792 447 1
796 447 1
286 448 1
287 448 1
307 448 1
310 448 1
328 448 1
333 448 1
793 448 1
797 448 1
287 449 1
288 449 1
308 449 1
311 449 1
329 449 1
334 449 1
794 449 1
798 449 1
288 450 1
289 450 1
309 450 1
312 450 1
330 450 1
335 450 1
795 450 1
799 450 1
289 451 1
290 451 1
310 451 1
313 451 1
331 451 1
336 451 1
796 451 1
800 451 1
290 452 1
291 452 1
311 452 1
314 452 1
332 452 1
337 452 1
797 452 1
801 452 1
291 453 1
292 453 1
312 453 1
315 453 1
333 453 1
338 453 1
798 453 1
802 453 1
292 454 1
293 454 1
313 454 1
316 454 1
334 454 1
339 454 1
799 454 1
803 454 1
293 455 1
294 455 1
314 455 1
317 455 1
335 455 1
340 455 1
800 455 1
804 455 1
294 456 1
295 456 1
315 456 1
318 456 1
336 456 1
341 456 1
801 456 1
805 456 1
295 457 1
296 457 1
316 457 1
319 457 1
337 457 1
342 457 1
783 457 1
802 457 1
296 458 1
297 458 1
317 458 1
320 458 1
338 458 1
343 458 1
784 458 1
803 458 1
297 459 1
298 459 1
318 459 1
321 459 1
339 459 1
344 459 1
785 459 1
804 459 1
298 460 1
299 460 1
319 460 1
322 460 1
340 460 1
345 460 1
786 460 1
805 460 1
346 461 1
364 461 1
369 461 1
381 461 1
438 461 1
448 461 1
576 461 1
583 461 1
347 462 1
365 462 1
370 462 1
382 462 1
439 462 1
449 462 1
577 462 1
584 462 1
348 463 1
366 463 1
371 463 1
383 463 1
440 463 1
450 463 1
578 463 1
585 463 1
349 464 1
367 464 1
372 464 1
384 464 1
441 464 1
451 464 1
579 464 1
586 464 1
350 465 1
368 465 1
373 465 1
385 465 1
442 465 1
452 465 1
580 465 1
587 465 1
346 466 1
351 466 1
374 466 1
386 466 1
443 466 1
453 466 1
581 466 1
588 466 1
347 467 1
352 467 1
375 467 1
387 467 1
444 467 1
454 467 1
582 467 1
589 467 1
348 468 1
353 468 1
376 468 1
388 468 1
445 468 1
455 468 1
583 468 1
590 468 1
349 469 1
354 469 1
377 469 1
389 469 1
446 469 1
456 469 1
584 469 1
591 469 1
350 470 1
355 470 1
378 470 1
390 470 1
447 470 1
457 470 1
585 470 1
592 470 1
351 471 1
356 471 1
379 471 1
391 471 1
448 471 1
458 471 1
586 471 1
593 471 1
352 472 1
357 472 1
369 472 1
380 472 1
449 472 1
459 472 1
587 472 1
594 472 1
353 473 1
358 473 1
370 473 1
381 473 1
450 473 1
460 473 1
588 473 1
595 473 1
354 474 1
359 474 1
371 474 1
382 474 1
438 474 1
451 474 1
589 474 1
596 474 1
355 475 1
360 475 1
372 475 1
383 475 1
439 475 1
452 475 1
590 475 1
597 475 1
356 476 1
361 476 1
373 476 1
384 476 1
440 476 1
453 476 1
591 476 1
598 476 1
357 477 1
362 477 1
374 477 1
385 477 1
441 477 1
454 477 1
576 477 1
592 477 1
358 478 1
363 478 1
375 478 1
386 478 1
442 478 1
455 478 1
577 478 1
593 478 1
359 479 1
364 479 1
376 479 1
387 479 1
443 479 1
456 479 1
578 479 1
594 479 1
360 480 1
365 480 1
377 480 1
388 480 1
444 480 1
457 480 1
579 480 1
595 480 1
361 481 1
366 481 1
378 481 1
389 481 1
445 481 1
458 481 1
580 481 1
596 481 1
362 482 1
367 482 1
379 482 1
390 482 1
446 482 1
459 482 1
581 482 1
597 482 1
363 483 1
368 483 1
380 483 1
391 483 1
447 483 1
460 483 1
582 483 1
598 483 1
346 484 1
366 484 1
392 484 1
404 484 1
461 484 1
471 484 1
599 484 1
606 484 1
347 485 1
367 485 1
393 485 1
405 485 1
462 485 1
472 485 1
600 485 1
607 485 1
348 486 1
368 486 1
394 486 1
406 486 1
463 486 1
473 486 1
601 486 1
608 486 1
346 487 1
349 487 1
395 487 1
407 487 1
464 487 1
474 487 1
602 487 1
609 487 1
347 488 1
350 488 1
396 488 1
408 488 1
465 488 1
475 488 1
603 488 1
610 488 1
348 489 1
351 489 1
397 489 1
409 489 1
466 489 1
476 489 1
604 489 1
611 489 1
349 490 1
352 490 1
398 490 1
410 490 1
467 490 1
477 490 1
605 490 1
612 490 1
350 491 1
353 491 1
399 491 1
411 491 1
468 491 1
478 491 1
606 491 1
613 491 1
351 492 1
354 492 1
400 492 1
412 492 1
469 492 1
479 492 1
607 492 1
614 492 1
352 493 1
355 493 1
401 493 1
413 493 1
470 493 1
480 493 1
608 493 1
615 493 1
353 494 1
356 494 1
402 494 1
414 494 1
471 494 1
481 494 1
609 494 1
616 494 1
354 495 1
357 495 1
392 495 1
403 495 1
472 495 1
482 495 1
610 495 1
617 495 1
355 496 1
358 496 1
393 496 1
404 496 1
473 496 1
483 496 1
611 496 1
618 496 1
356 497 1
359 497 1
394 497 1
405 497 1
461 497 1
474 497 1
612 497 1
619 497 1
357 498 1
360 498 1
395 498 1
406 498 1
462 498 1
475 498 1
613 498 1
620 498 1
358 499 1
361 499 1
396 499 1
407 499 1
463 499 1
476 499 1
614 499 1
621 499 1
359 500 1
362 500 1
397 500 1
408 500 1
464 500 1
477 500 1
599 500 1
615 500 1
360 501 1
363 501 1
398 501 1
409 501 1
465 501 1
478 501 1
600 501 1
616 501 1
361 502 1
364 502 1
399 502 1
410 502 1
466 502 1
479 502 1
601 502 1
617 502 1
362 503 1
365 503 1
400 503 1
411 503 1
467 503 1
480 503 1
602 503 1
618 503 1
363 504 1
366 504 1
401 504 1
412 504 1
468 504 1
481 504 1
603 504 1
619 504 1
364 505 1
367 505 1
402 505 1
413 505 1
469 505 1
482 505 1
604 505 1
620 505 1
365 506 1
368 506 1
403 506 1
414 506 1
470 506 1
483 506 1
605 506 1
621 506 1
346 507 1
368 507 1
415 507 1
427 507 1
484 507 1
494 507 1
622 507 1
629 507 1
346 508 1
347 508 1
416 508 1
428 508 1
485 508 1
495 508 1
623 508 1
630 508 1
347 509 1
348 509 1
417 509 1
429 509 1
486 509 1
496 509 1
624 509 1
631 509 1
348 510 1
349 510 1
418 510 1
430 510 1
487 510 1
497 510 1
625 510 1
632 510 1
349 511 1
350 511 1
419 511 1
431 511 1
488 511 1
498 511 1
626 511 1
633 511 1
350 512 1
351 512 1
420 512 1
432 512 1
489 512 1
499 512 1
627 512 1
634 512 1
351 513 1
352 513 1
421 513 1
433 513 1
490 513 1
500 513 1
628 513 1
635 513 1
352 514 1
353 514 1
422 514 1
434 514 1
491 514 1
501 514 1
629 514 1
636 514 1
353 515 1
354 515 1
423 515 1
435 515 1
492 515 1
502 515 1
630 515 1
637 515 1
354 516 1
355 516 1
424 516 1
436 516 1
493 516 1
503 516 1
631 516 1
638 516 1
355 517 1
356 517 1
425 517 1
437 517 1
494 517 1
504 517 1
632 517 1
639 517 1
356 518 1
357 518 1
415 518 1
426 518 1
495 518 1
505 518 1
633 518 1
640 518 1
357 519 1
358 519 1
416 519 1
427 519 1
496 519 1
506 519 1
634 519 1
641 519 1
358 520 1
359 520 1
417 520 1
428 520 1
484 520 1
497 520 1
635 520 1
642 520 1
359 521 1
360 521 1
418 521 1
429 521 1
485 521 1
498 521 1
636 521 1
643 521 1
360 522 1
361 522 1
419 522 1
430 522 1
486 522 1
499 522 1
637 522 1
644 522 1
361 523 1
362 523 1
420 523 1
431 523 1
487 523 1
500 523 1
622 523 1
638 523 1
362 524 1
363 524 1
421 524 1
432 524 1
488 524 1
501 524 1
623 524 1
639 524 1
363 525 1
364 525 1
422 525 1
433 525 1
489 525 1
502 525 1
624 525 1
640 525 1
364 526 1
365 526 1
423 526 1
434 526 1
490 526 1
503 526 1
625 526 1
641 526 1
365 527 1
366 527 1
424 527 1
435 527 1
491 527 1
504 527 1
626 527 1
642 527 1
366 528 1
367 528 1
425 528 1
436 528 1
492 528 1
505 528 1
627 528 1
643 528 1
367 529 1
368 529 1
426 529 1
437 529 1
493 529 1
506 529 1
628 529 1
644 529 1
369 530 1
389 530 1
392 530 1
410 530 1
507 530 1
517 530 1
645 530 1
652 530 1
370 531 1
390 531 1
393 531 1
411 531 1
508 531 1
518 531 1
646 531 1
653 531 1
371 532 1
391 532 1
394 532 1
412 532 1
509 532 1
519 532 1
647 532 1
654 532 1
369 533 1
372 533 1
395 533 1
413 533 1
510 533 1
520 533 1
648 533 1
655 533 1
370 534 1
373 534 1
396 534 1
414 534 1
511 534 1
521 534 1
649 534 1
656 534 1
371 535 1
374 535 1
392 535 1
397 535 1
512 535 1
522 535 1
650 535 1
657 535 1
372 536 1
375 536 1
393 536 1
398 536 1
513 536 1
523 536 1
651 536 1
658 536 1
373 537 1
376 537 1
394 537 1
399 537 1
514 537 1
524 537 1
652 537 1
659 537 1
374 538 1
377 538 1
395 538 1
400 538 1
515 538 1
525 538 1
653 538 1
660 538 1
375 539 1
378 539 1
396 539 1
401 539 1
516 539 1
526 539 1
654 539 1
661 539 1
376 540 1
379 540 1
397 540 1
402 540 1
517 540 1
527 540 1
655 540 1
662 540 1
377 541 1
380 541 1
398 541 1
403 541 1
518 541 1
528 541 1
656 541 1
663 541 1
378 542 1
381 542 1
399 542 1
404 542 1
519 542 1
529 542 1
657 542 1
664 542 1
379 543 1
382 543 1
400 543 1
405 543 1
507 543 1
520 543 1
658 543 1
665 543 1
380 544 1
383 544 1
401 544 1
406 544 1
508 544 1
521 544 1
659 544 1
666 544 1
381 545 1
384 545 1
402 545 1
407 545 1
509 545 1
522 545 1
660 545 1
667 545 1
382 546 1
385 546 1
403 546 1
408 546 1
510 546 1
523 546 1
645 546 1
661 546 1
383 547 1
386 547 1
404 547 1
409 547 1
511 547 1
524 547 1
646 547 1
662 547 1
384 548 1
387 548 1
405 548 1
410 548 1
512 548 1
525 548 1
647 548 1
663 548 1
385 549 1
388 549 1
406 549 1
411 549 1
513 549 1
526 549 1
648 549 1
664 549 1
386 550 1
389 550 1
407 550 1
412 550 1
514 550 1
527 550 1
649 550 1
665 550 1
387 551 1
390 551 1
408 551 1
413 551 1
515 551 1
528 551 1
650 551 1
666 551 1
388 552 1
391 552 1
409 552 1
414 552 1
516 552 1
529 552 1
651 552 1
667 552 1
369 553 1
391 553 1
415 553 1
433 553 1
530 553 1
540 553 1
668 553 1
675 553 1
369 554 1
370 554 1
416 554 1
434 554 1
531 554 1
541 554 1
669 554 1
676 554 1
370 555 1
371 555 1
417 555 1
435 555 1
532 555 1
542 555 1
670 555 1
677 555 1
371 556 1
372 556 1
418 556 1
436 556 1
533 556 1
543 556 1
671 556 1
678 556 1
372 557 1
373 557 1
419 557 1
437 557 1
534 557 1
544 557 1
672 557 1
679 557 1
373 558 1
374 558 1
415 558 1
420 558 1
535 558 1
545 558 1
673 558 1
680 558 1
374 559 1
375 559 1
416 559 1
421 559 1
536 559 1
546 559 1
674 559 1
681 559 1
375 560 1
376 560 1
417 560 1
422 560 1
537 560 1
547 560 1
675 560 1
682 560 1
376 561 1
377 561 1
418 561 1
423 561 1
538 561 1
548 561 1
676 561 1
683 561 1
377 562 1
378 562 1
419 562 1
424 562 1
539 562 1
549 562 1
677 562 1
684 562 1
378 563 1
379 563 1
420 563 1
425 563 1
540 563 1
550 563 1
678 563 1
685 563 1
379 564 1
380 564 1
421 564 1
426 564 1
541 564 1
551 564 1
679 564 1
686 564 1
380 565 1
381 565 1
422 565 1
427 565 1
542 565 1
552 565 1
680 565 1
687 565 1
381 566 1
382 566 1
423 566 1
428 566 1
530 566 1
543 566 1
681 566 1
688 566 1
382 567 1
383 567 1
424 567 1
429 567 1
531 567 1
544 567 1
682 567 1
689 567 1
383 568 1
384 568 1
425 568 1
430 568 1
532 568 1
545 568 1
683 568 1
690 568 1
384 569 1
385 569 1
426 569 1
431 569 1
533 569 1
546 569 1
668 569 1
684 569 1
385 570 1
386 570 1
427 570 1
432 570 1
534 570 1
547 570 1
669 570 1
685 570 1
386 571 1
387 571 1
428 571 1
433 571 1
535 571 1
548 571 1
670 571 1
686 571 1
387 572 1
388 572 1
429 572 1
434 572 1
536 572 1
549 572 1
671 572 1
687 572 1
388 573 1
389 573 1
430 573 1
435 573 1
537 573 1
550 573 1
672 573 1
688 573 1
389 574 1
390 574 1
431 574 1
436 574 1
538 574 1
551 574 1
673 574 1
689 574 1
390 575 1
391 575 1
432 575 1
437 575 1
539 575 1
552 575 1
674 575 1
690 575 1
392 576 1
414 576 1
415 576 1
435 576 1
553 576 1
563 576 1
691 576 1
698 576 1
392 577 1
393 577 1
416 577 1
436 577 1
554 577 1
564 577 1
692 577 1
699 577 1
393 578 1
394 578 1
417 578 1
437 578 1
555 578 1
565 578 1
693 578 1
700 578 1
394 579 1
395 579 1
415 579 1
418 579 1
556 579 1
566 579 1
694 579 1
701 579 1
395 580 1
396 580 1
416 580 1
419 580 1
557 580 1
567 580 1
695 580 1
702 580 1
396 581 1
397 581 1
417 581 1
420 581 1
558 581 1
568 581 1
696 581 1
703 581 1
397 582 1
398 582 1
418 582 1
421 582 1
559 582 1
569 582 1
697 582 1
704 582 1
398 583 1
399 583 1
419 583 1
422 583 1
560 583 1
570 583 1
698 583 1
705 583 1
399 584 1
400 584 1
420 584 1
423 584 1
561 584 1
571 584 1
699 584 1
706 584 1
400 585 1
401 585 1
421 585 1
424 585 1
562 585 1
572 585 1
700 585 1
707 585 1
401 586 1
402 586 1
422 586 1
425 586 1
563 586 1
573 586 1
701 586 1
708 586 1
402 587 1
403 587 1
423 587 1
426 587 1
564 587 1
574 587 1
702 587 1
709 587 1
403 588 1
404 588 1
424 588 1
427 588 1
565 588 1
575 588 1
703 588 1
710 588 1
404 589 1
405 589 1
425 589 1
428 589 1
553 589 1
566 589 1
704 589 1
711 589 1
405 590 1
406 590 1
426 590 1
429 590 1
554 590 1
567 590 1
705 590 1
712 590 1
406 591 1
407 591 1
427 591 1
430 591 1
555 591 1
568 591 1
706 591 1
713 591 1
407 592 1
408 592 1
428 592 1
431 592 1
556 592 1
569 592 1
691 592 1
707 592 1
408 593 1
409 593 1
429 593 1
432 593 1
557 593 1
570 593 1
692 593 1
708 593 1
409 594 1
410 594 1
430 594 1
433 594 1
558 594 1
571 594 1
693 594 1
709 594 1
410 595 1
411 595 1
431 595 1
434 595 1
559 595 1
572 595 1
694 595 1
710 595 1
411 596 1
412 596 1
432 596 1
435 596 1
560 596 1
573 596 1
695 596 1
711 596 1
412 597 1
413 597 1
433 597 1
436 597 1
561 597 1
574 597 1
696 597 1
712 597 1
413 598 1
414 598 1
434 598 1
437 598 1
562 598 1
575 598 1
697 598 1
713 598 1
438 599 1
458 599 1
461 599 1
479 599 1
507 599 1
519 599 1
714 599 1
721 599 1
439 600 1
459 600 1
462 600 1
480 600 1
508 600 1
520 600 1
715 600 1
722 600 1
440 601 1
460 601 1
463 601 1
481 601 1
509 601 1
521 601 1
716 601 1
723 601 1
438 602 1
441 602 1
464 602 1
482 602 1
510 602 1
522 602 1
717 602 1
724 602 1
439 603 1
442 603 1
465 603 1
483 603 1
511 603 1
523 603 1
718 603 1
725 603 1
440 604 1
443 604 1
461 604 1
466 604 1
512 604 1
524 604 1
719 604 1
726 604 1
441 605 1
444 605 1
462 605 1
467 605 1
513 605 1
525 605 1
720 605 1
727 605 1
442 606 1
445 606 1
463 606 1
468 606 1
514 606 1
526 606 1
721 606 1
728 606 1
443 607 1
446 607 1
464 607 1
469 607 1
515 607 1
527 607 1
722 607 1
729 607 1
444 608 1
447 608 1
465 608 1
470 608 1
516 608 1
528 608 1
723 608 1
730 608 1
445 609 1
448 609 1
466 609 1
471 609 1
517 609 1
529 609 1
724 609 1
731 609 1
446 610 1
449 610 1
467 610 1
472 610 1
507 610 1
518 610 1
725 610 1
732 610 1
447 611 1
450 611 1
468 611 1
473 611 1
508 611 1
519 611 1
726 611 1
733 611 1
448 612 1
451 612 1
469 612 1
474 612 1
509 612 1
520 612 1
727 612 1
734 612 1
449 613 1
452 613 1
470 613 1
475 613 1
510 613 1
521 613 1
728 613 1
735 613 1
450 614 1
453 614 1
471 614 1
476 614 1
511 614 1
522 614 1
729 614 1
736 614 1
451 615 1
454 615 1
472 615 1
477 615 1
512 615 1
523 615 1
714 615 1
730 615 1
452 616 1
455 616 1
473 616 1
478 616 1
513 616 1
524 616 1
715 616 1
731 616 1
453 617 1
456 617 1
474 617 1
479 617 1
514 617 1
525 617 1
716 617 1
732 617 1
454 618 1
457 618 1
475 618 1
480 618 1
515 618 1
526 618 1
717 618 1
733 618 1
455 619 1
458 619 1
476 619 1
481 619 1
516 619 1
527 619 1
718 619 1
734 619 1
456 620 1
459 620 1
477 620 1
482 620 1
517 620 1
528 620 1
719 620 1
735 620 1
457 621 1
460 621 1
478 621 1
483 621 1
518 621 1
529 621 1
720 621 1
736 621 1
438 622 1
460 622 1
484 622 1
502 622 1
530 622 1
542 622 1
737 622 1
744 622 1
438 623 1
439 623 1
485 623 1
503 623 1
531 623 1
543 623 1
738 623 1
745 623 1
439 624 1
440 624 1
486 624 1
504 624 1
532 624 1
544 624 1
739 624 1
746 624 1
440 625 1
441 625 1
487 625 1
505 625 1
533 625 1
545 625 1
740 625 1
747 625 1
441 626 1
442 626 1
488 626 1
506 626 1
534 626 1
546 626 1
741 626 1
748 626 1
442 627 1
443 627 1
484 627 1
489 627 1
535 627 1
547 627 1
742 627 1
749 627 1
443 628 1
444 628 1
485 628 1
490 628 1
536 628 1
548 628 1
743 628 1
750 628 1
444 629 1
445 629 1
486 629 1
491 629 1
537 629 1
549 629 1
744 629 1
751 629 1
445 630 1
446 630 1
487 630 1
492 630 1
538 630 1
550 630 1
745 630 1
752 630 1
446 631 1
447 631 1
488 631 1
493 631 1
539 631 1
551 631 1
746 631 1
753 631 1
447 632 1
448 632 1
489 632 1
494 632 1
540 632 1
552 632 1
747 632 1
754 632 1
448 633 1
449 633 1
490 633 1
495 633 1
530 633 1
541 633 1
748 633 1
755 633 1
449 634 1
450 634 1
491 634 1
496 634 1
531 634 1
542 634 1
749 634 1
756 634 1
450 635 1
451 635 1
492 635 1
497 635 1
532 635 1
543 635 1
750 635 1
757 635 1
451 636 1
452 636 1
493 636 1
498 636 1
533 636 1
544 636 1
751 636 1
758 636 1
452 637 1
453 637 1
494 637 1
499 637 1
534 637 1
545 637 1
752 637 1
759 637 1
453 638 1
454 638 1
495 638 1
500 638 1
535 638 1
546 638 1
737 638 1
753 638 1
454 639 1
455 639 1
496 639 1
501 639 1
536 639 1
547 639 1
738 639 1
754 639 1
455 640 1
456 640 1
497 640 1
502 640 1
537 640 1
548 640 1
739 640 1
755 640 1
456 641 1
457 641 1
498 641 1
503 641 1
538 641 1
549 641 1
740 641 1
756 641 1
457 642 1
458 642 1
499 642 1
504 642 1
539 642 1
550 642 1
741 642 1
757 642 1
458 643 1
459 643 1
500 643 1
505 643 1
540 643 1
551 643 1
742 643 1
758 643 1
459 644 1
460 644 1
501 644 1
506 644 1
541 644 1
552 644 1
743 644 1
759 644 1
461 645 1
483 645 1
484 645 1
504 645 1
553 645 1
565 645 1
760 645 1
767 645 1
461 646 1
462 646 1
485 646 1
505 646 1
554 646 1
566 646 1
761 646 1
768 646 1
462 647 1
463 647 1
486 647 1
506 647 1
555 647 1
567 647 1
762 647 1
769 647 1
463 648 1
464 648 1
484 648 1
487 648 1
556 648 1
568 648 1
763 648 1
770 648 1
464 649 1
465 649 1
485 649 1
488 649 1
557 649 1
569 649 1
764 649 1
771 649 1
465 650 1
466 650 1
486 650 1
489 650 1
558 650 1
570 650 1
765 650 1
772 650 1
466 651 1
467 651 1
487 651 1
490 651 1
559 651 1
571 651 1
766 651 1
773 651 1
467 652 1
468 652 1
488 652 1
491 652 1
560 652 1
572 652 1
767 652 1
774 652 1
468 653 1
469 653 1
489 653 1
492 653 1
561 653 1
573 653 1
768 653 1
775 653 1
469 654 1
470 654 1
490 654 1
493 654 1
562 654 1
574 654 1
769 654 1
776 654 1
470 655 1
471 655 1
491 655 1
494 655 1
563 655 1
575 655 1
770 655 1
777 655 1
471 656 1
472 656 1
492 656 1
495 656 1
553 656 1
564 656 1
771 656 1
778 656 1
472 657 1
473 657 1
493 657 1
496 657 1
554 657 1
565 657 1
772 657 1
779 657 1
473 658 1
474 658 1
494 658 1
497 658 1
555 658 1
566 658 1
773 658 1
780 658 1
474 659 1
475 659 1
495 659 1
498 659 1
556 659 1
567 659 1
774 659 1
781 659 1
475 660 1
476 660 1
496 660 1
499 660 1
557 660 1
568 660 1
775 660 1
782 660 1
476 661 1
477 661 1
497 661 1
500 661 1
558 661 1
569 661 1
760 661 1
776 661 1
477 662 1
478 662 1
498 662 1
501 662 1
559 662 1
570 662 1
761 662 1
777 662 1
478 663 1
479 663 1
499 663 1
502 663 1
560 663 1
571 663 1
762 663 1
778 663 1
479 664 1
480 664 1
500 664 1
503 664 1
561 664 1
572 664 1
763 664 1
779 664 1
480 665 1
481 665 1
501 665 1
504 665 1
562 665 1
573 665 1
764 665 1
780 665 1
481 666 1
482 666 1
502 666 1
505 666 1
563 666 1
574 666 1
765 666 1
781 666 1
482 667 1
483 667 1
503 667 1
506 667 1
564 667 1
575 667 1
766 667 1
782 667 1
507 668 1
529 668 1
530 668 1
550 668 1
553 668 1
571 668 1
783 668 1
790 668 1
507 669 1
508 669 1
531 669 1
551 669 1
554 669 1
572 669 1
784 669 1
791 669 1
508 670 1
509 670 1
532 670 1
552 670 1
555 670 1
573 670 1
785 670 1
792 670 1
509 671 1
510 671 1
530 671 1
533 671 1
556 671 1
574 671 1
786 671 1
793 671 1
510 672 1
511 672 1
531 672 1
534 672 1
557 672 1
575 672 1
787 672 1
794 672 1
511 673 1
512 673 1
532 673 1
535 673 1
553 673 1
558 673 1
788 673 1
795 673 1
512 674 1
513 674 1
533 674 1
536 674 1
554 674 1
559 674 1
789 674 1
796 674 1
513 675 1
514 675 1
534 675 1
537 675 1
555 675 1
560 675 1
790 675 1
797 675 1
514 676 1
515 676 1
535 676 1
538 676 1
556 676 1
561 676 1
791 676 1
798 676 1
515 677 1
516 677 1
536 677 1
539 677 1
557 677 1
562 677 1
792 677 1
799 677 1
516 678 1
517 678 1
537 678 1
540 678 1
558 678 1
563 678 1
793 678 1
800 678 1
517 679 1
518 679 1
538 679 1
541 679 1
559 679 1
564 679 1
794 679 1
801 679 1
518 680 1
519 680 1
539 680 1
542 680 1
560 680 1
565 680 1
795 680 1
802 680 1
519 681 1
520 681 1
540 681 1
543 681 1
561 681 1
566 681 1
796 681 1
803 681 1
520 682 1
521 682 1
541 682 1
544 682 1
562 682 1
567 682 1
797 682 1
804 682 1
521 683 1
522 683 1
542 683 1
545 683 1
563 683 1
568 683 1
798 683 1
805 683 1
522 684 1
523 684 1
543 684 1
546 684 1
564 684 1
569 684 1
783 684 1
799 684 1
523 685 1
524 685 1
544 685 1
547 685 1
565 685 1
570 685 1
784 685 1
800 685 1
524 686 1
525 686 1
545 686 1
548 686 1
566 686 1
571 686 1
785 686 1
801 686 1
525 687 1
526 687 1
546 687 1
549 687 1
567 687 1
572 687 1
786 687 1
802 687 1
526 688 1
527 688 1
547 688 1
550 688 1
568 688 1
573 688 1
787 688 1
803 688 1
527 689 1
528 689 1
548 689 1
551 689 1
569 689 1
574 689 1
788 689 1
804 689 1
528 690 1
529 690 1
549 690 1
552 690 1
570 690 1
575 690 1
789 690 1
805 690 1
576 691 1
596 691 1
599 691 1
617 691 1
645 691 1
657 691 1
714 691 1
724 691 1
577 692 1
597 692 1
600 692 1
618 692 1
646 692 1
658 692 1
715 692 1
725 692 1
578 693 1
598 693 1
601 693 1
619 693 1
647 693 1
659 693 1
716 693 1
726 693 1
576 694 1
579 694 1
602 694 1
620 694 1
648 694 1
660 694 1
717 694 1
727 694 1
577 695 1
580 695 1
603 695 1
621 695 1
649 695 1
661 695 1
718 695 1
728 695 1
578 696 1
581 696 1
599 696 1
604 696 1
650 696 1
662 696 1
719 696 1
729 696 1
579 697 1
582 697 1
600 697 1
605 697 1
651 697 1
663 697 1
720 697 1
730 697 1
580 698 1
583 698 1
601 698 1
606 698 1
652 698 1
664 698 1
721 698 1
731 698 1
581 699 1
584 699 1
602 699 1
607 699 1
653 699 1
665 699 1
722 699 1
732 699 1
582 700 1
585 700 1
603 700 1
608 700 1
654 700 1
666 700 1
723 700 1
733 700 1
583 701 1
586 701 1
604 701 1
609 701 1
655 701 1
667 701 1
724 701 1
734 701 1
584 702 1
587 702 1
605 702 1
610 702 1
645 702 1
656 702 1
725 702 1
735 702 1
585 703 1
588 703 1
606 703 1
611 703 1
646 703 1
657 703 1
726 703 1
736 703 1
586 704 1
589 704 1
607 704 1
612 704 1
647 704 1
658 704 1
714 704 1
727 704 1
587 705 1
590 705 1
608 705 1
613 705 1
648 705 1
659 705 1
715 705 1
728 705 1
588 706 1
591 706 1
609 706 1
614 706 1
649 706 1
660 706 1
716 706 1
729 706 1
589 707 1
592 707 1
610 707 1
615 707 1
650 707 1
661 707 1
717 707 1
730 707 1
590 708 1
593 708 1
611 708 1
616 708 1
651 708 1
662 708 1
718 708 1
731 708 1
591 709 1
594 709 1
612 709 1
617 709 1
652 709 1
663 709 1
719 709 1
732 709 1
592 710 1
595 710 1
613 710 1
618 710 1
653 710 1
664 710 1
720 710 1
733 710 1
593 711 1
596 711 1
614 711 1
619 711 1
654 711 1
665 711 1
721 711 1
734 711 1
594 712 1
597 712 1
615 712 1
620 712 1
655 712 1
666 712 1
722 712 1
735 712 1
595 713 1
598 713 1
616 713 1
621 713 1
656 713 1
667 713 1
723 713 1
736 713 1
576 714 1
598 714 1
622 714 1
640 714 1
668 714 1
680 714 1
737 714 1
747 714 1
576 715 1
577 715 1
623 715 1
641 715 1
669 715 1
681 715 1
738 715 1
748 715 1
577 716 1
578 716 1
624 716 1
642 716 1
670 716 1
682 716 1
739 716 1
749 716 1
578 717 1
579 717 1
625 717 1
643 717 1
671 717 1
683 717 1
740 717 1
750 717 1
579 718 1
580 718 1
626 718 1
644 718 1
672 718 1
684 718 1
741 718 1
751 718 1
580 719 1
581 719 1
622 719 1
627 719 1
673 719 1
685 719 1
742 719 1
752 719 1
581 720 1
582 720 1
623 720 1
628 720 1
674 720 1
686 720 1
743 720 1
753 720 1
582 721 1
583 721 1
624 721 1
629 721 1
675 721 1
687 721 1
744 721 1
754 721 1
583 722 1
584 722 1
625 722 1
630 722 1
676 722 1
688 722 1
745 722 1
755 722 1
584 723 1
585 723 1
626 723 1
631 723 1
677 723 1
689 723 1
746 723 1
756 723 1
585 724 1
586 724 1
627 724 1
632 724 1
678 724 1
690 724 1
747 724 1
757 724 1
586 725 1
587 725 1
628 725 1
633 725 1
668 725 1
679 725 1
748 725 1
758 725 1
587 726 1
588 726 1
629 726 1
634 726 1
669 726 1
680 726 1
749 726 1
759 726 1
588 727 1
589 727 1
630 727 1
635 727 1
670 727 1
681 727 1
737 727 1
750 727 1
589 728 1
590 728 1
631 728 1
636 728 1
671 728 1
682 728 1
738 728 1
751 728 1
590 729 1
591 729 1
632 729 1
637 729 1
672 729 1
683 729 1
739 729 1
752 729 1
591 730 1
592 730 1
633 730 1
638 730 1
673 730 1
684 730 1
740 730 1
753 730 1
592 731 1
593 731 1
634 731 1
639 731 1
674 731 1
685 731 1
741 731 1
754 731 1
593 732 1
594 732 1
635 732 1
640 732 1
675 732 1
686 732 1
742 732 1
755 732 1
594 733 1
595 733 1
636 733 1
641 733 1
676 733 1
687 733 1
743 733 1
756 733 1
595 734 1
596 734 1
637 734 1
642 734 1
677 734 1
688 734 1
744 734 1
757 734 1
596 735 1
597 735 1
638 735 1
643 735 1
678 735 1
689 735 1
745 735 1
758 735 1
597 736 1
598 736 1
639 736 1
644 736 1
679 736 1
690 736 1
746 736 1
759 736 1
599 737 1
621 737 1
622 737 1
642 737 1
691 737 1
703 737 1
760 737 1
770 737 1
599 738 1
600 738 1
623 738 1
643 738 1
692 738 1
704 738 1
761 738 1
771 738 1
600 739 1
601 739 1
624 739 1
644 739 1
693 739 1
705 739 1
762 739 1
772 739 1
601 740 1
602 740 1
622 740 1
625 740 1
694 740 1
706 740 1
763 740 1
773 740 1
602 741 1
603 741 1
623 741 1
626 741 1
695 741 1
707 741 1
764 741 1
774 741 1
603 742 1
604 742 1
624 742 1
627 742 1
696 742 1
708 742 1
765 742 1
775 742 1
604 743 1
605 743 1
625 743 1
628 743 1
697 743 1
709 743 1
766 743 1
776 743 1
605 744 1
606 744 1
626 744 1
629 744 1
698 744 1
710 744 1
767 744 1
777 744 1
606 745 1
607 745 1
627 745 1
630 745 1
699 745 1
711 745 1
768 745 1
778 745 1
607 746 1
608 746 1
628 746 1
631 746 1
700 746 1
712 746 1
769 746 1
779 746 1
608 747 1
609 747 1
629 747 1
632 747 1
701 747 1
713 747 1
770 747 1
780 747 1
609 748 1
610 748 1
630 748 1
633 748 1
691 748 1
702 748 1
771 748 1
781 748 1
610 749 1
611 749 1
631 749 1
634 749 1
692 749 1
703 749 1
772 749 1
782 749 1
611 750 1
612 750 1
632 750 1
635 750 1
693 750 1
704 750 1
760 750 1
773 750 1
612 751 1
613 751 1
633 751 1
636 751 1
694 751 1
705 751 1
761 751 1
774 751 1
613 752 1
614 752 1
634 752 1
637 752 1
695 752 1
706 752 1
762 752 1
775 752 1
614 753 1
615 753 1
635 753 1
638 753 1
696 753 1
707 753 1
763 753 1
776 753 1
615 754 1
616 754 1
636 754 1
639 754 1
697 754 1
708 754 1
764 754 1
777 754 1
616 755 1
617 755 1
637 755 1
640 755 1
698 755 1
709 755 1
765 755 1
778 755 1
617 756 1
618 756 1
638 756 1
641 756 1
699 756 1
710 756 1
766 756 1
779 756 1
618 757 1
619 757 1
639 757 1
642 757 1
700 757 1
711 757 1
767 757 1
780 757 1
619 758 1
620 758 1
640 758 1
643 758 1
701 758 1
712 758 1
768 758 1
781 758 1
620 759 1
621 759 1
641 759 1
644 759 1
702 759 1
713 759 1
769 759 1
782 759 1
645 760 1
667 760 1
668 760 1
688 760 1
691 760 1
709 760 1
783 760 1
793 760 1
645 761 1
646 761 1
669 761 1
689 761 1
692 761 1
710 761 1
784 761 1
794 761 1
646 762 1
647 762 1
670 762 1
690 762 1
693 762 1
711 762 1
785 762 1
795 762 1
647 763 1
648 763 1
668 763 1
671 763 1
694 763 1
712 763 1
786 763 1
796 763 1
648 764 1
649 764 1
669 764 1
672 764 1
695 764 1
713 764 1
787 764 1
797 764 1
649 765 1
650 765 1
670 765 1
673 765 1
691 765 1
696 765 1
788 765 1
798 765 1
650 766 1
651 766 1
671 766 1
674 766 1
692 766 1
697 766 1
789 766 1
799 766 1
651 767 1
652 767 1
672 767 1
675 767 1
693 767 1
698 767 1
790 767 1
800 767 1
652 768 1
653 768 1
673 768 1
676 768 1
694 768 1
699 768 1
791 768 1
801 768 1
653 769 1
654 769 1
674 769 1
677 769 1
695 769 1
700 769 1
792 769 1
802 769 1
654 770 1
655 770 1
675 770 1
678 770 1
696 770 1
701 770 1
793 770 1
803 770 1
655 771 1
656 771 1
676 771 1
679 771 1
697 771 1
702 771 1
794 771 1
804 771 1
656 772 1
657 772 1
677 772 1
680 772 1
698 772 1
703 772 1
795 772 1
805 772 1
657 773 1
658 773 1
678 773 1
681 773 1
699 773 1
704 773 1
783 773 1
796 773 1
658 774 1
659 774 1
679 774 1
682 774 1
700 774 1
705 774 1
784 774 1
797 774 1
659 775 1
660 775 1
680 775 1
683 775 1
701 775 1
706 775 1
785 775 1
798 775 1
660 776 1
661 776 1
681 776 1
684 776 1
702 776 1
707 776 1
786 776 1
799 776 1
661 777 1
662 777 1
682 777 1
685 777 1
703 777 1
708 777 1
787 777 1
800 777 1
662 778 1
663 778 1
683 778 1
686 778 1
704 778 1
709 778 1
788 778 1
801 778 1
663 779 1
664 779 1
684 779 1
687 779 1
705 779 1
710 779 1
789 779 1
802 779 1
664 780 1
665 780 1
685 780 1
688 780 1
706 780 1
711 780 1
790 780 1
803 780 1
665 781 1
666 781 1
686 781 1
689 781 1
707 781 1
712 781 1
791 781 1
804 781 1
666 782 1
667 782 1
687 782 1
690 782 1
708 782 1
713 782 1
792 782 1
805 782 1
714 783 1
736 783 1
737 783 1
757 783 1
760 783 1
778 783 1
783 783 1
795 783 1
714 784 1
715 784 1
738 784 1
758 784 1
761 784 1
779 784 1
784 784 1
796 784 1
715 785 1
716 785 1
739 785 1
759 785 1
762 785 1
780 785 1
785 785 1
797 785 1
716 786 1
717 786 1
737 786 1
740 786 1
763 786 1
781 786 1
786 786 1
798 786 1
717 787 1
718 787 1
738 787 1
741 787 1
764 787 1
782 787 1
787 787 1
799 787 1
718 788 1
719 788 1
739 788 1
742 788 1
760 788 1
765 788 1
788 788 1
800 788 1
719 789 1
720 789 1
740 789 1
743 789 1
761 789 1
766 789 1
789 789 1
801 789 1
720 790 1
721 790 1
741 790 1
744 790 1
762 790 1
767 790 1
790 790 1
802 790 1
721 791 1
722 791 1
742 791 1
745 791 1
763 791 1
768 791 1
791 791 1
803 791 1
722 792 1
723 792 1
743 792 1
746 792 1
764 792 1
769 792 1
792 792 1
804 792 1
723 793 1
724 793 1
744 793 1
747 793 1
765 793 1
770 793 1
793 793 1
805 793 1
724 794 1
725 794 1
745 794 1
748 794 1
766 794 1
771 794 1
783 794 1
794 794 1
725 795 1
726 795 1
746 795 1
749 795 1
767 795 1
772 795 1
784 795 1
795 795 1
726 796 1
727 796 1
747 796 1
750 796 1
768 796 1
773 796 1
785 796 1
796 796 1
727 797 1
728 797 1
748 797 1
751 797 1
769 797 1
774 797 1
786 797 1
797 797 1
728 798 1
729 798 1
749 798 1
752 798 1
770 798 1
775 798 1
787 798 1
798 798 1
729 799 1
730 799 1
750 799 1
753 799 1
771 799 1
776 799 1
788 799 1
799 799 1
730 800 1
731 800 1
751 800 1
754 800 1
772 800 1
777 800 1
789 800 1
800 800 1
731 801 1
732 801 1
752 801 1
755 801 1
773 801 1
778 801 1
790 801 1
801 801 1
732 802 1
733 802 1
753 802 1
756 802 1
774 802 1
779 802 1
791 802 1
802 802 1
733 803 1
734 803 1
754 803 1
757 803 1
775 803 1
780 803 1
792 803 1
803 803 1
734 804 1
735 804 1
755 804 1
758 804 1
776 804 1
781 804 1
793 804 1
804 804 1
735 805 1
736 805 1
756 805 1
759 805 1
777 805 1
782 805 1
794 805 1
805 805 1
