%%MatrixMarket matrix coordinate integer general
% Binary matrix; one-based indices; arithmetic over GF(2)
448 672 5376
9 1 1
60 1 1
94 1 1
103 1 1
117 1 1
162 1 1
180 1 1
200 1 1
10 2 1
61 2 1
95 2 1
104 2 1
118 2 1
163 2 1
181 2 1
201 2 1
11 3 1
62 3 1
96 3 1
105 3 1
119 3 1
164 3 1
182 3 1
202 3 1
12 4 1
63 4 1
97 4 1
99 4 1
113 4 1
165 4 1
176 4 1
203 4 1
13 5 1
57 5 1
98 5 1
100 5 1
114 5 1
166 5 1
177 5 1
197 5 1
14 6 1
58 6 1
92 6 1
101 6 1
115 6 1
167 6 1
178 6 1
198 6 1
8 7 1
59 7 1
93 7 1
102 7 1
116 7 1
168 7 1
179 7 1
199 7 1
16 8 1
67 8 1
101 8 1
110 8 1
124 8 1
141 8 1
187 8 1
207 8 1
17 9 1
68 9 1
102 9 1
111 9 1
125 9 1
142 9 1
188 9 1
208 9 1
18 10 1
69 10 1
103 10 1
112 10 1
126 10 1
143 10 1
189 10 1
209 10 1
19 11 1
70 11 1
104 11 1
106 11 1
120 11 1
144 11 1
183 11 1
210 11 1
20 12 1
64 12 1
105 12 1
107 12 1
121 12 1
145 12 1
184 12 1
204 12 1
21 13 1
65 13 1
99 13 1
108 13 1
122 13 1
146 13 1
185 13 1
205 13 1
15 14 1
66 14 1
100 14 1
109 14 1
123 14 1
147 14 1
186 14 1
206 14 1
23 15 1
74 15 1
89 15 1
108 15 1
131 15 1
148 15 1
194 15 1
214 15 1
24 16 1
75 16 1
90 16 1
109 16 1
132 16 1
149 16 1
195 16 1
215 16 1
25 17 1
76 17 1
91 17 1
110 17 1
133 17 1
150 17 1
196 17 1
216 17 1
26 18 1
77 18 1
85 18 1
111 18 1
127 18 1
151 18 1
190 18 1
217 18 1
27 19 1
71 19 1
86 19 1
112 19 1
128 19 1
152 19 1
191 19 1
211 19 1
28 20 1
72 20 1
87 20 1
106 20 1
129 20 1
153 20 1
192 20 1
212 20 1
22 21 1
73 21 1
88 21 1
107 21 1
130 21 1
154 21 1
193 21 1
213 21 1
2 22 1
81 22 1
87 22 1
96 22 1
138 22 1
155 22 1
173 22 1
221 22 1
3 23 1
82 23 1
88 23 1
97 23 1
139 23 1
156 23 1
174 23 1
222 23 1
4 24 1
83 24 1
89 24 1
98 24 1
140 24 1
157 24 1
175 24 1
223 24 1
5 25 1
84 25 1
90 25 1
92 25 1
134 25 1
158 25 1
169 25 1
224 25 1
6 26 1
78 26 1
91 26 1
93 26 1
135 26 1
159 26 1
170 26 1
218 26 1
7 27 1
79 27 1
85 27 1
94 27 1
136 27 1
160 27 1
171 27 1
219 27 1
1 28 1
80 28 1
86 28 1
95 28 1
137 28 1
161 28 1
172 28 1
220 28 1
37 29 1
66 29 1
75 29 1
88 29 1
134 29 1
145 29 1
172 29 1
208 29 1
38 30 1
67 30 1
76 30 1
89 30 1
135 30 1
146 30 1
173 30 1
209 30 1
39 31 1
68 31 1
77 31 1
90 31 1
136 31 1
147 31 1
174 31 1
210 31 1
40 32 1
69 32 1
71 32 1
91 32 1
137 32 1
141 32 1
175 32 1
204 32 1
41 33 1
70 33 1
72 33 1
85 33 1
138 33 1
142 33 1
169 33 1
205 33 1
42 34 1
64 34 1
73 34 1
86 34 1
139 34 1
143 34 1
170 34 1
206 34 1
36 35 1
65 35 1
74 35 1
87 35 1
140 35 1
144 35 1
171 35 1
207 35 1
44 36 1
73 36 1
82 36 1
95 36 1
113 36 1
152 36 1
179 36 1
215 36 1
45 37 1
74 37 1
83 37 1
96 37 1
114 37 1
153 37 1
180 37 1
216 37 1
46 38 1
75 38 1
84 38 1
97 38 1
115 38 1
154 38 1
181 38 1
217 38 1
47 39 1
76 39 1
78 39 1
98 39 1
116 39 1
148 39 1
182 39 1
211 39 1
48 40 1
77 40 1
79 40 1
92 40 1
117 40 1
149 40 1
176 40 1
212 40 1
49 41 1
71 41 1
80 41 1
93 41 1
118 41 1
150 41 1
177 41 1
213 41 1
43 42 1
72 42 1
81 42 1
94 42 1
119 42 1
151 42 1
178 42 1
214 42 1
51 43 1
61 43 1
80 43 1
102 43 1
120 43 1
159 43 1
186 43 1
222 43 1
52 44 1
62 44 1
81 44 1
103 44 1
121 44 1
160 44 1
187 44 1
223 44 1
53 45 1
63 45 1
82 45 1
104 45 1
122 45 1
161 45 1
188 45 1
224 45 1
54 46 1
57 46 1
83 46 1
105 46 1
123 46 1
155 46 1
189 46 1
218 46 1
55 47 1
58 47 1
84 47 1
99 47 1
124 47 1
156 47 1
183 47 1
219 47 1
56 48 1
59 48 1
78 48 1
100 48 1
125 48 1
157 48 1
184 48 1
220 48 1
50 49 1
60 49 1
79 49 1
101 49 1
126 49 1
158 49 1
185 49 1
221 49 1
30 50 1
59 50 1
68 50 1
109 50 1
127 50 1
166 50 1
193 50 1
201 50 1
31 51 1
60 51 1
69 51 1
110 51 1
128 51 1
167 51 1
194 51 1
202 51 1
32 52 1
61 52 1
70 52 1
111 52 1
129 52 1
168 52 1
195 52 1
203 52 1
33 53 1
62 53 1
64 53 1
112 53 1
130 53 1
162 53 1
196 53 1
197 53 1
34 54 1
63 54 1
65 54 1
106 54 1
131 54 1
163 54 1
190 54 1
198 54 1
35 55 1
57 55 1
66 55 1
107 55 1
132 55 1
164 55 1
191 55 1
199 55 1
29 56 1
58 56 1
67 56 1
108 56 1
133 56 1
165 56 1
192 56 1
200 56 1
4 57 1
38 57 1
47 57 1
65 57 1
124 57 1
144 57 1
173 57 1
218 57 1
5 58 1
39 58 1
48 58 1
66 58 1
125 58 1
145 58 1
174 58 1
219 58 1
6 59 1
40 59 1
49 59 1
67 59 1
126 59 1
146 59 1
175 59 1
220 59 1
7 60 1
41 60 1
43 60 1
68 60 1
120 60 1
147 60 1
169 60 1
221 60 1
1 61 1
42 61 1
44 61 1
69 61 1
121 61 1
141 61 1
170 61 1
222 61 1
2 62 1
36 62 1
45 62 1
70 62 1
122 62 1
142 62 1
171 62 1
223 62 1
3 63 1
37 63 1
46 63 1
64 63 1
123 63 1
143 63 1
172 63 1
224 63 1
11 64 1
45 64 1
54 64 1
72 64 1
131 64 1
151 64 1
180 64 1
197 64 1
12 65 1
46 65 1
55 65 1
73 65 1
132 65 1
152 65 1
181 65 1
198 65 1
13 66 1
47 66 1
56 66 1
74 66 1
133 66 1
153 66 1
182 66 1
199 66 1
14 67 1
48 67 1
50 67 1
75 67 1
127 67 1
154 67 1
176 67 1
200 67 1
8 68 1
49 68 1
51 68 1
76 68 1
128 68 1
148 68 1
177 68 1
201 68 1
9 69 1
43 69 1
52 69 1
77 69 1
129 69 1
149 69 1
178 69 1
202 69 1
10 70 1
44 70 1
53 70 1
71 70 1
130 70 1
150 70 1
179 70 1
203 70 1
18 71 1
33 71 1
52 71 1
79 71 1
138 71 1
158 71 1
187 71 1
204 71 1
19 72 1
34 72 1
53 72 1
80 72 1
139 72 1
159 72 1
188 72 1
205 72 1
20 73 1
35 73 1
54 73 1
81 73 1
140 73 1
160 73 1
189 73 1
206 73 1
21 74 1
29 74 1
55 74 1
82 74 1
134 74 1
161 74 1
183 74 1
207 74 1
15 75 1
30 75 1
56 75 1
83 75 1
135 75 1
155 75 1
184 75 1
208 75 1
16 76 1
31 76 1
50 76 1
84 76 1
136 76 1
156 76 1
185 76 1
209 76 1
17 77 1
32 77 1
51 77 1
78 77 1
137 77 1
157 77 1
186 77 1
210 77 1
25 78 1
31 78 1
40 78 1
58 78 1
117 78 1
165 78 1
194 78 1
211 78 1
26 79 1
32 79 1
41 79 1
59 79 1
118 79 1
166 79 1
195 79 1
212 79 1
27 80 1
33 80 1
42 80 1
60 80 1
119 80 1
167 80 1
196 80 1
213 80 1
28 81 1
34 81 1
36 81 1
61 81 1
113 81 1
168 81 1
190 81 1
214 81 1
22 82 1
35 82 1
37 82 1
62 82 1
114 82 1
162 82 1
191 82 1
215 82 1
23 83 1
29 83 1
38 83 1
63 83 1
115 83 1
163 83 1
192 83 1
216 83 1
24 84 1
30 84 1
39 84 1
57 84 1
116 84 1
164 84 1
193 84 1
217 84 1
10 85 1
19 85 1
32 85 1
93 85 1
116 85 1
152 85 1
190 85 1
201 85 1
11 86 1
20 86 1
33 86 1
94 86 1
117 86 1
153 86 1
191 86 1
202 86 1
12 87 1
21 87 1
34 87 1
95 87 1
118 87 1
154 87 1
192 87 1
203 87 1
13 88 1
15 88 1
35 88 1
96 88 1
119 88 1
148 88 1
193 88 1
197 88 1
14 89 1
16 89 1
29 89 1
97 89 1
113 89 1
149 89 1
194 89 1
198 89 1
8 90 1
17 90 1
30 90 1
98 90 1
114 90 1
150 90 1
195 90 1
199 90 1
9 91 1
18 91 1
31 91 1
92 91 1
115 91 1
151 91 1
196 91 1
200 91 1
17 92 1
26 92 1
39 92 1
100 92 1
123 92 1
159 92 1
169 92 1
208 92 1
18 93 1
27 93 1
40 93 1
101 93 1
124 93 1
160 93 1
170 93 1
209 93 1
19 94 1
28 94 1
41 94 1
102 94 1
125 94 1
161 94 1
171 94 1
210 94 1
20 95 1
22 95 1
42 95 1
103 95 1
126 95 1
155 95 1
172 95 1
204 95 1
21 96 1
23 96 1
36 96 1
104 96 1
120 96 1
156 96 1
173 96 1
205 96 1
15 97 1
24 97 1
37 97 1
105 97 1
121 97 1
157 97 1
174 97 1
206 97 1
16 98 1
25 98 1
38 98 1
99 98 1
122 98 1
158 98 1
175 98 1
207 98 1
5 99 1
24 99 1
46 99 1
107 99 1
130 99 1
166 99 1
176 99 1
215 99 1
6 100 1
25 100 1
47 100 1
108 100 1
131 100 1
167 100 1
177 100 1
216 100 1
7 101 1
26 101 1
48 101 1
109 101 1
132 101 1
168 101 1
178 101 1
217 101 1
1 102 1
27 102 1
49 102 1
110 102 1
133 102 1
162 102 1
179 102 1
211 102 1
2 103 1
28 103 1
43 103 1
111 103 1
127 103 1
163 103 1
180 103 1
212 103 1
3 104 1
22 104 1
44 104 1
112 104 1
128 104 1
164 104 1
181 104 1
213 104 1
4 105 1
23 105 1
45 105 1
106 105 1
129 105 1
165 105 1
182 105 1
214 105 1
3 106 1
12 106 1
53 106 1
86 106 1
137 106 1
145 106 1
183 106 1
222 106 1
4 107 1
13 107 1
54 107 1
87 107 1
138 107 1
146 107 1
184 107 1
223 107 1
5 108 1
14 108 1
55 108 1
88 108 1
139 108 1
147 108 1
185 108 1
224 108 1
6 109 1
8 109 1
56 109 1
89 109 1
140 109 1
141 109 1
186 109 1
218 109 1
7 110 1
9 110 1
50 110 1
90 110 1
134 110 1
142 110 1
187 110 1
219 110 1
1 111 1
10 111 1
51 111 1
91 111 1
135 111 1
143 111 1
188 111 1
220 111 1
2 112 1
11 112 1
52 112 1
85 112 1
136 112 1
144 112 1
189 112 1
221 112 1
14 113 1
70 113 1
105 113 1
110 113 1
229 113 1
274 113 1
292 113 1
312 113 1
8 114 1
64 114 1
99 114 1
111 114 1
230 114 1
275 114 1
293 114 1
313 114 1
9 115 1
65 115 1
100 115 1
112 115 1
231 115 1
276 115 1
294 115 1
314 115 1
10 116 1
66 116 1
101 116 1
106 116 1
225 116 1
277 116 1
288 116 1
315 116 1
11 117 1
67 117 1
102 117 1
107 117 1
226 117 1
278 117 1
289 117 1
309 117 1
12 118 1
68 118 1
103 118 1
108 118 1
227 118 1
279 118 1
290 118 1
310 118 1
13 119 1
69 119 1
104 119 1
109 119 1
228 119 1
280 119 1
291 119 1
311 119 1
21 120 1
77 120 1
89 120 1
112 120 1
236 120 1
253 120 1
299 120 1
319 120 1
15 121 1
71 121 1
90 121 1
106 121 1
237 121 1
254 121 1
300 121 1
320 121 1
16 122 1
72 122 1
91 122 1
107 122 1
238 122 1
255 122 1
301 122 1
321 122 1
17 123 1
73 123 1
85 123 1
108 123 1
232 123 1
256 123 1
295 123 1
322 123 1
18 124 1
74 124 1
86 124 1
109 124 1
233 124 1
257 124 1
296 124 1
316 124 1
19 125 1
75 125 1
87 125 1
110 125 1
234 125 1
258 125 1
297 125 1
317 125 1
20 126 1
76 126 1
88 126 1
111 126 1
235 126 1
259 126 1
298 126 1
318 126 1
28 127 1
84 127 1
91 127 1
96 127 1
243 127 1
260 127 1
306 127 1
326 127 1
22 128 1
78 128 1
85 128 1
97 128 1
244 128 1
261 128 1
307 128 1
327 128 1
23 129 1
79 129 1
86 129 1
98 129 1
245 129 1
262 129 1
308 129 1
328 129 1
24 130 1
80 130 1
87 130 1
92 130 1
239 130 1
263 130 1
302 130 1
329 130 1
25 131 1
81 131 1
88 131 1
93 131 1
240 131 1
264 131 1
303 131 1
323 131 1
26 132 1
82 132 1
89 132 1
94 132 1
241 132 1
265 132 1
304 132 1
324 132 1
27 133 1
83 133 1
90 133 1
95 133 1
242 133 1
266 133 1
305 133 1
325 133 1
7 134 1
63 134 1
98 134 1
103 134 1
250 134 1
267 134 1
285 134 1
333 134 1
1 135 1
57 135 1
92 135 1
104 135 1
251 135 1
268 135 1
286 135 1
334 135 1
2 136 1
58 136 1
93 136 1
105 136 1
252 136 1
269 136 1
287 136 1
335 136 1
3 137 1
59 137 1
94 137 1
99 137 1
246 137 1
270 137 1
281 137 1
336 137 1
4 138 1
60 138 1
95 138 1
100 138 1
247 138 1
271 138 1
282 138 1
330 138 1
5 139 1
61 139 1
96 139 1
101 139 1
248 139 1
272 139 1
283 139 1
331 139 1
6 140 1
62 140 1
97 140 1
102 140 1
249 140 1
273 140 1
284 140 1
332 140 1
42 141 1
77 141 1
82 141 1
98 141 1
246 141 1
257 141 1
284 141 1
320 141 1
36 142 1
71 142 1
83 142 1
92 142 1
247 142 1
258 142 1
285 142 1
321 142 1
37 143 1
72 143 1
84 143 1
93 143 1
248 143 1
259 143 1
286 143 1
322 143 1
38 144 1
73 144 1
78 144 1
94 144 1
249 144 1
253 144 1
287 144 1
316 144 1
39 145 1
74 145 1
79 145 1
95 145 1
250 145 1
254 145 1
281 145 1
317 145 1
40 146 1
75 146 1
80 146 1
96 146 1
251 146 1
255 146 1
282 146 1
318 146 1
41 147 1
76 147 1
81 147 1
97 147 1
252 147 1
256 147 1
283 147 1
319 147 1
49 148 1
61 148 1
84 148 1
105 148 1
225 148 1
264 148 1
291 148 1
327 148 1
43 149 1
62 149 1
78 149 1
99 149 1
226 149 1
265 149 1
292 149 1
328 149 1
44 150 1
63 150 1
79 150 1
100 150 1
227 150 1
266 150 1
293 150 1
329 150 1
45 151 1
57 151 1
80 151 1
101 151 1
228 151 1
260 151 1
294 151 1
323 151 1
46 152 1
58 152 1
81 152 1
102 152 1
229 152 1
261 152 1
288 152 1
324 152 1
47 153 1
59 153 1
82 153 1
103 153 1
230 153 1
262 153 1
289 153 1
325 153 1
48 154 1
60 154 1
83 154 1
104 154 1
231 154 1
263 154 1
290 154 1
326 154 1
56 155 1
63 155 1
68 155 1
112 155 1
232 155 1
271 155 1
298 155 1
334 155 1
50 156 1
57 156 1
69 156 1
106 156 1
233 156 1
272 156 1
299 156 1
335 156 1
51 157 1
58 157 1
70 157 1
107 157 1
234 157 1
273 157 1
300 157 1
336 157 1
52 158 1
59 158 1
64 158 1
108 158 1
235 158 1
267 158 1
301 158 1
330 158 1
53 159 1
60 159 1
65 159 1
109 159 1
236 159 1
268 159 1
295 159 1
331 159 1
54 160 1
61 160 1
66 160 1
110 160 1
237 160 1
269 160 1
296 160 1
332 160 1
55 161 1
62 161 1
67 161 1
111 161 1
238 161 1
270 161 1
297 161 1
333 161 1
35 162 1
70 162 1
75 162 1
91 162 1
239 162 1
278 162 1
305 162 1
313 162 1
29 163 1
64 163 1
76 163 1
85 163 1
240 163 1
279 163 1
306 163 1
314 163 1
30 164 1
65 164 1
77 164 1
86 164 1
241 164 1
280 164 1
307 164 1
315 164 1
31 165 1
66 165 1
71 165 1
87 165 1
242 165 1
274 165 1
308 165 1
309 165 1
32 166 1
67 166 1
72 166 1
88 166 1
243 166 1
275 166 1
302 166 1
310 166 1
33 167 1
68 167 1
73 167 1
89 167 1
244 167 1
276 167 1
303 167 1
311 167 1
34 168 1
69 168 1
74 168 1
90 168 1
245 168 1
277 168 1
304 168 1
312 168 1
14 169 1
49 169 1
54 169 1
70 169 1
236 169 1
256 169 1
285 169 1
330 169 1
8 170 1
43 170 1
55 170 1
64 170 1
237 170 1
257 170 1
286 170 1
331 170 1
9 171 1
44 171 1
56 171 1
65 171 1
238 171 1
258 171 1
287 171 1
332 171 1
10 172 1
45 172 1
50 172 1
66 172 1
232 172 1
259 172 1
281 172 1
333 172 1
11 173 1
46 173 1
51 173 1
67 173 1
233 173 1
253 173 1
282 173 1
334 173 1
12 174 1
47 174 1
52 174 1
68 174 1
234 174 1
254 174 1
283 174 1
335 174 1
13 175 1
48 175 1
53 175 1
69 175 1
235 175 1
255 175 1
284 175 1
336 175 1
21 176 1
33 176 1
56 176 1
77 176 1
243 176 1
263 176 1
292 176 1
309 176 1
15 177 1
34 177 1
50 177 1
71 177 1
244 177 1
264 177 1
293 177 1
310 177 1
16 178 1
35 178 1
51 178 1
72 178 1
245 178 1
265 178 1
294 178 1
311 178 1
17 179 1
29 179 1
52 179 1
73 179 1
239 179 1
266 179 1
288 179 1
312 179 1
18 180 1
30 180 1
53 180 1
74 180 1
240 180 1
260 180 1
289 180 1
313 180 1
19 181 1
31 181 1
54 181 1
75 181 1
241 181 1
261 181 1
290 181 1
314 181 1
20 182 1
32 182 1
55 182 1
76 182 1
242 182 1
262 182 1
291 182 1
315 182 1
28 183 1
35 183 1
40 183 1
84 183 1
250 183 1
270 183 1
299 183 1
316 183 1
22 184 1
29 184 1
41 184 1
78 184 1
251 184 1
271 184 1
300 184 1
317 184 1
23 185 1
30 185 1
42 185 1
79 185 1
252 185 1
272 185 1
301 185 1
318 185 1
24 186 1
31 186 1
36 186 1
80 186 1
246 186 1
273 186 1
295 186 1
319 186 1
25 187 1
32 187 1
37 187 1
81 187 1
247 187 1
267 187 1
296 187 1
320 187 1
26 188 1
33 188 1
38 188 1
82 188 1
248 188 1
268 188 1
297 188 1
321 188 1
27 189 1
34 189 1
39 189 1
83 189 1
249 189 1
269 189 1
298 189 1
322 189 1
7 190 1
42 190 1
47 190 1
63 190 1
229 190 1
277 190 1
306 190 1
323 190 1
1 191 1
36 191 1
48 191 1
57 191 1
230 191 1
278 191 1
307 191 1
324 191 1
2 192 1
37 192 1
49 192 1
58 192 1
231 192 1
279 192 1
308 192 1
325 192 1
3 193 1
38 193 1
43 193 1
59 193 1
225 193 1
280 193 1
302 193 1
326 193 1
4 194 1
39 194 1
44 194 1
60 194 1
226 194 1
274 194 1
303 194 1
327 194 1
5 195 1
40 195 1
45 195 1
61 195 1
227 195 1
275 195 1
304 195 1
328 195 1
6 196 1
41 196 1
46 196 1
62 196 1
228 196 1
276 196 1
305 196 1
329 196 1
21 197 1
26 197 1
42 197 1
98 197 1
228 197 1
264 197 1
302 197 1
313 197 1
15 198 1
27 198 1
36 198 1
92 198 1
229 198 1
265 198 1
303 198 1
314 198 1
16 199 1
28 199 1
37 199 1
93 199 1
230 199 1
266 199 1
304 199 1
315 199 1
17 200 1
22 200 1
38 200 1
94 200 1
231 200 1
260 200 1
305 200 1
309 200 1
18 201 1
23 201 1
39 201 1
95 201 1
225 201 1
261 201 1
306 201 1
310 201 1
19 202 1
24 202 1
40 202 1
96 202 1
226 202 1
262 202 1
307 202 1
311 202 1
20 203 1
25 203 1
41 203 1
97 203 1
227 203 1
263 203 1
308 203 1
312 203 1
5 204 1
28 204 1
49 204 1
105 204 1
235 204 1
271 204 1
281 204 1
320 204 1
6 205 1
22 205 1
43 205 1
99 205 1
236 205 1
272 205 1
282 205 1
321 205 1
7 206 1
23 206 1
44 206 1
100 206 1
237 206 1
273 206 1
283 206 1
322 206 1
1 207 1
24 207 1
45 207 1
101 207 1
238 207 1
267 207 1
284 207 1
316 207 1
2 208 1
25 208 1
46 208 1
102 208 1
232 208 1
268 208 1
285 208 1
317 208 1
3 209 1
26 209 1
47 209 1
103 209 1
233 209 1
269 209 1
286 209 1
318 209 1
4 210 1
27 210 1
48 210 1
104 210 1
234 210 1
270 210 1
287 210 1
319 210 1
7 211 1
12 211 1
56 211 1
112 211 1
242 211 1
278 211 1
288 211 1
327 211 1
1 212 1
13 212 1
50 212 1
106 212 1
243 212 1
279 212 1
289 212 1
328 212 1
2 213 1
14 213 1
51 213 1
107 213 1
244 213 1
280 213 1
290 213 1
329 213 1
3 214 1
8 214 1
52 214 1
108 214 1
245 214 1
274 214 1
291 214 1
323 214 1
4 215 1
9 215 1
53 215 1
109 215 1
239 215 1
275 215 1
292 215 1
324 215 1
5 216 1
10 216 1
54 216 1
110 216 1
240 216 1
276 216 1
293 216 1
325 216 1
6 217 1
11 217 1
55 217 1
111 217 1
241 217 1
277 217 1
294 217 1
326 217 1
14 218 1
19 218 1
35 218 1
91 218 1
249 218 1
257 218 1
295 218 1
334 218 1
8 219 1
20 219 1
29 219 1
85 219 1
250 219 1
258 219 1
296 219 1
335 219 1
9 220 1
21 220 1
30 220 1
86 220 1
251 220 1
259 220 1
297 220 1
336 220 1
10 221 1
15 221 1
31 221 1
87 221 1
252 221 1
253 221 1
298 221 1
330 221 1
11 222 1
16 222 1
32 222 1
88 222 1
246 222 1
254 222 1
299 222 1
331 222 1
12 223 1
17 223 1
33 223 1
89 223 1
247 223 1
255 223 1
300 223 1
332 223 1
13 224 1
18 224 1
34 224 1
90 224 1
248 224 1
256 224 1
301 224 1
333 224 1
12 225 1
20 225 1
29 225 1
93 225 1
341 225 1
386 225 1
404 225 1
424 225 1
13 226 1
21 226 1
30 226 1
94 226 1
342 226 1
387 226 1
405 226 1
425 226 1
14 227 1
15 227 1
31 227 1
95 227 1
343 227 1
388 227 1
406 227 1
426 227 1
8 228 1
16 228 1
32 228 1
96 228 1
337 228 1
389 228 1
400 228 1
427 228 1
9 229 1
17 229 1
33 229 1
97 229 1
338 229 1
390 229 1
401 229 1
421 229 1
10 230 1
18 230 1
34 230 1
98 230 1
339 230 1
391 230 1
402 230 1
422 230 1
11 231 1
19 231 1
35 231 1
92 231 1
340 231 1
392 231 1
403 231 1
423 231 1
19 232 1
27 232 1
36 232 1
100 232 1
348 232 1
365 232 1
411 232 1
431 232 1
20 233 1
28 233 1
37 233 1
101 233 1
349 233 1
366 233 1
412 233 1
432 233 1
21 234 1
22 234 1
38 234 1
102 234 1
350 234 1
367 234 1
413 234 1
433 234 1
15 235 1
23 235 1
39 235 1
103 235 1
344 235 1
368 235 1
407 235 1
434 235 1
16 236 1
24 236 1
40 236 1
104 236 1
345 236 1
369 236 1
408 236 1
428 236 1
17 237 1
25 237 1
41 237 1
105 237 1
346 237 1
370 237 1
409 237 1
429 237 1
18 238 1
26 238 1
42 238 1
99 238 1
347 238 1
371 238 1
410 238 1
430 238 1
6 239 1
26 239 1
43 239 1
107 239 1
355 239 1
372 239 1
418 239 1
438 239 1
7 240 1
27 240 1
44 240 1
108 240 1
356 240 1
373 240 1
419 240 1
439 240 1
1 241 1
28 241 1
45 241 1
109 241 1
357 241 1
374 241 1
420 241 1
440 241 1
2 242 1
22 242 1
46 242 1
110 242 1
351 242 1
375 242 1
414 242 1
441 242 1
3 243 1
23 243 1
47 243 1
111 243 1
352 243 1
376 243 1
415 243 1
435 243 1
4 244 1
24 244 1
48 244 1
112 244 1
353 244 1
377 244 1
416 244 1
436 244 1
5 245 1
25 245 1
49 245 1
106 245 1
354 245 1
378 245 1
417 245 1
437 245 1
5 246 1
13 246 1
50 246 1
86 246 1
362 246 1
379 246 1
397 246 1
445 246 1
6 247 1
14 247 1
51 247 1
87 247 1
363 247 1
380 247 1
398 247 1
446 247 1
7 248 1
8 248 1
52 248 1
88 248 1
364 248 1
381 248 1
399 248 1
447 248 1
1 249 1
9 249 1
53 249 1
89 249 1
358 249 1
382 249 1
393 249 1
448 249 1
2 250 1
10 250 1
54 250 1
90 250 1
359 250 1
383 250 1
394 250 1
442 250 1
3 251 1
11 251 1
55 251 1
91 251 1
360 251 1
384 251 1
395 251 1
443 251 1
4 252 1
12 252 1
56 252 1
85 252 1
361 252 1
385 252 1
396 252 1
444 252 1
1 253 1
40 253 1
48 253 1
65 253 1
358 253 1
369 253 1
396 253 1
432 253 1
2 254 1
41 254 1
49 254 1
66 254 1
359 254 1
370 254 1
397 254 1
433 254 1
3 255 1
42 255 1
43 255 1
67 255 1
360 255 1
371 255 1
398 255 1
434 255 1
4 256 1
36 256 1
44 256 1
68 256 1
361 256 1
365 256 1
399 256 1
428 256 1
5 257 1
37 257 1
45 257 1
69 257 1
362 257 1
366 257 1
393 257 1
429 257 1
6 258 1
38 258 1
46 258 1
70 258 1
363 258 1
367 258 1
394 258 1
430 258 1
7 259 1
39 259 1
47 259 1
64 259 1
364 259 1
368 259 1
395 259 1
431 259 1
8 260 1
47 260 1
55 260 1
72 260 1
337 260 1
376 260 1
403 260 1
439 260 1
9 261 1
48 261 1
56 261 1
73 261 1
338 261 1
377 261 1
404 261 1
440 261 1
10 262 1
49 262 1
50 262 1
74 262 1
339 262 1
378 262 1
405 262 1
441 262 1
11 263 1
43 263 1
51 263 1
75 263 1
340 263 1
372 263 1
406 263 1
435 263 1
12 264 1
44 264 1
52 264 1
76 264 1
341 264 1
373 264 1
400 264 1
436 264 1
13 265 1
45 265 1
53 265 1
77 265 1
342 265 1
374 265 1
401 265 1
437 265 1
14 266 1
46 266 1
54 266 1
71 266 1
343 266 1
375 266 1
402 266 1
438 266 1
15 267 1
34 267 1
54 267 1
79 267 1
344 267 1
383 267 1
410 267 1
446 267 1
16 268 1
35 268 1
55 268 1
80 268 1
345 268 1
384 268 1
411 268 1
447 268 1
17 269 1
29 269 1
56 269 1
81 269 1
346 269 1
385 269 1
412 269 1
448 269 1
18 270 1
30 270 1
50 270 1
82 270 1
347 270 1
379 270 1
413 270 1
442 270 1
19 271 1
31 271 1
51 271 1
83 271 1
348 271 1
380 271 1
407 271 1
443 271 1
20 272 1
32 272 1
52 272 1
84 272 1
349 272 1
381 272 1
408 272 1
444 272 1
21 273 1
33 273 1
53 273 1
78 273 1
350 273 1
382 273 1
409 273 1
445 273 1
22 274 1
33 274 1
41 274 1
58 274 1
351 274 1
390 274 1
417 274 1
425 274 1
23 275 1
34 275 1
42 275 1
59 275 1
352 275 1
391 275 1
418 275 1
426 275 1
24 276 1
35 276 1
36 276 1
60 276 1
353 276 1
392 276 1
419 276 1
427 276 1
25 277 1
29 277 1
37 277 1
61 277 1
354 277 1
386 277 1
420 277 1
421 277 1
26 278 1
30 278 1
38 278 1
62 278 1
355 278 1
387 278 1
414 278 1
422 278 1
27 279 1
31 279 1
39 279 1
63 279 1
356 279 1
388 279 1
415 279 1
423 279 1
28 280 1
32 280 1
40 280 1
57 280 1
357 280 1
389 280 1
416 280 1
424 280 1
37 281 1
68 281 1
76 281 1
85 281 1
348 281 1
368 281 1
397 281 1
442 281 1
38 282 1
69 282 1
77 282 1
86 282 1
349 282 1
369 282 1
398 282 1
443 282 1
39 283 1
70 283 1
71 283 1
87 283 1
350 283 1
370 283 1
399 283 1
444 283 1
40 284 1
64 284 1
72 284 1
88 284 1
344 284 1
371 284 1
393 284 1
445 284 1
41 285 1
65 285 1
73 285 1
89 285 1
345 285 1
365 285 1
394 285 1
446 285 1
42 286 1
66 286 1
74 286 1
90 286 1
346 286 1
366 286 1
395 286 1
447 286 1
36 287 1
67 287 1
75 287 1
91 287 1
347 287 1
367 287 1
396 287 1
448 287 1
44 288 1
75 288 1
83 288 1
92 288 1
355 288 1
375 288 1
404 288 1
421 288 1
45 289 1
76 289 1
84 289 1
93 289 1
356 289 1
376 289 1
405 289 1
422 289 1
46 290 1
77 290 1
78 290 1
94 290 1
357 290 1
377 290 1
406 290 1
423 290 1
47 291 1
71 291 1
79 291 1
95 291 1
351 291 1
378 291 1
400 291 1
424 291 1
48 292 1
72 292 1
80 292 1
96 292 1
352 292 1
372 292 1
401 292 1
425 292 1
49 293 1
73 293 1
81 293 1
97 293 1
353 293 1
373 293 1
402 293 1
426 293 1
43 294 1
74 294 1
82 294 1
98 294 1
354 294 1
374 294 1
403 294 1
427 294 1
51 295 1
62 295 1
82 295 1
99 295 1
362 295 1
382 295 1
411 295 1
428 295 1
52 296 1
63 296 1
83 296 1
100 296 1
363 296 1
383 296 1
412 296 1
429 296 1
53 297 1
57 297 1
84 297 1
101 297 1
364 297 1
384 297 1
413 297 1
430 297 1
54 298 1
58 298 1
78 298 1
102 298 1
358 298 1
385 298 1
407 298 1
431 298 1
55 299 1
59 299 1
79 299 1
103 299 1
359 299 1
379 299 1
408 299 1
432 299 1
56 300 1
60 300 1
80 300 1
104 300 1
360 300 1
380 300 1
409 300 1
433 300 1
50 301 1
61 301 1
81 301 1
105 301 1
361 301 1
381 301 1
410 301 1
434 301 1
30 302 1
61 302 1
69 302 1
106 302 1
341 302 1
389 302 1
418 302 1
435 302 1
31 303 1
62 303 1
70 303 1
107 303 1
342 303 1
390 303 1
419 303 1
436 303 1
32 304 1
63 304 1
64 304 1
108 304 1
343 304 1
391 304 1
420 304 1
437 304 1
33 305 1
57 305 1
65 305 1
109 305 1
337 305 1
392 305 1
414 305 1
438 305 1
34 306 1
58 306 1
66 306 1
110 306 1
338 306 1
386 306 1
415 306 1
439 306 1
35 307 1
59 307 1
67 307 1
111 307 1
339 307 1
387 307 1
416 307 1
440 307 1
29 308 1
60 308 1
68 308 1
112 308 1
340 308 1
388 308 1
417 308 1
441 308 1
9 309 1
57 309 1
96 309 1
104 309 1
340 309 1
376 309 1
414 309 1
425 309 1
10 310 1
58 310 1
97 310 1
105 310 1
341 310 1
377 310 1
415 310 1
426 310 1
11 311 1
59 311 1
98 311 1
99 311 1
342 311 1
378 311 1
416 311 1
427 311 1
12 312 1
60 312 1
92 312 1
100 312 1
343 312 1
372 312 1
417 312 1
421 312 1
13 313 1
61 313 1
93 313 1
101 313 1
337 313 1
373 313 1
418 313 1
422 313 1
14 314 1
62 314 1
94 314 1
102 314 1
338 314 1
374 314 1
419 314 1
423 314 1
8 315 1
63 315 1
95 315 1
103 315 1
339 315 1
375 315 1
420 315 1
424 315 1
16 316 1
64 316 1
103 316 1
111 316 1
347 316 1
383 316 1
393 316 1
432 316 1
17 317 1
65 317 1
104 317 1
112 317 1
348 317 1
384 317 1
394 317 1
433 317 1
18 318 1
66 318 1
105 318 1
106 318 1
349 318 1
385 318 1
395 318 1
434 318 1
19 319 1
67 319 1
99 319 1
107 319 1
350 319 1
379 319 1
396 319 1
428 319 1
20 320 1
68 320 1
100 320 1
108 320 1
344 320 1
380 320 1
397 320 1
429 320 1
21 321 1
69 321 1
101 321 1
109 321 1
345 321 1
381 321 1
398 321 1
430 321 1
15 322 1
70 322 1
102 322 1
110 322 1
346 322 1
382 322 1
399 322 1
431 322 1
23 323 1
71 323 1
90 323 1
110 323 1
354 323 1
390 323 1
400 323 1
439 323 1
24 324 1
72 324 1
91 324 1
111 324 1
355 324 1
391 324 1
401 324 1
440 324 1
25 325 1
73 325 1
85 325 1
112 325 1
356 325 1
392 325 1
402 325 1
441 325 1
26 326 1
74 326 1
86 326 1
106 326 1
357 326 1
386 326 1
403 326 1
435 326 1
27 327 1
75 327 1
87 327 1
107 327 1
351 327 1
387 327 1
404 327 1
436 327 1
28 328 1
76 328 1
88 328 1
108 328 1
352 328 1
388 328 1
405 328 1
437 328 1
22 329 1
77 329 1
89 329 1
109 329 1
353 329 1
389 329 1
406 329 1
438 329 1
2 330 1
78 330 1
89 330 1
97 330 1
361 330 1
369 330 1
407 330 1
446 330 1
3 331 1
79 331 1
90 331 1
98 331 1
362 331 1
370 331 1
408 331 1
447 331 1
4 332 1
80 332 1
91 332 1
92 332 1
363 332 1
371 332 1
409 332 1
448 332 1
5 333 1
81 333 1
85 333 1
93 333 1
364 333 1
365 333 1
410 333 1
442 333 1
6 334 1
82 334 1
86 334 1
94 334 1
358 334 1
366 334 1
411 334 1
443 334 1
7 335 1
83 335 1
87 335 1
95 335 1
359 335 1
367 335 1
412 335 1
444 335 1
1 336 1
84 336 1
88 336 1
96 336 1
360 336 1
368 336 1
413 336 1
445 336 1
126 337 1
182 337 1
217 337 1
222 337 1
233 337 1
284 337 1
318 337 1
327 337 1
120 338 1
176 338 1
211 338 1
223 338 1
234 338 1
285 338 1
319 338 1
328 338 1
121 339 1
177 339 1
212 339 1
224 339 1
235 339 1
286 339 1
320 339 1
329 339 1
122 340 1
178 340 1
213 340 1
218 340 1
236 340 1
287 340 1
321 340 1
323 340 1
123 341 1
179 341 1
214 341 1
219 341 1
237 341 1
281 341 1
322 341 1
324 341 1
124 342 1
180 342 1
215 342 1
220 342 1
238 342 1
282 342 1
316 342 1
325 342 1
125 343 1
181 343 1
216 343 1
221 343 1
232 343 1
283 343 1
317 343 1
326 343 1
133 344 1
189 344 1
201 344 1
224 344 1
240 344 1
291 344 1
325 344 1
334 344 1
127 345 1
183 345 1
202 345 1
218 345 1
241 345 1
292 345 1
326 345 1
335 345 1
128 346 1
184 346 1
203 346 1
219 346 1
242 346 1
293 346 1
327 346 1
336 346 1
129 347 1
185 347 1
197 347 1
220 347 1
243 347 1
294 347 1
328 347 1
330 347 1
130 348 1
186 348 1
198 348 1
221 348 1
244 348 1
288 348 1
329 348 1
331 348 1
131 349 1
187 349 1
199 349 1
222 349 1
245 349 1
289 349 1
323 349 1
332 349 1
132 350 1
188 350 1
200 350 1
223 350 1
239 350 1
290 350 1
324 350 1
333 350 1
140 351 1
196 351 1
203 351 1
208 351 1
247 351 1
298 351 1
313 351 1
332 351 1
134 352 1
190 352 1
197 352 1
209 352 1
248 352 1
299 352 1
314 352 1
333 352 1
135 353 1
191 353 1
198 353 1
210 353 1
249 353 1
300 353 1
315 353 1
334 353 1
136 354 1
192 354 1
199 354 1
204 354 1
250 354 1
301 354 1
309 354 1
335 354 1
137 355 1
193 355 1
200 355 1
205 355 1
251 355 1
295 355 1
310 355 1
336 355 1
138 356 1
194 356 1
201 356 1
206 356 1
252 356 1
296 356 1
311 356 1
330 356 1
139 357 1
195 357 1
202 357 1
207 357 1
246 357 1
297 357 1
312 357 1
331 357 1
119 358 1
175 358 1
210 358 1
215 358 1
226 358 1
305 358 1
311 358 1
320 358 1
113 359 1
169 359 1
204 359 1
216 359 1
227 359 1
306 359 1
312 359 1
321 359 1
114 360 1
170 360 1
205 360 1
217 360 1
228 360 1
307 360 1
313 360 1
322 360 1
115 361 1
171 361 1
206 361 1
211 361 1
229 361 1
308 361 1
314 361 1
316 361 1
116 362 1
172 362 1
207 362 1
212 362 1
230 362 1
302 362 1
315 362 1
317 362 1
117 363 1
173 363 1
208 363 1
213 363 1
231 363 1
303 363 1
309 363 1
318 363 1
118 364 1
174 364 1
209 364 1
214 364 1
225 364 1
304 364 1
310 364 1
319 364 1
154 365 1
189 365 1
194 365 1
210 365 1
261 365 1
290 365 1
299 365 1
312 365 1
148 366 1
183 366 1
195 366 1
204 366 1
262 366 1
291 366 1
300 366 1
313 366 1
149 367 1
184 367 1
196 367 1
205 367 1
263 367 1
292 367 1
301 367 1
314 367 1
150 368 1
185 368 1
190 368 1
206 368 1
264 368 1
293 368 1
295 368 1
315 368 1
151 369 1
186 369 1
191 369 1
207 369 1
265 369 1
294 369 1
296 369 1
309 369 1
152 370 1
187 370 1
192 370 1
208 370 1
266 370 1
288 370 1
297 370 1
310 370 1
153 371 1
188 371 1
193 371 1
209 371 1
260 371 1
289 371 1
298 371 1
311 371 1
161 372 1
173 372 1
196 372 1
217 372 1
268 372 1
297 372 1
306 372 1
319 372 1
155 373 1
174 373 1
190 373 1
211 373 1
269 373 1
298 373 1
307 373 1
320 373 1
156 374 1
175 374 1
191 374 1
212 374 1
270 374 1
299 374 1
308 374 1
321 374 1
157 375 1
169 375 1
192 375 1
213 375 1
271 375 1
300 375 1
302 375 1
322 375 1
158 376 1
170 376 1
193 376 1
214 376 1
272 376 1
301 376 1
303 376 1
316 376 1
159 377 1
171 377 1
194 377 1
215 377 1
273 377 1
295 377 1
304 377 1
317 377 1
160 378 1
172 378 1
195 378 1
216 378 1
267 378 1
296 378 1
305 378 1
318 378 1
168 379 1
175 379 1
180 379 1
224 379 1
275 379 1
285 379 1
304 379 1
326 379 1
162 380 1
169 380 1
181 380 1
218 380 1
276 380 1
286 380 1
305 380 1
327 380 1
163 381 1
170 381 1
182 381 1
219 381 1
277 381 1
287 381 1
306 381 1
328 381 1
164 382 1
171 382 1
176 382 1
220 382 1
278 382 1
281 382 1
307 382 1
329 382 1
165 383 1
172 383 1
177 383 1
221 383 1
279 383 1
282 383 1
308 383 1
323 383 1
166 384 1
173 384 1
178 384 1
222 384 1
280 384 1
283 384 1
302 384 1
324 384 1
167 385 1
174 385 1
179 385 1
223 385 1
274 385 1
284 385 1
303 385 1
325 385 1
147 386 1
182 386 1
187 386 1
203 386 1
254 386 1
283 386 1
292 386 1
333 386 1
141 387 1
176 387 1
188 387 1
197 387 1
255 387 1
284 387 1
293 387 1
334 387 1
142 388 1
177 388 1
189 388 1
198 388 1
256 388 1
285 388 1
294 388 1
335 388 1
143 389 1
178 389 1
183 389 1
199 389 1
257 389 1
286 389 1
288 389 1
336 389 1
144 390 1
179 390 1
184 390 1
200 390 1
258 390 1
287 390 1
289 390 1
330 390 1
145 391 1
180 391 1
185 391 1
201 391 1
259 391 1
281 391 1
290 391 1
331 391 1
146 392 1
181 392 1
186 392 1
202 392 1
253 392 1
282 392 1
291 392 1
332 392 1
126 393 1
161 393 1
166 393 1
182 393 1
228 393 1
262 393 1
271 393 1
289 393 1
120 394 1
155 394 1
167 394 1
176 394 1
229 394 1
263 394 1
272 394 1
290 394 1
121 395 1
156 395 1
168 395 1
177 395 1
230 395 1
264 395 1
273 395 1
291 395 1
122 396 1
157 396 1
162 396 1
178 396 1
231 396 1
265 396 1
267 396 1
292 396 1
123 397 1
158 397 1
163 397 1
179 397 1
225 397 1
266 397 1
268 397 1
293 397 1
124 398 1
159 398 1
164 398 1
180 398 1
226 398 1
260 398 1
269 398 1
294 398 1
125 399 1
160 399 1
165 399 1
181 399 1
227 399 1
261 399 1
270 399 1
288 399 1
133 400 1
145 400 1
168 400 1
189 400 1
235 400 1
269 400 1
278 400 1
296 400 1
127 401 1
146 401 1
162 401 1
183 401 1
236 401 1
270 401 1
279 401 1
297 401 1
128 402 1
147 402 1
163 402 1
184 402 1
237 402 1
271 402 1
280 402 1
298 402 1
129 403 1
141 403 1
164 403 1
185 403 1
238 403 1
272 403 1
274 403 1
299 403 1
130 404 1
142 404 1
165 404 1
186 404 1
232 404 1
273 404 1
275 404 1
300 404 1
131 405 1
143 405 1
166 405 1
187 405 1
233 405 1
267 405 1
276 405 1
301 405 1
132 406 1
144 406 1
167 406 1
188 406 1
234 406 1
268 406 1
277 406 1
295 406 1
140 407 1
147 407 1
152 407 1
196 407 1
242 407 1
257 407 1
276 407 1
303 407 1
134 408 1
141 408 1
153 408 1
190 408 1
243 408 1
258 408 1
277 408 1
304 408 1
135 409 1
142 409 1
154 409 1
191 409 1
244 409 1
259 409 1
278 409 1
305 409 1
136 410 1
143 410 1
148 410 1
192 410 1
245 410 1
253 410 1
279 410 1
306 410 1
137 411 1
144 411 1
149 411 1
193 411 1
239 411 1
254 411 1
280 411 1
307 411 1
138 412 1
145 412 1
150 412 1
194 412 1
240 412 1
255 412 1
274 412 1
308 412 1
139 413 1
146 413 1
151 413 1
195 413 1
241 413 1
256 413 1
275 413 1
302 413 1
119 414 1
154 414 1
159 414 1
175 414 1
249 414 1
255 414 1
264 414 1
282 414 1
113 415 1
148 415 1
160 415 1
169 415 1
250 415 1
256 415 1
265 415 1
283 415 1
114 416 1
149 416 1
161 416 1
170 416 1
251 416 1
257 416 1
266 416 1
284 416 1
115 417 1
150 417 1
155 417 1
171 417 1
252 417 1
258 417 1
260 417 1
285 417 1
116 418 1
151 418 1
156 418 1
172 418 1
246 418 1
259 418 1
261 418 1
286 418 1
117 419 1
152 419 1
157 419 1
173 419 1
247 419 1
253 419 1
262 419 1
287 419 1
118 420 1
153 420 1
158 420 1
174 420 1
248 420 1
254 420 1
263 420 1
281 420 1
133 421 1
138 421 1
154 421 1
210 421 1
234 421 1
243 421 1
256 421 1
317 421 1
127 422 1
139 422 1
148 422 1
204 422 1
235 422 1
244 422 1
257 422 1
318 422 1
128 423 1
140 423 1
149 423 1
205 423 1
236 423 1
245 423 1
258 423 1
319 423 1
129 424 1
134 424 1
150 424 1
206 424 1
237 424 1
239 424 1
259 424 1
320 424 1
130 425 1
135 425 1
151 425 1
207 425 1
238 425 1
240 425 1
253 425 1
321 425 1
131 426 1
136 426 1
152 426 1
208 426 1
232 426 1
241 426 1
254 426 1
322 426 1
132 427 1
137 427 1
153 427 1
209 427 1
233 427 1
242 427 1
255 427 1
316 427 1
117 428 1
140 428 1
161 428 1
217 428 1
241 428 1
250 428 1
263 428 1
324 428 1
118 429 1
134 429 1
155 429 1
211 429 1
242 429 1
251 429 1
264 429 1
325 429 1
119 430 1
135 430 1
156 430 1
212 430 1
243 430 1
252 430 1
265 430 1
326 430 1
113 431 1
136 431 1
157 431 1
213 431 1
244 431 1
246 431 1
266 431 1
327 431 1
114 432 1
137 432 1
158 432 1
214 432 1
245 432 1
247 432 1
260 432 1
328 432 1
115 433 1
138 433 1
159 433 1
215 433 1
239 433 1
248 433 1
261 433 1
329 433 1
116 434 1
139 434 1
160 434 1
216 434 1
240 434 1
249 434 1
262 434 1
323 434 1
119 435 1
124 435 1
168 435 1
224 435 1
229 435 1
248 435 1
270 435 1
331 435 1
113 436 1
125 436 1
162 436 1
218 436 1
230 436 1
249 436 1
271 436 1
332 436 1
114 437 1
126 437 1
163 437 1
219 437 1
231 437 1
250 437 1
272 437 1
333 437 1
115 438 1
120 438 1
164 438 1
220 438 1
225 438 1
251 438 1
273 438 1
334 438 1
116 439 1
121 439 1
165 439 1
221 439 1
226 439 1
252 439 1
267 439 1
335 439 1
117 440 1
122 440 1
166 440 1
222 440 1
227 440 1
246 440 1
268 440 1
336 440 1
118 441 1
123 441 1
167 441 1
223 441 1
228 441 1
247 441 1
269 441 1
330 441 1
126 442 1
131 442 1
147 442 1
203 442 1
227 442 1
236 442 1
277 442 1
310 442 1
120 443 1
132 443 1
141 443 1
197 443 1
228 443 1
237 443 1
278 443 1
311 443 1
121 444 1
133 444 1
142 444 1
198 444 1
229 444 1
238 444 1
279 444 1
312 444 1
122 445 1
127 445 1
143 445 1
199 445 1
230 445 1
232 445 1
280 445 1
313 445 1
123 446 1
128 446 1
144 446 1
200 446 1
231 446 1
233 446 1
274 446 1
314 446 1
124 447 1
129 447 1
145 447 1
201 447 1
225 447 1
234 447 1
275 447 1
315 447 1
125 448 1
130 448 1
146 448 1
202 448 1
226 448 1
235 448 1
276 448 1
309 448 1
124 449 1
132 449 1
141 449 1
205 449 1
345 449 1
396 449 1
430 449 1
439 449 1
125 450 1
133 450 1
142 450 1
206 450 1
346 450 1
397 450 1
431 450 1
440 450 1
126 451 1
127 451 1
143 451 1
207 451 1
347 451 1
398 451 1
432 451 1
441 451 1
120 452 1
128 452 1
144 452 1
208 452 1
348 452 1
399 452 1
433 452 1
435 452 1
121 453 1
129 453 1
145 453 1
209 453 1
349 453 1
393 453 1
434 453 1
436 453 1
122 454 1
130 454 1
146 454 1
210 454 1
350 454 1
394 454 1
428 454 1
437 454 1
123 455 1
131 455 1
147 455 1
204 455 1
344 455 1
395 455 1
429 455 1
438 455 1
131 456 1
139 456 1
148 456 1
212 456 1
352 456 1
403 456 1
437 456 1
446 456 1
132 457 1
140 457 1
149 457 1
213 457 1
353 457 1
404 457 1
438 457 1
447 457 1
133 458 1
134 458 1
150 458 1
214 458 1
354 458 1
405 458 1
439 458 1
448 458 1
127 459 1
135 459 1
151 459 1
215 459 1
355 459 1
406 459 1
440 459 1
442 459 1
128 460 1
136 460 1
152 460 1
216 460 1
356 460 1
400 460 1
441 460 1
443 460 1
129 461 1
137 461 1
153 461 1
217 461 1
357 461 1
401 461 1
435 461 1
444 461 1
130 462 1
138 462 1
154 462 1
211 462 1
351 462 1
402 462 1
436 462 1
445 462 1
118 463 1
138 463 1
155 463 1
219 463 1
359 463 1
410 463 1
425 463 1
444 463 1
119 464 1
139 464 1
156 464 1
220 464 1
360 464 1
411 464 1
426 464 1
445 464 1
113 465 1
140 465 1
157 465 1
221 465 1
361 465 1
412 465 1
427 465 1
446 465 1
114 466 1
134 466 1
158 466 1
222 466 1
362 466 1
413 466 1
421 466 1
447 466 1
115 467 1
135 467 1
159 467 1
223 467 1
363 467 1
407 467 1
422 467 1
448 467 1
116 468 1
136 468 1
160 468 1
224 468 1
364 468 1
408 468 1
423 468 1
442 468 1
117 469 1
137 469 1
161 469 1
218 469 1
358 469 1
409 469 1
424 469 1
443 469 1
117 470 1
125 470 1
162 470 1
198 470 1
338 470 1
417 470 1
423 470 1
432 470 1
118 471 1
126 471 1
163 471 1
199 471 1
339 471 1
418 471 1
424 471 1
433 471 1
119 472 1
120 472 1
164 472 1
200 472 1
340 472 1
419 472 1
425 472 1
434 472 1
113 473 1
121 473 1
165 473 1
201 473 1
341 473 1
420 473 1
426 473 1
428 473 1
114 474 1
122 474 1
166 474 1
202 474 1
342 474 1
414 474 1
427 474 1
429 474 1
115 475 1
123 475 1
167 475 1
203 475 1
343 475 1
415 475 1
421 475 1
430 475 1
116 476 1
124 476 1
168 476 1
197 476 1
337 476 1
416 476 1
422 476 1
431 476 1
113 477 1
152 477 1
160 477 1
177 477 1
373 477 1
402 477 1
411 477 1
424 477 1
114 478 1
153 478 1
161 478 1
178 478 1
374 478 1
403 478 1
412 478 1
425 478 1
115 479 1
154 479 1
155 479 1
179 479 1
375 479 1
404 479 1
413 479 1
426 479 1
116 480 1
148 480 1
156 480 1
180 480 1
376 480 1
405 480 1
407 480 1
427 480 1
117 481 1
149 481 1
157 481 1
181 481 1
377 481 1
406 481 1
408 481 1
421 481 1
118 482 1
150 482 1
158 482 1
182 482 1
378 482 1
400 482 1
409 482 1
422 482 1
119 483 1
151 483 1
159 483 1
176 483 1
372 483 1
401 483 1
410 483 1
423 483 1
120 484 1
159 484 1
167 484 1
184 484 1
380 484 1
409 484 1
418 484 1
431 484 1
121 485 1
160 485 1
168 485 1
185 485 1
381 485 1
410 485 1
419 485 1
432 485 1
122 486 1
161 486 1
162 486 1
186 486 1
382 486 1
411 486 1
420 486 1
433 486 1
123 487 1
155 487 1
163 487 1
187 487 1
383 487 1
412 487 1
414 487 1
434 487 1
124 488 1
156 488 1
164 488 1
188 488 1
384 488 1
413 488 1
415 488 1
428 488 1
125 489 1
157 489 1
165 489 1
189 489 1
385 489 1
407 489 1
416 489 1
429 489 1
126 490 1
158 490 1
166 490 1
183 490 1
379 490 1
408 490 1
417 490 1
430 490 1
127 491 1
146 491 1
166 491 1
191 491 1
387 491 1
397 491 1
416 491 1
438 491 1
128 492 1
147 492 1
167 492 1
192 492 1
388 492 1
398 492 1
417 492 1
439 492 1
129 493 1
141 493 1
168 493 1
193 493 1
389 493 1
399 493 1
418 493 1
440 493 1
130 494 1
142 494 1
162 494 1
194 494 1
390 494 1
393 494 1
419 494 1
441 494 1
131 495 1
143 495 1
163 495 1
195 495 1
391 495 1
394 495 1
420 495 1
435 495 1
132 496 1
144 496 1
164 496 1
196 496 1
392 496 1
395 496 1
414 496 1
436 496 1
133 497 1
145 497 1
165 497 1
190 497 1
386 497 1
396 497 1
415 497 1
437 497 1
134 498 1
145 498 1
153 498 1
170 498 1
366 498 1
395 498 1
404 498 1
445 498 1
135 499 1
146 499 1
154 499 1
171 499 1
367 499 1
396 499 1
405 499 1
446 499 1
136 500 1
147 500 1
148 500 1
172 500 1
368 500 1
397 500 1
406 500 1
447 500 1
137 501 1
141 501 1
149 501 1
173 501 1
369 501 1
398 501 1
400 501 1
448 501 1
138 502 1
142 502 1
150 502 1
174 502 1
370 502 1
399 502 1
401 502 1
442 502 1
139 503 1
143 503 1
151 503 1
175 503 1
371 503 1
393 503 1
402 503 1
443 503 1
140 504 1
144 504 1
152 504 1
169 504 1
365 504 1
394 504 1
403 504 1
444 504 1
149 505 1
180 505 1
188 505 1
197 505 1
340 505 1
374 505 1
383 505 1
401 505 1
150 506 1
181 506 1
189 506 1
198 506 1
341 506 1
375 506 1
384 506 1
402 506 1
151 507 1
182 507 1
183 507 1
199 507 1
342 507 1
376 507 1
385 507 1
403 507 1
152 508 1
176 508 1
184 508 1
200 508 1
343 508 1
377 508 1
379 508 1
404 508 1
153 509 1
177 509 1
185 509 1
201 509 1
337 509 1
378 509 1
380 509 1
405 509 1
154 510 1
178 510 1
186 510 1
202 510 1
338 510 1
372 510 1
381 510 1
406 510 1
148 511 1
179 511 1
187 511 1
203 511 1
339 511 1
373 511 1
382 511 1
400 511 1
156 512 1
187 512 1
195 512 1
204 512 1
347 512 1
381 512 1
390 512 1
408 512 1
157 513 1
188 513 1
196 513 1
205 513 1
348 513 1
382 513 1
391 513 1
409 513 1
158 514 1
189 514 1
190 514 1
206 514 1
349 514 1
383 514 1
392 514 1
410 514 1
159 515 1
183 515 1
191 515 1
207 515 1
350 515 1
384 515 1
386 515 1
411 515 1
160 516 1
184 516 1
192 516 1
208 516 1
344 516 1
385 516 1
387 516 1
412 516 1
161 517 1
185 517 1
193 517 1
209 517 1
345 517 1
379 517 1
388 517 1
413 517 1
155 518 1
186 518 1
194 518 1
210 518 1
346 518 1
380 518 1
389 518 1
407 518 1
163 519 1
174 519 1
194 519 1
211 519 1
354 519 1
369 519 1
388 519 1
415 519 1
164 520 1
175 520 1
195 520 1
212 520 1
355 520 1
370 520 1
389 520 1
416 520 1
165 521 1
169 521 1
196 521 1
213 521 1
356 521 1
371 521 1
390 521 1
417 521 1
166 522 1
170 522 1
190 522 1
214 522 1
357 522 1
365 522 1
391 522 1
418 522 1
167 523 1
171 523 1
191 523 1
215 523 1
351 523 1
366 523 1
392 523 1
419 523 1
168 524 1
172 524 1
192 524 1
216 524 1
352 524 1
367 524 1
386 524 1
420 524 1
162 525 1
173 525 1
193 525 1
217 525 1
353 525 1
368 525 1
387 525 1
414 525 1
142 526 1
173 526 1
181 526 1
218 526 1
361 526 1
367 526 1
376 526 1
394 526 1
143 527 1
174 527 1
182 527 1
219 527 1
362 527 1
368 527 1
377 527 1
395 527 1
144 528 1
175 528 1
176 528 1
220 528 1
363 528 1
369 528 1
378 528 1
396 528 1
145 529 1
169 529 1
177 529 1
221 529 1
364 529 1
370 529 1
372 529 1
397 529 1
146 530 1
170 530 1
178 530 1
222 530 1
358 530 1
371 530 1
373 530 1
398 530 1
147 531 1
171 531 1
179 531 1
223 531 1
359 531 1
365 531 1
374 531 1
399 531 1
141 532 1
172 532 1
180 532 1
224 532 1
360 532 1
366 532 1
375 532 1
393 532 1
121 533 1
169 533 1
208 533 1
216 533 1
346 533 1
355 533 1
368 533 1
429 533 1
122 534 1
170 534 1
209 534 1
217 534 1
347 534 1
356 534 1
369 534 1
430 534 1
123 535 1
171 535 1
210 535 1
211 535 1
348 535 1
357 535 1
370 535 1
431 535 1
124 536 1
172 536 1
204 536 1
212 536 1
349 536 1
351 536 1
371 536 1
432 536 1
125 537 1
173 537 1
205 537 1
213 537 1
350 537 1
352 537 1
365 537 1
433 537 1
126 538 1
174 538 1
206 538 1
214 538 1
344 538 1
353 538 1
366 538 1
434 538 1
120 539 1
175 539 1
207 539 1
215 539 1
345 539 1
354 539 1
367 539 1
428 539 1
128 540 1
176 540 1
215 540 1
223 540 1
353 540 1
362 540 1
375 540 1
436 540 1
129 541 1
177 541 1
216 541 1
224 541 1
354 541 1
363 541 1
376 541 1
437 541 1
130 542 1
178 542 1
217 542 1
218 542 1
355 542 1
364 542 1
377 542 1
438 542 1
131 543 1
179 543 1
211 543 1
219 543 1
356 543 1
358 543 1
378 543 1
439 543 1
132 544 1
180 544 1
212 544 1
220 544 1
357 544 1
359 544 1
372 544 1
440 544 1
133 545 1
181 545 1
213 545 1
221 545 1
351 545 1
360 545 1
373 545 1
441 545 1
127 546 1
182 546 1
214 546 1
222 546 1
352 546 1
361 546 1
374 546 1
435 546 1
135 547 1
183 547 1
202 547 1
222 547 1
341 547 1
360 547 1
382 547 1
443 547 1
136 548 1
184 548 1
203 548 1
223 548 1
342 548 1
361 548 1
383 548 1
444 548 1
137 549 1
185 549 1
197 549 1
224 549 1
343 549 1
362 549 1
384 549 1
445 549 1
138 550 1
186 550 1
198 550 1
218 550 1
337 550 1
363 550 1
385 550 1
446 550 1
139 551 1
187 551 1
199 551 1
219 551 1
338 551 1
364 551 1
379 551 1
447 551 1
140 552 1
188 552 1
200 552 1
220 552 1
339 552 1
358 552 1
380 552 1
448 552 1
134 553 1
189 553 1
201 553 1
221 553 1
340 553 1
359 553 1
381 553 1
442 553 1
114 554 1
190 554 1
201 554 1
209 554 1
339 554 1
348 554 1
389 554 1
422 554 1
115 555 1
191 555 1
202 555 1
210 555 1
340 555 1
349 555 1
390 555 1
423 555 1
116 556 1
192 556 1
203 556 1
204 556 1
341 556 1
350 556 1
391 556 1
424 556 1
117 557 1
193 557 1
197 557 1
205 557 1
342 557 1
344 557 1
392 557 1
425 557 1
118 558 1
194 558 1
198 558 1
206 558 1
343 558 1
345 558 1
386 558 1
426 558 1
119 559 1
195 559 1
199 559 1
207 559 1
337 559 1
346 559 1
387 559 1
427 559 1
113 560 1
196 560 1
200 560 1
208 560 1
338 560 1
347 560 1
388 560 1
421 560 1
236 561 1
244 561 1
253 561 1
317 561 1
350 561 1
406 561 1
441 561 1
446 561 1
237 562 1
245 562 1
254 562 1
318 562 1
344 562 1
400 562 1
435 562 1
447 562 1
238 563 1
239 563 1
255 563 1
319 563 1
345 563 1
401 563 1
436 563 1
448 563 1
232 564 1
240 564 1
256 564 1
320 564 1
346 564 1
402 564 1
437 564 1
442 564 1
233 565 1
241 565 1
257 565 1
321 565 1
347 565 1
403 565 1
438 565 1
443 565 1
234 566 1
242 566 1
258 566 1
322 566 1
348 566 1
404 566 1
439 566 1
444 566 1
235 567 1
243 567 1
259 567 1
316 567 1
349 567 1
405 567 1
440 567 1
445 567 1
243 568 1
251 568 1
260 568 1
324 568 1
357 568 1
413 568 1
425 568 1
448 568 1
244 569 1
252 569 1
261 569 1
325 569 1
351 569 1
407 569 1
426 569 1
442 569 1
245 570 1
246 570 1
262 570 1
326 570 1
352 570 1
408 570 1
427 570 1
443 570 1
239 571 1
247 571 1
263 571 1
327 571 1
353 571 1
409 571 1
421 571 1
444 571 1
240 572 1
248 572 1
264 572 1
328 572 1
354 572 1
410 572 1
422 572 1
445 572 1
241 573 1
249 573 1
265 573 1
329 573 1
355 573 1
411 573 1
423 573 1
446 573 1
242 574 1
250 574 1
266 574 1
323 574 1
356 574 1
412 574 1
424 574 1
447 574 1
230 575 1
250 575 1
267 575 1
331 575 1
364 575 1
420 575 1
427 575 1
432 575 1
231 576 1
251 576 1
268 576 1
332 576 1
358 576 1
414 576 1
421 576 1
433 576 1
225 577 1
252 577 1
269 577 1
333 577 1
359 577 1
415 577 1
422 577 1
434 577 1
226 578 1
246 578 1
270 578 1
334 578 1
360 578 1
416 578 1
423 578 1
428 578 1
227 579 1
247 579 1
271 579 1
335 579 1
361 579 1
417 579 1
424 579 1
429 579 1
228 580 1
248 580 1
272 580 1
336 580 1
362 580 1
418 580 1
425 580 1
430 580 1
229 581 1
249 581 1
273 581 1
330 581 1
363 581 1
419 581 1
426 581 1
431 581 1
229 582 1
237 582 1
274 582 1
310 582 1
343 582 1
399 582 1
434 582 1
439 582 1
230 583 1
238 583 1
275 583 1
311 583 1
337 583 1
393 583 1
428 583 1
440 583 1
231 584 1
232 584 1
276 584 1
312 584 1
338 584 1
394 584 1
429 584 1
441 584 1
225 585 1
233 585 1
277 585 1
313 585 1
339 585 1
395 585 1
430 585 1
435 585 1
226 586 1
234 586 1
278 586 1
314 586 1
340 586 1
396 586 1
431 586 1
436 586 1
227 587 1
235 587 1
279 587 1
315 587 1
341 587 1
397 587 1
432 587 1
437 587 1
228 588 1
236 588 1
280 588 1
309 588 1
342 588 1
398 588 1
433 588 1
438 588 1
225 589 1
264 589 1
272 589 1
289 589 1
378 589 1
413 589 1
418 589 1
434 589 1
226 590 1
265 590 1
273 590 1
290 590 1
372 590 1
407 590 1
419 590 1
428 590 1
227 591 1
266 591 1
267 591 1
291 591 1
373 591 1
408 591 1
420 591 1
429 591 1
228 592 1
260 592 1
268 592 1
292 592 1
374 592 1
409 592 1
414 592 1
430 592 1
229 593 1
261 593 1
269 593 1
293 593 1
375 593 1
410 593 1
415 593 1
431 593 1
230 594 1
262 594 1
270 594 1
294 594 1
376 594 1
411 594 1
416 594 1
432 594 1
231 595 1
263 595 1
271 595 1
288 595 1
377 595 1
412 595 1
417 595 1
433 595 1
232 596 1
271 596 1
279 596 1
296 596 1
385 596 1
397 596 1
420 596 1
441 596 1
233 597 1
272 597 1
280 597 1
297 597 1
379 597 1
398 597 1
414 597 1
435 597 1
234 598 1
273 598 1
274 598 1
298 598 1
380 598 1
399 598 1
415 598 1
436 598 1
235 599 1
267 599 1
275 599 1
299 599 1
381 599 1
393 599 1
416 599 1
437 599 1
236 600 1
268 600 1
276 600 1
300 600 1
382 600 1
394 600 1
417 600 1
438 600 1
237 601 1
269 601 1
277 601 1
301 601 1
383 601 1
395 601 1
418 601 1
439 601 1
238 602 1
270 602 1
278 602 1
295 602 1
384 602 1
396 602 1
419 602 1
440 602 1
239 603 1
258 603 1
278 603 1
303 603 1
392 603 1
399 603 1
404 603 1
448 603 1
240 604 1
259 604 1
279 604 1
304 604 1
386 604 1
393 604 1
405 604 1
442 604 1
241 605 1
253 605 1
280 605 1
305 605 1
387 605 1
394 605 1
406 605 1
443 605 1
242 606 1
254 606 1
274 606 1
306 606 1
388 606 1
395 606 1
400 606 1
444 606 1
243 607 1
255 607 1
275 607 1
307 607 1
389 607 1
396 607 1
401 607 1
445 607 1
244 608 1
256 608 1
276 608 1
308 608 1
390 608 1
397 608 1
402 608 1
446 608 1
245 609 1
257 609 1
277 609 1
302 609 1
391 609 1
398 609 1
403 609 1
447 609 1
246 610 1
257 610 1
265 610 1
282 610 1
371 610 1
406 610 1
411 610 1
427 610 1
247 611 1
258 611 1
266 611 1
283 611 1
365 611 1
400 611 1
412 611 1
421 611 1
248 612 1
259 612 1
260 612 1
284 612 1
366 612 1
401 612 1
413 612 1
422 612 1
249 613 1
253 613 1
261 613 1
285 613 1
367 613 1
402 613 1
407 613 1
423 613 1
250 614 1
254 614 1
262 614 1
286 614 1
368 614 1
403 614 1
408 614 1
424 614 1
251 615 1
255 615 1
263 615 1
287 615 1
369 615 1
404 615 1
409 615 1
425 615 1
252 616 1
256 616 1
264 616 1
281 616 1
370 616 1
405 616 1
410 616 1
426 616 1
261 617 1
292 617 1
300 617 1
309 617 1
350 617 1
385 617 1
390 617 1
406 617 1
262 618 1
293 618 1
301 618 1
310 618 1
344 618 1
379 618 1
391 618 1
400 618 1
263 619 1
294 619 1
295 619 1
311 619 1
345 619 1
380 619 1
392 619 1
401 619 1
264 620 1
288 620 1
296 620 1
312 620 1
346 620 1
381 620 1
386 620 1
402 620 1
265 621 1
289 621 1
297 621 1
313 621 1
347 621 1
382 621 1
387 621 1
403 621 1
266 622 1
290 622 1
298 622 1
314 622 1
348 622 1
383 622 1
388 622 1
404 622 1
260 623 1
291 623 1
299 623 1
315 623 1
349 623 1
384 623 1
389 623 1
405 623 1
268 624 1
299 624 1
307 624 1
316 624 1
357 624 1
369 624 1
392 624 1
413 624 1
269 625 1
300 625 1
308 625 1
317 625 1
351 625 1
370 625 1
386 625 1
407 625 1
270 626 1
301 626 1
302 626 1
318 626 1
352 626 1
371 626 1
387 626 1
408 626 1
271 627 1
295 627 1
303 627 1
319 627 1
353 627 1
365 627 1
388 627 1
409 627 1
272 628 1
296 628 1
304 628 1
320 628 1
354 628 1
366 628 1
389 628 1
410 628 1
273 629 1
297 629 1
305 629 1
321 629 1
355 629 1
367 629 1
390 629 1
411 629 1
267 630 1
298 630 1
306 630 1
322 630 1
356 630 1
368 630 1
391 630 1
412 630 1
275 631 1
286 631 1
306 631 1
323 631 1
364 631 1
371 631 1
376 631 1
420 631 1
276 632 1
287 632 1
307 632 1
324 632 1
358 632 1
365 632 1
377 632 1
414 632 1
277 633 1
281 633 1
308 633 1
325 633 1
359 633 1
366 633 1
378 633 1
415 633 1
278 634 1
282 634 1
302 634 1
326 634 1
360 634 1
367 634 1
372 634 1
416 634 1
279 635 1
283 635 1
303 635 1
327 635 1
361 635 1
368 635 1
373 635 1
417 635 1
280 636 1
284 636 1
304 636 1
328 636 1
362 636 1
369 636 1
374 636 1
418 636 1
274 637 1
285 637 1
305 637 1
329 637 1
363 637 1
370 637 1
375 637 1
419 637 1
254 638 1
285 638 1
293 638 1
330 638 1
343 638 1
378 638 1
383 638 1
399 638 1
255 639 1
286 639 1
294 639 1
331 639 1
337 639 1
372 639 1
384 639 1
393 639 1
256 640 1
287 640 1
288 640 1
332 640 1
338 640 1
373 640 1
385 640 1
394 640 1
257 641 1
281 641 1
289 641 1
333 641 1
339 641 1
374 641 1
379 641 1
395 641 1
258 642 1
282 642 1
290 642 1
334 642 1
340 642 1
375 642 1
380 642 1
396 642 1
259 643 1
283 643 1
291 643 1
335 643 1
341 643 1
376 643 1
381 643 1
397 643 1
253 644 1
284 644 1
292 644 1
336 644 1
342 644 1
377 644 1
382 644 1
398 644 1
233 645 1
281 645 1
320 645 1
328 645 1
357 645 1
362 645 1
378 645 1
434 645 1
234 646 1
282 646 1
321 646 1
329 646 1
351 646 1
363 646 1
372 646 1
428 646 1
235 647 1
283 647 1
322 647 1
323 647 1
352 647 1
364 647 1
373 647 1
429 647 1
236 648 1
284 648 1
316 648 1
324 648 1
353 648 1
358 648 1
374 648 1
430 648 1
237 649 1
285 649 1
317 649 1
325 649 1
354 649 1
359 649 1
375 649 1
431 649 1
238 650 1
286 650 1
318 650 1
326 650 1
355 650 1
360 650 1
376 650 1
432 650 1
232 651 1
287 651 1
319 651 1
327 651 1
356 651 1
361 651 1
377 651 1
433 651 1
240 652 1
288 652 1
327 652 1
335 652 1
341 652 1
364 652 1
385 652 1
441 652 1
241 653 1
289 653 1
328 653 1
336 653 1
342 653 1
358 653 1
379 653 1
435 653 1
242 654 1
290 654 1
329 654 1
330 654 1
343 654 1
359 654 1
380 654 1
436 654 1
243 655 1
291 655 1
323 655 1
331 655 1
337 655 1
360 655 1
381 655 1
437 655 1
244 656 1
292 656 1
324 656 1
332 656 1
338 656 1
361 656 1
382 656 1
438 656 1
245 657 1
293 657 1
325 657 1
333 657 1
339 657 1
362 657 1
383 657 1
439 657 1
239 658 1
294 658 1
326 658 1
334 658 1
340 658 1
363 658 1
384 658 1
440 658 1
247 659 1
295 659 1
314 659 1
334 659 1
343 659 1
348 659 1
392 659 1
448 659 1
248 660 1
296 660 1
315 660 1
335 660 1
337 660 1
349 660 1
386 660 1
442 660 1
249 661 1
297 661 1
309 661 1
336 661 1
338 661 1
350 661 1
387 661 1
443 661 1
250 662 1
298 662 1
310 662 1
330 662 1
339 662 1
344 662 1
388 662 1
444 662 1
251 663 1
299 663 1
311 663 1
331 663 1
340 663 1
345 663 1
389 663 1
445 663 1
252 664 1
300 664 1
312 664 1
332 664 1
341 664 1
346 664 1
390 664 1
446 664 1
246 665 1
301 665 1
313 665 1
333 665 1
342 665 1
347 665 1
391 665 1
447 665 1
226 666 1
302 666 1
313 666 1
321 666 1
350 666 1
355 666 1
371 666 1
427 666 1
227 667 1
303 667 1
314 667 1
322 667 1
344 667 1
356 667 1
365 667 1
421 667 1
228 668 1
304 668 1
315 668 1
316 668 1
345 668 1
357 668 1
366 668 1
422 668 1
229 669 1
305 669 1
309 669 1
317 669 1
346 669 1
351 669 1
367 669 1
423 669 1
230 670 1
306 670 1
310 670 1
318 670 1
347 670 1
352 670 1
368 670 1
424 670 1
231 671 1
307 671 1
311 671 1
319 671 1
348 671 1
353 671 1
369 671 1
425 671 1
225 672 1
308 672 1
312 672 1
320 672 1
349 672 1
354 672 1
370 672 1
426 672 1
