%%MatrixMarket matrix coordinate integer general
% Binary matrix; one-based indices; arithmetic over GF(2)
720 960 5760
1 1 1
16 1 1
49 1 1
63 1 1
97 1 1
98 1 1
2 2 1
17 2 1
50 2 1
64 2 1
98 2 1
99 2 1
3 3 1
18 3 1
51 3 1
65 3 1
99 3 1
100 3 1
4 4 1
19 4 1
52 4 1
66 4 1
100 4 1
101 4 1
5 5 1
20 5 1
53 5 1
67 5 1
101 5 1
102 5 1
6 6 1
21 6 1
54 6 1
68 6 1
102 6 1
103 6 1
7 7 1
22 7 1
55 7 1
69 7 1
103 7 1
104 7 1
8 8 1
23 8 1
56 8 1
70 8 1
104 8 1
105 8 1
9 9 1
24 9 1
57 9 1
71 9 1
105 9 1
106 9 1
10 10 1
25 10 1
58 10 1
72 10 1
106 10 1
107 10 1
11 11 1
26 11 1
59 11 1
73 11 1
107 11 1
108 11 1
12 12 1
27 12 1
60 12 1
74 12 1
108 12 1
109 12 1
13 13 1
28 13 1
61 13 1
75 13 1
109 13 1
110 13 1
14 14 1
29 14 1
62 14 1
76 14 1
110 14 1
111 14 1
15 15 1
30 15 1
63 15 1
77 15 1
111 15 1
112 15 1
16 16 1
31 16 1
64 16 1
78 16 1
112 16 1
113 16 1
17 17 1
32 17 1
65 17 1
79 17 1
113 17 1
114 17 1
18 18 1
33 18 1
66 18 1
80 18 1
114 18 1
115 18 1
19 19 1
34 19 1
67 19 1
81 19 1
115 19 1
116 19 1
20 20 1
35 20 1
68 20 1
82 20 1
116 20 1
117 20 1
21 21 1
36 21 1
69 21 1
83 21 1
117 21 1
118 21 1
22 22 1
37 22 1
70 22 1
84 22 1
118 22 1
119 22 1
23 23 1
38 23 1
71 23 1
85 23 1
119 23 1
120 23 1
24 24 1
39 24 1
72 24 1
86 24 1
120 24 1
121 24 1
25 25 1
40 25 1
73 25 1
87 25 1
121 25 1
122 25 1
26 26 1
41 26 1
74 26 1
88 26 1
122 26 1
123 26 1
27 27 1
42 27 1
75 27 1
89 27 1
123 27 1
124 27 1
28 28 1
43 28 1
76 28 1
90 28 1
124 28 1
125 28 1
29 29 1
44 29 1
77 29 1
91 29 1
125 29 1
126 29 1
30 30 1
45 30 1
78 30 1
92 30 1
126 30 1
127 30 1
31 31 1
46 31 1
79 31 1
93 31 1
127 31 1
128 31 1
32 32 1
47 32 1
80 32 1
94 32 1
128 32 1
129 32 1
33 33 1
48 33 1
81 33 1
95 33 1
129 33 1
130 33 1
1 34 1
34 34 1
82 34 1
96 34 1
130 34 1
131 34 1
2 35 1
35 35 1
49 35 1
83 35 1
131 35 1
132 35 1
3 36 1
36 36 1
50 36 1
84 36 1
132 36 1
133 36 1
4 37 1
37 37 1
51 37 1
85 37 1
133 37 1
134 37 1
5 38 1
38 38 1
52 38 1
86 38 1
134 38 1
135 38 1
6 39 1
39 39 1
53 39 1
87 39 1
135 39 1
136 39 1
7 40 1
40 40 1
54 40 1
88 40 1
136 40 1
137 40 1
8 41 1
41 41 1
55 41 1
89 41 1
137 41 1
138 41 1
9 42 1
42 42 1
56 42 1
90 42 1
138 42 1
139 42 1
10 43 1
43 43 1
57 43 1
91 43 1
139 43 1
140 43 1
11 44 1
44 44 1
58 44 1
92 44 1
140 44 1
141 44 1
12 45 1
45 45 1
59 45 1
93 45 1
141 45 1
142 45 1
13 46 1
46 46 1
60 46 1
94 46 1
142 46 1
143 46 1
14 47 1
47 47 1
61 47 1
95 47 1
143 47 1
144 47 1
15 48 1
48 48 1
62 48 1
96 48 1
97 48 1
144 48 1
1 49 1
38 49 1
145 49 1
159 49 1
193 49 1
194 49 1
2 50 1
39 50 1
146 50 1
160 50 1
194 50 1
195 50 1
3 51 1
40 51 1
147 51 1
161 51 1
195 51 1
196 51 1
4 52 1
41 52 1
148 52 1
162 52 1
196 52 1
197 52 1
5 53 1
42 53 1
149 53 1
163 53 1
197 53 1
198 53 1
6 54 1
43 54 1
150 54 1
164 54 1
198 54 1
199 54 1
7 55 1
44 55 1
151 55 1
165 55 1
199 55 1
200 55 1
8 56 1
45 56 1
152 56 1
166 56 1
200 56 1
201 56 1
9 57 1
46 57 1
153 57 1
167 57 1
201 57 1
202 57 1
10 58 1
47 58 1
154 58 1
168 58 1
202 58 1
203 58 1
11 59 1
48 59 1
155 59 1
169 59 1
203 59 1
204 59 1
1 60 1
12 60 1
156 60 1
170 60 1
204 60 1
205 60 1
2 61 1
13 61 1
157 61 1
171 61 1
205 61 1
206 61 1
3 62 1
14 62 1
158 62 1
172 62 1
206 62 1
207 62 1
4 63 1
15 63 1
159 63 1
173 63 1
207 63 1
208 63 1
5 64 1
16 64 1
160 64 1
174 64 1
208 64 1
209 64 1
6 65 1
17 65 1
161 65 1
175 65 1
209 65 1
210 65 1
7 66 1
18 66 1
162 66 1
176 66 1
210 66 1
211 66 1
8 67 1
19 67 1
163 67 1
177 67 1
211 67 1
212 67 1
9 68 1
20 68 1
164 68 1
178 68 1
212 68 1
213 68 1
10 69 1
21 69 1
165 69 1
179 69 1
213 69 1
214 69 1
11 70 1
22 70 1
166 70 1
180 70 1
214 70 1
215 70 1
12 71 1
23 71 1
167 71 1
181 71 1
215 71 1
216 71 1
13 72 1
24 72 1
168 72 1
182 72 1
216 72 1
217 72 1
14 73 1
25 73 1
169 73 1
183 73 1
217 73 1
218 73 1
15 74 1
26 74 1
170 74 1
184 74 1
218 74 1
219 74 1
16 75 1
27 75 1
171 75 1
185 75 1
219 75 1
220 75 1
17 76 1
28 76 1
172 76 1
186 76 1
220 76 1
221 76 1
18 77 1
29 77 1
173 77 1
187 77 1
221 77 1
222 77 1
19 78 1
30 78 1
174 78 1
188 78 1
222 78 1
223 78 1
20 79 1
31 79 1
175 79 1
189 79 1
223 79 1
224 79 1
21 80 1
32 80 1
176 80 1
190 80 1
224 80 1
225 80 1
22 81 1
33 81 1
177 81 1
191 81 1
225 81 1
226 81 1
23 82 1
34 82 1
178 82 1
192 82 1
226 82 1
227 82 1
24 83 1
35 83 1
145 83 1
179 83 1
227 83 1
228 83 1
25 84 1
36 84 1
146 84 1
180 84 1
228 84 1
229 84 1
26 85 1
37 85 1
147 85 1
181 85 1
229 85 1
230 85 1
27 86 1
38 86 1
148 86 1
182 86 1
230 86 1
231 86 1
28 87 1
39 87 1
149 87 1
183 87 1
231 87 1
232 87 1
29 88 1
40 88 1
150 88 1
184 88 1
232 88 1
233 88 1
30 89 1
41 89 1
151 89 1
185 89 1
233 89 1
234 89 1
31 90 1
42 90 1
152 90 1
186 90 1
234 90 1
235 90 1
32 91 1
43 91 1
153 91 1
187 91 1
235 91 1
236 91 1
33 92 1
44 92 1
154 92 1
188 92 1
236 92 1
237 92 1
34 93 1
45 93 1
155 93 1
189 93 1
237 93 1
238 93 1
35 94 1
46 94 1
156 94 1
190 94 1
238 94 1
239 94 1
36 95 1
47 95 1
157 95 1
191 95 1
239 95 1
240 95 1
37 96 1
48 96 1
158 96 1
192 96 1
193 96 1
240 96 1
49 97 1
86 97 1
145 97 1
160 97 1
241 97 1
242 97 1
50 98 1
87 98 1
146 98 1
161 98 1
242 98 1
243 98 1
51 99 1
88 99 1
147 99 1
162 99 1
243 99 1
244 99 1
52 100 1
89 100 1
148 100 1
163 100 1
244 100 1
245 100 1
53 101 1
90 101 1
149 101 1
164 101 1
245 101 1
246 101 1
54 102 1
91 102 1
150 102 1
165 102 1
246 102 1
247 102 1
55 103 1
92 103 1
151 103 1
166 103 1
247 103 1
248 103 1
56 104 1
93 104 1
152 104 1
167 104 1
248 104 1
249 104 1
57 105 1
94 105 1
153 105 1
168 105 1
249 105 1
250 105 1
58 106 1
95 106 1
154 106 1
169 106 1
250 106 1
251 106 1
59 107 1
96 107 1
155 107 1
170 107 1
251 107 1
252 107 1
49 108 1
60 108 1
156 108 1
171 108 1
252 108 1
253 108 1
50 109 1
61 109 1
157 109 1
172 109 1
253 109 1
254 109 1
51 110 1
62 110 1
158 110 1
173 110 1
254 110 1
255 110 1
52 111 1
63 111 1
159 111 1
174 111 1
255 111 1
256 111 1
53 112 1
64 112 1
160 112 1
175 112 1
256 112 1
257 112 1
54 113 1
65 113 1
161 113 1
176 113 1
257 113 1
258 113 1
55 114 1
66 114 1
162 114 1
177 114 1
258 114 1
259 114 1
56 115 1
67 115 1
163 115 1
178 115 1
259 115 1
260 115 1
57 116 1
68 116 1
164 116 1
179 116 1
260 116 1
261 116 1
58 117 1
69 117 1
165 117 1
180 117 1
261 117 1
262 117 1
59 118 1
70 118 1
166 118 1
181 118 1
262 118 1
263 118 1
60 119 1
71 119 1
167 119 1
182 119 1
263 119 1
264 119 1
61 120 1
72 120 1
168 120 1
183 120 1
264 120 1
265 120 1
62 121 1
73 121 1
169 121 1
184 121 1
265 121 1
266 121 1
63 122 1
74 122 1
170 122 1
185 122 1
266 122 1
267 122 1
64 123 1
75 123 1
171 123 1
186 123 1
267 123 1
268 123 1
65 124 1
76 124 1
172 124 1
187 124 1
268 124 1
269 124 1
66 125 1
77 125 1
173 125 1
188 125 1
269 125 1
270 125 1
67 126 1
78 126 1
174 126 1
189 126 1
270 126 1
271 126 1
68 127 1
79 127 1
175 127 1
190 127 1
271 127 1
272 127 1
69 128 1
80 128 1
176 128 1
191 128 1
272 128 1
273 128 1
70 129 1
81 129 1
177 129 1
192 129 1
273 129 1
274 129 1
71 130 1
82 130 1
145 130 1
178 130 1
274 130 1
275 130 1
72 131 1
83 131 1
146 131 1
179 131 1
275 131 1
276 131 1
73 132 1
84 132 1
147 132 1
180 132 1
276 132 1
277 132 1
74 133 1
85 133 1
148 133 1
181 133 1
277 133 1
278 133 1
75 134 1
86 134 1
149 134 1
182 134 1
278 134 1
279 134 1
76 135 1
87 135 1
150 135 1
183 135 1
279 135 1
280 135 1
77 136 1
88 136 1
151 136 1
184 136 1
280 136 1
281 136 1
78 137 1
89 137 1
152 137 1
185 137 1
281 137 1
282 137 1
79 138 1
90 138 1
153 138 1
186 138 1
282 138 1
283 138 1
80 139 1
91 139 1
154 139 1
187 139 1
283 139 1
284 139 1
81 140 1
92 140 1
155 140 1
188 140 1
284 140 1
285 140 1
82 141 1
93 141 1
156 141 1
189 141 1
285 141 1
286 141 1
83 142 1
94 142 1
157 142 1
190 142 1
286 142 1
287 142 1
84 143 1
95 143 1
158 143 1
191 143 1
287 143 1
288 143 1
85 144 1
96 144 1
159 144 1
192 144 1
241 144 1
288 144 1
97 145 1
134 145 1
193 145 1
208 145 1
241 145 1
255 145 1
98 146 1
135 146 1
194 146 1
209 146 1
242 146 1
256 146 1
99 147 1
136 147 1
195 147 1
210 147 1
243 147 1
257 147 1
100 148 1
137 148 1
196 148 1
211 148 1
244 148 1
258 148 1
101 149 1
138 149 1
197 149 1
212 149 1
245 149 1
259 149 1
102 150 1
139 150 1
198 150 1
213 150 1
246 150 1
260 150 1
103 151 1
140 151 1
199 151 1
214 151 1
247 151 1
261 151 1
104 152 1
141 152 1
200 152 1
215 152 1
248 152 1
262 152 1
105 153 1
142 153 1
201 153 1
216 153 1
249 153 1
263 153 1
106 154 1
143 154 1
202 154 1
217 154 1
250 154 1
264 154 1
107 155 1
144 155 1
203 155 1
218 155 1
251 155 1
265 155 1
97 156 1
108 156 1
204 156 1
219 156 1
252 156 1
266 156 1
98 157 1
109 157 1
205 157 1
220 157 1
253 157 1
267 157 1
99 158 1
110 158 1
206 158 1
221 158 1
254 158 1
268 158 1
100 159 1
111 159 1
207 159 1
222 159 1
255 159 1
269 159 1
101 160 1
112 160 1
208 160 1
223 160 1
256 160 1
270 160 1
102 161 1
113 161 1
209 161 1
224 161 1
257 161 1
271 161 1
103 162 1
114 162 1
210 162 1
225 162 1
258 162 1
272 162 1
104 163 1
115 163 1
211 163 1
226 163 1
259 163 1
273 163 1
105 164 1
116 164 1
212 164 1
227 164 1
260 164 1
274 164 1
106 165 1
117 165 1
213 165 1
228 165 1
261 165 1
275 165 1
107 166 1
118 166 1
214 166 1
229 166 1
262 166 1
276 166 1
108 167 1
119 167 1
215 167 1
230 167 1
263 167 1
277 167 1
109 168 1
120 168 1
216 168 1
231 168 1
264 168 1
278 168 1
110 169 1
121 169 1
217 169 1
232 169 1
265 169 1
279 169 1
111 170 1
122 170 1
218 170 1
233 170 1
266 170 1
280 170 1
112 171 1
123 171 1
219 171 1
234 171 1
267 171 1
281 171 1
113 172 1
124 172 1
220 172 1
235 172 1
268 172 1
282 172 1
114 173 1
125 173 1
221 173 1
236 173 1
269 173 1
283 173 1
115 174 1
126 174 1
222 174 1
237 174 1
270 174 1
284 174 1
116 175 1
127 175 1
223 175 1
238 175 1
271 175 1
285 175 1
117 176 1
128 176 1
224 176 1
239 176 1
272 176 1
286 176 1
118 177 1
129 177 1
225 177 1
240 177 1
273 177 1
287 177 1
119 178 1
130 178 1
193 178 1
226 178 1
274 178 1
288 178 1
120 179 1
131 179 1
194 179 1
227 179 1
241 179 1
275 179 1
121 180 1
132 180 1
195 180 1
228 180 1
242 180 1
276 180 1
122 181 1
133 181 1
196 181 1
229 181 1
243 181 1
277 181 1
123 182 1
134 182 1
197 182 1
230 182 1
244 182 1
278 182 1
124 183 1
135 183 1
198 183 1
231 183 1
245 183 1
279 183 1
125 184 1
136 184 1
199 184 1
232 184 1
246 184 1
280 184 1
126 185 1
137 185 1
200 185 1
233 185 1
247 185 1
281 185 1
127 186 1
138 186 1
201 186 1
234 186 1
248 186 1
282 186 1
128 187 1
139 187 1
202 187 1
235 187 1
249 187 1
283 187 1
129 188 1
140 188 1
203 188 1
236 188 1
250 188 1
284 188 1
130 189 1
141 189 1
204 189 1
237 189 1
251 189 1
285 189 1
131 190 1
142 190 1
205 190 1
238 190 1
252 190 1
286 190 1
132 191 1
143 191 1
206 191 1
239 191 1
253 191 1
287 191 1
133 192 1
144 192 1
207 192 1
240 192 1
254 192 1
288 192 1
1 193 1
39 193 1
289 193 1
303 193 1
337 193 1
338 193 1
2 194 1
40 194 1
290 194 1
304 194 1
338 194 1
339 194 1
3 195 1
41 195 1
291 195 1
305 195 1
339 195 1
340 195 1
4 196 1
42 196 1
292 196 1
306 196 1
340 196 1
341 196 1
5 197 1
43 197 1
293 197 1
307 197 1
341 197 1
342 197 1
6 198 1
44 198 1
294 198 1
308 198 1
342 198 1
343 198 1
7 199 1
45 199 1
295 199 1
309 199 1
343 199 1
344 199 1
8 200 1
46 200 1
296 200 1
310 200 1
344 200 1
345 200 1
9 201 1
47 201 1
297 201 1
311 201 1
345 201 1
346 201 1
10 202 1
48 202 1
298 202 1
312 202 1
346 202 1
347 202 1
1 203 1
11 203 1
299 203 1
313 203 1
347 203 1
348 203 1
2 204 1
12 204 1
300 204 1
314 204 1
348 204 1
349 204 1
3 205 1
13 205 1
301 205 1
315 205 1
349 205 1
350 205 1
4 206 1
14 206 1
302 206 1
316 206 1
350 206 1
351 206 1
5 207 1
15 207 1
303 207 1
317 207 1
351 207 1
352 207 1
6 208 1
16 208 1
304 208 1
318 208 1
352 208 1
353 208 1
7 209 1
17 209 1
305 209 1
319 209 1
353 209 1
354 209 1
8 210 1
18 210 1
306 210 1
320 210 1
354 210 1
355 210 1
9 211 1
19 211 1
307 211 1
321 211 1
355 211 1
356 211 1
10 212 1
20 212 1
308 212 1
322 212 1
356 212 1
357 212 1
11 213 1
21 213 1
309 213 1
323 213 1
357 213 1
358 213 1
12 214 1
22 214 1
310 214 1
324 214 1
358 214 1
359 214 1
13 215 1
23 215 1
311 215 1
325 215 1
359 215 1
360 215 1
14 216 1
24 216 1
312 216 1
326 216 1
360 216 1
361 216 1
15 217 1
25 217 1
313 217 1
327 217 1
361 217 1
362 217 1
16 218 1
26 218 1
314 218 1
328 218 1
362 218 1
363 218 1
17 219 1
27 219 1
315 219 1
329 219 1
363 219 1
364 219 1
18 220 1
28 220 1
316 220 1
330 220 1
364 220 1
365 220 1
19 221 1
29 221 1
317 221 1
331 221 1
365 221 1
366 221 1
20 222 1
30 222 1
318 222 1
332 222 1
366 222 1
367 222 1
21 223 1
31 223 1
319 223 1
333 223 1
367 223 1
368 223 1
22 224 1
32 224 1
320 224 1
334 224 1
368 224 1
369 224 1
23 225 1
33 225 1
321 225 1
335 225 1
369 225 1
370 225 1
24 226 1
34 226 1
322 226 1
336 226 1
370 226 1
371 226 1
25 227 1
35 227 1
289 227 1
323 227 1
371 227 1
372 227 1
26 228 1
36 228 1
290 228 1
324 228 1
372 228 1
373 228 1
27 229 1
37 229 1
291 229 1
325 229 1
373 229 1
374 229 1
28 230 1
38 230 1
292 230 1
326 230 1
374 230 1
375 230 1
29 231 1
39 231 1
293 231 1
327 231 1
375 231 1
376 231 1
30 232 1
40 232 1
294 232 1
328 232 1
376 232 1
377 232 1
31 233 1
41 233 1
295 233 1
329 233 1
377 233 1
378 233 1
32 234 1
42 234 1
296 234 1
330 234 1
378 234 1
379 234 1
33 235 1
43 235 1
297 235 1
331 235 1
379 235 1
380 235 1
34 236 1
44 236 1
298 236 1
332 236 1
380 236 1
381 236 1
35 237 1
45 237 1
299 237 1
333 237 1
381 237 1
382 237 1
36 238 1
46 238 1
300 238 1
334 238 1
382 238 1
383 238 1
37 239 1
47 239 1
301 239 1
335 239 1
383 239 1
384 239 1
38 240 1
48 240 1
302 240 1
336 240 1
337 240 1
384 240 1
49 241 1
87 241 1
289 241 1
304 241 1
385 241 1
386 241 1
50 242 1
88 242 1
290 242 1
305 242 1
386 242 1
387 242 1
51 243 1
89 243 1
291 243 1
306 243 1
387 243 1
388 243 1
52 244 1
90 244 1
292 244 1
307 244 1
388 244 1
389 244 1
53 245 1
91 245 1
293 245 1
308 245 1
389 245 1
390 245 1
54 246 1
92 246 1
294 246 1
309 246 1
390 246 1
391 246 1
55 247 1
93 247 1
295 247 1
310 247 1
391 247 1
392 247 1
56 248 1
94 248 1
296 248 1
311 248 1
392 248 1
393 248 1
57 249 1
95 249 1
297 249 1
312 249 1
393 249 1
394 249 1
58 250 1
96 250 1
298 250 1
313 250 1
394 250 1
395 250 1
49 251 1
59 251 1
299 251 1
314 251 1
395 251 1
396 251 1
50 252 1
60 252 1
300 252 1
315 252 1
396 252 1
397 252 1
51 253 1
61 253 1
301 253 1
316 253 1
397 253 1
398 253 1
52 254 1
62 254 1
302 254 1
317 254 1
398 254 1
399 254 1
53 255 1
63 255 1
303 255 1
318 255 1
399 255 1
400 255 1
54 256 1
64 256 1
304 256 1
319 256 1
400 256 1
401 256 1
55 257 1
65 257 1
305 257 1
320 257 1
401 257 1
402 257 1
56 258 1
66 258 1
306 258 1
321 258 1
402 258 1
403 258 1
57 259 1
67 259 1
307 259 1
322 259 1
403 259 1
404 259 1
58 260 1
68 260 1
308 260 1
323 260 1
404 260 1
405 260 1
59 261 1
69 261 1
309 261 1
324 261 1
405 261 1
406 261 1
60 262 1
70 262 1
310 262 1
325 262 1
406 262 1
407 262 1
61 263 1
71 263 1
311 263 1
326 263 1
407 263 1
408 263 1
62 264 1
72 264 1
312 264 1
327 264 1
408 264 1
409 264 1
63 265 1
73 265 1
313 265 1
328 265 1
409 265 1
410 265 1
64 266 1
74 266 1
314 266 1
329 266 1
410 266 1
411 266 1
65 267 1
75 267 1
315 267 1
330 267 1
411 267 1
412 267 1
66 268 1
76 268 1
316 268 1
331 268 1
412 268 1
413 268 1
67 269 1
77 269 1
317 269 1
332 269 1
413 269 1
414 269 1
68 270 1
78 270 1
318 270 1
333 270 1
414 270 1
415 270 1
69 271 1
79 271 1
319 271 1
334 271 1
415 271 1
416 271 1
70 272 1
80 272 1
320 272 1
335 272 1
416 272 1
417 272 1
71 273 1
81 273 1
321 273 1
336 273 1
417 273 1
418 273 1
72 274 1
82 274 1
289 274 1
322 274 1
418 274 1
419 274 1
73 275 1
83 275 1
290 275 1
323 275 1
419 275 1
420 275 1
74 276 1
84 276 1
291 276 1
324 276 1
420 276 1
421 276 1
75 277 1
85 277 1
292 277 1
325 277 1
421 277 1
422 277 1
76 278 1
86 278 1
293 278 1
326 278 1
422 278 1
423 278 1
77 279 1
87 279 1
294 279 1
327 279 1
423 279 1
424 279 1
78 280 1
88 280 1
295 280 1
328 280 1
424 280 1
425 280 1
79 281 1
89 281 1
296 281 1
329 281 1
425 281 1
426 281 1
80 282 1
90 282 1
297 282 1
330 282 1
426 282 1
427 282 1
81 283 1
91 283 1
298 283 1
331 283 1
427 283 1
428 283 1
82 284 1
92 284 1
299 284 1
332 284 1
428 284 1
429 284 1
83 285 1
93 285 1
300 285 1
333 285 1
429 285 1
430 285 1
84 286 1
94 286 1
301 286 1
334 286 1
430 286 1
431 286 1
85 287 1
95 287 1
302 287 1
335 287 1
431 287 1
432 287 1
86 288 1
96 288 1
303 288 1
336 288 1
385 288 1
432 288 1
97 289 1
135 289 1
337 289 1
352 289 1
385 289 1
399 289 1
98 290 1
136 290 1
338 290 1
353 290 1
386 290 1
400 290 1
99 291 1
137 291 1
339 291 1
354 291 1
387 291 1
401 291 1
100 292 1
138 292 1
340 292 1
355 292 1
388 292 1
402 292 1
101 293 1
139 293 1
341 293 1
356 293 1
389 293 1
403 293 1
102 294 1
140 294 1
342 294 1
357 294 1
390 294 1
404 294 1
103 295 1
141 295 1
343 295 1
358 295 1
391 295 1
405 295 1
104 296 1
142 296 1
344 296 1
359 296 1
392 296 1
406 296 1
105 297 1
143 297 1
345 297 1
360 297 1
393 297 1
407 297 1
106 298 1
144 298 1
346 298 1
361 298 1
394 298 1
408 298 1
97 299 1
107 299 1
347 299 1
362 299 1
395 299 1
409 299 1
98 300 1
108 300 1
348 300 1
363 300 1
396 300 1
410 300 1
99 301 1
109 301 1
349 301 1
364 301 1
397 301 1
411 301 1
100 302 1
110 302 1
350 302 1
365 302 1
398 302 1
412 302 1
101 303 1
111 303 1
351 303 1
366 303 1
399 303 1
413 303 1
102 304 1
112 304 1
352 304 1
367 304 1
400 304 1
414 304 1
103 305 1
113 305 1
353 305 1
368 305 1
401 305 1
415 305 1
104 306 1
114 306 1
354 306 1
369 306 1
402 306 1
416 306 1
105 307 1
115 307 1
355 307 1
370 307 1
403 307 1
417 307 1
106 308 1
116 308 1
356 308 1
371 308 1
404 308 1
418 308 1
107 309 1
117 309 1
357 309 1
372 309 1
405 309 1
419 309 1
108 310 1
118 310 1
358 310 1
373 310 1
406 310 1
420 310 1
109 311 1
119 311 1
359 311 1
374 311 1
407 311 1
421 311 1
110 312 1
120 312 1
360 312 1
375 312 1
408 312 1
422 312 1
111 313 1
121 313 1
361 313 1
376 313 1
409 313 1
423 313 1
112 314 1
122 314 1
362 314 1
377 314 1
410 314 1
424 314 1
113 315 1
123 315 1
363 315 1
378 315 1
411 315 1
425 315 1
114 316 1
124 316 1
364 316 1
379 316 1
412 316 1
426 316 1
115 317 1
125 317 1
365 317 1
380 317 1
413 317 1
427 317 1
116 318 1
126 318 1
366 318 1
381 318 1
414 318 1
428 318 1
117 319 1
127 319 1
367 319 1
382 319 1
415 319 1
429 319 1
118 320 1
128 320 1
368 320 1
383 320 1
416 320 1
430 320 1
119 321 1
129 321 1
369 321 1
384 321 1
417 321 1
431 321 1
120 322 1
130 322 1
337 322 1
370 322 1
418 322 1
432 322 1
121 323 1
131 323 1
338 323 1
371 323 1
385 323 1
419 323 1
122 324 1
132 324 1
339 324 1
372 324 1
386 324 1
420 324 1
123 325 1
133 325 1
340 325 1
373 325 1
387 325 1
421 325 1
124 326 1
134 326 1
341 326 1
374 326 1
388 326 1
422 326 1
125 327 1
135 327 1
342 327 1
375 327 1
389 327 1
423 327 1
126 328 1
136 328 1
343 328 1
376 328 1
390 328 1
424 328 1
127 329 1
137 329 1
344 329 1
377 329 1
391 329 1
425 329 1
128 330 1
138 330 1
345 330 1
378 330 1
392 330 1
426 330 1
129 331 1
139 331 1
346 331 1
379 331 1
393 331 1
427 331 1
130 332 1
140 332 1
347 332 1
380 332 1
394 332 1
428 332 1
131 333 1
141 333 1
348 333 1
381 333 1
395 333 1
429 333 1
132 334 1
142 334 1
349 334 1
382 334 1
396 334 1
430 334 1
133 335 1
143 335 1
350 335 1
383 335 1
397 335 1
431 335 1
134 336 1
144 336 1
351 336 1
384 336 1
398 336 1
432 336 1
145 337 1
183 337 1
289 337 1
326 337 1
433 337 1
434 337 1
146 338 1
184 338 1
290 338 1
327 338 1
434 338 1
435 338 1
147 339 1
185 339 1
291 339 1
328 339 1
435 339 1
436 339 1
148 340 1
186 340 1
292 340 1
329 340 1
436 340 1
437 340 1
149 341 1
187 341 1
293 341 1
330 341 1
437 341 1
438 341 1
150 342 1
188 342 1
294 342 1
331 342 1
438 342 1
439 342 1
151 343 1
189 343 1
295 343 1
332 343 1
439 343 1
440 343 1
152 344 1
190 344 1
296 344 1
333 344 1
440 344 1
441 344 1
153 345 1
191 345 1
297 345 1
334 345 1
441 345 1
442 345 1
154 346 1
192 346 1
298 346 1
335 346 1
442 346 1
443 346 1
145 347 1
155 347 1
299 347 1
336 347 1
443 347 1
444 347 1
146 348 1
156 348 1
289 348 1
300 348 1
444 348 1
445 348 1
147 349 1
157 349 1
290 349 1
301 349 1
445 349 1
446 349 1
148 350 1
158 350 1
291 350 1
302 350 1
446 350 1
447 350 1
149 351 1
159 351 1
292 351 1
303 351 1
447 351 1
448 351 1
150 352 1
160 352 1
293 352 1
304 352 1
448 352 1
449 352 1
151 353 1
161 353 1
294 353 1
305 353 1
449 353 1
450 353 1
152 354 1
162 354 1
295 354 1
306 354 1
450 354 1
451 354 1
153 355 1
163 355 1
296 355 1
307 355 1
451 355 1
452 355 1
154 356 1
164 356 1
297 356 1
308 356 1
452 356 1
453 356 1
155 357 1
165 357 1
298 357 1
309 357 1
453 357 1
454 357 1
156 358 1
166 358 1
299 358 1
310 358 1
454 358 1
455 358 1
157 359 1
167 359 1
300 359 1
311 359 1
455 359 1
456 359 1
158 360 1
168 360 1
301 360 1
312 360 1
456 360 1
457 360 1
159 361 1
169 361 1
302 361 1
313 361 1
457 361 1
458 361 1
160 362 1
170 362 1
303 362 1
314 362 1
458 362 1
459 362 1
161 363 1
171 363 1
304 363 1
315 363 1
459 363 1
460 363 1
162 364 1
172 364 1
305 364 1
316 364 1
460 364 1
461 364 1
163 365 1
173 365 1
306 365 1
317 365 1
461 365 1
462 365 1
164 366 1
174 366 1
307 366 1
318 366 1
462 366 1
463 366 1
165 367 1
175 367 1
308 367 1
319 367 1
463 367 1
464 367 1
166 368 1
176 368 1
309 368 1
320 368 1
464 368 1
465 368 1
167 369 1
177 369 1
310 369 1
321 369 1
465 369 1
466 369 1
168 370 1
178 370 1
311 370 1
322 370 1
466 370 1
467 370 1
169 371 1
179 371 1
312 371 1
323 371 1
467 371 1
468 371 1
170 372 1
180 372 1
313 372 1
324 372 1
468 372 1
469 372 1
171 373 1
181 373 1
314 373 1
325 373 1
469 373 1
470 373 1
172 374 1
182 374 1
315 374 1
326 374 1
470 374 1
471 374 1
173 375 1
183 375 1
316 375 1
327 375 1
471 375 1
472 375 1
174 376 1
184 376 1
317 376 1
328 376 1
472 376 1
473 376 1
175 377 1
185 377 1
318 377 1
329 377 1
473 377 1
474 377 1
176 378 1
186 378 1
319 378 1
330 378 1
474 378 1
475 378 1
177 379 1
187 379 1
320 379 1
331 379 1
475 379 1
476 379 1
178 380 1
188 380 1
321 380 1
332 380 1
476 380 1
477 380 1
179 381 1
189 381 1
322 381 1
333 381 1
477 381 1
478 381 1
180 382 1
190 382 1
323 382 1
334 382 1
478 382 1
479 382 1
181 383 1
191 383 1
324 383 1
335 383 1
479 383 1
480 383 1
182 384 1
192 384 1
325 384 1
336 384 1
433 384 1
480 384 1
193 385 1
231 385 1
337 385 1
374 385 1
433 385 1
447 385 1
194 386 1
232 386 1
338 386 1
375 386 1
434 386 1
448 386 1
195 387 1
233 387 1
339 387 1
376 387 1
435 387 1
449 387 1
196 388 1
234 388 1
340 388 1
377 388 1
436 388 1
450 388 1
197 389 1
235 389 1
341 389 1
378 389 1
437 389 1
451 389 1
198 390 1
236 390 1
342 390 1
379 390 1
438 390 1
452 390 1
199 391 1
237 391 1
343 391 1
380 391 1
439 391 1
453 391 1
200 392 1
238 392 1
344 392 1
381 392 1
440 392 1
454 392 1
201 393 1
239 393 1
345 393 1
382 393 1
441 393 1
455 393 1
202 394 1
240 394 1
346 394 1
383 394 1
442 394 1
456 394 1
193 395 1
203 395 1
347 395 1
384 395 1
443 395 1
457 395 1
194 396 1
204 396 1
337 396 1
348 396 1
444 396 1
458 396 1
195 397 1
205 397 1
338 397 1
349 397 1
445 397 1
459 397 1
196 398 1
206 398 1
339 398 1
350 398 1
446 398 1
460 398 1
197 399 1
207 399 1
340 399 1
351 399 1
447 399 1
461 399 1
198 400 1
208 400 1
341 400 1
352 400 1
448 400 1
462 400 1
199 401 1
209 401 1
342 401 1
353 401 1
449 401 1
463 401 1
200 402 1
210 402 1
343 402 1
354 402 1
450 402 1
464 402 1
201 403 1
211 403 1
344 403 1
355 403 1
451 403 1
465 403 1
202 404 1
212 404 1
345 404 1
356 404 1
452 404 1
466 404 1
203 405 1
213 405 1
346 405 1
357 405 1
453 405 1
467 405 1
204 406 1
214 406 1
347 406 1
358 406 1
454 406 1
468 406 1
205 407 1
215 407 1
348 407 1
359 407 1
455 407 1
469 407 1
206 408 1
216 408 1
349 408 1
360 408 1
456 408 1
470 408 1
207 409 1
217 409 1
350 409 1
361 409 1
457 409 1
471 409 1
208 410 1
218 410 1
351 410 1
362 410 1
458 410 1
472 410 1
209 411 1
219 411 1
352 411 1
363 411 1
459 411 1
473 411 1
210 412 1
220 412 1
353 412 1
364 412 1
460 412 1
474 412 1
211 413 1
221 413 1
354 413 1
365 413 1
461 413 1
475 413 1
212 414 1
222 414 1
355 414 1
366 414 1
462 414 1
476 414 1
213 415 1
223 415 1
356 415 1
367 415 1
463 415 1
477 415 1
214 416 1
224 416 1
357 416 1
368 416 1
464 416 1
478 416 1
215 417 1
225 417 1
358 417 1
369 417 1
465 417 1
479 417 1
216 418 1
226 418 1
359 418 1
370 418 1
466 418 1
480 418 1
217 419 1
227 419 1
360 419 1
371 419 1
433 419 1
467 419 1
218 420 1
228 420 1
361 420 1
372 420 1
434 420 1
468 420 1
219 421 1
229 421 1
362 421 1
373 421 1
435 421 1
469 421 1
220 422 1
230 422 1
363 422 1
374 422 1
436 422 1
470 422 1
221 423 1
231 423 1
364 423 1
375 423 1
437 423 1
471 423 1
222 424 1
232 424 1
365 424 1
376 424 1
438 424 1
472 424 1
223 425 1
233 425 1
366 425 1
377 425 1
439 425 1
473 425 1
224 426 1
234 426 1
367 426 1
378 426 1
440 426 1
474 426 1
225 427 1
235 427 1
368 427 1
379 427 1
441 427 1
475 427 1
226 428 1
236 428 1
369 428 1
380 428 1
442 428 1
476 428 1
227 429 1
237 429 1
370 429 1
381 429 1
443 429 1
477 429 1
228 430 1
238 430 1
371 430 1
382 430 1
444 430 1
478 430 1
229 431 1
239 431 1
372 431 1
383 431 1
445 431 1
479 431 1
230 432 1
240 432 1
373 432 1
384 432 1
446 432 1
480 432 1
241 433 1
279 433 1
385 433 1
422 433 1
433 433 1
448 433 1
242 434 1
280 434 1
386 434 1
423 434 1
434 434 1
449 434 1
243 435 1
281 435 1
387 435 1
424 435 1
435 435 1
450 435 1
244 436 1
282 436 1
388 436 1
425 436 1
436 436 1
451 436 1
245 437 1
283 437 1
389 437 1
426 437 1
437 437 1
452 437 1
246 438 1
284 438 1
390 438 1
427 438 1
438 438 1
453 438 1
247 439 1
285 439 1
391 439 1
428 439 1
439 439 1
454 439 1
248 440 1
286 440 1
392 440 1
429 440 1
440 440 1
455 440 1
249 441 1
287 441 1
393 441 1
430 441 1
441 441 1
456 441 1
250 442 1
288 442 1
394 442 1
431 442 1
442 442 1
457 442 1
241 443 1
251 443 1
395 443 1
432 443 1
443 443 1
458 443 1
242 444 1
252 444 1
385 444 1
396 444 1
444 444 1
459 444 1
243 445 1
253 445 1
386 445 1
397 445 1
445 445 1
460 445 1
244 446 1
254 446 1
387 446 1
398 446 1
446 446 1
461 446 1
245 447 1
255 447 1
388 447 1
399 447 1
447 447 1
462 447 1
246 448 1
256 448 1
389 448 1
400 448 1
448 448 1
463 448 1
247 449 1
257 449 1
390 449 1
401 449 1
449 449 1
464 449 1
248 450 1
258 450 1
391 450 1
402 450 1
450 450 1
465 450 1
249 451 1
259 451 1
392 451 1
403 451 1
451 451 1
466 451 1
250 452 1
260 452 1
393 452 1
404 452 1
452 452 1
467 452 1
251 453 1
261 453 1
394 453 1
405 453 1
453 453 1
468 453 1
252 454 1
262 454 1
395 454 1
406 454 1
454 454 1
469 454 1
253 455 1
263 455 1
396 455 1
407 455 1
455 455 1
470 455 1
254 456 1
264 456 1
397 456 1
408 456 1
456 456 1
471 456 1
255 457 1
265 457 1
398 457 1
409 457 1
457 457 1
472 457 1
256 458 1
266 458 1
399 458 1
410 458 1
458 458 1
473 458 1
257 459 1
267 459 1
400 459 1
411 459 1
459 459 1
474 459 1
258 460 1
268 460 1
401 460 1
412 460 1
460 460 1
475 460 1
259 461 1
269 461 1
402 461 1
413 461 1
461 461 1
476 461 1
260 462 1
270 462 1
403 462 1
414 462 1
462 462 1
477 462 1
261 463 1
271 463 1
404 463 1
415 463 1
463 463 1
478 463 1
262 464 1
272 464 1
405 464 1
416 464 1
464 464 1
479 464 1
263 465 1
273 465 1
406 465 1
417 465 1
465 465 1
480 465 1
264 466 1
274 466 1
407 466 1
418 466 1
433 466 1
466 466 1
265 467 1
275 467 1
408 467 1
419 467 1
434 467 1
467 467 1
266 468 1
276 468 1
409 468 1
420 468 1
435 468 1
468 468 1
267 469 1
277 469 1
410 469 1
421 469 1
436 469 1
469 469 1
268 470 1
278 470 1
411 470 1
422 470 1
437 470 1
470 470 1
269 471 1
279 471 1
412 471 1
423 471 1
438 471 1
471 471 1
270 472 1
280 472 1
413 472 1
424 472 1
439 472 1
472 472 1
271 473 1
281 473 1
414 473 1
425 473 1
440 473 1
473 473 1
272 474 1
282 474 1
415 474 1
426 474 1
441 474 1
474 474 1
273 475 1
283 475 1
416 475 1
427 475 1
442 475 1
475 475 1
274 476 1
284 476 1
417 476 1
428 476 1
443 476 1
476 476 1
275 477 1
285 477 1
418 477 1
429 477 1
444 477 1
477 477 1
276 478 1
286 478 1
419 478 1
430 478 1
445 478 1
478 478 1
277 479 1
287 479 1
420 479 1
431 479 1
446 479 1
479 479 1
278 480 1
288 480 1
421 480 1
432 480 1
447 480 1
480 480 1
1 481 1
42 481 1
481 481 1
495 481 1
529 481 1
530 481 1
2 482 1
43 482 1
482 482 1
496 482 1
530 482 1
531 482 1
3 483 1
44 483 1
483 483 1
497 483 1
531 483 1
532 483 1
4 484 1
45 484 1
484 484 1
498 484 1
532 484 1
533 484 1
5 485 1
46 485 1
485 485 1
499 485 1
533 485 1
534 485 1
6 486 1
47 486 1
486 486 1
500 486 1
534 486 1
535 486 1
7 487 1
48 487 1
487 487 1
501 487 1
535 487 1
536 487 1
1 488 1
8 488 1
488 488 1
502 488 1
536 488 1
537 488 1
2 489 1
9 489 1
489 489 1
503 489 1
537 489 1
538 489 1
3 490 1
10 490 1
490 490 1
504 490 1
538 490 1
539 490 1
4 491 1
11 491 1
491 491 1
505 491 1
539 491 1
540 491 1
5 492 1
12 492 1
492 492 1
506 492 1
540 492 1
541 492 1
6 493 1
13 493 1
493 493 1
507 493 1
541 493 1
542 493 1
7 494 1
14 494 1
494 494 1
508 494 1
542 494 1
543 494 1
8 495 1
15 495 1
495 495 1
509 495 1
543 495 1
544 495 1
9 496 1
16 496 1
496 496 1
510 496 1
544 496 1
545 496 1
10 497 1
17 497 1
497 497 1
511 497 1
545 497 1
546 497 1
11 498 1
18 498 1
498 498 1
512 498 1
546 498 1
547 498 1
12 499 1
19 499 1
499 499 1
513 499 1
547 499 1
548 499 1
13 500 1
20 500 1
500 500 1
514 500 1
548 500 1
549 500 1
14 501 1
21 501 1
501 501 1
515 501 1
549 501 1
550 501 1
15 502 1
22 502 1
502 502 1
516 502 1
550 502 1
551 502 1
16 503 1
23 503 1
503 503 1
517 503 1
551 503 1
552 503 1
17 504 1
24 504 1
504 504 1
518 504 1
552 504 1
553 504 1
18 505 1
25 505 1
505 505 1
519 505 1
553 505 1
554 505 1
19 506 1
26 506 1
506 506 1
520 506 1
554 506 1
555 506 1
20 507 1
27 507 1
507 507 1
521 507 1
555 507 1
556 507 1
21 508 1
28 508 1
508 508 1
522 508 1
556 508 1
557 508 1
22 509 1
29 509 1
509 509 1
523 509 1
557 509 1
558 509 1
23 510 1
30 510 1
510 510 1
524 510 1
558 510 1
559 510 1
24 511 1
31 511 1
511 511 1
525 511 1
559 511 1
560 511 1
25 512 1
32 512 1
512 512 1
526 512 1
560 512 1
561 512 1
26 513 1
33 513 1
513 513 1
527 513 1
561 513 1
562 513 1
27 514 1
34 514 1
514 514 1
528 514 1
562 514 1
563 514 1
28 515 1
35 515 1
481 515 1
515 515 1
563 515 1
564 515 1
29 516 1
36 516 1
482 516 1
516 516 1
564 516 1
565 516 1
30 517 1
37 517 1
483 517 1
517 517 1
565 517 1
566 517 1
31 518 1
38 518 1
484 518 1
518 518 1
566 518 1
567 518 1
32 519 1
39 519 1
485 519 1
519 519 1
567 519 1
568 519 1
33 520 1
40 520 1
486 520 1
520 520 1
568 520 1
569 520 1
34 521 1
41 521 1
487 521 1
521 521 1
569 521 1
570 521 1
35 522 1
42 522 1
488 522 1
522 522 1
570 522 1
571 522 1
36 523 1
43 523 1
489 523 1
523 523 1
571 523 1
572 523 1
37 524 1
44 524 1
490 524 1
524 524 1
572 524 1
573 524 1
38 525 1
45 525 1
491 525 1
525 525 1
573 525 1
574 525 1
39 526 1
46 526 1
492 526 1
526 526 1
574 526 1
575 526 1
40 527 1
47 527 1
493 527 1
527 527 1
575 527 1
576 527 1
41 528 1
48 528 1
494 528 1
528 528 1
529 528 1
576 528 1
49 529 1
90 529 1
481 529 1
496 529 1
577 529 1
578 529 1
50 530 1
91 530 1
482 530 1
497 530 1
578 530 1
579 530 1
51 531 1
92 531 1
483 531 1
498 531 1
579 531 1
580 531 1
52 532 1
93 532 1
484 532 1
499 532 1
580 532 1
581 532 1
53 533 1
94 533 1
485 533 1
500 533 1
581 533 1
582 533 1
54 534 1
95 534 1
486 534 1
501 534 1
582 534 1
583 534 1
55 535 1
96 535 1
487 535 1
502 535 1
583 535 1
584 535 1
49 536 1
56 536 1
488 536 1
503 536 1
584 536 1
585 536 1
50 537 1
57 537 1
489 537 1
504 537 1
585 537 1
586 537 1
51 538 1
58 538 1
490 538 1
505 538 1
586 538 1
587 538 1
52 539 1
59 539 1
491 539 1
506 539 1
587 539 1
588 539 1
53 540 1
60 540 1
492 540 1
507 540 1
588 540 1
589 540 1
54 541 1
61 541 1
493 541 1
508 541 1
589 541 1
590 541 1
55 542 1
62 542 1
494 542 1
509 542 1
590 542 1
591 542 1
56 543 1
63 543 1
495 543 1
510 543 1
591 543 1
592 543 1
57 544 1
64 544 1
496 544 1
511 544 1
592 544 1
593 544 1
58 545 1
65 545 1
497 545 1
512 545 1
593 545 1
594 545 1
59 546 1
66 546 1
498 546 1
513 546 1
594 546 1
595 546 1
60 547 1
67 547 1
499 547 1
514 547 1
595 547 1
596 547 1
61 548 1
68 548 1
500 548 1
515 548 1
596 548 1
597 548 1
62 549 1
69 549 1
501 549 1
516 549 1
597 549 1
598 549 1
63 550 1
70 550 1
502 550 1
517 550 1
598 550 1
599 550 1
64 551 1
71 551 1
503 551 1
518 551 1
599 551 1
600 551 1
65 552 1
72 552 1
504 552 1
519 552 1
600 552 1
601 552 1
66 553 1
73 553 1
505 553 1
520 553 1
601 553 1
602 553 1
67 554 1
74 554 1
506 554 1
521 554 1
602 554 1
603 554 1
68 555 1
75 555 1
507 555 1
522 555 1
603 555 1
604 555 1
69 556 1
76 556 1
508 556 1
523 556 1
604 556 1
605 556 1
70 557 1
77 557 1
509 557 1
524 557 1
605 557 1
606 557 1
71 558 1
78 558 1
510 558 1
525 558 1
606 558 1
607 558 1
72 559 1
79 559 1
511 559 1
526 559 1
607 559 1
608 559 1
73 560 1
80 560 1
512 560 1
527 560 1
608 560 1
609 560 1
74 561 1
81 561 1
513 561 1
528 561 1
609 561 1
610 561 1
75 562 1
82 562 1
481 562 1
514 562 1
610 562 1
611 562 1
76 563 1
83 563 1
482 563 1
515 563 1
611 563 1
612 563 1
77 564 1
84 564 1
483 564 1
516 564 1
612 564 1
613 564 1
78 565 1
85 565 1
484 565 1
517 565 1
613 565 1
614 565 1
79 566 1
86 566 1
485 566 1
518 566 1
614 566 1
615 566 1
80 567 1
87 567 1
486 567 1
519 567 1
615 567 1
616 567 1
81 568 1
88 568 1
487 568 1
520 568 1
616 568 1
617 568 1
82 569 1
89 569 1
488 569 1
521 569 1
617 569 1
618 569 1
83 570 1
90 570 1
489 570 1
522 570 1
618 570 1
619 570 1
84 571 1
91 571 1
490 571 1
523 571 1
619 571 1
620 571 1
85 572 1
92 572 1
491 572 1
524 572 1
620 572 1
621 572 1
86 573 1
93 573 1
492 573 1
525 573 1
621 573 1
622 573 1
87 574 1
94 574 1
493 574 1
526 574 1
622 574 1
623 574 1
88 575 1
95 575 1
494 575 1
527 575 1
623 575 1
624 575 1
89 576 1
96 576 1
495 576 1
528 576 1
577 576 1
624 576 1
97 577 1
138 577 1
529 577 1
544 577 1
577 577 1
591 577 1
98 578 1
139 578 1
530 578 1
545 578 1
578 578 1
592 578 1
99 579 1
140 579 1
531 579 1
546 579 1
579 579 1
593 579 1
100 580 1
141 580 1
532 580 1
547 580 1
580 580 1
594 580 1
101 581 1
142 581 1
533 581 1
548 581 1
581 581 1
595 581 1
102 582 1
143 582 1
534 582 1
549 582 1
582 582 1
596 582 1
103 583 1
144 583 1
535 583 1
550 583 1
583 583 1
597 583 1
97 584 1
104 584 1
536 584 1
551 584 1
584 584 1
598 584 1
98 585 1
105 585 1
537 585 1
552 585 1
585 585 1
599 585 1
99 586 1
106 586 1
538 586 1
553 586 1
586 586 1
600 586 1
100 587 1
107 587 1
539 587 1
554 587 1
587 587 1
601 587 1
101 588 1
108 588 1
540 588 1
555 588 1
588 588 1
602 588 1
102 589 1
109 589 1
541 589 1
556 589 1
589 589 1
603 589 1
103 590 1
110 590 1
542 590 1
557 590 1
590 590 1
604 590 1
104 591 1
111 591 1
543 591 1
558 591 1
591 591 1
605 591 1
105 592 1
112 592 1
544 592 1
559 592 1
592 592 1
606 592 1
106 593 1
113 593 1
545 593 1
560 593 1
593 593 1
607 593 1
107 594 1
114 594 1
546 594 1
561 594 1
594 594 1
608 594 1
108 595 1
115 595 1
547 595 1
562 595 1
595 595 1
609 595 1
109 596 1
116 596 1
548 596 1
563 596 1
596 596 1
610 596 1
110 597 1
117 597 1
549 597 1
564 597 1
597 597 1
611 597 1
111 598 1
118 598 1
550 598 1
565 598 1
598 598 1
612 598 1
112 599 1
119 599 1
551 599 1
566 599 1
599 599 1
613 599 1
113 600 1
120 600 1
552 600 1
567 600 1
600 600 1
614 600 1
114 601 1
121 601 1
553 601 1
568 601 1
601 601 1
615 601 1
115 602 1
122 602 1
554 602 1
569 602 1
602 602 1
616 602 1
116 603 1
123 603 1
555 603 1
570 603 1
603 603 1
617 603 1
117 604 1
124 604 1
556 604 1
571 604 1
604 604 1
618 604 1
118 605 1
125 605 1
557 605 1
572 605 1
605 605 1
619 605 1
119 606 1
126 606 1
558 606 1
573 606 1
606 606 1
620 606 1
120 607 1
127 607 1
559 607 1
574 607 1
607 607 1
621 607 1
121 608 1
128 608 1
560 608 1
575 608 1
608 608 1
622 608 1
122 609 1
129 609 1
561 609 1
576 609 1
609 609 1
623 609 1
123 610 1
130 610 1
529 610 1
562 610 1
610 610 1
624 610 1
124 611 1
131 611 1
530 611 1
563 611 1
577 611 1
611 611 1
125 612 1
132 612 1
531 612 1
564 612 1
578 612 1
612 612 1
126 613 1
133 613 1
532 613 1
565 613 1
579 613 1
613 613 1
127 614 1
134 614 1
533 614 1
566 614 1
580 614 1
614 614 1
128 615 1
135 615 1
534 615 1
567 615 1
581 615 1
615 615 1
129 616 1
136 616 1
535 616 1
568 616 1
582 616 1
616 616 1
130 617 1
137 617 1
536 617 1
569 617 1
583 617 1
617 617 1
131 618 1
138 618 1
537 618 1
570 618 1
584 618 1
618 618 1
132 619 1
139 619 1
538 619 1
571 619 1
585 619 1
619 619 1
133 620 1
140 620 1
539 620 1
572 620 1
586 620 1
620 620 1
134 621 1
141 621 1
540 621 1
573 621 1
587 621 1
621 621 1
135 622 1
142 622 1
541 622 1
574 622 1
588 622 1
622 622 1
136 623 1
143 623 1
542 623 1
575 623 1
589 623 1
623 623 1
137 624 1
144 624 1
543 624 1
576 624 1
590 624 1
624 624 1
145 625 1
186 625 1
481 625 1
518 625 1
625 625 1
626 625 1
146 626 1
187 626 1
482 626 1
519 626 1
626 626 1
627 626 1
147 627 1
188 627 1
483 627 1
520 627 1
627 627 1
628 627 1
148 628 1
189 628 1
484 628 1
521 628 1
628 628 1
629 628 1
149 629 1
190 629 1
485 629 1
522 629 1
629 629 1
630 629 1
150 630 1
191 630 1
486 630 1
523 630 1
630 630 1
631 630 1
151 631 1
192 631 1
487 631 1
524 631 1
631 631 1
632 631 1
145 632 1
152 632 1
488 632 1
525 632 1
632 632 1
633 632 1
146 633 1
153 633 1
489 633 1
526 633 1
633 633 1
634 633 1
147 634 1
154 634 1
490 634 1
527 634 1
634 634 1
635 634 1
148 635 1
155 635 1
491 635 1
528 635 1
635 635 1
636 635 1
149 636 1
156 636 1
481 636 1
492 636 1
636 636 1
637 636 1
150 637 1
157 637 1
482 637 1
493 637 1
637 637 1
638 637 1
151 638 1
158 638 1
483 638 1
494 638 1
638 638 1
639 638 1
152 639 1
159 639 1
484 639 1
495 639 1
639 639 1
640 639 1
153 640 1
160 640 1
485 640 1
496 640 1
640 640 1
641 640 1
154 641 1
161 641 1
486 641 1
497 641 1
641 641 1
642 641 1
155 642 1
162 642 1
487 642 1
498 642 1
642 642 1
643 642 1
156 643 1
163 643 1
488 643 1
499 643 1
643 643 1
644 643 1
157 644 1
164 644 1
489 644 1
500 644 1
644 644 1
645 644 1
158 645 1
165 645 1
490 645 1
501 645 1
645 645 1
646 645 1
159 646 1
166 646 1
491 646 1
502 646 1
646 646 1
647 646 1
160 647 1
167 647 1
492 647 1
503 647 1
647 647 1
648 647 1
161 648 1
168 648 1
493 648 1
504 648 1
648 648 1
649 648 1
162 649 1
169 649 1
494 649 1
505 649 1
649 649 1
650 649 1
163 650 1
170 650 1
495 650 1
506 650 1
650 650 1
651 650 1
164 651 1
171 651 1
496 651 1
507 651 1
651 651 1
652 651 1
165 652 1
172 652 1
497 652 1
508 652 1
652 652 1
653 652 1
166 653 1
173 653 1
498 653 1
509 653 1
653 653 1
654 653 1
167 654 1
174 654 1
499 654 1
510 654 1
654 654 1
655 654 1
168 655 1
175 655 1
500 655 1
511 655 1
655 655 1
656 655 1
169 656 1
176 656 1
501 656 1
512 656 1
656 656 1
657 656 1
170 657 1
177 657 1
502 657 1
513 657 1
657 657 1
658 657 1
171 658 1
178 658 1
503 658 1
514 658 1
658 658 1
659 658 1
172 659 1
179 659 1
504 659 1
515 659 1
659 659 1
660 659 1
173 660 1
180 660 1
505 660 1
516 660 1
660 660 1
661 660 1
174 661 1
181 661 1
506 661 1
517 661 1
661 661 1
662 661 1
175 662 1
182 662 1
507 662 1
518 662 1
662 662 1
663 662 1
176 663 1
183 663 1
508 663 1
519 663 1
663 663 1
664 663 1
177 664 1
184 664 1
509 664 1
520 664 1
664 664 1
665 664 1
178 665 1
185 665 1
510 665 1
521 665 1
665 665 1
666 665 1
179 666 1
186 666 1
511 666 1
522 666 1
666 666 1
667 666 1
180 667 1
187 667 1
512 667 1
523 667 1
667 667 1
668 667 1
181 668 1
188 668 1
513 668 1
524 668 1
668 668 1
669 668 1
182 669 1
189 669 1
514 669 1
525 669 1
669 669 1
670 669 1
183 670 1
190 670 1
515 670 1
526 670 1
670 670 1
671 670 1
184 671 1
191 671 1
516 671 1
527 671 1
671 671 1
672 671 1
185 672 1
192 672 1
517 672 1
528 672 1
625 672 1
672 672 1
193 673 1
234 673 1
529 673 1
566 673 1
625 673 1
639 673 1
194 674 1
235 674 1
530 674 1
567 674 1
626 674 1
640 674 1
195 675 1
236 675 1
531 675 1
568 675 1
627 675 1
641 675 1
196 676 1
237 676 1
532 676 1
569 676 1
628 676 1
642 676 1
197 677 1
238 677 1
533 677 1
570 677 1
629 677 1
643 677 1
198 678 1
239 678 1
534 678 1
571 678 1
630 678 1
644 678 1
199 679 1
240 679 1
535 679 1
572 679 1
631 679 1
645 679 1
193 680 1
200 680 1
536 680 1
573 680 1
632 680 1
646 680 1
194 681 1
201 681 1
537 681 1
574 681 1
633 681 1
647 681 1
195 682 1
202 682 1
538 682 1
575 682 1
634 682 1
648 682 1
196 683 1
203 683 1
539 683 1
576 683 1
635 683 1
649 683 1
197 684 1
204 684 1
529 684 1
540 684 1
636 684 1
650 684 1
198 685 1
205 685 1
530 685 1
541 685 1
637 685 1
651 685 1
199 686 1
206 686 1
531 686 1
542 686 1
638 686 1
652 686 1
200 687 1
207 687 1
532 687 1
543 687 1
639 687 1
653 687 1
201 688 1
208 688 1
533 688 1
544 688 1
640 688 1
654 688 1
202 689 1
209 689 1
534 689 1
545 689 1
641 689 1
655 689 1
203 690 1
210 690 1
535 690 1
546 690 1
642 690 1
656 690 1
204 691 1
211 691 1
536 691 1
547 691 1
643 691 1
657 691 1
205 692 1
212 692 1
537 692 1
548 692 1
644 692 1
658 692 1
206 693 1
213 693 1
538 693 1
549 693 1
645 693 1
659 693 1
207 694 1
214 694 1
539 694 1
550 694 1
646 694 1
660 694 1
208 695 1
215 695 1
540 695 1
551 695 1
647 695 1
661 695 1
209 696 1
216 696 1
541 696 1
552 696 1
648 696 1
662 696 1
210 697 1
217 697 1
542 697 1
553 697 1
649 697 1
663 697 1
211 698 1
218 698 1
543 698 1
554 698 1
650 698 1
664 698 1
212 699 1
219 699 1
544 699 1
555 699 1
651 699 1
665 699 1
213 700 1
220 700 1
545 700 1
556 700 1
652 700 1
666 700 1
214 701 1
221 701 1
546 701 1
557 701 1
653 701 1
667 701 1
215 702 1
222 702 1
547 702 1
558 702 1
654 702 1
668 702 1
216 703 1
223 703 1
548 703 1
559 703 1
655 703 1
669 703 1
217 704 1
224 704 1
549 704 1
560 704 1
656 704 1
670 704 1
218 705 1
225 705 1
550 705 1
561 705 1
657 705 1
671 705 1
219 706 1
226 706 1
551 706 1
562 706 1
658 706 1
672 706 1
220 707 1
227 707 1
552 707 1
563 707 1
625 707 1
659 707 1
221 708 1
228 708 1
553 708 1
564 708 1
626 708 1
660 708 1
222 709 1
229 709 1
554 709 1
565 709 1
627 709 1
661 709 1
223 710 1
230 710 1
555 710 1
566 710 1
628 710 1
662 710 1
224 711 1
231 711 1
556 711 1
567 711 1
629 711 1
663 711 1
225 712 1
232 712 1
557 712 1
568 712 1
630 712 1
664 712 1
226 713 1
233 713 1
558 713 1
569 713 1
631 713 1
665 713 1
227 714 1
234 714 1
559 714 1
570 714 1
632 714 1
666 714 1
228 715 1
235 715 1
560 715 1
571 715 1
633 715 1
667 715 1
229 716 1
236 716 1
561 716 1
572 716 1
634 716 1
668 716 1
230 717 1
237 717 1
562 717 1
573 717 1
635 717 1
669 717 1
231 718 1
238 718 1
563 718 1
574 718 1
636 718 1
670 718 1
232 719 1
239 719 1
564 719 1
575 719 1
637 719 1
671 719 1
233 720 1
240 720 1
565 720 1
576 720 1
638 720 1
672 720 1
241 721 1
282 721 1
577 721 1
614 721 1
625 721 1
640 721 1
242 722 1
283 722 1
578 722 1
615 722 1
626 722 1
641 722 1
243 723 1
284 723 1
579 723 1
616 723 1
627 723 1
642 723 1
244 724 1
285 724 1
580 724 1
617 724 1
628 724 1
643 724 1
245 725 1
286 725 1
581 725 1
618 725 1
629 725 1
644 725 1
246 726 1
287 726 1
582 726 1
619 726 1
630 726 1
645 726 1
247 727 1
288 727 1
583 727 1
620 727 1
631 727 1
646 727 1
241 728 1
248 728 1
584 728 1
621 728 1
632 728 1
647 728 1
242 729 1
249 729 1
585 729 1
622 729 1
633 729 1
648 729 1
243 730 1
250 730 1
586 730 1
623 730 1
634 730 1
649 730 1
244 731 1
251 731 1
587 731 1
624 731 1
635 731 1
650 731 1
245 732 1
252 732 1
577 732 1
588 732 1
636 732 1
651 732 1
246 733 1
253 733 1
578 733 1
589 733 1
637 733 1
652 733 1
247 734 1
254 734 1
579 734 1
590 734 1
638 734 1
653 734 1
248 735 1
255 735 1
580 735 1
591 735 1
639 735 1
654 735 1
249 736 1
256 736 1
581 736 1
592 736 1
640 736 1
655 736 1
250 737 1
257 737 1
582 737 1
593 737 1
641 737 1
656 737 1
251 738 1
258 738 1
583 738 1
594 738 1
642 738 1
657 738 1
252 739 1
259 739 1
584 739 1
595 739 1
643 739 1
658 739 1
253 740 1
260 740 1
585 740 1
596 740 1
644 740 1
659 740 1
254 741 1
261 741 1
586 741 1
597 741 1
645 741 1
660 741 1
255 742 1
262 742 1
587 742 1
598 742 1
646 742 1
661 742 1
256 743 1
263 743 1
588 743 1
599 743 1
647 743 1
662 743 1
257 744 1
264 744 1
589 744 1
600 744 1
648 744 1
663 744 1
258 745 1
265 745 1
590 745 1
601 745 1
649 745 1
664 745 1
259 746 1
266 746 1
591 746 1
602 746 1
650 746 1
665 746 1
260 747 1
267 747 1
592 747 1
603 747 1
651 747 1
666 747 1
261 748 1
268 748 1
593 748 1
604 748 1
652 748 1
667 748 1
262 749 1
269 749 1
594 749 1
605 749 1
653 749 1
668 749 1
263 750 1
270 750 1
595 750 1
606 750 1
654 750 1
669 750 1
264 751 1
271 751 1
596 751 1
607 751 1
655 751 1
670 751 1
265 752 1
272 752 1
597 752 1
608 752 1
656 752 1
671 752 1
266 753 1
273 753 1
598 753 1
609 753 1
657 753 1
672 753 1
267 754 1
274 754 1
599 754 1
610 754 1
625 754 1
658 754 1
268 755 1
275 755 1
600 755 1
611 755 1
626 755 1
659 755 1
269 756 1
276 756 1
601 756 1
612 756 1
627 756 1
660 756 1
270 757 1
277 757 1
602 757 1
613 757 1
628 757 1
661 757 1
271 758 1
278 758 1
603 758 1
614 758 1
629 758 1
662 758 1
272 759 1
279 759 1
604 759 1
615 759 1
630 759 1
663 759 1
273 760 1
280 760 1
605 760 1
616 760 1
631 760 1
664 760 1
274 761 1
281 761 1
606 761 1
617 761 1
632 761 1
665 761 1
275 762 1
282 762 1
607 762 1
618 762 1
633 762 1
666 762 1
276 763 1
283 763 1
608 763 1
619 763 1
634 763 1
667 763 1
277 764 1
284 764 1
609 764 1
620 764 1
635 764 1
668 764 1
278 765 1
285 765 1
610 765 1
621 765 1
636 765 1
669 765 1
279 766 1
286 766 1
611 766 1
622 766 1
637 766 1
670 766 1
280 767 1
287 767 1
612 767 1
623 767 1
638 767 1
671 767 1
281 768 1
288 768 1
613 768 1
624 768 1
639 768 1
672 768 1
289 769 1
330 769 1
481 769 1
519 769 1
673 769 1
674 769 1
290 770 1
331 770 1
482 770 1
520 770 1
674 770 1
675 770 1
291 771 1
332 771 1
483 771 1
521 771 1
675 771 1
676 771 1
292 772 1
333 772 1
484 772 1
522 772 1
676 772 1
677 772 1
293 773 1
334 773 1
485 773 1
523 773 1
677 773 1
678 773 1
294 774 1
335 774 1
486 774 1
524 774 1
678 774 1
679 774 1
295 775 1
336 775 1
487 775 1
525 775 1
679 775 1
680 775 1
289 776 1
296 776 1
488 776 1
526 776 1
680 776 1
681 776 1
290 777 1
297 777 1
489 777 1
527 777 1
681 777 1
682 777 1
291 778 1
298 778 1
490 778 1
528 778 1
682 778 1
683 778 1
292 779 1
299 779 1
481 779 1
491 779 1
683 779 1
684 779 1
293 780 1
300 780 1
482 780 1
492 780 1
684 780 1
685 780 1
294 781 1
301 781 1
483 781 1
493 781 1
685 781 1
686 781 1
295 782 1
302 782 1
484 782 1
494 782 1
686 782 1
687 782 1
296 783 1
303 783 1
485 783 1
495 783 1
687 783 1
688 783 1
297 784 1
304 784 1
486 784 1
496 784 1
688 784 1
689 784 1
298 785 1
305 785 1
487 785 1
497 785 1
689 785 1
690 785 1
299 786 1
306 786 1
488 786 1
498 786 1
690 786 1
691 786 1
300 787 1
307 787 1
489 787 1
499 787 1
691 787 1
692 787 1
301 788 1
308 788 1
490 788 1
500 788 1
692 788 1
693 788 1
302 789 1
309 789 1
491 789 1
501 789 1
693 789 1
694 789 1
303 790 1
310 790 1
492 790 1
502 790 1
694 790 1
695 790 1
304 791 1
311 791 1
493 791 1
503 791 1
695 791 1
696 791 1
305 792 1
312 792 1
494 792 1
504 792 1
696 792 1
697 792 1
306 793 1
313 793 1
495 793 1
505 793 1
697 793 1
698 793 1
307 794 1
314 794 1
496 794 1
506 794 1
698 794 1
699 794 1
308 795 1
315 795 1
497 795 1
507 795 1
699 795 1
700 795 1
309 796 1
316 796 1
498 796 1
508 796 1
700 796 1
701 796 1
310 797 1
317 797 1
499 797 1
509 797 1
701 797 1
702 797 1
311 798 1
318 798 1
500 798 1
510 798 1
702 798 1
703 798 1
312 799 1
319 799 1
501 799 1
511 799 1
703 799 1
704 799 1
313 800 1
320 800 1
502 800 1
512 800 1
704 800 1
705 800 1
314 801 1
321 801 1
503 801 1
513 801 1
705 801 1
706 801 1
315 802 1
322 802 1
504 802 1
514 802 1
706 802 1
707 802 1
316 803 1
323 803 1
505 803 1
515 803 1
707 803 1
708 803 1
317 804 1
324 804 1
506 804 1
516 804 1
708 804 1
709 804 1
318 805 1
325 805 1
507 805 1
517 805 1
709 805 1
710 805 1
319 806 1
326 806 1
508 806 1
518 806 1
710 806 1
711 806 1
320 807 1
327 807 1
509 807 1
519 807 1
711 807 1
712 807 1
321 808 1
328 808 1
510 808 1
520 808 1
712 808 1
713 808 1
322 809 1
329 809 1
511 809 1
521 809 1
713 809 1
714 809 1
323 810 1
330 810 1
512 810 1
522 810 1
714 810 1
715 810 1
324 811 1
331 811 1
513 811 1
523 811 1
715 811 1
716 811 1
325 812 1
332 812 1
514 812 1
524 812 1
716 812 1
717 812 1
326 813 1
333 813 1
515 813 1
525 813 1
717 813 1
718 813 1
327 814 1
334 814 1
516 814 1
526 814 1
718 814 1
719 814 1
328 815 1
335 815 1
517 815 1
527 815 1
719 815 1
720 815 1
329 816 1
336 816 1
518 816 1
528 816 1
673 816 1
720 816 1
337 817 1
378 817 1
529 817 1
567 817 1
673 817 1
687 817 1
338 818 1
379 818 1
530 818 1
568 818 1
674 818 1
688 818 1
339 819 1
380 819 1
531 819 1
569 819 1
675 819 1
689 819 1
340 820 1
381 820 1
532 820 1
570 820 1
676 820 1
690 820 1
341 821 1
382 821 1
533 821 1
571 821 1
677 821 1
691 821 1
342 822 1
383 822 1
534 822 1
572 822 1
678 822 1
692 822 1
343 823 1
384 823 1
535 823 1
573 823 1
679 823 1
693 823 1
337 824 1
344 824 1
536 824 1
574 824 1
680 824 1
694 824 1
338 825 1
345 825 1
537 825 1
575 825 1
681 825 1
695 825 1
339 826 1
346 826 1
538 826 1
576 826 1
682 826 1
696 826 1
340 827 1
347 827 1
529 827 1
539 827 1
683 827 1
697 827 1
341 828 1
348 828 1
530 828 1
540 828 1
684 828 1
698 828 1
342 829 1
349 829 1
531 829 1
541 829 1
685 829 1
699 829 1
343 830 1
350 830 1
532 830 1
542 830 1
686 830 1
700 830 1
344 831 1
351 831 1
533 831 1
543 831 1
687 831 1
701 831 1
345 832 1
352 832 1
534 832 1
544 832 1
688 832 1
702 832 1
346 833 1
353 833 1
535 833 1
545 833 1
689 833 1
703 833 1
347 834 1
354 834 1
536 834 1
546 834 1
690 834 1
704 834 1
348 835 1
355 835 1
537 835 1
547 835 1
691 835 1
705 835 1
349 836 1
356 836 1
538 836 1
548 836 1
692 836 1
706 836 1
350 837 1
357 837 1
539 837 1
549 837 1
693 837 1
707 837 1
351 838 1
358 838 1
540 838 1
550 838 1
694 838 1
708 838 1
352 839 1
359 839 1
541 839 1
551 839 1
695 839 1
709 839 1
353 840 1
360 840 1
542 840 1
552 840 1
696 840 1
710 840 1
354 841 1
361 841 1
543 841 1
553 841 1
697 841 1
711 841 1
355 842 1
362 842 1
544 842 1
554 842 1
698 842 1
712 842 1
356 843 1
363 843 1
545 843 1
555 843 1
699 843 1
713 843 1
357 844 1
364 844 1
546 844 1
556 844 1
700 844 1
714 844 1
358 845 1
365 845 1
547 845 1
557 845 1
701 845 1
715 845 1
359 846 1
366 846 1
548 846 1
558 846 1
702 846 1
716 846 1
360 847 1
367 847 1
549 847 1
559 847 1
703 847 1
717 847 1
361 848 1
368 848 1
550 848 1
560 848 1
704 848 1
718 848 1
362 849 1
369 849 1
551 849 1
561 849 1
705 849 1
719 849 1
363 850 1
370 850 1
552 850 1
562 850 1
706 850 1
720 850 1
364 851 1
371 851 1
553 851 1
563 851 1
673 851 1
707 851 1
365 852 1
372 852 1
554 852 1
564 852 1
674 852 1
708 852 1
366 853 1
373 853 1
555 853 1
565 853 1
675 853 1
709 853 1
367 854 1
374 854 1
556 854 1
566 854 1
676 854 1
710 854 1
368 855 1
375 855 1
557 855 1
567 855 1
677 855 1
711 855 1
369 856 1
376 856 1
558 856 1
568 856 1
678 856 1
712 856 1
370 857 1
377 857 1
559 857 1
569 857 1
679 857 1
713 857 1
371 858 1
378 858 1
560 858 1
570 858 1
680 858 1
714 858 1
372 859 1
379 859 1
561 859 1
571 859 1
681 859 1
715 859 1
373 860 1
380 860 1
562 860 1
572 860 1
682 860 1
716 860 1
374 861 1
381 861 1
563 861 1
573 861 1
683 861 1
717 861 1
375 862 1
382 862 1
564 862 1
574 862 1
684 862 1
718 862 1
376 863 1
383 863 1
565 863 1
575 863 1
685 863 1
719 863 1
377 864 1
384 864 1
566 864 1
576 864 1
686 864 1
720 864 1
385 865 1
426 865 1
577 865 1
615 865 1
673 865 1
688 865 1
386 866 1
427 866 1
578 866 1
616 866 1
674 866 1
689 866 1
387 867 1
428 867 1
579 867 1
617 867 1
675 867 1
690 867 1
388 868 1
429 868 1
580 868 1
618 868 1
676 868 1
691 868 1
389 869 1
430 869 1
581 869 1
619 869 1
677 869 1
692 869 1
390 870 1
431 870 1
582 870 1
620 870 1
678 870 1
693 870 1
391 871 1
432 871 1
583 871 1
621 871 1
679 871 1
694 871 1
385 872 1
392 872 1
584 872 1
622 872 1
680 872 1
695 872 1
386 873 1
393 873 1
585 873 1
623 873 1
681 873 1
696 873 1
387 874 1
394 874 1
586 874 1
624 874 1
682 874 1
697 874 1
388 875 1
395 875 1
577 875 1
587 875 1
683 875 1
698 875 1
389 876 1
396 876 1
578 876 1
588 876 1
684 876 1
699 876 1
390 877 1
397 877 1
579 877 1
589 877 1
685 877 1
700 877 1
391 878 1
398 878 1
580 878 1
590 878 1
686 878 1
701 878 1
392 879 1
399 879 1
581 879 1
591 879 1
687 879 1
702 879 1
393 880 1
400 880 1
582 880 1
592 880 1
688 880 1
703 880 1
394 881 1
401 881 1
583 881 1
593 881 1
689 881 1
704 881 1
395 882 1
402 882 1
584 882 1
594 882 1
690 882 1
705 882 1
396 883 1
403 883 1
585 883 1
595 883 1
691 883 1
706 883 1
397 884 1
404 884 1
586 884 1
596 884 1
692 884 1
707 884 1
398 885 1
405 885 1
587 885 1
597 885 1
693 885 1
708 885 1
399 886 1
406 886 1
588 886 1
598 886 1
694 886 1
709 886 1
400 887 1
407 887 1
589 887 1
599 887 1
695 887 1
710 887 1
401 888 1
408 888 1
590 888 1
600 888 1
696 888 1
711 888 1
402 889 1
409 889 1
591 889 1
601 889 1
697 889 1
712 889 1
403 890 1
410 890 1
592 890 1
602 890 1
698 890 1
713 890 1
404 891 1
411 891 1
593 891 1
603 891 1
699 891 1
714 891 1
405 892 1
412 892 1
594 892 1
604 892 1
700 892 1
715 892 1
406 893 1
413 893 1
595 893 1
605 893 1
701 893 1
716 893 1
407 894 1
414 894 1
596 894 1
606 894 1
702 894 1
717 894 1
408 895 1
415 895 1
597 895 1
607 895 1
703 895 1
718 895 1
409 896 1
416 896 1
598 896 1
608 896 1
704 896 1
719 896 1
410 897 1
417 897 1
599 897 1
609 897 1
705 897 1
720 897 1
411 898 1
418 898 1
600 898 1
610 898 1
673 898 1
706 898 1
412 899 1
419 899 1
601 899 1
611 899 1
674 899 1
707 899 1
413 900 1
420 900 1
602 900 1
612 900 1
675 900 1
708 900 1
414 901 1
421 901 1
603 901 1
613 901 1
676 901 1
709 901 1
415 902 1
422 902 1
604 902 1
614 902 1
677 902 1
710 902 1
416 903 1
423 903 1
605 903 1
615 903 1
678 903 1
711 903 1
417 904 1
424 904 1
606 904 1
616 904 1
679 904 1
712 904 1
418 905 1
425 905 1
607 905 1
617 905 1
680 905 1
713 905 1
419 906 1
426 906 1
608 906 1
618 906 1
681 906 1
714 906 1
420 907 1
427 907 1
609 907 1
619 907 1
682 907 1
715 907 1
421 908 1
428 908 1
610 908 1
620 908 1
683 908 1
716 908 1
422 909 1
429 909 1
611 909 1
621 909 1
684 909 1
717 909 1
423 910 1
430 910 1
612 910 1
622 910 1
685 910 1
718 910 1
424 911 1
431 911 1
613 911 1
623 911 1
686 911 1
719 911 1
425 912 1
432 912 1
614 912 1
624 912 1
687 912 1
720 912 1
433 913 1
474 913 1
625 913 1
663 913 1
673 913 1
710 913 1
434 914 1
475 914 1
626 914 1
664 914 1
674 914 1
711 914 1
435 915 1
476 915 1
627 915 1
665 915 1
675 915 1
712 915 1
436 916 1
477 916 1
628 916 1
666 916 1
676 916 1
713 916 1
437 917 1
478 917 1
629 917 1
667 917 1
677 917 1
714 917 1
438 918 1
479 918 1
630 918 1
668 918 1
678 918 1
715 918 1
439 919 1
480 919 1
631 919 1
669 919 1
679 919 1
716 919 1
433 920 1
440 920 1
632 920 1
670 920 1
680 920 1
717 920 1
434 921 1
441 921 1
633 921 1
671 921 1
681 921 1
718 921 1
435 922 1
442 922 1
634 922 1
672 922 1
682 922 1
719 922 1
436 923 1
443 923 1
625 923 1
635 923 1
683 923 1
720 923 1
437 924 1
444 924 1
626 924 1
636 924 1
673 924 1
684 924 1
438 925 1
445 925 1
627 925 1
637 925 1
674 925 1
685 925 1
439 926 1
446 926 1
628 926 1
638 926 1
675 926 1
686 926 1
440 927 1
447 927 1
629 927 1
639 927 1
676 927 1
687 927 1
441 928 1
448 928 1
630 928 1
640 928 1
677 928 1
688 928 1
442 929 1
449 929 1
631 929 1
641 929 1
678 929 1
689 929 1
443 930 1
450 930 1
632 930 1
642 930 1
679 930 1
690 930 1
444 931 1
451 931 1
633 931 1
643 931 1
680 931 1
691 931 1
445 932 1
452 932 1
634 932 1
644 932 1
681 932 1
692 932 1
446 933 1
453 933 1
635 933 1
645 933 1
682 933 1
693 933 1
447 934 1
454 934 1
636 934 1
646 934 1
683 934 1
694 934 1
448 935 1
455 935 1
637 935 1
647 935 1
684 935 1
695 935 1
449 936 1
456 936 1
638 936 1
648 936 1
685 936 1
696 936 1
450 937 1
457 937 1
639 937 1
649 937 1
686 937 1
697 937 1
451 938 1
458 938 1
640 938 1
650 938 1
687 938 1
698 938 1
452 939 1
459 939 1
641 939 1
651 939 1
688 939 1
699 939 1
453 940 1
460 940 1
642 940 1
652 940 1
689 940 1
700 940 1
454 941 1
461 941 1
643 941 1
653 941 1
690 941 1
701 941 1
455 942 1
462 942 1
644 942 1
654 942 1
691 942 1
702 942 1
456 943 1
463 943 1
645 943 1
655 943 1
692 943 1
703 943 1
457 944 1
464 944 1
646 944 1
656 944 1
693 944 1
704 944 1
458 945 1
465 945 1
647 945 1
657 945 1
694 945 1
705 945 1
459 946 1
466 946 1
648 946 1
658 946 1
695 946 1
706 946 1
460 947 1
467 947 1
649 947 1
659 947 1
696 947 1
707 947 1
461 948 1
468 948 1
650 948 1
660 948 1
697 948 1
708 948 1
462 949 1
469 949 1
651 949 1
661 949 1
698 949 1
709 949 1
463 950 1
470 950 1
652 950 1
662 950 1
699 950 1
710 950 1
464 951 1
471 951 1
653 951 1
663 951 1
700 951 1
711 951 1
465 952 1
472 952 1
654 952 1
664 952 1
701 952 1
712 952 1
466 953 1
473 953 1
655 953 1
665 953 1
702 953 1
713 953 1
467 954 1
474 954 1
656 954 1
666 954 1
703 954 1
714 954 1
468 955 1
475 955 1
657 955 1
667 955 1
704 955 1
715 955 1
469 956 1
476 956 1
658 956 1
668 956 1
705 956 1
716 956 1
470 957 1
477 957 1
659 957 1
669 957 1
706 957 1
717 957 1
471 958 1
478 958 1
660 958 1
670 958 1
707 958 1
718 958 1
472 959 1
479 959 1
661 959 1
671 959 1
708 959 1
719 959 1
473 960 1
480 960 1
662 960 1
672 960 1
709 960 1
720 960 1
