%%MatrixMarket matrix coordinate integer general
% Binary matrix; one-based indices; arithmetic over GF(2)
135 270 1080
1 1 1
16 1 1
28 1 1
32 1 1
2 2 1
17 2 1
29 2 1
33 2 1
3 3 1
18 3 1
30 3 1
34 3 1
4 4 1
19 4 1
31 4 1
35 4 1
5 5 1
20 5 1
32 5 1
36 5 1
6 6 1
21 6 1
33 6 1
37 6 1
7 7 1
22 7 1
34 7 1
38 7 1
8 8 1
23 8 1
35 8 1
39 8 1
9 9 1
24 9 1
36 9 1
40 9 1
10 10 1
25 10 1
37 10 1
41 10 1
11 11 1
26 11 1
38 11 1
42 11 1
12 12 1
27 12 1
39 12 1
43 12 1
1 13 1
13 13 1
40 13 1
44 13 1
2 14 1
14 14 1
41 14 1
45 14 1
3 15 1
15 15 1
42 15 1
46 15 1
4 16 1
16 16 1
43 16 1
47 16 1
5 17 1
17 17 1
44 17 1
48 17 1
6 18 1
18 18 1
45 18 1
49 18 1
7 19 1
19 19 1
46 19 1
50 19 1
8 20 1
20 20 1
47 20 1
51 20 1
9 21 1
21 21 1
48 21 1
52 21 1
10 22 1
22 22 1
49 22 1
53 22 1
11 23 1
23 23 1
50 23 1
54 23 1
12 24 1
24 24 1
28 24 1
51 24 1
13 25 1
25 25 1
29 25 1
52 25 1
14 26 1
26 26 1
30 26 1
53 26 1
15 27 1
27 27 1
31 27 1
54 27 1
1 28 1
17 28 1
55 28 1
59 28 1
2 29 1
18 29 1
56 29 1
60 29 1
3 30 1
19 30 1
57 30 1
61 30 1
4 31 1
20 31 1
58 31 1
62 31 1
5 32 1
21 32 1
59 32 1
63 32 1
6 33 1
22 33 1
60 33 1
64 33 1
7 34 1
23 34 1
61 34 1
65 34 1
8 35 1
24 35 1
62 35 1
66 35 1
9 36 1
25 36 1
63 36 1
67 36 1
10 37 1
26 37 1
64 37 1
68 37 1
11 38 1
27 38 1
65 38 1
69 38 1
1 39 1
12 39 1
66 39 1
70 39 1
2 40 1
13 40 1
67 40 1
71 40 1
3 41 1
14 41 1
68 41 1
72 41 1
4 42 1
15 42 1
69 42 1
73 42 1
5 43 1
16 43 1
70 43 1
74 43 1
6 44 1
17 44 1
71 44 1
75 44 1
7 45 1
18 45 1
72 45 1
76 45 1
8 46 1
19 46 1
73 46 1
77 46 1
9 47 1
20 47 1
74 47 1
78 47 1
10 48 1
21 48 1
75 48 1
79 48 1
11 49 1
22 49 1
76 49 1
80 49 1
12 50 1
23 50 1
77 50 1
81 50 1
13 51 1
24 51 1
55 51 1
78 51 1
14 52 1
25 52 1
56 52 1
79 52 1
15 53 1
26 53 1
57 53 1
80 53 1
16 54 1
27 54 1
58 54 1
81 54 1
28 55 1
44 55 1
55 55 1
70 55 1
29 56 1
45 56 1
56 56 1
71 56 1
30 57 1
46 57 1
57 57 1
72 57 1
31 58 1
47 58 1
58 58 1
73 58 1
32 59 1
48 59 1
59 59 1
74 59 1
33 60 1
49 60 1
60 60 1
75 60 1
34 61 1
50 61 1
61 61 1
76 61 1
35 62 1
51 62 1
62 62 1
77 62 1
36 63 1
52 63 1
63 63 1
78 63 1
37 64 1
53 64 1
64 64 1
79 64 1
38 65 1
54 65 1
65 65 1
80 65 1
28 66 1
39 66 1
66 66 1
81 66 1
29 67 1
40 67 1
55 67 1
67 67 1
30 68 1
41 68 1
56 68 1
68 68 1
31 69 1
42 69 1
57 69 1
69 69 1
32 70 1
43 70 1
58 70 1
70 70 1
33 71 1
44 71 1
59 71 1
71 71 1
34 72 1
45 72 1
60 72 1
72 72 1
35 73 1
46 73 1
61 73 1
73 73 1
36 74 1
47 74 1
62 74 1
74 74 1
37 75 1
48 75 1
63 75 1
75 75 1
38 76 1
49 76 1
64 76 1
76 76 1
39 77 1
50 77 1
65 77 1
77 77 1
40 78 1
51 78 1
66 78 1
78 78 1
41 79 1
52 79 1
67 79 1
79 79 1
42 80 1
53 80 1
68 80 1
80 80 1
43 81 1
54 81 1
69 81 1
81 81 1
1 82 1
18 82 1
82 82 1
86 82 1
2 83 1
19 83 1
83 83 1
87 83 1
3 84 1
20 84 1
84 84 1
88 84 1
4 85 1
21 85 1
85 85 1
89 85 1
5 86 1
22 86 1
86 86 1
90 86 1
6 87 1
23 87 1
87 87 1
91 87 1
7 88 1
24 88 1
88 88 1
92 88 1
8 89 1
25 89 1
89 89 1
93 89 1
9 90 1
26 90 1
90 90 1
94 90 1
10 91 1
27 91 1
91 91 1
95 91 1
1 92 1
11 92 1
92 92 1
96 92 1
2 93 1
12 93 1
93 93 1
97 93 1
3 94 1
13 94 1
94 94 1
98 94 1
4 95 1
14 95 1
95 95 1
99 95 1
5 96 1
15 96 1
96 96 1
100 96 1
6 97 1
16 97 1
97 97 1
101 97 1
7 98 1
17 98 1
98 98 1
102 98 1
8 99 1
18 99 1
99 99 1
103 99 1
9 100 1
19 100 1
100 100 1
104 100 1
10 101 1
20 101 1
101 101 1
105 101 1
11 102 1
21 102 1
102 102 1
106 102 1
12 103 1
22 103 1
103 103 1
107 103 1
13 104 1
23 104 1
104 104 1
108 104 1
14 105 1
24 105 1
82 105 1
105 105 1
15 106 1
25 106 1
83 106 1
106 106 1
16 107 1
26 107 1
84 107 1
107 107 1
17 108 1
27 108 1
85 108 1
108 108 1
28 109 1
45 109 1
82 109 1
97 109 1
29 110 1
46 110 1
83 110 1
98 110 1
30 111 1
47 111 1
84 111 1
99 111 1
31 112 1
48 112 1
85 112 1
100 112 1
32 113 1
49 113 1
86 113 1
101 113 1
33 114 1
50 114 1
87 114 1
102 114 1
34 115 1
51 115 1
88 115 1
103 115 1
35 116 1
52 116 1
89 116 1
104 116 1
36 117 1
53 117 1
90 117 1
105 117 1
37 118 1
54 118 1
91 118 1
106 118 1
28 119 1
38 119 1
92 119 1
107 119 1
29 120 1
39 120 1
93 120 1
108 120 1
30 121 1
40 121 1
82 121 1
94 121 1
31 122 1
41 122 1
83 122 1
95 122 1
32 123 1
42 123 1
84 123 1
96 123 1
33 124 1
43 124 1
85 124 1
97 124 1
34 125 1
44 125 1
86 125 1
98 125 1
35 126 1
45 126 1
87 126 1
99 126 1
36 127 1
46 127 1
88 127 1
100 127 1
37 128 1
47 128 1
89 128 1
101 128 1
38 129 1
48 129 1
90 129 1
102 129 1
39 130 1
49 130 1
91 130 1
103 130 1
40 131 1
50 131 1
92 131 1
104 131 1
41 132 1
51 132 1
93 132 1
105 132 1
42 133 1
52 133 1
94 133 1
106 133 1
43 134 1
53 134 1
95 134 1
107 134 1
44 135 1
54 135 1
96 135 1
108 135 1
55 136 1
72 136 1
82 136 1
98 136 1
56 137 1
73 137 1
83 137 1
99 137 1
57 138 1
74 138 1
84 138 1
100 138 1
58 139 1
75 139 1
85 139 1
101 139 1
59 140 1
76 140 1
86 140 1
102 140 1
60 141 1
77 141 1
87 141 1
103 141 1
61 142 1
78 142 1
88 142 1
104 142 1
62 143 1
79 143 1
89 143 1
105 143 1
63 144 1
80 144 1
90 144 1
106 144 1
64 145 1
81 145 1
91 145 1
107 145 1
55 146 1
65 146 1
92 146 1
108 146 1
56 147 1
66 147 1
82 147 1
93 147 1
57 148 1
67 148 1
83 148 1
94 148 1
58 149 1
68 149 1
84 149 1
95 149 1
59 150 1
69 150 1
85 150 1
96 150 1
60 151 1
70 151 1
86 151 1
97 151 1
61 152 1
71 152 1
87 152 1
98 152 1
62 153 1
72 153 1
88 153 1
99 153 1
63 154 1
73 154 1
89 154 1
100 154 1
64 155 1
74 155 1
90 155 1
101 155 1
65 156 1
75 156 1
91 156 1
102 156 1
66 157 1
76 157 1
92 157 1
103 157 1
67 158 1
77 158 1
93 158 1
104 158 1
68 159 1
78 159 1
94 159 1
105 159 1
69 160 1
79 160 1
95 160 1
106 160 1
70 161 1
80 161 1
96 161 1
107 161 1
71 162 1
81 162 1
97 162 1
108 162 1
1 163 1
21 163 1
109 163 1
113 163 1
2 164 1
22 164 1
110 164 1
114 164 1
3 165 1
23 165 1
111 165 1
115 165 1
4 166 1
24 166 1
112 166 1
116 166 1
5 167 1
25 167 1
113 167 1
117 167 1
6 168 1
26 168 1
114 168 1
118 168 1
7 169 1
27 169 1
115 169 1
119 169 1
1 170 1
8 170 1
116 170 1
120 170 1
2 171 1
9 171 1
117 171 1
121 171 1
3 172 1
10 172 1
118 172 1
122 172 1
4 173 1
11 173 1
119 173 1
123 173 1
5 174 1
12 174 1
120 174 1
124 174 1
6 175 1
13 175 1
121 175 1
125 175 1
7 176 1
14 176 1
122 176 1
126 176 1
8 177 1
15 177 1
123 177 1
127 177 1
9 178 1
16 178 1
124 178 1
128 178 1
10 179 1
17 179 1
125 179 1
129 179 1
11 180 1
18 180 1
126 180 1
130 180 1
12 181 1
19 181 1
127 181 1
131 181 1
13 182 1
20 182 1
128 182 1
132 182 1
14 183 1
21 183 1
129 183 1
133 183 1
15 184 1
22 184 1
130 184 1
134 184 1
16 185 1
23 185 1
131 185 1
135 185 1
17 186 1
24 186 1
109 186 1
132 186 1
18 187 1
25 187 1
110 187 1
133 187 1
19 188 1
26 188 1
111 188 1
134 188 1
20 189 1
27 189 1
112 189 1
135 189 1
28 190 1
48 190 1
109 190 1
124 190 1
29 191 1
49 191 1
110 191 1
125 191 1
30 192 1
50 192 1
111 192 1
126 192 1
31 193 1
51 193 1
112 193 1
127 193 1
32 194 1
52 194 1
113 194 1
128 194 1
33 195 1
53 195 1
114 195 1
129 195 1
34 196 1
54 196 1
115 196 1
130 196 1
28 197 1
35 197 1
116 197 1
131 197 1
29 198 1
36 198 1
117 198 1
132 198 1
30 199 1
37 199 1
118 199 1
133 199 1
31 200 1
38 200 1
119 200 1
134 200 1
32 201 1
39 201 1
120 201 1
135 201 1
33 202 1
40 202 1
109 202 1
121 202 1
34 203 1
41 203 1
110 203 1
122 203 1
35 204 1
42 204 1
111 204 1
123 204 1
36 205 1
43 205 1
112 205 1
124 205 1
37 206 1
44 206 1
113 206 1
125 206 1
38 207 1
45 207 1
114 207 1
126 207 1
39 208 1
46 208 1
115 208 1
127 208 1
40 209 1
47 209 1
116 209 1
128 209 1
41 210 1
48 210 1
117 210 1
129 210 1
42 211 1
49 211 1
118 211 1
130 211 1
43 212 1
50 212 1
119 212 1
131 212 1
44 213 1
51 213 1
120 213 1
132 213 1
45 214 1
52 214 1
121 214 1
133 214 1
46 215 1
53 215 1
122 215 1
134 215 1
47 216 1
54 216 1
123 216 1
135 216 1
55 217 1
75 217 1
109 217 1
125 217 1
56 218 1
76 218 1
110 218 1
126 218 1
57 219 1
77 219 1
111 219 1
127 219 1
58 220 1
78 220 1
112 220 1
128 220 1
59 221 1
79 221 1
113 221 1
129 221 1
60 222 1
80 222 1
114 222 1
130 222 1
61 223 1
81 223 1
115 223 1
131 223 1
55 224 1
62 224 1
116 224 1
132 224 1
56 225 1
63 225 1
117 225 1
133 225 1
57 226 1
64 226 1
118 226 1
134 226 1
58 227 1
65 227 1
119 227 1
135 227 1
59 228 1
66 228 1
109 228 1
120 228 1
60 229 1
67 229 1
110 229 1
121 229 1
61 230 1
68 230 1
111 230 1
122 230 1
62 231 1
69 231 1
112 231 1
123 231 1
63 232 1
70 232 1
113 232 1
124 232 1
64 233 1
71 233 1
114 233 1
125 233 1
65 234 1
72 234 1
115 234 1
126 234 1
66 235 1
73 235 1
116 235 1
127 235 1
67 236 1
74 236 1
117 236 1
128 236 1
68 237 1
75 237 1
118 237 1
129 237 1
69 238 1
76 238 1
119 238 1
130 238 1
70 239 1
77 239 1
120 239 1
131 239 1
71 240 1
78 240 1
121 240 1
132 240 1
72 241 1
79 241 1
122 241 1
133 241 1
73 242 1
80 242 1
123 242 1
134 242 1
74 243 1
81 243 1
124 243 1
135 243 1
82 244 1
102 244 1
109 244 1
126 244 1
83 245 1
103 245 1
110 245 1
127 245 1
84 246 1
104 246 1
111 246 1
128 246 1
85 247 1
105 247 1
112 247 1
129 247 1
86 248 1
106 248 1
113 248 1
130 248 1
87 249 1
107 249 1
114 249 1
131 249 1
88 250 1
108 250 1
115 250 1
132 250 1
82 251 1
89 251 1
116 251 1
133 251 1
83 252 1
90 252 1
117 252 1
134 252 1
84 253 1
91 253 1
118 253 1
135 253 1
85 254 1
92 254 1
109 254 1
119 254 1
86 255 1
93 255 1
110 255 1
120 255 1
87 256 1
94 256 1
111 256 1
121 256 1
88 257 1
95 257 1
112 257 1
122 257 1
89 258 1
96 258 1
113 258 1
123 258 1
90 259 1
97 259 1
114 259 1
124 259 1
91 260 1
98 260 1
115 260 1
125 260 1
92 261 1
99 261 1
116 261 1
126 261 1
93 262 1
100 262 1
117 262 1
127 262 1
94 263 1
101 263 1
118 263 1
128 263 1
95 264 1
102 264 1
119 264 1
129 264 1
96 265 1
103 265 1
120 265 1
130 265 1
97 266 1
104 266 1
121 266 1
131 266 1
98 267 1
105 267 1
122 267 1
132 267 1
99 268 1
106 268 1
123 268 1
133 268 1
100 269 1
107 269 1
124 269 1
134 269 1
101 270 1
108 270 1
125 270 1
135 270 1
