%%MatrixMarket matrix coordinate integer general
% Binary matrix; one-based indices; arithmetic over GF(2)
110 220 880
1 1 1
4 1 1
23 1 1
24 1 1
2 2 1
5 2 1
24 2 1
25 2 1
3 3 1
6 3 1
25 3 1
26 3 1
4 4 1
7 4 1
26 4 1
27 4 1
5 5 1
8 5 1
27 5 1
28 5 1
6 6 1
9 6 1
28 6 1
29 6 1
7 7 1
10 7 1
29 7 1
30 7 1
8 8 1
11 8 1
30 8 1
31 8 1
9 9 1
12 9 1
31 9 1
32 9 1
10 10 1
13 10 1
32 10 1
33 10 1
11 11 1
14 11 1
33 11 1
34 11 1
12 12 1
15 12 1
34 12 1
35 12 1
13 13 1
16 13 1
35 13 1
36 13 1
14 14 1
17 14 1
36 14 1
37 14 1
15 15 1
18 15 1
37 15 1
38 15 1
16 16 1
19 16 1
38 16 1
39 16 1
17 17 1
20 17 1
39 17 1
40 17 1
18 18 1
21 18 1
40 18 1
41 18 1
19 19 1
22 19 1
41 19 1
42 19 1
1 20 1
20 20 1
42 20 1
43 20 1
2 21 1
21 21 1
43 21 1
44 21 1
3 22 1
22 22 1
23 22 1
44 22 1
1 23 1
13 23 1
45 23 1
46 23 1
2 24 1
14 24 1
46 24 1
47 24 1
3 25 1
15 25 1
47 25 1
48 25 1
4 26 1
16 26 1
48 26 1
49 26 1
5 27 1
17 27 1
49 27 1
50 27 1
6 28 1
18 28 1
50 28 1
51 28 1
7 29 1
19 29 1
51 29 1
52 29 1
8 30 1
20 30 1
52 30 1
53 30 1
9 31 1
21 31 1
53 31 1
54 31 1
10 32 1
22 32 1
54 32 1
55 32 1
1 33 1
11 33 1
55 33 1
56 33 1
2 34 1
12 34 1
56 34 1
57 34 1
3 35 1
13 35 1
57 35 1
58 35 1
4 36 1
14 36 1
58 36 1
59 36 1
5 37 1
15 37 1
59 37 1
60 37 1
6 38 1
16 38 1
60 38 1
61 38 1
7 39 1
17 39 1
61 39 1
62 39 1
8 40 1
18 40 1
62 40 1
63 40 1
9 41 1
19 41 1
63 41 1
64 41 1
10 42 1
20 42 1
64 42 1
65 42 1
11 43 1
21 43 1
65 43 1
66 43 1
12 44 1
22 44 1
45 44 1
66 44 1
23 45 1
35 45 1
45 45 1
48 45 1
24 46 1
36 46 1
46 46 1
49 46 1
25 47 1
37 47 1
47 47 1
50 47 1
26 48 1
38 48 1
48 48 1
51 48 1
27 49 1
39 49 1
49 49 1
52 49 1
28 50 1
40 50 1
50 50 1
53 50 1
29 51 1
41 51 1
51 51 1
54 51 1
30 52 1
42 52 1
52 52 1
55 52 1
31 53 1
43 53 1
53 53 1
56 53 1
32 54 1
44 54 1
54 54 1
57 54 1
23 55 1
33 55 1
55 55 1
58 55 1
24 56 1
34 56 1
56 56 1
59 56 1
25 57 1
35 57 1
57 57 1
60 57 1
26 58 1
36 58 1
58 58 1
61 58 1
27 59 1
37 59 1
59 59 1
62 59 1
28 60 1
38 60 1
60 60 1
63 60 1
29 61 1
39 61 1
61 61 1
64 61 1
30 62 1
40 62 1
62 62 1
65 62 1
31 63 1
41 63 1
63 63 1
66 63 1
32 64 1
42 64 1
45 64 1
64 64 1
33 65 1
43 65 1
46 65 1
65 65 1
34 66 1
44 66 1
47 66 1
66 66 1
1 67 1
16 67 1
67 67 1
68 67 1
2 68 1
17 68 1
68 68 1
69 68 1
3 69 1
18 69 1
69 69 1
70 69 1
4 70 1
19 70 1
70 70 1
71 70 1
5 71 1
20 71 1
71 71 1
72 71 1
6 72 1
21 72 1
72 72 1
73 72 1
7 73 1
22 73 1
73 73 1
74 73 1
1 74 1
8 74 1
74 74 1
75 74 1
2 75 1
9 75 1
75 75 1
76 75 1
3 76 1
10 76 1
76 76 1
77 76 1
4 77 1
11 77 1
77 77 1
78 77 1
5 78 1
12 78 1
78 78 1
79 78 1
6 79 1
13 79 1
79 79 1
80 79 1
7 80 1
14 80 1
80 80 1
81 80 1
8 81 1
15 81 1
81 81 1
82 81 1
9 82 1
16 82 1
82 82 1
83 82 1
10 83 1
17 83 1
83 83 1
84 83 1
11 84 1
18 84 1
84 84 1
85 84 1
12 85 1
19 85 1
85 85 1
86 85 1
13 86 1
20 86 1
86 86 1
87 86 1
14 87 1
21 87 1
87 87 1
88 87 1
15 88 1
22 88 1
67 88 1
88 88 1
23 89 1
38 89 1
67 89 1
70 89 1
24 90 1
39 90 1
68 90 1
71 90 1
25 91 1
40 91 1
69 91 1
72 91 1
26 92 1
41 92 1
70 92 1
73 92 1
27 93 1
42 93 1
71 93 1
74 93 1
28 94 1
43 94 1
72 94 1
75 94 1
29 95 1
44 95 1
73 95 1
76 95 1
23 96 1
30 96 1
74 96 1
77 96 1
24 97 1
31 97 1
75 97 1
78 97 1
25 98 1
32 98 1
76 98 1
79 98 1
26 99 1
33 99 1
77 99 1
80 99 1
27 100 1
34 100 1
78 100 1
81 100 1
28 101 1
35 101 1
79 101 1
82 101 1
29 102 1
36 102 1
80 102 1
83 102 1
30 103 1
37 103 1
81 103 1
84 103 1
31 104 1
38 104 1
82 104 1
85 104 1
32 105 1
39 105 1
83 105 1
86 105 1
33 106 1
40 106 1
84 106 1
87 106 1
34 107 1
41 107 1
85 107 1
88 107 1
35 108 1
42 108 1
67 108 1
86 108 1
36 109 1
43 109 1
68 109 1
87 109 1
37 110 1
44 110 1
69 110 1
88 110 1
45 111 1
60 111 1
67 111 1
79 111 1
46 112 1
61 112 1
68 112 1
80 112 1
47 113 1
62 113 1
69 113 1
81 113 1
48 114 1
63 114 1
70 114 1
82 114 1
49 115 1
64 115 1
71 115 1
83 115 1
50 116 1
65 116 1
72 116 1
84 116 1
51 117 1
66 117 1
73 117 1
85 117 1
45 118 1
52 118 1
74 118 1
86 118 1
46 119 1
53 119 1
75 119 1
87 119 1
47 120 1
54 120 1
76 120 1
88 120 1
48 121 1
55 121 1
67 121 1
77 121 1
49 122 1
56 122 1
68 122 1
78 122 1
50 123 1
57 123 1
69 123 1
79 123 1
51 124 1
58 124 1
70 124 1
80 124 1
52 125 1
59 125 1
71 125 1
81 125 1
53 126 1
60 126 1
72 126 1
82 126 1
54 127 1
61 127 1
73 127 1
83 127 1
55 128 1
62 128 1
74 128 1
84 128 1
56 129 1
63 129 1
75 129 1
85 129 1
57 130 1
64 130 1
76 130 1
86 130 1
58 131 1
65 131 1
77 131 1
87 131 1
59 132 1
66 132 1
78 132 1
88 132 1
1 133 1
19 133 1
89 133 1
90 133 1
2 134 1
20 134 1
90 134 1
91 134 1
3 135 1
21 135 1
91 135 1
92 135 1
4 136 1
22 136 1
92 136 1
93 136 1
1 137 1
5 137 1
93 137 1
94 137 1
2 138 1
6 138 1
94 138 1
95 138 1
3 139 1
7 139 1
95 139 1
96 139 1
4 140 1
8 140 1
96 140 1
97 140 1
5 141 1
9 141 1
97 141 1
98 141 1
6 142 1
10 142 1
98 142 1
99 142 1
7 143 1
11 143 1
99 143 1
100 143 1
8 144 1
12 144 1
100 144 1
101 144 1
9 145 1
13 145 1
101 145 1
102 145 1
10 146 1
14 146 1
102 146 1
103 146 1
11 147 1
15 147 1
103 147 1
104 147 1
12 148 1
16 148 1
104 148 1
105 148 1
13 149 1
17 149 1
105 149 1
106 149 1
14 150 1
18 150 1
106 150 1
107 150 1
15 151 1
19 151 1
107 151 1
108 151 1
16 152 1
20 152 1
108 152 1
109 152 1
17 153 1
21 153 1
109 153 1
110 153 1
18 154 1
22 154 1
89 154 1
110 154 1
23 155 1
41 155 1
89 155 1
92 155 1
24 156 1
42 156 1
90 156 1
93 156 1
25 157 1
43 157 1
91 157 1
94 157 1
26 158 1
44 158 1
92 158 1
95 158 1
23 159 1
27 159 1
93 159 1
96 159 1
24 160 1
28 160 1
94 160 1
97 160 1
25 161 1
29 161 1
95 161 1
98 161 1
26 162 1
30 162 1
96 162 1
99 162 1
27 163 1
31 163 1
97 163 1
100 163 1
28 164 1
32 164 1
98 164 1
101 164 1
29 165 1
33 165 1
99 165 1
102 165 1
30 166 1
34 166 1
100 166 1
103 166 1
31 167 1
35 167 1
101 167 1
104 167 1
32 168 1
36 168 1
102 168 1
105 168 1
33 169 1
37 169 1
103 169 1
106 169 1
34 170 1
38 170 1
104 170 1
107 170 1
35 171 1
39 171 1
105 171 1
108 171 1
36 172 1
40 172 1
106 172 1
109 172 1
37 173 1
41 173 1
107 173 1
110 173 1
38 174 1
42 174 1
89 174 1
108 174 1
39 175 1
43 175 1
90 175 1
109 175 1
40 176 1
44 176 1
91 176 1
110 176 1
45 177 1
63 177 1
89 177 1
101 177 1
46 178 1
64 178 1
90 178 1
102 178 1
47 179 1
65 179 1
91 179 1
103 179 1
48 180 1
66 180 1
92 180 1
104 180 1
45 181 1
49 181 1
93 181 1
105 181 1
46 182 1
50 182 1
94 182 1
106 182 1
47 183 1
51 183 1
95 183 1
107 183 1
48 184 1
52 184 1
96 184 1
108 184 1
49 185 1
53 185 1
97 185 1
109 185 1
50 186 1
54 186 1
98 186 1
110 186 1
51 187 1
55 187 1
89 187 1
99 187 1
52 188 1
56 188 1
90 188 1
100 188 1
53 189 1
57 189 1
91 189 1
101 189 1
54 190 1
58 190 1
92 190 1
102 190 1
55 191 1
59 191 1
93 191 1
103 191 1
56 192 1
60 192 1
94 192 1
104 192 1
57 193 1
61 193 1
95 193 1
105 193 1
58 194 1
62 194 1
96 194 1
106 194 1
59 195 1
63 195 1
97 195 1
107 195 1
60 196 1
64 196 1
98 196 1
108 196 1
61 197 1
65 197 1
99 197 1
109 197 1
62 198 1
66 198 1
100 198 1
110 198 1
67 199 1
85 199 1
89 199 1
104 199 1
68 200 1
86 200 1
90 200 1
105 200 1
69 201 1
87 201 1
91 201 1
106 201 1
70 202 1
88 202 1
92 202 1
107 202 1
67 203 1
71 203 1
93 203 1
108 203 1
68 204 1
72 204 1
94 204 1
109 204 1
69 205 1
73 205 1
95 205 1
110 205 1
70 206 1
74 206 1
89 206 1
96 206 1
71 207 1
75 207 1
90 207 1
97 207 1
72 208 1
76 208 1
91 208 1
98 208 1
73 209 1
77 209 1
92 209 1
99 209 1
74 210 1
78 210 1
93 210 1
100 210 1
75 211 1
79 211 1
94 211 1
101 211 1
76 212 1
80 212 1
95 212 1
102 212 1
77 213 1
81 213 1
96 213 1
103 213 1
78 214 1
82 214 1
97 214 1
104 214 1
79 215 1
83 215 1
98 215 1
105 215 1
80 216 1
84 216 1
99 216 1
106 216 1
81 217 1
85 217 1
100 217 1
107 217 1
82 218 1
86 218 1
101 218 1
108 218 1
83 219 1
87 219 1
102 219 1
109 219 1
84 220 1
88 220 1
103 220 1
110 220 1
