%%MatrixMarket matrix coordinate integer general
% Binary matrix; one-based indices; arithmetic over GF(2)
352 528 2112
38 1 1
75 1 1
129 1 1
145 1 1
39 2 1
76 2 1
130 2 1
146 2 1
40 3 1
77 3 1
131 3 1
147 3 1
41 4 1
67 4 1
132 4 1
148 4 1
42 5 1
68 5 1
122 5 1
149 5 1
43 6 1
69 6 1
123 6 1
150 6 1
44 7 1
70 7 1
124 7 1
151 7 1
34 8 1
71 8 1
125 8 1
152 8 1
35 9 1
72 9 1
126 9 1
153 9 1
36 10 1
73 10 1
127 10 1
154 10 1
37 11 1
74 11 1
128 11 1
144 11 1
27 12 1
86 12 1
118 12 1
134 12 1
28 13 1
87 13 1
119 13 1
135 13 1
29 14 1
88 14 1
120 14 1
136 14 1
30 15 1
78 15 1
121 15 1
137 15 1
31 16 1
79 16 1
111 16 1
138 16 1
32 17 1
80 17 1
112 17 1
139 17 1
33 18 1
81 18 1
113 18 1
140 18 1
23 19 1
82 19 1
114 19 1
141 19 1
24 20 1
83 20 1
115 20 1
142 20 1
25 21 1
84 21 1
116 21 1
143 21 1
26 22 1
85 22 1
117 22 1
133 22 1
16 23 1
53 23 1
107 23 1
167 23 1
17 24 1
54 24 1
108 24 1
168 24 1
18 25 1
55 25 1
109 25 1
169 25 1
19 26 1
45 26 1
110 26 1
170 26 1
20 27 1
46 27 1
100 27 1
171 27 1
21 28 1
47 28 1
101 28 1
172 28 1
22 29 1
48 29 1
102 29 1
173 29 1
12 30 1
49 30 1
103 30 1
174 30 1
13 31 1
50 31 1
104 31 1
175 31 1
14 32 1
51 32 1
105 32 1
176 32 1
15 33 1
52 33 1
106 33 1
166 33 1
5 34 1
64 34 1
96 34 1
156 34 1
6 35 1
65 35 1
97 35 1
157 35 1
7 36 1
66 36 1
98 36 1
158 36 1
8 37 1
56 37 1
99 37 1
159 37 1
9 38 1
57 38 1
89 38 1
160 38 1
10 39 1
58 39 1
90 39 1
161 39 1
11 40 1
59 40 1
91 40 1
162 40 1
1 41 1
60 41 1
92 41 1
163 41 1
2 42 1
61 42 1
93 42 1
164 42 1
3 43 1
62 43 1
94 43 1
165 43 1
4 44 1
63 44 1
95 44 1
155 44 1
31 45 1
82 45 1
101 45 1
173 45 1
32 46 1
83 46 1
102 46 1
174 46 1
33 47 1
84 47 1
103 47 1
175 47 1
23 48 1
85 48 1
104 48 1
176 48 1
24 49 1
86 49 1
105 49 1
166 49 1
25 50 1
87 50 1
106 50 1
167 50 1
26 51 1
88 51 1
107 51 1
168 51 1
27 52 1
78 52 1
108 52 1
169 52 1
28 53 1
79 53 1
109 53 1
170 53 1
29 54 1
80 54 1
110 54 1
171 54 1
30 55 1
81 55 1
100 55 1
172 55 1
42 56 1
71 56 1
90 56 1
162 56 1
43 57 1
72 57 1
91 57 1
163 57 1
44 58 1
73 58 1
92 58 1
164 58 1
34 59 1
74 59 1
93 59 1
165 59 1
35 60 1
75 60 1
94 60 1
155 60 1
36 61 1
76 61 1
95 61 1
156 61 1
37 62 1
77 62 1
96 62 1
157 62 1
38 63 1
67 63 1
97 63 1
158 63 1
39 64 1
68 64 1
98 64 1
159 64 1
40 65 1
69 65 1
99 65 1
160 65 1
41 66 1
70 66 1
89 66 1
161 66 1
9 67 1
60 67 1
123 67 1
151 67 1
10 68 1
61 68 1
124 68 1
152 68 1
11 69 1
62 69 1
125 69 1
153 69 1
1 70 1
63 70 1
126 70 1
154 70 1
2 71 1
64 71 1
127 71 1
144 71 1
3 72 1
65 72 1
128 72 1
145 72 1
4 73 1
66 73 1
129 73 1
146 73 1
5 74 1
56 74 1
130 74 1
147 74 1
6 75 1
57 75 1
131 75 1
148 75 1
7 76 1
58 76 1
132 76 1
149 76 1
8 77 1
59 77 1
122 77 1
150 77 1
20 78 1
49 78 1
112 78 1
140 78 1
21 79 1
50 79 1
113 79 1
141 79 1
22 80 1
51 80 1
114 80 1
142 80 1
12 81 1
52 81 1
115 81 1
143 81 1
13 82 1
53 82 1
116 82 1
133 82 1
14 83 1
54 83 1
117 83 1
134 83 1
15 84 1
55 84 1
118 84 1
135 84 1
16 85 1
45 85 1
119 85 1
136 85 1
17 86 1
46 86 1
120 86 1
137 86 1
18 87 1
47 87 1
121 87 1
138 87 1
19 88 1
48 88 1
111 88 1
139 88 1
3 89 1
12 89 1
217 89 1
233 89 1
4 90 1
13 90 1
218 90 1
234 90 1
5 91 1
14 91 1
219 91 1
235 91 1
6 92 1
15 92 1
220 92 1
236 92 1
7 93 1
16 93 1
210 93 1
237 93 1
8 94 1
17 94 1
211 94 1
238 94 1
9 95 1
18 95 1
212 95 1
239 95 1
10 96 1
19 96 1
213 96 1
240 96 1
11 97 1
20 97 1
214 97 1
241 97 1
1 98 1
21 98 1
215 98 1
242 98 1
2 99 1
22 99 1
216 99 1
232 99 1
1 100 1
14 100 1
206 100 1
222 100 1
2 101 1
15 101 1
207 101 1
223 101 1
3 102 1
16 102 1
208 102 1
224 102 1
4 103 1
17 103 1
209 103 1
225 103 1
5 104 1
18 104 1
199 104 1
226 104 1
6 105 1
19 105 1
200 105 1
227 105 1
7 106 1
20 106 1
201 106 1
228 106 1
8 107 1
21 107 1
202 107 1
229 107 1
9 108 1
22 108 1
203 108 1
230 108 1
10 109 1
12 109 1
204 109 1
231 109 1
11 110 1
13 110 1
205 110 1
221 110 1
25 111 1
34 111 1
195 111 1
255 111 1
26 112 1
35 112 1
196 112 1
256 112 1
27 113 1
36 113 1
197 113 1
257 113 1
28 114 1
37 114 1
198 114 1
258 114 1
29 115 1
38 115 1
188 115 1
259 115 1
30 116 1
39 116 1
189 116 1
260 116 1
31 117 1
40 117 1
190 117 1
261 117 1
32 118 1
41 118 1
191 118 1
262 118 1
33 119 1
42 119 1
192 119 1
263 119 1
23 120 1
43 120 1
193 120 1
264 120 1
24 121 1
44 121 1
194 121 1
254 121 1
23 122 1
36 122 1
184 122 1
244 122 1
24 123 1
37 123 1
185 123 1
245 123 1
25 124 1
38 124 1
186 124 1
246 124 1
26 125 1
39 125 1
187 125 1
247 125 1
27 126 1
40 126 1
177 126 1
248 126 1
28 127 1
41 127 1
178 127 1
249 127 1
29 128 1
42 128 1
179 128 1
250 128 1
30 129 1
43 129 1
180 129 1
251 129 1
31 130 1
44 130 1
181 130 1
252 130 1
32 131 1
34 131 1
182 131 1
253 131 1
33 132 1
35 132 1
183 132 1
243 132 1
47 133 1
56 133 1
189 133 1
261 133 1
48 134 1
57 134 1
190 134 1
262 134 1
49 135 1
58 135 1
191 135 1
263 135 1
50 136 1
59 136 1
192 136 1
264 136 1
51 137 1
60 137 1
193 137 1
254 137 1
52 138 1
61 138 1
194 138 1
255 138 1
53 139 1
62 139 1
195 139 1
256 139 1
54 140 1
63 140 1
196 140 1
257 140 1
55 141 1
64 141 1
197 141 1
258 141 1
45 142 1
65 142 1
198 142 1
259 142 1
46 143 1
66 143 1
188 143 1
260 143 1
45 144 1
58 144 1
178 144 1
250 144 1
46 145 1
59 145 1
179 145 1
251 145 1
47 146 1
60 146 1
180 146 1
252 146 1
48 147 1
61 147 1
181 147 1
253 147 1
49 148 1
62 148 1
182 148 1
243 148 1
50 149 1
63 149 1
183 149 1
244 149 1
51 150 1
64 150 1
184 150 1
245 150 1
52 151 1
65 151 1
185 151 1
246 151 1
53 152 1
66 152 1
186 152 1
247 152 1
54 153 1
56 153 1
187 153 1
248 153 1
55 154 1
57 154 1
177 154 1
249 154 1
69 155 1
78 155 1
211 155 1
239 155 1
70 156 1
79 156 1
212 156 1
240 156 1
71 157 1
80 157 1
213 157 1
241 157 1
72 158 1
81 158 1
214 158 1
242 158 1
73 159 1
82 159 1
215 159 1
232 159 1
74 160 1
83 160 1
216 160 1
233 160 1
75 161 1
84 161 1
217 161 1
234 161 1
76 162 1
85 162 1
218 162 1
235 162 1
77 163 1
86 163 1
219 163 1
236 163 1
67 164 1
87 164 1
220 164 1
237 164 1
68 165 1
88 165 1
210 165 1
238 165 1
67 166 1
80 166 1
200 166 1
228 166 1
68 167 1
81 167 1
201 167 1
229 167 1
69 168 1
82 168 1
202 168 1
230 168 1
70 169 1
83 169 1
203 169 1
231 169 1
71 170 1
84 170 1
204 170 1
221 170 1
72 171 1
85 171 1
205 171 1
222 171 1
73 172 1
86 172 1
206 172 1
223 172 1
74 173 1
87 173 1
207 173 1
224 173 1
75 174 1
88 174 1
208 174 1
225 174 1
76 175 1
78 175 1
209 175 1
226 175 1
77 176 1
79 176 1
199 176 1
227 176 1
91 177 1
100 177 1
214 177 1
251 177 1
92 178 1
101 178 1
215 178 1
252 178 1
93 179 1
102 179 1
216 179 1
253 179 1
94 180 1
103 180 1
217 180 1
243 180 1
95 181 1
104 181 1
218 181 1
244 181 1
96 182 1
105 182 1
219 182 1
245 182 1
97 183 1
106 183 1
220 183 1
246 183 1
98 184 1
107 184 1
210 184 1
247 184 1
99 185 1
108 185 1
211 185 1
248 185 1
89 186 1
109 186 1
212 186 1
249 186 1
90 187 1
110 187 1
213 187 1
250 187 1
89 188 1
102 188 1
203 188 1
262 188 1
90 189 1
103 189 1
204 189 1
263 189 1
91 190 1
104 190 1
205 190 1
264 190 1
92 191 1
105 191 1
206 191 1
254 191 1
93 192 1
106 192 1
207 192 1
255 192 1
94 193 1
107 193 1
208 193 1
256 193 1
95 194 1
108 194 1
209 194 1
257 194 1
96 195 1
109 195 1
199 195 1
258 195 1
97 196 1
110 196 1
200 196 1
259 196 1
98 197 1
100 197 1
201 197 1
260 197 1
99 198 1
101 198 1
202 198 1
261 198 1
113 199 1
122 199 1
192 199 1
229 199 1
114 200 1
123 200 1
193 200 1
230 200 1
115 201 1
124 201 1
194 201 1
231 201 1
116 202 1
125 202 1
195 202 1
221 202 1
117 203 1
126 203 1
196 203 1
222 203 1
118 204 1
127 204 1
197 204 1
223 204 1
119 205 1
128 205 1
198 205 1
224 205 1
120 206 1
129 206 1
188 206 1
225 206 1
121 207 1
130 207 1
189 207 1
226 207 1
111 208 1
131 208 1
190 208 1
227 208 1
112 209 1
132 209 1
191 209 1
228 209 1
111 210 1
124 210 1
181 210 1
240 210 1
112 211 1
125 211 1
182 211 1
241 211 1
113 212 1
126 212 1
183 212 1
242 212 1
114 213 1
127 213 1
184 213 1
232 213 1
115 214 1
128 214 1
185 214 1
233 214 1
116 215 1
129 215 1
186 215 1
234 215 1
117 216 1
130 216 1
187 216 1
235 216 1
118 217 1
131 217 1
177 217 1
236 217 1
119 218 1
132 218 1
178 218 1
237 218 1
120 219 1
122 219 1
179 219 1
238 219 1
121 220 1
123 220 1
180 220 1
239 220 1
135 221 1
144 221 1
207 221 1
258 221 1
136 222 1
145 222 1
208 222 1
259 222 1
137 223 1
146 223 1
209 223 1
260 223 1
138 224 1
147 224 1
199 224 1
261 224 1
139 225 1
148 225 1
200 225 1
262 225 1
140 226 1
149 226 1
201 226 1
263 226 1
141 227 1
150 227 1
202 227 1
264 227 1
142 228 1
151 228 1
203 228 1
254 228 1
143 229 1
152 229 1
204 229 1
255 229 1
133 230 1
153 230 1
205 230 1
256 230 1
134 231 1
154 231 1
206 231 1
257 231 1
133 232 1
146 232 1
218 232 1
247 232 1
134 233 1
147 233 1
219 233 1
248 233 1
135 234 1
148 234 1
220 234 1
249 234 1
136 235 1
149 235 1
210 235 1
250 235 1
137 236 1
150 236 1
211 236 1
251 236 1
138 237 1
151 237 1
212 237 1
252 237 1
139 238 1
152 238 1
213 238 1
253 238 1
140 239 1
153 239 1
214 239 1
243 239 1
141 240 1
154 240 1
215 240 1
244 240 1
142 241 1
144 241 1
216 241 1
245 241 1
143 242 1
145 242 1
217 242 1
246 242 1
157 243 1
166 243 1
185 243 1
236 243 1
158 244 1
167 244 1
186 244 1
237 244 1
159 245 1
168 245 1
187 245 1
238 245 1
160 246 1
169 246 1
177 246 1
239 246 1
161 247 1
170 247 1
178 247 1
240 247 1
162 248 1
171 248 1
179 248 1
241 248 1
163 249 1
172 249 1
180 249 1
242 249 1
164 250 1
173 250 1
181 250 1
232 250 1
165 251 1
174 251 1
182 251 1
233 251 1
155 252 1
175 252 1
183 252 1
234 252 1
156 253 1
176 253 1
184 253 1
235 253 1
155 254 1
168 254 1
196 254 1
225 254 1
156 255 1
169 255 1
197 255 1
226 255 1
157 256 1
170 256 1
198 256 1
227 256 1
158 257 1
171 257 1
188 257 1
228 257 1
159 258 1
172 258 1
189 258 1
229 258 1
160 259 1
173 259 1
190 259 1
230 259 1
161 260 1
174 260 1
191 260 1
231 260 1
162 261 1
175 261 1
192 261 1
221 261 1
163 262 1
176 262 1
193 262 1
222 262 1
164 263 1
166 263 1
194 263 1
223 263 1
165 264 1
167 264 1
195 264 1
224 264 1
10 265 1
40 265 1
305 265 1
321 265 1
11 266 1
41 266 1
306 266 1
322 266 1
1 267 1
42 267 1
307 267 1
323 267 1
2 268 1
43 268 1
308 268 1
324 268 1
3 269 1
44 269 1
298 269 1
325 269 1
4 270 1
34 270 1
299 270 1
326 270 1
5 271 1
35 271 1
300 271 1
327 271 1
6 272 1
36 272 1
301 272 1
328 272 1
7 273 1
37 273 1
302 273 1
329 273 1
8 274 1
38 274 1
303 274 1
330 274 1
9 275 1
39 275 1
304 275 1
320 275 1
21 276 1
29 276 1
294 276 1
310 276 1
22 277 1
30 277 1
295 277 1
311 277 1
12 278 1
31 278 1
296 278 1
312 278 1
13 279 1
32 279 1
297 279 1
313 279 1
14 280 1
33 280 1
287 280 1
314 280 1
15 281 1
23 281 1
288 281 1
315 281 1
16 282 1
24 282 1
289 282 1
316 282 1
17 283 1
25 283 1
290 283 1
317 283 1
18 284 1
26 284 1
291 284 1
318 284 1
19 285 1
27 285 1
292 285 1
319 285 1
20 286 1
28 286 1
293 286 1
309 286 1
18 287 1
32 287 1
283 287 1
343 287 1
19 288 1
33 288 1
284 288 1
344 288 1
20 289 1
23 289 1
285 289 1
345 289 1
21 290 1
24 290 1
286 290 1
346 290 1
22 291 1
25 291 1
276 291 1
347 291 1
12 292 1
26 292 1
277 292 1
348 292 1
13 293 1
27 293 1
278 293 1
349 293 1
14 294 1
28 294 1
279 294 1
350 294 1
15 295 1
29 295 1
280 295 1
351 295 1
16 296 1
30 296 1
281 296 1
352 296 1
17 297 1
31 297 1
282 297 1
342 297 1
7 298 1
43 298 1
272 298 1
332 298 1
8 299 1
44 299 1
273 299 1
333 299 1
9 300 1
34 300 1
274 300 1
334 300 1
10 301 1
35 301 1
275 301 1
335 301 1
11 302 1
36 302 1
265 302 1
336 302 1
1 303 1
37 303 1
266 303 1
337 303 1
2 304 1
38 304 1
267 304 1
338 304 1
3 305 1
39 305 1
268 305 1
339 305 1
4 306 1
40 306 1
269 306 1
340 306 1
5 307 1
41 307 1
270 307 1
341 307 1
6 308 1
42 308 1
271 308 1
331 308 1
54 309 1
84 309 1
277 309 1
349 309 1
55 310 1
85 310 1
278 310 1
350 310 1
45 311 1
86 311 1
279 311 1
351 311 1
46 312 1
87 312 1
280 312 1
352 312 1
47 313 1
88 313 1
281 313 1
342 313 1
48 314 1
78 314 1
282 314 1
343 314 1
49 315 1
79 315 1
283 315 1
344 315 1
50 316 1
80 316 1
284 316 1
345 316 1
51 317 1
81 317 1
285 317 1
346 317 1
52 318 1
82 318 1
286 318 1
347 318 1
53 319 1
83 319 1
276 319 1
348 319 1
65 320 1
73 320 1
266 320 1
338 320 1
66 321 1
74 321 1
267 321 1
339 321 1
56 322 1
75 322 1
268 322 1
340 322 1
57 323 1
76 323 1
269 323 1
341 323 1
58 324 1
77 324 1
270 324 1
331 324 1
59 325 1
67 325 1
271 325 1
332 325 1
60 326 1
68 326 1
272 326 1
333 326 1
61 327 1
69 327 1
273 327 1
334 327 1
62 328 1
70 328 1
274 328 1
335 328 1
63 329 1
71 329 1
275 329 1
336 329 1
64 330 1
72 330 1
265 330 1
337 330 1
62 331 1
76 331 1
299 331 1
327 331 1
63 332 1
77 332 1
300 332 1
328 332 1
64 333 1
67 333 1
301 333 1
329 333 1
65 334 1
68 334 1
302 334 1
330 334 1
66 335 1
69 335 1
303 335 1
320 335 1
56 336 1
70 336 1
304 336 1
321 336 1
57 337 1
71 337 1
305 337 1
322 337 1
58 338 1
72 338 1
306 338 1
323 338 1
59 339 1
73 339 1
307 339 1
324 339 1
60 340 1
74 340 1
308 340 1
325 340 1
61 341 1
75 341 1
298 341 1
326 341 1
51 342 1
87 342 1
288 342 1
316 342 1
52 343 1
88 343 1
289 343 1
317 343 1
53 344 1
78 344 1
290 344 1
318 344 1
54 345 1
79 345 1
291 345 1
319 345 1
55 346 1
80 346 1
292 346 1
309 346 1
45 347 1
81 347 1
293 347 1
310 347 1
46 348 1
82 348 1
294 348 1
311 348 1
47 349 1
83 349 1
295 349 1
312 349 1
48 350 1
84 350 1
296 350 1
313 350 1
49 351 1
85 351 1
297 351 1
314 351 1
50 352 1
86 352 1
287 352 1
315 352 1
98 353 1
128 353 1
302 353 1
339 353 1
99 354 1
129 354 1
303 354 1
340 354 1
89 355 1
130 355 1
304 355 1
341 355 1
90 356 1
131 356 1
305 356 1
331 356 1
91 357 1
132 357 1
306 357 1
332 357 1
92 358 1
122 358 1
307 358 1
333 358 1
93 359 1
123 359 1
308 359 1
334 359 1
94 360 1
124 360 1
298 360 1
335 360 1
95 361 1
125 361 1
299 361 1
336 361 1
96 362 1
126 362 1
300 362 1
337 362 1
97 363 1
127 363 1
301 363 1
338 363 1
109 364 1
117 364 1
291 364 1
350 364 1
110 365 1
118 365 1
292 365 1
351 365 1
100 366 1
119 366 1
293 366 1
352 366 1
101 367 1
120 367 1
294 367 1
342 367 1
102 368 1
121 368 1
295 368 1
343 368 1
103 369 1
111 369 1
296 369 1
344 369 1
104 370 1
112 370 1
297 370 1
345 370 1
105 371 1
113 371 1
287 371 1
346 371 1
106 372 1
114 372 1
288 372 1
347 372 1
107 373 1
115 373 1
289 373 1
348 373 1
108 374 1
116 374 1
290 374 1
349 374 1
106 375 1
120 375 1
280 375 1
317 375 1
107 376 1
121 376 1
281 376 1
318 376 1
108 377 1
111 377 1
282 377 1
319 377 1
109 378 1
112 378 1
283 378 1
309 378 1
110 379 1
113 379 1
284 379 1
310 379 1
100 380 1
114 380 1
285 380 1
311 380 1
101 381 1
115 381 1
286 381 1
312 381 1
102 382 1
116 382 1
276 382 1
313 382 1
103 383 1
117 383 1
277 383 1
314 383 1
104 384 1
118 384 1
278 384 1
315 384 1
105 385 1
119 385 1
279 385 1
316 385 1
95 386 1
131 386 1
269 386 1
328 386 1
96 387 1
132 387 1
270 387 1
329 387 1
97 388 1
122 388 1
271 388 1
330 388 1
98 389 1
123 389 1
272 389 1
320 389 1
99 390 1
124 390 1
273 390 1
321 390 1
89 391 1
125 391 1
274 391 1
322 391 1
90 392 1
126 392 1
275 392 1
323 392 1
91 393 1
127 393 1
265 393 1
324 393 1
92 394 1
128 394 1
266 394 1
325 394 1
93 395 1
129 395 1
267 395 1
326 395 1
94 396 1
130 396 1
268 396 1
327 396 1
142 397 1
172 397 1
295 397 1
346 397 1
143 398 1
173 398 1
296 398 1
347 398 1
133 399 1
174 399 1
297 399 1
348 399 1
134 400 1
175 400 1
287 400 1
349 400 1
135 401 1
176 401 1
288 401 1
350 401 1
136 402 1
166 402 1
289 402 1
351 402 1
137 403 1
167 403 1
290 403 1
352 403 1
138 404 1
168 404 1
291 404 1
342 404 1
139 405 1
169 405 1
292 405 1
343 405 1
140 406 1
170 406 1
293 406 1
344 406 1
141 407 1
171 407 1
294 407 1
345 407 1
153 408 1
161 408 1
306 408 1
335 408 1
154 409 1
162 409 1
307 409 1
336 409 1
144 410 1
163 410 1
308 410 1
337 410 1
145 411 1
164 411 1
298 411 1
338 411 1
146 412 1
165 412 1
299 412 1
339 412 1
147 413 1
155 413 1
300 413 1
340 413 1
148 414 1
156 414 1
301 414 1
341 414 1
149 415 1
157 415 1
302 415 1
331 415 1
150 416 1
158 416 1
303 416 1
332 416 1
151 417 1
159 417 1
304 417 1
333 417 1
152 418 1
160 418 1
305 418 1
334 418 1
150 419 1
164 419 1
273 419 1
324 419 1
151 420 1
165 420 1
274 420 1
325 420 1
152 421 1
155 421 1
275 421 1
326 421 1
153 422 1
156 422 1
265 422 1
327 422 1
154 423 1
157 423 1
266 423 1
328 423 1
144 424 1
158 424 1
267 424 1
329 424 1
145 425 1
159 425 1
268 425 1
330 425 1
146 426 1
160 426 1
269 426 1
320 426 1
147 427 1
161 427 1
270 427 1
321 427 1
148 428 1
162 428 1
271 428 1
322 428 1
149 429 1
163 429 1
272 429 1
323 429 1
139 430 1
175 430 1
284 430 1
313 430 1
140 431 1
176 431 1
285 431 1
314 431 1
141 432 1
166 432 1
286 432 1
315 432 1
142 433 1
167 433 1
276 433 1
316 433 1
143 434 1
168 434 1
277 434 1
317 434 1
133 435 1
169 435 1
278 435 1
318 435 1
134 436 1
170 436 1
279 436 1
319 436 1
135 437 1
171 437 1
280 437 1
309 437 1
136 438 1
172 438 1
281 438 1
310 438 1
137 439 1
173 439 1
282 439 1
311 439 1
138 440 1
174 440 1
283 440 1
312 440 1
186 441 1
216 441 1
267 441 1
276 441 1
187 442 1
217 442 1
268 442 1
277 442 1
177 443 1
218 443 1
269 443 1
278 443 1
178 444 1
219 444 1
270 444 1
279 444 1
179 445 1
220 445 1
271 445 1
280 445 1
180 446 1
210 446 1
272 446 1
281 446 1
181 447 1
211 447 1
273 447 1
282 447 1
182 448 1
212 448 1
274 448 1
283 448 1
183 449 1
213 449 1
275 449 1
284 449 1
184 450 1
214 450 1
265 450 1
285 450 1
185 451 1
215 451 1
266 451 1
286 451 1
197 452 1
205 452 1
265 452 1
278 452 1
198 453 1
206 453 1
266 453 1
279 453 1
188 454 1
207 454 1
267 454 1
280 454 1
189 455 1
208 455 1
268 455 1
281 455 1
190 456 1
209 456 1
269 456 1
282 456 1
191 457 1
199 457 1
270 457 1
283 457 1
192 458 1
200 458 1
271 458 1
284 458 1
193 459 1
201 459 1
272 459 1
285 459 1
194 460 1
202 460 1
273 460 1
286 460 1
195 461 1
203 461 1
274 461 1
276 461 1
196 462 1
204 462 1
275 462 1
277 462 1
194 463 1
208 463 1
289 463 1
298 463 1
195 464 1
209 464 1
290 464 1
299 464 1
196 465 1
199 465 1
291 465 1
300 465 1
197 466 1
200 466 1
292 466 1
301 466 1
198 467 1
201 467 1
293 467 1
302 467 1
188 468 1
202 468 1
294 468 1
303 468 1
189 469 1
203 469 1
295 469 1
304 469 1
190 470 1
204 470 1
296 470 1
305 470 1
191 471 1
205 471 1
297 471 1
306 471 1
192 472 1
206 472 1
287 472 1
307 472 1
193 473 1
207 473 1
288 473 1
308 473 1
183 474 1
219 474 1
287 474 1
300 474 1
184 475 1
220 475 1
288 475 1
301 475 1
185 476 1
210 476 1
289 476 1
302 476 1
186 477 1
211 477 1
290 477 1
303 477 1
187 478 1
212 478 1
291 478 1
304 478 1
177 479 1
213 479 1
292 479 1
305 479 1
178 480 1
214 480 1
293 480 1
306 480 1
179 481 1
215 481 1
294 481 1
307 481 1
180 482 1
216 482 1
295 482 1
308 482 1
181 483 1
217 483 1
296 483 1
298 483 1
182 484 1
218 484 1
297 484 1
299 484 1
230 485 1
260 485 1
311 485 1
320 485 1
231 486 1
261 486 1
312 486 1
321 486 1
221 487 1
262 487 1
313 487 1
322 487 1
222 488 1
263 488 1
314 488 1
323 488 1
223 489 1
264 489 1
315 489 1
324 489 1
224 490 1
254 490 1
316 490 1
325 490 1
225 491 1
255 491 1
317 491 1
326 491 1
226 492 1
256 492 1
318 492 1
327 492 1
227 493 1
257 493 1
319 493 1
328 493 1
228 494 1
258 494 1
309 494 1
329 494 1
229 495 1
259 495 1
310 495 1
330 495 1
241 496 1
249 496 1
309 496 1
322 496 1
242 497 1
250 497 1
310 497 1
323 497 1
232 498 1
251 498 1
311 498 1
324 498 1
233 499 1
252 499 1
312 499 1
325 499 1
234 500 1
253 500 1
313 500 1
326 500 1
235 501 1
243 501 1
314 501 1
327 501 1
236 502 1
244 502 1
315 502 1
328 502 1
237 503 1
245 503 1
316 503 1
329 503 1
238 504 1
246 504 1
317 504 1
330 504 1
239 505 1
247 505 1
318 505 1
320 505 1
240 506 1
248 506 1
319 506 1
321 506 1
238 507 1
252 507 1
333 507 1
342 507 1
239 508 1
253 508 1
334 508 1
343 508 1
240 509 1
243 509 1
335 509 1
344 509 1
241 510 1
244 510 1
336 510 1
345 510 1
242 511 1
245 511 1
337 511 1
346 511 1
232 512 1
246 512 1
338 512 1
347 512 1
233 513 1
247 513 1
339 513 1
348 513 1
234 514 1
248 514 1
340 514 1
349 514 1
235 515 1
249 515 1
341 515 1
350 515 1
236 516 1
250 516 1
331 516 1
351 516 1
237 517 1
251 517 1
332 517 1
352 517 1
227 518 1
263 518 1
331 518 1
344 518 1
228 519 1
264 519 1
332 519 1
345 519 1
229 520 1
254 520 1
333 520 1
346 520 1
230 521 1
255 521 1
334 521 1
347 521 1
231 522 1
256 522 1
335 522 1
348 522 1
221 523 1
257 523 1
336 523 1
349 523 1
222 524 1
258 524 1
337 524 1
350 524 1
223 525 1
259 525 1
338 525 1
351 525 1
224 526 1
260 526 1
339 526 1
352 526 1
225 527 1
261 527 1
340 527 1
342 527 1
226 528 1
262 528 1
341 528 1
343 528 1
