%%MatrixMarket matrix coordinate integer general
% Binary matrix; one-based indices; arithmetic over GF(2)
352 528 2112
10 1 1
12 1 1
91 1 1
127 1 1
11 2 1
13 2 1
92 2 1
128 2 1
1 3 1
14 3 1
93 3 1
129 3 1
2 4 1
15 4 1
94 4 1
130 4 1
3 5 1
16 5 1
95 5 1
131 5 1
4 6 1
17 6 1
96 6 1
132 6 1
5 7 1
18 7 1
97 7 1
122 7 1
6 8 1
19 8 1
98 8 1
123 8 1
7 9 1
20 9 1
99 9 1
124 9 1
8 10 1
21 10 1
89 10 1
125 10 1
9 11 1
22 11 1
90 11 1
126 11 1
1 12 1
21 12 1
102 12 1
116 12 1
2 13 1
22 13 1
103 13 1
117 13 1
3 14 1
12 14 1
104 14 1
118 14 1
4 15 1
13 15 1
105 15 1
119 15 1
5 16 1
14 16 1
106 16 1
120 16 1
6 17 1
15 17 1
107 17 1
121 17 1
7 18 1
16 18 1
108 18 1
111 18 1
8 19 1
17 19 1
109 19 1
112 19 1
9 20 1
18 20 1
110 20 1
113 20 1
10 21 1
19 21 1
100 21 1
114 21 1
11 22 1
20 22 1
101 22 1
115 22 1
32 23 1
34 23 1
105 23 1
113 23 1
33 24 1
35 24 1
106 24 1
114 24 1
23 25 1
36 25 1
107 25 1
115 25 1
24 26 1
37 26 1
108 26 1
116 26 1
25 27 1
38 27 1
109 27 1
117 27 1
26 28 1
39 28 1
110 28 1
118 28 1
27 29 1
40 29 1
100 29 1
119 29 1
28 30 1
41 30 1
101 30 1
120 30 1
29 31 1
42 31 1
102 31 1
121 31 1
30 32 1
43 32 1
103 32 1
111 32 1
31 33 1
44 33 1
104 33 1
112 33 1
23 34 1
43 34 1
94 34 1
124 34 1
24 35 1
44 35 1
95 35 1
125 35 1
25 36 1
34 36 1
96 36 1
126 36 1
26 37 1
35 37 1
97 37 1
127 37 1
27 38 1
36 38 1
98 38 1
128 38 1
28 39 1
37 39 1
99 39 1
129 39 1
29 40 1
38 40 1
89 40 1
130 40 1
30 41 1
39 41 1
90 41 1
131 41 1
31 42 1
40 42 1
91 42 1
132 42 1
32 43 1
41 43 1
92 43 1
122 43 1
33 44 1
42 44 1
93 44 1
123 44 1
54 45 1
56 45 1
135 45 1
171 45 1
55 46 1
57 46 1
136 46 1
172 46 1
45 47 1
58 47 1
137 47 1
173 47 1
46 48 1
59 48 1
138 48 1
174 48 1
47 49 1
60 49 1
139 49 1
175 49 1
48 50 1
61 50 1
140 50 1
176 50 1
49 51 1
62 51 1
141 51 1
166 51 1
50 52 1
63 52 1
142 52 1
167 52 1
51 53 1
64 53 1
143 53 1
168 53 1
52 54 1
65 54 1
133 54 1
169 54 1
53 55 1
66 55 1
134 55 1
170 55 1
45 56 1
65 56 1
146 56 1
160 56 1
46 57 1
66 57 1
147 57 1
161 57 1
47 58 1
56 58 1
148 58 1
162 58 1
48 59 1
57 59 1
149 59 1
163 59 1
49 60 1
58 60 1
150 60 1
164 60 1
50 61 1
59 61 1
151 61 1
165 61 1
51 62 1
60 62 1
152 62 1
155 62 1
52 63 1
61 63 1
153 63 1
156 63 1
53 64 1
62 64 1
154 64 1
157 64 1
54 65 1
63 65 1
144 65 1
158 65 1
55 66 1
64 66 1
145 66 1
159 66 1
76 67 1
78 67 1
149 67 1
157 67 1
77 68 1
79 68 1
150 68 1
158 68 1
67 69 1
80 69 1
151 69 1
159 69 1
68 70 1
81 70 1
152 70 1
160 70 1
69 71 1
82 71 1
153 71 1
161 71 1
70 72 1
83 72 1
154 72 1
162 72 1
71 73 1
84 73 1
144 73 1
163 73 1
72 74 1
85 74 1
145 74 1
164 74 1
73 75 1
86 75 1
146 75 1
165 75 1
74 76 1
87 76 1
147 76 1
155 76 1
75 77 1
88 77 1
148 77 1
156 77 1
67 78 1
87 78 1
138 78 1
168 78 1
68 79 1
88 79 1
139 79 1
169 79 1
69 80 1
78 80 1
140 80 1
170 80 1
70 81 1
79 81 1
141 81 1
171 81 1
71 82 1
80 82 1
142 82 1
172 82 1
72 83 1
81 83 1
143 83 1
173 83 1
73 84 1
82 84 1
133 84 1
174 84 1
74 85 1
83 85 1
134 85 1
175 85 1
75 86 1
84 86 1
135 86 1
176 86 1
76 87 1
85 87 1
136 87 1
166 87 1
77 88 1
86 88 1
137 88 1
167 88 1
41 89 1
70 89 1
179 89 1
215 89 1
42 90 1
71 90 1
180 90 1
216 90 1
43 91 1
72 91 1
181 91 1
217 91 1
44 92 1
73 92 1
182 92 1
218 92 1
34 93 1
74 93 1
183 93 1
219 93 1
35 94 1
75 94 1
184 94 1
220 94 1
36 95 1
76 95 1
185 95 1
210 95 1
37 96 1
77 96 1
186 96 1
211 96 1
38 97 1
67 97 1
187 97 1
212 97 1
39 98 1
68 98 1
177 98 1
213 98 1
40 99 1
69 99 1
178 99 1
214 99 1
30 100 1
81 100 1
190 100 1
204 100 1
31 101 1
82 101 1
191 101 1
205 101 1
32 102 1
83 102 1
192 102 1
206 102 1
33 103 1
84 103 1
193 103 1
207 103 1
23 104 1
85 104 1
194 104 1
208 104 1
24 105 1
86 105 1
195 105 1
209 105 1
25 106 1
87 106 1
196 106 1
199 106 1
26 107 1
88 107 1
197 107 1
200 107 1
27 108 1
78 108 1
198 108 1
201 108 1
28 109 1
79 109 1
188 109 1
202 109 1
29 110 1
80 110 1
189 110 1
203 110 1
19 111 1
48 111 1
193 111 1
201 111 1
20 112 1
49 112 1
194 112 1
202 112 1
21 113 1
50 113 1
195 113 1
203 113 1
22 114 1
51 114 1
196 114 1
204 114 1
12 115 1
52 115 1
197 115 1
205 115 1
13 116 1
53 116 1
198 116 1
206 116 1
14 117 1
54 117 1
188 117 1
207 117 1
15 118 1
55 118 1
189 118 1
208 118 1
16 119 1
45 119 1
190 119 1
209 119 1
17 120 1
46 120 1
191 120 1
199 120 1
18 121 1
47 121 1
192 121 1
200 121 1
8 122 1
59 122 1
182 122 1
212 122 1
9 123 1
60 123 1
183 123 1
213 123 1
10 124 1
61 124 1
184 124 1
214 124 1
11 125 1
62 125 1
185 125 1
215 125 1
1 126 1
63 126 1
186 126 1
216 126 1
2 127 1
64 127 1
187 127 1
217 127 1
3 128 1
65 128 1
177 128 1
218 128 1
4 129 1
66 129 1
178 129 1
219 129 1
5 130 1
56 130 1
179 130 1
220 130 1
6 131 1
57 131 1
180 131 1
210 131 1
7 132 1
58 132 1
181 132 1
211 132 1
26 133 1
85 133 1
223 133 1
259 133 1
27 134 1
86 134 1
224 134 1
260 134 1
28 135 1
87 135 1
225 135 1
261 135 1
29 136 1
88 136 1
226 136 1
262 136 1
30 137 1
78 137 1
227 137 1
263 137 1
31 138 1
79 138 1
228 138 1
264 138 1
32 139 1
80 139 1
229 139 1
254 139 1
33 140 1
81 140 1
230 140 1
255 140 1
23 141 1
82 141 1
231 141 1
256 141 1
24 142 1
83 142 1
221 142 1
257 142 1
25 143 1
84 143 1
222 143 1
258 143 1
37 144 1
74 144 1
234 144 1
248 144 1
38 145 1
75 145 1
235 145 1
249 145 1
39 146 1
76 146 1
236 146 1
250 146 1
40 147 1
77 147 1
237 147 1
251 147 1
41 148 1
67 148 1
238 148 1
252 148 1
42 149 1
68 149 1
239 149 1
253 149 1
43 150 1
69 150 1
240 150 1
243 150 1
44 151 1
70 151 1
241 151 1
244 151 1
34 152 1
71 152 1
242 152 1
245 152 1
35 153 1
72 153 1
232 153 1
246 153 1
36 154 1
73 154 1
233 154 1
247 154 1
4 155 1
63 155 1
237 155 1
245 155 1
5 156 1
64 156 1
238 156 1
246 156 1
6 157 1
65 157 1
239 157 1
247 157 1
7 158 1
66 158 1
240 158 1
248 158 1
8 159 1
56 159 1
241 159 1
249 159 1
9 160 1
57 160 1
242 160 1
250 160 1
10 161 1
58 161 1
232 161 1
251 161 1
11 162 1
59 162 1
233 162 1
252 162 1
1 163 1
60 163 1
234 163 1
253 163 1
2 164 1
61 164 1
235 164 1
243 164 1
3 165 1
62 165 1
236 165 1
244 165 1
15 166 1
52 166 1
226 166 1
256 166 1
16 167 1
53 167 1
227 167 1
257 167 1
17 168 1
54 168 1
228 168 1
258 168 1
18 169 1
55 169 1
229 169 1
259 169 1
19 170 1
45 170 1
230 170 1
260 170 1
20 171 1
46 171 1
231 171 1
261 171 1
21 172 1
47 172 1
221 172 1
262 172 1
22 173 1
48 173 1
222 173 1
263 173 1
12 174 1
49 174 1
223 174 1
264 174 1
13 175 1
50 175 1
224 175 1
254 175 1
14 176 1
51 176 1
225 176 1
255 176 1
38 177 1
66 177 1
267 177 1
303 177 1
39 178 1
56 178 1
268 178 1
304 178 1
40 179 1
57 179 1
269 179 1
305 179 1
41 180 1
58 180 1
270 180 1
306 180 1
42 181 1
59 181 1
271 181 1
307 181 1
43 182 1
60 182 1
272 182 1
308 182 1
44 183 1
61 183 1
273 183 1
298 183 1
34 184 1
62 184 1
274 184 1
299 184 1
35 185 1
63 185 1
275 185 1
300 185 1
36 186 1
64 186 1
265 186 1
301 186 1
37 187 1
65 187 1
266 187 1
302 187 1
27 188 1
55 188 1
278 188 1
292 188 1
28 189 1
45 189 1
279 189 1
293 189 1
29 190 1
46 190 1
280 190 1
294 190 1
30 191 1
47 191 1
281 191 1
295 191 1
31 192 1
48 192 1
282 192 1
296 192 1
32 193 1
49 193 1
283 193 1
297 193 1
33 194 1
50 194 1
284 194 1
287 194 1
23 195 1
51 195 1
285 195 1
288 195 1
24 196 1
52 196 1
286 196 1
289 196 1
25 197 1
53 197 1
276 197 1
290 197 1
26 198 1
54 198 1
277 198 1
291 198 1
16 199 1
88 199 1
281 199 1
289 199 1
17 200 1
78 200 1
282 200 1
290 200 1
18 201 1
79 201 1
283 201 1
291 201 1
19 202 1
80 202 1
284 202 1
292 202 1
20 203 1
81 203 1
285 203 1
293 203 1
21 204 1
82 204 1
286 204 1
294 204 1
22 205 1
83 205 1
276 205 1
295 205 1
12 206 1
84 206 1
277 206 1
296 206 1
13 207 1
85 207 1
278 207 1
297 207 1
14 208 1
86 208 1
279 208 1
287 208 1
15 209 1
87 209 1
280 209 1
288 209 1
5 210 1
77 210 1
270 210 1
300 210 1
6 211 1
67 211 1
271 211 1
301 211 1
7 212 1
68 212 1
272 212 1
302 212 1
8 213 1
69 213 1
273 213 1
303 213 1
9 214 1
70 214 1
274 214 1
304 214 1
10 215 1
71 215 1
275 215 1
305 215 1
11 216 1
72 216 1
265 216 1
306 216 1
1 217 1
73 217 1
266 217 1
307 217 1
2 218 1
74 218 1
267 218 1
308 218 1
3 219 1
75 219 1
268 219 1
298 219 1
4 220 1
76 220 1
269 220 1
299 220 1
22 221 1
82 221 1
311 221 1
347 221 1
12 222 1
83 222 1
312 222 1
348 222 1
13 223 1
84 223 1
313 223 1
349 223 1
14 224 1
85 224 1
314 224 1
350 224 1
15 225 1
86 225 1
315 225 1
351 225 1
16 226 1
87 226 1
316 226 1
352 226 1
17 227 1
88 227 1
317 227 1
342 227 1
18 228 1
78 228 1
318 228 1
343 228 1
19 229 1
79 229 1
319 229 1
344 229 1
20 230 1
80 230 1
309 230 1
345 230 1
21 231 1
81 231 1
310 231 1
346 231 1
11 232 1
71 232 1
322 232 1
336 232 1
1 233 1
72 233 1
323 233 1
337 233 1
2 234 1
73 234 1
324 234 1
338 234 1
3 235 1
74 235 1
325 235 1
339 235 1
4 236 1
75 236 1
326 236 1
340 236 1
5 237 1
76 237 1
327 237 1
341 237 1
6 238 1
77 238 1
328 238 1
331 238 1
7 239 1
67 239 1
329 239 1
332 239 1
8 240 1
68 240 1
330 240 1
333 240 1
9 241 1
69 241 1
320 241 1
334 241 1
10 242 1
70 242 1
321 242 1
335 242 1
44 243 1
60 243 1
325 243 1
333 243 1
34 244 1
61 244 1
326 244 1
334 244 1
35 245 1
62 245 1
327 245 1
335 245 1
36 246 1
63 246 1
328 246 1
336 246 1
37 247 1
64 247 1
329 247 1
337 247 1
38 248 1
65 248 1
330 248 1
338 248 1
39 249 1
66 249 1
320 249 1
339 249 1
40 250 1
56 250 1
321 250 1
340 250 1
41 251 1
57 251 1
322 251 1
341 251 1
42 252 1
58 252 1
323 252 1
331 252 1
43 253 1
59 253 1
324 253 1
332 253 1
33 254 1
49 254 1
314 254 1
344 254 1
23 255 1
50 255 1
315 255 1
345 255 1
24 256 1
51 256 1
316 256 1
346 256 1
25 257 1
52 257 1
317 257 1
347 257 1
26 258 1
53 258 1
318 258 1
348 258 1
27 259 1
54 259 1
319 259 1
349 259 1
28 260 1
55 260 1
309 260 1
350 260 1
29 261 1
45 261 1
310 261 1
351 261 1
30 262 1
46 262 1
311 262 1
352 262 1
31 263 1
47 263 1
312 263 1
342 263 1
32 264 1
48 264 1
313 264 1
343 264 1
129 265 1
158 265 1
186 265 1
188 265 1
130 266 1
159 266 1
187 266 1
189 266 1
131 267 1
160 267 1
177 267 1
190 267 1
132 268 1
161 268 1
178 268 1
191 268 1
122 269 1
162 269 1
179 269 1
192 269 1
123 270 1
163 270 1
180 270 1
193 270 1
124 271 1
164 271 1
181 271 1
194 271 1
125 272 1
165 272 1
182 272 1
195 272 1
126 273 1
155 273 1
183 273 1
196 273 1
127 274 1
156 274 1
184 274 1
197 274 1
128 275 1
157 275 1
185 275 1
198 275 1
118 276 1
169 276 1
177 276 1
197 276 1
119 277 1
170 277 1
178 277 1
198 277 1
120 278 1
171 278 1
179 278 1
188 278 1
121 279 1
172 279 1
180 279 1
189 279 1
111 280 1
173 280 1
181 280 1
190 280 1
112 281 1
174 281 1
182 281 1
191 281 1
113 282 1
175 282 1
183 282 1
192 282 1
114 283 1
176 283 1
184 283 1
193 283 1
115 284 1
166 284 1
185 284 1
194 284 1
116 285 1
167 285 1
186 285 1
195 285 1
117 286 1
168 286 1
187 286 1
196 286 1
107 287 1
136 287 1
208 287 1
210 287 1
108 288 1
137 288 1
209 288 1
211 288 1
109 289 1
138 289 1
199 289 1
212 289 1
110 290 1
139 290 1
200 290 1
213 290 1
100 291 1
140 291 1
201 291 1
214 291 1
101 292 1
141 292 1
202 292 1
215 292 1
102 293 1
142 293 1
203 293 1
216 293 1
103 294 1
143 294 1
204 294 1
217 294 1
104 295 1
133 295 1
205 295 1
218 295 1
105 296 1
134 296 1
206 296 1
219 296 1
106 297 1
135 297 1
207 297 1
220 297 1
96 298 1
147 298 1
199 298 1
219 298 1
97 299 1
148 299 1
200 299 1
220 299 1
98 300 1
149 300 1
201 300 1
210 300 1
99 301 1
150 301 1
202 301 1
211 301 1
89 302 1
151 302 1
203 302 1
212 302 1
90 303 1
152 303 1
204 303 1
213 303 1
91 304 1
153 304 1
205 304 1
214 304 1
92 305 1
154 305 1
206 305 1
215 305 1
93 306 1
144 306 1
207 306 1
216 306 1
94 307 1
145 307 1
208 307 1
217 307 1
95 308 1
146 308 1
209 308 1
218 308 1
114 309 1
173 309 1
230 309 1
232 309 1
115 310 1
174 310 1
231 310 1
233 310 1
116 311 1
175 311 1
221 311 1
234 311 1
117 312 1
176 312 1
222 312 1
235 312 1
118 313 1
166 313 1
223 313 1
236 313 1
119 314 1
167 314 1
224 314 1
237 314 1
120 315 1
168 315 1
225 315 1
238 315 1
121 316 1
169 316 1
226 316 1
239 316 1
111 317 1
170 317 1
227 317 1
240 317 1
112 318 1
171 318 1
228 318 1
241 318 1
113 319 1
172 319 1
229 319 1
242 319 1
125 320 1
162 320 1
221 320 1
241 320 1
126 321 1
163 321 1
222 321 1
242 321 1
127 322 1
164 322 1
223 322 1
232 322 1
128 323 1
165 323 1
224 323 1
233 323 1
129 324 1
155 324 1
225 324 1
234 324 1
130 325 1
156 325 1
226 325 1
235 325 1
131 326 1
157 326 1
227 326 1
236 326 1
132 327 1
158 327 1
228 327 1
237 327 1
122 328 1
159 328 1
229 328 1
238 328 1
123 329 1
160 329 1
230 329 1
239 329 1
124 330 1
161 330 1
231 330 1
240 330 1
92 331 1
151 331 1
252 331 1
254 331 1
93 332 1
152 332 1
253 332 1
255 332 1
94 333 1
153 333 1
243 333 1
256 333 1
95 334 1
154 334 1
244 334 1
257 334 1
96 335 1
144 335 1
245 335 1
258 335 1
97 336 1
145 336 1
246 336 1
259 336 1
98 337 1
146 337 1
247 337 1
260 337 1
99 338 1
147 338 1
248 338 1
261 338 1
89 339 1
148 339 1
249 339 1
262 339 1
90 340 1
149 340 1
250 340 1
263 340 1
91 341 1
150 341 1
251 341 1
264 341 1
103 342 1
140 342 1
243 342 1
263 342 1
104 343 1
141 343 1
244 343 1
264 343 1
105 344 1
142 344 1
245 344 1
254 344 1
106 345 1
143 345 1
246 345 1
255 345 1
107 346 1
133 346 1
247 346 1
256 346 1
108 347 1
134 347 1
248 347 1
257 347 1
109 348 1
135 348 1
249 348 1
258 348 1
110 349 1
136 349 1
250 349 1
259 349 1
100 350 1
137 350 1
251 350 1
260 350 1
101 351 1
138 351 1
252 351 1
261 351 1
102 352 1
139 352 1
253 352 1
262 352 1
126 353 1
154 353 1
274 353 1
276 353 1
127 354 1
144 354 1
275 354 1
277 354 1
128 355 1
145 355 1
265 355 1
278 355 1
129 356 1
146 356 1
266 356 1
279 356 1
130 357 1
147 357 1
267 357 1
280 357 1
131 358 1
148 358 1
268 358 1
281 358 1
132 359 1
149 359 1
269 359 1
282 359 1
122 360 1
150 360 1
270 360 1
283 360 1
123 361 1
151 361 1
271 361 1
284 361 1
124 362 1
152 362 1
272 362 1
285 362 1
125 363 1
153 363 1
273 363 1
286 363 1
115 364 1
143 364 1
265 364 1
285 364 1
116 365 1
133 365 1
266 365 1
286 365 1
117 366 1
134 366 1
267 366 1
276 366 1
118 367 1
135 367 1
268 367 1
277 367 1
119 368 1
136 368 1
269 368 1
278 368 1
120 369 1
137 369 1
270 369 1
279 369 1
121 370 1
138 370 1
271 370 1
280 370 1
111 371 1
139 371 1
272 371 1
281 371 1
112 372 1
140 372 1
273 372 1
282 372 1
113 373 1
141 373 1
274 373 1
283 373 1
114 374 1
142 374 1
275 374 1
284 374 1
104 375 1
176 375 1
296 375 1
298 375 1
105 376 1
166 376 1
297 376 1
299 376 1
106 377 1
167 377 1
287 377 1
300 377 1
107 378 1
168 378 1
288 378 1
301 378 1
108 379 1
169 379 1
289 379 1
302 379 1
109 380 1
170 380 1
290 380 1
303 380 1
110 381 1
171 381 1
291 381 1
304 381 1
100 382 1
172 382 1
292 382 1
305 382 1
101 383 1
173 383 1
293 383 1
306 383 1
102 384 1
174 384 1
294 384 1
307 384 1
103 385 1
175 385 1
295 385 1
308 385 1
93 386 1
165 386 1
287 386 1
307 386 1
94 387 1
155 387 1
288 387 1
308 387 1
95 388 1
156 388 1
289 388 1
298 388 1
96 389 1
157 389 1
290 389 1
299 389 1
97 390 1
158 390 1
291 390 1
300 390 1
98 391 1
159 391 1
292 391 1
301 391 1
99 392 1
160 392 1
293 392 1
302 392 1
89 393 1
161 393 1
294 393 1
303 393 1
90 394 1
162 394 1
295 394 1
304 394 1
91 395 1
163 395 1
296 395 1
305 395 1
92 396 1
164 396 1
297 396 1
306 396 1
110 397 1
170 397 1
318 397 1
320 397 1
100 398 1
171 398 1
319 398 1
321 398 1
101 399 1
172 399 1
309 399 1
322 399 1
102 400 1
173 400 1
310 400 1
323 400 1
103 401 1
174 401 1
311 401 1
324 401 1
104 402 1
175 402 1
312 402 1
325 402 1
105 403 1
176 403 1
313 403 1
326 403 1
106 404 1
166 404 1
314 404 1
327 404 1
107 405 1
167 405 1
315 405 1
328 405 1
108 406 1
168 406 1
316 406 1
329 406 1
109 407 1
169 407 1
317 407 1
330 407 1
99 408 1
159 408 1
309 408 1
329 408 1
89 409 1
160 409 1
310 409 1
330 409 1
90 410 1
161 410 1
311 410 1
320 410 1
91 411 1
162 411 1
312 411 1
321 411 1
92 412 1
163 412 1
313 412 1
322 412 1
93 413 1
164 413 1
314 413 1
323 413 1
94 414 1
165 414 1
315 414 1
324 414 1
95 415 1
155 415 1
316 415 1
325 415 1
96 416 1
156 416 1
317 416 1
326 416 1
97 417 1
157 417 1
318 417 1
327 417 1
98 418 1
158 418 1
319 418 1
328 418 1
132 419 1
148 419 1
340 419 1
342 419 1
122 420 1
149 420 1
341 420 1
343 420 1
123 421 1
150 421 1
331 421 1
344 421 1
124 422 1
151 422 1
332 422 1
345 422 1
125 423 1
152 423 1
333 423 1
346 423 1
126 424 1
153 424 1
334 424 1
347 424 1
127 425 1
154 425 1
335 425 1
348 425 1
128 426 1
144 426 1
336 426 1
349 426 1
129 427 1
145 427 1
337 427 1
350 427 1
130 428 1
146 428 1
338 428 1
351 428 1
131 429 1
147 429 1
339 429 1
352 429 1
121 430 1
137 430 1
331 430 1
351 430 1
111 431 1
138 431 1
332 431 1
352 431 1
112 432 1
139 432 1
333 432 1
342 432 1
113 433 1
140 433 1
334 433 1
343 433 1
114 434 1
141 434 1
335 434 1
344 434 1
115 435 1
142 435 1
336 435 1
345 435 1
116 436 1
143 436 1
337 436 1
346 436 1
117 437 1
133 437 1
338 437 1
347 437 1
118 438 1
134 438 1
339 438 1
348 438 1
119 439 1
135 439 1
340 439 1
349 439 1
120 440 1
136 440 1
341 440 1
350 440 1
214 441 1
242 441 1
305 441 1
334 441 1
215 442 1
232 442 1
306 442 1
335 442 1
216 443 1
233 443 1
307 443 1
336 443 1
217 444 1
234 444 1
308 444 1
337 444 1
218 445 1
235 445 1
298 445 1
338 445 1
219 446 1
236 446 1
299 446 1
339 446 1
220 447 1
237 447 1
300 447 1
340 447 1
210 448 1
238 448 1
301 448 1
341 448 1
211 449 1
239 449 1
302 449 1
331 449 1
212 450 1
240 450 1
303 450 1
332 450 1
213 451 1
241 451 1
304 451 1
333 451 1
203 452 1
231 452 1
294 452 1
345 452 1
204 453 1
221 453 1
295 453 1
346 453 1
205 454 1
222 454 1
296 454 1
347 454 1
206 455 1
223 455 1
297 455 1
348 455 1
207 456 1
224 456 1
287 456 1
349 456 1
208 457 1
225 457 1
288 457 1
350 457 1
209 458 1
226 458 1
289 458 1
351 458 1
199 459 1
227 459 1
290 459 1
352 459 1
200 460 1
228 460 1
291 460 1
342 460 1
201 461 1
229 461 1
292 461 1
343 461 1
202 462 1
230 462 1
293 462 1
344 462 1
192 463 1
264 463 1
283 463 1
312 463 1
193 464 1
254 464 1
284 464 1
313 464 1
194 465 1
255 465 1
285 465 1
314 465 1
195 466 1
256 466 1
286 466 1
315 466 1
196 467 1
257 467 1
276 467 1
316 467 1
197 468 1
258 468 1
277 468 1
317 468 1
198 469 1
259 469 1
278 469 1
318 469 1
188 470 1
260 470 1
279 470 1
319 470 1
189 471 1
261 471 1
280 471 1
309 471 1
190 472 1
262 472 1
281 472 1
310 472 1
191 473 1
263 473 1
282 473 1
311 473 1
181 474 1
253 474 1
272 474 1
323 474 1
182 475 1
243 475 1
273 475 1
324 475 1
183 476 1
244 476 1
274 476 1
325 476 1
184 477 1
245 477 1
275 477 1
326 477 1
185 478 1
246 478 1
265 478 1
327 478 1
186 479 1
247 479 1
266 479 1
328 479 1
187 480 1
248 480 1
267 480 1
329 480 1
177 481 1
249 481 1
268 481 1
330 481 1
178 482 1
250 482 1
269 482 1
320 482 1
179 483 1
251 483 1
270 483 1
321 483 1
180 484 1
252 484 1
271 484 1
322 484 1
198 485 1
258 485 1
290 485 1
349 485 1
188 486 1
259 486 1
291 486 1
350 486 1
189 487 1
260 487 1
292 487 1
351 487 1
190 488 1
261 488 1
293 488 1
352 488 1
191 489 1
262 489 1
294 489 1
342 489 1
192 490 1
263 490 1
295 490 1
343 490 1
193 491 1
264 491 1
296 491 1
344 491 1
194 492 1
254 492 1
297 492 1
345 492 1
195 493 1
255 493 1
287 493 1
346 493 1
196 494 1
256 494 1
288 494 1
347 494 1
197 495 1
257 495 1
289 495 1
348 495 1
187 496 1
247 496 1
301 496 1
338 496 1
177 497 1
248 497 1
302 497 1
339 497 1
178 498 1
249 498 1
303 498 1
340 498 1
179 499 1
250 499 1
304 499 1
341 499 1
180 500 1
251 500 1
305 500 1
331 500 1
181 501 1
252 501 1
306 501 1
332 501 1
182 502 1
253 502 1
307 502 1
333 502 1
183 503 1
243 503 1
308 503 1
334 503 1
184 504 1
244 504 1
298 504 1
335 504 1
185 505 1
245 505 1
299 505 1
336 505 1
186 506 1
246 506 1
300 506 1
337 506 1
220 507 1
236 507 1
268 507 1
327 507 1
210 508 1
237 508 1
269 508 1
328 508 1
211 509 1
238 509 1
270 509 1
329 509 1
212 510 1
239 510 1
271 510 1
330 510 1
213 511 1
240 511 1
272 511 1
320 511 1
214 512 1
241 512 1
273 512 1
321 512 1
215 513 1
242 513 1
274 513 1
322 513 1
216 514 1
232 514 1
275 514 1
323 514 1
217 515 1
233 515 1
265 515 1
324 515 1
218 516 1
234 516 1
266 516 1
325 516 1
219 517 1
235 517 1
267 517 1
326 517 1
209 518 1
225 518 1
279 518 1
316 518 1
199 519 1
226 519 1
280 519 1
317 519 1
200 520 1
227 520 1
281 520 1
318 520 1
201 521 1
228 521 1
282 521 1
319 521 1
202 522 1
229 522 1
283 522 1
309 522 1
203 523 1
230 523 1
284 523 1
310 523 1
204 524 1
231 524 1
285 524 1
311 524 1
205 525 1
221 525 1
286 525 1
312 525 1
206 526 1
222 526 1
276 526 1
313 526 1
207 527 1
223 527 1
277 527 1
314 527 1
208 528 1
224 528 1
278 528 1
315 528 1
