%%MatrixMarket matrix coordinate integer general
% Binary matrix; one-based indices; arithmetic over GF(2)
576 864 5184
30 1 1
100 1 1
140 1 1
146 1 1
242 1 1
261 1 1
31 2 1
101 2 1
141 2 1
147 2 1
243 2 1
262 2 1
32 3 1
102 3 1
142 3 1
148 3 1
244 3 1
263 3 1
33 4 1
103 4 1
143 4 1
149 4 1
245 4 1
264 4 1
34 5 1
104 5 1
144 5 1
150 5 1
246 5 1
253 5 1
35 6 1
105 6 1
133 6 1
151 6 1
247 6 1
254 6 1
36 7 1
106 7 1
134 7 1
152 7 1
248 7 1
255 7 1
25 8 1
107 8 1
135 8 1
153 8 1
249 8 1
256 8 1
26 9 1
108 9 1
136 9 1
154 9 1
250 9 1
257 9 1
27 10 1
97 10 1
137 10 1
155 10 1
251 10 1
258 10 1
28 11 1
98 11 1
138 11 1
156 11 1
252 11 1
259 11 1
29 12 1
99 12 1
139 12 1
145 12 1
241 12 1
260 12 1
6 13 1
76 13 1
116 13 1
158 13 1
218 13 1
273 13 1
7 14 1
77 14 1
117 14 1
159 14 1
219 14 1
274 14 1
8 15 1
78 15 1
118 15 1
160 15 1
220 15 1
275 15 1
9 16 1
79 16 1
119 16 1
161 16 1
221 16 1
276 16 1
10 17 1
80 17 1
120 17 1
162 17 1
222 17 1
265 17 1
11 18 1
81 18 1
109 18 1
163 18 1
223 18 1
266 18 1
12 19 1
82 19 1
110 19 1
164 19 1
224 19 1
267 19 1
1 20 1
83 20 1
111 20 1
165 20 1
225 20 1
268 20 1
2 21 1
84 21 1
112 21 1
166 21 1
226 21 1
269 21 1
3 22 1
73 22 1
113 22 1
167 22 1
227 22 1
270 22 1
4 23 1
74 23 1
114 23 1
168 23 1
228 23 1
271 23 1
5 24 1
75 24 1
115 24 1
157 24 1
217 24 1
272 24 1
18 25 1
88 25 1
128 25 1
170 25 1
230 25 1
285 25 1
19 26 1
89 26 1
129 26 1
171 26 1
231 26 1
286 26 1
20 27 1
90 27 1
130 27 1
172 27 1
232 27 1
287 27 1
21 28 1
91 28 1
131 28 1
173 28 1
233 28 1
288 28 1
22 29 1
92 29 1
132 29 1
174 29 1
234 29 1
277 29 1
23 30 1
93 30 1
121 30 1
175 30 1
235 30 1
278 30 1
24 31 1
94 31 1
122 31 1
176 31 1
236 31 1
279 31 1
13 32 1
95 32 1
123 32 1
177 32 1
237 32 1
280 32 1
14 33 1
96 33 1
124 33 1
178 33 1
238 33 1
281 33 1
15 34 1
85 34 1
125 34 1
179 34 1
239 34 1
282 34 1
16 35 1
86 35 1
126 35 1
180 35 1
240 35 1
283 35 1
17 36 1
87 36 1
127 36 1
169 36 1
229 36 1
284 36 1
66 37 1
104 37 1
136 37 1
182 37 1
225 37 1
278 37 1
67 38 1
105 38 1
137 38 1
183 38 1
226 38 1
279 38 1
68 39 1
106 39 1
138 39 1
184 39 1
227 39 1
280 39 1
69 40 1
107 40 1
139 40 1
185 40 1
228 40 1
281 40 1
70 41 1
108 41 1
140 41 1
186 41 1
217 41 1
282 41 1
71 42 1
97 42 1
141 42 1
187 42 1
218 42 1
283 42 1
72 43 1
98 43 1
142 43 1
188 43 1
219 43 1
284 43 1
61 44 1
99 44 1
143 44 1
189 44 1
220 44 1
285 44 1
62 45 1
100 45 1
144 45 1
190 45 1
221 45 1
286 45 1
63 46 1
101 46 1
133 46 1
191 46 1
222 46 1
287 46 1
64 47 1
102 47 1
134 47 1
192 47 1
223 47 1
288 47 1
65 48 1
103 48 1
135 48 1
181 48 1
224 48 1
277 48 1
42 49 1
80 49 1
112 49 1
194 49 1
237 49 1
254 49 1
43 50 1
81 50 1
113 50 1
195 50 1
238 50 1
255 50 1
44 51 1
82 51 1
114 51 1
196 51 1
239 51 1
256 51 1
45 52 1
83 52 1
115 52 1
197 52 1
240 52 1
257 52 1
46 53 1
84 53 1
116 53 1
198 53 1
229 53 1
258 53 1
47 54 1
73 54 1
117 54 1
199 54 1
230 54 1
259 54 1
48 55 1
74 55 1
118 55 1
200 55 1
231 55 1
260 55 1
37 56 1
75 56 1
119 56 1
201 56 1
232 56 1
261 56 1
38 57 1
76 57 1
120 57 1
202 57 1
233 57 1
262 57 1
39 58 1
77 58 1
109 58 1
203 58 1
234 58 1
263 58 1
40 59 1
78 59 1
110 59 1
204 59 1
235 59 1
264 59 1
41 60 1
79 60 1
111 60 1
193 60 1
236 60 1
253 60 1
54 61 1
92 61 1
124 61 1
206 61 1
249 61 1
266 61 1
55 62 1
93 62 1
125 62 1
207 62 1
250 62 1
267 62 1
56 63 1
94 63 1
126 63 1
208 63 1
251 63 1
268 63 1
57 64 1
95 64 1
127 64 1
209 64 1
252 64 1
269 64 1
58 65 1
96 65 1
128 65 1
210 65 1
241 65 1
270 65 1
59 66 1
85 66 1
129 66 1
211 66 1
242 66 1
271 66 1
60 67 1
86 67 1
130 67 1
212 67 1
243 67 1
272 67 1
49 68 1
87 68 1
131 68 1
213 68 1
244 68 1
273 68 1
50 69 1
88 69 1
132 69 1
214 69 1
245 69 1
274 69 1
51 70 1
89 70 1
121 70 1
215 70 1
246 70 1
275 70 1
52 71 1
90 71 1
122 71 1
216 71 1
247 71 1
276 71 1
53 72 1
91 72 1
123 72 1
205 72 1
248 72 1
265 72 1
28 73 1
68 73 1
102 73 1
170 73 1
189 73 1
218 73 1
29 74 1
69 74 1
103 74 1
171 74 1
190 74 1
219 74 1
30 75 1
70 75 1
104 75 1
172 75 1
191 75 1
220 75 1
31 76 1
71 76 1
105 76 1
173 76 1
192 76 1
221 76 1
32 77 1
72 77 1
106 77 1
174 77 1
181 77 1
222 77 1
33 78 1
61 78 1
107 78 1
175 78 1
182 78 1
223 78 1
34 79 1
62 79 1
108 79 1
176 79 1
183 79 1
224 79 1
35 80 1
63 80 1
97 80 1
177 80 1
184 80 1
225 80 1
36 81 1
64 81 1
98 81 1
178 81 1
185 81 1
226 81 1
25 82 1
65 82 1
99 82 1
179 82 1
186 82 1
227 82 1
26 83 1
66 83 1
100 83 1
180 83 1
187 83 1
228 83 1
27 84 1
67 84 1
101 84 1
169 84 1
188 84 1
217 84 1
4 85 1
44 85 1
78 85 1
146 85 1
201 85 1
230 85 1
5 86 1
45 86 1
79 86 1
147 86 1
202 86 1
231 86 1
6 87 1
46 87 1
80 87 1
148 87 1
203 87 1
232 87 1
7 88 1
47 88 1
81 88 1
149 88 1
204 88 1
233 88 1
8 89 1
48 89 1
82 89 1
150 89 1
193 89 1
234 89 1
9 90 1
37 90 1
83 90 1
151 90 1
194 90 1
235 90 1
10 91 1
38 91 1
84 91 1
152 91 1
195 91 1
236 91 1
11 92 1
39 92 1
73 92 1
153 92 1
196 92 1
237 92 1
12 93 1
40 93 1
74 93 1
154 93 1
197 93 1
238 93 1
1 94 1
41 94 1
75 94 1
155 94 1
198 94 1
239 94 1
2 95 1
42 95 1
76 95 1
156 95 1
199 95 1
240 95 1
3 96 1
43 96 1
77 96 1
145 96 1
200 96 1
229 96 1
16 97 1
56 97 1
90 97 1
158 97 1
213 97 1
242 97 1
17 98 1
57 98 1
91 98 1
159 98 1
214 98 1
243 98 1
18 99 1
58 99 1
92 99 1
160 99 1
215 99 1
244 99 1
19 100 1
59 100 1
93 100 1
161 100 1
216 100 1
245 100 1
20 101 1
60 101 1
94 101 1
162 101 1
205 101 1
246 101 1
21 102 1
49 102 1
95 102 1
163 102 1
206 102 1
247 102 1
22 103 1
50 103 1
96 103 1
164 103 1
207 103 1
248 103 1
23 104 1
51 104 1
85 104 1
165 104 1
208 104 1
249 104 1
24 105 1
52 105 1
86 105 1
166 105 1
209 105 1
250 105 1
13 106 1
53 106 1
87 106 1
167 106 1
210 106 1
251 106 1
14 107 1
54 107 1
88 107 1
168 107 1
211 107 1
252 107 1
15 108 1
55 108 1
89 108 1
157 108 1
212 108 1
241 108 1
32 109 1
64 109 1
138 109 1
153 109 1
206 109 1
254 109 1
33 110 1
65 110 1
139 110 1
154 110 1
207 110 1
255 110 1
34 111 1
66 111 1
140 111 1
155 111 1
208 111 1
256 111 1
35 112 1
67 112 1
141 112 1
156 112 1
209 112 1
257 112 1
36 113 1
68 113 1
142 113 1
145 113 1
210 113 1
258 113 1
25 114 1
69 114 1
143 114 1
146 114 1
211 114 1
259 114 1
26 115 1
70 115 1
144 115 1
147 115 1
212 115 1
260 115 1
27 116 1
71 116 1
133 116 1
148 116 1
213 116 1
261 116 1
28 117 1
72 117 1
134 117 1
149 117 1
214 117 1
262 117 1
29 118 1
61 118 1
135 118 1
150 118 1
215 118 1
263 118 1
30 119 1
62 119 1
136 119 1
151 119 1
216 119 1
264 119 1
31 120 1
63 120 1
137 120 1
152 120 1
205 120 1
253 120 1
8 121 1
40 121 1
114 121 1
165 121 1
182 121 1
266 121 1
9 122 1
41 122 1
115 122 1
166 122 1
183 122 1
267 122 1
10 123 1
42 123 1
116 123 1
167 123 1
184 123 1
268 123 1
11 124 1
43 124 1
117 124 1
168 124 1
185 124 1
269 124 1
12 125 1
44 125 1
118 125 1
157 125 1
186 125 1
270 125 1
1 126 1
45 126 1
119 126 1
158 126 1
187 126 1
271 126 1
2 127 1
46 127 1
120 127 1
159 127 1
188 127 1
272 127 1
3 128 1
47 128 1
109 128 1
160 128 1
189 128 1
273 128 1
4 129 1
48 129 1
110 129 1
161 129 1
190 129 1
274 129 1
5 130 1
37 130 1
111 130 1
162 130 1
191 130 1
275 130 1
6 131 1
38 131 1
112 131 1
163 131 1
192 131 1
276 131 1
7 132 1
39 132 1
113 132 1
164 132 1
181 132 1
265 132 1
20 133 1
52 133 1
126 133 1
177 133 1
194 133 1
278 133 1
21 134 1
53 134 1
127 134 1
178 134 1
195 134 1
279 134 1
22 135 1
54 135 1
128 135 1
179 135 1
196 135 1
280 135 1
23 136 1
55 136 1
129 136 1
180 136 1
197 136 1
281 136 1
24 137 1
56 137 1
130 137 1
169 137 1
198 137 1
282 137 1
13 138 1
57 138 1
131 138 1
170 138 1
199 138 1
283 138 1
14 139 1
58 139 1
132 139 1
171 139 1
200 139 1
284 139 1
15 140 1
59 140 1
121 140 1
172 140 1
201 140 1
285 140 1
16 141 1
60 141 1
122 141 1
173 141 1
202 141 1
286 141 1
17 142 1
49 142 1
123 142 1
174 142 1
203 142 1
287 142 1
18 143 1
50 143 1
124 143 1
175 143 1
204 143 1
288 143 1
19 144 1
51 144 1
125 144 1
176 144 1
193 144 1
277 144 1
44 145 1
93 145 1
111 145 1
290 145 1
386 145 1
405 145 1
45 146 1
94 146 1
112 146 1
291 146 1
387 146 1
406 146 1
46 147 1
95 147 1
113 147 1
292 147 1
388 147 1
407 147 1
47 148 1
96 148 1
114 148 1
293 148 1
389 148 1
408 148 1
48 149 1
85 149 1
115 149 1
294 149 1
390 149 1
397 149 1
37 150 1
86 150 1
116 150 1
295 150 1
391 150 1
398 150 1
38 151 1
87 151 1
117 151 1
296 151 1
392 151 1
399 151 1
39 152 1
88 152 1
118 152 1
297 152 1
393 152 1
400 152 1
40 153 1
89 153 1
119 153 1
298 153 1
394 153 1
401 153 1
41 154 1
90 154 1
120 154 1
299 154 1
395 154 1
402 154 1
42 155 1
91 155 1
109 155 1
300 155 1
396 155 1
403 155 1
43 156 1
92 156 1
110 156 1
289 156 1
385 156 1
404 156 1
56 157 1
105 157 1
123 157 1
302 157 1
362 157 1
417 157 1
57 158 1
106 158 1
124 158 1
303 158 1
363 158 1
418 158 1
58 159 1
107 159 1
125 159 1
304 159 1
364 159 1
419 159 1
59 160 1
108 160 1
126 160 1
305 160 1
365 160 1
420 160 1
60 161 1
97 161 1
127 161 1
306 161 1
366 161 1
409 161 1
49 162 1
98 162 1
128 162 1
307 162 1
367 162 1
410 162 1
50 163 1
99 163 1
129 163 1
308 163 1
368 163 1
411 163 1
51 164 1
100 164 1
130 164 1
309 164 1
369 164 1
412 164 1
52 165 1
101 165 1
131 165 1
310 165 1
370 165 1
413 165 1
53 166 1
102 166 1
132 166 1
311 166 1
371 166 1
414 166 1
54 167 1
103 167 1
121 167 1
312 167 1
372 167 1
415 167 1
55 168 1
104 168 1
122 168 1
301 168 1
361 168 1
416 168 1
68 169 1
81 169 1
135 169 1
314 169 1
374 169 1
429 169 1
69 170 1
82 170 1
136 170 1
315 170 1
375 170 1
430 170 1
70 171 1
83 171 1
137 171 1
316 171 1
376 171 1
431 171 1
71 172 1
84 172 1
138 172 1
317 172 1
377 172 1
432 172 1
72 173 1
73 173 1
139 173 1
318 173 1
378 173 1
421 173 1
61 174 1
74 174 1
140 174 1
319 174 1
379 174 1
422 174 1
62 175 1
75 175 1
141 175 1
320 175 1
380 175 1
423 175 1
63 176 1
76 176 1
142 176 1
321 176 1
381 176 1
424 176 1
64 177 1
77 177 1
143 177 1
322 177 1
382 177 1
425 177 1
65 178 1
78 178 1
144 178 1
323 178 1
383 178 1
426 178 1
66 179 1
79 179 1
133 179 1
324 179 1
384 179 1
427 179 1
67 180 1
80 180 1
134 180 1
313 180 1
373 180 1
428 180 1
8 181 1
75 181 1
129 181 1
326 181 1
369 181 1
422 181 1
9 182 1
76 182 1
130 182 1
327 182 1
370 182 1
423 182 1
10 183 1
77 183 1
131 183 1
328 183 1
371 183 1
424 183 1
11 184 1
78 184 1
132 184 1
329 184 1
372 184 1
425 184 1
12 185 1
79 185 1
121 185 1
330 185 1
361 185 1
426 185 1
1 186 1
80 186 1
122 186 1
331 186 1
362 186 1
427 186 1
2 187 1
81 187 1
123 187 1
332 187 1
363 187 1
428 187 1
3 188 1
82 188 1
124 188 1
333 188 1
364 188 1
429 188 1
4 189 1
83 189 1
125 189 1
334 189 1
365 189 1
430 189 1
5 190 1
84 190 1
126 190 1
335 190 1
366 190 1
431 190 1
6 191 1
73 191 1
127 191 1
336 191 1
367 191 1
432 191 1
7 192 1
74 192 1
128 192 1
325 192 1
368 192 1
421 192 1
20 193 1
87 193 1
141 193 1
338 193 1
381 193 1
398 193 1
21 194 1
88 194 1
142 194 1
339 194 1
382 194 1
399 194 1
22 195 1
89 195 1
143 195 1
340 195 1
383 195 1
400 195 1
23 196 1
90 196 1
144 196 1
341 196 1
384 196 1
401 196 1
24 197 1
91 197 1
133 197 1
342 197 1
373 197 1
402 197 1
13 198 1
92 198 1
134 198 1
343 198 1
374 198 1
403 198 1
14 199 1
93 199 1
135 199 1
344 199 1
375 199 1
404 199 1
15 200 1
94 200 1
136 200 1
345 200 1
376 200 1
405 200 1
16 201 1
95 201 1
137 201 1
346 201 1
377 201 1
406 201 1
17 202 1
96 202 1
138 202 1
347 202 1
378 202 1
407 202 1
18 203 1
85 203 1
139 203 1
348 203 1
379 203 1
408 203 1
19 204 1
86 204 1
140 204 1
337 204 1
380 204 1
397 204 1
32 205 1
99 205 1
117 205 1
350 205 1
393 205 1
410 205 1
33 206 1
100 206 1
118 206 1
351 206 1
394 206 1
411 206 1
34 207 1
101 207 1
119 207 1
352 207 1
395 207 1
412 207 1
35 208 1
102 208 1
120 208 1
353 208 1
396 208 1
413 208 1
36 209 1
103 209 1
109 209 1
354 209 1
385 209 1
414 209 1
25 210 1
104 210 1
110 210 1
355 210 1
386 210 1
415 210 1
26 211 1
105 211 1
111 211 1
356 211 1
387 211 1
416 211 1
27 212 1
106 212 1
112 212 1
357 212 1
388 212 1
417 212 1
28 213 1
107 213 1
113 213 1
358 213 1
389 213 1
418 213 1
29 214 1
108 214 1
114 214 1
359 214 1
390 214 1
419 214 1
30 215 1
97 215 1
115 215 1
360 215 1
391 215 1
420 215 1
31 216 1
98 216 1
116 216 1
349 216 1
392 216 1
409 216 1
21 217 1
39 217 1
116 217 1
314 217 1
333 217 1
362 217 1
22 218 1
40 218 1
117 218 1
315 218 1
334 218 1
363 218 1
23 219 1
41 219 1
118 219 1
316 219 1
335 219 1
364 219 1
24 220 1
42 220 1
119 220 1
317 220 1
336 220 1
365 220 1
13 221 1
43 221 1
120 221 1
318 221 1
325 221 1
366 221 1
14 222 1
44 222 1
109 222 1
319 222 1
326 222 1
367 222 1
15 223 1
45 223 1
110 223 1
320 223 1
327 223 1
368 223 1
16 224 1
46 224 1
111 224 1
321 224 1
328 224 1
369 224 1
17 225 1
47 225 1
112 225 1
322 225 1
329 225 1
370 225 1
18 226 1
48 226 1
113 226 1
323 226 1
330 226 1
371 226 1
19 227 1
37 227 1
114 227 1
324 227 1
331 227 1
372 227 1
20 228 1
38 228 1
115 228 1
313 228 1
332 228 1
361 228 1
33 229 1
51 229 1
128 229 1
290 229 1
345 229 1
374 229 1
34 230 1
52 230 1
129 230 1
291 230 1
346 230 1
375 230 1
35 231 1
53 231 1
130 231 1
292 231 1
347 231 1
376 231 1
36 232 1
54 232 1
131 232 1
293 232 1
348 232 1
377 232 1
25 233 1
55 233 1
132 233 1
294 233 1
337 233 1
378 233 1
26 234 1
56 234 1
121 234 1
295 234 1
338 234 1
379 234 1
27 235 1
57 235 1
122 235 1
296 235 1
339 235 1
380 235 1
28 236 1
58 236 1
123 236 1
297 236 1
340 236 1
381 236 1
29 237 1
59 237 1
124 237 1
298 237 1
341 237 1
382 237 1
30 238 1
60 238 1
125 238 1
299 238 1
342 238 1
383 238 1
31 239 1
49 239 1
126 239 1
300 239 1
343 239 1
384 239 1
32 240 1
50 240 1
127 240 1
289 240 1
344 240 1
373 240 1
9 241 1
63 241 1
140 241 1
302 241 1
357 241 1
386 241 1
10 242 1
64 242 1
141 242 1
303 242 1
358 242 1
387 242 1
11 243 1
65 243 1
142 243 1
304 243 1
359 243 1
388 243 1
12 244 1
66 244 1
143 244 1
305 244 1
360 244 1
389 244 1
1 245 1
67 245 1
144 245 1
306 245 1
349 245 1
390 245 1
2 246 1
68 246 1
133 246 1
307 246 1
350 246 1
391 246 1
3 247 1
69 247 1
134 247 1
308 247 1
351 247 1
392 247 1
4 248 1
70 248 1
135 248 1
309 248 1
352 248 1
393 248 1
5 249 1
71 249 1
136 249 1
310 249 1
353 249 1
394 249 1
6 250 1
72 250 1
137 250 1
311 250 1
354 250 1
395 250 1
7 251 1
61 251 1
138 251 1
312 251 1
355 251 1
396 251 1
8 252 1
62 252 1
139 252 1
301 252 1
356 252 1
385 252 1
3 253 1
57 253 1
80 253 1
297 253 1
350 253 1
398 253 1
4 254 1
58 254 1
81 254 1
298 254 1
351 254 1
399 254 1
5 255 1
59 255 1
82 255 1
299 255 1
352 255 1
400 255 1
6 256 1
60 256 1
83 256 1
300 256 1
353 256 1
401 256 1
7 257 1
49 257 1
84 257 1
289 257 1
354 257 1
402 257 1
8 258 1
50 258 1
73 258 1
290 258 1
355 258 1
403 258 1
9 259 1
51 259 1
74 259 1
291 259 1
356 259 1
404 259 1
10 260 1
52 260 1
75 260 1
292 260 1
357 260 1
405 260 1
11 261 1
53 261 1
76 261 1
293 261 1
358 261 1
406 261 1
12 262 1
54 262 1
77 262 1
294 262 1
359 262 1
407 262 1
1 263 1
55 263 1
78 263 1
295 263 1
360 263 1
408 263 1
2 264 1
56 264 1
79 264 1
296 264 1
349 264 1
397 264 1
15 265 1
69 265 1
92 265 1
309 265 1
326 265 1
410 265 1
16 266 1
70 266 1
93 266 1
310 266 1
327 266 1
411 266 1
17 267 1
71 267 1
94 267 1
311 267 1
328 267 1
412 267 1
18 268 1
72 268 1
95 268 1
312 268 1
329 268 1
413 268 1
19 269 1
61 269 1
96 269 1
301 269 1
330 269 1
414 269 1
20 270 1
62 270 1
85 270 1
302 270 1
331 270 1
415 270 1
21 271 1
63 271 1
86 271 1
303 271 1
332 271 1
416 271 1
22 272 1
64 272 1
87 272 1
304 272 1
333 272 1
417 272 1
23 273 1
65 273 1
88 273 1
305 273 1
334 273 1
418 273 1
24 274 1
66 274 1
89 274 1
306 274 1
335 274 1
419 274 1
13 275 1
67 275 1
90 275 1
307 275 1
336 275 1
420 275 1
14 276 1
68 276 1
91 276 1
308 276 1
325 276 1
409 276 1
27 277 1
45 277 1
104 277 1
321 277 1
338 277 1
422 277 1
28 278 1
46 278 1
105 278 1
322 278 1
339 278 1
423 278 1
29 279 1
47 279 1
106 279 1
323 279 1
340 279 1
424 279 1
30 280 1
48 280 1
107 280 1
324 280 1
341 280 1
425 280 1
31 281 1
37 281 1
108 281 1
313 281 1
342 281 1
426 281 1
32 282 1
38 282 1
97 282 1
314 282 1
343 282 1
427 282 1
33 283 1
39 283 1
98 283 1
315 283 1
344 283 1
428 283 1
34 284 1
40 284 1
99 284 1
316 284 1
345 284 1
429 284 1
35 285 1
41 285 1
100 285 1
317 285 1
346 285 1
430 285 1
36 286 1
42 286 1
101 286 1
318 286 1
347 286 1
431 286 1
25 287 1
43 287 1
102 287 1
319 287 1
348 287 1
432 287 1
26 288 1
44 288 1
103 288 1
320 288 1
337 288 1
421 288 1
188 289 1
237 289 1
255 289 1
318 289 1
388 289 1
428 289 1
189 290 1
238 290 1
256 290 1
319 290 1
389 290 1
429 290 1
190 291 1
239 291 1
257 291 1
320 291 1
390 291 1
430 291 1
191 292 1
240 292 1
258 292 1
321 292 1
391 292 1
431 292 1
192 293 1
229 293 1
259 293 1
322 293 1
392 293 1
432 293 1
181 294 1
230 294 1
260 294 1
323 294 1
393 294 1
421 294 1
182 295 1
231 295 1
261 295 1
324 295 1
394 295 1
422 295 1
183 296 1
232 296 1
262 296 1
313 296 1
395 296 1
423 296 1
184 297 1
233 297 1
263 297 1
314 297 1
396 297 1
424 297 1
185 298 1
234 298 1
264 298 1
315 298 1
385 298 1
425 298 1
186 299 1
235 299 1
253 299 1
316 299 1
386 299 1
426 299 1
187 300 1
236 300 1
254 300 1
317 300 1
387 300 1
427 300 1
200 301 1
249 301 1
267 301 1
294 301 1
364 301 1
404 301 1
201 302 1
250 302 1
268 302 1
295 302 1
365 302 1
405 302 1
202 303 1
251 303 1
269 303 1
296 303 1
366 303 1
406 303 1
203 304 1
252 304 1
270 304 1
297 304 1
367 304 1
407 304 1
204 305 1
241 305 1
271 305 1
298 305 1
368 305 1
408 305 1
193 306 1
242 306 1
272 306 1
299 306 1
369 306 1
397 306 1
194 307 1
243 307 1
273 307 1
300 307 1
370 307 1
398 307 1
195 308 1
244 308 1
274 308 1
289 308 1
371 308 1
399 308 1
196 309 1
245 309 1
275 309 1
290 309 1
372 309 1
400 309 1
197 310 1
246 310 1
276 310 1
291 310 1
361 310 1
401 310 1
198 311 1
247 311 1
265 311 1
292 311 1
362 311 1
402 311 1
199 312 1
248 312 1
266 312 1
293 312 1
363 312 1
403 312 1
212 313 1
225 313 1
279 313 1
306 313 1
376 313 1
416 313 1
213 314 1
226 314 1
280 314 1
307 314 1
377 314 1
417 314 1
214 315 1
227 315 1
281 315 1
308 315 1
378 315 1
418 315 1
215 316 1
228 316 1
282 316 1
309 316 1
379 316 1
419 316 1
216 317 1
217 317 1
283 317 1
310 317 1
380 317 1
420 317 1
205 318 1
218 318 1
284 318 1
311 318 1
381 318 1
409 318 1
206 319 1
219 319 1
285 319 1
312 319 1
382 319 1
410 319 1
207 320 1
220 320 1
286 320 1
301 320 1
383 320 1
411 320 1
208 321 1
221 321 1
287 321 1
302 321 1
384 321 1
412 321 1
209 322 1
222 322 1
288 322 1
303 322 1
373 322 1
413 322 1
210 323 1
223 323 1
277 323 1
304 323 1
374 323 1
414 323 1
211 324 1
224 324 1
278 324 1
305 324 1
375 324 1
415 324 1
152 325 1
219 325 1
273 325 1
354 325 1
392 325 1
424 325 1
153 326 1
220 326 1
274 326 1
355 326 1
393 326 1
425 326 1
154 327 1
221 327 1
275 327 1
356 327 1
394 327 1
426 327 1
155 328 1
222 328 1
276 328 1
357 328 1
395 328 1
427 328 1
156 329 1
223 329 1
265 329 1
358 329 1
396 329 1
428 329 1
145 330 1
224 330 1
266 330 1
359 330 1
385 330 1
429 330 1
146 331 1
225 331 1
267 331 1
360 331 1
386 331 1
430 331 1
147 332 1
226 332 1
268 332 1
349 332 1
387 332 1
431 332 1
148 333 1
227 333 1
269 333 1
350 333 1
388 333 1
432 333 1
149 334 1
228 334 1
270 334 1
351 334 1
389 334 1
421 334 1
150 335 1
217 335 1
271 335 1
352 335 1
390 335 1
422 335 1
151 336 1
218 336 1
272 336 1
353 336 1
391 336 1
423 336 1
164 337 1
231 337 1
285 337 1
330 337 1
368 337 1
400 337 1
165 338 1
232 338 1
286 338 1
331 338 1
369 338 1
401 338 1
166 339 1
233 339 1
287 339 1
332 339 1
370 339 1
402 339 1
167 340 1
234 340 1
288 340 1
333 340 1
371 340 1
403 340 1
168 341 1
235 341 1
277 341 1
334 341 1
372 341 1
404 341 1
157 342 1
236 342 1
278 342 1
335 342 1
361 342 1
405 342 1
158 343 1
237 343 1
279 343 1
336 343 1
362 343 1
406 343 1
159 344 1
238 344 1
280 344 1
325 344 1
363 344 1
407 344 1
160 345 1
239 345 1
281 345 1
326 345 1
364 345 1
408 345 1
161 346 1
240 346 1
282 346 1
327 346 1
365 346 1
397 346 1
162 347 1
229 347 1
283 347 1
328 347 1
366 347 1
398 347 1
163 348 1
230 348 1
284 348 1
329 348 1
367 348 1
399 348 1
176 349 1
243 349 1
261 349 1
342 349 1
380 349 1
412 349 1
177 350 1
244 350 1
262 350 1
343 350 1
381 350 1
413 350 1
178 351 1
245 351 1
263 351 1
344 351 1
382 351 1
414 351 1
179 352 1
246 352 1
264 352 1
345 352 1
383 352 1
415 352 1
180 353 1
247 353 1
253 353 1
346 353 1
384 353 1
416 353 1
169 354 1
248 354 1
254 354 1
347 354 1
373 354 1
417 354 1
170 355 1
249 355 1
255 355 1
348 355 1
374 355 1
418 355 1
171 356 1
250 356 1
256 356 1
337 356 1
375 356 1
419 356 1
172 357 1
251 357 1
257 357 1
338 357 1
376 357 1
420 357 1
173 358 1
252 358 1
258 358 1
339 358 1
377 358 1
409 358 1
174 359 1
241 359 1
259 359 1
340 359 1
378 359 1
410 359 1
175 360 1
242 360 1
260 360 1
341 360 1
379 360 1
411 360 1
165 361 1
183 361 1
260 361 1
316 361 1
356 361 1
390 361 1
166 362 1
184 362 1
261 362 1
317 362 1
357 362 1
391 362 1
167 363 1
185 363 1
262 363 1
318 363 1
358 363 1
392 363 1
168 364 1
186 364 1
263 364 1
319 364 1
359 364 1
393 364 1
157 365 1
187 365 1
264 365 1
320 365 1
360 365 1
394 365 1
158 366 1
188 366 1
253 366 1
321 366 1
349 366 1
395 366 1
159 367 1
189 367 1
254 367 1
322 367 1
350 367 1
396 367 1
160 368 1
190 368 1
255 368 1
323 368 1
351 368 1
385 368 1
161 369 1
191 369 1
256 369 1
324 369 1
352 369 1
386 369 1
162 370 1
192 370 1
257 370 1
313 370 1
353 370 1
387 370 1
163 371 1
181 371 1
258 371 1
314 371 1
354 371 1
388 371 1
164 372 1
182 372 1
259 372 1
315 372 1
355 372 1
389 372 1
177 373 1
195 373 1
272 373 1
292 373 1
332 373 1
366 373 1
178 374 1
196 374 1
273 374 1
293 374 1
333 374 1
367 374 1
179 375 1
197 375 1
274 375 1
294 375 1
334 375 1
368 375 1
180 376 1
198 376 1
275 376 1
295 376 1
335 376 1
369 376 1
169 377 1
199 377 1
276 377 1
296 377 1
336 377 1
370 377 1
170 378 1
200 378 1
265 378 1
297 378 1
325 378 1
371 378 1
171 379 1
201 379 1
266 379 1
298 379 1
326 379 1
372 379 1
172 380 1
202 380 1
267 380 1
299 380 1
327 380 1
361 380 1
173 381 1
203 381 1
268 381 1
300 381 1
328 381 1
362 381 1
174 382 1
204 382 1
269 382 1
289 382 1
329 382 1
363 382 1
175 383 1
193 383 1
270 383 1
290 383 1
330 383 1
364 383 1
176 384 1
194 384 1
271 384 1
291 384 1
331 384 1
365 384 1
153 385 1
207 385 1
284 385 1
304 385 1
344 385 1
378 385 1
154 386 1
208 386 1
285 386 1
305 386 1
345 386 1
379 386 1
155 387 1
209 387 1
286 387 1
306 387 1
346 387 1
380 387 1
156 388 1
210 388 1
287 388 1
307 388 1
347 388 1
381 388 1
145 389 1
211 389 1
288 389 1
308 389 1
348 389 1
382 389 1
146 390 1
212 390 1
277 390 1
309 390 1
337 390 1
383 390 1
147 391 1
213 391 1
278 391 1
310 391 1
338 391 1
384 391 1
148 392 1
214 392 1
279 392 1
311 392 1
339 392 1
373 392 1
149 393 1
215 393 1
280 393 1
312 393 1
340 393 1
374 393 1
150 394 1
216 394 1
281 394 1
301 394 1
341 394 1
375 394 1
151 395 1
205 395 1
282 395 1
302 395 1
342 395 1
376 395 1
152 396 1
206 396 1
283 396 1
303 396 1
343 396 1
377 396 1
147 397 1
201 397 1
224 397 1
320 397 1
352 397 1
426 397 1
148 398 1
202 398 1
225 398 1
321 398 1
353 398 1
427 398 1
149 399 1
203 399 1
226 399 1
322 399 1
354 399 1
428 399 1
150 400 1
204 400 1
227 400 1
323 400 1
355 400 1
429 400 1
151 401 1
193 401 1
228 401 1
324 401 1
356 401 1
430 401 1
152 402 1
194 402 1
217 402 1
313 402 1
357 402 1
431 402 1
153 403 1
195 403 1
218 403 1
314 403 1
358 403 1
432 403 1
154 404 1
196 404 1
219 404 1
315 404 1
359 404 1
421 404 1
155 405 1
197 405 1
220 405 1
316 405 1
360 405 1
422 405 1
156 406 1
198 406 1
221 406 1
317 406 1
349 406 1
423 406 1
145 407 1
199 407 1
222 407 1
318 407 1
350 407 1
424 407 1
146 408 1
200 408 1
223 408 1
319 408 1
351 408 1
425 408 1
159 409 1
213 409 1
236 409 1
296 409 1
328 409 1
402 409 1
160 410 1
214 410 1
237 410 1
297 410 1
329 410 1
403 410 1
161 411 1
215 411 1
238 411 1
298 411 1
330 411 1
404 411 1
162 412 1
216 412 1
239 412 1
299 412 1
331 412 1
405 412 1
163 413 1
205 413 1
240 413 1
300 413 1
332 413 1
406 413 1
164 414 1
206 414 1
229 414 1
289 414 1
333 414 1
407 414 1
165 415 1
207 415 1
230 415 1
290 415 1
334 415 1
408 415 1
166 416 1
208 416 1
231 416 1
291 416 1
335 416 1
397 416 1
167 417 1
209 417 1
232 417 1
292 417 1
336 417 1
398 417 1
168 418 1
210 418 1
233 418 1
293 418 1
325 418 1
399 418 1
157 419 1
211 419 1
234 419 1
294 419 1
326 419 1
400 419 1
158 420 1
212 420 1
235 420 1
295 420 1
327 420 1
401 420 1
171 421 1
189 421 1
248 421 1
308 421 1
340 421 1
414 421 1
172 422 1
190 422 1
249 422 1
309 422 1
341 422 1
415 422 1
173 423 1
191 423 1
250 423 1
310 423 1
342 423 1
416 423 1
174 424 1
192 424 1
251 424 1
311 424 1
343 424 1
417 424 1
175 425 1
181 425 1
252 425 1
312 425 1
344 425 1
418 425 1
176 426 1
182 426 1
241 426 1
301 426 1
345 426 1
419 426 1
177 427 1
183 427 1
242 427 1
302 427 1
346 427 1
420 427 1
178 428 1
184 428 1
243 428 1
303 428 1
347 428 1
409 428 1
179 429 1
185 429 1
244 429 1
304 429 1
348 429 1
410 429 1
180 430 1
186 430 1
245 430 1
305 430 1
337 430 1
411 430 1
169 431 1
187 431 1
246 431 1
306 431 1
338 431 1
412 431 1
170 432 1
188 432 1
247 432 1
307 432 1
339 432 1
413 432 1
10 433 1
38 433 1
92 433 1
434 433 1
530 433 1
549 433 1
11 434 1
39 434 1
93 434 1
435 434 1
531 434 1
550 434 1
12 435 1
40 435 1
94 435 1
436 435 1
532 435 1
551 435 1
1 436 1
41 436 1
95 436 1
437 436 1
533 436 1
552 436 1
2 437 1
42 437 1
96 437 1
438 437 1
534 437 1
541 437 1
3 438 1
43 438 1
85 438 1
439 438 1
535 438 1
542 438 1
4 439 1
44 439 1
86 439 1
440 439 1
536 439 1
543 439 1
5 440 1
45 440 1
87 440 1
441 440 1
537 440 1
544 440 1
6 441 1
46 441 1
88 441 1
442 441 1
538 441 1
545 441 1
7 442 1
47 442 1
89 442 1
443 442 1
539 442 1
546 442 1
8 443 1
48 443 1
90 443 1
444 443 1
540 443 1
547 443 1
9 444 1
37 444 1
91 444 1
433 444 1
529 444 1
548 444 1
22 445 1
50 445 1
104 445 1
446 445 1
506 445 1
561 445 1
23 446 1
51 446 1
105 446 1
447 446 1
507 446 1
562 446 1
24 447 1
52 447 1
106 447 1
448 447 1
508 447 1
563 447 1
13 448 1
53 448 1
107 448 1
449 448 1
509 448 1
564 448 1
14 449 1
54 449 1
108 449 1
450 449 1
510 449 1
553 449 1
15 450 1
55 450 1
97 450 1
451 450 1
511 450 1
554 450 1
16 451 1
56 451 1
98 451 1
452 451 1
512 451 1
555 451 1
17 452 1
57 452 1
99 452 1
453 452 1
513 452 1
556 452 1
18 453 1
58 453 1
100 453 1
454 453 1
514 453 1
557 453 1
19 454 1
59 454 1
101 454 1
455 454 1
515 454 1
558 454 1
20 455 1
60 455 1
102 455 1
456 455 1
516 455 1
559 455 1
21 456 1
49 456 1
103 456 1
445 456 1
505 456 1
560 456 1
34 457 1
62 457 1
80 457 1
458 457 1
518 457 1
573 457 1
35 458 1
63 458 1
81 458 1
459 458 1
519 458 1
574 458 1
36 459 1
64 459 1
82 459 1
460 459 1
520 459 1
575 459 1
25 460 1
65 460 1
83 460 1
461 460 1
521 460 1
576 460 1
26 461 1
66 461 1
84 461 1
462 461 1
522 461 1
565 461 1
27 462 1
67 462 1
73 462 1
463 462 1
523 462 1
566 462 1
28 463 1
68 463 1
74 463 1
464 463 1
524 463 1
567 463 1
29 464 1
69 464 1
75 464 1
465 464 1
525 464 1
568 464 1
30 465 1
70 465 1
76 465 1
466 465 1
526 465 1
569 465 1
31 466 1
71 466 1
77 466 1
467 466 1
527 466 1
570 466 1
32 467 1
72 467 1
78 467 1
468 467 1
528 467 1
571 467 1
33 468 1
61 468 1
79 468 1
457 468 1
517 468 1
572 468 1
2 469 1
46 469 1
128 469 1
470 469 1
513 469 1
566 469 1
3 470 1
47 470 1
129 470 1
471 470 1
514 470 1
567 470 1
4 471 1
48 471 1
130 471 1
472 471 1
515 471 1
568 471 1
5 472 1
37 472 1
131 472 1
473 472 1
516 472 1
569 472 1
6 473 1
38 473 1
132 473 1
474 473 1
505 473 1
570 473 1
7 474 1
39 474 1
121 474 1
475 474 1
506 474 1
571 474 1
8 475 1
40 475 1
122 475 1
476 475 1
507 475 1
572 475 1
9 476 1
41 476 1
123 476 1
477 476 1
508 476 1
573 476 1
10 477 1
42 477 1
124 477 1
478 477 1
509 477 1
574 477 1
11 478 1
43 478 1
125 478 1
479 478 1
510 478 1
575 478 1
12 479 1
44 479 1
126 479 1
480 479 1
511 479 1
576 479 1
1 480 1
45 480 1
127 480 1
469 480 1
512 480 1
565 480 1
14 481 1
58 481 1
140 481 1
482 481 1
525 481 1
542 481 1
15 482 1
59 482 1
141 482 1
483 482 1
526 482 1
543 482 1
16 483 1
60 483 1
142 483 1
484 483 1
527 483 1
544 483 1
17 484 1
49 484 1
143 484 1
485 484 1
528 484 1
545 484 1
18 485 1
50 485 1
144 485 1
486 485 1
517 485 1
546 485 1
19 486 1
51 486 1
133 486 1
487 486 1
518 486 1
547 486 1
20 487 1
52 487 1
134 487 1
488 487 1
519 487 1
548 487 1
21 488 1
53 488 1
135 488 1
489 488 1
520 488 1
549 488 1
22 489 1
54 489 1
136 489 1
490 489 1
521 489 1
550 489 1
23 490 1
55 490 1
137 490 1
491 490 1
522 490 1
551 490 1
24 491 1
56 491 1
138 491 1
492 491 1
523 491 1
552 491 1
13 492 1
57 492 1
139 492 1
481 492 1
524 492 1
541 492 1
26 493 1
70 493 1
116 493 1
494 493 1
537 493 1
554 493 1
27 494 1
71 494 1
117 494 1
495 494 1
538 494 1
555 494 1
28 495 1
72 495 1
118 495 1
496 495 1
539 495 1
556 495 1
29 496 1
61 496 1
119 496 1
497 496 1
540 496 1
557 496 1
30 497 1
62 497 1
120 497 1
498 497 1
529 497 1
558 497 1
31 498 1
63 498 1
109 498 1
499 498 1
530 498 1
559 498 1
32 499 1
64 499 1
110 499 1
500 499 1
531 499 1
560 499 1
33 500 1
65 500 1
111 500 1
501 500 1
532 500 1
561 500 1
34 501 1
66 501 1
112 501 1
502 501 1
533 501 1
562 501 1
35 502 1
67 502 1
113 502 1
503 502 1
534 502 1
563 502 1
36 503 1
68 503 1
114 503 1
504 503 1
535 503 1
564 503 1
25 504 1
69 504 1
115 504 1
493 504 1
536 504 1
553 504 1
20 505 1
82 505 1
110 505 1
458 505 1
477 505 1
506 505 1
21 506 1
83 506 1
111 506 1
459 506 1
478 506 1
507 506 1
22 507 1
84 507 1
112 507 1
460 507 1
479 507 1
508 507 1
23 508 1
73 508 1
113 508 1
461 508 1
480 508 1
509 508 1
24 509 1
74 509 1
114 509 1
462 509 1
469 509 1
510 509 1
13 510 1
75 510 1
115 510 1
463 510 1
470 510 1
511 510 1
14 511 1
76 511 1
116 511 1
464 511 1
471 511 1
512 511 1
15 512 1
77 512 1
117 512 1
465 512 1
472 512 1
513 512 1
16 513 1
78 513 1
118 513 1
466 513 1
473 513 1
514 513 1
17 514 1
79 514 1
119 514 1
467 514 1
474 514 1
515 514 1
18 515 1
80 515 1
120 515 1
468 515 1
475 515 1
516 515 1
19 516 1
81 516 1
109 516 1
457 516 1
476 516 1
505 516 1
32 517 1
94 517 1
122 517 1
434 517 1
489 517 1
518 517 1
33 518 1
95 518 1
123 518 1
435 518 1
490 518 1
519 518 1
34 519 1
96 519 1
124 519 1
436 519 1
491 519 1
520 519 1
35 520 1
85 520 1
125 520 1
437 520 1
492 520 1
521 520 1
36 521 1
86 521 1
126 521 1
438 521 1
481 521 1
522 521 1
25 522 1
87 522 1
127 522 1
439 522 1
482 522 1
523 522 1
26 523 1
88 523 1
128 523 1
440 523 1
483 523 1
524 523 1
27 524 1
89 524 1
129 524 1
441 524 1
484 524 1
525 524 1
28 525 1
90 525 1
130 525 1
442 525 1
485 525 1
526 525 1
29 526 1
91 526 1
131 526 1
443 526 1
486 526 1
527 526 1
30 527 1
92 527 1
132 527 1
444 527 1
487 527 1
528 527 1
31 528 1
93 528 1
121 528 1
433 528 1
488 528 1
517 528 1
8 529 1
106 529 1
134 529 1
446 529 1
501 529 1
530 529 1
9 530 1
107 530 1
135 530 1
447 530 1
502 530 1
531 530 1
10 531 1
108 531 1
136 531 1
448 531 1
503 531 1
532 531 1
11 532 1
97 532 1
137 532 1
449 532 1
504 532 1
533 532 1
12 533 1
98 533 1
138 533 1
450 533 1
493 533 1
534 533 1
1 534 1
99 534 1
139 534 1
451 534 1
494 534 1
535 534 1
2 535 1
100 535 1
140 535 1
452 535 1
495 535 1
536 535 1
3 536 1
101 536 1
141 536 1
453 536 1
496 536 1
537 536 1
4 537 1
102 537 1
142 537 1
454 537 1
497 537 1
538 537 1
5 538 1
103 538 1
143 538 1
455 538 1
498 538 1
539 538 1
6 539 1
104 539 1
144 539 1
456 539 1
499 539 1
540 539 1
7 540 1
105 540 1
133 540 1
445 540 1
500 540 1
529 540 1
56 541 1
74 541 1
118 541 1
441 541 1
494 541 1
542 541 1
57 542 1
75 542 1
119 542 1
442 542 1
495 542 1
543 542 1
58 543 1
76 543 1
120 543 1
443 543 1
496 543 1
544 543 1
59 544 1
77 544 1
109 544 1
444 544 1
497 544 1
545 544 1
60 545 1
78 545 1
110 545 1
433 545 1
498 545 1
546 545 1
49 546 1
79 546 1
111 546 1
434 546 1
499 546 1
547 546 1
50 547 1
80 547 1
112 547 1
435 547 1
500 547 1
548 547 1
51 548 1
81 548 1
113 548 1
436 548 1
501 548 1
549 548 1
52 549 1
82 549 1
114 549 1
437 549 1
502 549 1
550 549 1
53 550 1
83 550 1
115 550 1
438 550 1
503 550 1
551 550 1
54 551 1
84 551 1
116 551 1
439 551 1
504 551 1
552 551 1
55 552 1
73 552 1
117 552 1
440 552 1
493 552 1
541 552 1
68 553 1
86 553 1
130 553 1
453 553 1
470 553 1
554 553 1
69 554 1
87 554 1
131 554 1
454 554 1
471 554 1
555 554 1
70 555 1
88 555 1
132 555 1
455 555 1
472 555 1
556 555 1
71 556 1
89 556 1
121 556 1
456 556 1
473 556 1
557 556 1
72 557 1
90 557 1
122 557 1
445 557 1
474 557 1
558 557 1
61 558 1
91 558 1
123 558 1
446 558 1
475 558 1
559 558 1
62 559 1
92 559 1
124 559 1
447 559 1
476 559 1
560 559 1
63 560 1
93 560 1
125 560 1
448 560 1
477 560 1
561 560 1
64 561 1
94 561 1
126 561 1
449 561 1
478 561 1
562 561 1
65 562 1
95 562 1
127 562 1
450 562 1
479 562 1
563 562 1
66 563 1
96 563 1
128 563 1
451 563 1
480 563 1
564 563 1
67 564 1
85 564 1
129 564 1
452 564 1
469 564 1
553 564 1
44 565 1
98 565 1
142 565 1
465 565 1
482 565 1
566 565 1
45 566 1
99 566 1
143 566 1
466 566 1
483 566 1
567 566 1
46 567 1
100 567 1
144 567 1
467 567 1
484 567 1
568 567 1
47 568 1
101 568 1
133 568 1
468 568 1
485 568 1
569 568 1
48 569 1
102 569 1
134 569 1
457 569 1
486 569 1
570 569 1
37 570 1
103 570 1
135 570 1
458 570 1
487 570 1
571 570 1
38 571 1
104 571 1
136 571 1
459 571 1
488 571 1
572 571 1
39 572 1
105 572 1
137 572 1
460 572 1
489 572 1
573 572 1
40 573 1
106 573 1
138 573 1
461 573 1
490 573 1
574 573 1
41 574 1
107 574 1
139 574 1
462 574 1
491 574 1
575 574 1
42 575 1
108 575 1
140 575 1
463 575 1
492 575 1
576 575 1
43 576 1
97 576 1
141 576 1
464 576 1
481 576 1
565 576 1
154 577 1
182 577 1
236 577 1
462 577 1
532 577 1
572 577 1
155 578 1
183 578 1
237 578 1
463 578 1
533 578 1
573 578 1
156 579 1
184 579 1
238 579 1
464 579 1
534 579 1
574 579 1
145 580 1
185 580 1
239 580 1
465 580 1
535 580 1
575 580 1
146 581 1
186 581 1
240 581 1
466 581 1
536 581 1
576 581 1
147 582 1
187 582 1
229 582 1
467 582 1
537 582 1
565 582 1
148 583 1
188 583 1
230 583 1
468 583 1
538 583 1
566 583 1
149 584 1
189 584 1
231 584 1
457 584 1
539 584 1
567 584 1
150 585 1
190 585 1
232 585 1
458 585 1
540 585 1
568 585 1
151 586 1
191 586 1
233 586 1
459 586 1
529 586 1
569 586 1
152 587 1
192 587 1
234 587 1
460 587 1
530 587 1
570 587 1
153 588 1
181 588 1
235 588 1
461 588 1
531 588 1
571 588 1
166 589 1
194 589 1
248 589 1
438 589 1
508 589 1
548 589 1
167 590 1
195 590 1
249 590 1
439 590 1
509 590 1
549 590 1
168 591 1
196 591 1
250 591 1
440 591 1
510 591 1
550 591 1
157 592 1
197 592 1
251 592 1
441 592 1
511 592 1
551 592 1
158 593 1
198 593 1
252 593 1
442 593 1
512 593 1
552 593 1
159 594 1
199 594 1
241 594 1
443 594 1
513 594 1
541 594 1
160 595 1
200 595 1
242 595 1
444 595 1
514 595 1
542 595 1
161 596 1
201 596 1
243 596 1
433 596 1
515 596 1
543 596 1
162 597 1
202 597 1
244 597 1
434 597 1
516 597 1
544 597 1
163 598 1
203 598 1
245 598 1
435 598 1
505 598 1
545 598 1
164 599 1
204 599 1
246 599 1
436 599 1
506 599 1
546 599 1
165 600 1
193 600 1
247 600 1
437 600 1
507 600 1
547 600 1
178 601 1
206 601 1
224 601 1
450 601 1
520 601 1
560 601 1
179 602 1
207 602 1
225 602 1
451 602 1
521 602 1
561 602 1
180 603 1
208 603 1
226 603 1
452 603 1
522 603 1
562 603 1
169 604 1
209 604 1
227 604 1
453 604 1
523 604 1
563 604 1
170 605 1
210 605 1
228 605 1
454 605 1
524 605 1
564 605 1
171 606 1
211 606 1
217 606 1
455 606 1
525 606 1
553 606 1
172 607 1
212 607 1
218 607 1
456 607 1
526 607 1
554 607 1
173 608 1
213 608 1
219 608 1
445 608 1
527 608 1
555 608 1
174 609 1
214 609 1
220 609 1
446 609 1
528 609 1
556 609 1
175 610 1
215 610 1
221 610 1
447 610 1
517 610 1
557 610 1
176 611 1
216 611 1
222 611 1
448 611 1
518 611 1
558 611 1
177 612 1
205 612 1
223 612 1
449 612 1
519 612 1
559 612 1
146 613 1
190 613 1
272 613 1
498 613 1
536 613 1
568 613 1
147 614 1
191 614 1
273 614 1
499 614 1
537 614 1
569 614 1
148 615 1
192 615 1
274 615 1
500 615 1
538 615 1
570 615 1
149 616 1
181 616 1
275 616 1
501 616 1
539 616 1
571 616 1
150 617 1
182 617 1
276 617 1
502 617 1
540 617 1
572 617 1
151 618 1
183 618 1
265 618 1
503 618 1
529 618 1
573 618 1
152 619 1
184 619 1
266 619 1
504 619 1
530 619 1
574 619 1
153 620 1
185 620 1
267 620 1
493 620 1
531 620 1
575 620 1
154 621 1
186 621 1
268 621 1
494 621 1
532 621 1
576 621 1
155 622 1
187 622 1
269 622 1
495 622 1
533 622 1
565 622 1
156 623 1
188 623 1
270 623 1
496 623 1
534 623 1
566 623 1
145 624 1
189 624 1
271 624 1
497 624 1
535 624 1
567 624 1
158 625 1
202 625 1
284 625 1
474 625 1
512 625 1
544 625 1
159 626 1
203 626 1
285 626 1
475 626 1
513 626 1
545 626 1
160 627 1
204 627 1
286 627 1
476 627 1
514 627 1
546 627 1
161 628 1
193 628 1
287 628 1
477 628 1
515 628 1
547 628 1
162 629 1
194 629 1
288 629 1
478 629 1
516 629 1
548 629 1
163 630 1
195 630 1
277 630 1
479 630 1
505 630 1
549 630 1
164 631 1
196 631 1
278 631 1
480 631 1
506 631 1
550 631 1
165 632 1
197 632 1
279 632 1
469 632 1
507 632 1
551 632 1
166 633 1
198 633 1
280 633 1
470 633 1
508 633 1
552 633 1
167 634 1
199 634 1
281 634 1
471 634 1
509 634 1
541 634 1
168 635 1
200 635 1
282 635 1
472 635 1
510 635 1
542 635 1
157 636 1
201 636 1
283 636 1
473 636 1
511 636 1
543 636 1
170 637 1
214 637 1
260 637 1
486 637 1
524 637 1
556 637 1
171 638 1
215 638 1
261 638 1
487 638 1
525 638 1
557 638 1
172 639 1
216 639 1
262 639 1
488 639 1
526 639 1
558 639 1
173 640 1
205 640 1
263 640 1
489 640 1
527 640 1
559 640 1
174 641 1
206 641 1
264 641 1
490 641 1
528 641 1
560 641 1
175 642 1
207 642 1
253 642 1
491 642 1
517 642 1
561 642 1
176 643 1
208 643 1
254 643 1
492 643 1
518 643 1
562 643 1
177 644 1
209 644 1
255 644 1
481 644 1
519 644 1
563 644 1
178 645 1
210 645 1
256 645 1
482 645 1
520 645 1
564 645 1
179 646 1
211 646 1
257 646 1
483 646 1
521 646 1
553 646 1
180 647 1
212 647 1
258 647 1
484 647 1
522 647 1
554 647 1
169 648 1
213 648 1
259 648 1
485 648 1
523 648 1
555 648 1
164 649 1
226 649 1
254 649 1
460 649 1
500 649 1
534 649 1
165 650 1
227 650 1
255 650 1
461 650 1
501 650 1
535 650 1
166 651 1
228 651 1
256 651 1
462 651 1
502 651 1
536 651 1
167 652 1
217 652 1
257 652 1
463 652 1
503 652 1
537 652 1
168 653 1
218 653 1
258 653 1
464 653 1
504 653 1
538 653 1
157 654 1
219 654 1
259 654 1
465 654 1
493 654 1
539 654 1
158 655 1
220 655 1
260 655 1
466 655 1
494 655 1
540 655 1
159 656 1
221 656 1
261 656 1
467 656 1
495 656 1
529 656 1
160 657 1
222 657 1
262 657 1
468 657 1
496 657 1
530 657 1
161 658 1
223 658 1
263 658 1
457 658 1
497 658 1
531 658 1
162 659 1
224 659 1
264 659 1
458 659 1
498 659 1
532 659 1
163 660 1
225 660 1
253 660 1
459 660 1
499 660 1
533 660 1
176 661 1
238 661 1
266 661 1
436 661 1
476 661 1
510 661 1
177 662 1
239 662 1
267 662 1
437 662 1
477 662 1
511 662 1
178 663 1
240 663 1
268 663 1
438 663 1
478 663 1
512 663 1
179 664 1
229 664 1
269 664 1
439 664 1
479 664 1
513 664 1
180 665 1
230 665 1
270 665 1
440 665 1
480 665 1
514 665 1
169 666 1
231 666 1
271 666 1
441 666 1
469 666 1
515 666 1
170 667 1
232 667 1
272 667 1
442 667 1
470 667 1
516 667 1
171 668 1
233 668 1
273 668 1
443 668 1
471 668 1
505 668 1
172 669 1
234 669 1
274 669 1
444 669 1
472 669 1
506 669 1
173 670 1
235 670 1
275 670 1
433 670 1
473 670 1
507 670 1
174 671 1
236 671 1
276 671 1
434 671 1
474 671 1
508 671 1
175 672 1
237 672 1
265 672 1
435 672 1
475 672 1
509 672 1
152 673 1
250 673 1
278 673 1
448 673 1
488 673 1
522 673 1
153 674 1
251 674 1
279 674 1
449 674 1
489 674 1
523 674 1
154 675 1
252 675 1
280 675 1
450 675 1
490 675 1
524 675 1
155 676 1
241 676 1
281 676 1
451 676 1
491 676 1
525 676 1
156 677 1
242 677 1
282 677 1
452 677 1
492 677 1
526 677 1
145 678 1
243 678 1
283 678 1
453 678 1
481 678 1
527 678 1
146 679 1
244 679 1
284 679 1
454 679 1
482 679 1
528 679 1
147 680 1
245 680 1
285 680 1
455 680 1
483 680 1
517 680 1
148 681 1
246 681 1
286 681 1
456 681 1
484 681 1
518 681 1
149 682 1
247 682 1
287 682 1
445 682 1
485 682 1
519 682 1
150 683 1
248 683 1
288 683 1
446 683 1
486 683 1
520 683 1
151 684 1
249 684 1
277 684 1
447 684 1
487 684 1
521 684 1
200 685 1
218 685 1
262 685 1
464 685 1
496 685 1
570 685 1
201 686 1
219 686 1
263 686 1
465 686 1
497 686 1
571 686 1
202 687 1
220 687 1
264 687 1
466 687 1
498 687 1
572 687 1
203 688 1
221 688 1
253 688 1
467 688 1
499 688 1
573 688 1
204 689 1
222 689 1
254 689 1
468 689 1
500 689 1
574 689 1
193 690 1
223 690 1
255 690 1
457 690 1
501 690 1
575 690 1
194 691 1
224 691 1
256 691 1
458 691 1
502 691 1
576 691 1
195 692 1
225 692 1
257 692 1
459 692 1
503 692 1
565 692 1
196 693 1
226 693 1
258 693 1
460 693 1
504 693 1
566 693 1
197 694 1
227 694 1
259 694 1
461 694 1
493 694 1
567 694 1
198 695 1
228 695 1
260 695 1
462 695 1
494 695 1
568 695 1
199 696 1
217 696 1
261 696 1
463 696 1
495 696 1
569 696 1
212 697 1
230 697 1
274 697 1
440 697 1
472 697 1
546 697 1
213 698 1
231 698 1
275 698 1
441 698 1
473 698 1
547 698 1
214 699 1
232 699 1
276 699 1
442 699 1
474 699 1
548 699 1
215 700 1
233 700 1
265 700 1
443 700 1
475 700 1
549 700 1
216 701 1
234 701 1
266 701 1
444 701 1
476 701 1
550 701 1
205 702 1
235 702 1
267 702 1
433 702 1
477 702 1
551 702 1
206 703 1
236 703 1
268 703 1
434 703 1
478 703 1
552 703 1
207 704 1
237 704 1
269 704 1
435 704 1
479 704 1
541 704 1
208 705 1
238 705 1
270 705 1
436 705 1
480 705 1
542 705 1
209 706 1
239 706 1
271 706 1
437 706 1
469 706 1
543 706 1
210 707 1
240 707 1
272 707 1
438 707 1
470 707 1
544 707 1
211 708 1
229 708 1
273 708 1
439 708 1
471 708 1
545 708 1
188 709 1
242 709 1
286 709 1
452 709 1
484 709 1
558 709 1
189 710 1
243 710 1
287 710 1
453 710 1
485 710 1
559 710 1
190 711 1
244 711 1
288 711 1
454 711 1
486 711 1
560 711 1
191 712 1
245 712 1
277 712 1
455 712 1
487 712 1
561 712 1
192 713 1
246 713 1
278 713 1
456 713 1
488 713 1
562 713 1
181 714 1
247 714 1
279 714 1
445 714 1
489 714 1
563 714 1
182 715 1
248 715 1
280 715 1
446 715 1
490 715 1
564 715 1
183 716 1
249 716 1
281 716 1
447 716 1
491 716 1
553 716 1
184 717 1
250 717 1
282 717 1
448 717 1
492 717 1
554 717 1
185 718 1
251 718 1
283 718 1
449 718 1
481 718 1
555 718 1
186 719 1
252 719 1
284 719 1
450 719 1
482 719 1
556 719 1
187 720 1
241 720 1
285 720 1
451 720 1
483 720 1
557 720 1
298 721 1
326 721 1
380 721 1
476 721 1
525 721 1
543 721 1
299 722 1
327 722 1
381 722 1
477 722 1
526 722 1
544 722 1
300 723 1
328 723 1
382 723 1
478 723 1
527 723 1
545 723 1
289 724 1
329 724 1
383 724 1
479 724 1
528 724 1
546 724 1
290 725 1
330 725 1
384 725 1
480 725 1
517 725 1
547 725 1
291 726 1
331 726 1
373 726 1
469 726 1
518 726 1
548 726 1
292 727 1
332 727 1
374 727 1
470 727 1
519 727 1
549 727 1
293 728 1
333 728 1
375 728 1
471 728 1
520 728 1
550 728 1
294 729 1
334 729 1
376 729 1
472 729 1
521 729 1
551 729 1
295 730 1
335 730 1
377 730 1
473 730 1
522 730 1
552 730 1
296 731 1
336 731 1
378 731 1
474 731 1
523 731 1
541 731 1
297 732 1
325 732 1
379 732 1
475 732 1
524 732 1
542 732 1
310 733 1
338 733 1
392 733 1
488 733 1
537 733 1
555 733 1
311 734 1
339 734 1
393 734 1
489 734 1
538 734 1
556 734 1
312 735 1
340 735 1
394 735 1
490 735 1
539 735 1
557 735 1
301 736 1
341 736 1
395 736 1
491 736 1
540 736 1
558 736 1
302 737 1
342 737 1
396 737 1
492 737 1
529 737 1
559 737 1
303 738 1
343 738 1
385 738 1
481 738 1
530 738 1
560 738 1
304 739 1
344 739 1
386 739 1
482 739 1
531 739 1
561 739 1
305 740 1
345 740 1
387 740 1
483 740 1
532 740 1
562 740 1
306 741 1
346 741 1
388 741 1
484 741 1
533 741 1
563 741 1
307 742 1
347 742 1
389 742 1
485 742 1
534 742 1
564 742 1
308 743 1
348 743 1
390 743 1
486 743 1
535 743 1
553 743 1
309 744 1
337 744 1
391 744 1
487 744 1
536 744 1
554 744 1
322 745 1
350 745 1
368 745 1
500 745 1
513 745 1
567 745 1
323 746 1
351 746 1
369 746 1
501 746 1
514 746 1
568 746 1
324 747 1
352 747 1
370 747 1
502 747 1
515 747 1
569 747 1
313 748 1
353 748 1
371 748 1
503 748 1
516 748 1
570 748 1
314 749 1
354 749 1
372 749 1
504 749 1
505 749 1
571 749 1
315 750 1
355 750 1
361 750 1
493 750 1
506 750 1
572 750 1
316 751 1
356 751 1
362 751 1
494 751 1
507 751 1
573 751 1
317 752 1
357 752 1
363 752 1
495 752 1
508 752 1
574 752 1
318 753 1
358 753 1
364 753 1
496 753 1
509 753 1
575 753 1
319 754 1
359 754 1
365 754 1
497 754 1
510 754 1
576 754 1
320 755 1
360 755 1
366 755 1
498 755 1
511 755 1
565 755 1
321 756 1
349 756 1
367 756 1
499 756 1
512 756 1
566 756 1
290 757 1
334 757 1
416 757 1
440 757 1
507 757 1
561 757 1
291 758 1
335 758 1
417 758 1
441 758 1
508 758 1
562 758 1
292 759 1
336 759 1
418 759 1
442 759 1
509 759 1
563 759 1
293 760 1
325 760 1
419 760 1
443 760 1
510 760 1
564 760 1
294 761 1
326 761 1
420 761 1
444 761 1
511 761 1
553 761 1
295 762 1
327 762 1
409 762 1
433 762 1
512 762 1
554 762 1
296 763 1
328 763 1
410 763 1
434 763 1
513 763 1
555 763 1
297 764 1
329 764 1
411 764 1
435 764 1
514 764 1
556 764 1
298 765 1
330 765 1
412 765 1
436 765 1
515 765 1
557 765 1
299 766 1
331 766 1
413 766 1
437 766 1
516 766 1
558 766 1
300 767 1
332 767 1
414 767 1
438 767 1
505 767 1
559 767 1
289 768 1
333 768 1
415 768 1
439 768 1
506 768 1
560 768 1
302 769 1
346 769 1
428 769 1
452 769 1
519 769 1
573 769 1
303 770 1
347 770 1
429 770 1
453 770 1
520 770 1
574 770 1
304 771 1
348 771 1
430 771 1
454 771 1
521 771 1
575 771 1
305 772 1
337 772 1
431 772 1
455 772 1
522 772 1
576 772 1
306 773 1
338 773 1
432 773 1
456 773 1
523 773 1
565 773 1
307 774 1
339 774 1
421 774 1
445 774 1
524 774 1
566 774 1
308 775 1
340 775 1
422 775 1
446 775 1
525 775 1
567 775 1
309 776 1
341 776 1
423 776 1
447 776 1
526 776 1
568 776 1
310 777 1
342 777 1
424 777 1
448 777 1
527 777 1
569 777 1
311 778 1
343 778 1
425 778 1
449 778 1
528 778 1
570 778 1
312 779 1
344 779 1
426 779 1
450 779 1
517 779 1
571 779 1
301 780 1
345 780 1
427 780 1
451 780 1
518 780 1
572 780 1
314 781 1
358 781 1
404 781 1
464 781 1
531 781 1
549 781 1
315 782 1
359 782 1
405 782 1
465 782 1
532 782 1
550 782 1
316 783 1
360 783 1
406 783 1
466 783 1
533 783 1
551 783 1
317 784 1
349 784 1
407 784 1
467 784 1
534 784 1
552 784 1
318 785 1
350 785 1
408 785 1
468 785 1
535 785 1
541 785 1
319 786 1
351 786 1
397 786 1
457 786 1
536 786 1
542 786 1
320 787 1
352 787 1
398 787 1
458 787 1
537 787 1
543 787 1
321 788 1
353 788 1
399 788 1
459 788 1
538 788 1
544 788 1
322 789 1
354 789 1
400 789 1
460 789 1
539 789 1
545 789 1
323 790 1
355 790 1
401 790 1
461 790 1
540 790 1
546 790 1
324 791 1
356 791 1
402 791 1
462 791 1
529 791 1
547 791 1
313 792 1
357 792 1
403 792 1
463 792 1
530 792 1
548 792 1
308 793 1
370 793 1
398 793 1
453 793 1
471 793 1
548 793 1
309 794 1
371 794 1
399 794 1
454 794 1
472 794 1
549 794 1
310 795 1
372 795 1
400 795 1
455 795 1
473 795 1
550 795 1
311 796 1
361 796 1
401 796 1
456 796 1
474 796 1
551 796 1
312 797 1
362 797 1
402 797 1
445 797 1
475 797 1
552 797 1
301 798 1
363 798 1
403 798 1
446 798 1
476 798 1
541 798 1
302 799 1
364 799 1
404 799 1
447 799 1
477 799 1
542 799 1
303 800 1
365 800 1
405 800 1
448 800 1
478 800 1
543 800 1
304 801 1
366 801 1
406 801 1
449 801 1
479 801 1
544 801 1
305 802 1
367 802 1
407 802 1
450 802 1
480 802 1
545 802 1
306 803 1
368 803 1
408 803 1
451 803 1
469 803 1
546 803 1
307 804 1
369 804 1
397 804 1
452 804 1
470 804 1
547 804 1
320 805 1
382 805 1
410 805 1
465 805 1
483 805 1
560 805 1
321 806 1
383 806 1
411 806 1
466 806 1
484 806 1
561 806 1
322 807 1
384 807 1
412 807 1
467 807 1
485 807 1
562 807 1
323 808 1
373 808 1
413 808 1
468 808 1
486 808 1
563 808 1
324 809 1
374 809 1
414 809 1
457 809 1
487 809 1
564 809 1
313 810 1
375 810 1
415 810 1
458 810 1
488 810 1
553 810 1
314 811 1
376 811 1
416 811 1
459 811 1
489 811 1
554 811 1
315 812 1
377 812 1
417 812 1
460 812 1
490 812 1
555 812 1
316 813 1
378 813 1
418 813 1
461 813 1
491 813 1
556 813 1
317 814 1
379 814 1
419 814 1
462 814 1
492 814 1
557 814 1
318 815 1
380 815 1
420 815 1
463 815 1
481 815 1
558 815 1
319 816 1
381 816 1
409 816 1
464 816 1
482 816 1
559 816 1
296 817 1
394 817 1
422 817 1
441 817 1
495 817 1
572 817 1
297 818 1
395 818 1
423 818 1
442 818 1
496 818 1
573 818 1
298 819 1
396 819 1
424 819 1
443 819 1
497 819 1
574 819 1
299 820 1
385 820 1
425 820 1
444 820 1
498 820 1
575 820 1
300 821 1
386 821 1
426 821 1
433 821 1
499 821 1
576 821 1
289 822 1
387 822 1
427 822 1
434 822 1
500 822 1
565 822 1
290 823 1
388 823 1
428 823 1
435 823 1
501 823 1
566 823 1
291 824 1
389 824 1
429 824 1
436 824 1
502 824 1
567 824 1
292 825 1
390 825 1
430 825 1
437 825 1
503 825 1
568 825 1
293 826 1
391 826 1
431 826 1
438 826 1
504 826 1
569 826 1
294 827 1
392 827 1
432 827 1
439 827 1
493 827 1
570 827 1
295 828 1
393 828 1
421 828 1
440 828 1
494 828 1
571 828 1
344 829 1
362 829 1
406 829 1
435 829 1
489 829 1
512 829 1
345 830 1
363 830 1
407 830 1
436 830 1
490 830 1
513 830 1
346 831 1
364 831 1
408 831 1
437 831 1
491 831 1
514 831 1
347 832 1
365 832 1
397 832 1
438 832 1
492 832 1
515 832 1
348 833 1
366 833 1
398 833 1
439 833 1
481 833 1
516 833 1
337 834 1
367 834 1
399 834 1
440 834 1
482 834 1
505 834 1
338 835 1
368 835 1
400 835 1
441 835 1
483 835 1
506 835 1
339 836 1
369 836 1
401 836 1
442 836 1
484 836 1
507 836 1
340 837 1
370 837 1
402 837 1
443 837 1
485 837 1
508 837 1
341 838 1
371 838 1
403 838 1
444 838 1
486 838 1
509 838 1
342 839 1
372 839 1
404 839 1
433 839 1
487 839 1
510 839 1
343 840 1
361 840 1
405 840 1
434 840 1
488 840 1
511 840 1
356 841 1
374 841 1
418 841 1
447 841 1
501 841 1
524 841 1
357 842 1
375 842 1
419 842 1
448 842 1
502 842 1
525 842 1
358 843 1
376 843 1
420 843 1
449 843 1
503 843 1
526 843 1
359 844 1
377 844 1
409 844 1
450 844 1
504 844 1
527 844 1
360 845 1
378 845 1
410 845 1
451 845 1
493 845 1
528 845 1
349 846 1
379 846 1
411 846 1
452 846 1
494 846 1
517 846 1
350 847 1
380 847 1
412 847 1
453 847 1
495 847 1
518 847 1
351 848 1
381 848 1
413 848 1
454 848 1
496 848 1
519 848 1
352 849 1
382 849 1
414 849 1
455 849 1
497 849 1
520 849 1
353 850 1
383 850 1
415 850 1
456 850 1
498 850 1
521 850 1
354 851 1
384 851 1
416 851 1
445 851 1
499 851 1
522 851 1
355 852 1
373 852 1
417 852 1
446 852 1
500 852 1
523 852 1
332 853 1
386 853 1
430 853 1
459 853 1
477 853 1
536 853 1
333 854 1
387 854 1
431 854 1
460 854 1
478 854 1
537 854 1
334 855 1
388 855 1
432 855 1
461 855 1
479 855 1
538 855 1
335 856 1
389 856 1
421 856 1
462 856 1
480 856 1
539 856 1
336 857 1
390 857 1
422 857 1
463 857 1
469 857 1
540 857 1
325 858 1
391 858 1
423 858 1
464 858 1
470 858 1
529 858 1
326 859 1
392 859 1
424 859 1
465 859 1
471 859 1
530 859 1
327 860 1
393 860 1
425 860 1
466 860 1
472 860 1
531 860 1
328 861 1
394 861 1
426 861 1
467 861 1
473 861 1
532 861 1
329 862 1
395 862 1
427 862 1
468 862 1
474 862 1
533 862 1
330 863 1
396 863 1
428 863 1
457 863 1
475 863 1
534 863 1
331 864 1
385 864 1
429 864 1
458 864 1
476 864 1
535 864 1
