%%MatrixMarket matrix coordinate integer general
% Binary matrix; one-based indices; arithmetic over GF(2)
576 864 5184
42 1 1
101 1 1
119 1 1
148 1 1
192 1 1
246 1 1
43 2 1
102 2 1
120 2 1
149 2 1
181 2 1
247 2 1
44 3 1
103 3 1
109 3 1
150 3 1
182 3 1
248 3 1
45 4 1
104 4 1
110 4 1
151 4 1
183 4 1
249 4 1
46 5 1
105 5 1
111 5 1
152 5 1
184 5 1
250 5 1
47 6 1
106 6 1
112 6 1
153 6 1
185 6 1
251 6 1
48 7 1
107 7 1
113 7 1
154 7 1
186 7 1
252 7 1
37 8 1
108 8 1
114 8 1
155 8 1
187 8 1
241 8 1
38 9 1
97 9 1
115 9 1
156 9 1
188 9 1
242 9 1
39 10 1
98 10 1
116 10 1
145 10 1
189 10 1
243 10 1
40 11 1
99 11 1
117 11 1
146 11 1
190 11 1
244 11 1
41 12 1
100 12 1
118 12 1
147 12 1
191 12 1
245 12 1
54 13 1
77 13 1
131 13 1
160 13 1
204 13 1
222 13 1
55 14 1
78 14 1
132 14 1
161 14 1
193 14 1
223 14 1
56 15 1
79 15 1
121 15 1
162 15 1
194 15 1
224 15 1
57 16 1
80 16 1
122 16 1
163 16 1
195 16 1
225 16 1
58 17 1
81 17 1
123 17 1
164 17 1
196 17 1
226 17 1
59 18 1
82 18 1
124 18 1
165 18 1
197 18 1
227 18 1
60 19 1
83 19 1
125 19 1
166 19 1
198 19 1
228 19 1
49 20 1
84 20 1
126 20 1
167 20 1
199 20 1
217 20 1
50 21 1
73 21 1
127 21 1
168 21 1
200 21 1
218 21 1
51 22 1
74 22 1
128 22 1
157 22 1
201 22 1
219 22 1
52 23 1
75 23 1
129 23 1
158 23 1
202 23 1
220 23 1
53 24 1
76 24 1
130 24 1
159 24 1
203 24 1
221 24 1
66 25 1
89 25 1
143 25 1
172 25 1
216 25 1
234 25 1
67 26 1
90 26 1
144 26 1
173 26 1
205 26 1
235 26 1
68 27 1
91 27 1
133 27 1
174 27 1
206 27 1
236 27 1
69 28 1
92 28 1
134 28 1
175 28 1
207 28 1
237 28 1
70 29 1
93 29 1
135 29 1
176 29 1
208 29 1
238 29 1
71 30 1
94 30 1
136 30 1
177 30 1
209 30 1
239 30 1
72 31 1
95 31 1
137 31 1
178 31 1
210 31 1
240 31 1
61 32 1
96 32 1
138 32 1
179 32 1
211 32 1
229 32 1
62 33 1
85 33 1
139 33 1
180 33 1
212 33 1
230 33 1
63 34 1
86 34 1
140 34 1
169 34 1
213 34 1
231 34 1
64 35 1
87 35 1
141 35 1
170 35 1
214 35 1
232 35 1
65 36 1
88 36 1
142 36 1
171 36 1
215 36 1
233 36 1
6 37 1
83 37 1
137 37 1
156 37 1
184 37 1
282 37 1
7 38 1
84 38 1
138 38 1
145 38 1
185 38 1
283 38 1
8 39 1
73 39 1
139 39 1
146 39 1
186 39 1
284 39 1
9 40 1
74 40 1
140 40 1
147 40 1
187 40 1
285 40 1
10 41 1
75 41 1
141 41 1
148 41 1
188 41 1
286 41 1
11 42 1
76 42 1
142 42 1
149 42 1
189 42 1
287 42 1
12 43 1
77 43 1
143 43 1
150 43 1
190 43 1
288 43 1
1 44 1
78 44 1
144 44 1
151 44 1
191 44 1
277 44 1
2 45 1
79 45 1
133 45 1
152 45 1
192 45 1
278 45 1
3 46 1
80 46 1
134 46 1
153 46 1
181 46 1
279 46 1
4 47 1
81 47 1
135 47 1
154 47 1
182 47 1
280 47 1
5 48 1
82 48 1
136 48 1
155 48 1
183 48 1
281 48 1
18 49 1
95 49 1
113 49 1
168 49 1
196 49 1
258 49 1
19 50 1
96 50 1
114 50 1
157 50 1
197 50 1
259 50 1
20 51 1
85 51 1
115 51 1
158 51 1
198 51 1
260 51 1
21 52 1
86 52 1
116 52 1
159 52 1
199 52 1
261 52 1
22 53 1
87 53 1
117 53 1
160 53 1
200 53 1
262 53 1
23 54 1
88 54 1
118 54 1
161 54 1
201 54 1
263 54 1
24 55 1
89 55 1
119 55 1
162 55 1
202 55 1
264 55 1
13 56 1
90 56 1
120 56 1
163 56 1
203 56 1
253 56 1
14 57 1
91 57 1
109 57 1
164 57 1
204 57 1
254 57 1
15 58 1
92 58 1
110 58 1
165 58 1
193 58 1
255 58 1
16 59 1
93 59 1
111 59 1
166 59 1
194 59 1
256 59 1
17 60 1
94 60 1
112 60 1
167 60 1
195 60 1
257 60 1
30 61 1
107 61 1
125 61 1
180 61 1
208 61 1
270 61 1
31 62 1
108 62 1
126 62 1
169 62 1
209 62 1
271 62 1
32 63 1
97 63 1
127 63 1
170 63 1
210 63 1
272 63 1
33 64 1
98 64 1
128 64 1
171 64 1
211 64 1
273 64 1
34 65 1
99 65 1
129 65 1
172 65 1
212 65 1
274 65 1
35 66 1
100 66 1
130 66 1
173 66 1
213 66 1
275 66 1
36 67 1
101 67 1
131 67 1
174 67 1
214 67 1
276 67 1
25 68 1
102 68 1
132 68 1
175 68 1
215 68 1
265 68 1
26 69 1
103 69 1
121 69 1
176 69 1
216 69 1
266 69 1
27 70 1
104 70 1
122 70 1
177 70 1
205 70 1
267 70 1
28 71 1
105 71 1
123 71 1
178 71 1
206 71 1
268 71 1
29 72 1
106 72 1
124 72 1
179 72 1
207 72 1
269 72 1
29 73 1
47 73 1
114 73 1
174 73 1
220 73 1
264 73 1
30 74 1
48 74 1
115 74 1
175 74 1
221 74 1
253 74 1
31 75 1
37 75 1
116 75 1
176 75 1
222 75 1
254 75 1
32 76 1
38 76 1
117 76 1
177 76 1
223 76 1
255 76 1
33 77 1
39 77 1
118 77 1
178 77 1
224 77 1
256 77 1
34 78 1
40 78 1
119 78 1
179 78 1
225 78 1
257 78 1
35 79 1
41 79 1
120 79 1
180 79 1
226 79 1
258 79 1
36 80 1
42 80 1
109 80 1
169 80 1
227 80 1
259 80 1
25 81 1
43 81 1
110 81 1
170 81 1
228 81 1
260 81 1
26 82 1
44 82 1
111 82 1
171 82 1
217 82 1
261 82 1
27 83 1
45 83 1
112 83 1
172 83 1
218 83 1
262 83 1
28 84 1
46 84 1
113 84 1
173 84 1
219 84 1
263 84 1
5 85 1
59 85 1
126 85 1
150 85 1
232 85 1
276 85 1
6 86 1
60 86 1
127 86 1
151 86 1
233 86 1
265 86 1
7 87 1
49 87 1
128 87 1
152 87 1
234 87 1
266 87 1
8 88 1
50 88 1
129 88 1
153 88 1
235 88 1
267 88 1
9 89 1
51 89 1
130 89 1
154 89 1
236 89 1
268 89 1
10 90 1
52 90 1
131 90 1
155 90 1
237 90 1
269 90 1
11 91 1
53 91 1
132 91 1
156 91 1
238 91 1
270 91 1
12 92 1
54 92 1
121 92 1
145 92 1
239 92 1
271 92 1
1 93 1
55 93 1
122 93 1
146 93 1
240 93 1
272 93 1
2 94 1
56 94 1
123 94 1
147 94 1
229 94 1
273 94 1
3 95 1
57 95 1
124 95 1
148 95 1
230 95 1
274 95 1
4 96 1
58 96 1
125 96 1
149 96 1
231 96 1
275 96 1
17 97 1
71 97 1
138 97 1
162 97 1
244 97 1
288 97 1
18 98 1
72 98 1
139 98 1
163 98 1
245 98 1
277 98 1
19 99 1
61 99 1
140 99 1
164 99 1
246 99 1
278 99 1
20 100 1
62 100 1
141 100 1
165 100 1
247 100 1
279 100 1
21 101 1
63 101 1
142 101 1
166 101 1
248 101 1
280 101 1
22 102 1
64 102 1
143 102 1
167 102 1
249 102 1
281 102 1
23 103 1
65 103 1
144 103 1
168 103 1
250 103 1
282 103 1
24 104 1
66 104 1
133 104 1
157 104 1
251 104 1
283 104 1
13 105 1
67 105 1
134 105 1
158 105 1
252 105 1
284 105 1
14 106 1
68 106 1
135 106 1
159 106 1
241 106 1
285 106 1
15 107 1
69 107 1
136 107 1
160 107 1
242 107 1
286 107 1
16 108 1
70 108 1
137 108 1
161 108 1
243 108 1
287 108 1
11 109 1
65 109 1
78 109 1
210 109 1
228 109 1
256 109 1
12 110 1
66 110 1
79 110 1
211 110 1
217 110 1
257 110 1
1 111 1
67 111 1
80 111 1
212 111 1
218 111 1
258 111 1
2 112 1
68 112 1
81 112 1
213 112 1
219 112 1
259 112 1
3 113 1
69 113 1
82 113 1
214 113 1
220 113 1
260 113 1
4 114 1
70 114 1
83 114 1
215 114 1
221 114 1
261 114 1
5 115 1
71 115 1
84 115 1
216 115 1
222 115 1
262 115 1
6 116 1
72 116 1
73 116 1
205 116 1
223 116 1
263 116 1
7 117 1
61 117 1
74 117 1
206 117 1
224 117 1
264 117 1
8 118 1
62 118 1
75 118 1
207 118 1
225 118 1
253 118 1
9 119 1
63 119 1
76 119 1
208 119 1
226 119 1
254 119 1
10 120 1
64 120 1
77 120 1
209 120 1
227 120 1
255 120 1
23 121 1
41 121 1
90 121 1
186 121 1
240 121 1
268 121 1
24 122 1
42 122 1
91 122 1
187 122 1
229 122 1
269 122 1
13 123 1
43 123 1
92 123 1
188 123 1
230 123 1
270 123 1
14 124 1
44 124 1
93 124 1
189 124 1
231 124 1
271 124 1
15 125 1
45 125 1
94 125 1
190 125 1
232 125 1
272 125 1
16 126 1
46 126 1
95 126 1
191 126 1
233 126 1
273 126 1
17 127 1
47 127 1
96 127 1
192 127 1
234 127 1
274 127 1
18 128 1
48 128 1
85 128 1
181 128 1
235 128 1
275 128 1
19 129 1
37 129 1
86 129 1
182 129 1
236 129 1
276 129 1
20 130 1
38 130 1
87 130 1
183 130 1
237 130 1
265 130 1
21 131 1
39 131 1
88 131 1
184 131 1
238 131 1
266 131 1
22 132 1
40 132 1
89 132 1
185 132 1
239 132 1
267 132 1
35 133 1
53 133 1
102 133 1
198 133 1
252 133 1
280 133 1
36 134 1
54 134 1
103 134 1
199 134 1
241 134 1
281 134 1
25 135 1
55 135 1
104 135 1
200 135 1
242 135 1
282 135 1
26 136 1
56 136 1
105 136 1
201 136 1
243 136 1
283 136 1
27 137 1
57 137 1
106 137 1
202 137 1
244 137 1
284 137 1
28 138 1
58 138 1
107 138 1
203 138 1
245 138 1
285 138 1
29 139 1
59 139 1
108 139 1
204 139 1
246 139 1
286 139 1
30 140 1
60 140 1
97 140 1
193 140 1
247 140 1
287 140 1
31 141 1
49 141 1
98 141 1
194 141 1
248 141 1
288 141 1
32 142 1
50 142 1
99 142 1
195 142 1
249 142 1
277 142 1
33 143 1
51 143 1
100 143 1
196 143 1
250 143 1
278 143 1
34 144 1
52 144 1
101 144 1
197 144 1
251 144 1
279 144 1
20 145 1
94 145 1
126 145 1
292 145 1
336 145 1
390 145 1
21 146 1
95 146 1
127 146 1
293 146 1
325 146 1
391 146 1
22 147 1
96 147 1
128 147 1
294 147 1
326 147 1
392 147 1
23 148 1
85 148 1
129 148 1
295 148 1
327 148 1
393 148 1
24 149 1
86 149 1
130 149 1
296 149 1
328 149 1
394 149 1
13 150 1
87 150 1
131 150 1
297 150 1
329 150 1
395 150 1
14 151 1
88 151 1
132 151 1
298 151 1
330 151 1
396 151 1
15 152 1
89 152 1
121 152 1
299 152 1
331 152 1
385 152 1
16 153 1
90 153 1
122 153 1
300 153 1
332 153 1
386 153 1
17 154 1
91 154 1
123 154 1
289 154 1
333 154 1
387 154 1
18 155 1
92 155 1
124 155 1
290 155 1
334 155 1
388 155 1
19 156 1
93 156 1
125 156 1
291 156 1
335 156 1
389 156 1
32 157 1
106 157 1
138 157 1
304 157 1
348 157 1
366 157 1
33 158 1
107 158 1
139 158 1
305 158 1
337 158 1
367 158 1
34 159 1
108 159 1
140 159 1
306 159 1
338 159 1
368 159 1
35 160 1
97 160 1
141 160 1
307 160 1
339 160 1
369 160 1
36 161 1
98 161 1
142 161 1
308 161 1
340 161 1
370 161 1
25 162 1
99 162 1
143 162 1
309 162 1
341 162 1
371 162 1
26 163 1
100 163 1
144 163 1
310 163 1
342 163 1
372 163 1
27 164 1
101 164 1
133 164 1
311 164 1
343 164 1
361 164 1
28 165 1
102 165 1
134 165 1
312 165 1
344 165 1
362 165 1
29 166 1
103 166 1
135 166 1
301 166 1
345 166 1
363 166 1
30 167 1
104 167 1
136 167 1
302 167 1
346 167 1
364 167 1
31 168 1
105 168 1
137 168 1
303 168 1
347 168 1
365 168 1
8 169 1
82 169 1
114 169 1
316 169 1
360 169 1
378 169 1
9 170 1
83 170 1
115 170 1
317 170 1
349 170 1
379 170 1
10 171 1
84 171 1
116 171 1
318 171 1
350 171 1
380 171 1
11 172 1
73 172 1
117 172 1
319 172 1
351 172 1
381 172 1
12 173 1
74 173 1
118 173 1
320 173 1
352 173 1
382 173 1
1 174 1
75 174 1
119 174 1
321 174 1
353 174 1
383 174 1
2 175 1
76 175 1
120 175 1
322 175 1
354 175 1
384 175 1
3 176 1
77 176 1
109 176 1
323 176 1
355 176 1
373 176 1
4 177 1
78 177 1
110 177 1
324 177 1
356 177 1
374 177 1
5 178 1
79 178 1
111 178 1
313 178 1
357 178 1
375 178 1
6 179 1
80 179 1
112 179 1
314 179 1
358 179 1
376 179 1
7 180 1
81 180 1
113 180 1
315 180 1
359 180 1
377 180 1
56 181 1
90 181 1
130 181 1
300 181 1
328 181 1
426 181 1
57 182 1
91 182 1
131 182 1
289 182 1
329 182 1
427 182 1
58 183 1
92 183 1
132 183 1
290 183 1
330 183 1
428 183 1
59 184 1
93 184 1
121 184 1
291 184 1
331 184 1
429 184 1
60 185 1
94 185 1
122 185 1
292 185 1
332 185 1
430 185 1
49 186 1
95 186 1
123 186 1
293 186 1
333 186 1
431 186 1
50 187 1
96 187 1
124 187 1
294 187 1
334 187 1
432 187 1
51 188 1
85 188 1
125 188 1
295 188 1
335 188 1
421 188 1
52 189 1
86 189 1
126 189 1
296 189 1
336 189 1
422 189 1
53 190 1
87 190 1
127 190 1
297 190 1
325 190 1
423 190 1
54 191 1
88 191 1
128 191 1
298 191 1
326 191 1
424 191 1
55 192 1
89 192 1
129 192 1
299 192 1
327 192 1
425 192 1
68 193 1
102 193 1
142 193 1
312 193 1
340 193 1
402 193 1
69 194 1
103 194 1
143 194 1
301 194 1
341 194 1
403 194 1
70 195 1
104 195 1
144 195 1
302 195 1
342 195 1
404 195 1
71 196 1
105 196 1
133 196 1
303 196 1
343 196 1
405 196 1
72 197 1
106 197 1
134 197 1
304 197 1
344 197 1
406 197 1
61 198 1
107 198 1
135 198 1
305 198 1
345 198 1
407 198 1
62 199 1
108 199 1
136 199 1
306 199 1
346 199 1
408 199 1
63 200 1
97 200 1
137 200 1
307 200 1
347 200 1
397 200 1
64 201 1
98 201 1
138 201 1
308 201 1
348 201 1
398 201 1
65 202 1
99 202 1
139 202 1
309 202 1
337 202 1
399 202 1
66 203 1
100 203 1
140 203 1
310 203 1
338 203 1
400 203 1
67 204 1
101 204 1
141 204 1
311 204 1
339 204 1
401 204 1
44 205 1
78 205 1
118 205 1
324 205 1
352 205 1
414 205 1
45 206 1
79 206 1
119 206 1
313 206 1
353 206 1
415 206 1
46 207 1
80 207 1
120 207 1
314 207 1
354 207 1
416 207 1
47 208 1
81 208 1
109 208 1
315 208 1
355 208 1
417 208 1
48 209 1
82 209 1
110 209 1
316 209 1
356 209 1
418 209 1
37 210 1
83 210 1
111 210 1
317 210 1
357 210 1
419 210 1
38 211 1
84 211 1
112 211 1
318 211 1
358 211 1
420 211 1
39 212 1
73 212 1
113 212 1
319 212 1
359 212 1
409 212 1
40 213 1
74 213 1
114 213 1
320 213 1
360 213 1
410 213 1
41 214 1
75 214 1
115 214 1
321 214 1
349 214 1
411 214 1
42 215 1
76 215 1
116 215 1
322 215 1
350 215 1
412 215 1
43 216 1
77 216 1
117 216 1
323 216 1
351 216 1
413 216 1
22 217 1
54 217 1
92 217 1
318 217 1
364 217 1
408 217 1
23 218 1
55 218 1
93 218 1
319 218 1
365 218 1
397 218 1
24 219 1
56 219 1
94 219 1
320 219 1
366 219 1
398 219 1
13 220 1
57 220 1
95 220 1
321 220 1
367 220 1
399 220 1
14 221 1
58 221 1
96 221 1
322 221 1
368 221 1
400 221 1
15 222 1
59 222 1
85 222 1
323 222 1
369 222 1
401 222 1
16 223 1
60 223 1
86 223 1
324 223 1
370 223 1
402 223 1
17 224 1
49 224 1
87 224 1
313 224 1
371 224 1
403 224 1
18 225 1
50 225 1
88 225 1
314 225 1
372 225 1
404 225 1
19 226 1
51 226 1
89 226 1
315 226 1
361 226 1
405 226 1
20 227 1
52 227 1
90 227 1
316 227 1
362 227 1
406 227 1
21 228 1
53 228 1
91 228 1
317 228 1
363 228 1
407 228 1
34 229 1
66 229 1
104 229 1
294 229 1
376 229 1
420 229 1
35 230 1
67 230 1
105 230 1
295 230 1
377 230 1
409 230 1
36 231 1
68 231 1
106 231 1
296 231 1
378 231 1
410 231 1
25 232 1
69 232 1
107 232 1
297 232 1
379 232 1
411 232 1
26 233 1
70 233 1
108 233 1
298 233 1
380 233 1
412 233 1
27 234 1
71 234 1
97 234 1
299 234 1
381 234 1
413 234 1
28 235 1
72 235 1
98 235 1
300 235 1
382 235 1
414 235 1
29 236 1
61 236 1
99 236 1
289 236 1
383 236 1
415 236 1
30 237 1
62 237 1
100 237 1
290 237 1
384 237 1
416 237 1
31 238 1
63 238 1
101 238 1
291 238 1
373 238 1
417 238 1
32 239 1
64 239 1
102 239 1
292 239 1
374 239 1
418 239 1
33 240 1
65 240 1
103 240 1
293 240 1
375 240 1
419 240 1
10 241 1
42 241 1
80 241 1
306 241 1
388 241 1
432 241 1
11 242 1
43 242 1
81 242 1
307 242 1
389 242 1
421 242 1
12 243 1
44 243 1
82 243 1
308 243 1
390 243 1
422 243 1
1 244 1
45 244 1
83 244 1
309 244 1
391 244 1
423 244 1
2 245 1
46 245 1
84 245 1
310 245 1
392 245 1
424 245 1
3 246 1
47 246 1
73 246 1
311 246 1
393 246 1
425 246 1
4 247 1
48 247 1
74 247 1
312 247 1
394 247 1
426 247 1
5 248 1
37 248 1
75 248 1
301 248 1
395 248 1
427 248 1
6 249 1
38 249 1
76 249 1
302 249 1
396 249 1
428 249 1
7 250 1
39 250 1
77 250 1
303 250 1
385 250 1
429 250 1
8 251 1
40 251 1
78 251 1
304 251 1
386 251 1
430 251 1
9 252 1
41 252 1
79 252 1
305 252 1
387 252 1
431 252 1
18 253 1
58 253 1
128 253 1
354 253 1
372 253 1
400 253 1
19 254 1
59 254 1
129 254 1
355 254 1
361 254 1
401 254 1
20 255 1
60 255 1
130 255 1
356 255 1
362 255 1
402 255 1
21 256 1
49 256 1
131 256 1
357 256 1
363 256 1
403 256 1
22 257 1
50 257 1
132 257 1
358 257 1
364 257 1
404 257 1
23 258 1
51 258 1
121 258 1
359 258 1
365 258 1
405 258 1
24 259 1
52 259 1
122 259 1
360 259 1
366 259 1
406 259 1
13 260 1
53 260 1
123 260 1
349 260 1
367 260 1
407 260 1
14 261 1
54 261 1
124 261 1
350 261 1
368 261 1
408 261 1
15 262 1
55 262 1
125 262 1
351 262 1
369 262 1
397 262 1
16 263 1
56 263 1
126 263 1
352 263 1
370 263 1
398 263 1
17 264 1
57 264 1
127 264 1
353 264 1
371 264 1
399 264 1
30 265 1
70 265 1
140 265 1
330 265 1
384 265 1
412 265 1
31 266 1
71 266 1
141 266 1
331 266 1
373 266 1
413 266 1
32 267 1
72 267 1
142 267 1
332 267 1
374 267 1
414 267 1
33 268 1
61 268 1
143 268 1
333 268 1
375 268 1
415 268 1
34 269 1
62 269 1
144 269 1
334 269 1
376 269 1
416 269 1
35 270 1
63 270 1
133 270 1
335 270 1
377 270 1
417 270 1
36 271 1
64 271 1
134 271 1
336 271 1
378 271 1
418 271 1
25 272 1
65 272 1
135 272 1
325 272 1
379 272 1
419 272 1
26 273 1
66 273 1
136 273 1
326 273 1
380 273 1
420 273 1
27 274 1
67 274 1
137 274 1
327 274 1
381 274 1
409 274 1
28 275 1
68 275 1
138 275 1
328 275 1
382 275 1
410 275 1
29 276 1
69 276 1
139 276 1
329 276 1
383 276 1
411 276 1
6 277 1
46 277 1
116 277 1
342 277 1
396 277 1
424 277 1
7 278 1
47 278 1
117 278 1
343 278 1
385 278 1
425 278 1
8 279 1
48 279 1
118 279 1
344 279 1
386 279 1
426 279 1
9 280 1
37 280 1
119 280 1
345 280 1
387 280 1
427 280 1
10 281 1
38 281 1
120 281 1
346 281 1
388 281 1
428 281 1
11 282 1
39 282 1
109 282 1
347 282 1
389 282 1
429 282 1
12 283 1
40 283 1
110 283 1
348 283 1
390 283 1
430 283 1
1 284 1
41 284 1
111 284 1
337 284 1
391 284 1
431 284 1
2 285 1
42 285 1
112 285 1
338 285 1
392 285 1
432 285 1
3 286 1
43 286 1
113 286 1
339 286 1
393 286 1
421 286 1
4 287 1
44 287 1
114 287 1
340 287 1
394 287 1
422 287 1
5 288 1
45 288 1
115 288 1
341 288 1
395 288 1
423 288 1
12 289 1
96 289 1
113 289 1
436 289 1
480 289 1
534 289 1
1 290 1
85 290 1
114 290 1
437 290 1
469 290 1
535 290 1
2 291 1
86 291 1
115 291 1
438 291 1
470 291 1
536 291 1
3 292 1
87 292 1
116 292 1
439 292 1
471 292 1
537 292 1
4 293 1
88 293 1
117 293 1
440 293 1
472 293 1
538 293 1
5 294 1
89 294 1
118 294 1
441 294 1
473 294 1
539 294 1
6 295 1
90 295 1
119 295 1
442 295 1
474 295 1
540 295 1
7 296 1
91 296 1
120 296 1
443 296 1
475 296 1
529 296 1
8 297 1
92 297 1
109 297 1
444 297 1
476 297 1
530 297 1
9 298 1
93 298 1
110 298 1
433 298 1
477 298 1
531 298 1
10 299 1
94 299 1
111 299 1
434 299 1
478 299 1
532 299 1
11 300 1
95 300 1
112 300 1
435 300 1
479 300 1
533 300 1
24 301 1
108 301 1
125 301 1
448 301 1
492 301 1
510 301 1
13 302 1
97 302 1
126 302 1
449 302 1
481 302 1
511 302 1
14 303 1
98 303 1
127 303 1
450 303 1
482 303 1
512 303 1
15 304 1
99 304 1
128 304 1
451 304 1
483 304 1
513 304 1
16 305 1
100 305 1
129 305 1
452 305 1
484 305 1
514 305 1
17 306 1
101 306 1
130 306 1
453 306 1
485 306 1
515 306 1
18 307 1
102 307 1
131 307 1
454 307 1
486 307 1
516 307 1
19 308 1
103 308 1
132 308 1
455 308 1
487 308 1
505 308 1
20 309 1
104 309 1
121 309 1
456 309 1
488 309 1
506 309 1
21 310 1
105 310 1
122 310 1
445 310 1
489 310 1
507 310 1
22 311 1
106 311 1
123 311 1
446 311 1
490 311 1
508 311 1
23 312 1
107 312 1
124 312 1
447 312 1
491 312 1
509 312 1
36 313 1
84 313 1
137 313 1
460 313 1
504 313 1
522 313 1
25 314 1
73 314 1
138 314 1
461 314 1
493 314 1
523 314 1
26 315 1
74 315 1
139 315 1
462 315 1
494 315 1
524 315 1
27 316 1
75 316 1
140 316 1
463 316 1
495 316 1
525 316 1
28 317 1
76 317 1
141 317 1
464 317 1
496 317 1
526 317 1
29 318 1
77 318 1
142 318 1
465 318 1
497 318 1
527 318 1
30 319 1
78 319 1
143 319 1
466 319 1
498 319 1
528 319 1
31 320 1
79 320 1
144 320 1
467 320 1
499 320 1
517 320 1
32 321 1
80 321 1
133 321 1
468 321 1
500 321 1
518 321 1
33 322 1
81 322 1
134 322 1
457 322 1
501 322 1
519 322 1
34 323 1
82 323 1
135 323 1
458 323 1
502 323 1
520 323 1
35 324 1
83 324 1
136 324 1
459 324 1
503 324 1
521 324 1
48 325 1
77 325 1
132 325 1
444 325 1
472 325 1
570 325 1
37 326 1
78 326 1
121 326 1
433 326 1
473 326 1
571 326 1
38 327 1
79 327 1
122 327 1
434 327 1
474 327 1
572 327 1
39 328 1
80 328 1
123 328 1
435 328 1
475 328 1
573 328 1
40 329 1
81 329 1
124 329 1
436 329 1
476 329 1
574 329 1
41 330 1
82 330 1
125 330 1
437 330 1
477 330 1
575 330 1
42 331 1
83 331 1
126 331 1
438 331 1
478 331 1
576 331 1
43 332 1
84 332 1
127 332 1
439 332 1
479 332 1
565 332 1
44 333 1
73 333 1
128 333 1
440 333 1
480 333 1
566 333 1
45 334 1
74 334 1
129 334 1
441 334 1
469 334 1
567 334 1
46 335 1
75 335 1
130 335 1
442 335 1
470 335 1
568 335 1
47 336 1
76 336 1
131 336 1
443 336 1
471 336 1
569 336 1
60 337 1
89 337 1
144 337 1
456 337 1
484 337 1
546 337 1
49 338 1
90 338 1
133 338 1
445 338 1
485 338 1
547 338 1
50 339 1
91 339 1
134 339 1
446 339 1
486 339 1
548 339 1
51 340 1
92 340 1
135 340 1
447 340 1
487 340 1
549 340 1
52 341 1
93 341 1
136 341 1
448 341 1
488 341 1
550 341 1
53 342 1
94 342 1
137 342 1
449 342 1
489 342 1
551 342 1
54 343 1
95 343 1
138 343 1
450 343 1
490 343 1
552 343 1
55 344 1
96 344 1
139 344 1
451 344 1
491 344 1
541 344 1
56 345 1
85 345 1
140 345 1
452 345 1
492 345 1
542 345 1
57 346 1
86 346 1
141 346 1
453 346 1
481 346 1
543 346 1
58 347 1
87 347 1
142 347 1
454 347 1
482 347 1
544 347 1
59 348 1
88 348 1
143 348 1
455 348 1
483 348 1
545 348 1
72 349 1
101 349 1
120 349 1
468 349 1
496 349 1
558 349 1
61 350 1
102 350 1
109 350 1
457 350 1
497 350 1
559 350 1
62 351 1
103 351 1
110 351 1
458 351 1
498 351 1
560 351 1
63 352 1
104 352 1
111 352 1
459 352 1
499 352 1
561 352 1
64 353 1
105 353 1
112 353 1
460 353 1
500 353 1
562 353 1
65 354 1
106 354 1
113 354 1
461 354 1
501 354 1
563 354 1
66 355 1
107 355 1
114 355 1
462 355 1
502 355 1
564 355 1
67 356 1
108 356 1
115 356 1
463 356 1
503 356 1
553 356 1
68 357 1
97 357 1
116 357 1
464 357 1
504 357 1
554 357 1
69 358 1
98 358 1
117 358 1
465 358 1
493 358 1
555 358 1
70 359 1
99 359 1
118 359 1
466 359 1
494 359 1
556 359 1
71 360 1
100 360 1
119 360 1
467 360 1
495 360 1
557 360 1
24 361 1
41 361 1
84 361 1
462 361 1
508 361 1
552 361 1
13 362 1
42 362 1
73 362 1
463 362 1
509 362 1
541 362 1
14 363 1
43 363 1
74 363 1
464 363 1
510 363 1
542 363 1
15 364 1
44 364 1
75 364 1
465 364 1
511 364 1
543 364 1
16 365 1
45 365 1
76 365 1
466 365 1
512 365 1
544 365 1
17 366 1
46 366 1
77 366 1
467 366 1
513 366 1
545 366 1
18 367 1
47 367 1
78 367 1
468 367 1
514 367 1
546 367 1
19 368 1
48 368 1
79 368 1
457 368 1
515 368 1
547 368 1
20 369 1
37 369 1
80 369 1
458 369 1
516 369 1
548 369 1
21 370 1
38 370 1
81 370 1
459 370 1
505 370 1
549 370 1
22 371 1
39 371 1
82 371 1
460 371 1
506 371 1
550 371 1
23 372 1
40 372 1
83 372 1
461 372 1
507 372 1
551 372 1
36 373 1
53 373 1
96 373 1
438 373 1
520 373 1
564 373 1
25 374 1
54 374 1
85 374 1
439 374 1
521 374 1
553 374 1
26 375 1
55 375 1
86 375 1
440 375 1
522 375 1
554 375 1
27 376 1
56 376 1
87 376 1
441 376 1
523 376 1
555 376 1
28 377 1
57 377 1
88 377 1
442 377 1
524 377 1
556 377 1
29 378 1
58 378 1
89 378 1
443 378 1
525 378 1
557 378 1
30 379 1
59 379 1
90 379 1
444 379 1
526 379 1
558 379 1
31 380 1
60 380 1
91 380 1
433 380 1
527 380 1
559 380 1
32 381 1
49 381 1
92 381 1
434 381 1
528 381 1
560 381 1
33 382 1
50 382 1
93 382 1
435 382 1
517 382 1
561 382 1
34 383 1
51 383 1
94 383 1
436 383 1
518 383 1
562 383 1
35 384 1
52 384 1
95 384 1
437 384 1
519 384 1
563 384 1
12 385 1
65 385 1
108 385 1
450 385 1
532 385 1
576 385 1
1 386 1
66 386 1
97 386 1
451 386 1
533 386 1
565 386 1
2 387 1
67 387 1
98 387 1
452 387 1
534 387 1
566 387 1
3 388 1
68 388 1
99 388 1
453 388 1
535 388 1
567 388 1
4 389 1
69 389 1
100 389 1
454 389 1
536 389 1
568 389 1
5 390 1
70 390 1
101 390 1
455 390 1
537 390 1
569 390 1
6 391 1
71 391 1
102 391 1
456 391 1
538 391 1
570 391 1
7 392 1
72 392 1
103 392 1
445 392 1
539 392 1
571 392 1
8 393 1
61 393 1
104 393 1
446 393 1
540 393 1
572 393 1
9 394 1
62 394 1
105 394 1
447 394 1
529 394 1
573 394 1
10 395 1
63 395 1
106 395 1
448 395 1
530 395 1
574 395 1
11 396 1
64 396 1
107 396 1
449 396 1
531 396 1
575 396 1
5 397 1
60 397 1
120 397 1
498 397 1
516 397 1
544 397 1
6 398 1
49 398 1
109 398 1
499 398 1
505 398 1
545 398 1
7 399 1
50 399 1
110 399 1
500 399 1
506 399 1
546 399 1
8 400 1
51 400 1
111 400 1
501 400 1
507 400 1
547 400 1
9 401 1
52 401 1
112 401 1
502 401 1
508 401 1
548 401 1
10 402 1
53 402 1
113 402 1
503 402 1
509 402 1
549 402 1
11 403 1
54 403 1
114 403 1
504 403 1
510 403 1
550 403 1
12 404 1
55 404 1
115 404 1
493 404 1
511 404 1
551 404 1
1 405 1
56 405 1
116 405 1
494 405 1
512 405 1
552 405 1
2 406 1
57 406 1
117 406 1
495 406 1
513 406 1
541 406 1
3 407 1
58 407 1
118 407 1
496 407 1
514 407 1
542 407 1
4 408 1
59 408 1
119 408 1
497 408 1
515 408 1
543 408 1
17 409 1
72 409 1
132 409 1
474 409 1
528 409 1
556 409 1
18 410 1
61 410 1
121 410 1
475 410 1
517 410 1
557 410 1
19 411 1
62 411 1
122 411 1
476 411 1
518 411 1
558 411 1
20 412 1
63 412 1
123 412 1
477 412 1
519 412 1
559 412 1
21 413 1
64 413 1
124 413 1
478 413 1
520 413 1
560 413 1
22 414 1
65 414 1
125 414 1
479 414 1
521 414 1
561 414 1
23 415 1
66 415 1
126 415 1
480 415 1
522 415 1
562 415 1
24 416 1
67 416 1
127 416 1
469 416 1
523 416 1
563 416 1
13 417 1
68 417 1
128 417 1
470 417 1
524 417 1
564 417 1
14 418 1
69 418 1
129 418 1
471 418 1
525 418 1
553 418 1
15 419 1
70 419 1
130 419 1
472 419 1
526 419 1
554 419 1
16 420 1
71 420 1
131 420 1
473 420 1
527 420 1
555 420 1
29 421 1
48 421 1
144 421 1
486 421 1
540 421 1
568 421 1
30 422 1
37 422 1
133 422 1
487 422 1
529 422 1
569 422 1
31 423 1
38 423 1
134 423 1
488 423 1
530 423 1
570 423 1
32 424 1
39 424 1
135 424 1
489 424 1
531 424 1
571 424 1
33 425 1
40 425 1
136 425 1
490 425 1
532 425 1
572 425 1
34 426 1
41 426 1
137 426 1
491 426 1
533 426 1
573 426 1
35 427 1
42 427 1
138 427 1
492 427 1
534 427 1
574 427 1
36 428 1
43 428 1
139 428 1
481 428 1
535 428 1
575 428 1
25 429 1
44 429 1
140 429 1
482 429 1
536 429 1
576 429 1
26 430 1
45 430 1
141 430 1
483 430 1
537 430 1
565 430 1
27 431 1
46 431 1
142 431 1
484 431 1
538 431 1
566 431 1
28 432 1
47 432 1
143 432 1
485 432 1
539 432 1
567 432 1
164 433 1
238 433 1
270 433 1
330 433 1
389 433 1
407 433 1
165 434 1
239 434 1
271 434 1
331 434 1
390 434 1
408 434 1
166 435 1
240 435 1
272 435 1
332 435 1
391 435 1
397 435 1
167 436 1
229 436 1
273 436 1
333 436 1
392 436 1
398 436 1
168 437 1
230 437 1
274 437 1
334 437 1
393 437 1
399 437 1
157 438 1
231 438 1
275 438 1
335 438 1
394 438 1
400 438 1
158 439 1
232 439 1
276 439 1
336 439 1
395 439 1
401 439 1
159 440 1
233 440 1
265 440 1
325 440 1
396 440 1
402 440 1
160 441 1
234 441 1
266 441 1
326 441 1
385 441 1
403 441 1
161 442 1
235 442 1
267 442 1
327 442 1
386 442 1
404 442 1
162 443 1
236 443 1
268 443 1
328 443 1
387 443 1
405 443 1
163 444 1
237 444 1
269 444 1
329 444 1
388 444 1
406 444 1
176 445 1
250 445 1
282 445 1
342 445 1
365 445 1
419 445 1
177 446 1
251 446 1
283 446 1
343 446 1
366 446 1
420 446 1
178 447 1
252 447 1
284 447 1
344 447 1
367 447 1
409 447 1
179 448 1
241 448 1
285 448 1
345 448 1
368 448 1
410 448 1
180 449 1
242 449 1
286 449 1
346 449 1
369 449 1
411 449 1
169 450 1
243 450 1
287 450 1
347 450 1
370 450 1
412 450 1
170 451 1
244 451 1
288 451 1
348 451 1
371 451 1
413 451 1
171 452 1
245 452 1
277 452 1
337 452 1
372 452 1
414 452 1
172 453 1
246 453 1
278 453 1
338 453 1
361 453 1
415 453 1
173 454 1
247 454 1
279 454 1
339 454 1
362 454 1
416 454 1
174 455 1
248 455 1
280 455 1
340 455 1
363 455 1
417 455 1
175 456 1
249 456 1
281 456 1
341 456 1
364 456 1
418 456 1
152 457 1
226 457 1
258 457 1
354 457 1
377 457 1
431 457 1
153 458 1
227 458 1
259 458 1
355 458 1
378 458 1
432 458 1
154 459 1
228 459 1
260 459 1
356 459 1
379 459 1
421 459 1
155 460 1
217 460 1
261 460 1
357 460 1
380 460 1
422 460 1
156 461 1
218 461 1
262 461 1
358 461 1
381 461 1
423 461 1
145 462 1
219 462 1
263 462 1
359 462 1
382 462 1
424 462 1
146 463 1
220 463 1
264 463 1
360 463 1
383 463 1
425 463 1
147 464 1
221 464 1
253 464 1
349 464 1
384 464 1
426 464 1
148 465 1
222 465 1
254 465 1
350 465 1
373 465 1
427 465 1
149 466 1
223 466 1
255 466 1
351 466 1
374 466 1
428 466 1
150 467 1
224 467 1
256 467 1
352 467 1
375 467 1
429 467 1
151 468 1
225 468 1
257 468 1
353 468 1
376 468 1
430 468 1
200 469 1
234 469 1
274 469 1
294 469 1
371 469 1
425 469 1
201 470 1
235 470 1
275 470 1
295 470 1
372 470 1
426 470 1
202 471 1
236 471 1
276 471 1
296 471 1
361 471 1
427 471 1
203 472 1
237 472 1
265 472 1
297 472 1
362 472 1
428 472 1
204 473 1
238 473 1
266 473 1
298 473 1
363 473 1
429 473 1
193 474 1
239 474 1
267 474 1
299 474 1
364 474 1
430 474 1
194 475 1
240 475 1
268 475 1
300 475 1
365 475 1
431 475 1
195 476 1
229 476 1
269 476 1
289 476 1
366 476 1
432 476 1
196 477 1
230 477 1
270 477 1
290 477 1
367 477 1
421 477 1
197 478 1
231 478 1
271 478 1
291 478 1
368 478 1
422 478 1
198 479 1
232 479 1
272 479 1
292 479 1
369 479 1
423 479 1
199 480 1
233 480 1
273 480 1
293 480 1
370 480 1
424 480 1
212 481 1
246 481 1
286 481 1
306 481 1
383 481 1
401 481 1
213 482 1
247 482 1
287 482 1
307 482 1
384 482 1
402 482 1
214 483 1
248 483 1
288 483 1
308 483 1
373 483 1
403 483 1
215 484 1
249 484 1
277 484 1
309 484 1
374 484 1
404 484 1
216 485 1
250 485 1
278 485 1
310 485 1
375 485 1
405 485 1
205 486 1
251 486 1
279 486 1
311 486 1
376 486 1
406 486 1
206 487 1
252 487 1
280 487 1
312 487 1
377 487 1
407 487 1
207 488 1
241 488 1
281 488 1
301 488 1
378 488 1
408 488 1
208 489 1
242 489 1
282 489 1
302 489 1
379 489 1
397 489 1
209 490 1
243 490 1
283 490 1
303 490 1
380 490 1
398 490 1
210 491 1
244 491 1
284 491 1
304 491 1
381 491 1
399 491 1
211 492 1
245 492 1
285 492 1
305 492 1
382 492 1
400 492 1
188 493 1
222 493 1
262 493 1
318 493 1
395 493 1
413 493 1
189 494 1
223 494 1
263 494 1
319 494 1
396 494 1
414 494 1
190 495 1
224 495 1
264 495 1
320 495 1
385 495 1
415 495 1
191 496 1
225 496 1
253 496 1
321 496 1
386 496 1
416 496 1
192 497 1
226 497 1
254 497 1
322 497 1
387 497 1
417 497 1
181 498 1
227 498 1
255 498 1
323 498 1
388 498 1
418 498 1
182 499 1
228 499 1
256 499 1
324 499 1
389 499 1
419 499 1
183 500 1
217 500 1
257 500 1
313 500 1
390 500 1
420 500 1
184 501 1
218 501 1
258 501 1
314 501 1
391 501 1
409 501 1
185 502 1
219 502 1
259 502 1
315 502 1
392 502 1
410 502 1
186 503 1
220 503 1
260 503 1
316 503 1
393 503 1
411 503 1
187 504 1
221 504 1
261 504 1
317 504 1
394 504 1
412 504 1
166 505 1
198 505 1
236 505 1
317 505 1
335 505 1
402 505 1
167 506 1
199 506 1
237 506 1
318 506 1
336 506 1
403 506 1
168 507 1
200 507 1
238 507 1
319 507 1
325 507 1
404 507 1
157 508 1
201 508 1
239 508 1
320 508 1
326 508 1
405 508 1
158 509 1
202 509 1
240 509 1
321 509 1
327 509 1
406 509 1
159 510 1
203 510 1
229 510 1
322 510 1
328 510 1
407 510 1
160 511 1
204 511 1
230 511 1
323 511 1
329 511 1
408 511 1
161 512 1
193 512 1
231 512 1
324 512 1
330 512 1
397 512 1
162 513 1
194 513 1
232 513 1
313 513 1
331 513 1
398 513 1
163 514 1
195 514 1
233 514 1
314 514 1
332 514 1
399 514 1
164 515 1
196 515 1
234 515 1
315 515 1
333 515 1
400 515 1
165 516 1
197 516 1
235 516 1
316 516 1
334 516 1
401 516 1
178 517 1
210 517 1
248 517 1
293 517 1
347 517 1
414 517 1
179 518 1
211 518 1
249 518 1
294 518 1
348 518 1
415 518 1
180 519 1
212 519 1
250 519 1
295 519 1
337 519 1
416 519 1
169 520 1
213 520 1
251 520 1
296 520 1
338 520 1
417 520 1
170 521 1
214 521 1
252 521 1
297 521 1
339 521 1
418 521 1
171 522 1
215 522 1
241 522 1
298 522 1
340 522 1
419 522 1
172 523 1
216 523 1
242 523 1
299 523 1
341 523 1
420 523 1
173 524 1
205 524 1
243 524 1
300 524 1
342 524 1
409 524 1
174 525 1
206 525 1
244 525 1
289 525 1
343 525 1
410 525 1
175 526 1
207 526 1
245 526 1
290 526 1
344 526 1
411 526 1
176 527 1
208 527 1
246 527 1
291 527 1
345 527 1
412 527 1
177 528 1
209 528 1
247 528 1
292 528 1
346 528 1
413 528 1
154 529 1
186 529 1
224 529 1
305 529 1
359 529 1
426 529 1
155 530 1
187 530 1
225 530 1
306 530 1
360 530 1
427 530 1
156 531 1
188 531 1
226 531 1
307 531 1
349 531 1
428 531 1
145 532 1
189 532 1
227 532 1
308 532 1
350 532 1
429 532 1
146 533 1
190 533 1
228 533 1
309 533 1
351 533 1
430 533 1
147 534 1
191 534 1
217 534 1
310 534 1
352 534 1
431 534 1
148 535 1
192 535 1
218 535 1
311 535 1
353 535 1
432 535 1
149 536 1
181 536 1
219 536 1
312 536 1
354 536 1
421 536 1
150 537 1
182 537 1
220 537 1
301 537 1
355 537 1
422 537 1
151 538 1
183 538 1
221 538 1
302 538 1
356 538 1
423 538 1
152 539 1
184 539 1
222 539 1
303 539 1
357 539 1
424 539 1
153 540 1
185 540 1
223 540 1
304 540 1
358 540 1
425 540 1
162 541 1
202 541 1
272 541 1
299 541 1
353 541 1
366 541 1
163 542 1
203 542 1
273 542 1
300 542 1
354 542 1
367 542 1
164 543 1
204 543 1
274 543 1
289 543 1
355 543 1
368 543 1
165 544 1
193 544 1
275 544 1
290 544 1
356 544 1
369 544 1
166 545 1
194 545 1
276 545 1
291 545 1
357 545 1
370 545 1
167 546 1
195 546 1
265 546 1
292 546 1
358 546 1
371 546 1
168 547 1
196 547 1
266 547 1
293 547 1
359 547 1
372 547 1
157 548 1
197 548 1
267 548 1
294 548 1
360 548 1
361 548 1
158 549 1
198 549 1
268 549 1
295 549 1
349 549 1
362 549 1
159 550 1
199 550 1
269 550 1
296 550 1
350 550 1
363 550 1
160 551 1
200 551 1
270 551 1
297 551 1
351 551 1
364 551 1
161 552 1
201 552 1
271 552 1
298 552 1
352 552 1
365 552 1
174 553 1
214 553 1
284 553 1
311 553 1
329 553 1
378 553 1
175 554 1
215 554 1
285 554 1
312 554 1
330 554 1
379 554 1
176 555 1
216 555 1
286 555 1
301 555 1
331 555 1
380 555 1
177 556 1
205 556 1
287 556 1
302 556 1
332 556 1
381 556 1
178 557 1
206 557 1
288 557 1
303 557 1
333 557 1
382 557 1
179 558 1
207 558 1
277 558 1
304 558 1
334 558 1
383 558 1
180 559 1
208 559 1
278 559 1
305 559 1
335 559 1
384 559 1
169 560 1
209 560 1
279 560 1
306 560 1
336 560 1
373 560 1
170 561 1
210 561 1
280 561 1
307 561 1
325 561 1
374 561 1
171 562 1
211 562 1
281 562 1
308 562 1
326 562 1
375 562 1
172 563 1
212 563 1
282 563 1
309 563 1
327 563 1
376 563 1
173 564 1
213 564 1
283 564 1
310 564 1
328 564 1
377 564 1
150 565 1
190 565 1
260 565 1
323 565 1
341 565 1
390 565 1
151 566 1
191 566 1
261 566 1
324 566 1
342 566 1
391 566 1
152 567 1
192 567 1
262 567 1
313 567 1
343 567 1
392 567 1
153 568 1
181 568 1
263 568 1
314 568 1
344 568 1
393 568 1
154 569 1
182 569 1
264 569 1
315 569 1
345 569 1
394 569 1
155 570 1
183 570 1
253 570 1
316 570 1
346 570 1
395 570 1
156 571 1
184 571 1
254 571 1
317 571 1
347 571 1
396 571 1
145 572 1
185 572 1
255 572 1
318 572 1
348 572 1
385 572 1
146 573 1
186 573 1
256 573 1
319 573 1
337 573 1
386 573 1
147 574 1
187 574 1
257 574 1
320 574 1
338 574 1
387 574 1
148 575 1
188 575 1
258 575 1
321 575 1
339 575 1
388 575 1
149 576 1
189 576 1
259 576 1
322 576 1
340 576 1
389 576 1
156 577 1
240 577 1
257 577 1
474 577 1
533 577 1
551 577 1
145 578 1
229 578 1
258 578 1
475 578 1
534 578 1
552 578 1
146 579 1
230 579 1
259 579 1
476 579 1
535 579 1
541 579 1
147 580 1
231 580 1
260 580 1
477 580 1
536 580 1
542 580 1
148 581 1
232 581 1
261 581 1
478 581 1
537 581 1
543 581 1
149 582 1
233 582 1
262 582 1
479 582 1
538 582 1
544 582 1
150 583 1
234 583 1
263 583 1
480 583 1
539 583 1
545 583 1
151 584 1
235 584 1
264 584 1
469 584 1
540 584 1
546 584 1
152 585 1
236 585 1
253 585 1
470 585 1
529 585 1
547 585 1
153 586 1
237 586 1
254 586 1
471 586 1
530 586 1
548 586 1
154 587 1
238 587 1
255 587 1
472 587 1
531 587 1
549 587 1
155 588 1
239 588 1
256 588 1
473 588 1
532 588 1
550 588 1
168 589 1
252 589 1
269 589 1
486 589 1
509 589 1
563 589 1
157 590 1
241 590 1
270 590 1
487 590 1
510 590 1
564 590 1
158 591 1
242 591 1
271 591 1
488 591 1
511 591 1
553 591 1
159 592 1
243 592 1
272 592 1
489 592 1
512 592 1
554 592 1
160 593 1
244 593 1
273 593 1
490 593 1
513 593 1
555 593 1
161 594 1
245 594 1
274 594 1
491 594 1
514 594 1
556 594 1
162 595 1
246 595 1
275 595 1
492 595 1
515 595 1
557 595 1
163 596 1
247 596 1
276 596 1
481 596 1
516 596 1
558 596 1
164 597 1
248 597 1
265 597 1
482 597 1
505 597 1
559 597 1
165 598 1
249 598 1
266 598 1
483 598 1
506 598 1
560 598 1
166 599 1
250 599 1
267 599 1
484 599 1
507 599 1
561 599 1
167 600 1
251 600 1
268 600 1
485 600 1
508 600 1
562 600 1
180 601 1
228 601 1
281 601 1
498 601 1
521 601 1
575 601 1
169 602 1
217 602 1
282 602 1
499 602 1
522 602 1
576 602 1
170 603 1
218 603 1
283 603 1
500 603 1
523 603 1
565 603 1
171 604 1
219 604 1
284 604 1
501 604 1
524 604 1
566 604 1
172 605 1
220 605 1
285 605 1
502 605 1
525 605 1
567 605 1
173 606 1
221 606 1
286 606 1
503 606 1
526 606 1
568 606 1
174 607 1
222 607 1
287 607 1
504 607 1
527 607 1
569 607 1
175 608 1
223 608 1
288 608 1
493 608 1
528 608 1
570 608 1
176 609 1
224 609 1
277 609 1
494 609 1
517 609 1
571 609 1
177 610 1
225 610 1
278 610 1
495 610 1
518 610 1
572 610 1
178 611 1
226 611 1
279 611 1
496 611 1
519 611 1
573 611 1
179 612 1
227 612 1
280 612 1
497 612 1
520 612 1
574 612 1
192 613 1
221 613 1
276 613 1
438 613 1
515 613 1
569 613 1
181 614 1
222 614 1
265 614 1
439 614 1
516 614 1
570 614 1
182 615 1
223 615 1
266 615 1
440 615 1
505 615 1
571 615 1
183 616 1
224 616 1
267 616 1
441 616 1
506 616 1
572 616 1
184 617 1
225 617 1
268 617 1
442 617 1
507 617 1
573 617 1
185 618 1
226 618 1
269 618 1
443 618 1
508 618 1
574 618 1
186 619 1
227 619 1
270 619 1
444 619 1
509 619 1
575 619 1
187 620 1
228 620 1
271 620 1
433 620 1
510 620 1
576 620 1
188 621 1
217 621 1
272 621 1
434 621 1
511 621 1
565 621 1
189 622 1
218 622 1
273 622 1
435 622 1
512 622 1
566 622 1
190 623 1
219 623 1
274 623 1
436 623 1
513 623 1
567 623 1
191 624 1
220 624 1
275 624 1
437 624 1
514 624 1
568 624 1
204 625 1
233 625 1
288 625 1
450 625 1
527 625 1
545 625 1
193 626 1
234 626 1
277 626 1
451 626 1
528 626 1
546 626 1
194 627 1
235 627 1
278 627 1
452 627 1
517 627 1
547 627 1
195 628 1
236 628 1
279 628 1
453 628 1
518 628 1
548 628 1
196 629 1
237 629 1
280 629 1
454 629 1
519 629 1
549 629 1
197 630 1
238 630 1
281 630 1
455 630 1
520 630 1
550 630 1
198 631 1
239 631 1
282 631 1
456 631 1
521 631 1
551 631 1
199 632 1
240 632 1
283 632 1
445 632 1
522 632 1
552 632 1
200 633 1
229 633 1
284 633 1
446 633 1
523 633 1
541 633 1
201 634 1
230 634 1
285 634 1
447 634 1
524 634 1
542 634 1
202 635 1
231 635 1
286 635 1
448 635 1
525 635 1
543 635 1
203 636 1
232 636 1
287 636 1
449 636 1
526 636 1
544 636 1
216 637 1
245 637 1
264 637 1
462 637 1
539 637 1
557 637 1
205 638 1
246 638 1
253 638 1
463 638 1
540 638 1
558 638 1
206 639 1
247 639 1
254 639 1
464 639 1
529 639 1
559 639 1
207 640 1
248 640 1
255 640 1
465 640 1
530 640 1
560 640 1
208 641 1
249 641 1
256 641 1
466 641 1
531 641 1
561 641 1
209 642 1
250 642 1
257 642 1
467 642 1
532 642 1
562 642 1
210 643 1
251 643 1
258 643 1
468 643 1
533 643 1
563 643 1
211 644 1
252 644 1
259 644 1
457 644 1
534 644 1
564 644 1
212 645 1
241 645 1
260 645 1
458 645 1
535 645 1
553 645 1
213 646 1
242 646 1
261 646 1
459 646 1
536 646 1
554 646 1
214 647 1
243 647 1
262 647 1
460 647 1
537 647 1
555 647 1
215 648 1
244 648 1
263 648 1
461 648 1
538 648 1
556 648 1
168 649 1
185 649 1
228 649 1
461 649 1
479 649 1
546 649 1
157 650 1
186 650 1
217 650 1
462 650 1
480 650 1
547 650 1
158 651 1
187 651 1
218 651 1
463 651 1
469 651 1
548 651 1
159 652 1
188 652 1
219 652 1
464 652 1
470 652 1
549 652 1
160 653 1
189 653 1
220 653 1
465 653 1
471 653 1
550 653 1
161 654 1
190 654 1
221 654 1
466 654 1
472 654 1
551 654 1
162 655 1
191 655 1
222 655 1
467 655 1
473 655 1
552 655 1
163 656 1
192 656 1
223 656 1
468 656 1
474 656 1
541 656 1
164 657 1
181 657 1
224 657 1
457 657 1
475 657 1
542 657 1
165 658 1
182 658 1
225 658 1
458 658 1
476 658 1
543 658 1
166 659 1
183 659 1
226 659 1
459 659 1
477 659 1
544 659 1
167 660 1
184 660 1
227 660 1
460 660 1
478 660 1
545 660 1
180 661 1
197 661 1
240 661 1
437 661 1
491 661 1
558 661 1
169 662 1
198 662 1
229 662 1
438 662 1
492 662 1
559 662 1
170 663 1
199 663 1
230 663 1
439 663 1
481 663 1
560 663 1
171 664 1
200 664 1
231 664 1
440 664 1
482 664 1
561 664 1
172 665 1
201 665 1
232 665 1
441 665 1
483 665 1
562 665 1
173 666 1
202 666 1
233 666 1
442 666 1
484 666 1
563 666 1
174 667 1
203 667 1
234 667 1
443 667 1
485 667 1
564 667 1
175 668 1
204 668 1
235 668 1
444 668 1
486 668 1
553 668 1
176 669 1
193 669 1
236 669 1
433 669 1
487 669 1
554 669 1
177 670 1
194 670 1
237 670 1
434 670 1
488 670 1
555 670 1
178 671 1
195 671 1
238 671 1
435 671 1
489 671 1
556 671 1
179 672 1
196 672 1
239 672 1
436 672 1
490 672 1
557 672 1
156 673 1
209 673 1
252 673 1
449 673 1
503 673 1
570 673 1
145 674 1
210 674 1
241 674 1
450 674 1
504 674 1
571 674 1
146 675 1
211 675 1
242 675 1
451 675 1
493 675 1
572 675 1
147 676 1
212 676 1
243 676 1
452 676 1
494 676 1
573 676 1
148 677 1
213 677 1
244 677 1
453 677 1
495 677 1
574 677 1
149 678 1
214 678 1
245 678 1
454 678 1
496 678 1
575 678 1
150 679 1
215 679 1
246 679 1
455 679 1
497 679 1
576 679 1
151 680 1
216 680 1
247 680 1
456 680 1
498 680 1
565 680 1
152 681 1
205 681 1
248 681 1
445 681 1
499 681 1
566 681 1
153 682 1
206 682 1
249 682 1
446 682 1
500 682 1
567 682 1
154 683 1
207 683 1
250 683 1
447 683 1
501 683 1
568 683 1
155 684 1
208 684 1
251 684 1
448 684 1
502 684 1
569 684 1
149 685 1
204 685 1
264 685 1
443 685 1
497 685 1
510 685 1
150 686 1
193 686 1
253 686 1
444 686 1
498 686 1
511 686 1
151 687 1
194 687 1
254 687 1
433 687 1
499 687 1
512 687 1
152 688 1
195 688 1
255 688 1
434 688 1
500 688 1
513 688 1
153 689 1
196 689 1
256 689 1
435 689 1
501 689 1
514 689 1
154 690 1
197 690 1
257 690 1
436 690 1
502 690 1
515 690 1
155 691 1
198 691 1
258 691 1
437 691 1
503 691 1
516 691 1
156 692 1
199 692 1
259 692 1
438 692 1
504 692 1
505 692 1
145 693 1
200 693 1
260 693 1
439 693 1
493 693 1
506 693 1
146 694 1
201 694 1
261 694 1
440 694 1
494 694 1
507 694 1
147 695 1
202 695 1
262 695 1
441 695 1
495 695 1
508 695 1
148 696 1
203 696 1
263 696 1
442 696 1
496 696 1
509 696 1
161 697 1
216 697 1
276 697 1
455 697 1
473 697 1
522 697 1
162 698 1
205 698 1
265 698 1
456 698 1
474 698 1
523 698 1
163 699 1
206 699 1
266 699 1
445 699 1
475 699 1
524 699 1
164 700 1
207 700 1
267 700 1
446 700 1
476 700 1
525 700 1
165 701 1
208 701 1
268 701 1
447 701 1
477 701 1
526 701 1
166 702 1
209 702 1
269 702 1
448 702 1
478 702 1
527 702 1
167 703 1
210 703 1
270 703 1
449 703 1
479 703 1
528 703 1
168 704 1
211 704 1
271 704 1
450 704 1
480 704 1
517 704 1
157 705 1
212 705 1
272 705 1
451 705 1
469 705 1
518 705 1
158 706 1
213 706 1
273 706 1
452 706 1
470 706 1
519 706 1
159 707 1
214 707 1
274 707 1
453 707 1
471 707 1
520 707 1
160 708 1
215 708 1
275 708 1
454 708 1
472 708 1
521 708 1
173 709 1
192 709 1
288 709 1
467 709 1
485 709 1
534 709 1
174 710 1
181 710 1
277 710 1
468 710 1
486 710 1
535 710 1
175 711 1
182 711 1
278 711 1
457 711 1
487 711 1
536 711 1
176 712 1
183 712 1
279 712 1
458 712 1
488 712 1
537 712 1
177 713 1
184 713 1
280 713 1
459 713 1
489 713 1
538 713 1
178 714 1
185 714 1
281 714 1
460 714 1
490 714 1
539 714 1
179 715 1
186 715 1
282 715 1
461 715 1
491 715 1
540 715 1
180 716 1
187 716 1
283 716 1
462 716 1
492 716 1
529 716 1
169 717 1
188 717 1
284 717 1
463 717 1
481 717 1
530 717 1
170 718 1
189 718 1
285 718 1
464 718 1
482 718 1
531 718 1
171 719 1
190 719 1
286 719 1
465 719 1
483 719 1
532 719 1
172 720 1
191 720 1
287 720 1
466 720 1
484 720 1
533 720 1
300 721 1
384 721 1
401 721 1
452 721 1
526 721 1
558 721 1
289 722 1
373 722 1
402 722 1
453 722 1
527 722 1
559 722 1
290 723 1
374 723 1
403 723 1
454 723 1
528 723 1
560 723 1
291 724 1
375 724 1
404 724 1
455 724 1
517 724 1
561 724 1
292 725 1
376 725 1
405 725 1
456 725 1
518 725 1
562 725 1
293 726 1
377 726 1
406 726 1
445 726 1
519 726 1
563 726 1
294 727 1
378 727 1
407 727 1
446 727 1
520 727 1
564 727 1
295 728 1
379 728 1
408 728 1
447 728 1
521 728 1
553 728 1
296 729 1
380 729 1
397 729 1
448 729 1
522 729 1
554 729 1
297 730 1
381 730 1
398 730 1
449 730 1
523 730 1
555 730 1
298 731 1
382 731 1
399 731 1
450 731 1
524 731 1
556 731 1
299 732 1
383 732 1
400 732 1
451 732 1
525 732 1
557 732 1
312 733 1
396 733 1
413 733 1
464 733 1
538 733 1
570 733 1
301 734 1
385 734 1
414 734 1
465 734 1
539 734 1
571 734 1
302 735 1
386 735 1
415 735 1
466 735 1
540 735 1
572 735 1
303 736 1
387 736 1
416 736 1
467 736 1
529 736 1
573 736 1
304 737 1
388 737 1
417 737 1
468 737 1
530 737 1
574 737 1
305 738 1
389 738 1
418 738 1
457 738 1
531 738 1
575 738 1
306 739 1
390 739 1
419 739 1
458 739 1
532 739 1
576 739 1
307 740 1
391 740 1
420 740 1
459 740 1
533 740 1
565 740 1
308 741 1
392 741 1
409 741 1
460 741 1
534 741 1
566 741 1
309 742 1
393 742 1
410 742 1
461 742 1
535 742 1
567 742 1
310 743 1
394 743 1
411 743 1
462 743 1
536 743 1
568 743 1
311 744 1
395 744 1
412 744 1
463 744 1
537 744 1
569 744 1
324 745 1
372 745 1
425 745 1
440 745 1
514 745 1
546 745 1
313 746 1
361 746 1
426 746 1
441 746 1
515 746 1
547 746 1
314 747 1
362 747 1
427 747 1
442 747 1
516 747 1
548 747 1
315 748 1
363 748 1
428 748 1
443 748 1
505 748 1
549 748 1
316 749 1
364 749 1
429 749 1
444 749 1
506 749 1
550 749 1
317 750 1
365 750 1
430 750 1
433 750 1
507 750 1
551 750 1
318 751 1
366 751 1
431 751 1
434 751 1
508 751 1
552 751 1
319 752 1
367 752 1
432 752 1
435 752 1
509 752 1
541 752 1
320 753 1
368 753 1
421 753 1
436 753 1
510 753 1
542 753 1
321 754 1
369 754 1
422 754 1
437 754 1
511 754 1
543 754 1
322 755 1
370 755 1
423 755 1
438 755 1
512 755 1
544 755 1
323 756 1
371 756 1
424 756 1
439 756 1
513 756 1
545 756 1
336 757 1
365 757 1
420 757 1
488 757 1
522 757 1
562 757 1
325 758 1
366 758 1
409 758 1
489 758 1
523 758 1
563 758 1
326 759 1
367 759 1
410 759 1
490 759 1
524 759 1
564 759 1
327 760 1
368 760 1
411 760 1
491 760 1
525 760 1
553 760 1
328 761 1
369 761 1
412 761 1
492 761 1
526 761 1
554 761 1
329 762 1
370 762 1
413 762 1
481 762 1
527 762 1
555 762 1
330 763 1
371 763 1
414 763 1
482 763 1
528 763 1
556 763 1
331 764 1
372 764 1
415 764 1
483 764 1
517 764 1
557 764 1
332 765 1
361 765 1
416 765 1
484 765 1
518 765 1
558 765 1
333 766 1
362 766 1
417 766 1
485 766 1
519 766 1
559 766 1
334 767 1
363 767 1
418 767 1
486 767 1
520 767 1
560 767 1
335 768 1
364 768 1
419 768 1
487 768 1
521 768 1
561 768 1
348 769 1
377 769 1
432 769 1
500 769 1
534 769 1
574 769 1
337 770 1
378 770 1
421 770 1
501 770 1
535 770 1
575 770 1
338 771 1
379 771 1
422 771 1
502 771 1
536 771 1
576 771 1
339 772 1
380 772 1
423 772 1
503 772 1
537 772 1
565 772 1
340 773 1
381 773 1
424 773 1
504 773 1
538 773 1
566 773 1
341 774 1
382 774 1
425 774 1
493 774 1
539 774 1
567 774 1
342 775 1
383 775 1
426 775 1
494 775 1
540 775 1
568 775 1
343 776 1
384 776 1
427 776 1
495 776 1
529 776 1
569 776 1
344 777 1
373 777 1
428 777 1
496 777 1
530 777 1
570 777 1
345 778 1
374 778 1
429 778 1
497 778 1
531 778 1
571 778 1
346 779 1
375 779 1
430 779 1
498 779 1
532 779 1
572 779 1
347 780 1
376 780 1
431 780 1
499 780 1
533 780 1
573 780 1
360 781 1
389 781 1
408 781 1
476 781 1
510 781 1
550 781 1
349 782 1
390 782 1
397 782 1
477 782 1
511 782 1
551 782 1
350 783 1
391 783 1
398 783 1
478 783 1
512 783 1
552 783 1
351 784 1
392 784 1
399 784 1
479 784 1
513 784 1
541 784 1
352 785 1
393 785 1
400 785 1
480 785 1
514 785 1
542 785 1
353 786 1
394 786 1
401 786 1
469 786 1
515 786 1
543 786 1
354 787 1
395 787 1
402 787 1
470 787 1
516 787 1
544 787 1
355 788 1
396 788 1
403 788 1
471 788 1
505 788 1
545 788 1
356 789 1
385 789 1
404 789 1
472 789 1
506 789 1
546 789 1
357 790 1
386 790 1
405 790 1
473 790 1
507 790 1
547 790 1
358 791 1
387 791 1
406 791 1
474 791 1
508 791 1
548 791 1
359 792 1
388 792 1
407 792 1
475 792 1
509 792 1
549 792 1
312 793 1
329 793 1
372 793 1
454 793 1
486 793 1
524 793 1
301 794 1
330 794 1
361 794 1
455 794 1
487 794 1
525 794 1
302 795 1
331 795 1
362 795 1
456 795 1
488 795 1
526 795 1
303 796 1
332 796 1
363 796 1
445 796 1
489 796 1
527 796 1
304 797 1
333 797 1
364 797 1
446 797 1
490 797 1
528 797 1
305 798 1
334 798 1
365 798 1
447 798 1
491 798 1
517 798 1
306 799 1
335 799 1
366 799 1
448 799 1
492 799 1
518 799 1
307 800 1
336 800 1
367 800 1
449 800 1
481 800 1
519 800 1
308 801 1
325 801 1
368 801 1
450 801 1
482 801 1
520 801 1
309 802 1
326 802 1
369 802 1
451 802 1
483 802 1
521 802 1
310 803 1
327 803 1
370 803 1
452 803 1
484 803 1
522 803 1
311 804 1
328 804 1
371 804 1
453 804 1
485 804 1
523 804 1
324 805 1
341 805 1
384 805 1
466 805 1
498 805 1
536 805 1
313 806 1
342 806 1
373 806 1
467 806 1
499 806 1
537 806 1
314 807 1
343 807 1
374 807 1
468 807 1
500 807 1
538 807 1
315 808 1
344 808 1
375 808 1
457 808 1
501 808 1
539 808 1
316 809 1
345 809 1
376 809 1
458 809 1
502 809 1
540 809 1
317 810 1
346 810 1
377 810 1
459 810 1
503 810 1
529 810 1
318 811 1
347 811 1
378 811 1
460 811 1
504 811 1
530 811 1
319 812 1
348 812 1
379 812 1
461 812 1
493 812 1
531 812 1
320 813 1
337 813 1
380 813 1
462 813 1
494 813 1
532 813 1
321 814 1
338 814 1
381 814 1
463 814 1
495 814 1
533 814 1
322 815 1
339 815 1
382 815 1
464 815 1
496 815 1
534 815 1
323 816 1
340 816 1
383 816 1
465 816 1
497 816 1
535 816 1
300 817 1
353 817 1
396 817 1
442 817 1
474 817 1
512 817 1
289 818 1
354 818 1
385 818 1
443 818 1
475 818 1
513 818 1
290 819 1
355 819 1
386 819 1
444 819 1
476 819 1
514 819 1
291 820 1
356 820 1
387 820 1
433 820 1
477 820 1
515 820 1
292 821 1
357 821 1
388 821 1
434 821 1
478 821 1
516 821 1
293 822 1
358 822 1
389 822 1
435 822 1
479 822 1
505 822 1
294 823 1
359 823 1
390 823 1
436 823 1
480 823 1
506 823 1
295 824 1
360 824 1
391 824 1
437 824 1
469 824 1
507 824 1
296 825 1
349 825 1
392 825 1
438 825 1
470 825 1
508 825 1
297 826 1
350 826 1
393 826 1
439 826 1
471 826 1
509 826 1
298 827 1
351 827 1
394 827 1
440 827 1
472 827 1
510 827 1
299 828 1
352 828 1
395 828 1
441 828 1
473 828 1
511 828 1
293 829 1
348 829 1
408 829 1
450 829 1
490 829 1
560 829 1
294 830 1
337 830 1
397 830 1
451 830 1
491 830 1
561 830 1
295 831 1
338 831 1
398 831 1
452 831 1
492 831 1
562 831 1
296 832 1
339 832 1
399 832 1
453 832 1
481 832 1
563 832 1
297 833 1
340 833 1
400 833 1
454 833 1
482 833 1
564 833 1
298 834 1
341 834 1
401 834 1
455 834 1
483 834 1
553 834 1
299 835 1
342 835 1
402 835 1
456 835 1
484 835 1
554 835 1
300 836 1
343 836 1
403 836 1
445 836 1
485 836 1
555 836 1
289 837 1
344 837 1
404 837 1
446 837 1
486 837 1
556 837 1
290 838 1
345 838 1
405 838 1
447 838 1
487 838 1
557 838 1
291 839 1
346 839 1
406 839 1
448 839 1
488 839 1
558 839 1
292 840 1
347 840 1
407 840 1
449 840 1
489 840 1
559 840 1
305 841 1
360 841 1
420 841 1
462 841 1
502 841 1
572 841 1
306 842 1
349 842 1
409 842 1
463 842 1
503 842 1
573 842 1
307 843 1
350 843 1
410 843 1
464 843 1
504 843 1
574 843 1
308 844 1
351 844 1
411 844 1
465 844 1
493 844 1
575 844 1
309 845 1
352 845 1
412 845 1
466 845 1
494 845 1
576 845 1
310 846 1
353 846 1
413 846 1
467 846 1
495 846 1
565 846 1
311 847 1
354 847 1
414 847 1
468 847 1
496 847 1
566 847 1
312 848 1
355 848 1
415 848 1
457 848 1
497 848 1
567 848 1
301 849 1
356 849 1
416 849 1
458 849 1
498 849 1
568 849 1
302 850 1
357 850 1
417 850 1
459 850 1
499 850 1
569 850 1
303 851 1
358 851 1
418 851 1
460 851 1
500 851 1
570 851 1
304 852 1
359 852 1
419 852 1
461 852 1
501 852 1
571 852 1
317 853 1
336 853 1
432 853 1
438 853 1
478 853 1
548 853 1
318 854 1
325 854 1
421 854 1
439 854 1
479 854 1
549 854 1
319 855 1
326 855 1
422 855 1
440 855 1
480 855 1
550 855 1
320 856 1
327 856 1
423 856 1
441 856 1
469 856 1
551 856 1
321 857 1
328 857 1
424 857 1
442 857 1
470 857 1
552 857 1
322 858 1
329 858 1
425 858 1
443 858 1
471 858 1
541 858 1
323 859 1
330 859 1
426 859 1
444 859 1
472 859 1
542 859 1
324 860 1
331 860 1
427 860 1
433 860 1
473 860 1
543 860 1
313 861 1
332 861 1
428 861 1
434 861 1
474 861 1
544 861 1
314 862 1
333 862 1
429 862 1
435 862 1
475 862 1
545 862 1
315 863 1
334 863 1
430 863 1
436 863 1
476 863 1
546 863 1
316 864 1
335 864 1
431 864 1
437 864 1
477 864 1
547 864 1
