%%MatrixMarket matrix coordinate integer general
% Binary matrix; one-based indices; arithmetic over GF(2)
235 470 1880
1 1 1
8 1 1
48 1 1
51 1 1
2 2 1
9 2 1
49 2 1
52 2 1
3 3 1
10 3 1
50 3 1
53 3 1
4 4 1
11 4 1
51 4 1
54 4 1
5 5 1
12 5 1
52 5 1
55 5 1
6 6 1
13 6 1
53 6 1
56 6 1
7 7 1
14 7 1
54 7 1
57 7 1
8 8 1
15 8 1
55 8 1
58 8 1
9 9 1
16 9 1
56 9 1
59 9 1
10 10 1
17 10 1
57 10 1
60 10 1
11 11 1
18 11 1
58 11 1
61 11 1
12 12 1
19 12 1
59 12 1
62 12 1
13 13 1
20 13 1
60 13 1
63 13 1
14 14 1
21 14 1
61 14 1
64 14 1
15 15 1
22 15 1
62 15 1
65 15 1
16 16 1
23 16 1
63 16 1
66 16 1
17 17 1
24 17 1
64 17 1
67 17 1
18 18 1
25 18 1
65 18 1
68 18 1
19 19 1
26 19 1
66 19 1
69 19 1
20 20 1
27 20 1
67 20 1
70 20 1
21 21 1
28 21 1
68 21 1
71 21 1
22 22 1
29 22 1
69 22 1
72 22 1
23 23 1
30 23 1
70 23 1
73 23 1
24 24 1
31 24 1
71 24 1
74 24 1
25 25 1
32 25 1
72 25 1
75 25 1
26 26 1
33 26 1
73 26 1
76 26 1
27 27 1
34 27 1
74 27 1
77 27 1
28 28 1
35 28 1
75 28 1
78 28 1
29 29 1
36 29 1
76 29 1
79 29 1
30 30 1
37 30 1
77 30 1
80 30 1
31 31 1
38 31 1
78 31 1
81 31 1
32 32 1
39 32 1
79 32 1
82 32 1
33 33 1
40 33 1
80 33 1
83 33 1
34 34 1
41 34 1
81 34 1
84 34 1
35 35 1
42 35 1
82 35 1
85 35 1
36 36 1
43 36 1
83 36 1
86 36 1
37 37 1
44 37 1
84 37 1
87 37 1
38 38 1
45 38 1
85 38 1
88 38 1
39 39 1
46 39 1
86 39 1
89 39 1
40 40 1
47 40 1
87 40 1
90 40 1
1 41 1
41 41 1
88 41 1
91 41 1
2 42 1
42 42 1
89 42 1
92 42 1
3 43 1
43 43 1
90 43 1
93 43 1
4 44 1
44 44 1
91 44 1
94 44 1
5 45 1
45 45 1
48 45 1
92 45 1
6 46 1
46 46 1
49 46 1
93 46 1
7 47 1
47 47 1
50 47 1
94 47 1
1 48 1
9 48 1
95 48 1
98 48 1
2 49 1
10 49 1
96 49 1
99 49 1
3 50 1
11 50 1
97 50 1
100 50 1
4 51 1
12 51 1
98 51 1
101 51 1
5 52 1
13 52 1
99 52 1
102 52 1
6 53 1
14 53 1
100 53 1
103 53 1
7 54 1
15 54 1
101 54 1
104 54 1
8 55 1
16 55 1
102 55 1
105 55 1
9 56 1
17 56 1
103 56 1
106 56 1
10 57 1
18 57 1
104 57 1
107 57 1
11 58 1
19 58 1
105 58 1
108 58 1
12 59 1
20 59 1
106 59 1
109 59 1
13 60 1
21 60 1
107 60 1
110 60 1
14 61 1
22 61 1
108 61 1
111 61 1
15 62 1
23 62 1
109 62 1
112 62 1
16 63 1
24 63 1
110 63 1
113 63 1
17 64 1
25 64 1
111 64 1
114 64 1
18 65 1
26 65 1
112 65 1
115 65 1
19 66 1
27 66 1
113 66 1
116 66 1
20 67 1
28 67 1
114 67 1
117 67 1
21 68 1
29 68 1
115 68 1
118 68 1
22 69 1
30 69 1
116 69 1
119 69 1
23 70 1
31 70 1
117 70 1
120 70 1
24 71 1
32 71 1
118 71 1
121 71 1
25 72 1
33 72 1
119 72 1
122 72 1
26 73 1
34 73 1
120 73 1
123 73 1
27 74 1
35 74 1
121 74 1
124 74 1
28 75 1
36 75 1
122 75 1
125 75 1
29 76 1
37 76 1
123 76 1
126 76 1
30 77 1
38 77 1
124 77 1
127 77 1
31 78 1
39 78 1
125 78 1
128 78 1
32 79 1
40 79 1
126 79 1
129 79 1
33 80 1
41 80 1
127 80 1
130 80 1
34 81 1
42 81 1
128 81 1
131 81 1
35 82 1
43 82 1
129 82 1
132 82 1
36 83 1
44 83 1
130 83 1
133 83 1
37 84 1
45 84 1
131 84 1
134 84 1
38 85 1
46 85 1
132 85 1
135 85 1
39 86 1
47 86 1
133 86 1
136 86 1
1 87 1
40 87 1
134 87 1
137 87 1
2 88 1
41 88 1
135 88 1
138 88 1
3 89 1
42 89 1
136 89 1
139 89 1
4 90 1
43 90 1
137 90 1
140 90 1
5 91 1
44 91 1
138 91 1
141 91 1
6 92 1
45 92 1
95 92 1
139 92 1
7 93 1
46 93 1
96 93 1
140 93 1
8 94 1
47 94 1
97 94 1
141 94 1
48 95 1
56 95 1
95 95 1
102 95 1
49 96 1
57 96 1
96 96 1
103 96 1
50 97 1
58 97 1
97 97 1
104 97 1
51 98 1
59 98 1
98 98 1
105 98 1
52 99 1
60 99 1
99 99 1
106 99 1
53 100 1
61 100 1
100 100 1
107 100 1
54 101 1
62 101 1
101 101 1
108 101 1
55 102 1
63 102 1
102 102 1
109 102 1
56 103 1
64 103 1
103 103 1
110 103 1
57 104 1
65 104 1
104 104 1
111 104 1
58 105 1
66 105 1
105 105 1
112 105 1
59 106 1
67 106 1
106 106 1
113 106 1
60 107 1
68 107 1
107 107 1
114 107 1
61 108 1
69 108 1
108 108 1
115 108 1
62 109 1
70 109 1
109 109 1
116 109 1
63 110 1
71 110 1
110 110 1
117 110 1
64 111 1
72 111 1
111 111 1
118 111 1
65 112 1
73 112 1
112 112 1
119 112 1
66 113 1
74 113 1
113 113 1
120 113 1
67 114 1
75 114 1
114 114 1
121 114 1
68 115 1
76 115 1
115 115 1
122 115 1
69 116 1
77 116 1
116 116 1
123 116 1
70 117 1
78 117 1
117 117 1
124 117 1
71 118 1
79 118 1
118 118 1
125 118 1
72 119 1
80 119 1
119 119 1
126 119 1
73 120 1
81 120 1
120 120 1
127 120 1
74 121 1
82 121 1
121 121 1
128 121 1
75 122 1
83 122 1
122 122 1
129 122 1
76 123 1
84 123 1
123 123 1
130 123 1
77 124 1
85 124 1
124 124 1
131 124 1
78 125 1
86 125 1
125 125 1
132 125 1
79 126 1
87 126 1
126 126 1
133 126 1
80 127 1
88 127 1
127 127 1
134 127 1
81 128 1
89 128 1
128 128 1
135 128 1
82 129 1
90 129 1
129 129 1
136 129 1
83 130 1
91 130 1
130 130 1
137 130 1
84 131 1
92 131 1
131 131 1
138 131 1
85 132 1
93 132 1
132 132 1
139 132 1
86 133 1
94 133 1
133 133 1
140 133 1
48 134 1
87 134 1
134 134 1
141 134 1
49 135 1
88 135 1
95 135 1
135 135 1
50 136 1
89 136 1
96 136 1
136 136 1
51 137 1
90 137 1
97 137 1
137 137 1
52 138 1
91 138 1
98 138 1
138 138 1
53 139 1
92 139 1
99 139 1
139 139 1
54 140 1
93 140 1
100 140 1
140 140 1
55 141 1
94 141 1
101 141 1
141 141 1
1 142 1
10 142 1
142 142 1
145 142 1
2 143 1
11 143 1
143 143 1
146 143 1
3 144 1
12 144 1
144 144 1
147 144 1
4 145 1
13 145 1
145 145 1
148 145 1
5 146 1
14 146 1
146 146 1
149 146 1
6 147 1
15 147 1
147 147 1
150 147 1
7 148 1
16 148 1
148 148 1
151 148 1
8 149 1
17 149 1
149 149 1
152 149 1
9 150 1
18 150 1
150 150 1
153 150 1
10 151 1
19 151 1
151 151 1
154 151 1
11 152 1
20 152 1
152 152 1
155 152 1
12 153 1
21 153 1
153 153 1
156 153 1
13 154 1
22 154 1
154 154 1
157 154 1
14 155 1
23 155 1
155 155 1
158 155 1
15 156 1
24 156 1
156 156 1
159 156 1
16 157 1
25 157 1
157 157 1
160 157 1
17 158 1
26 158 1
158 158 1
161 158 1
18 159 1
27 159 1
159 159 1
162 159 1
19 160 1
28 160 1
160 160 1
163 160 1
20 161 1
29 161 1
161 161 1
164 161 1
21 162 1
30 162 1
162 162 1
165 162 1
22 163 1
31 163 1
163 163 1
166 163 1
23 164 1
32 164 1
164 164 1
167 164 1
24 165 1
33 165 1
165 165 1
168 165 1
25 166 1
34 166 1
166 166 1
169 166 1
26 167 1
35 167 1
167 167 1
170 167 1
27 168 1
36 168 1
168 168 1
171 168 1
28 169 1
37 169 1
169 169 1
172 169 1
29 170 1
38 170 1
170 170 1
173 170 1
30 171 1
39 171 1
171 171 1
174 171 1
31 172 1
40 172 1
172 172 1
175 172 1
32 173 1
41 173 1
173 173 1
176 173 1
33 174 1
42 174 1
174 174 1
177 174 1
34 175 1
43 175 1
175 175 1
178 175 1
35 176 1
44 176 1
176 176 1
179 176 1
36 177 1
45 177 1
177 177 1
180 177 1
37 178 1
46 178 1
178 178 1
181 178 1
38 179 1
47 179 1
179 179 1
182 179 1
1 180 1
39 180 1
180 180 1
183 180 1
2 181 1
40 181 1
181 181 1
184 181 1
3 182 1
41 182 1
182 182 1
185 182 1
4 183 1
42 183 1
183 183 1
186 183 1
5 184 1
43 184 1
184 184 1
187 184 1
6 185 1
44 185 1
185 185 1
188 185 1
7 186 1
45 186 1
142 186 1
186 186 1
8 187 1
46 187 1
143 187 1
187 187 1
9 188 1
47 188 1
144 188 1
188 188 1
48 189 1
57 189 1
142 189 1
149 189 1
49 190 1
58 190 1
143 190 1
150 190 1
50 191 1
59 191 1
144 191 1
151 191 1
51 192 1
60 192 1
145 192 1
152 192 1
52 193 1
61 193 1
146 193 1
153 193 1
53 194 1
62 194 1
147 194 1
154 194 1
54 195 1
63 195 1
148 195 1
155 195 1
55 196 1
64 196 1
149 196 1
156 196 1
56 197 1
65 197 1
150 197 1
157 197 1
57 198 1
66 198 1
151 198 1
158 198 1
58 199 1
67 199 1
152 199 1
159 199 1
59 200 1
68 200 1
153 200 1
160 200 1
60 201 1
69 201 1
154 201 1
161 201 1
61 202 1
70 202 1
155 202 1
162 202 1
62 203 1
71 203 1
156 203 1
163 203 1
63 204 1
72 204 1
157 204 1
164 204 1
64 205 1
73 205 1
158 205 1
165 205 1
65 206 1
74 206 1
159 206 1
166 206 1
66 207 1
75 207 1
160 207 1
167 207 1
67 208 1
76 208 1
161 208 1
168 208 1
68 209 1
77 209 1
162 209 1
169 209 1
69 210 1
78 210 1
163 210 1
170 210 1
70 211 1
79 211 1
164 211 1
171 211 1
71 212 1
80 212 1
165 212 1
172 212 1
72 213 1
81 213 1
166 213 1
173 213 1
73 214 1
82 214 1
167 214 1
174 214 1
74 215 1
83 215 1
168 215 1
175 215 1
75 216 1
84 216 1
169 216 1
176 216 1
76 217 1
85 217 1
170 217 1
177 217 1
77 218 1
86 218 1
171 218 1
178 218 1
78 219 1
87 219 1
172 219 1
179 219 1
79 220 1
88 220 1
173 220 1
180 220 1
80 221 1
89 221 1
174 221 1
181 221 1
81 222 1
90 222 1
175 222 1
182 222 1
82 223 1
91 223 1
176 223 1
183 223 1
83 224 1
92 224 1
177 224 1
184 224 1
84 225 1
93 225 1
178 225 1
185 225 1
85 226 1
94 226 1
179 226 1
186 226 1
48 227 1
86 227 1
180 227 1
187 227 1
49 228 1
87 228 1
181 228 1
188 228 1
50 229 1
88 229 1
142 229 1
182 229 1
51 230 1
89 230 1
143 230 1
183 230 1
52 231 1
90 231 1
144 231 1
184 231 1
53 232 1
91 232 1
145 232 1
185 232 1
54 233 1
92 233 1
146 233 1
186 233 1
55 234 1
93 234 1
147 234 1
187 234 1
56 235 1
94 235 1
148 235 1
188 235 1
95 236 1
104 236 1
142 236 1
150 236 1
96 237 1
105 237 1
143 237 1
151 237 1
97 238 1
106 238 1
144 238 1
152 238 1
98 239 1
107 239 1
145 239 1
153 239 1
99 240 1
108 240 1
146 240 1
154 240 1
100 241 1
109 241 1
147 241 1
155 241 1
101 242 1
110 242 1
148 242 1
156 242 1
102 243 1
111 243 1
149 243 1
157 243 1
103 244 1
112 244 1
150 244 1
158 244 1
104 245 1
113 245 1
151 245 1
159 245 1
105 246 1
114 246 1
152 246 1
160 246 1
106 247 1
115 247 1
153 247 1
161 247 1
107 248 1
116 248 1
154 248 1
162 248 1
108 249 1
117 249 1
155 249 1
163 249 1
109 250 1
118 250 1
156 250 1
164 250 1
110 251 1
119 251 1
157 251 1
165 251 1
111 252 1
120 252 1
158 252 1
166 252 1
112 253 1
121 253 1
159 253 1
167 253 1
113 254 1
122 254 1
160 254 1
168 254 1
114 255 1
123 255 1
161 255 1
169 255 1
115 256 1
124 256 1
162 256 1
170 256 1
116 257 1
125 257 1
163 257 1
171 257 1
117 258 1
126 258 1
164 258 1
172 258 1
118 259 1
127 259 1
165 259 1
173 259 1
119 260 1
128 260 1
166 260 1
174 260 1
120 261 1
129 261 1
167 261 1
175 261 1
121 262 1
130 262 1
168 262 1
176 262 1
122 263 1
131 263 1
169 263 1
177 263 1
123 264 1
132 264 1
170 264 1
178 264 1
124 265 1
133 265 1
171 265 1
179 265 1
125 266 1
134 266 1
172 266 1
180 266 1
126 267 1
135 267 1
173 267 1
181 267 1
127 268 1
136 268 1
174 268 1
182 268 1
128 269 1
137 269 1
175 269 1
183 269 1
129 270 1
138 270 1
176 270 1
184 270 1
130 271 1
139 271 1
177 271 1
185 271 1
131 272 1
140 272 1
178 272 1
186 272 1
132 273 1
141 273 1
179 273 1
187 273 1
95 274 1
133 274 1
180 274 1
188 274 1
96 275 1
134 275 1
142 275 1
181 275 1
97 276 1
135 276 1
143 276 1
182 276 1
98 277 1
136 277 1
144 277 1
183 277 1
99 278 1
137 278 1
145 278 1
184 278 1
100 279 1
138 279 1
146 279 1
185 279 1
101 280 1
139 280 1
147 280 1
186 280 1
102 281 1
140 281 1
148 281 1
187 281 1
103 282 1
141 282 1
149 282 1
188 282 1
1 283 1
31 283 1
189 283 1
192 283 1
2 284 1
32 284 1
190 284 1
193 284 1
3 285 1
33 285 1
191 285 1
194 285 1
4 286 1
34 286 1
192 286 1
195 286 1
5 287 1
35 287 1
193 287 1
196 287 1
6 288 1
36 288 1
194 288 1
197 288 1
7 289 1
37 289 1
195 289 1
198 289 1
8 290 1
38 290 1
196 290 1
199 290 1
9 291 1
39 291 1
197 291 1
200 291 1
10 292 1
40 292 1
198 292 1
201 292 1
11 293 1
41 293 1
199 293 1
202 293 1
12 294 1
42 294 1
200 294 1
203 294 1
13 295 1
43 295 1
201 295 1
204 295 1
14 296 1
44 296 1
202 296 1
205 296 1
15 297 1
45 297 1
203 297 1
206 297 1
16 298 1
46 298 1
204 298 1
207 298 1
17 299 1
47 299 1
205 299 1
208 299 1
1 300 1
18 300 1
206 300 1
209 300 1
2 301 1
19 301 1
207 301 1
210 301 1
3 302 1
20 302 1
208 302 1
211 302 1
4 303 1
21 303 1
209 303 1
212 303 1
5 304 1
22 304 1
210 304 1
213 304 1
6 305 1
23 305 1
211 305 1
214 305 1
7 306 1
24 306 1
212 306 1
215 306 1
8 307 1
25 307 1
213 307 1
216 307 1
9 308 1
26 308 1
214 308 1
217 308 1
10 309 1
27 309 1
215 309 1
218 309 1
11 310 1
28 310 1
216 310 1
219 310 1
12 311 1
29 311 1
217 311 1
220 311 1
13 312 1
30 312 1
218 312 1
221 312 1
14 313 1
31 313 1
219 313 1
222 313 1
15 314 1
32 314 1
220 314 1
223 314 1
16 315 1
33 315 1
221 315 1
224 315 1
17 316 1
34 316 1
222 316 1
225 316 1
18 317 1
35 317 1
223 317 1
226 317 1
19 318 1
36 318 1
224 318 1
227 318 1
20 319 1
37 319 1
225 319 1
228 319 1
21 320 1
38 320 1
226 320 1
229 320 1
22 321 1
39 321 1
227 321 1
230 321 1
23 322 1
40 322 1
228 322 1
231 322 1
24 323 1
41 323 1
229 323 1
232 323 1
25 324 1
42 324 1
230 324 1
233 324 1
26 325 1
43 325 1
231 325 1
234 325 1
27 326 1
44 326 1
232 326 1
235 326 1
28 327 1
45 327 1
189 327 1
233 327 1
29 328 1
46 328 1
190 328 1
234 328 1
30 329 1
47 329 1
191 329 1
235 329 1
48 330 1
78 330 1
189 330 1
196 330 1
49 331 1
79 331 1
190 331 1
197 331 1
50 332 1
80 332 1
191 332 1
198 332 1
51 333 1
81 333 1
192 333 1
199 333 1
52 334 1
82 334 1
193 334 1
200 334 1
53 335 1
83 335 1
194 335 1
201 335 1
54 336 1
84 336 1
195 336 1
202 336 1
55 337 1
85 337 1
196 337 1
203 337 1
56 338 1
86 338 1
197 338 1
204 338 1
57 339 1
87 339 1
198 339 1
205 339 1
58 340 1
88 340 1
199 340 1
206 340 1
59 341 1
89 341 1
200 341 1
207 341 1
60 342 1
90 342 1
201 342 1
208 342 1
61 343 1
91 343 1
202 343 1
209 343 1
62 344 1
92 344 1
203 344 1
210 344 1
63 345 1
93 345 1
204 345 1
211 345 1
64 346 1
94 346 1
205 346 1
212 346 1
48 347 1
65 347 1
206 347 1
213 347 1
49 348 1
66 348 1
207 348 1
214 348 1
50 349 1
67 349 1
208 349 1
215 349 1
51 350 1
68 350 1
209 350 1
216 350 1
52 351 1
69 351 1
210 351 1
217 351 1
53 352 1
70 352 1
211 352 1
218 352 1
54 353 1
71 353 1
212 353 1
219 353 1
55 354 1
72 354 1
213 354 1
220 354 1
56 355 1
73 355 1
214 355 1
221 355 1
57 356 1
74 356 1
215 356 1
222 356 1
58 357 1
75 357 1
216 357 1
223 357 1
59 358 1
76 358 1
217 358 1
224 358 1
60 359 1
77 359 1
218 359 1
225 359 1
61 360 1
78 360 1
219 360 1
226 360 1
62 361 1
79 361 1
220 361 1
227 361 1
63 362 1
80 362 1
221 362 1
228 362 1
64 363 1
81 363 1
222 363 1
229 363 1
65 364 1
82 364 1
223 364 1
230 364 1
66 365 1
83 365 1
224 365 1
231 365 1
67 366 1
84 366 1
225 366 1
232 366 1
68 367 1
85 367 1
226 367 1
233 367 1
69 368 1
86 368 1
227 368 1
234 368 1
70 369 1
87 369 1
228 369 1
235 369 1
71 370 1
88 370 1
189 370 1
229 370 1
72 371 1
89 371 1
190 371 1
230 371 1
73 372 1
90 372 1
191 372 1
231 372 1
74 373 1
91 373 1
192 373 1
232 373 1
75 374 1
92 374 1
193 374 1
233 374 1
76 375 1
93 375 1
194 375 1
234 375 1
77 376 1
94 376 1
195 376 1
235 376 1
95 377 1
125 377 1
189 377 1
197 377 1
96 378 1
126 378 1
190 378 1
198 378 1
97 379 1
127 379 1
191 379 1
199 379 1
98 380 1
128 380 1
192 380 1
200 380 1
99 381 1
129 381 1
193 381 1
201 381 1
100 382 1
130 382 1
194 382 1
202 382 1
101 383 1
131 383 1
195 383 1
203 383 1
102 384 1
132 384 1
196 384 1
204 384 1
103 385 1
133 385 1
197 385 1
205 385 1
104 386 1
134 386 1
198 386 1
206 386 1
105 387 1
135 387 1
199 387 1
207 387 1
106 388 1
136 388 1
200 388 1
208 388 1
107 389 1
137 389 1
201 389 1
209 389 1
108 390 1
138 390 1
202 390 1
210 390 1
109 391 1
139 391 1
203 391 1
211 391 1
110 392 1
140 392 1
204 392 1
212 392 1
111 393 1
141 393 1
205 393 1
213 393 1
95 394 1
112 394 1
206 394 1
214 394 1
96 395 1
113 395 1
207 395 1
215 395 1
97 396 1
114 396 1
208 396 1
216 396 1
98 397 1
115 397 1
209 397 1
217 397 1
99 398 1
116 398 1
210 398 1
218 398 1
100 399 1
117 399 1
211 399 1
219 399 1
101 400 1
118 400 1
212 400 1
220 400 1
102 401 1
119 401 1
213 401 1
221 401 1
103 402 1
120 402 1
214 402 1
222 402 1
104 403 1
121 403 1
215 403 1
223 403 1
105 404 1
122 404 1
216 404 1
224 404 1
106 405 1
123 405 1
217 405 1
225 405 1
107 406 1
124 406 1
218 406 1
226 406 1
108 407 1
125 407 1
219 407 1
227 407 1
109 408 1
126 408 1
220 408 1
228 408 1
110 409 1
127 409 1
221 409 1
229 409 1
111 410 1
128 410 1
222 410 1
230 410 1
112 411 1
129 411 1
223 411 1
231 411 1
113 412 1
130 412 1
224 412 1
232 412 1
114 413 1
131 413 1
225 413 1
233 413 1
115 414 1
132 414 1
226 414 1
234 414 1
116 415 1
133 415 1
227 415 1
235 415 1
117 416 1
134 416 1
189 416 1
228 416 1
118 417 1
135 417 1
190 417 1
229 417 1
119 418 1
136 418 1
191 418 1
230 418 1
120 419 1
137 419 1
192 419 1
231 419 1
121 420 1
138 420 1
193 420 1
232 420 1
122 421 1
139 421 1
194 421 1
233 421 1
123 422 1
140 422 1
195 422 1
234 422 1
124 423 1
141 423 1
196 423 1
235 423 1
142 424 1
172 424 1
189 424 1
198 424 1
143 425 1
173 425 1
190 425 1
199 425 1
144 426 1
174 426 1
191 426 1
200 426 1
145 427 1
175 427 1
192 427 1
201 427 1
146 428 1
176 428 1
193 428 1
202 428 1
147 429 1
177 429 1
194 429 1
203 429 1
148 430 1
178 430 1
195 430 1
204 430 1
149 431 1
179 431 1
196 431 1
205 431 1
150 432 1
180 432 1
197 432 1
206 432 1
151 433 1
181 433 1
198 433 1
207 433 1
152 434 1
182 434 1
199 434 1
208 434 1
153 435 1
183 435 1
200 435 1
209 435 1
154 436 1
184 436 1
201 436 1
210 436 1
155 437 1
185 437 1
202 437 1
211 437 1
156 438 1
186 438 1
203 438 1
212 438 1
157 439 1
187 439 1
204 439 1
213 439 1
158 440 1
188 440 1
205 440 1
214 440 1
142 441 1
159 441 1
206 441 1
215 441 1
143 442 1
160 442 1
207 442 1
216 442 1
144 443 1
161 443 1
208 443 1
217 443 1
145 444 1
162 444 1
209 444 1
218 444 1
146 445 1
163 445 1
210 445 1
219 445 1
147 446 1
164 446 1
211 446 1
220 446 1
148 447 1
165 447 1
212 447 1
221 447 1
149 448 1
166 448 1
213 448 1
222 448 1
150 449 1
167 449 1
214 449 1
223 449 1
151 450 1
168 450 1
215 450 1
224 450 1
152 451 1
169 451 1
216 451 1
225 451 1
153 452 1
170 452 1
217 452 1
226 452 1
154 453 1
171 453 1
218 453 1
227 453 1
155 454 1
172 454 1
219 454 1
228 454 1
156 455 1
173 455 1
220 455 1
229 455 1
157 456 1
174 456 1
221 456 1
230 456 1
158 457 1
175 457 1
222 457 1
231 457 1
159 458 1
176 458 1
223 458 1
232 458 1
160 459 1
177 459 1
224 459 1
233 459 1
161 460 1
178 460 1
225 460 1
234 460 1
162 461 1
179 461 1
226 461 1
235 461 1
163 462 1
180 462 1
189 462 1
227 462 1
164 463 1
181 463 1
190 463 1
228 463 1
165 464 1
182 464 1
191 464 1
229 464 1
166 465 1
183 465 1
192 465 1
230 465 1
167 466 1
184 466 1
193 466 1
231 466 1
168 467 1
185 467 1
194 467 1
232 467 1
169 468 1
186 468 1
195 468 1
233 468 1
170 469 1
187 469 1
196 469 1
234 469 1
171 470 1
188 470 1
197 470 1
235 470 1
