%%MatrixMarket matrix coordinate integer general
% Binary matrix; one-based indices; arithmetic over GF(2)
480 720 2880
16 1 1
49 1 1
196 1 1
217 1 1
17 2 1
50 2 1
197 2 1
218 2 1
18 3 1
51 3 1
198 3 1
219 3 1
19 4 1
52 4 1
199 4 1
220 4 1
20 5 1
53 5 1
200 5 1
221 5 1
21 6 1
54 6 1
201 6 1
222 6 1
22 7 1
55 7 1
202 7 1
223 7 1
23 8 1
56 8 1
203 8 1
224 8 1
24 9 1
57 9 1
204 9 1
225 9 1
25 10 1
58 10 1
205 10 1
211 10 1
26 11 1
59 11 1
206 11 1
212 11 1
27 12 1
60 12 1
207 12 1
213 12 1
28 13 1
46 13 1
208 13 1
214 13 1
29 14 1
47 14 1
209 14 1
215 14 1
30 15 1
48 15 1
210 15 1
216 15 1
1 16 1
34 16 1
181 16 1
232 16 1
2 17 1
35 17 1
182 17 1
233 17 1
3 18 1
36 18 1
183 18 1
234 18 1
4 19 1
37 19 1
184 19 1
235 19 1
5 20 1
38 20 1
185 20 1
236 20 1
6 21 1
39 21 1
186 21 1
237 21 1
7 22 1
40 22 1
187 22 1
238 22 1
8 23 1
41 23 1
188 23 1
239 23 1
9 24 1
42 24 1
189 24 1
240 24 1
10 25 1
43 25 1
190 25 1
226 25 1
11 26 1
44 26 1
191 26 1
227 26 1
12 27 1
45 27 1
192 27 1
228 27 1
13 28 1
31 28 1
193 28 1
229 28 1
14 29 1
32 29 1
194 29 1
230 29 1
15 30 1
33 30 1
195 30 1
231 30 1
19 31 1
46 31 1
187 31 1
226 31 1
20 32 1
47 32 1
188 32 1
227 32 1
21 33 1
48 33 1
189 33 1
228 33 1
22 34 1
49 34 1
190 34 1
229 34 1
23 35 1
50 35 1
191 35 1
230 35 1
24 36 1
51 36 1
192 36 1
231 36 1
25 37 1
52 37 1
193 37 1
232 37 1
26 38 1
53 38 1
194 38 1
233 38 1
27 39 1
54 39 1
195 39 1
234 39 1
28 40 1
55 40 1
181 40 1
235 40 1
29 41 1
56 41 1
182 41 1
236 41 1
30 42 1
57 42 1
183 42 1
237 42 1
16 43 1
58 43 1
184 43 1
238 43 1
17 44 1
59 44 1
185 44 1
239 44 1
18 45 1
60 45 1
186 45 1
240 45 1
4 46 1
31 46 1
202 46 1
211 46 1
5 47 1
32 47 1
203 47 1
212 47 1
6 48 1
33 48 1
204 48 1
213 48 1
7 49 1
34 49 1
205 49 1
214 49 1
8 50 1
35 50 1
206 50 1
215 50 1
9 51 1
36 51 1
207 51 1
216 51 1
10 52 1
37 52 1
208 52 1
217 52 1
11 53 1
38 53 1
209 53 1
218 53 1
12 54 1
39 54 1
210 54 1
219 54 1
13 55 1
40 55 1
196 55 1
220 55 1
14 56 1
41 56 1
197 56 1
221 56 1
15 57 1
42 57 1
198 57 1
222 57 1
1 58 1
43 58 1
199 58 1
223 58 1
2 59 1
44 59 1
200 59 1
224 59 1
3 60 1
45 60 1
201 60 1
225 60 1
76 61 1
109 61 1
136 61 1
157 61 1
77 62 1
110 62 1
137 62 1
158 62 1
78 63 1
111 63 1
138 63 1
159 63 1
79 64 1
112 64 1
139 64 1
160 64 1
80 65 1
113 65 1
140 65 1
161 65 1
81 66 1
114 66 1
141 66 1
162 66 1
82 67 1
115 67 1
142 67 1
163 67 1
83 68 1
116 68 1
143 68 1
164 68 1
84 69 1
117 69 1
144 69 1
165 69 1
85 70 1
118 70 1
145 70 1
151 70 1
86 71 1
119 71 1
146 71 1
152 71 1
87 72 1
120 72 1
147 72 1
153 72 1
88 73 1
106 73 1
148 73 1
154 73 1
89 74 1
107 74 1
149 74 1
155 74 1
90 75 1
108 75 1
150 75 1
156 75 1
61 76 1
94 76 1
121 76 1
172 76 1
62 77 1
95 77 1
122 77 1
173 77 1
63 78 1
96 78 1
123 78 1
174 78 1
64 79 1
97 79 1
124 79 1
175 79 1
65 80 1
98 80 1
125 80 1
176 80 1
66 81 1
99 81 1
126 81 1
177 81 1
67 82 1
100 82 1
127 82 1
178 82 1
68 83 1
101 83 1
128 83 1
179 83 1
69 84 1
102 84 1
129 84 1
180 84 1
70 85 1
103 85 1
130 85 1
166 85 1
71 86 1
104 86 1
131 86 1
167 86 1
72 87 1
105 87 1
132 87 1
168 87 1
73 88 1
91 88 1
133 88 1
169 88 1
74 89 1
92 89 1
134 89 1
170 89 1
75 90 1
93 90 1
135 90 1
171 90 1
79 91 1
106 91 1
127 91 1
166 91 1
80 92 1
107 92 1
128 92 1
167 92 1
81 93 1
108 93 1
129 93 1
168 93 1
82 94 1
109 94 1
130 94 1
169 94 1
83 95 1
110 95 1
131 95 1
170 95 1
84 96 1
111 96 1
132 96 1
171 96 1
85 97 1
112 97 1
133 97 1
172 97 1
86 98 1
113 98 1
134 98 1
173 98 1
87 99 1
114 99 1
135 99 1
174 99 1
88 100 1
115 100 1
121 100 1
175 100 1
89 101 1
116 101 1
122 101 1
176 101 1
90 102 1
117 102 1
123 102 1
177 102 1
76 103 1
118 103 1
124 103 1
178 103 1
77 104 1
119 104 1
125 104 1
179 104 1
78 105 1
120 105 1
126 105 1
180 105 1
64 106 1
91 106 1
142 106 1
151 106 1
65 107 1
92 107 1
143 107 1
152 107 1
66 108 1
93 108 1
144 108 1
153 108 1
67 109 1
94 109 1
145 109 1
154 109 1
68 110 1
95 110 1
146 110 1
155 110 1
69 111 1
96 111 1
147 111 1
156 111 1
70 112 1
97 112 1
148 112 1
157 112 1
71 113 1
98 113 1
149 113 1
158 113 1
72 114 1
99 114 1
150 114 1
159 114 1
73 115 1
100 115 1
136 115 1
160 115 1
74 116 1
101 116 1
137 116 1
161 116 1
75 117 1
102 117 1
138 117 1
162 117 1
61 118 1
103 118 1
139 118 1
163 118 1
62 119 1
104 119 1
140 119 1
164 119 1
63 120 1
105 120 1
141 120 1
165 120 1
36 121 1
53 121 1
316 121 1
337 121 1
37 122 1
54 122 1
317 122 1
338 122 1
38 123 1
55 123 1
318 123 1
339 123 1
39 124 1
56 124 1
319 124 1
340 124 1
40 125 1
57 125 1
320 125 1
341 125 1
41 126 1
58 126 1
321 126 1
342 126 1
42 127 1
59 127 1
322 127 1
343 127 1
43 128 1
60 128 1
323 128 1
344 128 1
44 129 1
46 129 1
324 129 1
345 129 1
45 130 1
47 130 1
325 130 1
331 130 1
31 131 1
48 131 1
326 131 1
332 131 1
32 132 1
49 132 1
327 132 1
333 132 1
33 133 1
50 133 1
328 133 1
334 133 1
34 134 1
51 134 1
329 134 1
335 134 1
35 135 1
52 135 1
330 135 1
336 135 1
38 136 1
51 136 1
301 136 1
352 136 1
39 137 1
52 137 1
302 137 1
353 137 1
40 138 1
53 138 1
303 138 1
354 138 1
41 139 1
54 139 1
304 139 1
355 139 1
42 140 1
55 140 1
305 140 1
356 140 1
43 141 1
56 141 1
306 141 1
357 141 1
44 142 1
57 142 1
307 142 1
358 142 1
45 143 1
58 143 1
308 143 1
359 143 1
31 144 1
59 144 1
309 144 1
360 144 1
32 145 1
60 145 1
310 145 1
346 145 1
33 146 1
46 146 1
311 146 1
347 146 1
34 147 1
47 147 1
312 147 1
348 147 1
35 148 1
48 148 1
313 148 1
349 148 1
36 149 1
49 149 1
314 149 1
350 149 1
37 150 1
50 150 1
315 150 1
351 150 1
6 151 1
23 151 1
307 151 1
346 151 1
7 152 1
24 152 1
308 152 1
347 152 1
8 153 1
25 153 1
309 153 1
348 153 1
9 154 1
26 154 1
310 154 1
349 154 1
10 155 1
27 155 1
311 155 1
350 155 1
11 156 1
28 156 1
312 156 1
351 156 1
12 157 1
29 157 1
313 157 1
352 157 1
13 158 1
30 158 1
314 158 1
353 158 1
14 159 1
16 159 1
315 159 1
354 159 1
15 160 1
17 160 1
301 160 1
355 160 1
1 161 1
18 161 1
302 161 1
356 161 1
2 162 1
19 162 1
303 162 1
357 162 1
3 163 1
20 163 1
304 163 1
358 163 1
4 164 1
21 164 1
305 164 1
359 164 1
5 165 1
22 165 1
306 165 1
360 165 1
8 166 1
21 166 1
322 166 1
331 166 1
9 167 1
22 167 1
323 167 1
332 167 1
10 168 1
23 168 1
324 168 1
333 168 1
11 169 1
24 169 1
325 169 1
334 169 1
12 170 1
25 170 1
326 170 1
335 170 1
13 171 1
26 171 1
327 171 1
336 171 1
14 172 1
27 172 1
328 172 1
337 172 1
15 173 1
28 173 1
329 173 1
338 173 1
1 174 1
29 174 1
330 174 1
339 174 1
2 175 1
30 175 1
316 175 1
340 175 1
3 176 1
16 176 1
317 176 1
341 176 1
4 177 1
17 177 1
318 177 1
342 177 1
5 178 1
18 178 1
319 178 1
343 178 1
6 179 1
19 179 1
320 179 1
344 179 1
7 180 1
20 180 1
321 180 1
345 180 1
96 181 1
113 181 1
256 181 1
277 181 1
97 182 1
114 182 1
257 182 1
278 182 1
98 183 1
115 183 1
258 183 1
279 183 1
99 184 1
116 184 1
259 184 1
280 184 1
100 185 1
117 185 1
260 185 1
281 185 1
101 186 1
118 186 1
261 186 1
282 186 1
102 187 1
119 187 1
262 187 1
283 187 1
103 188 1
120 188 1
263 188 1
284 188 1
104 189 1
106 189 1
264 189 1
285 189 1
105 190 1
107 190 1
265 190 1
271 190 1
91 191 1
108 191 1
266 191 1
272 191 1
92 192 1
109 192 1
267 192 1
273 192 1
93 193 1
110 193 1
268 193 1
274 193 1
94 194 1
111 194 1
269 194 1
275 194 1
95 195 1
112 195 1
270 195 1
276 195 1
98 196 1
111 196 1
241 196 1
292 196 1
99 197 1
112 197 1
242 197 1
293 197 1
100 198 1
113 198 1
243 198 1
294 198 1
101 199 1
114 199 1
244 199 1
295 199 1
102 200 1
115 200 1
245 200 1
296 200 1
103 201 1
116 201 1
246 201 1
297 201 1
104 202 1
117 202 1
247 202 1
298 202 1
105 203 1
118 203 1
248 203 1
299 203 1
91 204 1
119 204 1
249 204 1
300 204 1
92 205 1
120 205 1
250 205 1
286 205 1
93 206 1
106 206 1
251 206 1
287 206 1
94 207 1
107 207 1
252 207 1
288 207 1
95 208 1
108 208 1
253 208 1
289 208 1
96 209 1
109 209 1
254 209 1
290 209 1
97 210 1
110 210 1
255 210 1
291 210 1
66 211 1
83 211 1
247 211 1
286 211 1
67 212 1
84 212 1
248 212 1
287 212 1
68 213 1
85 213 1
249 213 1
288 213 1
69 214 1
86 214 1
250 214 1
289 214 1
70 215 1
87 215 1
251 215 1
290 215 1
71 216 1
88 216 1
252 216 1
291 216 1
72 217 1
89 217 1
253 217 1
292 217 1
73 218 1
90 218 1
254 218 1
293 218 1
74 219 1
76 219 1
255 219 1
294 219 1
75 220 1
77 220 1
241 220 1
295 220 1
61 221 1
78 221 1
242 221 1
296 221 1
62 222 1
79 222 1
243 222 1
297 222 1
63 223 1
80 223 1
244 223 1
298 223 1
64 224 1
81 224 1
245 224 1
299 224 1
65 225 1
82 225 1
246 225 1
300 225 1
68 226 1
81 226 1
262 226 1
271 226 1
69 227 1
82 227 1
263 227 1
272 227 1
70 228 1
83 228 1
264 228 1
273 228 1
71 229 1
84 229 1
265 229 1
274 229 1
72 230 1
85 230 1
266 230 1
275 230 1
73 231 1
86 231 1
267 231 1
276 231 1
74 232 1
87 232 1
268 232 1
277 232 1
75 233 1
88 233 1
269 233 1
278 233 1
61 234 1
89 234 1
270 234 1
279 234 1
62 235 1
90 235 1
256 235 1
280 235 1
63 236 1
76 236 1
257 236 1
281 236 1
64 237 1
77 237 1
258 237 1
282 237 1
65 238 1
78 238 1
259 238 1
283 238 1
66 239 1
79 239 1
260 239 1
284 239 1
67 240 1
80 240 1
261 240 1
285 240 1
5 241 1
21 241 1
436 241 1
457 241 1
6 242 1
22 242 1
437 242 1
458 242 1
7 243 1
23 243 1
438 243 1
459 243 1
8 244 1
24 244 1
439 244 1
460 244 1
9 245 1
25 245 1
440 245 1
461 245 1
10 246 1
26 246 1
441 246 1
462 246 1
11 247 1
27 247 1
442 247 1
463 247 1
12 248 1
28 248 1
443 248 1
464 248 1
13 249 1
29 249 1
444 249 1
465 249 1
14 250 1
30 250 1
445 250 1
451 250 1
15 251 1
16 251 1
446 251 1
452 251 1
1 252 1
17 252 1
447 252 1
453 252 1
2 253 1
18 253 1
448 253 1
454 253 1
3 254 1
19 254 1
449 254 1
455 254 1
4 255 1
20 255 1
450 255 1
456 255 1
6 256 1
20 256 1
421 256 1
472 256 1
7 257 1
21 257 1
422 257 1
473 257 1
8 258 1
22 258 1
423 258 1
474 258 1
9 259 1
23 259 1
424 259 1
475 259 1
10 260 1
24 260 1
425 260 1
476 260 1
11 261 1
25 261 1
426 261 1
477 261 1
12 262 1
26 262 1
427 262 1
478 262 1
13 263 1
27 263 1
428 263 1
479 263 1
14 264 1
28 264 1
429 264 1
480 264 1
15 265 1
29 265 1
430 265 1
466 265 1
1 266 1
30 266 1
431 266 1
467 266 1
2 267 1
16 267 1
432 267 1
468 267 1
3 268 1
17 268 1
433 268 1
469 268 1
4 269 1
18 269 1
434 269 1
470 269 1
5 270 1
19 270 1
435 270 1
471 270 1
35 271 1
51 271 1
427 271 1
466 271 1
36 272 1
52 272 1
428 272 1
467 272 1
37 273 1
53 273 1
429 273 1
468 273 1
38 274 1
54 274 1
430 274 1
469 274 1
39 275 1
55 275 1
431 275 1
470 275 1
40 276 1
56 276 1
432 276 1
471 276 1
41 277 1
57 277 1
433 277 1
472 277 1
42 278 1
58 278 1
434 278 1
473 278 1
43 279 1
59 279 1
435 279 1
474 279 1
44 280 1
60 280 1
421 280 1
475 280 1
45 281 1
46 281 1
422 281 1
476 281 1
31 282 1
47 282 1
423 282 1
477 282 1
32 283 1
48 283 1
424 283 1
478 283 1
33 284 1
49 284 1
425 284 1
479 284 1
34 285 1
50 285 1
426 285 1
480 285 1
36 286 1
50 286 1
442 286 1
451 286 1
37 287 1
51 287 1
443 287 1
452 287 1
38 288 1
52 288 1
444 288 1
453 288 1
39 289 1
53 289 1
445 289 1
454 289 1
40 290 1
54 290 1
446 290 1
455 290 1
41 291 1
55 291 1
447 291 1
456 291 1
42 292 1
56 292 1
448 292 1
457 292 1
43 293 1
57 293 1
449 293 1
458 293 1
44 294 1
58 294 1
450 294 1
459 294 1
45 295 1
59 295 1
436 295 1
460 295 1
31 296 1
60 296 1
437 296 1
461 296 1
32 297 1
46 297 1
438 297 1
462 297 1
33 298 1
47 298 1
439 298 1
463 298 1
34 299 1
48 299 1
440 299 1
464 299 1
35 300 1
49 300 1
441 300 1
465 300 1
65 301 1
81 301 1
376 301 1
397 301 1
66 302 1
82 302 1
377 302 1
398 302 1
67 303 1
83 303 1
378 303 1
399 303 1
68 304 1
84 304 1
379 304 1
400 304 1
69 305 1
85 305 1
380 305 1
401 305 1
70 306 1
86 306 1
381 306 1
402 306 1
71 307 1
87 307 1
382 307 1
403 307 1
72 308 1
88 308 1
383 308 1
404 308 1
73 309 1
89 309 1
384 309 1
405 309 1
74 310 1
90 310 1
385 310 1
391 310 1
75 311 1
76 311 1
386 311 1
392 311 1
61 312 1
77 312 1
387 312 1
393 312 1
62 313 1
78 313 1
388 313 1
394 313 1
63 314 1
79 314 1
389 314 1
395 314 1
64 315 1
80 315 1
390 315 1
396 315 1
66 316 1
80 316 1
361 316 1
412 316 1
67 317 1
81 317 1
362 317 1
413 317 1
68 318 1
82 318 1
363 318 1
414 318 1
69 319 1
83 319 1
364 319 1
415 319 1
70 320 1
84 320 1
365 320 1
416 320 1
71 321 1
85 321 1
366 321 1
417 321 1
72 322 1
86 322 1
367 322 1
418 322 1
73 323 1
87 323 1
368 323 1
419 323 1
74 324 1
88 324 1
369 324 1
420 324 1
75 325 1
89 325 1
370 325 1
406 325 1
61 326 1
90 326 1
371 326 1
407 326 1
62 327 1
76 327 1
372 327 1
408 327 1
63 328 1
77 328 1
373 328 1
409 328 1
64 329 1
78 329 1
374 329 1
410 329 1
65 330 1
79 330 1
375 330 1
411 330 1
95 331 1
111 331 1
367 331 1
406 331 1
96 332 1
112 332 1
368 332 1
407 332 1
97 333 1
113 333 1
369 333 1
408 333 1
98 334 1
114 334 1
370 334 1
409 334 1
99 335 1
115 335 1
371 335 1
410 335 1
100 336 1
116 336 1
372 336 1
411 336 1
101 337 1
117 337 1
373 337 1
412 337 1
102 338 1
118 338 1
374 338 1
413 338 1
103 339 1
119 339 1
375 339 1
414 339 1
104 340 1
120 340 1
361 340 1
415 340 1
105 341 1
106 341 1
362 341 1
416 341 1
91 342 1
107 342 1
363 342 1
417 342 1
92 343 1
108 343 1
364 343 1
418 343 1
93 344 1
109 344 1
365 344 1
419 344 1
94 345 1
110 345 1
366 345 1
420 345 1
96 346 1
110 346 1
382 346 1
391 346 1
97 347 1
111 347 1
383 347 1
392 347 1
98 348 1
112 348 1
384 348 1
393 348 1
99 349 1
113 349 1
385 349 1
394 349 1
100 350 1
114 350 1
386 350 1
395 350 1
101 351 1
115 351 1
387 351 1
396 351 1
102 352 1
116 352 1
388 352 1
397 352 1
103 353 1
117 353 1
389 353 1
398 353 1
104 354 1
118 354 1
390 354 1
399 354 1
105 355 1
119 355 1
376 355 1
400 355 1
91 356 1
120 356 1
377 356 1
401 356 1
92 357 1
106 357 1
378 357 1
402 357 1
93 358 1
107 358 1
379 358 1
403 358 1
94 359 1
108 359 1
380 359 1
404 359 1
95 360 1
109 360 1
381 360 1
405 360 1
156 361 1
173 361 1
256 361 1
289 361 1
157 362 1
174 362 1
257 362 1
290 362 1
158 363 1
175 363 1
258 363 1
291 363 1
159 364 1
176 364 1
259 364 1
292 364 1
160 365 1
177 365 1
260 365 1
293 365 1
161 366 1
178 366 1
261 366 1
294 366 1
162 367 1
179 367 1
262 367 1
295 367 1
163 368 1
180 368 1
263 368 1
296 368 1
164 369 1
166 369 1
264 369 1
297 369 1
165 370 1
167 370 1
265 370 1
298 370 1
151 371 1
168 371 1
266 371 1
299 371 1
152 372 1
169 372 1
267 372 1
300 372 1
153 373 1
170 373 1
268 373 1
286 373 1
154 374 1
171 374 1
269 374 1
287 374 1
155 375 1
172 375 1
270 375 1
288 375 1
158 376 1
171 376 1
241 376 1
274 376 1
159 377 1
172 377 1
242 377 1
275 377 1
160 378 1
173 378 1
243 378 1
276 378 1
161 379 1
174 379 1
244 379 1
277 379 1
162 380 1
175 380 1
245 380 1
278 380 1
163 381 1
176 381 1
246 381 1
279 381 1
164 382 1
177 382 1
247 382 1
280 382 1
165 383 1
178 383 1
248 383 1
281 383 1
151 384 1
179 384 1
249 384 1
282 384 1
152 385 1
180 385 1
250 385 1
283 385 1
153 386 1
166 386 1
251 386 1
284 386 1
154 387 1
167 387 1
252 387 1
285 387 1
155 388 1
168 388 1
253 388 1
271 388 1
156 389 1
169 389 1
254 389 1
272 389 1
157 390 1
170 390 1
255 390 1
273 390 1
126 391 1
143 391 1
259 391 1
286 391 1
127 392 1
144 392 1
260 392 1
287 392 1
128 393 1
145 393 1
261 393 1
288 393 1
129 394 1
146 394 1
262 394 1
289 394 1
130 395 1
147 395 1
263 395 1
290 395 1
131 396 1
148 396 1
264 396 1
291 396 1
132 397 1
149 397 1
265 397 1
292 397 1
133 398 1
150 398 1
266 398 1
293 398 1
134 399 1
136 399 1
267 399 1
294 399 1
135 400 1
137 400 1
268 400 1
295 400 1
121 401 1
138 401 1
269 401 1
296 401 1
122 402 1
139 402 1
270 402 1
297 402 1
123 403 1
140 403 1
256 403 1
298 403 1
124 404 1
141 404 1
257 404 1
299 404 1
125 405 1
142 405 1
258 405 1
300 405 1
128 406 1
141 406 1
244 406 1
271 406 1
129 407 1
142 407 1
245 407 1
272 407 1
130 408 1
143 408 1
246 408 1
273 408 1
131 409 1
144 409 1
247 409 1
274 409 1
132 410 1
145 410 1
248 410 1
275 410 1
133 411 1
146 411 1
249 411 1
276 411 1
134 412 1
147 412 1
250 412 1
277 412 1
135 413 1
148 413 1
251 413 1
278 413 1
121 414 1
149 414 1
252 414 1
279 414 1
122 415 1
150 415 1
253 415 1
280 415 1
123 416 1
136 416 1
254 416 1
281 416 1
124 417 1
137 417 1
255 417 1
282 417 1
125 418 1
138 418 1
241 418 1
283 418 1
126 419 1
139 419 1
242 419 1
284 419 1
127 420 1
140 420 1
243 420 1
285 420 1
216 421 1
233 421 1
316 421 1
349 421 1
217 422 1
234 422 1
317 422 1
350 422 1
218 423 1
235 423 1
318 423 1
351 423 1
219 424 1
236 424 1
319 424 1
352 424 1
220 425 1
237 425 1
320 425 1
353 425 1
221 426 1
238 426 1
321 426 1
354 426 1
222 427 1
239 427 1
322 427 1
355 427 1
223 428 1
240 428 1
323 428 1
356 428 1
224 429 1
226 429 1
324 429 1
357 429 1
225 430 1
227 430 1
325 430 1
358 430 1
211 431 1
228 431 1
326 431 1
359 431 1
212 432 1
229 432 1
327 432 1
360 432 1
213 433 1
230 433 1
328 433 1
346 433 1
214 434 1
231 434 1
329 434 1
347 434 1
215 435 1
232 435 1
330 435 1
348 435 1
218 436 1
231 436 1
301 436 1
334 436 1
219 437 1
232 437 1
302 437 1
335 437 1
220 438 1
233 438 1
303 438 1
336 438 1
221 439 1
234 439 1
304 439 1
337 439 1
222 440 1
235 440 1
305 440 1
338 440 1
223 441 1
236 441 1
306 441 1
339 441 1
224 442 1
237 442 1
307 442 1
340 442 1
225 443 1
238 443 1
308 443 1
341 443 1
211 444 1
239 444 1
309 444 1
342 444 1
212 445 1
240 445 1
310 445 1
343 445 1
213 446 1
226 446 1
311 446 1
344 446 1
214 447 1
227 447 1
312 447 1
345 447 1
215 448 1
228 448 1
313 448 1
331 448 1
216 449 1
229 449 1
314 449 1
332 449 1
217 450 1
230 450 1
315 450 1
333 450 1
186 451 1
203 451 1
319 451 1
346 451 1
187 452 1
204 452 1
320 452 1
347 452 1
188 453 1
205 453 1
321 453 1
348 453 1
189 454 1
206 454 1
322 454 1
349 454 1
190 455 1
207 455 1
323 455 1
350 455 1
191 456 1
208 456 1
324 456 1
351 456 1
192 457 1
209 457 1
325 457 1
352 457 1
193 458 1
210 458 1
326 458 1
353 458 1
194 459 1
196 459 1
327 459 1
354 459 1
195 460 1
197 460 1
328 460 1
355 460 1
181 461 1
198 461 1
329 461 1
356 461 1
182 462 1
199 462 1
330 462 1
357 462 1
183 463 1
200 463 1
316 463 1
358 463 1
184 464 1
201 464 1
317 464 1
359 464 1
185 465 1
202 465 1
318 465 1
360 465 1
188 466 1
201 466 1
304 466 1
331 466 1
189 467 1
202 467 1
305 467 1
332 467 1
190 468 1
203 468 1
306 468 1
333 468 1
191 469 1
204 469 1
307 469 1
334 469 1
192 470 1
205 470 1
308 470 1
335 470 1
193 471 1
206 471 1
309 471 1
336 471 1
194 472 1
207 472 1
310 472 1
337 472 1
195 473 1
208 473 1
311 473 1
338 473 1
181 474 1
209 474 1
312 474 1
339 474 1
182 475 1
210 475 1
313 475 1
340 475 1
183 476 1
196 476 1
314 476 1
341 476 1
184 477 1
197 477 1
315 477 1
342 477 1
185 478 1
198 478 1
301 478 1
343 478 1
186 479 1
199 479 1
302 479 1
344 479 1
187 480 1
200 480 1
303 480 1
345 480 1
125 481 1
141 481 1
376 481 1
409 481 1
126 482 1
142 482 1
377 482 1
410 482 1
127 483 1
143 483 1
378 483 1
411 483 1
128 484 1
144 484 1
379 484 1
412 484 1
129 485 1
145 485 1
380 485 1
413 485 1
130 486 1
146 486 1
381 486 1
414 486 1
131 487 1
147 487 1
382 487 1
415 487 1
132 488 1
148 488 1
383 488 1
416 488 1
133 489 1
149 489 1
384 489 1
417 489 1
134 490 1
150 490 1
385 490 1
418 490 1
135 491 1
136 491 1
386 491 1
419 491 1
121 492 1
137 492 1
387 492 1
420 492 1
122 493 1
138 493 1
388 493 1
406 493 1
123 494 1
139 494 1
389 494 1
407 494 1
124 495 1
140 495 1
390 495 1
408 495 1
126 496 1
140 496 1
361 496 1
394 496 1
127 497 1
141 497 1
362 497 1
395 497 1
128 498 1
142 498 1
363 498 1
396 498 1
129 499 1
143 499 1
364 499 1
397 499 1
130 500 1
144 500 1
365 500 1
398 500 1
131 501 1
145 501 1
366 501 1
399 501 1
132 502 1
146 502 1
367 502 1
400 502 1
133 503 1
147 503 1
368 503 1
401 503 1
134 504 1
148 504 1
369 504 1
402 504 1
135 505 1
149 505 1
370 505 1
403 505 1
121 506 1
150 506 1
371 506 1
404 506 1
122 507 1
136 507 1
372 507 1
405 507 1
123 508 1
137 508 1
373 508 1
391 508 1
124 509 1
138 509 1
374 509 1
392 509 1
125 510 1
139 510 1
375 510 1
393 510 1
155 511 1
171 511 1
379 511 1
406 511 1
156 512 1
172 512 1
380 512 1
407 512 1
157 513 1
173 513 1
381 513 1
408 513 1
158 514 1
174 514 1
382 514 1
409 514 1
159 515 1
175 515 1
383 515 1
410 515 1
160 516 1
176 516 1
384 516 1
411 516 1
161 517 1
177 517 1
385 517 1
412 517 1
162 518 1
178 518 1
386 518 1
413 518 1
163 519 1
179 519 1
387 519 1
414 519 1
164 520 1
180 520 1
388 520 1
415 520 1
165 521 1
166 521 1
389 521 1
416 521 1
151 522 1
167 522 1
390 522 1
417 522 1
152 523 1
168 523 1
376 523 1
418 523 1
153 524 1
169 524 1
377 524 1
419 524 1
154 525 1
170 525 1
378 525 1
420 525 1
156 526 1
170 526 1
364 526 1
391 526 1
157 527 1
171 527 1
365 527 1
392 527 1
158 528 1
172 528 1
366 528 1
393 528 1
159 529 1
173 529 1
367 529 1
394 529 1
160 530 1
174 530 1
368 530 1
395 530 1
161 531 1
175 531 1
369 531 1
396 531 1
162 532 1
176 532 1
370 532 1
397 532 1
163 533 1
177 533 1
371 533 1
398 533 1
164 534 1
178 534 1
372 534 1
399 534 1
165 535 1
179 535 1
373 535 1
400 535 1
151 536 1
180 536 1
374 536 1
401 536 1
152 537 1
166 537 1
375 537 1
402 537 1
153 538 1
167 538 1
361 538 1
403 538 1
154 539 1
168 539 1
362 539 1
404 539 1
155 540 1
169 540 1
363 540 1
405 540 1
185 541 1
201 541 1
436 541 1
469 541 1
186 542 1
202 542 1
437 542 1
470 542 1
187 543 1
203 543 1
438 543 1
471 543 1
188 544 1
204 544 1
439 544 1
472 544 1
189 545 1
205 545 1
440 545 1
473 545 1
190 546 1
206 546 1
441 546 1
474 546 1
191 547 1
207 547 1
442 547 1
475 547 1
192 548 1
208 548 1
443 548 1
476 548 1
193 549 1
209 549 1
444 549 1
477 549 1
194 550 1
210 550 1
445 550 1
478 550 1
195 551 1
196 551 1
446 551 1
479 551 1
181 552 1
197 552 1
447 552 1
480 552 1
182 553 1
198 553 1
448 553 1
466 553 1
183 554 1
199 554 1
449 554 1
467 554 1
184 555 1
200 555 1
450 555 1
468 555 1
186 556 1
200 556 1
421 556 1
454 556 1
187 557 1
201 557 1
422 557 1
455 557 1
188 558 1
202 558 1
423 558 1
456 558 1
189 559 1
203 559 1
424 559 1
457 559 1
190 560 1
204 560 1
425 560 1
458 560 1
191 561 1
205 561 1
426 561 1
459 561 1
192 562 1
206 562 1
427 562 1
460 562 1
193 563 1
207 563 1
428 563 1
461 563 1
194 564 1
208 564 1
429 564 1
462 564 1
195 565 1
209 565 1
430 565 1
463 565 1
181 566 1
210 566 1
431 566 1
464 566 1
182 567 1
196 567 1
432 567 1
465 567 1
183 568 1
197 568 1
433 568 1
451 568 1
184 569 1
198 569 1
434 569 1
452 569 1
185 570 1
199 570 1
435 570 1
453 570 1
215 571 1
231 571 1
439 571 1
466 571 1
216 572 1
232 572 1
440 572 1
467 572 1
217 573 1
233 573 1
441 573 1
468 573 1
218 574 1
234 574 1
442 574 1
469 574 1
219 575 1
235 575 1
443 575 1
470 575 1
220 576 1
236 576 1
444 576 1
471 576 1
221 577 1
237 577 1
445 577 1
472 577 1
222 578 1
238 578 1
446 578 1
473 578 1
223 579 1
239 579 1
447 579 1
474 579 1
224 580 1
240 580 1
448 580 1
475 580 1
225 581 1
226 581 1
449 581 1
476 581 1
211 582 1
227 582 1
450 582 1
477 582 1
212 583 1
228 583 1
436 583 1
478 583 1
213 584 1
229 584 1
437 584 1
479 584 1
214 585 1
230 585 1
438 585 1
480 585 1
216 586 1
230 586 1
424 586 1
451 586 1
217 587 1
231 587 1
425 587 1
452 587 1
218 588 1
232 588 1
426 588 1
453 588 1
219 589 1
233 589 1
427 589 1
454 589 1
220 590 1
234 590 1
428 590 1
455 590 1
221 591 1
235 591 1
429 591 1
456 591 1
222 592 1
236 592 1
430 592 1
457 592 1
223 593 1
237 593 1
431 593 1
458 593 1
224 594 1
238 594 1
432 594 1
459 594 1
225 595 1
239 595 1
433 595 1
460 595 1
211 596 1
240 596 1
434 596 1
461 596 1
212 597 1
226 597 1
435 597 1
462 597 1
213 598 1
227 598 1
421 598 1
463 598 1
214 599 1
228 599 1
422 599 1
464 599 1
215 600 1
229 600 1
423 600 1
465 600 1
245 601 1
261 601 1
396 601 1
413 601 1
246 602 1
262 602 1
397 602 1
414 602 1
247 603 1
263 603 1
398 603 1
415 603 1
248 604 1
264 604 1
399 604 1
416 604 1
249 605 1
265 605 1
400 605 1
417 605 1
250 606 1
266 606 1
401 606 1
418 606 1
251 607 1
267 607 1
402 607 1
419 607 1
252 608 1
268 608 1
403 608 1
420 608 1
253 609 1
269 609 1
404 609 1
406 609 1
254 610 1
270 610 1
405 610 1
407 610 1
255 611 1
256 611 1
391 611 1
408 611 1
241 612 1
257 612 1
392 612 1
409 612 1
242 613 1
258 613 1
393 613 1
410 613 1
243 614 1
259 614 1
394 614 1
411 614 1
244 615 1
260 615 1
395 615 1
412 615 1
246 616 1
260 616 1
398 616 1
411 616 1
247 617 1
261 617 1
399 617 1
412 617 1
248 618 1
262 618 1
400 618 1
413 618 1
249 619 1
263 619 1
401 619 1
414 619 1
250 620 1
264 620 1
402 620 1
415 620 1
251 621 1
265 621 1
403 621 1
416 621 1
252 622 1
266 622 1
404 622 1
417 622 1
253 623 1
267 623 1
405 623 1
418 623 1
254 624 1
268 624 1
391 624 1
419 624 1
255 625 1
269 625 1
392 625 1
420 625 1
241 626 1
270 626 1
393 626 1
406 626 1
242 627 1
256 627 1
394 627 1
407 627 1
243 628 1
257 628 1
395 628 1
408 628 1
244 629 1
258 629 1
396 629 1
409 629 1
245 630 1
259 630 1
397 630 1
410 630 1
275 631 1
291 631 1
366 631 1
383 631 1
276 632 1
292 632 1
367 632 1
384 632 1
277 633 1
293 633 1
368 633 1
385 633 1
278 634 1
294 634 1
369 634 1
386 634 1
279 635 1
295 635 1
370 635 1
387 635 1
280 636 1
296 636 1
371 636 1
388 636 1
281 637 1
297 637 1
372 637 1
389 637 1
282 638 1
298 638 1
373 638 1
390 638 1
283 639 1
299 639 1
374 639 1
376 639 1
284 640 1
300 640 1
375 640 1
377 640 1
285 641 1
286 641 1
361 641 1
378 641 1
271 642 1
287 642 1
362 642 1
379 642 1
272 643 1
288 643 1
363 643 1
380 643 1
273 644 1
289 644 1
364 644 1
381 644 1
274 645 1
290 645 1
365 645 1
382 645 1
276 646 1
290 646 1
368 646 1
381 646 1
277 647 1
291 647 1
369 647 1
382 647 1
278 648 1
292 648 1
370 648 1
383 648 1
279 649 1
293 649 1
371 649 1
384 649 1
280 650 1
294 650 1
372 650 1
385 650 1
281 651 1
295 651 1
373 651 1
386 651 1
282 652 1
296 652 1
374 652 1
387 652 1
283 653 1
297 653 1
375 653 1
388 653 1
284 654 1
298 654 1
361 654 1
389 654 1
285 655 1
299 655 1
362 655 1
390 655 1
271 656 1
300 656 1
363 656 1
376 656 1
272 657 1
286 657 1
364 657 1
377 657 1
273 658 1
287 658 1
365 658 1
378 658 1
274 659 1
288 659 1
366 659 1
379 659 1
275 660 1
289 660 1
367 660 1
380 660 1
305 661 1
321 661 1
456 661 1
473 661 1
306 662 1
322 662 1
457 662 1
474 662 1
307 663 1
323 663 1
458 663 1
475 663 1
308 664 1
324 664 1
459 664 1
476 664 1
309 665 1
325 665 1
460 665 1
477 665 1
310 666 1
326 666 1
461 666 1
478 666 1
311 667 1
327 667 1
462 667 1
479 667 1
312 668 1
328 668 1
463 668 1
480 668 1
313 669 1
329 669 1
464 669 1
466 669 1
314 670 1
330 670 1
465 670 1
467 670 1
315 671 1
316 671 1
451 671 1
468 671 1
301 672 1
317 672 1
452 672 1
469 672 1
302 673 1
318 673 1
453 673 1
470 673 1
303 674 1
319 674 1
454 674 1
471 674 1
304 675 1
320 675 1
455 675 1
472 675 1
306 676 1
320 676 1
458 676 1
471 676 1
307 677 1
321 677 1
459 677 1
472 677 1
308 678 1
322 678 1
460 678 1
473 678 1
309 679 1
323 679 1
461 679 1
474 679 1
310 680 1
324 680 1
462 680 1
475 680 1
311 681 1
325 681 1
463 681 1
476 681 1
312 682 1
326 682 1
464 682 1
477 682 1
313 683 1
327 683 1
465 683 1
478 683 1
314 684 1
328 684 1
451 684 1
479 684 1
315 685 1
329 685 1
452 685 1
480 685 1
301 686 1
330 686 1
453 686 1
466 686 1
302 687 1
316 687 1
454 687 1
467 687 1
303 688 1
317 688 1
455 688 1
468 688 1
304 689 1
318 689 1
456 689 1
469 689 1
305 690 1
319 690 1
457 690 1
470 690 1
335 691 1
351 691 1
426 691 1
443 691 1
336 692 1
352 692 1
427 692 1
444 692 1
337 693 1
353 693 1
428 693 1
445 693 1
338 694 1
354 694 1
429 694 1
446 694 1
339 695 1
355 695 1
430 695 1
447 695 1
340 696 1
356 696 1
431 696 1
448 696 1
341 697 1
357 697 1
432 697 1
449 697 1
342 698 1
358 698 1
433 698 1
450 698 1
343 699 1
359 699 1
434 699 1
436 699 1
344 700 1
360 700 1
435 700 1
437 700 1
345 701 1
346 701 1
421 701 1
438 701 1
331 702 1
347 702 1
422 702 1
439 702 1
332 703 1
348 703 1
423 703 1
440 703 1
333 704 1
349 704 1
424 704 1
441 704 1
334 705 1
350 705 1
425 705 1
442 705 1
336 706 1
350 706 1
428 706 1
441 706 1
337 707 1
351 707 1
429 707 1
442 707 1
338 708 1
352 708 1
430 708 1
443 708 1
339 709 1
353 709 1
431 709 1
444 709 1
340 710 1
354 710 1
432 710 1
445 710 1
341 711 1
355 711 1
433 711 1
446 711 1
342 712 1
356 712 1
434 712 1
447 712 1
343 713 1
357 713 1
435 713 1
448 713 1
344 714 1
358 714 1
421 714 1
449 714 1
345 715 1
359 715 1
422 715 1
450 715 1
331 716 1
360 716 1
423 716 1
436 716 1
332 717 1
346 717 1
424 717 1
437 717 1
333 718 1
347 718 1
425 718 1
438 718 1
334 719 1
348 719 1
426 719 1
439 719 1
335 720 1
349 720 1
427 720 1
440 720 1
