%%MatrixMarket matrix coordinate integer general
% Binary matrix; one-based indices; arithmetic over GF(2)
294 490 2940
1 1 1
6 1 1
15 1 1
17 1 1
29 1 1
30 1 1
2 2 1
7 2 1
16 2 1
18 2 1
30 2 1
31 2 1
3 3 1
8 3 1
17 3 1
19 3 1
31 3 1
32 3 1
4 4 1
9 4 1
18 4 1
20 4 1
32 4 1
33 4 1
5 5 1
10 5 1
19 5 1
21 5 1
33 5 1
34 5 1
6 6 1
11 6 1
20 6 1
22 6 1
34 6 1
35 6 1
7 7 1
12 7 1
21 7 1
23 7 1
35 7 1
36 7 1
8 8 1
13 8 1
22 8 1
24 8 1
36 8 1
37 8 1
9 9 1
14 9 1
23 9 1
25 9 1
37 9 1
38 9 1
1 10 1
10 10 1
24 10 1
26 10 1
38 10 1
39 10 1
2 11 1
11 11 1
25 11 1
27 11 1
39 11 1
40 11 1
3 12 1
12 12 1
26 12 1
28 12 1
40 12 1
41 12 1
4 13 1
13 13 1
15 13 1
27 13 1
41 13 1
42 13 1
5 14 1
14 14 1
16 14 1
28 14 1
29 14 1
42 14 1
1 15 1
8 15 1
43 15 1
45 15 1
57 15 1
58 15 1
2 16 1
9 16 1
44 16 1
46 16 1
58 16 1
59 16 1
3 17 1
10 17 1
45 17 1
47 17 1
59 17 1
60 17 1
4 18 1
11 18 1
46 18 1
48 18 1
60 18 1
61 18 1
5 19 1
12 19 1
47 19 1
49 19 1
61 19 1
62 19 1
6 20 1
13 20 1
48 20 1
50 20 1
62 20 1
63 20 1
7 21 1
14 21 1
49 21 1
51 21 1
63 21 1
64 21 1
1 22 1
8 22 1
50 22 1
52 22 1
64 22 1
65 22 1
2 23 1
9 23 1
51 23 1
53 23 1
65 23 1
66 23 1
3 24 1
10 24 1
52 24 1
54 24 1
66 24 1
67 24 1
4 25 1
11 25 1
53 25 1
55 25 1
67 25 1
68 25 1
5 26 1
12 26 1
54 26 1
56 26 1
68 26 1
69 26 1
6 27 1
13 27 1
43 27 1
55 27 1
69 27 1
70 27 1
7 28 1
14 28 1
44 28 1
56 28 1
57 28 1
70 28 1
15 29 1
22 29 1
43 29 1
48 29 1
71 29 1
72 29 1
16 30 1
23 30 1
44 30 1
49 30 1
72 30 1
73 30 1
17 31 1
24 31 1
45 31 1
50 31 1
73 31 1
74 31 1
18 32 1
25 32 1
46 32 1
51 32 1
74 32 1
75 32 1
19 33 1
26 33 1
47 33 1
52 33 1
75 33 1
76 33 1
20 34 1
27 34 1
48 34 1
53 34 1
76 34 1
77 34 1
21 35 1
28 35 1
49 35 1
54 35 1
77 35 1
78 35 1
15 36 1
22 36 1
50 36 1
55 36 1
78 36 1
79 36 1
16 37 1
23 37 1
51 37 1
56 37 1
79 37 1
80 37 1
17 38 1
24 38 1
43 38 1
52 38 1
80 38 1
81 38 1
18 39 1
25 39 1
44 39 1
53 39 1
81 39 1
82 39 1
19 40 1
26 40 1
45 40 1
54 40 1
82 40 1
83 40 1
20 41 1
27 41 1
46 41 1
55 41 1
83 41 1
84 41 1
21 42 1
28 42 1
47 42 1
56 42 1
71 42 1
84 42 1
29 43 1
36 43 1
57 43 1
62 43 1
71 43 1
73 43 1
30 44 1
37 44 1
58 44 1
63 44 1
72 44 1
74 44 1
31 45 1
38 45 1
59 45 1
64 45 1
73 45 1
75 45 1
32 46 1
39 46 1
60 46 1
65 46 1
74 46 1
76 46 1
33 47 1
40 47 1
61 47 1
66 47 1
75 47 1
77 47 1
34 48 1
41 48 1
62 48 1
67 48 1
76 48 1
78 48 1
35 49 1
42 49 1
63 49 1
68 49 1
77 49 1
79 49 1
29 50 1
36 50 1
64 50 1
69 50 1
78 50 1
80 50 1
30 51 1
37 51 1
65 51 1
70 51 1
79 51 1
81 51 1
31 52 1
38 52 1
57 52 1
66 52 1
80 52 1
82 52 1
32 53 1
39 53 1
58 53 1
67 53 1
81 53 1
83 53 1
33 54 1
40 54 1
59 54 1
68 54 1
82 54 1
84 54 1
34 55 1
41 55 1
60 55 1
69 55 1
71 55 1
83 55 1
35 56 1
42 56 1
61 56 1
70 56 1
72 56 1
84 56 1
1 57 1
9 57 1
85 57 1
87 57 1
99 57 1
100 57 1
2 58 1
10 58 1
86 58 1
88 58 1
100 58 1
101 58 1
3 59 1
11 59 1
87 59 1
89 59 1
101 59 1
102 59 1
4 60 1
12 60 1
88 60 1
90 60 1
102 60 1
103 60 1
5 61 1
13 61 1
89 61 1
91 61 1
103 61 1
104 61 1
6 62 1
14 62 1
90 62 1
92 62 1
104 62 1
105 62 1
1 63 1
7 63 1
91 63 1
93 63 1
105 63 1
106 63 1
2 64 1
8 64 1
92 64 1
94 64 1
106 64 1
107 64 1
3 65 1
9 65 1
93 65 1
95 65 1
107 65 1
108 65 1
4 66 1
10 66 1
94 66 1
96 66 1
108 66 1
109 66 1
5 67 1
11 67 1
95 67 1
97 67 1
109 67 1
110 67 1
6 68 1
12 68 1
96 68 1
98 68 1
110 68 1
111 68 1
7 69 1
13 69 1
85 69 1
97 69 1
111 69 1
112 69 1
8 70 1
14 70 1
86 70 1
98 70 1
99 70 1
112 70 1
15 71 1
23 71 1
85 71 1
90 71 1
113 71 1
114 71 1
16 72 1
24 72 1
86 72 1
91 72 1
114 72 1
115 72 1
17 73 1
25 73 1
87 73 1
92 73 1
115 73 1
116 73 1
18 74 1
26 74 1
88 74 1
93 74 1
116 74 1
117 74 1
19 75 1
27 75 1
89 75 1
94 75 1
117 75 1
118 75 1
20 76 1
28 76 1
90 76 1
95 76 1
118 76 1
119 76 1
15 77 1
21 77 1
91 77 1
96 77 1
119 77 1
120 77 1
16 78 1
22 78 1
92 78 1
97 78 1
120 78 1
121 78 1
17 79 1
23 79 1
93 79 1
98 79 1
121 79 1
122 79 1
18 80 1
24 80 1
85 80 1
94 80 1
122 80 1
123 80 1
19 81 1
25 81 1
86 81 1
95 81 1
123 81 1
124 81 1
20 82 1
26 82 1
87 82 1
96 82 1
124 82 1
125 82 1
21 83 1
27 83 1
88 83 1
97 83 1
125 83 1
126 83 1
22 84 1
28 84 1
89 84 1
98 84 1
113 84 1
126 84 1
29 85 1
37 85 1
99 85 1
104 85 1
113 85 1
115 85 1
30 86 1
38 86 1
100 86 1
105 86 1
114 86 1
116 86 1
31 87 1
39 87 1
101 87 1
106 87 1
115 87 1
117 87 1
32 88 1
40 88 1
102 88 1
107 88 1
116 88 1
118 88 1
33 89 1
41 89 1
103 89 1
108 89 1
117 89 1
119 89 1
34 90 1
42 90 1
104 90 1
109 90 1
118 90 1
120 90 1
29 91 1
35 91 1
105 91 1
110 91 1
119 91 1
121 91 1
30 92 1
36 92 1
106 92 1
111 92 1
120 92 1
122 92 1
31 93 1
37 93 1
107 93 1
112 93 1
121 93 1
123 93 1
32 94 1
38 94 1
99 94 1
108 94 1
122 94 1
124 94 1
33 95 1
39 95 1
100 95 1
109 95 1
123 95 1
125 95 1
34 96 1
40 96 1
101 96 1
110 96 1
124 96 1
126 96 1
35 97 1
41 97 1
102 97 1
111 97 1
113 97 1
125 97 1
36 98 1
42 98 1
103 98 1
112 98 1
114 98 1
126 98 1
43 99 1
51 99 1
85 99 1
92 99 1
127 99 1
128 99 1
44 100 1
52 100 1
86 100 1
93 100 1
128 100 1
129 100 1
45 101 1
53 101 1
87 101 1
94 101 1
129 101 1
130 101 1
46 102 1
54 102 1
88 102 1
95 102 1
130 102 1
131 102 1
47 103 1
55 103 1
89 103 1
96 103 1
131 103 1
132 103 1
48 104 1
56 104 1
90 104 1
97 104 1
132 104 1
133 104 1
43 105 1
49 105 1
91 105 1
98 105 1
133 105 1
134 105 1
44 106 1
50 106 1
85 106 1
92 106 1
134 106 1
135 106 1
45 107 1
51 107 1
86 107 1
93 107 1
135 107 1
136 107 1
46 108 1
52 108 1
87 108 1
94 108 1
136 108 1
137 108 1
47 109 1
53 109 1
88 109 1
95 109 1
137 109 1
138 109 1
48 110 1
54 110 1
89 110 1
96 110 1
138 110 1
139 110 1
49 111 1
55 111 1
90 111 1
97 111 1
139 111 1
140 111 1
50 112 1
56 112 1
91 112 1
98 112 1
127 112 1
140 112 1
57 113 1
65 113 1
99 113 1
106 113 1
127 113 1
129 113 1
58 114 1
66 114 1
100 114 1
107 114 1
128 114 1
130 114 1
59 115 1
67 115 1
101 115 1
108 115 1
129 115 1
131 115 1
60 116 1
68 116 1
102 116 1
109 116 1
130 116 1
132 116 1
61 117 1
69 117 1
103 117 1
110 117 1
131 117 1
133 117 1
62 118 1
70 118 1
104 118 1
111 118 1
132 118 1
134 118 1
57 119 1
63 119 1
105 119 1
112 119 1
133 119 1
135 119 1
58 120 1
64 120 1
99 120 1
106 120 1
134 120 1
136 120 1
59 121 1
65 121 1
100 121 1
107 121 1
135 121 1
137 121 1
60 122 1
66 122 1
101 122 1
108 122 1
136 122 1
138 122 1
61 123 1
67 123 1
102 123 1
109 123 1
137 123 1
139 123 1
62 124 1
68 124 1
103 124 1
110 124 1
138 124 1
140 124 1
63 125 1
69 125 1
104 125 1
111 125 1
127 125 1
139 125 1
64 126 1
70 126 1
105 126 1
112 126 1
128 126 1
140 126 1
71 127 1
79 127 1
113 127 1
120 127 1
127 127 1
132 127 1
72 128 1
80 128 1
114 128 1
121 128 1
128 128 1
133 128 1
73 129 1
81 129 1
115 129 1
122 129 1
129 129 1
134 129 1
74 130 1
82 130 1
116 130 1
123 130 1
130 130 1
135 130 1
75 131 1
83 131 1
117 131 1
124 131 1
131 131 1
136 131 1
76 132 1
84 132 1
118 132 1
125 132 1
132 132 1
137 132 1
71 133 1
77 133 1
119 133 1
126 133 1
133 133 1
138 133 1
72 134 1
78 134 1
113 134 1
120 134 1
134 134 1
139 134 1
73 135 1
79 135 1
114 135 1
121 135 1
135 135 1
140 135 1
74 136 1
80 136 1
115 136 1
122 136 1
127 136 1
136 136 1
75 137 1
81 137 1
116 137 1
123 137 1
128 137 1
137 137 1
76 138 1
82 138 1
117 138 1
124 138 1
129 138 1
138 138 1
77 139 1
83 139 1
118 139 1
125 139 1
130 139 1
139 139 1
78 140 1
84 140 1
119 140 1
126 140 1
131 140 1
140 140 1
1 141 1
11 141 1
141 141 1
143 141 1
155 141 1
156 141 1
2 142 1
12 142 1
142 142 1
144 142 1
156 142 1
157 142 1
3 143 1
13 143 1
143 143 1
145 143 1
157 143 1
158 143 1
4 144 1
14 144 1
144 144 1
146 144 1
158 144 1
159 144 1
1 145 1
5 145 1
145 145 1
147 145 1
159 145 1
160 145 1
2 146 1
6 146 1
146 146 1
148 146 1
160 146 1
161 146 1
3 147 1
7 147 1
147 147 1
149 147 1
161 147 1
162 147 1
4 148 1
8 148 1
148 148 1
150 148 1
162 148 1
163 148 1
5 149 1
9 149 1
149 149 1
151 149 1
163 149 1
164 149 1
6 150 1
10 150 1
150 150 1
152 150 1
164 150 1
165 150 1
7 151 1
11 151 1
151 151 1
153 151 1
165 151 1
166 151 1
8 152 1
12 152 1
152 152 1
154 152 1
166 152 1
167 152 1
9 153 1
13 153 1
141 153 1
153 153 1
167 153 1
168 153 1
10 154 1
14 154 1
142 154 1
154 154 1
155 154 1
168 154 1
15 155 1
25 155 1
141 155 1
146 155 1
169 155 1
170 155 1
16 156 1
26 156 1
142 156 1
147 156 1
170 156 1
171 156 1
17 157 1
27 157 1
143 157 1
148 157 1
171 157 1
172 157 1
18 158 1
28 158 1
144 158 1
149 158 1
172 158 1
173 158 1
15 159 1
19 159 1
145 159 1
150 159 1
173 159 1
174 159 1
16 160 1
20 160 1
146 160 1
151 160 1
174 160 1
175 160 1
17 161 1
21 161 1
147 161 1
152 161 1
175 161 1
176 161 1
18 162 1
22 162 1
148 162 1
153 162 1
176 162 1
177 162 1
19 163 1
23 163 1
149 163 1
154 163 1
177 163 1
178 163 1
20 164 1
24 164 1
141 164 1
150 164 1
178 164 1
179 164 1
21 165 1
25 165 1
142 165 1
151 165 1
179 165 1
180 165 1
22 166 1
26 166 1
143 166 1
152 166 1
180 166 1
181 166 1
23 167 1
27 167 1
144 167 1
153 167 1
181 167 1
182 167 1
24 168 1
28 168 1
145 168 1
154 168 1
169 168 1
182 168 1
29 169 1
39 169 1
155 169 1
160 169 1
169 169 1
171 169 1
30 170 1
40 170 1
156 170 1
161 170 1
170 170 1
172 170 1
31 171 1
41 171 1
157 171 1
162 171 1
171 171 1
173 171 1
32 172 1
42 172 1
158 172 1
163 172 1
172 172 1
174 172 1
29 173 1
33 173 1
159 173 1
164 173 1
173 173 1
175 173 1
30 174 1
34 174 1
160 174 1
165 174 1
174 174 1
176 174 1
31 175 1
35 175 1
161 175 1
166 175 1
175 175 1
177 175 1
32 176 1
36 176 1
162 176 1
167 176 1
176 176 1
178 176 1
33 177 1
37 177 1
163 177 1
168 177 1
177 177 1
179 177 1
34 178 1
38 178 1
155 178 1
164 178 1
178 178 1
180 178 1
35 179 1
39 179 1
156 179 1
165 179 1
179 179 1
181 179 1
36 180 1
40 180 1
157 180 1
166 180 1
180 180 1
182 180 1
37 181 1
41 181 1
158 181 1
167 181 1
169 181 1
181 181 1
38 182 1
42 182 1
159 182 1
168 182 1
170 182 1
182 182 1
43 183 1
53 183 1
141 183 1
148 183 1
183 183 1
184 183 1
44 184 1
54 184 1
142 184 1
149 184 1
184 184 1
185 184 1
45 185 1
55 185 1
143 185 1
150 185 1
185 185 1
186 185 1
46 186 1
56 186 1
144 186 1
151 186 1
186 186 1
187 186 1
43 187 1
47 187 1
145 187 1
152 187 1
187 187 1
188 187 1
44 188 1
48 188 1
146 188 1
153 188 1
188 188 1
189 188 1
45 189 1
49 189 1
147 189 1
154 189 1
189 189 1
190 189 1
46 190 1
50 190 1
141 190 1
148 190 1
190 190 1
191 190 1
47 191 1
51 191 1
142 191 1
149 191 1
191 191 1
192 191 1
48 192 1
52 192 1
143 192 1
150 192 1
192 192 1
193 192 1
49 193 1
53 193 1
144 193 1
151 193 1
193 193 1
194 193 1
50 194 1
54 194 1
145 194 1
152 194 1
194 194 1
195 194 1
51 195 1
55 195 1
146 195 1
153 195 1
195 195 1
196 195 1
52 196 1
56 196 1
147 196 1
154 196 1
183 196 1
196 196 1
57 197 1
67 197 1
155 197 1
162 197 1
183 197 1
185 197 1
58 198 1
68 198 1
156 198 1
163 198 1
184 198 1
186 198 1
59 199 1
69 199 1
157 199 1
164 199 1
185 199 1
187 199 1
60 200 1
70 200 1
158 200 1
165 200 1
186 200 1
188 200 1
57 201 1
61 201 1
159 201 1
166 201 1
187 201 1
189 201 1
58 202 1
62 202 1
160 202 1
167 202 1
188 202 1
190 202 1
59 203 1
63 203 1
161 203 1
168 203 1
189 203 1
191 203 1
60 204 1
64 204 1
155 204 1
162 204 1
190 204 1
192 204 1
61 205 1
65 205 1
156 205 1
163 205 1
191 205 1
193 205 1
62 206 1
66 206 1
157 206 1
164 206 1
192 206 1
194 206 1
63 207 1
67 207 1
158 207 1
165 207 1
193 207 1
195 207 1
64 208 1
68 208 1
159 208 1
166 208 1
194 208 1
196 208 1
65 209 1
69 209 1
160 209 1
167 209 1
183 209 1
195 209 1
66 210 1
70 210 1
161 210 1
168 210 1
184 210 1
196 210 1
71 211 1
81 211 1
169 211 1
176 211 1
183 211 1
188 211 1
72 212 1
82 212 1
170 212 1
177 212 1
184 212 1
189 212 1
73 213 1
83 213 1
171 213 1
178 213 1
185 213 1
190 213 1
74 214 1
84 214 1
172 214 1
179 214 1
186 214 1
191 214 1
71 215 1
75 215 1
173 215 1
180 215 1
187 215 1
192 215 1
72 216 1
76 216 1
174 216 1
181 216 1
188 216 1
193 216 1
73 217 1
77 217 1
175 217 1
182 217 1
189 217 1
194 217 1
74 218 1
78 218 1
169 218 1
176 218 1
190 218 1
195 218 1
75 219 1
79 219 1
170 219 1
177 219 1
191 219 1
196 219 1
76 220 1
80 220 1
171 220 1
178 220 1
183 220 1
192 220 1
77 221 1
81 221 1
172 221 1
179 221 1
184 221 1
193 221 1
78 222 1
82 222 1
173 222 1
180 222 1
185 222 1
194 222 1
79 223 1
83 223 1
174 223 1
181 223 1
186 223 1
195 223 1
80 224 1
84 224 1
175 224 1
182 224 1
187 224 1
196 224 1
85 225 1
95 225 1
141 225 1
149 225 1
197 225 1
198 225 1
86 226 1
96 226 1
142 226 1
150 226 1
198 226 1
199 226 1
87 227 1
97 227 1
143 227 1
151 227 1
199 227 1
200 227 1
88 228 1
98 228 1
144 228 1
152 228 1
200 228 1
201 228 1
85 229 1
89 229 1
145 229 1
153 229 1
201 229 1
202 229 1
86 230 1
90 230 1
146 230 1
154 230 1
202 230 1
203 230 1
87 231 1
91 231 1
141 231 1
147 231 1
203 231 1
204 231 1
88 232 1
92 232 1
142 232 1
148 232 1
204 232 1
205 232 1
89 233 1
93 233 1
143 233 1
149 233 1
205 233 1
206 233 1
90 234 1
94 234 1
144 234 1
150 234 1
206 234 1
207 234 1
91 235 1
95 235 1
145 235 1
151 235 1
207 235 1
208 235 1
92 236 1
96 236 1
146 236 1
152 236 1
208 236 1
209 236 1
93 237 1
97 237 1
147 237 1
153 237 1
209 237 1
210 237 1
94 238 1
98 238 1
148 238 1
154 238 1
197 238 1
210 238 1
99 239 1
109 239 1
155 239 1
163 239 1
197 239 1
199 239 1
100 240 1
110 240 1
156 240 1
164 240 1
198 240 1
200 240 1
101 241 1
111 241 1
157 241 1
165 241 1
199 241 1
201 241 1
102 242 1
112 242 1
158 242 1
166 242 1
200 242 1
202 242 1
99 243 1
103 243 1
159 243 1
167 243 1
201 243 1
203 243 1
100 244 1
104 244 1
160 244 1
168 244 1
202 244 1
204 244 1
101 245 1
105 245 1
155 245 1
161 245 1
203 245 1
205 245 1
102 246 1
106 246 1
156 246 1
162 246 1
204 246 1
206 246 1
103 247 1
107 247 1
157 247 1
163 247 1
205 247 1
207 247 1
104 248 1
108 248 1
158 248 1
164 248 1
206 248 1
208 248 1
105 249 1
109 249 1
159 249 1
165 249 1
207 249 1
209 249 1
106 250 1
110 250 1
160 250 1
166 250 1
208 250 1
210 250 1
107 251 1
111 251 1
161 251 1
167 251 1
197 251 1
209 251 1
108 252 1
112 252 1
162 252 1
168 252 1
198 252 1
210 252 1
113 253 1
123 253 1
169 253 1
177 253 1
197 253 1
202 253 1
114 254 1
124 254 1
170 254 1
178 254 1
198 254 1
203 254 1
115 255 1
125 255 1
171 255 1
179 255 1
199 255 1
204 255 1
116 256 1
126 256 1
172 256 1
180 256 1
200 256 1
205 256 1
113 257 1
117 257 1
173 257 1
181 257 1
201 257 1
206 257 1
114 258 1
118 258 1
174 258 1
182 258 1
202 258 1
207 258 1
115 259 1
119 259 1
169 259 1
175 259 1
203 259 1
208 259 1
116 260 1
120 260 1
170 260 1
176 260 1
204 260 1
209 260 1
117 261 1
121 261 1
171 261 1
177 261 1
205 261 1
210 261 1
118 262 1
122 262 1
172 262 1
178 262 1
197 262 1
206 262 1
119 263 1
123 263 1
173 263 1
179 263 1
198 263 1
207 263 1
120 264 1
124 264 1
174 264 1
180 264 1
199 264 1
208 264 1
121 265 1
125 265 1
175 265 1
181 265 1
200 265 1
209 265 1
122 266 1
126 266 1
176 266 1
182 266 1
201 266 1
210 266 1
127 267 1
137 267 1
183 267 1
191 267 1
197 267 1
204 267 1
128 268 1
138 268 1
184 268 1
192 268 1
198 268 1
205 268 1
129 269 1
139 269 1
185 269 1
193 269 1
199 269 1
206 269 1
130 270 1
140 270 1
186 270 1
194 270 1
200 270 1
207 270 1
127 271 1
131 271 1
187 271 1
195 271 1
201 271 1
208 271 1
128 272 1
132 272 1
188 272 1
196 272 1
202 272 1
209 272 1
129 273 1
133 273 1
183 273 1
189 273 1
203 273 1
210 273 1
130 274 1
134 274 1
184 274 1
190 274 1
197 274 1
204 274 1
131 275 1
135 275 1
185 275 1
191 275 1
198 275 1
205 275 1
132 276 1
136 276 1
186 276 1
192 276 1
199 276 1
206 276 1
133 277 1
137 277 1
187 277 1
193 277 1
200 277 1
207 277 1
134 278 1
138 278 1
188 278 1
194 278 1
201 278 1
208 278 1
135 279 1
139 279 1
189 279 1
195 279 1
202 279 1
209 279 1
136 280 1
140 280 1
190 280 1
196 280 1
203 280 1
210 280 1
1 281 1
12 281 1
211 281 1
213 281 1
225 281 1
226 281 1
2 282 1
13 282 1
212 282 1
214 282 1
226 282 1
227 282 1
3 283 1
14 283 1
213 283 1
215 283 1
227 283 1
228 283 1
1 284 1
4 284 1
214 284 1
216 284 1
228 284 1
229 284 1
2 285 1
5 285 1
215 285 1
217 285 1
229 285 1
230 285 1
3 286 1
6 286 1
216 286 1
218 286 1
230 286 1
231 286 1
4 287 1
7 287 1
217 287 1
219 287 1
231 287 1
232 287 1
5 288 1
8 288 1
218 288 1
220 288 1
232 288 1
233 288 1
6 289 1
9 289 1
219 289 1
221 289 1
233 289 1
234 289 1
7 290 1
10 290 1
220 290 1
222 290 1
234 290 1
235 290 1
8 291 1
11 291 1
221 291 1
223 291 1
235 291 1
236 291 1
9 292 1
12 292 1
222 292 1
224 292 1
236 292 1
237 292 1
10 293 1
13 293 1
211 293 1
223 293 1
237 293 1
238 293 1
11 294 1
14 294 1
212 294 1
224 294 1
225 294 1
238 294 1
15 295 1
26 295 1
211 295 1
216 295 1
239 295 1
240 295 1
16 296 1
27 296 1
212 296 1
217 296 1
240 296 1
241 296 1
17 297 1
28 297 1
213 297 1
218 297 1
241 297 1
242 297 1
15 298 1
18 298 1
214 298 1
219 298 1
242 298 1
243 298 1
16 299 1
19 299 1
215 299 1
220 299 1
243 299 1
244 299 1
17 300 1
20 300 1
216 300 1
221 300 1
244 300 1
245 300 1
18 301 1
21 301 1
217 301 1
222 301 1
245 301 1
246 301 1
19 302 1
22 302 1
218 302 1
223 302 1
246 302 1
247 302 1
20 303 1
23 303 1
219 303 1
224 303 1
247 303 1
248 303 1
21 304 1
24 304 1
211 304 1
220 304 1
248 304 1
249 304 1
22 305 1
25 305 1
212 305 1
221 305 1
249 305 1
250 305 1
23 306 1
26 306 1
213 306 1
222 306 1
250 306 1
251 306 1
24 307 1
27 307 1
214 307 1
223 307 1
251 307 1
252 307 1
25 308 1
28 308 1
215 308 1
224 308 1
239 308 1
252 308 1
29 309 1
40 309 1
225 309 1
230 309 1
239 309 1
241 309 1
30 310 1
41 310 1
226 310 1
231 310 1
240 310 1
242 310 1
31 311 1
42 311 1
227 311 1
232 311 1
241 311 1
243 311 1
29 312 1
32 312 1
228 312 1
233 312 1
242 312 1
244 312 1
30 313 1
33 313 1
229 313 1
234 313 1
243 313 1
245 313 1
31 314 1
34 314 1
230 314 1
235 314 1
244 314 1
246 314 1
32 315 1
35 315 1
231 315 1
236 315 1
245 315 1
247 315 1
33 316 1
36 316 1
232 316 1
237 316 1
246 316 1
248 316 1
34 317 1
37 317 1
233 317 1
238 317 1
247 317 1
249 317 1
35 318 1
38 318 1
225 318 1
234 318 1
248 318 1
250 318 1
36 319 1
39 319 1
226 319 1
235 319 1
249 319 1
251 319 1
37 320 1
40 320 1
227 320 1
236 320 1
250 320 1
252 320 1
38 321 1
41 321 1
228 321 1
237 321 1
239 321 1
251 321 1
39 322 1
42 322 1
229 322 1
238 322 1
240 322 1
252 322 1
43 323 1
54 323 1
211 323 1
218 323 1
253 323 1
254 323 1
44 324 1
55 324 1
212 324 1
219 324 1
254 324 1
255 324 1
45 325 1
56 325 1
213 325 1
220 325 1
255 325 1
256 325 1
43 326 1
46 326 1
214 326 1
221 326 1
256 326 1
257 326 1
44 327 1
47 327 1
215 327 1
222 327 1
257 327 1
258 327 1
45 328 1
48 328 1
216 328 1
223 328 1
258 328 1
259 328 1
46 329 1
49 329 1
217 329 1
224 329 1
259 329 1
260 329 1
47 330 1
50 330 1
211 330 1
218 330 1
260 330 1
261 330 1
48 331 1
51 331 1
212 331 1
219 331 1
261 331 1
262 331 1
49 332 1
52 332 1
213 332 1
220 332 1
262 332 1
263 332 1
50 333 1
53 333 1
214 333 1
221 333 1
263 333 1
264 333 1
51 334 1
54 334 1
215 334 1
222 334 1
264 334 1
265 334 1
52 335 1
55 335 1
216 335 1
223 335 1
265 335 1
266 335 1
53 336 1
56 336 1
217 336 1
224 336 1
253 336 1
266 336 1
57 337 1
68 337 1
225 337 1
232 337 1
253 337 1
255 337 1
58 338 1
69 338 1
226 338 1
233 338 1
254 338 1
256 338 1
59 339 1
70 339 1
227 339 1
234 339 1
255 339 1
257 339 1
57 340 1
60 340 1
228 340 1
235 340 1
256 340 1
258 340 1
58 341 1
61 341 1
229 341 1
236 341 1
257 341 1
259 341 1
59 342 1
62 342 1
230 342 1
237 342 1
258 342 1
260 342 1
60 343 1
63 343 1
231 343 1
238 343 1
259 343 1
261 343 1
61 344 1
64 344 1
225 344 1
232 344 1
260 344 1
262 344 1
62 345 1
65 345 1
226 345 1
233 345 1
261 345 1
263 345 1
63 346 1
66 346 1
227 346 1
234 346 1
262 346 1
264 346 1
64 347 1
67 347 1
228 347 1
235 347 1
263 347 1
265 347 1
65 348 1
68 348 1
229 348 1
236 348 1
264 348 1
266 348 1
66 349 1
69 349 1
230 349 1
237 349 1
253 349 1
265 349 1
67 350 1
70 350 1
231 350 1
238 350 1
254 350 1
266 350 1
71 351 1
82 351 1
239 351 1
246 351 1
253 351 1
258 351 1
72 352 1
83 352 1
240 352 1
247 352 1
254 352 1
259 352 1
73 353 1
84 353 1
241 353 1
248 353 1
255 353 1
260 353 1
71 354 1
74 354 1
242 354 1
249 354 1
256 354 1
261 354 1
72 355 1
75 355 1
243 355 1
250 355 1
257 355 1
262 355 1
73 356 1
76 356 1
244 356 1
251 356 1
258 356 1
263 356 1
74 357 1
77 357 1
245 357 1
252 357 1
259 357 1
264 357 1
75 358 1
78 358 1
239 358 1
246 358 1
260 358 1
265 358 1
76 359 1
79 359 1
240 359 1
247 359 1
261 359 1
266 359 1
77 360 1
80 360 1
241 360 1
248 360 1
253 360 1
262 360 1
78 361 1
81 361 1
242 361 1
249 361 1
254 361 1
263 361 1
79 362 1
82 362 1
243 362 1
250 362 1
255 362 1
264 362 1
80 363 1
83 363 1
244 363 1
251 363 1
256 363 1
265 363 1
81 364 1
84 364 1
245 364 1
252 364 1
257 364 1
266 364 1
85 365 1
96 365 1
211 365 1
219 365 1
267 365 1
268 365 1
86 366 1
97 366 1
212 366 1
220 366 1
268 366 1
269 366 1
87 367 1
98 367 1
213 367 1
221 367 1
269 367 1
270 367 1
85 368 1
88 368 1
214 368 1
222 368 1
270 368 1
271 368 1
86 369 1
89 369 1
215 369 1
223 369 1
271 369 1
272 369 1
87 370 1
90 370 1
216 370 1
224 370 1
272 370 1
273 370 1
88 371 1
91 371 1
211 371 1
217 371 1
273 371 1
274 371 1
89 372 1
92 372 1
212 372 1
218 372 1
274 372 1
275 372 1
90 373 1
93 373 1
213 373 1
219 373 1
275 373 1
276 373 1
91 374 1
94 374 1
214 374 1
220 374 1
276 374 1
277 374 1
92 375 1
95 375 1
215 375 1
221 375 1
277 375 1
278 375 1
93 376 1
96 376 1
216 376 1
222 376 1
278 376 1
279 376 1
94 377 1
97 377 1
217 377 1
223 377 1
279 377 1
280 377 1
95 378 1
98 378 1
218 378 1
224 378 1
267 378 1
280 378 1
99 379 1
110 379 1
225 379 1
233 379 1
267 379 1
269 379 1
100 380 1
111 380 1
226 380 1
234 380 1
268 380 1
270 380 1
101 381 1
112 381 1
227 381 1
235 381 1
269 381 1
271 381 1
99 382 1
102 382 1
228 382 1
236 382 1
270 382 1
272 382 1
100 383 1
103 383 1
229 383 1
237 383 1
271 383 1
273 383 1
101 384 1
104 384 1
230 384 1
238 384 1
272 384 1
274 384 1
102 385 1
105 385 1
225 385 1
231 385 1
273 385 1
275 385 1
103 386 1
106 386 1
226 386 1
232 386 1
274 386 1
276 386 1
104 387 1
107 387 1
227 387 1
233 387 1
275 387 1
277 387 1
105 388 1
108 388 1
228 388 1
234 388 1
276 388 1
278 388 1
106 389 1
109 389 1
229 389 1
235 389 1
277 389 1
279 389 1
107 390 1
110 390 1
230 390 1
236 390 1
278 390 1
280 390 1
108 391 1
111 391 1
231 391 1
237 391 1
267 391 1
279 391 1
109 392 1
112 392 1
232 392 1
238 392 1
268 392 1
280 392 1
113 393 1
124 393 1
239 393 1
247 393 1
267 393 1
272 393 1
114 394 1
125 394 1
240 394 1
248 394 1
268 394 1
273 394 1
115 395 1
126 395 1
241 395 1
249 395 1
269 395 1
274 395 1
113 396 1
116 396 1
242 396 1
250 396 1
270 396 1
275 396 1
114 397 1
117 397 1
243 397 1
251 397 1
271 397 1
276 397 1
115 398 1
118 398 1
244 398 1
252 398 1
272 398 1
277 398 1
116 399 1
119 399 1
239 399 1
245 399 1
273 399 1
278 399 1
117 400 1
120 400 1
240 400 1
246 400 1
274 400 1
279 400 1
118 401 1
121 401 1
241 401 1
247 401 1
275 401 1
280 401 1
119 402 1
122 402 1
242 402 1
248 402 1
267 402 1
276 402 1
120 403 1
123 403 1
243 403 1
249 403 1
268 403 1
277 403 1
121 404 1
124 404 1
244 404 1
250 404 1
269 404 1
278 404 1
122 405 1
125 405 1
245 405 1
251 405 1
270 405 1
279 405 1
123 406 1
126 406 1
246 406 1
252 406 1
271 406 1
280 406 1
127 407 1
138 407 1
253 407 1
261 407 1
267 407 1
274 407 1
128 408 1
139 408 1
254 408 1
262 408 1
268 408 1
275 408 1
129 409 1
140 409 1
255 409 1
263 409 1
269 409 1
276 409 1
127 410 1
130 410 1
256 410 1
264 410 1
270 410 1
277 410 1
128 411 1
131 411 1
257 411 1
265 411 1
271 411 1
278 411 1
129 412 1
132 412 1
258 412 1
266 412 1
272 412 1
279 412 1
130 413 1
133 413 1
253 413 1
259 413 1
273 413 1
280 413 1
131 414 1
134 414 1
254 414 1
260 414 1
267 414 1
274 414 1
132 415 1
135 415 1
255 415 1
261 415 1
268 415 1
275 415 1
133 416 1
136 416 1
256 416 1
262 416 1
269 416 1
276 416 1
134 417 1
137 417 1
257 417 1
263 417 1
270 417 1
277 417 1
135 418 1
138 418 1
258 418 1
264 418 1
271 418 1
278 418 1
136 419 1
139 419 1
259 419 1
265 419 1
272 419 1
279 419 1
137 420 1
140 420 1
260 420 1
266 420 1
273 420 1
280 420 1
141 421 1
152 421 1
211 421 1
221 421 1
281 421 1
282 421 1
142 422 1
153 422 1
212 422 1
222 422 1
282 422 1
283 422 1
143 423 1
154 423 1
213 423 1
223 423 1
283 423 1
284 423 1
141 424 1
144 424 1
214 424 1
224 424 1
284 424 1
285 424 1
142 425 1
145 425 1
211 425 1
215 425 1
285 425 1
286 425 1
143 426 1
146 426 1
212 426 1
216 426 1
286 426 1
287 426 1
144 427 1
147 427 1
213 427 1
217 427 1
287 427 1
288 427 1
145 428 1
148 428 1
214 428 1
218 428 1
288 428 1
289 428 1
146 429 1
149 429 1
215 429 1
219 429 1
289 429 1
290 429 1
147 430 1
150 430 1
216 430 1
220 430 1
290 430 1
291 430 1
148 431 1
151 431 1
217 431 1
221 431 1
291 431 1
292 431 1
149 432 1
152 432 1
218 432 1
222 432 1
292 432 1
293 432 1
150 433 1
153 433 1
219 433 1
223 433 1
293 433 1
294 433 1
151 434 1
154 434 1
220 434 1
224 434 1
281 434 1
294 434 1
155 435 1
166 435 1
225 435 1
235 435 1
281 435 1
283 435 1
156 436 1
167 436 1
226 436 1
236 436 1
282 436 1
284 436 1
157 437 1
168 437 1
227 437 1
237 437 1
283 437 1
285 437 1
155 438 1
158 438 1
228 438 1
238 438 1
284 438 1
286 438 1
156 439 1
159 439 1
225 439 1
229 439 1
285 439 1
287 439 1
157 440 1
160 440 1
226 440 1
230 440 1
286 440 1
288 440 1
158 441 1
161 441 1
227 441 1
231 441 1
287 441 1
289 441 1
159 442 1
162 442 1
228 442 1
232 442 1
288 442 1
290 442 1
160 443 1
163 443 1
229 443 1
233 443 1
289 443 1
291 443 1
161 444 1
164 444 1
230 444 1
234 444 1
290 444 1
292 444 1
162 445 1
165 445 1
231 445 1
235 445 1
291 445 1
293 445 1
163 446 1
166 446 1
232 446 1
236 446 1
292 446 1
294 446 1
164 447 1
167 447 1
233 447 1
237 447 1
281 447 1
293 447 1
165 448 1
168 448 1
234 448 1
238 448 1
282 448 1
294 448 1
169 449 1
180 449 1
239 449 1
249 449 1
281 449 1
286 449 1
170 450 1
181 450 1
240 450 1
250 450 1
282 450 1
287 450 1
171 451 1
182 451 1
241 451 1
251 451 1
283 451 1
288 451 1
169 452 1
172 452 1
242 452 1
252 452 1
284 452 1
289 452 1
170 453 1
173 453 1
239 453 1
243 453 1
285 453 1
290 453 1
171 454 1
174 454 1
240 454 1
244 454 1
286 454 1
291 454 1
172 455 1
175 455 1
241 455 1
245 455 1
287 455 1
292 455 1
173 456 1
176 456 1
242 456 1
246 456 1
288 456 1
293 456 1
174 457 1
177 457 1
243 457 1
247 457 1
289 457 1
294 457 1
175 458 1
178 458 1
244 458 1
248 458 1
281 458 1
290 458 1
176 459 1
179 459 1
245 459 1
249 459 1
282 459 1
291 459 1
177 460 1
180 460 1
246 460 1
250 460 1
283 460 1
292 460 1
178 461 1
181 461 1
247 461 1
251 461 1
284 461 1
293 461 1
179 462 1
182 462 1
248 462 1
252 462 1
285 462 1
294 462 1
183 463 1
194 463 1
253 463 1
263 463 1
281 463 1
288 463 1
184 464 1
195 464 1
254 464 1
264 464 1
282 464 1
289 464 1
185 465 1
196 465 1
255 465 1
265 465 1
283 465 1
290 465 1
183 466 1
186 466 1
256 466 1
266 466 1
284 466 1
291 466 1
184 467 1
187 467 1
253 467 1
257 467 1
285 467 1
292 467 1
185 468 1
188 468 1
254 468 1
258 468 1
286 468 1
293 468 1
186 469 1
189 469 1
255 469 1
259 469 1
287 469 1
294 469 1
187 470 1
190 470 1
256 470 1
260 470 1
281 470 1
288 470 1
188 471 1
191 471 1
257 471 1
261 471 1
282 471 1
289 471 1
189 472 1
192 472 1
258 472 1
262 472 1
283 472 1
290 472 1
190 473 1
193 473 1
259 473 1
263 473 1
284 473 1
291 473 1
191 474 1
194 474 1
260 474 1
264 474 1
285 474 1
292 474 1
192 475 1
195 475 1
261 475 1
265 475 1
286 475 1
293 475 1
193 476 1
196 476 1
262 476 1
266 476 1
287 476 1
294 476 1
197 477 1
208 477 1
267 477 1
277 477 1
281 477 1
289 477 1
198 478 1
209 478 1
268 478 1
278 478 1
282 478 1
290 478 1
199 479 1
210 479 1
269 479 1
279 479 1
283 479 1
291 479 1
197 480 1
200 480 1
270 480 1
280 480 1
284 480 1
292 480 1
198 481 1
201 481 1
267 481 1
271 481 1
285 481 1
293 481 1
199 482 1
202 482 1
268 482 1
272 482 1
286 482 1
294 482 1
200 483 1
203 483 1
269 483 1
273 483 1
281 483 1
287 483 1
201 484 1
204 484 1
270 484 1
274 484 1
282 484 1
288 484 1
202 485 1
205 485 1
271 485 1
275 485 1
283 485 1
289 485 1
203 486 1
206 486 1
272 486 1
276 486 1
284 486 1
290 486 1
204 487 1
207 487 1
273 487 1
277 487 1
285 487 1
291 487 1
205 488 1
208 488 1
274 488 1
278 488 1
286 488 1
292 488 1
206 489 1
209 489 1
275 489 1
279 489 1
287 489 1
293 489 1
207 490 1
210 490 1
276 490 1
280 490 1
288 490 1
294 490 1
