%%MatrixMarket matrix coordinate integer general
% Binary matrix; one-based indices; arithmetic over GF(2)
784 980 7840
1 1 1
5 1 1
15 1 1
18 1 1
29 1 1
31 1 1
43 1 1
44 1 1
2 2 1
6 2 1
16 2 1
19 2 1
30 2 1
32 2 1
44 2 1
45 2 1
3 3 1
7 3 1
17 3 1
20 3 1
31 3 1
33 3 1
45 3 1
46 3 1
4 4 1
8 4 1
18 4 1
21 4 1
32 4 1
34 4 1
46 4 1
47 4 1
5 5 1
9 5 1
19 5 1
22 5 1
33 5 1
35 5 1
47 5 1
48 5 1
6 6 1
10 6 1
20 6 1
23 6 1
34 6 1
36 6 1
48 6 1
49 6 1
7 7 1
11 7 1
21 7 1
24 7 1
35 7 1
37 7 1
49 7 1
50 7 1
8 8 1
12 8 1
22 8 1
25 8 1
36 8 1
38 8 1
50 8 1
51 8 1
9 9 1
13 9 1
23 9 1
26 9 1
37 9 1
39 9 1
51 9 1
52 9 1
10 10 1
14 10 1
24 10 1
27 10 1
38 10 1
40 10 1
52 10 1
53 10 1
1 11 1
11 11 1
25 11 1
28 11 1
39 11 1
41 11 1
53 11 1
54 11 1
2 12 1
12 12 1
15 12 1
26 12 1
40 12 1
42 12 1
54 12 1
55 12 1
3 13 1
13 13 1
16 13 1
27 13 1
29 13 1
41 13 1
55 13 1
56 13 1
4 14 1
14 14 1
17 14 1
28 14 1
30 14 1
42 14 1
43 14 1
56 14 1
1 15 1
6 15 1
57 15 1
60 15 1
71 15 1
73 15 1
85 15 1
86 15 1
2 16 1
7 16 1
58 16 1
61 16 1
72 16 1
74 16 1
86 16 1
87 16 1
3 17 1
8 17 1
59 17 1
62 17 1
73 17 1
75 17 1
87 17 1
88 17 1
4 18 1
9 18 1
60 18 1
63 18 1
74 18 1
76 18 1
88 18 1
89 18 1
5 19 1
10 19 1
61 19 1
64 19 1
75 19 1
77 19 1
89 19 1
90 19 1
6 20 1
11 20 1
62 20 1
65 20 1
76 20 1
78 20 1
90 20 1
91 20 1
7 21 1
12 21 1
63 21 1
66 21 1
77 21 1
79 21 1
91 21 1
92 21 1
8 22 1
13 22 1
64 22 1
67 22 1
78 22 1
80 22 1
92 22 1
93 22 1
9 23 1
14 23 1
65 23 1
68 23 1
79 23 1
81 23 1
93 23 1
94 23 1
1 24 1
10 24 1
66 24 1
69 24 1
80 24 1
82 24 1
94 24 1
95 24 1
2 25 1
11 25 1
67 25 1
70 25 1
81 25 1
83 25 1
95 25 1
96 25 1
3 26 1
12 26 1
57 26 1
68 26 1
82 26 1
84 26 1
96 26 1
97 26 1
4 27 1
13 27 1
58 27 1
69 27 1
71 27 1
83 27 1
97 27 1
98 27 1
5 28 1
14 28 1
59 28 1
70 28 1
72 28 1
84 28 1
85 28 1
98 28 1
15 29 1
20 29 1
57 29 1
61 29 1
99 29 1
101 29 1
113 29 1
114 29 1
16 30 1
21 30 1
58 30 1
62 30 1
100 30 1
102 30 1
114 30 1
115 30 1
17 31 1
22 31 1
59 31 1
63 31 1
101 31 1
103 31 1
115 31 1
116 31 1
18 32 1
23 32 1
60 32 1
64 32 1
102 32 1
104 32 1
116 32 1
117 32 1
19 33 1
24 33 1
61 33 1
65 33 1
103 33 1
105 33 1
117 33 1
118 33 1
20 34 1
25 34 1
62 34 1
66 34 1
104 34 1
106 34 1
118 34 1
119 34 1
21 35 1
26 35 1
63 35 1
67 35 1
105 35 1
107 35 1
119 35 1
120 35 1
22 36 1
27 36 1
64 36 1
68 36 1
106 36 1
108 36 1
120 36 1
121 36 1
23 37 1
28 37 1
65 37 1
69 37 1
107 37 1
109 37 1
121 37 1
122 37 1
15 38 1
24 38 1
66 38 1
70 38 1
108 38 1
110 38 1
122 38 1
123 38 1
16 39 1
25 39 1
57 39 1
67 39 1
109 39 1
111 39 1
123 39 1
124 39 1
17 40 1
26 40 1
58 40 1
68 40 1
110 40 1
112 40 1
124 40 1
125 40 1
18 41 1
27 41 1
59 41 1
69 41 1
99 41 1
111 41 1
125 41 1
126 41 1
19 42 1
28 42 1
60 42 1
70 42 1
100 42 1
112 42 1
113 42 1
126 42 1
29 43 1
34 43 1
71 43 1
75 43 1
99 43 1
102 43 1
127 43 1
128 43 1
30 44 1
35 44 1
72 44 1
76 44 1
100 44 1
103 44 1
128 44 1
129 44 1
31 45 1
36 45 1
73 45 1
77 45 1
101 45 1
104 45 1
129 45 1
130 45 1
32 46 1
37 46 1
74 46 1
78 46 1
102 46 1
105 46 1
130 46 1
131 46 1
33 47 1
38 47 1
75 47 1
79 47 1
103 47 1
106 47 1
131 47 1
132 47 1
34 48 1
39 48 1
76 48 1
80 48 1
104 48 1
107 48 1
132 48 1
133 48 1
35 49 1
40 49 1
77 49 1
81 49 1
105 49 1
108 49 1
133 49 1
134 49 1
36 50 1
41 50 1
78 50 1
82 50 1
106 50 1
109 50 1
134 50 1
135 50 1
37 51 1
42 51 1
79 51 1
83 51 1
107 51 1
110 51 1
135 51 1
136 51 1
29 52 1
38 52 1
80 52 1
84 52 1
108 52 1
111 52 1
136 52 1
137 52 1
30 53 1
39 53 1
71 53 1
81 53 1
109 53 1
112 53 1
137 53 1
138 53 1
31 54 1
40 54 1
72 54 1
82 54 1
99 54 1
110 54 1
138 54 1
139 54 1
32 55 1
41 55 1
73 55 1
83 55 1
100 55 1
111 55 1
139 55 1
140 55 1
33 56 1
42 56 1
74 56 1
84 56 1
101 56 1
112 56 1
127 56 1
140 56 1
43 57 1
48 57 1
85 57 1
89 57 1
113 57 1
116 57 1
127 57 1
129 57 1
44 58 1
49 58 1
86 58 1
90 58 1
114 58 1
117 58 1
128 58 1
130 58 1
45 59 1
50 59 1
87 59 1
91 59 1
115 59 1
118 59 1
129 59 1
131 59 1
46 60 1
51 60 1
88 60 1
92 60 1
116 60 1
119 60 1
130 60 1
132 60 1
47 61 1
52 61 1
89 61 1
93 61 1
117 61 1
120 61 1
131 61 1
133 61 1
48 62 1
53 62 1
90 62 1
94 62 1
118 62 1
121 62 1
132 62 1
134 62 1
49 63 1
54 63 1
91 63 1
95 63 1
119 63 1
122 63 1
133 63 1
135 63 1
50 64 1
55 64 1
92 64 1
96 64 1
120 64 1
123 64 1
134 64 1
136 64 1
51 65 1
56 65 1
93 65 1
97 65 1
121 65 1
124 65 1
135 65 1
137 65 1
43 66 1
52 66 1
94 66 1
98 66 1
122 66 1
125 66 1
136 66 1
138 66 1
44 67 1
53 67 1
85 67 1
95 67 1
123 67 1
126 67 1
137 67 1
139 67 1
45 68 1
54 68 1
86 68 1
96 68 1
113 68 1
124 68 1
138 68 1
140 68 1
46 69 1
55 69 1
87 69 1
97 69 1
114 69 1
125 69 1
127 69 1
139 69 1
47 70 1
56 70 1
88 70 1
98 70 1
115 70 1
126 70 1
128 70 1
140 70 1
1 71 1
8 71 1
141 71 1
144 71 1
155 71 1
157 71 1
169 71 1
170 71 1
2 72 1
9 72 1
142 72 1
145 72 1
156 72 1
158 72 1
170 72 1
171 72 1
3 73 1
10 73 1
143 73 1
146 73 1
157 73 1
159 73 1
171 73 1
172 73 1
4 74 1
11 74 1
144 74 1
147 74 1
158 74 1
160 74 1
172 74 1
173 74 1
5 75 1
12 75 1
145 75 1
148 75 1
159 75 1
161 75 1
173 75 1
174 75 1
6 76 1
13 76 1
146 76 1
149 76 1
160 76 1
162 76 1
174 76 1
175 76 1
7 77 1
14 77 1
147 77 1
150 77 1
161 77 1
163 77 1
175 77 1
176 77 1
1 78 1
8 78 1
148 78 1
151 78 1
162 78 1
164 78 1
176 78 1
177 78 1
2 79 1
9 79 1
149 79 1
152 79 1
163 79 1
165 79 1
177 79 1
178 79 1
3 80 1
10 80 1
150 80 1
153 80 1
164 80 1
166 80 1
178 80 1
179 80 1
4 81 1
11 81 1
151 81 1
154 81 1
165 81 1
167 81 1
179 81 1
180 81 1
5 82 1
12 82 1
141 82 1
152 82 1
166 82 1
168 82 1
180 82 1
181 82 1
6 83 1
13 83 1
142 83 1
153 83 1
155 83 1
167 83 1
181 83 1
182 83 1
7 84 1
14 84 1
143 84 1
154 84 1
156 84 1
168 84 1
169 84 1
182 84 1
15 85 1
22 85 1
141 85 1
145 85 1
183 85 1
185 85 1
197 85 1
198 85 1
16 86 1
23 86 1
142 86 1
146 86 1
184 86 1
186 86 1
198 86 1
199 86 1
17 87 1
24 87 1
143 87 1
147 87 1
185 87 1
187 87 1
199 87 1
200 87 1
18 88 1
25 88 1
144 88 1
148 88 1
186 88 1
188 88 1
200 88 1
201 88 1
19 89 1
26 89 1
145 89 1
149 89 1
187 89 1
189 89 1
201 89 1
202 89 1
20 90 1
27 90 1
146 90 1
150 90 1
188 90 1
190 90 1
202 90 1
203 90 1
21 91 1
28 91 1
147 91 1
151 91 1
189 91 1
191 91 1
203 91 1
204 91 1
15 92 1
22 92 1
148 92 1
152 92 1
190 92 1
192 92 1
204 92 1
205 92 1
16 93 1
23 93 1
149 93 1
153 93 1
191 93 1
193 93 1
205 93 1
206 93 1
17 94 1
24 94 1
150 94 1
154 94 1
192 94 1
194 94 1
206 94 1
207 94 1
18 95 1
25 95 1
141 95 1
151 95 1
193 95 1
195 95 1
207 95 1
208 95 1
19 96 1
26 96 1
142 96 1
152 96 1
194 96 1
196 96 1
208 96 1
209 96 1
20 97 1
27 97 1
143 97 1
153 97 1
183 97 1
195 97 1
209 97 1
210 97 1
21 98 1
28 98 1
144 98 1
154 98 1
184 98 1
196 98 1
197 98 1
210 98 1
29 99 1
36 99 1
155 99 1
159 99 1
183 99 1
186 99 1
211 99 1
212 99 1
30 100 1
37 100 1
156 100 1
160 100 1
184 100 1
187 100 1
212 100 1
213 100 1
31 101 1
38 101 1
157 101 1
161 101 1
185 101 1
188 101 1
213 101 1
214 101 1
32 102 1
39 102 1
158 102 1
162 102 1
186 102 1
189 102 1
214 102 1
215 102 1
33 103 1
40 103 1
159 103 1
163 103 1
187 103 1
190 103 1
215 103 1
216 103 1
34 104 1
41 104 1
160 104 1
164 104 1
188 104 1
191 104 1
216 104 1
217 104 1
35 105 1
42 105 1
161 105 1
165 105 1
189 105 1
192 105 1
217 105 1
218 105 1
29 106 1
36 106 1
162 106 1
166 106 1
190 106 1
193 106 1
218 106 1
219 106 1
30 107 1
37 107 1
163 107 1
167 107 1
191 107 1
194 107 1
219 107 1
220 107 1
31 108 1
38 108 1
164 108 1
168 108 1
192 108 1
195 108 1
220 108 1
221 108 1
32 109 1
39 109 1
155 109 1
165 109 1
193 109 1
196 109 1
221 109 1
222 109 1
33 110 1
40 110 1
156 110 1
166 110 1
183 110 1
194 110 1
222 110 1
223 110 1
34 111 1
41 111 1
157 111 1
167 111 1
184 111 1
195 111 1
223 111 1
224 111 1
35 112 1
42 112 1
158 112 1
168 112 1
185 112 1
196 112 1
211 112 1
224 112 1
43 113 1
50 113 1
169 113 1
173 113 1
197 113 1
200 113 1
211 113 1
213 113 1
44 114 1
51 114 1
170 114 1
174 114 1
198 114 1
201 114 1
212 114 1
214 114 1
45 115 1
52 115 1
171 115 1
175 115 1
199 115 1
202 115 1
213 115 1
215 115 1
46 116 1
53 116 1
172 116 1
176 116 1
200 116 1
203 116 1
214 116 1
216 116 1
47 117 1
54 117 1
173 117 1
177 117 1
201 117 1
204 117 1
215 117 1
217 117 1
48 118 1
55 118 1
174 118 1
178 118 1
202 118 1
205 118 1
216 118 1
218 118 1
49 119 1
56 119 1
175 119 1
179 119 1
203 119 1
206 119 1
217 119 1
219 119 1
43 120 1
50 120 1
176 120 1
180 120 1
204 120 1
207 120 1
218 120 1
220 120 1
44 121 1
51 121 1
177 121 1
181 121 1
205 121 1
208 121 1
219 121 1
221 121 1
45 122 1
52 122 1
178 122 1
182 122 1
206 122 1
209 122 1
220 122 1
222 122 1
46 123 1
53 123 1
169 123 1
179 123 1
207 123 1
210 123 1
221 123 1
223 123 1
47 124 1
54 124 1
170 124 1
180 124 1
197 124 1
208 124 1
222 124 1
224 124 1
48 125 1
55 125 1
171 125 1
181 125 1
198 125 1
209 125 1
211 125 1
223 125 1
49 126 1
56 126 1
172 126 1
182 126 1
199 126 1
210 126 1
212 126 1
224 126 1
57 127 1
64 127 1
141 127 1
146 127 1
225 127 1
227 127 1
239 127 1
240 127 1
58 128 1
65 128 1
142 128 1
147 128 1
226 128 1
228 128 1
240 128 1
241 128 1
59 129 1
66 129 1
143 129 1
148 129 1
227 129 1
229 129 1
241 129 1
242 129 1
60 130 1
67 130 1
144 130 1
149 130 1
228 130 1
230 130 1
242 130 1
243 130 1
61 131 1
68 131 1
145 131 1
150 131 1
229 131 1
231 131 1
243 131 1
244 131 1
62 132 1
69 132 1
146 132 1
151 132 1
230 132 1
232 132 1
244 132 1
245 132 1
63 133 1
70 133 1
147 133 1
152 133 1
231 133 1
233 133 1
245 133 1
246 133 1
57 134 1
64 134 1
148 134 1
153 134 1
232 134 1
234 134 1
246 134 1
247 134 1
58 135 1
65 135 1
149 135 1
154 135 1
233 135 1
235 135 1
247 135 1
248 135 1
59 136 1
66 136 1
141 136 1
150 136 1
234 136 1
236 136 1
248 136 1
249 136 1
60 137 1
67 137 1
142 137 1
151 137 1
235 137 1
237 137 1
249 137 1
250 137 1
61 138 1
68 138 1
143 138 1
152 138 1
236 138 1
238 138 1
250 138 1
251 138 1
62 139 1
69 139 1
144 139 1
153 139 1
225 139 1
237 139 1
251 139 1
252 139 1
63 140 1
70 140 1
145 140 1
154 140 1
226 140 1
238 140 1
239 140 1
252 140 1
71 141 1
78 141 1
155 141 1
160 141 1
225 141 1
228 141 1
253 141 1
254 141 1
72 142 1
79 142 1
156 142 1
161 142 1
226 142 1
229 142 1
254 142 1
255 142 1
73 143 1
80 143 1
157 143 1
162 143 1
227 143 1
230 143 1
255 143 1
256 143 1
74 144 1
81 144 1
158 144 1
163 144 1
228 144 1
231 144 1
256 144 1
257 144 1
75 145 1
82 145 1
159 145 1
164 145 1
229 145 1
232 145 1
257 145 1
258 145 1
76 146 1
83 146 1
160 146 1
165 146 1
230 146 1
233 146 1
258 146 1
259 146 1
77 147 1
84 147 1
161 147 1
166 147 1
231 147 1
234 147 1
259 147 1
260 147 1
71 148 1
78 148 1
162 148 1
167 148 1
232 148 1
235 148 1
260 148 1
261 148 1
72 149 1
79 149 1
163 149 1
168 149 1
233 149 1
236 149 1
261 149 1
262 149 1
73 150 1
80 150 1
155 150 1
164 150 1
234 150 1
237 150 1
262 150 1
263 150 1
74 151 1
81 151 1
156 151 1
165 151 1
235 151 1
238 151 1
263 151 1
264 151 1
75 152 1
82 152 1
157 152 1
166 152 1
225 152 1
236 152 1
264 152 1
265 152 1
76 153 1
83 153 1
158 153 1
167 153 1
226 153 1
237 153 1
265 153 1
266 153 1
77 154 1
84 154 1
159 154 1
168 154 1
227 154 1
238 154 1
253 154 1
266 154 1
85 155 1
92 155 1
169 155 1
174 155 1
239 155 1
242 155 1
253 155 1
255 155 1
86 156 1
93 156 1
170 156 1
175 156 1
240 156 1
243 156 1
254 156 1
256 156 1
87 157 1
94 157 1
171 157 1
176 157 1
241 157 1
244 157 1
255 157 1
257 157 1
88 158 1
95 158 1
172 158 1
177 158 1
242 158 1
245 158 1
256 158 1
258 158 1
89 159 1
96 159 1
173 159 1
178 159 1
243 159 1
246 159 1
257 159 1
259 159 1
90 160 1
97 160 1
174 160 1
179 160 1
244 160 1
247 160 1
258 160 1
260 160 1
91 161 1
98 161 1
175 161 1
180 161 1
245 161 1
248 161 1
259 161 1
261 161 1
85 162 1
92 162 1
176 162 1
181 162 1
246 162 1
249 162 1
260 162 1
262 162 1
86 163 1
93 163 1
177 163 1
182 163 1
247 163 1
250 163 1
261 163 1
263 163 1
87 164 1
94 164 1
169 164 1
178 164 1
248 164 1
251 164 1
262 164 1
264 164 1
88 165 1
95 165 1
170 165 1
179 165 1
249 165 1
252 165 1
263 165 1
265 165 1
89 166 1
96 166 1
171 166 1
180 166 1
239 166 1
250 166 1
264 166 1
266 166 1
90 167 1
97 167 1
172 167 1
181 167 1
240 167 1
251 167 1
253 167 1
265 167 1
91 168 1
98 168 1
173 168 1
182 168 1
241 168 1
252 168 1
254 168 1
266 168 1
99 169 1
106 169 1
183 169 1
188 169 1
225 169 1
229 169 1
267 169 1
268 169 1
100 170 1
107 170 1
184 170 1
189 170 1
226 170 1
230 170 1
268 170 1
269 170 1
101 171 1
108 171 1
185 171 1
190 171 1
227 171 1
231 171 1
269 171 1
270 171 1
102 172 1
109 172 1
186 172 1
191 172 1
228 172 1
232 172 1
270 172 1
271 172 1
103 173 1
110 173 1
187 173 1
192 173 1
229 173 1
233 173 1
271 173 1
272 173 1
104 174 1
111 174 1
188 174 1
193 174 1
230 174 1
234 174 1
272 174 1
273 174 1
105 175 1
112 175 1
189 175 1
194 175 1
231 175 1
235 175 1
273 175 1
274 175 1
99 176 1
106 176 1
190 176 1
195 176 1
232 176 1
236 176 1
274 176 1
275 176 1
100 177 1
107 177 1
191 177 1
196 177 1
233 177 1
237 177 1
275 177 1
276 177 1
101 178 1
108 178 1
183 178 1
192 178 1
234 178 1
238 178 1
276 178 1
277 178 1
102 179 1
109 179 1
184 179 1
193 179 1
225 179 1
235 179 1
277 179 1
278 179 1
103 180 1
110 180 1
185 180 1
194 180 1
226 180 1
236 180 1
278 180 1
279 180 1
104 181 1
111 181 1
186 181 1
195 181 1
227 181 1
237 181 1
279 181 1
280 181 1
105 182 1
112 182 1
187 182 1
196 182 1
228 182 1
238 182 1
267 182 1
280 182 1
113 183 1
120 183 1
197 183 1
202 183 1
239 183 1
243 183 1
267 183 1
269 183 1
114 184 1
121 184 1
198 184 1
203 184 1
240 184 1
244 184 1
268 184 1
270 184 1
115 185 1
122 185 1
199 185 1
204 185 1
241 185 1
245 185 1
269 185 1
271 185 1
116 186 1
123 186 1
200 186 1
205 186 1
242 186 1
246 186 1
270 186 1
272 186 1
117 187 1
124 187 1
201 187 1
206 187 1
243 187 1
247 187 1
271 187 1
273 187 1
118 188 1
125 188 1
202 188 1
207 188 1
244 188 1
248 188 1
272 188 1
274 188 1
119 189 1
126 189 1
203 189 1
208 189 1
245 189 1
249 189 1
273 189 1
275 189 1
113 190 1
120 190 1
204 190 1
209 190 1
246 190 1
250 190 1
274 190 1
276 190 1
114 191 1
121 191 1
205 191 1
210 191 1
247 191 1
251 191 1
275 191 1
277 191 1
115 192 1
122 192 1
197 192 1
206 192 1
248 192 1
252 192 1
276 192 1
278 192 1
116 193 1
123 193 1
198 193 1
207 193 1
239 193 1
249 193 1
277 193 1
279 193 1
117 194 1
124 194 1
199 194 1
208 194 1
240 194 1
250 194 1
278 194 1
280 194 1
118 195 1
125 195 1
200 195 1
209 195 1
241 195 1
251 195 1
267 195 1
279 195 1
119 196 1
126 196 1
201 196 1
210 196 1
242 196 1
252 196 1
268 196 1
280 196 1
127 197 1
134 197 1
211 197 1
216 197 1
253 197 1
257 197 1
267 197 1
270 197 1
128 198 1
135 198 1
212 198 1
217 198 1
254 198 1
258 198 1
268 198 1
271 198 1
129 199 1
136 199 1
213 199 1
218 199 1
255 199 1
259 199 1
269 199 1
272 199 1
130 200 1
137 200 1
214 200 1
219 200 1
256 200 1
260 200 1
270 200 1
273 200 1
131 201 1
138 201 1
215 201 1
220 201 1
257 201 1
261 201 1
271 201 1
274 201 1
132 202 1
139 202 1
216 202 1
221 202 1
258 202 1
262 202 1
272 202 1
275 202 1
133 203 1
140 203 1
217 203 1
222 203 1
259 203 1
263 203 1
273 203 1
276 203 1
127 204 1
134 204 1
218 204 1
223 204 1
260 204 1
264 204 1
274 204 1
277 204 1
128 205 1
135 205 1
219 205 1
224 205 1
261 205 1
265 205 1
275 205 1
278 205 1
129 206 1
136 206 1
211 206 1
220 206 1
262 206 1
266 206 1
276 206 1
279 206 1
130 207 1
137 207 1
212 207 1
221 207 1
253 207 1
263 207 1
277 207 1
280 207 1
131 208 1
138 208 1
213 208 1
222 208 1
254 208 1
264 208 1
267 208 1
278 208 1
132 209 1
139 209 1
214 209 1
223 209 1
255 209 1
265 209 1
268 209 1
279 209 1
133 210 1
140 210 1
215 210 1
224 210 1
256 210 1
266 210 1
269 210 1
280 210 1
1 211 1
12 211 1
281 211 1
284 211 1
295 211 1
297 211 1
309 211 1
310 211 1
2 212 1
13 212 1
282 212 1
285 212 1
296 212 1
298 212 1
310 212 1
311 212 1
3 213 1
14 213 1
283 213 1
286 213 1
297 213 1
299 213 1
311 213 1
312 213 1
1 214 1
4 214 1
284 214 1
287 214 1
298 214 1
300 214 1
312 214 1
313 214 1
2 215 1
5 215 1
285 215 1
288 215 1
299 215 1
301 215 1
313 215 1
314 215 1
3 216 1
6 216 1
286 216 1
289 216 1
300 216 1
302 216 1
314 216 1
315 216 1
4 217 1
7 217 1
287 217 1
290 217 1
301 217 1
303 217 1
315 217 1
316 217 1
5 218 1
8 218 1
288 218 1
291 218 1
302 218 1
304 218 1
316 218 1
317 218 1
6 219 1
9 219 1
289 219 1
292 219 1
303 219 1
305 219 1
317 219 1
318 219 1
7 220 1
10 220 1
290 220 1
293 220 1
304 220 1
306 220 1
318 220 1
319 220 1
8 221 1
11 221 1
291 221 1
294 221 1
305 221 1
307 221 1
319 221 1
320 221 1
9 222 1
12 222 1
281 222 1
292 222 1
306 222 1
308 222 1
320 222 1
321 222 1
10 223 1
13 223 1
282 223 1
293 223 1
295 223 1
307 223 1
321 223 1
322 223 1
11 224 1
14 224 1
283 224 1
294 224 1
296 224 1
308 224 1
309 224 1
322 224 1
15 225 1
26 225 1
281 225 1
285 225 1
323 225 1
325 225 1
337 225 1
338 225 1
16 226 1
27 226 1
282 226 1
286 226 1
324 226 1
326 226 1
338 226 1
339 226 1
17 227 1
28 227 1
283 227 1
287 227 1
325 227 1
327 227 1
339 227 1
340 227 1
15 228 1
18 228 1
284 228 1
288 228 1
326 228 1
328 228 1
340 228 1
341 228 1
16 229 1
19 229 1
285 229 1
289 229 1
327 229 1
329 229 1
341 229 1
342 229 1
17 230 1
20 230 1
286 230 1
290 230 1
328 230 1
330 230 1
342 230 1
343 230 1
18 231 1
21 231 1
287 231 1
291 231 1
329 231 1
331 231 1
343 231 1
344 231 1
19 232 1
22 232 1
288 232 1
292 232 1
330 232 1
332 232 1
344 232 1
345 232 1
20 233 1
23 233 1
289 233 1
293 233 1
331 233 1
333 233 1
345 233 1
346 233 1
21 234 1
24 234 1
290 234 1
294 234 1
332 234 1
334 234 1
346 234 1
347 234 1
22 235 1
25 235 1
281 235 1
291 235 1
333 235 1
335 235 1
347 235 1
348 235 1
23 236 1
26 236 1
282 236 1
292 236 1
334 236 1
336 236 1
348 236 1
349 236 1
24 237 1
27 237 1
283 237 1
293 237 1
323 237 1
335 237 1
349 237 1
350 237 1
25 238 1
28 238 1
284 238 1
294 238 1
324 238 1
336 238 1
337 238 1
350 238 1
29 239 1
40 239 1
295 239 1
299 239 1
323 239 1
326 239 1
351 239 1
352 239 1
30 240 1
41 240 1
296 240 1
300 240 1
324 240 1
327 240 1
352 240 1
353 240 1
31 241 1
42 241 1
297 241 1
301 241 1
325 241 1
328 241 1
353 241 1
354 241 1
29 242 1
32 242 1
298 242 1
302 242 1
326 242 1
329 242 1
354 242 1
355 242 1
30 243 1
33 243 1
299 243 1
303 243 1
327 243 1
330 243 1
355 243 1
356 243 1
31 244 1
34 244 1
300 244 1
304 244 1
328 244 1
331 244 1
356 244 1
357 244 1
32 245 1
35 245 1
301 245 1
305 245 1
329 245 1
332 245 1
357 245 1
358 245 1
33 246 1
36 246 1
302 246 1
306 246 1
330 246 1
333 246 1
358 246 1
359 246 1
34 247 1
37 247 1
303 247 1
307 247 1
331 247 1
334 247 1
359 247 1
360 247 1
35 248 1
38 248 1
304 248 1
308 248 1
332 248 1
335 248 1
360 248 1
361 248 1
36 249 1
39 249 1
295 249 1
305 249 1
333 249 1
336 249 1
361 249 1
362 249 1
37 250 1
40 250 1
296 250 1
306 250 1
323 250 1
334 250 1
362 250 1
363 250 1
38 251 1
41 251 1
297 251 1
307 251 1
324 251 1
335 251 1
363 251 1
364 251 1
39 252 1
42 252 1
298 252 1
308 252 1
325 252 1
336 252 1
351 252 1
364 252 1
43 253 1
54 253 1
309 253 1
313 253 1
337 253 1
340 253 1
351 253 1
353 253 1
44 254 1
55 254 1
310 254 1
314 254 1
338 254 1
341 254 1
352 254 1
354 254 1
45 255 1
56 255 1
311 255 1
315 255 1
339 255 1
342 255 1
353 255 1
355 255 1
43 256 1
46 256 1
312 256 1
316 256 1
340 256 1
343 256 1
354 256 1
356 256 1
44 257 1
47 257 1
313 257 1
317 257 1
341 257 1
344 257 1
355 257 1
357 257 1
45 258 1
48 258 1
314 258 1
318 258 1
342 258 1
345 258 1
356 258 1
358 258 1
46 259 1
49 259 1
315 259 1
319 259 1
343 259 1
346 259 1
357 259 1
359 259 1
47 260 1
50 260 1
316 260 1
320 260 1
344 260 1
347 260 1
358 260 1
360 260 1
48 261 1
51 261 1
317 261 1
321 261 1
345 261 1
348 261 1
359 261 1
361 261 1
49 262 1
52 262 1
318 262 1
322 262 1
346 262 1
349 262 1
360 262 1
362 262 1
50 263 1
53 263 1
309 263 1
319 263 1
347 263 1
350 263 1
361 263 1
363 263 1
51 264 1
54 264 1
310 264 1
320 264 1
337 264 1
348 264 1
362 264 1
364 264 1
52 265 1
55 265 1
311 265 1
321 265 1
338 265 1
349 265 1
351 265 1
363 265 1
53 266 1
56 266 1
312 266 1
322 266 1
339 266 1
350 266 1
352 266 1
364 266 1
57 267 1
68 267 1
281 267 1
286 267 1
365 267 1
367 267 1
379 267 1
380 267 1
58 268 1
69 268 1
282 268 1
287 268 1
366 268 1
368 268 1
380 268 1
381 268 1
59 269 1
70 269 1
283 269 1
288 269 1
367 269 1
369 269 1
381 269 1
382 269 1
57 270 1
60 270 1
284 270 1
289 270 1
368 270 1
370 270 1
382 270 1
383 270 1
58 271 1
61 271 1
285 271 1
290 271 1
369 271 1
371 271 1
383 271 1
384 271 1
59 272 1
62 272 1
286 272 1
291 272 1
370 272 1
372 272 1
384 272 1
385 272 1
60 273 1
63 273 1
287 273 1
292 273 1
371 273 1
373 273 1
385 273 1
386 273 1
61 274 1
64 274 1
288 274 1
293 274 1
372 274 1
374 274 1
386 274 1
387 274 1
62 275 1
65 275 1
289 275 1
294 275 1
373 275 1
375 275 1
387 275 1
388 275 1
63 276 1
66 276 1
281 276 1
290 276 1
374 276 1
376 276 1
388 276 1
389 276 1
64 277 1
67 277 1
282 277 1
291 277 1
375 277 1
377 277 1
389 277 1
390 277 1
65 278 1
68 278 1
283 278 1
292 278 1
376 278 1
378 278 1
390 278 1
391 278 1
66 279 1
69 279 1
284 279 1
293 279 1
365 279 1
377 279 1
391 279 1
392 279 1
67 280 1
70 280 1
285 280 1
294 280 1
366 280 1
378 280 1
379 280 1
392 280 1
71 281 1
82 281 1
295 281 1
300 281 1
365 281 1
368 281 1
393 281 1
394 281 1
72 282 1
83 282 1
296 282 1
301 282 1
366 282 1
369 282 1
394 282 1
395 282 1
73 283 1
84 283 1
297 283 1
302 283 1
367 283 1
370 283 1
395 283 1
396 283 1
71 284 1
74 284 1
298 284 1
303 284 1
368 284 1
371 284 1
396 284 1
397 284 1
72 285 1
75 285 1
299 285 1
304 285 1
369 285 1
372 285 1
397 285 1
398 285 1
73 286 1
76 286 1
300 286 1
305 286 1
370 286 1
373 286 1
398 286 1
399 286 1
74 287 1
77 287 1
301 287 1
306 287 1
371 287 1
374 287 1
399 287 1
400 287 1
75 288 1
78 288 1
302 288 1
307 288 1
372 288 1
375 288 1
400 288 1
401 288 1
76 289 1
79 289 1
303 289 1
308 289 1
373 289 1
376 289 1
401 289 1
402 289 1
77 290 1
80 290 1
295 290 1
304 290 1
374 290 1
377 290 1
402 290 1
403 290 1
78 291 1
81 291 1
296 291 1
305 291 1
375 291 1
378 291 1
403 291 1
404 291 1
79 292 1
82 292 1
297 292 1
306 292 1
365 292 1
376 292 1
404 292 1
405 292 1
80 293 1
83 293 1
298 293 1
307 293 1
366 293 1
377 293 1
405 293 1
406 293 1
81 294 1
84 294 1
299 294 1
308 294 1
367 294 1
378 294 1
393 294 1
406 294 1
85 295 1
96 295 1
309 295 1
314 295 1
379 295 1
382 295 1
393 295 1
395 295 1
86 296 1
97 296 1
310 296 1
315 296 1
380 296 1
383 296 1
394 296 1
396 296 1
87 297 1
98 297 1
311 297 1
316 297 1
381 297 1
384 297 1
395 297 1
397 297 1
85 298 1
88 298 1
312 298 1
317 298 1
382 298 1
385 298 1
396 298 1
398 298 1
86 299 1
89 299 1
313 299 1
318 299 1
383 299 1
386 299 1
397 299 1
399 299 1
87 300 1
90 300 1
314 300 1
319 300 1
384 300 1
387 300 1
398 300 1
400 300 1
88 301 1
91 301 1
315 301 1
320 301 1
385 301 1
388 301 1
399 301 1
401 301 1
89 302 1
92 302 1
316 302 1
321 302 1
386 302 1
389 302 1
400 302 1
402 302 1
90 303 1
93 303 1
317 303 1
322 303 1
387 303 1
390 303 1
401 303 1
403 303 1
91 304 1
94 304 1
309 304 1
318 304 1
388 304 1
391 304 1
402 304 1
404 304 1
92 305 1
95 305 1
310 305 1
319 305 1
389 305 1
392 305 1
403 305 1
405 305 1
93 306 1
96 306 1
311 306 1
320 306 1
379 306 1
390 306 1
404 306 1
406 306 1
94 307 1
97 307 1
312 307 1
321 307 1
380 307 1
391 307 1
393 307 1
405 307 1
95 308 1
98 308 1
313 308 1
322 308 1
381 308 1
392 308 1
394 308 1
406 308 1
99 309 1
110 309 1
323 309 1
328 309 1
365 309 1
369 309 1
407 309 1
408 309 1
100 310 1
111 310 1
324 310 1
329 310 1
366 310 1
370 310 1
408 310 1
409 310 1
101 311 1
112 311 1
325 311 1
330 311 1
367 311 1
371 311 1
409 311 1
410 311 1
99 312 1
102 312 1
326 312 1
331 312 1
368 312 1
372 312 1
410 312 1
411 312 1
100 313 1
103 313 1
327 313 1
332 313 1
369 313 1
373 313 1
411 313 1
412 313 1
101 314 1
104 314 1
328 314 1
333 314 1
370 314 1
374 314 1
412 314 1
413 314 1
102 315 1
105 315 1
329 315 1
334 315 1
371 315 1
375 315 1
413 315 1
414 315 1
103 316 1
106 316 1
330 316 1
335 316 1
372 316 1
376 316 1
414 316 1
415 316 1
104 317 1
107 317 1
331 317 1
336 317 1
373 317 1
377 317 1
415 317 1
416 317 1
105 318 1
108 318 1
323 318 1
332 318 1
374 318 1
378 318 1
416 318 1
417 318 1
106 319 1
109 319 1
324 319 1
333 319 1
365 319 1
375 319 1
417 319 1
418 319 1
107 320 1
110 320 1
325 320 1
334 320 1
366 320 1
376 320 1
418 320 1
419 320 1
108 321 1
111 321 1
326 321 1
335 321 1
367 321 1
377 321 1
419 321 1
420 321 1
109 322 1
112 322 1
327 322 1
336 322 1
368 322 1
378 322 1
407 322 1
420 322 1
113 323 1
124 323 1
337 323 1
342 323 1
379 323 1
383 323 1
407 323 1
409 323 1
114 324 1
125 324 1
338 324 1
343 324 1
380 324 1
384 324 1
408 324 1
410 324 1
115 325 1
126 325 1
339 325 1
344 325 1
381 325 1
385 325 1
409 325 1
411 325 1
113 326 1
116 326 1
340 326 1
345 326 1
382 326 1
386 326 1
410 326 1
412 326 1
114 327 1
117 327 1
341 327 1
346 327 1
383 327 1
387 327 1
411 327 1
413 327 1
115 328 1
118 328 1
342 328 1
347 328 1
384 328 1
388 328 1
412 328 1
414 328 1
116 329 1
119 329 1
343 329 1
348 329 1
385 329 1
389 329 1
413 329 1
415 329 1
117 330 1
120 330 1
344 330 1
349 330 1
386 330 1
390 330 1
414 330 1
416 330 1
118 331 1
121 331 1
345 331 1
350 331 1
387 331 1
391 331 1
415 331 1
417 331 1
119 332 1
122 332 1
337 332 1
346 332 1
388 332 1
392 332 1
416 332 1
418 332 1
120 333 1
123 333 1
338 333 1
347 333 1
379 333 1
389 333 1
417 333 1
419 333 1
121 334 1
124 334 1
339 334 1
348 334 1
380 334 1
390 334 1
418 334 1
420 334 1
122 335 1
125 335 1
340 335 1
349 335 1
381 335 1
391 335 1
407 335 1
419 335 1
123 336 1
126 336 1
341 336 1
350 336 1
382 336 1
392 336 1
408 336 1
420 336 1
127 337 1
138 337 1
351 337 1
356 337 1
393 337 1
397 337 1
407 337 1
410 337 1
128 338 1
139 338 1
352 338 1
357 338 1
394 338 1
398 338 1
408 338 1
411 338 1
129 339 1
140 339 1
353 339 1
358 339 1
395 339 1
399 339 1
409 339 1
412 339 1
127 340 1
130 340 1
354 340 1
359 340 1
396 340 1
400 340 1
410 340 1
413 340 1
128 341 1
131 341 1
355 341 1
360 341 1
397 341 1
401 341 1
411 341 1
414 341 1
129 342 1
132 342 1
356 342 1
361 342 1
398 342 1
402 342 1
412 342 1
415 342 1
130 343 1
133 343 1
357 343 1
362 343 1
399 343 1
403 343 1
413 343 1
416 343 1
131 344 1
134 344 1
358 344 1
363 344 1
400 344 1
404 344 1
414 344 1
417 344 1
132 345 1
135 345 1
359 345 1
364 345 1
401 345 1
405 345 1
415 345 1
418 345 1
133 346 1
136 346 1
351 346 1
360 346 1
402 346 1
406 346 1
416 346 1
419 346 1
134 347 1
137 347 1
352 347 1
361 347 1
393 347 1
403 347 1
417 347 1
420 347 1
135 348 1
138 348 1
353 348 1
362 348 1
394 348 1
404 348 1
407 348 1
418 348 1
136 349 1
139 349 1
354 349 1
363 349 1
395 349 1
405 349 1
408 349 1
419 349 1
137 350 1
140 350 1
355 350 1
364 350 1
396 350 1
406 350 1
409 350 1
420 350 1
141 351 1
152 351 1
281 351 1
288 351 1
421 351 1
423 351 1
435 351 1
436 351 1
142 352 1
153 352 1
282 352 1
289 352 1
422 352 1
424 352 1
436 352 1
437 352 1
143 353 1
154 353 1
283 353 1
290 353 1
423 353 1
425 353 1
437 353 1
438 353 1
141 354 1
144 354 1
284 354 1
291 354 1
424 354 1
426 354 1
438 354 1
439 354 1
142 355 1
145 355 1
285 355 1
292 355 1
425 355 1
427 355 1
439 355 1
440 355 1
143 356 1
146 356 1
286 356 1
293 356 1
426 356 1
428 356 1
440 356 1
441 356 1
144 357 1
147 357 1
287 357 1
294 357 1
427 357 1
429 357 1
441 357 1
442 357 1
145 358 1
148 358 1
281 358 1
288 358 1
428 358 1
430 358 1
442 358 1
443 358 1
146 359 1
149 359 1
282 359 1
289 359 1
429 359 1
431 359 1
443 359 1
444 359 1
147 360 1
150 360 1
283 360 1
290 360 1
430 360 1
432 360 1
444 360 1
445 360 1
148 361 1
151 361 1
284 361 1
291 361 1
431 361 1
433 361 1
445 361 1
446 361 1
149 362 1
152 362 1
285 362 1
292 362 1
432 362 1
434 362 1
446 362 1
447 362 1
150 363 1
153 363 1
286 363 1
293 363 1
421 363 1
433 363 1
447 363 1
448 363 1
151 364 1
154 364 1
287 364 1
294 364 1
422 364 1
434 364 1
435 364 1
448 364 1
155 365 1
166 365 1
295 365 1
302 365 1
421 365 1
424 365 1
449 365 1
450 365 1
156 366 1
167 366 1
296 366 1
303 366 1
422 366 1
425 366 1
450 366 1
451 366 1
157 367 1
168 367 1
297 367 1
304 367 1
423 367 1
426 367 1
451 367 1
452 367 1
155 368 1
158 368 1
298 368 1
305 368 1
424 368 1
427 368 1
452 368 1
453 368 1
156 369 1
159 369 1
299 369 1
306 369 1
425 369 1
428 369 1
453 369 1
454 369 1
157 370 1
160 370 1
300 370 1
307 370 1
426 370 1
429 370 1
454 370 1
455 370 1
158 371 1
161 371 1
301 371 1
308 371 1
427 371 1
430 371 1
455 371 1
456 371 1
159 372 1
162 372 1
295 372 1
302 372 1
428 372 1
431 372 1
456 372 1
457 372 1
160 373 1
163 373 1
296 373 1
303 373 1
429 373 1
432 373 1
457 373 1
458 373 1
161 374 1
164 374 1
297 374 1
304 374 1
430 374 1
433 374 1
458 374 1
459 374 1
162 375 1
165 375 1
298 375 1
305 375 1
431 375 1
434 375 1
459 375 1
460 375 1
163 376 1
166 376 1
299 376 1
306 376 1
421 376 1
432 376 1
460 376 1
461 376 1
164 377 1
167 377 1
300 377 1
307 377 1
422 377 1
433 377 1
461 377 1
462 377 1
165 378 1
168 378 1
301 378 1
308 378 1
423 378 1
434 378 1
449 378 1
462 378 1
169 379 1
180 379 1
309 379 1
316 379 1
435 379 1
438 379 1
449 379 1
451 379 1
170 380 1
181 380 1
310 380 1
317 380 1
436 380 1
439 380 1
450 380 1
452 380 1
171 381 1
182 381 1
311 381 1
318 381 1
437 381 1
440 381 1
451 381 1
453 381 1
169 382 1
172 382 1
312 382 1
319 382 1
438 382 1
441 382 1
452 382 1
454 382 1
170 383 1
173 383 1
313 383 1
320 383 1
439 383 1
442 383 1
453 383 1
455 383 1
171 384 1
174 384 1
314 384 1
321 384 1
440 384 1
443 384 1
454 384 1
456 384 1
172 385 1
175 385 1
315 385 1
322 385 1
441 385 1
444 385 1
455 385 1
457 385 1
173 386 1
176 386 1
309 386 1
316 386 1
442 386 1
445 386 1
456 386 1
458 386 1
174 387 1
177 387 1
310 387 1
317 387 1
443 387 1
446 387 1
457 387 1
459 387 1
175 388 1
178 388 1
311 388 1
318 388 1
444 388 1
447 388 1
458 388 1
460 388 1
176 389 1
179 389 1
312 389 1
319 389 1
445 389 1
448 389 1
459 389 1
461 389 1
177 390 1
180 390 1
313 390 1
320 390 1
435 390 1
446 390 1
460 390 1
462 390 1
178 391 1
181 391 1
314 391 1
321 391 1
436 391 1
447 391 1
449 391 1
461 391 1
179 392 1
182 392 1
315 392 1
322 392 1
437 392 1
448 392 1
450 392 1
462 392 1
183 393 1
194 393 1
323 393 1
330 393 1
421 393 1
425 393 1
463 393 1
464 393 1
184 394 1
195 394 1
324 394 1
331 394 1
422 394 1
426 394 1
464 394 1
465 394 1
185 395 1
196 395 1
325 395 1
332 395 1
423 395 1
427 395 1
465 395 1
466 395 1
183 396 1
186 396 1
326 396 1
333 396 1
424 396 1
428 396 1
466 396 1
467 396 1
184 397 1
187 397 1
327 397 1
334 397 1
425 397 1
429 397 1
467 397 1
468 397 1
185 398 1
188 398 1
328 398 1
335 398 1
426 398 1
430 398 1
468 398 1
469 398 1
186 399 1
189 399 1
329 399 1
336 399 1
427 399 1
431 399 1
469 399 1
470 399 1
187 400 1
190 400 1
323 400 1
330 400 1
428 400 1
432 400 1
470 400 1
471 400 1
188 401 1
191 401 1
324 401 1
331 401 1
429 401 1
433 401 1
471 401 1
472 401 1
189 402 1
192 402 1
325 402 1
332 402 1
430 402 1
434 402 1
472 402 1
473 402 1
190 403 1
193 403 1
326 403 1
333 403 1
421 403 1
431 403 1
473 403 1
474 403 1
191 404 1
194 404 1
327 404 1
334 404 1
422 404 1
432 404 1
474 404 1
475 404 1
192 405 1
195 405 1
328 405 1
335 405 1
423 405 1
433 405 1
475 405 1
476 405 1
193 406 1
196 406 1
329 406 1
336 406 1
424 406 1
434 406 1
463 406 1
476 406 1
197 407 1
208 407 1
337 407 1
344 407 1
435 407 1
439 407 1
463 407 1
465 407 1
198 408 1
209 408 1
338 408 1
345 408 1
436 408 1
440 408 1
464 408 1
466 408 1
199 409 1
210 409 1
339 409 1
346 409 1
437 409 1
441 409 1
465 409 1
467 409 1
197 410 1
200 410 1
340 410 1
347 410 1
438 410 1
442 410 1
466 410 1
468 410 1
198 411 1
201 411 1
341 411 1
348 411 1
439 411 1
443 411 1
467 411 1
469 411 1
199 412 1
202 412 1
342 412 1
349 412 1
440 412 1
444 412 1
468 412 1
470 412 1
200 413 1
203 413 1
343 413 1
350 413 1
441 413 1
445 413 1
469 413 1
471 413 1
201 414 1
204 414 1
337 414 1
344 414 1
442 414 1
446 414 1
470 414 1
472 414 1
202 415 1
205 415 1
338 415 1
345 415 1
443 415 1
447 415 1
471 415 1
473 415 1
203 416 1
206 416 1
339 416 1
346 416 1
444 416 1
448 416 1
472 416 1
474 416 1
204 417 1
207 417 1
340 417 1
347 417 1
435 417 1
445 417 1
473 417 1
475 417 1
205 418 1
208 418 1
341 418 1
348 418 1
436 418 1
446 418 1
474 418 1
476 418 1
206 419 1
209 419 1
342 419 1
349 419 1
437 419 1
447 419 1
463 419 1
475 419 1
207 420 1
210 420 1
343 420 1
350 420 1
438 420 1
448 420 1
464 420 1
476 420 1
211 421 1
222 421 1
351 421 1
358 421 1
449 421 1
453 421 1
463 421 1
466 421 1
212 422 1
223 422 1
352 422 1
359 422 1
450 422 1
454 422 1
464 422 1
467 422 1
213 423 1
224 423 1
353 423 1
360 423 1
451 423 1
455 423 1
465 423 1
468 423 1
211 424 1
214 424 1
354 424 1
361 424 1
452 424 1
456 424 1
466 424 1
469 424 1
212 425 1
215 425 1
355 425 1
362 425 1
453 425 1
457 425 1
467 425 1
470 425 1
213 426 1
216 426 1
356 426 1
363 426 1
454 426 1
458 426 1
468 426 1
471 426 1
214 427 1
217 427 1
357 427 1
364 427 1
455 427 1
459 427 1
469 427 1
472 427 1
215 428 1
218 428 1
351 428 1
358 428 1
456 428 1
460 428 1
470 428 1
473 428 1
216 429 1
219 429 1
352 429 1
359 429 1
457 429 1
461 429 1
471 429 1
474 429 1
217 430 1
220 430 1
353 430 1
360 430 1
458 430 1
462 430 1
472 430 1
475 430 1
218 431 1
221 431 1
354 431 1
361 431 1
449 431 1
459 431 1
473 431 1
476 431 1
219 432 1
222 432 1
355 432 1
362 432 1
450 432 1
460 432 1
463 432 1
474 432 1
220 433 1
223 433 1
356 433 1
363 433 1
451 433 1
461 433 1
464 433 1
475 433 1
221 434 1
224 434 1
357 434 1
364 434 1
452 434 1
462 434 1
465 434 1
476 434 1
225 435 1
236 435 1
365 435 1
372 435 1
421 435 1
426 435 1
477 435 1
478 435 1
226 436 1
237 436 1
366 436 1
373 436 1
422 436 1
427 436 1
478 436 1
479 436 1
227 437 1
238 437 1
367 437 1
374 437 1
423 437 1
428 437 1
479 437 1
480 437 1
225 438 1
228 438 1
368 438 1
375 438 1
424 438 1
429 438 1
480 438 1
481 438 1
226 439 1
229 439 1
369 439 1
376 439 1
425 439 1
430 439 1
481 439 1
482 439 1
227 440 1
230 440 1
370 440 1
377 440 1
426 440 1
431 440 1
482 440 1
483 440 1
228 441 1
231 441 1
371 441 1
378 441 1
427 441 1
432 441 1
483 441 1
484 441 1
229 442 1
232 442 1
365 442 1
372 442 1
428 442 1
433 442 1
484 442 1
485 442 1
230 443 1
233 443 1
366 443 1
373 443 1
429 443 1
434 443 1
485 443 1
486 443 1
231 444 1
234 444 1
367 444 1
374 444 1
421 444 1
430 444 1
486 444 1
487 444 1
232 445 1
235 445 1
368 445 1
375 445 1
422 445 1
431 445 1
487 445 1
488 445 1
233 446 1
236 446 1
369 446 1
376 446 1
423 446 1
432 446 1
488 446 1
489 446 1
234 447 1
237 447 1
370 447 1
377 447 1
424 447 1
433 447 1
489 447 1
490 447 1
235 448 1
238 448 1
371 448 1
378 448 1
425 448 1
434 448 1
477 448 1
490 448 1
239 449 1
250 449 1
379 449 1
386 449 1
435 449 1
440 449 1
477 449 1
479 449 1
240 450 1
251 450 1
380 450 1
387 450 1
436 450 1
441 450 1
478 450 1
480 450 1
241 451 1
252 451 1
381 451 1
388 451 1
437 451 1
442 451 1
479 451 1
481 451 1
239 452 1
242 452 1
382 452 1
389 452 1
438 452 1
443 452 1
480 452 1
482 452 1
240 453 1
243 453 1
383 453 1
390 453 1
439 453 1
444 453 1
481 453 1
483 453 1
241 454 1
244 454 1
384 454 1
391 454 1
440 454 1
445 454 1
482 454 1
484 454 1
242 455 1
245 455 1
385 455 1
392 455 1
441 455 1
446 455 1
483 455 1
485 455 1
243 456 1
246 456 1
379 456 1
386 456 1
442 456 1
447 456 1
484 456 1
486 456 1
244 457 1
247 457 1
380 457 1
387 457 1
443 457 1
448 457 1
485 457 1
487 457 1
245 458 1
248 458 1
381 458 1
388 458 1
435 458 1
444 458 1
486 458 1
488 458 1
246 459 1
249 459 1
382 459 1
389 459 1
436 459 1
445 459 1
487 459 1
489 459 1
247 460 1
250 460 1
383 460 1
390 460 1
437 460 1
446 460 1
488 460 1
490 460 1
248 461 1
251 461 1
384 461 1
391 461 1
438 461 1
447 461 1
477 461 1
489 461 1
249 462 1
252 462 1
385 462 1
392 462 1
439 462 1
448 462 1
478 462 1
490 462 1
253 463 1
264 463 1
393 463 1
400 463 1
449 463 1
454 463 1
477 463 1
480 463 1
254 464 1
265 464 1
394 464 1
401 464 1
450 464 1
455 464 1
478 464 1
481 464 1
255 465 1
266 465 1
395 465 1
402 465 1
451 465 1
456 465 1
479 465 1
482 465 1
253 466 1
256 466 1
396 466 1
403 466 1
452 466 1
457 466 1
480 466 1
483 466 1
254 467 1
257 467 1
397 467 1
404 467 1
453 467 1
458 467 1
481 467 1
484 467 1
255 468 1
258 468 1
398 468 1
405 468 1
454 468 1
459 468 1
482 468 1
485 468 1
256 469 1
259 469 1
399 469 1
406 469 1
455 469 1
460 469 1
483 469 1
486 469 1
257 470 1
260 470 1
393 470 1
400 470 1
456 470 1
461 470 1
484 470 1
487 470 1
258 471 1
261 471 1
394 471 1
401 471 1
457 471 1
462 471 1
485 471 1
488 471 1
259 472 1
262 472 1
395 472 1
402 472 1
449 472 1
458 472 1
486 472 1
489 472 1
260 473 1
263 473 1
396 473 1
403 473 1
450 473 1
459 473 1
487 473 1
490 473 1
261 474 1
264 474 1
397 474 1
404 474 1
451 474 1
460 474 1
477 474 1
488 474 1
262 475 1
265 475 1
398 475 1
405 475 1
452 475 1
461 475 1
478 475 1
489 475 1
263 476 1
266 476 1
399 476 1
406 476 1
453 476 1
462 476 1
479 476 1
490 476 1
267 477 1
278 477 1
407 477 1
414 477 1
463 477 1
468 477 1
477 477 1
481 477 1
268 478 1
279 478 1
408 478 1
415 478 1
464 478 1
469 478 1
478 478 1
482 478 1
269 479 1
280 479 1
409 479 1
416 479 1
465 479 1
470 479 1
479 479 1
483 479 1
267 480 1
270 480 1
410 480 1
417 480 1
466 480 1
471 480 1
480 480 1
484 480 1
268 481 1
271 481 1
411 481 1
418 481 1
467 481 1
472 481 1
481 481 1
485 481 1
269 482 1
272 482 1
412 482 1
419 482 1
468 482 1
473 482 1
482 482 1
486 482 1
270 483 1
273 483 1
413 483 1
420 483 1
469 483 1
474 483 1
483 483 1
487 483 1
271 484 1
274 484 1
407 484 1
414 484 1
470 484 1
475 484 1
484 484 1
488 484 1
272 485 1
275 485 1
408 485 1
415 485 1
471 485 1
476 485 1
485 485 1
489 485 1
273 486 1
276 486 1
409 486 1
416 486 1
463 486 1
472 486 1
486 486 1
490 486 1
274 487 1
277 487 1
410 487 1
417 487 1
464 487 1
473 487 1
477 487 1
487 487 1
275 488 1
278 488 1
411 488 1
418 488 1
465 488 1
474 488 1
478 488 1
488 488 1
276 489 1
279 489 1
412 489 1
419 489 1
466 489 1
475 489 1
479 489 1
489 489 1
277 490 1
280 490 1
413 490 1
420 490 1
467 490 1
476 490 1
480 490 1
490 490 1
1 491 1
13 491 1
491 491 1
494 491 1
505 491 1
507 491 1
519 491 1
520 491 1
2 492 1
14 492 1
492 492 1
495 492 1
506 492 1
508 492 1
520 492 1
521 492 1
1 493 1
3 493 1
493 493 1
496 493 1
507 493 1
509 493 1
521 493 1
522 493 1
2 494 1
4 494 1
494 494 1
497 494 1
508 494 1
510 494 1
522 494 1
523 494 1
3 495 1
5 495 1
495 495 1
498 495 1
509 495 1
511 495 1
523 495 1
524 495 1
4 496 1
6 496 1
496 496 1
499 496 1
510 496 1
512 496 1
524 496 1
525 496 1
5 497 1
7 497 1
497 497 1
500 497 1
511 497 1
513 497 1
525 497 1
526 497 1
6 498 1
8 498 1
498 498 1
501 498 1
512 498 1
514 498 1
526 498 1
527 498 1
7 499 1
9 499 1
499 499 1
502 499 1
513 499 1
515 499 1
527 499 1
528 499 1
8 500 1
10 500 1
500 500 1
503 500 1
514 500 1
516 500 1
528 500 1
529 500 1
9 501 1
11 501 1
501 501 1
504 501 1
515 501 1
517 501 1
529 501 1
530 501 1
10 502 1
12 502 1
491 502 1
502 502 1
516 502 1
518 502 1
530 502 1
531 502 1
11 503 1
13 503 1
492 503 1
503 503 1
505 503 1
517 503 1
531 503 1
532 503 1
12 504 1
14 504 1
493 504 1
504 504 1
506 504 1
518 504 1
519 504 1
532 504 1
15 505 1
27 505 1
491 505 1
495 505 1
533 505 1
535 505 1
547 505 1
548 505 1
16 506 1
28 506 1
492 506 1
496 506 1
534 506 1
536 506 1
548 506 1
549 506 1
15 507 1
17 507 1
493 507 1
497 507 1
535 507 1
537 507 1
549 507 1
550 507 1
16 508 1
18 508 1
494 508 1
498 508 1
536 508 1
538 508 1
550 508 1
551 508 1
17 509 1
19 509 1
495 509 1
499 509 1
537 509 1
539 509 1
551 509 1
552 509 1
18 510 1
20 510 1
496 510 1
500 510 1
538 510 1
540 510 1
552 510 1
553 510 1
19 511 1
21 511 1
497 511 1
501 511 1
539 511 1
541 511 1
553 511 1
554 511 1
20 512 1
22 512 1
498 512 1
502 512 1
540 512 1
542 512 1
554 512 1
555 512 1
21 513 1
23 513 1
499 513 1
503 513 1
541 513 1
543 513 1
555 513 1
556 513 1
22 514 1
24 514 1
500 514 1
504 514 1
542 514 1
544 514 1
556 514 1
557 514 1
23 515 1
25 515 1
491 515 1
501 515 1
543 515 1
545 515 1
557 515 1
558 515 1
24 516 1
26 516 1
492 516 1
502 516 1
544 516 1
546 516 1
558 516 1
559 516 1
25 517 1
27 517 1
493 517 1
503 517 1
533 517 1
545 517 1
559 517 1
560 517 1
26 518 1
28 518 1
494 518 1
504 518 1
534 518 1
546 518 1
547 518 1
560 518 1
29 519 1
41 519 1
505 519 1
509 519 1
533 519 1
536 519 1
561 519 1
562 519 1
30 520 1
42 520 1
506 520 1
510 520 1
534 520 1
537 520 1
562 520 1
563 520 1
29 521 1
31 521 1
507 521 1
511 521 1
535 521 1
538 521 1
563 521 1
564 521 1
30 522 1
32 522 1
508 522 1
512 522 1
536 522 1
539 522 1
564 522 1
565 522 1
31 523 1
33 523 1
509 523 1
513 523 1
537 523 1
540 523 1
565 523 1
566 523 1
32 524 1
34 524 1
510 524 1
514 524 1
538 524 1
541 524 1
566 524 1
567 524 1
33 525 1
35 525 1
511 525 1
515 525 1
539 525 1
542 525 1
567 525 1
568 525 1
34 526 1
36 526 1
512 526 1
516 526 1
540 526 1
543 526 1
568 526 1
569 526 1
35 527 1
37 527 1
513 527 1
517 527 1
541 527 1
544 527 1
569 527 1
570 527 1
36 528 1
38 528 1
514 528 1
518 528 1
542 528 1
545 528 1
570 528 1
571 528 1
37 529 1
39 529 1
505 529 1
515 529 1
543 529 1
546 529 1
571 529 1
572 529 1
38 530 1
40 530 1
506 530 1
516 530 1
533 530 1
544 530 1
572 530 1
573 530 1
39 531 1
41 531 1
507 531 1
517 531 1
534 531 1
545 531 1
573 531 1
574 531 1
40 532 1
42 532 1
508 532 1
518 532 1
535 532 1
546 532 1
561 532 1
574 532 1
43 533 1
55 533 1
519 533 1
523 533 1
547 533 1
550 533 1
561 533 1
563 533 1
44 534 1
56 534 1
520 534 1
524 534 1
548 534 1
551 534 1
562 534 1
564 534 1
43 535 1
45 535 1
521 535 1
525 535 1
549 535 1
552 535 1
563 535 1
565 535 1
44 536 1
46 536 1
522 536 1
526 536 1
550 536 1
553 536 1
564 536 1
566 536 1
45 537 1
47 537 1
523 537 1
527 537 1
551 537 1
554 537 1
565 537 1
567 537 1
46 538 1
48 538 1
524 538 1
528 538 1
552 538 1
555 538 1
566 538 1
568 538 1
47 539 1
49 539 1
525 539 1
529 539 1
553 539 1
556 539 1
567 539 1
569 539 1
48 540 1
50 540 1
526 540 1
530 540 1
554 540 1
557 540 1
568 540 1
570 540 1
49 541 1
51 541 1
527 541 1
531 541 1
555 541 1
558 541 1
569 541 1
571 541 1
50 542 1
52 542 1
528 542 1
532 542 1
556 542 1
559 542 1
570 542 1
572 542 1
51 543 1
53 543 1
519 543 1
529 543 1
557 543 1
560 543 1
571 543 1
573 543 1
52 544 1
54 544 1
520 544 1
530 544 1
547 544 1
558 544 1
572 544 1
574 544 1
53 545 1
55 545 1
521 545 1
531 545 1
548 545 1
559 545 1
561 545 1
573 545 1
54 546 1
56 546 1
522 546 1
532 546 1
549 546 1
560 546 1
562 546 1
574 546 1
57 547 1
69 547 1
491 547 1
496 547 1
575 547 1
577 547 1
589 547 1
590 547 1
58 548 1
70 548 1
492 548 1
497 548 1
576 548 1
578 548 1
590 548 1
591 548 1
57 549 1
59 549 1
493 549 1
498 549 1
577 549 1
579 549 1
591 549 1
592 549 1
58 550 1
60 550 1
494 550 1
499 550 1
578 550 1
580 550 1
592 550 1
593 550 1
59 551 1
61 551 1
495 551 1
500 551 1
579 551 1
581 551 1
593 551 1
594 551 1
60 552 1
62 552 1
496 552 1
501 552 1
580 552 1
582 552 1
594 552 1
595 552 1
61 553 1
63 553 1
497 553 1
502 553 1
581 553 1
583 553 1
595 553 1
596 553 1
62 554 1
64 554 1
498 554 1
503 554 1
582 554 1
584 554 1
596 554 1
597 554 1
63 555 1
65 555 1
499 555 1
504 555 1
583 555 1
585 555 1
597 555 1
598 555 1
64 556 1
66 556 1
491 556 1
500 556 1
584 556 1
586 556 1
598 556 1
599 556 1
65 557 1
67 557 1
492 557 1
501 557 1
585 557 1
587 557 1
599 557 1
600 557 1
66 558 1
68 558 1
493 558 1
502 558 1
586 558 1
588 558 1
600 558 1
601 558 1
67 559 1
69 559 1
494 559 1
503 559 1
575 559 1
587 559 1
601 559 1
602 559 1
68 560 1
70 560 1
495 560 1
504 560 1
576 560 1
588 560 1
589 560 1
602 560 1
71 561 1
83 561 1
505 561 1
510 561 1
575 561 1
578 561 1
603 561 1
604 561 1
72 562 1
84 562 1
506 562 1
511 562 1
576 562 1
579 562 1
604 562 1
605 562 1
71 563 1
73 563 1
507 563 1
512 563 1
577 563 1
580 563 1
605 563 1
606 563 1
72 564 1
74 564 1
508 564 1
513 564 1
578 564 1
581 564 1
606 564 1
607 564 1
73 565 1
75 565 1
509 565 1
514 565 1
579 565 1
582 565 1
607 565 1
608 565 1
74 566 1
76 566 1
510 566 1
515 566 1
580 566 1
583 566 1
608 566 1
609 566 1
75 567 1
77 567 1
511 567 1
516 567 1
581 567 1
584 567 1
609 567 1
610 567 1
76 568 1
78 568 1
512 568 1
517 568 1
582 568 1
585 568 1
610 568 1
611 568 1
77 569 1
79 569 1
513 569 1
518 569 1
583 569 1
586 569 1
611 569 1
612 569 1
78 570 1
80 570 1
505 570 1
514 570 1
584 570 1
587 570 1
612 570 1
613 570 1
79 571 1
81 571 1
506 571 1
515 571 1
585 571 1
588 571 1
613 571 1
614 571 1
80 572 1
82 572 1
507 572 1
516 572 1
575 572 1
586 572 1
614 572 1
615 572 1
81 573 1
83 573 1
508 573 1
517 573 1
576 573 1
587 573 1
615 573 1
616 573 1
82 574 1
84 574 1
509 574 1
518 574 1
577 574 1
588 574 1
603 574 1
616 574 1
85 575 1
97 575 1
519 575 1
524 575 1
589 575 1
592 575 1
603 575 1
605 575 1
86 576 1
98 576 1
520 576 1
525 576 1
590 576 1
593 576 1
604 576 1
606 576 1
85 577 1
87 577 1
521 577 1
526 577 1
591 577 1
594 577 1
605 577 1
607 577 1
86 578 1
88 578 1
522 578 1
527 578 1
592 578 1
595 578 1
606 578 1
608 578 1
87 579 1
89 579 1
523 579 1
528 579 1
593 579 1
596 579 1
607 579 1
609 579 1
88 580 1
90 580 1
524 580 1
529 580 1
594 580 1
597 580 1
608 580 1
610 580 1
89 581 1
91 581 1
525 581 1
530 581 1
595 581 1
598 581 1
609 581 1
611 581 1
90 582 1
92 582 1
526 582 1
531 582 1
596 582 1
599 582 1
610 582 1
612 582 1
91 583 1
93 583 1
527 583 1
532 583 1
597 583 1
600 583 1
611 583 1
613 583 1
92 584 1
94 584 1
519 584 1
528 584 1
598 584 1
601 584 1
612 584 1
614 584 1
93 585 1
95 585 1
520 585 1
529 585 1
599 585 1
602 585 1
613 585 1
615 585 1
94 586 1
96 586 1
521 586 1
530 586 1
589 586 1
600 586 1
614 586 1
616 586 1
95 587 1
97 587 1
522 587 1
531 587 1
590 587 1
601 587 1
603 587 1
615 587 1
96 588 1
98 588 1
523 588 1
532 588 1
591 588 1
602 588 1
604 588 1
616 588 1
99 589 1
111 589 1
533 589 1
538 589 1
575 589 1
579 589 1
617 589 1
618 589 1
100 590 1
112 590 1
534 590 1
539 590 1
576 590 1
580 590 1
618 590 1
619 590 1
99 591 1
101 591 1
535 591 1
540 591 1
577 591 1
581 591 1
619 591 1
620 591 1
100 592 1
102 592 1
536 592 1
541 592 1
578 592 1
582 592 1
620 592 1
621 592 1
101 593 1
103 593 1
537 593 1
542 593 1
579 593 1
583 593 1
621 593 1
622 593 1
102 594 1
104 594 1
538 594 1
543 594 1
580 594 1
584 594 1
622 594 1
623 594 1
103 595 1
105 595 1
539 595 1
544 595 1
581 595 1
585 595 1
623 595 1
624 595 1
104 596 1
106 596 1
540 596 1
545 596 1
582 596 1
586 596 1
624 596 1
625 596 1
105 597 1
107 597 1
541 597 1
546 597 1
583 597 1
587 597 1
625 597 1
626 597 1
106 598 1
108 598 1
533 598 1
542 598 1
584 598 1
588 598 1
626 598 1
627 598 1
107 599 1
109 599 1
534 599 1
543 599 1
575 599 1
585 599 1
627 599 1
628 599 1
108 600 1
110 600 1
535 600 1
544 600 1
576 600 1
586 600 1
628 600 1
629 600 1
109 601 1
111 601 1
536 601 1
545 601 1
577 601 1
587 601 1
629 601 1
630 601 1
110 602 1
112 602 1
537 602 1
546 602 1
578 602 1
588 602 1
617 602 1
630 602 1
113 603 1
125 603 1
547 603 1
552 603 1
589 603 1
593 603 1
617 603 1
619 603 1
114 604 1
126 604 1
548 604 1
553 604 1
590 604 1
594 604 1
618 604 1
620 604 1
113 605 1
115 605 1
549 605 1
554 605 1
591 605 1
595 605 1
619 605 1
621 605 1
114 606 1
116 606 1
550 606 1
555 606 1
592 606 1
596 606 1
620 606 1
622 606 1
115 607 1
117 607 1
551 607 1
556 607 1
593 607 1
597 607 1
621 607 1
623 607 1
116 608 1
118 608 1
552 608 1
557 608 1
594 608 1
598 608 1
622 608 1
624 608 1
117 609 1
119 609 1
553 609 1
558 609 1
595 609 1
599 609 1
623 609 1
625 609 1
118 610 1
120 610 1
554 610 1
559 610 1
596 610 1
600 610 1
624 610 1
626 610 1
119 611 1
121 611 1
555 611 1
560 611 1
597 611 1
601 611 1
625 611 1
627 611 1
120 612 1
122 612 1
547 612 1
556 612 1
598 612 1
602 612 1
626 612 1
628 612 1
121 613 1
123 613 1
548 613 1
557 613 1
589 613 1
599 613 1
627 613 1
629 613 1
122 614 1
124 614 1
549 614 1
558 614 1
590 614 1
600 614 1
628 614 1
630 614 1
123 615 1
125 615 1
550 615 1
559 615 1
591 615 1
601 615 1
617 615 1
629 615 1
124 616 1
126 616 1
551 616 1
560 616 1
592 616 1
602 616 1
618 616 1
630 616 1
127 617 1
139 617 1
561 617 1
566 617 1
603 617 1
607 617 1
617 617 1
620 617 1
128 618 1
140 618 1
562 618 1
567 618 1
604 618 1
608 618 1
618 618 1
621 618 1
127 619 1
129 619 1
563 619 1
568 619 1
605 619 1
609 619 1
619 619 1
622 619 1
128 620 1
130 620 1
564 620 1
569 620 1
606 620 1
610 620 1
620 620 1
623 620 1
129 621 1
131 621 1
565 621 1
570 621 1
607 621 1
611 621 1
621 621 1
624 621 1
130 622 1
132 622 1
566 622 1
571 622 1
608 622 1
612 622 1
622 622 1
625 622 1
131 623 1
133 623 1
567 623 1
572 623 1
609 623 1
613 623 1
623 623 1
626 623 1
132 624 1
134 624 1
568 624 1
573 624 1
610 624 1
614 624 1
624 624 1
627 624 1
133 625 1
135 625 1
569 625 1
574 625 1
611 625 1
615 625 1
625 625 1
628 625 1
134 626 1
136 626 1
561 626 1
570 626 1
612 626 1
616 626 1
626 626 1
629 626 1
135 627 1
137 627 1
562 627 1
571 627 1
603 627 1
613 627 1
627 627 1
630 627 1
136 628 1
138 628 1
563 628 1
572 628 1
604 628 1
614 628 1
617 628 1
628 628 1
137 629 1
139 629 1
564 629 1
573 629 1
605 629 1
615 629 1
618 629 1
629 629 1
138 630 1
140 630 1
565 630 1
574 630 1
606 630 1
616 630 1
619 630 1
630 630 1
141 631 1
153 631 1
491 631 1
498 631 1
631 631 1
633 631 1
645 631 1
646 631 1
142 632 1
154 632 1
492 632 1
499 632 1
632 632 1
634 632 1
646 632 1
647 632 1
141 633 1
143 633 1
493 633 1
500 633 1
633 633 1
635 633 1
647 633 1
648 633 1
142 634 1
144 634 1
494 634 1
501 634 1
634 634 1
636 634 1
648 634 1
649 634 1
143 635 1
145 635 1
495 635 1
502 635 1
635 635 1
637 635 1
649 635 1
650 635 1
144 636 1
146 636 1
496 636 1
503 636 1
636 636 1
638 636 1
650 636 1
651 636 1
145 637 1
147 637 1
497 637 1
504 637 1
637 637 1
639 637 1
651 637 1
652 637 1
146 638 1
148 638 1
491 638 1
498 638 1
638 638 1
640 638 1
652 638 1
653 638 1
147 639 1
149 639 1
492 639 1
499 639 1
639 639 1
641 639 1
653 639 1
654 639 1
148 640 1
150 640 1
493 640 1
500 640 1
640 640 1
642 640 1
654 640 1
655 640 1
149 641 1
151 641 1
494 641 1
501 641 1
641 641 1
643 641 1
655 641 1
656 641 1
150 642 1
152 642 1
495 642 1
502 642 1
642 642 1
644 642 1
656 642 1
657 642 1
151 643 1
153 643 1
496 643 1
503 643 1
631 643 1
643 643 1
657 643 1
658 643 1
152 644 1
154 644 1
497 644 1
504 644 1
632 644 1
644 644 1
645 644 1
658 644 1
155 645 1
167 645 1
505 645 1
512 645 1
631 645 1
634 645 1
659 645 1
660 645 1
156 646 1
168 646 1
506 646 1
513 646 1
632 646 1
635 646 1
660 646 1
661 646 1
155 647 1
157 647 1
507 647 1
514 647 1
633 647 1
636 647 1
661 647 1
662 647 1
156 648 1
158 648 1
508 648 1
515 648 1
634 648 1
637 648 1
662 648 1
663 648 1
157 649 1
159 649 1
509 649 1
516 649 1
635 649 1
638 649 1
663 649 1
664 649 1
158 650 1
160 650 1
510 650 1
517 650 1
636 650 1
639 650 1
664 650 1
665 650 1
159 651 1
161 651 1
511 651 1
518 651 1
637 651 1
640 651 1
665 651 1
666 651 1
160 652 1
162 652 1
505 652 1
512 652 1
638 652 1
641 652 1
666 652 1
667 652 1
161 653 1
163 653 1
506 653 1
513 653 1
639 653 1
642 653 1
667 653 1
668 653 1
162 654 1
164 654 1
507 654 1
514 654 1
640 654 1
643 654 1
668 654 1
669 654 1
163 655 1
165 655 1
508 655 1
515 655 1
641 655 1
644 655 1
669 655 1
670 655 1
164 656 1
166 656 1
509 656 1
516 656 1
631 656 1
642 656 1
670 656 1
671 656 1
165 657 1
167 657 1
510 657 1
517 657 1
632 657 1
643 657 1
671 657 1
672 657 1
166 658 1
168 658 1
511 658 1
518 658 1
633 658 1
644 658 1
659 658 1
672 658 1
169 659 1
181 659 1
519 659 1
526 659 1
645 659 1
648 659 1
659 659 1
661 659 1
170 660 1
182 660 1
520 660 1
527 660 1
646 660 1
649 660 1
660 660 1
662 660 1
169 661 1
171 661 1
521 661 1
528 661 1
647 661 1
650 661 1
661 661 1
663 661 1
170 662 1
172 662 1
522 662 1
529 662 1
648 662 1
651 662 1
662 662 1
664 662 1
171 663 1
173 663 1
523 663 1
530 663 1
649 663 1
652 663 1
663 663 1
665 663 1
172 664 1
174 664 1
524 664 1
531 664 1
650 664 1
653 664 1
664 664 1
666 664 1
173 665 1
175 665 1
525 665 1
532 665 1
651 665 1
654 665 1
665 665 1
667 665 1
174 666 1
176 666 1
519 666 1
526 666 1
652 666 1
655 666 1
666 666 1
668 666 1
175 667 1
177 667 1
520 667 1
527 667 1
653 667 1
656 667 1
667 667 1
669 667 1
176 668 1
178 668 1
521 668 1
528 668 1
654 668 1
657 668 1
668 668 1
670 668 1
177 669 1
179 669 1
522 669 1
529 669 1
655 669 1
658 669 1
669 669 1
671 669 1
178 670 1
180 670 1
523 670 1
530 670 1
645 670 1
656 670 1
670 670 1
672 670 1
179 671 1
181 671 1
524 671 1
531 671 1
646 671 1
657 671 1
659 671 1
671 671 1
180 672 1
182 672 1
525 672 1
532 672 1
647 672 1
658 672 1
660 672 1
672 672 1
183 673 1
195 673 1
533 673 1
540 673 1
631 673 1
635 673 1
673 673 1
674 673 1
184 674 1
196 674 1
534 674 1
541 674 1
632 674 1
636 674 1
674 674 1
675 674 1
183 675 1
185 675 1
535 675 1
542 675 1
633 675 1
637 675 1
675 675 1
676 675 1
184 676 1
186 676 1
536 676 1
543 676 1
634 676 1
638 676 1
676 676 1
677 676 1
185 677 1
187 677 1
537 677 1
544 677 1
635 677 1
639 677 1
677 677 1
678 677 1
186 678 1
188 678 1
538 678 1
545 678 1
636 678 1
640 678 1
678 678 1
679 678 1
187 679 1
189 679 1
539 679 1
546 679 1
637 679 1
641 679 1
679 679 1
680 679 1
188 680 1
190 680 1
533 680 1
540 680 1
638 680 1
642 680 1
680 680 1
681 680 1
189 681 1
191 681 1
534 681 1
541 681 1
639 681 1
643 681 1
681 681 1
682 681 1
190 682 1
192 682 1
535 682 1
542 682 1
640 682 1
644 682 1
682 682 1
683 682 1
191 683 1
193 683 1
536 683 1
543 683 1
631 683 1
641 683 1
683 683 1
684 683 1
192 684 1
194 684 1
537 684 1
544 684 1
632 684 1
642 684 1
684 684 1
685 684 1
193 685 1
195 685 1
538 685 1
545 685 1
633 685 1
643 685 1
685 685 1
686 685 1
194 686 1
196 686 1
539 686 1
546 686 1
634 686 1
644 686 1
673 686 1
686 686 1
197 687 1
209 687 1
547 687 1
554 687 1
645 687 1
649 687 1
673 687 1
675 687 1
198 688 1
210 688 1
548 688 1
555 688 1
646 688 1
650 688 1
674 688 1
676 688 1
197 689 1
199 689 1
549 689 1
556 689 1
647 689 1
651 689 1
675 689 1
677 689 1
198 690 1
200 690 1
550 690 1
557 690 1
648 690 1
652 690 1
676 690 1
678 690 1
199 691 1
201 691 1
551 691 1
558 691 1
649 691 1
653 691 1
677 691 1
679 691 1
200 692 1
202 692 1
552 692 1
559 692 1
650 692 1
654 692 1
678 692 1
680 692 1
201 693 1
203 693 1
553 693 1
560 693 1
651 693 1
655 693 1
679 693 1
681 693 1
202 694 1
204 694 1
547 694 1
554 694 1
652 694 1
656 694 1
680 694 1
682 694 1
203 695 1
205 695 1
548 695 1
555 695 1
653 695 1
657 695 1
681 695 1
683 695 1
204 696 1
206 696 1
549 696 1
556 696 1
654 696 1
658 696 1
682 696 1
684 696 1
205 697 1
207 697 1
550 697 1
557 697 1
645 697 1
655 697 1
683 697 1
685 697 1
206 698 1
208 698 1
551 698 1
558 698 1
646 698 1
656 698 1
684 698 1
686 698 1
207 699 1
209 699 1
552 699 1
559 699 1
647 699 1
657 699 1
673 699 1
685 699 1
208 700 1
210 700 1
553 700 1
560 700 1
648 700 1
658 700 1
674 700 1
686 700 1
211 701 1
223 701 1
561 701 1
568 701 1
659 701 1
663 701 1
673 701 1
676 701 1
212 702 1
224 702 1
562 702 1
569 702 1
660 702 1
664 702 1
674 702 1
677 702 1
211 703 1
213 703 1
563 703 1
570 703 1
661 703 1
665 703 1
675 703 1
678 703 1
212 704 1
214 704 1
564 704 1
571 704 1
662 704 1
666 704 1
676 704 1
679 704 1
213 705 1
215 705 1
565 705 1
572 705 1
663 705 1
667 705 1
677 705 1
680 705 1
214 706 1
216 706 1
566 706 1
573 706 1
664 706 1
668 706 1
678 706 1
681 706 1
215 707 1
217 707 1
567 707 1
574 707 1
665 707 1
669 707 1
679 707 1
682 707 1
216 708 1
218 708 1
561 708 1
568 708 1
666 708 1
670 708 1
680 708 1
683 708 1
217 709 1
219 709 1
562 709 1
569 709 1
667 709 1
671 709 1
681 709 1
684 709 1
218 710 1
220 710 1
563 710 1
570 710 1
668 710 1
672 710 1
682 710 1
685 710 1
219 711 1
221 711 1
564 711 1
571 711 1
659 711 1
669 711 1
683 711 1
686 711 1
220 712 1
222 712 1
565 712 1
572 712 1
660 712 1
670 712 1
673 712 1
684 712 1
221 713 1
223 713 1
566 713 1
573 713 1
661 713 1
671 713 1
674 713 1
685 713 1
222 714 1
224 714 1
567 714 1
574 714 1
662 714 1
672 714 1
675 714 1
686 714 1
225 715 1
237 715 1
575 715 1
582 715 1
631 715 1
636 715 1
687 715 1
688 715 1
226 716 1
238 716 1
576 716 1
583 716 1
632 716 1
637 716 1
688 716 1
689 716 1
225 717 1
227 717 1
577 717 1
584 717 1
633 717 1
638 717 1
689 717 1
690 717 1
226 718 1
228 718 1
578 718 1
585 718 1
634 718 1
639 718 1
690 718 1
691 718 1
227 719 1
229 719 1
579 719 1
586 719 1
635 719 1
640 719 1
691 719 1
692 719 1
228 720 1
230 720 1
580 720 1
587 720 1
636 720 1
641 720 1
692 720 1
693 720 1
229 721 1
231 721 1
581 721 1
588 721 1
637 721 1
642 721 1
693 721 1
694 721 1
230 722 1
232 722 1
575 722 1
582 722 1
638 722 1
643 722 1
694 722 1
695 722 1
231 723 1
233 723 1
576 723 1
583 723 1
639 723 1
644 723 1
695 723 1
696 723 1
232 724 1
234 724 1
577 724 1
584 724 1
631 724 1
640 724 1
696 724 1
697 724 1
233 725 1
235 725 1
578 725 1
585 725 1
632 725 1
641 725 1
697 725 1
698 725 1
234 726 1
236 726 1
579 726 1
586 726 1
633 726 1
642 726 1
698 726 1
699 726 1
235 727 1
237 727 1
580 727 1
587 727 1
634 727 1
643 727 1
699 727 1
700 727 1
236 728 1
238 728 1
581 728 1
588 728 1
635 728 1
644 728 1
687 728 1
700 728 1
239 729 1
251 729 1
589 729 1
596 729 1
645 729 1
650 729 1
687 729 1
689 729 1
240 730 1
252 730 1
590 730 1
597 730 1
646 730 1
651 730 1
688 730 1
690 730 1
239 731 1
241 731 1
591 731 1
598 731 1
647 731 1
652 731 1
689 731 1
691 731 1
240 732 1
242 732 1
592 732 1
599 732 1
648 732 1
653 732 1
690 732 1
692 732 1
241 733 1
243 733 1
593 733 1
600 733 1
649 733 1
654 733 1
691 733 1
693 733 1
242 734 1
244 734 1
594 734 1
601 734 1
650 734 1
655 734 1
692 734 1
694 734 1
243 735 1
245 735 1
595 735 1
602 735 1
651 735 1
656 735 1
693 735 1
695 735 1
244 736 1
246 736 1
589 736 1
596 736 1
652 736 1
657 736 1
694 736 1
696 736 1
245 737 1
247 737 1
590 737 1
597 737 1
653 737 1
658 737 1
695 737 1
697 737 1
246 738 1
248 738 1
591 738 1
598 738 1
645 738 1
654 738 1
696 738 1
698 738 1
247 739 1
249 739 1
592 739 1
599 739 1
646 739 1
655 739 1
697 739 1
699 739 1
248 740 1
250 740 1
593 740 1
600 740 1
647 740 1
656 740 1
698 740 1
700 740 1
249 741 1
251 741 1
594 741 1
601 741 1
648 741 1
657 741 1
687 741 1
699 741 1
250 742 1
252 742 1
595 742 1
602 742 1
649 742 1
658 742 1
688 742 1
700 742 1
253 743 1
265 743 1
603 743 1
610 743 1
659 743 1
664 743 1
687 743 1
690 743 1
254 744 1
266 744 1
604 744 1
611 744 1
660 744 1
665 744 1
688 744 1
691 744 1
253 745 1
255 745 1
605 745 1
612 745 1
661 745 1
666 745 1
689 745 1
692 745 1
254 746 1
256 746 1
606 746 1
613 746 1
662 746 1
667 746 1
690 746 1
693 746 1
255 747 1
257 747 1
607 747 1
614 747 1
663 747 1
668 747 1
691 747 1
694 747 1
256 748 1
258 748 1
608 748 1
615 748 1
664 748 1
669 748 1
692 748 1
695 748 1
257 749 1
259 749 1
609 749 1
616 749 1
665 749 1
670 749 1
693 749 1
696 749 1
258 750 1
260 750 1
603 750 1
610 750 1
666 750 1
671 750 1
694 750 1
697 750 1
259 751 1
261 751 1
604 751 1
611 751 1
667 751 1
672 751 1
695 751 1
698 751 1
260 752 1
262 752 1
605 752 1
612 752 1
659 752 1
668 752 1
696 752 1
699 752 1
261 753 1
263 753 1
606 753 1
613 753 1
660 753 1
669 753 1
697 753 1
700 753 1
262 754 1
264 754 1
607 754 1
614 754 1
661 754 1
670 754 1
687 754 1
698 754 1
263 755 1
265 755 1
608 755 1
615 755 1
662 755 1
671 755 1
688 755 1
699 755 1
264 756 1
266 756 1
609 756 1
616 756 1
663 756 1
672 756 1
689 756 1
700 756 1
267 757 1
279 757 1
617 757 1
624 757 1
673 757 1
678 757 1
687 757 1
691 757 1
268 758 1
280 758 1
618 758 1
625 758 1
674 758 1
679 758 1
688 758 1
692 758 1
267 759 1
269 759 1
619 759 1
626 759 1
675 759 1
680 759 1
689 759 1
693 759 1
268 760 1
270 760 1
620 760 1
627 760 1
676 760 1
681 760 1
690 760 1
694 760 1
269 761 1
271 761 1
621 761 1
628 761 1
677 761 1
682 761 1
691 761 1
695 761 1
270 762 1
272 762 1
622 762 1
629 762 1
678 762 1
683 762 1
692 762 1
696 762 1
271 763 1
273 763 1
623 763 1
630 763 1
679 763 1
684 763 1
693 763 1
697 763 1
272 764 1
274 764 1
617 764 1
624 764 1
680 764 1
685 764 1
694 764 1
698 764 1
273 765 1
275 765 1
618 765 1
625 765 1
681 765 1
686 765 1
695 765 1
699 765 1
274 766 1
276 766 1
619 766 1
626 766 1
673 766 1
682 766 1
696 766 1
700 766 1
275 767 1
277 767 1
620 767 1
627 767 1
674 767 1
683 767 1
687 767 1
697 767 1
276 768 1
278 768 1
621 768 1
628 768 1
675 768 1
684 768 1
688 768 1
698 768 1
277 769 1
279 769 1
622 769 1
629 769 1
676 769 1
685 769 1
689 769 1
699 769 1
278 770 1
280 770 1
623 770 1
630 770 1
677 770 1
686 770 1
690 770 1
700 770 1
281 771 1
293 771 1
491 771 1
502 771 1
701 771 1
703 771 1
715 771 1
716 771 1
282 772 1
294 772 1
492 772 1
503 772 1
702 772 1
704 772 1
716 772 1
717 772 1
281 773 1
283 773 1
493 773 1
504 773 1
703 773 1
705 773 1
717 773 1
718 773 1
282 774 1
284 774 1
491 774 1
494 774 1
704 774 1
706 774 1
718 774 1
719 774 1
283 775 1
285 775 1
492 775 1
495 775 1
705 775 1
707 775 1
719 775 1
720 775 1
284 776 1
286 776 1
493 776 1
496 776 1
706 776 1
708 776 1
720 776 1
721 776 1
285 777 1
287 777 1
494 777 1
497 777 1
707 777 1
709 777 1
721 777 1
722 777 1
286 778 1
288 778 1
495 778 1
498 778 1
708 778 1
710 778 1
722 778 1
723 778 1
287 779 1
289 779 1
496 779 1
499 779 1
709 779 1
711 779 1
723 779 1
724 779 1
288 780 1
290 780 1
497 780 1
500 780 1
710 780 1
712 780 1
724 780 1
725 780 1
289 781 1
291 781 1
498 781 1
501 781 1
711 781 1
713 781 1
725 781 1
726 781 1
290 782 1
292 782 1
499 782 1
502 782 1
712 782 1
714 782 1
726 782 1
727 782 1
291 783 1
293 783 1
500 783 1
503 783 1
701 783 1
713 783 1
727 783 1
728 783 1
292 784 1
294 784 1
501 784 1
504 784 1
702 784 1
714 784 1
715 784 1
728 784 1
295 785 1
307 785 1
505 785 1
516 785 1
701 785 1
704 785 1
729 785 1
730 785 1
296 786 1
308 786 1
506 786 1
517 786 1
702 786 1
705 786 1
730 786 1
731 786 1
295 787 1
297 787 1
507 787 1
518 787 1
703 787 1
706 787 1
731 787 1
732 787 1
296 788 1
298 788 1
505 788 1
508 788 1
704 788 1
707 788 1
732 788 1
733 788 1
297 789 1
299 789 1
506 789 1
509 789 1
705 789 1
708 789 1
733 789 1
734 789 1
298 790 1
300 790 1
507 790 1
510 790 1
706 790 1
709 790 1
734 790 1
735 790 1
299 791 1
301 791 1
508 791 1
511 791 1
707 791 1
710 791 1
735 791 1
736 791 1
300 792 1
302 792 1
509 792 1
512 792 1
708 792 1
711 792 1
736 792 1
737 792 1
301 793 1
303 793 1
510 793 1
513 793 1
709 793 1
712 793 1
737 793 1
738 793 1
302 794 1
304 794 1
511 794 1
514 794 1
710 794 1
713 794 1
738 794 1
739 794 1
303 795 1
305 795 1
512 795 1
515 795 1
711 795 1
714 795 1
739 795 1
740 795 1
304 796 1
306 796 1
513 796 1
516 796 1
701 796 1
712 796 1
740 796 1
741 796 1
305 797 1
307 797 1
514 797 1
517 797 1
702 797 1
713 797 1
741 797 1
742 797 1
306 798 1
308 798 1
515 798 1
518 798 1
703 798 1
714 798 1
729 798 1
742 798 1
309 799 1
321 799 1
519 799 1
530 799 1
715 799 1
718 799 1
729 799 1
731 799 1
310 800 1
322 800 1
520 800 1
531 800 1
716 800 1
719 800 1
730 800 1
732 800 1
309 801 1
311 801 1
521 801 1
532 801 1
717 801 1
720 801 1
731 801 1
733 801 1
310 802 1
312 802 1
519 802 1
522 802 1
718 802 1
721 802 1
732 802 1
734 802 1
311 803 1
313 803 1
520 803 1
523 803 1
719 803 1
722 803 1
733 803 1
735 803 1
312 804 1
314 804 1
521 804 1
524 804 1
720 804 1
723 804 1
734 804 1
736 804 1
313 805 1
315 805 1
522 805 1
525 805 1
721 805 1
724 805 1
735 805 1
737 805 1
314 806 1
316 806 1
523 806 1
526 806 1
722 806 1
725 806 1
736 806 1
738 806 1
315 807 1
317 807 1
524 807 1
527 807 1
723 807 1
726 807 1
737 807 1
739 807 1
316 808 1
318 808 1
525 808 1
528 808 1
724 808 1
727 808 1
738 808 1
740 808 1
317 809 1
319 809 1
526 809 1
529 809 1
725 809 1
728 809 1
739 809 1
741 809 1
318 810 1
320 810 1
527 810 1
530 810 1
715 810 1
726 810 1
740 810 1
742 810 1
319 811 1
321 811 1
528 811 1
531 811 1
716 811 1
727 811 1
729 811 1
741 811 1
320 812 1
322 812 1
529 812 1
532 812 1
717 812 1
728 812 1
730 812 1
742 812 1
323 813 1
335 813 1
533 813 1
544 813 1
701 813 1
705 813 1
743 813 1
744 813 1
324 814 1
336 814 1
534 814 1
545 814 1
702 814 1
706 814 1
744 814 1
745 814 1
323 815 1
325 815 1
535 815 1
546 815 1
703 815 1
707 815 1
745 815 1
746 815 1
324 816 1
326 816 1
533 816 1
536 816 1
704 816 1
708 816 1
746 816 1
747 816 1
325 817 1
327 817 1
534 817 1
537 817 1
705 817 1
709 817 1
747 817 1
748 817 1
326 818 1
328 818 1
535 818 1
538 818 1
706 818 1
710 818 1
748 818 1
749 818 1
327 819 1
329 819 1
536 819 1
539 819 1
707 819 1
711 819 1
749 819 1
750 819 1
328 820 1
330 820 1
537 820 1
540 820 1
708 820 1
712 820 1
750 820 1
751 820 1
329 821 1
331 821 1
538 821 1
541 821 1
709 821 1
713 821 1
751 821 1
752 821 1
330 822 1
332 822 1
539 822 1
542 822 1
710 822 1
714 822 1
752 822 1
753 822 1
331 823 1
333 823 1
540 823 1
543 823 1
701 823 1
711 823 1
753 823 1
754 823 1
332 824 1
334 824 1
541 824 1
544 824 1
702 824 1
712 824 1
754 824 1
755 824 1
333 825 1
335 825 1
542 825 1
545 825 1
703 825 1
713 825 1
755 825 1
756 825 1
334 826 1
336 826 1
543 826 1
546 826 1
704 826 1
714 826 1
743 826 1
756 826 1
337 827 1
349 827 1
547 827 1
558 827 1
715 827 1
719 827 1
743 827 1
745 827 1
338 828 1
350 828 1
548 828 1
559 828 1
716 828 1
720 828 1
744 828 1
746 828 1
337 829 1
339 829 1
549 829 1
560 829 1
717 829 1
721 829 1
745 829 1
747 829 1
338 830 1
340 830 1
547 830 1
550 830 1
718 830 1
722 830 1
746 830 1
748 830 1
339 831 1
341 831 1
548 831 1
551 831 1
719 831 1
723 831 1
747 831 1
749 831 1
340 832 1
342 832 1
549 832 1
552 832 1
720 832 1
724 832 1
748 832 1
750 832 1
341 833 1
343 833 1
550 833 1
553 833 1
721 833 1
725 833 1
749 833 1
751 833 1
342 834 1
344 834 1
551 834 1
554 834 1
722 834 1
726 834 1
750 834 1
752 834 1
343 835 1
345 835 1
552 835 1
555 835 1
723 835 1
727 835 1
751 835 1
753 835 1
344 836 1
346 836 1
553 836 1
556 836 1
724 836 1
728 836 1
752 836 1
754 836 1
345 837 1
347 837 1
554 837 1
557 837 1
715 837 1
725 837 1
753 837 1
755 837 1
346 838 1
348 838 1
555 838 1
558 838 1
716 838 1
726 838 1
754 838 1
756 838 1
347 839 1
349 839 1
556 839 1
559 839 1
717 839 1
727 839 1
743 839 1
755 839 1
348 840 1
350 840 1
557 840 1
560 840 1
718 840 1
728 840 1
744 840 1
756 840 1
351 841 1
363 841 1
561 841 1
572 841 1
729 841 1
733 841 1
743 841 1
746 841 1
352 842 1
364 842 1
562 842 1
573 842 1
730 842 1
734 842 1
744 842 1
747 842 1
351 843 1
353 843 1
563 843 1
574 843 1
731 843 1
735 843 1
745 843 1
748 843 1
352 844 1
354 844 1
561 844 1
564 844 1
732 844 1
736 844 1
746 844 1
749 844 1
353 845 1
355 845 1
562 845 1
565 845 1
733 845 1
737 845 1
747 845 1
750 845 1
354 846 1
356 846 1
563 846 1
566 846 1
734 846 1
738 846 1
748 846 1
751 846 1
355 847 1
357 847 1
564 847 1
567 847 1
735 847 1
739 847 1
749 847 1
752 847 1
356 848 1
358 848 1
565 848 1
568 848 1
736 848 1
740 848 1
750 848 1
753 848 1
357 849 1
359 849 1
566 849 1
569 849 1
737 849 1
741 849 1
751 849 1
754 849 1
358 850 1
360 850 1
567 850 1
570 850 1
738 850 1
742 850 1
752 850 1
755 850 1
359 851 1
361 851 1
568 851 1
571 851 1
729 851 1
739 851 1
753 851 1
756 851 1
360 852 1
362 852 1
569 852 1
572 852 1
730 852 1
740 852 1
743 852 1
754 852 1
361 853 1
363 853 1
570 853 1
573 853 1
731 853 1
741 853 1
744 853 1
755 853 1
362 854 1
364 854 1
571 854 1
574 854 1
732 854 1
742 854 1
745 854 1
756 854 1
365 855 1
377 855 1
575 855 1
586 855 1
701 855 1
706 855 1
757 855 1
758 855 1
366 856 1
378 856 1
576 856 1
587 856 1
702 856 1
707 856 1
758 856 1
759 856 1
365 857 1
367 857 1
577 857 1
588 857 1
703 857 1
708 857 1
759 857 1
760 857 1
366 858 1
368 858 1
575 858 1
578 858 1
704 858 1
709 858 1
760 858 1
761 858 1
367 859 1
369 859 1
576 859 1
579 859 1
705 859 1
710 859 1
761 859 1
762 859 1
368 860 1
370 860 1
577 860 1
580 860 1
706 860 1
711 860 1
762 860 1
763 860 1
369 861 1
371 861 1
578 861 1
581 861 1
707 861 1
712 861 1
763 861 1
764 861 1
370 862 1
372 862 1
579 862 1
582 862 1
708 862 1
713 862 1
764 862 1
765 862 1
371 863 1
373 863 1
580 863 1
583 863 1
709 863 1
714 863 1
765 863 1
766 863 1
372 864 1
374 864 1
581 864 1
584 864 1
701 864 1
710 864 1
766 864 1
767 864 1
373 865 1
375 865 1
582 865 1
585 865 1
702 865 1
711 865 1
767 865 1
768 865 1
374 866 1
376 866 1
583 866 1
586 866 1
703 866 1
712 866 1
768 866 1
769 866 1
375 867 1
377 867 1
584 867 1
587 867 1
704 867 1
713 867 1
769 867 1
770 867 1
376 868 1
378 868 1
585 868 1
588 868 1
705 868 1
714 868 1
757 868 1
770 868 1
379 869 1
391 869 1
589 869 1
600 869 1
715 869 1
720 869 1
757 869 1
759 869 1
380 870 1
392 870 1
590 870 1
601 870 1
716 870 1
721 870 1
758 870 1
760 870 1
379 871 1
381 871 1
591 871 1
602 871 1
717 871 1
722 871 1
759 871 1
761 871 1
380 872 1
382 872 1
589 872 1
592 872 1
718 872 1
723 872 1
760 872 1
762 872 1
381 873 1
383 873 1
590 873 1
593 873 1
719 873 1
724 873 1
761 873 1
763 873 1
382 874 1
384 874 1
591 874 1
594 874 1
720 874 1
725 874 1
762 874 1
764 874 1
383 875 1
385 875 1
592 875 1
595 875 1
721 875 1
726 875 1
763 875 1
765 875 1
384 876 1
386 876 1
593 876 1
596 876 1
722 876 1
727 876 1
764 876 1
766 876 1
385 877 1
387 877 1
594 877 1
597 877 1
723 877 1
728 877 1
765 877 1
767 877 1
386 878 1
388 878 1
595 878 1
598 878 1
715 878 1
724 878 1
766 878 1
768 878 1
387 879 1
389 879 1
596 879 1
599 879 1
716 879 1
725 879 1
767 879 1
769 879 1
388 880 1
390 880 1
597 880 1
600 880 1
717 880 1
726 880 1
768 880 1
770 880 1
389 881 1
391 881 1
598 881 1
601 881 1
718 881 1
727 881 1
757 881 1
769 881 1
390 882 1
392 882 1
599 882 1
602 882 1
719 882 1
728 882 1
758 882 1
770 882 1
393 883 1
405 883 1
603 883 1
614 883 1
729 883 1
734 883 1
757 883 1
760 883 1
394 884 1
406 884 1
604 884 1
615 884 1
730 884 1
735 884 1
758 884 1
761 884 1
393 885 1
395 885 1
605 885 1
616 885 1
731 885 1
736 885 1
759 885 1
762 885 1
394 886 1
396 886 1
603 886 1
606 886 1
732 886 1
737 886 1
760 886 1
763 886 1
395 887 1
397 887 1
604 887 1
607 887 1
733 887 1
738 887 1
761 887 1
764 887 1
396 888 1
398 888 1
605 888 1
608 888 1
734 888 1
739 888 1
762 888 1
765 888 1
397 889 1
399 889 1
606 889 1
609 889 1
735 889 1
740 889 1
763 889 1
766 889 1
398 890 1
400 890 1
607 890 1
610 890 1
736 890 1
741 890 1
764 890 1
767 890 1
399 891 1
401 891 1
608 891 1
611 891 1
737 891 1
742 891 1
765 891 1
768 891 1
400 892 1
402 892 1
609 892 1
612 892 1
729 892 1
738 892 1
766 892 1
769 892 1
401 893 1
403 893 1
610 893 1
613 893 1
730 893 1
739 893 1
767 893 1
770 893 1
402 894 1
404 894 1
611 894 1
614 894 1
731 894 1
740 894 1
757 894 1
768 894 1
403 895 1
405 895 1
612 895 1
615 895 1
732 895 1
741 895 1
758 895 1
769 895 1
404 896 1
406 896 1
613 896 1
616 896 1
733 896 1
742 896 1
759 896 1
770 896 1
407 897 1
419 897 1
617 897 1
628 897 1
743 897 1
748 897 1
757 897 1
761 897 1
408 898 1
420 898 1
618 898 1
629 898 1
744 898 1
749 898 1
758 898 1
762 898 1
407 899 1
409 899 1
619 899 1
630 899 1
745 899 1
750 899 1
759 899 1
763 899 1
408 900 1
410 900 1
617 900 1
620 900 1
746 900 1
751 900 1
760 900 1
764 900 1
409 901 1
411 901 1
618 901 1
621 901 1
747 901 1
752 901 1
761 901 1
765 901 1
410 902 1
412 902 1
619 902 1
622 902 1
748 902 1
753 902 1
762 902 1
766 902 1
411 903 1
413 903 1
620 903 1
623 903 1
749 903 1
754 903 1
763 903 1
767 903 1
412 904 1
414 904 1
621 904 1
624 904 1
750 904 1
755 904 1
764 904 1
768 904 1
413 905 1
415 905 1
622 905 1
625 905 1
751 905 1
756 905 1
765 905 1
769 905 1
414 906 1
416 906 1
623 906 1
626 906 1
743 906 1
752 906 1
766 906 1
770 906 1
415 907 1
417 907 1
624 907 1
627 907 1
744 907 1
753 907 1
757 907 1
767 907 1
416 908 1
418 908 1
625 908 1
628 908 1
745 908 1
754 908 1
758 908 1
768 908 1
417 909 1
419 909 1
626 909 1
629 909 1
746 909 1
755 909 1
759 909 1
769 909 1
418 910 1
420 910 1
627 910 1
630 910 1
747 910 1
756 910 1
760 910 1
770 910 1
421 911 1
433 911 1
631 911 1
642 911 1
701 911 1
708 911 1
771 911 1
772 911 1
422 912 1
434 912 1
632 912 1
643 912 1
702 912 1
709 912 1
772 912 1
773 912 1
421 913 1
423 913 1
633 913 1
644 913 1
703 913 1
710 913 1
773 913 1
774 913 1
422 914 1
424 914 1
631 914 1
634 914 1
704 914 1
711 914 1
774 914 1
775 914 1
423 915 1
425 915 1
632 915 1
635 915 1
705 915 1
712 915 1
775 915 1
776 915 1
424 916 1
426 916 1
633 916 1
636 916 1
706 916 1
713 916 1
776 916 1
777 916 1
425 917 1
427 917 1
634 917 1
637 917 1
707 917 1
714 917 1
777 917 1
778 917 1
426 918 1
428 918 1
635 918 1
638 918 1
701 918 1
708 918 1
778 918 1
779 918 1
427 919 1
429 919 1
636 919 1
639 919 1
702 919 1
709 919 1
779 919 1
780 919 1
428 920 1
430 920 1
637 920 1
640 920 1
703 920 1
710 920 1
780 920 1
781 920 1
429 921 1
431 921 1
638 921 1
641 921 1
704 921 1
711 921 1
781 921 1
782 921 1
430 922 1
432 922 1
639 922 1
642 922 1
705 922 1
712 922 1
782 922 1
783 922 1
431 923 1
433 923 1
640 923 1
643 923 1
706 923 1
713 923 1
783 923 1
784 923 1
432 924 1
434 924 1
641 924 1
644 924 1
707 924 1
714 924 1
771 924 1
784 924 1
435 925 1
447 925 1
645 925 1
656 925 1
715 925 1
722 925 1
771 925 1
773 925 1
436 926 1
448 926 1
646 926 1
657 926 1
716 926 1
723 926 1
772 926 1
774 926 1
435 927 1
437 927 1
647 927 1
658 927 1
717 927 1
724 927 1
773 927 1
775 927 1
436 928 1
438 928 1
645 928 1
648 928 1
718 928 1
725 928 1
774 928 1
776 928 1
437 929 1
439 929 1
646 929 1
649 929 1
719 929 1
726 929 1
775 929 1
777 929 1
438 930 1
440 930 1
647 930 1
650 930 1
720 930 1
727 930 1
776 930 1
778 930 1
439 931 1
441 931 1
648 931 1
651 931 1
721 931 1
728 931 1
777 931 1
779 931 1
440 932 1
442 932 1
649 932 1
652 932 1
715 932 1
722 932 1
778 932 1
780 932 1
441 933 1
443 933 1
650 933 1
653 933 1
716 933 1
723 933 1
779 933 1
781 933 1
442 934 1
444 934 1
651 934 1
654 934 1
717 934 1
724 934 1
780 934 1
782 934 1
443 935 1
445 935 1
652 935 1
655 935 1
718 935 1
725 935 1
781 935 1
783 935 1
444 936 1
446 936 1
653 936 1
656 936 1
719 936 1
726 936 1
782 936 1
784 936 1
445 937 1
447 937 1
654 937 1
657 937 1
720 937 1
727 937 1
771 937 1
783 937 1
446 938 1
448 938 1
655 938 1
658 938 1
721 938 1
728 938 1
772 938 1
784 938 1
449 939 1
461 939 1
659 939 1
670 939 1
729 939 1
736 939 1
771 939 1
774 939 1
450 940 1
462 940 1
660 940 1
671 940 1
730 940 1
737 940 1
772 940 1
775 940 1
449 941 1
451 941 1
661 941 1
672 941 1
731 941 1
738 941 1
773 941 1
776 941 1
450 942 1
452 942 1
659 942 1
662 942 1
732 942 1
739 942 1
774 942 1
777 942 1
451 943 1
453 943 1
660 943 1
663 943 1
733 943 1
740 943 1
775 943 1
778 943 1
452 944 1
454 944 1
661 944 1
664 944 1
734 944 1
741 944 1
776 944 1
779 944 1
453 945 1
455 945 1
662 945 1
665 945 1
735 945 1
742 945 1
777 945 1
780 945 1
454 946 1
456 946 1
663 946 1
666 946 1
729 946 1
736 946 1
778 946 1
781 946 1
455 947 1
457 947 1
664 947 1
667 947 1
730 947 1
737 947 1
779 947 1
782 947 1
456 948 1
458 948 1
665 948 1
668 948 1
731 948 1
738 948 1
780 948 1
783 948 1
457 949 1
459 949 1
666 949 1
669 949 1
732 949 1
739 949 1
781 949 1
784 949 1
458 950 1
460 950 1
667 950 1
670 950 1
733 950 1
740 950 1
771 950 1
782 950 1
459 951 1
461 951 1
668 951 1
671 951 1
734 951 1
741 951 1
772 951 1
783 951 1
460 952 1
462 952 1
669 952 1
672 952 1
735 952 1
742 952 1
773 952 1
784 952 1
463 953 1
475 953 1
673 953 1
684 953 1
743 953 1
750 953 1
771 953 1
775 953 1
464 954 1
476 954 1
674 954 1
685 954 1
744 954 1
751 954 1
772 954 1
776 954 1
463 955 1
465 955 1
675 955 1
686 955 1
745 955 1
752 955 1
773 955 1
777 955 1
464 956 1
466 956 1
673 956 1
676 956 1
746 956 1
753 956 1
774 956 1
778 956 1
465 957 1
467 957 1
674 957 1
677 957 1
747 957 1
754 957 1
775 957 1
779 957 1
466 958 1
468 958 1
675 958 1
678 958 1
748 958 1
755 958 1
776 958 1
780 958 1
467 959 1
469 959 1
676 959 1
679 959 1
749 959 1
756 959 1
777 959 1
781 959 1
468 960 1
470 960 1
677 960 1
680 960 1
743 960 1
750 960 1
778 960 1
782 960 1
469 961 1
471 961 1
678 961 1
681 961 1
744 961 1
751 961 1
779 961 1
783 961 1
470 962 1
472 962 1
679 962 1
682 962 1
745 962 1
752 962 1
780 962 1
784 962 1
471 963 1
473 963 1
680 963 1
683 963 1
746 963 1
753 963 1
771 963 1
781 963 1
472 964 1
474 964 1
681 964 1
684 964 1
747 964 1
754 964 1
772 964 1
782 964 1
473 965 1
475 965 1
682 965 1
685 965 1
748 965 1
755 965 1
773 965 1
783 965 1
474 966 1
476 966 1
683 966 1
686 966 1
749 966 1
756 966 1
774 966 1
784 966 1
477 967 1
489 967 1
687 967 1
698 967 1
757 967 1
764 967 1
771 967 1
776 967 1
478 968 1
490 968 1
688 968 1
699 968 1
758 968 1
765 968 1
772 968 1
777 968 1
477 969 1
479 969 1
689 969 1
700 969 1
759 969 1
766 969 1
773 969 1
778 969 1
478 970 1
480 970 1
687 970 1
690 970 1
760 970 1
767 970 1
774 970 1
779 970 1
479 971 1
481 971 1
688 971 1
691 971 1
761 971 1
768 971 1
775 971 1
780 971 1
480 972 1
482 972 1
689 972 1
692 972 1
762 972 1
769 972 1
776 972 1
781 972 1
481 973 1
483 973 1
690 973 1
693 973 1
763 973 1
770 973 1
777 973 1
782 973 1
482 974 1
484 974 1
691 974 1
694 974 1
757 974 1
764 974 1
778 974 1
783 974 1
483 975 1
485 975 1
692 975 1
695 975 1
758 975 1
765 975 1
779 975 1
784 975 1
484 976 1
486 976 1
693 976 1
696 976 1
759 976 1
766 976 1
771 976 1
780 976 1
485 977 1
487 977 1
694 977 1
697 977 1
760 977 1
767 977 1
772 977 1
781 977 1
486 978 1
488 978 1
695 978 1
698 978 1
761 978 1
768 978 1
773 978 1
782 978 1
487 979 1
489 979 1
696 979 1
699 979 1
762 979 1
769 979 1
774 979 1
783 979 1
488 980 1
490 980 1
697 980 1
700 980 1
763 980 1
770 980 1
775 980 1
784 980 1
