%%MatrixMarket matrix coordinate integer general
% Binary matrix; one-based indices; arithmetic over GF(2)
784 980 7840
1 1 1
10 1 1
15 1 1
22 1 1
85 1 1
88 1 1
295 1 1
297 1 1
2 2 1
11 2 1
16 2 1
23 2 1
86 2 1
89 2 1
296 2 1
298 2 1
3 3 1
12 3 1
17 3 1
24 3 1
87 3 1
90 3 1
297 3 1
299 3 1
4 4 1
13 4 1
18 4 1
25 4 1
88 4 1
91 4 1
298 4 1
300 4 1
5 5 1
14 5 1
19 5 1
26 5 1
89 5 1
92 5 1
299 5 1
301 5 1
1 6 1
6 6 1
20 6 1
27 6 1
90 6 1
93 6 1
300 6 1
302 6 1
2 7 1
7 7 1
21 7 1
28 7 1
91 7 1
94 7 1
301 7 1
303 7 1
3 8 1
8 8 1
15 8 1
22 8 1
92 8 1
95 8 1
302 8 1
304 8 1
4 9 1
9 9 1
16 9 1
23 9 1
93 9 1
96 9 1
303 9 1
305 9 1
5 10 1
10 10 1
17 10 1
24 10 1
94 10 1
97 10 1
304 10 1
306 10 1
6 11 1
11 11 1
18 11 1
25 11 1
95 11 1
98 11 1
305 11 1
307 11 1
7 12 1
12 12 1
19 12 1
26 12 1
85 12 1
96 12 1
306 12 1
308 12 1
8 13 1
13 13 1
20 13 1
27 13 1
86 13 1
97 13 1
295 13 1
307 13 1
9 14 1
14 14 1
21 14 1
28 14 1
87 14 1
98 14 1
296 14 1
308 14 1
1 15 1
11 15 1
29 15 1
36 15 1
99 15 1
102 15 1
309 15 1
311 15 1
2 16 1
12 16 1
30 16 1
37 16 1
100 16 1
103 16 1
310 16 1
312 16 1
3 17 1
13 17 1
31 17 1
38 17 1
101 17 1
104 17 1
311 17 1
313 17 1
4 18 1
14 18 1
32 18 1
39 18 1
102 18 1
105 18 1
312 18 1
314 18 1
1 19 1
5 19 1
33 19 1
40 19 1
103 19 1
106 19 1
313 19 1
315 19 1
2 20 1
6 20 1
34 20 1
41 20 1
104 20 1
107 20 1
314 20 1
316 20 1
3 21 1
7 21 1
35 21 1
42 21 1
105 21 1
108 21 1
315 21 1
317 21 1
4 22 1
8 22 1
29 22 1
36 22 1
106 22 1
109 22 1
316 22 1
318 22 1
5 23 1
9 23 1
30 23 1
37 23 1
107 23 1
110 23 1
317 23 1
319 23 1
6 24 1
10 24 1
31 24 1
38 24 1
108 24 1
111 24 1
318 24 1
320 24 1
7 25 1
11 25 1
32 25 1
39 25 1
109 25 1
112 25 1
319 25 1
321 25 1
8 26 1
12 26 1
33 26 1
40 26 1
99 26 1
110 26 1
320 26 1
322 26 1
9 27 1
13 27 1
34 27 1
41 27 1
100 27 1
111 27 1
309 27 1
321 27 1
10 28 1
14 28 1
35 28 1
42 28 1
101 28 1
112 28 1
310 28 1
322 28 1
1 29 1
12 29 1
43 29 1
50 29 1
113 29 1
116 29 1
323 29 1
325 29 1
2 30 1
13 30 1
44 30 1
51 30 1
114 30 1
117 30 1
324 30 1
326 30 1
3 31 1
14 31 1
45 31 1
52 31 1
115 31 1
118 31 1
325 31 1
327 31 1
1 32 1
4 32 1
46 32 1
53 32 1
116 32 1
119 32 1
326 32 1
328 32 1
2 33 1
5 33 1
47 33 1
54 33 1
117 33 1
120 33 1
327 33 1
329 33 1
3 34 1
6 34 1
48 34 1
55 34 1
118 34 1
121 34 1
328 34 1
330 34 1
4 35 1
7 35 1
49 35 1
56 35 1
119 35 1
122 35 1
329 35 1
331 35 1
5 36 1
8 36 1
43 36 1
50 36 1
120 36 1
123 36 1
330 36 1
332 36 1
6 37 1
9 37 1
44 37 1
51 37 1
121 37 1
124 37 1
331 37 1
333 37 1
7 38 1
10 38 1
45 38 1
52 38 1
122 38 1
125 38 1
332 38 1
334 38 1
8 39 1
11 39 1
46 39 1
53 39 1
123 39 1
126 39 1
333 39 1
335 39 1
9 40 1
12 40 1
47 40 1
54 40 1
113 40 1
124 40 1
334 40 1
336 40 1
10 41 1
13 41 1
48 41 1
55 41 1
114 41 1
125 41 1
323 41 1
335 41 1
11 42 1
14 42 1
49 42 1
56 42 1
115 42 1
126 42 1
324 42 1
336 42 1
1 43 1
13 43 1
57 43 1
64 43 1
127 43 1
130 43 1
337 43 1
339 43 1
2 44 1
14 44 1
58 44 1
65 44 1
128 44 1
131 44 1
338 44 1
340 44 1
1 45 1
3 45 1
59 45 1
66 45 1
129 45 1
132 45 1
339 45 1
341 45 1
2 46 1
4 46 1
60 46 1
67 46 1
130 46 1
133 46 1
340 46 1
342 46 1
3 47 1
5 47 1
61 47 1
68 47 1
131 47 1
134 47 1
341 47 1
343 47 1
4 48 1
6 48 1
62 48 1
69 48 1
132 48 1
135 48 1
342 48 1
344 48 1
5 49 1
7 49 1
63 49 1
70 49 1
133 49 1
136 49 1
343 49 1
345 49 1
6 50 1
8 50 1
57 50 1
64 50 1
134 50 1
137 50 1
344 50 1
346 50 1
7 51 1
9 51 1
58 51 1
65 51 1
135 51 1
138 51 1
345 51 1
347 51 1
8 52 1
10 52 1
59 52 1
66 52 1
136 52 1
139 52 1
346 52 1
348 52 1
9 53 1
11 53 1
60 53 1
67 53 1
137 53 1
140 53 1
347 53 1
349 53 1
10 54 1
12 54 1
61 54 1
68 54 1
127 54 1
138 54 1
348 54 1
350 54 1
11 55 1
13 55 1
62 55 1
69 55 1
128 55 1
139 55 1
337 55 1
349 55 1
12 56 1
14 56 1
63 56 1
70 56 1
129 56 1
140 56 1
338 56 1
350 56 1
1 57 1
14 57 1
71 57 1
78 57 1
141 57 1
144 57 1
351 57 1
353 57 1
1 58 1
2 58 1
72 58 1
79 58 1
142 58 1
145 58 1
352 58 1
354 58 1
2 59 1
3 59 1
73 59 1
80 59 1
143 59 1
146 59 1
353 59 1
355 59 1
3 60 1
4 60 1
74 60 1
81 60 1
144 60 1
147 60 1
354 60 1
356 60 1
4 61 1
5 61 1
75 61 1
82 61 1
145 61 1
148 61 1
355 61 1
357 61 1
5 62 1
6 62 1
76 62 1
83 62 1
146 62 1
149 62 1
356 62 1
358 62 1
6 63 1
7 63 1
77 63 1
84 63 1
147 63 1
150 63 1
357 63 1
359 63 1
7 64 1
8 64 1
71 64 1
78 64 1
148 64 1
151 64 1
358 64 1
360 64 1
8 65 1
9 65 1
72 65 1
79 65 1
149 65 1
152 65 1
359 65 1
361 65 1
9 66 1
10 66 1
73 66 1
80 66 1
150 66 1
153 66 1
360 66 1
362 66 1
10 67 1
11 67 1
74 67 1
81 67 1
151 67 1
154 67 1
361 67 1
363 67 1
11 68 1
12 68 1
75 68 1
82 68 1
141 68 1
152 68 1
362 68 1
364 68 1
12 69 1
13 69 1
76 69 1
83 69 1
142 69 1
153 69 1
351 69 1
363 69 1
13 70 1
14 70 1
77 70 1
84 70 1
143 70 1
154 70 1
352 70 1
364 70 1
15 71 1
25 71 1
29 71 1
38 71 1
155 71 1
158 71 1
365 71 1
367 71 1
16 72 1
26 72 1
30 72 1
39 72 1
156 72 1
159 72 1
366 72 1
368 72 1
17 73 1
27 73 1
31 73 1
40 73 1
157 73 1
160 73 1
367 73 1
369 73 1
18 74 1
28 74 1
32 74 1
41 74 1
158 74 1
161 74 1
368 74 1
370 74 1
15 75 1
19 75 1
33 75 1
42 75 1
159 75 1
162 75 1
369 75 1
371 75 1
16 76 1
20 76 1
29 76 1
34 76 1
160 76 1
163 76 1
370 76 1
372 76 1
17 77 1
21 77 1
30 77 1
35 77 1
161 77 1
164 77 1
371 77 1
373 77 1
18 78 1
22 78 1
31 78 1
36 78 1
162 78 1
165 78 1
372 78 1
374 78 1
19 79 1
23 79 1
32 79 1
37 79 1
163 79 1
166 79 1
373 79 1
375 79 1
20 80 1
24 80 1
33 80 1
38 80 1
164 80 1
167 80 1
374 80 1
376 80 1
21 81 1
25 81 1
34 81 1
39 81 1
165 81 1
168 81 1
375 81 1
377 81 1
22 82 1
26 82 1
35 82 1
40 82 1
155 82 1
166 82 1
376 82 1
378 82 1
23 83 1
27 83 1
36 83 1
41 83 1
156 83 1
167 83 1
365 83 1
377 83 1
24 84 1
28 84 1
37 84 1
42 84 1
157 84 1
168 84 1
366 84 1
378 84 1
15 85 1
26 85 1
43 85 1
52 85 1
169 85 1
172 85 1
379 85 1
381 85 1
16 86 1
27 86 1
44 86 1
53 86 1
170 86 1
173 86 1
380 86 1
382 86 1
17 87 1
28 87 1
45 87 1
54 87 1
171 87 1
174 87 1
381 87 1
383 87 1
15 88 1
18 88 1
46 88 1
55 88 1
172 88 1
175 88 1
382 88 1
384 88 1
16 89 1
19 89 1
47 89 1
56 89 1
173 89 1
176 89 1
383 89 1
385 89 1
17 90 1
20 90 1
43 90 1
48 90 1
174 90 1
177 90 1
384 90 1
386 90 1
18 91 1
21 91 1
44 91 1
49 91 1
175 91 1
178 91 1
385 91 1
387 91 1
19 92 1
22 92 1
45 92 1
50 92 1
176 92 1
179 92 1
386 92 1
388 92 1
20 93 1
23 93 1
46 93 1
51 93 1
177 93 1
180 93 1
387 93 1
389 93 1
21 94 1
24 94 1
47 94 1
52 94 1
178 94 1
181 94 1
388 94 1
390 94 1
22 95 1
25 95 1
48 95 1
53 95 1
179 95 1
182 95 1
389 95 1
391 95 1
23 96 1
26 96 1
49 96 1
54 96 1
169 96 1
180 96 1
390 96 1
392 96 1
24 97 1
27 97 1
50 97 1
55 97 1
170 97 1
181 97 1
379 97 1
391 97 1
25 98 1
28 98 1
51 98 1
56 98 1
171 98 1
182 98 1
380 98 1
392 98 1
15 99 1
27 99 1
57 99 1
66 99 1
183 99 1
186 99 1
393 99 1
395 99 1
16 100 1
28 100 1
58 100 1
67 100 1
184 100 1
187 100 1
394 100 1
396 100 1
15 101 1
17 101 1
59 101 1
68 101 1
185 101 1
188 101 1
395 101 1
397 101 1
16 102 1
18 102 1
60 102 1
69 102 1
186 102 1
189 102 1
396 102 1
398 102 1
17 103 1
19 103 1
61 103 1
70 103 1
187 103 1
190 103 1
397 103 1
399 103 1
18 104 1
20 104 1
57 104 1
62 104 1
188 104 1
191 104 1
398 104 1
400 104 1
19 105 1
21 105 1
58 105 1
63 105 1
189 105 1
192 105 1
399 105 1
401 105 1
20 106 1
22 106 1
59 106 1
64 106 1
190 106 1
193 106 1
400 106 1
402 106 1
21 107 1
23 107 1
60 107 1
65 107 1
191 107 1
194 107 1
401 107 1
403 107 1
22 108 1
24 108 1
61 108 1
66 108 1
192 108 1
195 108 1
402 108 1
404 108 1
23 109 1
25 109 1
62 109 1
67 109 1
193 109 1
196 109 1
403 109 1
405 109 1
24 110 1
26 110 1
63 110 1
68 110 1
183 110 1
194 110 1
404 110 1
406 110 1
25 111 1
27 111 1
64 111 1
69 111 1
184 111 1
195 111 1
393 111 1
405 111 1
26 112 1
28 112 1
65 112 1
70 112 1
185 112 1
196 112 1
394 112 1
406 112 1
15 113 1
28 113 1
71 113 1
80 113 1
197 113 1
200 113 1
407 113 1
409 113 1
15 114 1
16 114 1
72 114 1
81 114 1
198 114 1
201 114 1
408 114 1
410 114 1
16 115 1
17 115 1
73 115 1
82 115 1
199 115 1
202 115 1
409 115 1
411 115 1
17 116 1
18 116 1
74 116 1
83 116 1
200 116 1
203 116 1
410 116 1
412 116 1
18 117 1
19 117 1
75 117 1
84 117 1
201 117 1
204 117 1
411 117 1
413 117 1
19 118 1
20 118 1
71 118 1
76 118 1
202 118 1
205 118 1
412 118 1
414 118 1
20 119 1
21 119 1
72 119 1
77 119 1
203 119 1
206 119 1
413 119 1
415 119 1
21 120 1
22 120 1
73 120 1
78 120 1
204 120 1
207 120 1
414 120 1
416 120 1
22 121 1
23 121 1
74 121 1
79 121 1
205 121 1
208 121 1
415 121 1
417 121 1
23 122 1
24 122 1
75 122 1
80 122 1
206 122 1
209 122 1
416 122 1
418 122 1
24 123 1
25 123 1
76 123 1
81 123 1
207 123 1
210 123 1
417 123 1
419 123 1
25 124 1
26 124 1
77 124 1
82 124 1
197 124 1
208 124 1
418 124 1
420 124 1
26 125 1
27 125 1
78 125 1
83 125 1
198 125 1
209 125 1
407 125 1
419 125 1
27 126 1
28 126 1
79 126 1
84 126 1
199 126 1
210 126 1
408 126 1
420 126 1
29 127 1
40 127 1
43 127 1
53 127 1
211 127 1
214 127 1
421 127 1
423 127 1
30 128 1
41 128 1
44 128 1
54 128 1
212 128 1
215 128 1
422 128 1
424 128 1
31 129 1
42 129 1
45 129 1
55 129 1
213 129 1
216 129 1
423 129 1
425 129 1
29 130 1
32 130 1
46 130 1
56 130 1
214 130 1
217 130 1
424 130 1
426 130 1
30 131 1
33 131 1
43 131 1
47 131 1
215 131 1
218 131 1
425 131 1
427 131 1
31 132 1
34 132 1
44 132 1
48 132 1
216 132 1
219 132 1
426 132 1
428 132 1
32 133 1
35 133 1
45 133 1
49 133 1
217 133 1
220 133 1
427 133 1
429 133 1
33 134 1
36 134 1
46 134 1
50 134 1
218 134 1
221 134 1
428 134 1
430 134 1
34 135 1
37 135 1
47 135 1
51 135 1
219 135 1
222 135 1
429 135 1
431 135 1
35 136 1
38 136 1
48 136 1
52 136 1
220 136 1
223 136 1
430 136 1
432 136 1
36 137 1
39 137 1
49 137 1
53 137 1
221 137 1
224 137 1
431 137 1
433 137 1
37 138 1
40 138 1
50 138 1
54 138 1
211 138 1
222 138 1
432 138 1
434 138 1
38 139 1
41 139 1
51 139 1
55 139 1
212 139 1
223 139 1
421 139 1
433 139 1
39 140 1
42 140 1
52 140 1
56 140 1
213 140 1
224 140 1
422 140 1
434 140 1
29 141 1
41 141 1
57 141 1
67 141 1
225 141 1
228 141 1
435 141 1
437 141 1
30 142 1
42 142 1
58 142 1
68 142 1
226 142 1
229 142 1
436 142 1
438 142 1
29 143 1
31 143 1
59 143 1
69 143 1
227 143 1
230 143 1
437 143 1
439 143 1
30 144 1
32 144 1
60 144 1
70 144 1
228 144 1
231 144 1
438 144 1
440 144 1
31 145 1
33 145 1
57 145 1
61 145 1
229 145 1
232 145 1
439 145 1
441 145 1
32 146 1
34 146 1
58 146 1
62 146 1
230 146 1
233 146 1
440 146 1
442 146 1
33 147 1
35 147 1
59 147 1
63 147 1
231 147 1
234 147 1
441 147 1
443 147 1
34 148 1
36 148 1
60 148 1
64 148 1
232 148 1
235 148 1
442 148 1
444 148 1
35 149 1
37 149 1
61 149 1
65 149 1
233 149 1
236 149 1
443 149 1
445 149 1
36 150 1
38 150 1
62 150 1
66 150 1
234 150 1
237 150 1
444 150 1
446 150 1
37 151 1
39 151 1
63 151 1
67 151 1
235 151 1
238 151 1
445 151 1
447 151 1
38 152 1
40 152 1
64 152 1
68 152 1
225 152 1
236 152 1
446 152 1
448 152 1
39 153 1
41 153 1
65 153 1
69 153 1
226 153 1
237 153 1
435 153 1
447 153 1
40 154 1
42 154 1
66 154 1
70 154 1
227 154 1
238 154 1
436 154 1
448 154 1
29 155 1
42 155 1
71 155 1
81 155 1
239 155 1
242 155 1
449 155 1
451 155 1
29 156 1
30 156 1
72 156 1
82 156 1
240 156 1
243 156 1
450 156 1
452 156 1
30 157 1
31 157 1
73 157 1
83 157 1
241 157 1
244 157 1
451 157 1
453 157 1
31 158 1
32 158 1
74 158 1
84 158 1
242 158 1
245 158 1
452 158 1
454 158 1
32 159 1
33 159 1
71 159 1
75 159 1
243 159 1
246 159 1
453 159 1
455 159 1
33 160 1
34 160 1
72 160 1
76 160 1
244 160 1
247 160 1
454 160 1
456 160 1
34 161 1
35 161 1
73 161 1
77 161 1
245 161 1
248 161 1
455 161 1
457 161 1
35 162 1
36 162 1
74 162 1
78 162 1
246 162 1
249 162 1
456 162 1
458 162 1
36 163 1
37 163 1
75 163 1
79 163 1
247 163 1
250 163 1
457 163 1
459 163 1
37 164 1
38 164 1
76 164 1
80 164 1
248 164 1
251 164 1
458 164 1
460 164 1
38 165 1
39 165 1
77 165 1
81 165 1
249 165 1
252 165 1
459 165 1
461 165 1
39 166 1
40 166 1
78 166 1
82 166 1
239 166 1
250 166 1
460 166 1
462 166 1
40 167 1
41 167 1
79 167 1
83 167 1
240 167 1
251 167 1
449 167 1
461 167 1
41 168 1
42 168 1
80 168 1
84 168 1
241 168 1
252 168 1
450 168 1
462 168 1
43 169 1
55 169 1
57 169 1
68 169 1
253 169 1
256 169 1
463 169 1
465 169 1
44 170 1
56 170 1
58 170 1
69 170 1
254 170 1
257 170 1
464 170 1
466 170 1
43 171 1
45 171 1
59 171 1
70 171 1
255 171 1
258 171 1
465 171 1
467 171 1
44 172 1
46 172 1
57 172 1
60 172 1
256 172 1
259 172 1
466 172 1
468 172 1
45 173 1
47 173 1
58 173 1
61 173 1
257 173 1
260 173 1
467 173 1
469 173 1
46 174 1
48 174 1
59 174 1
62 174 1
258 174 1
261 174 1
468 174 1
470 174 1
47 175 1
49 175 1
60 175 1
63 175 1
259 175 1
262 175 1
469 175 1
471 175 1
48 176 1
50 176 1
61 176 1
64 176 1
260 176 1
263 176 1
470 176 1
472 176 1
49 177 1
51 177 1
62 177 1
65 177 1
261 177 1
264 177 1
471 177 1
473 177 1
50 178 1
52 178 1
63 178 1
66 178 1
262 178 1
265 178 1
472 178 1
474 178 1
51 179 1
53 179 1
64 179 1
67 179 1
263 179 1
266 179 1
473 179 1
475 179 1
52 180 1
54 180 1
65 180 1
68 180 1
253 180 1
264 180 1
474 180 1
476 180 1
53 181 1
55 181 1
66 181 1
69 181 1
254 181 1
265 181 1
463 181 1
475 181 1
54 182 1
56 182 1
67 182 1
70 182 1
255 182 1
266 182 1
464 182 1
476 182 1
43 183 1
56 183 1
71 183 1
82 183 1
267 183 1
270 183 1
477 183 1
479 183 1
43 184 1
44 184 1
72 184 1
83 184 1
268 184 1
271 184 1
478 184 1
480 184 1
44 185 1
45 185 1
73 185 1
84 185 1
269 185 1
272 185 1
479 185 1
481 185 1
45 186 1
46 186 1
71 186 1
74 186 1
270 186 1
273 186 1
480 186 1
482 186 1
46 187 1
47 187 1
72 187 1
75 187 1
271 187 1
274 187 1
481 187 1
483 187 1
47 188 1
48 188 1
73 188 1
76 188 1
272 188 1
275 188 1
482 188 1
484 188 1
48 189 1
49 189 1
74 189 1
77 189 1
273 189 1
276 189 1
483 189 1
485 189 1
49 190 1
50 190 1
75 190 1
78 190 1
274 190 1
277 190 1
484 190 1
486 190 1
50 191 1
51 191 1
76 191 1
79 191 1
275 191 1
278 191 1
485 191 1
487 191 1
51 192 1
52 192 1
77 192 1
80 192 1
276 192 1
279 192 1
486 192 1
488 192 1
52 193 1
53 193 1
78 193 1
81 193 1
277 193 1
280 193 1
487 193 1
489 193 1
53 194 1
54 194 1
79 194 1
82 194 1
267 194 1
278 194 1
488 194 1
490 194 1
54 195 1
55 195 1
80 195 1
83 195 1
268 195 1
279 195 1
477 195 1
489 195 1
55 196 1
56 196 1
81 196 1
84 196 1
269 196 1
280 196 1
478 196 1
490 196 1
57 197 1
70 197 1
71 197 1
83 197 1
281 197 1
284 197 1
491 197 1
493 197 1
57 198 1
58 198 1
72 198 1
84 198 1
282 198 1
285 198 1
492 198 1
494 198 1
58 199 1
59 199 1
71 199 1
73 199 1
283 199 1
286 199 1
493 199 1
495 199 1
59 200 1
60 200 1
72 200 1
74 200 1
284 200 1
287 200 1
494 200 1
496 200 1
60 201 1
61 201 1
73 201 1
75 201 1
285 201 1
288 201 1
495 201 1
497 201 1
61 202 1
62 202 1
74 202 1
76 202 1
286 202 1
289 202 1
496 202 1
498 202 1
62 203 1
63 203 1
75 203 1
77 203 1
287 203 1
290 203 1
497 203 1
499 203 1
63 204 1
64 204 1
76 204 1
78 204 1
288 204 1
291 204 1
498 204 1
500 204 1
64 205 1
65 205 1
77 205 1
79 205 1
289 205 1
292 205 1
499 205 1
501 205 1
65 206 1
66 206 1
78 206 1
80 206 1
290 206 1
293 206 1
500 206 1
502 206 1
66 207 1
67 207 1
79 207 1
81 207 1
291 207 1
294 207 1
501 207 1
503 207 1
67 208 1
68 208 1
80 208 1
82 208 1
281 208 1
292 208 1
502 208 1
504 208 1
68 209 1
69 209 1
81 209 1
83 209 1
282 209 1
293 209 1
491 209 1
503 209 1
69 210 1
70 210 1
82 210 1
84 210 1
283 210 1
294 210 1
492 210 1
504 210 1
85 211 1
95 211 1
99 211 1
108 211 1
155 211 1
162 211 1
505 211 1
507 211 1
86 212 1
96 212 1
100 212 1
109 212 1
156 212 1
163 212 1
506 212 1
508 212 1
87 213 1
97 213 1
101 213 1
110 213 1
157 213 1
164 213 1
507 213 1
509 213 1
88 214 1
98 214 1
102 214 1
111 214 1
158 214 1
165 214 1
508 214 1
510 214 1
85 215 1
89 215 1
103 215 1
112 215 1
159 215 1
166 215 1
509 215 1
511 215 1
86 216 1
90 216 1
99 216 1
104 216 1
160 216 1
167 216 1
510 216 1
512 216 1
87 217 1
91 217 1
100 217 1
105 217 1
161 217 1
168 217 1
511 217 1
513 217 1
88 218 1
92 218 1
101 218 1
106 218 1
155 218 1
162 218 1
512 218 1
514 218 1
89 219 1
93 219 1
102 219 1
107 219 1
156 219 1
163 219 1
513 219 1
515 219 1
90 220 1
94 220 1
103 220 1
108 220 1
157 220 1
164 220 1
514 220 1
516 220 1
91 221 1
95 221 1
104 221 1
109 221 1
158 221 1
165 221 1
515 221 1
517 221 1
92 222 1
96 222 1
105 222 1
110 222 1
159 222 1
166 222 1
516 222 1
518 222 1
93 223 1
97 223 1
106 223 1
111 223 1
160 223 1
167 223 1
505 223 1
517 223 1
94 224 1
98 224 1
107 224 1
112 224 1
161 224 1
168 224 1
506 224 1
518 224 1
85 225 1
96 225 1
113 225 1
122 225 1
169 225 1
176 225 1
519 225 1
521 225 1
86 226 1
97 226 1
114 226 1
123 226 1
170 226 1
177 226 1
520 226 1
522 226 1
87 227 1
98 227 1
115 227 1
124 227 1
171 227 1
178 227 1
521 227 1
523 227 1
85 228 1
88 228 1
116 228 1
125 228 1
172 228 1
179 228 1
522 228 1
524 228 1
86 229 1
89 229 1
117 229 1
126 229 1
173 229 1
180 229 1
523 229 1
525 229 1
87 230 1
90 230 1
113 230 1
118 230 1
174 230 1
181 230 1
524 230 1
526 230 1
88 231 1
91 231 1
114 231 1
119 231 1
175 231 1
182 231 1
525 231 1
527 231 1
89 232 1
92 232 1
115 232 1
120 232 1
169 232 1
176 232 1
526 232 1
528 232 1
90 233 1
93 233 1
116 233 1
121 233 1
170 233 1
177 233 1
527 233 1
529 233 1
91 234 1
94 234 1
117 234 1
122 234 1
171 234 1
178 234 1
528 234 1
530 234 1
92 235 1
95 235 1
118 235 1
123 235 1
172 235 1
179 235 1
529 235 1
531 235 1
93 236 1
96 236 1
119 236 1
124 236 1
173 236 1
180 236 1
530 236 1
532 236 1
94 237 1
97 237 1
120 237 1
125 237 1
174 237 1
181 237 1
519 237 1
531 237 1
95 238 1
98 238 1
121 238 1
126 238 1
175 238 1
182 238 1
520 238 1
532 238 1
85 239 1
97 239 1
127 239 1
136 239 1
183 239 1
190 239 1
533 239 1
535 239 1
86 240 1
98 240 1
128 240 1
137 240 1
184 240 1
191 240 1
534 240 1
536 240 1
85 241 1
87 241 1
129 241 1
138 241 1
185 241 1
192 241 1
535 241 1
537 241 1
86 242 1
88 242 1
130 242 1
139 242 1
186 242 1
193 242 1
536 242 1
538 242 1
87 243 1
89 243 1
131 243 1
140 243 1
187 243 1
194 243 1
537 243 1
539 243 1
88 244 1
90 244 1
127 244 1
132 244 1
188 244 1
195 244 1
538 244 1
540 244 1
89 245 1
91 245 1
128 245 1
133 245 1
189 245 1
196 245 1
539 245 1
541 245 1
90 246 1
92 246 1
129 246 1
134 246 1
183 246 1
190 246 1
540 246 1
542 246 1
91 247 1
93 247 1
130 247 1
135 247 1
184 247 1
191 247 1
541 247 1
543 247 1
92 248 1
94 248 1
131 248 1
136 248 1
185 248 1
192 248 1
542 248 1
544 248 1
93 249 1
95 249 1
132 249 1
137 249 1
186 249 1
193 249 1
543 249 1
545 249 1
94 250 1
96 250 1
133 250 1
138 250 1
187 250 1
194 250 1
544 250 1
546 250 1
95 251 1
97 251 1
134 251 1
139 251 1
188 251 1
195 251 1
533 251 1
545 251 1
96 252 1
98 252 1
135 252 1
140 252 1
189 252 1
196 252 1
534 252 1
546 252 1
85 253 1
98 253 1
141 253 1
150 253 1
197 253 1
204 253 1
547 253 1
549 253 1
85 254 1
86 254 1
142 254 1
151 254 1
198 254 1
205 254 1
548 254 1
550 254 1
86 255 1
87 255 1
143 255 1
152 255 1
199 255 1
206 255 1
549 255 1
551 255 1
87 256 1
88 256 1
144 256 1
153 256 1
200 256 1
207 256 1
550 256 1
552 256 1
88 257 1
89 257 1
145 257 1
154 257 1
201 257 1
208 257 1
551 257 1
553 257 1
89 258 1
90 258 1
141 258 1
146 258 1
202 258 1
209 258 1
552 258 1
554 258 1
90 259 1
91 259 1
142 259 1
147 259 1
203 259 1
210 259 1
553 259 1
555 259 1
91 260 1
92 260 1
143 260 1
148 260 1
197 260 1
204 260 1
554 260 1
556 260 1
92 261 1
93 261 1
144 261 1
149 261 1
198 261 1
205 261 1
555 261 1
557 261 1
93 262 1
94 262 1
145 262 1
150 262 1
199 262 1
206 262 1
556 262 1
558 262 1
94 263 1
95 263 1
146 263 1
151 263 1
200 263 1
207 263 1
557 263 1
559 263 1
95 264 1
96 264 1
147 264 1
152 264 1
201 264 1
208 264 1
558 264 1
560 264 1
96 265 1
97 265 1
148 265 1
153 265 1
202 265 1
209 265 1
547 265 1
559 265 1
97 266 1
98 266 1
149 266 1
154 266 1
203 266 1
210 266 1
548 266 1
560 266 1
99 267 1
110 267 1
113 267 1
123 267 1
211 267 1
218 267 1
561 267 1
563 267 1
100 268 1
111 268 1
114 268 1
124 268 1
212 268 1
219 268 1
562 268 1
564 268 1
101 269 1
112 269 1
115 269 1
125 269 1
213 269 1
220 269 1
563 269 1
565 269 1
99 270 1
102 270 1
116 270 1
126 270 1
214 270 1
221 270 1
564 270 1
566 270 1
100 271 1
103 271 1
113 271 1
117 271 1
215 271 1
222 271 1
565 271 1
567 271 1
101 272 1
104 272 1
114 272 1
118 272 1
216 272 1
223 272 1
566 272 1
568 272 1
102 273 1
105 273 1
115 273 1
119 273 1
217 273 1
224 273 1
567 273 1
569 273 1
103 274 1
106 274 1
116 274 1
120 274 1
211 274 1
218 274 1
568 274 1
570 274 1
104 275 1
107 275 1
117 275 1
121 275 1
212 275 1
219 275 1
569 275 1
571 275 1
105 276 1
108 276 1
118 276 1
122 276 1
213 276 1
220 276 1
570 276 1
572 276 1
106 277 1
109 277 1
119 277 1
123 277 1
214 277 1
221 277 1
571 277 1
573 277 1
107 278 1
110 278 1
120 278 1
124 278 1
215 278 1
222 278 1
572 278 1
574 278 1
108 279 1
111 279 1
121 279 1
125 279 1
216 279 1
223 279 1
561 279 1
573 279 1
109 280 1
112 280 1
122 280 1
126 280 1
217 280 1
224 280 1
562 280 1
574 280 1
99 281 1
111 281 1
127 281 1
137 281 1
225 281 1
232 281 1
575 281 1
577 281 1
100 282 1
112 282 1
128 282 1
138 282 1
226 282 1
233 282 1
576 282 1
578 282 1
99 283 1
101 283 1
129 283 1
139 283 1
227 283 1
234 283 1
577 283 1
579 283 1
100 284 1
102 284 1
130 284 1
140 284 1
228 284 1
235 284 1
578 284 1
580 284 1
101 285 1
103 285 1
127 285 1
131 285 1
229 285 1
236 285 1
579 285 1
581 285 1
102 286 1
104 286 1
128 286 1
132 286 1
230 286 1
237 286 1
580 286 1
582 286 1
103 287 1
105 287 1
129 287 1
133 287 1
231 287 1
238 287 1
581 287 1
583 287 1
104 288 1
106 288 1
130 288 1
134 288 1
225 288 1
232 288 1
582 288 1
584 288 1
105 289 1
107 289 1
131 289 1
135 289 1
226 289 1
233 289 1
583 289 1
585 289 1
106 290 1
108 290 1
132 290 1
136 290 1
227 290 1
234 290 1
584 290 1
586 290 1
107 291 1
109 291 1
133 291 1
137 291 1
228 291 1
235 291 1
585 291 1
587 291 1
108 292 1
110 292 1
134 292 1
138 292 1
229 292 1
236 292 1
586 292 1
588 292 1
109 293 1
111 293 1
135 293 1
139 293 1
230 293 1
237 293 1
575 293 1
587 293 1
110 294 1
112 294 1
136 294 1
140 294 1
231 294 1
238 294 1
576 294 1
588 294 1
99 295 1
112 295 1
141 295 1
151 295 1
239 295 1
246 295 1
589 295 1
591 295 1
99 296 1
100 296 1
142 296 1
152 296 1
240 296 1
247 296 1
590 296 1
592 296 1
100 297 1
101 297 1
143 297 1
153 297 1
241 297 1
248 297 1
591 297 1
593 297 1
101 298 1
102 298 1
144 298 1
154 298 1
242 298 1
249 298 1
592 298 1
594 298 1
102 299 1
103 299 1
141 299 1
145 299 1
243 299 1
250 299 1
593 299 1
595 299 1
103 300 1
104 300 1
142 300 1
146 300 1
244 300 1
251 300 1
594 300 1
596 300 1
104 301 1
105 301 1
143 301 1
147 301 1
245 301 1
252 301 1
595 301 1
597 301 1
105 302 1
106 302 1
144 302 1
148 302 1
239 302 1
246 302 1
596 302 1
598 302 1
106 303 1
107 303 1
145 303 1
149 303 1
240 303 1
247 303 1
597 303 1
599 303 1
107 304 1
108 304 1
146 304 1
150 304 1
241 304 1
248 304 1
598 304 1
600 304 1
108 305 1
109 305 1
147 305 1
151 305 1
242 305 1
249 305 1
599 305 1
601 305 1
109 306 1
110 306 1
148 306 1
152 306 1
243 306 1
250 306 1
600 306 1
602 306 1
110 307 1
111 307 1
149 307 1
153 307 1
244 307 1
251 307 1
589 307 1
601 307 1
111 308 1
112 308 1
150 308 1
154 308 1
245 308 1
252 308 1
590 308 1
602 308 1
113 309 1
125 309 1
127 309 1
138 309 1
253 309 1
260 309 1
603 309 1
605 309 1
114 310 1
126 310 1
128 310 1
139 310 1
254 310 1
261 310 1
604 310 1
606 310 1
113 311 1
115 311 1
129 311 1
140 311 1
255 311 1
262 311 1
605 311 1
607 311 1
114 312 1
116 312 1
127 312 1
130 312 1
256 312 1
263 312 1
606 312 1
608 312 1
115 313 1
117 313 1
128 313 1
131 313 1
257 313 1
264 313 1
607 313 1
609 313 1
116 314 1
118 314 1
129 314 1
132 314 1
258 314 1
265 314 1
608 314 1
610 314 1
117 315 1
119 315 1
130 315 1
133 315 1
259 315 1
266 315 1
609 315 1
611 315 1
118 316 1
120 316 1
131 316 1
134 316 1
253 316 1
260 316 1
610 316 1
612 316 1
119 317 1
121 317 1
132 317 1
135 317 1
254 317 1
261 317 1
611 317 1
613 317 1
120 318 1
122 318 1
133 318 1
136 318 1
255 318 1
262 318 1
612 318 1
614 318 1
121 319 1
123 319 1
134 319 1
137 319 1
256 319 1
263 319 1
613 319 1
615 319 1
122 320 1
124 320 1
135 320 1
138 320 1
257 320 1
264 320 1
614 320 1
616 320 1
123 321 1
125 321 1
136 321 1
139 321 1
258 321 1
265 321 1
603 321 1
615 321 1
124 322 1
126 322 1
137 322 1
140 322 1
259 322 1
266 322 1
604 322 1
616 322 1
113 323 1
126 323 1
141 323 1
152 323 1
267 323 1
274 323 1
617 323 1
619 323 1
113 324 1
114 324 1
142 324 1
153 324 1
268 324 1
275 324 1
618 324 1
620 324 1
114 325 1
115 325 1
143 325 1
154 325 1
269 325 1
276 325 1
619 325 1
621 325 1
115 326 1
116 326 1
141 326 1
144 326 1
270 326 1
277 326 1
620 326 1
622 326 1
116 327 1
117 327 1
142 327 1
145 327 1
271 327 1
278 327 1
621 327 1
623 327 1
117 328 1
118 328 1
143 328 1
146 328 1
272 328 1
279 328 1
622 328 1
624 328 1
118 329 1
119 329 1
144 329 1
147 329 1
273 329 1
280 329 1
623 329 1
625 329 1
119 330 1
120 330 1
145 330 1
148 330 1
267 330 1
274 330 1
624 330 1
626 330 1
120 331 1
121 331 1
146 331 1
149 331 1
268 331 1
275 331 1
625 331 1
627 331 1
121 332 1
122 332 1
147 332 1
150 332 1
269 332 1
276 332 1
626 332 1
628 332 1
122 333 1
123 333 1
148 333 1
151 333 1
270 333 1
277 333 1
627 333 1
629 333 1
123 334 1
124 334 1
149 334 1
152 334 1
271 334 1
278 334 1
628 334 1
630 334 1
124 335 1
125 335 1
150 335 1
153 335 1
272 335 1
279 335 1
617 335 1
629 335 1
125 336 1
126 336 1
151 336 1
154 336 1
273 336 1
280 336 1
618 336 1
630 336 1
127 337 1
140 337 1
141 337 1
153 337 1
281 337 1
288 337 1
631 337 1
633 337 1
127 338 1
128 338 1
142 338 1
154 338 1
282 338 1
289 338 1
632 338 1
634 338 1
128 339 1
129 339 1
141 339 1
143 339 1
283 339 1
290 339 1
633 339 1
635 339 1
129 340 1
130 340 1
142 340 1
144 340 1
284 340 1
291 340 1
634 340 1
636 340 1
130 341 1
131 341 1
143 341 1
145 341 1
285 341 1
292 341 1
635 341 1
637 341 1
131 342 1
132 342 1
144 342 1
146 342 1
286 342 1
293 342 1
636 342 1
638 342 1
132 343 1
133 343 1
145 343 1
147 343 1
287 343 1
294 343 1
637 343 1
639 343 1
133 344 1
134 344 1
146 344 1
148 344 1
281 344 1
288 344 1
638 344 1
640 344 1
134 345 1
135 345 1
147 345 1
149 345 1
282 345 1
289 345 1
639 345 1
641 345 1
135 346 1
136 346 1
148 346 1
150 346 1
283 346 1
290 346 1
640 346 1
642 346 1
136 347 1
137 347 1
149 347 1
151 347 1
284 347 1
291 347 1
641 347 1
643 347 1
137 348 1
138 348 1
150 348 1
152 348 1
285 348 1
292 348 1
642 348 1
644 348 1
138 349 1
139 349 1
151 349 1
153 349 1
286 349 1
293 349 1
631 349 1
643 349 1
139 350 1
140 350 1
152 350 1
154 350 1
287 350 1
294 350 1
632 350 1
644 350 1
155 351 1
166 351 1
169 351 1
179 351 1
211 351 1
220 351 1
645 351 1
647 351 1
156 352 1
167 352 1
170 352 1
180 352 1
212 352 1
221 352 1
646 352 1
648 352 1
157 353 1
168 353 1
171 353 1
181 353 1
213 353 1
222 353 1
647 353 1
649 353 1
155 354 1
158 354 1
172 354 1
182 354 1
214 354 1
223 354 1
648 354 1
650 354 1
156 355 1
159 355 1
169 355 1
173 355 1
215 355 1
224 355 1
649 355 1
651 355 1
157 356 1
160 356 1
170 356 1
174 356 1
211 356 1
216 356 1
650 356 1
652 356 1
158 357 1
161 357 1
171 357 1
175 357 1
212 357 1
217 357 1
651 357 1
653 357 1
159 358 1
162 358 1
172 358 1
176 358 1
213 358 1
218 358 1
652 358 1
654 358 1
160 359 1
163 359 1
173 359 1
177 359 1
214 359 1
219 359 1
653 359 1
655 359 1
161 360 1
164 360 1
174 360 1
178 360 1
215 360 1
220 360 1
654 360 1
656 360 1
162 361 1
165 361 1
175 361 1
179 361 1
216 361 1
221 361 1
655 361 1
657 361 1
163 362 1
166 362 1
176 362 1
180 362 1
217 362 1
222 362 1
656 362 1
658 362 1
164 363 1
167 363 1
177 363 1
181 363 1
218 363 1
223 363 1
645 363 1
657 363 1
165 364 1
168 364 1
178 364 1
182 364 1
219 364 1
224 364 1
646 364 1
658 364 1
155 365 1
167 365 1
183 365 1
193 365 1
225 365 1
234 365 1
659 365 1
661 365 1
156 366 1
168 366 1
184 366 1
194 366 1
226 366 1
235 366 1
660 366 1
662 366 1
155 367 1
157 367 1
185 367 1
195 367 1
227 367 1
236 367 1
661 367 1
663 367 1
156 368 1
158 368 1
186 368 1
196 368 1
228 368 1
237 368 1
662 368 1
664 368 1
157 369 1
159 369 1
183 369 1
187 369 1
229 369 1
238 369 1
663 369 1
665 369 1
158 370 1
160 370 1
184 370 1
188 370 1
225 370 1
230 370 1
664 370 1
666 370 1
159 371 1
161 371 1
185 371 1
189 371 1
226 371 1
231 371 1
665 371 1
667 371 1
160 372 1
162 372 1
186 372 1
190 372 1
227 372 1
232 372 1
666 372 1
668 372 1
161 373 1
163 373 1
187 373 1
191 373 1
228 373 1
233 373 1
667 373 1
669 373 1
162 374 1
164 374 1
188 374 1
192 374 1
229 374 1
234 374 1
668 374 1
670 374 1
163 375 1
165 375 1
189 375 1
193 375 1
230 375 1
235 375 1
669 375 1
671 375 1
164 376 1
166 376 1
190 376 1
194 376 1
231 376 1
236 376 1
670 376 1
672 376 1
165 377 1
167 377 1
191 377 1
195 377 1
232 377 1
237 377 1
659 377 1
671 377 1
166 378 1
168 378 1
192 378 1
196 378 1
233 378 1
238 378 1
660 378 1
672 378 1
155 379 1
168 379 1
197 379 1
207 379 1
239 379 1
248 379 1
673 379 1
675 379 1
155 380 1
156 380 1
198 380 1
208 380 1
240 380 1
249 380 1
674 380 1
676 380 1
156 381 1
157 381 1
199 381 1
209 381 1
241 381 1
250 381 1
675 381 1
677 381 1
157 382 1
158 382 1
200 382 1
210 382 1
242 382 1
251 382 1
676 382 1
678 382 1
158 383 1
159 383 1
197 383 1
201 383 1
243 383 1
252 383 1
677 383 1
679 383 1
159 384 1
160 384 1
198 384 1
202 384 1
239 384 1
244 384 1
678 384 1
680 384 1
160 385 1
161 385 1
199 385 1
203 385 1
240 385 1
245 385 1
679 385 1
681 385 1
161 386 1
162 386 1
200 386 1
204 386 1
241 386 1
246 386 1
680 386 1
682 386 1
162 387 1
163 387 1
201 387 1
205 387 1
242 387 1
247 387 1
681 387 1
683 387 1
163 388 1
164 388 1
202 388 1
206 388 1
243 388 1
248 388 1
682 388 1
684 388 1
164 389 1
165 389 1
203 389 1
207 389 1
244 389 1
249 389 1
683 389 1
685 389 1
165 390 1
166 390 1
204 390 1
208 390 1
245 390 1
250 390 1
684 390 1
686 390 1
166 391 1
167 391 1
205 391 1
209 391 1
246 391 1
251 391 1
673 391 1
685 391 1
167 392 1
168 392 1
206 392 1
210 392 1
247 392 1
252 392 1
674 392 1
686 392 1
169 393 1
181 393 1
183 393 1
194 393 1
253 393 1
262 393 1
687 393 1
689 393 1
170 394 1
182 394 1
184 394 1
195 394 1
254 394 1
263 394 1
688 394 1
690 394 1
169 395 1
171 395 1
185 395 1
196 395 1
255 395 1
264 395 1
689 395 1
691 395 1
170 396 1
172 396 1
183 396 1
186 396 1
256 396 1
265 396 1
690 396 1
692 396 1
171 397 1
173 397 1
184 397 1
187 397 1
257 397 1
266 397 1
691 397 1
693 397 1
172 398 1
174 398 1
185 398 1
188 398 1
253 398 1
258 398 1
692 398 1
694 398 1
173 399 1
175 399 1
186 399 1
189 399 1
254 399 1
259 399 1
693 399 1
695 399 1
174 400 1
176 400 1
187 400 1
190 400 1
255 400 1
260 400 1
694 400 1
696 400 1
175 401 1
177 401 1
188 401 1
191 401 1
256 401 1
261 401 1
695 401 1
697 401 1
176 402 1
178 402 1
189 402 1
192 402 1
257 402 1
262 402 1
696 402 1
698 402 1
177 403 1
179 403 1
190 403 1
193 403 1
258 403 1
263 403 1
697 403 1
699 403 1
178 404 1
180 404 1
191 404 1
194 404 1
259 404 1
264 404 1
698 404 1
700 404 1
179 405 1
181 405 1
192 405 1
195 405 1
260 405 1
265 405 1
687 405 1
699 405 1
180 406 1
182 406 1
193 406 1
196 406 1
261 406 1
266 406 1
688 406 1
700 406 1
169 407 1
182 407 1
197 407 1
208 407 1
267 407 1
276 407 1
701 407 1
703 407 1
169 408 1
170 408 1
198 408 1
209 408 1
268 408 1
277 408 1
702 408 1
704 408 1
170 409 1
171 409 1
199 409 1
210 409 1
269 409 1
278 409 1
703 409 1
705 409 1
171 410 1
172 410 1
197 410 1
200 410 1
270 410 1
279 410 1
704 410 1
706 410 1
172 411 1
173 411 1
198 411 1
201 411 1
271 411 1
280 411 1
705 411 1
707 411 1
173 412 1
174 412 1
199 412 1
202 412 1
267 412 1
272 412 1
706 412 1
708 412 1
174 413 1
175 413 1
200 413 1
203 413 1
268 413 1
273 413 1
707 413 1
709 413 1
175 414 1
176 414 1
201 414 1
204 414 1
269 414 1
274 414 1
708 414 1
710 414 1
176 415 1
177 415 1
202 415 1
205 415 1
270 415 1
275 415 1
709 415 1
711 415 1
177 416 1
178 416 1
203 416 1
206 416 1
271 416 1
276 416 1
710 416 1
712 416 1
178 417 1
179 417 1
204 417 1
207 417 1
272 417 1
277 417 1
711 417 1
713 417 1
179 418 1
180 418 1
205 418 1
208 418 1
273 418 1
278 418 1
712 418 1
714 418 1
180 419 1
181 419 1
206 419 1
209 419 1
274 419 1
279 419 1
701 419 1
713 419 1
181 420 1
182 420 1
207 420 1
210 420 1
275 420 1
280 420 1
702 420 1
714 420 1
183 421 1
196 421 1
197 421 1
209 421 1
281 421 1
290 421 1
715 421 1
717 421 1
183 422 1
184 422 1
198 422 1
210 422 1
282 422 1
291 422 1
716 422 1
718 422 1
184 423 1
185 423 1
197 423 1
199 423 1
283 423 1
292 423 1
717 423 1
719 423 1
185 424 1
186 424 1
198 424 1
200 424 1
284 424 1
293 424 1
718 424 1
720 424 1
186 425 1
187 425 1
199 425 1
201 425 1
285 425 1
294 425 1
719 425 1
721 425 1
187 426 1
188 426 1
200 426 1
202 426 1
281 426 1
286 426 1
720 426 1
722 426 1
188 427 1
189 427 1
201 427 1
203 427 1
282 427 1
287 427 1
721 427 1
723 427 1
189 428 1
190 428 1
202 428 1
204 428 1
283 428 1
288 428 1
722 428 1
724 428 1
190 429 1
191 429 1
203 429 1
205 429 1
284 429 1
289 429 1
723 429 1
725 429 1
191 430 1
192 430 1
204 430 1
206 430 1
285 430 1
290 430 1
724 430 1
726 430 1
192 431 1
193 431 1
205 431 1
207 431 1
286 431 1
291 431 1
725 431 1
727 431 1
193 432 1
194 432 1
206 432 1
208 432 1
287 432 1
292 432 1
726 432 1
728 432 1
194 433 1
195 433 1
207 433 1
209 433 1
288 433 1
293 433 1
715 433 1
727 433 1
195 434 1
196 434 1
208 434 1
210 434 1
289 434 1
294 434 1
716 434 1
728 434 1
211 435 1
223 435 1
225 435 1
236 435 1
253 435 1
263 435 1
729 435 1
731 435 1
212 436 1
224 436 1
226 436 1
237 436 1
254 436 1
264 436 1
730 436 1
732 436 1
211 437 1
213 437 1
227 437 1
238 437 1
255 437 1
265 437 1
731 437 1
733 437 1
212 438 1
214 438 1
225 438 1
228 438 1
256 438 1
266 438 1
732 438 1
734 438 1
213 439 1
215 439 1
226 439 1
229 439 1
253 439 1
257 439 1
733 439 1
735 439 1
214 440 1
216 440 1
227 440 1
230 440 1
254 440 1
258 440 1
734 440 1
736 440 1
215 441 1
217 441 1
228 441 1
231 441 1
255 441 1
259 441 1
735 441 1
737 441 1
216 442 1
218 442 1
229 442 1
232 442 1
256 442 1
260 442 1
736 442 1
738 442 1
217 443 1
219 443 1
230 443 1
233 443 1
257 443 1
261 443 1
737 443 1
739 443 1
218 444 1
220 444 1
231 444 1
234 444 1
258 444 1
262 444 1
738 444 1
740 444 1
219 445 1
221 445 1
232 445 1
235 445 1
259 445 1
263 445 1
739 445 1
741 445 1
220 446 1
222 446 1
233 446 1
236 446 1
260 446 1
264 446 1
740 446 1
742 446 1
221 447 1
223 447 1
234 447 1
237 447 1
261 447 1
265 447 1
729 447 1
741 447 1
222 448 1
224 448 1
235 448 1
238 448 1
262 448 1
266 448 1
730 448 1
742 448 1
211 449 1
224 449 1
239 449 1
250 449 1
267 449 1
277 449 1
743 449 1
745 449 1
211 450 1
212 450 1
240 450 1
251 450 1
268 450 1
278 450 1
744 450 1
746 450 1
212 451 1
213 451 1
241 451 1
252 451 1
269 451 1
279 451 1
745 451 1
747 451 1
213 452 1
214 452 1
239 452 1
242 452 1
270 452 1
280 452 1
746 452 1
748 452 1
214 453 1
215 453 1
240 453 1
243 453 1
267 453 1
271 453 1
747 453 1
749 453 1
215 454 1
216 454 1
241 454 1
244 454 1
268 454 1
272 454 1
748 454 1
750 454 1
216 455 1
217 455 1
242 455 1
245 455 1
269 455 1
273 455 1
749 455 1
751 455 1
217 456 1
218 456 1
243 456 1
246 456 1
270 456 1
274 456 1
750 456 1
752 456 1
218 457 1
219 457 1
244 457 1
247 457 1
271 457 1
275 457 1
751 457 1
753 457 1
219 458 1
220 458 1
245 458 1
248 458 1
272 458 1
276 458 1
752 458 1
754 458 1
220 459 1
221 459 1
246 459 1
249 459 1
273 459 1
277 459 1
753 459 1
755 459 1
221 460 1
222 460 1
247 460 1
250 460 1
274 460 1
278 460 1
754 460 1
756 460 1
222 461 1
223 461 1
248 461 1
251 461 1
275 461 1
279 461 1
743 461 1
755 461 1
223 462 1
224 462 1
249 462 1
252 462 1
276 462 1
280 462 1
744 462 1
756 462 1
225 463 1
238 463 1
239 463 1
251 463 1
281 463 1
291 463 1
757 463 1
759 463 1
225 464 1
226 464 1
240 464 1
252 464 1
282 464 1
292 464 1
758 464 1
760 464 1
226 465 1
227 465 1
239 465 1
241 465 1
283 465 1
293 465 1
759 465 1
761 465 1
227 466 1
228 466 1
240 466 1
242 466 1
284 466 1
294 466 1
760 466 1
762 466 1
228 467 1
229 467 1
241 467 1
243 467 1
281 467 1
285 467 1
761 467 1
763 467 1
229 468 1
230 468 1
242 468 1
244 468 1
282 468 1
286 468 1
762 468 1
764 468 1
230 469 1
231 469 1
243 469 1
245 469 1
283 469 1
287 469 1
763 469 1
765 469 1
231 470 1
232 470 1
244 470 1
246 470 1
284 470 1
288 470 1
764 470 1
766 470 1
232 471 1
233 471 1
245 471 1
247 471 1
285 471 1
289 471 1
765 471 1
767 471 1
233 472 1
234 472 1
246 472 1
248 472 1
286 472 1
290 472 1
766 472 1
768 472 1
234 473 1
235 473 1
247 473 1
249 473 1
287 473 1
291 473 1
767 473 1
769 473 1
235 474 1
236 474 1
248 474 1
250 474 1
288 474 1
292 474 1
768 474 1
770 474 1
236 475 1
237 475 1
249 475 1
251 475 1
289 475 1
293 475 1
757 475 1
769 475 1
237 476 1
238 476 1
250 476 1
252 476 1
290 476 1
294 476 1
758 476 1
770 476 1
253 477 1
266 477 1
267 477 1
279 477 1
281 477 1
292 477 1
771 477 1
773 477 1
253 478 1
254 478 1
268 478 1
280 478 1
282 478 1
293 478 1
772 478 1
774 478 1
254 479 1
255 479 1
267 479 1
269 479 1
283 479 1
294 479 1
773 479 1
775 479 1
255 480 1
256 480 1
268 480 1
270 480 1
281 480 1
284 480 1
774 480 1
776 480 1
256 481 1
257 481 1
269 481 1
271 481 1
282 481 1
285 481 1
775 481 1
777 481 1
257 482 1
258 482 1
270 482 1
272 482 1
283 482 1
286 482 1
776 482 1
778 482 1
258 483 1
259 483 1
271 483 1
273 483 1
284 483 1
287 483 1
777 483 1
779 483 1
259 484 1
260 484 1
272 484 1
274 484 1
285 484 1
288 484 1
778 484 1
780 484 1
260 485 1
261 485 1
273 485 1
275 485 1
286 485 1
289 485 1
779 485 1
781 485 1
261 486 1
262 486 1
274 486 1
276 486 1
287 486 1
290 486 1
780 486 1
782 486 1
262 487 1
263 487 1
275 487 1
277 487 1
288 487 1
291 487 1
781 487 1
783 487 1
263 488 1
264 488 1
276 488 1
278 488 1
289 488 1
292 488 1
782 488 1
784 488 1
264 489 1
265 489 1
277 489 1
279 489 1
290 489 1
293 489 1
771 489 1
783 489 1
265 490 1
266 490 1
278 490 1
280 490 1
291 490 1
294 490 1
772 490 1
784 490 1
295 491 1
305 491 1
309 491 1
318 491 1
365 491 1
372 491 1
505 491 1
508 491 1
296 492 1
306 492 1
310 492 1
319 492 1
366 492 1
373 492 1
506 492 1
509 492 1
297 493 1
307 493 1
311 493 1
320 493 1
367 493 1
374 493 1
507 493 1
510 493 1
298 494 1
308 494 1
312 494 1
321 494 1
368 494 1
375 494 1
508 494 1
511 494 1
295 495 1
299 495 1
313 495 1
322 495 1
369 495 1
376 495 1
509 495 1
512 495 1
296 496 1
300 496 1
309 496 1
314 496 1
370 496 1
377 496 1
510 496 1
513 496 1
297 497 1
301 497 1
310 497 1
315 497 1
371 497 1
378 497 1
511 497 1
514 497 1
298 498 1
302 498 1
311 498 1
316 498 1
365 498 1
372 498 1
512 498 1
515 498 1
299 499 1
303 499 1
312 499 1
317 499 1
366 499 1
373 499 1
513 499 1
516 499 1
300 500 1
304 500 1
313 500 1
318 500 1
367 500 1
374 500 1
514 500 1
517 500 1
301 501 1
305 501 1
314 501 1
319 501 1
368 501 1
375 501 1
515 501 1
518 501 1
302 502 1
306 502 1
315 502 1
320 502 1
369 502 1
376 502 1
505 502 1
516 502 1
303 503 1
307 503 1
316 503 1
321 503 1
370 503 1
377 503 1
506 503 1
517 503 1
304 504 1
308 504 1
317 504 1
322 504 1
371 504 1
378 504 1
507 504 1
518 504 1
295 505 1
306 505 1
323 505 1
332 505 1
379 505 1
386 505 1
519 505 1
522 505 1
296 506 1
307 506 1
324 506 1
333 506 1
380 506 1
387 506 1
520 506 1
523 506 1
297 507 1
308 507 1
325 507 1
334 507 1
381 507 1
388 507 1
521 507 1
524 507 1
295 508 1
298 508 1
326 508 1
335 508 1
382 508 1
389 508 1
522 508 1
525 508 1
296 509 1
299 509 1
327 509 1
336 509 1
383 509 1
390 509 1
523 509 1
526 509 1
297 510 1
300 510 1
323 510 1
328 510 1
384 510 1
391 510 1
524 510 1
527 510 1
298 511 1
301 511 1
324 511 1
329 511 1
385 511 1
392 511 1
525 511 1
528 511 1
299 512 1
302 512 1
325 512 1
330 512 1
379 512 1
386 512 1
526 512 1
529 512 1
300 513 1
303 513 1
326 513 1
331 513 1
380 513 1
387 513 1
527 513 1
530 513 1
301 514 1
304 514 1
327 514 1
332 514 1
381 514 1
388 514 1
528 514 1
531 514 1
302 515 1
305 515 1
328 515 1
333 515 1
382 515 1
389 515 1
529 515 1
532 515 1
303 516 1
306 516 1
329 516 1
334 516 1
383 516 1
390 516 1
519 516 1
530 516 1
304 517 1
307 517 1
330 517 1
335 517 1
384 517 1
391 517 1
520 517 1
531 517 1
305 518 1
308 518 1
331 518 1
336 518 1
385 518 1
392 518 1
521 518 1
532 518 1
295 519 1
307 519 1
337 519 1
346 519 1
393 519 1
400 519 1
533 519 1
536 519 1
296 520 1
308 520 1
338 520 1
347 520 1
394 520 1
401 520 1
534 520 1
537 520 1
295 521 1
297 521 1
339 521 1
348 521 1
395 521 1
402 521 1
535 521 1
538 521 1
296 522 1
298 522 1
340 522 1
349 522 1
396 522 1
403 522 1
536 522 1
539 522 1
297 523 1
299 523 1
341 523 1
350 523 1
397 523 1
404 523 1
537 523 1
540 523 1
298 524 1
300 524 1
337 524 1
342 524 1
398 524 1
405 524 1
538 524 1
541 524 1
299 525 1
301 525 1
338 525 1
343 525 1
399 525 1
406 525 1
539 525 1
542 525 1
300 526 1
302 526 1
339 526 1
344 526 1
393 526 1
400 526 1
540 526 1
543 526 1
301 527 1
303 527 1
340 527 1
345 527 1
394 527 1
401 527 1
541 527 1
544 527 1
302 528 1
304 528 1
341 528 1
346 528 1
395 528 1
402 528 1
542 528 1
545 528 1
303 529 1
305 529 1
342 529 1
347 529 1
396 529 1
403 529 1
543 529 1
546 529 1
304 530 1
306 530 1
343 530 1
348 530 1
397 530 1
404 530 1
533 530 1
544 530 1
305 531 1
307 531 1
344 531 1
349 531 1
398 531 1
405 531 1
534 531 1
545 531 1
306 532 1
308 532 1
345 532 1
350 532 1
399 532 1
406 532 1
535 532 1
546 532 1
295 533 1
308 533 1
351 533 1
360 533 1
407 533 1
414 533 1
547 533 1
550 533 1
295 534 1
296 534 1
352 534 1
361 534 1
408 534 1
415 534 1
548 534 1
551 534 1
296 535 1
297 535 1
353 535 1
362 535 1
409 535 1
416 535 1
549 535 1
552 535 1
297 536 1
298 536 1
354 536 1
363 536 1
410 536 1
417 536 1
550 536 1
553 536 1
298 537 1
299 537 1
355 537 1
364 537 1
411 537 1
418 537 1
551 537 1
554 537 1
299 538 1
300 538 1
351 538 1
356 538 1
412 538 1
419 538 1
552 538 1
555 538 1
300 539 1
301 539 1
352 539 1
357 539 1
413 539 1
420 539 1
553 539 1
556 539 1
301 540 1
302 540 1
353 540 1
358 540 1
407 540 1
414 540 1
554 540 1
557 540 1
302 541 1
303 541 1
354 541 1
359 541 1
408 541 1
415 541 1
555 541 1
558 541 1
303 542 1
304 542 1
355 542 1
360 542 1
409 542 1
416 542 1
556 542 1
559 542 1
304 543 1
305 543 1
356 543 1
361 543 1
410 543 1
417 543 1
557 543 1
560 543 1
305 544 1
306 544 1
357 544 1
362 544 1
411 544 1
418 544 1
547 544 1
558 544 1
306 545 1
307 545 1
358 545 1
363 545 1
412 545 1
419 545 1
548 545 1
559 545 1
307 546 1
308 546 1
359 546 1
364 546 1
413 546 1
420 546 1
549 546 1
560 546 1
309 547 1
320 547 1
323 547 1
333 547 1
421 547 1
428 547 1
561 547 1
564 547 1
310 548 1
321 548 1
324 548 1
334 548 1
422 548 1
429 548 1
562 548 1
565 548 1
311 549 1
322 549 1
325 549 1
335 549 1
423 549 1
430 549 1
563 549 1
566 549 1
309 550 1
312 550 1
326 550 1
336 550 1
424 550 1
431 550 1
564 550 1
567 550 1
310 551 1
313 551 1
323 551 1
327 551 1
425 551 1
432 551 1
565 551 1
568 551 1
311 552 1
314 552 1
324 552 1
328 552 1
426 552 1
433 552 1
566 552 1
569 552 1
312 553 1
315 553 1
325 553 1
329 553 1
427 553 1
434 553 1
567 553 1
570 553 1
313 554 1
316 554 1
326 554 1
330 554 1
421 554 1
428 554 1
568 554 1
571 554 1
314 555 1
317 555 1
327 555 1
331 555 1
422 555 1
429 555 1
569 555 1
572 555 1
315 556 1
318 556 1
328 556 1
332 556 1
423 556 1
430 556 1
570 556 1
573 556 1
316 557 1
319 557 1
329 557 1
333 557 1
424 557 1
431 557 1
571 557 1
574 557 1
317 558 1
320 558 1
330 558 1
334 558 1
425 558 1
432 558 1
561 558 1
572 558 1
318 559 1
321 559 1
331 559 1
335 559 1
426 559 1
433 559 1
562 559 1
573 559 1
319 560 1
322 560 1
332 560 1
336 560 1
427 560 1
434 560 1
563 560 1
574 560 1
309 561 1
321 561 1
337 561 1
347 561 1
435 561 1
442 561 1
575 561 1
578 561 1
310 562 1
322 562 1
338 562 1
348 562 1
436 562 1
443 562 1
576 562 1
579 562 1
309 563 1
311 563 1
339 563 1
349 563 1
437 563 1
444 563 1
577 563 1
580 563 1
310 564 1
312 564 1
340 564 1
350 564 1
438 564 1
445 564 1
578 564 1
581 564 1
311 565 1
313 565 1
337 565 1
341 565 1
439 565 1
446 565 1
579 565 1
582 565 1
312 566 1
314 566 1
338 566 1
342 566 1
440 566 1
447 566 1
580 566 1
583 566 1
313 567 1
315 567 1
339 567 1
343 567 1
441 567 1
448 567 1
581 567 1
584 567 1
314 568 1
316 568 1
340 568 1
344 568 1
435 568 1
442 568 1
582 568 1
585 568 1
315 569 1
317 569 1
341 569 1
345 569 1
436 569 1
443 569 1
583 569 1
586 569 1
316 570 1
318 570 1
342 570 1
346 570 1
437 570 1
444 570 1
584 570 1
587 570 1
317 571 1
319 571 1
343 571 1
347 571 1
438 571 1
445 571 1
585 571 1
588 571 1
318 572 1
320 572 1
344 572 1
348 572 1
439 572 1
446 572 1
575 572 1
586 572 1
319 573 1
321 573 1
345 573 1
349 573 1
440 573 1
447 573 1
576 573 1
587 573 1
320 574 1
322 574 1
346 574 1
350 574 1
441 574 1
448 574 1
577 574 1
588 574 1
309 575 1
322 575 1
351 575 1
361 575 1
449 575 1
456 575 1
589 575 1
592 575 1
309 576 1
310 576 1
352 576 1
362 576 1
450 576 1
457 576 1
590 576 1
593 576 1
310 577 1
311 577 1
353 577 1
363 577 1
451 577 1
458 577 1
591 577 1
594 577 1
311 578 1
312 578 1
354 578 1
364 578 1
452 578 1
459 578 1
592 578 1
595 578 1
312 579 1
313 579 1
351 579 1
355 579 1
453 579 1
460 579 1
593 579 1
596 579 1
313 580 1
314 580 1
352 580 1
356 580 1
454 580 1
461 580 1
594 580 1
597 580 1
314 581 1
315 581 1
353 581 1
357 581 1
455 581 1
462 581 1
595 581 1
598 581 1
315 582 1
316 582 1
354 582 1
358 582 1
449 582 1
456 582 1
596 582 1
599 582 1
316 583 1
317 583 1
355 583 1
359 583 1
450 583 1
457 583 1
597 583 1
600 583 1
317 584 1
318 584 1
356 584 1
360 584 1
451 584 1
458 584 1
598 584 1
601 584 1
318 585 1
319 585 1
357 585 1
361 585 1
452 585 1
459 585 1
599 585 1
602 585 1
319 586 1
320 586 1
358 586 1
362 586 1
453 586 1
460 586 1
589 586 1
600 586 1
320 587 1
321 587 1
359 587 1
363 587 1
454 587 1
461 587 1
590 587 1
601 587 1
321 588 1
322 588 1
360 588 1
364 588 1
455 588 1
462 588 1
591 588 1
602 588 1
323 589 1
335 589 1
337 589 1
348 589 1
463 589 1
470 589 1
603 589 1
606 589 1
324 590 1
336 590 1
338 590 1
349 590 1
464 590 1
471 590 1
604 590 1
607 590 1
323 591 1
325 591 1
339 591 1
350 591 1
465 591 1
472 591 1
605 591 1
608 591 1
324 592 1
326 592 1
337 592 1
340 592 1
466 592 1
473 592 1
606 592 1
609 592 1
325 593 1
327 593 1
338 593 1
341 593 1
467 593 1
474 593 1
607 593 1
610 593 1
326 594 1
328 594 1
339 594 1
342 594 1
468 594 1
475 594 1
608 594 1
611 594 1
327 595 1
329 595 1
340 595 1
343 595 1
469 595 1
476 595 1
609 595 1
612 595 1
328 596 1
330 596 1
341 596 1
344 596 1
463 596 1
470 596 1
610 596 1
613 596 1
329 597 1
331 597 1
342 597 1
345 597 1
464 597 1
471 597 1
611 597 1
614 597 1
330 598 1
332 598 1
343 598 1
346 598 1
465 598 1
472 598 1
612 598 1
615 598 1
331 599 1
333 599 1
344 599 1
347 599 1
466 599 1
473 599 1
613 599 1
616 599 1
332 600 1
334 600 1
345 600 1
348 600 1
467 600 1
474 600 1
603 600 1
614 600 1
333 601 1
335 601 1
346 601 1
349 601 1
468 601 1
475 601 1
604 601 1
615 601 1
334 602 1
336 602 1
347 602 1
350 602 1
469 602 1
476 602 1
605 602 1
616 602 1
323 603 1
336 603 1
351 603 1
362 603 1
477 603 1
484 603 1
617 603 1
620 603 1
323 604 1
324 604 1
352 604 1
363 604 1
478 604 1
485 604 1
618 604 1
621 604 1
324 605 1
325 605 1
353 605 1
364 605 1
479 605 1
486 605 1
619 605 1
622 605 1
325 606 1
326 606 1
351 606 1
354 606 1
480 606 1
487 606 1
620 606 1
623 606 1
326 607 1
327 607 1
352 607 1
355 607 1
481 607 1
488 607 1
621 607 1
624 607 1
327 608 1
328 608 1
353 608 1
356 608 1
482 608 1
489 608 1
622 608 1
625 608 1
328 609 1
329 609 1
354 609 1
357 609 1
483 609 1
490 609 1
623 609 1
626 609 1
329 610 1
330 610 1
355 610 1
358 610 1
477 610 1
484 610 1
624 610 1
627 610 1
330 611 1
331 611 1
356 611 1
359 611 1
478 611 1
485 611 1
625 611 1
628 611 1
331 612 1
332 612 1
357 612 1
360 612 1
479 612 1
486 612 1
626 612 1
629 612 1
332 613 1
333 613 1
358 613 1
361 613 1
480 613 1
487 613 1
627 613 1
630 613 1
333 614 1
334 614 1
359 614 1
362 614 1
481 614 1
488 614 1
617 614 1
628 614 1
334 615 1
335 615 1
360 615 1
363 615 1
482 615 1
489 615 1
618 615 1
629 615 1
335 616 1
336 616 1
361 616 1
364 616 1
483 616 1
490 616 1
619 616 1
630 616 1
337 617 1
350 617 1
351 617 1
363 617 1
491 617 1
498 617 1
631 617 1
634 617 1
337 618 1
338 618 1
352 618 1
364 618 1
492 618 1
499 618 1
632 618 1
635 618 1
338 619 1
339 619 1
351 619 1
353 619 1
493 619 1
500 619 1
633 619 1
636 619 1
339 620 1
340 620 1
352 620 1
354 620 1
494 620 1
501 620 1
634 620 1
637 620 1
340 621 1
341 621 1
353 621 1
355 621 1
495 621 1
502 621 1
635 621 1
638 621 1
341 622 1
342 622 1
354 622 1
356 622 1
496 622 1
503 622 1
636 622 1
639 622 1
342 623 1
343 623 1
355 623 1
357 623 1
497 623 1
504 623 1
637 623 1
640 623 1
343 624 1
344 624 1
356 624 1
358 624 1
491 624 1
498 624 1
638 624 1
641 624 1
344 625 1
345 625 1
357 625 1
359 625 1
492 625 1
499 625 1
639 625 1
642 625 1
345 626 1
346 626 1
358 626 1
360 626 1
493 626 1
500 626 1
640 626 1
643 626 1
346 627 1
347 627 1
359 627 1
361 627 1
494 627 1
501 627 1
641 627 1
644 627 1
347 628 1
348 628 1
360 628 1
362 628 1
495 628 1
502 628 1
631 628 1
642 628 1
348 629 1
349 629 1
361 629 1
363 629 1
496 629 1
503 629 1
632 629 1
643 629 1
349 630 1
350 630 1
362 630 1
364 630 1
497 630 1
504 630 1
633 630 1
644 630 1
365 631 1
376 631 1
379 631 1
389 631 1
421 631 1
430 631 1
645 631 1
648 631 1
366 632 1
377 632 1
380 632 1
390 632 1
422 632 1
431 632 1
646 632 1
649 632 1
367 633 1
378 633 1
381 633 1
391 633 1
423 633 1
432 633 1
647 633 1
650 633 1
365 634 1
368 634 1
382 634 1
392 634 1
424 634 1
433 634 1
648 634 1
651 634 1
366 635 1
369 635 1
379 635 1
383 635 1
425 635 1
434 635 1
649 635 1
652 635 1
367 636 1
370 636 1
380 636 1
384 636 1
421 636 1
426 636 1
650 636 1
653 636 1
368 637 1
371 637 1
381 637 1
385 637 1
422 637 1
427 637 1
651 637 1
654 637 1
369 638 1
372 638 1
382 638 1
386 638 1
423 638 1
428 638 1
652 638 1
655 638 1
370 639 1
373 639 1
383 639 1
387 639 1
424 639 1
429 639 1
653 639 1
656 639 1
371 640 1
374 640 1
384 640 1
388 640 1
425 640 1
430 640 1
654 640 1
657 640 1
372 641 1
375 641 1
385 641 1
389 641 1
426 641 1
431 641 1
655 641 1
658 641 1
373 642 1
376 642 1
386 642 1
390 642 1
427 642 1
432 642 1
645 642 1
656 642 1
374 643 1
377 643 1
387 643 1
391 643 1
428 643 1
433 643 1
646 643 1
657 643 1
375 644 1
378 644 1
388 644 1
392 644 1
429 644 1
434 644 1
647 644 1
658 644 1
365 645 1
377 645 1
393 645 1
403 645 1
435 645 1
444 645 1
659 645 1
662 645 1
366 646 1
378 646 1
394 646 1
404 646 1
436 646 1
445 646 1
660 646 1
663 646 1
365 647 1
367 647 1
395 647 1
405 647 1
437 647 1
446 647 1
661 647 1
664 647 1
366 648 1
368 648 1
396 648 1
406 648 1
438 648 1
447 648 1
662 648 1
665 648 1
367 649 1
369 649 1
393 649 1
397 649 1
439 649 1
448 649 1
663 649 1
666 649 1
368 650 1
370 650 1
394 650 1
398 650 1
435 650 1
440 650 1
664 650 1
667 650 1
369 651 1
371 651 1
395 651 1
399 651 1
436 651 1
441 651 1
665 651 1
668 651 1
370 652 1
372 652 1
396 652 1
400 652 1
437 652 1
442 652 1
666 652 1
669 652 1
371 653 1
373 653 1
397 653 1
401 653 1
438 653 1
443 653 1
667 653 1
670 653 1
372 654 1
374 654 1
398 654 1
402 654 1
439 654 1
444 654 1
668 654 1
671 654 1
373 655 1
375 655 1
399 655 1
403 655 1
440 655 1
445 655 1
669 655 1
672 655 1
374 656 1
376 656 1
400 656 1
404 656 1
441 656 1
446 656 1
659 656 1
670 656 1
375 657 1
377 657 1
401 657 1
405 657 1
442 657 1
447 657 1
660 657 1
671 657 1
376 658 1
378 658 1
402 658 1
406 658 1
443 658 1
448 658 1
661 658 1
672 658 1
365 659 1
378 659 1
407 659 1
417 659 1
449 659 1
458 659 1
673 659 1
676 659 1
365 660 1
366 660 1
408 660 1
418 660 1
450 660 1
459 660 1
674 660 1
677 660 1
366 661 1
367 661 1
409 661 1
419 661 1
451 661 1
460 661 1
675 661 1
678 661 1
367 662 1
368 662 1
410 662 1
420 662 1
452 662 1
461 662 1
676 662 1
679 662 1
368 663 1
369 663 1
407 663 1
411 663 1
453 663 1
462 663 1
677 663 1
680 663 1
369 664 1
370 664 1
408 664 1
412 664 1
449 664 1
454 664 1
678 664 1
681 664 1
370 665 1
371 665 1
409 665 1
413 665 1
450 665 1
455 665 1
679 665 1
682 665 1
371 666 1
372 666 1
410 666 1
414 666 1
451 666 1
456 666 1
680 666 1
683 666 1
372 667 1
373 667 1
411 667 1
415 667 1
452 667 1
457 667 1
681 667 1
684 667 1
373 668 1
374 668 1
412 668 1
416 668 1
453 668 1
458 668 1
682 668 1
685 668 1
374 669 1
375 669 1
413 669 1
417 669 1
454 669 1
459 669 1
683 669 1
686 669 1
375 670 1
376 670 1
414 670 1
418 670 1
455 670 1
460 670 1
673 670 1
684 670 1
376 671 1
377 671 1
415 671 1
419 671 1
456 671 1
461 671 1
674 671 1
685 671 1
377 672 1
378 672 1
416 672 1
420 672 1
457 672 1
462 672 1
675 672 1
686 672 1
379 673 1
391 673 1
393 673 1
404 673 1
463 673 1
472 673 1
687 673 1
690 673 1
380 674 1
392 674 1
394 674 1
405 674 1
464 674 1
473 674 1
688 674 1
691 674 1
379 675 1
381 675 1
395 675 1
406 675 1
465 675 1
474 675 1
689 675 1
692 675 1
380 676 1
382 676 1
393 676 1
396 676 1
466 676 1
475 676 1
690 676 1
693 676 1
381 677 1
383 677 1
394 677 1
397 677 1
467 677 1
476 677 1
691 677 1
694 677 1
382 678 1
384 678 1
395 678 1
398 678 1
463 678 1
468 678 1
692 678 1
695 678 1
383 679 1
385 679 1
396 679 1
399 679 1
464 679 1
469 679 1
693 679 1
696 679 1
384 680 1
386 680 1
397 680 1
400 680 1
465 680 1
470 680 1
694 680 1
697 680 1
385 681 1
387 681 1
398 681 1
401 681 1
466 681 1
471 681 1
695 681 1
698 681 1
386 682 1
388 682 1
399 682 1
402 682 1
467 682 1
472 682 1
696 682 1
699 682 1
387 683 1
389 683 1
400 683 1
403 683 1
468 683 1
473 683 1
697 683 1
700 683 1
388 684 1
390 684 1
401 684 1
404 684 1
469 684 1
474 684 1
687 684 1
698 684 1
389 685 1
391 685 1
402 685 1
405 685 1
470 685 1
475 685 1
688 685 1
699 685 1
390 686 1
392 686 1
403 686 1
406 686 1
471 686 1
476 686 1
689 686 1
700 686 1
379 687 1
392 687 1
407 687 1
418 687 1
477 687 1
486 687 1
701 687 1
704 687 1
379 688 1
380 688 1
408 688 1
419 688 1
478 688 1
487 688 1
702 688 1
705 688 1
380 689 1
381 689 1
409 689 1
420 689 1
479 689 1
488 689 1
703 689 1
706 689 1
381 690 1
382 690 1
407 690 1
410 690 1
480 690 1
489 690 1
704 690 1
707 690 1
382 691 1
383 691 1
408 691 1
411 691 1
481 691 1
490 691 1
705 691 1
708 691 1
383 692 1
384 692 1
409 692 1
412 692 1
477 692 1
482 692 1
706 692 1
709 692 1
384 693 1
385 693 1
410 693 1
413 693 1
478 693 1
483 693 1
707 693 1
710 693 1
385 694 1
386 694 1
411 694 1
414 694 1
479 694 1
484 694 1
708 694 1
711 694 1
386 695 1
387 695 1
412 695 1
415 695 1
480 695 1
485 695 1
709 695 1
712 695 1
387 696 1
388 696 1
413 696 1
416 696 1
481 696 1
486 696 1
710 696 1
713 696 1
388 697 1
389 697 1
414 697 1
417 697 1
482 697 1
487 697 1
711 697 1
714 697 1
389 698 1
390 698 1
415 698 1
418 698 1
483 698 1
488 698 1
701 698 1
712 698 1
390 699 1
391 699 1
416 699 1
419 699 1
484 699 1
489 699 1
702 699 1
713 699 1
391 700 1
392 700 1
417 700 1
420 700 1
485 700 1
490 700 1
703 700 1
714 700 1
393 701 1
406 701 1
407 701 1
419 701 1
491 701 1
500 701 1
715 701 1
718 701 1
393 702 1
394 702 1
408 702 1
420 702 1
492 702 1
501 702 1
716 702 1
719 702 1
394 703 1
395 703 1
407 703 1
409 703 1
493 703 1
502 703 1
717 703 1
720 703 1
395 704 1
396 704 1
408 704 1
410 704 1
494 704 1
503 704 1
718 704 1
721 704 1
396 705 1
397 705 1
409 705 1
411 705 1
495 705 1
504 705 1
719 705 1
722 705 1
397 706 1
398 706 1
410 706 1
412 706 1
491 706 1
496 706 1
720 706 1
723 706 1
398 707 1
399 707 1
411 707 1
413 707 1
492 707 1
497 707 1
721 707 1
724 707 1
399 708 1
400 708 1
412 708 1
414 708 1
493 708 1
498 708 1
722 708 1
725 708 1
400 709 1
401 709 1
413 709 1
415 709 1
494 709 1
499 709 1
723 709 1
726 709 1
401 710 1
402 710 1
414 710 1
416 710 1
495 710 1
500 710 1
724 710 1
727 710 1
402 711 1
403 711 1
415 711 1
417 711 1
496 711 1
501 711 1
725 711 1
728 711 1
403 712 1
404 712 1
416 712 1
418 712 1
497 712 1
502 712 1
715 712 1
726 712 1
404 713 1
405 713 1
417 713 1
419 713 1
498 713 1
503 713 1
716 713 1
727 713 1
405 714 1
406 714 1
418 714 1
420 714 1
499 714 1
504 714 1
717 714 1
728 714 1
421 715 1
433 715 1
435 715 1
446 715 1
463 715 1
473 715 1
729 715 1
732 715 1
422 716 1
434 716 1
436 716 1
447 716 1
464 716 1
474 716 1
730 716 1
733 716 1
421 717 1
423 717 1
437 717 1
448 717 1
465 717 1
475 717 1
731 717 1
734 717 1
422 718 1
424 718 1
435 718 1
438 718 1
466 718 1
476 718 1
732 718 1
735 718 1
423 719 1
425 719 1
436 719 1
439 719 1
463 719 1
467 719 1
733 719 1
736 719 1
424 720 1
426 720 1
437 720 1
440 720 1
464 720 1
468 720 1
734 720 1
737 720 1
425 721 1
427 721 1
438 721 1
441 721 1
465 721 1
469 721 1
735 721 1
738 721 1
426 722 1
428 722 1
439 722 1
442 722 1
466 722 1
470 722 1
736 722 1
739 722 1
427 723 1
429 723 1
440 723 1
443 723 1
467 723 1
471 723 1
737 723 1
740 723 1
428 724 1
430 724 1
441 724 1
444 724 1
468 724 1
472 724 1
738 724 1
741 724 1
429 725 1
431 725 1
442 725 1
445 725 1
469 725 1
473 725 1
739 725 1
742 725 1
430 726 1
432 726 1
443 726 1
446 726 1
470 726 1
474 726 1
729 726 1
740 726 1
431 727 1
433 727 1
444 727 1
447 727 1
471 727 1
475 727 1
730 727 1
741 727 1
432 728 1
434 728 1
445 728 1
448 728 1
472 728 1
476 728 1
731 728 1
742 728 1
421 729 1
434 729 1
449 729 1
460 729 1
477 729 1
487 729 1
743 729 1
746 729 1
421 730 1
422 730 1
450 730 1
461 730 1
478 730 1
488 730 1
744 730 1
747 730 1
422 731 1
423 731 1
451 731 1
462 731 1
479 731 1
489 731 1
745 731 1
748 731 1
423 732 1
424 732 1
449 732 1
452 732 1
480 732 1
490 732 1
746 732 1
749 732 1
424 733 1
425 733 1
450 733 1
453 733 1
477 733 1
481 733 1
747 733 1
750 733 1
425 734 1
426 734 1
451 734 1
454 734 1
478 734 1
482 734 1
748 734 1
751 734 1
426 735 1
427 735 1
452 735 1
455 735 1
479 735 1
483 735 1
749 735 1
752 735 1
427 736 1
428 736 1
453 736 1
456 736 1
480 736 1
484 736 1
750 736 1
753 736 1
428 737 1
429 737 1
454 737 1
457 737 1
481 737 1
485 737 1
751 737 1
754 737 1
429 738 1
430 738 1
455 738 1
458 738 1
482 738 1
486 738 1
752 738 1
755 738 1
430 739 1
431 739 1
456 739 1
459 739 1
483 739 1
487 739 1
753 739 1
756 739 1
431 740 1
432 740 1
457 740 1
460 740 1
484 740 1
488 740 1
743 740 1
754 740 1
432 741 1
433 741 1
458 741 1
461 741 1
485 741 1
489 741 1
744 741 1
755 741 1
433 742 1
434 742 1
459 742 1
462 742 1
486 742 1
490 742 1
745 742 1
756 742 1
435 743 1
448 743 1
449 743 1
461 743 1
491 743 1
501 743 1
757 743 1
760 743 1
435 744 1
436 744 1
450 744 1
462 744 1
492 744 1
502 744 1
758 744 1
761 744 1
436 745 1
437 745 1
449 745 1
451 745 1
493 745 1
503 745 1
759 745 1
762 745 1
437 746 1
438 746 1
450 746 1
452 746 1
494 746 1
504 746 1
760 746 1
763 746 1
438 747 1
439 747 1
451 747 1
453 747 1
491 747 1
495 747 1
761 747 1
764 747 1
439 748 1
440 748 1
452 748 1
454 748 1
492 748 1
496 748 1
762 748 1
765 748 1
440 749 1
441 749 1
453 749 1
455 749 1
493 749 1
497 749 1
763 749 1
766 749 1
441 750 1
442 750 1
454 750 1
456 750 1
494 750 1
498 750 1
764 750 1
767 750 1
442 751 1
443 751 1
455 751 1
457 751 1
495 751 1
499 751 1
765 751 1
768 751 1
443 752 1
444 752 1
456 752 1
458 752 1
496 752 1
500 752 1
766 752 1
769 752 1
444 753 1
445 753 1
457 753 1
459 753 1
497 753 1
501 753 1
767 753 1
770 753 1
445 754 1
446 754 1
458 754 1
460 754 1
498 754 1
502 754 1
757 754 1
768 754 1
446 755 1
447 755 1
459 755 1
461 755 1
499 755 1
503 755 1
758 755 1
769 755 1
447 756 1
448 756 1
460 756 1
462 756 1
500 756 1
504 756 1
759 756 1
770 756 1
463 757 1
476 757 1
477 757 1
489 757 1
491 757 1
502 757 1
771 757 1
774 757 1
463 758 1
464 758 1
478 758 1
490 758 1
492 758 1
503 758 1
772 758 1
775 758 1
464 759 1
465 759 1
477 759 1
479 759 1
493 759 1
504 759 1
773 759 1
776 759 1
465 760 1
466 760 1
478 760 1
480 760 1
491 760 1
494 760 1
774 760 1
777 760 1
466 761 1
467 761 1
479 761 1
481 761 1
492 761 1
495 761 1
775 761 1
778 761 1
467 762 1
468 762 1
480 762 1
482 762 1
493 762 1
496 762 1
776 762 1
779 762 1
468 763 1
469 763 1
481 763 1
483 763 1
494 763 1
497 763 1
777 763 1
780 763 1
469 764 1
470 764 1
482 764 1
484 764 1
495 764 1
498 764 1
778 764 1
781 764 1
470 765 1
471 765 1
483 765 1
485 765 1
496 765 1
499 765 1
779 765 1
782 765 1
471 766 1
472 766 1
484 766 1
486 766 1
497 766 1
500 766 1
780 766 1
783 766 1
472 767 1
473 767 1
485 767 1
487 767 1
498 767 1
501 767 1
781 767 1
784 767 1
473 768 1
474 768 1
486 768 1
488 768 1
499 768 1
502 768 1
771 768 1
782 768 1
474 769 1
475 769 1
487 769 1
489 769 1
500 769 1
503 769 1
772 769 1
783 769 1
475 770 1
476 770 1
488 770 1
490 770 1
501 770 1
504 770 1
773 770 1
784 770 1
505 771 1
516 771 1
519 771 1
529 771 1
561 771 1
570 771 1
645 771 1
652 771 1
506 772 1
517 772 1
520 772 1
530 772 1
562 772 1
571 772 1
646 772 1
653 772 1
507 773 1
518 773 1
521 773 1
531 773 1
563 773 1
572 773 1
647 773 1
654 773 1
505 774 1
508 774 1
522 774 1
532 774 1
564 774 1
573 774 1
648 774 1
655 774 1
506 775 1
509 775 1
519 775 1
523 775 1
565 775 1
574 775 1
649 775 1
656 775 1
507 776 1
510 776 1
520 776 1
524 776 1
561 776 1
566 776 1
650 776 1
657 776 1
508 777 1
511 777 1
521 777 1
525 777 1
562 777 1
567 777 1
651 777 1
658 777 1
509 778 1
512 778 1
522 778 1
526 778 1
563 778 1
568 778 1
645 778 1
652 778 1
510 779 1
513 779 1
523 779 1
527 779 1
564 779 1
569 779 1
646 779 1
653 779 1
511 780 1
514 780 1
524 780 1
528 780 1
565 780 1
570 780 1
647 780 1
654 780 1
512 781 1
515 781 1
525 781 1
529 781 1
566 781 1
571 781 1
648 781 1
655 781 1
513 782 1
516 782 1
526 782 1
530 782 1
567 782 1
572 782 1
649 782 1
656 782 1
514 783 1
517 783 1
527 783 1
531 783 1
568 783 1
573 783 1
650 783 1
657 783 1
515 784 1
518 784 1
528 784 1
532 784 1
569 784 1
574 784 1
651 784 1
658 784 1
505 785 1
517 785 1
533 785 1
543 785 1
575 785 1
584 785 1
659 785 1
666 785 1
506 786 1
518 786 1
534 786 1
544 786 1
576 786 1
585 786 1
660 786 1
667 786 1
505 787 1
507 787 1
535 787 1
545 787 1
577 787 1
586 787 1
661 787 1
668 787 1
506 788 1
508 788 1
536 788 1
546 788 1
578 788 1
587 788 1
662 788 1
669 788 1
507 789 1
509 789 1
533 789 1
537 789 1
579 789 1
588 789 1
663 789 1
670 789 1
508 790 1
510 790 1
534 790 1
538 790 1
575 790 1
580 790 1
664 790 1
671 790 1
509 791 1
511 791 1
535 791 1
539 791 1
576 791 1
581 791 1
665 791 1
672 791 1
510 792 1
512 792 1
536 792 1
540 792 1
577 792 1
582 792 1
659 792 1
666 792 1
511 793 1
513 793 1
537 793 1
541 793 1
578 793 1
583 793 1
660 793 1
667 793 1
512 794 1
514 794 1
538 794 1
542 794 1
579 794 1
584 794 1
661 794 1
668 794 1
513 795 1
515 795 1
539 795 1
543 795 1
580 795 1
585 795 1
662 795 1
669 795 1
514 796 1
516 796 1
540 796 1
544 796 1
581 796 1
586 796 1
663 796 1
670 796 1
515 797 1
517 797 1
541 797 1
545 797 1
582 797 1
587 797 1
664 797 1
671 797 1
516 798 1
518 798 1
542 798 1
546 798 1
583 798 1
588 798 1
665 798 1
672 798 1
505 799 1
518 799 1
547 799 1
557 799 1
589 799 1
598 799 1
673 799 1
680 799 1
505 800 1
506 800 1
548 800 1
558 800 1
590 800 1
599 800 1
674 800 1
681 800 1
506 801 1
507 801 1
549 801 1
559 801 1
591 801 1
600 801 1
675 801 1
682 801 1
507 802 1
508 802 1
550 802 1
560 802 1
592 802 1
601 802 1
676 802 1
683 802 1
508 803 1
509 803 1
547 803 1
551 803 1
593 803 1
602 803 1
677 803 1
684 803 1
509 804 1
510 804 1
548 804 1
552 804 1
589 804 1
594 804 1
678 804 1
685 804 1
510 805 1
511 805 1
549 805 1
553 805 1
590 805 1
595 805 1
679 805 1
686 805 1
511 806 1
512 806 1
550 806 1
554 806 1
591 806 1
596 806 1
673 806 1
680 806 1
512 807 1
513 807 1
551 807 1
555 807 1
592 807 1
597 807 1
674 807 1
681 807 1
513 808 1
514 808 1
552 808 1
556 808 1
593 808 1
598 808 1
675 808 1
682 808 1
514 809 1
515 809 1
553 809 1
557 809 1
594 809 1
599 809 1
676 809 1
683 809 1
515 810 1
516 810 1
554 810 1
558 810 1
595 810 1
600 810 1
677 810 1
684 810 1
516 811 1
517 811 1
555 811 1
559 811 1
596 811 1
601 811 1
678 811 1
685 811 1
517 812 1
518 812 1
556 812 1
560 812 1
597 812 1
602 812 1
679 812 1
686 812 1
519 813 1
531 813 1
533 813 1
544 813 1
603 813 1
612 813 1
687 813 1
694 813 1
520 814 1
532 814 1
534 814 1
545 814 1
604 814 1
613 814 1
688 814 1
695 814 1
519 815 1
521 815 1
535 815 1
546 815 1
605 815 1
614 815 1
689 815 1
696 815 1
520 816 1
522 816 1
533 816 1
536 816 1
606 816 1
615 816 1
690 816 1
697 816 1
521 817 1
523 817 1
534 817 1
537 817 1
607 817 1
616 817 1
691 817 1
698 817 1
522 818 1
524 818 1
535 818 1
538 818 1
603 818 1
608 818 1
692 818 1
699 818 1
523 819 1
525 819 1
536 819 1
539 819 1
604 819 1
609 819 1
693 819 1
700 819 1
524 820 1
526 820 1
537 820 1
540 820 1
605 820 1
610 820 1
687 820 1
694 820 1
525 821 1
527 821 1
538 821 1
541 821 1
606 821 1
611 821 1
688 821 1
695 821 1
526 822 1
528 822 1
539 822 1
542 822 1
607 822 1
612 822 1
689 822 1
696 822 1
527 823 1
529 823 1
540 823 1
543 823 1
608 823 1
613 823 1
690 823 1
697 823 1
528 824 1
530 824 1
541 824 1
544 824 1
609 824 1
614 824 1
691 824 1
698 824 1
529 825 1
531 825 1
542 825 1
545 825 1
610 825 1
615 825 1
692 825 1
699 825 1
530 826 1
532 826 1
543 826 1
546 826 1
611 826 1
616 826 1
693 826 1
700 826 1
519 827 1
532 827 1
547 827 1
558 827 1
617 827 1
626 827 1
701 827 1
708 827 1
519 828 1
520 828 1
548 828 1
559 828 1
618 828 1
627 828 1
702 828 1
709 828 1
520 829 1
521 829 1
549 829 1
560 829 1
619 829 1
628 829 1
703 829 1
710 829 1
521 830 1
522 830 1
547 830 1
550 830 1
620 830 1
629 830 1
704 830 1
711 830 1
522 831 1
523 831 1
548 831 1
551 831 1
621 831 1
630 831 1
705 831 1
712 831 1
523 832 1
524 832 1
549 832 1
552 832 1
617 832 1
622 832 1
706 832 1
713 832 1
524 833 1
525 833 1
550 833 1
553 833 1
618 833 1
623 833 1
707 833 1
714 833 1
525 834 1
526 834 1
551 834 1
554 834 1
619 834 1
624 834 1
701 834 1
708 834 1
526 835 1
527 835 1
552 835 1
555 835 1
620 835 1
625 835 1
702 835 1
709 835 1
527 836 1
528 836 1
553 836 1
556 836 1
621 836 1
626 836 1
703 836 1
710 836 1
528 837 1
529 837 1
554 837 1
557 837 1
622 837 1
627 837 1
704 837 1
711 837 1
529 838 1
530 838 1
555 838 1
558 838 1
623 838 1
628 838 1
705 838 1
712 838 1
530 839 1
531 839 1
556 839 1
559 839 1
624 839 1
629 839 1
706 839 1
713 839 1
531 840 1
532 840 1
557 840 1
560 840 1
625 840 1
630 840 1
707 840 1
714 840 1
533 841 1
546 841 1
547 841 1
559 841 1
631 841 1
640 841 1
715 841 1
722 841 1
533 842 1
534 842 1
548 842 1
560 842 1
632 842 1
641 842 1
716 842 1
723 842 1
534 843 1
535 843 1
547 843 1
549 843 1
633 843 1
642 843 1
717 843 1
724 843 1
535 844 1
536 844 1
548 844 1
550 844 1
634 844 1
643 844 1
718 844 1
725 844 1
536 845 1
537 845 1
549 845 1
551 845 1
635 845 1
644 845 1
719 845 1
726 845 1
537 846 1
538 846 1
550 846 1
552 846 1
631 846 1
636 846 1
720 846 1
727 846 1
538 847 1
539 847 1
551 847 1
553 847 1
632 847 1
637 847 1
721 847 1
728 847 1
539 848 1
540 848 1
552 848 1
554 848 1
633 848 1
638 848 1
715 848 1
722 848 1
540 849 1
541 849 1
553 849 1
555 849 1
634 849 1
639 849 1
716 849 1
723 849 1
541 850 1
542 850 1
554 850 1
556 850 1
635 850 1
640 850 1
717 850 1
724 850 1
542 851 1
543 851 1
555 851 1
557 851 1
636 851 1
641 851 1
718 851 1
725 851 1
543 852 1
544 852 1
556 852 1
558 852 1
637 852 1
642 852 1
719 852 1
726 852 1
544 853 1
545 853 1
557 853 1
559 853 1
638 853 1
643 853 1
720 853 1
727 853 1
545 854 1
546 854 1
558 854 1
560 854 1
639 854 1
644 854 1
721 854 1
728 854 1
561 855 1
573 855 1
575 855 1
586 855 1
603 855 1
613 855 1
729 855 1
736 855 1
562 856 1
574 856 1
576 856 1
587 856 1
604 856 1
614 856 1
730 856 1
737 856 1
561 857 1
563 857 1
577 857 1
588 857 1
605 857 1
615 857 1
731 857 1
738 857 1
562 858 1
564 858 1
575 858 1
578 858 1
606 858 1
616 858 1
732 858 1
739 858 1
563 859 1
565 859 1
576 859 1
579 859 1
603 859 1
607 859 1
733 859 1
740 859 1
564 860 1
566 860 1
577 860 1
580 860 1
604 860 1
608 860 1
734 860 1
741 860 1
565 861 1
567 861 1
578 861 1
581 861 1
605 861 1
609 861 1
735 861 1
742 861 1
566 862 1
568 862 1
579 862 1
582 862 1
606 862 1
610 862 1
729 862 1
736 862 1
567 863 1
569 863 1
580 863 1
583 863 1
607 863 1
611 863 1
730 863 1
737 863 1
568 864 1
570 864 1
581 864 1
584 864 1
608 864 1
612 864 1
731 864 1
738 864 1
569 865 1
571 865 1
582 865 1
585 865 1
609 865 1
613 865 1
732 865 1
739 865 1
570 866 1
572 866 1
583 866 1
586 866 1
610 866 1
614 866 1
733 866 1
740 866 1
571 867 1
573 867 1
584 867 1
587 867 1
611 867 1
615 867 1
734 867 1
741 867 1
572 868 1
574 868 1
585 868 1
588 868 1
612 868 1
616 868 1
735 868 1
742 868 1
561 869 1
574 869 1
589 869 1
600 869 1
617 869 1
627 869 1
743 869 1
750 869 1
561 870 1
562 870 1
590 870 1
601 870 1
618 870 1
628 870 1
744 870 1
751 870 1
562 871 1
563 871 1
591 871 1
602 871 1
619 871 1
629 871 1
745 871 1
752 871 1
563 872 1
564 872 1
589 872 1
592 872 1
620 872 1
630 872 1
746 872 1
753 872 1
564 873 1
565 873 1
590 873 1
593 873 1
617 873 1
621 873 1
747 873 1
754 873 1
565 874 1
566 874 1
591 874 1
594 874 1
618 874 1
622 874 1
748 874 1
755 874 1
566 875 1
567 875 1
592 875 1
595 875 1
619 875 1
623 875 1
749 875 1
756 875 1
567 876 1
568 876 1
593 876 1
596 876 1
620 876 1
624 876 1
743 876 1
750 876 1
568 877 1
569 877 1
594 877 1
597 877 1
621 877 1
625 877 1
744 877 1
751 877 1
569 878 1
570 878 1
595 878 1
598 878 1
622 878 1
626 878 1
745 878 1
752 878 1
570 879 1
571 879 1
596 879 1
599 879 1
623 879 1
627 879 1
746 879 1
753 879 1
571 880 1
572 880 1
597 880 1
600 880 1
624 880 1
628 880 1
747 880 1
754 880 1
572 881 1
573 881 1
598 881 1
601 881 1
625 881 1
629 881 1
748 881 1
755 881 1
573 882 1
574 882 1
599 882 1
602 882 1
626 882 1
630 882 1
749 882 1
756 882 1
575 883 1
588 883 1
589 883 1
601 883 1
631 883 1
641 883 1
757 883 1
764 883 1
575 884 1
576 884 1
590 884 1
602 884 1
632 884 1
642 884 1
758 884 1
765 884 1
576 885 1
577 885 1
589 885 1
591 885 1
633 885 1
643 885 1
759 885 1
766 885 1
577 886 1
578 886 1
590 886 1
592 886 1
634 886 1
644 886 1
760 886 1
767 886 1
578 887 1
579 887 1
591 887 1
593 887 1
631 887 1
635 887 1
761 887 1
768 887 1
579 888 1
580 888 1
592 888 1
594 888 1
632 888 1
636 888 1
762 888 1
769 888 1
580 889 1
581 889 1
593 889 1
595 889 1
633 889 1
637 889 1
763 889 1
770 889 1
581 890 1
582 890 1
594 890 1
596 890 1
634 890 1
638 890 1
757 890 1
764 890 1
582 891 1
583 891 1
595 891 1
597 891 1
635 891 1
639 891 1
758 891 1
765 891 1
583 892 1
584 892 1
596 892 1
598 892 1
636 892 1
640 892 1
759 892 1
766 892 1
584 893 1
585 893 1
597 893 1
599 893 1
637 893 1
641 893 1
760 893 1
767 893 1
585 894 1
586 894 1
598 894 1
600 894 1
638 894 1
642 894 1
761 894 1
768 894 1
586 895 1
587 895 1
599 895 1
601 895 1
639 895 1
643 895 1
762 895 1
769 895 1
587 896 1
588 896 1
600 896 1
602 896 1
640 896 1
644 896 1
763 896 1
770 896 1
603 897 1
616 897 1
617 897 1
629 897 1
631 897 1
642 897 1
771 897 1
778 897 1
603 898 1
604 898 1
618 898 1
630 898 1
632 898 1
643 898 1
772 898 1
779 898 1
604 899 1
605 899 1
617 899 1
619 899 1
633 899 1
644 899 1
773 899 1
780 899 1
605 900 1
606 900 1
618 900 1
620 900 1
631 900 1
634 900 1
774 900 1
781 900 1
606 901 1
607 901 1
619 901 1
621 901 1
632 901 1
635 901 1
775 901 1
782 901 1
607 902 1
608 902 1
620 902 1
622 902 1
633 902 1
636 902 1
776 902 1
783 902 1
608 903 1
609 903 1
621 903 1
623 903 1
634 903 1
637 903 1
777 903 1
784 903 1
609 904 1
610 904 1
622 904 1
624 904 1
635 904 1
638 904 1
771 904 1
778 904 1
610 905 1
611 905 1
623 905 1
625 905 1
636 905 1
639 905 1
772 905 1
779 905 1
611 906 1
612 906 1
624 906 1
626 906 1
637 906 1
640 906 1
773 906 1
780 906 1
612 907 1
613 907 1
625 907 1
627 907 1
638 907 1
641 907 1
774 907 1
781 907 1
613 908 1
614 908 1
626 908 1
628 908 1
639 908 1
642 908 1
775 908 1
782 908 1
614 909 1
615 909 1
627 909 1
629 909 1
640 909 1
643 909 1
776 909 1
783 909 1
615 910 1
616 910 1
628 910 1
630 910 1
641 910 1
644 910 1
777 910 1
784 910 1
645 911 1
657 911 1
659 911 1
670 911 1
687 911 1
697 911 1
729 911 1
738 911 1
646 912 1
658 912 1
660 912 1
671 912 1
688 912 1
698 912 1
730 912 1
739 912 1
645 913 1
647 913 1
661 913 1
672 913 1
689 913 1
699 913 1
731 913 1
740 913 1
646 914 1
648 914 1
659 914 1
662 914 1
690 914 1
700 914 1
732 914 1
741 914 1
647 915 1
649 915 1
660 915 1
663 915 1
687 915 1
691 915 1
733 915 1
742 915 1
648 916 1
650 916 1
661 916 1
664 916 1
688 916 1
692 916 1
729 916 1
734 916 1
649 917 1
651 917 1
662 917 1
665 917 1
689 917 1
693 917 1
730 917 1
735 917 1
650 918 1
652 918 1
663 918 1
666 918 1
690 918 1
694 918 1
731 918 1
736 918 1
651 919 1
653 919 1
664 919 1
667 919 1
691 919 1
695 919 1
732 919 1
737 919 1
652 920 1
654 920 1
665 920 1
668 920 1
692 920 1
696 920 1
733 920 1
738 920 1
653 921 1
655 921 1
666 921 1
669 921 1
693 921 1
697 921 1
734 921 1
739 921 1
654 922 1
656 922 1
667 922 1
670 922 1
694 922 1
698 922 1
735 922 1
740 922 1
655 923 1
657 923 1
668 923 1
671 923 1
695 923 1
699 923 1
736 923 1
741 923 1
656 924 1
658 924 1
669 924 1
672 924 1
696 924 1
700 924 1
737 924 1
742 924 1
645 925 1
658 925 1
673 925 1
684 925 1
701 925 1
711 925 1
743 925 1
752 925 1
645 926 1
646 926 1
674 926 1
685 926 1
702 926 1
712 926 1
744 926 1
753 926 1
646 927 1
647 927 1
675 927 1
686 927 1
703 927 1
713 927 1
745 927 1
754 927 1
647 928 1
648 928 1
673 928 1
676 928 1
704 928 1
714 928 1
746 928 1
755 928 1
648 929 1
649 929 1
674 929 1
677 929 1
701 929 1
705 929 1
747 929 1
756 929 1
649 930 1
650 930 1
675 930 1
678 930 1
702 930 1
706 930 1
743 930 1
748 930 1
650 931 1
651 931 1
676 931 1
679 931 1
703 931 1
707 931 1
744 931 1
749 931 1
651 932 1
652 932 1
677 932 1
680 932 1
704 932 1
708 932 1
745 932 1
750 932 1
652 933 1
653 933 1
678 933 1
681 933 1
705 933 1
709 933 1
746 933 1
751 933 1
653 934 1
654 934 1
679 934 1
682 934 1
706 934 1
710 934 1
747 934 1
752 934 1
654 935 1
655 935 1
680 935 1
683 935 1
707 935 1
711 935 1
748 935 1
753 935 1
655 936 1
656 936 1
681 936 1
684 936 1
708 936 1
712 936 1
749 936 1
754 936 1
656 937 1
657 937 1
682 937 1
685 937 1
709 937 1
713 937 1
750 937 1
755 937 1
657 938 1
658 938 1
683 938 1
686 938 1
710 938 1
714 938 1
751 938 1
756 938 1
659 939 1
672 939 1
673 939 1
685 939 1
715 939 1
725 939 1
757 939 1
766 939 1
659 940 1
660 940 1
674 940 1
686 940 1
716 940 1
726 940 1
758 940 1
767 940 1
660 941 1
661 941 1
673 941 1
675 941 1
717 941 1
727 941 1
759 941 1
768 941 1
661 942 1
662 942 1
674 942 1
676 942 1
718 942 1
728 942 1
760 942 1
769 942 1
662 943 1
663 943 1
675 943 1
677 943 1
715 943 1
719 943 1
761 943 1
770 943 1
663 944 1
664 944 1
676 944 1
678 944 1
716 944 1
720 944 1
757 944 1
762 944 1
664 945 1
665 945 1
677 945 1
679 945 1
717 945 1
721 945 1
758 945 1
763 945 1
665 946 1
666 946 1
678 946 1
680 946 1
718 946 1
722 946 1
759 946 1
764 946 1
666 947 1
667 947 1
679 947 1
681 947 1
719 947 1
723 947 1
760 947 1
765 947 1
667 948 1
668 948 1
680 948 1
682 948 1
720 948 1
724 948 1
761 948 1
766 948 1
668 949 1
669 949 1
681 949 1
683 949 1
721 949 1
725 949 1
762 949 1
767 949 1
669 950 1
670 950 1
682 950 1
684 950 1
722 950 1
726 950 1
763 950 1
768 950 1
670 951 1
671 951 1
683 951 1
685 951 1
723 951 1
727 951 1
764 951 1
769 951 1
671 952 1
672 952 1
684 952 1
686 952 1
724 952 1
728 952 1
765 952 1
770 952 1
687 953 1
700 953 1
701 953 1
713 953 1
715 953 1
726 953 1
771 953 1
780 953 1
687 954 1
688 954 1
702 954 1
714 954 1
716 954 1
727 954 1
772 954 1
781 954 1
688 955 1
689 955 1
701 955 1
703 955 1
717 955 1
728 955 1
773 955 1
782 955 1
689 956 1
690 956 1
702 956 1
704 956 1
715 956 1
718 956 1
774 956 1
783 956 1
690 957 1
691 957 1
703 957 1
705 957 1
716 957 1
719 957 1
775 957 1
784 957 1
691 958 1
692 958 1
704 958 1
706 958 1
717 958 1
720 958 1
771 958 1
776 958 1
692 959 1
693 959 1
705 959 1
707 959 1
718 959 1
721 959 1
772 959 1
777 959 1
693 960 1
694 960 1
706 960 1
708 960 1
719 960 1
722 960 1
773 960 1
778 960 1
694 961 1
695 961 1
707 961 1
709 961 1
720 961 1
723 961 1
774 961 1
779 961 1
695 962 1
696 962 1
708 962 1
710 962 1
721 962 1
724 962 1
775 962 1
780 962 1
696 963 1
697 963 1
709 963 1
711 963 1
722 963 1
725 963 1
776 963 1
781 963 1
697 964 1
698 964 1
710 964 1
712 964 1
723 964 1
726 964 1
777 964 1
782 964 1
698 965 1
699 965 1
711 965 1
713 965 1
724 965 1
727 965 1
778 965 1
783 965 1
699 966 1
700 966 1
712 966 1
714 966 1
725 966 1
728 966 1
779 966 1
784 966 1
729 967 1
742 967 1
743 967 1
755 967 1
757 967 1
768 967 1
771 967 1
781 967 1
729 968 1
730 968 1
744 968 1
756 968 1
758 968 1
769 968 1
772 968 1
782 968 1
730 969 1
731 969 1
743 969 1
745 969 1
759 969 1
770 969 1
773 969 1
783 969 1
731 970 1
732 970 1
744 970 1
746 970 1
757 970 1
760 970 1
774 970 1
784 970 1
732 971 1
733 971 1
745 971 1
747 971 1
758 971 1
761 971 1
771 971 1
775 971 1
733 972 1
734 972 1
746 972 1
748 972 1
759 972 1
762 972 1
772 972 1
776 972 1
734 973 1
735 973 1
747 973 1
749 973 1
760 973 1
763 973 1
773 973 1
777 973 1
735 974 1
736 974 1
748 974 1
750 974 1
761 974 1
764 974 1
774 974 1
778 974 1
736 975 1
737 975 1
749 975 1
751 975 1
762 975 1
765 975 1
775 975 1
779 975 1
737 976 1
738 976 1
750 976 1
752 976 1
763 976 1
766 976 1
776 976 1
780 976 1
738 977 1
739 977 1
751 977 1
753 977 1
764 977 1
767 977 1
777 977 1
781 977 1
739 978 1
740 978 1
752 978 1
754 978 1
765 978 1
768 978 1
778 978 1
782 978 1
740 979 1
741 979 1
753 979 1
755 979 1
766 979 1
769 979 1
779 979 1
783 979 1
741 980 1
742 980 1
754 980 1
756 980 1
767 980 1
770 980 1
780 980 1
784 980 1
