%%MatrixMarket matrix coordinate integer general
% Binary matrix; one-based indices; arithmetic over GF(2)
192 288 1152
3 1 1
22 1 1
73 1 1
93 1 1
4 2 1
23 2 1
74 2 1
94 2 1
1 3 1
24 3 1
75 3 1
95 3 1
2 4 1
21 4 1
76 4 1
96 4 1
7 5 1
14 5 1
77 5 1
85 5 1
8 6 1
15 6 1
78 6 1
86 6 1
5 7 1
16 7 1
79 7 1
87 7 1
6 8 1
13 8 1
80 8 1
88 8 1
11 9 1
18 9 1
81 9 1
89 9 1
12 10 1
19 10 1
82 10 1
90 10 1
9 11 1
20 11 1
83 11 1
91 11 1
10 12 1
17 12 1
84 12 1
92 12 1
10 13 1
15 13 1
81 13 1
85 13 1
11 14 1
16 14 1
82 14 1
86 14 1
12 15 1
13 15 1
83 15 1
87 15 1
9 16 1
14 16 1
84 16 1
88 16 1
2 17 1
19 17 1
73 17 1
89 17 1
3 18 1
20 18 1
74 18 1
90 18 1
4 19 1
17 19 1
75 19 1
91 19 1
1 20 1
18 20 1
76 20 1
92 20 1
6 21 1
23 21 1
77 21 1
93 21 1
7 22 1
24 22 1
78 22 1
94 22 1
8 23 1
21 23 1
79 23 1
95 23 1
5 24 1
22 24 1
80 24 1
96 24 1
27 25 1
46 25 1
49 25 1
69 25 1
28 26 1
47 26 1
50 26 1
70 26 1
25 27 1
48 27 1
51 27 1
71 27 1
26 28 1
45 28 1
52 28 1
72 28 1
31 29 1
38 29 1
53 29 1
61 29 1
32 30 1
39 30 1
54 30 1
62 30 1
29 31 1
40 31 1
55 31 1
63 31 1
30 32 1
37 32 1
56 32 1
64 32 1
35 33 1
42 33 1
57 33 1
65 33 1
36 34 1
43 34 1
58 34 1
66 34 1
33 35 1
44 35 1
59 35 1
67 35 1
34 36 1
41 36 1
60 36 1
68 36 1
34 37 1
39 37 1
57 37 1
61 37 1
35 38 1
40 38 1
58 38 1
62 38 1
36 39 1
37 39 1
59 39 1
63 39 1
33 40 1
38 40 1
60 40 1
64 40 1
26 41 1
43 41 1
49 41 1
65 41 1
27 42 1
44 42 1
50 42 1
66 42 1
28 43 1
41 43 1
51 43 1
67 43 1
25 44 1
42 44 1
52 44 1
68 44 1
30 45 1
47 45 1
53 45 1
69 45 1
31 46 1
48 46 1
54 46 1
70 46 1
32 47 1
45 47 1
55 47 1
71 47 1
29 48 1
46 48 1
56 48 1
72 48 1
29 49 1
39 49 1
121 49 1
141 49 1
30 50 1
40 50 1
122 50 1
142 50 1
31 51 1
37 51 1
123 51 1
143 51 1
32 52 1
38 52 1
124 52 1
144 52 1
33 53 1
43 53 1
125 53 1
133 53 1
34 54 1
44 54 1
126 54 1
134 54 1
35 55 1
41 55 1
127 55 1
135 55 1
36 56 1
42 56 1
128 56 1
136 56 1
25 57 1
47 57 1
129 57 1
137 57 1
26 58 1
48 58 1
130 58 1
138 58 1
27 59 1
45 59 1
131 59 1
139 59 1
28 60 1
46 60 1
132 60 1
140 60 1
27 61 1
41 61 1
129 61 1
133 61 1
28 62 1
42 62 1
130 62 1
134 62 1
25 63 1
43 63 1
131 63 1
135 63 1
26 64 1
44 64 1
132 64 1
136 64 1
31 65 1
45 65 1
121 65 1
137 65 1
32 66 1
46 66 1
122 66 1
138 66 1
29 67 1
47 67 1
123 67 1
139 67 1
30 68 1
48 68 1
124 68 1
140 68 1
35 69 1
37 69 1
125 69 1
141 69 1
36 70 1
38 70 1
126 70 1
142 70 1
33 71 1
39 71 1
127 71 1
143 71 1
34 72 1
40 72 1
128 72 1
144 72 1
5 73 1
15 73 1
97 73 1
117 73 1
6 74 1
16 74 1
98 74 1
118 74 1
7 75 1
13 75 1
99 75 1
119 75 1
8 76 1
14 76 1
100 76 1
120 76 1
9 77 1
19 77 1
101 77 1
109 77 1
10 78 1
20 78 1
102 78 1
110 78 1
11 79 1
17 79 1
103 79 1
111 79 1
12 80 1
18 80 1
104 80 1
112 80 1
1 81 1
23 81 1
105 81 1
113 81 1
2 82 1
24 82 1
106 82 1
114 82 1
3 83 1
21 83 1
107 83 1
115 83 1
4 84 1
22 84 1
108 84 1
116 84 1
3 85 1
17 85 1
105 85 1
109 85 1
4 86 1
18 86 1
106 86 1
110 86 1
1 87 1
19 87 1
107 87 1
111 87 1
2 88 1
20 88 1
108 88 1
112 88 1
7 89 1
21 89 1
97 89 1
113 89 1
8 90 1
22 90 1
98 90 1
114 90 1
5 91 1
23 91 1
99 91 1
115 91 1
6 92 1
24 92 1
100 92 1
116 92 1
11 93 1
13 93 1
101 93 1
117 93 1
12 94 1
14 94 1
102 94 1
118 94 1
9 95 1
15 95 1
103 95 1
119 95 1
10 96 1
16 96 1
104 96 1
120 96 1
77 97 1
87 97 1
99 97 1
118 97 1
78 98 1
88 98 1
100 98 1
119 98 1
79 99 1
85 99 1
97 99 1
120 99 1
80 100 1
86 100 1
98 100 1
117 100 1
81 101 1
91 101 1
103 101 1
110 101 1
82 102 1
92 102 1
104 102 1
111 102 1
83 103 1
89 103 1
101 103 1
112 103 1
84 104 1
90 104 1
102 104 1
109 104 1
73 105 1
95 105 1
107 105 1
114 105 1
74 106 1
96 106 1
108 106 1
115 106 1
75 107 1
93 107 1
105 107 1
116 107 1
76 108 1
94 108 1
106 108 1
113 108 1
75 109 1
89 109 1
106 109 1
111 109 1
76 110 1
90 110 1
107 110 1
112 110 1
73 111 1
91 111 1
108 111 1
109 111 1
74 112 1
92 112 1
105 112 1
110 112 1
79 113 1
93 113 1
98 113 1
115 113 1
80 114 1
94 114 1
99 114 1
116 114 1
77 115 1
95 115 1
100 115 1
113 115 1
78 116 1
96 116 1
97 116 1
114 116 1
83 117 1
85 117 1
102 117 1
119 117 1
84 118 1
86 118 1
103 118 1
120 118 1
81 119 1
87 119 1
104 119 1
117 119 1
82 120 1
88 120 1
101 120 1
118 120 1
53 121 1
63 121 1
123 121 1
142 121 1
54 122 1
64 122 1
124 122 1
143 122 1
55 123 1
61 123 1
121 123 1
144 123 1
56 124 1
62 124 1
122 124 1
141 124 1
57 125 1
67 125 1
127 125 1
134 125 1
58 126 1
68 126 1
128 126 1
135 126 1
59 127 1
65 127 1
125 127 1
136 127 1
60 128 1
66 128 1
126 128 1
133 128 1
49 129 1
71 129 1
131 129 1
138 129 1
50 130 1
72 130 1
132 130 1
139 130 1
51 131 1
69 131 1
129 131 1
140 131 1
52 132 1
70 132 1
130 132 1
137 132 1
51 133 1
65 133 1
130 133 1
135 133 1
52 134 1
66 134 1
131 134 1
136 134 1
49 135 1
67 135 1
132 135 1
133 135 1
50 136 1
68 136 1
129 136 1
134 136 1
55 137 1
69 137 1
122 137 1
139 137 1
56 138 1
70 138 1
123 138 1
140 138 1
53 139 1
71 139 1
124 139 1
137 139 1
54 140 1
72 140 1
121 140 1
138 140 1
59 141 1
61 141 1
126 141 1
143 141 1
60 142 1
62 142 1
127 142 1
144 142 1
57 143 1
63 143 1
128 143 1
141 143 1
58 144 1
64 144 1
125 144 1
142 144 1
15 145 1
45 145 1
169 145 1
189 145 1
16 146 1
46 146 1
170 146 1
190 146 1
13 147 1
47 147 1
171 147 1
191 147 1
14 148 1
48 148 1
172 148 1
192 148 1
19 149 1
37 149 1
173 149 1
181 149 1
20 150 1
38 150 1
174 150 1
182 150 1
17 151 1
39 151 1
175 151 1
183 151 1
18 152 1
40 152 1
176 152 1
184 152 1
23 153 1
41 153 1
177 153 1
185 153 1
24 154 1
42 154 1
178 154 1
186 154 1
21 155 1
43 155 1
179 155 1
187 155 1
22 156 1
44 156 1
180 156 1
188 156 1
3 157 1
33 157 1
177 157 1
181 157 1
4 158 1
34 158 1
178 158 1
182 158 1
1 159 1
35 159 1
179 159 1
183 159 1
2 160 1
36 160 1
180 160 1
184 160 1
7 161 1
25 161 1
169 161 1
185 161 1
8 162 1
26 162 1
170 162 1
186 162 1
5 163 1
27 163 1
171 163 1
187 163 1
6 164 1
28 164 1
172 164 1
188 164 1
11 165 1
29 165 1
173 165 1
189 165 1
12 166 1
30 166 1
174 166 1
190 166 1
9 167 1
31 167 1
175 167 1
191 167 1
10 168 1
32 168 1
176 168 1
192 168 1
21 169 1
39 169 1
145 169 1
165 169 1
22 170 1
40 170 1
146 170 1
166 170 1
23 171 1
37 171 1
147 171 1
167 171 1
24 172 1
38 172 1
148 172 1
168 172 1
13 173 1
43 173 1
149 173 1
157 173 1
14 174 1
44 174 1
150 174 1
158 174 1
15 175 1
41 175 1
151 175 1
159 175 1
16 176 1
42 176 1
152 176 1
160 176 1
17 177 1
47 177 1
153 177 1
161 177 1
18 178 1
48 178 1
154 178 1
162 178 1
19 179 1
45 179 1
155 179 1
163 179 1
20 180 1
46 180 1
156 180 1
164 180 1
9 181 1
27 181 1
153 181 1
157 181 1
10 182 1
28 182 1
154 182 1
158 182 1
11 183 1
25 183 1
155 183 1
159 183 1
12 184 1
26 184 1
156 184 1
160 184 1
1 185 1
31 185 1
145 185 1
161 185 1
2 186 1
32 186 1
146 186 1
162 186 1
3 187 1
29 187 1
147 187 1
163 187 1
4 188 1
30 188 1
148 188 1
164 188 1
5 189 1
35 189 1
149 189 1
165 189 1
6 190 1
36 190 1
150 190 1
166 190 1
7 191 1
33 191 1
151 191 1
167 191 1
8 192 1
34 192 1
152 192 1
168 192 1
63 193 1
93 193 1
147 193 1
166 193 1
64 194 1
94 194 1
148 194 1
167 194 1
61 195 1
95 195 1
145 195 1
168 195 1
62 196 1
96 196 1
146 196 1
165 196 1
67 197 1
85 197 1
151 197 1
158 197 1
68 198 1
86 198 1
152 198 1
159 198 1
65 199 1
87 199 1
149 199 1
160 199 1
66 200 1
88 200 1
150 200 1
157 200 1
71 201 1
89 201 1
155 201 1
162 201 1
72 202 1
90 202 1
156 202 1
163 202 1
69 203 1
91 203 1
153 203 1
164 203 1
70 204 1
92 204 1
154 204 1
161 204 1
51 205 1
81 205 1
154 205 1
159 205 1
52 206 1
82 206 1
155 206 1
160 206 1
49 207 1
83 207 1
156 207 1
157 207 1
50 208 1
84 208 1
153 208 1
158 208 1
55 209 1
73 209 1
146 209 1
163 209 1
56 210 1
74 210 1
147 210 1
164 210 1
53 211 1
75 211 1
148 211 1
161 211 1
54 212 1
76 212 1
145 212 1
162 212 1
59 213 1
77 213 1
150 213 1
167 213 1
60 214 1
78 214 1
151 214 1
168 214 1
57 215 1
79 215 1
152 215 1
165 215 1
58 216 1
80 216 1
149 216 1
166 216 1
69 217 1
87 217 1
171 217 1
190 217 1
70 218 1
88 218 1
172 218 1
191 218 1
71 219 1
85 219 1
169 219 1
192 219 1
72 220 1
86 220 1
170 220 1
189 220 1
61 221 1
91 221 1
175 221 1
182 221 1
62 222 1
92 222 1
176 222 1
183 222 1
63 223 1
89 223 1
173 223 1
184 223 1
64 224 1
90 224 1
174 224 1
181 224 1
65 225 1
95 225 1
179 225 1
186 225 1
66 226 1
96 226 1
180 226 1
187 226 1
67 227 1
93 227 1
177 227 1
188 227 1
68 228 1
94 228 1
178 228 1
185 228 1
57 229 1
75 229 1
178 229 1
183 229 1
58 230 1
76 230 1
179 230 1
184 230 1
59 231 1
73 231 1
180 231 1
181 231 1
60 232 1
74 232 1
177 232 1
182 232 1
49 233 1
79 233 1
170 233 1
187 233 1
50 234 1
80 234 1
171 234 1
188 234 1
51 235 1
77 235 1
172 235 1
185 235 1
52 236 1
78 236 1
169 236 1
186 236 1
53 237 1
83 237 1
174 237 1
191 237 1
54 238 1
84 238 1
175 238 1
192 238 1
55 239 1
81 239 1
176 239 1
189 239 1
56 240 1
82 240 1
173 240 1
190 240 1
111 241 1
141 241 1
173 241 1
183 241 1
112 242 1
142 242 1
174 242 1
184 242 1
109 243 1
143 243 1
175 243 1
181 243 1
110 244 1
144 244 1
176 244 1
182 244 1
115 245 1
133 245 1
177 245 1
187 245 1
116 246 1
134 246 1
178 246 1
188 246 1
113 247 1
135 247 1
179 247 1
185 247 1
114 248 1
136 248 1
180 248 1
186 248 1
119 249 1
137 249 1
169 249 1
191 249 1
120 250 1
138 250 1
170 250 1
192 250 1
117 251 1
139 251 1
171 251 1
189 251 1
118 252 1
140 252 1
172 252 1
190 252 1
99 253 1
129 253 1
171 253 1
185 253 1
100 254 1
130 254 1
172 254 1
186 254 1
97 255 1
131 255 1
169 255 1
187 255 1
98 256 1
132 256 1
170 256 1
188 256 1
103 257 1
121 257 1
175 257 1
189 257 1
104 258 1
122 258 1
176 258 1
190 258 1
101 259 1
123 259 1
173 259 1
191 259 1
102 260 1
124 260 1
174 260 1
192 260 1
107 261 1
125 261 1
179 261 1
181 261 1
108 262 1
126 262 1
180 262 1
182 262 1
105 263 1
127 263 1
177 263 1
183 263 1
106 264 1
128 264 1
178 264 1
184 264 1
117 265 1
135 265 1
149 265 1
159 265 1
118 266 1
136 266 1
150 266 1
160 266 1
119 267 1
133 267 1
151 267 1
157 267 1
120 268 1
134 268 1
152 268 1
158 268 1
109 269 1
139 269 1
153 269 1
163 269 1
110 270 1
140 270 1
154 270 1
164 270 1
111 271 1
137 271 1
155 271 1
161 271 1
112 272 1
138 272 1
156 272 1
162 272 1
113 273 1
143 273 1
145 273 1
167 273 1
114 274 1
144 274 1
146 274 1
168 274 1
115 275 1
141 275 1
147 275 1
165 275 1
116 276 1
142 276 1
148 276 1
166 276 1
105 277 1
123 277 1
147 277 1
161 277 1
106 278 1
124 278 1
148 278 1
162 278 1
107 279 1
121 279 1
145 279 1
163 279 1
108 280 1
122 280 1
146 280 1
164 280 1
97 281 1
127 281 1
151 281 1
165 281 1
98 282 1
128 282 1
152 282 1
166 282 1
99 283 1
125 283 1
149 283 1
167 283 1
100 284 1
126 284 1
150 284 1
168 284 1
101 285 1
131 285 1
155 285 1
157 285 1
102 286 1
132 286 1
156 286 1
158 286 1
103 287 1
129 287 1
153 287 1
159 287 1
104 288 1
130 288 1
154 288 1
160 288 1
