%%MatrixMarket matrix coordinate integer general
% Binary matrix; one-based indices; arithmetic over GF(2)
540 810 4860
9 1 1
89 1 1
102 1 1
148 1 1
198 1 1
269 1 1
10 2 1
90 2 1
103 2 1
149 2 1
199 2 1
270 2 1
6 3 1
86 3 1
104 3 1
150 3 1
200 3 1
266 3 1
7 4 1
87 4 1
105 4 1
146 4 1
196 4 1
267 4 1
8 5 1
88 5 1
101 5 1
147 5 1
197 5 1
268 5 1
14 6 1
79 6 1
92 6 1
138 6 1
203 6 1
259 6 1
15 7 1
80 7 1
93 7 1
139 7 1
204 7 1
260 7 1
11 8 1
76 8 1
94 8 1
140 8 1
205 8 1
256 8 1
12 9 1
77 9 1
95 9 1
136 9 1
201 9 1
257 9 1
13 10 1
78 10 1
91 10 1
137 10 1
202 10 1
258 10 1
4 11 1
84 11 1
97 11 1
143 11 1
208 11 1
264 11 1
5 12 1
85 12 1
98 12 1
144 12 1
209 12 1
265 12 1
1 13 1
81 13 1
99 13 1
145 13 1
210 13 1
261 13 1
2 14 1
82 14 1
100 14 1
141 14 1
206 14 1
262 14 1
3 15 1
83 15 1
96 15 1
142 15 1
207 15 1
263 15 1
24 16 1
59 16 1
117 16 1
163 16 1
213 16 1
239 16 1
25 17 1
60 17 1
118 17 1
164 17 1
214 17 1
240 17 1
21 18 1
56 18 1
119 18 1
165 18 1
215 18 1
236 18 1
22 19 1
57 19 1
120 19 1
161 19 1
211 19 1
237 19 1
23 20 1
58 20 1
116 20 1
162 20 1
212 20 1
238 20 1
29 21 1
49 21 1
107 21 1
153 21 1
218 21 1
229 21 1
30 22 1
50 22 1
108 22 1
154 22 1
219 22 1
230 22 1
26 23 1
46 23 1
109 23 1
155 23 1
220 23 1
226 23 1
27 24 1
47 24 1
110 24 1
151 24 1
216 24 1
227 24 1
28 25 1
48 25 1
106 25 1
152 25 1
217 25 1
228 25 1
19 26 1
54 26 1
112 26 1
158 26 1
223 26 1
234 26 1
20 27 1
55 27 1
113 27 1
159 27 1
224 27 1
235 27 1
16 28 1
51 28 1
114 28 1
160 28 1
225 28 1
231 28 1
17 29 1
52 29 1
115 29 1
156 29 1
221 29 1
232 29 1
18 30 1
53 30 1
111 30 1
157 30 1
222 30 1
233 30 1
39 31 1
74 31 1
132 31 1
178 31 1
183 31 1
254 31 1
40 32 1
75 32 1
133 32 1
179 32 1
184 32 1
255 32 1
36 33 1
71 33 1
134 33 1
180 33 1
185 33 1
251 33 1
37 34 1
72 34 1
135 34 1
176 34 1
181 34 1
252 34 1
38 35 1
73 35 1
131 35 1
177 35 1
182 35 1
253 35 1
44 36 1
64 36 1
122 36 1
168 36 1
188 36 1
244 36 1
45 37 1
65 37 1
123 37 1
169 37 1
189 37 1
245 37 1
41 38 1
61 38 1
124 38 1
170 38 1
190 38 1
241 38 1
42 39 1
62 39 1
125 39 1
166 39 1
186 39 1
242 39 1
43 40 1
63 40 1
121 40 1
167 40 1
187 40 1
243 40 1
34 41 1
69 41 1
127 41 1
173 41 1
193 41 1
249 41 1
35 42 1
70 42 1
128 42 1
174 42 1
194 42 1
250 42 1
31 43 1
66 43 1
129 43 1
175 43 1
195 43 1
246 43 1
32 44 1
67 44 1
130 44 1
171 44 1
191 44 1
247 44 1
33 45 1
68 45 1
126 45 1
172 45 1
192 45 1
248 45 1
12 46 1
54 46 1
134 46 1
179 46 1
193 46 1
243 46 1
13 47 1
55 47 1
135 47 1
180 47 1
194 47 1
244 47 1
14 48 1
51 48 1
131 48 1
176 48 1
195 48 1
245 48 1
15 49 1
52 49 1
132 49 1
177 49 1
191 49 1
241 49 1
11 50 1
53 50 1
133 50 1
178 50 1
192 50 1
242 50 1
2 51 1
59 51 1
124 51 1
169 51 1
183 51 1
248 51 1
3 52 1
60 52 1
125 52 1
170 52 1
184 52 1
249 52 1
4 53 1
56 53 1
121 53 1
166 53 1
185 53 1
250 53 1
5 54 1
57 54 1
122 54 1
167 54 1
181 54 1
246 54 1
1 55 1
58 55 1
123 55 1
168 55 1
182 55 1
247 55 1
7 56 1
49 56 1
129 56 1
174 56 1
188 56 1
253 56 1
8 57 1
50 57 1
130 57 1
175 57 1
189 57 1
254 57 1
9 58 1
46 58 1
126 58 1
171 58 1
190 58 1
255 58 1
10 59 1
47 59 1
127 59 1
172 59 1
186 59 1
251 59 1
6 60 1
48 60 1
128 60 1
173 60 1
187 60 1
252 60 1
27 61 1
69 61 1
104 61 1
149 61 1
208 61 1
258 61 1
28 62 1
70 62 1
105 62 1
150 62 1
209 62 1
259 62 1
29 63 1
66 63 1
101 63 1
146 63 1
210 63 1
260 63 1
30 64 1
67 64 1
102 64 1
147 64 1
206 64 1
256 64 1
26 65 1
68 65 1
103 65 1
148 65 1
207 65 1
257 65 1
17 66 1
74 66 1
94 66 1
139 66 1
198 66 1
263 66 1
18 67 1
75 67 1
95 67 1
140 67 1
199 67 1
264 67 1
19 68 1
71 68 1
91 68 1
136 68 1
200 68 1
265 68 1
20 69 1
72 69 1
92 69 1
137 69 1
196 69 1
261 69 1
16 70 1
73 70 1
93 70 1
138 70 1
197 70 1
262 70 1
22 71 1
64 71 1
99 71 1
144 71 1
203 71 1
268 71 1
23 72 1
65 72 1
100 72 1
145 72 1
204 72 1
269 72 1
24 73 1
61 73 1
96 73 1
141 73 1
205 73 1
270 73 1
25 74 1
62 74 1
97 74 1
142 74 1
201 74 1
266 74 1
21 75 1
63 75 1
98 75 1
143 75 1
202 75 1
267 75 1
42 76 1
84 76 1
119 76 1
164 76 1
223 76 1
228 76 1
43 77 1
85 77 1
120 77 1
165 77 1
224 77 1
229 77 1
44 78 1
81 78 1
116 78 1
161 78 1
225 78 1
230 78 1
45 79 1
82 79 1
117 79 1
162 79 1
221 79 1
226 79 1
41 80 1
83 80 1
118 80 1
163 80 1
222 80 1
227 80 1
32 81 1
89 81 1
109 81 1
154 81 1
213 81 1
233 81 1
33 82 1
90 82 1
110 82 1
155 82 1
214 82 1
234 82 1
34 83 1
86 83 1
106 83 1
151 83 1
215 83 1
235 83 1
35 84 1
87 84 1
107 84 1
152 84 1
211 84 1
231 84 1
31 85 1
88 85 1
108 85 1
153 85 1
212 85 1
232 85 1
37 86 1
79 86 1
114 86 1
159 86 1
218 86 1
238 86 1
38 87 1
80 87 1
115 87 1
160 87 1
219 87 1
239 87 1
39 88 1
76 88 1
111 88 1
156 88 1
220 88 1
240 88 1
40 89 1
77 89 1
112 89 1
157 89 1
216 89 1
236 89 1
36 90 1
78 90 1
113 90 1
158 90 1
217 90 1
237 90 1
44 91 1
57 91 1
99 91 1
153 91 1
224 91 1
238 91 1
45 92 1
58 92 1
100 92 1
154 92 1
225 92 1
239 92 1
41 93 1
59 93 1
96 93 1
155 93 1
221 93 1
240 93 1
42 94 1
60 94 1
97 94 1
151 94 1
222 94 1
236 94 1
43 95 1
56 95 1
98 95 1
152 95 1
223 95 1
237 95 1
34 96 1
47 96 1
104 96 1
158 96 1
214 96 1
228 96 1
35 97 1
48 97 1
105 97 1
159 97 1
215 97 1
229 97 1
31 98 1
49 98 1
101 98 1
160 98 1
211 98 1
230 98 1
32 99 1
50 99 1
102 99 1
156 99 1
212 99 1
226 99 1
33 100 1
46 100 1
103 100 1
157 100 1
213 100 1
227 100 1
39 101 1
52 101 1
94 101 1
163 101 1
219 101 1
233 101 1
40 102 1
53 102 1
95 102 1
164 102 1
220 102 1
234 102 1
36 103 1
54 103 1
91 103 1
165 103 1
216 103 1
235 103 1
37 104 1
55 104 1
92 104 1
161 104 1
217 104 1
231 104 1
38 105 1
51 105 1
93 105 1
162 105 1
218 105 1
232 105 1
14 106 1
72 106 1
114 106 1
168 106 1
194 106 1
253 106 1
15 107 1
73 107 1
115 107 1
169 107 1
195 107 1
254 107 1
11 108 1
74 108 1
111 108 1
170 108 1
191 108 1
255 108 1
12 109 1
75 109 1
112 109 1
166 109 1
192 109 1
251 109 1
13 110 1
71 110 1
113 110 1
167 110 1
193 110 1
252 110 1
4 111 1
62 111 1
119 111 1
173 111 1
184 111 1
243 111 1
5 112 1
63 112 1
120 112 1
174 112 1
185 112 1
244 112 1
1 113 1
64 113 1
116 113 1
175 113 1
181 113 1
245 113 1
2 114 1
65 114 1
117 114 1
171 114 1
182 114 1
241 114 1
3 115 1
61 115 1
118 115 1
172 115 1
183 115 1
242 115 1
9 116 1
67 116 1
109 116 1
178 116 1
189 116 1
248 116 1
10 117 1
68 117 1
110 117 1
179 117 1
190 117 1
249 117 1
6 118 1
69 118 1
106 118 1
180 118 1
186 118 1
250 118 1
7 119 1
70 119 1
107 119 1
176 119 1
187 119 1
246 119 1
8 120 1
66 120 1
108 120 1
177 120 1
188 120 1
247 120 1
29 121 1
87 121 1
129 121 1
138 121 1
209 121 1
268 121 1
30 122 1
88 122 1
130 122 1
139 122 1
210 122 1
269 122 1
26 123 1
89 123 1
126 123 1
140 123 1
206 123 1
270 123 1
27 124 1
90 124 1
127 124 1
136 124 1
207 124 1
266 124 1
28 125 1
86 125 1
128 125 1
137 125 1
208 125 1
267 125 1
19 126 1
77 126 1
134 126 1
143 126 1
199 126 1
258 126 1
20 127 1
78 127 1
135 127 1
144 127 1
200 127 1
259 127 1
16 128 1
79 128 1
131 128 1
145 128 1
196 128 1
260 128 1
17 129 1
80 129 1
132 129 1
141 129 1
197 129 1
256 129 1
18 130 1
76 130 1
133 130 1
142 130 1
198 130 1
257 130 1
24 131 1
82 131 1
124 131 1
148 131 1
204 131 1
263 131 1
25 132 1
83 132 1
125 132 1
149 132 1
205 132 1
264 132 1
21 133 1
84 133 1
121 133 1
150 133 1
201 133 1
265 133 1
22 134 1
85 134 1
122 134 1
146 134 1
202 134 1
261 134 1
23 135 1
81 135 1
123 135 1
147 135 1
203 135 1
262 135 1
9 136 1
62 136 1
105 136 1
283 136 1
333 136 1
404 136 1
10 137 1
63 137 1
101 137 1
284 137 1
334 137 1
405 137 1
6 138 1
64 138 1
102 138 1
285 138 1
335 138 1
401 138 1
7 139 1
65 139 1
103 139 1
281 139 1
331 139 1
402 139 1
8 140 1
61 140 1
104 140 1
282 140 1
332 140 1
403 140 1
14 141 1
67 141 1
95 141 1
273 141 1
338 141 1
394 141 1
15 142 1
68 142 1
91 142 1
274 142 1
339 142 1
395 142 1
11 143 1
69 143 1
92 143 1
275 143 1
340 143 1
391 143 1
12 144 1
70 144 1
93 144 1
271 144 1
336 144 1
392 144 1
13 145 1
66 145 1
94 145 1
272 145 1
337 145 1
393 145 1
4 146 1
72 146 1
100 146 1
278 146 1
343 146 1
399 146 1
5 147 1
73 147 1
96 147 1
279 147 1
344 147 1
400 147 1
1 148 1
74 148 1
97 148 1
280 148 1
345 148 1
396 148 1
2 149 1
75 149 1
98 149 1
276 149 1
341 149 1
397 149 1
3 150 1
71 150 1
99 150 1
277 150 1
342 150 1
398 150 1
24 151 1
77 151 1
120 151 1
298 151 1
348 151 1
374 151 1
25 152 1
78 152 1
116 152 1
299 152 1
349 152 1
375 152 1
21 153 1
79 153 1
117 153 1
300 153 1
350 153 1
371 153 1
22 154 1
80 154 1
118 154 1
296 154 1
346 154 1
372 154 1
23 155 1
76 155 1
119 155 1
297 155 1
347 155 1
373 155 1
29 156 1
82 156 1
110 156 1
288 156 1
353 156 1
364 156 1
30 157 1
83 157 1
106 157 1
289 157 1
354 157 1
365 157 1
26 158 1
84 158 1
107 158 1
290 158 1
355 158 1
361 158 1
27 159 1
85 159 1
108 159 1
286 159 1
351 159 1
362 159 1
28 160 1
81 160 1
109 160 1
287 160 1
352 160 1
363 160 1
19 161 1
87 161 1
115 161 1
293 161 1
358 161 1
369 161 1
20 162 1
88 162 1
111 162 1
294 162 1
359 162 1
370 162 1
16 163 1
89 163 1
112 163 1
295 163 1
360 163 1
366 163 1
17 164 1
90 164 1
113 164 1
291 164 1
356 164 1
367 164 1
18 165 1
86 165 1
114 165 1
292 165 1
357 165 1
368 165 1
39 166 1
47 166 1
135 166 1
313 166 1
318 166 1
389 166 1
40 167 1
48 167 1
131 167 1
314 167 1
319 167 1
390 167 1
36 168 1
49 168 1
132 168 1
315 168 1
320 168 1
386 168 1
37 169 1
50 169 1
133 169 1
311 169 1
316 169 1
387 169 1
38 170 1
46 170 1
134 170 1
312 170 1
317 170 1
388 170 1
44 171 1
52 171 1
125 171 1
303 171 1
323 171 1
379 171 1
45 172 1
53 172 1
121 172 1
304 172 1
324 172 1
380 172 1
41 173 1
54 173 1
122 173 1
305 173 1
325 173 1
376 173 1
42 174 1
55 174 1
123 174 1
301 174 1
321 174 1
377 174 1
43 175 1
51 175 1
124 175 1
302 175 1
322 175 1
378 175 1
34 176 1
57 176 1
130 176 1
308 176 1
328 176 1
384 176 1
35 177 1
58 177 1
126 177 1
309 177 1
329 177 1
385 177 1
31 178 1
59 178 1
127 178 1
310 178 1
330 178 1
381 178 1
32 179 1
60 179 1
128 179 1
306 179 1
326 179 1
382 179 1
33 180 1
56 180 1
129 180 1
307 180 1
327 180 1
383 180 1
15 181 1
54 181 1
107 181 1
314 181 1
328 181 1
378 181 1
11 182 1
55 182 1
108 182 1
315 182 1
329 182 1
379 182 1
12 183 1
51 183 1
109 183 1
311 183 1
330 183 1
380 183 1
13 184 1
52 184 1
110 184 1
312 184 1
326 184 1
376 184 1
14 185 1
53 185 1
106 185 1
313 185 1
327 185 1
377 185 1
5 186 1
59 186 1
112 186 1
304 186 1
318 186 1
383 186 1
1 187 1
60 187 1
113 187 1
305 187 1
319 187 1
384 187 1
2 188 1
56 188 1
114 188 1
301 188 1
320 188 1
385 188 1
3 189 1
57 189 1
115 189 1
302 189 1
316 189 1
381 189 1
4 190 1
58 190 1
111 190 1
303 190 1
317 190 1
382 190 1
10 191 1
49 191 1
117 191 1
309 191 1
323 191 1
388 191 1
6 192 1
50 192 1
118 192 1
310 192 1
324 192 1
389 192 1
7 193 1
46 193 1
119 193 1
306 193 1
325 193 1
390 193 1
8 194 1
47 194 1
120 194 1
307 194 1
321 194 1
386 194 1
9 195 1
48 195 1
116 195 1
308 195 1
322 195 1
387 195 1
30 196 1
69 196 1
122 196 1
284 196 1
343 196 1
393 196 1
26 197 1
70 197 1
123 197 1
285 197 1
344 197 1
394 197 1
27 198 1
66 198 1
124 198 1
281 198 1
345 198 1
395 198 1
28 199 1
67 199 1
125 199 1
282 199 1
341 199 1
391 199 1
29 200 1
68 200 1
121 200 1
283 200 1
342 200 1
392 200 1
20 201 1
74 201 1
127 201 1
274 201 1
333 201 1
398 201 1
16 202 1
75 202 1
128 202 1
275 202 1
334 202 1
399 202 1
17 203 1
71 203 1
129 203 1
271 203 1
335 203 1
400 203 1
18 204 1
72 204 1
130 204 1
272 204 1
331 204 1
396 204 1
19 205 1
73 205 1
126 205 1
273 205 1
332 205 1
397 205 1
25 206 1
64 206 1
132 206 1
279 206 1
338 206 1
403 206 1
21 207 1
65 207 1
133 207 1
280 207 1
339 207 1
404 207 1
22 208 1
61 208 1
134 208 1
276 208 1
340 208 1
405 208 1
23 209 1
62 209 1
135 209 1
277 209 1
336 209 1
401 209 1
24 210 1
63 210 1
131 210 1
278 210 1
337 210 1
402 210 1
45 211 1
84 211 1
92 211 1
299 211 1
358 211 1
363 211 1
41 212 1
85 212 1
93 212 1
300 212 1
359 212 1
364 212 1
42 213 1
81 213 1
94 213 1
296 213 1
360 213 1
365 213 1
43 214 1
82 214 1
95 214 1
297 214 1
356 214 1
361 214 1
44 215 1
83 215 1
91 215 1
298 215 1
357 215 1
362 215 1
35 216 1
89 216 1
97 216 1
289 216 1
348 216 1
368 216 1
31 217 1
90 217 1
98 217 1
290 217 1
349 217 1
369 217 1
32 218 1
86 218 1
99 218 1
286 218 1
350 218 1
370 218 1
33 219 1
87 219 1
100 219 1
287 219 1
346 219 1
366 219 1
34 220 1
88 220 1
96 220 1
288 220 1
347 220 1
367 220 1
40 221 1
79 221 1
102 221 1
294 221 1
353 221 1
373 221 1
36 222 1
80 222 1
103 222 1
295 222 1
354 222 1
374 222 1
37 223 1
76 223 1
104 223 1
291 223 1
355 223 1
375 223 1
38 224 1
77 224 1
105 224 1
292 224 1
351 224 1
371 224 1
39 225 1
78 225 1
101 225 1
293 225 1
352 225 1
372 225 1
17 226 1
60 226 1
99 226 1
288 226 1
359 226 1
373 226 1
18 227 1
56 227 1
100 227 1
289 227 1
360 227 1
374 227 1
19 228 1
57 228 1
96 228 1
290 228 1
356 228 1
375 228 1
20 229 1
58 229 1
97 229 1
286 229 1
357 229 1
371 229 1
16 230 1
59 230 1
98 230 1
287 230 1
358 230 1
372 230 1
22 231 1
50 231 1
104 231 1
293 231 1
349 231 1
363 231 1
23 232 1
46 232 1
105 232 1
294 232 1
350 232 1
364 232 1
24 233 1
47 233 1
101 233 1
295 233 1
346 233 1
365 233 1
25 234 1
48 234 1
102 234 1
291 234 1
347 234 1
361 234 1
21 235 1
49 235 1
103 235 1
292 235 1
348 235 1
362 235 1
27 236 1
55 236 1
94 236 1
298 236 1
354 236 1
368 236 1
28 237 1
51 237 1
95 237 1
299 237 1
355 237 1
369 237 1
29 238 1
52 238 1
91 238 1
300 238 1
351 238 1
370 238 1
30 239 1
53 239 1
92 239 1
296 239 1
352 239 1
366 239 1
26 240 1
54 240 1
93 240 1
297 240 1
353 240 1
367 240 1
32 241 1
75 241 1
114 241 1
303 241 1
329 241 1
388 241 1
33 242 1
71 242 1
115 242 1
304 242 1
330 242 1
389 242 1
34 243 1
72 243 1
111 243 1
305 243 1
326 243 1
390 243 1
35 244 1
73 244 1
112 244 1
301 244 1
327 244 1
386 244 1
31 245 1
74 245 1
113 245 1
302 245 1
328 245 1
387 245 1
37 246 1
65 246 1
119 246 1
308 246 1
319 246 1
378 246 1
38 247 1
61 247 1
120 247 1
309 247 1
320 247 1
379 247 1
39 248 1
62 248 1
116 248 1
310 248 1
316 248 1
380 248 1
40 249 1
63 249 1
117 249 1
306 249 1
317 249 1
376 249 1
36 250 1
64 250 1
118 250 1
307 250 1
318 250 1
377 250 1
42 251 1
70 251 1
109 251 1
313 251 1
324 251 1
383 251 1
43 252 1
66 252 1
110 252 1
314 252 1
325 252 1
384 252 1
44 253 1
67 253 1
106 253 1
315 253 1
321 253 1
385 253 1
45 254 1
68 254 1
107 254 1
311 254 1
322 254 1
381 254 1
41 255 1
69 255 1
108 255 1
312 255 1
323 255 1
382 255 1
2 256 1
90 256 1
129 256 1
273 256 1
344 256 1
403 256 1
3 257 1
86 257 1
130 257 1
274 257 1
345 257 1
404 257 1
4 258 1
87 258 1
126 258 1
275 258 1
341 258 1
405 258 1
5 259 1
88 259 1
127 259 1
271 259 1
342 259 1
401 259 1
1 260 1
89 260 1
128 260 1
272 260 1
343 260 1
402 260 1
7 261 1
80 261 1
134 261 1
278 261 1
334 261 1
393 261 1
8 262 1
76 262 1
135 262 1
279 262 1
335 262 1
394 262 1
9 263 1
77 263 1
131 263 1
280 263 1
331 263 1
395 263 1
10 264 1
78 264 1
132 264 1
276 264 1
332 264 1
391 264 1
6 265 1
79 265 1
133 265 1
277 265 1
333 265 1
392 265 1
12 266 1
85 266 1
124 266 1
283 266 1
339 266 1
398 266 1
13 267 1
81 267 1
125 267 1
284 267 1
340 267 1
399 267 1
14 268 1
82 268 1
121 268 1
285 268 1
336 268 1
400 268 1
15 269 1
83 269 1
122 269 1
281 269 1
337 269 1
396 269 1
11 270 1
84 270 1
123 270 1
282 270 1
338 270 1
397 270 1
144 271 1
197 271 1
240 271 1
279 271 1
359 271 1
372 271 1
145 272 1
198 272 1
236 272 1
280 272 1
360 272 1
373 272 1
141 273 1
199 273 1
237 273 1
276 273 1
356 273 1
374 273 1
142 274 1
200 274 1
238 274 1
277 274 1
357 274 1
375 274 1
143 275 1
196 275 1
239 275 1
278 275 1
358 275 1
371 275 1
149 276 1
202 276 1
230 276 1
284 276 1
349 276 1
362 276 1
150 277 1
203 277 1
226 277 1
285 277 1
350 277 1
363 277 1
146 278 1
204 278 1
227 278 1
281 278 1
346 278 1
364 278 1
147 279 1
205 279 1
228 279 1
282 279 1
347 279 1
365 279 1
148 280 1
201 280 1
229 280 1
283 280 1
348 280 1
361 280 1
139 281 1
207 281 1
235 281 1
274 281 1
354 281 1
367 281 1
140 282 1
208 282 1
231 282 1
275 282 1
355 282 1
368 282 1
136 283 1
209 283 1
232 283 1
271 283 1
351 283 1
369 283 1
137 284 1
210 284 1
233 284 1
272 284 1
352 284 1
370 284 1
138 285 1
206 285 1
234 285 1
273 285 1
353 285 1
366 285 1
159 286 1
212 286 1
255 286 1
294 286 1
329 286 1
387 286 1
160 287 1
213 287 1
251 287 1
295 287 1
330 287 1
388 287 1
156 288 1
214 288 1
252 288 1
291 288 1
326 288 1
389 288 1
157 289 1
215 289 1
253 289 1
292 289 1
327 289 1
390 289 1
158 290 1
211 290 1
254 290 1
293 290 1
328 290 1
386 290 1
164 291 1
217 291 1
245 291 1
299 291 1
319 291 1
377 291 1
165 292 1
218 292 1
241 292 1
300 292 1
320 292 1
378 292 1
161 293 1
219 293 1
242 293 1
296 293 1
316 293 1
379 293 1
162 294 1
220 294 1
243 294 1
297 294 1
317 294 1
380 294 1
163 295 1
216 295 1
244 295 1
298 295 1
318 295 1
376 295 1
154 296 1
222 296 1
250 296 1
289 296 1
324 296 1
382 296 1
155 297 1
223 297 1
246 297 1
290 297 1
325 297 1
383 297 1
151 298 1
224 298 1
247 298 1
286 298 1
321 298 1
384 298 1
152 299 1
225 299 1
248 299 1
287 299 1
322 299 1
385 299 1
153 300 1
221 300 1
249 300 1
288 300 1
323 300 1
381 300 1
174 301 1
182 301 1
270 301 1
309 301 1
344 301 1
402 301 1
175 302 1
183 302 1
266 302 1
310 302 1
345 302 1
403 302 1
171 303 1
184 303 1
267 303 1
306 303 1
341 303 1
404 303 1
172 304 1
185 304 1
268 304 1
307 304 1
342 304 1
405 304 1
173 305 1
181 305 1
269 305 1
308 305 1
343 305 1
401 305 1
179 306 1
187 306 1
260 306 1
314 306 1
334 306 1
392 306 1
180 307 1
188 307 1
256 307 1
315 307 1
335 307 1
393 307 1
176 308 1
189 308 1
257 308 1
311 308 1
331 308 1
394 308 1
177 309 1
190 309 1
258 309 1
312 309 1
332 309 1
395 309 1
178 310 1
186 310 1
259 310 1
313 310 1
333 310 1
391 310 1
169 311 1
192 311 1
265 311 1
304 311 1
339 311 1
397 311 1
170 312 1
193 312 1
261 312 1
305 312 1
340 312 1
398 312 1
166 313 1
194 313 1
262 313 1
301 313 1
336 313 1
399 313 1
167 314 1
195 314 1
263 314 1
302 314 1
337 314 1
400 314 1
168 315 1
191 315 1
264 315 1
303 315 1
338 315 1
396 315 1
150 316 1
189 316 1
242 316 1
282 316 1
324 316 1
404 316 1
146 317 1
190 317 1
243 317 1
283 317 1
325 317 1
405 317 1
147 318 1
186 318 1
244 318 1
284 318 1
321 318 1
401 318 1
148 319 1
187 319 1
245 319 1
285 319 1
322 319 1
402 319 1
149 320 1
188 320 1
241 320 1
281 320 1
323 320 1
403 320 1
140 321 1
194 321 1
247 321 1
272 321 1
329 321 1
394 321 1
136 322 1
195 322 1
248 322 1
273 322 1
330 322 1
395 322 1
137 323 1
191 323 1
249 323 1
274 323 1
326 323 1
391 323 1
138 324 1
192 324 1
250 324 1
275 324 1
327 324 1
392 324 1
139 325 1
193 325 1
246 325 1
271 325 1
328 325 1
393 325 1
145 326 1
184 326 1
252 326 1
277 326 1
319 326 1
399 326 1
141 327 1
185 327 1
253 327 1
278 327 1
320 327 1
400 327 1
142 328 1
181 328 1
254 328 1
279 328 1
316 328 1
396 328 1
143 329 1
182 329 1
255 329 1
280 329 1
317 329 1
397 329 1
144 330 1
183 330 1
251 330 1
276 330 1
318 330 1
398 330 1
165 331 1
204 331 1
257 331 1
297 331 1
339 331 1
374 331 1
161 332 1
205 332 1
258 332 1
298 332 1
340 332 1
375 332 1
162 333 1
201 333 1
259 333 1
299 333 1
336 333 1
371 333 1
163 334 1
202 334 1
260 334 1
300 334 1
337 334 1
372 334 1
164 335 1
203 335 1
256 335 1
296 335 1
338 335 1
373 335 1
155 336 1
209 336 1
262 336 1
287 336 1
344 336 1
364 336 1
151 337 1
210 337 1
263 337 1
288 337 1
345 337 1
365 337 1
152 338 1
206 338 1
264 338 1
289 338 1
341 338 1
361 338 1
153 339 1
207 339 1
265 339 1
290 339 1
342 339 1
362 339 1
154 340 1
208 340 1
261 340 1
286 340 1
343 340 1
363 340 1
160 341 1
199 341 1
267 341 1
292 341 1
334 341 1
369 341 1
156 342 1
200 342 1
268 342 1
293 342 1
335 342 1
370 342 1
157 343 1
196 343 1
269 343 1
294 343 1
331 343 1
366 343 1
158 344 1
197 344 1
270 344 1
295 344 1
332 344 1
367 344 1
159 345 1
198 345 1
266 345 1
291 345 1
333 345 1
368 345 1
180 346 1
219 346 1
227 346 1
312 346 1
354 346 1
389 346 1
176 347 1
220 347 1
228 347 1
313 347 1
355 347 1
390 347 1
177 348 1
216 348 1
229 348 1
314 348 1
351 348 1
386 348 1
178 349 1
217 349 1
230 349 1
315 349 1
352 349 1
387 349 1
179 350 1
218 350 1
226 350 1
311 350 1
353 350 1
388 350 1
170 351 1
224 351 1
232 351 1
302 351 1
359 351 1
379 351 1
166 352 1
225 352 1
233 352 1
303 352 1
360 352 1
380 352 1
167 353 1
221 353 1
234 353 1
304 353 1
356 353 1
376 353 1
168 354 1
222 354 1
235 354 1
305 354 1
357 354 1
377 354 1
169 355 1
223 355 1
231 355 1
301 355 1
358 355 1
378 355 1
175 356 1
214 356 1
237 356 1
307 356 1
349 356 1
384 356 1
171 357 1
215 357 1
238 357 1
308 357 1
350 357 1
385 357 1
172 358 1
211 358 1
239 358 1
309 358 1
346 358 1
381 358 1
173 359 1
212 359 1
240 359 1
310 359 1
347 359 1
382 359 1
174 360 1
213 360 1
236 360 1
306 360 1
348 360 1
383 360 1
152 361 1
195 361 1
234 361 1
314 361 1
327 361 1
369 361 1
153 362 1
191 362 1
235 362 1
315 362 1
328 362 1
370 362 1
154 363 1
192 363 1
231 363 1
311 363 1
329 363 1
366 363 1
155 364 1
193 364 1
232 364 1
312 364 1
330 364 1
367 364 1
151 365 1
194 365 1
233 365 1
313 365 1
326 365 1
368 365 1
157 366 1
185 366 1
239 366 1
304 366 1
317 366 1
374 366 1
158 367 1
181 367 1
240 367 1
305 367 1
318 367 1
375 367 1
159 368 1
182 368 1
236 368 1
301 368 1
319 368 1
371 368 1
160 369 1
183 369 1
237 369 1
302 369 1
320 369 1
372 369 1
156 370 1
184 370 1
238 370 1
303 370 1
316 370 1
373 370 1
162 371 1
190 371 1
229 371 1
309 371 1
322 371 1
364 371 1
163 372 1
186 372 1
230 372 1
310 372 1
323 372 1
365 372 1
164 373 1
187 373 1
226 373 1
306 373 1
324 373 1
361 373 1
165 374 1
188 374 1
227 374 1
307 374 1
325 374 1
362 374 1
161 375 1
189 375 1
228 375 1
308 375 1
321 375 1
363 375 1
167 376 1
210 376 1
249 376 1
284 376 1
342 376 1
384 376 1
168 377 1
206 377 1
250 377 1
285 377 1
343 377 1
385 377 1
169 378 1
207 378 1
246 378 1
281 378 1
344 378 1
381 378 1
170 379 1
208 379 1
247 379 1
282 379 1
345 379 1
382 379 1
166 380 1
209 380 1
248 380 1
283 380 1
341 380 1
383 380 1
172 381 1
200 381 1
254 381 1
274 381 1
332 381 1
389 381 1
173 382 1
196 382 1
255 382 1
275 382 1
333 382 1
390 382 1
174 383 1
197 383 1
251 383 1
271 383 1
334 383 1
386 383 1
175 384 1
198 384 1
252 384 1
272 384 1
335 384 1
387 384 1
171 385 1
199 385 1
253 385 1
273 385 1
331 385 1
388 385 1
177 386 1
205 386 1
244 386 1
279 386 1
337 386 1
379 386 1
178 387 1
201 387 1
245 387 1
280 387 1
338 387 1
380 387 1
179 388 1
202 388 1
241 388 1
276 388 1
339 388 1
376 388 1
180 389 1
203 389 1
242 389 1
277 389 1
340 389 1
377 389 1
176 390 1
204 390 1
243 390 1
278 390 1
336 390 1
378 390 1
137 391 1
225 391 1
264 391 1
299 391 1
357 391 1
399 391 1
138 392 1
221 392 1
265 392 1
300 392 1
358 392 1
400 392 1
139 393 1
222 393 1
261 393 1
296 393 1
359 393 1
396 393 1
140 394 1
223 394 1
262 394 1
297 394 1
360 394 1
397 394 1
136 395 1
224 395 1
263 395 1
298 395 1
356 395 1
398 395 1
142 396 1
215 396 1
269 396 1
289 396 1
347 396 1
404 396 1
143 397 1
211 397 1
270 397 1
290 397 1
348 397 1
405 397 1
144 398 1
212 398 1
266 398 1
286 398 1
349 398 1
401 398 1
145 399 1
213 399 1
267 399 1
287 399 1
350 399 1
402 399 1
141 400 1
214 400 1
268 400 1
288 400 1
346 400 1
403 400 1
147 401 1
220 401 1
259 401 1
294 401 1
352 401 1
394 401 1
148 402 1
216 402 1
260 402 1
295 402 1
353 402 1
395 402 1
149 403 1
217 403 1
256 403 1
291 403 1
354 403 1
391 403 1
150 404 1
218 404 1
257 404 1
292 404 1
355 404 1
392 404 1
146 405 1
219 405 1
258 405 1
293 405 1
351 405 1
393 405 1
5 406 1
71 406 1
119 406 1
418 406 1
468 406 1
539 406 1
1 407 1
72 407 1
120 407 1
419 407 1
469 407 1
540 407 1
2 408 1
73 408 1
116 408 1
420 408 1
470 408 1
536 408 1
3 409 1
74 409 1
117 409 1
416 409 1
466 409 1
537 409 1
4 410 1
75 410 1
118 410 1
417 410 1
467 410 1
538 410 1
10 411 1
61 411 1
109 411 1
408 411 1
473 411 1
529 411 1
6 412 1
62 412 1
110 412 1
409 412 1
474 412 1
530 412 1
7 413 1
63 413 1
106 413 1
410 413 1
475 413 1
526 413 1
8 414 1
64 414 1
107 414 1
406 414 1
471 414 1
527 414 1
9 415 1
65 415 1
108 415 1
407 415 1
472 415 1
528 415 1
15 416 1
66 416 1
114 416 1
413 416 1
478 416 1
534 416 1
11 417 1
67 417 1
115 417 1
414 417 1
479 417 1
535 417 1
12 418 1
68 418 1
111 418 1
415 418 1
480 418 1
531 418 1
13 419 1
69 419 1
112 419 1
411 419 1
476 419 1
532 419 1
14 420 1
70 420 1
113 420 1
412 420 1
477 420 1
533 420 1
20 421 1
86 421 1
134 421 1
433 421 1
483 421 1
509 421 1
16 422 1
87 422 1
135 422 1
434 422 1
484 422 1
510 422 1
17 423 1
88 423 1
131 423 1
435 423 1
485 423 1
506 423 1
18 424 1
89 424 1
132 424 1
431 424 1
481 424 1
507 424 1
19 425 1
90 425 1
133 425 1
432 425 1
482 425 1
508 425 1
25 426 1
76 426 1
124 426 1
423 426 1
488 426 1
499 426 1
21 427 1
77 427 1
125 427 1
424 427 1
489 427 1
500 427 1
22 428 1
78 428 1
121 428 1
425 428 1
490 428 1
496 428 1
23 429 1
79 429 1
122 429 1
421 429 1
486 429 1
497 429 1
24 430 1
80 430 1
123 430 1
422 430 1
487 430 1
498 430 1
30 431 1
81 431 1
129 431 1
428 431 1
493 431 1
504 431 1
26 432 1
82 432 1
130 432 1
429 432 1
494 432 1
505 432 1
27 433 1
83 433 1
126 433 1
430 433 1
495 433 1
501 433 1
28 434 1
84 434 1
127 434 1
426 434 1
491 434 1
502 434 1
29 435 1
85 435 1
128 435 1
427 435 1
492 435 1
503 435 1
35 436 1
56 436 1
104 436 1
448 436 1
453 436 1
524 436 1
31 437 1
57 437 1
105 437 1
449 437 1
454 437 1
525 437 1
32 438 1
58 438 1
101 438 1
450 438 1
455 438 1
521 438 1
33 439 1
59 439 1
102 439 1
446 439 1
451 439 1
522 439 1
34 440 1
60 440 1
103 440 1
447 440 1
452 440 1
523 440 1
40 441 1
46 441 1
94 441 1
438 441 1
458 441 1
514 441 1
36 442 1
47 442 1
95 442 1
439 442 1
459 442 1
515 442 1
37 443 1
48 443 1
91 443 1
440 443 1
460 443 1
511 443 1
38 444 1
49 444 1
92 444 1
436 444 1
456 444 1
512 444 1
39 445 1
50 445 1
93 445 1
437 445 1
457 445 1
513 445 1
45 446 1
51 446 1
99 446 1
443 446 1
463 446 1
519 446 1
41 447 1
52 447 1
100 447 1
444 447 1
464 447 1
520 447 1
42 448 1
53 448 1
96 448 1
445 448 1
465 448 1
516 448 1
43 449 1
54 449 1
97 449 1
441 449 1
461 449 1
517 449 1
44 450 1
55 450 1
98 450 1
442 450 1
462 450 1
518 450 1
29 451 1
50 451 1
116 451 1
449 451 1
463 451 1
513 451 1
30 452 1
46 452 1
117 452 1
450 452 1
464 452 1
514 452 1
26 453 1
47 453 1
118 453 1
446 453 1
465 453 1
515 453 1
27 454 1
48 454 1
119 454 1
447 454 1
461 454 1
511 454 1
28 455 1
49 455 1
120 455 1
448 455 1
462 455 1
512 455 1
19 456 1
55 456 1
106 456 1
439 456 1
453 456 1
518 456 1
20 457 1
51 457 1
107 457 1
440 457 1
454 457 1
519 457 1
16 458 1
52 458 1
108 458 1
436 458 1
455 458 1
520 458 1
17 459 1
53 459 1
109 459 1
437 459 1
451 459 1
516 459 1
18 460 1
54 460 1
110 460 1
438 460 1
452 460 1
517 460 1
24 461 1
60 461 1
111 461 1
444 461 1
458 461 1
523 461 1
25 462 1
56 462 1
112 462 1
445 462 1
459 462 1
524 462 1
21 463 1
57 463 1
113 463 1
441 463 1
460 463 1
525 463 1
22 464 1
58 464 1
114 464 1
442 464 1
456 464 1
521 464 1
23 465 1
59 465 1
115 465 1
443 465 1
457 465 1
522 465 1
44 466 1
65 466 1
131 466 1
419 466 1
478 466 1
528 466 1
45 467 1
61 467 1
132 467 1
420 467 1
479 467 1
529 467 1
41 468 1
62 468 1
133 468 1
416 468 1
480 468 1
530 468 1
42 469 1
63 469 1
134 469 1
417 469 1
476 469 1
526 469 1
43 470 1
64 470 1
135 470 1
418 470 1
477 470 1
527 470 1
34 471 1
70 471 1
121 471 1
409 471 1
468 471 1
533 471 1
35 472 1
66 472 1
122 472 1
410 472 1
469 472 1
534 472 1
31 473 1
67 473 1
123 473 1
406 473 1
470 473 1
535 473 1
32 474 1
68 474 1
124 474 1
407 474 1
466 474 1
531 474 1
33 475 1
69 475 1
125 475 1
408 475 1
467 475 1
532 475 1
39 476 1
75 476 1
126 476 1
414 476 1
473 476 1
538 476 1
40 477 1
71 477 1
127 477 1
415 477 1
474 477 1
539 477 1
36 478 1
72 478 1
128 478 1
411 478 1
475 478 1
540 478 1
37 479 1
73 479 1
129 479 1
412 479 1
471 479 1
536 479 1
38 480 1
74 480 1
130 480 1
413 480 1
472 480 1
537 480 1
14 481 1
80 481 1
101 481 1
434 481 1
493 481 1
498 481 1
15 482 1
76 482 1
102 482 1
435 482 1
494 482 1
499 482 1
11 483 1
77 483 1
103 483 1
431 483 1
495 483 1
500 483 1
12 484 1
78 484 1
104 484 1
432 484 1
491 484 1
496 484 1
13 485 1
79 485 1
105 485 1
433 485 1
492 485 1
497 485 1
4 486 1
85 486 1
91 486 1
424 486 1
483 486 1
503 486 1
5 487 1
81 487 1
92 487 1
425 487 1
484 487 1
504 487 1
1 488 1
82 488 1
93 488 1
421 488 1
485 488 1
505 488 1
2 489 1
83 489 1
94 489 1
422 489 1
481 489 1
501 489 1
3 490 1
84 490 1
95 490 1
423 490 1
482 490 1
502 490 1
9 491 1
90 491 1
96 491 1
429 491 1
488 491 1
508 491 1
10 492 1
86 492 1
97 492 1
430 492 1
489 492 1
509 492 1
6 493 1
87 493 1
98 493 1
426 493 1
490 493 1
510 493 1
7 494 1
88 494 1
99 494 1
427 494 1
486 494 1
506 494 1
8 495 1
89 495 1
100 495 1
428 495 1
487 495 1
507 495 1
26 496 1
74 496 1
95 496 1
423 496 1
494 496 1
508 496 1
27 497 1
75 497 1
91 497 1
424 497 1
495 497 1
509 497 1
28 498 1
71 498 1
92 498 1
425 498 1
491 498 1
510 498 1
29 499 1
72 499 1
93 499 1
421 499 1
492 499 1
506 499 1
30 500 1
73 500 1
94 500 1
422 500 1
493 500 1
507 500 1
16 501 1
64 501 1
100 501 1
428 501 1
484 501 1
498 501 1
17 502 1
65 502 1
96 502 1
429 502 1
485 502 1
499 502 1
18 503 1
61 503 1
97 503 1
430 503 1
481 503 1
500 503 1
19 504 1
62 504 1
98 504 1
426 504 1
482 504 1
496 504 1
20 505 1
63 505 1
99 505 1
427 505 1
483 505 1
497 505 1
21 506 1
69 506 1
105 506 1
433 506 1
489 506 1
503 506 1
22 507 1
70 507 1
101 507 1
434 507 1
490 507 1
504 507 1
23 508 1
66 508 1
102 508 1
435 508 1
486 508 1
505 508 1
24 509 1
67 509 1
103 509 1
431 509 1
487 509 1
501 509 1
25 510 1
68 510 1
104 510 1
432 510 1
488 510 1
502 510 1
41 511 1
89 511 1
110 511 1
438 511 1
464 511 1
523 511 1
42 512 1
90 512 1
106 512 1
439 512 1
465 512 1
524 512 1
43 513 1
86 513 1
107 513 1
440 513 1
461 513 1
525 513 1
44 514 1
87 514 1
108 514 1
436 514 1
462 514 1
521 514 1
45 515 1
88 515 1
109 515 1
437 515 1
463 515 1
522 515 1
31 516 1
79 516 1
115 516 1
443 516 1
454 516 1
513 516 1
32 517 1
80 517 1
111 517 1
444 517 1
455 517 1
514 517 1
33 518 1
76 518 1
112 518 1
445 518 1
451 518 1
515 518 1
34 519 1
77 519 1
113 519 1
441 519 1
452 519 1
511 519 1
35 520 1
78 520 1
114 520 1
442 520 1
453 520 1
512 520 1
36 521 1
84 521 1
120 521 1
448 521 1
459 521 1
518 521 1
37 522 1
85 522 1
116 522 1
449 522 1
460 522 1
519 522 1
38 523 1
81 523 1
117 523 1
450 523 1
456 523 1
520 523 1
39 524 1
82 524 1
118 524 1
446 524 1
457 524 1
516 524 1
40 525 1
83 525 1
119 525 1
447 525 1
458 525 1
517 525 1
11 526 1
59 526 1
125 526 1
408 526 1
479 526 1
538 526 1
12 527 1
60 527 1
121 527 1
409 527 1
480 527 1
539 527 1
13 528 1
56 528 1
122 528 1
410 528 1
476 528 1
540 528 1
14 529 1
57 529 1
123 529 1
406 529 1
477 529 1
536 529 1
15 530 1
58 530 1
124 530 1
407 530 1
478 530 1
537 530 1
1 531 1
49 531 1
130 531 1
413 531 1
469 531 1
528 531 1
2 532 1
50 532 1
126 532 1
414 532 1
470 532 1
529 532 1
3 533 1
46 533 1
127 533 1
415 533 1
466 533 1
530 533 1
4 534 1
47 534 1
128 534 1
411 534 1
467 534 1
526 534 1
5 535 1
48 535 1
129 535 1
412 535 1
468 535 1
527 535 1
6 536 1
54 536 1
135 536 1
418 536 1
474 536 1
533 536 1
7 537 1
55 537 1
131 537 1
419 537 1
475 537 1
534 537 1
8 538 1
51 538 1
132 538 1
420 538 1
471 538 1
535 538 1
9 539 1
52 539 1
133 539 1
416 539 1
472 539 1
531 539 1
10 540 1
53 540 1
134 540 1
417 540 1
473 540 1
532 540 1
140 541 1
206 541 1
254 541 1
414 541 1
494 541 1
507 541 1
136 542 1
207 542 1
255 542 1
415 542 1
495 542 1
508 542 1
137 543 1
208 543 1
251 543 1
411 543 1
491 543 1
509 543 1
138 544 1
209 544 1
252 544 1
412 544 1
492 544 1
510 544 1
139 545 1
210 545 1
253 545 1
413 545 1
493 545 1
506 545 1
145 546 1
196 546 1
244 546 1
419 546 1
484 546 1
497 546 1
141 547 1
197 547 1
245 547 1
420 547 1
485 547 1
498 547 1
142 548 1
198 548 1
241 548 1
416 548 1
481 548 1
499 548 1
143 549 1
199 549 1
242 549 1
417 549 1
482 549 1
500 549 1
144 550 1
200 550 1
243 550 1
418 550 1
483 550 1
496 550 1
150 551 1
201 551 1
249 551 1
409 551 1
489 551 1
502 551 1
146 552 1
202 552 1
250 552 1
410 552 1
490 552 1
503 552 1
147 553 1
203 553 1
246 553 1
406 553 1
486 553 1
504 553 1
148 554 1
204 554 1
247 554 1
407 554 1
487 554 1
505 554 1
149 555 1
205 555 1
248 555 1
408 555 1
488 555 1
501 555 1
155 556 1
221 556 1
269 556 1
429 556 1
464 556 1
522 556 1
151 557 1
222 557 1
270 557 1
430 557 1
465 557 1
523 557 1
152 558 1
223 558 1
266 558 1
426 558 1
461 558 1
524 558 1
153 559 1
224 559 1
267 559 1
427 559 1
462 559 1
525 559 1
154 560 1
225 560 1
268 560 1
428 560 1
463 560 1
521 560 1
160 561 1
211 561 1
259 561 1
434 561 1
454 561 1
512 561 1
156 562 1
212 562 1
260 562 1
435 562 1
455 562 1
513 562 1
157 563 1
213 563 1
256 563 1
431 563 1
451 563 1
514 563 1
158 564 1
214 564 1
257 564 1
432 564 1
452 564 1
515 564 1
159 565 1
215 565 1
258 565 1
433 565 1
453 565 1
511 565 1
165 566 1
216 566 1
264 566 1
424 566 1
459 566 1
517 566 1
161 567 1
217 567 1
265 567 1
425 567 1
460 567 1
518 567 1
162 568 1
218 568 1
261 568 1
421 568 1
456 568 1
519 568 1
163 569 1
219 569 1
262 569 1
422 569 1
457 569 1
520 569 1
164 570 1
220 570 1
263 570 1
423 570 1
458 570 1
516 570 1
170 571 1
191 571 1
239 571 1
444 571 1
479 571 1
537 571 1
166 572 1
192 572 1
240 572 1
445 572 1
480 572 1
538 572 1
167 573 1
193 573 1
236 573 1
441 573 1
476 573 1
539 573 1
168 574 1
194 574 1
237 574 1
442 574 1
477 574 1
540 574 1
169 575 1
195 575 1
238 575 1
443 575 1
478 575 1
536 575 1
175 576 1
181 576 1
229 576 1
449 576 1
469 576 1
527 576 1
171 577 1
182 577 1
230 577 1
450 577 1
470 577 1
528 577 1
172 578 1
183 578 1
226 578 1
446 578 1
466 578 1
529 578 1
173 579 1
184 579 1
227 579 1
447 579 1
467 579 1
530 579 1
174 580 1
185 580 1
228 580 1
448 580 1
468 580 1
526 580 1
180 581 1
186 581 1
234 581 1
439 581 1
474 581 1
532 581 1
176 582 1
187 582 1
235 582 1
440 582 1
475 582 1
533 582 1
177 583 1
188 583 1
231 583 1
436 583 1
471 583 1
534 583 1
178 584 1
189 584 1
232 584 1
437 584 1
472 584 1
535 584 1
179 585 1
190 585 1
233 585 1
438 585 1
473 585 1
531 585 1
164 586 1
185 586 1
251 586 1
417 586 1
459 586 1
539 586 1
165 587 1
181 587 1
252 587 1
418 587 1
460 587 1
540 587 1
161 588 1
182 588 1
253 588 1
419 588 1
456 588 1
536 588 1
162 589 1
183 589 1
254 589 1
420 589 1
457 589 1
537 589 1
163 590 1
184 590 1
255 590 1
416 590 1
458 590 1
538 590 1
154 591 1
190 591 1
241 591 1
407 591 1
464 591 1
529 591 1
155 592 1
186 592 1
242 592 1
408 592 1
465 592 1
530 592 1
151 593 1
187 593 1
243 593 1
409 593 1
461 593 1
526 593 1
152 594 1
188 594 1
244 594 1
410 594 1
462 594 1
527 594 1
153 595 1
189 595 1
245 595 1
406 595 1
463 595 1
528 595 1
159 596 1
195 596 1
246 596 1
412 596 1
454 596 1
534 596 1
160 597 1
191 597 1
247 597 1
413 597 1
455 597 1
535 597 1
156 598 1
192 598 1
248 598 1
414 598 1
451 598 1
531 598 1
157 599 1
193 599 1
249 599 1
415 599 1
452 599 1
532 599 1
158 600 1
194 600 1
250 600 1
411 600 1
453 600 1
533 600 1
179 601 1
200 601 1
266 601 1
432 601 1
474 601 1
509 601 1
180 602 1
196 602 1
267 602 1
433 602 1
475 602 1
510 602 1
176 603 1
197 603 1
268 603 1
434 603 1
471 603 1
506 603 1
177 604 1
198 604 1
269 604 1
435 604 1
472 604 1
507 604 1
178 605 1
199 605 1
270 605 1
431 605 1
473 605 1
508 605 1
169 606 1
205 606 1
256 606 1
422 606 1
479 606 1
499 606 1
170 607 1
201 607 1
257 607 1
423 607 1
480 607 1
500 607 1
166 608 1
202 608 1
258 608 1
424 608 1
476 608 1
496 608 1
167 609 1
203 609 1
259 609 1
425 609 1
477 609 1
497 609 1
168 610 1
204 610 1
260 610 1
421 610 1
478 610 1
498 610 1
174 611 1
210 611 1
261 611 1
427 611 1
469 611 1
504 611 1
175 612 1
206 612 1
262 612 1
428 612 1
470 612 1
505 612 1
171 613 1
207 613 1
263 613 1
429 613 1
466 613 1
501 613 1
172 614 1
208 614 1
264 614 1
430 614 1
467 614 1
502 614 1
173 615 1
209 615 1
265 615 1
426 615 1
468 615 1
503 615 1
149 616 1
215 616 1
236 616 1
447 616 1
489 616 1
524 616 1
150 617 1
211 617 1
237 617 1
448 617 1
490 617 1
525 617 1
146 618 1
212 618 1
238 618 1
449 618 1
486 618 1
521 618 1
147 619 1
213 619 1
239 619 1
450 619 1
487 619 1
522 619 1
148 620 1
214 620 1
240 620 1
446 620 1
488 620 1
523 620 1
139 621 1
220 621 1
226 621 1
437 621 1
494 621 1
514 621 1
140 622 1
216 622 1
227 622 1
438 622 1
495 622 1
515 622 1
136 623 1
217 623 1
228 623 1
439 623 1
491 623 1
511 623 1
137 624 1
218 624 1
229 624 1
440 624 1
492 624 1
512 624 1
138 625 1
219 625 1
230 625 1
436 625 1
493 625 1
513 625 1
144 626 1
225 626 1
231 626 1
442 626 1
484 626 1
519 626 1
145 627 1
221 627 1
232 627 1
443 627 1
485 627 1
520 627 1
141 628 1
222 628 1
233 628 1
444 628 1
481 628 1
516 628 1
142 629 1
223 629 1
234 629 1
445 629 1
482 629 1
517 629 1
143 630 1
224 630 1
235 630 1
441 630 1
483 630 1
518 630 1
161 631 1
209 631 1
230 631 1
449 631 1
462 631 1
504 631 1
162 632 1
210 632 1
226 632 1
450 632 1
463 632 1
505 632 1
163 633 1
206 633 1
227 633 1
446 633 1
464 633 1
501 633 1
164 634 1
207 634 1
228 634 1
447 634 1
465 634 1
502 634 1
165 635 1
208 635 1
229 635 1
448 635 1
461 635 1
503 635 1
151 636 1
199 636 1
235 636 1
439 636 1
452 636 1
509 636 1
152 637 1
200 637 1
231 637 1
440 637 1
453 637 1
510 637 1
153 638 1
196 638 1
232 638 1
436 638 1
454 638 1
506 638 1
154 639 1
197 639 1
233 639 1
437 639 1
455 639 1
507 639 1
155 640 1
198 640 1
234 640 1
438 640 1
451 640 1
508 640 1
156 641 1
204 641 1
240 641 1
444 641 1
457 641 1
499 641 1
157 642 1
205 642 1
236 642 1
445 642 1
458 642 1
500 642 1
158 643 1
201 643 1
237 643 1
441 643 1
459 643 1
496 643 1
159 644 1
202 644 1
238 644 1
442 644 1
460 644 1
497 644 1
160 645 1
203 645 1
239 645 1
443 645 1
456 645 1
498 645 1
176 646 1
224 646 1
245 646 1
419 646 1
477 646 1
519 646 1
177 647 1
225 647 1
241 647 1
420 647 1
478 647 1
520 647 1
178 648 1
221 648 1
242 648 1
416 648 1
479 648 1
516 648 1
179 649 1
222 649 1
243 649 1
417 649 1
480 649 1
517 649 1
180 650 1
223 650 1
244 650 1
418 650 1
476 650 1
518 650 1
166 651 1
214 651 1
250 651 1
409 651 1
467 651 1
524 651 1
167 652 1
215 652 1
246 652 1
410 652 1
468 652 1
525 652 1
168 653 1
211 653 1
247 653 1
406 653 1
469 653 1
521 653 1
169 654 1
212 654 1
248 654 1
407 654 1
470 654 1
522 654 1
170 655 1
213 655 1
249 655 1
408 655 1
466 655 1
523 655 1
171 656 1
219 656 1
255 656 1
414 656 1
472 656 1
514 656 1
172 657 1
220 657 1
251 657 1
415 657 1
473 657 1
515 657 1
173 658 1
216 658 1
252 658 1
411 658 1
474 658 1
511 658 1
174 659 1
217 659 1
253 659 1
412 659 1
475 659 1
512 659 1
175 660 1
218 660 1
254 660 1
413 660 1
471 660 1
513 660 1
146 661 1
194 661 1
260 661 1
434 661 1
492 661 1
534 661 1
147 662 1
195 662 1
256 662 1
435 662 1
493 662 1
535 662 1
148 663 1
191 663 1
257 663 1
431 663 1
494 663 1
531 663 1
149 664 1
192 664 1
258 664 1
432 664 1
495 664 1
532 664 1
150 665 1
193 665 1
259 665 1
433 665 1
491 665 1
533 665 1
136 666 1
184 666 1
265 666 1
424 666 1
482 666 1
539 666 1
137 667 1
185 667 1
261 667 1
425 667 1
483 667 1
540 667 1
138 668 1
181 668 1
262 668 1
421 668 1
484 668 1
536 668 1
139 669 1
182 669 1
263 669 1
422 669 1
485 669 1
537 669 1
140 670 1
183 670 1
264 670 1
423 670 1
481 670 1
538 670 1
141 671 1
189 671 1
270 671 1
429 671 1
487 671 1
529 671 1
142 672 1
190 672 1
266 672 1
430 672 1
488 672 1
530 672 1
143 673 1
186 673 1
267 673 1
426 673 1
489 673 1
526 673 1
144 674 1
187 674 1
268 674 1
427 674 1
490 674 1
527 674 1
145 675 1
188 675 1
269 675 1
428 675 1
486 675 1
528 675 1
275 676 1
341 676 1
389 676 1
414 676 1
467 676 1
510 676 1
271 677 1
342 677 1
390 677 1
415 677 1
468 677 1
506 677 1
272 678 1
343 678 1
386 678 1
411 678 1
469 678 1
507 678 1
273 679 1
344 679 1
387 679 1
412 679 1
470 679 1
508 679 1
274 680 1
345 680 1
388 680 1
413 680 1
466 680 1
509 680 1
280 681 1
331 681 1
379 681 1
419 681 1
472 681 1
500 681 1
276 682 1
332 682 1
380 682 1
420 682 1
473 682 1
496 682 1
277 683 1
333 683 1
376 683 1
416 683 1
474 683 1
497 683 1
278 684 1
334 684 1
377 684 1
417 684 1
475 684 1
498 684 1
279 685 1
335 685 1
378 685 1
418 685 1
471 685 1
499 685 1
285 686 1
336 686 1
384 686 1
409 686 1
477 686 1
505 686 1
281 687 1
337 687 1
385 687 1
410 687 1
478 687 1
501 687 1
282 688 1
338 688 1
381 688 1
406 688 1
479 688 1
502 688 1
283 689 1
339 689 1
382 689 1
407 689 1
480 689 1
503 689 1
284 690 1
340 690 1
383 690 1
408 690 1
476 690 1
504 690 1
290 691 1
356 691 1
404 691 1
429 691 1
482 691 1
525 691 1
286 692 1
357 692 1
405 692 1
430 692 1
483 692 1
521 692 1
287 693 1
358 693 1
401 693 1
426 693 1
484 693 1
522 693 1
288 694 1
359 694 1
402 694 1
427 694 1
485 694 1
523 694 1
289 695 1
360 695 1
403 695 1
428 695 1
481 695 1
524 695 1
295 696 1
346 696 1
394 696 1
434 696 1
487 696 1
515 696 1
291 697 1
347 697 1
395 697 1
435 697 1
488 697 1
511 697 1
292 698 1
348 698 1
391 698 1
431 698 1
489 698 1
512 698 1
293 699 1
349 699 1
392 699 1
432 699 1
490 699 1
513 699 1
294 700 1
350 700 1
393 700 1
433 700 1
486 700 1
514 700 1
300 701 1
351 701 1
399 701 1
424 701 1
492 701 1
520 701 1
296 702 1
352 702 1
400 702 1
425 702 1
493 702 1
516 702 1
297 703 1
353 703 1
396 703 1
421 703 1
494 703 1
517 703 1
298 704 1
354 704 1
397 704 1
422 704 1
495 704 1
518 704 1
299 705 1
355 705 1
398 705 1
423 705 1
491 705 1
519 705 1
305 706 1
326 706 1
374 706 1
444 706 1
452 706 1
540 706 1
301 707 1
327 707 1
375 707 1
445 707 1
453 707 1
536 707 1
302 708 1
328 708 1
371 708 1
441 708 1
454 708 1
537 708 1
303 709 1
329 709 1
372 709 1
442 709 1
455 709 1
538 709 1
304 710 1
330 710 1
373 710 1
443 710 1
451 710 1
539 710 1
310 711 1
316 711 1
364 711 1
449 711 1
457 711 1
530 711 1
306 712 1
317 712 1
365 712 1
450 712 1
458 712 1
526 712 1
307 713 1
318 713 1
361 713 1
446 713 1
459 713 1
527 713 1
308 714 1
319 714 1
362 714 1
447 714 1
460 714 1
528 714 1
309 715 1
320 715 1
363 715 1
448 715 1
456 715 1
529 715 1
315 716 1
321 716 1
369 716 1
439 716 1
462 716 1
535 716 1
311 717 1
322 717 1
370 717 1
440 717 1
463 717 1
531 717 1
312 718 1
323 718 1
366 718 1
436 718 1
464 718 1
532 718 1
313 719 1
324 719 1
367 719 1
437 719 1
465 719 1
533 719 1
314 720 1
325 720 1
368 720 1
438 720 1
461 720 1
534 720 1
299 721 1
320 721 1
386 721 1
420 721 1
459 721 1
512 721 1
300 722 1
316 722 1
387 722 1
416 722 1
460 722 1
513 722 1
296 723 1
317 723 1
388 723 1
417 723 1
456 723 1
514 723 1
297 724 1
318 724 1
389 724 1
418 724 1
457 724 1
515 724 1
298 725 1
319 725 1
390 725 1
419 725 1
458 725 1
511 725 1
289 726 1
325 726 1
376 726 1
410 726 1
464 726 1
517 726 1
290 727 1
321 727 1
377 727 1
406 727 1
465 727 1
518 727 1
286 728 1
322 728 1
378 728 1
407 728 1
461 728 1
519 728 1
287 729 1
323 729 1
379 729 1
408 729 1
462 729 1
520 729 1
288 730 1
324 730 1
380 730 1
409 730 1
463 730 1
516 730 1
294 731 1
330 731 1
381 731 1
415 731 1
454 731 1
522 731 1
295 732 1
326 732 1
382 732 1
411 732 1
455 732 1
523 732 1
291 733 1
327 733 1
383 733 1
412 733 1
451 733 1
524 733 1
292 734 1
328 734 1
384 734 1
413 734 1
452 734 1
525 734 1
293 735 1
329 735 1
385 735 1
414 735 1
453 735 1
521 735 1
314 736 1
335 736 1
401 736 1
435 736 1
474 736 1
527 736 1
315 737 1
331 737 1
402 737 1
431 737 1
475 737 1
528 737 1
311 738 1
332 738 1
403 738 1
432 738 1
471 738 1
529 738 1
312 739 1
333 739 1
404 739 1
433 739 1
472 739 1
530 739 1
313 740 1
334 740 1
405 740 1
434 740 1
473 740 1
526 740 1
304 741 1
340 741 1
391 741 1
425 741 1
479 741 1
532 741 1
305 742 1
336 742 1
392 742 1
421 742 1
480 742 1
533 742 1
301 743 1
337 743 1
393 743 1
422 743 1
476 743 1
534 743 1
302 744 1
338 744 1
394 744 1
423 744 1
477 744 1
535 744 1
303 745 1
339 745 1
395 745 1
424 745 1
478 745 1
531 745 1
309 746 1
345 746 1
396 746 1
430 746 1
469 746 1
537 746 1
310 747 1
341 747 1
397 747 1
426 747 1
470 747 1
538 747 1
306 748 1
342 748 1
398 748 1
427 748 1
466 748 1
539 748 1
307 749 1
343 749 1
399 749 1
428 749 1
467 749 1
540 749 1
308 750 1
344 750 1
400 750 1
429 750 1
468 750 1
536 750 1
284 751 1
350 751 1
371 751 1
450 751 1
489 751 1
497 751 1
285 752 1
346 752 1
372 752 1
446 752 1
490 752 1
498 752 1
281 753 1
347 753 1
373 753 1
447 753 1
486 753 1
499 753 1
282 754 1
348 754 1
374 754 1
448 754 1
487 754 1
500 754 1
283 755 1
349 755 1
375 755 1
449 755 1
488 755 1
496 755 1
274 756 1
355 756 1
361 756 1
440 756 1
494 756 1
502 756 1
275 757 1
351 757 1
362 757 1
436 757 1
495 757 1
503 757 1
271 758 1
352 758 1
363 758 1
437 758 1
491 758 1
504 758 1
272 759 1
353 759 1
364 759 1
438 759 1
492 759 1
505 759 1
273 760 1
354 760 1
365 760 1
439 760 1
493 760 1
501 760 1
279 761 1
360 761 1
366 761 1
445 761 1
484 761 1
507 761 1
280 762 1
356 762 1
367 762 1
441 762 1
485 762 1
508 762 1
276 763 1
357 763 1
368 763 1
442 763 1
481 763 1
509 763 1
277 764 1
358 764 1
369 764 1
443 764 1
482 764 1
510 764 1
278 765 1
359 765 1
370 765 1
444 765 1
483 765 1
506 765 1
296 766 1
344 766 1
365 766 1
422 766 1
465 766 1
504 766 1
297 767 1
345 767 1
361 767 1
423 767 1
461 767 1
505 767 1
298 768 1
341 768 1
362 768 1
424 768 1
462 768 1
501 768 1
299 769 1
342 769 1
363 769 1
425 769 1
463 769 1
502 769 1
300 770 1
343 770 1
364 770 1
421 770 1
464 770 1
503 770 1
286 771 1
334 771 1
370 771 1
427 771 1
455 771 1
509 771 1
287 772 1
335 772 1
366 772 1
428 772 1
451 772 1
510 772 1
288 773 1
331 773 1
367 773 1
429 773 1
452 773 1
506 773 1
289 774 1
332 774 1
368 774 1
430 774 1
453 774 1
507 774 1
290 775 1
333 775 1
369 775 1
426 775 1
454 775 1
508 775 1
291 776 1
339 776 1
375 776 1
432 776 1
460 776 1
499 776 1
292 777 1
340 777 1
371 777 1
433 777 1
456 777 1
500 777 1
293 778 1
336 778 1
372 778 1
434 778 1
457 778 1
496 778 1
294 779 1
337 779 1
373 779 1
435 779 1
458 779 1
497 779 1
295 780 1
338 780 1
374 780 1
431 780 1
459 780 1
498 780 1
311 781 1
359 781 1
380 781 1
437 781 1
480 781 1
519 781 1
312 782 1
360 782 1
376 782 1
438 782 1
476 782 1
520 782 1
313 783 1
356 783 1
377 783 1
439 783 1
477 783 1
516 783 1
314 784 1
357 784 1
378 784 1
440 784 1
478 784 1
517 784 1
315 785 1
358 785 1
379 785 1
436 785 1
479 785 1
518 785 1
301 786 1
349 786 1
385 786 1
442 786 1
470 786 1
524 786 1
302 787 1
350 787 1
381 787 1
443 787 1
466 787 1
525 787 1
303 788 1
346 788 1
382 788 1
444 788 1
467 788 1
521 788 1
304 789 1
347 789 1
383 789 1
445 789 1
468 789 1
522 789 1
305 790 1
348 790 1
384 790 1
441 790 1
469 790 1
523 790 1
306 791 1
354 791 1
390 791 1
447 791 1
475 791 1
514 791 1
307 792 1
355 792 1
386 792 1
448 792 1
471 792 1
515 792 1
308 793 1
351 793 1
387 793 1
449 793 1
472 793 1
511 793 1
309 794 1
352 794 1
388 794 1
450 794 1
473 794 1
512 794 1
310 795 1
353 795 1
389 795 1
446 795 1
474 795 1
513 795 1
281 796 1
329 796 1
395 796 1
407 796 1
495 796 1
534 796 1
282 797 1
330 797 1
391 797 1
408 797 1
491 797 1
535 797 1
283 798 1
326 798 1
392 798 1
409 798 1
492 798 1
531 798 1
284 799 1
327 799 1
393 799 1
410 799 1
493 799 1
532 799 1
285 800 1
328 800 1
394 800 1
406 800 1
494 800 1
533 800 1
271 801 1
319 801 1
400 801 1
412 801 1
485 801 1
539 801 1
272 802 1
320 802 1
396 802 1
413 802 1
481 802 1
540 802 1
273 803 1
316 803 1
397 803 1
414 803 1
482 803 1
536 803 1
274 804 1
317 804 1
398 804 1
415 804 1
483 804 1
537 804 1
275 805 1
318 805 1
399 805 1
411 805 1
484 805 1
538 805 1
276 806 1
324 806 1
405 806 1
417 806 1
490 806 1
529 806 1
277 807 1
325 807 1
401 807 1
418 807 1
486 807 1
530 807 1
278 808 1
321 808 1
402 808 1
419 808 1
487 808 1
526 808 1
279 809 1
322 809 1
403 809 1
420 809 1
488 809 1
527 809 1
280 810 1
323 810 1
404 810 1
416 810 1
489 810 1
528 810 1
