%%MatrixMarket matrix coordinate integer general
% Binary matrix; one-based indices; arithmetic over GF(2)
450 450 2700
1 1 1
40 1 1
46 1 1
56 1 1
181 1 1
185 1 1
2 2 1
41 2 1
47 2 1
57 2 1
182 2 1
186 2 1
3 3 1
42 3 1
48 3 1
58 3 1
183 3 1
187 3 1
4 4 1
43 4 1
49 4 1
59 4 1
184 4 1
188 4 1
5 5 1
44 5 1
50 5 1
60 5 1
185 5 1
189 5 1
6 6 1
45 6 1
51 6 1
61 6 1
186 6 1
190 6 1
1 7 1
7 7 1
52 7 1
62 7 1
187 7 1
191 7 1
2 8 1
8 8 1
53 8 1
63 8 1
188 8 1
192 8 1
3 9 1
9 9 1
54 9 1
64 9 1
189 9 1
193 9 1
4 10 1
10 10 1
55 10 1
65 10 1
190 10 1
194 10 1
5 11 1
11 11 1
56 11 1
66 11 1
191 11 1
195 11 1
6 12 1
12 12 1
57 12 1
67 12 1
192 12 1
196 12 1
7 13 1
13 13 1
58 13 1
68 13 1
193 13 1
197 13 1
8 14 1
14 14 1
59 14 1
69 14 1
194 14 1
198 14 1
9 15 1
15 15 1
60 15 1
70 15 1
195 15 1
199 15 1
10 16 1
16 16 1
61 16 1
71 16 1
196 16 1
200 16 1
11 17 1
17 17 1
62 17 1
72 17 1
197 17 1
201 17 1
12 18 1
18 18 1
63 18 1
73 18 1
198 18 1
202 18 1
13 19 1
19 19 1
64 19 1
74 19 1
199 19 1
203 19 1
14 20 1
20 20 1
65 20 1
75 20 1
200 20 1
204 20 1
15 21 1
21 21 1
66 21 1
76 21 1
201 21 1
205 21 1
16 22 1
22 22 1
67 22 1
77 22 1
202 22 1
206 22 1
17 23 1
23 23 1
68 23 1
78 23 1
203 23 1
207 23 1
18 24 1
24 24 1
69 24 1
79 24 1
204 24 1
208 24 1
19 25 1
25 25 1
70 25 1
80 25 1
205 25 1
209 25 1
20 26 1
26 26 1
71 26 1
81 26 1
206 26 1
210 26 1
21 27 1
27 27 1
72 27 1
82 27 1
207 27 1
211 27 1
22 28 1
28 28 1
73 28 1
83 28 1
208 28 1
212 28 1
23 29 1
29 29 1
74 29 1
84 29 1
209 29 1
213 29 1
24 30 1
30 30 1
75 30 1
85 30 1
210 30 1
214 30 1
25 31 1
31 31 1
76 31 1
86 31 1
211 31 1
215 31 1
26 32 1
32 32 1
77 32 1
87 32 1
212 32 1
216 32 1
27 33 1
33 33 1
78 33 1
88 33 1
213 33 1
217 33 1
28 34 1
34 34 1
79 34 1
89 34 1
214 34 1
218 34 1
29 35 1
35 35 1
80 35 1
90 35 1
215 35 1
219 35 1
30 36 1
36 36 1
46 36 1
81 36 1
216 36 1
220 36 1
31 37 1
37 37 1
47 37 1
82 37 1
217 37 1
221 37 1
32 38 1
38 38 1
48 38 1
83 38 1
218 38 1
222 38 1
33 39 1
39 39 1
49 39 1
84 39 1
219 39 1
223 39 1
34 40 1
40 40 1
50 40 1
85 40 1
220 40 1
224 40 1
35 41 1
41 41 1
51 41 1
86 41 1
221 41 1
225 41 1
36 42 1
42 42 1
52 42 1
87 42 1
181 42 1
222 42 1
37 43 1
43 43 1
53 43 1
88 43 1
182 43 1
223 43 1
38 44 1
44 44 1
54 44 1
89 44 1
183 44 1
224 44 1
39 45 1
45 45 1
55 45 1
90 45 1
184 45 1
225 45 1
1 46 1
22 46 1
91 46 1
101 46 1
226 46 1
230 46 1
2 47 1
23 47 1
92 47 1
102 47 1
227 47 1
231 47 1
3 48 1
24 48 1
93 48 1
103 48 1
228 48 1
232 48 1
4 49 1
25 49 1
94 49 1
104 49 1
229 49 1
233 49 1
5 50 1
26 50 1
95 50 1
105 50 1
230 50 1
234 50 1
6 51 1
27 51 1
96 51 1
106 51 1
231 51 1
235 51 1
7 52 1
28 52 1
97 52 1
107 52 1
232 52 1
236 52 1
8 53 1
29 53 1
98 53 1
108 53 1
233 53 1
237 53 1
9 54 1
30 54 1
99 54 1
109 54 1
234 54 1
238 54 1
10 55 1
31 55 1
100 55 1
110 55 1
235 55 1
239 55 1
11 56 1
32 56 1
101 56 1
111 56 1
236 56 1
240 56 1
12 57 1
33 57 1
102 57 1
112 57 1
237 57 1
241 57 1
13 58 1
34 58 1
103 58 1
113 58 1
238 58 1
242 58 1
14 59 1
35 59 1
104 59 1
114 59 1
239 59 1
243 59 1
15 60 1
36 60 1
105 60 1
115 60 1
240 60 1
244 60 1
16 61 1
37 61 1
106 61 1
116 61 1
241 61 1
245 61 1
17 62 1
38 62 1
107 62 1
117 62 1
242 62 1
246 62 1
18 63 1
39 63 1
108 63 1
118 63 1
243 63 1
247 63 1
19 64 1
40 64 1
109 64 1
119 64 1
244 64 1
248 64 1
20 65 1
41 65 1
110 65 1
120 65 1
245 65 1
249 65 1
21 66 1
42 66 1
111 66 1
121 66 1
246 66 1
250 66 1
22 67 1
43 67 1
112 67 1
122 67 1
247 67 1
251 67 1
23 68 1
44 68 1
113 68 1
123 68 1
248 68 1
252 68 1
24 69 1
45 69 1
114 69 1
124 69 1
249 69 1
253 69 1
1 70 1
25 70 1
115 70 1
125 70 1
250 70 1
254 70 1
2 71 1
26 71 1
116 71 1
126 71 1
251 71 1
255 71 1
3 72 1
27 72 1
117 72 1
127 72 1
252 72 1
256 72 1
4 73 1
28 73 1
118 73 1
128 73 1
253 73 1
257 73 1
5 74 1
29 74 1
119 74 1
129 74 1
254 74 1
258 74 1
6 75 1
30 75 1
120 75 1
130 75 1
255 75 1
259 75 1
7 76 1
31 76 1
121 76 1
131 76 1
256 76 1
260 76 1
8 77 1
32 77 1
122 77 1
132 77 1
257 77 1
261 77 1
9 78 1
33 78 1
123 78 1
133 78 1
258 78 1
262 78 1
10 79 1
34 79 1
124 79 1
134 79 1
259 79 1
263 79 1
11 80 1
35 80 1
125 80 1
135 80 1
260 80 1
264 80 1
12 81 1
36 81 1
91 81 1
126 81 1
261 81 1
265 81 1
13 82 1
37 82 1
92 82 1
127 82 1
262 82 1
266 82 1
14 83 1
38 83 1
93 83 1
128 83 1
263 83 1
267 83 1
15 84 1
39 84 1
94 84 1
129 84 1
264 84 1
268 84 1
16 85 1
40 85 1
95 85 1
130 85 1
265 85 1
269 85 1
17 86 1
41 86 1
96 86 1
131 86 1
266 86 1
270 86 1
18 87 1
42 87 1
97 87 1
132 87 1
226 87 1
267 87 1
19 88 1
43 88 1
98 88 1
133 88 1
227 88 1
268 88 1
20 89 1
44 89 1
99 89 1
134 89 1
228 89 1
269 89 1
21 90 1
45 90 1
100 90 1
135 90 1
229 90 1
270 90 1
1 91 1
27 91 1
136 91 1
146 91 1
271 91 1
275 91 1
2 92 1
28 92 1
137 92 1
147 92 1
272 92 1
276 92 1
3 93 1
29 93 1
138 93 1
148 93 1
273 93 1
277 93 1
4 94 1
30 94 1
139 94 1
149 94 1
274 94 1
278 94 1
5 95 1
31 95 1
140 95 1
150 95 1
275 95 1
279 95 1
6 96 1
32 96 1
141 96 1
151 96 1
276 96 1
280 96 1
7 97 1
33 97 1
142 97 1
152 97 1
277 97 1
281 97 1
8 98 1
34 98 1
143 98 1
153 98 1
278 98 1
282 98 1
9 99 1
35 99 1
144 99 1
154 99 1
279 99 1
283 99 1
10 100 1
36 100 1
145 100 1
155 100 1
280 100 1
284 100 1
11 101 1
37 101 1
146 101 1
156 101 1
281 101 1
285 101 1
12 102 1
38 102 1
147 102 1
157 102 1
282 102 1
286 102 1
13 103 1
39 103 1
148 103 1
158 103 1
283 103 1
287 103 1
14 104 1
40 104 1
149 104 1
159 104 1
284 104 1
288 104 1
15 105 1
41 105 1
150 105 1
160 105 1
285 105 1
289 105 1
16 106 1
42 106 1
151 106 1
161 106 1
286 106 1
290 106 1
17 107 1
43 107 1
152 107 1
162 107 1
287 107 1
291 107 1
18 108 1
44 108 1
153 108 1
163 108 1
288 108 1
292 108 1
19 109 1
45 109 1
154 109 1
164 109 1
289 109 1
293 109 1
1 110 1
20 110 1
155 110 1
165 110 1
290 110 1
294 110 1
2 111 1
21 111 1
156 111 1
166 111 1
291 111 1
295 111 1
3 112 1
22 112 1
157 112 1
167 112 1
292 112 1
296 112 1
4 113 1
23 113 1
158 113 1
168 113 1
293 113 1
297 113 1
5 114 1
24 114 1
159 114 1
169 114 1
294 114 1
298 114 1
6 115 1
25 115 1
160 115 1
170 115 1
295 115 1
299 115 1
7 116 1
26 116 1
161 116 1
171 116 1
296 116 1
300 116 1
8 117 1
27 117 1
162 117 1
172 117 1
297 117 1
301 117 1
9 118 1
28 118 1
163 118 1
173 118 1
298 118 1
302 118 1
10 119 1
29 119 1
164 119 1
174 119 1
299 119 1
303 119 1
11 120 1
30 120 1
165 120 1
175 120 1
300 120 1
304 120 1
12 121 1
31 121 1
166 121 1
176 121 1
301 121 1
305 121 1
13 122 1
32 122 1
167 122 1
177 122 1
302 122 1
306 122 1
14 123 1
33 123 1
168 123 1
178 123 1
303 123 1
307 123 1
15 124 1
34 124 1
169 124 1
179 124 1
304 124 1
308 124 1
16 125 1
35 125 1
170 125 1
180 125 1
305 125 1
309 125 1
17 126 1
36 126 1
136 126 1
171 126 1
306 126 1
310 126 1
18 127 1
37 127 1
137 127 1
172 127 1
307 127 1
311 127 1
19 128 1
38 128 1
138 128 1
173 128 1
308 128 1
312 128 1
20 129 1
39 129 1
139 129 1
174 129 1
309 129 1
313 129 1
21 130 1
40 130 1
140 130 1
175 130 1
310 130 1
314 130 1
22 131 1
41 131 1
141 131 1
176 131 1
311 131 1
315 131 1
23 132 1
42 132 1
142 132 1
177 132 1
271 132 1
312 132 1
24 133 1
43 133 1
143 133 1
178 133 1
272 133 1
313 133 1
25 134 1
44 134 1
144 134 1
179 134 1
273 134 1
314 134 1
26 135 1
45 135 1
145 135 1
180 135 1
274 135 1
315 135 1
46 136 1
67 136 1
91 136 1
130 136 1
316 136 1
320 136 1
47 137 1
68 137 1
92 137 1
131 137 1
317 137 1
321 137 1
48 138 1
69 138 1
93 138 1
132 138 1
318 138 1
322 138 1
49 139 1
70 139 1
94 139 1
133 139 1
319 139 1
323 139 1
50 140 1
71 140 1
95 140 1
134 140 1
320 140 1
324 140 1
51 141 1
72 141 1
96 141 1
135 141 1
321 141 1
325 141 1
52 142 1
73 142 1
91 142 1
97 142 1
322 142 1
326 142 1
53 143 1
74 143 1
92 143 1
98 143 1
323 143 1
327 143 1
54 144 1
75 144 1
93 144 1
99 144 1
324 144 1
328 144 1
55 145 1
76 145 1
94 145 1
100 145 1
325 145 1
329 145 1
56 146 1
77 146 1
95 146 1
101 146 1
326 146 1
330 146 1
57 147 1
78 147 1
96 147 1
102 147 1
327 147 1
331 147 1
58 148 1
79 148 1
97 148 1
103 148 1
328 148 1
332 148 1
59 149 1
80 149 1
98 149 1
104 149 1
329 149 1
333 149 1
60 150 1
81 150 1
99 150 1
105 150 1
330 150 1
334 150 1
61 151 1
82 151 1
100 151 1
106 151 1
331 151 1
335 151 1
62 152 1
83 152 1
101 152 1
107 152 1
332 152 1
336 152 1
63 153 1
84 153 1
102 153 1
108 153 1
333 153 1
337 153 1
64 154 1
85 154 1
103 154 1
109 154 1
334 154 1
338 154 1
65 155 1
86 155 1
104 155 1
110 155 1
335 155 1
339 155 1
66 156 1
87 156 1
105 156 1
111 156 1
336 156 1
340 156 1
67 157 1
88 157 1
106 157 1
112 157 1
337 157 1
341 157 1
68 158 1
89 158 1
107 158 1
113 158 1
338 158 1
342 158 1
69 159 1
90 159 1
108 159 1
114 159 1
339 159 1
343 159 1
46 160 1
70 160 1
109 160 1
115 160 1
340 160 1
344 160 1
47 161 1
71 161 1
110 161 1
116 161 1
341 161 1
345 161 1
48 162 1
72 162 1
111 162 1
117 162 1
342 162 1
346 162 1
49 163 1
73 163 1
112 163 1
118 163 1
343 163 1
347 163 1
50 164 1
74 164 1
113 164 1
119 164 1
344 164 1
348 164 1
51 165 1
75 165 1
114 165 1
120 165 1
345 165 1
349 165 1
52 166 1
76 166 1
115 166 1
121 166 1
346 166 1
350 166 1
53 167 1
77 167 1
116 167 1
122 167 1
347 167 1
351 167 1
54 168 1
78 168 1
117 168 1
123 168 1
348 168 1
352 168 1
55 169 1
79 169 1
118 169 1
124 169 1
349 169 1
353 169 1
56 170 1
80 170 1
119 170 1
125 170 1
350 170 1
354 170 1
57 171 1
81 171 1
120 171 1
126 171 1
351 171 1
355 171 1
58 172 1
82 172 1
121 172 1
127 172 1
352 172 1
356 172 1
59 173 1
83 173 1
122 173 1
128 173 1
353 173 1
357 173 1
60 174 1
84 174 1
123 174 1
129 174 1
354 174 1
358 174 1
61 175 1
85 175 1
124 175 1
130 175 1
355 175 1
359 175 1
62 176 1
86 176 1
125 176 1
131 176 1
356 176 1
360 176 1
63 177 1
87 177 1
126 177 1
132 177 1
316 177 1
357 177 1
64 178 1
88 178 1
127 178 1
133 178 1
317 178 1
358 178 1
65 179 1
89 179 1
128 179 1
134 179 1
318 179 1
359 179 1
66 180 1
90 180 1
129 180 1
135 180 1
319 180 1
360 180 1
46 181 1
72 181 1
136 181 1
175 181 1
361 181 1
365 181 1
47 182 1
73 182 1
137 182 1
176 182 1
362 182 1
366 182 1
48 183 1
74 183 1
138 183 1
177 183 1
363 183 1
367 183 1
49 184 1
75 184 1
139 184 1
178 184 1
364 184 1
368 184 1
50 185 1
76 185 1
140 185 1
179 185 1
365 185 1
369 185 1
51 186 1
77 186 1
141 186 1
180 186 1
366 186 1
370 186 1
52 187 1
78 187 1
136 187 1
142 187 1
367 187 1
371 187 1
53 188 1
79 188 1
137 188 1
143 188 1
368 188 1
372 188 1
54 189 1
80 189 1
138 189 1
144 189 1
369 189 1
373 189 1
55 190 1
81 190 1
139 190 1
145 190 1
370 190 1
374 190 1
56 191 1
82 191 1
140 191 1
146 191 1
371 191 1
375 191 1
57 192 1
83 192 1
141 192 1
147 192 1
372 192 1
376 192 1
58 193 1
84 193 1
142 193 1
148 193 1
373 193 1
377 193 1
59 194 1
85 194 1
143 194 1
149 194 1
374 194 1
378 194 1
60 195 1
86 195 1
144 195 1
150 195 1
375 195 1
379 195 1
61 196 1
87 196 1
145 196 1
151 196 1
376 196 1
380 196 1
62 197 1
88 197 1
146 197 1
152 197 1
377 197 1
381 197 1
63 198 1
89 198 1
147 198 1
153 198 1
378 198 1
382 198 1
64 199 1
90 199 1
148 199 1
154 199 1
379 199 1
383 199 1
46 200 1
65 200 1
149 200 1
155 200 1
380 200 1
384 200 1
47 201 1
66 201 1
150 201 1
156 201 1
381 201 1
385 201 1
48 202 1
67 202 1
151 202 1
157 202 1
382 202 1
386 202 1
49 203 1
68 203 1
152 203 1
158 203 1
383 203 1
387 203 1
50 204 1
69 204 1
153 204 1
159 204 1
384 204 1
388 204 1
51 205 1
70 205 1
154 205 1
160 205 1
385 205 1
389 205 1
52 206 1
71 206 1
155 206 1
161 206 1
386 206 1
390 206 1
53 207 1
72 207 1
156 207 1
162 207 1
387 207 1
391 207 1
54 208 1
73 208 1
157 208 1
163 208 1
388 208 1
392 208 1
55 209 1
74 209 1
158 209 1
164 209 1
389 209 1
393 209 1
56 210 1
75 210 1
159 210 1
165 210 1
390 210 1
394 210 1
57 211 1
76 211 1
160 211 1
166 211 1
391 211 1
395 211 1
58 212 1
77 212 1
161 212 1
167 212 1
392 212 1
396 212 1
59 213 1
78 213 1
162 213 1
168 213 1
393 213 1
397 213 1
60 214 1
79 214 1
163 214 1
169 214 1
394 214 1
398 214 1
61 215 1
80 215 1
164 215 1
170 215 1
395 215 1
399 215 1
62 216 1
81 216 1
165 216 1
171 216 1
396 216 1
400 216 1
63 217 1
82 217 1
166 217 1
172 217 1
397 217 1
401 217 1
64 218 1
83 218 1
167 218 1
173 218 1
398 218 1
402 218 1
65 219 1
84 219 1
168 219 1
174 219 1
399 219 1
403 219 1
66 220 1
85 220 1
169 220 1
175 220 1
400 220 1
404 220 1
67 221 1
86 221 1
170 221 1
176 221 1
401 221 1
405 221 1
68 222 1
87 222 1
171 222 1
177 222 1
361 222 1
402 222 1
69 223 1
88 223 1
172 223 1
178 223 1
362 223 1
403 223 1
70 224 1
89 224 1
173 224 1
179 224 1
363 224 1
404 224 1
71 225 1
90 225 1
174 225 1
180 225 1
364 225 1
405 225 1
91 226 1
117 226 1
136 226 1
157 226 1
406 226 1
410 226 1
92 227 1
118 227 1
137 227 1
158 227 1
407 227 1
411 227 1
93 228 1
119 228 1
138 228 1
159 228 1
408 228 1
412 228 1
94 229 1
120 229 1
139 229 1
160 229 1
409 229 1
413 229 1
95 230 1
121 230 1
140 230 1
161 230 1
410 230 1
414 230 1
96 231 1
122 231 1
141 231 1
162 231 1
411 231 1
415 231 1
97 232 1
123 232 1
142 232 1
163 232 1
412 232 1
416 232 1
98 233 1
124 233 1
143 233 1
164 233 1
413 233 1
417 233 1
99 234 1
125 234 1
144 234 1
165 234 1
414 234 1
418 234 1
100 235 1
126 235 1
145 235 1
166 235 1
415 235 1
419 235 1
101 236 1
127 236 1
146 236 1
167 236 1
416 236 1
420 236 1
102 237 1
128 237 1
147 237 1
168 237 1
417 237 1
421 237 1
103 238 1
129 238 1
148 238 1
169 238 1
418 238 1
422 238 1
104 239 1
130 239 1
149 239 1
170 239 1
419 239 1
423 239 1
105 240 1
131 240 1
150 240 1
171 240 1
420 240 1
424 240 1
106 241 1
132 241 1
151 241 1
172 241 1
421 241 1
425 241 1
107 242 1
133 242 1
152 242 1
173 242 1
422 242 1
426 242 1
108 243 1
134 243 1
153 243 1
174 243 1
423 243 1
427 243 1
109 244 1
135 244 1
154 244 1
175 244 1
424 244 1
428 244 1
91 245 1
110 245 1
155 245 1
176 245 1
425 245 1
429 245 1
92 246 1
111 246 1
156 246 1
177 246 1
426 246 1
430 246 1
93 247 1
112 247 1
157 247 1
178 247 1
427 247 1
431 247 1
94 248 1
113 248 1
158 248 1
179 248 1
428 248 1
432 248 1
95 249 1
114 249 1
159 249 1
180 249 1
429 249 1
433 249 1
96 250 1
115 250 1
136 250 1
160 250 1
430 250 1
434 250 1
97 251 1
116 251 1
137 251 1
161 251 1
431 251 1
435 251 1
98 252 1
117 252 1
138 252 1
162 252 1
432 252 1
436 252 1
99 253 1
118 253 1
139 253 1
163 253 1
433 253 1
437 253 1
100 254 1
119 254 1
140 254 1
164 254 1
434 254 1
438 254 1
101 255 1
120 255 1
141 255 1
165 255 1
435 255 1
439 255 1
102 256 1
121 256 1
142 256 1
166 256 1
436 256 1
440 256 1
103 257 1
122 257 1
143 257 1
167 257 1
437 257 1
441 257 1
104 258 1
123 258 1
144 258 1
168 258 1
438 258 1
442 258 1
105 259 1
124 259 1
145 259 1
169 259 1
439 259 1
443 259 1
106 260 1
125 260 1
146 260 1
170 260 1
440 260 1
444 260 1
107 261 1
126 261 1
147 261 1
171 261 1
441 261 1
445 261 1
108 262 1
127 262 1
148 262 1
172 262 1
442 262 1
446 262 1
109 263 1
128 263 1
149 263 1
173 263 1
443 263 1
447 263 1
110 264 1
129 264 1
150 264 1
174 264 1
444 264 1
448 264 1
111 265 1
130 265 1
151 265 1
175 265 1
445 265 1
449 265 1
112 266 1
131 266 1
152 266 1
176 266 1
446 266 1
450 266 1
113 267 1
132 267 1
153 267 1
177 267 1
406 267 1
447 267 1
114 268 1
133 268 1
154 268 1
178 268 1
407 268 1
448 268 1
115 269 1
134 269 1
155 269 1
179 269 1
408 269 1
449 269 1
116 270 1
135 270 1
156 270 1
180 270 1
409 270 1
450 270 1
181 271 1
202 271 1
226 271 1
265 271 1
316 271 1
326 271 1
182 272 1
203 272 1
227 272 1
266 272 1
317 272 1
327 272 1
183 273 1
204 273 1
228 273 1
267 273 1
318 273 1
328 273 1
184 274 1
205 274 1
229 274 1
268 274 1
319 274 1
329 274 1
185 275 1
206 275 1
230 275 1
269 275 1
320 275 1
330 275 1
186 276 1
207 276 1
231 276 1
270 276 1
321 276 1
331 276 1
187 277 1
208 277 1
226 277 1
232 277 1
322 277 1
332 277 1
188 278 1
209 278 1
227 278 1
233 278 1
323 278 1
333 278 1
189 279 1
210 279 1
228 279 1
234 279 1
324 279 1
334 279 1
190 280 1
211 280 1
229 280 1
235 280 1
325 280 1
335 280 1
191 281 1
212 281 1
230 281 1
236 281 1
326 281 1
336 281 1
192 282 1
213 282 1
231 282 1
237 282 1
327 282 1
337 282 1
193 283 1
214 283 1
232 283 1
238 283 1
328 283 1
338 283 1
194 284 1
215 284 1
233 284 1
239 284 1
329 284 1
339 284 1
195 285 1
216 285 1
234 285 1
240 285 1
330 285 1
340 285 1
196 286 1
217 286 1
235 286 1
241 286 1
331 286 1
341 286 1
197 287 1
218 287 1
236 287 1
242 287 1
332 287 1
342 287 1
198 288 1
219 288 1
237 288 1
243 288 1
333 288 1
343 288 1
199 289 1
220 289 1
238 289 1
244 289 1
334 289 1
344 289 1
200 290 1
221 290 1
239 290 1
245 290 1
335 290 1
345 290 1
201 291 1
222 291 1
240 291 1
246 291 1
336 291 1
346 291 1
202 292 1
223 292 1
241 292 1
247 292 1
337 292 1
347 292 1
203 293 1
224 293 1
242 293 1
248 293 1
338 293 1
348 293 1
204 294 1
225 294 1
243 294 1
249 294 1
339 294 1
349 294 1
181 295 1
205 295 1
244 295 1
250 295 1
340 295 1
350 295 1
182 296 1
206 296 1
245 296 1
251 296 1
341 296 1
351 296 1
183 297 1
207 297 1
246 297 1
252 297 1
342 297 1
352 297 1
184 298 1
208 298 1
247 298 1
253 298 1
343 298 1
353 298 1
185 299 1
209 299 1
248 299 1
254 299 1
344 299 1
354 299 1
186 300 1
210 300 1
249 300 1
255 300 1
345 300 1
355 300 1
187 301 1
211 301 1
250 301 1
256 301 1
346 301 1
356 301 1
188 302 1
212 302 1
251 302 1
257 302 1
347 302 1
357 302 1
189 303 1
213 303 1
252 303 1
258 303 1
348 303 1
358 303 1
190 304 1
214 304 1
253 304 1
259 304 1
349 304 1
359 304 1
191 305 1
215 305 1
254 305 1
260 305 1
350 305 1
360 305 1
192 306 1
216 306 1
255 306 1
261 306 1
316 306 1
351 306 1
193 307 1
217 307 1
256 307 1
262 307 1
317 307 1
352 307 1
194 308 1
218 308 1
257 308 1
263 308 1
318 308 1
353 308 1
195 309 1
219 309 1
258 309 1
264 309 1
319 309 1
354 309 1
196 310 1
220 310 1
259 310 1
265 310 1
320 310 1
355 310 1
197 311 1
221 311 1
260 311 1
266 311 1
321 311 1
356 311 1
198 312 1
222 312 1
261 312 1
267 312 1
322 312 1
357 312 1
199 313 1
223 313 1
262 313 1
268 313 1
323 313 1
358 313 1
200 314 1
224 314 1
263 314 1
269 314 1
324 314 1
359 314 1
201 315 1
225 315 1
264 315 1
270 315 1
325 315 1
360 315 1
181 316 1
207 316 1
271 316 1
310 316 1
361 316 1
371 316 1
182 317 1
208 317 1
272 317 1
311 317 1
362 317 1
372 317 1
183 318 1
209 318 1
273 318 1
312 318 1
363 318 1
373 318 1
184 319 1
210 319 1
274 319 1
313 319 1
364 319 1
374 319 1
185 320 1
211 320 1
275 320 1
314 320 1
365 320 1
375 320 1
186 321 1
212 321 1
276 321 1
315 321 1
366 321 1
376 321 1
187 322 1
213 322 1
271 322 1
277 322 1
367 322 1
377 322 1
188 323 1
214 323 1
272 323 1
278 323 1
368 323 1
378 323 1
189 324 1
215 324 1
273 324 1
279 324 1
369 324 1
379 324 1
190 325 1
216 325 1
274 325 1
280 325 1
370 325 1
380 325 1
191 326 1
217 326 1
275 326 1
281 326 1
371 326 1
381 326 1
192 327 1
218 327 1
276 327 1
282 327 1
372 327 1
382 327 1
193 328 1
219 328 1
277 328 1
283 328 1
373 328 1
383 328 1
194 329 1
220 329 1
278 329 1
284 329 1
374 329 1
384 329 1
195 330 1
221 330 1
279 330 1
285 330 1
375 330 1
385 330 1
196 331 1
222 331 1
280 331 1
286 331 1
376 331 1
386 331 1
197 332 1
223 332 1
281 332 1
287 332 1
377 332 1
387 332 1
198 333 1
224 333 1
282 333 1
288 333 1
378 333 1
388 333 1
199 334 1
225 334 1
283 334 1
289 334 1
379 334 1
389 334 1
181 335 1
200 335 1
284 335 1
290 335 1
380 335 1
390 335 1
182 336 1
201 336 1
285 336 1
291 336 1
381 336 1
391 336 1
183 337 1
202 337 1
286 337 1
292 337 1
382 337 1
392 337 1
184 338 1
203 338 1
287 338 1
293 338 1
383 338 1
393 338 1
185 339 1
204 339 1
288 339 1
294 339 1
384 339 1
394 339 1
186 340 1
205 340 1
289 340 1
295 340 1
385 340 1
395 340 1
187 341 1
206 341 1
290 341 1
296 341 1
386 341 1
396 341 1
188 342 1
207 342 1
291 342 1
297 342 1
387 342 1
397 342 1
189 343 1
208 343 1
292 343 1
298 343 1
388 343 1
398 343 1
190 344 1
209 344 1
293 344 1
299 344 1
389 344 1
399 344 1
191 345 1
210 345 1
294 345 1
300 345 1
390 345 1
400 345 1
192 346 1
211 346 1
295 346 1
301 346 1
391 346 1
401 346 1
193 347 1
212 347 1
296 347 1
302 347 1
392 347 1
402 347 1
194 348 1
213 348 1
297 348 1
303 348 1
393 348 1
403 348 1
195 349 1
214 349 1
298 349 1
304 349 1
394 349 1
404 349 1
196 350 1
215 350 1
299 350 1
305 350 1
395 350 1
405 350 1
197 351 1
216 351 1
300 351 1
306 351 1
361 351 1
396 351 1
198 352 1
217 352 1
301 352 1
307 352 1
362 352 1
397 352 1
199 353 1
218 353 1
302 353 1
308 353 1
363 353 1
398 353 1
200 354 1
219 354 1
303 354 1
309 354 1
364 354 1
399 354 1
201 355 1
220 355 1
304 355 1
310 355 1
365 355 1
400 355 1
202 356 1
221 356 1
305 356 1
311 356 1
366 356 1
401 356 1
203 357 1
222 357 1
306 357 1
312 357 1
367 357 1
402 357 1
204 358 1
223 358 1
307 358 1
313 358 1
368 358 1
403 358 1
205 359 1
224 359 1
308 359 1
314 359 1
369 359 1
404 359 1
206 360 1
225 360 1
309 360 1
315 360 1
370 360 1
405 360 1
226 361 1
252 361 1
271 361 1
292 361 1
406 361 1
416 361 1
227 362 1
253 362 1
272 362 1
293 362 1
407 362 1
417 362 1
228 363 1
254 363 1
273 363 1
294 363 1
408 363 1
418 363 1
229 364 1
255 364 1
274 364 1
295 364 1
409 364 1
419 364 1
230 365 1
256 365 1
275 365 1
296 365 1
410 365 1
420 365 1
231 366 1
257 366 1
276 366 1
297 366 1
411 366 1
421 366 1
232 367 1
258 367 1
277 367 1
298 367 1
412 367 1
422 367 1
233 368 1
259 368 1
278 368 1
299 368 1
413 368 1
423 368 1
234 369 1
260 369 1
279 369 1
300 369 1
414 369 1
424 369 1
235 370 1
261 370 1
280 370 1
301 370 1
415 370 1
425 370 1
236 371 1
262 371 1
281 371 1
302 371 1
416 371 1
426 371 1
237 372 1
263 372 1
282 372 1
303 372 1
417 372 1
427 372 1
238 373 1
264 373 1
283 373 1
304 373 1
418 373 1
428 373 1
239 374 1
265 374 1
284 374 1
305 374 1
419 374 1
429 374 1
240 375 1
266 375 1
285 375 1
306 375 1
420 375 1
430 375 1
241 376 1
267 376 1
286 376 1
307 376 1
421 376 1
431 376 1
242 377 1
268 377 1
287 377 1
308 377 1
422 377 1
432 377 1
243 378 1
269 378 1
288 378 1
309 378 1
423 378 1
433 378 1
244 379 1
270 379 1
289 379 1
310 379 1
424 379 1
434 379 1
226 380 1
245 380 1
290 380 1
311 380 1
425 380 1
435 380 1
227 381 1
246 381 1
291 381 1
312 381 1
426 381 1
436 381 1
228 382 1
247 382 1
292 382 1
313 382 1
427 382 1
437 382 1
229 383 1
248 383 1
293 383 1
314 383 1
428 383 1
438 383 1
230 384 1
249 384 1
294 384 1
315 384 1
429 384 1
439 384 1
231 385 1
250 385 1
271 385 1
295 385 1
430 385 1
440 385 1
232 386 1
251 386 1
272 386 1
296 386 1
431 386 1
441 386 1
233 387 1
252 387 1
273 387 1
297 387 1
432 387 1
442 387 1
234 388 1
253 388 1
274 388 1
298 388 1
433 388 1
443 388 1
235 389 1
254 389 1
275 389 1
299 389 1
434 389 1
444 389 1
236 390 1
255 390 1
276 390 1
300 390 1
435 390 1
445 390 1
237 391 1
256 391 1
277 391 1
301 391 1
436 391 1
446 391 1
238 392 1
257 392 1
278 392 1
302 392 1
437 392 1
447 392 1
239 393 1
258 393 1
279 393 1
303 393 1
438 393 1
448 393 1
240 394 1
259 394 1
280 394 1
304 394 1
439 394 1
449 394 1
241 395 1
260 395 1
281 395 1
305 395 1
440 395 1
450 395 1
242 396 1
261 396 1
282 396 1
306 396 1
406 396 1
441 396 1
243 397 1
262 397 1
283 397 1
307 397 1
407 397 1
442 397 1
244 398 1
263 398 1
284 398 1
308 398 1
408 398 1
443 398 1
245 399 1
264 399 1
285 399 1
309 399 1
409 399 1
444 399 1
246 400 1
265 400 1
286 400 1
310 400 1
410 400 1
445 400 1
247 401 1
266 401 1
287 401 1
311 401 1
411 401 1
446 401 1
248 402 1
267 402 1
288 402 1
312 402 1
412 402 1
447 402 1
249 403 1
268 403 1
289 403 1
313 403 1
413 403 1
448 403 1
250 404 1
269 404 1
290 404 1
314 404 1
414 404 1
449 404 1
251 405 1
270 405 1
291 405 1
315 405 1
415 405 1
450 405 1
316 406 1
342 406 1
361 406 1
382 406 1
406 406 1
445 406 1
317 407 1
343 407 1
362 407 1
383 407 1
407 407 1
446 407 1
318 408 1
344 408 1
363 408 1
384 408 1
408 408 1
447 408 1
319 409 1
345 409 1
364 409 1
385 409 1
409 409 1
448 409 1
320 410 1
346 410 1
365 410 1
386 410 1
410 410 1
449 410 1
321 411 1
347 411 1
366 411 1
387 411 1
411 411 1
450 411 1
322 412 1
348 412 1
367 412 1
388 412 1
406 412 1
412 412 1
323 413 1
349 413 1
368 413 1
389 413 1
407 413 1
413 413 1
324 414 1
350 414 1
369 414 1
390 414 1
408 414 1
414 414 1
325 415 1
351 415 1
370 415 1
391 415 1
409 415 1
415 415 1
326 416 1
352 416 1
371 416 1
392 416 1
410 416 1
416 416 1
327 417 1
353 417 1
372 417 1
393 417 1
411 417 1
417 417 1
328 418 1
354 418 1
373 418 1
394 418 1
412 418 1
418 418 1
329 419 1
355 419 1
374 419 1
395 419 1
413 419 1
419 419 1
330 420 1
356 420 1
375 420 1
396 420 1
414 420 1
420 420 1
331 421 1
357 421 1
376 421 1
397 421 1
415 421 1
421 421 1
332 422 1
358 422 1
377 422 1
398 422 1
416 422 1
422 422 1
333 423 1
359 423 1
378 423 1
399 423 1
417 423 1
423 423 1
334 424 1
360 424 1
379 424 1
400 424 1
418 424 1
424 424 1
316 425 1
335 425 1
380 425 1
401 425 1
419 425 1
425 425 1
317 426 1
336 426 1
381 426 1
402 426 1
420 426 1
426 426 1
318 427 1
337 427 1
382 427 1
403 427 1
421 427 1
427 427 1
319 428 1
338 428 1
383 428 1
404 428 1
422 428 1
428 428 1
320 429 1
339 429 1
384 429 1
405 429 1
423 429 1
429 429 1
321 430 1
340 430 1
361 430 1
385 430 1
424 430 1
430 430 1
322 431 1
341 431 1
362 431 1
386 431 1
425 431 1
431 431 1
323 432 1
342 432 1
363 432 1
387 432 1
426 432 1
432 432 1
324 433 1
343 433 1
364 433 1
388 433 1
427 433 1
433 433 1
325 434 1
344 434 1
365 434 1
389 434 1
428 434 1
434 434 1
326 435 1
345 435 1
366 435 1
390 435 1
429 435 1
435 435 1
327 436 1
346 436 1
367 436 1
391 436 1
430 436 1
436 436 1
328 437 1
347 437 1
368 437 1
392 437 1
431 437 1
437 437 1
329 438 1
348 438 1
369 438 1
393 438 1
432 438 1
438 438 1
330 439 1
349 439 1
370 439 1
394 439 1
433 439 1
439 439 1
331 440 1
350 440 1
371 440 1
395 440 1
434 440 1
440 440 1
332 441 1
351 441 1
372 441 1
396 441 1
435 441 1
441 441 1
333 442 1
352 442 1
373 442 1
397 442 1
436 442 1
442 442 1
334 443 1
353 443 1
374 443 1
398 443 1
437 443 1
443 443 1
335 444 1
354 444 1
375 444 1
399 444 1
438 444 1
444 444 1
336 445 1
355 445 1
376 445 1
400 445 1
439 445 1
445 445 1
337 446 1
356 446 1
377 446 1
401 446 1
440 446 1
446 446 1
338 447 1
357 447 1
378 447 1
402 447 1
441 447 1
447 447 1
339 448 1
358 448 1
379 448 1
403 448 1
442 448 1
448 448 1
340 449 1
359 449 1
380 449 1
404 449 1
443 449 1
449 449 1
341 450 1
360 450 1
381 450 1
405 450 1
444 450 1
450 450 1
