%%MatrixMarket matrix coordinate integer general
% Binary matrix; one-based indices; arithmetic over GF(2)
304 456 1824
1 1 1
29 1 1
77 1 1
94 1 1
2 2 1
30 2 1
78 2 1
95 2 1
3 3 1
31 3 1
79 3 1
96 3 1
4 4 1
32 4 1
80 4 1
97 4 1
5 5 1
33 5 1
81 5 1
98 5 1
6 6 1
34 6 1
82 6 1
99 6 1
7 7 1
35 7 1
83 7 1
100 7 1
8 8 1
36 8 1
84 8 1
101 8 1
9 9 1
37 9 1
85 9 1
102 9 1
10 10 1
38 10 1
86 10 1
103 10 1
11 11 1
39 11 1
87 11 1
104 11 1
12 12 1
40 12 1
88 12 1
105 12 1
13 13 1
41 13 1
89 13 1
106 13 1
14 14 1
42 14 1
90 14 1
107 14 1
15 15 1
43 15 1
91 15 1
108 15 1
16 16 1
44 16 1
92 16 1
109 16 1
17 17 1
45 17 1
93 17 1
110 17 1
18 18 1
46 18 1
94 18 1
111 18 1
19 19 1
47 19 1
95 19 1
112 19 1
20 20 1
48 20 1
96 20 1
113 20 1
21 21 1
49 21 1
97 21 1
114 21 1
22 22 1
50 22 1
98 22 1
115 22 1
23 23 1
51 23 1
99 23 1
116 23 1
24 24 1
52 24 1
100 24 1
117 24 1
25 25 1
53 25 1
101 25 1
118 25 1
26 26 1
54 26 1
102 26 1
119 26 1
27 27 1
55 27 1
103 27 1
120 27 1
28 28 1
56 28 1
104 28 1
121 28 1
29 29 1
57 29 1
105 29 1
122 29 1
30 30 1
58 30 1
106 30 1
123 30 1
31 31 1
59 31 1
107 31 1
124 31 1
32 32 1
60 32 1
108 32 1
125 32 1
33 33 1
61 33 1
109 33 1
126 33 1
34 34 1
62 34 1
110 34 1
127 34 1
35 35 1
63 35 1
111 35 1
128 35 1
36 36 1
64 36 1
112 36 1
129 36 1
37 37 1
65 37 1
113 37 1
130 37 1
38 38 1
66 38 1
114 38 1
131 38 1
39 39 1
67 39 1
115 39 1
132 39 1
40 40 1
68 40 1
116 40 1
133 40 1
41 41 1
69 41 1
117 41 1
134 41 1
42 42 1
70 42 1
118 42 1
135 42 1
43 43 1
71 43 1
119 43 1
136 43 1
44 44 1
72 44 1
120 44 1
137 44 1
45 45 1
73 45 1
121 45 1
138 45 1
46 46 1
74 46 1
122 46 1
139 46 1
47 47 1
75 47 1
123 47 1
140 47 1
48 48 1
76 48 1
124 48 1
141 48 1
1 49 1
49 49 1
125 49 1
142 49 1
2 50 1
50 50 1
126 50 1
143 50 1
3 51 1
51 51 1
127 51 1
144 51 1
4 52 1
52 52 1
128 52 1
145 52 1
5 53 1
53 53 1
129 53 1
146 53 1
6 54 1
54 54 1
130 54 1
147 54 1
7 55 1
55 55 1
131 55 1
148 55 1
8 56 1
56 56 1
132 56 1
149 56 1
9 57 1
57 57 1
133 57 1
150 57 1
10 58 1
58 58 1
134 58 1
151 58 1
11 59 1
59 59 1
135 59 1
152 59 1
12 60 1
60 60 1
77 60 1
136 60 1
13 61 1
61 61 1
78 61 1
137 61 1
14 62 1
62 62 1
79 62 1
138 62 1
15 63 1
63 63 1
80 63 1
139 63 1
16 64 1
64 64 1
81 64 1
140 64 1
17 65 1
65 65 1
82 65 1
141 65 1
18 66 1
66 66 1
83 66 1
142 66 1
19 67 1
67 67 1
84 67 1
143 67 1
20 68 1
68 68 1
85 68 1
144 68 1
21 69 1
69 69 1
86 69 1
145 69 1
22 70 1
70 70 1
87 70 1
146 70 1
23 71 1
71 71 1
88 71 1
147 71 1
24 72 1
72 72 1
89 72 1
148 72 1
25 73 1
73 73 1
90 73 1
149 73 1
26 74 1
74 74 1
91 74 1
150 74 1
27 75 1
75 75 1
92 75 1
151 75 1
28 76 1
76 76 1
93 76 1
152 76 1
1 77 1
69 77 1
153 77 1
170 77 1
2 78 1
70 78 1
154 78 1
171 78 1
3 79 1
71 79 1
155 79 1
172 79 1
4 80 1
72 80 1
156 80 1
173 80 1
5 81 1
73 81 1
157 81 1
174 81 1
6 82 1
74 82 1
158 82 1
175 82 1
7 83 1
75 83 1
159 83 1
176 83 1
8 84 1
76 84 1
160 84 1
177 84 1
1 85 1
9 85 1
161 85 1
178 85 1
2 86 1
10 86 1
162 86 1
179 86 1
3 87 1
11 87 1
163 87 1
180 87 1
4 88 1
12 88 1
164 88 1
181 88 1
5 89 1
13 89 1
165 89 1
182 89 1
6 90 1
14 90 1
166 90 1
183 90 1
7 91 1
15 91 1
167 91 1
184 91 1
8 92 1
16 92 1
168 92 1
185 92 1
9 93 1
17 93 1
169 93 1
186 93 1
10 94 1
18 94 1
170 94 1
187 94 1
11 95 1
19 95 1
171 95 1
188 95 1
12 96 1
20 96 1
172 96 1
189 96 1
13 97 1
21 97 1
173 97 1
190 97 1
14 98 1
22 98 1
174 98 1
191 98 1
15 99 1
23 99 1
175 99 1
192 99 1
16 100 1
24 100 1
176 100 1
193 100 1
17 101 1
25 101 1
177 101 1
194 101 1
18 102 1
26 102 1
178 102 1
195 102 1
19 103 1
27 103 1
179 103 1
196 103 1
20 104 1
28 104 1
180 104 1
197 104 1
21 105 1
29 105 1
181 105 1
198 105 1
22 106 1
30 106 1
182 106 1
199 106 1
23 107 1
31 107 1
183 107 1
200 107 1
24 108 1
32 108 1
184 108 1
201 108 1
25 109 1
33 109 1
185 109 1
202 109 1
26 110 1
34 110 1
186 110 1
203 110 1
27 111 1
35 111 1
187 111 1
204 111 1
28 112 1
36 112 1
188 112 1
205 112 1
29 113 1
37 113 1
189 113 1
206 113 1
30 114 1
38 114 1
190 114 1
207 114 1
31 115 1
39 115 1
191 115 1
208 115 1
32 116 1
40 116 1
192 116 1
209 116 1
33 117 1
41 117 1
193 117 1
210 117 1
34 118 1
42 118 1
194 118 1
211 118 1
35 119 1
43 119 1
195 119 1
212 119 1
36 120 1
44 120 1
196 120 1
213 120 1
37 121 1
45 121 1
197 121 1
214 121 1
38 122 1
46 122 1
198 122 1
215 122 1
39 123 1
47 123 1
199 123 1
216 123 1
40 124 1
48 124 1
200 124 1
217 124 1
41 125 1
49 125 1
201 125 1
218 125 1
42 126 1
50 126 1
202 126 1
219 126 1
43 127 1
51 127 1
203 127 1
220 127 1
44 128 1
52 128 1
204 128 1
221 128 1
45 129 1
53 129 1
205 129 1
222 129 1
46 130 1
54 130 1
206 130 1
223 130 1
47 131 1
55 131 1
207 131 1
224 131 1
48 132 1
56 132 1
208 132 1
225 132 1
49 133 1
57 133 1
209 133 1
226 133 1
50 134 1
58 134 1
210 134 1
227 134 1
51 135 1
59 135 1
211 135 1
228 135 1
52 136 1
60 136 1
153 136 1
212 136 1
53 137 1
61 137 1
154 137 1
213 137 1
54 138 1
62 138 1
155 138 1
214 138 1
55 139 1
63 139 1
156 139 1
215 139 1
56 140 1
64 140 1
157 140 1
216 140 1
57 141 1
65 141 1
158 141 1
217 141 1
58 142 1
66 142 1
159 142 1
218 142 1
59 143 1
67 143 1
160 143 1
219 143 1
60 144 1
68 144 1
161 144 1
220 144 1
61 145 1
69 145 1
162 145 1
221 145 1
62 146 1
70 146 1
163 146 1
222 146 1
63 147 1
71 147 1
164 147 1
223 147 1
64 148 1
72 148 1
165 148 1
224 148 1
65 149 1
73 149 1
166 149 1
225 149 1
66 150 1
74 150 1
167 150 1
226 150 1
67 151 1
75 151 1
168 151 1
227 151 1
68 152 1
76 152 1
169 152 1
228 152 1
1 153 1
75 153 1
229 153 1
246 153 1
2 154 1
76 154 1
230 154 1
247 154 1
1 155 1
3 155 1
231 155 1
248 155 1
2 156 1
4 156 1
232 156 1
249 156 1
3 157 1
5 157 1
233 157 1
250 157 1
4 158 1
6 158 1
234 158 1
251 158 1
5 159 1
7 159 1
235 159 1
252 159 1
6 160 1
8 160 1
236 160 1
253 160 1
7 161 1
9 161 1
237 161 1
254 161 1
8 162 1
10 162 1
238 162 1
255 162 1
9 163 1
11 163 1
239 163 1
256 163 1
10 164 1
12 164 1
240 164 1
257 164 1
11 165 1
13 165 1
241 165 1
258 165 1
12 166 1
14 166 1
242 166 1
259 166 1
13 167 1
15 167 1
243 167 1
260 167 1
14 168 1
16 168 1
244 168 1
261 168 1
15 169 1
17 169 1
245 169 1
262 169 1
16 170 1
18 170 1
246 170 1
263 170 1
17 171 1
19 171 1
247 171 1
264 171 1
18 172 1
20 172 1
248 172 1
265 172 1
19 173 1
21 173 1
249 173 1
266 173 1
20 174 1
22 174 1
250 174 1
267 174 1
21 175 1
23 175 1
251 175 1
268 175 1
22 176 1
24 176 1
252 176 1
269 176 1
23 177 1
25 177 1
253 177 1
270 177 1
24 178 1
26 178 1
254 178 1
271 178 1
25 179 1
27 179 1
255 179 1
272 179 1
26 180 1
28 180 1
256 180 1
273 180 1
27 181 1
29 181 1
257 181 1
274 181 1
28 182 1
30 182 1
258 182 1
275 182 1
29 183 1
31 183 1
259 183 1
276 183 1
30 184 1
32 184 1
260 184 1
277 184 1
31 185 1
33 185 1
261 185 1
278 185 1
32 186 1
34 186 1
262 186 1
279 186 1
33 187 1
35 187 1
263 187 1
280 187 1
34 188 1
36 188 1
264 188 1
281 188 1
35 189 1
37 189 1
265 189 1
282 189 1
36 190 1
38 190 1
266 190 1
283 190 1
37 191 1
39 191 1
267 191 1
284 191 1
38 192 1
40 192 1
268 192 1
285 192 1
39 193 1
41 193 1
269 193 1
286 193 1
40 194 1
42 194 1
270 194 1
287 194 1
41 195 1
43 195 1
271 195 1
288 195 1
42 196 1
44 196 1
272 196 1
289 196 1
43 197 1
45 197 1
273 197 1
290 197 1
44 198 1
46 198 1
274 198 1
291 198 1
45 199 1
47 199 1
275 199 1
292 199 1
46 200 1
48 200 1
276 200 1
293 200 1
47 201 1
49 201 1
277 201 1
294 201 1
48 202 1
50 202 1
278 202 1
295 202 1
49 203 1
51 203 1
279 203 1
296 203 1
50 204 1
52 204 1
280 204 1
297 204 1
51 205 1
53 205 1
281 205 1
298 205 1
52 206 1
54 206 1
282 206 1
299 206 1
53 207 1
55 207 1
283 207 1
300 207 1
54 208 1
56 208 1
284 208 1
301 208 1
55 209 1
57 209 1
285 209 1
302 209 1
56 210 1
58 210 1
286 210 1
303 210 1
57 211 1
59 211 1
287 211 1
304 211 1
58 212 1
60 212 1
229 212 1
288 212 1
59 213 1
61 213 1
230 213 1
289 213 1
60 214 1
62 214 1
231 214 1
290 214 1
61 215 1
63 215 1
232 215 1
291 215 1
62 216 1
64 216 1
233 216 1
292 216 1
63 217 1
65 217 1
234 217 1
293 217 1
64 218 1
66 218 1
235 218 1
294 218 1
65 219 1
67 219 1
236 219 1
295 219 1
66 220 1
68 220 1
237 220 1
296 220 1
67 221 1
69 221 1
238 221 1
297 221 1
68 222 1
70 222 1
239 222 1
298 222 1
69 223 1
71 223 1
240 223 1
299 223 1
70 224 1
72 224 1
241 224 1
300 224 1
71 225 1
73 225 1
242 225 1
301 225 1
72 226 1
74 226 1
243 226 1
302 226 1
73 227 1
75 227 1
244 227 1
303 227 1
74 228 1
76 228 1
245 228 1
304 228 1
77 229 1
145 229 1
153 229 1
181 229 1
78 230 1
146 230 1
154 230 1
182 230 1
79 231 1
147 231 1
155 231 1
183 231 1
80 232 1
148 232 1
156 232 1
184 232 1
81 233 1
149 233 1
157 233 1
185 233 1
82 234 1
150 234 1
158 234 1
186 234 1
83 235 1
151 235 1
159 235 1
187 235 1
84 236 1
152 236 1
160 236 1
188 236 1
77 237 1
85 237 1
161 237 1
189 237 1
78 238 1
86 238 1
162 238 1
190 238 1
79 239 1
87 239 1
163 239 1
191 239 1
80 240 1
88 240 1
164 240 1
192 240 1
81 241 1
89 241 1
165 241 1
193 241 1
82 242 1
90 242 1
166 242 1
194 242 1
83 243 1
91 243 1
167 243 1
195 243 1
84 244 1
92 244 1
168 244 1
196 244 1
85 245 1
93 245 1
169 245 1
197 245 1
86 246 1
94 246 1
170 246 1
198 246 1
87 247 1
95 247 1
171 247 1
199 247 1
88 248 1
96 248 1
172 248 1
200 248 1
89 249 1
97 249 1
173 249 1
201 249 1
90 250 1
98 250 1
174 250 1
202 250 1
91 251 1
99 251 1
175 251 1
203 251 1
92 252 1
100 252 1
176 252 1
204 252 1
93 253 1
101 253 1
177 253 1
205 253 1
94 254 1
102 254 1
178 254 1
206 254 1
95 255 1
103 255 1
179 255 1
207 255 1
96 256 1
104 256 1
180 256 1
208 256 1
97 257 1
105 257 1
181 257 1
209 257 1
98 258 1
106 258 1
182 258 1
210 258 1
99 259 1
107 259 1
183 259 1
211 259 1
100 260 1
108 260 1
184 260 1
212 260 1
101 261 1
109 261 1
185 261 1
213 261 1
102 262 1
110 262 1
186 262 1
214 262 1
103 263 1
111 263 1
187 263 1
215 263 1
104 264 1
112 264 1
188 264 1
216 264 1
105 265 1
113 265 1
189 265 1
217 265 1
106 266 1
114 266 1
190 266 1
218 266 1
107 267 1
115 267 1
191 267 1
219 267 1
108 268 1
116 268 1
192 268 1
220 268 1
109 269 1
117 269 1
193 269 1
221 269 1
110 270 1
118 270 1
194 270 1
222 270 1
111 271 1
119 271 1
195 271 1
223 271 1
112 272 1
120 272 1
196 272 1
224 272 1
113 273 1
121 273 1
197 273 1
225 273 1
114 274 1
122 274 1
198 274 1
226 274 1
115 275 1
123 275 1
199 275 1
227 275 1
116 276 1
124 276 1
200 276 1
228 276 1
117 277 1
125 277 1
153 277 1
201 277 1
118 278 1
126 278 1
154 278 1
202 278 1
119 279 1
127 279 1
155 279 1
203 279 1
120 280 1
128 280 1
156 280 1
204 280 1
121 281 1
129 281 1
157 281 1
205 281 1
122 282 1
130 282 1
158 282 1
206 282 1
123 283 1
131 283 1
159 283 1
207 283 1
124 284 1
132 284 1
160 284 1
208 284 1
125 285 1
133 285 1
161 285 1
209 285 1
126 286 1
134 286 1
162 286 1
210 286 1
127 287 1
135 287 1
163 287 1
211 287 1
128 288 1
136 288 1
164 288 1
212 288 1
129 289 1
137 289 1
165 289 1
213 289 1
130 290 1
138 290 1
166 290 1
214 290 1
131 291 1
139 291 1
167 291 1
215 291 1
132 292 1
140 292 1
168 292 1
216 292 1
133 293 1
141 293 1
169 293 1
217 293 1
134 294 1
142 294 1
170 294 1
218 294 1
135 295 1
143 295 1
171 295 1
219 295 1
136 296 1
144 296 1
172 296 1
220 296 1
137 297 1
145 297 1
173 297 1
221 297 1
138 298 1
146 298 1
174 298 1
222 298 1
139 299 1
147 299 1
175 299 1
223 299 1
140 300 1
148 300 1
176 300 1
224 300 1
141 301 1
149 301 1
177 301 1
225 301 1
142 302 1
150 302 1
178 302 1
226 302 1
143 303 1
151 303 1
179 303 1
227 303 1
144 304 1
152 304 1
180 304 1
228 304 1
77 305 1
151 305 1
229 305 1
257 305 1
78 306 1
152 306 1
230 306 1
258 306 1
77 307 1
79 307 1
231 307 1
259 307 1
78 308 1
80 308 1
232 308 1
260 308 1
79 309 1
81 309 1
233 309 1
261 309 1
80 310 1
82 310 1
234 310 1
262 310 1
81 311 1
83 311 1
235 311 1
263 311 1
82 312 1
84 312 1
236 312 1
264 312 1
83 313 1
85 313 1
237 313 1
265 313 1
84 314 1
86 314 1
238 314 1
266 314 1
85 315 1
87 315 1
239 315 1
267 315 1
86 316 1
88 316 1
240 316 1
268 316 1
87 317 1
89 317 1
241 317 1
269 317 1
88 318 1
90 318 1
242 318 1
270 318 1
89 319 1
91 319 1
243 319 1
271 319 1
90 320 1
92 320 1
244 320 1
272 320 1
91 321 1
93 321 1
245 321 1
273 321 1
92 322 1
94 322 1
246 322 1
274 322 1
93 323 1
95 323 1
247 323 1
275 323 1
94 324 1
96 324 1
248 324 1
276 324 1
95 325 1
97 325 1
249 325 1
277 325 1
96 326 1
98 326 1
250 326 1
278 326 1
97 327 1
99 327 1
251 327 1
279 327 1
98 328 1
100 328 1
252 328 1
280 328 1
99 329 1
101 329 1
253 329 1
281 329 1
100 330 1
102 330 1
254 330 1
282 330 1
101 331 1
103 331 1
255 331 1
283 331 1
102 332 1
104 332 1
256 332 1
284 332 1
103 333 1
105 333 1
257 333 1
285 333 1
104 334 1
106 334 1
258 334 1
286 334 1
105 335 1
107 335 1
259 335 1
287 335 1
106 336 1
108 336 1
260 336 1
288 336 1
107 337 1
109 337 1
261 337 1
289 337 1
108 338 1
110 338 1
262 338 1
290 338 1
109 339 1
111 339 1
263 339 1
291 339 1
110 340 1
112 340 1
264 340 1
292 340 1
111 341 1
113 341 1
265 341 1
293 341 1
112 342 1
114 342 1
266 342 1
294 342 1
113 343 1
115 343 1
267 343 1
295 343 1
114 344 1
116 344 1
268 344 1
296 344 1
115 345 1
117 345 1
269 345 1
297 345 1
116 346 1
118 346 1
270 346 1
298 346 1
117 347 1
119 347 1
271 347 1
299 347 1
118 348 1
120 348 1
272 348 1
300 348 1
119 349 1
121 349 1
273 349 1
301 349 1
120 350 1
122 350 1
274 350 1
302 350 1
121 351 1
123 351 1
275 351 1
303 351 1
122 352 1
124 352 1
276 352 1
304 352 1
123 353 1
125 353 1
229 353 1
277 353 1
124 354 1
126 354 1
230 354 1
278 354 1
125 355 1
127 355 1
231 355 1
279 355 1
126 356 1
128 356 1
232 356 1
280 356 1
127 357 1
129 357 1
233 357 1
281 357 1
128 358 1
130 358 1
234 358 1
282 358 1
129 359 1
131 359 1
235 359 1
283 359 1
130 360 1
132 360 1
236 360 1
284 360 1
131 361 1
133 361 1
237 361 1
285 361 1
132 362 1
134 362 1
238 362 1
286 362 1
133 363 1
135 363 1
239 363 1
287 363 1
134 364 1
136 364 1
240 364 1
288 364 1
135 365 1
137 365 1
241 365 1
289 365 1
136 366 1
138 366 1
242 366 1
290 366 1
137 367 1
139 367 1
243 367 1
291 367 1
138 368 1
140 368 1
244 368 1
292 368 1
139 369 1
141 369 1
245 369 1
293 369 1
140 370 1
142 370 1
246 370 1
294 370 1
141 371 1
143 371 1
247 371 1
295 371 1
142 372 1
144 372 1
248 372 1
296 372 1
143 373 1
145 373 1
249 373 1
297 373 1
144 374 1
146 374 1
250 374 1
298 374 1
145 375 1
147 375 1
251 375 1
299 375 1
146 376 1
148 376 1
252 376 1
300 376 1
147 377 1
149 377 1
253 377 1
301 377 1
148 378 1
150 378 1
254 378 1
302 378 1
149 379 1
151 379 1
255 379 1
303 379 1
150 380 1
152 380 1
256 380 1
304 380 1
153 381 1
227 381 1
229 381 1
297 381 1
154 382 1
228 382 1
230 382 1
298 382 1
153 383 1
155 383 1
231 383 1
299 383 1
154 384 1
156 384 1
232 384 1
300 384 1
155 385 1
157 385 1
233 385 1
301 385 1
156 386 1
158 386 1
234 386 1
302 386 1
157 387 1
159 387 1
235 387 1
303 387 1
158 388 1
160 388 1
236 388 1
304 388 1
159 389 1
161 389 1
229 389 1
237 389 1
160 390 1
162 390 1
230 390 1
238 390 1
161 391 1
163 391 1
231 391 1
239 391 1
162 392 1
164 392 1
232 392 1
240 392 1
163 393 1
165 393 1
233 393 1
241 393 1
164 394 1
166 394 1
234 394 1
242 394 1
165 395 1
167 395 1
235 395 1
243 395 1
166 396 1
168 396 1
236 396 1
244 396 1
167 397 1
169 397 1
237 397 1
245 397 1
168 398 1
170 398 1
238 398 1
246 398 1
169 399 1
171 399 1
239 399 1
247 399 1
170 400 1
172 400 1
240 400 1
248 400 1
171 401 1
173 401 1
241 401 1
249 401 1
172 402 1
174 402 1
242 402 1
250 402 1
173 403 1
175 403 1
243 403 1
251 403 1
174 404 1
176 404 1
244 404 1
252 404 1
175 405 1
177 405 1
245 405 1
253 405 1
176 406 1
178 406 1
246 406 1
254 406 1
177 407 1
179 407 1
247 407 1
255 407 1
178 408 1
180 408 1
248 408 1
256 408 1
179 409 1
181 409 1
249 409 1
257 409 1
180 410 1
182 410 1
250 410 1
258 410 1
181 411 1
183 411 1
251 411 1
259 411 1
182 412 1
184 412 1
252 412 1
260 412 1
183 413 1
185 413 1
253 413 1
261 413 1
184 414 1
186 414 1
254 414 1
262 414 1
185 415 1
187 415 1
255 415 1
263 415 1
186 416 1
188 416 1
256 416 1
264 416 1
187 417 1
189 417 1
257 417 1
265 417 1
188 418 1
190 418 1
258 418 1
266 418 1
189 419 1
191 419 1
259 419 1
267 419 1
190 420 1
192 420 1
260 420 1
268 420 1
191 421 1
193 421 1
261 421 1
269 421 1
192 422 1
194 422 1
262 422 1
270 422 1
193 423 1
195 423 1
263 423 1
271 423 1
194 424 1
196 424 1
264 424 1
272 424 1
195 425 1
197 425 1
265 425 1
273 425 1
196 426 1
198 426 1
266 426 1
274 426 1
197 427 1
199 427 1
267 427 1
275 427 1
198 428 1
200 428 1
268 428 1
276 428 1
199 429 1
201 429 1
269 429 1
277 429 1
200 430 1
202 430 1
270 430 1
278 430 1
201 431 1
203 431 1
271 431 1
279 431 1
202 432 1
204 432 1
272 432 1
280 432 1
203 433 1
205 433 1
273 433 1
281 433 1
204 434 1
206 434 1
274 434 1
282 434 1
205 435 1
207 435 1
275 435 1
283 435 1
206 436 1
208 436 1
276 436 1
284 436 1
207 437 1
209 437 1
277 437 1
285 437 1
208 438 1
210 438 1
278 438 1
286 438 1
209 439 1
211 439 1
279 439 1
287 439 1
210 440 1
212 440 1
280 440 1
288 440 1
211 441 1
213 441 1
281 441 1
289 441 1
212 442 1
214 442 1
282 442 1
290 442 1
213 443 1
215 443 1
283 443 1
291 443 1
214 444 1
216 444 1
284 444 1
292 444 1
215 445 1
217 445 1
285 445 1
293 445 1
216 446 1
218 446 1
286 446 1
294 446 1
217 447 1
219 447 1
287 447 1
295 447 1
218 448 1
220 448 1
288 448 1
296 448 1
219 449 1
221 449 1
289 449 1
297 449 1
220 450 1
222 450 1
290 450 1
298 450 1
221 451 1
223 451 1
291 451 1
299 451 1
222 452 1
224 452 1
292 452 1
300 452 1
223 453 1
225 453 1
293 453 1
301 453 1
224 454 1
226 454 1
294 454 1
302 454 1
225 455 1
227 455 1
295 455 1
303 455 1
226 456 1
228 456 1
296 456 1
304 456 1
