%%MatrixMarket matrix coordinate integer general
% Binary matrix; one-based indices; arithmetic over GF(2)
528 792 3168
9 1 1
107 1 1
154 1 1
185 1 1
10 2 1
108 2 1
144 2 1
186 2 1
11 3 1
109 3 1
145 3 1
187 3 1
1 4 1
110 4 1
146 4 1
177 4 1
2 5 1
100 5 1
147 5 1
178 5 1
3 6 1
101 6 1
148 6 1
179 6 1
4 7 1
102 7 1
149 7 1
180 7 1
5 8 1
103 8 1
150 8 1
181 8 1
6 9 1
104 9 1
151 9 1
182 9 1
7 10 1
105 10 1
152 10 1
183 10 1
8 11 1
106 11 1
153 11 1
184 11 1
20 12 1
118 12 1
165 12 1
196 12 1
21 13 1
119 13 1
155 13 1
197 13 1
22 14 1
120 14 1
156 14 1
198 14 1
12 15 1
121 15 1
157 15 1
188 15 1
13 16 1
111 16 1
158 16 1
189 16 1
14 17 1
112 17 1
159 17 1
190 17 1
15 18 1
113 18 1
160 18 1
191 18 1
16 19 1
114 19 1
161 19 1
192 19 1
17 20 1
115 20 1
162 20 1
193 20 1
18 21 1
116 21 1
163 21 1
194 21 1
19 22 1
117 22 1
164 22 1
195 22 1
31 23 1
129 23 1
143 23 1
174 23 1
32 24 1
130 24 1
133 24 1
175 24 1
33 25 1
131 25 1
134 25 1
176 25 1
23 26 1
132 26 1
135 26 1
166 26 1
24 27 1
122 27 1
136 27 1
167 27 1
25 28 1
123 28 1
137 28 1
168 28 1
26 29 1
124 29 1
138 29 1
169 29 1
27 30 1
125 30 1
139 30 1
170 30 1
28 31 1
126 31 1
140 31 1
171 31 1
29 32 1
127 32 1
141 32 1
172 32 1
30 33 1
128 33 1
142 33 1
173 33 1
42 34 1
74 34 1
152 34 1
187 34 1
43 35 1
75 35 1
153 35 1
177 35 1
44 36 1
76 36 1
154 36 1
178 36 1
34 37 1
77 37 1
144 37 1
179 37 1
35 38 1
67 38 1
145 38 1
180 38 1
36 39 1
68 39 1
146 39 1
181 39 1
37 40 1
69 40 1
147 40 1
182 40 1
38 41 1
70 41 1
148 41 1
183 41 1
39 42 1
71 42 1
149 42 1
184 42 1
40 43 1
72 43 1
150 43 1
185 43 1
41 44 1
73 44 1
151 44 1
186 44 1
53 45 1
85 45 1
163 45 1
198 45 1
54 46 1
86 46 1
164 46 1
188 46 1
55 47 1
87 47 1
165 47 1
189 47 1
45 48 1
88 48 1
155 48 1
190 48 1
46 49 1
78 49 1
156 49 1
191 49 1
47 50 1
79 50 1
157 50 1
192 50 1
48 51 1
80 51 1
158 51 1
193 51 1
49 52 1
81 52 1
159 52 1
194 52 1
50 53 1
82 53 1
160 53 1
195 53 1
51 54 1
83 54 1
161 54 1
196 54 1
52 55 1
84 55 1
162 55 1
197 55 1
64 56 1
96 56 1
141 56 1
176 56 1
65 57 1
97 57 1
142 57 1
166 57 1
66 58 1
98 58 1
143 58 1
167 58 1
56 59 1
99 59 1
133 59 1
168 59 1
57 60 1
89 60 1
134 60 1
169 60 1
58 61 1
90 61 1
135 61 1
170 61 1
59 62 1
91 62 1
136 62 1
171 62 1
60 63 1
92 63 1
137 63 1
172 63 1
61 64 1
93 64 1
138 64 1
173 64 1
62 65 1
94 65 1
139 65 1
174 65 1
63 66 1
95 66 1
140 66 1
175 66 1
41 67 1
75 67 1
220 67 1
251 67 1
42 68 1
76 68 1
210 68 1
252 68 1
43 69 1
77 69 1
211 69 1
253 69 1
44 70 1
67 70 1
212 70 1
243 70 1
34 71 1
68 71 1
213 71 1
244 71 1
35 72 1
69 72 1
214 72 1
245 72 1
36 73 1
70 73 1
215 73 1
246 73 1
37 74 1
71 74 1
216 74 1
247 74 1
38 75 1
72 75 1
217 75 1
248 75 1
39 76 1
73 76 1
218 76 1
249 76 1
40 77 1
74 77 1
219 77 1
250 77 1
52 78 1
86 78 1
231 78 1
262 78 1
53 79 1
87 79 1
221 79 1
263 79 1
54 80 1
88 80 1
222 80 1
264 80 1
55 81 1
78 81 1
223 81 1
254 81 1
45 82 1
79 82 1
224 82 1
255 82 1
46 83 1
80 83 1
225 83 1
256 83 1
47 84 1
81 84 1
226 84 1
257 84 1
48 85 1
82 85 1
227 85 1
258 85 1
49 86 1
83 86 1
228 86 1
259 86 1
50 87 1
84 87 1
229 87 1
260 87 1
51 88 1
85 88 1
230 88 1
261 88 1
63 89 1
97 89 1
209 89 1
240 89 1
64 90 1
98 90 1
199 90 1
241 90 1
65 91 1
99 91 1
200 91 1
242 91 1
66 92 1
89 92 1
201 92 1
232 92 1
56 93 1
90 93 1
202 93 1
233 93 1
57 94 1
91 94 1
203 94 1
234 94 1
58 95 1
92 95 1
204 95 1
235 95 1
59 96 1
93 96 1
205 96 1
236 96 1
60 97 1
94 97 1
206 97 1
237 97 1
61 98 1
95 98 1
207 98 1
238 98 1
62 99 1
96 99 1
208 99 1
239 99 1
8 100 1
108 100 1
218 100 1
253 100 1
9 101 1
109 101 1
219 101 1
243 101 1
10 102 1
110 102 1
220 102 1
244 102 1
11 103 1
100 103 1
210 103 1
245 103 1
1 104 1
101 104 1
211 104 1
246 104 1
2 105 1
102 105 1
212 105 1
247 105 1
3 106 1
103 106 1
213 106 1
248 106 1
4 107 1
104 107 1
214 107 1
249 107 1
5 108 1
105 108 1
215 108 1
250 108 1
6 109 1
106 109 1
216 109 1
251 109 1
7 110 1
107 110 1
217 110 1
252 110 1
19 111 1
119 111 1
229 111 1
264 111 1
20 112 1
120 112 1
230 112 1
254 112 1
21 113 1
121 113 1
231 113 1
255 113 1
22 114 1
111 114 1
221 114 1
256 114 1
12 115 1
112 115 1
222 115 1
257 115 1
13 116 1
113 116 1
223 116 1
258 116 1
14 117 1
114 117 1
224 117 1
259 117 1
15 118 1
115 118 1
225 118 1
260 118 1
16 119 1
116 119 1
226 119 1
261 119 1
17 120 1
117 120 1
227 120 1
262 120 1
18 121 1
118 121 1
228 121 1
263 121 1
30 122 1
130 122 1
207 122 1
242 122 1
31 123 1
131 123 1
208 123 1
232 123 1
32 124 1
132 124 1
209 124 1
233 124 1
33 125 1
122 125 1
199 125 1
234 125 1
23 126 1
123 126 1
200 126 1
235 126 1
24 127 1
124 127 1
201 127 1
236 127 1
25 128 1
125 128 1
202 128 1
237 128 1
26 129 1
126 129 1
203 129 1
238 129 1
27 130 1
127 130 1
204 130 1
239 130 1
28 131 1
128 131 1
205 131 1
240 131 1
29 132 1
129 132 1
206 132 1
241 132 1
16 133 1
62 133 1
286 133 1
317 133 1
17 134 1
63 134 1
276 134 1
318 134 1
18 135 1
64 135 1
277 135 1
319 135 1
19 136 1
65 136 1
278 136 1
309 136 1
20 137 1
66 137 1
279 137 1
310 137 1
21 138 1
56 138 1
280 138 1
311 138 1
22 139 1
57 139 1
281 139 1
312 139 1
12 140 1
58 140 1
282 140 1
313 140 1
13 141 1
59 141 1
283 141 1
314 141 1
14 142 1
60 142 1
284 142 1
315 142 1
15 143 1
61 143 1
285 143 1
316 143 1
27 144 1
40 144 1
297 144 1
328 144 1
28 145 1
41 145 1
287 145 1
329 145 1
29 146 1
42 146 1
288 146 1
330 146 1
30 147 1
43 147 1
289 147 1
320 147 1
31 148 1
44 148 1
290 148 1
321 148 1
32 149 1
34 149 1
291 149 1
322 149 1
33 150 1
35 150 1
292 150 1
323 150 1
23 151 1
36 151 1
293 151 1
324 151 1
24 152 1
37 152 1
294 152 1
325 152 1
25 153 1
38 153 1
295 153 1
326 153 1
26 154 1
39 154 1
296 154 1
327 154 1
5 155 1
51 155 1
275 155 1
306 155 1
6 156 1
52 156 1
265 156 1
307 156 1
7 157 1
53 157 1
266 157 1
308 157 1
8 158 1
54 158 1
267 158 1
298 158 1
9 159 1
55 159 1
268 159 1
299 159 1
10 160 1
45 160 1
269 160 1
300 160 1
11 161 1
46 161 1
270 161 1
301 161 1
1 162 1
47 162 1
271 162 1
302 162 1
2 163 1
48 163 1
272 163 1
303 163 1
3 164 1
49 164 1
273 164 1
304 164 1
4 165 1
50 165 1
274 165 1
305 165 1
29 166 1
49 166 1
284 166 1
319 166 1
30 167 1
50 167 1
285 167 1
309 167 1
31 168 1
51 168 1
286 168 1
310 168 1
32 169 1
52 169 1
276 169 1
311 169 1
33 170 1
53 170 1
277 170 1
312 170 1
23 171 1
54 171 1
278 171 1
313 171 1
24 172 1
55 172 1
279 172 1
314 172 1
25 173 1
45 173 1
280 173 1
315 173 1
26 174 1
46 174 1
281 174 1
316 174 1
27 175 1
47 175 1
282 175 1
317 175 1
28 176 1
48 176 1
283 176 1
318 176 1
7 177 1
60 177 1
295 177 1
330 177 1
8 178 1
61 178 1
296 178 1
320 178 1
9 179 1
62 179 1
297 179 1
321 179 1
10 180 1
63 180 1
287 180 1
322 180 1
11 181 1
64 181 1
288 181 1
323 181 1
1 182 1
65 182 1
289 182 1
324 182 1
2 183 1
66 183 1
290 183 1
325 183 1
3 184 1
56 184 1
291 184 1
326 184 1
4 185 1
57 185 1
292 185 1
327 185 1
5 186 1
58 186 1
293 186 1
328 186 1
6 187 1
59 187 1
294 187 1
329 187 1
18 188 1
38 188 1
273 188 1
308 188 1
19 189 1
39 189 1
274 189 1
298 189 1
20 190 1
40 190 1
275 190 1
299 190 1
21 191 1
41 191 1
265 191 1
300 191 1
22 192 1
42 192 1
266 192 1
301 192 1
12 193 1
43 193 1
267 193 1
302 193 1
13 194 1
44 194 1
268 194 1
303 194 1
14 195 1
34 195 1
269 195 1
304 195 1
15 196 1
35 196 1
270 196 1
305 196 1
16 197 1
36 197 1
271 197 1
306 197 1
17 198 1
37 198 1
272 198 1
307 198 1
82 199 1
128 199 1
352 199 1
383 199 1
83 200 1
129 200 1
342 200 1
384 200 1
84 201 1
130 201 1
343 201 1
385 201 1
85 202 1
131 202 1
344 202 1
375 202 1
86 203 1
132 203 1
345 203 1
376 203 1
87 204 1
122 204 1
346 204 1
377 204 1
88 205 1
123 205 1
347 205 1
378 205 1
78 206 1
124 206 1
348 206 1
379 206 1
79 207 1
125 207 1
349 207 1
380 207 1
80 208 1
126 208 1
350 208 1
381 208 1
81 209 1
127 209 1
351 209 1
382 209 1
93 210 1
106 210 1
363 210 1
394 210 1
94 211 1
107 211 1
353 211 1
395 211 1
95 212 1
108 212 1
354 212 1
396 212 1
96 213 1
109 213 1
355 213 1
386 213 1
97 214 1
110 214 1
356 214 1
387 214 1
98 215 1
100 215 1
357 215 1
388 215 1
99 216 1
101 216 1
358 216 1
389 216 1
89 217 1
102 217 1
359 217 1
390 217 1
90 218 1
103 218 1
360 218 1
391 218 1
91 219 1
104 219 1
361 219 1
392 219 1
92 220 1
105 220 1
362 220 1
393 220 1
71 221 1
117 221 1
341 221 1
372 221 1
72 222 1
118 222 1
331 222 1
373 222 1
73 223 1
119 223 1
332 223 1
374 223 1
74 224 1
120 224 1
333 224 1
364 224 1
75 225 1
121 225 1
334 225 1
365 225 1
76 226 1
111 226 1
335 226 1
366 226 1
77 227 1
112 227 1
336 227 1
367 227 1
67 228 1
113 228 1
337 228 1
368 228 1
68 229 1
114 229 1
338 229 1
369 229 1
69 230 1
115 230 1
339 230 1
370 230 1
70 231 1
116 231 1
340 231 1
371 231 1
95 232 1
115 232 1
350 232 1
385 232 1
96 233 1
116 233 1
351 233 1
375 233 1
97 234 1
117 234 1
352 234 1
376 234 1
98 235 1
118 235 1
342 235 1
377 235 1
99 236 1
119 236 1
343 236 1
378 236 1
89 237 1
120 237 1
344 237 1
379 237 1
90 238 1
121 238 1
345 238 1
380 238 1
91 239 1
111 239 1
346 239 1
381 239 1
92 240 1
112 240 1
347 240 1
382 240 1
93 241 1
113 241 1
348 241 1
383 241 1
94 242 1
114 242 1
349 242 1
384 242 1
73 243 1
126 243 1
361 243 1
396 243 1
74 244 1
127 244 1
362 244 1
386 244 1
75 245 1
128 245 1
363 245 1
387 245 1
76 246 1
129 246 1
353 246 1
388 246 1
77 247 1
130 247 1
354 247 1
389 247 1
67 248 1
131 248 1
355 248 1
390 248 1
68 249 1
132 249 1
356 249 1
391 249 1
69 250 1
122 250 1
357 250 1
392 250 1
70 251 1
123 251 1
358 251 1
393 251 1
71 252 1
124 252 1
359 252 1
394 252 1
72 253 1
125 253 1
360 253 1
395 253 1
84 254 1
104 254 1
339 254 1
374 254 1
85 255 1
105 255 1
340 255 1
364 255 1
86 256 1
106 256 1
341 256 1
365 256 1
87 257 1
107 257 1
331 257 1
366 257 1
88 258 1
108 258 1
332 258 1
367 258 1
78 259 1
109 259 1
333 259 1
368 259 1
79 260 1
110 260 1
334 260 1
369 260 1
80 261 1
100 261 1
335 261 1
370 261 1
81 262 1
101 262 1
336 262 1
371 262 1
82 263 1
102 263 1
337 263 1
372 263 1
83 264 1
103 264 1
338 264 1
373 264 1
148 265 1
194 265 1
273 265 1
371 265 1
149 266 1
195 266 1
274 266 1
372 266 1
150 267 1
196 267 1
275 267 1
373 267 1
151 268 1
197 268 1
265 268 1
374 268 1
152 269 1
198 269 1
266 269 1
364 269 1
153 270 1
188 270 1
267 270 1
365 270 1
154 271 1
189 271 1
268 271 1
366 271 1
144 272 1
190 272 1
269 272 1
367 272 1
145 273 1
191 273 1
270 273 1
368 273 1
146 274 1
192 274 1
271 274 1
369 274 1
147 275 1
193 275 1
272 275 1
370 275 1
159 276 1
172 276 1
284 276 1
382 276 1
160 277 1
173 277 1
285 277 1
383 277 1
161 278 1
174 278 1
286 278 1
384 278 1
162 279 1
175 279 1
276 279 1
385 279 1
163 280 1
176 280 1
277 280 1
375 280 1
164 281 1
166 281 1
278 281 1
376 281 1
165 282 1
167 282 1
279 282 1
377 282 1
155 283 1
168 283 1
280 283 1
378 283 1
156 284 1
169 284 1
281 284 1
379 284 1
157 285 1
170 285 1
282 285 1
380 285 1
158 286 1
171 286 1
283 286 1
381 286 1
137 287 1
183 287 1
295 287 1
393 287 1
138 288 1
184 288 1
296 288 1
394 288 1
139 289 1
185 289 1
297 289 1
395 289 1
140 290 1
186 290 1
287 290 1
396 290 1
141 291 1
187 291 1
288 291 1
386 291 1
142 292 1
177 292 1
289 292 1
387 292 1
143 293 1
178 293 1
290 293 1
388 293 1
133 294 1
179 294 1
291 294 1
389 294 1
134 295 1
180 295 1
292 295 1
390 295 1
135 296 1
181 296 1
293 296 1
391 296 1
136 297 1
182 297 1
294 297 1
392 297 1
161 298 1
181 298 1
306 298 1
338 298 1
162 299 1
182 299 1
307 299 1
339 299 1
163 300 1
183 300 1
308 300 1
340 300 1
164 301 1
184 301 1
298 301 1
341 301 1
165 302 1
185 302 1
299 302 1
331 302 1
155 303 1
186 303 1
300 303 1
332 303 1
156 304 1
187 304 1
301 304 1
333 304 1
157 305 1
177 305 1
302 305 1
334 305 1
158 306 1
178 306 1
303 306 1
335 306 1
159 307 1
179 307 1
304 307 1
336 307 1
160 308 1
180 308 1
305 308 1
337 308 1
139 309 1
192 309 1
317 309 1
349 309 1
140 310 1
193 310 1
318 310 1
350 310 1
141 311 1
194 311 1
319 311 1
351 311 1
142 312 1
195 312 1
309 312 1
352 312 1
143 313 1
196 313 1
310 313 1
342 313 1
133 314 1
197 314 1
311 314 1
343 314 1
134 315 1
198 315 1
312 315 1
344 315 1
135 316 1
188 316 1
313 316 1
345 316 1
136 317 1
189 317 1
314 317 1
346 317 1
137 318 1
190 318 1
315 318 1
347 318 1
138 319 1
191 319 1
316 319 1
348 319 1
150 320 1
170 320 1
328 320 1
360 320 1
151 321 1
171 321 1
329 321 1
361 321 1
152 322 1
172 322 1
330 322 1
362 322 1
153 323 1
173 323 1
320 323 1
363 323 1
154 324 1
174 324 1
321 324 1
353 324 1
144 325 1
175 325 1
322 325 1
354 325 1
145 326 1
176 326 1
323 326 1
355 326 1
146 327 1
166 327 1
324 327 1
356 327 1
147 328 1
167 328 1
325 328 1
357 328 1
148 329 1
168 329 1
326 329 1
358 329 1
149 330 1
169 330 1
327 330 1
359 330 1
214 331 1
260 331 1
305 331 1
339 331 1
215 332 1
261 332 1
306 332 1
340 332 1
216 333 1
262 333 1
307 333 1
341 333 1
217 334 1
263 334 1
308 334 1
331 334 1
218 335 1
264 335 1
298 335 1
332 335 1
219 336 1
254 336 1
299 336 1
333 336 1
220 337 1
255 337 1
300 337 1
334 337 1
210 338 1
256 338 1
301 338 1
335 338 1
211 339 1
257 339 1
302 339 1
336 339 1
212 340 1
258 340 1
303 340 1
337 340 1
213 341 1
259 341 1
304 341 1
338 341 1
225 342 1
238 342 1
316 342 1
350 342 1
226 343 1
239 343 1
317 343 1
351 343 1
227 344 1
240 344 1
318 344 1
352 344 1
228 345 1
241 345 1
319 345 1
342 345 1
229 346 1
242 346 1
309 346 1
343 346 1
230 347 1
232 347 1
310 347 1
344 347 1
231 348 1
233 348 1
311 348 1
345 348 1
221 349 1
234 349 1
312 349 1
346 349 1
222 350 1
235 350 1
313 350 1
347 350 1
223 351 1
236 351 1
314 351 1
348 351 1
224 352 1
237 352 1
315 352 1
349 352 1
203 353 1
249 353 1
327 353 1
361 353 1
204 354 1
250 354 1
328 354 1
362 354 1
205 355 1
251 355 1
329 355 1
363 355 1
206 356 1
252 356 1
330 356 1
353 356 1
207 357 1
253 357 1
320 357 1
354 357 1
208 358 1
243 358 1
321 358 1
355 358 1
209 359 1
244 359 1
322 359 1
356 359 1
199 360 1
245 360 1
323 360 1
357 360 1
200 361 1
246 361 1
324 361 1
358 361 1
201 362 1
247 362 1
325 362 1
359 362 1
202 363 1
248 363 1
326 363 1
360 363 1
227 364 1
247 364 1
272 364 1
372 364 1
228 365 1
248 365 1
273 365 1
373 365 1
229 366 1
249 366 1
274 366 1
374 366 1
230 367 1
250 367 1
275 367 1
364 367 1
231 368 1
251 368 1
265 368 1
365 368 1
221 369 1
252 369 1
266 369 1
366 369 1
222 370 1
253 370 1
267 370 1
367 370 1
223 371 1
243 371 1
268 371 1
368 371 1
224 372 1
244 372 1
269 372 1
369 372 1
225 373 1
245 373 1
270 373 1
370 373 1
226 374 1
246 374 1
271 374 1
371 374 1
205 375 1
258 375 1
283 375 1
383 375 1
206 376 1
259 376 1
284 376 1
384 376 1
207 377 1
260 377 1
285 377 1
385 377 1
208 378 1
261 378 1
286 378 1
375 378 1
209 379 1
262 379 1
276 379 1
376 379 1
199 380 1
263 380 1
277 380 1
377 380 1
200 381 1
264 381 1
278 381 1
378 381 1
201 382 1
254 382 1
279 382 1
379 382 1
202 383 1
255 383 1
280 383 1
380 383 1
203 384 1
256 384 1
281 384 1
381 384 1
204 385 1
257 385 1
282 385 1
382 385 1
216 386 1
236 386 1
294 386 1
394 386 1
217 387 1
237 387 1
295 387 1
395 387 1
218 388 1
238 388 1
296 388 1
396 388 1
219 389 1
239 389 1
297 389 1
386 389 1
220 390 1
240 390 1
287 390 1
387 390 1
210 391 1
241 391 1
288 391 1
388 391 1
211 392 1
242 392 1
289 392 1
389 392 1
212 393 1
232 393 1
290 393 1
390 393 1
213 394 1
233 394 1
291 394 1
391 394 1
214 395 1
234 395 1
292 395 1
392 395 1
215 396 1
235 396 1
293 396 1
393 396 1
110 397 1
131 397 1
418 397 1
449 397 1
100 398 1
132 398 1
408 398 1
450 398 1
101 399 1
122 399 1
409 399 1
451 399 1
102 400 1
123 400 1
410 400 1
441 400 1
103 401 1
124 401 1
411 401 1
442 401 1
104 402 1
125 402 1
412 402 1
443 402 1
105 403 1
126 403 1
413 403 1
444 403 1
106 404 1
127 404 1
414 404 1
445 404 1
107 405 1
128 405 1
415 405 1
446 405 1
108 406 1
129 406 1
416 406 1
447 406 1
109 407 1
130 407 1
417 407 1
448 407 1
109 408 1
121 408 1
429 408 1
460 408 1
110 409 1
111 409 1
419 409 1
461 409 1
100 410 1
112 410 1
420 410 1
462 410 1
101 411 1
113 411 1
421 411 1
452 411 1
102 412 1
114 412 1
422 412 1
453 412 1
103 413 1
115 413 1
423 413 1
454 413 1
104 414 1
116 414 1
424 414 1
455 414 1
105 415 1
117 415 1
425 415 1
456 415 1
106 416 1
118 416 1
426 416 1
457 416 1
107 417 1
119 417 1
427 417 1
458 417 1
108 418 1
120 418 1
428 418 1
459 418 1
120 419 1
132 419 1
407 419 1
438 419 1
121 420 1
122 420 1
397 420 1
439 420 1
111 421 1
123 421 1
398 421 1
440 421 1
112 422 1
124 422 1
399 422 1
430 422 1
113 423 1
125 423 1
400 423 1
431 423 1
114 424 1
126 424 1
401 424 1
432 424 1
115 425 1
127 425 1
402 425 1
433 425 1
116 426 1
128 426 1
403 426 1
434 426 1
117 427 1
129 427 1
404 427 1
435 427 1
118 428 1
130 428 1
405 428 1
436 428 1
119 429 1
131 429 1
406 429 1
437 429 1
77 430 1
98 430 1
416 430 1
451 430 1
67 431 1
99 431 1
417 431 1
441 431 1
68 432 1
89 432 1
418 432 1
442 432 1
69 433 1
90 433 1
408 433 1
443 433 1
70 434 1
91 434 1
409 434 1
444 434 1
71 435 1
92 435 1
410 435 1
445 435 1
72 436 1
93 436 1
411 436 1
446 436 1
73 437 1
94 437 1
412 437 1
447 437 1
74 438 1
95 438 1
413 438 1
448 438 1
75 439 1
96 439 1
414 439 1
449 439 1
76 440 1
97 440 1
415 440 1
450 440 1
76 441 1
88 441 1
427 441 1
462 441 1
77 442 1
78 442 1
428 442 1
452 442 1
67 443 1
79 443 1
429 443 1
453 443 1
68 444 1
80 444 1
419 444 1
454 444 1
69 445 1
81 445 1
420 445 1
455 445 1
70 446 1
82 446 1
421 446 1
456 446 1
71 447 1
83 447 1
422 447 1
457 447 1
72 448 1
84 448 1
423 448 1
458 448 1
73 449 1
85 449 1
424 449 1
459 449 1
74 450 1
86 450 1
425 450 1
460 450 1
75 451 1
87 451 1
426 451 1
461 451 1
87 452 1
99 452 1
405 452 1
440 452 1
88 453 1
89 453 1
406 453 1
430 453 1
78 454 1
90 454 1
407 454 1
431 454 1
79 455 1
91 455 1
397 455 1
432 455 1
80 456 1
92 456 1
398 456 1
433 456 1
81 457 1
93 457 1
399 457 1
434 457 1
82 458 1
94 458 1
400 458 1
435 458 1
83 459 1
95 459 1
401 459 1
436 459 1
84 460 1
96 460 1
402 460 1
437 460 1
85 461 1
97 461 1
403 461 1
438 461 1
86 462 1
98 462 1
404 462 1
439 462 1
44 463 1
65 463 1
484 463 1
515 463 1
34 464 1
66 464 1
474 464 1
516 464 1
35 465 1
56 465 1
475 465 1
517 465 1
36 466 1
57 466 1
476 466 1
507 466 1
37 467 1
58 467 1
477 467 1
508 467 1
38 468 1
59 468 1
478 468 1
509 468 1
39 469 1
60 469 1
479 469 1
510 469 1
40 470 1
61 470 1
480 470 1
511 470 1
41 471 1
62 471 1
481 471 1
512 471 1
42 472 1
63 472 1
482 472 1
513 472 1
43 473 1
64 473 1
483 473 1
514 473 1
43 474 1
55 474 1
495 474 1
526 474 1
44 475 1
45 475 1
485 475 1
527 475 1
34 476 1
46 476 1
486 476 1
528 476 1
35 477 1
47 477 1
487 477 1
518 477 1
36 478 1
48 478 1
488 478 1
519 478 1
37 479 1
49 479 1
489 479 1
520 479 1
38 480 1
50 480 1
490 480 1
521 480 1
39 481 1
51 481 1
491 481 1
522 481 1
40 482 1
52 482 1
492 482 1
523 482 1
41 483 1
53 483 1
493 483 1
524 483 1
42 484 1
54 484 1
494 484 1
525 484 1
54 485 1
66 485 1
473 485 1
504 485 1
55 486 1
56 486 1
463 486 1
505 486 1
45 487 1
57 487 1
464 487 1
506 487 1
46 488 1
58 488 1
465 488 1
496 488 1
47 489 1
59 489 1
466 489 1
497 489 1
48 490 1
60 490 1
467 490 1
498 490 1
49 491 1
61 491 1
468 491 1
499 491 1
50 492 1
62 492 1
469 492 1
500 492 1
51 493 1
63 493 1
470 493 1
501 493 1
52 494 1
64 494 1
471 494 1
502 494 1
53 495 1
65 495 1
472 495 1
503 495 1
11 496 1
32 496 1
482 496 1
517 496 1
1 497 1
33 497 1
483 497 1
507 497 1
2 498 1
23 498 1
484 498 1
508 498 1
3 499 1
24 499 1
474 499 1
509 499 1
4 500 1
25 500 1
475 500 1
510 500 1
5 501 1
26 501 1
476 501 1
511 501 1
6 502 1
27 502 1
477 502 1
512 502 1
7 503 1
28 503 1
478 503 1
513 503 1
8 504 1
29 504 1
479 504 1
514 504 1
9 505 1
30 505 1
480 505 1
515 505 1
10 506 1
31 506 1
481 506 1
516 506 1
10 507 1
22 507 1
493 507 1
528 507 1
11 508 1
12 508 1
494 508 1
518 508 1
1 509 1
13 509 1
495 509 1
519 509 1
2 510 1
14 510 1
485 510 1
520 510 1
3 511 1
15 511 1
486 511 1
521 511 1
4 512 1
16 512 1
487 512 1
522 512 1
5 513 1
17 513 1
488 513 1
523 513 1
6 514 1
18 514 1
489 514 1
524 514 1
7 515 1
19 515 1
490 515 1
525 515 1
8 516 1
20 516 1
491 516 1
526 516 1
9 517 1
21 517 1
492 517 1
527 517 1
21 518 1
33 518 1
471 518 1
506 518 1
22 519 1
23 519 1
472 519 1
496 519 1
12 520 1
24 520 1
473 520 1
497 520 1
13 521 1
25 521 1
463 521 1
498 521 1
14 522 1
26 522 1
464 522 1
499 522 1
15 523 1
27 523 1
465 523 1
500 523 1
16 524 1
28 524 1
466 524 1
501 524 1
17 525 1
29 525 1
467 525 1
502 525 1
18 526 1
30 526 1
468 526 1
503 526 1
19 527 1
31 527 1
469 527 1
504 527 1
20 528 1
32 528 1
470 528 1
505 528 1
242 529 1
263 529 1
405 529 1
503 529 1
232 530 1
264 530 1
406 530 1
504 530 1
233 531 1
254 531 1
407 531 1
505 531 1
234 532 1
255 532 1
397 532 1
506 532 1
235 533 1
256 533 1
398 533 1
496 533 1
236 534 1
257 534 1
399 534 1
497 534 1
237 535 1
258 535 1
400 535 1
498 535 1
238 536 1
259 536 1
401 536 1
499 536 1
239 537 1
260 537 1
402 537 1
500 537 1
240 538 1
261 538 1
403 538 1
501 538 1
241 539 1
262 539 1
404 539 1
502 539 1
241 540 1
253 540 1
416 540 1
514 540 1
242 541 1
243 541 1
417 541 1
515 541 1
232 542 1
244 542 1
418 542 1
516 542 1
233 543 1
245 543 1
408 543 1
517 543 1
234 544 1
246 544 1
409 544 1
507 544 1
235 545 1
247 545 1
410 545 1
508 545 1
236 546 1
248 546 1
411 546 1
509 546 1
237 547 1
249 547 1
412 547 1
510 547 1
238 548 1
250 548 1
413 548 1
511 548 1
239 549 1
251 549 1
414 549 1
512 549 1
240 550 1
252 550 1
415 550 1
513 550 1
252 551 1
264 551 1
427 551 1
525 551 1
253 552 1
254 552 1
428 552 1
526 552 1
243 553 1
255 553 1
429 553 1
527 553 1
244 554 1
256 554 1
419 554 1
528 554 1
245 555 1
257 555 1
420 555 1
518 555 1
246 556 1
258 556 1
421 556 1
519 556 1
247 557 1
259 557 1
422 557 1
520 557 1
248 558 1
260 558 1
423 558 1
521 558 1
249 559 1
261 559 1
424 559 1
522 559 1
250 560 1
262 560 1
425 560 1
523 560 1
251 561 1
263 561 1
426 561 1
524 561 1
209 562 1
230 562 1
438 562 1
470 562 1
199 563 1
231 563 1
439 563 1
471 563 1
200 564 1
221 564 1
440 564 1
472 564 1
201 565 1
222 565 1
430 565 1
473 565 1
202 566 1
223 566 1
431 566 1
463 566 1
203 567 1
224 567 1
432 567 1
464 567 1
204 568 1
225 568 1
433 568 1
465 568 1
205 569 1
226 569 1
434 569 1
466 569 1
206 570 1
227 570 1
435 570 1
467 570 1
207 571 1
228 571 1
436 571 1
468 571 1
208 572 1
229 572 1
437 572 1
469 572 1
208 573 1
220 573 1
449 573 1
481 573 1
209 574 1
210 574 1
450 574 1
482 574 1
199 575 1
211 575 1
451 575 1
483 575 1
200 576 1
212 576 1
441 576 1
484 576 1
201 577 1
213 577 1
442 577 1
474 577 1
202 578 1
214 578 1
443 578 1
475 578 1
203 579 1
215 579 1
444 579 1
476 579 1
204 580 1
216 580 1
445 580 1
477 580 1
205 581 1
217 581 1
446 581 1
478 581 1
206 582 1
218 582 1
447 582 1
479 582 1
207 583 1
219 583 1
448 583 1
480 583 1
219 584 1
231 584 1
460 584 1
492 584 1
220 585 1
221 585 1
461 585 1
493 585 1
210 586 1
222 586 1
462 586 1
494 586 1
211 587 1
223 587 1
452 587 1
495 587 1
212 588 1
224 588 1
453 588 1
485 588 1
213 589 1
225 589 1
454 589 1
486 589 1
214 590 1
226 590 1
455 590 1
487 590 1
215 591 1
227 591 1
456 591 1
488 591 1
216 592 1
228 592 1
457 592 1
489 592 1
217 593 1
229 593 1
458 593 1
490 593 1
218 594 1
230 594 1
459 594 1
491 594 1
176 595 1
197 595 1
437 595 1
471 595 1
166 596 1
198 596 1
438 596 1
472 596 1
167 597 1
188 597 1
439 597 1
473 597 1
168 598 1
189 598 1
440 598 1
463 598 1
169 599 1
190 599 1
430 599 1
464 599 1
170 600 1
191 600 1
431 600 1
465 600 1
171 601 1
192 601 1
432 601 1
466 601 1
172 602 1
193 602 1
433 602 1
467 602 1
173 603 1
194 603 1
434 603 1
468 603 1
174 604 1
195 604 1
435 604 1
469 604 1
175 605 1
196 605 1
436 605 1
470 605 1
175 606 1
187 606 1
448 606 1
482 606 1
176 607 1
177 607 1
449 607 1
483 607 1
166 608 1
178 608 1
450 608 1
484 608 1
167 609 1
179 609 1
451 609 1
474 609 1
168 610 1
180 610 1
441 610 1
475 610 1
169 611 1
181 611 1
442 611 1
476 611 1
170 612 1
182 612 1
443 612 1
477 612 1
171 613 1
183 613 1
444 613 1
478 613 1
172 614 1
184 614 1
445 614 1
479 614 1
173 615 1
185 615 1
446 615 1
480 615 1
174 616 1
186 616 1
447 616 1
481 616 1
186 617 1
198 617 1
459 617 1
493 617 1
187 618 1
188 618 1
460 618 1
494 618 1
177 619 1
189 619 1
461 619 1
495 619 1
178 620 1
190 620 1
462 620 1
485 620 1
179 621 1
191 621 1
452 621 1
486 621 1
180 622 1
192 622 1
453 622 1
487 622 1
181 623 1
193 623 1
454 623 1
488 623 1
182 624 1
194 624 1
455 624 1
489 624 1
183 625 1
195 625 1
456 625 1
490 625 1
184 626 1
196 626 1
457 626 1
491 626 1
185 627 1
197 627 1
458 627 1
492 627 1
143 628 1
164 628 1
404 628 1
504 628 1
133 629 1
165 629 1
405 629 1
505 629 1
134 630 1
155 630 1
406 630 1
506 630 1
135 631 1
156 631 1
407 631 1
496 631 1
136 632 1
157 632 1
397 632 1
497 632 1
137 633 1
158 633 1
398 633 1
498 633 1
138 634 1
159 634 1
399 634 1
499 634 1
139 635 1
160 635 1
400 635 1
500 635 1
140 636 1
161 636 1
401 636 1
501 636 1
141 637 1
162 637 1
402 637 1
502 637 1
142 638 1
163 638 1
403 638 1
503 638 1
142 639 1
154 639 1
415 639 1
515 639 1
143 640 1
144 640 1
416 640 1
516 640 1
133 641 1
145 641 1
417 641 1
517 641 1
134 642 1
146 642 1
418 642 1
507 642 1
135 643 1
147 643 1
408 643 1
508 643 1
136 644 1
148 644 1
409 644 1
509 644 1
137 645 1
149 645 1
410 645 1
510 645 1
138 646 1
150 646 1
411 646 1
511 646 1
139 647 1
151 647 1
412 647 1
512 647 1
140 648 1
152 648 1
413 648 1
513 648 1
141 649 1
153 649 1
414 649 1
514 649 1
153 650 1
165 650 1
426 650 1
526 650 1
154 651 1
155 651 1
427 651 1
527 651 1
144 652 1
156 652 1
428 652 1
528 652 1
145 653 1
157 653 1
429 653 1
518 653 1
146 654 1
158 654 1
419 654 1
519 654 1
147 655 1
159 655 1
420 655 1
520 655 1
148 656 1
160 656 1
421 656 1
521 656 1
149 657 1
161 657 1
422 657 1
522 657 1
150 658 1
162 658 1
423 658 1
523 658 1
151 659 1
163 659 1
424 659 1
524 659 1
152 660 1
164 660 1
425 660 1
525 660 1
374 661 1
395 661 1
412 661 1
458 661 1
364 662 1
396 662 1
413 662 1
459 662 1
365 663 1
386 663 1
414 663 1
460 663 1
366 664 1
387 664 1
415 664 1
461 664 1
367 665 1
388 665 1
416 665 1
462 665 1
368 666 1
389 666 1
417 666 1
452 666 1
369 667 1
390 667 1
418 667 1
453 667 1
370 668 1
391 668 1
408 668 1
454 668 1
371 669 1
392 669 1
409 669 1
455 669 1
372 670 1
393 670 1
410 670 1
456 670 1
373 671 1
394 671 1
411 671 1
457 671 1
373 672 1
385 672 1
423 672 1
436 672 1
374 673 1
375 673 1
424 673 1
437 673 1
364 674 1
376 674 1
425 674 1
438 674 1
365 675 1
377 675 1
426 675 1
439 675 1
366 676 1
378 676 1
427 676 1
440 676 1
367 677 1
379 677 1
428 677 1
430 677 1
368 678 1
380 678 1
429 678 1
431 678 1
369 679 1
381 679 1
419 679 1
432 679 1
370 680 1
382 680 1
420 680 1
433 680 1
371 681 1
383 681 1
421 681 1
434 681 1
372 682 1
384 682 1
422 682 1
435 682 1
384 683 1
396 683 1
401 683 1
447 683 1
385 684 1
386 684 1
402 684 1
448 684 1
375 685 1
387 685 1
403 685 1
449 685 1
376 686 1
388 686 1
404 686 1
450 686 1
377 687 1
389 687 1
405 687 1
451 687 1
378 688 1
390 688 1
406 688 1
441 688 1
379 689 1
391 689 1
407 689 1
442 689 1
380 690 1
392 690 1
397 690 1
443 690 1
381 691 1
393 691 1
398 691 1
444 691 1
382 692 1
394 692 1
399 692 1
445 692 1
383 693 1
395 693 1
400 693 1
446 693 1
341 694 1
362 694 1
425 694 1
445 694 1
331 695 1
363 695 1
426 695 1
446 695 1
332 696 1
353 696 1
427 696 1
447 696 1
333 697 1
354 697 1
428 697 1
448 697 1
334 698 1
355 698 1
429 698 1
449 698 1
335 699 1
356 699 1
419 699 1
450 699 1
336 700 1
357 700 1
420 700 1
451 700 1
337 701 1
358 701 1
421 701 1
441 701 1
338 702 1
359 702 1
422 702 1
442 702 1
339 703 1
360 703 1
423 703 1
443 703 1
340 704 1
361 704 1
424 704 1
444 704 1
340 705 1
352 705 1
403 705 1
456 705 1
341 706 1
342 706 1
404 706 1
457 706 1
331 707 1
343 707 1
405 707 1
458 707 1
332 708 1
344 708 1
406 708 1
459 708 1
333 709 1
345 709 1
407 709 1
460 709 1
334 710 1
346 710 1
397 710 1
461 710 1
335 711 1
347 711 1
398 711 1
462 711 1
336 712 1
348 712 1
399 712 1
452 712 1
337 713 1
349 713 1
400 713 1
453 713 1
338 714 1
350 714 1
401 714 1
454 714 1
339 715 1
351 715 1
402 715 1
455 715 1
351 716 1
363 716 1
414 716 1
434 716 1
352 717 1
353 717 1
415 717 1
435 717 1
342 718 1
354 718 1
416 718 1
436 718 1
343 719 1
355 719 1
417 719 1
437 719 1
344 720 1
356 720 1
418 720 1
438 720 1
345 721 1
357 721 1
408 721 1
439 721 1
346 722 1
358 722 1
409 722 1
440 722 1
347 723 1
359 723 1
410 723 1
430 723 1
348 724 1
360 724 1
411 724 1
431 724 1
349 725 1
361 725 1
412 725 1
432 725 1
350 726 1
362 726 1
413 726 1
433 726 1
308 727 1
329 727 1
478 727 1
524 727 1
298 728 1
330 728 1
479 728 1
525 728 1
299 729 1
320 729 1
480 729 1
526 729 1
300 730 1
321 730 1
481 730 1
527 730 1
301 731 1
322 731 1
482 731 1
528 731 1
302 732 1
323 732 1
483 732 1
518 732 1
303 733 1
324 733 1
484 733 1
519 733 1
304 734 1
325 734 1
474 734 1
520 734 1
305 735 1
326 735 1
475 735 1
521 735 1
306 736 1
327 736 1
476 736 1
522 736 1
307 737 1
328 737 1
477 737 1
523 737 1
307 738 1
319 738 1
489 738 1
502 738 1
308 739 1
309 739 1
490 739 1
503 739 1
298 740 1
310 740 1
491 740 1
504 740 1
299 741 1
311 741 1
492 741 1
505 741 1
300 742 1
312 742 1
493 742 1
506 742 1
301 743 1
313 743 1
494 743 1
496 743 1
302 744 1
314 744 1
495 744 1
497 744 1
303 745 1
315 745 1
485 745 1
498 745 1
304 746 1
316 746 1
486 746 1
499 746 1
305 747 1
317 747 1
487 747 1
500 747 1
306 748 1
318 748 1
488 748 1
501 748 1
318 749 1
330 749 1
467 749 1
513 749 1
319 750 1
320 750 1
468 750 1
514 750 1
309 751 1
321 751 1
469 751 1
515 751 1
310 752 1
322 752 1
470 752 1
516 752 1
311 753 1
323 753 1
471 753 1
517 753 1
312 754 1
324 754 1
472 754 1
507 754 1
313 755 1
325 755 1
473 755 1
508 755 1
314 756 1
326 756 1
463 756 1
509 756 1
315 757 1
327 757 1
464 757 1
510 757 1
316 758 1
328 758 1
465 758 1
511 758 1
317 759 1
329 759 1
466 759 1
512 759 1
275 760 1
296 760 1
491 760 1
511 760 1
265 761 1
297 761 1
492 761 1
512 761 1
266 762 1
287 762 1
493 762 1
513 762 1
267 763 1
288 763 1
494 763 1
514 763 1
268 764 1
289 764 1
495 764 1
515 764 1
269 765 1
290 765 1
485 765 1
516 765 1
270 766 1
291 766 1
486 766 1
517 766 1
271 767 1
292 767 1
487 767 1
507 767 1
272 768 1
293 768 1
488 768 1
508 768 1
273 769 1
294 769 1
489 769 1
509 769 1
274 770 1
295 770 1
490 770 1
510 770 1
274 771 1
286 771 1
469 771 1
522 771 1
275 772 1
276 772 1
470 772 1
523 772 1
265 773 1
277 773 1
471 773 1
524 773 1
266 774 1
278 774 1
472 774 1
525 774 1
267 775 1
279 775 1
473 775 1
526 775 1
268 776 1
280 776 1
463 776 1
527 776 1
269 777 1
281 777 1
464 777 1
528 777 1
270 778 1
282 778 1
465 778 1
518 778 1
271 779 1
283 779 1
466 779 1
519 779 1
272 780 1
284 780 1
467 780 1
520 780 1
273 781 1
285 781 1
468 781 1
521 781 1
285 782 1
297 782 1
480 782 1
500 782 1
286 783 1
287 783 1
481 783 1
501 783 1
276 784 1
288 784 1
482 784 1
502 784 1
277 785 1
289 785 1
483 785 1
503 785 1
278 786 1
290 786 1
484 786 1
504 786 1
279 787 1
291 787 1
474 787 1
505 787 1
280 788 1
292 788 1
475 788 1
506 788 1
281 789 1
293 789 1
476 789 1
496 789 1
282 790 1
294 790 1
477 790 1
497 790 1
283 791 1
295 791 1
478 791 1
498 791 1
284 792 1
296 792 1
479 792 1
499 792 1
