%%MatrixMarket matrix coordinate integer general
% Binary matrix; one-based indices; arithmetic over GF(2)
345 460 2760
1 1 1
13 1 1
24 1 1
31 1 1
116 1 1
120 1 1
2 2 1
14 2 1
25 2 1
32 2 1
117 2 1
121 2 1
3 3 1
15 3 1
26 3 1
33 3 1
118 3 1
122 3 1
4 4 1
16 4 1
27 4 1
34 4 1
119 4 1
123 4 1
5 5 1
17 5 1
28 5 1
35 5 1
120 5 1
124 5 1
6 6 1
18 6 1
29 6 1
36 6 1
121 6 1
125 6 1
7 7 1
19 7 1
30 7 1
37 7 1
122 7 1
126 7 1
8 8 1
20 8 1
31 8 1
38 8 1
123 8 1
127 8 1
9 9 1
21 9 1
32 9 1
39 9 1
124 9 1
128 9 1
10 10 1
22 10 1
33 10 1
40 10 1
125 10 1
129 10 1
11 11 1
23 11 1
34 11 1
41 11 1
126 11 1
130 11 1
1 12 1
12 12 1
35 12 1
42 12 1
127 12 1
131 12 1
2 13 1
13 13 1
36 13 1
43 13 1
128 13 1
132 13 1
3 14 1
14 14 1
37 14 1
44 14 1
129 14 1
133 14 1
4 15 1
15 15 1
38 15 1
45 15 1
130 15 1
134 15 1
5 16 1
16 16 1
39 16 1
46 16 1
131 16 1
135 16 1
6 17 1
17 17 1
24 17 1
40 17 1
132 17 1
136 17 1
7 18 1
18 18 1
25 18 1
41 18 1
133 18 1
137 18 1
8 19 1
19 19 1
26 19 1
42 19 1
134 19 1
138 19 1
9 20 1
20 20 1
27 20 1
43 20 1
116 20 1
135 20 1
10 21 1
21 21 1
28 21 1
44 21 1
117 21 1
136 21 1
11 22 1
22 22 1
29 22 1
45 22 1
118 22 1
137 22 1
12 23 1
23 23 1
30 23 1
46 23 1
119 23 1
138 23 1
1 24 1
15 24 1
47 24 1
54 24 1
139 24 1
143 24 1
2 25 1
16 25 1
48 25 1
55 25 1
140 25 1
144 25 1
3 26 1
17 26 1
49 26 1
56 26 1
141 26 1
145 26 1
4 27 1
18 27 1
50 27 1
57 27 1
142 27 1
146 27 1
5 28 1
19 28 1
51 28 1
58 28 1
143 28 1
147 28 1
6 29 1
20 29 1
52 29 1
59 29 1
144 29 1
148 29 1
7 30 1
21 30 1
53 30 1
60 30 1
145 30 1
149 30 1
8 31 1
22 31 1
54 31 1
61 31 1
146 31 1
150 31 1
9 32 1
23 32 1
55 32 1
62 32 1
147 32 1
151 32 1
1 33 1
10 33 1
56 33 1
63 33 1
148 33 1
152 33 1
2 34 1
11 34 1
57 34 1
64 34 1
149 34 1
153 34 1
3 35 1
12 35 1
58 35 1
65 35 1
150 35 1
154 35 1
4 36 1
13 36 1
59 36 1
66 36 1
151 36 1
155 36 1
5 37 1
14 37 1
60 37 1
67 37 1
152 37 1
156 37 1
6 38 1
15 38 1
61 38 1
68 38 1
153 38 1
157 38 1
7 39 1
16 39 1
62 39 1
69 39 1
154 39 1
158 39 1
8 40 1
17 40 1
47 40 1
63 40 1
155 40 1
159 40 1
9 41 1
18 41 1
48 41 1
64 41 1
156 41 1
160 41 1
10 42 1
19 42 1
49 42 1
65 42 1
157 42 1
161 42 1
11 43 1
20 43 1
50 43 1
66 43 1
139 43 1
158 43 1
12 44 1
21 44 1
51 44 1
67 44 1
140 44 1
159 44 1
13 45 1
22 45 1
52 45 1
68 45 1
141 45 1
160 45 1
14 46 1
23 46 1
53 46 1
69 46 1
142 46 1
161 46 1
1 47 1
19 47 1
70 47 1
77 47 1
162 47 1
166 47 1
2 48 1
20 48 1
71 48 1
78 48 1
163 48 1
167 48 1
3 49 1
21 49 1
72 49 1
79 49 1
164 49 1
168 49 1
4 50 1
22 50 1
73 50 1
80 50 1
165 50 1
169 50 1
5 51 1
23 51 1
74 51 1
81 51 1
166 51 1
170 51 1
1 52 1
6 52 1
75 52 1
82 52 1
167 52 1
171 52 1
2 53 1
7 53 1
76 53 1
83 53 1
168 53 1
172 53 1
3 54 1
8 54 1
77 54 1
84 54 1
169 54 1
173 54 1
4 55 1
9 55 1
78 55 1
85 55 1
170 55 1
174 55 1
5 56 1
10 56 1
79 56 1
86 56 1
171 56 1
175 56 1
6 57 1
11 57 1
80 57 1
87 57 1
172 57 1
176 57 1
7 58 1
12 58 1
81 58 1
88 58 1
173 58 1
177 58 1
8 59 1
13 59 1
82 59 1
89 59 1
174 59 1
178 59 1
9 60 1
14 60 1
83 60 1
90 60 1
175 60 1
179 60 1
10 61 1
15 61 1
84 61 1
91 61 1
176 61 1
180 61 1
11 62 1
16 62 1
85 62 1
92 62 1
177 62 1
181 62 1
12 63 1
17 63 1
70 63 1
86 63 1
178 63 1
182 63 1
13 64 1
18 64 1
71 64 1
87 64 1
179 64 1
183 64 1
14 65 1
19 65 1
72 65 1
88 65 1
180 65 1
184 65 1
15 66 1
20 66 1
73 66 1
89 66 1
162 66 1
181 66 1
16 67 1
21 67 1
74 67 1
90 67 1
163 67 1
182 67 1
17 68 1
22 68 1
75 68 1
91 68 1
164 68 1
183 68 1
18 69 1
23 69 1
76 69 1
92 69 1
165 69 1
184 69 1
1 70 1
21 70 1
93 70 1
100 70 1
185 70 1
189 70 1
2 71 1
22 71 1
94 71 1
101 71 1
186 71 1
190 71 1
3 72 1
23 72 1
95 72 1
102 72 1
187 72 1
191 72 1
1 73 1
4 73 1
96 73 1
103 73 1
188 73 1
192 73 1
2 74 1
5 74 1
97 74 1
104 74 1
189 74 1
193 74 1
3 75 1
6 75 1
98 75 1
105 75 1
190 75 1
194 75 1
4 76 1
7 76 1
99 76 1
106 76 1
191 76 1
195 76 1
5 77 1
8 77 1
100 77 1
107 77 1
192 77 1
196 77 1
6 78 1
9 78 1
101 78 1
108 78 1
193 78 1
197 78 1
7 79 1
10 79 1
102 79 1
109 79 1
194 79 1
198 79 1
8 80 1
11 80 1
103 80 1
110 80 1
195 80 1
199 80 1
9 81 1
12 81 1
104 81 1
111 81 1
196 81 1
200 81 1
10 82 1
13 82 1
105 82 1
112 82 1
197 82 1
201 82 1
11 83 1
14 83 1
106 83 1
113 83 1
198 83 1
202 83 1
12 84 1
15 84 1
107 84 1
114 84 1
199 84 1
203 84 1
13 85 1
16 85 1
108 85 1
115 85 1
200 85 1
204 85 1
14 86 1
17 86 1
93 86 1
109 86 1
201 86 1
205 86 1
15 87 1
18 87 1
94 87 1
110 87 1
202 87 1
206 87 1
16 88 1
19 88 1
95 88 1
111 88 1
203 88 1
207 88 1
17 89 1
20 89 1
96 89 1
112 89 1
185 89 1
204 89 1
18 90 1
21 90 1
97 90 1
113 90 1
186 90 1
205 90 1
19 91 1
22 91 1
98 91 1
114 91 1
187 91 1
206 91 1
20 92 1
23 92 1
99 92 1
115 92 1
188 92 1
207 92 1
24 93 1
38 93 1
47 93 1
59 93 1
208 93 1
212 93 1
25 94 1
39 94 1
48 94 1
60 94 1
209 94 1
213 94 1
26 95 1
40 95 1
49 95 1
61 95 1
210 95 1
214 95 1
27 96 1
41 96 1
50 96 1
62 96 1
211 96 1
215 96 1
28 97 1
42 97 1
51 97 1
63 97 1
212 97 1
216 97 1
29 98 1
43 98 1
52 98 1
64 98 1
213 98 1
217 98 1
30 99 1
44 99 1
53 99 1
65 99 1
214 99 1
218 99 1
31 100 1
45 100 1
54 100 1
66 100 1
215 100 1
219 100 1
32 101 1
46 101 1
55 101 1
67 101 1
216 101 1
220 101 1
24 102 1
33 102 1
56 102 1
68 102 1
217 102 1
221 102 1
25 103 1
34 103 1
57 103 1
69 103 1
218 103 1
222 103 1
26 104 1
35 104 1
47 104 1
58 104 1
219 104 1
223 104 1
27 105 1
36 105 1
48 105 1
59 105 1
220 105 1
224 105 1
28 106 1
37 106 1
49 106 1
60 106 1
221 106 1
225 106 1
29 107 1
38 107 1
50 107 1
61 107 1
222 107 1
226 107 1
30 108 1
39 108 1
51 108 1
62 108 1
223 108 1
227 108 1
31 109 1
40 109 1
52 109 1
63 109 1
224 109 1
228 109 1
32 110 1
41 110 1
53 110 1
64 110 1
225 110 1
229 110 1
33 111 1
42 111 1
54 111 1
65 111 1
226 111 1
230 111 1
34 112 1
43 112 1
55 112 1
66 112 1
208 112 1
227 112 1
35 113 1
44 113 1
56 113 1
67 113 1
209 113 1
228 113 1
36 114 1
45 114 1
57 114 1
68 114 1
210 114 1
229 114 1
37 115 1
46 115 1
58 115 1
69 115 1
211 115 1
230 115 1
24 116 1
42 116 1
70 116 1
82 116 1
231 116 1
235 116 1
25 117 1
43 117 1
71 117 1
83 117 1
232 117 1
236 117 1
26 118 1
44 118 1
72 118 1
84 118 1
233 118 1
237 118 1
27 119 1
45 119 1
73 119 1
85 119 1
234 119 1
238 119 1
28 120 1
46 120 1
74 120 1
86 120 1
235 120 1
239 120 1
24 121 1
29 121 1
75 121 1
87 121 1
236 121 1
240 121 1
25 122 1
30 122 1
76 122 1
88 122 1
237 122 1
241 122 1
26 123 1
31 123 1
77 123 1
89 123 1
238 123 1
242 123 1
27 124 1
32 124 1
78 124 1
90 124 1
239 124 1
243 124 1
28 125 1
33 125 1
79 125 1
91 125 1
240 125 1
244 125 1
29 126 1
34 126 1
80 126 1
92 126 1
241 126 1
245 126 1
30 127 1
35 127 1
70 127 1
81 127 1
242 127 1
246 127 1
31 128 1
36 128 1
71 128 1
82 128 1
243 128 1
247 128 1
32 129 1
37 129 1
72 129 1
83 129 1
244 129 1
248 129 1
33 130 1
38 130 1
73 130 1
84 130 1
245 130 1
249 130 1
34 131 1
39 131 1
74 131 1
85 131 1
246 131 1
250 131 1
35 132 1
40 132 1
75 132 1
86 132 1
247 132 1
251 132 1
36 133 1
41 133 1
76 133 1
87 133 1
248 133 1
252 133 1
37 134 1
42 134 1
77 134 1
88 134 1
249 134 1
253 134 1
38 135 1
43 135 1
78 135 1
89 135 1
231 135 1
250 135 1
39 136 1
44 136 1
79 136 1
90 136 1
232 136 1
251 136 1
40 137 1
45 137 1
80 137 1
91 137 1
233 137 1
252 137 1
41 138 1
46 138 1
81 138 1
92 138 1
234 138 1
253 138 1
24 139 1
44 139 1
93 139 1
105 139 1
254 139 1
258 139 1
25 140 1
45 140 1
94 140 1
106 140 1
255 140 1
259 140 1
26 141 1
46 141 1
95 141 1
107 141 1
256 141 1
260 141 1
24 142 1
27 142 1
96 142 1
108 142 1
257 142 1
261 142 1
25 143 1
28 143 1
97 143 1
109 143 1
258 143 1
262 143 1
26 144 1
29 144 1
98 144 1
110 144 1
259 144 1
263 144 1
27 145 1
30 145 1
99 145 1
111 145 1
260 145 1
264 145 1
28 146 1
31 146 1
100 146 1
112 146 1
261 146 1
265 146 1
29 147 1
32 147 1
101 147 1
113 147 1
262 147 1
266 147 1
30 148 1
33 148 1
102 148 1
114 148 1
263 148 1
267 148 1
31 149 1
34 149 1
103 149 1
115 149 1
264 149 1
268 149 1
32 150 1
35 150 1
93 150 1
104 150 1
265 150 1
269 150 1
33 151 1
36 151 1
94 151 1
105 151 1
266 151 1
270 151 1
34 152 1
37 152 1
95 152 1
106 152 1
267 152 1
271 152 1
35 153 1
38 153 1
96 153 1
107 153 1
268 153 1
272 153 1
36 154 1
39 154 1
97 154 1
108 154 1
269 154 1
273 154 1
37 155 1
40 155 1
98 155 1
109 155 1
270 155 1
274 155 1
38 156 1
41 156 1
99 156 1
110 156 1
271 156 1
275 156 1
39 157 1
42 157 1
100 157 1
111 157 1
272 157 1
276 157 1
40 158 1
43 158 1
101 158 1
112 158 1
254 158 1
273 158 1
41 159 1
44 159 1
102 159 1
113 159 1
255 159 1
274 159 1
42 160 1
45 160 1
103 160 1
114 160 1
256 160 1
275 160 1
43 161 1
46 161 1
104 161 1
115 161 1
257 161 1
276 161 1
47 162 1
65 162 1
70 162 1
84 162 1
277 162 1
281 162 1
48 163 1
66 163 1
71 163 1
85 163 1
278 163 1
282 163 1
49 164 1
67 164 1
72 164 1
86 164 1
279 164 1
283 164 1
50 165 1
68 165 1
73 165 1
87 165 1
280 165 1
284 165 1
51 166 1
69 166 1
74 166 1
88 166 1
281 166 1
285 166 1
47 167 1
52 167 1
75 167 1
89 167 1
282 167 1
286 167 1
48 168 1
53 168 1
76 168 1
90 168 1
283 168 1
287 168 1
49 169 1
54 169 1
77 169 1
91 169 1
284 169 1
288 169 1
50 170 1
55 170 1
78 170 1
92 170 1
285 170 1
289 170 1
51 171 1
56 171 1
70 171 1
79 171 1
286 171 1
290 171 1
52 172 1
57 172 1
71 172 1
80 172 1
287 172 1
291 172 1
53 173 1
58 173 1
72 173 1
81 173 1
288 173 1
292 173 1
54 174 1
59 174 1
73 174 1
82 174 1
289 174 1
293 174 1
55 175 1
60 175 1
74 175 1
83 175 1
290 175 1
294 175 1
56 176 1
61 176 1
75 176 1
84 176 1
291 176 1
295 176 1
57 177 1
62 177 1
76 177 1
85 177 1
292 177 1
296 177 1
58 178 1
63 178 1
77 178 1
86 178 1
293 178 1
297 178 1
59 179 1
64 179 1
78 179 1
87 179 1
294 179 1
298 179 1
60 180 1
65 180 1
79 180 1
88 180 1
295 180 1
299 180 1
61 181 1
66 181 1
80 181 1
89 181 1
277 181 1
296 181 1
62 182 1
67 182 1
81 182 1
90 182 1
278 182 1
297 182 1
63 183 1
68 183 1
82 183 1
91 183 1
279 183 1
298 183 1
64 184 1
69 184 1
83 184 1
92 184 1
280 184 1
299 184 1
47 185 1
67 185 1
93 185 1
107 185 1
300 185 1
304 185 1
48 186 1
68 186 1
94 186 1
108 186 1
301 186 1
305 186 1
49 187 1
69 187 1
95 187 1
109 187 1
302 187 1
306 187 1
47 188 1
50 188 1
96 188 1
110 188 1
303 188 1
307 188 1
48 189 1
51 189 1
97 189 1
111 189 1
304 189 1
308 189 1
49 190 1
52 190 1
98 190 1
112 190 1
305 190 1
309 190 1
50 191 1
53 191 1
99 191 1
113 191 1
306 191 1
310 191 1
51 192 1
54 192 1
100 192 1
114 192 1
307 192 1
311 192 1
52 193 1
55 193 1
101 193 1
115 193 1
308 193 1
312 193 1
53 194 1
56 194 1
93 194 1
102 194 1
309 194 1
313 194 1
54 195 1
57 195 1
94 195 1
103 195 1
310 195 1
314 195 1
55 196 1
58 196 1
95 196 1
104 196 1
311 196 1
315 196 1
56 197 1
59 197 1
96 197 1
105 197 1
312 197 1
316 197 1
57 198 1
60 198 1
97 198 1
106 198 1
313 198 1
317 198 1
58 199 1
61 199 1
98 199 1
107 199 1
314 199 1
318 199 1
59 200 1
62 200 1
99 200 1
108 200 1
315 200 1
319 200 1
60 201 1
63 201 1
100 201 1
109 201 1
316 201 1
320 201 1
61 202 1
64 202 1
101 202 1
110 202 1
317 202 1
321 202 1
62 203 1
65 203 1
102 203 1
111 203 1
318 203 1
322 203 1
63 204 1
66 204 1
103 204 1
112 204 1
300 204 1
319 204 1
64 205 1
67 205 1
104 205 1
113 205 1
301 205 1
320 205 1
65 206 1
68 206 1
105 206 1
114 206 1
302 206 1
321 206 1
66 207 1
69 207 1
106 207 1
115 207 1
303 207 1
322 207 1
70 208 1
90 208 1
93 208 1
111 208 1
323 208 1
327 208 1
71 209 1
91 209 1
94 209 1
112 209 1
324 209 1
328 209 1
72 210 1
92 210 1
95 210 1
113 210 1
325 210 1
329 210 1
70 211 1
73 211 1
96 211 1
114 211 1
326 211 1
330 211 1
71 212 1
74 212 1
97 212 1
115 212 1
327 212 1
331 212 1
72 213 1
75 213 1
93 213 1
98 213 1
328 213 1
332 213 1
73 214 1
76 214 1
94 214 1
99 214 1
329 214 1
333 214 1
74 215 1
77 215 1
95 215 1
100 215 1
330 215 1
334 215 1
75 216 1
78 216 1
96 216 1
101 216 1
331 216 1
335 216 1
76 217 1
79 217 1
97 217 1
102 217 1
332 217 1
336 217 1
77 218 1
80 218 1
98 218 1
103 218 1
333 218 1
337 218 1
78 219 1
81 219 1
99 219 1
104 219 1
334 219 1
338 219 1
79 220 1
82 220 1
100 220 1
105 220 1
335 220 1
339 220 1
80 221 1
83 221 1
101 221 1
106 221 1
336 221 1
340 221 1
81 222 1
84 222 1
102 222 1
107 222 1
337 222 1
341 222 1
82 223 1
85 223 1
103 223 1
108 223 1
338 223 1
342 223 1
83 224 1
86 224 1
104 224 1
109 224 1
339 224 1
343 224 1
84 225 1
87 225 1
105 225 1
110 225 1
340 225 1
344 225 1
85 226 1
88 226 1
106 226 1
111 226 1
341 226 1
345 226 1
86 227 1
89 227 1
107 227 1
112 227 1
323 227 1
342 227 1
87 228 1
90 228 1
108 228 1
113 228 1
324 228 1
343 228 1
88 229 1
91 229 1
109 229 1
114 229 1
325 229 1
344 229 1
89 230 1
92 230 1
110 230 1
115 230 1
326 230 1
345 230 1
116 231 1
130 231 1
139 231 1
151 231 1
208 231 1
215 231 1
117 232 1
131 232 1
140 232 1
152 232 1
209 232 1
216 232 1
118 233 1
132 233 1
141 233 1
153 233 1
210 233 1
217 233 1
119 234 1
133 234 1
142 234 1
154 234 1
211 234 1
218 234 1
120 235 1
134 235 1
143 235 1
155 235 1
212 235 1
219 235 1
121 236 1
135 236 1
144 236 1
156 236 1
213 236 1
220 236 1
122 237 1
136 237 1
145 237 1
157 237 1
214 237 1
221 237 1
123 238 1
137 238 1
146 238 1
158 238 1
215 238 1
222 238 1
124 239 1
138 239 1
147 239 1
159 239 1
216 239 1
223 239 1
116 240 1
125 240 1
148 240 1
160 240 1
217 240 1
224 240 1
117 241 1
126 241 1
149 241 1
161 241 1
218 241 1
225 241 1
118 242 1
127 242 1
139 242 1
150 242 1
219 242 1
226 242 1
119 243 1
128 243 1
140 243 1
151 243 1
220 243 1
227 243 1
120 244 1
129 244 1
141 244 1
152 244 1
221 244 1
228 244 1
121 245 1
130 245 1
142 245 1
153 245 1
222 245 1
229 245 1
122 246 1
131 246 1
143 246 1
154 246 1
223 246 1
230 246 1
123 247 1
132 247 1
144 247 1
155 247 1
208 247 1
224 247 1
124 248 1
133 248 1
145 248 1
156 248 1
209 248 1
225 248 1
125 249 1
134 249 1
146 249 1
157 249 1
210 249 1
226 249 1
126 250 1
135 250 1
147 250 1
158 250 1
211 250 1
227 250 1
127 251 1
136 251 1
148 251 1
159 251 1
212 251 1
228 251 1
128 252 1
137 252 1
149 252 1
160 252 1
213 252 1
229 252 1
129 253 1
138 253 1
150 253 1
161 253 1
214 253 1
230 253 1
116 254 1
134 254 1
162 254 1
174 254 1
231 254 1
238 254 1
117 255 1
135 255 1
163 255 1
175 255 1
232 255 1
239 255 1
118 256 1
136 256 1
164 256 1
176 256 1
233 256 1
240 256 1
119 257 1
137 257 1
165 257 1
177 257 1
234 257 1
241 257 1
120 258 1
138 258 1
166 258 1
178 258 1
235 258 1
242 258 1
116 259 1
121 259 1
167 259 1
179 259 1
236 259 1
243 259 1
117 260 1
122 260 1
168 260 1
180 260 1
237 260 1
244 260 1
118 261 1
123 261 1
169 261 1
181 261 1
238 261 1
245 261 1
119 262 1
124 262 1
170 262 1
182 262 1
239 262 1
246 262 1
120 263 1
125 263 1
171 263 1
183 263 1
240 263 1
247 263 1
121 264 1
126 264 1
172 264 1
184 264 1
241 264 1
248 264 1
122 265 1
127 265 1
162 265 1
173 265 1
242 265 1
249 265 1
123 266 1
128 266 1
163 266 1
174 266 1
243 266 1
250 266 1
124 267 1
129 267 1
164 267 1
175 267 1
244 267 1
251 267 1
125 268 1
130 268 1
165 268 1
176 268 1
245 268 1
252 268 1
126 269 1
131 269 1
166 269 1
177 269 1
246 269 1
253 269 1
127 270 1
132 270 1
167 270 1
178 270 1
231 270 1
247 270 1
128 271 1
133 271 1
168 271 1
179 271 1
232 271 1
248 271 1
129 272 1
134 272 1
169 272 1
180 272 1
233 272 1
249 272 1
130 273 1
135 273 1
170 273 1
181 273 1
234 273 1
250 273 1
131 274 1
136 274 1
171 274 1
182 274 1
235 274 1
251 274 1
132 275 1
137 275 1
172 275 1
183 275 1
236 275 1
252 275 1
133 276 1
138 276 1
173 276 1
184 276 1
237 276 1
253 276 1
116 277 1
136 277 1
185 277 1
197 277 1
254 277 1
261 277 1
117 278 1
137 278 1
186 278 1
198 278 1
255 278 1
262 278 1
118 279 1
138 279 1
187 279 1
199 279 1
256 279 1
263 279 1
116 280 1
119 280 1
188 280 1
200 280 1
257 280 1
264 280 1
117 281 1
120 281 1
189 281 1
201 281 1
258 281 1
265 281 1
118 282 1
121 282 1
190 282 1
202 282 1
259 282 1
266 282 1
119 283 1
122 283 1
191 283 1
203 283 1
260 283 1
267 283 1
120 284 1
123 284 1
192 284 1
204 284 1
261 284 1
268 284 1
121 285 1
124 285 1
193 285 1
205 285 1
262 285 1
269 285 1
122 286 1
125 286 1
194 286 1
206 286 1
263 286 1
270 286 1
123 287 1
126 287 1
195 287 1
207 287 1
264 287 1
271 287 1
124 288 1
127 288 1
185 288 1
196 288 1
265 288 1
272 288 1
125 289 1
128 289 1
186 289 1
197 289 1
266 289 1
273 289 1
126 290 1
129 290 1
187 290 1
198 290 1
267 290 1
274 290 1
127 291 1
130 291 1
188 291 1
199 291 1
268 291 1
275 291 1
128 292 1
131 292 1
189 292 1
200 292 1
269 292 1
276 292 1
129 293 1
132 293 1
190 293 1
201 293 1
254 293 1
270 293 1
130 294 1
133 294 1
191 294 1
202 294 1
255 294 1
271 294 1
131 295 1
134 295 1
192 295 1
203 295 1
256 295 1
272 295 1
132 296 1
135 296 1
193 296 1
204 296 1
257 296 1
273 296 1
133 297 1
136 297 1
194 297 1
205 297 1
258 297 1
274 297 1
134 298 1
137 298 1
195 298 1
206 298 1
259 298 1
275 298 1
135 299 1
138 299 1
196 299 1
207 299 1
260 299 1
276 299 1
139 300 1
157 300 1
162 300 1
176 300 1
277 300 1
284 300 1
140 301 1
158 301 1
163 301 1
177 301 1
278 301 1
285 301 1
141 302 1
159 302 1
164 302 1
178 302 1
279 302 1
286 302 1
142 303 1
160 303 1
165 303 1
179 303 1
280 303 1
287 303 1
143 304 1
161 304 1
166 304 1
180 304 1
281 304 1
288 304 1
139 305 1
144 305 1
167 305 1
181 305 1
282 305 1
289 305 1
140 306 1
145 306 1
168 306 1
182 306 1
283 306 1
290 306 1
141 307 1
146 307 1
169 307 1
183 307 1
284 307 1
291 307 1
142 308 1
147 308 1
170 308 1
184 308 1
285 308 1
292 308 1
143 309 1
148 309 1
162 309 1
171 309 1
286 309 1
293 309 1
144 310 1
149 310 1
163 310 1
172 310 1
287 310 1
294 310 1
145 311 1
150 311 1
164 311 1
173 311 1
288 311 1
295 311 1
146 312 1
151 312 1
165 312 1
174 312 1
289 312 1
296 312 1
147 313 1
152 313 1
166 313 1
175 313 1
290 313 1
297 313 1
148 314 1
153 314 1
167 314 1
176 314 1
291 314 1
298 314 1
149 315 1
154 315 1
168 315 1
177 315 1
292 315 1
299 315 1
150 316 1
155 316 1
169 316 1
178 316 1
277 316 1
293 316 1
151 317 1
156 317 1
170 317 1
179 317 1
278 317 1
294 317 1
152 318 1
157 318 1
171 318 1
180 318 1
279 318 1
295 318 1
153 319 1
158 319 1
172 319 1
181 319 1
280 319 1
296 319 1
154 320 1
159 320 1
173 320 1
182 320 1
281 320 1
297 320 1
155 321 1
160 321 1
174 321 1
183 321 1
282 321 1
298 321 1
156 322 1
161 322 1
175 322 1
184 322 1
283 322 1
299 322 1
139 323 1
159 323 1
185 323 1
199 323 1
300 323 1
307 323 1
140 324 1
160 324 1
186 324 1
200 324 1
301 324 1
308 324 1
141 325 1
161 325 1
187 325 1
201 325 1
302 325 1
309 325 1
139 326 1
142 326 1
188 326 1
202 326 1
303 326 1
310 326 1
140 327 1
143 327 1
189 327 1
203 327 1
304 327 1
311 327 1
141 328 1
144 328 1
190 328 1
204 328 1
305 328 1
312 328 1
142 329 1
145 329 1
191 329 1
205 329 1
306 329 1
313 329 1
143 330 1
146 330 1
192 330 1
206 330 1
307 330 1
314 330 1
144 331 1
147 331 1
193 331 1
207 331 1
308 331 1
315 331 1
145 332 1
148 332 1
185 332 1
194 332 1
309 332 1
316 332 1
146 333 1
149 333 1
186 333 1
195 333 1
310 333 1
317 333 1
147 334 1
150 334 1
187 334 1
196 334 1
311 334 1
318 334 1
148 335 1
151 335 1
188 335 1
197 335 1
312 335 1
319 335 1
149 336 1
152 336 1
189 336 1
198 336 1
313 336 1
320 336 1
150 337 1
153 337 1
190 337 1
199 337 1
314 337 1
321 337 1
151 338 1
154 338 1
191 338 1
200 338 1
315 338 1
322 338 1
152 339 1
155 339 1
192 339 1
201 339 1
300 339 1
316 339 1
153 340 1
156 340 1
193 340 1
202 340 1
301 340 1
317 340 1
154 341 1
157 341 1
194 341 1
203 341 1
302 341 1
318 341 1
155 342 1
158 342 1
195 342 1
204 342 1
303 342 1
319 342 1
156 343 1
159 343 1
196 343 1
205 343 1
304 343 1
320 343 1
157 344 1
160 344 1
197 344 1
206 344 1
305 344 1
321 344 1
158 345 1
161 345 1
198 345 1
207 345 1
306 345 1
322 345 1
162 346 1
182 346 1
185 346 1
203 346 1
323 346 1
330 346 1
163 347 1
183 347 1
186 347 1
204 347 1
324 347 1
331 347 1
164 348 1
184 348 1
187 348 1
205 348 1
325 348 1
332 348 1
162 349 1
165 349 1
188 349 1
206 349 1
326 349 1
333 349 1
163 350 1
166 350 1
189 350 1
207 350 1
327 350 1
334 350 1
164 351 1
167 351 1
185 351 1
190 351 1
328 351 1
335 351 1
165 352 1
168 352 1
186 352 1
191 352 1
329 352 1
336 352 1
166 353 1
169 353 1
187 353 1
192 353 1
330 353 1
337 353 1
167 354 1
170 354 1
188 354 1
193 354 1
331 354 1
338 354 1
168 355 1
171 355 1
189 355 1
194 355 1
332 355 1
339 355 1
169 356 1
172 356 1
190 356 1
195 356 1
333 356 1
340 356 1
170 357 1
173 357 1
191 357 1
196 357 1
334 357 1
341 357 1
171 358 1
174 358 1
192 358 1
197 358 1
335 358 1
342 358 1
172 359 1
175 359 1
193 359 1
198 359 1
336 359 1
343 359 1
173 360 1
176 360 1
194 360 1
199 360 1
337 360 1
344 360 1
174 361 1
177 361 1
195 361 1
200 361 1
338 361 1
345 361 1
175 362 1
178 362 1
196 362 1
201 362 1
323 362 1
339 362 1
176 363 1
179 363 1
197 363 1
202 363 1
324 363 1
340 363 1
177 364 1
180 364 1
198 364 1
203 364 1
325 364 1
341 364 1
178 365 1
181 365 1
199 365 1
204 365 1
326 365 1
342 365 1
179 366 1
182 366 1
200 366 1
205 366 1
327 366 1
343 366 1
180 367 1
183 367 1
201 367 1
206 367 1
328 367 1
344 367 1
181 368 1
184 368 1
202 368 1
207 368 1
329 368 1
345 368 1
208 369 1
226 369 1
231 369 1
245 369 1
277 369 1
289 369 1
209 370 1
227 370 1
232 370 1
246 370 1
278 370 1
290 370 1
210 371 1
228 371 1
233 371 1
247 371 1
279 371 1
291 371 1
211 372 1
229 372 1
234 372 1
248 372 1
280 372 1
292 372 1
212 373 1
230 373 1
235 373 1
249 373 1
281 373 1
293 373 1
208 374 1
213 374 1
236 374 1
250 374 1
282 374 1
294 374 1
209 375 1
214 375 1
237 375 1
251 375 1
283 375 1
295 375 1
210 376 1
215 376 1
238 376 1
252 376 1
284 376 1
296 376 1
211 377 1
216 377 1
239 377 1
253 377 1
285 377 1
297 377 1
212 378 1
217 378 1
231 378 1
240 378 1
286 378 1
298 378 1
213 379 1
218 379 1
232 379 1
241 379 1
287 379 1
299 379 1
214 380 1
219 380 1
233 380 1
242 380 1
277 380 1
288 380 1
215 381 1
220 381 1
234 381 1
243 381 1
278 381 1
289 381 1
216 382 1
221 382 1
235 382 1
244 382 1
279 382 1
290 382 1
217 383 1
222 383 1
236 383 1
245 383 1
280 383 1
291 383 1
218 384 1
223 384 1
237 384 1
246 384 1
281 384 1
292 384 1
219 385 1
224 385 1
238 385 1
247 385 1
282 385 1
293 385 1
220 386 1
225 386 1
239 386 1
248 386 1
283 386 1
294 386 1
221 387 1
226 387 1
240 387 1
249 387 1
284 387 1
295 387 1
222 388 1
227 388 1
241 388 1
250 388 1
285 388 1
296 388 1
223 389 1
228 389 1
242 389 1
251 389 1
286 389 1
297 389 1
224 390 1
229 390 1
243 390 1
252 390 1
287 390 1
298 390 1
225 391 1
230 391 1
244 391 1
253 391 1
288 391 1
299 391 1
208 392 1
228 392 1
254 392 1
268 392 1
300 392 1
312 392 1
209 393 1
229 393 1
255 393 1
269 393 1
301 393 1
313 393 1
210 394 1
230 394 1
256 394 1
270 394 1
302 394 1
314 394 1
208 395 1
211 395 1
257 395 1
271 395 1
303 395 1
315 395 1
209 396 1
212 396 1
258 396 1
272 396 1
304 396 1
316 396 1
210 397 1
213 397 1
259 397 1
273 397 1
305 397 1
317 397 1
211 398 1
214 398 1
260 398 1
274 398 1
306 398 1
318 398 1
212 399 1
215 399 1
261 399 1
275 399 1
307 399 1
319 399 1
213 400 1
216 400 1
262 400 1
276 400 1
308 400 1
320 400 1
214 401 1
217 401 1
254 401 1
263 401 1
309 401 1
321 401 1
215 402 1
218 402 1
255 402 1
264 402 1
310 402 1
322 402 1
216 403 1
219 403 1
256 403 1
265 403 1
300 403 1
311 403 1
217 404 1
220 404 1
257 404 1
266 404 1
301 404 1
312 404 1
218 405 1
221 405 1
258 405 1
267 405 1
302 405 1
313 405 1
219 406 1
222 406 1
259 406 1
268 406 1
303 406 1
314 406 1
220 407 1
223 407 1
260 407 1
269 407 1
304 407 1
315 407 1
221 408 1
224 408 1
261 408 1
270 408 1
305 408 1
316 408 1
222 409 1
225 409 1
262 409 1
271 409 1
306 409 1
317 409 1
223 410 1
226 410 1
263 410 1
272 410 1
307 410 1
318 410 1
224 411 1
227 411 1
264 411 1
273 411 1
308 411 1
319 411 1
225 412 1
228 412 1
265 412 1
274 412 1
309 412 1
320 412 1
226 413 1
229 413 1
266 413 1
275 413 1
310 413 1
321 413 1
227 414 1
230 414 1
267 414 1
276 414 1
311 414 1
322 414 1
231 415 1
251 415 1
254 415 1
272 415 1
323 415 1
335 415 1
232 416 1
252 416 1
255 416 1
273 416 1
324 416 1
336 416 1
233 417 1
253 417 1
256 417 1
274 417 1
325 417 1
337 417 1
231 418 1
234 418 1
257 418 1
275 418 1
326 418 1
338 418 1
232 419 1
235 419 1
258 419 1
276 419 1
327 419 1
339 419 1
233 420 1
236 420 1
254 420 1
259 420 1
328 420 1
340 420 1
234 421 1
237 421 1
255 421 1
260 421 1
329 421 1
341 421 1
235 422 1
238 422 1
256 422 1
261 422 1
330 422 1
342 422 1
236 423 1
239 423 1
257 423 1
262 423 1
331 423 1
343 423 1
237 424 1
240 424 1
258 424 1
263 424 1
332 424 1
344 424 1
238 425 1
241 425 1
259 425 1
264 425 1
333 425 1
345 425 1
239 426 1
242 426 1
260 426 1
265 426 1
323 426 1
334 426 1
240 427 1
243 427 1
261 427 1
266 427 1
324 427 1
335 427 1
241 428 1
244 428 1
262 428 1
267 428 1
325 428 1
336 428 1
242 429 1
245 429 1
263 429 1
268 429 1
326 429 1
337 429 1
243 430 1
246 430 1
264 430 1
269 430 1
327 430 1
338 430 1
244 431 1
247 431 1
265 431 1
270 431 1
328 431 1
339 431 1
245 432 1
248 432 1
266 432 1
271 432 1
329 432 1
340 432 1
246 433 1
249 433 1
267 433 1
272 433 1
330 433 1
341 433 1
247 434 1
250 434 1
268 434 1
273 434 1
331 434 1
342 434 1
248 435 1
251 435 1
269 435 1
274 435 1
332 435 1
343 435 1
249 436 1
252 436 1
270 436 1
275 436 1
333 436 1
344 436 1
250 437 1
253 437 1
271 437 1
276 437 1
334 437 1
345 437 1
277 438 1
297 438 1
300 438 1
318 438 1
323 438 1
337 438 1
278 439 1
298 439 1
301 439 1
319 439 1
324 439 1
338 439 1
279 440 1
299 440 1
302 440 1
320 440 1
325 440 1
339 440 1
277 441 1
280 441 1
303 441 1
321 441 1
326 441 1
340 441 1
278 442 1
281 442 1
304 442 1
322 442 1
327 442 1
341 442 1
279 443 1
282 443 1
300 443 1
305 443 1
328 443 1
342 443 1
280 444 1
283 444 1
301 444 1
306 444 1
329 444 1
343 444 1
281 445 1
284 445 1
302 445 1
307 445 1
330 445 1
344 445 1
282 446 1
285 446 1
303 446 1
308 446 1
331 446 1
345 446 1
283 447 1
286 447 1
304 447 1
309 447 1
323 447 1
332 447 1
284 448 1
287 448 1
305 448 1
310 448 1
324 448 1
333 448 1
285 449 1
288 449 1
306 449 1
311 449 1
325 449 1
334 449 1
286 450 1
289 450 1
307 450 1
312 450 1
326 450 1
335 450 1
287 451 1
290 451 1
308 451 1
313 451 1
327 451 1
336 451 1
288 452 1
291 452 1
309 452 1
314 452 1
328 452 1
337 452 1
289 453 1
292 453 1
310 453 1
315 453 1
329 453 1
338 453 1
290 454 1
293 454 1
311 454 1
316 454 1
330 454 1
339 454 1
291 455 1
294 455 1
312 455 1
317 455 1
331 455 1
340 455 1
292 456 1
295 456 1
313 456 1
318 456 1
332 456 1
341 456 1
293 457 1
296 457 1
314 457 1
319 457 1
333 457 1
342 457 1
294 458 1
297 458 1
315 458 1
320 458 1
334 458 1
343 458 1
295 459 1
298 459 1
316 459 1
321 459 1
335 459 1
344 459 1
296 460 1
299 460 1
317 460 1
322 460 1
336 460 1
345 460 1
