%%MatrixMarket matrix coordinate integer general
% Binary matrix; one-based indices; arithmetic over GF(2)
588 980 5880
1 1 1
12 1 1
29 1 1
39 1 1
57 1 1
60 1 1
2 2 1
13 2 1
30 2 1
40 2 1
58 2 1
61 2 1
3 3 1
14 3 1
31 3 1
41 3 1
59 3 1
62 3 1
4 4 1
15 4 1
32 4 1
42 4 1
60 4 1
63 4 1
5 5 1
16 5 1
33 5 1
43 5 1
61 5 1
64 5 1
6 6 1
17 6 1
34 6 1
44 6 1
62 6 1
65 6 1
7 7 1
18 7 1
35 7 1
45 7 1
63 7 1
66 7 1
8 8 1
19 8 1
36 8 1
46 8 1
64 8 1
67 8 1
9 9 1
20 9 1
37 9 1
47 9 1
65 9 1
68 9 1
10 10 1
21 10 1
38 10 1
48 10 1
66 10 1
69 10 1
11 11 1
22 11 1
39 11 1
49 11 1
67 11 1
70 11 1
12 12 1
23 12 1
40 12 1
50 12 1
68 12 1
71 12 1
13 13 1
24 13 1
41 13 1
51 13 1
69 13 1
72 13 1
14 14 1
25 14 1
42 14 1
52 14 1
70 14 1
73 14 1
15 15 1
26 15 1
43 15 1
53 15 1
71 15 1
74 15 1
16 16 1
27 16 1
44 16 1
54 16 1
72 16 1
75 16 1
17 17 1
28 17 1
45 17 1
55 17 1
73 17 1
76 17 1
1 18 1
18 18 1
46 18 1
56 18 1
74 18 1
77 18 1
2 19 1
19 19 1
29 19 1
47 19 1
75 19 1
78 19 1
3 20 1
20 20 1
30 20 1
48 20 1
76 20 1
79 20 1
4 21 1
21 21 1
31 21 1
49 21 1
77 21 1
80 21 1
5 22 1
22 22 1
32 22 1
50 22 1
78 22 1
81 22 1
6 23 1
23 23 1
33 23 1
51 23 1
79 23 1
82 23 1
7 24 1
24 24 1
34 24 1
52 24 1
80 24 1
83 24 1
8 25 1
25 25 1
35 25 1
53 25 1
81 25 1
84 25 1
9 26 1
26 26 1
36 26 1
54 26 1
57 26 1
82 26 1
10 27 1
27 27 1
37 27 1
55 27 1
58 27 1
83 27 1
11 28 1
28 28 1
38 28 1
56 28 1
59 28 1
84 28 1
1 29 1
16 29 1
85 29 1
95 29 1
113 29 1
116 29 1
2 30 1
17 30 1
86 30 1
96 30 1
114 30 1
117 30 1
3 31 1
18 31 1
87 31 1
97 31 1
115 31 1
118 31 1
4 32 1
19 32 1
88 32 1
98 32 1
116 32 1
119 32 1
5 33 1
20 33 1
89 33 1
99 33 1
117 33 1
120 33 1
6 34 1
21 34 1
90 34 1
100 34 1
118 34 1
121 34 1
7 35 1
22 35 1
91 35 1
101 35 1
119 35 1
122 35 1
8 36 1
23 36 1
92 36 1
102 36 1
120 36 1
123 36 1
9 37 1
24 37 1
93 37 1
103 37 1
121 37 1
124 37 1
10 38 1
25 38 1
94 38 1
104 38 1
122 38 1
125 38 1
11 39 1
26 39 1
95 39 1
105 39 1
123 39 1
126 39 1
12 40 1
27 40 1
96 40 1
106 40 1
124 40 1
127 40 1
13 41 1
28 41 1
97 41 1
107 41 1
125 41 1
128 41 1
1 42 1
14 42 1
98 42 1
108 42 1
126 42 1
129 42 1
2 43 1
15 43 1
99 43 1
109 43 1
127 43 1
130 43 1
3 44 1
16 44 1
100 44 1
110 44 1
128 44 1
131 44 1
4 45 1
17 45 1
101 45 1
111 45 1
129 45 1
132 45 1
5 46 1
18 46 1
102 46 1
112 46 1
130 46 1
133 46 1
6 47 1
19 47 1
85 47 1
103 47 1
131 47 1
134 47 1
7 48 1
20 48 1
86 48 1
104 48 1
132 48 1
135 48 1
8 49 1
21 49 1
87 49 1
105 49 1
133 49 1
136 49 1
9 50 1
22 50 1
88 50 1
106 50 1
134 50 1
137 50 1
10 51 1
23 51 1
89 51 1
107 51 1
135 51 1
138 51 1
11 52 1
24 52 1
90 52 1
108 52 1
136 52 1
139 52 1
12 53 1
25 53 1
91 53 1
109 53 1
137 53 1
140 53 1
13 54 1
26 54 1
92 54 1
110 54 1
113 54 1
138 54 1
14 55 1
27 55 1
93 55 1
111 55 1
114 55 1
139 55 1
15 56 1
28 56 1
94 56 1
112 56 1
115 56 1
140 56 1
29 57 1
44 57 1
85 57 1
96 57 1
141 57 1
144 57 1
30 58 1
45 58 1
86 58 1
97 58 1
142 58 1
145 58 1
31 59 1
46 59 1
87 59 1
98 59 1
143 59 1
146 59 1
32 60 1
47 60 1
88 60 1
99 60 1
144 60 1
147 60 1
33 61 1
48 61 1
89 61 1
100 61 1
145 61 1
148 61 1
34 62 1
49 62 1
90 62 1
101 62 1
146 62 1
149 62 1
35 63 1
50 63 1
91 63 1
102 63 1
147 63 1
150 63 1
36 64 1
51 64 1
92 64 1
103 64 1
148 64 1
151 64 1
37 65 1
52 65 1
93 65 1
104 65 1
149 65 1
152 65 1
38 66 1
53 66 1
94 66 1
105 66 1
150 66 1
153 66 1
39 67 1
54 67 1
95 67 1
106 67 1
151 67 1
154 67 1
40 68 1
55 68 1
96 68 1
107 68 1
152 68 1
155 68 1
41 69 1
56 69 1
97 69 1
108 69 1
153 69 1
156 69 1
29 70 1
42 70 1
98 70 1
109 70 1
154 70 1
157 70 1
30 71 1
43 71 1
99 71 1
110 71 1
155 71 1
158 71 1
31 72 1
44 72 1
100 72 1
111 72 1
156 72 1
159 72 1
32 73 1
45 73 1
101 73 1
112 73 1
157 73 1
160 73 1
33 74 1
46 74 1
85 74 1
102 74 1
158 74 1
161 74 1
34 75 1
47 75 1
86 75 1
103 75 1
159 75 1
162 75 1
35 76 1
48 76 1
87 76 1
104 76 1
160 76 1
163 76 1
36 77 1
49 77 1
88 77 1
105 77 1
161 77 1
164 77 1
37 78 1
50 78 1
89 78 1
106 78 1
162 78 1
165 78 1
38 79 1
51 79 1
90 79 1
107 79 1
163 79 1
166 79 1
39 80 1
52 80 1
91 80 1
108 80 1
164 80 1
167 80 1
40 81 1
53 81 1
92 81 1
109 81 1
165 81 1
168 81 1
41 82 1
54 82 1
93 82 1
110 82 1
141 82 1
166 82 1
42 83 1
55 83 1
94 83 1
111 83 1
142 83 1
167 83 1
43 84 1
56 84 1
95 84 1
112 84 1
143 84 1
168 84 1
57 85 1
72 85 1
113 85 1
124 85 1
141 85 1
151 85 1
58 86 1
73 86 1
114 86 1
125 86 1
142 86 1
152 86 1
59 87 1
74 87 1
115 87 1
126 87 1
143 87 1
153 87 1
60 88 1
75 88 1
116 88 1
127 88 1
144 88 1
154 88 1
61 89 1
76 89 1
117 89 1
128 89 1
145 89 1
155 89 1
62 90 1
77 90 1
118 90 1
129 90 1
146 90 1
156 90 1
63 91 1
78 91 1
119 91 1
130 91 1
147 91 1
157 91 1
64 92 1
79 92 1
120 92 1
131 92 1
148 92 1
158 92 1
65 93 1
80 93 1
121 93 1
132 93 1
149 93 1
159 93 1
66 94 1
81 94 1
122 94 1
133 94 1
150 94 1
160 94 1
67 95 1
82 95 1
123 95 1
134 95 1
151 95 1
161 95 1
68 96 1
83 96 1
124 96 1
135 96 1
152 96 1
162 96 1
69 97 1
84 97 1
125 97 1
136 97 1
153 97 1
163 97 1
57 98 1
70 98 1
126 98 1
137 98 1
154 98 1
164 98 1
58 99 1
71 99 1
127 99 1
138 99 1
155 99 1
165 99 1
59 100 1
72 100 1
128 100 1
139 100 1
156 100 1
166 100 1
60 101 1
73 101 1
129 101 1
140 101 1
157 101 1
167 101 1
61 102 1
74 102 1
113 102 1
130 102 1
158 102 1
168 102 1
62 103 1
75 103 1
114 103 1
131 103 1
141 103 1
159 103 1
63 104 1
76 104 1
115 104 1
132 104 1
142 104 1
160 104 1
64 105 1
77 105 1
116 105 1
133 105 1
143 105 1
161 105 1
65 106 1
78 106 1
117 106 1
134 106 1
144 106 1
162 106 1
66 107 1
79 107 1
118 107 1
135 107 1
145 107 1
163 107 1
67 108 1
80 108 1
119 108 1
136 108 1
146 108 1
164 108 1
68 109 1
81 109 1
120 109 1
137 109 1
147 109 1
165 109 1
69 110 1
82 110 1
121 110 1
138 110 1
148 110 1
166 110 1
70 111 1
83 111 1
122 111 1
139 111 1
149 111 1
167 111 1
71 112 1
84 112 1
123 112 1
140 112 1
150 112 1
168 112 1
1 113 1
19 113 1
169 113 1
179 113 1
197 113 1
200 113 1
2 114 1
20 114 1
170 114 1
180 114 1
198 114 1
201 114 1
3 115 1
21 115 1
171 115 1
181 115 1
199 115 1
202 115 1
4 116 1
22 116 1
172 116 1
182 116 1
200 116 1
203 116 1
5 117 1
23 117 1
173 117 1
183 117 1
201 117 1
204 117 1
6 118 1
24 118 1
174 118 1
184 118 1
202 118 1
205 118 1
7 119 1
25 119 1
175 119 1
185 119 1
203 119 1
206 119 1
8 120 1
26 120 1
176 120 1
186 120 1
204 120 1
207 120 1
9 121 1
27 121 1
177 121 1
187 121 1
205 121 1
208 121 1
10 122 1
28 122 1
178 122 1
188 122 1
206 122 1
209 122 1
1 123 1
11 123 1
179 123 1
189 123 1
207 123 1
210 123 1
2 124 1
12 124 1
180 124 1
190 124 1
208 124 1
211 124 1
3 125 1
13 125 1
181 125 1
191 125 1
209 125 1
212 125 1
4 126 1
14 126 1
182 126 1
192 126 1
210 126 1
213 126 1
5 127 1
15 127 1
183 127 1
193 127 1
211 127 1
214 127 1
6 128 1
16 128 1
184 128 1
194 128 1
212 128 1
215 128 1
7 129 1
17 129 1
185 129 1
195 129 1
213 129 1
216 129 1
8 130 1
18 130 1
186 130 1
196 130 1
214 130 1
217 130 1
9 131 1
19 131 1
169 131 1
187 131 1
215 131 1
218 131 1
10 132 1
20 132 1
170 132 1
188 132 1
216 132 1
219 132 1
11 133 1
21 133 1
171 133 1
189 133 1
217 133 1
220 133 1
12 134 1
22 134 1
172 134 1
190 134 1
218 134 1
221 134 1
13 135 1
23 135 1
173 135 1
191 135 1
219 135 1
222 135 1
14 136 1
24 136 1
174 136 1
192 136 1
220 136 1
223 136 1
15 137 1
25 137 1
175 137 1
193 137 1
221 137 1
224 137 1
16 138 1
26 138 1
176 138 1
194 138 1
197 138 1
222 138 1
17 139 1
27 139 1
177 139 1
195 139 1
198 139 1
223 139 1
18 140 1
28 140 1
178 140 1
196 140 1
199 140 1
224 140 1
29 141 1
47 141 1
169 141 1
180 141 1
225 141 1
228 141 1
30 142 1
48 142 1
170 142 1
181 142 1
226 142 1
229 142 1
31 143 1
49 143 1
171 143 1
182 143 1
227 143 1
230 143 1
32 144 1
50 144 1
172 144 1
183 144 1
228 144 1
231 144 1
33 145 1
51 145 1
173 145 1
184 145 1
229 145 1
232 145 1
34 146 1
52 146 1
174 146 1
185 146 1
230 146 1
233 146 1
35 147 1
53 147 1
175 147 1
186 147 1
231 147 1
234 147 1
36 148 1
54 148 1
176 148 1
187 148 1
232 148 1
235 148 1
37 149 1
55 149 1
177 149 1
188 149 1
233 149 1
236 149 1
38 150 1
56 150 1
178 150 1
189 150 1
234 150 1
237 150 1
29 151 1
39 151 1
179 151 1
190 151 1
235 151 1
238 151 1
30 152 1
40 152 1
180 152 1
191 152 1
236 152 1
239 152 1
31 153 1
41 153 1
181 153 1
192 153 1
237 153 1
240 153 1
32 154 1
42 154 1
182 154 1
193 154 1
238 154 1
241 154 1
33 155 1
43 155 1
183 155 1
194 155 1
239 155 1
242 155 1
34 156 1
44 156 1
184 156 1
195 156 1
240 156 1
243 156 1
35 157 1
45 157 1
185 157 1
196 157 1
241 157 1
244 157 1
36 158 1
46 158 1
169 158 1
186 158 1
242 158 1
245 158 1
37 159 1
47 159 1
170 159 1
187 159 1
243 159 1
246 159 1
38 160 1
48 160 1
171 160 1
188 160 1
244 160 1
247 160 1
39 161 1
49 161 1
172 161 1
189 161 1
245 161 1
248 161 1
40 162 1
50 162 1
173 162 1
190 162 1
246 162 1
249 162 1
41 163 1
51 163 1
174 163 1
191 163 1
247 163 1
250 163 1
42 164 1
52 164 1
175 164 1
192 164 1
248 164 1
251 164 1
43 165 1
53 165 1
176 165 1
193 165 1
249 165 1
252 165 1
44 166 1
54 166 1
177 166 1
194 166 1
225 166 1
250 166 1
45 167 1
55 167 1
178 167 1
195 167 1
226 167 1
251 167 1
46 168 1
56 168 1
179 168 1
196 168 1
227 168 1
252 168 1
57 169 1
75 169 1
197 169 1
208 169 1
225 169 1
235 169 1
58 170 1
76 170 1
198 170 1
209 170 1
226 170 1
236 170 1
59 171 1
77 171 1
199 171 1
210 171 1
227 171 1
237 171 1
60 172 1
78 172 1
200 172 1
211 172 1
228 172 1
238 172 1
61 173 1
79 173 1
201 173 1
212 173 1
229 173 1
239 173 1
62 174 1
80 174 1
202 174 1
213 174 1
230 174 1
240 174 1
63 175 1
81 175 1
203 175 1
214 175 1
231 175 1
241 175 1
64 176 1
82 176 1
204 176 1
215 176 1
232 176 1
242 176 1
65 177 1
83 177 1
205 177 1
216 177 1
233 177 1
243 177 1
66 178 1
84 178 1
206 178 1
217 178 1
234 178 1
244 178 1
57 179 1
67 179 1
207 179 1
218 179 1
235 179 1
245 179 1
58 180 1
68 180 1
208 180 1
219 180 1
236 180 1
246 180 1
59 181 1
69 181 1
209 181 1
220 181 1
237 181 1
247 181 1
60 182 1
70 182 1
210 182 1
221 182 1
238 182 1
248 182 1
61 183 1
71 183 1
211 183 1
222 183 1
239 183 1
249 183 1
62 184 1
72 184 1
212 184 1
223 184 1
240 184 1
250 184 1
63 185 1
73 185 1
213 185 1
224 185 1
241 185 1
251 185 1
64 186 1
74 186 1
197 186 1
214 186 1
242 186 1
252 186 1
65 187 1
75 187 1
198 187 1
215 187 1
225 187 1
243 187 1
66 188 1
76 188 1
199 188 1
216 188 1
226 188 1
244 188 1
67 189 1
77 189 1
200 189 1
217 189 1
227 189 1
245 189 1
68 190 1
78 190 1
201 190 1
218 190 1
228 190 1
246 190 1
69 191 1
79 191 1
202 191 1
219 191 1
229 191 1
247 191 1
70 192 1
80 192 1
203 192 1
220 192 1
230 192 1
248 192 1
71 193 1
81 193 1
204 193 1
221 193 1
231 193 1
249 193 1
72 194 1
82 194 1
205 194 1
222 194 1
232 194 1
250 194 1
73 195 1
83 195 1
206 195 1
223 195 1
233 195 1
251 195 1
74 196 1
84 196 1
207 196 1
224 196 1
234 196 1
252 196 1
85 197 1
103 197 1
169 197 1
184 197 1
253 197 1
256 197 1
86 198 1
104 198 1
170 198 1
185 198 1
254 198 1
257 198 1
87 199 1
105 199 1
171 199 1
186 199 1
255 199 1
258 199 1
88 200 1
106 200 1
172 200 1
187 200 1
256 200 1
259 200 1
89 201 1
107 201 1
173 201 1
188 201 1
257 201 1
260 201 1
90 202 1
108 202 1
174 202 1
189 202 1
258 202 1
261 202 1
91 203 1
109 203 1
175 203 1
190 203 1
259 203 1
262 203 1
92 204 1
110 204 1
176 204 1
191 204 1
260 204 1
263 204 1
93 205 1
111 205 1
177 205 1
192 205 1
261 205 1
264 205 1
94 206 1
112 206 1
178 206 1
193 206 1
262 206 1
265 206 1
85 207 1
95 207 1
179 207 1
194 207 1
263 207 1
266 207 1
86 208 1
96 208 1
180 208 1
195 208 1
264 208 1
267 208 1
87 209 1
97 209 1
181 209 1
196 209 1
265 209 1
268 209 1
88 210 1
98 210 1
169 210 1
182 210 1
266 210 1
269 210 1
89 211 1
99 211 1
170 211 1
183 211 1
267 211 1
270 211 1
90 212 1
100 212 1
171 212 1
184 212 1
268 212 1
271 212 1
91 213 1
101 213 1
172 213 1
185 213 1
269 213 1
272 213 1
92 214 1
102 214 1
173 214 1
186 214 1
270 214 1
273 214 1
93 215 1
103 215 1
174 215 1
187 215 1
271 215 1
274 215 1
94 216 1
104 216 1
175 216 1
188 216 1
272 216 1
275 216 1
95 217 1
105 217 1
176 217 1
189 217 1
273 217 1
276 217 1
96 218 1
106 218 1
177 218 1
190 218 1
274 218 1
277 218 1
97 219 1
107 219 1
178 219 1
191 219 1
275 219 1
278 219 1
98 220 1
108 220 1
179 220 1
192 220 1
276 220 1
279 220 1
99 221 1
109 221 1
180 221 1
193 221 1
277 221 1
280 221 1
100 222 1
110 222 1
181 222 1
194 222 1
253 222 1
278 222 1
101 223 1
111 223 1
182 223 1
195 223 1
254 223 1
279 223 1
102 224 1
112 224 1
183 224 1
196 224 1
255 224 1
280 224 1
113 225 1
131 225 1
197 225 1
212 225 1
253 225 1
263 225 1
114 226 1
132 226 1
198 226 1
213 226 1
254 226 1
264 226 1
115 227 1
133 227 1
199 227 1
214 227 1
255 227 1
265 227 1
116 228 1
134 228 1
200 228 1
215 228 1
256 228 1
266 228 1
117 229 1
135 229 1
201 229 1
216 229 1
257 229 1
267 229 1
118 230 1
136 230 1
202 230 1
217 230 1
258 230 1
268 230 1
119 231 1
137 231 1
203 231 1
218 231 1
259 231 1
269 231 1
120 232 1
138 232 1
204 232 1
219 232 1
260 232 1
270 232 1
121 233 1
139 233 1
205 233 1
220 233 1
261 233 1
271 233 1
122 234 1
140 234 1
206 234 1
221 234 1
262 234 1
272 234 1
113 235 1
123 235 1
207 235 1
222 235 1
263 235 1
273 235 1
114 236 1
124 236 1
208 236 1
223 236 1
264 236 1
274 236 1
115 237 1
125 237 1
209 237 1
224 237 1
265 237 1
275 237 1
116 238 1
126 238 1
197 238 1
210 238 1
266 238 1
276 238 1
117 239 1
127 239 1
198 239 1
211 239 1
267 239 1
277 239 1
118 240 1
128 240 1
199 240 1
212 240 1
268 240 1
278 240 1
119 241 1
129 241 1
200 241 1
213 241 1
269 241 1
279 241 1
120 242 1
130 242 1
201 242 1
214 242 1
270 242 1
280 242 1
121 243 1
131 243 1
202 243 1
215 243 1
253 243 1
271 243 1
122 244 1
132 244 1
203 244 1
216 244 1
254 244 1
272 244 1
123 245 1
133 245 1
204 245 1
217 245 1
255 245 1
273 245 1
124 246 1
134 246 1
205 246 1
218 246 1
256 246 1
274 246 1
125 247 1
135 247 1
206 247 1
219 247 1
257 247 1
275 247 1
126 248 1
136 248 1
207 248 1
220 248 1
258 248 1
276 248 1
127 249 1
137 249 1
208 249 1
221 249 1
259 249 1
277 249 1
128 250 1
138 250 1
209 250 1
222 250 1
260 250 1
278 250 1
129 251 1
139 251 1
210 251 1
223 251 1
261 251 1
279 251 1
130 252 1
140 252 1
211 252 1
224 252 1
262 252 1
280 252 1
141 253 1
159 253 1
225 253 1
240 253 1
253 253 1
264 253 1
142 254 1
160 254 1
226 254 1
241 254 1
254 254 1
265 254 1
143 255 1
161 255 1
227 255 1
242 255 1
255 255 1
266 255 1
144 256 1
162 256 1
228 256 1
243 256 1
256 256 1
267 256 1
145 257 1
163 257 1
229 257 1
244 257 1
257 257 1
268 257 1
146 258 1
164 258 1
230 258 1
245 258 1
258 258 1
269 258 1
147 259 1
165 259 1
231 259 1
246 259 1
259 259 1
270 259 1
148 260 1
166 260 1
232 260 1
247 260 1
260 260 1
271 260 1
149 261 1
167 261 1
233 261 1
248 261 1
261 261 1
272 261 1
150 262 1
168 262 1
234 262 1
249 262 1
262 262 1
273 262 1
141 263 1
151 263 1
235 263 1
250 263 1
263 263 1
274 263 1
142 264 1
152 264 1
236 264 1
251 264 1
264 264 1
275 264 1
143 265 1
153 265 1
237 265 1
252 265 1
265 265 1
276 265 1
144 266 1
154 266 1
225 266 1
238 266 1
266 266 1
277 266 1
145 267 1
155 267 1
226 267 1
239 267 1
267 267 1
278 267 1
146 268 1
156 268 1
227 268 1
240 268 1
268 268 1
279 268 1
147 269 1
157 269 1
228 269 1
241 269 1
269 269 1
280 269 1
148 270 1
158 270 1
229 270 1
242 270 1
253 270 1
270 270 1
149 271 1
159 271 1
230 271 1
243 271 1
254 271 1
271 271 1
150 272 1
160 272 1
231 272 1
244 272 1
255 272 1
272 272 1
151 273 1
161 273 1
232 273 1
245 273 1
256 273 1
273 273 1
152 274 1
162 274 1
233 274 1
246 274 1
257 274 1
274 274 1
153 275 1
163 275 1
234 275 1
247 275 1
258 275 1
275 275 1
154 276 1
164 276 1
235 276 1
248 276 1
259 276 1
276 276 1
155 277 1
165 277 1
236 277 1
249 277 1
260 277 1
277 277 1
156 278 1
166 278 1
237 278 1
250 278 1
261 278 1
278 278 1
157 279 1
167 279 1
238 279 1
251 279 1
262 279 1
279 279 1
158 280 1
168 280 1
239 280 1
252 280 1
263 280 1
280 280 1
1 281 1
25 281 1
281 281 1
291 281 1
309 281 1
312 281 1
2 282 1
26 282 1
282 282 1
292 282 1
310 282 1
313 282 1
3 283 1
27 283 1
283 283 1
293 283 1
311 283 1
314 283 1
4 284 1
28 284 1
284 284 1
294 284 1
312 284 1
315 284 1
1 285 1
5 285 1
285 285 1
295 285 1
313 285 1
316 285 1
2 286 1
6 286 1
286 286 1
296 286 1
314 286 1
317 286 1
3 287 1
7 287 1
287 287 1
297 287 1
315 287 1
318 287 1
4 288 1
8 288 1
288 288 1
298 288 1
316 288 1
319 288 1
5 289 1
9 289 1
289 289 1
299 289 1
317 289 1
320 289 1
6 290 1
10 290 1
290 290 1
300 290 1
318 290 1
321 290 1
7 291 1
11 291 1
291 291 1
301 291 1
319 291 1
322 291 1
8 292 1
12 292 1
292 292 1
302 292 1
320 292 1
323 292 1
9 293 1
13 293 1
293 293 1
303 293 1
321 293 1
324 293 1
10 294 1
14 294 1
294 294 1
304 294 1
322 294 1
325 294 1
11 295 1
15 295 1
295 295 1
305 295 1
323 295 1
326 295 1
12 296 1
16 296 1
296 296 1
306 296 1
324 296 1
327 296 1
13 297 1
17 297 1
297 297 1
307 297 1
325 297 1
328 297 1
14 298 1
18 298 1
298 298 1
308 298 1
326 298 1
329 298 1
15 299 1
19 299 1
281 299 1
299 299 1
327 299 1
330 299 1
16 300 1
20 300 1
282 300 1
300 300 1
328 300 1
331 300 1
17 301 1
21 301 1
283 301 1
301 301 1
329 301 1
332 301 1
18 302 1
22 302 1
284 302 1
302 302 1
330 302 1
333 302 1
19 303 1
23 303 1
285 303 1
303 303 1
331 303 1
334 303 1
20 304 1
24 304 1
286 304 1
304 304 1
332 304 1
335 304 1
21 305 1
25 305 1
287 305 1
305 305 1
333 305 1
336 305 1
22 306 1
26 306 1
288 306 1
306 306 1
309 306 1
334 306 1
23 307 1
27 307 1
289 307 1
307 307 1
310 307 1
335 307 1
24 308 1
28 308 1
290 308 1
308 308 1
311 308 1
336 308 1
29 309 1
53 309 1
281 309 1
292 309 1
337 309 1
340 309 1
30 310 1
54 310 1
282 310 1
293 310 1
338 310 1
341 310 1
31 311 1
55 311 1
283 311 1
294 311 1
339 311 1
342 311 1
32 312 1
56 312 1
284 312 1
295 312 1
340 312 1
343 312 1
29 313 1
33 313 1
285 313 1
296 313 1
341 313 1
344 313 1
30 314 1
34 314 1
286 314 1
297 314 1
342 314 1
345 314 1
31 315 1
35 315 1
287 315 1
298 315 1
343 315 1
346 315 1
32 316 1
36 316 1
288 316 1
299 316 1
344 316 1
347 316 1
33 317 1
37 317 1
289 317 1
300 317 1
345 317 1
348 317 1
34 318 1
38 318 1
290 318 1
301 318 1
346 318 1
349 318 1
35 319 1
39 319 1
291 319 1
302 319 1
347 319 1
350 319 1
36 320 1
40 320 1
292 320 1
303 320 1
348 320 1
351 320 1
37 321 1
41 321 1
293 321 1
304 321 1
349 321 1
352 321 1
38 322 1
42 322 1
294 322 1
305 322 1
350 322 1
353 322 1
39 323 1
43 323 1
295 323 1
306 323 1
351 323 1
354 323 1
40 324 1
44 324 1
296 324 1
307 324 1
352 324 1
355 324 1
41 325 1
45 325 1
297 325 1
308 325 1
353 325 1
356 325 1
42 326 1
46 326 1
281 326 1
298 326 1
354 326 1
357 326 1
43 327 1
47 327 1
282 327 1
299 327 1
355 327 1
358 327 1
44 328 1
48 328 1
283 328 1
300 328 1
356 328 1
359 328 1
45 329 1
49 329 1
284 329 1
301 329 1
357 329 1
360 329 1
46 330 1
50 330 1
285 330 1
302 330 1
358 330 1
361 330 1
47 331 1
51 331 1
286 331 1
303 331 1
359 331 1
362 331 1
48 332 1
52 332 1
287 332 1
304 332 1
360 332 1
363 332 1
49 333 1
53 333 1
288 333 1
305 333 1
361 333 1
364 333 1
50 334 1
54 334 1
289 334 1
306 334 1
337 334 1
362 334 1
51 335 1
55 335 1
290 335 1
307 335 1
338 335 1
363 335 1
52 336 1
56 336 1
291 336 1
308 336 1
339 336 1
364 336 1
57 337 1
81 337 1
309 337 1
320 337 1
337 337 1
347 337 1
58 338 1
82 338 1
310 338 1
321 338 1
338 338 1
348 338 1
59 339 1
83 339 1
311 339 1
322 339 1
339 339 1
349 339 1
60 340 1
84 340 1
312 340 1
323 340 1
340 340 1
350 340 1
57 341 1
61 341 1
313 341 1
324 341 1
341 341 1
351 341 1
58 342 1
62 342 1
314 342 1
325 342 1
342 342 1
352 342 1
59 343 1
63 343 1
315 343 1
326 343 1
343 343 1
353 343 1
60 344 1
64 344 1
316 344 1
327 344 1
344 344 1
354 344 1
61 345 1
65 345 1
317 345 1
328 345 1
345 345 1
355 345 1
62 346 1
66 346 1
318 346 1
329 346 1
346 346 1
356 346 1
63 347 1
67 347 1
319 347 1
330 347 1
347 347 1
357 347 1
64 348 1
68 348 1
320 348 1
331 348 1
348 348 1
358 348 1
65 349 1
69 349 1
321 349 1
332 349 1
349 349 1
359 349 1
66 350 1
70 350 1
322 350 1
333 350 1
350 350 1
360 350 1
67 351 1
71 351 1
323 351 1
334 351 1
351 351 1
361 351 1
68 352 1
72 352 1
324 352 1
335 352 1
352 352 1
362 352 1
69 353 1
73 353 1
325 353 1
336 353 1
353 353 1
363 353 1
70 354 1
74 354 1
309 354 1
326 354 1
354 354 1
364 354 1
71 355 1
75 355 1
310 355 1
327 355 1
337 355 1
355 355 1
72 356 1
76 356 1
311 356 1
328 356 1
338 356 1
356 356 1
73 357 1
77 357 1
312 357 1
329 357 1
339 357 1
357 357 1
74 358 1
78 358 1
313 358 1
330 358 1
340 358 1
358 358 1
75 359 1
79 359 1
314 359 1
331 359 1
341 359 1
359 359 1
76 360 1
80 360 1
315 360 1
332 360 1
342 360 1
360 360 1
77 361 1
81 361 1
316 361 1
333 361 1
343 361 1
361 361 1
78 362 1
82 362 1
317 362 1
334 362 1
344 362 1
362 362 1
79 363 1
83 363 1
318 363 1
335 363 1
345 363 1
363 363 1
80 364 1
84 364 1
319 364 1
336 364 1
346 364 1
364 364 1
85 365 1
109 365 1
281 365 1
296 365 1
365 365 1
368 365 1
86 366 1
110 366 1
282 366 1
297 366 1
366 366 1
369 366 1
87 367 1
111 367 1
283 367 1
298 367 1
367 367 1
370 367 1
88 368 1
112 368 1
284 368 1
299 368 1
368 368 1
371 368 1
85 369 1
89 369 1
285 369 1
300 369 1
369 369 1
372 369 1
86 370 1
90 370 1
286 370 1
301 370 1
370 370 1
373 370 1
87 371 1
91 371 1
287 371 1
302 371 1
371 371 1
374 371 1
88 372 1
92 372 1
288 372 1
303 372 1
372 372 1
375 372 1
89 373 1
93 373 1
289 373 1
304 373 1
373 373 1
376 373 1
90 374 1
94 374 1
290 374 1
305 374 1
374 374 1
377 374 1
91 375 1
95 375 1
291 375 1
306 375 1
375 375 1
378 375 1
92 376 1
96 376 1
292 376 1
307 376 1
376 376 1
379 376 1
93 377 1
97 377 1
293 377 1
308 377 1
377 377 1
380 377 1
94 378 1
98 378 1
281 378 1
294 378 1
378 378 1
381 378 1
95 379 1
99 379 1
282 379 1
295 379 1
379 379 1
382 379 1
96 380 1
100 380 1
283 380 1
296 380 1
380 380 1
383 380 1
97 381 1
101 381 1
284 381 1
297 381 1
381 381 1
384 381 1
98 382 1
102 382 1
285 382 1
298 382 1
382 382 1
385 382 1
99 383 1
103 383 1
286 383 1
299 383 1
383 383 1
386 383 1
100 384 1
104 384 1
287 384 1
300 384 1
384 384 1
387 384 1
101 385 1
105 385 1
288 385 1
301 385 1
385 385 1
388 385 1
102 386 1
106 386 1
289 386 1
302 386 1
386 386 1
389 386 1
103 387 1
107 387 1
290 387 1
303 387 1
387 387 1
390 387 1
104 388 1
108 388 1
291 388 1
304 388 1
388 388 1
391 388 1
105 389 1
109 389 1
292 389 1
305 389 1
389 389 1
392 389 1
106 390 1
110 390 1
293 390 1
306 390 1
365 390 1
390 390 1
107 391 1
111 391 1
294 391 1
307 391 1
366 391 1
391 391 1
108 392 1
112 392 1
295 392 1
308 392 1
367 392 1
392 392 1
113 393 1
137 393 1
309 393 1
324 393 1
365 393 1
375 393 1
114 394 1
138 394 1
310 394 1
325 394 1
366 394 1
376 394 1
115 395 1
139 395 1
311 395 1
326 395 1
367 395 1
377 395 1
116 396 1
140 396 1
312 396 1
327 396 1
368 396 1
378 396 1
113 397 1
117 397 1
313 397 1
328 397 1
369 397 1
379 397 1
114 398 1
118 398 1
314 398 1
329 398 1
370 398 1
380 398 1
115 399 1
119 399 1
315 399 1
330 399 1
371 399 1
381 399 1
116 400 1
120 400 1
316 400 1
331 400 1
372 400 1
382 400 1
117 401 1
121 401 1
317 401 1
332 401 1
373 401 1
383 401 1
118 402 1
122 402 1
318 402 1
333 402 1
374 402 1
384 402 1
119 403 1
123 403 1
319 403 1
334 403 1
375 403 1
385 403 1
120 404 1
124 404 1
320 404 1
335 404 1
376 404 1
386 404 1
121 405 1
125 405 1
321 405 1
336 405 1
377 405 1
387 405 1
122 406 1
126 406 1
309 406 1
322 406 1
378 406 1
388 406 1
123 407 1
127 407 1
310 407 1
323 407 1
379 407 1
389 407 1
124 408 1
128 408 1
311 408 1
324 408 1
380 408 1
390 408 1
125 409 1
129 409 1
312 409 1
325 409 1
381 409 1
391 409 1
126 410 1
130 410 1
313 410 1
326 410 1
382 410 1
392 410 1
127 411 1
131 411 1
314 411 1
327 411 1
365 411 1
383 411 1
128 412 1
132 412 1
315 412 1
328 412 1
366 412 1
384 412 1
129 413 1
133 413 1
316 413 1
329 413 1
367 413 1
385 413 1
130 414 1
134 414 1
317 414 1
330 414 1
368 414 1
386 414 1
131 415 1
135 415 1
318 415 1
331 415 1
369 415 1
387 415 1
132 416 1
136 416 1
319 416 1
332 416 1
370 416 1
388 416 1
133 417 1
137 417 1
320 417 1
333 417 1
371 417 1
389 417 1
134 418 1
138 418 1
321 418 1
334 418 1
372 418 1
390 418 1
135 419 1
139 419 1
322 419 1
335 419 1
373 419 1
391 419 1
136 420 1
140 420 1
323 420 1
336 420 1
374 420 1
392 420 1
141 421 1
165 421 1
337 421 1
352 421 1
365 421 1
376 421 1
142 422 1
166 422 1
338 422 1
353 422 1
366 422 1
377 422 1
143 423 1
167 423 1
339 423 1
354 423 1
367 423 1
378 423 1
144 424 1
168 424 1
340 424 1
355 424 1
368 424 1
379 424 1
141 425 1
145 425 1
341 425 1
356 425 1
369 425 1
380 425 1
142 426 1
146 426 1
342 426 1
357 426 1
370 426 1
381 426 1
143 427 1
147 427 1
343 427 1
358 427 1
371 427 1
382 427 1
144 428 1
148 428 1
344 428 1
359 428 1
372 428 1
383 428 1
145 429 1
149 429 1
345 429 1
360 429 1
373 429 1
384 429 1
146 430 1
150 430 1
346 430 1
361 430 1
374 430 1
385 430 1
147 431 1
151 431 1
347 431 1
362 431 1
375 431 1
386 431 1
148 432 1
152 432 1
348 432 1
363 432 1
376 432 1
387 432 1
149 433 1
153 433 1
349 433 1
364 433 1
377 433 1
388 433 1
150 434 1
154 434 1
337 434 1
350 434 1
378 434 1
389 434 1
151 435 1
155 435 1
338 435 1
351 435 1
379 435 1
390 435 1
152 436 1
156 436 1
339 436 1
352 436 1
380 436 1
391 436 1
153 437 1
157 437 1
340 437 1
353 437 1
381 437 1
392 437 1
154 438 1
158 438 1
341 438 1
354 438 1
365 438 1
382 438 1
155 439 1
159 439 1
342 439 1
355 439 1
366 439 1
383 439 1
156 440 1
160 440 1
343 440 1
356 440 1
367 440 1
384 440 1
157 441 1
161 441 1
344 441 1
357 441 1
368 441 1
385 441 1
158 442 1
162 442 1
345 442 1
358 442 1
369 442 1
386 442 1
159 443 1
163 443 1
346 443 1
359 443 1
370 443 1
387 443 1
160 444 1
164 444 1
347 444 1
360 444 1
371 444 1
388 444 1
161 445 1
165 445 1
348 445 1
361 445 1
372 445 1
389 445 1
162 446 1
166 446 1
349 446 1
362 446 1
373 446 1
390 446 1
163 447 1
167 447 1
350 447 1
363 447 1
374 447 1
391 447 1
164 448 1
168 448 1
351 448 1
364 448 1
375 448 1
392 448 1
169 449 1
193 449 1
281 449 1
299 449 1
393 449 1
396 449 1
170 450 1
194 450 1
282 450 1
300 450 1
394 450 1
397 450 1
171 451 1
195 451 1
283 451 1
301 451 1
395 451 1
398 451 1
172 452 1
196 452 1
284 452 1
302 452 1
396 452 1
399 452 1
169 453 1
173 453 1
285 453 1
303 453 1
397 453 1
400 453 1
170 454 1
174 454 1
286 454 1
304 454 1
398 454 1
401 454 1
171 455 1
175 455 1
287 455 1
305 455 1
399 455 1
402 455 1
172 456 1
176 456 1
288 456 1
306 456 1
400 456 1
403 456 1
173 457 1
177 457 1
289 457 1
307 457 1
401 457 1
404 457 1
174 458 1
178 458 1
290 458 1
308 458 1
402 458 1
405 458 1
175 459 1
179 459 1
281 459 1
291 459 1
403 459 1
406 459 1
176 460 1
180 460 1
282 460 1
292 460 1
404 460 1
407 460 1
177 461 1
181 461 1
283 461 1
293 461 1
405 461 1
408 461 1
178 462 1
182 462 1
284 462 1
294 462 1
406 462 1
409 462 1
179 463 1
183 463 1
285 463 1
295 463 1
407 463 1
410 463 1
180 464 1
184 464 1
286 464 1
296 464 1
408 464 1
411 464 1
181 465 1
185 465 1
287 465 1
297 465 1
409 465 1
412 465 1
182 466 1
186 466 1
288 466 1
298 466 1
410 466 1
413 466 1
183 467 1
187 467 1
289 467 1
299 467 1
411 467 1
414 467 1
184 468 1
188 468 1
290 468 1
300 468 1
412 468 1
415 468 1
185 469 1
189 469 1
291 469 1
301 469 1
413 469 1
416 469 1
186 470 1
190 470 1
292 470 1
302 470 1
414 470 1
417 470 1
187 471 1
191 471 1
293 471 1
303 471 1
415 471 1
418 471 1
188 472 1
192 472 1
294 472 1
304 472 1
416 472 1
419 472 1
189 473 1
193 473 1
295 473 1
305 473 1
417 473 1
420 473 1
190 474 1
194 474 1
296 474 1
306 474 1
393 474 1
418 474 1
191 475 1
195 475 1
297 475 1
307 475 1
394 475 1
419 475 1
192 476 1
196 476 1
298 476 1
308 476 1
395 476 1
420 476 1
197 477 1
221 477 1
309 477 1
327 477 1
393 477 1
403 477 1
198 478 1
222 478 1
310 478 1
328 478 1
394 478 1
404 478 1
199 479 1
223 479 1
311 479 1
329 479 1
395 479 1
405 479 1
200 480 1
224 480 1
312 480 1
330 480 1
396 480 1
406 480 1
197 481 1
201 481 1
313 481 1
331 481 1
397 481 1
407 481 1
198 482 1
202 482 1
314 482 1
332 482 1
398 482 1
408 482 1
199 483 1
203 483 1
315 483 1
333 483 1
399 483 1
409 483 1
200 484 1
204 484 1
316 484 1
334 484 1
400 484 1
410 484 1
201 485 1
205 485 1
317 485 1
335 485 1
401 485 1
411 485 1
202 486 1
206 486 1
318 486 1
336 486 1
402 486 1
412 486 1
203 487 1
207 487 1
309 487 1
319 487 1
403 487 1
413 487 1
204 488 1
208 488 1
310 488 1
320 488 1
404 488 1
414 488 1
205 489 1
209 489 1
311 489 1
321 489 1
405 489 1
415 489 1
206 490 1
210 490 1
312 490 1
322 490 1
406 490 1
416 490 1
207 491 1
211 491 1
313 491 1
323 491 1
407 491 1
417 491 1
208 492 1
212 492 1
314 492 1
324 492 1
408 492 1
418 492 1
209 493 1
213 493 1
315 493 1
325 493 1
409 493 1
419 493 1
210 494 1
214 494 1
316 494 1
326 494 1
410 494 1
420 494 1
211 495 1
215 495 1
317 495 1
327 495 1
393 495 1
411 495 1
212 496 1
216 496 1
318 496 1
328 496 1
394 496 1
412 496 1
213 497 1
217 497 1
319 497 1
329 497 1
395 497 1
413 497 1
214 498 1
218 498 1
320 498 1
330 498 1
396 498 1
414 498 1
215 499 1
219 499 1
321 499 1
331 499 1
397 499 1
415 499 1
216 500 1
220 500 1
322 500 1
332 500 1
398 500 1
416 500 1
217 501 1
221 501 1
323 501 1
333 501 1
399 501 1
417 501 1
218 502 1
222 502 1
324 502 1
334 502 1
400 502 1
418 502 1
219 503 1
223 503 1
325 503 1
335 503 1
401 503 1
419 503 1
220 504 1
224 504 1
326 504 1
336 504 1
402 504 1
420 504 1
225 505 1
249 505 1
337 505 1
355 505 1
393 505 1
404 505 1
226 506 1
250 506 1
338 506 1
356 506 1
394 506 1
405 506 1
227 507 1
251 507 1
339 507 1
357 507 1
395 507 1
406 507 1
228 508 1
252 508 1
340 508 1
358 508 1
396 508 1
407 508 1
225 509 1
229 509 1
341 509 1
359 509 1
397 509 1
408 509 1
226 510 1
230 510 1
342 510 1
360 510 1
398 510 1
409 510 1
227 511 1
231 511 1
343 511 1
361 511 1
399 511 1
410 511 1
228 512 1
232 512 1
344 512 1
362 512 1
400 512 1
411 512 1
229 513 1
233 513 1
345 513 1
363 513 1
401 513 1
412 513 1
230 514 1
234 514 1
346 514 1
364 514 1
402 514 1
413 514 1
231 515 1
235 515 1
337 515 1
347 515 1
403 515 1
414 515 1
232 516 1
236 516 1
338 516 1
348 516 1
404 516 1
415 516 1
233 517 1
237 517 1
339 517 1
349 517 1
405 517 1
416 517 1
234 518 1
238 518 1
340 518 1
350 518 1
406 518 1
417 518 1
235 519 1
239 519 1
341 519 1
351 519 1
407 519 1
418 519 1
236 520 1
240 520 1
342 520 1
352 520 1
408 520 1
419 520 1
237 521 1
241 521 1
343 521 1
353 521 1
409 521 1
420 521 1
238 522 1
242 522 1
344 522 1
354 522 1
393 522 1
410 522 1
239 523 1
243 523 1
345 523 1
355 523 1
394 523 1
411 523 1
240 524 1
244 524 1
346 524 1
356 524 1
395 524 1
412 524 1
241 525 1
245 525 1
347 525 1
357 525 1
396 525 1
413 525 1
242 526 1
246 526 1
348 526 1
358 526 1
397 526 1
414 526 1
243 527 1
247 527 1
349 527 1
359 527 1
398 527 1
415 527 1
244 528 1
248 528 1
350 528 1
360 528 1
399 528 1
416 528 1
245 529 1
249 529 1
351 529 1
361 529 1
400 529 1
417 529 1
246 530 1
250 530 1
352 530 1
362 530 1
401 530 1
418 530 1
247 531 1
251 531 1
353 531 1
363 531 1
402 531 1
419 531 1
248 532 1
252 532 1
354 532 1
364 532 1
403 532 1
420 532 1
253 533 1
277 533 1
365 533 1
383 533 1
393 533 1
408 533 1
254 534 1
278 534 1
366 534 1
384 534 1
394 534 1
409 534 1
255 535 1
279 535 1
367 535 1
385 535 1
395 535 1
410 535 1
256 536 1
280 536 1
368 536 1
386 536 1
396 536 1
411 536 1
253 537 1
257 537 1
369 537 1
387 537 1
397 537 1
412 537 1
254 538 1
258 538 1
370 538 1
388 538 1
398 538 1
413 538 1
255 539 1
259 539 1
371 539 1
389 539 1
399 539 1
414 539 1
256 540 1
260 540 1
372 540 1
390 540 1
400 540 1
415 540 1
257 541 1
261 541 1
373 541 1
391 541 1
401 541 1
416 541 1
258 542 1
262 542 1
374 542 1
392 542 1
402 542 1
417 542 1
259 543 1
263 543 1
365 543 1
375 543 1
403 543 1
418 543 1
260 544 1
264 544 1
366 544 1
376 544 1
404 544 1
419 544 1
261 545 1
265 545 1
367 545 1
377 545 1
405 545 1
420 545 1
262 546 1
266 546 1
368 546 1
378 546 1
393 546 1
406 546 1
263 547 1
267 547 1
369 547 1
379 547 1
394 547 1
407 547 1
264 548 1
268 548 1
370 548 1
380 548 1
395 548 1
408 548 1
265 549 1
269 549 1
371 549 1
381 549 1
396 549 1
409 549 1
266 550 1
270 550 1
372 550 1
382 550 1
397 550 1
410 550 1
267 551 1
271 551 1
373 551 1
383 551 1
398 551 1
411 551 1
268 552 1
272 552 1
374 552 1
384 552 1
399 552 1
412 552 1
269 553 1
273 553 1
375 553 1
385 553 1
400 553 1
413 553 1
270 554 1
274 554 1
376 554 1
386 554 1
401 554 1
414 554 1
271 555 1
275 555 1
377 555 1
387 555 1
402 555 1
415 555 1
272 556 1
276 556 1
378 556 1
388 556 1
403 556 1
416 556 1
273 557 1
277 557 1
379 557 1
389 557 1
404 557 1
417 557 1
274 558 1
278 558 1
380 558 1
390 558 1
405 558 1
418 558 1
275 559 1
279 559 1
381 559 1
391 559 1
406 559 1
419 559 1
276 560 1
280 560 1
382 560 1
392 560 1
407 560 1
420 560 1
1 561 1
28 561 1
421 561 1
431 561 1
449 561 1
452 561 1
1 562 1
2 562 1
422 562 1
432 562 1
450 562 1
453 562 1
2 563 1
3 563 1
423 563 1
433 563 1
451 563 1
454 563 1
3 564 1
4 564 1
424 564 1
434 564 1
452 564 1
455 564 1
4 565 1
5 565 1
425 565 1
435 565 1
453 565 1
456 565 1
5 566 1
6 566 1
426 566 1
436 566 1
454 566 1
457 566 1
6 567 1
7 567 1
427 567 1
437 567 1
455 567 1
458 567 1
7 568 1
8 568 1
428 568 1
438 568 1
456 568 1
459 568 1
8 569 1
9 569 1
429 569 1
439 569 1
457 569 1
460 569 1
9 570 1
10 570 1
430 570 1
440 570 1
458 570 1
461 570 1
10 571 1
11 571 1
431 571 1
441 571 1
459 571 1
462 571 1
11 572 1
12 572 1
432 572 1
442 572 1
460 572 1
463 572 1
12 573 1
13 573 1
433 573 1
443 573 1
461 573 1
464 573 1
13 574 1
14 574 1
434 574 1
444 574 1
462 574 1
465 574 1
14 575 1
15 575 1
435 575 1
445 575 1
463 575 1
466 575 1
15 576 1
16 576 1
436 576 1
446 576 1
464 576 1
467 576 1
16 577 1
17 577 1
437 577 1
447 577 1
465 577 1
468 577 1
17 578 1
18 578 1
438 578 1
448 578 1
466 578 1
469 578 1
18 579 1
19 579 1
421 579 1
439 579 1
467 579 1
470 579 1
19 580 1
20 580 1
422 580 1
440 580 1
468 580 1
471 580 1
20 581 1
21 581 1
423 581 1
441 581 1
469 581 1
472 581 1
21 582 1
22 582 1
424 582 1
442 582 1
470 582 1
473 582 1
22 583 1
23 583 1
425 583 1
443 583 1
471 583 1
474 583 1
23 584 1
24 584 1
426 584 1
444 584 1
472 584 1
475 584 1
24 585 1
25 585 1
427 585 1
445 585 1
473 585 1
476 585 1
25 586 1
26 586 1
428 586 1
446 586 1
449 586 1
474 586 1
26 587 1
27 587 1
429 587 1
447 587 1
450 587 1
475 587 1
27 588 1
28 588 1
430 588 1
448 588 1
451 588 1
476 588 1
29 589 1
56 589 1
421 589 1
432 589 1
477 589 1
480 589 1
29 590 1
30 590 1
422 590 1
433 590 1
478 590 1
481 590 1
30 591 1
31 591 1
423 591 1
434 591 1
479 591 1
482 591 1
31 592 1
32 592 1
424 592 1
435 592 1
480 592 1
483 592 1
32 593 1
33 593 1
425 593 1
436 593 1
481 593 1
484 593 1
33 594 1
34 594 1
426 594 1
437 594 1
482 594 1
485 594 1
34 595 1
35 595 1
427 595 1
438 595 1
483 595 1
486 595 1
35 596 1
36 596 1
428 596 1
439 596 1
484 596 1
487 596 1
36 597 1
37 597 1
429 597 1
440 597 1
485 597 1
488 597 1
37 598 1
38 598 1
430 598 1
441 598 1
486 598 1
489 598 1
38 599 1
39 599 1
431 599 1
442 599 1
487 599 1
490 599 1
39 600 1
40 600 1
432 600 1
443 600 1
488 600 1
491 600 1
40 601 1
41 601 1
433 601 1
444 601 1
489 601 1
492 601 1
41 602 1
42 602 1
434 602 1
445 602 1
490 602 1
493 602 1
42 603 1
43 603 1
435 603 1
446 603 1
491 603 1
494 603 1
43 604 1
44 604 1
436 604 1
447 604 1
492 604 1
495 604 1
44 605 1
45 605 1
437 605 1
448 605 1
493 605 1
496 605 1
45 606 1
46 606 1
421 606 1
438 606 1
494 606 1
497 606 1
46 607 1
47 607 1
422 607 1
439 607 1
495 607 1
498 607 1
47 608 1
48 608 1
423 608 1
440 608 1
496 608 1
499 608 1
48 609 1
49 609 1
424 609 1
441 609 1
497 609 1
500 609 1
49 610 1
50 610 1
425 610 1
442 610 1
498 610 1
501 610 1
50 611 1
51 611 1
426 611 1
443 611 1
499 611 1
502 611 1
51 612 1
52 612 1
427 612 1
444 612 1
500 612 1
503 612 1
52 613 1
53 613 1
428 613 1
445 613 1
501 613 1
504 613 1
53 614 1
54 614 1
429 614 1
446 614 1
477 614 1
502 614 1
54 615 1
55 615 1
430 615 1
447 615 1
478 615 1
503 615 1
55 616 1
56 616 1
431 616 1
448 616 1
479 616 1
504 616 1
57 617 1
84 617 1
449 617 1
460 617 1
477 617 1
487 617 1
57 618 1
58 618 1
450 618 1
461 618 1
478 618 1
488 618 1
58 619 1
59 619 1
451 619 1
462 619 1
479 619 1
489 619 1
59 620 1
60 620 1
452 620 1
463 620 1
480 620 1
490 620 1
60 621 1
61 621 1
453 621 1
464 621 1
481 621 1
491 621 1
61 622 1
62 622 1
454 622 1
465 622 1
482 622 1
492 622 1
62 623 1
63 623 1
455 623 1
466 623 1
483 623 1
493 623 1
63 624 1
64 624 1
456 624 1
467 624 1
484 624 1
494 624 1
64 625 1
65 625 1
457 625 1
468 625 1
485 625 1
495 625 1
65 626 1
66 626 1
458 626 1
469 626 1
486 626 1
496 626 1
66 627 1
67 627 1
459 627 1
470 627 1
487 627 1
497 627 1
67 628 1
68 628 1
460 628 1
471 628 1
488 628 1
498 628 1
68 629 1
69 629 1
461 629 1
472 629 1
489 629 1
499 629 1
69 630 1
70 630 1
462 630 1
473 630 1
490 630 1
500 630 1
70 631 1
71 631 1
463 631 1
474 631 1
491 631 1
501 631 1
71 632 1
72 632 1
464 632 1
475 632 1
492 632 1
502 632 1
72 633 1
73 633 1
465 633 1
476 633 1
493 633 1
503 633 1
73 634 1
74 634 1
449 634 1
466 634 1
494 634 1
504 634 1
74 635 1
75 635 1
450 635 1
467 635 1
477 635 1
495 635 1
75 636 1
76 636 1
451 636 1
468 636 1
478 636 1
496 636 1
76 637 1
77 637 1
452 637 1
469 637 1
479 637 1
497 637 1
77 638 1
78 638 1
453 638 1
470 638 1
480 638 1
498 638 1
78 639 1
79 639 1
454 639 1
471 639 1
481 639 1
499 639 1
79 640 1
80 640 1
455 640 1
472 640 1
482 640 1
500 640 1
80 641 1
81 641 1
456 641 1
473 641 1
483 641 1
501 641 1
81 642 1
82 642 1
457 642 1
474 642 1
484 642 1
502 642 1
82 643 1
83 643 1
458 643 1
475 643 1
485 643 1
503 643 1
83 644 1
84 644 1
459 644 1
476 644 1
486 644 1
504 644 1
85 645 1
112 645 1
421 645 1
436 645 1
505 645 1
508 645 1
85 646 1
86 646 1
422 646 1
437 646 1
506 646 1
509 646 1
86 647 1
87 647 1
423 647 1
438 647 1
507 647 1
510 647 1
87 648 1
88 648 1
424 648 1
439 648 1
508 648 1
511 648 1
88 649 1
89 649 1
425 649 1
440 649 1
509 649 1
512 649 1
89 650 1
90 650 1
426 650 1
441 650 1
510 650 1
513 650 1
90 651 1
91 651 1
427 651 1
442 651 1
511 651 1
514 651 1
91 652 1
92 652 1
428 652 1
443 652 1
512 652 1
515 652 1
92 653 1
93 653 1
429 653 1
444 653 1
513 653 1
516 653 1
93 654 1
94 654 1
430 654 1
445 654 1
514 654 1
517 654 1
94 655 1
95 655 1
431 655 1
446 655 1
515 655 1
518 655 1
95 656 1
96 656 1
432 656 1
447 656 1
516 656 1
519 656 1
96 657 1
97 657 1
433 657 1
448 657 1
517 657 1
520 657 1
97 658 1
98 658 1
421 658 1
434 658 1
518 658 1
521 658 1
98 659 1
99 659 1
422 659 1
435 659 1
519 659 1
522 659 1
99 660 1
100 660 1
423 660 1
436 660 1
520 660 1
523 660 1
100 661 1
101 661 1
424 661 1
437 661 1
521 661 1
524 661 1
101 662 1
102 662 1
425 662 1
438 662 1
522 662 1
525 662 1
102 663 1
103 663 1
426 663 1
439 663 1
523 663 1
526 663 1
103 664 1
104 664 1
427 664 1
440 664 1
524 664 1
527 664 1
104 665 1
105 665 1
428 665 1
441 665 1
525 665 1
528 665 1
105 666 1
106 666 1
429 666 1
442 666 1
526 666 1
529 666 1
106 667 1
107 667 1
430 667 1
443 667 1
527 667 1
530 667 1
107 668 1
108 668 1
431 668 1
444 668 1
528 668 1
531 668 1
108 669 1
109 669 1
432 669 1
445 669 1
529 669 1
532 669 1
109 670 1
110 670 1
433 670 1
446 670 1
505 670 1
530 670 1
110 671 1
111 671 1
434 671 1
447 671 1
506 671 1
531 671 1
111 672 1
112 672 1
435 672 1
448 672 1
507 672 1
532 672 1
113 673 1
140 673 1
449 673 1
464 673 1
505 673 1
515 673 1
113 674 1
114 674 1
450 674 1
465 674 1
506 674 1
516 674 1
114 675 1
115 675 1
451 675 1
466 675 1
507 675 1
517 675 1
115 676 1
116 676 1
452 676 1
467 676 1
508 676 1
518 676 1
116 677 1
117 677 1
453 677 1
468 677 1
509 677 1
519 677 1
117 678 1
118 678 1
454 678 1
469 678 1
510 678 1
520 678 1
118 679 1
119 679 1
455 679 1
470 679 1
511 679 1
521 679 1
119 680 1
120 680 1
456 680 1
471 680 1
512 680 1
522 680 1
120 681 1
121 681 1
457 681 1
472 681 1
513 681 1
523 681 1
121 682 1
122 682 1
458 682 1
473 682 1
514 682 1
524 682 1
122 683 1
123 683 1
459 683 1
474 683 1
515 683 1
525 683 1
123 684 1
124 684 1
460 684 1
475 684 1
516 684 1
526 684 1
124 685 1
125 685 1
461 685 1
476 685 1
517 685 1
527 685 1
125 686 1
126 686 1
449 686 1
462 686 1
518 686 1
528 686 1
126 687 1
127 687 1
450 687 1
463 687 1
519 687 1
529 687 1
127 688 1
128 688 1
451 688 1
464 688 1
520 688 1
530 688 1
128 689 1
129 689 1
452 689 1
465 689 1
521 689 1
531 689 1
129 690 1
130 690 1
453 690 1
466 690 1
522 690 1
532 690 1
130 691 1
131 691 1
454 691 1
467 691 1
505 691 1
523 691 1
131 692 1
132 692 1
455 692 1
468 692 1
506 692 1
524 692 1
132 693 1
133 693 1
456 693 1
469 693 1
507 693 1
525 693 1
133 694 1
134 694 1
457 694 1
470 694 1
508 694 1
526 694 1
134 695 1
135 695 1
458 695 1
471 695 1
509 695 1
527 695 1
135 696 1
136 696 1
459 696 1
472 696 1
510 696 1
528 696 1
136 697 1
137 697 1
460 697 1
473 697 1
511 697 1
529 697 1
137 698 1
138 698 1
461 698 1
474 698 1
512 698 1
530 698 1
138 699 1
139 699 1
462 699 1
475 699 1
513 699 1
531 699 1
139 700 1
140 700 1
463 700 1
476 700 1
514 700 1
532 700 1
141 701 1
168 701 1
477 701 1
492 701 1
505 701 1
516 701 1
141 702 1
142 702 1
478 702 1
493 702 1
506 702 1
517 702 1
142 703 1
143 703 1
479 703 1
494 703 1
507 703 1
518 703 1
143 704 1
144 704 1
480 704 1
495 704 1
508 704 1
519 704 1
144 705 1
145 705 1
481 705 1
496 705 1
509 705 1
520 705 1
145 706 1
146 706 1
482 706 1
497 706 1
510 706 1
521 706 1
146 707 1
147 707 1
483 707 1
498 707 1
511 707 1
522 707 1
147 708 1
148 708 1
484 708 1
499 708 1
512 708 1
523 708 1
148 709 1
149 709 1
485 709 1
500 709 1
513 709 1
524 709 1
149 710 1
150 710 1
486 710 1
501 710 1
514 710 1
525 710 1
150 711 1
151 711 1
487 711 1
502 711 1
515 711 1
526 711 1
151 712 1
152 712 1
488 712 1
503 712 1
516 712 1
527 712 1
152 713 1
153 713 1
489 713 1
504 713 1
517 713 1
528 713 1
153 714 1
154 714 1
477 714 1
490 714 1
518 714 1
529 714 1
154 715 1
155 715 1
478 715 1
491 715 1
519 715 1
530 715 1
155 716 1
156 716 1
479 716 1
492 716 1
520 716 1
531 716 1
156 717 1
157 717 1
480 717 1
493 717 1
521 717 1
532 717 1
157 718 1
158 718 1
481 718 1
494 718 1
505 718 1
522 718 1
158 719 1
159 719 1
482 719 1
495 719 1
506 719 1
523 719 1
159 720 1
160 720 1
483 720 1
496 720 1
507 720 1
524 720 1
160 721 1
161 721 1
484 721 1
497 721 1
508 721 1
525 721 1
161 722 1
162 722 1
485 722 1
498 722 1
509 722 1
526 722 1
162 723 1
163 723 1
486 723 1
499 723 1
510 723 1
527 723 1
163 724 1
164 724 1
487 724 1
500 724 1
511 724 1
528 724 1
164 725 1
165 725 1
488 725 1
501 725 1
512 725 1
529 725 1
165 726 1
166 726 1
489 726 1
502 726 1
513 726 1
530 726 1
166 727 1
167 727 1
490 727 1
503 727 1
514 727 1
531 727 1
167 728 1
168 728 1
491 728 1
504 728 1
515 728 1
532 728 1
169 729 1
196 729 1
421 729 1
439 729 1
533 729 1
536 729 1
169 730 1
170 730 1
422 730 1
440 730 1
534 730 1
537 730 1
170 731 1
171 731 1
423 731 1
441 731 1
535 731 1
538 731 1
171 732 1
172 732 1
424 732 1
442 732 1
536 732 1
539 732 1
172 733 1
173 733 1
425 733 1
443 733 1
537 733 1
540 733 1
173 734 1
174 734 1
426 734 1
444 734 1
538 734 1
541 734 1
174 735 1
175 735 1
427 735 1
445 735 1
539 735 1
542 735 1
175 736 1
176 736 1
428 736 1
446 736 1
540 736 1
543 736 1
176 737 1
177 737 1
429 737 1
447 737 1
541 737 1
544 737 1
177 738 1
178 738 1
430 738 1
448 738 1
542 738 1
545 738 1
178 739 1
179 739 1
421 739 1
431 739 1
543 739 1
546 739 1
179 740 1
180 740 1
422 740 1
432 740 1
544 740 1
547 740 1
180 741 1
181 741 1
423 741 1
433 741 1
545 741 1
548 741 1
181 742 1
182 742 1
424 742 1
434 742 1
546 742 1
549 742 1
182 743 1
183 743 1
425 743 1
435 743 1
547 743 1
550 743 1
183 744 1
184 744 1
426 744 1
436 744 1
548 744 1
551 744 1
184 745 1
185 745 1
427 745 1
437 745 1
549 745 1
552 745 1
185 746 1
186 746 1
428 746 1
438 746 1
550 746 1
553 746 1
186 747 1
187 747 1
429 747 1
439 747 1
551 747 1
554 747 1
187 748 1
188 748 1
430 748 1
440 748 1
552 748 1
555 748 1
188 749 1
189 749 1
431 749 1
441 749 1
553 749 1
556 749 1
189 750 1
190 750 1
432 750 1
442 750 1
554 750 1
557 750 1
190 751 1
191 751 1
433 751 1
443 751 1
555 751 1
558 751 1
191 752 1
192 752 1
434 752 1
444 752 1
556 752 1
559 752 1
192 753 1
193 753 1
435 753 1
445 753 1
557 753 1
560 753 1
193 754 1
194 754 1
436 754 1
446 754 1
533 754 1
558 754 1
194 755 1
195 755 1
437 755 1
447 755 1
534 755 1
559 755 1
195 756 1
196 756 1
438 756 1
448 756 1
535 756 1
560 756 1
197 757 1
224 757 1
449 757 1
467 757 1
533 757 1
543 757 1
197 758 1
198 758 1
450 758 1
468 758 1
534 758 1
544 758 1
198 759 1
199 759 1
451 759 1
469 759 1
535 759 1
545 759 1
199 760 1
200 760 1
452 760 1
470 760 1
536 760 1
546 760 1
200 761 1
201 761 1
453 761 1
471 761 1
537 761 1
547 761 1
201 762 1
202 762 1
454 762 1
472 762 1
538 762 1
548 762 1
202 763 1
203 763 1
455 763 1
473 763 1
539 763 1
549 763 1
203 764 1
204 764 1
456 764 1
474 764 1
540 764 1
550 764 1
204 765 1
205 765 1
457 765 1
475 765 1
541 765 1
551 765 1
205 766 1
206 766 1
458 766 1
476 766 1
542 766 1
552 766 1
206 767 1
207 767 1
449 767 1
459 767 1
543 767 1
553 767 1
207 768 1
208 768 1
450 768 1
460 768 1
544 768 1
554 768 1
208 769 1
209 769 1
451 769 1
461 769 1
545 769 1
555 769 1
209 770 1
210 770 1
452 770 1
462 770 1
546 770 1
556 770 1
210 771 1
211 771 1
453 771 1
463 771 1
547 771 1
557 771 1
211 772 1
212 772 1
454 772 1
464 772 1
548 772 1
558 772 1
212 773 1
213 773 1
455 773 1
465 773 1
549 773 1
559 773 1
213 774 1
214 774 1
456 774 1
466 774 1
550 774 1
560 774 1
214 775 1
215 775 1
457 775 1
467 775 1
533 775 1
551 775 1
215 776 1
216 776 1
458 776 1
468 776 1
534 776 1
552 776 1
216 777 1
217 777 1
459 777 1
469 777 1
535 777 1
553 777 1
217 778 1
218 778 1
460 778 1
470 778 1
536 778 1
554 778 1
218 779 1
219 779 1
461 779 1
471 779 1
537 779 1
555 779 1
219 780 1
220 780 1
462 780 1
472 780 1
538 780 1
556 780 1
220 781 1
221 781 1
463 781 1
473 781 1
539 781 1
557 781 1
221 782 1
222 782 1
464 782 1
474 782 1
540 782 1
558 782 1
222 783 1
223 783 1
465 783 1
475 783 1
541 783 1
559 783 1
223 784 1
224 784 1
466 784 1
476 784 1
542 784 1
560 784 1
225 785 1
252 785 1
477 785 1
495 785 1
533 785 1
544 785 1
225 786 1
226 786 1
478 786 1
496 786 1
534 786 1
545 786 1
226 787 1
227 787 1
479 787 1
497 787 1
535 787 1
546 787 1
227 788 1
228 788 1
480 788 1
498 788 1
536 788 1
547 788 1
228 789 1
229 789 1
481 789 1
499 789 1
537 789 1
548 789 1
229 790 1
230 790 1
482 790 1
500 790 1
538 790 1
549 790 1
230 791 1
231 791 1
483 791 1
501 791 1
539 791 1
550 791 1
231 792 1
232 792 1
484 792 1
502 792 1
540 792 1
551 792 1
232 793 1
233 793 1
485 793 1
503 793 1
541 793 1
552 793 1
233 794 1
234 794 1
486 794 1
504 794 1
542 794 1
553 794 1
234 795 1
235 795 1
477 795 1
487 795 1
543 795 1
554 795 1
235 796 1
236 796 1
478 796 1
488 796 1
544 796 1
555 796 1
236 797 1
237 797 1
479 797 1
489 797 1
545 797 1
556 797 1
237 798 1
238 798 1
480 798 1
490 798 1
546 798 1
557 798 1
238 799 1
239 799 1
481 799 1
491 799 1
547 799 1
558 799 1
239 800 1
240 800 1
482 800 1
492 800 1
548 800 1
559 800 1
240 801 1
241 801 1
483 801 1
493 801 1
549 801 1
560 801 1
241 802 1
242 802 1
484 802 1
494 802 1
533 802 1
550 802 1
242 803 1
243 803 1
485 803 1
495 803 1
534 803 1
551 803 1
243 804 1
244 804 1
486 804 1
496 804 1
535 804 1
552 804 1
244 805 1
245 805 1
487 805 1
497 805 1
536 805 1
553 805 1
245 806 1
246 806 1
488 806 1
498 806 1
537 806 1
554 806 1
246 807 1
247 807 1
489 807 1
499 807 1
538 807 1
555 807 1
247 808 1
248 808 1
490 808 1
500 808 1
539 808 1
556 808 1
248 809 1
249 809 1
491 809 1
501 809 1
540 809 1
557 809 1
249 810 1
250 810 1
492 810 1
502 810 1
541 810 1
558 810 1
250 811 1
251 811 1
493 811 1
503 811 1
542 811 1
559 811 1
251 812 1
252 812 1
494 812 1
504 812 1
543 812 1
560 812 1
253 813 1
280 813 1
505 813 1
523 813 1
533 813 1
548 813 1
253 814 1
254 814 1
506 814 1
524 814 1
534 814 1
549 814 1
254 815 1
255 815 1
507 815 1
525 815 1
535 815 1
550 815 1
255 816 1
256 816 1
508 816 1
526 816 1
536 816 1
551 816 1
256 817 1
257 817 1
509 817 1
527 817 1
537 817 1
552 817 1
257 818 1
258 818 1
510 818 1
528 818 1
538 818 1
553 818 1
258 819 1
259 819 1
511 819 1
529 819 1
539 819 1
554 819 1
259 820 1
260 820 1
512 820 1
530 820 1
540 820 1
555 820 1
260 821 1
261 821 1
513 821 1
531 821 1
541 821 1
556 821 1
261 822 1
262 822 1
514 822 1
532 822 1
542 822 1
557 822 1
262 823 1
263 823 1
505 823 1
515 823 1
543 823 1
558 823 1
263 824 1
264 824 1
506 824 1
516 824 1
544 824 1
559 824 1
264 825 1
265 825 1
507 825 1
517 825 1
545 825 1
560 825 1
265 826 1
266 826 1
508 826 1
518 826 1
533 826 1
546 826 1
266 827 1
267 827 1
509 827 1
519 827 1
534 827 1
547 827 1
267 828 1
268 828 1
510 828 1
520 828 1
535 828 1
548 828 1
268 829 1
269 829 1
511 829 1
521 829 1
536 829 1
549 829 1
269 830 1
270 830 1
512 830 1
522 830 1
537 830 1
550 830 1
270 831 1
271 831 1
513 831 1
523 831 1
538 831 1
551 831 1
271 832 1
272 832 1
514 832 1
524 832 1
539 832 1
552 832 1
272 833 1
273 833 1
515 833 1
525 833 1
540 833 1
553 833 1
273 834 1
274 834 1
516 834 1
526 834 1
541 834 1
554 834 1
274 835 1
275 835 1
517 835 1
527 835 1
542 835 1
555 835 1
275 836 1
276 836 1
518 836 1
528 836 1
543 836 1
556 836 1
276 837 1
277 837 1
519 837 1
529 837 1
544 837 1
557 837 1
277 838 1
278 838 1
520 838 1
530 838 1
545 838 1
558 838 1
278 839 1
279 839 1
521 839 1
531 839 1
546 839 1
559 839 1
279 840 1
280 840 1
522 840 1
532 840 1
547 840 1
560 840 1
281 841 1
308 841 1
421 841 1
445 841 1
561 841 1
564 841 1
281 842 1
282 842 1
422 842 1
446 842 1
562 842 1
565 842 1
282 843 1
283 843 1
423 843 1
447 843 1
563 843 1
566 843 1
283 844 1
284 844 1
424 844 1
448 844 1
564 844 1
567 844 1
284 845 1
285 845 1
421 845 1
425 845 1
565 845 1
568 845 1
285 846 1
286 846 1
422 846 1
426 846 1
566 846 1
569 846 1
286 847 1
287 847 1
423 847 1
427 847 1
567 847 1
570 847 1
287 848 1
288 848 1
424 848 1
428 848 1
568 848 1
571 848 1
288 849 1
289 849 1
425 849 1
429 849 1
569 849 1
572 849 1
289 850 1
290 850 1
426 850 1
430 850 1
570 850 1
573 850 1
290 851 1
291 851 1
427 851 1
431 851 1
571 851 1
574 851 1
291 852 1
292 852 1
428 852 1
432 852 1
572 852 1
575 852 1
292 853 1
293 853 1
429 853 1
433 853 1
573 853 1
576 853 1
293 854 1
294 854 1
430 854 1
434 854 1
574 854 1
577 854 1
294 855 1
295 855 1
431 855 1
435 855 1
575 855 1
578 855 1
295 856 1
296 856 1
432 856 1
436 856 1
576 856 1
579 856 1
296 857 1
297 857 1
433 857 1
437 857 1
577 857 1
580 857 1
297 858 1
298 858 1
434 858 1
438 858 1
578 858 1
581 858 1
298 859 1
299 859 1
435 859 1
439 859 1
579 859 1
582 859 1
299 860 1
300 860 1
436 860 1
440 860 1
580 860 1
583 860 1
300 861 1
301 861 1
437 861 1
441 861 1
581 861 1
584 861 1
301 862 1
302 862 1
438 862 1
442 862 1
582 862 1
585 862 1
302 863 1
303 863 1
439 863 1
443 863 1
583 863 1
586 863 1
303 864 1
304 864 1
440 864 1
444 864 1
584 864 1
587 864 1
304 865 1
305 865 1
441 865 1
445 865 1
585 865 1
588 865 1
305 866 1
306 866 1
442 866 1
446 866 1
561 866 1
586 866 1
306 867 1
307 867 1
443 867 1
447 867 1
562 867 1
587 867 1
307 868 1
308 868 1
444 868 1
448 868 1
563 868 1
588 868 1
309 869 1
336 869 1
449 869 1
473 869 1
561 869 1
571 869 1
309 870 1
310 870 1
450 870 1
474 870 1
562 870 1
572 870 1
310 871 1
311 871 1
451 871 1
475 871 1
563 871 1
573 871 1
311 872 1
312 872 1
452 872 1
476 872 1
564 872 1
574 872 1
312 873 1
313 873 1
449 873 1
453 873 1
565 873 1
575 873 1
313 874 1
314 874 1
450 874 1
454 874 1
566 874 1
576 874 1
314 875 1
315 875 1
451 875 1
455 875 1
567 875 1
577 875 1
315 876 1
316 876 1
452 876 1
456 876 1
568 876 1
578 876 1
316 877 1
317 877 1
453 877 1
457 877 1
569 877 1
579 877 1
317 878 1
318 878 1
454 878 1
458 878 1
570 878 1
580 878 1
318 879 1
319 879 1
455 879 1
459 879 1
571 879 1
581 879 1
319 880 1
320 880 1
456 880 1
460 880 1
572 880 1
582 880 1
320 881 1
321 881 1
457 881 1
461 881 1
573 881 1
583 881 1
321 882 1
322 882 1
458 882 1
462 882 1
574 882 1
584 882 1
322 883 1
323 883 1
459 883 1
463 883 1
575 883 1
585 883 1
323 884 1
324 884 1
460 884 1
464 884 1
576 884 1
586 884 1
324 885 1
325 885 1
461 885 1
465 885 1
577 885 1
587 885 1
325 886 1
326 886 1
462 886 1
466 886 1
578 886 1
588 886 1
326 887 1
327 887 1
463 887 1
467 887 1
561 887 1
579 887 1
327 888 1
328 888 1
464 888 1
468 888 1
562 888 1
580 888 1
328 889 1
329 889 1
465 889 1
469 889 1
563 889 1
581 889 1
329 890 1
330 890 1
466 890 1
470 890 1
564 890 1
582 890 1
330 891 1
331 891 1
467 891 1
471 891 1
565 891 1
583 891 1
331 892 1
332 892 1
468 892 1
472 892 1
566 892 1
584 892 1
332 893 1
333 893 1
469 893 1
473 893 1
567 893 1
585 893 1
333 894 1
334 894 1
470 894 1
474 894 1
568 894 1
586 894 1
334 895 1
335 895 1
471 895 1
475 895 1
569 895 1
587 895 1
335 896 1
336 896 1
472 896 1
476 896 1
570 896 1
588 896 1
337 897 1
364 897 1
477 897 1
501 897 1
561 897 1
572 897 1
337 898 1
338 898 1
478 898 1
502 898 1
562 898 1
573 898 1
338 899 1
339 899 1
479 899 1
503 899 1
563 899 1
574 899 1
339 900 1
340 900 1
480 900 1
504 900 1
564 900 1
575 900 1
340 901 1
341 901 1
477 901 1
481 901 1
565 901 1
576 901 1
341 902 1
342 902 1
478 902 1
482 902 1
566 902 1
577 902 1
342 903 1
343 903 1
479 903 1
483 903 1
567 903 1
578 903 1
343 904 1
344 904 1
480 904 1
484 904 1
568 904 1
579 904 1
344 905 1
345 905 1
481 905 1
485 905 1
569 905 1
580 905 1
345 906 1
346 906 1
482 906 1
486 906 1
570 906 1
581 906 1
346 907 1
347 907 1
483 907 1
487 907 1
571 907 1
582 907 1
347 908 1
348 908 1
484 908 1
488 908 1
572 908 1
583 908 1
348 909 1
349 909 1
485 909 1
489 909 1
573 909 1
584 909 1
349 910 1
350 910 1
486 910 1
490 910 1
574 910 1
585 910 1
350 911 1
351 911 1
487 911 1
491 911 1
575 911 1
586 911 1
351 912 1
352 912 1
488 912 1
492 912 1
576 912 1
587 912 1
352 913 1
353 913 1
489 913 1
493 913 1
577 913 1
588 913 1
353 914 1
354 914 1
490 914 1
494 914 1
561 914 1
578 914 1
354 915 1
355 915 1
491 915 1
495 915 1
562 915 1
579 915 1
355 916 1
356 916 1
492 916 1
496 916 1
563 916 1
580 916 1
356 917 1
357 917 1
493 917 1
497 917 1
564 917 1
581 917 1
357 918 1
358 918 1
494 918 1
498 918 1
565 918 1
582 918 1
358 919 1
359 919 1
495 919 1
499 919 1
566 919 1
583 919 1
359 920 1
360 920 1
496 920 1
500 920 1
567 920 1
584 920 1
360 921 1
361 921 1
497 921 1
501 921 1
568 921 1
585 921 1
361 922 1
362 922 1
498 922 1
502 922 1
569 922 1
586 922 1
362 923 1
363 923 1
499 923 1
503 923 1
570 923 1
587 923 1
363 924 1
364 924 1
500 924 1
504 924 1
571 924 1
588 924 1
365 925 1
392 925 1
505 925 1
529 925 1
561 925 1
576 925 1
365 926 1
366 926 1
506 926 1
530 926 1
562 926 1
577 926 1
366 927 1
367 927 1
507 927 1
531 927 1
563 927 1
578 927 1
367 928 1
368 928 1
508 928 1
532 928 1
564 928 1
579 928 1
368 929 1
369 929 1
505 929 1
509 929 1
565 929 1
580 929 1
369 930 1
370 930 1
506 930 1
510 930 1
566 930 1
581 930 1
370 931 1
371 931 1
507 931 1
511 931 1
567 931 1
582 931 1
371 932 1
372 932 1
508 932 1
512 932 1
568 932 1
583 932 1
372 933 1
373 933 1
509 933 1
513 933 1
569 933 1
584 933 1
373 934 1
374 934 1
510 934 1
514 934 1
570 934 1
585 934 1
374 935 1
375 935 1
511 935 1
515 935 1
571 935 1
586 935 1
375 936 1
376 936 1
512 936 1
516 936 1
572 936 1
587 936 1
376 937 1
377 937 1
513 937 1
517 937 1
573 937 1
588 937 1
377 938 1
378 938 1
514 938 1
518 938 1
561 938 1
574 938 1
378 939 1
379 939 1
515 939 1
519 939 1
562 939 1
575 939 1
379 940 1
380 940 1
516 940 1
520 940 1
563 940 1
576 940 1
380 941 1
381 941 1
517 941 1
521 941 1
564 941 1
577 941 1
381 942 1
382 942 1
518 942 1
522 942 1
565 942 1
578 942 1
382 943 1
383 943 1
519 943 1
523 943 1
566 943 1
579 943 1
383 944 1
384 944 1
520 944 1
524 944 1
567 944 1
580 944 1
384 945 1
385 945 1
521 945 1
525 945 1
568 945 1
581 945 1
385 946 1
386 946 1
522 946 1
526 946 1
569 946 1
582 946 1
386 947 1
387 947 1
523 947 1
527 947 1
570 947 1
583 947 1
387 948 1
388 948 1
524 948 1
528 948 1
571 948 1
584 948 1
388 949 1
389 949 1
525 949 1
529 949 1
572 949 1
585 949 1
389 950 1
390 950 1
526 950 1
530 950 1
573 950 1
586 950 1
390 951 1
391 951 1
527 951 1
531 951 1
574 951 1
587 951 1
391 952 1
392 952 1
528 952 1
532 952 1
575 952 1
588 952 1
393 953 1
420 953 1
533 953 1
557 953 1
561 953 1
579 953 1
393 954 1
394 954 1
534 954 1
558 954 1
562 954 1
580 954 1
394 955 1
395 955 1
535 955 1
559 955 1
563 955 1
581 955 1
395 956 1
396 956 1
536 956 1
560 956 1
564 956 1
582 956 1
396 957 1
397 957 1
533 957 1
537 957 1
565 957 1
583 957 1
397 958 1
398 958 1
534 958 1
538 958 1
566 958 1
584 958 1
398 959 1
399 959 1
535 959 1
539 959 1
567 959 1
585 959 1
399 960 1
400 960 1
536 960 1
540 960 1
568 960 1
586 960 1
400 961 1
401 961 1
537 961 1
541 961 1
569 961 1
587 961 1
401 962 1
402 962 1
538 962 1
542 962 1
570 962 1
588 962 1
402 963 1
403 963 1
539 963 1
543 963 1
561 963 1
571 963 1
403 964 1
404 964 1
540 964 1
544 964 1
562 964 1
572 964 1
404 965 1
405 965 1
541 965 1
545 965 1
563 965 1
573 965 1
405 966 1
406 966 1
542 966 1
546 966 1
564 966 1
574 966 1
406 967 1
407 967 1
543 967 1
547 967 1
565 967 1
575 967 1
407 968 1
408 968 1
544 968 1
548 968 1
566 968 1
576 968 1
408 969 1
409 969 1
545 969 1
549 969 1
567 969 1
577 969 1
409 970 1
410 970 1
546 970 1
550 970 1
568 970 1
578 970 1
410 971 1
411 971 1
547 971 1
551 971 1
569 971 1
579 971 1
411 972 1
412 972 1
548 972 1
552 972 1
570 972 1
580 972 1
412 973 1
413 973 1
549 973 1
553 973 1
571 973 1
581 973 1
413 974 1
414 974 1
550 974 1
554 974 1
572 974 1
582 974 1
414 975 1
415 975 1
551 975 1
555 975 1
573 975 1
583 975 1
415 976 1
416 976 1
552 976 1
556 976 1
574 976 1
584 976 1
416 977 1
417 977 1
553 977 1
557 977 1
575 977 1
585 977 1
417 978 1
418 978 1
554 978 1
558 978 1
576 978 1
586 978 1
418 979 1
419 979 1
555 979 1
559 979 1
577 979 1
587 979 1
419 980 1
420 980 1
556 980 1
560 980 1
578 980 1
588 980 1
