%%MatrixMarket matrix coordinate integer general
% Binary matrix; one-based indices; arithmetic over GF(2)
980 980 7840
1 1 1
14 1 1
29 1 1
39 1 1
141 1 1
145 1 1
421 1 1
422 1 1
2 2 1
15 2 1
30 2 1
40 2 1
142 2 1
146 2 1
422 2 1
423 2 1
3 3 1
16 3 1
31 3 1
41 3 1
143 3 1
147 3 1
423 3 1
424 3 1
4 4 1
17 4 1
32 4 1
42 4 1
144 4 1
148 4 1
424 4 1
425 4 1
5 5 1
18 5 1
33 5 1
43 5 1
145 5 1
149 5 1
425 5 1
426 5 1
6 6 1
19 6 1
34 6 1
44 6 1
146 6 1
150 6 1
426 6 1
427 6 1
7 7 1
20 7 1
35 7 1
45 7 1
147 7 1
151 7 1
427 7 1
428 7 1
8 8 1
21 8 1
36 8 1
46 8 1
148 8 1
152 8 1
428 8 1
429 8 1
9 9 1
22 9 1
37 9 1
47 9 1
149 9 1
153 9 1
429 9 1
430 9 1
10 10 1
23 10 1
38 10 1
48 10 1
150 10 1
154 10 1
430 10 1
431 10 1
11 11 1
24 11 1
39 11 1
49 11 1
151 11 1
155 11 1
431 11 1
432 11 1
12 12 1
25 12 1
40 12 1
50 12 1
152 12 1
156 12 1
432 12 1
433 12 1
13 13 1
26 13 1
41 13 1
51 13 1
153 13 1
157 13 1
433 13 1
434 13 1
14 14 1
27 14 1
42 14 1
52 14 1
154 14 1
158 14 1
434 14 1
435 14 1
15 15 1
28 15 1
43 15 1
53 15 1
155 15 1
159 15 1
435 15 1
436 15 1
1 16 1
16 16 1
44 16 1
54 16 1
156 16 1
160 16 1
436 16 1
437 16 1
2 17 1
17 17 1
45 17 1
55 17 1
157 17 1
161 17 1
437 17 1
438 17 1
3 18 1
18 18 1
46 18 1
56 18 1
158 18 1
162 18 1
438 18 1
439 18 1
4 19 1
19 19 1
29 19 1
47 19 1
159 19 1
163 19 1
439 19 1
440 19 1
5 20 1
20 20 1
30 20 1
48 20 1
160 20 1
164 20 1
440 20 1
441 20 1
6 21 1
21 21 1
31 21 1
49 21 1
161 21 1
165 21 1
441 21 1
442 21 1
7 22 1
22 22 1
32 22 1
50 22 1
162 22 1
166 22 1
442 22 1
443 22 1
8 23 1
23 23 1
33 23 1
51 23 1
163 23 1
167 23 1
443 23 1
444 23 1
9 24 1
24 24 1
34 24 1
52 24 1
164 24 1
168 24 1
444 24 1
445 24 1
10 25 1
25 25 1
35 25 1
53 25 1
141 25 1
165 25 1
445 25 1
446 25 1
11 26 1
26 26 1
36 26 1
54 26 1
142 26 1
166 26 1
446 26 1
447 26 1
12 27 1
27 27 1
37 27 1
55 27 1
143 27 1
167 27 1
447 27 1
448 27 1
13 28 1
28 28 1
38 28 1
56 28 1
144 28 1
168 28 1
421 28 1
448 28 1
1 29 1
18 29 1
57 29 1
67 29 1
169 29 1
173 29 1
449 29 1
450 29 1
2 30 1
19 30 1
58 30 1
68 30 1
170 30 1
174 30 1
450 30 1
451 30 1
3 31 1
20 31 1
59 31 1
69 31 1
171 31 1
175 31 1
451 31 1
452 31 1
4 32 1
21 32 1
60 32 1
70 32 1
172 32 1
176 32 1
452 32 1
453 32 1
5 33 1
22 33 1
61 33 1
71 33 1
173 33 1
177 33 1
453 33 1
454 33 1
6 34 1
23 34 1
62 34 1
72 34 1
174 34 1
178 34 1
454 34 1
455 34 1
7 35 1
24 35 1
63 35 1
73 35 1
175 35 1
179 35 1
455 35 1
456 35 1
8 36 1
25 36 1
64 36 1
74 36 1
176 36 1
180 36 1
456 36 1
457 36 1
9 37 1
26 37 1
65 37 1
75 37 1
177 37 1
181 37 1
457 37 1
458 37 1
10 38 1
27 38 1
66 38 1
76 38 1
178 38 1
182 38 1
458 38 1
459 38 1
11 39 1
28 39 1
67 39 1
77 39 1
179 39 1
183 39 1
459 39 1
460 39 1
1 40 1
12 40 1
68 40 1
78 40 1
180 40 1
184 40 1
460 40 1
461 40 1
2 41 1
13 41 1
69 41 1
79 41 1
181 41 1
185 41 1
461 41 1
462 41 1
3 42 1
14 42 1
70 42 1
80 42 1
182 42 1
186 42 1
462 42 1
463 42 1
4 43 1
15 43 1
71 43 1
81 43 1
183 43 1
187 43 1
463 43 1
464 43 1
5 44 1
16 44 1
72 44 1
82 44 1
184 44 1
188 44 1
464 44 1
465 44 1
6 45 1
17 45 1
73 45 1
83 45 1
185 45 1
189 45 1
465 45 1
466 45 1
7 46 1
18 46 1
74 46 1
84 46 1
186 46 1
190 46 1
466 46 1
467 46 1
8 47 1
19 47 1
57 47 1
75 47 1
187 47 1
191 47 1
467 47 1
468 47 1
9 48 1
20 48 1
58 48 1
76 48 1
188 48 1
192 48 1
468 48 1
469 48 1
10 49 1
21 49 1
59 49 1
77 49 1
189 49 1
193 49 1
469 49 1
470 49 1
11 50 1
22 50 1
60 50 1
78 50 1
190 50 1
194 50 1
470 50 1
471 50 1
12 51 1
23 51 1
61 51 1
79 51 1
191 51 1
195 51 1
471 51 1
472 51 1
13 52 1
24 52 1
62 52 1
80 52 1
192 52 1
196 52 1
472 52 1
473 52 1
14 53 1
25 53 1
63 53 1
81 53 1
169 53 1
193 53 1
473 53 1
474 53 1
15 54 1
26 54 1
64 54 1
82 54 1
170 54 1
194 54 1
474 54 1
475 54 1
16 55 1
27 55 1
65 55 1
83 55 1
171 55 1
195 55 1
475 55 1
476 55 1
17 56 1
28 56 1
66 56 1
84 56 1
172 56 1
196 56 1
449 56 1
476 56 1
1 57 1
19 57 1
85 57 1
95 57 1
197 57 1
201 57 1
477 57 1
478 57 1
2 58 1
20 58 1
86 58 1
96 58 1
198 58 1
202 58 1
478 58 1
479 58 1
3 59 1
21 59 1
87 59 1
97 59 1
199 59 1
203 59 1
479 59 1
480 59 1
4 60 1
22 60 1
88 60 1
98 60 1
200 60 1
204 60 1
480 60 1
481 60 1
5 61 1
23 61 1
89 61 1
99 61 1
201 61 1
205 61 1
481 61 1
482 61 1
6 62 1
24 62 1
90 62 1
100 62 1
202 62 1
206 62 1
482 62 1
483 62 1
7 63 1
25 63 1
91 63 1
101 63 1
203 63 1
207 63 1
483 63 1
484 63 1
8 64 1
26 64 1
92 64 1
102 64 1
204 64 1
208 64 1
484 64 1
485 64 1
9 65 1
27 65 1
93 65 1
103 65 1
205 65 1
209 65 1
485 65 1
486 65 1
10 66 1
28 66 1
94 66 1
104 66 1
206 66 1
210 66 1
486 66 1
487 66 1
1 67 1
11 67 1
95 67 1
105 67 1
207 67 1
211 67 1
487 67 1
488 67 1
2 68 1
12 68 1
96 68 1
106 68 1
208 68 1
212 68 1
488 68 1
489 68 1
3 69 1
13 69 1
97 69 1
107 69 1
209 69 1
213 69 1
489 69 1
490 69 1
4 70 1
14 70 1
98 70 1
108 70 1
210 70 1
214 70 1
490 70 1
491 70 1
5 71 1
15 71 1
99 71 1
109 71 1
211 71 1
215 71 1
491 71 1
492 71 1
6 72 1
16 72 1
100 72 1
110 72 1
212 72 1
216 72 1
492 72 1
493 72 1
7 73 1
17 73 1
101 73 1
111 73 1
213 73 1
217 73 1
493 73 1
494 73 1
8 74 1
18 74 1
102 74 1
112 74 1
214 74 1
218 74 1
494 74 1
495 74 1
9 75 1
19 75 1
85 75 1
103 75 1
215 75 1
219 75 1
495 75 1
496 75 1
10 76 1
20 76 1
86 76 1
104 76 1
216 76 1
220 76 1
496 76 1
497 76 1
11 77 1
21 77 1
87 77 1
105 77 1
217 77 1
221 77 1
497 77 1
498 77 1
12 78 1
22 78 1
88 78 1
106 78 1
218 78 1
222 78 1
498 78 1
499 78 1
13 79 1
23 79 1
89 79 1
107 79 1
219 79 1
223 79 1
499 79 1
500 79 1
14 80 1
24 80 1
90 80 1
108 80 1
220 80 1
224 80 1
500 80 1
501 80 1
15 81 1
25 81 1
91 81 1
109 81 1
197 81 1
221 81 1
501 81 1
502 81 1
16 82 1
26 82 1
92 82 1
110 82 1
198 82 1
222 82 1
502 82 1
503 82 1
17 83 1
27 83 1
93 83 1
111 83 1
199 83 1
223 83 1
503 83 1
504 83 1
18 84 1
28 84 1
94 84 1
112 84 1
200 84 1
224 84 1
477 84 1
504 84 1
1 85 1
26 85 1
113 85 1
123 85 1
225 85 1
229 85 1
505 85 1
506 85 1
2 86 1
27 86 1
114 86 1
124 86 1
226 86 1
230 86 1
506 86 1
507 86 1
3 87 1
28 87 1
115 87 1
125 87 1
227 87 1
231 87 1
507 87 1
508 87 1
1 88 1
4 88 1
116 88 1
126 88 1
228 88 1
232 88 1
508 88 1
509 88 1
2 89 1
5 89 1
117 89 1
127 89 1
229 89 1
233 89 1
509 89 1
510 89 1
3 90 1
6 90 1
118 90 1
128 90 1
230 90 1
234 90 1
510 90 1
511 90 1
4 91 1
7 91 1
119 91 1
129 91 1
231 91 1
235 91 1
511 91 1
512 91 1
5 92 1
8 92 1
120 92 1
130 92 1
232 92 1
236 92 1
512 92 1
513 92 1
6 93 1
9 93 1
121 93 1
131 93 1
233 93 1
237 93 1
513 93 1
514 93 1
7 94 1
10 94 1
122 94 1
132 94 1
234 94 1
238 94 1
514 94 1
515 94 1
8 95 1
11 95 1
123 95 1
133 95 1
235 95 1
239 95 1
515 95 1
516 95 1
9 96 1
12 96 1
124 96 1
134 96 1
236 96 1
240 96 1
516 96 1
517 96 1
10 97 1
13 97 1
125 97 1
135 97 1
237 97 1
241 97 1
517 97 1
518 97 1
11 98 1
14 98 1
126 98 1
136 98 1
238 98 1
242 98 1
518 98 1
519 98 1
12 99 1
15 99 1
127 99 1
137 99 1
239 99 1
243 99 1
519 99 1
520 99 1
13 100 1
16 100 1
128 100 1
138 100 1
240 100 1
244 100 1
520 100 1
521 100 1
14 101 1
17 101 1
129 101 1
139 101 1
241 101 1
245 101 1
521 101 1
522 101 1
15 102 1
18 102 1
130 102 1
140 102 1
242 102 1
246 102 1
522 102 1
523 102 1
16 103 1
19 103 1
113 103 1
131 103 1
243 103 1
247 103 1
523 103 1
524 103 1
17 104 1
20 104 1
114 104 1
132 104 1
244 104 1
248 104 1
524 104 1
525 104 1
18 105 1
21 105 1
115 105 1
133 105 1
245 105 1
249 105 1
525 105 1
526 105 1
19 106 1
22 106 1
116 106 1
134 106 1
246 106 1
250 106 1
526 106 1
527 106 1
20 107 1
23 107 1
117 107 1
135 107 1
247 107 1
251 107 1
527 107 1
528 107 1
21 108 1
24 108 1
118 108 1
136 108 1
248 108 1
252 108 1
528 108 1
529 108 1
22 109 1
25 109 1
119 109 1
137 109 1
225 109 1
249 109 1
529 109 1
530 109 1
23 110 1
26 110 1
120 110 1
138 110 1
226 110 1
250 110 1
530 110 1
531 110 1
24 111 1
27 111 1
121 111 1
139 111 1
227 111 1
251 111 1
531 111 1
532 111 1
25 112 1
28 112 1
122 112 1
140 112 1
228 112 1
252 112 1
505 112 1
532 112 1
29 113 1
46 113 1
57 113 1
70 113 1
253 113 1
257 113 1
533 113 1
534 113 1
30 114 1
47 114 1
58 114 1
71 114 1
254 114 1
258 114 1
534 114 1
535 114 1
31 115 1
48 115 1
59 115 1
72 115 1
255 115 1
259 115 1
535 115 1
536 115 1
32 116 1
49 116 1
60 116 1
73 116 1
256 116 1
260 116 1
536 116 1
537 116 1
33 117 1
50 117 1
61 117 1
74 117 1
257 117 1
261 117 1
537 117 1
538 117 1
34 118 1
51 118 1
62 118 1
75 118 1
258 118 1
262 118 1
538 118 1
539 118 1
35 119 1
52 119 1
63 119 1
76 119 1
259 119 1
263 119 1
539 119 1
540 119 1
36 120 1
53 120 1
64 120 1
77 120 1
260 120 1
264 120 1
540 120 1
541 120 1
37 121 1
54 121 1
65 121 1
78 121 1
261 121 1
265 121 1
541 121 1
542 121 1
38 122 1
55 122 1
66 122 1
79 122 1
262 122 1
266 122 1
542 122 1
543 122 1
39 123 1
56 123 1
67 123 1
80 123 1
263 123 1
267 123 1
543 123 1
544 123 1
29 124 1
40 124 1
68 124 1
81 124 1
264 124 1
268 124 1
544 124 1
545 124 1
30 125 1
41 125 1
69 125 1
82 125 1
265 125 1
269 125 1
545 125 1
546 125 1
31 126 1
42 126 1
70 126 1
83 126 1
266 126 1
270 126 1
546 126 1
547 126 1
32 127 1
43 127 1
71 127 1
84 127 1
267 127 1
271 127 1
547 127 1
548 127 1
33 128 1
44 128 1
57 128 1
72 128 1
268 128 1
272 128 1
548 128 1
549 128 1
34 129 1
45 129 1
58 129 1
73 129 1
269 129 1
273 129 1
549 129 1
550 129 1
35 130 1
46 130 1
59 130 1
74 130 1
270 130 1
274 130 1
550 130 1
551 130 1
36 131 1
47 131 1
60 131 1
75 131 1
271 131 1
275 131 1
551 131 1
552 131 1
37 132 1
48 132 1
61 132 1
76 132 1
272 132 1
276 132 1
552 132 1
553 132 1
38 133 1
49 133 1
62 133 1
77 133 1
273 133 1
277 133 1
553 133 1
554 133 1
39 134 1
50 134 1
63 134 1
78 134 1
274 134 1
278 134 1
554 134 1
555 134 1
40 135 1
51 135 1
64 135 1
79 135 1
275 135 1
279 135 1
555 135 1
556 135 1
41 136 1
52 136 1
65 136 1
80 136 1
276 136 1
280 136 1
556 136 1
557 136 1
42 137 1
53 137 1
66 137 1
81 137 1
253 137 1
277 137 1
557 137 1
558 137 1
43 138 1
54 138 1
67 138 1
82 138 1
254 138 1
278 138 1
558 138 1
559 138 1
44 139 1
55 139 1
68 139 1
83 139 1
255 139 1
279 139 1
559 139 1
560 139 1
45 140 1
56 140 1
69 140 1
84 140 1
256 140 1
280 140 1
533 140 1
560 140 1
29 141 1
47 141 1
85 141 1
98 141 1
281 141 1
285 141 1
561 141 1
562 141 1
30 142 1
48 142 1
86 142 1
99 142 1
282 142 1
286 142 1
562 142 1
563 142 1
31 143 1
49 143 1
87 143 1
100 143 1
283 143 1
287 143 1
563 143 1
564 143 1
32 144 1
50 144 1
88 144 1
101 144 1
284 144 1
288 144 1
564 144 1
565 144 1
33 145 1
51 145 1
89 145 1
102 145 1
285 145 1
289 145 1
565 145 1
566 145 1
34 146 1
52 146 1
90 146 1
103 146 1
286 146 1
290 146 1
566 146 1
567 146 1
35 147 1
53 147 1
91 147 1
104 147 1
287 147 1
291 147 1
567 147 1
568 147 1
36 148 1
54 148 1
92 148 1
105 148 1
288 148 1
292 148 1
568 148 1
569 148 1
37 149 1
55 149 1
93 149 1
106 149 1
289 149 1
293 149 1
569 149 1
570 149 1
38 150 1
56 150 1
94 150 1
107 150 1
290 150 1
294 150 1
570 150 1
571 150 1
29 151 1
39 151 1
95 151 1
108 151 1
291 151 1
295 151 1
571 151 1
572 151 1
30 152 1
40 152 1
96 152 1
109 152 1
292 152 1
296 152 1
572 152 1
573 152 1
31 153 1
41 153 1
97 153 1
110 153 1
293 153 1
297 153 1
573 153 1
574 153 1
32 154 1
42 154 1
98 154 1
111 154 1
294 154 1
298 154 1
574 154 1
575 154 1
33 155 1
43 155 1
99 155 1
112 155 1
295 155 1
299 155 1
575 155 1
576 155 1
34 156 1
44 156 1
85 156 1
100 156 1
296 156 1
300 156 1
576 156 1
577 156 1
35 157 1
45 157 1
86 157 1
101 157 1
297 157 1
301 157 1
577 157 1
578 157 1
36 158 1
46 158 1
87 158 1
102 158 1
298 158 1
302 158 1
578 158 1
579 158 1
37 159 1
47 159 1
88 159 1
103 159 1
299 159 1
303 159 1
579 159 1
580 159 1
38 160 1
48 160 1
89 160 1
104 160 1
300 160 1
304 160 1
580 160 1
581 160 1
39 161 1
49 161 1
90 161 1
105 161 1
301 161 1
305 161 1
581 161 1
582 161 1
40 162 1
50 162 1
91 162 1
106 162 1
302 162 1
306 162 1
582 162 1
583 162 1
41 163 1
51 163 1
92 163 1
107 163 1
303 163 1
307 163 1
583 163 1
584 163 1
42 164 1
52 164 1
93 164 1
108 164 1
304 164 1
308 164 1
584 164 1
585 164 1
43 165 1
53 165 1
94 165 1
109 165 1
281 165 1
305 165 1
585 165 1
586 165 1
44 166 1
54 166 1
95 166 1
110 166 1
282 166 1
306 166 1
586 166 1
587 166 1
45 167 1
55 167 1
96 167 1
111 167 1
283 167 1
307 167 1
587 167 1
588 167 1
46 168 1
56 168 1
97 168 1
112 168 1
284 168 1
308 168 1
561 168 1
588 168 1
29 169 1
54 169 1
113 169 1
126 169 1
309 169 1
313 169 1
589 169 1
590 169 1
30 170 1
55 170 1
114 170 1
127 170 1
310 170 1
314 170 1
590 170 1
591 170 1
31 171 1
56 171 1
115 171 1
128 171 1
311 171 1
315 171 1
591 171 1
592 171 1
29 172 1
32 172 1
116 172 1
129 172 1
312 172 1
316 172 1
592 172 1
593 172 1
30 173 1
33 173 1
117 173 1
130 173 1
313 173 1
317 173 1
593 173 1
594 173 1
31 174 1
34 174 1
118 174 1
131 174 1
314 174 1
318 174 1
594 174 1
595 174 1
32 175 1
35 175 1
119 175 1
132 175 1
315 175 1
319 175 1
595 175 1
596 175 1
33 176 1
36 176 1
120 176 1
133 176 1
316 176 1
320 176 1
596 176 1
597 176 1
34 177 1
37 177 1
121 177 1
134 177 1
317 177 1
321 177 1
597 177 1
598 177 1
35 178 1
38 178 1
122 178 1
135 178 1
318 178 1
322 178 1
598 178 1
599 178 1
36 179 1
39 179 1
123 179 1
136 179 1
319 179 1
323 179 1
599 179 1
600 179 1
37 180 1
40 180 1
124 180 1
137 180 1
320 180 1
324 180 1
600 180 1
601 180 1
38 181 1
41 181 1
125 181 1
138 181 1
321 181 1
325 181 1
601 181 1
602 181 1
39 182 1
42 182 1
126 182 1
139 182 1
322 182 1
326 182 1
602 182 1
603 182 1
40 183 1
43 183 1
127 183 1
140 183 1
323 183 1
327 183 1
603 183 1
604 183 1
41 184 1
44 184 1
113 184 1
128 184 1
324 184 1
328 184 1
604 184 1
605 184 1
42 185 1
45 185 1
114 185 1
129 185 1
325 185 1
329 185 1
605 185 1
606 185 1
43 186 1
46 186 1
115 186 1
130 186 1
326 186 1
330 186 1
606 186 1
607 186 1
44 187 1
47 187 1
116 187 1
131 187 1
327 187 1
331 187 1
607 187 1
608 187 1
45 188 1
48 188 1
117 188 1
132 188 1
328 188 1
332 188 1
608 188 1
609 188 1
46 189 1
49 189 1
118 189 1
133 189 1
329 189 1
333 189 1
609 189 1
610 189 1
47 190 1
50 190 1
119 190 1
134 190 1
330 190 1
334 190 1
610 190 1
611 190 1
48 191 1
51 191 1
120 191 1
135 191 1
331 191 1
335 191 1
611 191 1
612 191 1
49 192 1
52 192 1
121 192 1
136 192 1
332 192 1
336 192 1
612 192 1
613 192 1
50 193 1
53 193 1
122 193 1
137 193 1
309 193 1
333 193 1
613 193 1
614 193 1
51 194 1
54 194 1
123 194 1
138 194 1
310 194 1
334 194 1
614 194 1
615 194 1
52 195 1
55 195 1
124 195 1
139 195 1
311 195 1
335 195 1
615 195 1
616 195 1
53 196 1
56 196 1
125 196 1
140 196 1
312 196 1
336 196 1
589 196 1
616 196 1
57 197 1
75 197 1
85 197 1
102 197 1
337 197 1
341 197 1
617 197 1
618 197 1
58 198 1
76 198 1
86 198 1
103 198 1
338 198 1
342 198 1
618 198 1
619 198 1
59 199 1
77 199 1
87 199 1
104 199 1
339 199 1
343 199 1
619 199 1
620 199 1
60 200 1
78 200 1
88 200 1
105 200 1
340 200 1
344 200 1
620 200 1
621 200 1
61 201 1
79 201 1
89 201 1
106 201 1
341 201 1
345 201 1
621 201 1
622 201 1
62 202 1
80 202 1
90 202 1
107 202 1
342 202 1
346 202 1
622 202 1
623 202 1
63 203 1
81 203 1
91 203 1
108 203 1
343 203 1
347 203 1
623 203 1
624 203 1
64 204 1
82 204 1
92 204 1
109 204 1
344 204 1
348 204 1
624 204 1
625 204 1
65 205 1
83 205 1
93 205 1
110 205 1
345 205 1
349 205 1
625 205 1
626 205 1
66 206 1
84 206 1
94 206 1
111 206 1
346 206 1
350 206 1
626 206 1
627 206 1
57 207 1
67 207 1
95 207 1
112 207 1
347 207 1
351 207 1
627 207 1
628 207 1
58 208 1
68 208 1
85 208 1
96 208 1
348 208 1
352 208 1
628 208 1
629 208 1
59 209 1
69 209 1
86 209 1
97 209 1
349 209 1
353 209 1
629 209 1
630 209 1
60 210 1
70 210 1
87 210 1
98 210 1
350 210 1
354 210 1
630 210 1
631 210 1
61 211 1
71 211 1
88 211 1
99 211 1
351 211 1
355 211 1
631 211 1
632 211 1
62 212 1
72 212 1
89 212 1
100 212 1
352 212 1
356 212 1
632 212 1
633 212 1
63 213 1
73 213 1
90 213 1
101 213 1
353 213 1
357 213 1
633 213 1
634 213 1
64 214 1
74 214 1
91 214 1
102 214 1
354 214 1
358 214 1
634 214 1
635 214 1
65 215 1
75 215 1
92 215 1
103 215 1
355 215 1
359 215 1
635 215 1
636 215 1
66 216 1
76 216 1
93 216 1
104 216 1
356 216 1
360 216 1
636 216 1
637 216 1
67 217 1
77 217 1
94 217 1
105 217 1
357 217 1
361 217 1
637 217 1
638 217 1
68 218 1
78 218 1
95 218 1
106 218 1
358 218 1
362 218 1
638 218 1
639 218 1
69 219 1
79 219 1
96 219 1
107 219 1
359 219 1
363 219 1
639 219 1
640 219 1
70 220 1
80 220 1
97 220 1
108 220 1
360 220 1
364 220 1
640 220 1
641 220 1
71 221 1
81 221 1
98 221 1
109 221 1
337 221 1
361 221 1
641 221 1
642 221 1
72 222 1
82 222 1
99 222 1
110 222 1
338 222 1
362 222 1
642 222 1
643 222 1
73 223 1
83 223 1
100 223 1
111 223 1
339 223 1
363 223 1
643 223 1
644 223 1
74 224 1
84 224 1
101 224 1
112 224 1
340 224 1
364 224 1
617 224 1
644 224 1
57 225 1
82 225 1
113 225 1
130 225 1
365 225 1
369 225 1
645 225 1
646 225 1
58 226 1
83 226 1
114 226 1
131 226 1
366 226 1
370 226 1
646 226 1
647 226 1
59 227 1
84 227 1
115 227 1
132 227 1
367 227 1
371 227 1
647 227 1
648 227 1
57 228 1
60 228 1
116 228 1
133 228 1
368 228 1
372 228 1
648 228 1
649 228 1
58 229 1
61 229 1
117 229 1
134 229 1
369 229 1
373 229 1
649 229 1
650 229 1
59 230 1
62 230 1
118 230 1
135 230 1
370 230 1
374 230 1
650 230 1
651 230 1
60 231 1
63 231 1
119 231 1
136 231 1
371 231 1
375 231 1
651 231 1
652 231 1
61 232 1
64 232 1
120 232 1
137 232 1
372 232 1
376 232 1
652 232 1
653 232 1
62 233 1
65 233 1
121 233 1
138 233 1
373 233 1
377 233 1
653 233 1
654 233 1
63 234 1
66 234 1
122 234 1
139 234 1
374 234 1
378 234 1
654 234 1
655 234 1
64 235 1
67 235 1
123 235 1
140 235 1
375 235 1
379 235 1
655 235 1
656 235 1
65 236 1
68 236 1
113 236 1
124 236 1
376 236 1
380 236 1
656 236 1
657 236 1
66 237 1
69 237 1
114 237 1
125 237 1
377 237 1
381 237 1
657 237 1
658 237 1
67 238 1
70 238 1
115 238 1
126 238 1
378 238 1
382 238 1
658 238 1
659 238 1
68 239 1
71 239 1
116 239 1
127 239 1
379 239 1
383 239 1
659 239 1
660 239 1
69 240 1
72 240 1
117 240 1
128 240 1
380 240 1
384 240 1
660 240 1
661 240 1
70 241 1
73 241 1
118 241 1
129 241 1
381 241 1
385 241 1
661 241 1
662 241 1
71 242 1
74 242 1
119 242 1
130 242 1
382 242 1
386 242 1
662 242 1
663 242 1
72 243 1
75 243 1
120 243 1
131 243 1
383 243 1
387 243 1
663 243 1
664 243 1
73 244 1
76 244 1
121 244 1
132 244 1
384 244 1
388 244 1
664 244 1
665 244 1
74 245 1
77 245 1
122 245 1
133 245 1
385 245 1
389 245 1
665 245 1
666 245 1
75 246 1
78 246 1
123 246 1
134 246 1
386 246 1
390 246 1
666 246 1
667 246 1
76 247 1
79 247 1
124 247 1
135 247 1
387 247 1
391 247 1
667 247 1
668 247 1
77 248 1
80 248 1
125 248 1
136 248 1
388 248 1
392 248 1
668 248 1
669 248 1
78 249 1
81 249 1
126 249 1
137 249 1
365 249 1
389 249 1
669 249 1
670 249 1
79 250 1
82 250 1
127 250 1
138 250 1
366 250 1
390 250 1
670 250 1
671 250 1
80 251 1
83 251 1
128 251 1
139 251 1
367 251 1
391 251 1
671 251 1
672 251 1
81 252 1
84 252 1
129 252 1
140 252 1
368 252 1
392 252 1
645 252 1
672 252 1
85 253 1
110 253 1
113 253 1
131 253 1
393 253 1
397 253 1
673 253 1
674 253 1
86 254 1
111 254 1
114 254 1
132 254 1
394 254 1
398 254 1
674 254 1
675 254 1
87 255 1
112 255 1
115 255 1
133 255 1
395 255 1
399 255 1
675 255 1
676 255 1
85 256 1
88 256 1
116 256 1
134 256 1
396 256 1
400 256 1
676 256 1
677 256 1
86 257 1
89 257 1
117 257 1
135 257 1
397 257 1
401 257 1
677 257 1
678 257 1
87 258 1
90 258 1
118 258 1
136 258 1
398 258 1
402 258 1
678 258 1
679 258 1
88 259 1
91 259 1
119 259 1
137 259 1
399 259 1
403 259 1
679 259 1
680 259 1
89 260 1
92 260 1
120 260 1
138 260 1
400 260 1
404 260 1
680 260 1
681 260 1
90 261 1
93 261 1
121 261 1
139 261 1
401 261 1
405 261 1
681 261 1
682 261 1
91 262 1
94 262 1
122 262 1
140 262 1
402 262 1
406 262 1
682 262 1
683 262 1
92 263 1
95 263 1
113 263 1
123 263 1
403 263 1
407 263 1
683 263 1
684 263 1
93 264 1
96 264 1
114 264 1
124 264 1
404 264 1
408 264 1
684 264 1
685 264 1
94 265 1
97 265 1
115 265 1
125 265 1
405 265 1
409 265 1
685 265 1
686 265 1
95 266 1
98 266 1
116 266 1
126 266 1
406 266 1
410 266 1
686 266 1
687 266 1
96 267 1
99 267 1
117 267 1
127 267 1
407 267 1
411 267 1
687 267 1
688 267 1
97 268 1
100 268 1
118 268 1
128 268 1
408 268 1
412 268 1
688 268 1
689 268 1
98 269 1
101 269 1
119 269 1
129 269 1
409 269 1
413 269 1
689 269 1
690 269 1
99 270 1
102 270 1
120 270 1
130 270 1
410 270 1
414 270 1
690 270 1
691 270 1
100 271 1
103 271 1
121 271 1
131 271 1
411 271 1
415 271 1
691 271 1
692 271 1
101 272 1
104 272 1
122 272 1
132 272 1
412 272 1
416 272 1
692 272 1
693 272 1
102 273 1
105 273 1
123 273 1
133 273 1
413 273 1
417 273 1
693 273 1
694 273 1
103 274 1
106 274 1
124 274 1
134 274 1
414 274 1
418 274 1
694 274 1
695 274 1
104 275 1
107 275 1
125 275 1
135 275 1
415 275 1
419 275 1
695 275 1
696 275 1
105 276 1
108 276 1
126 276 1
136 276 1
416 276 1
420 276 1
696 276 1
697 276 1
106 277 1
109 277 1
127 277 1
137 277 1
393 277 1
417 277 1
697 277 1
698 277 1
107 278 1
110 278 1
128 278 1
138 278 1
394 278 1
418 278 1
698 278 1
699 278 1
108 279 1
111 279 1
129 279 1
139 279 1
395 279 1
419 279 1
699 279 1
700 279 1
109 280 1
112 280 1
130 280 1
140 280 1
396 280 1
420 280 1
673 280 1
700 280 1
141 281 1
158 281 1
169 281 1
182 281 1
253 281 1
263 281 1
701 281 1
702 281 1
142 282 1
159 282 1
170 282 1
183 282 1
254 282 1
264 282 1
702 282 1
703 282 1
143 283 1
160 283 1
171 283 1
184 283 1
255 283 1
265 283 1
703 283 1
704 283 1
144 284 1
161 284 1
172 284 1
185 284 1
256 284 1
266 284 1
704 284 1
705 284 1
145 285 1
162 285 1
173 285 1
186 285 1
257 285 1
267 285 1
705 285 1
706 285 1
146 286 1
163 286 1
174 286 1
187 286 1
258 286 1
268 286 1
706 286 1
707 286 1
147 287 1
164 287 1
175 287 1
188 287 1
259 287 1
269 287 1
707 287 1
708 287 1
148 288 1
165 288 1
176 288 1
189 288 1
260 288 1
270 288 1
708 288 1
709 288 1
149 289 1
166 289 1
177 289 1
190 289 1
261 289 1
271 289 1
709 289 1
710 289 1
150 290 1
167 290 1
178 290 1
191 290 1
262 290 1
272 290 1
710 290 1
711 290 1
151 291 1
168 291 1
179 291 1
192 291 1
263 291 1
273 291 1
711 291 1
712 291 1
141 292 1
152 292 1
180 292 1
193 292 1
264 292 1
274 292 1
712 292 1
713 292 1
142 293 1
153 293 1
181 293 1
194 293 1
265 293 1
275 293 1
713 293 1
714 293 1
143 294 1
154 294 1
182 294 1
195 294 1
266 294 1
276 294 1
714 294 1
715 294 1
144 295 1
155 295 1
183 295 1
196 295 1
267 295 1
277 295 1
715 295 1
716 295 1
145 296 1
156 296 1
169 296 1
184 296 1
268 296 1
278 296 1
716 296 1
717 296 1
146 297 1
157 297 1
170 297 1
185 297 1
269 297 1
279 297 1
717 297 1
718 297 1
147 298 1
158 298 1
171 298 1
186 298 1
270 298 1
280 298 1
718 298 1
719 298 1
148 299 1
159 299 1
172 299 1
187 299 1
253 299 1
271 299 1
719 299 1
720 299 1
149 300 1
160 300 1
173 300 1
188 300 1
254 300 1
272 300 1
720 300 1
721 300 1
150 301 1
161 301 1
174 301 1
189 301 1
255 301 1
273 301 1
721 301 1
722 301 1
151 302 1
162 302 1
175 302 1
190 302 1
256 302 1
274 302 1
722 302 1
723 302 1
152 303 1
163 303 1
176 303 1
191 303 1
257 303 1
275 303 1
723 303 1
724 303 1
153 304 1
164 304 1
177 304 1
192 304 1
258 304 1
276 304 1
724 304 1
725 304 1
154 305 1
165 305 1
178 305 1
193 305 1
259 305 1
277 305 1
725 305 1
726 305 1
155 306 1
166 306 1
179 306 1
194 306 1
260 306 1
278 306 1
726 306 1
727 306 1
156 307 1
167 307 1
180 307 1
195 307 1
261 307 1
279 307 1
727 307 1
728 307 1
157 308 1
168 308 1
181 308 1
196 308 1
262 308 1
280 308 1
701 308 1
728 308 1
141 309 1
159 309 1
197 309 1
210 309 1
281 309 1
291 309 1
729 309 1
730 309 1
142 310 1
160 310 1
198 310 1
211 310 1
282 310 1
292 310 1
730 310 1
731 310 1
143 311 1
161 311 1
199 311 1
212 311 1
283 311 1
293 311 1
731 311 1
732 311 1
144 312 1
162 312 1
200 312 1
213 312 1
284 312 1
294 312 1
732 312 1
733 312 1
145 313 1
163 313 1
201 313 1
214 313 1
285 313 1
295 313 1
733 313 1
734 313 1
146 314 1
164 314 1
202 314 1
215 314 1
286 314 1
296 314 1
734 314 1
735 314 1
147 315 1
165 315 1
203 315 1
216 315 1
287 315 1
297 315 1
735 315 1
736 315 1
148 316 1
166 316 1
204 316 1
217 316 1
288 316 1
298 316 1
736 316 1
737 316 1
149 317 1
167 317 1
205 317 1
218 317 1
289 317 1
299 317 1
737 317 1
738 317 1
150 318 1
168 318 1
206 318 1
219 318 1
290 318 1
300 318 1
738 318 1
739 318 1
141 319 1
151 319 1
207 319 1
220 319 1
291 319 1
301 319 1
739 319 1
740 319 1
142 320 1
152 320 1
208 320 1
221 320 1
292 320 1
302 320 1
740 320 1
741 320 1
143 321 1
153 321 1
209 321 1
222 321 1
293 321 1
303 321 1
741 321 1
742 321 1
144 322 1
154 322 1
210 322 1
223 322 1
294 322 1
304 322 1
742 322 1
743 322 1
145 323 1
155 323 1
211 323 1
224 323 1
295 323 1
305 323 1
743 323 1
744 323 1
146 324 1
156 324 1
197 324 1
212 324 1
296 324 1
306 324 1
744 324 1
745 324 1
147 325 1
157 325 1
198 325 1
213 325 1
297 325 1
307 325 1
745 325 1
746 325 1
148 326 1
158 326 1
199 326 1
214 326 1
298 326 1
308 326 1
746 326 1
747 326 1
149 327 1
159 327 1
200 327 1
215 327 1
281 327 1
299 327 1
747 327 1
748 327 1
150 328 1
160 328 1
201 328 1
216 328 1
282 328 1
300 328 1
748 328 1
749 328 1
151 329 1
161 329 1
202 329 1
217 329 1
283 329 1
301 329 1
749 329 1
750 329 1
152 330 1
162 330 1
203 330 1
218 330 1
284 330 1
302 330 1
750 330 1
751 330 1
153 331 1
163 331 1
204 331 1
219 331 1
285 331 1
303 331 1
751 331 1
752 331 1
154 332 1
164 332 1
205 332 1
220 332 1
286 332 1
304 332 1
752 332 1
753 332 1
155 333 1
165 333 1
206 333 1
221 333 1
287 333 1
305 333 1
753 333 1
754 333 1
156 334 1
166 334 1
207 334 1
222 334 1
288 334 1
306 334 1
754 334 1
755 334 1
157 335 1
167 335 1
208 335 1
223 335 1
289 335 1
307 335 1
755 335 1
756 335 1
158 336 1
168 336 1
209 336 1
224 336 1
290 336 1
308 336 1
729 336 1
756 336 1
141 337 1
166 337 1
225 337 1
238 337 1
309 337 1
319 337 1
757 337 1
758 337 1
142 338 1
167 338 1
226 338 1
239 338 1
310 338 1
320 338 1
758 338 1
759 338 1
143 339 1
168 339 1
227 339 1
240 339 1
311 339 1
321 339 1
759 339 1
760 339 1
141 340 1
144 340 1
228 340 1
241 340 1
312 340 1
322 340 1
760 340 1
761 340 1
142 341 1
145 341 1
229 341 1
242 341 1
313 341 1
323 341 1
761 341 1
762 341 1
143 342 1
146 342 1
230 342 1
243 342 1
314 342 1
324 342 1
762 342 1
763 342 1
144 343 1
147 343 1
231 343 1
244 343 1
315 343 1
325 343 1
763 343 1
764 343 1
145 344 1
148 344 1
232 344 1
245 344 1
316 344 1
326 344 1
764 344 1
765 344 1
146 345 1
149 345 1
233 345 1
246 345 1
317 345 1
327 345 1
765 345 1
766 345 1
147 346 1
150 346 1
234 346 1
247 346 1
318 346 1
328 346 1
766 346 1
767 346 1
148 347 1
151 347 1
235 347 1
248 347 1
319 347 1
329 347 1
767 347 1
768 347 1
149 348 1
152 348 1
236 348 1
249 348 1
320 348 1
330 348 1
768 348 1
769 348 1
150 349 1
153 349 1
237 349 1
250 349 1
321 349 1
331 349 1
769 349 1
770 349 1
151 350 1
154 350 1
238 350 1
251 350 1
322 350 1
332 350 1
770 350 1
771 350 1
152 351 1
155 351 1
239 351 1
252 351 1
323 351 1
333 351 1
771 351 1
772 351 1
153 352 1
156 352 1
225 352 1
240 352 1
324 352 1
334 352 1
772 352 1
773 352 1
154 353 1
157 353 1
226 353 1
241 353 1
325 353 1
335 353 1
773 353 1
774 353 1
155 354 1
158 354 1
227 354 1
242 354 1
326 354 1
336 354 1
774 354 1
775 354 1
156 355 1
159 355 1
228 355 1
243 355 1
309 355 1
327 355 1
775 355 1
776 355 1
157 356 1
160 356 1
229 356 1
244 356 1
310 356 1
328 356 1
776 356 1
777 356 1
158 357 1
161 357 1
230 357 1
245 357 1
311 357 1
329 357 1
777 357 1
778 357 1
159 358 1
162 358 1
231 358 1
246 358 1
312 358 1
330 358 1
778 358 1
779 358 1
160 359 1
163 359 1
232 359 1
247 359 1
313 359 1
331 359 1
779 359 1
780 359 1
161 360 1
164 360 1
233 360 1
248 360 1
314 360 1
332 360 1
780 360 1
781 360 1
162 361 1
165 361 1
234 361 1
249 361 1
315 361 1
333 361 1
781 361 1
782 361 1
163 362 1
166 362 1
235 362 1
250 362 1
316 362 1
334 362 1
782 362 1
783 362 1
164 363 1
167 363 1
236 363 1
251 363 1
317 363 1
335 363 1
783 363 1
784 363 1
165 364 1
168 364 1
237 364 1
252 364 1
318 364 1
336 364 1
757 364 1
784 364 1
169 365 1
187 365 1
197 365 1
214 365 1
337 365 1
347 365 1
785 365 1
786 365 1
170 366 1
188 366 1
198 366 1
215 366 1
338 366 1
348 366 1
786 366 1
787 366 1
171 367 1
189 367 1
199 367 1
216 367 1
339 367 1
349 367 1
787 367 1
788 367 1
172 368 1
190 368 1
200 368 1
217 368 1
340 368 1
350 368 1
788 368 1
789 368 1
173 369 1
191 369 1
201 369 1
218 369 1
341 369 1
351 369 1
789 369 1
790 369 1
174 370 1
192 370 1
202 370 1
219 370 1
342 370 1
352 370 1
790 370 1
791 370 1
175 371 1
193 371 1
203 371 1
220 371 1
343 371 1
353 371 1
791 371 1
792 371 1
176 372 1
194 372 1
204 372 1
221 372 1
344 372 1
354 372 1
792 372 1
793 372 1
177 373 1
195 373 1
205 373 1
222 373 1
345 373 1
355 373 1
793 373 1
794 373 1
178 374 1
196 374 1
206 374 1
223 374 1
346 374 1
356 374 1
794 374 1
795 374 1
169 375 1
179 375 1
207 375 1
224 375 1
347 375 1
357 375 1
795 375 1
796 375 1
170 376 1
180 376 1
197 376 1
208 376 1
348 376 1
358 376 1
796 376 1
797 376 1
171 377 1
181 377 1
198 377 1
209 377 1
349 377 1
359 377 1
797 377 1
798 377 1
172 378 1
182 378 1
199 378 1
210 378 1
350 378 1
360 378 1
798 378 1
799 378 1
173 379 1
183 379 1
200 379 1
211 379 1
351 379 1
361 379 1
799 379 1
800 379 1
174 380 1
184 380 1
201 380 1
212 380 1
352 380 1
362 380 1
800 380 1
801 380 1
175 381 1
185 381 1
202 381 1
213 381 1
353 381 1
363 381 1
801 381 1
802 381 1
176 382 1
186 382 1
203 382 1
214 382 1
354 382 1
364 382 1
802 382 1
803 382 1
177 383 1
187 383 1
204 383 1
215 383 1
337 383 1
355 383 1
803 383 1
804 383 1
178 384 1
188 384 1
205 384 1
216 384 1
338 384 1
356 384 1
804 384 1
805 384 1
179 385 1
189 385 1
206 385 1
217 385 1
339 385 1
357 385 1
805 385 1
806 385 1
180 386 1
190 386 1
207 386 1
218 386 1
340 386 1
358 386 1
806 386 1
807 386 1
181 387 1
191 387 1
208 387 1
219 387 1
341 387 1
359 387 1
807 387 1
808 387 1
182 388 1
192 388 1
209 388 1
220 388 1
342 388 1
360 388 1
808 388 1
809 388 1
183 389 1
193 389 1
210 389 1
221 389 1
343 389 1
361 389 1
809 389 1
810 389 1
184 390 1
194 390 1
211 390 1
222 390 1
344 390 1
362 390 1
810 390 1
811 390 1
185 391 1
195 391 1
212 391 1
223 391 1
345 391 1
363 391 1
811 391 1
812 391 1
186 392 1
196 392 1
213 392 1
224 392 1
346 392 1
364 392 1
785 392 1
812 392 1
169 393 1
194 393 1
225 393 1
242 393 1
365 393 1
375 393 1
813 393 1
814 393 1
170 394 1
195 394 1
226 394 1
243 394 1
366 394 1
376 394 1
814 394 1
815 394 1
171 395 1
196 395 1
227 395 1
244 395 1
367 395 1
377 395 1
815 395 1
816 395 1
169 396 1
172 396 1
228 396 1
245 396 1
368 396 1
378 396 1
816 396 1
817 396 1
170 397 1
173 397 1
229 397 1
246 397 1
369 397 1
379 397 1
817 397 1
818 397 1
171 398 1
174 398 1
230 398 1
247 398 1
370 398 1
380 398 1
818 398 1
819 398 1
172 399 1
175 399 1
231 399 1
248 399 1
371 399 1
381 399 1
819 399 1
820 399 1
173 400 1
176 400 1
232 400 1
249 400 1
372 400 1
382 400 1
820 400 1
821 400 1
174 401 1
177 401 1
233 401 1
250 401 1
373 401 1
383 401 1
821 401 1
822 401 1
175 402 1
178 402 1
234 402 1
251 402 1
374 402 1
384 402 1
822 402 1
823 402 1
176 403 1
179 403 1
235 403 1
252 403 1
375 403 1
385 403 1
823 403 1
824 403 1
177 404 1
180 404 1
225 404 1
236 404 1
376 404 1
386 404 1
824 404 1
825 404 1
178 405 1
181 405 1
226 405 1
237 405 1
377 405 1
387 405 1
825 405 1
826 405 1
179 406 1
182 406 1
227 406 1
238 406 1
378 406 1
388 406 1
826 406 1
827 406 1
180 407 1
183 407 1
228 407 1
239 407 1
379 407 1
389 407 1
827 407 1
828 407 1
181 408 1
184 408 1
229 408 1
240 408 1
380 408 1
390 408 1
828 408 1
829 408 1
182 409 1
185 409 1
230 409 1
241 409 1
381 409 1
391 409 1
829 409 1
830 409 1
183 410 1
186 410 1
231 410 1
242 410 1
382 410 1
392 410 1
830 410 1
831 410 1
184 411 1
187 411 1
232 411 1
243 411 1
365 411 1
383 411 1
831 411 1
832 411 1
185 412 1
188 412 1
233 412 1
244 412 1
366 412 1
384 412 1
832 412 1
833 412 1
186 413 1
189 413 1
234 413 1
245 413 1
367 413 1
385 413 1
833 413 1
834 413 1
187 414 1
190 414 1
235 414 1
246 414 1
368 414 1
386 414 1
834 414 1
835 414 1
188 415 1
191 415 1
236 415 1
247 415 1
369 415 1
387 415 1
835 415 1
836 415 1
189 416 1
192 416 1
237 416 1
248 416 1
370 416 1
388 416 1
836 416 1
837 416 1
190 417 1
193 417 1
238 417 1
249 417 1
371 417 1
389 417 1
837 417 1
838 417 1
191 418 1
194 418 1
239 418 1
250 418 1
372 418 1
390 418 1
838 418 1
839 418 1
192 419 1
195 419 1
240 419 1
251 419 1
373 419 1
391 419 1
839 419 1
840 419 1
193 420 1
196 420 1
241 420 1
252 420 1
374 420 1
392 420 1
813 420 1
840 420 1
197 421 1
222 421 1
225 421 1
243 421 1
393 421 1
403 421 1
841 421 1
842 421 1
198 422 1
223 422 1
226 422 1
244 422 1
394 422 1
404 422 1
842 422 1
843 422 1
199 423 1
224 423 1
227 423 1
245 423 1
395 423 1
405 423 1
843 423 1
844 423 1
197 424 1
200 424 1
228 424 1
246 424 1
396 424 1
406 424 1
844 424 1
845 424 1
198 425 1
201 425 1
229 425 1
247 425 1
397 425 1
407 425 1
845 425 1
846 425 1
199 426 1
202 426 1
230 426 1
248 426 1
398 426 1
408 426 1
846 426 1
847 426 1
200 427 1
203 427 1
231 427 1
249 427 1
399 427 1
409 427 1
847 427 1
848 427 1
201 428 1
204 428 1
232 428 1
250 428 1
400 428 1
410 428 1
848 428 1
849 428 1
202 429 1
205 429 1
233 429 1
251 429 1
401 429 1
411 429 1
849 429 1
850 429 1
203 430 1
206 430 1
234 430 1
252 430 1
402 430 1
412 430 1
850 430 1
851 430 1
204 431 1
207 431 1
225 431 1
235 431 1
403 431 1
413 431 1
851 431 1
852 431 1
205 432 1
208 432 1
226 432 1
236 432 1
404 432 1
414 432 1
852 432 1
853 432 1
206 433 1
209 433 1
227 433 1
237 433 1
405 433 1
415 433 1
853 433 1
854 433 1
207 434 1
210 434 1
228 434 1
238 434 1
406 434 1
416 434 1
854 434 1
855 434 1
208 435 1
211 435 1
229 435 1
239 435 1
407 435 1
417 435 1
855 435 1
856 435 1
209 436 1
212 436 1
230 436 1
240 436 1
408 436 1
418 436 1
856 436 1
857 436 1
210 437 1
213 437 1
231 437 1
241 437 1
409 437 1
419 437 1
857 437 1
858 437 1
211 438 1
214 438 1
232 438 1
242 438 1
410 438 1
420 438 1
858 438 1
859 438 1
212 439 1
215 439 1
233 439 1
243 439 1
393 439 1
411 439 1
859 439 1
860 439 1
213 440 1
216 440 1
234 440 1
244 440 1
394 440 1
412 440 1
860 440 1
861 440 1
214 441 1
217 441 1
235 441 1
245 441 1
395 441 1
413 441 1
861 441 1
862 441 1
215 442 1
218 442 1
236 442 1
246 442 1
396 442 1
414 442 1
862 442 1
863 442 1
216 443 1
219 443 1
237 443 1
247 443 1
397 443 1
415 443 1
863 443 1
864 443 1
217 444 1
220 444 1
238 444 1
248 444 1
398 444 1
416 444 1
864 444 1
865 444 1
218 445 1
221 445 1
239 445 1
249 445 1
399 445 1
417 445 1
865 445 1
866 445 1
219 446 1
222 446 1
240 446 1
250 446 1
400 446 1
418 446 1
866 446 1
867 446 1
220 447 1
223 447 1
241 447 1
251 447 1
401 447 1
419 447 1
867 447 1
868 447 1
221 448 1
224 448 1
242 448 1
252 448 1
402 448 1
420 448 1
841 448 1
868 448 1
253 449 1
271 449 1
281 449 1
298 449 1
337 449 1
350 449 1
869 449 1
870 449 1
254 450 1
272 450 1
282 450 1
299 450 1
338 450 1
351 450 1
870 450 1
871 450 1
255 451 1
273 451 1
283 451 1
300 451 1
339 451 1
352 451 1
871 451 1
872 451 1
256 452 1
274 452 1
284 452 1
301 452 1
340 452 1
353 452 1
872 452 1
873 452 1
257 453 1
275 453 1
285 453 1
302 453 1
341 453 1
354 453 1
873 453 1
874 453 1
258 454 1
276 454 1
286 454 1
303 454 1
342 454 1
355 454 1
874 454 1
875 454 1
259 455 1
277 455 1
287 455 1
304 455 1
343 455 1
356 455 1
875 455 1
876 455 1
260 456 1
278 456 1
288 456 1
305 456 1
344 456 1
357 456 1
876 456 1
877 456 1
261 457 1
279 457 1
289 457 1
306 457 1
345 457 1
358 457 1
877 457 1
878 457 1
262 458 1
280 458 1
290 458 1
307 458 1
346 458 1
359 458 1
878 458 1
879 458 1
253 459 1
263 459 1
291 459 1
308 459 1
347 459 1
360 459 1
879 459 1
880 459 1
254 460 1
264 460 1
281 460 1
292 460 1
348 460 1
361 460 1
880 460 1
881 460 1
255 461 1
265 461 1
282 461 1
293 461 1
349 461 1
362 461 1
881 461 1
882 461 1
256 462 1
266 462 1
283 462 1
294 462 1
350 462 1
363 462 1
882 462 1
883 462 1
257 463 1
267 463 1
284 463 1
295 463 1
351 463 1
364 463 1
883 463 1
884 463 1
258 464 1
268 464 1
285 464 1
296 464 1
337 464 1
352 464 1
884 464 1
885 464 1
259 465 1
269 465 1
286 465 1
297 465 1
338 465 1
353 465 1
885 465 1
886 465 1
260 466 1
270 466 1
287 466 1
298 466 1
339 466 1
354 466 1
886 466 1
887 466 1
261 467 1
271 467 1
288 467 1
299 467 1
340 467 1
355 467 1
887 467 1
888 467 1
262 468 1
272 468 1
289 468 1
300 468 1
341 468 1
356 468 1
888 468 1
889 468 1
263 469 1
273 469 1
290 469 1
301 469 1
342 469 1
357 469 1
889 469 1
890 469 1
264 470 1
274 470 1
291 470 1
302 470 1
343 470 1
358 470 1
890 470 1
891 470 1
265 471 1
275 471 1
292 471 1
303 471 1
344 471 1
359 471 1
891 471 1
892 471 1
266 472 1
276 472 1
293 472 1
304 472 1
345 472 1
360 472 1
892 472 1
893 472 1
267 473 1
277 473 1
294 473 1
305 473 1
346 473 1
361 473 1
893 473 1
894 473 1
268 474 1
278 474 1
295 474 1
306 474 1
347 474 1
362 474 1
894 474 1
895 474 1
269 475 1
279 475 1
296 475 1
307 475 1
348 475 1
363 475 1
895 475 1
896 475 1
270 476 1
280 476 1
297 476 1
308 476 1
349 476 1
364 476 1
869 476 1
896 476 1
253 477 1
278 477 1
309 477 1
326 477 1
365 477 1
378 477 1
897 477 1
898 477 1
254 478 1
279 478 1
310 478 1
327 478 1
366 478 1
379 478 1
898 478 1
899 478 1
255 479 1
280 479 1
311 479 1
328 479 1
367 479 1
380 479 1
899 479 1
900 479 1
253 480 1
256 480 1
312 480 1
329 480 1
368 480 1
381 480 1
900 480 1
901 480 1
254 481 1
257 481 1
313 481 1
330 481 1
369 481 1
382 481 1
901 481 1
902 481 1
255 482 1
258 482 1
314 482 1
331 482 1
370 482 1
383 482 1
902 482 1
903 482 1
256 483 1
259 483 1
315 483 1
332 483 1
371 483 1
384 483 1
903 483 1
904 483 1
257 484 1
260 484 1
316 484 1
333 484 1
372 484 1
385 484 1
904 484 1
905 484 1
258 485 1
261 485 1
317 485 1
334 485 1
373 485 1
386 485 1
905 485 1
906 485 1
259 486 1
262 486 1
318 486 1
335 486 1
374 486 1
387 486 1
906 486 1
907 486 1
260 487 1
263 487 1
319 487 1
336 487 1
375 487 1
388 487 1
907 487 1
908 487 1
261 488 1
264 488 1
309 488 1
320 488 1
376 488 1
389 488 1
908 488 1
909 488 1
262 489 1
265 489 1
310 489 1
321 489 1
377 489 1
390 489 1
909 489 1
910 489 1
263 490 1
266 490 1
311 490 1
322 490 1
378 490 1
391 490 1
910 490 1
911 490 1
264 491 1
267 491 1
312 491 1
323 491 1
379 491 1
392 491 1
911 491 1
912 491 1
265 492 1
268 492 1
313 492 1
324 492 1
365 492 1
380 492 1
912 492 1
913 492 1
266 493 1
269 493 1
314 493 1
325 493 1
366 493 1
381 493 1
913 493 1
914 493 1
267 494 1
270 494 1
315 494 1
326 494 1
367 494 1
382 494 1
914 494 1
915 494 1
268 495 1
271 495 1
316 495 1
327 495 1
368 495 1
383 495 1
915 495 1
916 495 1
269 496 1
272 496 1
317 496 1
328 496 1
369 496 1
384 496 1
916 496 1
917 496 1
270 497 1
273 497 1
318 497 1
329 497 1
370 497 1
385 497 1
917 497 1
918 497 1
271 498 1
274 498 1
319 498 1
330 498 1
371 498 1
386 498 1
918 498 1
919 498 1
272 499 1
275 499 1
320 499 1
331 499 1
372 499 1
387 499 1
919 499 1
920 499 1
273 500 1
276 500 1
321 500 1
332 500 1
373 500 1
388 500 1
920 500 1
921 500 1
274 501 1
277 501 1
322 501 1
333 501 1
374 501 1
389 501 1
921 501 1
922 501 1
275 502 1
278 502 1
323 502 1
334 502 1
375 502 1
390 502 1
922 502 1
923 502 1
276 503 1
279 503 1
324 503 1
335 503 1
376 503 1
391 503 1
923 503 1
924 503 1
277 504 1
280 504 1
325 504 1
336 504 1
377 504 1
392 504 1
897 504 1
924 504 1
281 505 1
306 505 1
309 505 1
327 505 1
393 505 1
406 505 1
925 505 1
926 505 1
282 506 1
307 506 1
310 506 1
328 506 1
394 506 1
407 506 1
926 506 1
927 506 1
283 507 1
308 507 1
311 507 1
329 507 1
395 507 1
408 507 1
927 507 1
928 507 1
281 508 1
284 508 1
312 508 1
330 508 1
396 508 1
409 508 1
928 508 1
929 508 1
282 509 1
285 509 1
313 509 1
331 509 1
397 509 1
410 509 1
929 509 1
930 509 1
283 510 1
286 510 1
314 510 1
332 510 1
398 510 1
411 510 1
930 510 1
931 510 1
284 511 1
287 511 1
315 511 1
333 511 1
399 511 1
412 511 1
931 511 1
932 511 1
285 512 1
288 512 1
316 512 1
334 512 1
400 512 1
413 512 1
932 512 1
933 512 1
286 513 1
289 513 1
317 513 1
335 513 1
401 513 1
414 513 1
933 513 1
934 513 1
287 514 1
290 514 1
318 514 1
336 514 1
402 514 1
415 514 1
934 514 1
935 514 1
288 515 1
291 515 1
309 515 1
319 515 1
403 515 1
416 515 1
935 515 1
936 515 1
289 516 1
292 516 1
310 516 1
320 516 1
404 516 1
417 516 1
936 516 1
937 516 1
290 517 1
293 517 1
311 517 1
321 517 1
405 517 1
418 517 1
937 517 1
938 517 1
291 518 1
294 518 1
312 518 1
322 518 1
406 518 1
419 518 1
938 518 1
939 518 1
292 519 1
295 519 1
313 519 1
323 519 1
407 519 1
420 519 1
939 519 1
940 519 1
293 520 1
296 520 1
314 520 1
324 520 1
393 520 1
408 520 1
940 520 1
941 520 1
294 521 1
297 521 1
315 521 1
325 521 1
394 521 1
409 521 1
941 521 1
942 521 1
295 522 1
298 522 1
316 522 1
326 522 1
395 522 1
410 522 1
942 522 1
943 522 1
296 523 1
299 523 1
317 523 1
327 523 1
396 523 1
411 523 1
943 523 1
944 523 1
297 524 1
300 524 1
318 524 1
328 524 1
397 524 1
412 524 1
944 524 1
945 524 1
298 525 1
301 525 1
319 525 1
329 525 1
398 525 1
413 525 1
945 525 1
946 525 1
299 526 1
302 526 1
320 526 1
330 526 1
399 526 1
414 526 1
946 526 1
947 526 1
300 527 1
303 527 1
321 527 1
331 527 1
400 527 1
415 527 1
947 527 1
948 527 1
301 528 1
304 528 1
322 528 1
332 528 1
401 528 1
416 528 1
948 528 1
949 528 1
302 529 1
305 529 1
323 529 1
333 529 1
402 529 1
417 529 1
949 529 1
950 529 1
303 530 1
306 530 1
324 530 1
334 530 1
403 530 1
418 530 1
950 530 1
951 530 1
304 531 1
307 531 1
325 531 1
335 531 1
404 531 1
419 531 1
951 531 1
952 531 1
305 532 1
308 532 1
326 532 1
336 532 1
405 532 1
420 532 1
925 532 1
952 532 1
337 533 1
362 533 1
365 533 1
383 533 1
393 533 1
410 533 1
953 533 1
954 533 1
338 534 1
363 534 1
366 534 1
384 534 1
394 534 1
411 534 1
954 534 1
955 534 1
339 535 1
364 535 1
367 535 1
385 535 1
395 535 1
412 535 1
955 535 1
956 535 1
337 536 1
340 536 1
368 536 1
386 536 1
396 536 1
413 536 1
956 536 1
957 536 1
338 537 1
341 537 1
369 537 1
387 537 1
397 537 1
414 537 1
957 537 1
958 537 1
339 538 1
342 538 1
370 538 1
388 538 1
398 538 1
415 538 1
958 538 1
959 538 1
340 539 1
343 539 1
371 539 1
389 539 1
399 539 1
416 539 1
959 539 1
960 539 1
341 540 1
344 540 1
372 540 1
390 540 1
400 540 1
417 540 1
960 540 1
961 540 1
342 541 1
345 541 1
373 541 1
391 541 1
401 541 1
418 541 1
961 541 1
962 541 1
343 542 1
346 542 1
374 542 1
392 542 1
402 542 1
419 542 1
962 542 1
963 542 1
344 543 1
347 543 1
365 543 1
375 543 1
403 543 1
420 543 1
963 543 1
964 543 1
345 544 1
348 544 1
366 544 1
376 544 1
393 544 1
404 544 1
964 544 1
965 544 1
346 545 1
349 545 1
367 545 1
377 545 1
394 545 1
405 545 1
965 545 1
966 545 1
347 546 1
350 546 1
368 546 1
378 546 1
395 546 1
406 546 1
966 546 1
967 546 1
348 547 1
351 547 1
369 547 1
379 547 1
396 547 1
407 547 1
967 547 1
968 547 1
349 548 1
352 548 1
370 548 1
380 548 1
397 548 1
408 548 1
968 548 1
969 548 1
350 549 1
353 549 1
371 549 1
381 549 1
398 549 1
409 549 1
969 549 1
970 549 1
351 550 1
354 550 1
372 550 1
382 550 1
399 550 1
410 550 1
970 550 1
971 550 1
352 551 1
355 551 1
373 551 1
383 551 1
400 551 1
411 551 1
971 551 1
972 551 1
353 552 1
356 552 1
374 552 1
384 552 1
401 552 1
412 552 1
972 552 1
973 552 1
354 553 1
357 553 1
375 553 1
385 553 1
402 553 1
413 553 1
973 553 1
974 553 1
355 554 1
358 554 1
376 554 1
386 554 1
403 554 1
414 554 1
974 554 1
975 554 1
356 555 1
359 555 1
377 555 1
387 555 1
404 555 1
415 555 1
975 555 1
976 555 1
357 556 1
360 556 1
378 556 1
388 556 1
405 556 1
416 556 1
976 556 1
977 556 1
358 557 1
361 557 1
379 557 1
389 557 1
406 557 1
417 557 1
977 557 1
978 557 1
359 558 1
362 558 1
380 558 1
390 558 1
407 558 1
418 558 1
978 558 1
979 558 1
360 559 1
363 559 1
381 559 1
391 559 1
408 559 1
419 559 1
979 559 1
980 559 1
361 560 1
364 560 1
382 560 1
392 560 1
409 560 1
420 560 1
953 560 1
980 560 1
421 561 1
438 561 1
449 561 1
462 561 1
533 561 1
543 561 1
701 561 1
705 561 1
422 562 1
439 562 1
450 562 1
463 562 1
534 562 1
544 562 1
702 562 1
706 562 1
423 563 1
440 563 1
451 563 1
464 563 1
535 563 1
545 563 1
703 563 1
707 563 1
424 564 1
441 564 1
452 564 1
465 564 1
536 564 1
546 564 1
704 564 1
708 564 1
425 565 1
442 565 1
453 565 1
466 565 1
537 565 1
547 565 1
705 565 1
709 565 1
426 566 1
443 566 1
454 566 1
467 566 1
538 566 1
548 566 1
706 566 1
710 566 1
427 567 1
444 567 1
455 567 1
468 567 1
539 567 1
549 567 1
707 567 1
711 567 1
428 568 1
445 568 1
456 568 1
469 568 1
540 568 1
550 568 1
708 568 1
712 568 1
429 569 1
446 569 1
457 569 1
470 569 1
541 569 1
551 569 1
709 569 1
713 569 1
430 570 1
447 570 1
458 570 1
471 570 1
542 570 1
552 570 1
710 570 1
714 570 1
431 571 1
448 571 1
459 571 1
472 571 1
543 571 1
553 571 1
711 571 1
715 571 1
421 572 1
432 572 1
460 572 1
473 572 1
544 572 1
554 572 1
712 572 1
716 572 1
422 573 1
433 573 1
461 573 1
474 573 1
545 573 1
555 573 1
713 573 1
717 573 1
423 574 1
434 574 1
462 574 1
475 574 1
546 574 1
556 574 1
714 574 1
718 574 1
424 575 1
435 575 1
463 575 1
476 575 1
547 575 1
557 575 1
715 575 1
719 575 1
425 576 1
436 576 1
449 576 1
464 576 1
548 576 1
558 576 1
716 576 1
720 576 1
426 577 1
437 577 1
450 577 1
465 577 1
549 577 1
559 577 1
717 577 1
721 577 1
427 578 1
438 578 1
451 578 1
466 578 1
550 578 1
560 578 1
718 578 1
722 578 1
428 579 1
439 579 1
452 579 1
467 579 1
533 579 1
551 579 1
719 579 1
723 579 1
429 580 1
440 580 1
453 580 1
468 580 1
534 580 1
552 580 1
720 580 1
724 580 1
430 581 1
441 581 1
454 581 1
469 581 1
535 581 1
553 581 1
721 581 1
725 581 1
431 582 1
442 582 1
455 582 1
470 582 1
536 582 1
554 582 1
722 582 1
726 582 1
432 583 1
443 583 1
456 583 1
471 583 1
537 583 1
555 583 1
723 583 1
727 583 1
433 584 1
444 584 1
457 584 1
472 584 1
538 584 1
556 584 1
724 584 1
728 584 1
434 585 1
445 585 1
458 585 1
473 585 1
539 585 1
557 585 1
701 585 1
725 585 1
435 586 1
446 586 1
459 586 1
474 586 1
540 586 1
558 586 1
702 586 1
726 586 1
436 587 1
447 587 1
460 587 1
475 587 1
541 587 1
559 587 1
703 587 1
727 587 1
437 588 1
448 588 1
461 588 1
476 588 1
542 588 1
560 588 1
704 588 1
728 588 1
421 589 1
439 589 1
477 589 1
490 589 1
561 589 1
571 589 1
729 589 1
733 589 1
422 590 1
440 590 1
478 590 1
491 590 1
562 590 1
572 590 1
730 590 1
734 590 1
423 591 1
441 591 1
479 591 1
492 591 1
563 591 1
573 591 1
731 591 1
735 591 1
424 592 1
442 592 1
480 592 1
493 592 1
564 592 1
574 592 1
732 592 1
736 592 1
425 593 1
443 593 1
481 593 1
494 593 1
565 593 1
575 593 1
733 593 1
737 593 1
426 594 1
444 594 1
482 594 1
495 594 1
566 594 1
576 594 1
734 594 1
738 594 1
427 595 1
445 595 1
483 595 1
496 595 1
567 595 1
577 595 1
735 595 1
739 595 1
428 596 1
446 596 1
484 596 1
497 596 1
568 596 1
578 596 1
736 596 1
740 596 1
429 597 1
447 597 1
485 597 1
498 597 1
569 597 1
579 597 1
737 597 1
741 597 1
430 598 1
448 598 1
486 598 1
499 598 1
570 598 1
580 598 1
738 598 1
742 598 1
421 599 1
431 599 1
487 599 1
500 599 1
571 599 1
581 599 1
739 599 1
743 599 1
422 600 1
432 600 1
488 600 1
501 600 1
572 600 1
582 600 1
740 600 1
744 600 1
423 601 1
433 601 1
489 601 1
502 601 1
573 601 1
583 601 1
741 601 1
745 601 1
424 602 1
434 602 1
490 602 1
503 602 1
574 602 1
584 602 1
742 602 1
746 602 1
425 603 1
435 603 1
491 603 1
504 603 1
575 603 1
585 603 1
743 603 1
747 603 1
426 604 1
436 604 1
477 604 1
492 604 1
576 604 1
586 604 1
744 604 1
748 604 1
427 605 1
437 605 1
478 605 1
493 605 1
577 605 1
587 605 1
745 605 1
749 605 1
428 606 1
438 606 1
479 606 1
494 606 1
578 606 1
588 606 1
746 606 1
750 606 1
429 607 1
439 607 1
480 607 1
495 607 1
561 607 1
579 607 1
747 607 1
751 607 1
430 608 1
440 608 1
481 608 1
496 608 1
562 608 1
580 608 1
748 608 1
752 608 1
431 609 1
441 609 1
482 609 1
497 609 1
563 609 1
581 609 1
749 609 1
753 609 1
432 610 1
442 610 1
483 610 1
498 610 1
564 610 1
582 610 1
750 610 1
754 610 1
433 611 1
443 611 1
484 611 1
499 611 1
565 611 1
583 611 1
751 611 1
755 611 1
434 612 1
444 612 1
485 612 1
500 612 1
566 612 1
584 612 1
752 612 1
756 612 1
435 613 1
445 613 1
486 613 1
501 613 1
567 613 1
585 613 1
729 613 1
753 613 1
436 614 1
446 614 1
487 614 1
502 614 1
568 614 1
586 614 1
730 614 1
754 614 1
437 615 1
447 615 1
488 615 1
503 615 1
569 615 1
587 615 1
731 615 1
755 615 1
438 616 1
448 616 1
489 616 1
504 616 1
570 616 1
588 616 1
732 616 1
756 616 1
421 617 1
446 617 1
505 617 1
518 617 1
589 617 1
599 617 1
757 617 1
761 617 1
422 618 1
447 618 1
506 618 1
519 618 1
590 618 1
600 618 1
758 618 1
762 618 1
423 619 1
448 619 1
507 619 1
520 619 1
591 619 1
601 619 1
759 619 1
763 619 1
421 620 1
424 620 1
508 620 1
521 620 1
592 620 1
602 620 1
760 620 1
764 620 1
422 621 1
425 621 1
509 621 1
522 621 1
593 621 1
603 621 1
761 621 1
765 621 1
423 622 1
426 622 1
510 622 1
523 622 1
594 622 1
604 622 1
762 622 1
766 622 1
424 623 1
427 623 1
511 623 1
524 623 1
595 623 1
605 623 1
763 623 1
767 623 1
425 624 1
428 624 1
512 624 1
525 624 1
596 624 1
606 624 1
764 624 1
768 624 1
426 625 1
429 625 1
513 625 1
526 625 1
597 625 1
607 625 1
765 625 1
769 625 1
427 626 1
430 626 1
514 626 1
527 626 1
598 626 1
608 626 1
766 626 1
770 626 1
428 627 1
431 627 1
515 627 1
528 627 1
599 627 1
609 627 1
767 627 1
771 627 1
429 628 1
432 628 1
516 628 1
529 628 1
600 628 1
610 628 1
768 628 1
772 628 1
430 629 1
433 629 1
517 629 1
530 629 1
601 629 1
611 629 1
769 629 1
773 629 1
431 630 1
434 630 1
518 630 1
531 630 1
602 630 1
612 630 1
770 630 1
774 630 1
432 631 1
435 631 1
519 631 1
532 631 1
603 631 1
613 631 1
771 631 1
775 631 1
433 632 1
436 632 1
505 632 1
520 632 1
604 632 1
614 632 1
772 632 1
776 632 1
434 633 1
437 633 1
506 633 1
521 633 1
605 633 1
615 633 1
773 633 1
777 633 1
435 634 1
438 634 1
507 634 1
522 634 1
606 634 1
616 634 1
774 634 1
778 634 1
436 635 1
439 635 1
508 635 1
523 635 1
589 635 1
607 635 1
775 635 1
779 635 1
437 636 1
440 636 1
509 636 1
524 636 1
590 636 1
608 636 1
776 636 1
780 636 1
438 637 1
441 637 1
510 637 1
525 637 1
591 637 1
609 637 1
777 637 1
781 637 1
439 638 1
442 638 1
511 638 1
526 638 1
592 638 1
610 638 1
778 638 1
782 638 1
440 639 1
443 639 1
512 639 1
527 639 1
593 639 1
611 639 1
779 639 1
783 639 1
441 640 1
444 640 1
513 640 1
528 640 1
594 640 1
612 640 1
780 640 1
784 640 1
442 641 1
445 641 1
514 641 1
529 641 1
595 641 1
613 641 1
757 641 1
781 641 1
443 642 1
446 642 1
515 642 1
530 642 1
596 642 1
614 642 1
758 642 1
782 642 1
444 643 1
447 643 1
516 643 1
531 643 1
597 643 1
615 643 1
759 643 1
783 643 1
445 644 1
448 644 1
517 644 1
532 644 1
598 644 1
616 644 1
760 644 1
784 644 1
449 645 1
467 645 1
477 645 1
494 645 1
617 645 1
627 645 1
785 645 1
789 645 1
450 646 1
468 646 1
478 646 1
495 646 1
618 646 1
628 646 1
786 646 1
790 646 1
451 647 1
469 647 1
479 647 1
496 647 1
619 647 1
629 647 1
787 647 1
791 647 1
452 648 1
470 648 1
480 648 1
497 648 1
620 648 1
630 648 1
788 648 1
792 648 1
453 649 1
471 649 1
481 649 1
498 649 1
621 649 1
631 649 1
789 649 1
793 649 1
454 650 1
472 650 1
482 650 1
499 650 1
622 650 1
632 650 1
790 650 1
794 650 1
455 651 1
473 651 1
483 651 1
500 651 1
623 651 1
633 651 1
791 651 1
795 651 1
456 652 1
474 652 1
484 652 1
501 652 1
624 652 1
634 652 1
792 652 1
796 652 1
457 653 1
475 653 1
485 653 1
502 653 1
625 653 1
635 653 1
793 653 1
797 653 1
458 654 1
476 654 1
486 654 1
503 654 1
626 654 1
636 654 1
794 654 1
798 654 1
449 655 1
459 655 1
487 655 1
504 655 1
627 655 1
637 655 1
795 655 1
799 655 1
450 656 1
460 656 1
477 656 1
488 656 1
628 656 1
638 656 1
796 656 1
800 656 1
451 657 1
461 657 1
478 657 1
489 657 1
629 657 1
639 657 1
797 657 1
801 657 1
452 658 1
462 658 1
479 658 1
490 658 1
630 658 1
640 658 1
798 658 1
802 658 1
453 659 1
463 659 1
480 659 1
491 659 1
631 659 1
641 659 1
799 659 1
803 659 1
454 660 1
464 660 1
481 660 1
492 660 1
632 660 1
642 660 1
800 660 1
804 660 1
455 661 1
465 661 1
482 661 1
493 661 1
633 661 1
643 661 1
801 661 1
805 661 1
456 662 1
466 662 1
483 662 1
494 662 1
634 662 1
644 662 1
802 662 1
806 662 1
457 663 1
467 663 1
484 663 1
495 663 1
617 663 1
635 663 1
803 663 1
807 663 1
458 664 1
468 664 1
485 664 1
496 664 1
618 664 1
636 664 1
804 664 1
808 664 1
459 665 1
469 665 1
486 665 1
497 665 1
619 665 1
637 665 1
805 665 1
809 665 1
460 666 1
470 666 1
487 666 1
498 666 1
620 666 1
638 666 1
806 666 1
810 666 1
461 667 1
471 667 1
488 667 1
499 667 1
621 667 1
639 667 1
807 667 1
811 667 1
462 668 1
472 668 1
489 668 1
500 668 1
622 668 1
640 668 1
808 668 1
812 668 1
463 669 1
473 669 1
490 669 1
501 669 1
623 669 1
641 669 1
785 669 1
809 669 1
464 670 1
474 670 1
491 670 1
502 670 1
624 670 1
642 670 1
786 670 1
810 670 1
465 671 1
475 671 1
492 671 1
503 671 1
625 671 1
643 671 1
787 671 1
811 671 1
466 672 1
476 672 1
493 672 1
504 672 1
626 672 1
644 672 1
788 672 1
812 672 1
449 673 1
474 673 1
505 673 1
522 673 1
645 673 1
655 673 1
813 673 1
817 673 1
450 674 1
475 674 1
506 674 1
523 674 1
646 674 1
656 674 1
814 674 1
818 674 1
451 675 1
476 675 1
507 675 1
524 675 1
647 675 1
657 675 1
815 675 1
819 675 1
449 676 1
452 676 1
508 676 1
525 676 1
648 676 1
658 676 1
816 676 1
820 676 1
450 677 1
453 677 1
509 677 1
526 677 1
649 677 1
659 677 1
817 677 1
821 677 1
451 678 1
454 678 1
510 678 1
527 678 1
650 678 1
660 678 1
818 678 1
822 678 1
452 679 1
455 679 1
511 679 1
528 679 1
651 679 1
661 679 1
819 679 1
823 679 1
453 680 1
456 680 1
512 680 1
529 680 1
652 680 1
662 680 1
820 680 1
824 680 1
454 681 1
457 681 1
513 681 1
530 681 1
653 681 1
663 681 1
821 681 1
825 681 1
455 682 1
458 682 1
514 682 1
531 682 1
654 682 1
664 682 1
822 682 1
826 682 1
456 683 1
459 683 1
515 683 1
532 683 1
655 683 1
665 683 1
823 683 1
827 683 1
457 684 1
460 684 1
505 684 1
516 684 1
656 684 1
666 684 1
824 684 1
828 684 1
458 685 1
461 685 1
506 685 1
517 685 1
657 685 1
667 685 1
825 685 1
829 685 1
459 686 1
462 686 1
507 686 1
518 686 1
658 686 1
668 686 1
826 686 1
830 686 1
460 687 1
463 687 1
508 687 1
519 687 1
659 687 1
669 687 1
827 687 1
831 687 1
461 688 1
464 688 1
509 688 1
520 688 1
660 688 1
670 688 1
828 688 1
832 688 1
462 689 1
465 689 1
510 689 1
521 689 1
661 689 1
671 689 1
829 689 1
833 689 1
463 690 1
466 690 1
511 690 1
522 690 1
662 690 1
672 690 1
830 690 1
834 690 1
464 691 1
467 691 1
512 691 1
523 691 1
645 691 1
663 691 1
831 691 1
835 691 1
465 692 1
468 692 1
513 692 1
524 692 1
646 692 1
664 692 1
832 692 1
836 692 1
466 693 1
469 693 1
514 693 1
525 693 1
647 693 1
665 693 1
833 693 1
837 693 1
467 694 1
470 694 1
515 694 1
526 694 1
648 694 1
666 694 1
834 694 1
838 694 1
468 695 1
471 695 1
516 695 1
527 695 1
649 695 1
667 695 1
835 695 1
839 695 1
469 696 1
472 696 1
517 696 1
528 696 1
650 696 1
668 696 1
836 696 1
840 696 1
470 697 1
473 697 1
518 697 1
529 697 1
651 697 1
669 697 1
813 697 1
837 697 1
471 698 1
474 698 1
519 698 1
530 698 1
652 698 1
670 698 1
814 698 1
838 698 1
472 699 1
475 699 1
520 699 1
531 699 1
653 699 1
671 699 1
815 699 1
839 699 1
473 700 1
476 700 1
521 700 1
532 700 1
654 700 1
672 700 1
816 700 1
840 700 1
477 701 1
502 701 1
505 701 1
523 701 1
673 701 1
683 701 1
841 701 1
845 701 1
478 702 1
503 702 1
506 702 1
524 702 1
674 702 1
684 702 1
842 702 1
846 702 1
479 703 1
504 703 1
507 703 1
525 703 1
675 703 1
685 703 1
843 703 1
847 703 1
477 704 1
480 704 1
508 704 1
526 704 1
676 704 1
686 704 1
844 704 1
848 704 1
478 705 1
481 705 1
509 705 1
527 705 1
677 705 1
687 705 1
845 705 1
849 705 1
479 706 1
482 706 1
510 706 1
528 706 1
678 706 1
688 706 1
846 706 1
850 706 1
480 707 1
483 707 1
511 707 1
529 707 1
679 707 1
689 707 1
847 707 1
851 707 1
481 708 1
484 708 1
512 708 1
530 708 1
680 708 1
690 708 1
848 708 1
852 708 1
482 709 1
485 709 1
513 709 1
531 709 1
681 709 1
691 709 1
849 709 1
853 709 1
483 710 1
486 710 1
514 710 1
532 710 1
682 710 1
692 710 1
850 710 1
854 710 1
484 711 1
487 711 1
505 711 1
515 711 1
683 711 1
693 711 1
851 711 1
855 711 1
485 712 1
488 712 1
506 712 1
516 712 1
684 712 1
694 712 1
852 712 1
856 712 1
486 713 1
489 713 1
507 713 1
517 713 1
685 713 1
695 713 1
853 713 1
857 713 1
487 714 1
490 714 1
508 714 1
518 714 1
686 714 1
696 714 1
854 714 1
858 714 1
488 715 1
491 715 1
509 715 1
519 715 1
687 715 1
697 715 1
855 715 1
859 715 1
489 716 1
492 716 1
510 716 1
520 716 1
688 716 1
698 716 1
856 716 1
860 716 1
490 717 1
493 717 1
511 717 1
521 717 1
689 717 1
699 717 1
857 717 1
861 717 1
491 718 1
494 718 1
512 718 1
522 718 1
690 718 1
700 718 1
858 718 1
862 718 1
492 719 1
495 719 1
513 719 1
523 719 1
673 719 1
691 719 1
859 719 1
863 719 1
493 720 1
496 720 1
514 720 1
524 720 1
674 720 1
692 720 1
860 720 1
864 720 1
494 721 1
497 721 1
515 721 1
525 721 1
675 721 1
693 721 1
861 721 1
865 721 1
495 722 1
498 722 1
516 722 1
526 722 1
676 722 1
694 722 1
862 722 1
866 722 1
496 723 1
499 723 1
517 723 1
527 723 1
677 723 1
695 723 1
863 723 1
867 723 1
497 724 1
500 724 1
518 724 1
528 724 1
678 724 1
696 724 1
864 724 1
868 724 1
498 725 1
501 725 1
519 725 1
529 725 1
679 725 1
697 725 1
841 725 1
865 725 1
499 726 1
502 726 1
520 726 1
530 726 1
680 726 1
698 726 1
842 726 1
866 726 1
500 727 1
503 727 1
521 727 1
531 727 1
681 727 1
699 727 1
843 727 1
867 727 1
501 728 1
504 728 1
522 728 1
532 728 1
682 728 1
700 728 1
844 728 1
868 728 1
533 729 1
551 729 1
561 729 1
578 729 1
617 729 1
630 729 1
869 729 1
873 729 1
534 730 1
552 730 1
562 730 1
579 730 1
618 730 1
631 730 1
870 730 1
874 730 1
535 731 1
553 731 1
563 731 1
580 731 1
619 731 1
632 731 1
871 731 1
875 731 1
536 732 1
554 732 1
564 732 1
581 732 1
620 732 1
633 732 1
872 732 1
876 732 1
537 733 1
555 733 1
565 733 1
582 733 1
621 733 1
634 733 1
873 733 1
877 733 1
538 734 1
556 734 1
566 734 1
583 734 1
622 734 1
635 734 1
874 734 1
878 734 1
539 735 1
557 735 1
567 735 1
584 735 1
623 735 1
636 735 1
875 735 1
879 735 1
540 736 1
558 736 1
568 736 1
585 736 1
624 736 1
637 736 1
876 736 1
880 736 1
541 737 1
559 737 1
569 737 1
586 737 1
625 737 1
638 737 1
877 737 1
881 737 1
542 738 1
560 738 1
570 738 1
587 738 1
626 738 1
639 738 1
878 738 1
882 738 1
533 739 1
543 739 1
571 739 1
588 739 1
627 739 1
640 739 1
879 739 1
883 739 1
534 740 1
544 740 1
561 740 1
572 740 1
628 740 1
641 740 1
880 740 1
884 740 1
535 741 1
545 741 1
562 741 1
573 741 1
629 741 1
642 741 1
881 741 1
885 741 1
536 742 1
546 742 1
563 742 1
574 742 1
630 742 1
643 742 1
882 742 1
886 742 1
537 743 1
547 743 1
564 743 1
575 743 1
631 743 1
644 743 1
883 743 1
887 743 1
538 744 1
548 744 1
565 744 1
576 744 1
617 744 1
632 744 1
884 744 1
888 744 1
539 745 1
549 745 1
566 745 1
577 745 1
618 745 1
633 745 1
885 745 1
889 745 1
540 746 1
550 746 1
567 746 1
578 746 1
619 746 1
634 746 1
886 746 1
890 746 1
541 747 1
551 747 1
568 747 1
579 747 1
620 747 1
635 747 1
887 747 1
891 747 1
542 748 1
552 748 1
569 748 1
580 748 1
621 748 1
636 748 1
888 748 1
892 748 1
543 749 1
553 749 1
570 749 1
581 749 1
622 749 1
637 749 1
889 749 1
893 749 1
544 750 1
554 750 1
571 750 1
582 750 1
623 750 1
638 750 1
890 750 1
894 750 1
545 751 1
555 751 1
572 751 1
583 751 1
624 751 1
639 751 1
891 751 1
895 751 1
546 752 1
556 752 1
573 752 1
584 752 1
625 752 1
640 752 1
892 752 1
896 752 1
547 753 1
557 753 1
574 753 1
585 753 1
626 753 1
641 753 1
869 753 1
893 753 1
548 754 1
558 754 1
575 754 1
586 754 1
627 754 1
642 754 1
870 754 1
894 754 1
549 755 1
559 755 1
576 755 1
587 755 1
628 755 1
643 755 1
871 755 1
895 755 1
550 756 1
560 756 1
577 756 1
588 756 1
629 756 1
644 756 1
872 756 1
896 756 1
533 757 1
558 757 1
589 757 1
606 757 1
645 757 1
658 757 1
897 757 1
901 757 1
534 758 1
559 758 1
590 758 1
607 758 1
646 758 1
659 758 1
898 758 1
902 758 1
535 759 1
560 759 1
591 759 1
608 759 1
647 759 1
660 759 1
899 759 1
903 759 1
533 760 1
536 760 1
592 760 1
609 760 1
648 760 1
661 760 1
900 760 1
904 760 1
534 761 1
537 761 1
593 761 1
610 761 1
649 761 1
662 761 1
901 761 1
905 761 1
535 762 1
538 762 1
594 762 1
611 762 1
650 762 1
663 762 1
902 762 1
906 762 1
536 763 1
539 763 1
595 763 1
612 763 1
651 763 1
664 763 1
903 763 1
907 763 1
537 764 1
540 764 1
596 764 1
613 764 1
652 764 1
665 764 1
904 764 1
908 764 1
538 765 1
541 765 1
597 765 1
614 765 1
653 765 1
666 765 1
905 765 1
909 765 1
539 766 1
542 766 1
598 766 1
615 766 1
654 766 1
667 766 1
906 766 1
910 766 1
540 767 1
543 767 1
599 767 1
616 767 1
655 767 1
668 767 1
907 767 1
911 767 1
541 768 1
544 768 1
589 768 1
600 768 1
656 768 1
669 768 1
908 768 1
912 768 1
542 769 1
545 769 1
590 769 1
601 769 1
657 769 1
670 769 1
909 769 1
913 769 1
543 770 1
546 770 1
591 770 1
602 770 1
658 770 1
671 770 1
910 770 1
914 770 1
544 771 1
547 771 1
592 771 1
603 771 1
659 771 1
672 771 1
911 771 1
915 771 1
545 772 1
548 772 1
593 772 1
604 772 1
645 772 1
660 772 1
912 772 1
916 772 1
546 773 1
549 773 1
594 773 1
605 773 1
646 773 1
661 773 1
913 773 1
917 773 1
547 774 1
550 774 1
595 774 1
606 774 1
647 774 1
662 774 1
914 774 1
918 774 1
548 775 1
551 775 1
596 775 1
607 775 1
648 775 1
663 775 1
915 775 1
919 775 1
549 776 1
552 776 1
597 776 1
608 776 1
649 776 1
664 776 1
916 776 1
920 776 1
550 777 1
553 777 1
598 777 1
609 777 1
650 777 1
665 777 1
917 777 1
921 777 1
551 778 1
554 778 1
599 778 1
610 778 1
651 778 1
666 778 1
918 778 1
922 778 1
552 779 1
555 779 1
600 779 1
611 779 1
652 779 1
667 779 1
919 779 1
923 779 1
553 780 1
556 780 1
601 780 1
612 780 1
653 780 1
668 780 1
920 780 1
924 780 1
554 781 1
557 781 1
602 781 1
613 781 1
654 781 1
669 781 1
897 781 1
921 781 1
555 782 1
558 782 1
603 782 1
614 782 1
655 782 1
670 782 1
898 782 1
922 782 1
556 783 1
559 783 1
604 783 1
615 783 1
656 783 1
671 783 1
899 783 1
923 783 1
557 784 1
560 784 1
605 784 1
616 784 1
657 784 1
672 784 1
900 784 1
924 784 1
561 785 1
586 785 1
589 785 1
607 785 1
673 785 1
686 785 1
925 785 1
929 785 1
562 786 1
587 786 1
590 786 1
608 786 1
674 786 1
687 786 1
926 786 1
930 786 1
563 787 1
588 787 1
591 787 1
609 787 1
675 787 1
688 787 1
927 787 1
931 787 1
561 788 1
564 788 1
592 788 1
610 788 1
676 788 1
689 788 1
928 788 1
932 788 1
562 789 1
565 789 1
593 789 1
611 789 1
677 789 1
690 789 1
929 789 1
933 789 1
563 790 1
566 790 1
594 790 1
612 790 1
678 790 1
691 790 1
930 790 1
934 790 1
564 791 1
567 791 1
595 791 1
613 791 1
679 791 1
692 791 1
931 791 1
935 791 1
565 792 1
568 792 1
596 792 1
614 792 1
680 792 1
693 792 1
932 792 1
936 792 1
566 793 1
569 793 1
597 793 1
615 793 1
681 793 1
694 793 1
933 793 1
937 793 1
567 794 1
570 794 1
598 794 1
616 794 1
682 794 1
695 794 1
934 794 1
938 794 1
568 795 1
571 795 1
589 795 1
599 795 1
683 795 1
696 795 1
935 795 1
939 795 1
569 796 1
572 796 1
590 796 1
600 796 1
684 796 1
697 796 1
936 796 1
940 796 1
570 797 1
573 797 1
591 797 1
601 797 1
685 797 1
698 797 1
937 797 1
941 797 1
571 798 1
574 798 1
592 798 1
602 798 1
686 798 1
699 798 1
938 798 1
942 798 1
572 799 1
575 799 1
593 799 1
603 799 1
687 799 1
700 799 1
939 799 1
943 799 1
573 800 1
576 800 1
594 800 1
604 800 1
673 800 1
688 800 1
940 800 1
944 800 1
574 801 1
577 801 1
595 801 1
605 801 1
674 801 1
689 801 1
941 801 1
945 801 1
575 802 1
578 802 1
596 802 1
606 802 1
675 802 1
690 802 1
942 802 1
946 802 1
576 803 1
579 803 1
597 803 1
607 803 1
676 803 1
691 803 1
943 803 1
947 803 1
577 804 1
580 804 1
598 804 1
608 804 1
677 804 1
692 804 1
944 804 1
948 804 1
578 805 1
581 805 1
599 805 1
609 805 1
678 805 1
693 805 1
945 805 1
949 805 1
579 806 1
582 806 1
600 806 1
610 806 1
679 806 1
694 806 1
946 806 1
950 806 1
580 807 1
583 807 1
601 807 1
611 807 1
680 807 1
695 807 1
947 807 1
951 807 1
581 808 1
584 808 1
602 808 1
612 808 1
681 808 1
696 808 1
948 808 1
952 808 1
582 809 1
585 809 1
603 809 1
613 809 1
682 809 1
697 809 1
925 809 1
949 809 1
583 810 1
586 810 1
604 810 1
614 810 1
683 810 1
698 810 1
926 810 1
950 810 1
584 811 1
587 811 1
605 811 1
615 811 1
684 811 1
699 811 1
927 811 1
951 811 1
585 812 1
588 812 1
606 812 1
616 812 1
685 812 1
700 812 1
928 812 1
952 812 1
617 813 1
642 813 1
645 813 1
663 813 1
673 813 1
690 813 1
953 813 1
957 813 1
618 814 1
643 814 1
646 814 1
664 814 1
674 814 1
691 814 1
954 814 1
958 814 1
619 815 1
644 815 1
647 815 1
665 815 1
675 815 1
692 815 1
955 815 1
959 815 1
617 816 1
620 816 1
648 816 1
666 816 1
676 816 1
693 816 1
956 816 1
960 816 1
618 817 1
621 817 1
649 817 1
667 817 1
677 817 1
694 817 1
957 817 1
961 817 1
619 818 1
622 818 1
650 818 1
668 818 1
678 818 1
695 818 1
958 818 1
962 818 1
620 819 1
623 819 1
651 819 1
669 819 1
679 819 1
696 819 1
959 819 1
963 819 1
621 820 1
624 820 1
652 820 1
670 820 1
680 820 1
697 820 1
960 820 1
964 820 1
622 821 1
625 821 1
653 821 1
671 821 1
681 821 1
698 821 1
961 821 1
965 821 1
623 822 1
626 822 1
654 822 1
672 822 1
682 822 1
699 822 1
962 822 1
966 822 1
624 823 1
627 823 1
645 823 1
655 823 1
683 823 1
700 823 1
963 823 1
967 823 1
625 824 1
628 824 1
646 824 1
656 824 1
673 824 1
684 824 1
964 824 1
968 824 1
626 825 1
629 825 1
647 825 1
657 825 1
674 825 1
685 825 1
965 825 1
969 825 1
627 826 1
630 826 1
648 826 1
658 826 1
675 826 1
686 826 1
966 826 1
970 826 1
628 827 1
631 827 1
649 827 1
659 827 1
676 827 1
687 827 1
967 827 1
971 827 1
629 828 1
632 828 1
650 828 1
660 828 1
677 828 1
688 828 1
968 828 1
972 828 1
630 829 1
633 829 1
651 829 1
661 829 1
678 829 1
689 829 1
969 829 1
973 829 1
631 830 1
634 830 1
652 830 1
662 830 1
679 830 1
690 830 1
970 830 1
974 830 1
632 831 1
635 831 1
653 831 1
663 831 1
680 831 1
691 831 1
971 831 1
975 831 1
633 832 1
636 832 1
654 832 1
664 832 1
681 832 1
692 832 1
972 832 1
976 832 1
634 833 1
637 833 1
655 833 1
665 833 1
682 833 1
693 833 1
973 833 1
977 833 1
635 834 1
638 834 1
656 834 1
666 834 1
683 834 1
694 834 1
974 834 1
978 834 1
636 835 1
639 835 1
657 835 1
667 835 1
684 835 1
695 835 1
975 835 1
979 835 1
637 836 1
640 836 1
658 836 1
668 836 1
685 836 1
696 836 1
976 836 1
980 836 1
638 837 1
641 837 1
659 837 1
669 837 1
686 837 1
697 837 1
953 837 1
977 837 1
639 838 1
642 838 1
660 838 1
670 838 1
687 838 1
698 838 1
954 838 1
978 838 1
640 839 1
643 839 1
661 839 1
671 839 1
688 839 1
699 839 1
955 839 1
979 839 1
641 840 1
644 840 1
662 840 1
672 840 1
689 840 1
700 840 1
956 840 1
980 840 1
701 841 1
719 841 1
729 841 1
746 841 1
785 841 1
798 841 1
869 841 1
879 841 1
702 842 1
720 842 1
730 842 1
747 842 1
786 842 1
799 842 1
870 842 1
880 842 1
703 843 1
721 843 1
731 843 1
748 843 1
787 843 1
800 843 1
871 843 1
881 843 1
704 844 1
722 844 1
732 844 1
749 844 1
788 844 1
801 844 1
872 844 1
882 844 1
705 845 1
723 845 1
733 845 1
750 845 1
789 845 1
802 845 1
873 845 1
883 845 1
706 846 1
724 846 1
734 846 1
751 846 1
790 846 1
803 846 1
874 846 1
884 846 1
707 847 1
725 847 1
735 847 1
752 847 1
791 847 1
804 847 1
875 847 1
885 847 1
708 848 1
726 848 1
736 848 1
753 848 1
792 848 1
805 848 1
876 848 1
886 848 1
709 849 1
727 849 1
737 849 1
754 849 1
793 849 1
806 849 1
877 849 1
887 849 1
710 850 1
728 850 1
738 850 1
755 850 1
794 850 1
807 850 1
878 850 1
888 850 1
701 851 1
711 851 1
739 851 1
756 851 1
795 851 1
808 851 1
879 851 1
889 851 1
702 852 1
712 852 1
729 852 1
740 852 1
796 852 1
809 852 1
880 852 1
890 852 1
703 853 1
713 853 1
730 853 1
741 853 1
797 853 1
810 853 1
881 853 1
891 853 1
704 854 1
714 854 1
731 854 1
742 854 1
798 854 1
811 854 1
882 854 1
892 854 1
705 855 1
715 855 1
732 855 1
743 855 1
799 855 1
812 855 1
883 855 1
893 855 1
706 856 1
716 856 1
733 856 1
744 856 1
785 856 1
800 856 1
884 856 1
894 856 1
707 857 1
717 857 1
734 857 1
745 857 1
786 857 1
801 857 1
885 857 1
895 857 1
708 858 1
718 858 1
735 858 1
746 858 1
787 858 1
802 858 1
886 858 1
896 858 1
709 859 1
719 859 1
736 859 1
747 859 1
788 859 1
803 859 1
869 859 1
887 859 1
710 860 1
720 860 1
737 860 1
748 860 1
789 860 1
804 860 1
870 860 1
888 860 1
711 861 1
721 861 1
738 861 1
749 861 1
790 861 1
805 861 1
871 861 1
889 861 1
712 862 1
722 862 1
739 862 1
750 862 1
791 862 1
806 862 1
872 862 1
890 862 1
713 863 1
723 863 1
740 863 1
751 863 1
792 863 1
807 863 1
873 863 1
891 863 1
714 864 1
724 864 1
741 864 1
752 864 1
793 864 1
808 864 1
874 864 1
892 864 1
715 865 1
725 865 1
742 865 1
753 865 1
794 865 1
809 865 1
875 865 1
893 865 1
716 866 1
726 866 1
743 866 1
754 866 1
795 866 1
810 866 1
876 866 1
894 866 1
717 867 1
727 867 1
744 867 1
755 867 1
796 867 1
811 867 1
877 867 1
895 867 1
718 868 1
728 868 1
745 868 1
756 868 1
797 868 1
812 868 1
878 868 1
896 868 1
701 869 1
726 869 1
757 869 1
774 869 1
813 869 1
826 869 1
897 869 1
907 869 1
702 870 1
727 870 1
758 870 1
775 870 1
814 870 1
827 870 1
898 870 1
908 870 1
703 871 1
728 871 1
759 871 1
776 871 1
815 871 1
828 871 1
899 871 1
909 871 1
701 872 1
704 872 1
760 872 1
777 872 1
816 872 1
829 872 1
900 872 1
910 872 1
702 873 1
705 873 1
761 873 1
778 873 1
817 873 1
830 873 1
901 873 1
911 873 1
703 874 1
706 874 1
762 874 1
779 874 1
818 874 1
831 874 1
902 874 1
912 874 1
704 875 1
707 875 1
763 875 1
780 875 1
819 875 1
832 875 1
903 875 1
913 875 1
705 876 1
708 876 1
764 876 1
781 876 1
820 876 1
833 876 1
904 876 1
914 876 1
706 877 1
709 877 1
765 877 1
782 877 1
821 877 1
834 877 1
905 877 1
915 877 1
707 878 1
710 878 1
766 878 1
783 878 1
822 878 1
835 878 1
906 878 1
916 878 1
708 879 1
711 879 1
767 879 1
784 879 1
823 879 1
836 879 1
907 879 1
917 879 1
709 880 1
712 880 1
757 880 1
768 880 1
824 880 1
837 880 1
908 880 1
918 880 1
710 881 1
713 881 1
758 881 1
769 881 1
825 881 1
838 881 1
909 881 1
919 881 1
711 882 1
714 882 1
759 882 1
770 882 1
826 882 1
839 882 1
910 882 1
920 882 1
712 883 1
715 883 1
760 883 1
771 883 1
827 883 1
840 883 1
911 883 1
921 883 1
713 884 1
716 884 1
761 884 1
772 884 1
813 884 1
828 884 1
912 884 1
922 884 1
714 885 1
717 885 1
762 885 1
773 885 1
814 885 1
829 885 1
913 885 1
923 885 1
715 886 1
718 886 1
763 886 1
774 886 1
815 886 1
830 886 1
914 886 1
924 886 1
716 887 1
719 887 1
764 887 1
775 887 1
816 887 1
831 887 1
897 887 1
915 887 1
717 888 1
720 888 1
765 888 1
776 888 1
817 888 1
832 888 1
898 888 1
916 888 1
718 889 1
721 889 1
766 889 1
777 889 1
818 889 1
833 889 1
899 889 1
917 889 1
719 890 1
722 890 1
767 890 1
778 890 1
819 890 1
834 890 1
900 890 1
918 890 1
720 891 1
723 891 1
768 891 1
779 891 1
820 891 1
835 891 1
901 891 1
919 891 1
721 892 1
724 892 1
769 892 1
780 892 1
821 892 1
836 892 1
902 892 1
920 892 1
722 893 1
725 893 1
770 893 1
781 893 1
822 893 1
837 893 1
903 893 1
921 893 1
723 894 1
726 894 1
771 894 1
782 894 1
823 894 1
838 894 1
904 894 1
922 894 1
724 895 1
727 895 1
772 895 1
783 895 1
824 895 1
839 895 1
905 895 1
923 895 1
725 896 1
728 896 1
773 896 1
784 896 1
825 896 1
840 896 1
906 896 1
924 896 1
729 897 1
754 897 1
757 897 1
775 897 1
841 897 1
854 897 1
925 897 1
935 897 1
730 898 1
755 898 1
758 898 1
776 898 1
842 898 1
855 898 1
926 898 1
936 898 1
731 899 1
756 899 1
759 899 1
777 899 1
843 899 1
856 899 1
927 899 1
937 899 1
729 900 1
732 900 1
760 900 1
778 900 1
844 900 1
857 900 1
928 900 1
938 900 1
730 901 1
733 901 1
761 901 1
779 901 1
845 901 1
858 901 1
929 901 1
939 901 1
731 902 1
734 902 1
762 902 1
780 902 1
846 902 1
859 902 1
930 902 1
940 902 1
732 903 1
735 903 1
763 903 1
781 903 1
847 903 1
860 903 1
931 903 1
941 903 1
733 904 1
736 904 1
764 904 1
782 904 1
848 904 1
861 904 1
932 904 1
942 904 1
734 905 1
737 905 1
765 905 1
783 905 1
849 905 1
862 905 1
933 905 1
943 905 1
735 906 1
738 906 1
766 906 1
784 906 1
850 906 1
863 906 1
934 906 1
944 906 1
736 907 1
739 907 1
757 907 1
767 907 1
851 907 1
864 907 1
935 907 1
945 907 1
737 908 1
740 908 1
758 908 1
768 908 1
852 908 1
865 908 1
936 908 1
946 908 1
738 909 1
741 909 1
759 909 1
769 909 1
853 909 1
866 909 1
937 909 1
947 909 1
739 910 1
742 910 1
760 910 1
770 910 1
854 910 1
867 910 1
938 910 1
948 910 1
740 911 1
743 911 1
761 911 1
771 911 1
855 911 1
868 911 1
939 911 1
949 911 1
741 912 1
744 912 1
762 912 1
772 912 1
841 912 1
856 912 1
940 912 1
950 912 1
742 913 1
745 913 1
763 913 1
773 913 1
842 913 1
857 913 1
941 913 1
951 913 1
743 914 1
746 914 1
764 914 1
774 914 1
843 914 1
858 914 1
942 914 1
952 914 1
744 915 1
747 915 1
765 915 1
775 915 1
844 915 1
859 915 1
925 915 1
943 915 1
745 916 1
748 916 1
766 916 1
776 916 1
845 916 1
860 916 1
926 916 1
944 916 1
746 917 1
749 917 1
767 917 1
777 917 1
846 917 1
861 917 1
927 917 1
945 917 1
747 918 1
750 918 1
768 918 1
778 918 1
847 918 1
862 918 1
928 918 1
946 918 1
748 919 1
751 919 1
769 919 1
779 919 1
848 919 1
863 919 1
929 919 1
947 919 1
749 920 1
752 920 1
770 920 1
780 920 1
849 920 1
864 920 1
930 920 1
948 920 1
750 921 1
753 921 1
771 921 1
781 921 1
850 921 1
865 921 1
931 921 1
949 921 1
751 922 1
754 922 1
772 922 1
782 922 1
851 922 1
866 922 1
932 922 1
950 922 1
752 923 1
755 923 1
773 923 1
783 923 1
852 923 1
867 923 1
933 923 1
951 923 1
753 924 1
756 924 1
774 924 1
784 924 1
853 924 1
868 924 1
934 924 1
952 924 1
785 925 1
810 925 1
813 925 1
831 925 1
841 925 1
858 925 1
953 925 1
963 925 1
786 926 1
811 926 1
814 926 1
832 926 1
842 926 1
859 926 1
954 926 1
964 926 1
787 927 1
812 927 1
815 927 1
833 927 1
843 927 1
860 927 1
955 927 1
965 927 1
785 928 1
788 928 1
816 928 1
834 928 1
844 928 1
861 928 1
956 928 1
966 928 1
786 929 1
789 929 1
817 929 1
835 929 1
845 929 1
862 929 1
957 929 1
967 929 1
787 930 1
790 930 1
818 930 1
836 930 1
846 930 1
863 930 1
958 930 1
968 930 1
788 931 1
791 931 1
819 931 1
837 931 1
847 931 1
864 931 1
959 931 1
969 931 1
789 932 1
792 932 1
820 932 1
838 932 1
848 932 1
865 932 1
960 932 1
970 932 1
790 933 1
793 933 1
821 933 1
839 933 1
849 933 1
866 933 1
961 933 1
971 933 1
791 934 1
794 934 1
822 934 1
840 934 1
850 934 1
867 934 1
962 934 1
972 934 1
792 935 1
795 935 1
813 935 1
823 935 1
851 935 1
868 935 1
963 935 1
973 935 1
793 936 1
796 936 1
814 936 1
824 936 1
841 936 1
852 936 1
964 936 1
974 936 1
794 937 1
797 937 1
815 937 1
825 937 1
842 937 1
853 937 1
965 937 1
975 937 1
795 938 1
798 938 1
816 938 1
826 938 1
843 938 1
854 938 1
966 938 1
976 938 1
796 939 1
799 939 1
817 939 1
827 939 1
844 939 1
855 939 1
967 939 1
977 939 1
797 940 1
800 940 1
818 940 1
828 940 1
845 940 1
856 940 1
968 940 1
978 940 1
798 941 1
801 941 1
819 941 1
829 941 1
846 941 1
857 941 1
969 941 1
979 941 1
799 942 1
802 942 1
820 942 1
830 942 1
847 942 1
858 942 1
970 942 1
980 942 1
800 943 1
803 943 1
821 943 1
831 943 1
848 943 1
859 943 1
953 943 1
971 943 1
801 944 1
804 944 1
822 944 1
832 944 1
849 944 1
860 944 1
954 944 1
972 944 1
802 945 1
805 945 1
823 945 1
833 945 1
850 945 1
861 945 1
955 945 1
973 945 1
803 946 1
806 946 1
824 946 1
834 946 1
851 946 1
862 946 1
956 946 1
974 946 1
804 947 1
807 947 1
825 947 1
835 947 1
852 947 1
863 947 1
957 947 1
975 947 1
805 948 1
808 948 1
826 948 1
836 948 1
853 948 1
864 948 1
958 948 1
976 948 1
806 949 1
809 949 1
827 949 1
837 949 1
854 949 1
865 949 1
959 949 1
977 949 1
807 950 1
810 950 1
828 950 1
838 950 1
855 950 1
866 950 1
960 950 1
978 950 1
808 951 1
811 951 1
829 951 1
839 951 1
856 951 1
867 951 1
961 951 1
979 951 1
809 952 1
812 952 1
830 952 1
840 952 1
857 952 1
868 952 1
962 952 1
980 952 1
869 953 1
894 953 1
897 953 1
915 953 1
925 953 1
942 953 1
953 953 1
966 953 1
870 954 1
895 954 1
898 954 1
916 954 1
926 954 1
943 954 1
954 954 1
967 954 1
871 955 1
896 955 1
899 955 1
917 955 1
927 955 1
944 955 1
955 955 1
968 955 1
869 956 1
872 956 1
900 956 1
918 956 1
928 956 1
945 956 1
956 956 1
969 956 1
870 957 1
873 957 1
901 957 1
919 957 1
929 957 1
946 957 1
957 957 1
970 957 1
871 958 1
874 958 1
902 958 1
920 958 1
930 958 1
947 958 1
958 958 1
971 958 1
872 959 1
875 959 1
903 959 1
921 959 1
931 959 1
948 959 1
959 959 1
972 959 1
873 960 1
876 960 1
904 960 1
922 960 1
932 960 1
949 960 1
960 960 1
973 960 1
874 961 1
877 961 1
905 961 1
923 961 1
933 961 1
950 961 1
961 961 1
974 961 1
875 962 1
878 962 1
906 962 1
924 962 1
934 962 1
951 962 1
962 962 1
975 962 1
876 963 1
879 963 1
897 963 1
907 963 1
935 963 1
952 963 1
963 963 1
976 963 1
877 964 1
880 964 1
898 964 1
908 964 1
925 964 1
936 964 1
964 964 1
977 964 1
878 965 1
881 965 1
899 965 1
909 965 1
926 965 1
937 965 1
965 965 1
978 965 1
879 966 1
882 966 1
900 966 1
910 966 1
927 966 1
938 966 1
966 966 1
979 966 1
880 967 1
883 967 1
901 967 1
911 967 1
928 967 1
939 967 1
967 967 1
980 967 1
881 968 1
884 968 1
902 968 1
912 968 1
929 968 1
940 968 1
953 968 1
968 968 1
882 969 1
885 969 1
903 969 1
913 969 1
930 969 1
941 969 1
954 969 1
969 969 1
883 970 1
886 970 1
904 970 1
914 970 1
931 970 1
942 970 1
955 970 1
970 970 1
884 971 1
887 971 1
905 971 1
915 971 1
932 971 1
943 971 1
956 971 1
971 971 1
885 972 1
888 972 1
906 972 1
916 972 1
933 972 1
944 972 1
957 972 1
972 972 1
886 973 1
889 973 1
907 973 1
917 973 1
934 973 1
945 973 1
958 973 1
973 973 1
887 974 1
890 974 1
908 974 1
918 974 1
935 974 1
946 974 1
959 974 1
974 974 1
888 975 1
891 975 1
909 975 1
919 975 1
936 975 1
947 975 1
960 975 1
975 975 1
889 976 1
892 976 1
910 976 1
920 976 1
937 976 1
948 976 1
961 976 1
976 976 1
890 977 1
893 977 1
911 977 1
921 977 1
938 977 1
949 977 1
962 977 1
977 977 1
891 978 1
894 978 1
912 978 1
922 978 1
939 978 1
950 978 1
963 978 1
978 978 1
892 979 1
895 979 1
913 979 1
923 979 1
940 979 1
951 979 1
964 979 1
979 979 1
893 980 1
896 980 1
914 980 1
924 980 1
941 980 1
952 980 1
965 980 1
980 980 1
