%%MatrixMarket matrix coordinate integer general
% Binary matrix; one-based indices; arithmetic over GF(2)
910 910 7280
1 1 1
16 1 1
27 1 1
36 1 1
131 1 1
137 1 1
391 1 1
393 1 1
2 2 1
17 2 1
28 2 1
37 2 1
132 2 1
138 2 1
392 2 1
394 2 1
3 3 1
18 3 1
29 3 1
38 3 1
133 3 1
139 3 1
393 3 1
395 3 1
4 4 1
19 4 1
30 4 1
39 4 1
134 4 1
140 4 1
394 4 1
396 4 1
5 5 1
20 5 1
31 5 1
40 5 1
135 5 1
141 5 1
395 5 1
397 5 1
6 6 1
21 6 1
32 6 1
41 6 1
136 6 1
142 6 1
396 6 1
398 6 1
7 7 1
22 7 1
33 7 1
42 7 1
137 7 1
143 7 1
397 7 1
399 7 1
8 8 1
23 8 1
34 8 1
43 8 1
138 8 1
144 8 1
398 8 1
400 8 1
9 9 1
24 9 1
35 9 1
44 9 1
139 9 1
145 9 1
399 9 1
401 9 1
10 10 1
25 10 1
36 10 1
45 10 1
140 10 1
146 10 1
400 10 1
402 10 1
11 11 1
26 11 1
37 11 1
46 11 1
141 11 1
147 11 1
401 11 1
403 11 1
1 12 1
12 12 1
38 12 1
47 12 1
142 12 1
148 12 1
402 12 1
404 12 1
2 13 1
13 13 1
39 13 1
48 13 1
143 13 1
149 13 1
403 13 1
405 13 1
3 14 1
14 14 1
40 14 1
49 14 1
144 14 1
150 14 1
404 14 1
406 14 1
4 15 1
15 15 1
41 15 1
50 15 1
145 15 1
151 15 1
405 15 1
407 15 1
5 16 1
16 16 1
42 16 1
51 16 1
146 16 1
152 16 1
406 16 1
408 16 1
6 17 1
17 17 1
43 17 1
52 17 1
147 17 1
153 17 1
407 17 1
409 17 1
7 18 1
18 18 1
27 18 1
44 18 1
148 18 1
154 18 1
408 18 1
410 18 1
8 19 1
19 19 1
28 19 1
45 19 1
149 19 1
155 19 1
409 19 1
411 19 1
9 20 1
20 20 1
29 20 1
46 20 1
150 20 1
156 20 1
410 20 1
412 20 1
10 21 1
21 21 1
30 21 1
47 21 1
131 21 1
151 21 1
411 21 1
413 21 1
11 22 1
22 22 1
31 22 1
48 22 1
132 22 1
152 22 1
412 22 1
414 22 1
12 23 1
23 23 1
32 23 1
49 23 1
133 23 1
153 23 1
413 23 1
415 23 1
13 24 1
24 24 1
33 24 1
50 24 1
134 24 1
154 24 1
414 24 1
416 24 1
14 25 1
25 25 1
34 25 1
51 25 1
135 25 1
155 25 1
391 25 1
415 25 1
15 26 1
26 26 1
35 26 1
52 26 1
136 26 1
156 26 1
392 26 1
416 26 1
1 27 1
17 27 1
53 27 1
62 27 1
157 27 1
163 27 1
417 27 1
419 27 1
2 28 1
18 28 1
54 28 1
63 28 1
158 28 1
164 28 1
418 28 1
420 28 1
3 29 1
19 29 1
55 29 1
64 29 1
159 29 1
165 29 1
419 29 1
421 29 1
4 30 1
20 30 1
56 30 1
65 30 1
160 30 1
166 30 1
420 30 1
422 30 1
5 31 1
21 31 1
57 31 1
66 31 1
161 31 1
167 31 1
421 31 1
423 31 1
6 32 1
22 32 1
58 32 1
67 32 1
162 32 1
168 32 1
422 32 1
424 32 1
7 33 1
23 33 1
59 33 1
68 33 1
163 33 1
169 33 1
423 33 1
425 33 1
8 34 1
24 34 1
60 34 1
69 34 1
164 34 1
170 34 1
424 34 1
426 34 1
9 35 1
25 35 1
61 35 1
70 35 1
165 35 1
171 35 1
425 35 1
427 35 1
10 36 1
26 36 1
62 36 1
71 36 1
166 36 1
172 36 1
426 36 1
428 36 1
1 37 1
11 37 1
63 37 1
72 37 1
167 37 1
173 37 1
427 37 1
429 37 1
2 38 1
12 38 1
64 38 1
73 38 1
168 38 1
174 38 1
428 38 1
430 38 1
3 39 1
13 39 1
65 39 1
74 39 1
169 39 1
175 39 1
429 39 1
431 39 1
4 40 1
14 40 1
66 40 1
75 40 1
170 40 1
176 40 1
430 40 1
432 40 1
5 41 1
15 41 1
67 41 1
76 41 1
171 41 1
177 41 1
431 41 1
433 41 1
6 42 1
16 42 1
68 42 1
77 42 1
172 42 1
178 42 1
432 42 1
434 42 1
7 43 1
17 43 1
69 43 1
78 43 1
173 43 1
179 43 1
433 43 1
435 43 1
8 44 1
18 44 1
53 44 1
70 44 1
174 44 1
180 44 1
434 44 1
436 44 1
9 45 1
19 45 1
54 45 1
71 45 1
175 45 1
181 45 1
435 45 1
437 45 1
10 46 1
20 46 1
55 46 1
72 46 1
176 46 1
182 46 1
436 46 1
438 46 1
11 47 1
21 47 1
56 47 1
73 47 1
157 47 1
177 47 1
437 47 1
439 47 1
12 48 1
22 48 1
57 48 1
74 48 1
158 48 1
178 48 1
438 48 1
440 48 1
13 49 1
23 49 1
58 49 1
75 49 1
159 49 1
179 49 1
439 49 1
441 49 1
14 50 1
24 50 1
59 50 1
76 50 1
160 50 1
180 50 1
440 50 1
442 50 1
15 51 1
25 51 1
60 51 1
77 51 1
161 51 1
181 51 1
417 51 1
441 51 1
16 52 1
26 52 1
61 52 1
78 52 1
162 52 1
182 52 1
418 52 1
442 52 1
1 53 1
24 53 1
79 53 1
88 53 1
183 53 1
189 53 1
443 53 1
445 53 1
2 54 1
25 54 1
80 54 1
89 54 1
184 54 1
190 54 1
444 54 1
446 54 1
3 55 1
26 55 1
81 55 1
90 55 1
185 55 1
191 55 1
445 55 1
447 55 1
1 56 1
4 56 1
82 56 1
91 56 1
186 56 1
192 56 1
446 56 1
448 56 1
2 57 1
5 57 1
83 57 1
92 57 1
187 57 1
193 57 1
447 57 1
449 57 1
3 58 1
6 58 1
84 58 1
93 58 1
188 58 1
194 58 1
448 58 1
450 58 1
4 59 1
7 59 1
85 59 1
94 59 1
189 59 1
195 59 1
449 59 1
451 59 1
5 60 1
8 60 1
86 60 1
95 60 1
190 60 1
196 60 1
450 60 1
452 60 1
6 61 1
9 61 1
87 61 1
96 61 1
191 61 1
197 61 1
451 61 1
453 61 1
7 62 1
10 62 1
88 62 1
97 62 1
192 62 1
198 62 1
452 62 1
454 62 1
8 63 1
11 63 1
89 63 1
98 63 1
193 63 1
199 63 1
453 63 1
455 63 1
9 64 1
12 64 1
90 64 1
99 64 1
194 64 1
200 64 1
454 64 1
456 64 1
10 65 1
13 65 1
91 65 1
100 65 1
195 65 1
201 65 1
455 65 1
457 65 1
11 66 1
14 66 1
92 66 1
101 66 1
196 66 1
202 66 1
456 66 1
458 66 1
12 67 1
15 67 1
93 67 1
102 67 1
197 67 1
203 67 1
457 67 1
459 67 1
13 68 1
16 68 1
94 68 1
103 68 1
198 68 1
204 68 1
458 68 1
460 68 1
14 69 1
17 69 1
95 69 1
104 69 1
199 69 1
205 69 1
459 69 1
461 69 1
15 70 1
18 70 1
79 70 1
96 70 1
200 70 1
206 70 1
460 70 1
462 70 1
16 71 1
19 71 1
80 71 1
97 71 1
201 71 1
207 71 1
461 71 1
463 71 1
17 72 1
20 72 1
81 72 1
98 72 1
202 72 1
208 72 1
462 72 1
464 72 1
18 73 1
21 73 1
82 73 1
99 73 1
183 73 1
203 73 1
463 73 1
465 73 1
19 74 1
22 74 1
83 74 1
100 74 1
184 74 1
204 74 1
464 74 1
466 74 1
20 75 1
23 75 1
84 75 1
101 75 1
185 75 1
205 75 1
465 75 1
467 75 1
21 76 1
24 76 1
85 76 1
102 76 1
186 76 1
206 76 1
466 76 1
468 76 1
22 77 1
25 77 1
86 77 1
103 77 1
187 77 1
207 77 1
443 77 1
467 77 1
23 78 1
26 78 1
87 78 1
104 78 1
188 78 1
208 78 1
444 78 1
468 78 1
1 79 1
26 79 1
105 79 1
114 79 1
209 79 1
215 79 1
469 79 1
471 79 1
1 80 1
2 80 1
106 80 1
115 80 1
210 80 1
216 80 1
470 80 1
472 80 1
2 81 1
3 81 1
107 81 1
116 81 1
211 81 1
217 81 1
471 81 1
473 81 1
3 82 1
4 82 1
108 82 1
117 82 1
212 82 1
218 82 1
472 82 1
474 82 1
4 83 1
5 83 1
109 83 1
118 83 1
213 83 1
219 83 1
473 83 1
475 83 1
5 84 1
6 84 1
110 84 1
119 84 1
214 84 1
220 84 1
474 84 1
476 84 1
6 85 1
7 85 1
111 85 1
120 85 1
215 85 1
221 85 1
475 85 1
477 85 1
7 86 1
8 86 1
112 86 1
121 86 1
216 86 1
222 86 1
476 86 1
478 86 1
8 87 1
9 87 1
113 87 1
122 87 1
217 87 1
223 87 1
477 87 1
479 87 1
9 88 1
10 88 1
114 88 1
123 88 1
218 88 1
224 88 1
478 88 1
480 88 1
10 89 1
11 89 1
115 89 1
124 89 1
219 89 1
225 89 1
479 89 1
481 89 1
11 90 1
12 90 1
116 90 1
125 90 1
220 90 1
226 90 1
480 90 1
482 90 1
12 91 1
13 91 1
117 91 1
126 91 1
221 91 1
227 91 1
481 91 1
483 91 1
13 92 1
14 92 1
118 92 1
127 92 1
222 92 1
228 92 1
482 92 1
484 92 1
14 93 1
15 93 1
119 93 1
128 93 1
223 93 1
229 93 1
483 93 1
485 93 1
15 94 1
16 94 1
120 94 1
129 94 1
224 94 1
230 94 1
484 94 1
486 94 1
16 95 1
17 95 1
121 95 1
130 95 1
225 95 1
231 95 1
485 95 1
487 95 1
17 96 1
18 96 1
105 96 1
122 96 1
226 96 1
232 96 1
486 96 1
488 96 1
18 97 1
19 97 1
106 97 1
123 97 1
227 97 1
233 97 1
487 97 1
489 97 1
19 98 1
20 98 1
107 98 1
124 98 1
228 98 1
234 98 1
488 98 1
490 98 1
20 99 1
21 99 1
108 99 1
125 99 1
209 99 1
229 99 1
489 99 1
491 99 1
21 100 1
22 100 1
109 100 1
126 100 1
210 100 1
230 100 1
490 100 1
492 100 1
22 101 1
23 101 1
110 101 1
127 101 1
211 101 1
231 101 1
491 101 1
493 101 1
23 102 1
24 102 1
111 102 1
128 102 1
212 102 1
232 102 1
492 102 1
494 102 1
24 103 1
25 103 1
112 103 1
129 103 1
213 103 1
233 103 1
469 103 1
493 103 1
25 104 1
26 104 1
113 104 1
130 104 1
214 104 1
234 104 1
470 104 1
494 104 1
27 105 1
43 105 1
53 105 1
68 105 1
235 105 1
241 105 1
495 105 1
497 105 1
28 106 1
44 106 1
54 106 1
69 106 1
236 106 1
242 106 1
496 106 1
498 106 1
29 107 1
45 107 1
55 107 1
70 107 1
237 107 1
243 107 1
497 107 1
499 107 1
30 108 1
46 108 1
56 108 1
71 108 1
238 108 1
244 108 1
498 108 1
500 108 1
31 109 1
47 109 1
57 109 1
72 109 1
239 109 1
245 109 1
499 109 1
501 109 1
32 110 1
48 110 1
58 110 1
73 110 1
240 110 1
246 110 1
500 110 1
502 110 1
33 111 1
49 111 1
59 111 1
74 111 1
241 111 1
247 111 1
501 111 1
503 111 1
34 112 1
50 112 1
60 112 1
75 112 1
242 112 1
248 112 1
502 112 1
504 112 1
35 113 1
51 113 1
61 113 1
76 113 1
243 113 1
249 113 1
503 113 1
505 113 1
36 114 1
52 114 1
62 114 1
77 114 1
244 114 1
250 114 1
504 114 1
506 114 1
27 115 1
37 115 1
63 115 1
78 115 1
245 115 1
251 115 1
505 115 1
507 115 1
28 116 1
38 116 1
53 116 1
64 116 1
246 116 1
252 116 1
506 116 1
508 116 1
29 117 1
39 117 1
54 117 1
65 117 1
247 117 1
253 117 1
507 117 1
509 117 1
30 118 1
40 118 1
55 118 1
66 118 1
248 118 1
254 118 1
508 118 1
510 118 1
31 119 1
41 119 1
56 119 1
67 119 1
249 119 1
255 119 1
509 119 1
511 119 1
32 120 1
42 120 1
57 120 1
68 120 1
250 120 1
256 120 1
510 120 1
512 120 1
33 121 1
43 121 1
58 121 1
69 121 1
251 121 1
257 121 1
511 121 1
513 121 1
34 122 1
44 122 1
59 122 1
70 122 1
252 122 1
258 122 1
512 122 1
514 122 1
35 123 1
45 123 1
60 123 1
71 123 1
253 123 1
259 123 1
513 123 1
515 123 1
36 124 1
46 124 1
61 124 1
72 124 1
254 124 1
260 124 1
514 124 1
516 124 1
37 125 1
47 125 1
62 125 1
73 125 1
235 125 1
255 125 1
515 125 1
517 125 1
38 126 1
48 126 1
63 126 1
74 126 1
236 126 1
256 126 1
516 126 1
518 126 1
39 127 1
49 127 1
64 127 1
75 127 1
237 127 1
257 127 1
517 127 1
519 127 1
40 128 1
50 128 1
65 128 1
76 128 1
238 128 1
258 128 1
518 128 1
520 128 1
41 129 1
51 129 1
66 129 1
77 129 1
239 129 1
259 129 1
495 129 1
519 129 1
42 130 1
52 130 1
67 130 1
78 130 1
240 130 1
260 130 1
496 130 1
520 130 1
27 131 1
50 131 1
79 131 1
94 131 1
261 131 1
267 131 1
521 131 1
523 131 1
28 132 1
51 132 1
80 132 1
95 132 1
262 132 1
268 132 1
522 132 1
524 132 1
29 133 1
52 133 1
81 133 1
96 133 1
263 133 1
269 133 1
523 133 1
525 133 1
27 134 1
30 134 1
82 134 1
97 134 1
264 134 1
270 134 1
524 134 1
526 134 1
28 135 1
31 135 1
83 135 1
98 135 1
265 135 1
271 135 1
525 135 1
527 135 1
29 136 1
32 136 1
84 136 1
99 136 1
266 136 1
272 136 1
526 136 1
528 136 1
30 137 1
33 137 1
85 137 1
100 137 1
267 137 1
273 137 1
527 137 1
529 137 1
31 138 1
34 138 1
86 138 1
101 138 1
268 138 1
274 138 1
528 138 1
530 138 1
32 139 1
35 139 1
87 139 1
102 139 1
269 139 1
275 139 1
529 139 1
531 139 1
33 140 1
36 140 1
88 140 1
103 140 1
270 140 1
276 140 1
530 140 1
532 140 1
34 141 1
37 141 1
89 141 1
104 141 1
271 141 1
277 141 1
531 141 1
533 141 1
35 142 1
38 142 1
79 142 1
90 142 1
272 142 1
278 142 1
532 142 1
534 142 1
36 143 1
39 143 1
80 143 1
91 143 1
273 143 1
279 143 1
533 143 1
535 143 1
37 144 1
40 144 1
81 144 1
92 144 1
274 144 1
280 144 1
534 144 1
536 144 1
38 145 1
41 145 1
82 145 1
93 145 1
275 145 1
281 145 1
535 145 1
537 145 1
39 146 1
42 146 1
83 146 1
94 146 1
276 146 1
282 146 1
536 146 1
538 146 1
40 147 1
43 147 1
84 147 1
95 147 1
277 147 1
283 147 1
537 147 1
539 147 1
41 148 1
44 148 1
85 148 1
96 148 1
278 148 1
284 148 1
538 148 1
540 148 1
42 149 1
45 149 1
86 149 1
97 149 1
279 149 1
285 149 1
539 149 1
541 149 1
43 150 1
46 150 1
87 150 1
98 150 1
280 150 1
286 150 1
540 150 1
542 150 1
44 151 1
47 151 1
88 151 1
99 151 1
261 151 1
281 151 1
541 151 1
543 151 1
45 152 1
48 152 1
89 152 1
100 152 1
262 152 1
282 152 1
542 152 1
544 152 1
46 153 1
49 153 1
90 153 1
101 153 1
263 153 1
283 153 1
543 153 1
545 153 1
47 154 1
50 154 1
91 154 1
102 154 1
264 154 1
284 154 1
544 154 1
546 154 1
48 155 1
51 155 1
92 155 1
103 155 1
265 155 1
285 155 1
521 155 1
545 155 1
49 156 1
52 156 1
93 156 1
104 156 1
266 156 1
286 156 1
522 156 1
546 156 1
27 157 1
52 157 1
105 157 1
120 157 1
287 157 1
293 157 1
547 157 1
549 157 1
27 158 1
28 158 1
106 158 1
121 158 1
288 158 1
294 158 1
548 158 1
550 158 1
28 159 1
29 159 1
107 159 1
122 159 1
289 159 1
295 159 1
549 159 1
551 159 1
29 160 1
30 160 1
108 160 1
123 160 1
290 160 1
296 160 1
550 160 1
552 160 1
30 161 1
31 161 1
109 161 1
124 161 1
291 161 1
297 161 1
551 161 1
553 161 1
31 162 1
32 162 1
110 162 1
125 162 1
292 162 1
298 162 1
552 162 1
554 162 1
32 163 1
33 163 1
111 163 1
126 163 1
293 163 1
299 163 1
553 163 1
555 163 1
33 164 1
34 164 1
112 164 1
127 164 1
294 164 1
300 164 1
554 164 1
556 164 1
34 165 1
35 165 1
113 165 1
128 165 1
295 165 1
301 165 1
555 165 1
557 165 1
35 166 1
36 166 1
114 166 1
129 166 1
296 166 1
302 166 1
556 166 1
558 166 1
36 167 1
37 167 1
115 167 1
130 167 1
297 167 1
303 167 1
557 167 1
559 167 1
37 168 1
38 168 1
105 168 1
116 168 1
298 168 1
304 168 1
558 168 1
560 168 1
38 169 1
39 169 1
106 169 1
117 169 1
299 169 1
305 169 1
559 169 1
561 169 1
39 170 1
40 170 1
107 170 1
118 170 1
300 170 1
306 170 1
560 170 1
562 170 1
40 171 1
41 171 1
108 171 1
119 171 1
301 171 1
307 171 1
561 171 1
563 171 1
41 172 1
42 172 1
109 172 1
120 172 1
302 172 1
308 172 1
562 172 1
564 172 1
42 173 1
43 173 1
110 173 1
121 173 1
303 173 1
309 173 1
563 173 1
565 173 1
43 174 1
44 174 1
111 174 1
122 174 1
304 174 1
310 174 1
564 174 1
566 174 1
44 175 1
45 175 1
112 175 1
123 175 1
305 175 1
311 175 1
565 175 1
567 175 1
45 176 1
46 176 1
113 176 1
124 176 1
306 176 1
312 176 1
566 176 1
568 176 1
46 177 1
47 177 1
114 177 1
125 177 1
287 177 1
307 177 1
567 177 1
569 177 1
47 178 1
48 178 1
115 178 1
126 178 1
288 178 1
308 178 1
568 178 1
570 178 1
48 179 1
49 179 1
116 179 1
127 179 1
289 179 1
309 179 1
569 179 1
571 179 1
49 180 1
50 180 1
117 180 1
128 180 1
290 180 1
310 180 1
570 180 1
572 180 1
50 181 1
51 181 1
118 181 1
129 181 1
291 181 1
311 181 1
547 181 1
571 181 1
51 182 1
52 182 1
119 182 1
130 182 1
292 182 1
312 182 1
548 182 1
572 182 1
53 183 1
76 183 1
79 183 1
95 183 1
313 183 1
319 183 1
573 183 1
575 183 1
54 184 1
77 184 1
80 184 1
96 184 1
314 184 1
320 184 1
574 184 1
576 184 1
55 185 1
78 185 1
81 185 1
97 185 1
315 185 1
321 185 1
575 185 1
577 185 1
53 186 1
56 186 1
82 186 1
98 186 1
316 186 1
322 186 1
576 186 1
578 186 1
54 187 1
57 187 1
83 187 1
99 187 1
317 187 1
323 187 1
577 187 1
579 187 1
55 188 1
58 188 1
84 188 1
100 188 1
318 188 1
324 188 1
578 188 1
580 188 1
56 189 1
59 189 1
85 189 1
101 189 1
319 189 1
325 189 1
579 189 1
581 189 1
57 190 1
60 190 1
86 190 1
102 190 1
320 190 1
326 190 1
580 190 1
582 190 1
58 191 1
61 191 1
87 191 1
103 191 1
321 191 1
327 191 1
581 191 1
583 191 1
59 192 1
62 192 1
88 192 1
104 192 1
322 192 1
328 192 1
582 192 1
584 192 1
60 193 1
63 193 1
79 193 1
89 193 1
323 193 1
329 193 1
583 193 1
585 193 1
61 194 1
64 194 1
80 194 1
90 194 1
324 194 1
330 194 1
584 194 1
586 194 1
62 195 1
65 195 1
81 195 1
91 195 1
325 195 1
331 195 1
585 195 1
587 195 1
63 196 1
66 196 1
82 196 1
92 196 1
326 196 1
332 196 1
586 196 1
588 196 1
64 197 1
67 197 1
83 197 1
93 197 1
327 197 1
333 197 1
587 197 1
589 197 1
65 198 1
68 198 1
84 198 1
94 198 1
328 198 1
334 198 1
588 198 1
590 198 1
66 199 1
69 199 1
85 199 1
95 199 1
329 199 1
335 199 1
589 199 1
591 199 1
67 200 1
70 200 1
86 200 1
96 200 1
330 200 1
336 200 1
590 200 1
592 200 1
68 201 1
71 201 1
87 201 1
97 201 1
331 201 1
337 201 1
591 201 1
593 201 1
69 202 1
72 202 1
88 202 1
98 202 1
332 202 1
338 202 1
592 202 1
594 202 1
70 203 1
73 203 1
89 203 1
99 203 1
313 203 1
333 203 1
593 203 1
595 203 1
71 204 1
74 204 1
90 204 1
100 204 1
314 204 1
334 204 1
594 204 1
596 204 1
72 205 1
75 205 1
91 205 1
101 205 1
315 205 1
335 205 1
595 205 1
597 205 1
73 206 1
76 206 1
92 206 1
102 206 1
316 206 1
336 206 1
596 206 1
598 206 1
74 207 1
77 207 1
93 207 1
103 207 1
317 207 1
337 207 1
573 207 1
597 207 1
75 208 1
78 208 1
94 208 1
104 208 1
318 208 1
338 208 1
574 208 1
598 208 1
53 209 1
78 209 1
105 209 1
121 209 1
339 209 1
345 209 1
599 209 1
601 209 1
53 210 1
54 210 1
106 210 1
122 210 1
340 210 1
346 210 1
600 210 1
602 210 1
54 211 1
55 211 1
107 211 1
123 211 1
341 211 1
347 211 1
601 211 1
603 211 1
55 212 1
56 212 1
108 212 1
124 212 1
342 212 1
348 212 1
602 212 1
604 212 1
56 213 1
57 213 1
109 213 1
125 213 1
343 213 1
349 213 1
603 213 1
605 213 1
57 214 1
58 214 1
110 214 1
126 214 1
344 214 1
350 214 1
604 214 1
606 214 1
58 215 1
59 215 1
111 215 1
127 215 1
345 215 1
351 215 1
605 215 1
607 215 1
59 216 1
60 216 1
112 216 1
128 216 1
346 216 1
352 216 1
606 216 1
608 216 1
60 217 1
61 217 1
113 217 1
129 217 1
347 217 1
353 217 1
607 217 1
609 217 1
61 218 1
62 218 1
114 218 1
130 218 1
348 218 1
354 218 1
608 218 1
610 218 1
62 219 1
63 219 1
105 219 1
115 219 1
349 219 1
355 219 1
609 219 1
611 219 1
63 220 1
64 220 1
106 220 1
116 220 1
350 220 1
356 220 1
610 220 1
612 220 1
64 221 1
65 221 1
107 221 1
117 221 1
351 221 1
357 221 1
611 221 1
613 221 1
65 222 1
66 222 1
108 222 1
118 222 1
352 222 1
358 222 1
612 222 1
614 222 1
66 223 1
67 223 1
109 223 1
119 223 1
353 223 1
359 223 1
613 223 1
615 223 1
67 224 1
68 224 1
110 224 1
120 224 1
354 224 1
360 224 1
614 224 1
616 224 1
68 225 1
69 225 1
111 225 1
121 225 1
355 225 1
361 225 1
615 225 1
617 225 1
69 226 1
70 226 1
112 226 1
122 226 1
356 226 1
362 226 1
616 226 1
618 226 1
70 227 1
71 227 1
113 227 1
123 227 1
357 227 1
363 227 1
617 227 1
619 227 1
71 228 1
72 228 1
114 228 1
124 228 1
358 228 1
364 228 1
618 228 1
620 228 1
72 229 1
73 229 1
115 229 1
125 229 1
339 229 1
359 229 1
619 229 1
621 229 1
73 230 1
74 230 1
116 230 1
126 230 1
340 230 1
360 230 1
620 230 1
622 230 1
74 231 1
75 231 1
117 231 1
127 231 1
341 231 1
361 231 1
621 231 1
623 231 1
75 232 1
76 232 1
118 232 1
128 232 1
342 232 1
362 232 1
622 232 1
624 232 1
76 233 1
77 233 1
119 233 1
129 233 1
343 233 1
363 233 1
599 233 1
623 233 1
77 234 1
78 234 1
120 234 1
130 234 1
344 234 1
364 234 1
600 234 1
624 234 1
79 235 1
104 235 1
105 235 1
128 235 1
365 235 1
371 235 1
625 235 1
627 235 1
79 236 1
80 236 1
106 236 1
129 236 1
366 236 1
372 236 1
626 236 1
628 236 1
80 237 1
81 237 1
107 237 1
130 237 1
367 237 1
373 237 1
627 237 1
629 237 1
81 238 1
82 238 1
105 238 1
108 238 1
368 238 1
374 238 1
628 238 1
630 238 1
82 239 1
83 239 1
106 239 1
109 239 1
369 239 1
375 239 1
629 239 1
631 239 1
83 240 1
84 240 1
107 240 1
110 240 1
370 240 1
376 240 1
630 240 1
632 240 1
84 241 1
85 241 1
108 241 1
111 241 1
371 241 1
377 241 1
631 241 1
633 241 1
85 242 1
86 242 1
109 242 1
112 242 1
372 242 1
378 242 1
632 242 1
634 242 1
86 243 1
87 243 1
110 243 1
113 243 1
373 243 1
379 243 1
633 243 1
635 243 1
87 244 1
88 244 1
111 244 1
114 244 1
374 244 1
380 244 1
634 244 1
636 244 1
88 245 1
89 245 1
112 245 1
115 245 1
375 245 1
381 245 1
635 245 1
637 245 1
89 246 1
90 246 1
113 246 1
116 246 1
376 246 1
382 246 1
636 246 1
638 246 1
90 247 1
91 247 1
114 247 1
117 247 1
377 247 1
383 247 1
637 247 1
639 247 1
91 248 1
92 248 1
115 248 1
118 248 1
378 248 1
384 248 1
638 248 1
640 248 1
92 249 1
93 249 1
116 249 1
119 249 1
379 249 1
385 249 1
639 249 1
641 249 1
93 250 1
94 250 1
117 250 1
120 250 1
380 250 1
386 250 1
640 250 1
642 250 1
94 251 1
95 251 1
118 251 1
121 251 1
381 251 1
387 251 1
641 251 1
643 251 1
95 252 1
96 252 1
119 252 1
122 252 1
382 252 1
388 252 1
642 252 1
644 252 1
96 253 1
97 253 1
120 253 1
123 253 1
383 253 1
389 253 1
643 253 1
645 253 1
97 254 1
98 254 1
121 254 1
124 254 1
384 254 1
390 254 1
644 254 1
646 254 1
98 255 1
99 255 1
122 255 1
125 255 1
365 255 1
385 255 1
645 255 1
647 255 1
99 256 1
100 256 1
123 256 1
126 256 1
366 256 1
386 256 1
646 256 1
648 256 1
100 257 1
101 257 1
124 257 1
127 257 1
367 257 1
387 257 1
647 257 1
649 257 1
101 258 1
102 258 1
125 258 1
128 258 1
368 258 1
388 258 1
648 258 1
650 258 1
102 259 1
103 259 1
126 259 1
129 259 1
369 259 1
389 259 1
625 259 1
649 259 1
103 260 1
104 260 1
127 260 1
130 260 1
370 260 1
390 260 1
626 260 1
650 260 1
131 261 1
147 261 1
157 261 1
172 261 1
235 261 1
244 261 1
651 261 1
653 261 1
132 262 1
148 262 1
158 262 1
173 262 1
236 262 1
245 262 1
652 262 1
654 262 1
133 263 1
149 263 1
159 263 1
174 263 1
237 263 1
246 263 1
653 263 1
655 263 1
134 264 1
150 264 1
160 264 1
175 264 1
238 264 1
247 264 1
654 264 1
656 264 1
135 265 1
151 265 1
161 265 1
176 265 1
239 265 1
248 265 1
655 265 1
657 265 1
136 266 1
152 266 1
162 266 1
177 266 1
240 266 1
249 266 1
656 266 1
658 266 1
137 267 1
153 267 1
163 267 1
178 267 1
241 267 1
250 267 1
657 267 1
659 267 1
138 268 1
154 268 1
164 268 1
179 268 1
242 268 1
251 268 1
658 268 1
660 268 1
139 269 1
155 269 1
165 269 1
180 269 1
243 269 1
252 269 1
659 269 1
661 269 1
140 270 1
156 270 1
166 270 1
181 270 1
244 270 1
253 270 1
660 270 1
662 270 1
131 271 1
141 271 1
167 271 1
182 271 1
245 271 1
254 271 1
661 271 1
663 271 1
132 272 1
142 272 1
157 272 1
168 272 1
246 272 1
255 272 1
662 272 1
664 272 1
133 273 1
143 273 1
158 273 1
169 273 1
247 273 1
256 273 1
663 273 1
665 273 1
134 274 1
144 274 1
159 274 1
170 274 1
248 274 1
257 274 1
664 274 1
666 274 1
135 275 1
145 275 1
160 275 1
171 275 1
249 275 1
258 275 1
665 275 1
667 275 1
136 276 1
146 276 1
161 276 1
172 276 1
250 276 1
259 276 1
666 276 1
668 276 1
137 277 1
147 277 1
162 277 1
173 277 1
251 277 1
260 277 1
667 277 1
669 277 1
138 278 1
148 278 1
163 278 1
174 278 1
235 278 1
252 278 1
668 278 1
670 278 1
139 279 1
149 279 1
164 279 1
175 279 1
236 279 1
253 279 1
669 279 1
671 279 1
140 280 1
150 280 1
165 280 1
176 280 1
237 280 1
254 280 1
670 280 1
672 280 1
141 281 1
151 281 1
166 281 1
177 281 1
238 281 1
255 281 1
671 281 1
673 281 1
142 282 1
152 282 1
167 282 1
178 282 1
239 282 1
256 282 1
672 282 1
674 282 1
143 283 1
153 283 1
168 283 1
179 283 1
240 283 1
257 283 1
673 283 1
675 283 1
144 284 1
154 284 1
169 284 1
180 284 1
241 284 1
258 284 1
674 284 1
676 284 1
145 285 1
155 285 1
170 285 1
181 285 1
242 285 1
259 285 1
651 285 1
675 285 1
146 286 1
156 286 1
171 286 1
182 286 1
243 286 1
260 286 1
652 286 1
676 286 1
131 287 1
154 287 1
183 287 1
198 287 1
261 287 1
270 287 1
677 287 1
679 287 1
132 288 1
155 288 1
184 288 1
199 288 1
262 288 1
271 288 1
678 288 1
680 288 1
133 289 1
156 289 1
185 289 1
200 289 1
263 289 1
272 289 1
679 289 1
681 289 1
131 290 1
134 290 1
186 290 1
201 290 1
264 290 1
273 290 1
680 290 1
682 290 1
132 291 1
135 291 1
187 291 1
202 291 1
265 291 1
274 291 1
681 291 1
683 291 1
133 292 1
136 292 1
188 292 1
203 292 1
266 292 1
275 292 1
682 292 1
684 292 1
134 293 1
137 293 1
189 293 1
204 293 1
267 293 1
276 293 1
683 293 1
685 293 1
135 294 1
138 294 1
190 294 1
205 294 1
268 294 1
277 294 1
684 294 1
686 294 1
136 295 1
139 295 1
191 295 1
206 295 1
269 295 1
278 295 1
685 295 1
687 295 1
137 296 1
140 296 1
192 296 1
207 296 1
270 296 1
279 296 1
686 296 1
688 296 1
138 297 1
141 297 1
193 297 1
208 297 1
271 297 1
280 297 1
687 297 1
689 297 1
139 298 1
142 298 1
183 298 1
194 298 1
272 298 1
281 298 1
688 298 1
690 298 1
140 299 1
143 299 1
184 299 1
195 299 1
273 299 1
282 299 1
689 299 1
691 299 1
141 300 1
144 300 1
185 300 1
196 300 1
274 300 1
283 300 1
690 300 1
692 300 1
142 301 1
145 301 1
186 301 1
197 301 1
275 301 1
284 301 1
691 301 1
693 301 1
143 302 1
146 302 1
187 302 1
198 302 1
276 302 1
285 302 1
692 302 1
694 302 1
144 303 1
147 303 1
188 303 1
199 303 1
277 303 1
286 303 1
693 303 1
695 303 1
145 304 1
148 304 1
189 304 1
200 304 1
261 304 1
278 304 1
694 304 1
696 304 1
146 305 1
149 305 1
190 305 1
201 305 1
262 305 1
279 305 1
695 305 1
697 305 1
147 306 1
150 306 1
191 306 1
202 306 1
263 306 1
280 306 1
696 306 1
698 306 1
148 307 1
151 307 1
192 307 1
203 307 1
264 307 1
281 307 1
697 307 1
699 307 1
149 308 1
152 308 1
193 308 1
204 308 1
265 308 1
282 308 1
698 308 1
700 308 1
150 309 1
153 309 1
194 309 1
205 309 1
266 309 1
283 309 1
699 309 1
701 309 1
151 310 1
154 310 1
195 310 1
206 310 1
267 310 1
284 310 1
700 310 1
702 310 1
152 311 1
155 311 1
196 311 1
207 311 1
268 311 1
285 311 1
677 311 1
701 311 1
153 312 1
156 312 1
197 312 1
208 312 1
269 312 1
286 312 1
678 312 1
702 312 1
131 313 1
156 313 1
209 313 1
224 313 1
287 313 1
296 313 1
703 313 1
705 313 1
131 314 1
132 314 1
210 314 1
225 314 1
288 314 1
297 314 1
704 314 1
706 314 1
132 315 1
133 315 1
211 315 1
226 315 1
289 315 1
298 315 1
705 315 1
707 315 1
133 316 1
134 316 1
212 316 1
227 316 1
290 316 1
299 316 1
706 316 1
708 316 1
134 317 1
135 317 1
213 317 1
228 317 1
291 317 1
300 317 1
707 317 1
709 317 1
135 318 1
136 318 1
214 318 1
229 318 1
292 318 1
301 318 1
708 318 1
710 318 1
136 319 1
137 319 1
215 319 1
230 319 1
293 319 1
302 319 1
709 319 1
711 319 1
137 320 1
138 320 1
216 320 1
231 320 1
294 320 1
303 320 1
710 320 1
712 320 1
138 321 1
139 321 1
217 321 1
232 321 1
295 321 1
304 321 1
711 321 1
713 321 1
139 322 1
140 322 1
218 322 1
233 322 1
296 322 1
305 322 1
712 322 1
714 322 1
140 323 1
141 323 1
219 323 1
234 323 1
297 323 1
306 323 1
713 323 1
715 323 1
141 324 1
142 324 1
209 324 1
220 324 1
298 324 1
307 324 1
714 324 1
716 324 1
142 325 1
143 325 1
210 325 1
221 325 1
299 325 1
308 325 1
715 325 1
717 325 1
143 326 1
144 326 1
211 326 1
222 326 1
300 326 1
309 326 1
716 326 1
718 326 1
144 327 1
145 327 1
212 327 1
223 327 1
301 327 1
310 327 1
717 327 1
719 327 1
145 328 1
146 328 1
213 328 1
224 328 1
302 328 1
311 328 1
718 328 1
720 328 1
146 329 1
147 329 1
214 329 1
225 329 1
303 329 1
312 329 1
719 329 1
721 329 1
147 330 1
148 330 1
215 330 1
226 330 1
287 330 1
304 330 1
720 330 1
722 330 1
148 331 1
149 331 1
216 331 1
227 331 1
288 331 1
305 331 1
721 331 1
723 331 1
149 332 1
150 332 1
217 332 1
228 332 1
289 332 1
306 332 1
722 332 1
724 332 1
150 333 1
151 333 1
218 333 1
229 333 1
290 333 1
307 333 1
723 333 1
725 333 1
151 334 1
152 334 1
219 334 1
230 334 1
291 334 1
308 334 1
724 334 1
726 334 1
152 335 1
153 335 1
220 335 1
231 335 1
292 335 1
309 335 1
725 335 1
727 335 1
153 336 1
154 336 1
221 336 1
232 336 1
293 336 1
310 336 1
726 336 1
728 336 1
154 337 1
155 337 1
222 337 1
233 337 1
294 337 1
311 337 1
703 337 1
727 337 1
155 338 1
156 338 1
223 338 1
234 338 1
295 338 1
312 338 1
704 338 1
728 338 1
157 339 1
180 339 1
183 339 1
199 339 1
313 339 1
322 339 1
729 339 1
731 339 1
158 340 1
181 340 1
184 340 1
200 340 1
314 340 1
323 340 1
730 340 1
732 340 1
159 341 1
182 341 1
185 341 1
201 341 1
315 341 1
324 341 1
731 341 1
733 341 1
157 342 1
160 342 1
186 342 1
202 342 1
316 342 1
325 342 1
732 342 1
734 342 1
158 343 1
161 343 1
187 343 1
203 343 1
317 343 1
326 343 1
733 343 1
735 343 1
159 344 1
162 344 1
188 344 1
204 344 1
318 344 1
327 344 1
734 344 1
736 344 1
160 345 1
163 345 1
189 345 1
205 345 1
319 345 1
328 345 1
735 345 1
737 345 1
161 346 1
164 346 1
190 346 1
206 346 1
320 346 1
329 346 1
736 346 1
738 346 1
162 347 1
165 347 1
191 347 1
207 347 1
321 347 1
330 347 1
737 347 1
739 347 1
163 348 1
166 348 1
192 348 1
208 348 1
322 348 1
331 348 1
738 348 1
740 348 1
164 349 1
167 349 1
183 349 1
193 349 1
323 349 1
332 349 1
739 349 1
741 349 1
165 350 1
168 350 1
184 350 1
194 350 1
324 350 1
333 350 1
740 350 1
742 350 1
166 351 1
169 351 1
185 351 1
195 351 1
325 351 1
334 351 1
741 351 1
743 351 1
167 352 1
170 352 1
186 352 1
196 352 1
326 352 1
335 352 1
742 352 1
744 352 1
168 353 1
171 353 1
187 353 1
197 353 1
327 353 1
336 353 1
743 353 1
745 353 1
169 354 1
172 354 1
188 354 1
198 354 1
328 354 1
337 354 1
744 354 1
746 354 1
170 355 1
173 355 1
189 355 1
199 355 1
329 355 1
338 355 1
745 355 1
747 355 1
171 356 1
174 356 1
190 356 1
200 356 1
313 356 1
330 356 1
746 356 1
748 356 1
172 357 1
175 357 1
191 357 1
201 357 1
314 357 1
331 357 1
747 357 1
749 357 1
173 358 1
176 358 1
192 358 1
202 358 1
315 358 1
332 358 1
748 358 1
750 358 1
174 359 1
177 359 1
193 359 1
203 359 1
316 359 1
333 359 1
749 359 1
751 359 1
175 360 1
178 360 1
194 360 1
204 360 1
317 360 1
334 360 1
750 360 1
752 360 1
176 361 1
179 361 1
195 361 1
205 361 1
318 361 1
335 361 1
751 361 1
753 361 1
177 362 1
180 362 1
196 362 1
206 362 1
319 362 1
336 362 1
752 362 1
754 362 1
178 363 1
181 363 1
197 363 1
207 363 1
320 363 1
337 363 1
729 363 1
753 363 1
179 364 1
182 364 1
198 364 1
208 364 1
321 364 1
338 364 1
730 364 1
754 364 1
157 365 1
182 365 1
209 365 1
225 365 1
339 365 1
348 365 1
755 365 1
757 365 1
157 366 1
158 366 1
210 366 1
226 366 1
340 366 1
349 366 1
756 366 1
758 366 1
158 367 1
159 367 1
211 367 1
227 367 1
341 367 1
350 367 1
757 367 1
759 367 1
159 368 1
160 368 1
212 368 1
228 368 1
342 368 1
351 368 1
758 368 1
760 368 1
160 369 1
161 369 1
213 369 1
229 369 1
343 369 1
352 369 1
759 369 1
761 369 1
161 370 1
162 370 1
214 370 1
230 370 1
344 370 1
353 370 1
760 370 1
762 370 1
162 371 1
163 371 1
215 371 1
231 371 1
345 371 1
354 371 1
761 371 1
763 371 1
163 372 1
164 372 1
216 372 1
232 372 1
346 372 1
355 372 1
762 372 1
764 372 1
164 373 1
165 373 1
217 373 1
233 373 1
347 373 1
356 373 1
763 373 1
765 373 1
165 374 1
166 374 1
218 374 1
234 374 1
348 374 1
357 374 1
764 374 1
766 374 1
166 375 1
167 375 1
209 375 1
219 375 1
349 375 1
358 375 1
765 375 1
767 375 1
167 376 1
168 376 1
210 376 1
220 376 1
350 376 1
359 376 1
766 376 1
768 376 1
168 377 1
169 377 1
211 377 1
221 377 1
351 377 1
360 377 1
767 377 1
769 377 1
169 378 1
170 378 1
212 378 1
222 378 1
352 378 1
361 378 1
768 378 1
770 378 1
170 379 1
171 379 1
213 379 1
223 379 1
353 379 1
362 379 1
769 379 1
771 379 1
171 380 1
172 380 1
214 380 1
224 380 1
354 380 1
363 380 1
770 380 1
772 380 1
172 381 1
173 381 1
215 381 1
225 381 1
355 381 1
364 381 1
771 381 1
773 381 1
173 382 1
174 382 1
216 382 1
226 382 1
339 382 1
356 382 1
772 382 1
774 382 1
174 383 1
175 383 1
217 383 1
227 383 1
340 383 1
357 383 1
773 383 1
775 383 1
175 384 1
176 384 1
218 384 1
228 384 1
341 384 1
358 384 1
774 384 1
776 384 1
176 385 1
177 385 1
219 385 1
229 385 1
342 385 1
359 385 1
775 385 1
777 385 1
177 386 1
178 386 1
220 386 1
230 386 1
343 386 1
360 386 1
776 386 1
778 386 1
178 387 1
179 387 1
221 387 1
231 387 1
344 387 1
361 387 1
777 387 1
779 387 1
179 388 1
180 388 1
222 388 1
232 388 1
345 388 1
362 388 1
778 388 1
780 388 1
180 389 1
181 389 1
223 389 1
233 389 1
346 389 1
363 389 1
755 389 1
779 389 1
181 390 1
182 390 1
224 390 1
234 390 1
347 390 1
364 390 1
756 390 1
780 390 1
183 391 1
208 391 1
209 391 1
232 391 1
365 391 1
374 391 1
781 391 1
783 391 1
183 392 1
184 392 1
210 392 1
233 392 1
366 392 1
375 392 1
782 392 1
784 392 1
184 393 1
185 393 1
211 393 1
234 393 1
367 393 1
376 393 1
783 393 1
785 393 1
185 394 1
186 394 1
209 394 1
212 394 1
368 394 1
377 394 1
784 394 1
786 394 1
186 395 1
187 395 1
210 395 1
213 395 1
369 395 1
378 395 1
785 395 1
787 395 1
187 396 1
188 396 1
211 396 1
214 396 1
370 396 1
379 396 1
786 396 1
788 396 1
188 397 1
189 397 1
212 397 1
215 397 1
371 397 1
380 397 1
787 397 1
789 397 1
189 398 1
190 398 1
213 398 1
216 398 1
372 398 1
381 398 1
788 398 1
790 398 1
190 399 1
191 399 1
214 399 1
217 399 1
373 399 1
382 399 1
789 399 1
791 399 1
191 400 1
192 400 1
215 400 1
218 400 1
374 400 1
383 400 1
790 400 1
792 400 1
192 401 1
193 401 1
216 401 1
219 401 1
375 401 1
384 401 1
791 401 1
793 401 1
193 402 1
194 402 1
217 402 1
220 402 1
376 402 1
385 402 1
792 402 1
794 402 1
194 403 1
195 403 1
218 403 1
221 403 1
377 403 1
386 403 1
793 403 1
795 403 1
195 404 1
196 404 1
219 404 1
222 404 1
378 404 1
387 404 1
794 404 1
796 404 1
196 405 1
197 405 1
220 405 1
223 405 1
379 405 1
388 405 1
795 405 1
797 405 1
197 406 1
198 406 1
221 406 1
224 406 1
380 406 1
389 406 1
796 406 1
798 406 1
198 407 1
199 407 1
222 407 1
225 407 1
381 407 1
390 407 1
797 407 1
799 407 1
199 408 1
200 408 1
223 408 1
226 408 1
365 408 1
382 408 1
798 408 1
800 408 1
200 409 1
201 409 1
224 409 1
227 409 1
366 409 1
383 409 1
799 409 1
801 409 1
201 410 1
202 410 1
225 410 1
228 410 1
367 410 1
384 410 1
800 410 1
802 410 1
202 411 1
203 411 1
226 411 1
229 411 1
368 411 1
385 411 1
801 411 1
803 411 1
203 412 1
204 412 1
227 412 1
230 412 1
369 412 1
386 412 1
802 412 1
804 412 1
204 413 1
205 413 1
228 413 1
231 413 1
370 413 1
387 413 1
803 413 1
805 413 1
205 414 1
206 414 1
229 414 1
232 414 1
371 414 1
388 414 1
804 414 1
806 414 1
206 415 1
207 415 1
230 415 1
233 415 1
372 415 1
389 415 1
781 415 1
805 415 1
207 416 1
208 416 1
231 416 1
234 416 1
373 416 1
390 416 1
782 416 1
806 416 1
235 417 1
258 417 1
261 417 1
277 417 1
313 417 1
328 417 1
807 417 1
809 417 1
236 418 1
259 418 1
262 418 1
278 418 1
314 418 1
329 418 1
808 418 1
810 418 1
237 419 1
260 419 1
263 419 1
279 419 1
315 419 1
330 419 1
809 419 1
811 419 1
235 420 1
238 420 1
264 420 1
280 420 1
316 420 1
331 420 1
810 420 1
812 420 1
236 421 1
239 421 1
265 421 1
281 421 1
317 421 1
332 421 1
811 421 1
813 421 1
237 422 1
240 422 1
266 422 1
282 422 1
318 422 1
333 422 1
812 422 1
814 422 1
238 423 1
241 423 1
267 423 1
283 423 1
319 423 1
334 423 1
813 423 1
815 423 1
239 424 1
242 424 1
268 424 1
284 424 1
320 424 1
335 424 1
814 424 1
816 424 1
240 425 1
243 425 1
269 425 1
285 425 1
321 425 1
336 425 1
815 425 1
817 425 1
241 426 1
244 426 1
270 426 1
286 426 1
322 426 1
337 426 1
816 426 1
818 426 1
242 427 1
245 427 1
261 427 1
271 427 1
323 427 1
338 427 1
817 427 1
819 427 1
243 428 1
246 428 1
262 428 1
272 428 1
313 428 1
324 428 1
818 428 1
820 428 1
244 429 1
247 429 1
263 429 1
273 429 1
314 429 1
325 429 1
819 429 1
821 429 1
245 430 1
248 430 1
264 430 1
274 430 1
315 430 1
326 430 1
820 430 1
822 430 1
246 431 1
249 431 1
265 431 1
275 431 1
316 431 1
327 431 1
821 431 1
823 431 1
247 432 1
250 432 1
266 432 1
276 432 1
317 432 1
328 432 1
822 432 1
824 432 1
248 433 1
251 433 1
267 433 1
277 433 1
318 433 1
329 433 1
823 433 1
825 433 1
249 434 1
252 434 1
268 434 1
278 434 1
319 434 1
330 434 1
824 434 1
826 434 1
250 435 1
253 435 1
269 435 1
279 435 1
320 435 1
331 435 1
825 435 1
827 435 1
251 436 1
254 436 1
270 436 1
280 436 1
321 436 1
332 436 1
826 436 1
828 436 1
252 437 1
255 437 1
271 437 1
281 437 1
322 437 1
333 437 1
827 437 1
829 437 1
253 438 1
256 438 1
272 438 1
282 438 1
323 438 1
334 438 1
828 438 1
830 438 1
254 439 1
257 439 1
273 439 1
283 439 1
324 439 1
335 439 1
829 439 1
831 439 1
255 440 1
258 440 1
274 440 1
284 440 1
325 440 1
336 440 1
830 440 1
832 440 1
256 441 1
259 441 1
275 441 1
285 441 1
326 441 1
337 441 1
807 441 1
831 441 1
257 442 1
260 442 1
276 442 1
286 442 1
327 442 1
338 442 1
808 442 1
832 442 1
235 443 1
260 443 1
287 443 1
303 443 1
339 443 1
354 443 1
833 443 1
835 443 1
235 444 1
236 444 1
288 444 1
304 444 1
340 444 1
355 444 1
834 444 1
836 444 1
236 445 1
237 445 1
289 445 1
305 445 1
341 445 1
356 445 1
835 445 1
837 445 1
237 446 1
238 446 1
290 446 1
306 446 1
342 446 1
357 446 1
836 446 1
838 446 1
238 447 1
239 447 1
291 447 1
307 447 1
343 447 1
358 447 1
837 447 1
839 447 1
239 448 1
240 448 1
292 448 1
308 448 1
344 448 1
359 448 1
838 448 1
840 448 1
240 449 1
241 449 1
293 449 1
309 449 1
345 449 1
360 449 1
839 449 1
841 449 1
241 450 1
242 450 1
294 450 1
310 450 1
346 450 1
361 450 1
840 450 1
842 450 1
242 451 1
243 451 1
295 451 1
311 451 1
347 451 1
362 451 1
841 451 1
843 451 1
243 452 1
244 452 1
296 452 1
312 452 1
348 452 1
363 452 1
842 452 1
844 452 1
244 453 1
245 453 1
287 453 1
297 453 1
349 453 1
364 453 1
843 453 1
845 453 1
245 454 1
246 454 1
288 454 1
298 454 1
339 454 1
350 454 1
844 454 1
846 454 1
246 455 1
247 455 1
289 455 1
299 455 1
340 455 1
351 455 1
845 455 1
847 455 1
247 456 1
248 456 1
290 456 1
300 456 1
341 456 1
352 456 1
846 456 1
848 456 1
248 457 1
249 457 1
291 457 1
301 457 1
342 457 1
353 457 1
847 457 1
849 457 1
249 458 1
250 458 1
292 458 1
302 458 1
343 458 1
354 458 1
848 458 1
850 458 1
250 459 1
251 459 1
293 459 1
303 459 1
344 459 1
355 459 1
849 459 1
851 459 1
251 460 1
252 460 1
294 460 1
304 460 1
345 460 1
356 460 1
850 460 1
852 460 1
252 461 1
253 461 1
295 461 1
305 461 1
346 461 1
357 461 1
851 461 1
853 461 1
253 462 1
254 462 1
296 462 1
306 462 1
347 462 1
358 462 1
852 462 1
854 462 1
254 463 1
255 463 1
297 463 1
307 463 1
348 463 1
359 463 1
853 463 1
855 463 1
255 464 1
256 464 1
298 464 1
308 464 1
349 464 1
360 464 1
854 464 1
856 464 1
256 465 1
257 465 1
299 465 1
309 465 1
350 465 1
361 465 1
855 465 1
857 465 1
257 466 1
258 466 1
300 466 1
310 466 1
351 466 1
362 466 1
856 466 1
858 466 1
258 467 1
259 467 1
301 467 1
311 467 1
352 467 1
363 467 1
833 467 1
857 467 1
259 468 1
260 468 1
302 468 1
312 468 1
353 468 1
364 468 1
834 468 1
858 468 1
261 469 1
286 469 1
287 469 1
310 469 1
365 469 1
380 469 1
859 469 1
861 469 1
261 470 1
262 470 1
288 470 1
311 470 1
366 470 1
381 470 1
860 470 1
862 470 1
262 471 1
263 471 1
289 471 1
312 471 1
367 471 1
382 471 1
861 471 1
863 471 1
263 472 1
264 472 1
287 472 1
290 472 1
368 472 1
383 472 1
862 472 1
864 472 1
264 473 1
265 473 1
288 473 1
291 473 1
369 473 1
384 473 1
863 473 1
865 473 1
265 474 1
266 474 1
289 474 1
292 474 1
370 474 1
385 474 1
864 474 1
866 474 1
266 475 1
267 475 1
290 475 1
293 475 1
371 475 1
386 475 1
865 475 1
867 475 1
267 476 1
268 476 1
291 476 1
294 476 1
372 476 1
387 476 1
866 476 1
868 476 1
268 477 1
269 477 1
292 477 1
295 477 1
373 477 1
388 477 1
867 477 1
869 477 1
269 478 1
270 478 1
293 478 1
296 478 1
374 478 1
389 478 1
868 478 1
870 478 1
270 479 1
271 479 1
294 479 1
297 479 1
375 479 1
390 479 1
869 479 1
871 479 1
271 480 1
272 480 1
295 480 1
298 480 1
365 480 1
376 480 1
870 480 1
872 480 1
272 481 1
273 481 1
296 481 1
299 481 1
366 481 1
377 481 1
871 481 1
873 481 1
273 482 1
274 482 1
297 482 1
300 482 1
367 482 1
378 482 1
872 482 1
874 482 1
274 483 1
275 483 1
298 483 1
301 483 1
368 483 1
379 483 1
873 483 1
875 483 1
275 484 1
276 484 1
299 484 1
302 484 1
369 484 1
380 484 1
874 484 1
876 484 1
276 485 1
277 485 1
300 485 1
303 485 1
370 485 1
381 485 1
875 485 1
877 485 1
277 486 1
278 486 1
301 486 1
304 486 1
371 486 1
382 486 1
876 486 1
878 486 1
278 487 1
279 487 1
302 487 1
305 487 1
372 487 1
383 487 1
877 487 1
879 487 1
279 488 1
280 488 1
303 488 1
306 488 1
373 488 1
384 488 1
878 488 1
880 488 1
280 489 1
281 489 1
304 489 1
307 489 1
374 489 1
385 489 1
879 489 1
881 489 1
281 490 1
282 490 1
305 490 1
308 490 1
375 490 1
386 490 1
880 490 1
882 490 1
282 491 1
283 491 1
306 491 1
309 491 1
376 491 1
387 491 1
881 491 1
883 491 1
283 492 1
284 492 1
307 492 1
310 492 1
377 492 1
388 492 1
882 492 1
884 492 1
284 493 1
285 493 1
308 493 1
311 493 1
378 493 1
389 493 1
859 493 1
883 493 1
285 494 1
286 494 1
309 494 1
312 494 1
379 494 1
390 494 1
860 494 1
884 494 1
313 495 1
338 495 1
339 495 1
362 495 1
365 495 1
381 495 1
885 495 1
887 495 1
313 496 1
314 496 1
340 496 1
363 496 1
366 496 1
382 496 1
886 496 1
888 496 1
314 497 1
315 497 1
341 497 1
364 497 1
367 497 1
383 497 1
887 497 1
889 497 1
315 498 1
316 498 1
339 498 1
342 498 1
368 498 1
384 498 1
888 498 1
890 498 1
316 499 1
317 499 1
340 499 1
343 499 1
369 499 1
385 499 1
889 499 1
891 499 1
317 500 1
318 500 1
341 500 1
344 500 1
370 500 1
386 500 1
890 500 1
892 500 1
318 501 1
319 501 1
342 501 1
345 501 1
371 501 1
387 501 1
891 501 1
893 501 1
319 502 1
320 502 1
343 502 1
346 502 1
372 502 1
388 502 1
892 502 1
894 502 1
320 503 1
321 503 1
344 503 1
347 503 1
373 503 1
389 503 1
893 503 1
895 503 1
321 504 1
322 504 1
345 504 1
348 504 1
374 504 1
390 504 1
894 504 1
896 504 1
322 505 1
323 505 1
346 505 1
349 505 1
365 505 1
375 505 1
895 505 1
897 505 1
323 506 1
324 506 1
347 506 1
350 506 1
366 506 1
376 506 1
896 506 1
898 506 1
324 507 1
325 507 1
348 507 1
351 507 1
367 507 1
377 507 1
897 507 1
899 507 1
325 508 1
326 508 1
349 508 1
352 508 1
368 508 1
378 508 1
898 508 1
900 508 1
326 509 1
327 509 1
350 509 1
353 509 1
369 509 1
379 509 1
899 509 1
901 509 1
327 510 1
328 510 1
351 510 1
354 510 1
370 510 1
380 510 1
900 510 1
902 510 1
328 511 1
329 511 1
352 511 1
355 511 1
371 511 1
381 511 1
901 511 1
903 511 1
329 512 1
330 512 1
353 512 1
356 512 1
372 512 1
382 512 1
902 512 1
904 512 1
330 513 1
331 513 1
354 513 1
357 513 1
373 513 1
383 513 1
903 513 1
905 513 1
331 514 1
332 514 1
355 514 1
358 514 1
374 514 1
384 514 1
904 514 1
906 514 1
332 515 1
333 515 1
356 515 1
359 515 1
375 515 1
385 515 1
905 515 1
907 515 1
333 516 1
334 516 1
357 516 1
360 516 1
376 516 1
386 516 1
906 516 1
908 516 1
334 517 1
335 517 1
358 517 1
361 517 1
377 517 1
387 517 1
907 517 1
909 517 1
335 518 1
336 518 1
359 518 1
362 518 1
378 518 1
388 518 1
908 518 1
910 518 1
336 519 1
337 519 1
360 519 1
363 519 1
379 519 1
389 519 1
885 519 1
909 519 1
337 520 1
338 520 1
361 520 1
364 520 1
380 520 1
390 520 1
886 520 1
910 520 1
391 521 1
407 521 1
417 521 1
432 521 1
495 521 1
504 521 1
651 521 1
657 521 1
392 522 1
408 522 1
418 522 1
433 522 1
496 522 1
505 522 1
652 522 1
658 522 1
393 523 1
409 523 1
419 523 1
434 523 1
497 523 1
506 523 1
653 523 1
659 523 1
394 524 1
410 524 1
420 524 1
435 524 1
498 524 1
507 524 1
654 524 1
660 524 1
395 525 1
411 525 1
421 525 1
436 525 1
499 525 1
508 525 1
655 525 1
661 525 1
396 526 1
412 526 1
422 526 1
437 526 1
500 526 1
509 526 1
656 526 1
662 526 1
397 527 1
413 527 1
423 527 1
438 527 1
501 527 1
510 527 1
657 527 1
663 527 1
398 528 1
414 528 1
424 528 1
439 528 1
502 528 1
511 528 1
658 528 1
664 528 1
399 529 1
415 529 1
425 529 1
440 529 1
503 529 1
512 529 1
659 529 1
665 529 1
400 530 1
416 530 1
426 530 1
441 530 1
504 530 1
513 530 1
660 530 1
666 530 1
391 531 1
401 531 1
427 531 1
442 531 1
505 531 1
514 531 1
661 531 1
667 531 1
392 532 1
402 532 1
417 532 1
428 532 1
506 532 1
515 532 1
662 532 1
668 532 1
393 533 1
403 533 1
418 533 1
429 533 1
507 533 1
516 533 1
663 533 1
669 533 1
394 534 1
404 534 1
419 534 1
430 534 1
508 534 1
517 534 1
664 534 1
670 534 1
395 535 1
405 535 1
420 535 1
431 535 1
509 535 1
518 535 1
665 535 1
671 535 1
396 536 1
406 536 1
421 536 1
432 536 1
510 536 1
519 536 1
666 536 1
672 536 1
397 537 1
407 537 1
422 537 1
433 537 1
511 537 1
520 537 1
667 537 1
673 537 1
398 538 1
408 538 1
423 538 1
434 538 1
495 538 1
512 538 1
668 538 1
674 538 1
399 539 1
409 539 1
424 539 1
435 539 1
496 539 1
513 539 1
669 539 1
675 539 1
400 540 1
410 540 1
425 540 1
436 540 1
497 540 1
514 540 1
670 540 1
676 540 1
401 541 1
411 541 1
426 541 1
437 541 1
498 541 1
515 541 1
651 541 1
671 541 1
402 542 1
412 542 1
427 542 1
438 542 1
499 542 1
516 542 1
652 542 1
672 542 1
403 543 1
413 543 1
428 543 1
439 543 1
500 543 1
517 543 1
653 543 1
673 543 1
404 544 1
414 544 1
429 544 1
440 544 1
501 544 1
518 544 1
654 544 1
674 544 1
405 545 1
415 545 1
430 545 1
441 545 1
502 545 1
519 545 1
655 545 1
675 545 1
406 546 1
416 546 1
431 546 1
442 546 1
503 546 1
520 546 1
656 546 1
676 546 1
391 547 1
414 547 1
443 547 1
458 547 1
521 547 1
530 547 1
677 547 1
683 547 1
392 548 1
415 548 1
444 548 1
459 548 1
522 548 1
531 548 1
678 548 1
684 548 1
393 549 1
416 549 1
445 549 1
460 549 1
523 549 1
532 549 1
679 549 1
685 549 1
391 550 1
394 550 1
446 550 1
461 550 1
524 550 1
533 550 1
680 550 1
686 550 1
392 551 1
395 551 1
447 551 1
462 551 1
525 551 1
534 551 1
681 551 1
687 551 1
393 552 1
396 552 1
448 552 1
463 552 1
526 552 1
535 552 1
682 552 1
688 552 1
394 553 1
397 553 1
449 553 1
464 553 1
527 553 1
536 553 1
683 553 1
689 553 1
395 554 1
398 554 1
450 554 1
465 554 1
528 554 1
537 554 1
684 554 1
690 554 1
396 555 1
399 555 1
451 555 1
466 555 1
529 555 1
538 555 1
685 555 1
691 555 1
397 556 1
400 556 1
452 556 1
467 556 1
530 556 1
539 556 1
686 556 1
692 556 1
398 557 1
401 557 1
453 557 1
468 557 1
531 557 1
540 557 1
687 557 1
693 557 1
399 558 1
402 558 1
443 558 1
454 558 1
532 558 1
541 558 1
688 558 1
694 558 1
400 559 1
403 559 1
444 559 1
455 559 1
533 559 1
542 559 1
689 559 1
695 559 1
401 560 1
404 560 1
445 560 1
456 560 1
534 560 1
543 560 1
690 560 1
696 560 1
402 561 1
405 561 1
446 561 1
457 561 1
535 561 1
544 561 1
691 561 1
697 561 1
403 562 1
406 562 1
447 562 1
458 562 1
536 562 1
545 562 1
692 562 1
698 562 1
404 563 1
407 563 1
448 563 1
459 563 1
537 563 1
546 563 1
693 563 1
699 563 1
405 564 1
408 564 1
449 564 1
460 564 1
521 564 1
538 564 1
694 564 1
700 564 1
406 565 1
409 565 1
450 565 1
461 565 1
522 565 1
539 565 1
695 565 1
701 565 1
407 566 1
410 566 1
451 566 1
462 566 1
523 566 1
540 566 1
696 566 1
702 566 1
408 567 1
411 567 1
452 567 1
463 567 1
524 567 1
541 567 1
677 567 1
697 567 1
409 568 1
412 568 1
453 568 1
464 568 1
525 568 1
542 568 1
678 568 1
698 568 1
410 569 1
413 569 1
454 569 1
465 569 1
526 569 1
543 569 1
679 569 1
699 569 1
411 570 1
414 570 1
455 570 1
466 570 1
527 570 1
544 570 1
680 570 1
700 570 1
412 571 1
415 571 1
456 571 1
467 571 1
528 571 1
545 571 1
681 571 1
701 571 1
413 572 1
416 572 1
457 572 1
468 572 1
529 572 1
546 572 1
682 572 1
702 572 1
391 573 1
416 573 1
469 573 1
484 573 1
547 573 1
556 573 1
703 573 1
709 573 1
391 574 1
392 574 1
470 574 1
485 574 1
548 574 1
557 574 1
704 574 1
710 574 1
392 575 1
393 575 1
471 575 1
486 575 1
549 575 1
558 575 1
705 575 1
711 575 1
393 576 1
394 576 1
472 576 1
487 576 1
550 576 1
559 576 1
706 576 1
712 576 1
394 577 1
395 577 1
473 577 1
488 577 1
551 577 1
560 577 1
707 577 1
713 577 1
395 578 1
396 578 1
474 578 1
489 578 1
552 578 1
561 578 1
708 578 1
714 578 1
396 579 1
397 579 1
475 579 1
490 579 1
553 579 1
562 579 1
709 579 1
715 579 1
397 580 1
398 580 1
476 580 1
491 580 1
554 580 1
563 580 1
710 580 1
716 580 1
398 581 1
399 581 1
477 581 1
492 581 1
555 581 1
564 581 1
711 581 1
717 581 1
399 582 1
400 582 1
478 582 1
493 582 1
556 582 1
565 582 1
712 582 1
718 582 1
400 583 1
401 583 1
479 583 1
494 583 1
557 583 1
566 583 1
713 583 1
719 583 1
401 584 1
402 584 1
469 584 1
480 584 1
558 584 1
567 584 1
714 584 1
720 584 1
402 585 1
403 585 1
470 585 1
481 585 1
559 585 1
568 585 1
715 585 1
721 585 1
403 586 1
404 586 1
471 586 1
482 586 1
560 586 1
569 586 1
716 586 1
722 586 1
404 587 1
405 587 1
472 587 1
483 587 1
561 587 1
570 587 1
717 587 1
723 587 1
405 588 1
406 588 1
473 588 1
484 588 1
562 588 1
571 588 1
718 588 1
724 588 1
406 589 1
407 589 1
474 589 1
485 589 1
563 589 1
572 589 1
719 589 1
725 589 1
407 590 1
408 590 1
475 590 1
486 590 1
547 590 1
564 590 1
720 590 1
726 590 1
408 591 1
409 591 1
476 591 1
487 591 1
548 591 1
565 591 1
721 591 1
727 591 1
409 592 1
410 592 1
477 592 1
488 592 1
549 592 1
566 592 1
722 592 1
728 592 1
410 593 1
411 593 1
478 593 1
489 593 1
550 593 1
567 593 1
703 593 1
723 593 1
411 594 1
412 594 1
479 594 1
490 594 1
551 594 1
568 594 1
704 594 1
724 594 1
412 595 1
413 595 1
480 595 1
491 595 1
552 595 1
569 595 1
705 595 1
725 595 1
413 596 1
414 596 1
481 596 1
492 596 1
553 596 1
570 596 1
706 596 1
726 596 1
414 597 1
415 597 1
482 597 1
493 597 1
554 597 1
571 597 1
707 597 1
727 597 1
415 598 1
416 598 1
483 598 1
494 598 1
555 598 1
572 598 1
708 598 1
728 598 1
417 599 1
440 599 1
443 599 1
459 599 1
573 599 1
582 599 1
729 599 1
735 599 1
418 600 1
441 600 1
444 600 1
460 600 1
574 600 1
583 600 1
730 600 1
736 600 1
419 601 1
442 601 1
445 601 1
461 601 1
575 601 1
584 601 1
731 601 1
737 601 1
417 602 1
420 602 1
446 602 1
462 602 1
576 602 1
585 602 1
732 602 1
738 602 1
418 603 1
421 603 1
447 603 1
463 603 1
577 603 1
586 603 1
733 603 1
739 603 1
419 604 1
422 604 1
448 604 1
464 604 1
578 604 1
587 604 1
734 604 1
740 604 1
420 605 1
423 605 1
449 605 1
465 605 1
579 605 1
588 605 1
735 605 1
741 605 1
421 606 1
424 606 1
450 606 1
466 606 1
580 606 1
589 606 1
736 606 1
742 606 1
422 607 1
425 607 1
451 607 1
467 607 1
581 607 1
590 607 1
737 607 1
743 607 1
423 608 1
426 608 1
452 608 1
468 608 1
582 608 1
591 608 1
738 608 1
744 608 1
424 609 1
427 609 1
443 609 1
453 609 1
583 609 1
592 609 1
739 609 1
745 609 1
425 610 1
428 610 1
444 610 1
454 610 1
584 610 1
593 610 1
740 610 1
746 610 1
426 611 1
429 611 1
445 611 1
455 611 1
585 611 1
594 611 1
741 611 1
747 611 1
427 612 1
430 612 1
446 612 1
456 612 1
586 612 1
595 612 1
742 612 1
748 612 1
428 613 1
431 613 1
447 613 1
457 613 1
587 613 1
596 613 1
743 613 1
749 613 1
429 614 1
432 614 1
448 614 1
458 614 1
588 614 1
597 614 1
744 614 1
750 614 1
430 615 1
433 615 1
449 615 1
459 615 1
589 615 1
598 615 1
745 615 1
751 615 1
431 616 1
434 616 1
450 616 1
460 616 1
573 616 1
590 616 1
746 616 1
752 616 1
432 617 1
435 617 1
451 617 1
461 617 1
574 617 1
591 617 1
747 617 1
753 617 1
433 618 1
436 618 1
452 618 1
462 618 1
575 618 1
592 618 1
748 618 1
754 618 1
434 619 1
437 619 1
453 619 1
463 619 1
576 619 1
593 619 1
729 619 1
749 619 1
435 620 1
438 620 1
454 620 1
464 620 1
577 620 1
594 620 1
730 620 1
750 620 1
436 621 1
439 621 1
455 621 1
465 621 1
578 621 1
595 621 1
731 621 1
751 621 1
437 622 1
440 622 1
456 622 1
466 622 1
579 622 1
596 622 1
732 622 1
752 622 1
438 623 1
441 623 1
457 623 1
467 623 1
580 623 1
597 623 1
733 623 1
753 623 1
439 624 1
442 624 1
458 624 1
468 624 1
581 624 1
598 624 1
734 624 1
754 624 1
417 625 1
442 625 1
469 625 1
485 625 1
599 625 1
608 625 1
755 625 1
761 625 1
417 626 1
418 626 1
470 626 1
486 626 1
600 626 1
609 626 1
756 626 1
762 626 1
418 627 1
419 627 1
471 627 1
487 627 1
601 627 1
610 627 1
757 627 1
763 627 1
419 628 1
420 628 1
472 628 1
488 628 1
602 628 1
611 628 1
758 628 1
764 628 1
420 629 1
421 629 1
473 629 1
489 629 1
603 629 1
612 629 1
759 629 1
765 629 1
421 630 1
422 630 1
474 630 1
490 630 1
604 630 1
613 630 1
760 630 1
766 630 1
422 631 1
423 631 1
475 631 1
491 631 1
605 631 1
614 631 1
761 631 1
767 631 1
423 632 1
424 632 1
476 632 1
492 632 1
606 632 1
615 632 1
762 632 1
768 632 1
424 633 1
425 633 1
477 633 1
493 633 1
607 633 1
616 633 1
763 633 1
769 633 1
425 634 1
426 634 1
478 634 1
494 634 1
608 634 1
617 634 1
764 634 1
770 634 1
426 635 1
427 635 1
469 635 1
479 635 1
609 635 1
618 635 1
765 635 1
771 635 1
427 636 1
428 636 1
470 636 1
480 636 1
610 636 1
619 636 1
766 636 1
772 636 1
428 637 1
429 637 1
471 637 1
481 637 1
611 637 1
620 637 1
767 637 1
773 637 1
429 638 1
430 638 1
472 638 1
482 638 1
612 638 1
621 638 1
768 638 1
774 638 1
430 639 1
431 639 1
473 639 1
483 639 1
613 639 1
622 639 1
769 639 1
775 639 1
431 640 1
432 640 1
474 640 1
484 640 1
614 640 1
623 640 1
770 640 1
776 640 1
432 641 1
433 641 1
475 641 1
485 641 1
615 641 1
624 641 1
771 641 1
777 641 1
433 642 1
434 642 1
476 642 1
486 642 1
599 642 1
616 642 1
772 642 1
778 642 1
434 643 1
435 643 1
477 643 1
487 643 1
600 643 1
617 643 1
773 643 1
779 643 1
435 644 1
436 644 1
478 644 1
488 644 1
601 644 1
618 644 1
774 644 1
780 644 1
436 645 1
437 645 1
479 645 1
489 645 1
602 645 1
619 645 1
755 645 1
775 645 1
437 646 1
438 646 1
480 646 1
490 646 1
603 646 1
620 646 1
756 646 1
776 646 1
438 647 1
439 647 1
481 647 1
491 647 1
604 647 1
621 647 1
757 647 1
777 647 1
439 648 1
440 648 1
482 648 1
492 648 1
605 648 1
622 648 1
758 648 1
778 648 1
440 649 1
441 649 1
483 649 1
493 649 1
606 649 1
623 649 1
759 649 1
779 649 1
441 650 1
442 650 1
484 650 1
494 650 1
607 650 1
624 650 1
760 650 1
780 650 1
443 651 1
468 651 1
469 651 1
492 651 1
625 651 1
634 651 1
781 651 1
787 651 1
443 652 1
444 652 1
470 652 1
493 652 1
626 652 1
635 652 1
782 652 1
788 652 1
444 653 1
445 653 1
471 653 1
494 653 1
627 653 1
636 653 1
783 653 1
789 653 1
445 654 1
446 654 1
469 654 1
472 654 1
628 654 1
637 654 1
784 654 1
790 654 1
446 655 1
447 655 1
470 655 1
473 655 1
629 655 1
638 655 1
785 655 1
791 655 1
447 656 1
448 656 1
471 656 1
474 656 1
630 656 1
639 656 1
786 656 1
792 656 1
448 657 1
449 657 1
472 657 1
475 657 1
631 657 1
640 657 1
787 657 1
793 657 1
449 658 1
450 658 1
473 658 1
476 658 1
632 658 1
641 658 1
788 658 1
794 658 1
450 659 1
451 659 1
474 659 1
477 659 1
633 659 1
642 659 1
789 659 1
795 659 1
451 660 1
452 660 1
475 660 1
478 660 1
634 660 1
643 660 1
790 660 1
796 660 1
452 661 1
453 661 1
476 661 1
479 661 1
635 661 1
644 661 1
791 661 1
797 661 1
453 662 1
454 662 1
477 662 1
480 662 1
636 662 1
645 662 1
792 662 1
798 662 1
454 663 1
455 663 1
478 663 1
481 663 1
637 663 1
646 663 1
793 663 1
799 663 1
455 664 1
456 664 1
479 664 1
482 664 1
638 664 1
647 664 1
794 664 1
800 664 1
456 665 1
457 665 1
480 665 1
483 665 1
639 665 1
648 665 1
795 665 1
801 665 1
457 666 1
458 666 1
481 666 1
484 666 1
640 666 1
649 666 1
796 666 1
802 666 1
458 667 1
459 667 1
482 667 1
485 667 1
641 667 1
650 667 1
797 667 1
803 667 1
459 668 1
460 668 1
483 668 1
486 668 1
625 668 1
642 668 1
798 668 1
804 668 1
460 669 1
461 669 1
484 669 1
487 669 1
626 669 1
643 669 1
799 669 1
805 669 1
461 670 1
462 670 1
485 670 1
488 670 1
627 670 1
644 670 1
800 670 1
806 670 1
462 671 1
463 671 1
486 671 1
489 671 1
628 671 1
645 671 1
781 671 1
801 671 1
463 672 1
464 672 1
487 672 1
490 672 1
629 672 1
646 672 1
782 672 1
802 672 1
464 673 1
465 673 1
488 673 1
491 673 1
630 673 1
647 673 1
783 673 1
803 673 1
465 674 1
466 674 1
489 674 1
492 674 1
631 674 1
648 674 1
784 674 1
804 674 1
466 675 1
467 675 1
490 675 1
493 675 1
632 675 1
649 675 1
785 675 1
805 675 1
467 676 1
468 676 1
491 676 1
494 676 1
633 676 1
650 676 1
786 676 1
806 676 1
495 677 1
518 677 1
521 677 1
537 677 1
573 677 1
588 677 1
807 677 1
813 677 1
496 678 1
519 678 1
522 678 1
538 678 1
574 678 1
589 678 1
808 678 1
814 678 1
497 679 1
520 679 1
523 679 1
539 679 1
575 679 1
590 679 1
809 679 1
815 679 1
495 680 1
498 680 1
524 680 1
540 680 1
576 680 1
591 680 1
810 680 1
816 680 1
496 681 1
499 681 1
525 681 1
541 681 1
577 681 1
592 681 1
811 681 1
817 681 1
497 682 1
500 682 1
526 682 1
542 682 1
578 682 1
593 682 1
812 682 1
818 682 1
498 683 1
501 683 1
527 683 1
543 683 1
579 683 1
594 683 1
813 683 1
819 683 1
499 684 1
502 684 1
528 684 1
544 684 1
580 684 1
595 684 1
814 684 1
820 684 1
500 685 1
503 685 1
529 685 1
545 685 1
581 685 1
596 685 1
815 685 1
821 685 1
501 686 1
504 686 1
530 686 1
546 686 1
582 686 1
597 686 1
816 686 1
822 686 1
502 687 1
505 687 1
521 687 1
531 687 1
583 687 1
598 687 1
817 687 1
823 687 1
503 688 1
506 688 1
522 688 1
532 688 1
573 688 1
584 688 1
818 688 1
824 688 1
504 689 1
507 689 1
523 689 1
533 689 1
574 689 1
585 689 1
819 689 1
825 689 1
505 690 1
508 690 1
524 690 1
534 690 1
575 690 1
586 690 1
820 690 1
826 690 1
506 691 1
509 691 1
525 691 1
535 691 1
576 691 1
587 691 1
821 691 1
827 691 1
507 692 1
510 692 1
526 692 1
536 692 1
577 692 1
588 692 1
822 692 1
828 692 1
508 693 1
511 693 1
527 693 1
537 693 1
578 693 1
589 693 1
823 693 1
829 693 1
509 694 1
512 694 1
528 694 1
538 694 1
579 694 1
590 694 1
824 694 1
830 694 1
510 695 1
513 695 1
529 695 1
539 695 1
580 695 1
591 695 1
825 695 1
831 695 1
511 696 1
514 696 1
530 696 1
540 696 1
581 696 1
592 696 1
826 696 1
832 696 1
512 697 1
515 697 1
531 697 1
541 697 1
582 697 1
593 697 1
807 697 1
827 697 1
513 698 1
516 698 1
532 698 1
542 698 1
583 698 1
594 698 1
808 698 1
828 698 1
514 699 1
517 699 1
533 699 1
543 699 1
584 699 1
595 699 1
809 699 1
829 699 1
515 700 1
518 700 1
534 700 1
544 700 1
585 700 1
596 700 1
810 700 1
830 700 1
516 701 1
519 701 1
535 701 1
545 701 1
586 701 1
597 701 1
811 701 1
831 701 1
517 702 1
520 702 1
536 702 1
546 702 1
587 702 1
598 702 1
812 702 1
832 702 1
495 703 1
520 703 1
547 703 1
563 703 1
599 703 1
614 703 1
833 703 1
839 703 1
495 704 1
496 704 1
548 704 1
564 704 1
600 704 1
615 704 1
834 704 1
840 704 1
496 705 1
497 705 1
549 705 1
565 705 1
601 705 1
616 705 1
835 705 1
841 705 1
497 706 1
498 706 1
550 706 1
566 706 1
602 706 1
617 706 1
836 706 1
842 706 1
498 707 1
499 707 1
551 707 1
567 707 1
603 707 1
618 707 1
837 707 1
843 707 1
499 708 1
500 708 1
552 708 1
568 708 1
604 708 1
619 708 1
838 708 1
844 708 1
500 709 1
501 709 1
553 709 1
569 709 1
605 709 1
620 709 1
839 709 1
845 709 1
501 710 1
502 710 1
554 710 1
570 710 1
606 710 1
621 710 1
840 710 1
846 710 1
502 711 1
503 711 1
555 711 1
571 711 1
607 711 1
622 711 1
841 711 1
847 711 1
503 712 1
504 712 1
556 712 1
572 712 1
608 712 1
623 712 1
842 712 1
848 712 1
504 713 1
505 713 1
547 713 1
557 713 1
609 713 1
624 713 1
843 713 1
849 713 1
505 714 1
506 714 1
548 714 1
558 714 1
599 714 1
610 714 1
844 714 1
850 714 1
506 715 1
507 715 1
549 715 1
559 715 1
600 715 1
611 715 1
845 715 1
851 715 1
507 716 1
508 716 1
550 716 1
560 716 1
601 716 1
612 716 1
846 716 1
852 716 1
508 717 1
509 717 1
551 717 1
561 717 1
602 717 1
613 717 1
847 717 1
853 717 1
509 718 1
510 718 1
552 718 1
562 718 1
603 718 1
614 718 1
848 718 1
854 718 1
510 719 1
511 719 1
553 719 1
563 719 1
604 719 1
615 719 1
849 719 1
855 719 1
511 720 1
512 720 1
554 720 1
564 720 1
605 720 1
616 720 1
850 720 1
856 720 1
512 721 1
513 721 1
555 721 1
565 721 1
606 721 1
617 721 1
851 721 1
857 721 1
513 722 1
514 722 1
556 722 1
566 722 1
607 722 1
618 722 1
852 722 1
858 722 1
514 723 1
515 723 1
557 723 1
567 723 1
608 723 1
619 723 1
833 723 1
853 723 1
515 724 1
516 724 1
558 724 1
568 724 1
609 724 1
620 724 1
834 724 1
854 724 1
516 725 1
517 725 1
559 725 1
569 725 1
610 725 1
621 725 1
835 725 1
855 725 1
517 726 1
518 726 1
560 726 1
570 726 1
611 726 1
622 726 1
836 726 1
856 726 1
518 727 1
519 727 1
561 727 1
571 727 1
612 727 1
623 727 1
837 727 1
857 727 1
519 728 1
520 728 1
562 728 1
572 728 1
613 728 1
624 728 1
838 728 1
858 728 1
521 729 1
546 729 1
547 729 1
570 729 1
625 729 1
640 729 1
859 729 1
865 729 1
521 730 1
522 730 1
548 730 1
571 730 1
626 730 1
641 730 1
860 730 1
866 730 1
522 731 1
523 731 1
549 731 1
572 731 1
627 731 1
642 731 1
861 731 1
867 731 1
523 732 1
524 732 1
547 732 1
550 732 1
628 732 1
643 732 1
862 732 1
868 732 1
524 733 1
525 733 1
548 733 1
551 733 1
629 733 1
644 733 1
863 733 1
869 733 1
525 734 1
526 734 1
549 734 1
552 734 1
630 734 1
645 734 1
864 734 1
870 734 1
526 735 1
527 735 1
550 735 1
553 735 1
631 735 1
646 735 1
865 735 1
871 735 1
527 736 1
528 736 1
551 736 1
554 736 1
632 736 1
647 736 1
866 736 1
872 736 1
528 737 1
529 737 1
552 737 1
555 737 1
633 737 1
648 737 1
867 737 1
873 737 1
529 738 1
530 738 1
553 738 1
556 738 1
634 738 1
649 738 1
868 738 1
874 738 1
530 739 1
531 739 1
554 739 1
557 739 1
635 739 1
650 739 1
869 739 1
875 739 1
531 740 1
532 740 1
555 740 1
558 740 1
625 740 1
636 740 1
870 740 1
876 740 1
532 741 1
533 741 1
556 741 1
559 741 1
626 741 1
637 741 1
871 741 1
877 741 1
533 742 1
534 742 1
557 742 1
560 742 1
627 742 1
638 742 1
872 742 1
878 742 1
534 743 1
535 743 1
558 743 1
561 743 1
628 743 1
639 743 1
873 743 1
879 743 1
535 744 1
536 744 1
559 744 1
562 744 1
629 744 1
640 744 1
874 744 1
880 744 1
536 745 1
537 745 1
560 745 1
563 745 1
630 745 1
641 745 1
875 745 1
881 745 1
537 746 1
538 746 1
561 746 1
564 746 1
631 746 1
642 746 1
876 746 1
882 746 1
538 747 1
539 747 1
562 747 1
565 747 1
632 747 1
643 747 1
877 747 1
883 747 1
539 748 1
540 748 1
563 748 1
566 748 1
633 748 1
644 748 1
878 748 1
884 748 1
540 749 1
541 749 1
564 749 1
567 749 1
634 749 1
645 749 1
859 749 1
879 749 1
541 750 1
542 750 1
565 750 1
568 750 1
635 750 1
646 750 1
860 750 1
880 750 1
542 751 1
543 751 1
566 751 1
569 751 1
636 751 1
647 751 1
861 751 1
881 751 1
543 752 1
544 752 1
567 752 1
570 752 1
637 752 1
648 752 1
862 752 1
882 752 1
544 753 1
545 753 1
568 753 1
571 753 1
638 753 1
649 753 1
863 753 1
883 753 1
545 754 1
546 754 1
569 754 1
572 754 1
639 754 1
650 754 1
864 754 1
884 754 1
573 755 1
598 755 1
599 755 1
622 755 1
625 755 1
641 755 1
885 755 1
891 755 1
573 756 1
574 756 1
600 756 1
623 756 1
626 756 1
642 756 1
886 756 1
892 756 1
574 757 1
575 757 1
601 757 1
624 757 1
627 757 1
643 757 1
887 757 1
893 757 1
575 758 1
576 758 1
599 758 1
602 758 1
628 758 1
644 758 1
888 758 1
894 758 1
576 759 1
577 759 1
600 759 1
603 759 1
629 759 1
645 759 1
889 759 1
895 759 1
577 760 1
578 760 1
601 760 1
604 760 1
630 760 1
646 760 1
890 760 1
896 760 1
578 761 1
579 761 1
602 761 1
605 761 1
631 761 1
647 761 1
891 761 1
897 761 1
579 762 1
580 762 1
603 762 1
606 762 1
632 762 1
648 762 1
892 762 1
898 762 1
580 763 1
581 763 1
604 763 1
607 763 1
633 763 1
649 763 1
893 763 1
899 763 1
581 764 1
582 764 1
605 764 1
608 764 1
634 764 1
650 764 1
894 764 1
900 764 1
582 765 1
583 765 1
606 765 1
609 765 1
625 765 1
635 765 1
895 765 1
901 765 1
583 766 1
584 766 1
607 766 1
610 766 1
626 766 1
636 766 1
896 766 1
902 766 1
584 767 1
585 767 1
608 767 1
611 767 1
627 767 1
637 767 1
897 767 1
903 767 1
585 768 1
586 768 1
609 768 1
612 768 1
628 768 1
638 768 1
898 768 1
904 768 1
586 769 1
587 769 1
610 769 1
613 769 1
629 769 1
639 769 1
899 769 1
905 769 1
587 770 1
588 770 1
611 770 1
614 770 1
630 770 1
640 770 1
900 770 1
906 770 1
588 771 1
589 771 1
612 771 1
615 771 1
631 771 1
641 771 1
901 771 1
907 771 1
589 772 1
590 772 1
613 772 1
616 772 1
632 772 1
642 772 1
902 772 1
908 772 1
590 773 1
591 773 1
614 773 1
617 773 1
633 773 1
643 773 1
903 773 1
909 773 1
591 774 1
592 774 1
615 774 1
618 774 1
634 774 1
644 774 1
904 774 1
910 774 1
592 775 1
593 775 1
616 775 1
619 775 1
635 775 1
645 775 1
885 775 1
905 775 1
593 776 1
594 776 1
617 776 1
620 776 1
636 776 1
646 776 1
886 776 1
906 776 1
594 777 1
595 777 1
618 777 1
621 777 1
637 777 1
647 777 1
887 777 1
907 777 1
595 778 1
596 778 1
619 778 1
622 778 1
638 778 1
648 778 1
888 778 1
908 778 1
596 779 1
597 779 1
620 779 1
623 779 1
639 779 1
649 779 1
889 779 1
909 779 1
597 780 1
598 780 1
621 780 1
624 780 1
640 780 1
650 780 1
890 780 1
910 780 1
651 781 1
674 781 1
677 781 1
693 781 1
729 781 1
744 781 1
807 781 1
816 781 1
652 782 1
675 782 1
678 782 1
694 782 1
730 782 1
745 782 1
808 782 1
817 782 1
653 783 1
676 783 1
679 783 1
695 783 1
731 783 1
746 783 1
809 783 1
818 783 1
651 784 1
654 784 1
680 784 1
696 784 1
732 784 1
747 784 1
810 784 1
819 784 1
652 785 1
655 785 1
681 785 1
697 785 1
733 785 1
748 785 1
811 785 1
820 785 1
653 786 1
656 786 1
682 786 1
698 786 1
734 786 1
749 786 1
812 786 1
821 786 1
654 787 1
657 787 1
683 787 1
699 787 1
735 787 1
750 787 1
813 787 1
822 787 1
655 788 1
658 788 1
684 788 1
700 788 1
736 788 1
751 788 1
814 788 1
823 788 1
656 789 1
659 789 1
685 789 1
701 789 1
737 789 1
752 789 1
815 789 1
824 789 1
657 790 1
660 790 1
686 790 1
702 790 1
738 790 1
753 790 1
816 790 1
825 790 1
658 791 1
661 791 1
677 791 1
687 791 1
739 791 1
754 791 1
817 791 1
826 791 1
659 792 1
662 792 1
678 792 1
688 792 1
729 792 1
740 792 1
818 792 1
827 792 1
660 793 1
663 793 1
679 793 1
689 793 1
730 793 1
741 793 1
819 793 1
828 793 1
661 794 1
664 794 1
680 794 1
690 794 1
731 794 1
742 794 1
820 794 1
829 794 1
662 795 1
665 795 1
681 795 1
691 795 1
732 795 1
743 795 1
821 795 1
830 795 1
663 796 1
666 796 1
682 796 1
692 796 1
733 796 1
744 796 1
822 796 1
831 796 1
664 797 1
667 797 1
683 797 1
693 797 1
734 797 1
745 797 1
823 797 1
832 797 1
665 798 1
668 798 1
684 798 1
694 798 1
735 798 1
746 798 1
807 798 1
824 798 1
666 799 1
669 799 1
685 799 1
695 799 1
736 799 1
747 799 1
808 799 1
825 799 1
667 800 1
670 800 1
686 800 1
696 800 1
737 800 1
748 800 1
809 800 1
826 800 1
668 801 1
671 801 1
687 801 1
697 801 1
738 801 1
749 801 1
810 801 1
827 801 1
669 802 1
672 802 1
688 802 1
698 802 1
739 802 1
750 802 1
811 802 1
828 802 1
670 803 1
673 803 1
689 803 1
699 803 1
740 803 1
751 803 1
812 803 1
829 803 1
671 804 1
674 804 1
690 804 1
700 804 1
741 804 1
752 804 1
813 804 1
830 804 1
672 805 1
675 805 1
691 805 1
701 805 1
742 805 1
753 805 1
814 805 1
831 805 1
673 806 1
676 806 1
692 806 1
702 806 1
743 806 1
754 806 1
815 806 1
832 806 1
651 807 1
676 807 1
703 807 1
719 807 1
755 807 1
770 807 1
833 807 1
842 807 1
651 808 1
652 808 1
704 808 1
720 808 1
756 808 1
771 808 1
834 808 1
843 808 1
652 809 1
653 809 1
705 809 1
721 809 1
757 809 1
772 809 1
835 809 1
844 809 1
653 810 1
654 810 1
706 810 1
722 810 1
758 810 1
773 810 1
836 810 1
845 810 1
654 811 1
655 811 1
707 811 1
723 811 1
759 811 1
774 811 1
837 811 1
846 811 1
655 812 1
656 812 1
708 812 1
724 812 1
760 812 1
775 812 1
838 812 1
847 812 1
656 813 1
657 813 1
709 813 1
725 813 1
761 813 1
776 813 1
839 813 1
848 813 1
657 814 1
658 814 1
710 814 1
726 814 1
762 814 1
777 814 1
840 814 1
849 814 1
658 815 1
659 815 1
711 815 1
727 815 1
763 815 1
778 815 1
841 815 1
850 815 1
659 816 1
660 816 1
712 816 1
728 816 1
764 816 1
779 816 1
842 816 1
851 816 1
660 817 1
661 817 1
703 817 1
713 817 1
765 817 1
780 817 1
843 817 1
852 817 1
661 818 1
662 818 1
704 818 1
714 818 1
755 818 1
766 818 1
844 818 1
853 818 1
662 819 1
663 819 1
705 819 1
715 819 1
756 819 1
767 819 1
845 819 1
854 819 1
663 820 1
664 820 1
706 820 1
716 820 1
757 820 1
768 820 1
846 820 1
855 820 1
664 821 1
665 821 1
707 821 1
717 821 1
758 821 1
769 821 1
847 821 1
856 821 1
665 822 1
666 822 1
708 822 1
718 822 1
759 822 1
770 822 1
848 822 1
857 822 1
666 823 1
667 823 1
709 823 1
719 823 1
760 823 1
771 823 1
849 823 1
858 823 1
667 824 1
668 824 1
710 824 1
720 824 1
761 824 1
772 824 1
833 824 1
850 824 1
668 825 1
669 825 1
711 825 1
721 825 1
762 825 1
773 825 1
834 825 1
851 825 1
669 826 1
670 826 1
712 826 1
722 826 1
763 826 1
774 826 1
835 826 1
852 826 1
670 827 1
671 827 1
713 827 1
723 827 1
764 827 1
775 827 1
836 827 1
853 827 1
671 828 1
672 828 1
714 828 1
724 828 1
765 828 1
776 828 1
837 828 1
854 828 1
672 829 1
673 829 1
715 829 1
725 829 1
766 829 1
777 829 1
838 829 1
855 829 1
673 830 1
674 830 1
716 830 1
726 830 1
767 830 1
778 830 1
839 830 1
856 830 1
674 831 1
675 831 1
717 831 1
727 831 1
768 831 1
779 831 1
840 831 1
857 831 1
675 832 1
676 832 1
718 832 1
728 832 1
769 832 1
780 832 1
841 832 1
858 832 1
677 833 1
702 833 1
703 833 1
726 833 1
781 833 1
796 833 1
859 833 1
868 833 1
677 834 1
678 834 1
704 834 1
727 834 1
782 834 1
797 834 1
860 834 1
869 834 1
678 835 1
679 835 1
705 835 1
728 835 1
783 835 1
798 835 1
861 835 1
870 835 1
679 836 1
680 836 1
703 836 1
706 836 1
784 836 1
799 836 1
862 836 1
871 836 1
680 837 1
681 837 1
704 837 1
707 837 1
785 837 1
800 837 1
863 837 1
872 837 1
681 838 1
682 838 1
705 838 1
708 838 1
786 838 1
801 838 1
864 838 1
873 838 1
682 839 1
683 839 1
706 839 1
709 839 1
787 839 1
802 839 1
865 839 1
874 839 1
683 840 1
684 840 1
707 840 1
710 840 1
788 840 1
803 840 1
866 840 1
875 840 1
684 841 1
685 841 1
708 841 1
711 841 1
789 841 1
804 841 1
867 841 1
876 841 1
685 842 1
686 842 1
709 842 1
712 842 1
790 842 1
805 842 1
868 842 1
877 842 1
686 843 1
687 843 1
710 843 1
713 843 1
791 843 1
806 843 1
869 843 1
878 843 1
687 844 1
688 844 1
711 844 1
714 844 1
781 844 1
792 844 1
870 844 1
879 844 1
688 845 1
689 845 1
712 845 1
715 845 1
782 845 1
793 845 1
871 845 1
880 845 1
689 846 1
690 846 1
713 846 1
716 846 1
783 846 1
794 846 1
872 846 1
881 846 1
690 847 1
691 847 1
714 847 1
717 847 1
784 847 1
795 847 1
873 847 1
882 847 1
691 848 1
692 848 1
715 848 1
718 848 1
785 848 1
796 848 1
874 848 1
883 848 1
692 849 1
693 849 1
716 849 1
719 849 1
786 849 1
797 849 1
875 849 1
884 849 1
693 850 1
694 850 1
717 850 1
720 850 1
787 850 1
798 850 1
859 850 1
876 850 1
694 851 1
695 851 1
718 851 1
721 851 1
788 851 1
799 851 1
860 851 1
877 851 1
695 852 1
696 852 1
719 852 1
722 852 1
789 852 1
800 852 1
861 852 1
878 852 1
696 853 1
697 853 1
720 853 1
723 853 1
790 853 1
801 853 1
862 853 1
879 853 1
697 854 1
698 854 1
721 854 1
724 854 1
791 854 1
802 854 1
863 854 1
880 854 1
698 855 1
699 855 1
722 855 1
725 855 1
792 855 1
803 855 1
864 855 1
881 855 1
699 856 1
700 856 1
723 856 1
726 856 1
793 856 1
804 856 1
865 856 1
882 856 1
700 857 1
701 857 1
724 857 1
727 857 1
794 857 1
805 857 1
866 857 1
883 857 1
701 858 1
702 858 1
725 858 1
728 858 1
795 858 1
806 858 1
867 858 1
884 858 1
729 859 1
754 859 1
755 859 1
778 859 1
781 859 1
797 859 1
885 859 1
894 859 1
729 860 1
730 860 1
756 860 1
779 860 1
782 860 1
798 860 1
886 860 1
895 860 1
730 861 1
731 861 1
757 861 1
780 861 1
783 861 1
799 861 1
887 861 1
896 861 1
731 862 1
732 862 1
755 862 1
758 862 1
784 862 1
800 862 1
888 862 1
897 862 1
732 863 1
733 863 1
756 863 1
759 863 1
785 863 1
801 863 1
889 863 1
898 863 1
733 864 1
734 864 1
757 864 1
760 864 1
786 864 1
802 864 1
890 864 1
899 864 1
734 865 1
735 865 1
758 865 1
761 865 1
787 865 1
803 865 1
891 865 1
900 865 1
735 866 1
736 866 1
759 866 1
762 866 1
788 866 1
804 866 1
892 866 1
901 866 1
736 867 1
737 867 1
760 867 1
763 867 1
789 867 1
805 867 1
893 867 1
902 867 1
737 868 1
738 868 1
761 868 1
764 868 1
790 868 1
806 868 1
894 868 1
903 868 1
738 869 1
739 869 1
762 869 1
765 869 1
781 869 1
791 869 1
895 869 1
904 869 1
739 870 1
740 870 1
763 870 1
766 870 1
782 870 1
792 870 1
896 870 1
905 870 1
740 871 1
741 871 1
764 871 1
767 871 1
783 871 1
793 871 1
897 871 1
906 871 1
741 872 1
742 872 1
765 872 1
768 872 1
784 872 1
794 872 1
898 872 1
907 872 1
742 873 1
743 873 1
766 873 1
769 873 1
785 873 1
795 873 1
899 873 1
908 873 1
743 874 1
744 874 1
767 874 1
770 874 1
786 874 1
796 874 1
900 874 1
909 874 1
744 875 1
745 875 1
768 875 1
771 875 1
787 875 1
797 875 1
901 875 1
910 875 1
745 876 1
746 876 1
769 876 1
772 876 1
788 876 1
798 876 1
885 876 1
902 876 1
746 877 1
747 877 1
770 877 1
773 877 1
789 877 1
799 877 1
886 877 1
903 877 1
747 878 1
748 878 1
771 878 1
774 878 1
790 878 1
800 878 1
887 878 1
904 878 1
748 879 1
749 879 1
772 879 1
775 879 1
791 879 1
801 879 1
888 879 1
905 879 1
749 880 1
750 880 1
773 880 1
776 880 1
792 880 1
802 880 1
889 880 1
906 880 1
750 881 1
751 881 1
774 881 1
777 881 1
793 881 1
803 881 1
890 881 1
907 881 1
751 882 1
752 882 1
775 882 1
778 882 1
794 882 1
804 882 1
891 882 1
908 882 1
752 883 1
753 883 1
776 883 1
779 883 1
795 883 1
805 883 1
892 883 1
909 883 1
753 884 1
754 884 1
777 884 1
780 884 1
796 884 1
806 884 1
893 884 1
910 884 1
807 885 1
832 885 1
833 885 1
856 885 1
859 885 1
875 885 1
885 885 1
900 885 1
807 886 1
808 886 1
834 886 1
857 886 1
860 886 1
876 886 1
886 886 1
901 886 1
808 887 1
809 887 1
835 887 1
858 887 1
861 887 1
877 887 1
887 887 1
902 887 1
809 888 1
810 888 1
833 888 1
836 888 1
862 888 1
878 888 1
888 888 1
903 888 1
810 889 1
811 889 1
834 889 1
837 889 1
863 889 1
879 889 1
889 889 1
904 889 1
811 890 1
812 890 1
835 890 1
838 890 1
864 890 1
880 890 1
890 890 1
905 890 1
812 891 1
813 891 1
836 891 1
839 891 1
865 891 1
881 891 1
891 891 1
906 891 1
813 892 1
814 892 1
837 892 1
840 892 1
866 892 1
882 892 1
892 892 1
907 892 1
814 893 1
815 893 1
838 893 1
841 893 1
867 893 1
883 893 1
893 893 1
908 893 1
815 894 1
816 894 1
839 894 1
842 894 1
868 894 1
884 894 1
894 894 1
909 894 1
816 895 1
817 895 1
840 895 1
843 895 1
859 895 1
869 895 1
895 895 1
910 895 1
817 896 1
818 896 1
841 896 1
844 896 1
860 896 1
870 896 1
885 896 1
896 896 1
818 897 1
819 897 1
842 897 1
845 897 1
861 897 1
871 897 1
886 897 1
897 897 1
819 898 1
820 898 1
843 898 1
846 898 1
862 898 1
872 898 1
887 898 1
898 898 1
820 899 1
821 899 1
844 899 1
847 899 1
863 899 1
873 899 1
888 899 1
899 899 1
821 900 1
822 900 1
845 900 1
848 900 1
864 900 1
874 900 1
889 900 1
900 900 1
822 901 1
823 901 1
846 901 1
849 901 1
865 901 1
875 901 1
890 901 1
901 901 1
823 902 1
824 902 1
847 902 1
850 902 1
866 902 1
876 902 1
891 902 1
902 902 1
824 903 1
825 903 1
848 903 1
851 903 1
867 903 1
877 903 1
892 903 1
903 903 1
825 904 1
826 904 1
849 904 1
852 904 1
868 904 1
878 904 1
893 904 1
904 904 1
826 905 1
827 905 1
850 905 1
853 905 1
869 905 1
879 905 1
894 905 1
905 905 1
827 906 1
828 906 1
851 906 1
854 906 1
870 906 1
880 906 1
895 906 1
906 906 1
828 907 1
829 907 1
852 907 1
855 907 1
871 907 1
881 907 1
896 907 1
907 907 1
829 908 1
830 908 1
853 908 1
856 908 1
872 908 1
882 908 1
897 908 1
908 908 1
830 909 1
831 909 1
854 909 1
857 909 1
873 909 1
883 909 1
898 909 1
909 909 1
831 910 1
832 910 1
855 910 1
858 910 1
874 910 1
884 910 1
899 910 1
910 910 1
