%%MatrixMarket matrix coordinate integer general
% Binary matrix; one-based indices; arithmetic over GF(2)
360 540 2160
26 1 1
44 1 1
99 1 1
111 1 1
27 2 1
45 2 1
100 2 1
112 2 1
28 3 1
41 3 1
96 3 1
113 3 1
29 4 1
42 4 1
97 4 1
114 4 1
30 5 1
43 5 1
98 5 1
115 5 1
16 6 1
34 6 1
104 6 1
116 6 1
17 7 1
35 7 1
105 7 1
117 7 1
18 8 1
31 8 1
101 8 1
118 8 1
19 9 1
32 9 1
102 9 1
119 9 1
20 10 1
33 10 1
103 10 1
120 10 1
21 11 1
39 11 1
94 11 1
106 11 1
22 12 1
40 12 1
95 12 1
107 12 1
23 13 1
36 13 1
91 13 1
108 13 1
24 14 1
37 14 1
92 14 1
109 14 1
25 15 1
38 15 1
93 15 1
110 15 1
14 16 1
41 16 1
114 16 1
126 16 1
15 17 1
42 17 1
115 17 1
127 17 1
11 18 1
43 18 1
111 18 1
128 18 1
12 19 1
44 19 1
112 19 1
129 19 1
13 20 1
45 20 1
113 20 1
130 20 1
4 21 1
31 21 1
119 21 1
131 21 1
5 22 1
32 22 1
120 22 1
132 22 1
1 23 1
33 23 1
116 23 1
133 23 1
2 24 1
34 24 1
117 24 1
134 24 1
3 25 1
35 25 1
118 25 1
135 25 1
9 26 1
36 26 1
109 26 1
121 26 1
10 27 1
37 27 1
110 27 1
122 27 1
6 28 1
38 28 1
106 28 1
123 28 1
7 29 1
39 29 1
107 29 1
124 29 1
8 30 1
40 30 1
108 30 1
125 30 1
11 31 1
29 31 1
96 31 1
129 31 1
12 32 1
30 32 1
97 32 1
130 32 1
13 33 1
26 33 1
98 33 1
126 33 1
14 34 1
27 34 1
99 34 1
127 34 1
15 35 1
28 35 1
100 35 1
128 35 1
1 36 1
19 36 1
101 36 1
134 36 1
2 37 1
20 37 1
102 37 1
135 37 1
3 38 1
16 38 1
103 38 1
131 38 1
4 39 1
17 39 1
104 39 1
132 39 1
5 40 1
18 40 1
105 40 1
133 40 1
6 41 1
24 41 1
91 41 1
124 41 1
7 42 1
25 42 1
92 42 1
125 42 1
8 43 1
21 43 1
93 43 1
121 43 1
9 44 1
22 44 1
94 44 1
122 44 1
10 45 1
23 45 1
95 45 1
123 45 1
71 46 1
89 46 1
144 46 1
156 46 1
72 47 1
90 47 1
145 47 1
157 47 1
73 48 1
86 48 1
141 48 1
158 48 1
74 49 1
87 49 1
142 49 1
159 49 1
75 50 1
88 50 1
143 50 1
160 50 1
61 51 1
79 51 1
149 51 1
161 51 1
62 52 1
80 52 1
150 52 1
162 52 1
63 53 1
76 53 1
146 53 1
163 53 1
64 54 1
77 54 1
147 54 1
164 54 1
65 55 1
78 55 1
148 55 1
165 55 1
66 56 1
84 56 1
139 56 1
151 56 1
67 57 1
85 57 1
140 57 1
152 57 1
68 58 1
81 58 1
136 58 1
153 58 1
69 59 1
82 59 1
137 59 1
154 59 1
70 60 1
83 60 1
138 60 1
155 60 1
59 61 1
86 61 1
159 61 1
171 61 1
60 62 1
87 62 1
160 62 1
172 62 1
56 63 1
88 63 1
156 63 1
173 63 1
57 64 1
89 64 1
157 64 1
174 64 1
58 65 1
90 65 1
158 65 1
175 65 1
49 66 1
76 66 1
164 66 1
176 66 1
50 67 1
77 67 1
165 67 1
177 67 1
46 68 1
78 68 1
161 68 1
178 68 1
47 69 1
79 69 1
162 69 1
179 69 1
48 70 1
80 70 1
163 70 1
180 70 1
54 71 1
81 71 1
154 71 1
166 71 1
55 72 1
82 72 1
155 72 1
167 72 1
51 73 1
83 73 1
151 73 1
168 73 1
52 74 1
84 74 1
152 74 1
169 74 1
53 75 1
85 75 1
153 75 1
170 75 1
56 76 1
74 76 1
141 76 1
174 76 1
57 77 1
75 77 1
142 77 1
175 77 1
58 78 1
71 78 1
143 78 1
171 78 1
59 79 1
72 79 1
144 79 1
172 79 1
60 80 1
73 80 1
145 80 1
173 80 1
46 81 1
64 81 1
146 81 1
179 81 1
47 82 1
65 82 1
147 82 1
180 82 1
48 83 1
61 83 1
148 83 1
176 83 1
49 84 1
62 84 1
149 84 1
177 84 1
50 85 1
63 85 1
150 85 1
178 85 1
51 86 1
69 86 1
136 86 1
169 86 1
52 87 1
70 87 1
137 87 1
170 87 1
53 88 1
66 88 1
138 88 1
166 88 1
54 89 1
67 89 1
139 89 1
167 89 1
55 90 1
68 90 1
140 90 1
168 90 1
41 91 1
89 91 1
189 91 1
201 91 1
42 92 1
90 92 1
190 92 1
202 92 1
43 93 1
86 93 1
186 93 1
203 93 1
44 94 1
87 94 1
187 94 1
204 94 1
45 95 1
88 95 1
188 95 1
205 95 1
31 96 1
79 96 1
194 96 1
206 96 1
32 97 1
80 97 1
195 97 1
207 97 1
33 98 1
76 98 1
191 98 1
208 98 1
34 99 1
77 99 1
192 99 1
209 99 1
35 100 1
78 100 1
193 100 1
210 100 1
36 101 1
84 101 1
184 101 1
196 101 1
37 102 1
85 102 1
185 102 1
197 102 1
38 103 1
81 103 1
181 103 1
198 103 1
39 104 1
82 104 1
182 104 1
199 104 1
40 105 1
83 105 1
183 105 1
200 105 1
11 106 1
59 106 1
204 106 1
216 106 1
12 107 1
60 107 1
205 107 1
217 107 1
13 108 1
56 108 1
201 108 1
218 108 1
14 109 1
57 109 1
202 109 1
219 109 1
15 110 1
58 110 1
203 110 1
220 110 1
1 111 1
49 111 1
209 111 1
221 111 1
2 112 1
50 112 1
210 112 1
222 112 1
3 113 1
46 113 1
206 113 1
223 113 1
4 114 1
47 114 1
207 114 1
224 114 1
5 115 1
48 115 1
208 115 1
225 115 1
6 116 1
54 116 1
199 116 1
211 116 1
7 117 1
55 117 1
200 117 1
212 117 1
8 118 1
51 118 1
196 118 1
213 118 1
9 119 1
52 119 1
197 119 1
214 119 1
10 120 1
53 120 1
198 120 1
215 120 1
26 121 1
74 121 1
186 121 1
219 121 1
27 122 1
75 122 1
187 122 1
220 122 1
28 123 1
71 123 1
188 123 1
216 123 1
29 124 1
72 124 1
189 124 1
217 124 1
30 125 1
73 125 1
190 125 1
218 125 1
16 126 1
64 126 1
191 126 1
224 126 1
17 127 1
65 127 1
192 127 1
225 127 1
18 128 1
61 128 1
193 128 1
221 128 1
19 129 1
62 129 1
194 129 1
222 129 1
20 130 1
63 130 1
195 130 1
223 130 1
21 131 1
69 131 1
181 131 1
214 131 1
22 132 1
70 132 1
182 132 1
215 132 1
23 133 1
66 133 1
183 133 1
211 133 1
24 134 1
67 134 1
184 134 1
212 134 1
25 135 1
68 135 1
185 135 1
213 135 1
44 136 1
86 136 1
234 136 1
246 136 1
45 137 1
87 137 1
235 137 1
247 137 1
41 138 1
88 138 1
231 138 1
248 138 1
42 139 1
89 139 1
232 139 1
249 139 1
43 140 1
90 140 1
233 140 1
250 140 1
34 141 1
76 141 1
239 141 1
251 141 1
35 142 1
77 142 1
240 142 1
252 142 1
31 143 1
78 143 1
236 143 1
253 143 1
32 144 1
79 144 1
237 144 1
254 144 1
33 145 1
80 145 1
238 145 1
255 145 1
39 146 1
81 146 1
229 146 1
241 146 1
40 147 1
82 147 1
230 147 1
242 147 1
36 148 1
83 148 1
226 148 1
243 148 1
37 149 1
84 149 1
227 149 1
244 149 1
38 150 1
85 150 1
228 150 1
245 150 1
14 151 1
56 151 1
249 151 1
261 151 1
15 152 1
57 152 1
250 152 1
262 152 1
11 153 1
58 153 1
246 153 1
263 153 1
12 154 1
59 154 1
247 154 1
264 154 1
13 155 1
60 155 1
248 155 1
265 155 1
4 156 1
46 156 1
254 156 1
266 156 1
5 157 1
47 157 1
255 157 1
267 157 1
1 158 1
48 158 1
251 158 1
268 158 1
2 159 1
49 159 1
252 159 1
269 159 1
3 160 1
50 160 1
253 160 1
270 160 1
9 161 1
51 161 1
244 161 1
256 161 1
10 162 1
52 162 1
245 162 1
257 162 1
6 163 1
53 163 1
241 163 1
258 163 1
7 164 1
54 164 1
242 164 1
259 164 1
8 165 1
55 165 1
243 165 1
260 165 1
29 166 1
71 166 1
231 166 1
264 166 1
30 167 1
72 167 1
232 167 1
265 167 1
26 168 1
73 168 1
233 168 1
261 168 1
27 169 1
74 169 1
234 169 1
262 169 1
28 170 1
75 170 1
235 170 1
263 170 1
19 171 1
61 171 1
236 171 1
269 171 1
20 172 1
62 172 1
237 172 1
270 172 1
16 173 1
63 173 1
238 173 1
266 173 1
17 174 1
64 174 1
239 174 1
267 174 1
18 175 1
65 175 1
240 175 1
268 175 1
24 176 1
66 176 1
226 176 1
259 176 1
25 177 1
67 177 1
227 177 1
260 177 1
21 178 1
68 178 1
228 178 1
256 178 1
22 179 1
69 179 1
229 179 1
257 179 1
23 180 1
70 180 1
230 180 1
258 180 1
131 181 1
179 181 1
206 181 1
224 181 1
132 182 1
180 182 1
207 182 1
225 182 1
133 183 1
176 183 1
208 183 1
221 183 1
134 184 1
177 184 1
209 184 1
222 184 1
135 185 1
178 185 1
210 185 1
223 185 1
121 186 1
169 186 1
196 186 1
214 186 1
122 187 1
170 187 1
197 187 1
215 187 1
123 188 1
166 188 1
198 188 1
211 188 1
124 189 1
167 189 1
199 189 1
212 189 1
125 190 1
168 190 1
200 190 1
213 190 1
126 191 1
174 191 1
201 191 1
219 191 1
127 192 1
175 192 1
202 192 1
220 192 1
128 193 1
171 193 1
203 193 1
216 193 1
129 194 1
172 194 1
204 194 1
217 194 1
130 195 1
173 195 1
205 195 1
218 195 1
101 196 1
149 196 1
194 196 1
221 196 1
102 197 1
150 197 1
195 197 1
222 197 1
103 198 1
146 198 1
191 198 1
223 198 1
104 199 1
147 199 1
192 199 1
224 199 1
105 200 1
148 200 1
193 200 1
225 200 1
91 201 1
139 201 1
184 201 1
211 201 1
92 202 1
140 202 1
185 202 1
212 202 1
93 203 1
136 203 1
181 203 1
213 203 1
94 204 1
137 204 1
182 204 1
214 204 1
95 205 1
138 205 1
183 205 1
215 205 1
96 206 1
144 206 1
189 206 1
216 206 1
97 207 1
145 207 1
190 207 1
217 207 1
98 208 1
141 208 1
186 208 1
218 208 1
99 209 1
142 209 1
187 209 1
219 209 1
100 210 1
143 210 1
188 210 1
220 210 1
116 211 1
164 211 1
191 211 1
209 211 1
117 212 1
165 212 1
192 212 1
210 212 1
118 213 1
161 213 1
193 213 1
206 213 1
119 214 1
162 214 1
194 214 1
207 214 1
120 215 1
163 215 1
195 215 1
208 215 1
106 216 1
154 216 1
181 216 1
199 216 1
107 217 1
155 217 1
182 217 1
200 217 1
108 218 1
151 218 1
183 218 1
196 218 1
109 219 1
152 219 1
184 219 1
197 219 1
110 220 1
153 220 1
185 220 1
198 220 1
111 221 1
159 221 1
186 221 1
204 221 1
112 222 1
160 222 1
187 222 1
205 222 1
113 223 1
156 223 1
188 223 1
201 223 1
114 224 1
157 224 1
189 224 1
202 224 1
115 225 1
158 225 1
190 225 1
203 225 1
134 226 1
176 226 1
251 226 1
269 226 1
135 227 1
177 227 1
252 227 1
270 227 1
131 228 1
178 228 1
253 228 1
266 228 1
132 229 1
179 229 1
254 229 1
267 229 1
133 230 1
180 230 1
255 230 1
268 230 1
124 231 1
166 231 1
241 231 1
259 231 1
125 232 1
167 232 1
242 232 1
260 232 1
121 233 1
168 233 1
243 233 1
256 233 1
122 234 1
169 234 1
244 234 1
257 234 1
123 235 1
170 235 1
245 235 1
258 235 1
129 236 1
171 236 1
246 236 1
264 236 1
130 237 1
172 237 1
247 237 1
265 237 1
126 238 1
173 238 1
248 238 1
261 238 1
127 239 1
174 239 1
249 239 1
262 239 1
128 240 1
175 240 1
250 240 1
263 240 1
104 241 1
146 241 1
239 241 1
266 241 1
105 242 1
147 242 1
240 242 1
267 242 1
101 243 1
148 243 1
236 243 1
268 243 1
102 244 1
149 244 1
237 244 1
269 244 1
103 245 1
150 245 1
238 245 1
270 245 1
94 246 1
136 246 1
229 246 1
256 246 1
95 247 1
137 247 1
230 247 1
257 247 1
91 248 1
138 248 1
226 248 1
258 248 1
92 249 1
139 249 1
227 249 1
259 249 1
93 250 1
140 250 1
228 250 1
260 250 1
99 251 1
141 251 1
234 251 1
261 251 1
100 252 1
142 252 1
235 252 1
262 252 1
96 253 1
143 253 1
231 253 1
263 253 1
97 254 1
144 254 1
232 254 1
264 254 1
98 255 1
145 255 1
233 255 1
265 255 1
119 256 1
161 256 1
236 256 1
254 256 1
120 257 1
162 257 1
237 257 1
255 257 1
116 258 1
163 258 1
238 258 1
251 258 1
117 259 1
164 259 1
239 259 1
252 259 1
118 260 1
165 260 1
240 260 1
253 260 1
109 261 1
151 261 1
226 261 1
244 261 1
110 262 1
152 262 1
227 262 1
245 262 1
106 263 1
153 263 1
228 263 1
241 263 1
107 264 1
154 264 1
229 264 1
242 264 1
108 265 1
155 265 1
230 265 1
243 265 1
114 266 1
156 266 1
231 266 1
249 266 1
115 267 1
157 267 1
232 267 1
250 267 1
111 268 1
158 268 1
233 268 1
246 268 1
112 269 1
159 269 1
234 269 1
247 269 1
113 270 1
160 270 1
235 270 1
248 270 1
24 271 1
84 271 1
279 271 1
291 271 1
25 272 1
85 272 1
280 272 1
292 272 1
21 273 1
81 273 1
276 273 1
293 273 1
22 274 1
82 274 1
277 274 1
294 274 1
23 275 1
83 275 1
278 275 1
295 275 1
29 276 1
89 276 1
284 276 1
296 276 1
30 277 1
90 277 1
285 277 1
297 277 1
26 278 1
86 278 1
281 278 1
298 278 1
27 279 1
87 279 1
282 279 1
299 279 1
28 280 1
88 280 1
283 280 1
300 280 1
19 281 1
79 281 1
274 281 1
286 281 1
20 282 1
80 282 1
275 282 1
287 282 1
16 283 1
76 283 1
271 283 1
288 283 1
17 284 1
77 284 1
272 284 1
289 284 1
18 285 1
78 285 1
273 285 1
290 285 1
39 286 1
54 286 1
294 286 1
306 286 1
40 287 1
55 287 1
295 287 1
307 287 1
36 288 1
51 288 1
291 288 1
308 288 1
37 289 1
52 289 1
292 289 1
309 289 1
38 290 1
53 290 1
293 290 1
310 290 1
44 291 1
59 291 1
299 291 1
311 291 1
45 292 1
60 292 1
300 292 1
312 292 1
41 293 1
56 293 1
296 293 1
313 293 1
42 294 1
57 294 1
297 294 1
314 294 1
43 295 1
58 295 1
298 295 1
315 295 1
34 296 1
49 296 1
289 296 1
301 296 1
35 297 1
50 297 1
290 297 1
302 297 1
31 298 1
46 298 1
286 298 1
303 298 1
32 299 1
47 299 1
287 299 1
304 299 1
33 300 1
48 300 1
288 300 1
305 300 1
9 301 1
69 301 1
276 301 1
309 301 1
10 302 1
70 302 1
277 302 1
310 302 1
6 303 1
66 303 1
278 303 1
306 303 1
7 304 1
67 304 1
279 304 1
307 304 1
8 305 1
68 305 1
280 305 1
308 305 1
14 306 1
74 306 1
281 306 1
314 306 1
15 307 1
75 307 1
282 307 1
315 307 1
11 308 1
71 308 1
283 308 1
311 308 1
12 309 1
72 309 1
284 309 1
312 309 1
13 310 1
73 310 1
285 310 1
313 310 1
4 311 1
64 311 1
271 311 1
304 311 1
5 312 1
65 312 1
272 312 1
305 312 1
1 313 1
61 313 1
273 313 1
301 313 1
2 314 1
62 314 1
274 314 1
302 314 1
3 315 1
63 315 1
275 315 1
303 315 1
39 316 1
69 316 1
324 316 1
336 316 1
40 317 1
70 317 1
325 317 1
337 317 1
36 318 1
66 318 1
321 318 1
338 318 1
37 319 1
67 319 1
322 319 1
339 319 1
38 320 1
68 320 1
323 320 1
340 320 1
44 321 1
74 321 1
329 321 1
341 321 1
45 322 1
75 322 1
330 322 1
342 322 1
41 323 1
71 323 1
326 323 1
343 323 1
42 324 1
72 324 1
327 324 1
344 324 1
43 325 1
73 325 1
328 325 1
345 325 1
34 326 1
64 326 1
319 326 1
331 326 1
35 327 1
65 327 1
320 327 1
332 327 1
31 328 1
61 328 1
316 328 1
333 328 1
32 329 1
62 329 1
317 329 1
334 329 1
33 330 1
63 330 1
318 330 1
335 330 1
9 331 1
84 331 1
339 331 1
351 331 1
10 332 1
85 332 1
340 332 1
352 332 1
6 333 1
81 333 1
336 333 1
353 333 1
7 334 1
82 334 1
337 334 1
354 334 1
8 335 1
83 335 1
338 335 1
355 335 1
14 336 1
89 336 1
344 336 1
356 336 1
15 337 1
90 337 1
345 337 1
357 337 1
11 338 1
86 338 1
341 338 1
358 338 1
12 339 1
87 339 1
342 339 1
359 339 1
13 340 1
88 340 1
343 340 1
360 340 1
4 341 1
79 341 1
334 341 1
346 341 1
5 342 1
80 342 1
335 342 1
347 342 1
1 343 1
76 343 1
331 343 1
348 343 1
2 344 1
77 344 1
332 344 1
349 344 1
3 345 1
78 345 1
333 345 1
350 345 1
24 346 1
54 346 1
321 346 1
354 346 1
25 347 1
55 347 1
322 347 1
355 347 1
21 348 1
51 348 1
323 348 1
351 348 1
22 349 1
52 349 1
324 349 1
352 349 1
23 350 1
53 350 1
325 350 1
353 350 1
29 351 1
59 351 1
326 351 1
359 351 1
30 352 1
60 352 1
327 352 1
360 352 1
26 353 1
56 353 1
328 353 1
356 353 1
27 354 1
57 354 1
329 354 1
357 354 1
28 355 1
58 355 1
330 355 1
358 355 1
19 356 1
49 356 1
316 356 1
349 356 1
20 357 1
50 357 1
317 357 1
350 357 1
16 358 1
46 358 1
318 358 1
346 358 1
17 359 1
47 359 1
319 359 1
347 359 1
18 360 1
48 360 1
320 360 1
348 360 1
114 361 1
174 361 1
296 361 1
314 361 1
115 362 1
175 362 1
297 362 1
315 362 1
111 363 1
171 363 1
298 363 1
311 363 1
112 364 1
172 364 1
299 364 1
312 364 1
113 365 1
173 365 1
300 365 1
313 365 1
119 366 1
179 366 1
286 366 1
304 366 1
120 367 1
180 367 1
287 367 1
305 367 1
116 368 1
176 368 1
288 368 1
301 368 1
117 369 1
177 369 1
289 369 1
302 369 1
118 370 1
178 370 1
290 370 1
303 370 1
109 371 1
169 371 1
291 371 1
309 371 1
110 372 1
170 372 1
292 372 1
310 372 1
106 373 1
166 373 1
293 373 1
306 373 1
107 374 1
167 374 1
294 374 1
307 374 1
108 375 1
168 375 1
295 375 1
308 375 1
129 376 1
144 376 1
284 376 1
311 376 1
130 377 1
145 377 1
285 377 1
312 377 1
126 378 1
141 378 1
281 378 1
313 378 1
127 379 1
142 379 1
282 379 1
314 379 1
128 380 1
143 380 1
283 380 1
315 380 1
134 381 1
149 381 1
274 381 1
301 381 1
135 382 1
150 382 1
275 382 1
302 382 1
131 383 1
146 383 1
271 383 1
303 383 1
132 384 1
147 384 1
272 384 1
304 384 1
133 385 1
148 385 1
273 385 1
305 385 1
124 386 1
139 386 1
279 386 1
306 386 1
125 387 1
140 387 1
280 387 1
307 387 1
121 388 1
136 388 1
276 388 1
308 388 1
122 389 1
137 389 1
277 389 1
309 389 1
123 390 1
138 390 1
278 390 1
310 390 1
99 391 1
159 391 1
281 391 1
299 391 1
100 392 1
160 392 1
282 392 1
300 392 1
96 393 1
156 393 1
283 393 1
296 393 1
97 394 1
157 394 1
284 394 1
297 394 1
98 395 1
158 395 1
285 395 1
298 395 1
104 396 1
164 396 1
271 396 1
289 396 1
105 397 1
165 397 1
272 397 1
290 397 1
101 398 1
161 398 1
273 398 1
286 398 1
102 399 1
162 399 1
274 399 1
287 399 1
103 400 1
163 400 1
275 400 1
288 400 1
94 401 1
154 401 1
276 401 1
294 401 1
95 402 1
155 402 1
277 402 1
295 402 1
91 403 1
151 403 1
278 403 1
291 403 1
92 404 1
152 404 1
279 404 1
292 404 1
93 405 1
153 405 1
280 405 1
293 405 1
129 406 1
159 406 1
341 406 1
359 406 1
130 407 1
160 407 1
342 407 1
360 407 1
126 408 1
156 408 1
343 408 1
356 408 1
127 409 1
157 409 1
344 409 1
357 409 1
128 410 1
158 410 1
345 410 1
358 410 1
134 411 1
164 411 1
331 411 1
349 411 1
135 412 1
165 412 1
332 412 1
350 412 1
131 413 1
161 413 1
333 413 1
346 413 1
132 414 1
162 414 1
334 414 1
347 414 1
133 415 1
163 415 1
335 415 1
348 415 1
124 416 1
154 416 1
336 416 1
354 416 1
125 417 1
155 417 1
337 417 1
355 417 1
121 418 1
151 418 1
338 418 1
351 418 1
122 419 1
152 419 1
339 419 1
352 419 1
123 420 1
153 420 1
340 420 1
353 420 1
99 421 1
174 421 1
329 421 1
356 421 1
100 422 1
175 422 1
330 422 1
357 422 1
96 423 1
171 423 1
326 423 1
358 423 1
97 424 1
172 424 1
327 424 1
359 424 1
98 425 1
173 425 1
328 425 1
360 425 1
104 426 1
179 426 1
319 426 1
346 426 1
105 427 1
180 427 1
320 427 1
347 427 1
101 428 1
176 428 1
316 428 1
348 428 1
102 429 1
177 429 1
317 429 1
349 429 1
103 430 1
178 430 1
318 430 1
350 430 1
94 431 1
169 431 1
324 431 1
351 431 1
95 432 1
170 432 1
325 432 1
352 432 1
91 433 1
166 433 1
321 433 1
353 433 1
92 434 1
167 434 1
322 434 1
354 434 1
93 435 1
168 435 1
323 435 1
355 435 1
114 436 1
144 436 1
326 436 1
344 436 1
115 437 1
145 437 1
327 437 1
345 437 1
111 438 1
141 438 1
328 438 1
341 438 1
112 439 1
142 439 1
329 439 1
342 439 1
113 440 1
143 440 1
330 440 1
343 440 1
119 441 1
149 441 1
316 441 1
334 441 1
120 442 1
150 442 1
317 442 1
335 442 1
116 443 1
146 443 1
318 443 1
331 443 1
117 444 1
147 444 1
319 444 1
332 444 1
118 445 1
148 445 1
320 445 1
333 445 1
109 446 1
139 446 1
321 446 1
339 446 1
110 447 1
140 447 1
322 447 1
340 447 1
106 448 1
136 448 1
323 448 1
336 448 1
107 449 1
137 449 1
324 449 1
337 449 1
108 450 1
138 450 1
325 450 1
338 450 1
204 451 1
264 451 1
311 451 1
359 451 1
205 452 1
265 452 1
312 452 1
360 452 1
201 453 1
261 453 1
313 453 1
356 453 1
202 454 1
262 454 1
314 454 1
357 454 1
203 455 1
263 455 1
315 455 1
358 455 1
209 456 1
269 456 1
301 456 1
349 456 1
210 457 1
270 457 1
302 457 1
350 457 1
206 458 1
266 458 1
303 458 1
346 458 1
207 459 1
267 459 1
304 459 1
347 459 1
208 460 1
268 460 1
305 460 1
348 460 1
199 461 1
259 461 1
306 461 1
354 461 1
200 462 1
260 462 1
307 462 1
355 462 1
196 463 1
256 463 1
308 463 1
351 463 1
197 464 1
257 464 1
309 464 1
352 464 1
198 465 1
258 465 1
310 465 1
353 465 1
219 466 1
234 466 1
281 466 1
329 466 1
220 467 1
235 467 1
282 467 1
330 467 1
216 468 1
231 468 1
283 468 1
326 468 1
217 469 1
232 469 1
284 469 1
327 469 1
218 470 1
233 470 1
285 470 1
328 470 1
224 471 1
239 471 1
271 471 1
319 471 1
225 472 1
240 472 1
272 472 1
320 472 1
221 473 1
236 473 1
273 473 1
316 473 1
222 474 1
237 474 1
274 474 1
317 474 1
223 475 1
238 475 1
275 475 1
318 475 1
214 476 1
229 476 1
276 476 1
324 476 1
215 477 1
230 477 1
277 477 1
325 477 1
211 478 1
226 478 1
278 478 1
321 478 1
212 479 1
227 479 1
279 479 1
322 479 1
213 480 1
228 480 1
280 480 1
323 480 1
189 481 1
249 481 1
296 481 1
344 481 1
190 482 1
250 482 1
297 482 1
345 482 1
186 483 1
246 483 1
298 483 1
341 483 1
187 484 1
247 484 1
299 484 1
342 484 1
188 485 1
248 485 1
300 485 1
343 485 1
194 486 1
254 486 1
286 486 1
334 486 1
195 487 1
255 487 1
287 487 1
335 487 1
191 488 1
251 488 1
288 488 1
331 488 1
192 489 1
252 489 1
289 489 1
332 489 1
193 490 1
253 490 1
290 490 1
333 490 1
184 491 1
244 491 1
291 491 1
339 491 1
185 492 1
245 492 1
292 492 1
340 492 1
181 493 1
241 493 1
293 493 1
336 493 1
182 494 1
242 494 1
294 494 1
337 494 1
183 495 1
243 495 1
295 495 1
338 495 1
219 496 1
249 496 1
314 496 1
356 496 1
220 497 1
250 497 1
315 497 1
357 497 1
216 498 1
246 498 1
311 498 1
358 498 1
217 499 1
247 499 1
312 499 1
359 499 1
218 500 1
248 500 1
313 500 1
360 500 1
224 501 1
254 501 1
304 501 1
346 501 1
225 502 1
255 502 1
305 502 1
347 502 1
221 503 1
251 503 1
301 503 1
348 503 1
222 504 1
252 504 1
302 504 1
349 504 1
223 505 1
253 505 1
303 505 1
350 505 1
214 506 1
244 506 1
309 506 1
351 506 1
215 507 1
245 507 1
310 507 1
352 507 1
211 508 1
241 508 1
306 508 1
353 508 1
212 509 1
242 509 1
307 509 1
354 509 1
213 510 1
243 510 1
308 510 1
355 510 1
189 511 1
264 511 1
284 511 1
326 511 1
190 512 1
265 512 1
285 512 1
327 512 1
186 513 1
261 513 1
281 513 1
328 513 1
187 514 1
262 514 1
282 514 1
329 514 1
188 515 1
263 515 1
283 515 1
330 515 1
194 516 1
269 516 1
274 516 1
316 516 1
195 517 1
270 517 1
275 517 1
317 517 1
191 518 1
266 518 1
271 518 1
318 518 1
192 519 1
267 519 1
272 519 1
319 519 1
193 520 1
268 520 1
273 520 1
320 520 1
184 521 1
259 521 1
279 521 1
321 521 1
185 522 1
260 522 1
280 522 1
322 522 1
181 523 1
256 523 1
276 523 1
323 523 1
182 524 1
257 524 1
277 524 1
324 524 1
183 525 1
258 525 1
278 525 1
325 525 1
204 526 1
234 526 1
299 526 1
341 526 1
205 527 1
235 527 1
300 527 1
342 527 1
201 528 1
231 528 1
296 528 1
343 528 1
202 529 1
232 529 1
297 529 1
344 529 1
203 530 1
233 530 1
298 530 1
345 530 1
209 531 1
239 531 1
289 531 1
331 531 1
210 532 1
240 532 1
290 532 1
332 532 1
206 533 1
236 533 1
286 533 1
333 533 1
207 534 1
237 534 1
287 534 1
334 534 1
208 535 1
238 535 1
288 535 1
335 535 1
199 536 1
229 536 1
294 536 1
336 536 1
200 537 1
230 537 1
295 537 1
337 537 1
196 538 1
226 538 1
291 538 1
338 538 1
197 539 1
227 539 1
292 539 1
339 539 1
198 540 1
228 540 1
293 540 1
340 540 1
