%%MatrixMarket matrix coordinate integer general
% Binary matrix; one-based indices; arithmetic over GF(2)
360 540 2160
21 1 1
68 1 1
133 1 1
163 1 1
22 2 1
69 2 1
134 2 1
164 2 1
23 3 1
70 3 1
135 3 1
165 3 1
24 4 1
66 4 1
131 4 1
161 4 1
25 5 1
67 5 1
132 5 1
162 5 1
26 6 1
73 6 1
123 6 1
153 6 1
27 7 1
74 7 1
124 7 1
154 7 1
28 8 1
75 8 1
125 8 1
155 8 1
29 9 1
71 9 1
121 9 1
151 9 1
30 10 1
72 10 1
122 10 1
152 10 1
16 11 1
63 11 1
128 11 1
158 11 1
17 12 1
64 12 1
129 12 1
159 12 1
18 13 1
65 13 1
130 13 1
160 13 1
19 14 1
61 14 1
126 14 1
156 14 1
20 15 1
62 15 1
127 15 1
157 15 1
36 16 1
83 16 1
103 16 1
178 16 1
37 17 1
84 17 1
104 17 1
179 17 1
38 18 1
85 18 1
105 18 1
180 18 1
39 19 1
81 19 1
101 19 1
176 19 1
40 20 1
82 20 1
102 20 1
177 20 1
41 21 1
88 21 1
93 21 1
168 21 1
42 22 1
89 22 1
94 22 1
169 22 1
43 23 1
90 23 1
95 23 1
170 23 1
44 24 1
86 24 1
91 24 1
166 24 1
45 25 1
87 25 1
92 25 1
167 25 1
31 26 1
78 26 1
98 26 1
173 26 1
32 27 1
79 27 1
99 27 1
174 27 1
33 28 1
80 28 1
100 28 1
175 28 1
34 29 1
76 29 1
96 29 1
171 29 1
35 30 1
77 30 1
97 30 1
172 30 1
6 31 1
53 31 1
118 31 1
148 31 1
7 32 1
54 32 1
119 32 1
149 32 1
8 33 1
55 33 1
120 33 1
150 33 1
9 34 1
51 34 1
116 34 1
146 34 1
10 35 1
52 35 1
117 35 1
147 35 1
11 36 1
58 36 1
108 36 1
138 36 1
12 37 1
59 37 1
109 37 1
139 37 1
13 38 1
60 38 1
110 38 1
140 38 1
14 39 1
56 39 1
106 39 1
136 39 1
15 40 1
57 40 1
107 40 1
137 40 1
1 41 1
48 41 1
113 41 1
143 41 1
2 42 1
49 42 1
114 42 1
144 42 1
3 43 1
50 43 1
115 43 1
145 43 1
4 44 1
46 44 1
111 44 1
141 44 1
5 45 1
47 45 1
112 45 1
142 45 1
23 46 1
66 46 1
118 46 1
178 46 1
24 47 1
67 47 1
119 47 1
179 47 1
25 48 1
68 48 1
120 48 1
180 48 1
21 49 1
69 49 1
116 49 1
176 49 1
22 50 1
70 50 1
117 50 1
177 50 1
28 51 1
71 51 1
108 51 1
168 51 1
29 52 1
72 52 1
109 52 1
169 52 1
30 53 1
73 53 1
110 53 1
170 53 1
26 54 1
74 54 1
106 54 1
166 54 1
27 55 1
75 55 1
107 55 1
167 55 1
18 56 1
61 56 1
113 56 1
173 56 1
19 57 1
62 57 1
114 57 1
174 57 1
20 58 1
63 58 1
115 58 1
175 58 1
16 59 1
64 59 1
111 59 1
171 59 1
17 60 1
65 60 1
112 60 1
172 60 1
38 61 1
81 61 1
133 61 1
148 61 1
39 62 1
82 62 1
134 62 1
149 62 1
40 63 1
83 63 1
135 63 1
150 63 1
36 64 1
84 64 1
131 64 1
146 64 1
37 65 1
85 65 1
132 65 1
147 65 1
43 66 1
86 66 1
123 66 1
138 66 1
44 67 1
87 67 1
124 67 1
139 67 1
45 68 1
88 68 1
125 68 1
140 68 1
41 69 1
89 69 1
121 69 1
136 69 1
42 70 1
90 70 1
122 70 1
137 70 1
33 71 1
76 71 1
128 71 1
143 71 1
34 72 1
77 72 1
129 72 1
144 72 1
35 73 1
78 73 1
130 73 1
145 73 1
31 74 1
79 74 1
126 74 1
141 74 1
32 75 1
80 75 1
127 75 1
142 75 1
8 76 1
51 76 1
103 76 1
163 76 1
9 77 1
52 77 1
104 77 1
164 77 1
10 78 1
53 78 1
105 78 1
165 78 1
6 79 1
54 79 1
101 79 1
161 79 1
7 80 1
55 80 1
102 80 1
162 80 1
13 81 1
56 81 1
93 81 1
153 81 1
14 82 1
57 82 1
94 82 1
154 82 1
15 83 1
58 83 1
95 83 1
155 83 1
11 84 1
59 84 1
91 84 1
151 84 1
12 85 1
60 85 1
92 85 1
152 85 1
3 86 1
46 86 1
98 86 1
158 86 1
4 87 1
47 87 1
99 87 1
159 87 1
5 88 1
48 88 1
100 88 1
160 88 1
1 89 1
49 89 1
96 89 1
156 89 1
2 90 1
50 90 1
97 90 1
157 90 1
23 91 1
36 91 1
223 91 1
253 91 1
24 92 1
37 92 1
224 92 1
254 92 1
25 93 1
38 93 1
225 93 1
255 93 1
21 94 1
39 94 1
221 94 1
251 94 1
22 95 1
40 95 1
222 95 1
252 95 1
28 96 1
41 96 1
213 96 1
243 96 1
29 97 1
42 97 1
214 97 1
244 97 1
30 98 1
43 98 1
215 98 1
245 98 1
26 99 1
44 99 1
211 99 1
241 99 1
27 100 1
45 100 1
212 100 1
242 100 1
18 101 1
31 101 1
218 101 1
248 101 1
19 102 1
32 102 1
219 102 1
249 102 1
20 103 1
33 103 1
220 103 1
250 103 1
16 104 1
34 104 1
216 104 1
246 104 1
17 105 1
35 105 1
217 105 1
247 105 1
6 106 1
38 106 1
193 106 1
268 106 1
7 107 1
39 107 1
194 107 1
269 107 1
8 108 1
40 108 1
195 108 1
270 108 1
9 109 1
36 109 1
191 109 1
266 109 1
10 110 1
37 110 1
192 110 1
267 110 1
11 111 1
43 111 1
183 111 1
258 111 1
12 112 1
44 112 1
184 112 1
259 112 1
13 113 1
45 113 1
185 113 1
260 113 1
14 114 1
41 114 1
181 114 1
256 114 1
15 115 1
42 115 1
182 115 1
257 115 1
1 116 1
33 116 1
188 116 1
263 116 1
2 117 1
34 117 1
189 117 1
264 117 1
3 118 1
35 118 1
190 118 1
265 118 1
4 119 1
31 119 1
186 119 1
261 119 1
5 120 1
32 120 1
187 120 1
262 120 1
8 121 1
21 121 1
208 121 1
238 121 1
9 122 1
22 122 1
209 122 1
239 122 1
10 123 1
23 123 1
210 123 1
240 123 1
6 124 1
24 124 1
206 124 1
236 124 1
7 125 1
25 125 1
207 125 1
237 125 1
13 126 1
26 126 1
198 126 1
228 126 1
14 127 1
27 127 1
199 127 1
229 127 1
15 128 1
28 128 1
200 128 1
230 128 1
11 129 1
29 129 1
196 129 1
226 129 1
12 130 1
30 130 1
197 130 1
227 130 1
3 131 1
16 131 1
203 131 1
233 131 1
4 132 1
17 132 1
204 132 1
234 132 1
5 133 1
18 133 1
205 133 1
235 133 1
1 134 1
19 134 1
201 134 1
231 134 1
2 135 1
20 135 1
202 135 1
232 135 1
68 136 1
81 136 1
208 136 1
268 136 1
69 137 1
82 137 1
209 137 1
269 137 1
70 138 1
83 138 1
210 138 1
270 138 1
66 139 1
84 139 1
206 139 1
266 139 1
67 140 1
85 140 1
207 140 1
267 140 1
73 141 1
86 141 1
198 141 1
258 141 1
74 142 1
87 142 1
199 142 1
259 142 1
75 143 1
88 143 1
200 143 1
260 143 1
71 144 1
89 144 1
196 144 1
256 144 1
72 145 1
90 145 1
197 145 1
257 145 1
63 146 1
76 146 1
203 146 1
263 146 1
64 147 1
77 147 1
204 147 1
264 147 1
65 148 1
78 148 1
205 148 1
265 148 1
61 149 1
79 149 1
201 149 1
261 149 1
62 150 1
80 150 1
202 150 1
262 150 1
51 151 1
83 151 1
223 151 1
238 151 1
52 152 1
84 152 1
224 152 1
239 152 1
53 153 1
85 153 1
225 153 1
240 153 1
54 154 1
81 154 1
221 154 1
236 154 1
55 155 1
82 155 1
222 155 1
237 155 1
56 156 1
88 156 1
213 156 1
228 156 1
57 157 1
89 157 1
214 157 1
229 157 1
58 158 1
90 158 1
215 158 1
230 158 1
59 159 1
86 159 1
211 159 1
226 159 1
60 160 1
87 160 1
212 160 1
227 160 1
46 161 1
78 161 1
218 161 1
233 161 1
47 162 1
79 162 1
219 162 1
234 162 1
48 163 1
80 163 1
220 163 1
235 163 1
49 164 1
76 164 1
216 164 1
231 164 1
50 165 1
77 165 1
217 165 1
232 165 1
53 166 1
66 166 1
193 166 1
253 166 1
54 167 1
67 167 1
194 167 1
254 167 1
55 168 1
68 168 1
195 168 1
255 168 1
51 169 1
69 169 1
191 169 1
251 169 1
52 170 1
70 170 1
192 170 1
252 170 1
58 171 1
71 171 1
183 171 1
243 171 1
59 172 1
72 172 1
184 172 1
244 172 1
60 173 1
73 173 1
185 173 1
245 173 1
56 174 1
74 174 1
181 174 1
241 174 1
57 175 1
75 175 1
182 175 1
242 175 1
48 176 1
61 176 1
188 176 1
248 176 1
49 177 1
62 177 1
189 177 1
249 177 1
50 178 1
63 178 1
190 178 1
250 178 1
46 179 1
64 179 1
186 179 1
246 179 1
47 180 1
65 180 1
187 180 1
247 180 1
13 181 1
41 181 1
313 181 1
343 181 1
14 182 1
42 182 1
314 182 1
344 182 1
15 183 1
43 183 1
315 183 1
345 183 1
11 184 1
44 184 1
311 184 1
341 184 1
12 185 1
45 185 1
312 185 1
342 185 1
3 186 1
31 186 1
303 186 1
333 186 1
4 187 1
32 187 1
304 187 1
334 187 1
5 188 1
33 188 1
305 188 1
335 188 1
1 189 1
34 189 1
301 189 1
331 189 1
2 190 1
35 190 1
302 190 1
332 190 1
8 191 1
36 191 1
308 191 1
338 191 1
9 192 1
37 192 1
309 192 1
339 192 1
10 193 1
38 193 1
310 193 1
340 193 1
6 194 1
39 194 1
306 194 1
336 194 1
7 195 1
40 195 1
307 195 1
337 195 1
11 196 1
28 196 1
283 196 1
358 196 1
12 197 1
29 197 1
284 197 1
359 197 1
13 198 1
30 198 1
285 198 1
360 198 1
14 199 1
26 199 1
281 199 1
356 199 1
15 200 1
27 200 1
282 200 1
357 200 1
1 201 1
18 201 1
273 201 1
348 201 1
2 202 1
19 202 1
274 202 1
349 202 1
3 203 1
20 203 1
275 203 1
350 203 1
4 204 1
16 204 1
271 204 1
346 204 1
5 205 1
17 205 1
272 205 1
347 205 1
6 206 1
23 206 1
278 206 1
353 206 1
7 207 1
24 207 1
279 207 1
354 207 1
8 208 1
25 208 1
280 208 1
355 208 1
9 209 1
21 209 1
276 209 1
351 209 1
10 210 1
22 210 1
277 210 1
352 210 1
26 211 1
43 211 1
298 211 1
328 211 1
27 212 1
44 212 1
299 212 1
329 212 1
28 213 1
45 213 1
300 213 1
330 213 1
29 214 1
41 214 1
296 214 1
326 214 1
30 215 1
42 215 1
297 215 1
327 215 1
16 216 1
33 216 1
288 216 1
318 216 1
17 217 1
34 217 1
289 217 1
319 217 1
18 218 1
35 218 1
290 218 1
320 218 1
19 219 1
31 219 1
286 219 1
316 219 1
20 220 1
32 220 1
287 220 1
317 220 1
21 221 1
38 221 1
293 221 1
323 221 1
22 222 1
39 222 1
294 222 1
324 222 1
23 223 1
40 223 1
295 223 1
325 223 1
24 224 1
36 224 1
291 224 1
321 224 1
25 225 1
37 225 1
292 225 1
322 225 1
58 226 1
86 226 1
298 226 1
358 226 1
59 227 1
87 227 1
299 227 1
359 227 1
60 228 1
88 228 1
300 228 1
360 228 1
56 229 1
89 229 1
296 229 1
356 229 1
57 230 1
90 230 1
297 230 1
357 230 1
48 231 1
76 231 1
288 231 1
348 231 1
49 232 1
77 232 1
289 232 1
349 232 1
50 233 1
78 233 1
290 233 1
350 233 1
46 234 1
79 234 1
286 234 1
346 234 1
47 235 1
80 235 1
287 235 1
347 235 1
53 236 1
81 236 1
293 236 1
353 236 1
54 237 1
82 237 1
294 237 1
354 237 1
55 238 1
83 238 1
295 238 1
355 238 1
51 239 1
84 239 1
291 239 1
351 239 1
52 240 1
85 240 1
292 240 1
352 240 1
56 241 1
73 241 1
313 241 1
328 241 1
57 242 1
74 242 1
314 242 1
329 242 1
58 243 1
75 243 1
315 243 1
330 243 1
59 244 1
71 244 1
311 244 1
326 244 1
60 245 1
72 245 1
312 245 1
327 245 1
46 246 1
63 246 1
303 246 1
318 246 1
47 247 1
64 247 1
304 247 1
319 247 1
48 248 1
65 248 1
305 248 1
320 248 1
49 249 1
61 249 1
301 249 1
316 249 1
50 250 1
62 250 1
302 250 1
317 250 1
51 251 1
68 251 1
308 251 1
323 251 1
52 252 1
69 252 1
309 252 1
324 252 1
53 253 1
70 253 1
310 253 1
325 253 1
54 254 1
66 254 1
306 254 1
321 254 1
55 255 1
67 255 1
307 255 1
322 255 1
71 256 1
88 256 1
283 256 1
343 256 1
72 257 1
89 257 1
284 257 1
344 257 1
73 258 1
90 258 1
285 258 1
345 258 1
74 259 1
86 259 1
281 259 1
341 259 1
75 260 1
87 260 1
282 260 1
342 260 1
61 261 1
78 261 1
273 261 1
333 261 1
62 262 1
79 262 1
274 262 1
334 262 1
63 263 1
80 263 1
275 263 1
335 263 1
64 264 1
76 264 1
271 264 1
331 264 1
65 265 1
77 265 1
272 265 1
332 265 1
66 266 1
83 266 1
278 266 1
338 266 1
67 267 1
84 267 1
279 267 1
339 267 1
68 268 1
85 268 1
280 268 1
340 268 1
69 269 1
81 269 1
276 269 1
336 269 1
70 270 1
82 270 1
277 270 1
337 270 1
113 271 1
126 271 1
201 271 1
248 271 1
114 272 1
127 272 1
202 272 1
249 272 1
115 273 1
128 273 1
203 273 1
250 273 1
111 274 1
129 274 1
204 274 1
246 274 1
112 275 1
130 275 1
205 275 1
247 275 1
118 276 1
131 276 1
206 276 1
253 276 1
119 277 1
132 277 1
207 277 1
254 277 1
120 278 1
133 278 1
208 278 1
255 278 1
116 279 1
134 279 1
209 279 1
251 279 1
117 280 1
135 280 1
210 280 1
252 280 1
108 281 1
121 281 1
196 281 1
243 281 1
109 282 1
122 282 1
197 282 1
244 282 1
110 283 1
123 283 1
198 283 1
245 283 1
106 284 1
124 284 1
199 284 1
241 284 1
107 285 1
125 285 1
200 285 1
242 285 1
96 286 1
128 286 1
216 286 1
263 286 1
97 287 1
129 287 1
217 287 1
264 287 1
98 288 1
130 288 1
218 288 1
265 288 1
99 289 1
126 289 1
219 289 1
261 289 1
100 290 1
127 290 1
220 290 1
262 290 1
101 291 1
133 291 1
221 291 1
268 291 1
102 292 1
134 292 1
222 292 1
269 292 1
103 293 1
135 293 1
223 293 1
270 293 1
104 294 1
131 294 1
224 294 1
266 294 1
105 295 1
132 295 1
225 295 1
267 295 1
91 296 1
123 296 1
211 296 1
258 296 1
92 297 1
124 297 1
212 297 1
259 297 1
93 298 1
125 298 1
213 298 1
260 298 1
94 299 1
121 299 1
214 299 1
256 299 1
95 300 1
122 300 1
215 300 1
257 300 1
98 301 1
111 301 1
186 301 1
233 301 1
99 302 1
112 302 1
187 302 1
234 302 1
100 303 1
113 303 1
188 303 1
235 303 1
96 304 1
114 304 1
189 304 1
231 304 1
97 305 1
115 305 1
190 305 1
232 305 1
103 306 1
116 306 1
191 306 1
238 306 1
104 307 1
117 307 1
192 307 1
239 307 1
105 308 1
118 308 1
193 308 1
240 308 1
101 309 1
119 309 1
194 309 1
236 309 1
102 310 1
120 310 1
195 310 1
237 310 1
93 311 1
106 311 1
181 311 1
228 311 1
94 312 1
107 312 1
182 312 1
229 312 1
95 313 1
108 313 1
183 313 1
230 313 1
91 314 1
109 314 1
184 314 1
226 314 1
92 315 1
110 315 1
185 315 1
227 315 1
158 316 1
171 316 1
203 316 1
246 316 1
159 317 1
172 317 1
204 317 1
247 317 1
160 318 1
173 318 1
205 318 1
248 318 1
156 319 1
174 319 1
201 319 1
249 319 1
157 320 1
175 320 1
202 320 1
250 320 1
163 321 1
176 321 1
208 321 1
251 321 1
164 322 1
177 322 1
209 322 1
252 322 1
165 323 1
178 323 1
210 323 1
253 323 1
161 324 1
179 324 1
206 324 1
254 324 1
162 325 1
180 325 1
207 325 1
255 325 1
153 326 1
166 326 1
198 326 1
241 326 1
154 327 1
167 327 1
199 327 1
242 327 1
155 328 1
168 328 1
200 328 1
243 328 1
151 329 1
169 329 1
196 329 1
244 329 1
152 330 1
170 330 1
197 330 1
245 330 1
141 331 1
173 331 1
218 331 1
261 331 1
142 332 1
174 332 1
219 332 1
262 332 1
143 333 1
175 333 1
220 333 1
263 333 1
144 334 1
171 334 1
216 334 1
264 334 1
145 335 1
172 335 1
217 335 1
265 335 1
146 336 1
178 336 1
223 336 1
266 336 1
147 337 1
179 337 1
224 337 1
267 337 1
148 338 1
180 338 1
225 338 1
268 338 1
149 339 1
176 339 1
221 339 1
269 339 1
150 340 1
177 340 1
222 340 1
270 340 1
136 341 1
168 341 1
213 341 1
256 341 1
137 342 1
169 342 1
214 342 1
257 342 1
138 343 1
170 343 1
215 343 1
258 343 1
139 344 1
166 344 1
211 344 1
259 344 1
140 345 1
167 345 1
212 345 1
260 345 1
143 346 1
156 346 1
188 346 1
231 346 1
144 347 1
157 347 1
189 347 1
232 347 1
145 348 1
158 348 1
190 348 1
233 348 1
141 349 1
159 349 1
186 349 1
234 349 1
142 350 1
160 350 1
187 350 1
235 350 1
148 351 1
161 351 1
193 351 1
236 351 1
149 352 1
162 352 1
194 352 1
237 352 1
150 353 1
163 353 1
195 353 1
238 353 1
146 354 1
164 354 1
191 354 1
239 354 1
147 355 1
165 355 1
192 355 1
240 355 1
138 356 1
151 356 1
183 356 1
226 356 1
139 357 1
152 357 1
184 357 1
227 357 1
140 358 1
153 358 1
185 358 1
228 358 1
136 359 1
154 359 1
181 359 1
229 359 1
137 360 1
155 360 1
182 360 1
230 360 1
103 361 1
131 361 1
291 361 1
338 361 1
104 362 1
132 362 1
292 362 1
339 362 1
105 363 1
133 363 1
293 363 1
340 363 1
101 364 1
134 364 1
294 364 1
336 364 1
102 365 1
135 365 1
295 365 1
337 365 1
93 366 1
121 366 1
296 366 1
343 366 1
94 367 1
122 367 1
297 367 1
344 367 1
95 368 1
123 368 1
298 368 1
345 368 1
91 369 1
124 369 1
299 369 1
341 369 1
92 370 1
125 370 1
300 370 1
342 370 1
98 371 1
126 371 1
286 371 1
333 371 1
99 372 1
127 372 1
287 372 1
334 372 1
100 373 1
128 373 1
288 373 1
335 373 1
96 374 1
129 374 1
289 374 1
331 374 1
97 375 1
130 375 1
290 375 1
332 375 1
101 376 1
118 376 1
306 376 1
353 376 1
102 377 1
119 377 1
307 377 1
354 377 1
103 378 1
120 378 1
308 378 1
355 378 1
104 379 1
116 379 1
309 379 1
351 379 1
105 380 1
117 380 1
310 380 1
352 380 1
91 381 1
108 381 1
311 381 1
358 381 1
92 382 1
109 382 1
312 382 1
359 382 1
93 383 1
110 383 1
313 383 1
360 383 1
94 384 1
106 384 1
314 384 1
356 384 1
95 385 1
107 385 1
315 385 1
357 385 1
96 386 1
113 386 1
301 386 1
348 386 1
97 387 1
114 387 1
302 387 1
349 387 1
98 388 1
115 388 1
303 388 1
350 388 1
99 389 1
111 389 1
304 389 1
346 389 1
100 390 1
112 390 1
305 390 1
347 390 1
116 391 1
133 391 1
276 391 1
323 391 1
117 392 1
134 392 1
277 392 1
324 392 1
118 393 1
135 393 1
278 393 1
325 393 1
119 394 1
131 394 1
279 394 1
321 394 1
120 395 1
132 395 1
280 395 1
322 395 1
106 396 1
123 396 1
281 396 1
328 396 1
107 397 1
124 397 1
282 397 1
329 397 1
108 398 1
125 398 1
283 398 1
330 398 1
109 399 1
121 399 1
284 399 1
326 399 1
110 400 1
122 400 1
285 400 1
327 400 1
111 401 1
128 401 1
271 401 1
318 401 1
112 402 1
129 402 1
272 402 1
319 402 1
113 403 1
130 403 1
273 403 1
320 403 1
114 404 1
126 404 1
274 404 1
316 404 1
115 405 1
127 405 1
275 405 1
317 405 1
148 406 1
176 406 1
293 406 1
336 406 1
149 407 1
177 407 1
294 407 1
337 407 1
150 408 1
178 408 1
295 408 1
338 408 1
146 409 1
179 409 1
291 409 1
339 409 1
147 410 1
180 410 1
292 410 1
340 410 1
138 411 1
166 411 1
298 411 1
341 411 1
139 412 1
167 412 1
299 412 1
342 412 1
140 413 1
168 413 1
300 413 1
343 413 1
136 414 1
169 414 1
296 414 1
344 414 1
137 415 1
170 415 1
297 415 1
345 415 1
143 416 1
171 416 1
288 416 1
331 416 1
144 417 1
172 417 1
289 417 1
332 417 1
145 418 1
173 418 1
290 418 1
333 418 1
141 419 1
174 419 1
286 419 1
334 419 1
142 420 1
175 420 1
287 420 1
335 420 1
146 421 1
163 421 1
308 421 1
351 421 1
147 422 1
164 422 1
309 422 1
352 422 1
148 423 1
165 423 1
310 423 1
353 423 1
149 424 1
161 424 1
306 424 1
354 424 1
150 425 1
162 425 1
307 425 1
355 425 1
136 426 1
153 426 1
313 426 1
356 426 1
137 427 1
154 427 1
314 427 1
357 427 1
138 428 1
155 428 1
315 428 1
358 428 1
139 429 1
151 429 1
311 429 1
359 429 1
140 430 1
152 430 1
312 430 1
360 430 1
141 431 1
158 431 1
303 431 1
346 431 1
142 432 1
159 432 1
304 432 1
347 432 1
143 433 1
160 433 1
305 433 1
348 433 1
144 434 1
156 434 1
301 434 1
349 434 1
145 435 1
157 435 1
302 435 1
350 435 1
161 436 1
178 436 1
278 436 1
321 436 1
162 437 1
179 437 1
279 437 1
322 437 1
163 438 1
180 438 1
280 438 1
323 438 1
164 439 1
176 439 1
276 439 1
324 439 1
165 440 1
177 440 1
277 440 1
325 440 1
151 441 1
168 441 1
283 441 1
326 441 1
152 442 1
169 442 1
284 442 1
327 442 1
153 443 1
170 443 1
285 443 1
328 443 1
154 444 1
166 444 1
281 444 1
329 444 1
155 445 1
167 445 1
282 445 1
330 445 1
156 446 1
173 446 1
273 446 1
316 446 1
157 447 1
174 447 1
274 447 1
317 447 1
158 448 1
175 448 1
275 448 1
318 448 1
159 449 1
171 449 1
271 449 1
319 449 1
160 450 1
172 450 1
272 450 1
320 450 1
193 451 1
221 451 1
293 451 1
306 451 1
194 452 1
222 452 1
294 452 1
307 452 1
195 453 1
223 453 1
295 453 1
308 453 1
191 454 1
224 454 1
291 454 1
309 454 1
192 455 1
225 455 1
292 455 1
310 455 1
183 456 1
211 456 1
298 456 1
311 456 1
184 457 1
212 457 1
299 457 1
312 457 1
185 458 1
213 458 1
300 458 1
313 458 1
181 459 1
214 459 1
296 459 1
314 459 1
182 460 1
215 460 1
297 460 1
315 460 1
188 461 1
216 461 1
288 461 1
301 461 1
189 462 1
217 462 1
289 462 1
302 462 1
190 463 1
218 463 1
290 463 1
303 463 1
186 464 1
219 464 1
286 464 1
304 464 1
187 465 1
220 465 1
287 465 1
305 465 1
191 466 1
208 466 1
276 466 1
308 466 1
192 467 1
209 467 1
277 467 1
309 467 1
193 468 1
210 468 1
278 468 1
310 468 1
194 469 1
206 469 1
279 469 1
306 469 1
195 470 1
207 470 1
280 470 1
307 470 1
181 471 1
198 471 1
281 471 1
313 471 1
182 472 1
199 472 1
282 472 1
314 472 1
183 473 1
200 473 1
283 473 1
315 473 1
184 474 1
196 474 1
284 474 1
311 474 1
185 475 1
197 475 1
285 475 1
312 475 1
186 476 1
203 476 1
271 476 1
303 476 1
187 477 1
204 477 1
272 477 1
304 477 1
188 478 1
205 478 1
273 478 1
305 478 1
189 479 1
201 479 1
274 479 1
301 479 1
190 480 1
202 480 1
275 480 1
302 480 1
206 481 1
223 481 1
278 481 1
291 481 1
207 482 1
224 482 1
279 482 1
292 482 1
208 483 1
225 483 1
280 483 1
293 483 1
209 484 1
221 484 1
276 484 1
294 484 1
210 485 1
222 485 1
277 485 1
295 485 1
196 486 1
213 486 1
283 486 1
296 486 1
197 487 1
214 487 1
284 487 1
297 487 1
198 488 1
215 488 1
285 488 1
298 488 1
199 489 1
211 489 1
281 489 1
299 489 1
200 490 1
212 490 1
282 490 1
300 490 1
201 491 1
218 491 1
273 491 1
286 491 1
202 492 1
219 492 1
274 492 1
287 492 1
203 493 1
220 493 1
275 493 1
288 493 1
204 494 1
216 494 1
271 494 1
289 494 1
205 495 1
217 495 1
272 495 1
290 495 1
238 496 1
266 496 1
338 496 1
351 496 1
239 497 1
267 497 1
339 497 1
352 497 1
240 498 1
268 498 1
340 498 1
353 498 1
236 499 1
269 499 1
336 499 1
354 499 1
237 500 1
270 500 1
337 500 1
355 500 1
228 501 1
256 501 1
343 501 1
356 501 1
229 502 1
257 502 1
344 502 1
357 502 1
230 503 1
258 503 1
345 503 1
358 503 1
226 504 1
259 504 1
341 504 1
359 504 1
227 505 1
260 505 1
342 505 1
360 505 1
233 506 1
261 506 1
333 506 1
346 506 1
234 507 1
262 507 1
334 507 1
347 507 1
235 508 1
263 508 1
335 508 1
348 508 1
231 509 1
264 509 1
331 509 1
349 509 1
232 510 1
265 510 1
332 510 1
350 510 1
236 511 1
253 511 1
321 511 1
353 511 1
237 512 1
254 512 1
322 512 1
354 512 1
238 513 1
255 513 1
323 513 1
355 513 1
239 514 1
251 514 1
324 514 1
351 514 1
240 515 1
252 515 1
325 515 1
352 515 1
226 516 1
243 516 1
326 516 1
358 516 1
227 517 1
244 517 1
327 517 1
359 517 1
228 518 1
245 518 1
328 518 1
360 518 1
229 519 1
241 519 1
329 519 1
356 519 1
230 520 1
242 520 1
330 520 1
357 520 1
231 521 1
248 521 1
316 521 1
348 521 1
232 522 1
249 522 1
317 522 1
349 522 1
233 523 1
250 523 1
318 523 1
350 523 1
234 524 1
246 524 1
319 524 1
346 524 1
235 525 1
247 525 1
320 525 1
347 525 1
251 526 1
268 526 1
323 526 1
336 526 1
252 527 1
269 527 1
324 527 1
337 527 1
253 528 1
270 528 1
325 528 1
338 528 1
254 529 1
266 529 1
321 529 1
339 529 1
255 530 1
267 530 1
322 530 1
340 530 1
241 531 1
258 531 1
328 531 1
341 531 1
242 532 1
259 532 1
329 532 1
342 532 1
243 533 1
260 533 1
330 533 1
343 533 1
244 534 1
256 534 1
326 534 1
344 534 1
245 535 1
257 535 1
327 535 1
345 535 1
246 536 1
263 536 1
318 536 1
331 536 1
247 537 1
264 537 1
319 537 1
332 537 1
248 538 1
265 538 1
320 538 1
333 538 1
249 539 1
261 539 1
316 539 1
334 539 1
250 540 1
262 540 1
317 540 1
335 540 1
