%%MatrixMarket matrix coordinate integer general
% Binary matrix; one-based indices; arithmetic over GF(2)
441 735 4410
1 1 1
9 1 1
22 1 1
26 1 1
43 1 1
46 1 1
2 2 1
10 2 1
23 2 1
27 2 1
44 2 1
47 2 1
3 3 1
11 3 1
24 3 1
28 3 1
45 3 1
48 3 1
4 4 1
12 4 1
25 4 1
29 4 1
46 4 1
49 4 1
5 5 1
13 5 1
26 5 1
30 5 1
47 5 1
50 5 1
6 6 1
14 6 1
27 6 1
31 6 1
48 6 1
51 6 1
7 7 1
15 7 1
28 7 1
32 7 1
49 7 1
52 7 1
8 8 1
16 8 1
29 8 1
33 8 1
50 8 1
53 8 1
9 9 1
17 9 1
30 9 1
34 9 1
51 9 1
54 9 1
10 10 1
18 10 1
31 10 1
35 10 1
52 10 1
55 10 1
11 11 1
19 11 1
32 11 1
36 11 1
53 11 1
56 11 1
12 12 1
20 12 1
33 12 1
37 12 1
54 12 1
57 12 1
13 13 1
21 13 1
34 13 1
38 13 1
55 13 1
58 13 1
1 14 1
14 14 1
35 14 1
39 14 1
56 14 1
59 14 1
2 15 1
15 15 1
36 15 1
40 15 1
57 15 1
60 15 1
3 16 1
16 16 1
37 16 1
41 16 1
58 16 1
61 16 1
4 17 1
17 17 1
38 17 1
42 17 1
59 17 1
62 17 1
5 18 1
18 18 1
22 18 1
39 18 1
60 18 1
63 18 1
6 19 1
19 19 1
23 19 1
40 19 1
43 19 1
61 19 1
7 20 1
20 20 1
24 20 1
41 20 1
44 20 1
62 20 1
8 21 1
21 21 1
25 21 1
42 21 1
45 21 1
63 21 1
1 22 1
11 22 1
64 22 1
68 22 1
85 22 1
88 22 1
2 23 1
12 23 1
65 23 1
69 23 1
86 23 1
89 23 1
3 24 1
13 24 1
66 24 1
70 24 1
87 24 1
90 24 1
4 25 1
14 25 1
67 25 1
71 25 1
88 25 1
91 25 1
5 26 1
15 26 1
68 26 1
72 26 1
89 26 1
92 26 1
6 27 1
16 27 1
69 27 1
73 27 1
90 27 1
93 27 1
7 28 1
17 28 1
70 28 1
74 28 1
91 28 1
94 28 1
8 29 1
18 29 1
71 29 1
75 29 1
92 29 1
95 29 1
9 30 1
19 30 1
72 30 1
76 30 1
93 30 1
96 30 1
10 31 1
20 31 1
73 31 1
77 31 1
94 31 1
97 31 1
11 32 1
21 32 1
74 32 1
78 32 1
95 32 1
98 32 1
1 33 1
12 33 1
75 33 1
79 33 1
96 33 1
99 33 1
2 34 1
13 34 1
76 34 1
80 34 1
97 34 1
100 34 1
3 35 1
14 35 1
77 35 1
81 35 1
98 35 1
101 35 1
4 36 1
15 36 1
78 36 1
82 36 1
99 36 1
102 36 1
5 37 1
16 37 1
79 37 1
83 37 1
100 37 1
103 37 1
6 38 1
17 38 1
80 38 1
84 38 1
101 38 1
104 38 1
7 39 1
18 39 1
64 39 1
81 39 1
102 39 1
105 39 1
8 40 1
19 40 1
65 40 1
82 40 1
85 40 1
103 40 1
9 41 1
20 41 1
66 41 1
83 41 1
86 41 1
104 41 1
10 42 1
21 42 1
67 42 1
84 42 1
87 42 1
105 42 1
22 43 1
32 43 1
64 43 1
72 43 1
106 43 1
109 43 1
23 44 1
33 44 1
65 44 1
73 44 1
107 44 1
110 44 1
24 45 1
34 45 1
66 45 1
74 45 1
108 45 1
111 45 1
25 46 1
35 46 1
67 46 1
75 46 1
109 46 1
112 46 1
26 47 1
36 47 1
68 47 1
76 47 1
110 47 1
113 47 1
27 48 1
37 48 1
69 48 1
77 48 1
111 48 1
114 48 1
28 49 1
38 49 1
70 49 1
78 49 1
112 49 1
115 49 1
29 50 1
39 50 1
71 50 1
79 50 1
113 50 1
116 50 1
30 51 1
40 51 1
72 51 1
80 51 1
114 51 1
117 51 1
31 52 1
41 52 1
73 52 1
81 52 1
115 52 1
118 52 1
32 53 1
42 53 1
74 53 1
82 53 1
116 53 1
119 53 1
22 54 1
33 54 1
75 54 1
83 54 1
117 54 1
120 54 1
23 55 1
34 55 1
76 55 1
84 55 1
118 55 1
121 55 1
24 56 1
35 56 1
64 56 1
77 56 1
119 56 1
122 56 1
25 57 1
36 57 1
65 57 1
78 57 1
120 57 1
123 57 1
26 58 1
37 58 1
66 58 1
79 58 1
121 58 1
124 58 1
27 59 1
38 59 1
67 59 1
80 59 1
122 59 1
125 59 1
28 60 1
39 60 1
68 60 1
81 60 1
123 60 1
126 60 1
29 61 1
40 61 1
69 61 1
82 61 1
106 61 1
124 61 1
30 62 1
41 62 1
70 62 1
83 62 1
107 62 1
125 62 1
31 63 1
42 63 1
71 63 1
84 63 1
108 63 1
126 63 1
43 64 1
53 64 1
85 64 1
93 64 1
106 64 1
110 64 1
44 65 1
54 65 1
86 65 1
94 65 1
107 65 1
111 65 1
45 66 1
55 66 1
87 66 1
95 66 1
108 66 1
112 66 1
46 67 1
56 67 1
88 67 1
96 67 1
109 67 1
113 67 1
47 68 1
57 68 1
89 68 1
97 68 1
110 68 1
114 68 1
48 69 1
58 69 1
90 69 1
98 69 1
111 69 1
115 69 1
49 70 1
59 70 1
91 70 1
99 70 1
112 70 1
116 70 1
50 71 1
60 71 1
92 71 1
100 71 1
113 71 1
117 71 1
51 72 1
61 72 1
93 72 1
101 72 1
114 72 1
118 72 1
52 73 1
62 73 1
94 73 1
102 73 1
115 73 1
119 73 1
53 74 1
63 74 1
95 74 1
103 74 1
116 74 1
120 74 1
43 75 1
54 75 1
96 75 1
104 75 1
117 75 1
121 75 1
44 76 1
55 76 1
97 76 1
105 76 1
118 76 1
122 76 1
45 77 1
56 77 1
85 77 1
98 77 1
119 77 1
123 77 1
46 78 1
57 78 1
86 78 1
99 78 1
120 78 1
124 78 1
47 79 1
58 79 1
87 79 1
100 79 1
121 79 1
125 79 1
48 80 1
59 80 1
88 80 1
101 80 1
122 80 1
126 80 1
49 81 1
60 81 1
89 81 1
102 81 1
106 81 1
123 81 1
50 82 1
61 82 1
90 82 1
103 82 1
107 82 1
124 82 1
51 83 1
62 83 1
91 83 1
104 83 1
108 83 1
125 83 1
52 84 1
63 84 1
92 84 1
105 84 1
109 84 1
126 84 1
1 85 1
16 85 1
127 85 1
131 85 1
148 85 1
151 85 1
2 86 1
17 86 1
128 86 1
132 86 1
149 86 1
152 86 1
3 87 1
18 87 1
129 87 1
133 87 1
150 87 1
153 87 1
4 88 1
19 88 1
130 88 1
134 88 1
151 88 1
154 88 1
5 89 1
20 89 1
131 89 1
135 89 1
152 89 1
155 89 1
6 90 1
21 90 1
132 90 1
136 90 1
153 90 1
156 90 1
1 91 1
7 91 1
133 91 1
137 91 1
154 91 1
157 91 1
2 92 1
8 92 1
134 92 1
138 92 1
155 92 1
158 92 1
3 93 1
9 93 1
135 93 1
139 93 1
156 93 1
159 93 1
4 94 1
10 94 1
136 94 1
140 94 1
157 94 1
160 94 1
5 95 1
11 95 1
137 95 1
141 95 1
158 95 1
161 95 1
6 96 1
12 96 1
138 96 1
142 96 1
159 96 1
162 96 1
7 97 1
13 97 1
139 97 1
143 97 1
160 97 1
163 97 1
8 98 1
14 98 1
140 98 1
144 98 1
161 98 1
164 98 1
9 99 1
15 99 1
141 99 1
145 99 1
162 99 1
165 99 1
10 100 1
16 100 1
142 100 1
146 100 1
163 100 1
166 100 1
11 101 1
17 101 1
143 101 1
147 101 1
164 101 1
167 101 1
12 102 1
18 102 1
127 102 1
144 102 1
165 102 1
168 102 1
13 103 1
19 103 1
128 103 1
145 103 1
148 103 1
166 103 1
14 104 1
20 104 1
129 104 1
146 104 1
149 104 1
167 104 1
15 105 1
21 105 1
130 105 1
147 105 1
150 105 1
168 105 1
22 106 1
37 106 1
127 106 1
135 106 1
169 106 1
172 106 1
23 107 1
38 107 1
128 107 1
136 107 1
170 107 1
173 107 1
24 108 1
39 108 1
129 108 1
137 108 1
171 108 1
174 108 1
25 109 1
40 109 1
130 109 1
138 109 1
172 109 1
175 109 1
26 110 1
41 110 1
131 110 1
139 110 1
173 110 1
176 110 1
27 111 1
42 111 1
132 111 1
140 111 1
174 111 1
177 111 1
22 112 1
28 112 1
133 112 1
141 112 1
175 112 1
178 112 1
23 113 1
29 113 1
134 113 1
142 113 1
176 113 1
179 113 1
24 114 1
30 114 1
135 114 1
143 114 1
177 114 1
180 114 1
25 115 1
31 115 1
136 115 1
144 115 1
178 115 1
181 115 1
26 116 1
32 116 1
137 116 1
145 116 1
179 116 1
182 116 1
27 117 1
33 117 1
138 117 1
146 117 1
180 117 1
183 117 1
28 118 1
34 118 1
139 118 1
147 118 1
181 118 1
184 118 1
29 119 1
35 119 1
127 119 1
140 119 1
182 119 1
185 119 1
30 120 1
36 120 1
128 120 1
141 120 1
183 120 1
186 120 1
31 121 1
37 121 1
129 121 1
142 121 1
184 121 1
187 121 1
32 122 1
38 122 1
130 122 1
143 122 1
185 122 1
188 122 1
33 123 1
39 123 1
131 123 1
144 123 1
186 123 1
189 123 1
34 124 1
40 124 1
132 124 1
145 124 1
169 124 1
187 124 1
35 125 1
41 125 1
133 125 1
146 125 1
170 125 1
188 125 1
36 126 1
42 126 1
134 126 1
147 126 1
171 126 1
189 126 1
43 127 1
58 127 1
148 127 1
156 127 1
169 127 1
173 127 1
44 128 1
59 128 1
149 128 1
157 128 1
170 128 1
174 128 1
45 129 1
60 129 1
150 129 1
158 129 1
171 129 1
175 129 1
46 130 1
61 130 1
151 130 1
159 130 1
172 130 1
176 130 1
47 131 1
62 131 1
152 131 1
160 131 1
173 131 1
177 131 1
48 132 1
63 132 1
153 132 1
161 132 1
174 132 1
178 132 1
43 133 1
49 133 1
154 133 1
162 133 1
175 133 1
179 133 1
44 134 1
50 134 1
155 134 1
163 134 1
176 134 1
180 134 1
45 135 1
51 135 1
156 135 1
164 135 1
177 135 1
181 135 1
46 136 1
52 136 1
157 136 1
165 136 1
178 136 1
182 136 1
47 137 1
53 137 1
158 137 1
166 137 1
179 137 1
183 137 1
48 138 1
54 138 1
159 138 1
167 138 1
180 138 1
184 138 1
49 139 1
55 139 1
160 139 1
168 139 1
181 139 1
185 139 1
50 140 1
56 140 1
148 140 1
161 140 1
182 140 1
186 140 1
51 141 1
57 141 1
149 141 1
162 141 1
183 141 1
187 141 1
52 142 1
58 142 1
150 142 1
163 142 1
184 142 1
188 142 1
53 143 1
59 143 1
151 143 1
164 143 1
185 143 1
189 143 1
54 144 1
60 144 1
152 144 1
165 144 1
169 144 1
186 144 1
55 145 1
61 145 1
153 145 1
166 145 1
170 145 1
187 145 1
56 146 1
62 146 1
154 146 1
167 146 1
171 146 1
188 146 1
57 147 1
63 147 1
155 147 1
168 147 1
172 147 1
189 147 1
64 148 1
79 148 1
127 148 1
137 148 1
190 148 1
193 148 1
65 149 1
80 149 1
128 149 1
138 149 1
191 149 1
194 149 1
66 150 1
81 150 1
129 150 1
139 150 1
192 150 1
195 150 1
67 151 1
82 151 1
130 151 1
140 151 1
193 151 1
196 151 1
68 152 1
83 152 1
131 152 1
141 152 1
194 152 1
197 152 1
69 153 1
84 153 1
132 153 1
142 153 1
195 153 1
198 153 1
64 154 1
70 154 1
133 154 1
143 154 1
196 154 1
199 154 1
65 155 1
71 155 1
134 155 1
144 155 1
197 155 1
200 155 1
66 156 1
72 156 1
135 156 1
145 156 1
198 156 1
201 156 1
67 157 1
73 157 1
136 157 1
146 157 1
199 157 1
202 157 1
68 158 1
74 158 1
137 158 1
147 158 1
200 158 1
203 158 1
69 159 1
75 159 1
127 159 1
138 159 1
201 159 1
204 159 1
70 160 1
76 160 1
128 160 1
139 160 1
202 160 1
205 160 1
71 161 1
77 161 1
129 161 1
140 161 1
203 161 1
206 161 1
72 162 1
78 162 1
130 162 1
141 162 1
204 162 1
207 162 1
73 163 1
79 163 1
131 163 1
142 163 1
205 163 1
208 163 1
74 164 1
80 164 1
132 164 1
143 164 1
206 164 1
209 164 1
75 165 1
81 165 1
133 165 1
144 165 1
207 165 1
210 165 1
76 166 1
82 166 1
134 166 1
145 166 1
190 166 1
208 166 1
77 167 1
83 167 1
135 167 1
146 167 1
191 167 1
209 167 1
78 168 1
84 168 1
136 168 1
147 168 1
192 168 1
210 168 1
85 169 1
100 169 1
148 169 1
158 169 1
190 169 1
194 169 1
86 170 1
101 170 1
149 170 1
159 170 1
191 170 1
195 170 1
87 171 1
102 171 1
150 171 1
160 171 1
192 171 1
196 171 1
88 172 1
103 172 1
151 172 1
161 172 1
193 172 1
197 172 1
89 173 1
104 173 1
152 173 1
162 173 1
194 173 1
198 173 1
90 174 1
105 174 1
153 174 1
163 174 1
195 174 1
199 174 1
85 175 1
91 175 1
154 175 1
164 175 1
196 175 1
200 175 1
86 176 1
92 176 1
155 176 1
165 176 1
197 176 1
201 176 1
87 177 1
93 177 1
156 177 1
166 177 1
198 177 1
202 177 1
88 178 1
94 178 1
157 178 1
167 178 1
199 178 1
203 178 1
89 179 1
95 179 1
158 179 1
168 179 1
200 179 1
204 179 1
90 180 1
96 180 1
148 180 1
159 180 1
201 180 1
205 180 1
91 181 1
97 181 1
149 181 1
160 181 1
202 181 1
206 181 1
92 182 1
98 182 1
150 182 1
161 182 1
203 182 1
207 182 1
93 183 1
99 183 1
151 183 1
162 183 1
204 183 1
208 183 1
94 184 1
100 184 1
152 184 1
163 184 1
205 184 1
209 184 1
95 185 1
101 185 1
153 185 1
164 185 1
206 185 1
210 185 1
96 186 1
102 186 1
154 186 1
165 186 1
190 186 1
207 186 1
97 187 1
103 187 1
155 187 1
166 187 1
191 187 1
208 187 1
98 188 1
104 188 1
156 188 1
167 188 1
192 188 1
209 188 1
99 189 1
105 189 1
157 189 1
168 189 1
193 189 1
210 189 1
106 190 1
121 190 1
169 190 1
179 190 1
190 190 1
198 190 1
107 191 1
122 191 1
170 191 1
180 191 1
191 191 1
199 191 1
108 192 1
123 192 1
171 192 1
181 192 1
192 192 1
200 192 1
109 193 1
124 193 1
172 193 1
182 193 1
193 193 1
201 193 1
110 194 1
125 194 1
173 194 1
183 194 1
194 194 1
202 194 1
111 195 1
126 195 1
174 195 1
184 195 1
195 195 1
203 195 1
106 196 1
112 196 1
175 196 1
185 196 1
196 196 1
204 196 1
107 197 1
113 197 1
176 197 1
186 197 1
197 197 1
205 197 1
108 198 1
114 198 1
177 198 1
187 198 1
198 198 1
206 198 1
109 199 1
115 199 1
178 199 1
188 199 1
199 199 1
207 199 1
110 200 1
116 200 1
179 200 1
189 200 1
200 200 1
208 200 1
111 201 1
117 201 1
169 201 1
180 201 1
201 201 1
209 201 1
112 202 1
118 202 1
170 202 1
181 202 1
202 202 1
210 202 1
113 203 1
119 203 1
171 203 1
182 203 1
190 203 1
203 203 1
114 204 1
120 204 1
172 204 1
183 204 1
191 204 1
204 204 1
115 205 1
121 205 1
173 205 1
184 205 1
192 205 1
205 205 1
116 206 1
122 206 1
174 206 1
185 206 1
193 206 1
206 206 1
117 207 1
123 207 1
175 207 1
186 207 1
194 207 1
207 207 1
118 208 1
124 208 1
176 208 1
187 208 1
195 208 1
208 208 1
119 209 1
125 209 1
177 209 1
188 209 1
196 209 1
209 209 1
120 210 1
126 210 1
178 210 1
189 210 1
197 210 1
210 210 1
1 211 1
17 211 1
211 211 1
215 211 1
232 211 1
235 211 1
2 212 1
18 212 1
212 212 1
216 212 1
233 212 1
236 212 1
3 213 1
19 213 1
213 213 1
217 213 1
234 213 1
237 213 1
4 214 1
20 214 1
214 214 1
218 214 1
235 214 1
238 214 1
5 215 1
21 215 1
215 215 1
219 215 1
236 215 1
239 215 1
1 216 1
6 216 1
216 216 1
220 216 1
237 216 1
240 216 1
2 217 1
7 217 1
217 217 1
221 217 1
238 217 1
241 217 1
3 218 1
8 218 1
218 218 1
222 218 1
239 218 1
242 218 1
4 219 1
9 219 1
219 219 1
223 219 1
240 219 1
243 219 1
5 220 1
10 220 1
220 220 1
224 220 1
241 220 1
244 220 1
6 221 1
11 221 1
221 221 1
225 221 1
242 221 1
245 221 1
7 222 1
12 222 1
222 222 1
226 222 1
243 222 1
246 222 1
8 223 1
13 223 1
223 223 1
227 223 1
244 223 1
247 223 1
9 224 1
14 224 1
224 224 1
228 224 1
245 224 1
248 224 1
10 225 1
15 225 1
225 225 1
229 225 1
246 225 1
249 225 1
11 226 1
16 226 1
226 226 1
230 226 1
247 226 1
250 226 1
12 227 1
17 227 1
227 227 1
231 227 1
248 227 1
251 227 1
13 228 1
18 228 1
211 228 1
228 228 1
249 228 1
252 228 1
14 229 1
19 229 1
212 229 1
229 229 1
232 229 1
250 229 1
15 230 1
20 230 1
213 230 1
230 230 1
233 230 1
251 230 1
16 231 1
21 231 1
214 231 1
231 231 1
234 231 1
252 231 1
22 232 1
38 232 1
211 232 1
219 232 1
253 232 1
256 232 1
23 233 1
39 233 1
212 233 1
220 233 1
254 233 1
257 233 1
24 234 1
40 234 1
213 234 1
221 234 1
255 234 1
258 234 1
25 235 1
41 235 1
214 235 1
222 235 1
256 235 1
259 235 1
26 236 1
42 236 1
215 236 1
223 236 1
257 236 1
260 236 1
22 237 1
27 237 1
216 237 1
224 237 1
258 237 1
261 237 1
23 238 1
28 238 1
217 238 1
225 238 1
259 238 1
262 238 1
24 239 1
29 239 1
218 239 1
226 239 1
260 239 1
263 239 1
25 240 1
30 240 1
219 240 1
227 240 1
261 240 1
264 240 1
26 241 1
31 241 1
220 241 1
228 241 1
262 241 1
265 241 1
27 242 1
32 242 1
221 242 1
229 242 1
263 242 1
266 242 1
28 243 1
33 243 1
222 243 1
230 243 1
264 243 1
267 243 1
29 244 1
34 244 1
223 244 1
231 244 1
265 244 1
268 244 1
30 245 1
35 245 1
211 245 1
224 245 1
266 245 1
269 245 1
31 246 1
36 246 1
212 246 1
225 246 1
267 246 1
270 246 1
32 247 1
37 247 1
213 247 1
226 247 1
268 247 1
271 247 1
33 248 1
38 248 1
214 248 1
227 248 1
269 248 1
272 248 1
34 249 1
39 249 1
215 249 1
228 249 1
270 249 1
273 249 1
35 250 1
40 250 1
216 250 1
229 250 1
253 250 1
271 250 1
36 251 1
41 251 1
217 251 1
230 251 1
254 251 1
272 251 1
37 252 1
42 252 1
218 252 1
231 252 1
255 252 1
273 252 1
43 253 1
59 253 1
232 253 1
240 253 1
253 253 1
257 253 1
44 254 1
60 254 1
233 254 1
241 254 1
254 254 1
258 254 1
45 255 1
61 255 1
234 255 1
242 255 1
255 255 1
259 255 1
46 256 1
62 256 1
235 256 1
243 256 1
256 256 1
260 256 1
47 257 1
63 257 1
236 257 1
244 257 1
257 257 1
261 257 1
43 258 1
48 258 1
237 258 1
245 258 1
258 258 1
262 258 1
44 259 1
49 259 1
238 259 1
246 259 1
259 259 1
263 259 1
45 260 1
50 260 1
239 260 1
247 260 1
260 260 1
264 260 1
46 261 1
51 261 1
240 261 1
248 261 1
261 261 1
265 261 1
47 262 1
52 262 1
241 262 1
249 262 1
262 262 1
266 262 1
48 263 1
53 263 1
242 263 1
250 263 1
263 263 1
267 263 1
49 264 1
54 264 1
243 264 1
251 264 1
264 264 1
268 264 1
50 265 1
55 265 1
244 265 1
252 265 1
265 265 1
269 265 1
51 266 1
56 266 1
232 266 1
245 266 1
266 266 1
270 266 1
52 267 1
57 267 1
233 267 1
246 267 1
267 267 1
271 267 1
53 268 1
58 268 1
234 268 1
247 268 1
268 268 1
272 268 1
54 269 1
59 269 1
235 269 1
248 269 1
269 269 1
273 269 1
55 270 1
60 270 1
236 270 1
249 270 1
253 270 1
270 270 1
56 271 1
61 271 1
237 271 1
250 271 1
254 271 1
271 271 1
57 272 1
62 272 1
238 272 1
251 272 1
255 272 1
272 272 1
58 273 1
63 273 1
239 273 1
252 273 1
256 273 1
273 273 1
64 274 1
80 274 1
211 274 1
221 274 1
274 274 1
277 274 1
65 275 1
81 275 1
212 275 1
222 275 1
275 275 1
278 275 1
66 276 1
82 276 1
213 276 1
223 276 1
276 276 1
279 276 1
67 277 1
83 277 1
214 277 1
224 277 1
277 277 1
280 277 1
68 278 1
84 278 1
215 278 1
225 278 1
278 278 1
281 278 1
64 279 1
69 279 1
216 279 1
226 279 1
279 279 1
282 279 1
65 280 1
70 280 1
217 280 1
227 280 1
280 280 1
283 280 1
66 281 1
71 281 1
218 281 1
228 281 1
281 281 1
284 281 1
67 282 1
72 282 1
219 282 1
229 282 1
282 282 1
285 282 1
68 283 1
73 283 1
220 283 1
230 283 1
283 283 1
286 283 1
69 284 1
74 284 1
221 284 1
231 284 1
284 284 1
287 284 1
70 285 1
75 285 1
211 285 1
222 285 1
285 285 1
288 285 1
71 286 1
76 286 1
212 286 1
223 286 1
286 286 1
289 286 1
72 287 1
77 287 1
213 287 1
224 287 1
287 287 1
290 287 1
73 288 1
78 288 1
214 288 1
225 288 1
288 288 1
291 288 1
74 289 1
79 289 1
215 289 1
226 289 1
289 289 1
292 289 1
75 290 1
80 290 1
216 290 1
227 290 1
290 290 1
293 290 1
76 291 1
81 291 1
217 291 1
228 291 1
291 291 1
294 291 1
77 292 1
82 292 1
218 292 1
229 292 1
274 292 1
292 292 1
78 293 1
83 293 1
219 293 1
230 293 1
275 293 1
293 293 1
79 294 1
84 294 1
220 294 1
231 294 1
276 294 1
294 294 1
85 295 1
101 295 1
232 295 1
242 295 1
274 295 1
278 295 1
86 296 1
102 296 1
233 296 1
243 296 1
275 296 1
279 296 1
87 297 1
103 297 1
234 297 1
244 297 1
276 297 1
280 297 1
88 298 1
104 298 1
235 298 1
245 298 1
277 298 1
281 298 1
89 299 1
105 299 1
236 299 1
246 299 1
278 299 1
282 299 1
85 300 1
90 300 1
237 300 1
247 300 1
279 300 1
283 300 1
86 301 1
91 301 1
238 301 1
248 301 1
280 301 1
284 301 1
87 302 1
92 302 1
239 302 1
249 302 1
281 302 1
285 302 1
88 303 1
93 303 1
240 303 1
250 303 1
282 303 1
286 303 1
89 304 1
94 304 1
241 304 1
251 304 1
283 304 1
287 304 1
90 305 1
95 305 1
242 305 1
252 305 1
284 305 1
288 305 1
91 306 1
96 306 1
232 306 1
243 306 1
285 306 1
289 306 1
92 307 1
97 307 1
233 307 1
244 307 1
286 307 1
290 307 1
93 308 1
98 308 1
234 308 1
245 308 1
287 308 1
291 308 1
94 309 1
99 309 1
235 309 1
246 309 1
288 309 1
292 309 1
95 310 1
100 310 1
236 310 1
247 310 1
289 310 1
293 310 1
96 311 1
101 311 1
237 311 1
248 311 1
290 311 1
294 311 1
97 312 1
102 312 1
238 312 1
249 312 1
274 312 1
291 312 1
98 313 1
103 313 1
239 313 1
250 313 1
275 313 1
292 313 1
99 314 1
104 314 1
240 314 1
251 314 1
276 314 1
293 314 1
100 315 1
105 315 1
241 315 1
252 315 1
277 315 1
294 315 1
106 316 1
122 316 1
253 316 1
263 316 1
274 316 1
282 316 1
107 317 1
123 317 1
254 317 1
264 317 1
275 317 1
283 317 1
108 318 1
124 318 1
255 318 1
265 318 1
276 318 1
284 318 1
109 319 1
125 319 1
256 319 1
266 319 1
277 319 1
285 319 1
110 320 1
126 320 1
257 320 1
267 320 1
278 320 1
286 320 1
106 321 1
111 321 1
258 321 1
268 321 1
279 321 1
287 321 1
107 322 1
112 322 1
259 322 1
269 322 1
280 322 1
288 322 1
108 323 1
113 323 1
260 323 1
270 323 1
281 323 1
289 323 1
109 324 1
114 324 1
261 324 1
271 324 1
282 324 1
290 324 1
110 325 1
115 325 1
262 325 1
272 325 1
283 325 1
291 325 1
111 326 1
116 326 1
263 326 1
273 326 1
284 326 1
292 326 1
112 327 1
117 327 1
253 327 1
264 327 1
285 327 1
293 327 1
113 328 1
118 328 1
254 328 1
265 328 1
286 328 1
294 328 1
114 329 1
119 329 1
255 329 1
266 329 1
274 329 1
287 329 1
115 330 1
120 330 1
256 330 1
267 330 1
275 330 1
288 330 1
116 331 1
121 331 1
257 331 1
268 331 1
276 331 1
289 331 1
117 332 1
122 332 1
258 332 1
269 332 1
277 332 1
290 332 1
118 333 1
123 333 1
259 333 1
270 333 1
278 333 1
291 333 1
119 334 1
124 334 1
260 334 1
271 334 1
279 334 1
292 334 1
120 335 1
125 335 1
261 335 1
272 335 1
280 335 1
293 335 1
121 336 1
126 336 1
262 336 1
273 336 1
281 336 1
294 336 1
127 337 1
143 337 1
211 337 1
226 337 1
295 337 1
298 337 1
128 338 1
144 338 1
212 338 1
227 338 1
296 338 1
299 338 1
129 339 1
145 339 1
213 339 1
228 339 1
297 339 1
300 339 1
130 340 1
146 340 1
214 340 1
229 340 1
298 340 1
301 340 1
131 341 1
147 341 1
215 341 1
230 341 1
299 341 1
302 341 1
127 342 1
132 342 1
216 342 1
231 342 1
300 342 1
303 342 1
128 343 1
133 343 1
211 343 1
217 343 1
301 343 1
304 343 1
129 344 1
134 344 1
212 344 1
218 344 1
302 344 1
305 344 1
130 345 1
135 345 1
213 345 1
219 345 1
303 345 1
306 345 1
131 346 1
136 346 1
214 346 1
220 346 1
304 346 1
307 346 1
132 347 1
137 347 1
215 347 1
221 347 1
305 347 1
308 347 1
133 348 1
138 348 1
216 348 1
222 348 1
306 348 1
309 348 1
134 349 1
139 349 1
217 349 1
223 349 1
307 349 1
310 349 1
135 350 1
140 350 1
218 350 1
224 350 1
308 350 1
311 350 1
136 351 1
141 351 1
219 351 1
225 351 1
309 351 1
312 351 1
137 352 1
142 352 1
220 352 1
226 352 1
310 352 1
313 352 1
138 353 1
143 353 1
221 353 1
227 353 1
311 353 1
314 353 1
139 354 1
144 354 1
222 354 1
228 354 1
312 354 1
315 354 1
140 355 1
145 355 1
223 355 1
229 355 1
295 355 1
313 355 1
141 356 1
146 356 1
224 356 1
230 356 1
296 356 1
314 356 1
142 357 1
147 357 1
225 357 1
231 357 1
297 357 1
315 357 1
148 358 1
164 358 1
232 358 1
247 358 1
295 358 1
299 358 1
149 359 1
165 359 1
233 359 1
248 359 1
296 359 1
300 359 1
150 360 1
166 360 1
234 360 1
249 360 1
297 360 1
301 360 1
151 361 1
167 361 1
235 361 1
250 361 1
298 361 1
302 361 1
152 362 1
168 362 1
236 362 1
251 362 1
299 362 1
303 362 1
148 363 1
153 363 1
237 363 1
252 363 1
300 363 1
304 363 1
149 364 1
154 364 1
232 364 1
238 364 1
301 364 1
305 364 1
150 365 1
155 365 1
233 365 1
239 365 1
302 365 1
306 365 1
151 366 1
156 366 1
234 366 1
240 366 1
303 366 1
307 366 1
152 367 1
157 367 1
235 367 1
241 367 1
304 367 1
308 367 1
153 368 1
158 368 1
236 368 1
242 368 1
305 368 1
309 368 1
154 369 1
159 369 1
237 369 1
243 369 1
306 369 1
310 369 1
155 370 1
160 370 1
238 370 1
244 370 1
307 370 1
311 370 1
156 371 1
161 371 1
239 371 1
245 371 1
308 371 1
312 371 1
157 372 1
162 372 1
240 372 1
246 372 1
309 372 1
313 372 1
158 373 1
163 373 1
241 373 1
247 373 1
310 373 1
314 373 1
159 374 1
164 374 1
242 374 1
248 374 1
311 374 1
315 374 1
160 375 1
165 375 1
243 375 1
249 375 1
295 375 1
312 375 1
161 376 1
166 376 1
244 376 1
250 376 1
296 376 1
313 376 1
162 377 1
167 377 1
245 377 1
251 377 1
297 377 1
314 377 1
163 378 1
168 378 1
246 378 1
252 378 1
298 378 1
315 378 1
169 379 1
185 379 1
253 379 1
268 379 1
295 379 1
303 379 1
170 380 1
186 380 1
254 380 1
269 380 1
296 380 1
304 380 1
171 381 1
187 381 1
255 381 1
270 381 1
297 381 1
305 381 1
172 382 1
188 382 1
256 382 1
271 382 1
298 382 1
306 382 1
173 383 1
189 383 1
257 383 1
272 383 1
299 383 1
307 383 1
169 384 1
174 384 1
258 384 1
273 384 1
300 384 1
308 384 1
170 385 1
175 385 1
253 385 1
259 385 1
301 385 1
309 385 1
171 386 1
176 386 1
254 386 1
260 386 1
302 386 1
310 386 1
172 387 1
177 387 1
255 387 1
261 387 1
303 387 1
311 387 1
173 388 1
178 388 1
256 388 1
262 388 1
304 388 1
312 388 1
174 389 1
179 389 1
257 389 1
263 389 1
305 389 1
313 389 1
175 390 1
180 390 1
258 390 1
264 390 1
306 390 1
314 390 1
176 391 1
181 391 1
259 391 1
265 391 1
307 391 1
315 391 1
177 392 1
182 392 1
260 392 1
266 392 1
295 392 1
308 392 1
178 393 1
183 393 1
261 393 1
267 393 1
296 393 1
309 393 1
179 394 1
184 394 1
262 394 1
268 394 1
297 394 1
310 394 1
180 395 1
185 395 1
263 395 1
269 395 1
298 395 1
311 395 1
181 396 1
186 396 1
264 396 1
270 396 1
299 396 1
312 396 1
182 397 1
187 397 1
265 397 1
271 397 1
300 397 1
313 397 1
183 398 1
188 398 1
266 398 1
272 398 1
301 398 1
314 398 1
184 399 1
189 399 1
267 399 1
273 399 1
302 399 1
315 399 1
190 400 1
206 400 1
274 400 1
289 400 1
295 400 1
305 400 1
191 401 1
207 401 1
275 401 1
290 401 1
296 401 1
306 401 1
192 402 1
208 402 1
276 402 1
291 402 1
297 402 1
307 402 1
193 403 1
209 403 1
277 403 1
292 403 1
298 403 1
308 403 1
194 404 1
210 404 1
278 404 1
293 404 1
299 404 1
309 404 1
190 405 1
195 405 1
279 405 1
294 405 1
300 405 1
310 405 1
191 406 1
196 406 1
274 406 1
280 406 1
301 406 1
311 406 1
192 407 1
197 407 1
275 407 1
281 407 1
302 407 1
312 407 1
193 408 1
198 408 1
276 408 1
282 408 1
303 408 1
313 408 1
194 409 1
199 409 1
277 409 1
283 409 1
304 409 1
314 409 1
195 410 1
200 410 1
278 410 1
284 410 1
305 410 1
315 410 1
196 411 1
201 411 1
279 411 1
285 411 1
295 411 1
306 411 1
197 412 1
202 412 1
280 412 1
286 412 1
296 412 1
307 412 1
198 413 1
203 413 1
281 413 1
287 413 1
297 413 1
308 413 1
199 414 1
204 414 1
282 414 1
288 414 1
298 414 1
309 414 1
200 415 1
205 415 1
283 415 1
289 415 1
299 415 1
310 415 1
201 416 1
206 416 1
284 416 1
290 416 1
300 416 1
311 416 1
202 417 1
207 417 1
285 417 1
291 417 1
301 417 1
312 417 1
203 418 1
208 418 1
286 418 1
292 418 1
302 418 1
313 418 1
204 419 1
209 419 1
287 419 1
293 419 1
303 419 1
314 419 1
205 420 1
210 420 1
288 420 1
294 420 1
304 420 1
315 420 1
1 421 1
21 421 1
316 421 1
320 421 1
337 421 1
340 421 1
1 422 1
2 422 1
317 422 1
321 422 1
338 422 1
341 422 1
2 423 1
3 423 1
318 423 1
322 423 1
339 423 1
342 423 1
3 424 1
4 424 1
319 424 1
323 424 1
340 424 1
343 424 1
4 425 1
5 425 1
320 425 1
324 425 1
341 425 1
344 425 1
5 426 1
6 426 1
321 426 1
325 426 1
342 426 1
345 426 1
6 427 1
7 427 1
322 427 1
326 427 1
343 427 1
346 427 1
7 428 1
8 428 1
323 428 1
327 428 1
344 428 1
347 428 1
8 429 1
9 429 1
324 429 1
328 429 1
345 429 1
348 429 1
9 430 1
10 430 1
325 430 1
329 430 1
346 430 1
349 430 1
10 431 1
11 431 1
326 431 1
330 431 1
347 431 1
350 431 1
11 432 1
12 432 1
327 432 1
331 432 1
348 432 1
351 432 1
12 433 1
13 433 1
328 433 1
332 433 1
349 433 1
352 433 1
13 434 1
14 434 1
329 434 1
333 434 1
350 434 1
353 434 1
14 435 1
15 435 1
330 435 1
334 435 1
351 435 1
354 435 1
15 436 1
16 436 1
331 436 1
335 436 1
352 436 1
355 436 1
16 437 1
17 437 1
332 437 1
336 437 1
353 437 1
356 437 1
17 438 1
18 438 1
316 438 1
333 438 1
354 438 1
357 438 1
18 439 1
19 439 1
317 439 1
334 439 1
337 439 1
355 439 1
19 440 1
20 440 1
318 440 1
335 440 1
338 440 1
356 440 1
20 441 1
21 441 1
319 441 1
336 441 1
339 441 1
357 441 1
22 442 1
42 442 1
316 442 1
324 442 1
358 442 1
361 442 1
22 443 1
23 443 1
317 443 1
325 443 1
359 443 1
362 443 1
23 444 1
24 444 1
318 444 1
326 444 1
360 444 1
363 444 1
24 445 1
25 445 1
319 445 1
327 445 1
361 445 1
364 445 1
25 446 1
26 446 1
320 446 1
328 446 1
362 446 1
365 446 1
26 447 1
27 447 1
321 447 1
329 447 1
363 447 1
366 447 1
27 448 1
28 448 1
322 448 1
330 448 1
364 448 1
367 448 1
28 449 1
29 449 1
323 449 1
331 449 1
365 449 1
368 449 1
29 450 1
30 450 1
324 450 1
332 450 1
366 450 1
369 450 1
30 451 1
31 451 1
325 451 1
333 451 1
367 451 1
370 451 1
31 452 1
32 452 1
326 452 1
334 452 1
368 452 1
371 452 1
32 453 1
33 453 1
327 453 1
335 453 1
369 453 1
372 453 1
33 454 1
34 454 1
328 454 1
336 454 1
370 454 1
373 454 1
34 455 1
35 455 1
316 455 1
329 455 1
371 455 1
374 455 1
35 456 1
36 456 1
317 456 1
330 456 1
372 456 1
375 456 1
36 457 1
37 457 1
318 457 1
331 457 1
373 457 1
376 457 1
37 458 1
38 458 1
319 458 1
332 458 1
374 458 1
377 458 1
38 459 1
39 459 1
320 459 1
333 459 1
375 459 1
378 459 1
39 460 1
40 460 1
321 460 1
334 460 1
358 460 1
376 460 1
40 461 1
41 461 1
322 461 1
335 461 1
359 461 1
377 461 1
41 462 1
42 462 1
323 462 1
336 462 1
360 462 1
378 462 1
43 463 1
63 463 1
337 463 1
345 463 1
358 463 1
362 463 1
43 464 1
44 464 1
338 464 1
346 464 1
359 464 1
363 464 1
44 465 1
45 465 1
339 465 1
347 465 1
360 465 1
364 465 1
45 466 1
46 466 1
340 466 1
348 466 1
361 466 1
365 466 1
46 467 1
47 467 1
341 467 1
349 467 1
362 467 1
366 467 1
47 468 1
48 468 1
342 468 1
350 468 1
363 468 1
367 468 1
48 469 1
49 469 1
343 469 1
351 469 1
364 469 1
368 469 1
49 470 1
50 470 1
344 470 1
352 470 1
365 470 1
369 470 1
50 471 1
51 471 1
345 471 1
353 471 1
366 471 1
370 471 1
51 472 1
52 472 1
346 472 1
354 472 1
367 472 1
371 472 1
52 473 1
53 473 1
347 473 1
355 473 1
368 473 1
372 473 1
53 474 1
54 474 1
348 474 1
356 474 1
369 474 1
373 474 1
54 475 1
55 475 1
349 475 1
357 475 1
370 475 1
374 475 1
55 476 1
56 476 1
337 476 1
350 476 1
371 476 1
375 476 1
56 477 1
57 477 1
338 477 1
351 477 1
372 477 1
376 477 1
57 478 1
58 478 1
339 478 1
352 478 1
373 478 1
377 478 1
58 479 1
59 479 1
340 479 1
353 479 1
374 479 1
378 479 1
59 480 1
60 480 1
341 480 1
354 480 1
358 480 1
375 480 1
60 481 1
61 481 1
342 481 1
355 481 1
359 481 1
376 481 1
61 482 1
62 482 1
343 482 1
356 482 1
360 482 1
377 482 1
62 483 1
63 483 1
344 483 1
357 483 1
361 483 1
378 483 1
64 484 1
84 484 1
316 484 1
326 484 1
379 484 1
382 484 1
64 485 1
65 485 1
317 485 1
327 485 1
380 485 1
383 485 1
65 486 1
66 486 1
318 486 1
328 486 1
381 486 1
384 486 1
66 487 1
67 487 1
319 487 1
329 487 1
382 487 1
385 487 1
67 488 1
68 488 1
320 488 1
330 488 1
383 488 1
386 488 1
68 489 1
69 489 1
321 489 1
331 489 1
384 489 1
387 489 1
69 490 1
70 490 1
322 490 1
332 490 1
385 490 1
388 490 1
70 491 1
71 491 1
323 491 1
333 491 1
386 491 1
389 491 1
71 492 1
72 492 1
324 492 1
334 492 1
387 492 1
390 492 1
72 493 1
73 493 1
325 493 1
335 493 1
388 493 1
391 493 1
73 494 1
74 494 1
326 494 1
336 494 1
389 494 1
392 494 1
74 495 1
75 495 1
316 495 1
327 495 1
390 495 1
393 495 1
75 496 1
76 496 1
317 496 1
328 496 1
391 496 1
394 496 1
76 497 1
77 497 1
318 497 1
329 497 1
392 497 1
395 497 1
77 498 1
78 498 1
319 498 1
330 498 1
393 498 1
396 498 1
78 499 1
79 499 1
320 499 1
331 499 1
394 499 1
397 499 1
79 500 1
80 500 1
321 500 1
332 500 1
395 500 1
398 500 1
80 501 1
81 501 1
322 501 1
333 501 1
396 501 1
399 501 1
81 502 1
82 502 1
323 502 1
334 502 1
379 502 1
397 502 1
82 503 1
83 503 1
324 503 1
335 503 1
380 503 1
398 503 1
83 504 1
84 504 1
325 504 1
336 504 1
381 504 1
399 504 1
85 505 1
105 505 1
337 505 1
347 505 1
379 505 1
383 505 1
85 506 1
86 506 1
338 506 1
348 506 1
380 506 1
384 506 1
86 507 1
87 507 1
339 507 1
349 507 1
381 507 1
385 507 1
87 508 1
88 508 1
340 508 1
350 508 1
382 508 1
386 508 1
88 509 1
89 509 1
341 509 1
351 509 1
383 509 1
387 509 1
89 510 1
90 510 1
342 510 1
352 510 1
384 510 1
388 510 1
90 511 1
91 511 1
343 511 1
353 511 1
385 511 1
389 511 1
91 512 1
92 512 1
344 512 1
354 512 1
386 512 1
390 512 1
92 513 1
93 513 1
345 513 1
355 513 1
387 513 1
391 513 1
93 514 1
94 514 1
346 514 1
356 514 1
388 514 1
392 514 1
94 515 1
95 515 1
347 515 1
357 515 1
389 515 1
393 515 1
95 516 1
96 516 1
337 516 1
348 516 1
390 516 1
394 516 1
96 517 1
97 517 1
338 517 1
349 517 1
391 517 1
395 517 1
97 518 1
98 518 1
339 518 1
350 518 1
392 518 1
396 518 1
98 519 1
99 519 1
340 519 1
351 519 1
393 519 1
397 519 1
99 520 1
100 520 1
341 520 1
352 520 1
394 520 1
398 520 1
100 521 1
101 521 1
342 521 1
353 521 1
395 521 1
399 521 1
101 522 1
102 522 1
343 522 1
354 522 1
379 522 1
396 522 1
102 523 1
103 523 1
344 523 1
355 523 1
380 523 1
397 523 1
103 524 1
104 524 1
345 524 1
356 524 1
381 524 1
398 524 1
104 525 1
105 525 1
346 525 1
357 525 1
382 525 1
399 525 1
106 526 1
126 526 1
358 526 1
368 526 1
379 526 1
387 526 1
106 527 1
107 527 1
359 527 1
369 527 1
380 527 1
388 527 1
107 528 1
108 528 1
360 528 1
370 528 1
381 528 1
389 528 1
108 529 1
109 529 1
361 529 1
371 529 1
382 529 1
390 529 1
109 530 1
110 530 1
362 530 1
372 530 1
383 530 1
391 530 1
110 531 1
111 531 1
363 531 1
373 531 1
384 531 1
392 531 1
111 532 1
112 532 1
364 532 1
374 532 1
385 532 1
393 532 1
112 533 1
113 533 1
365 533 1
375 533 1
386 533 1
394 533 1
113 534 1
114 534 1
366 534 1
376 534 1
387 534 1
395 534 1
114 535 1
115 535 1
367 535 1
377 535 1
388 535 1
396 535 1
115 536 1
116 536 1
368 536 1
378 536 1
389 536 1
397 536 1
116 537 1
117 537 1
358 537 1
369 537 1
390 537 1
398 537 1
117 538 1
118 538 1
359 538 1
370 538 1
391 538 1
399 538 1
118 539 1
119 539 1
360 539 1
371 539 1
379 539 1
392 539 1
119 540 1
120 540 1
361 540 1
372 540 1
380 540 1
393 540 1
120 541 1
121 541 1
362 541 1
373 541 1
381 541 1
394 541 1
121 542 1
122 542 1
363 542 1
374 542 1
382 542 1
395 542 1
122 543 1
123 543 1
364 543 1
375 543 1
383 543 1
396 543 1
123 544 1
124 544 1
365 544 1
376 544 1
384 544 1
397 544 1
124 545 1
125 545 1
366 545 1
377 545 1
385 545 1
398 545 1
125 546 1
126 546 1
367 546 1
378 546 1
386 546 1
399 546 1
127 547 1
147 547 1
316 547 1
331 547 1
400 547 1
403 547 1
127 548 1
128 548 1
317 548 1
332 548 1
401 548 1
404 548 1
128 549 1
129 549 1
318 549 1
333 549 1
402 549 1
405 549 1
129 550 1
130 550 1
319 550 1
334 550 1
403 550 1
406 550 1
130 551 1
131 551 1
320 551 1
335 551 1
404 551 1
407 551 1
131 552 1
132 552 1
321 552 1
336 552 1
405 552 1
408 552 1
132 553 1
133 553 1
316 553 1
322 553 1
406 553 1
409 553 1
133 554 1
134 554 1
317 554 1
323 554 1
407 554 1
410 554 1
134 555 1
135 555 1
318 555 1
324 555 1
408 555 1
411 555 1
135 556 1
136 556 1
319 556 1
325 556 1
409 556 1
412 556 1
136 557 1
137 557 1
320 557 1
326 557 1
410 557 1
413 557 1
137 558 1
138 558 1
321 558 1
327 558 1
411 558 1
414 558 1
138 559 1
139 559 1
322 559 1
328 559 1
412 559 1
415 559 1
139 560 1
140 560 1
323 560 1
329 560 1
413 560 1
416 560 1
140 561 1
141 561 1
324 561 1
330 561 1
414 561 1
417 561 1
141 562 1
142 562 1
325 562 1
331 562 1
415 562 1
418 562 1
142 563 1
143 563 1
326 563 1
332 563 1
416 563 1
419 563 1
143 564 1
144 564 1
327 564 1
333 564 1
417 564 1
420 564 1
144 565 1
145 565 1
328 565 1
334 565 1
400 565 1
418 565 1
145 566 1
146 566 1
329 566 1
335 566 1
401 566 1
419 566 1
146 567 1
147 567 1
330 567 1
336 567 1
402 567 1
420 567 1
148 568 1
168 568 1
337 568 1
352 568 1
400 568 1
404 568 1
148 569 1
149 569 1
338 569 1
353 569 1
401 569 1
405 569 1
149 570 1
150 570 1
339 570 1
354 570 1
402 570 1
406 570 1
150 571 1
151 571 1
340 571 1
355 571 1
403 571 1
407 571 1
151 572 1
152 572 1
341 572 1
356 572 1
404 572 1
408 572 1
152 573 1
153 573 1
342 573 1
357 573 1
405 573 1
409 573 1
153 574 1
154 574 1
337 574 1
343 574 1
406 574 1
410 574 1
154 575 1
155 575 1
338 575 1
344 575 1
407 575 1
411 575 1
155 576 1
156 576 1
339 576 1
345 576 1
408 576 1
412 576 1
156 577 1
157 577 1
340 577 1
346 577 1
409 577 1
413 577 1
157 578 1
158 578 1
341 578 1
347 578 1
410 578 1
414 578 1
158 579 1
159 579 1
342 579 1
348 579 1
411 579 1
415 579 1
159 580 1
160 580 1
343 580 1
349 580 1
412 580 1
416 580 1
160 581 1
161 581 1
344 581 1
350 581 1
413 581 1
417 581 1
161 582 1
162 582 1
345 582 1
351 582 1
414 582 1
418 582 1
162 583 1
163 583 1
346 583 1
352 583 1
415 583 1
419 583 1
163 584 1
164 584 1
347 584 1
353 584 1
416 584 1
420 584 1
164 585 1
165 585 1
348 585 1
354 585 1
400 585 1
417 585 1
165 586 1
166 586 1
349 586 1
355 586 1
401 586 1
418 586 1
166 587 1
167 587 1
350 587 1
356 587 1
402 587 1
419 587 1
167 588 1
168 588 1
351 588 1
357 588 1
403 588 1
420 588 1
169 589 1
189 589 1
358 589 1
373 589 1
400 589 1
408 589 1
169 590 1
170 590 1
359 590 1
374 590 1
401 590 1
409 590 1
170 591 1
171 591 1
360 591 1
375 591 1
402 591 1
410 591 1
171 592 1
172 592 1
361 592 1
376 592 1
403 592 1
411 592 1
172 593 1
173 593 1
362 593 1
377 593 1
404 593 1
412 593 1
173 594 1
174 594 1
363 594 1
378 594 1
405 594 1
413 594 1
174 595 1
175 595 1
358 595 1
364 595 1
406 595 1
414 595 1
175 596 1
176 596 1
359 596 1
365 596 1
407 596 1
415 596 1
176 597 1
177 597 1
360 597 1
366 597 1
408 597 1
416 597 1
177 598 1
178 598 1
361 598 1
367 598 1
409 598 1
417 598 1
178 599 1
179 599 1
362 599 1
368 599 1
410 599 1
418 599 1
179 600 1
180 600 1
363 600 1
369 600 1
411 600 1
419 600 1
180 601 1
181 601 1
364 601 1
370 601 1
412 601 1
420 601 1
181 602 1
182 602 1
365 602 1
371 602 1
400 602 1
413 602 1
182 603 1
183 603 1
366 603 1
372 603 1
401 603 1
414 603 1
183 604 1
184 604 1
367 604 1
373 604 1
402 604 1
415 604 1
184 605 1
185 605 1
368 605 1
374 605 1
403 605 1
416 605 1
185 606 1
186 606 1
369 606 1
375 606 1
404 606 1
417 606 1
186 607 1
187 607 1
370 607 1
376 607 1
405 607 1
418 607 1
187 608 1
188 608 1
371 608 1
377 608 1
406 608 1
419 608 1
188 609 1
189 609 1
372 609 1
378 609 1
407 609 1
420 609 1
190 610 1
210 610 1
379 610 1
394 610 1
400 610 1
410 610 1
190 611 1
191 611 1
380 611 1
395 611 1
401 611 1
411 611 1
191 612 1
192 612 1
381 612 1
396 612 1
402 612 1
412 612 1
192 613 1
193 613 1
382 613 1
397 613 1
403 613 1
413 613 1
193 614 1
194 614 1
383 614 1
398 614 1
404 614 1
414 614 1
194 615 1
195 615 1
384 615 1
399 615 1
405 615 1
415 615 1
195 616 1
196 616 1
379 616 1
385 616 1
406 616 1
416 616 1
196 617 1
197 617 1
380 617 1
386 617 1
407 617 1
417 617 1
197 618 1
198 618 1
381 618 1
387 618 1
408 618 1
418 618 1
198 619 1
199 619 1
382 619 1
388 619 1
409 619 1
419 619 1
199 620 1
200 620 1
383 620 1
389 620 1
410 620 1
420 620 1
200 621 1
201 621 1
384 621 1
390 621 1
400 621 1
411 621 1
201 622 1
202 622 1
385 622 1
391 622 1
401 622 1
412 622 1
202 623 1
203 623 1
386 623 1
392 623 1
402 623 1
413 623 1
203 624 1
204 624 1
387 624 1
393 624 1
403 624 1
414 624 1
204 625 1
205 625 1
388 625 1
394 625 1
404 625 1
415 625 1
205 626 1
206 626 1
389 626 1
395 626 1
405 626 1
416 626 1
206 627 1
207 627 1
390 627 1
396 627 1
406 627 1
417 627 1
207 628 1
208 628 1
391 628 1
397 628 1
407 628 1
418 628 1
208 629 1
209 629 1
392 629 1
398 629 1
408 629 1
419 629 1
209 630 1
210 630 1
393 630 1
399 630 1
409 630 1
420 630 1
211 631 1
231 631 1
316 631 1
332 631 1
421 631 1
424 631 1
211 632 1
212 632 1
317 632 1
333 632 1
422 632 1
425 632 1
212 633 1
213 633 1
318 633 1
334 633 1
423 633 1
426 633 1
213 634 1
214 634 1
319 634 1
335 634 1
424 634 1
427 634 1
214 635 1
215 635 1
320 635 1
336 635 1
425 635 1
428 635 1
215 636 1
216 636 1
316 636 1
321 636 1
426 636 1
429 636 1
216 637 1
217 637 1
317 637 1
322 637 1
427 637 1
430 637 1
217 638 1
218 638 1
318 638 1
323 638 1
428 638 1
431 638 1
218 639 1
219 639 1
319 639 1
324 639 1
429 639 1
432 639 1
219 640 1
220 640 1
320 640 1
325 640 1
430 640 1
433 640 1
220 641 1
221 641 1
321 641 1
326 641 1
431 641 1
434 641 1
221 642 1
222 642 1
322 642 1
327 642 1
432 642 1
435 642 1
222 643 1
223 643 1
323 643 1
328 643 1
433 643 1
436 643 1
223 644 1
224 644 1
324 644 1
329 644 1
434 644 1
437 644 1
224 645 1
225 645 1
325 645 1
330 645 1
435 645 1
438 645 1
225 646 1
226 646 1
326 646 1
331 646 1
436 646 1
439 646 1
226 647 1
227 647 1
327 647 1
332 647 1
437 647 1
440 647 1
227 648 1
228 648 1
328 648 1
333 648 1
438 648 1
441 648 1
228 649 1
229 649 1
329 649 1
334 649 1
421 649 1
439 649 1
229 650 1
230 650 1
330 650 1
335 650 1
422 650 1
440 650 1
230 651 1
231 651 1
331 651 1
336 651 1
423 651 1
441 651 1
232 652 1
252 652 1
337 652 1
353 652 1
421 652 1
425 652 1
232 653 1
233 653 1
338 653 1
354 653 1
422 653 1
426 653 1
233 654 1
234 654 1
339 654 1
355 654 1
423 654 1
427 654 1
234 655 1
235 655 1
340 655 1
356 655 1
424 655 1
428 655 1
235 656 1
236 656 1
341 656 1
357 656 1
425 656 1
429 656 1
236 657 1
237 657 1
337 657 1
342 657 1
426 657 1
430 657 1
237 658 1
238 658 1
338 658 1
343 658 1
427 658 1
431 658 1
238 659 1
239 659 1
339 659 1
344 659 1
428 659 1
432 659 1
239 660 1
240 660 1
340 660 1
345 660 1
429 660 1
433 660 1
240 661 1
241 661 1
341 661 1
346 661 1
430 661 1
434 661 1
241 662 1
242 662 1
342 662 1
347 662 1
431 662 1
435 662 1
242 663 1
243 663 1
343 663 1
348 663 1
432 663 1
436 663 1
243 664 1
244 664 1
344 664 1
349 664 1
433 664 1
437 664 1
244 665 1
245 665 1
345 665 1
350 665 1
434 665 1
438 665 1
245 666 1
246 666 1
346 666 1
351 666 1
435 666 1
439 666 1
246 667 1
247 667 1
347 667 1
352 667 1
436 667 1
440 667 1
247 668 1
248 668 1
348 668 1
353 668 1
437 668 1
441 668 1
248 669 1
249 669 1
349 669 1
354 669 1
421 669 1
438 669 1
249 670 1
250 670 1
350 670 1
355 670 1
422 670 1
439 670 1
250 671 1
251 671 1
351 671 1
356 671 1
423 671 1
440 671 1
251 672 1
252 672 1
352 672 1
357 672 1
424 672 1
441 672 1
253 673 1
273 673 1
358 673 1
374 673 1
421 673 1
429 673 1
253 674 1
254 674 1
359 674 1
375 674 1
422 674 1
430 674 1
254 675 1
255 675 1
360 675 1
376 675 1
423 675 1
431 675 1
255 676 1
256 676 1
361 676 1
377 676 1
424 676 1
432 676 1
256 677 1
257 677 1
362 677 1
378 677 1
425 677 1
433 677 1
257 678 1
258 678 1
358 678 1
363 678 1
426 678 1
434 678 1
258 679 1
259 679 1
359 679 1
364 679 1
427 679 1
435 679 1
259 680 1
260 680 1
360 680 1
365 680 1
428 680 1
436 680 1
260 681 1
261 681 1
361 681 1
366 681 1
429 681 1
437 681 1
261 682 1
262 682 1
362 682 1
367 682 1
430 682 1
438 682 1
262 683 1
263 683 1
363 683 1
368 683 1
431 683 1
439 683 1
263 684 1
264 684 1
364 684 1
369 684 1
432 684 1
440 684 1
264 685 1
265 685 1
365 685 1
370 685 1
433 685 1
441 685 1
265 686 1
266 686 1
366 686 1
371 686 1
421 686 1
434 686 1
266 687 1
267 687 1
367 687 1
372 687 1
422 687 1
435 687 1
267 688 1
268 688 1
368 688 1
373 688 1
423 688 1
436 688 1
268 689 1
269 689 1
369 689 1
374 689 1
424 689 1
437 689 1
269 690 1
270 690 1
370 690 1
375 690 1
425 690 1
438 690 1
270 691 1
271 691 1
371 691 1
376 691 1
426 691 1
439 691 1
271 692 1
272 692 1
372 692 1
377 692 1
427 692 1
440 692 1
272 693 1
273 693 1
373 693 1
378 693 1
428 693 1
441 693 1
274 694 1
294 694 1
379 694 1
395 694 1
421 694 1
431 694 1
274 695 1
275 695 1
380 695 1
396 695 1
422 695 1
432 695 1
275 696 1
276 696 1
381 696 1
397 696 1
423 696 1
433 696 1
276 697 1
277 697 1
382 697 1
398 697 1
424 697 1
434 697 1
277 698 1
278 698 1
383 698 1
399 698 1
425 698 1
435 698 1
278 699 1
279 699 1
379 699 1
384 699 1
426 699 1
436 699 1
279 700 1
280 700 1
380 700 1
385 700 1
427 700 1
437 700 1
280 701 1
281 701 1
381 701 1
386 701 1
428 701 1
438 701 1
281 702 1
282 702 1
382 702 1
387 702 1
429 702 1
439 702 1
282 703 1
283 703 1
383 703 1
388 703 1
430 703 1
440 703 1
283 704 1
284 704 1
384 704 1
389 704 1
431 704 1
441 704 1
284 705 1
285 705 1
385 705 1
390 705 1
421 705 1
432 705 1
285 706 1
286 706 1
386 706 1
391 706 1
422 706 1
433 706 1
286 707 1
287 707 1
387 707 1
392 707 1
423 707 1
434 707 1
287 708 1
288 708 1
388 708 1
393 708 1
424 708 1
435 708 1
288 709 1
289 709 1
389 709 1
394 709 1
425 709 1
436 709 1
289 710 1
290 710 1
390 710 1
395 710 1
426 710 1
437 710 1
290 711 1
291 711 1
391 711 1
396 711 1
427 711 1
438 711 1
291 712 1
292 712 1
392 712 1
397 712 1
428 712 1
439 712 1
292 713 1
293 713 1
393 713 1
398 713 1
429 713 1
440 713 1
293 714 1
294 714 1
394 714 1
399 714 1
430 714 1
441 714 1
295 715 1
315 715 1
400 715 1
416 715 1
421 715 1
436 715 1
295 716 1
296 716 1
401 716 1
417 716 1
422 716 1
437 716 1
296 717 1
297 717 1
402 717 1
418 717 1
423 717 1
438 717 1
297 718 1
298 718 1
403 718 1
419 718 1
424 718 1
439 718 1
298 719 1
299 719 1
404 719 1
420 719 1
425 719 1
440 719 1
299 720 1
300 720 1
400 720 1
405 720 1
426 720 1
441 720 1
300 721 1
301 721 1
401 721 1
406 721 1
421 721 1
427 721 1
301 722 1
302 722 1
402 722 1
407 722 1
422 722 1
428 722 1
302 723 1
303 723 1
403 723 1
408 723 1
423 723 1
429 723 1
303 724 1
304 724 1
404 724 1
409 724 1
424 724 1
430 724 1
304 725 1
305 725 1
405 725 1
410 725 1
425 725 1
431 725 1
305 726 1
306 726 1
406 726 1
411 726 1
426 726 1
432 726 1
306 727 1
307 727 1
407 727 1
412 727 1
427 727 1
433 727 1
307 728 1
308 728 1
408 728 1
413 728 1
428 728 1
434 728 1
308 729 1
309 729 1
409 729 1
414 729 1
429 729 1
435 729 1
309 730 1
310 730 1
410 730 1
415 730 1
430 730 1
436 730 1
310 731 1
311 731 1
411 731 1
416 731 1
431 731 1
437 731 1
311 732 1
312 732 1
412 732 1
417 732 1
432 732 1
438 732 1
312 733 1
313 733 1
413 733 1
418 733 1
433 733 1
439 733 1
313 734 1
314 734 1
414 734 1
419 734 1
434 734 1
440 734 1
314 735 1
315 735 1
415 735 1
420 735 1
435 735 1
441 735 1
