%%MatrixMarket matrix coordinate integer general
% Binary matrix; one-based indices; arithmetic over GF(2)
672 840 6720
1 1 1
8 1 1
13 1 1
18 1 1
25 1 1
28 1 1
37 1 1
38 1 1
2 2 1
9 2 1
14 2 1
19 2 1
26 2 1
29 2 1
38 2 1
39 2 1
3 3 1
10 3 1
15 3 1
20 3 1
27 3 1
30 3 1
39 3 1
40 3 1
4 4 1
11 4 1
16 4 1
21 4 1
28 4 1
31 4 1
40 4 1
41 4 1
5 5 1
12 5 1
17 5 1
22 5 1
29 5 1
32 5 1
41 5 1
42 5 1
1 6 1
6 6 1
18 6 1
23 6 1
30 6 1
33 6 1
42 6 1
43 6 1
2 7 1
7 7 1
19 7 1
24 7 1
31 7 1
34 7 1
43 7 1
44 7 1
3 8 1
8 8 1
13 8 1
20 8 1
32 8 1
35 8 1
44 8 1
45 8 1
4 9 1
9 9 1
14 9 1
21 9 1
33 9 1
36 9 1
45 9 1
46 9 1
5 10 1
10 10 1
15 10 1
22 10 1
25 10 1
34 10 1
46 10 1
47 10 1
6 11 1
11 11 1
16 11 1
23 11 1
26 11 1
35 11 1
47 11 1
48 11 1
7 12 1
12 12 1
17 12 1
24 12 1
27 12 1
36 12 1
37 12 1
48 12 1
1 13 1
9 13 1
49 13 1
54 13 1
61 13 1
64 13 1
73 13 1
74 13 1
2 14 1
10 14 1
50 14 1
55 14 1
62 14 1
65 14 1
74 14 1
75 14 1
3 15 1
11 15 1
51 15 1
56 15 1
63 15 1
66 15 1
75 15 1
76 15 1
4 16 1
12 16 1
52 16 1
57 16 1
64 16 1
67 16 1
76 16 1
77 16 1
1 17 1
5 17 1
53 17 1
58 17 1
65 17 1
68 17 1
77 17 1
78 17 1
2 18 1
6 18 1
54 18 1
59 18 1
66 18 1
69 18 1
78 18 1
79 18 1
3 19 1
7 19 1
55 19 1
60 19 1
67 19 1
70 19 1
79 19 1
80 19 1
4 20 1
8 20 1
49 20 1
56 20 1
68 20 1
71 20 1
80 20 1
81 20 1
5 21 1
9 21 1
50 21 1
57 21 1
69 21 1
72 21 1
81 21 1
82 21 1
6 22 1
10 22 1
51 22 1
58 22 1
61 22 1
70 22 1
82 22 1
83 22 1
7 23 1
11 23 1
52 23 1
59 23 1
62 23 1
71 23 1
83 23 1
84 23 1
8 24 1
12 24 1
53 24 1
60 24 1
63 24 1
72 24 1
73 24 1
84 24 1
13 25 1
21 25 1
49 25 1
56 25 1
85 25 1
88 25 1
97 25 1
98 25 1
14 26 1
22 26 1
50 26 1
57 26 1
86 26 1
89 26 1
98 26 1
99 26 1
15 27 1
23 27 1
51 27 1
58 27 1
87 27 1
90 27 1
99 27 1
100 27 1
16 28 1
24 28 1
52 28 1
59 28 1
88 28 1
91 28 1
100 28 1
101 28 1
13 29 1
17 29 1
53 29 1
60 29 1
89 29 1
92 29 1
101 29 1
102 29 1
14 30 1
18 30 1
49 30 1
54 30 1
90 30 1
93 30 1
102 30 1
103 30 1
15 31 1
19 31 1
50 31 1
55 31 1
91 31 1
94 31 1
103 31 1
104 31 1
16 32 1
20 32 1
51 32 1
56 32 1
92 32 1
95 32 1
104 32 1
105 32 1
17 33 1
21 33 1
52 33 1
57 33 1
93 33 1
96 33 1
105 33 1
106 33 1
18 34 1
22 34 1
53 34 1
58 34 1
85 34 1
94 34 1
106 34 1
107 34 1
19 35 1
23 35 1
54 35 1
59 35 1
86 35 1
95 35 1
107 35 1
108 35 1
20 36 1
24 36 1
55 36 1
60 36 1
87 36 1
96 36 1
97 36 1
108 36 1
25 37 1
33 37 1
61 37 1
68 37 1
85 37 1
90 37 1
109 37 1
110 37 1
26 38 1
34 38 1
62 38 1
69 38 1
86 38 1
91 38 1
110 38 1
111 38 1
27 39 1
35 39 1
63 39 1
70 39 1
87 39 1
92 39 1
111 39 1
112 39 1
28 40 1
36 40 1
64 40 1
71 40 1
88 40 1
93 40 1
112 40 1
113 40 1
25 41 1
29 41 1
65 41 1
72 41 1
89 41 1
94 41 1
113 41 1
114 41 1
26 42 1
30 42 1
61 42 1
66 42 1
90 42 1
95 42 1
114 42 1
115 42 1
27 43 1
31 43 1
62 43 1
67 43 1
91 43 1
96 43 1
115 43 1
116 43 1
28 44 1
32 44 1
63 44 1
68 44 1
85 44 1
92 44 1
116 44 1
117 44 1
29 45 1
33 45 1
64 45 1
69 45 1
86 45 1
93 45 1
117 45 1
118 45 1
30 46 1
34 46 1
65 46 1
70 46 1
87 46 1
94 46 1
118 46 1
119 46 1
31 47 1
35 47 1
66 47 1
71 47 1
88 47 1
95 47 1
119 47 1
120 47 1
32 48 1
36 48 1
67 48 1
72 48 1
89 48 1
96 48 1
109 48 1
120 48 1
37 49 1
45 49 1
73 49 1
80 49 1
97 49 1
102 49 1
109 49 1
112 49 1
38 50 1
46 50 1
74 50 1
81 50 1
98 50 1
103 50 1
110 50 1
113 50 1
39 51 1
47 51 1
75 51 1
82 51 1
99 51 1
104 51 1
111 51 1
114 51 1
40 52 1
48 52 1
76 52 1
83 52 1
100 52 1
105 52 1
112 52 1
115 52 1
37 53 1
41 53 1
77 53 1
84 53 1
101 53 1
106 53 1
113 53 1
116 53 1
38 54 1
42 54 1
73 54 1
78 54 1
102 54 1
107 54 1
114 54 1
117 54 1
39 55 1
43 55 1
74 55 1
79 55 1
103 55 1
108 55 1
115 55 1
118 55 1
40 56 1
44 56 1
75 56 1
80 56 1
97 56 1
104 56 1
116 56 1
119 56 1
41 57 1
45 57 1
76 57 1
81 57 1
98 57 1
105 57 1
117 57 1
120 57 1
42 58 1
46 58 1
77 58 1
82 58 1
99 58 1
106 58 1
109 58 1
118 58 1
43 59 1
47 59 1
78 59 1
83 59 1
100 59 1
107 59 1
110 59 1
119 59 1
44 60 1
48 60 1
79 60 1
84 60 1
101 60 1
108 60 1
111 60 1
120 60 1
1 61 1
10 61 1
121 61 1
126 61 1
133 61 1
136 61 1
145 61 1
146 61 1
2 62 1
11 62 1
122 62 1
127 62 1
134 62 1
137 62 1
146 62 1
147 62 1
3 63 1
12 63 1
123 63 1
128 63 1
135 63 1
138 63 1
147 63 1
148 63 1
1 64 1
4 64 1
124 64 1
129 64 1
136 64 1
139 64 1
148 64 1
149 64 1
2 65 1
5 65 1
125 65 1
130 65 1
137 65 1
140 65 1
149 65 1
150 65 1
3 66 1
6 66 1
126 66 1
131 66 1
138 66 1
141 66 1
150 66 1
151 66 1
4 67 1
7 67 1
127 67 1
132 67 1
139 67 1
142 67 1
151 67 1
152 67 1
5 68 1
8 68 1
121 68 1
128 68 1
140 68 1
143 68 1
152 68 1
153 68 1
6 69 1
9 69 1
122 69 1
129 69 1
141 69 1
144 69 1
153 69 1
154 69 1
7 70 1
10 70 1
123 70 1
130 70 1
133 70 1
142 70 1
154 70 1
155 70 1
8 71 1
11 71 1
124 71 1
131 71 1
134 71 1
143 71 1
155 71 1
156 71 1
9 72 1
12 72 1
125 72 1
132 72 1
135 72 1
144 72 1
145 72 1
156 72 1
13 73 1
22 73 1
121 73 1
128 73 1
157 73 1
160 73 1
169 73 1
170 73 1
14 74 1
23 74 1
122 74 1
129 74 1
158 74 1
161 74 1
170 74 1
171 74 1
15 75 1
24 75 1
123 75 1
130 75 1
159 75 1
162 75 1
171 75 1
172 75 1
13 76 1
16 76 1
124 76 1
131 76 1
160 76 1
163 76 1
172 76 1
173 76 1
14 77 1
17 77 1
125 77 1
132 77 1
161 77 1
164 77 1
173 77 1
174 77 1
15 78 1
18 78 1
121 78 1
126 78 1
162 78 1
165 78 1
174 78 1
175 78 1
16 79 1
19 79 1
122 79 1
127 79 1
163 79 1
166 79 1
175 79 1
176 79 1
17 80 1
20 80 1
123 80 1
128 80 1
164 80 1
167 80 1
176 80 1
177 80 1
18 81 1
21 81 1
124 81 1
129 81 1
165 81 1
168 81 1
177 81 1
178 81 1
19 82 1
22 82 1
125 82 1
130 82 1
157 82 1
166 82 1
178 82 1
179 82 1
20 83 1
23 83 1
126 83 1
131 83 1
158 83 1
167 83 1
179 83 1
180 83 1
21 84 1
24 84 1
127 84 1
132 84 1
159 84 1
168 84 1
169 84 1
180 84 1
25 85 1
34 85 1
133 85 1
140 85 1
157 85 1
162 85 1
181 85 1
182 85 1
26 86 1
35 86 1
134 86 1
141 86 1
158 86 1
163 86 1
182 86 1
183 86 1
27 87 1
36 87 1
135 87 1
142 87 1
159 87 1
164 87 1
183 87 1
184 87 1
25 88 1
28 88 1
136 88 1
143 88 1
160 88 1
165 88 1
184 88 1
185 88 1
26 89 1
29 89 1
137 89 1
144 89 1
161 89 1
166 89 1
185 89 1
186 89 1
27 90 1
30 90 1
133 90 1
138 90 1
162 90 1
167 90 1
186 90 1
187 90 1
28 91 1
31 91 1
134 91 1
139 91 1
163 91 1
168 91 1
187 91 1
188 91 1
29 92 1
32 92 1
135 92 1
140 92 1
157 92 1
164 92 1
188 92 1
189 92 1
30 93 1
33 93 1
136 93 1
141 93 1
158 93 1
165 93 1
189 93 1
190 93 1
31 94 1
34 94 1
137 94 1
142 94 1
159 94 1
166 94 1
190 94 1
191 94 1
32 95 1
35 95 1
138 95 1
143 95 1
160 95 1
167 95 1
191 95 1
192 95 1
33 96 1
36 96 1
139 96 1
144 96 1
161 96 1
168 96 1
181 96 1
192 96 1
37 97 1
46 97 1
145 97 1
152 97 1
169 97 1
174 97 1
181 97 1
184 97 1
38 98 1
47 98 1
146 98 1
153 98 1
170 98 1
175 98 1
182 98 1
185 98 1
39 99 1
48 99 1
147 99 1
154 99 1
171 99 1
176 99 1
183 99 1
186 99 1
37 100 1
40 100 1
148 100 1
155 100 1
172 100 1
177 100 1
184 100 1
187 100 1
38 101 1
41 101 1
149 101 1
156 101 1
173 101 1
178 101 1
185 101 1
188 101 1
39 102 1
42 102 1
145 102 1
150 102 1
174 102 1
179 102 1
186 102 1
189 102 1
40 103 1
43 103 1
146 103 1
151 103 1
175 103 1
180 103 1
187 103 1
190 103 1
41 104 1
44 104 1
147 104 1
152 104 1
169 104 1
176 104 1
188 104 1
191 104 1
42 105 1
45 105 1
148 105 1
153 105 1
170 105 1
177 105 1
189 105 1
192 105 1
43 106 1
46 106 1
149 106 1
154 106 1
171 106 1
178 106 1
181 106 1
190 106 1
44 107 1
47 107 1
150 107 1
155 107 1
172 107 1
179 107 1
182 107 1
191 107 1
45 108 1
48 108 1
151 108 1
156 108 1
173 108 1
180 108 1
183 108 1
192 108 1
49 109 1
58 109 1
121 109 1
129 109 1
193 109 1
196 109 1
205 109 1
206 109 1
50 110 1
59 110 1
122 110 1
130 110 1
194 110 1
197 110 1
206 110 1
207 110 1
51 111 1
60 111 1
123 111 1
131 111 1
195 111 1
198 111 1
207 111 1
208 111 1
49 112 1
52 112 1
124 112 1
132 112 1
196 112 1
199 112 1
208 112 1
209 112 1
50 113 1
53 113 1
121 113 1
125 113 1
197 113 1
200 113 1
209 113 1
210 113 1
51 114 1
54 114 1
122 114 1
126 114 1
198 114 1
201 114 1
210 114 1
211 114 1
52 115 1
55 115 1
123 115 1
127 115 1
199 115 1
202 115 1
211 115 1
212 115 1
53 116 1
56 116 1
124 116 1
128 116 1
200 116 1
203 116 1
212 116 1
213 116 1
54 117 1
57 117 1
125 117 1
129 117 1
201 117 1
204 117 1
213 117 1
214 117 1
55 118 1
58 118 1
126 118 1
130 118 1
193 118 1
202 118 1
214 118 1
215 118 1
56 119 1
59 119 1
127 119 1
131 119 1
194 119 1
203 119 1
215 119 1
216 119 1
57 120 1
60 120 1
128 120 1
132 120 1
195 120 1
204 120 1
205 120 1
216 120 1
61 121 1
70 121 1
133 121 1
141 121 1
193 121 1
198 121 1
217 121 1
218 121 1
62 122 1
71 122 1
134 122 1
142 122 1
194 122 1
199 122 1
218 122 1
219 122 1
63 123 1
72 123 1
135 123 1
143 123 1
195 123 1
200 123 1
219 123 1
220 123 1
61 124 1
64 124 1
136 124 1
144 124 1
196 124 1
201 124 1
220 124 1
221 124 1
62 125 1
65 125 1
133 125 1
137 125 1
197 125 1
202 125 1
221 125 1
222 125 1
63 126 1
66 126 1
134 126 1
138 126 1
198 126 1
203 126 1
222 126 1
223 126 1
64 127 1
67 127 1
135 127 1
139 127 1
199 127 1
204 127 1
223 127 1
224 127 1
65 128 1
68 128 1
136 128 1
140 128 1
193 128 1
200 128 1
224 128 1
225 128 1
66 129 1
69 129 1
137 129 1
141 129 1
194 129 1
201 129 1
225 129 1
226 129 1
67 130 1
70 130 1
138 130 1
142 130 1
195 130 1
202 130 1
226 130 1
227 130 1
68 131 1
71 131 1
139 131 1
143 131 1
196 131 1
203 131 1
227 131 1
228 131 1
69 132 1
72 132 1
140 132 1
144 132 1
197 132 1
204 132 1
217 132 1
228 132 1
73 133 1
82 133 1
145 133 1
153 133 1
205 133 1
210 133 1
217 133 1
220 133 1
74 134 1
83 134 1
146 134 1
154 134 1
206 134 1
211 134 1
218 134 1
221 134 1
75 135 1
84 135 1
147 135 1
155 135 1
207 135 1
212 135 1
219 135 1
222 135 1
73 136 1
76 136 1
148 136 1
156 136 1
208 136 1
213 136 1
220 136 1
223 136 1
74 137 1
77 137 1
145 137 1
149 137 1
209 137 1
214 137 1
221 137 1
224 137 1
75 138 1
78 138 1
146 138 1
150 138 1
210 138 1
215 138 1
222 138 1
225 138 1
76 139 1
79 139 1
147 139 1
151 139 1
211 139 1
216 139 1
223 139 1
226 139 1
77 140 1
80 140 1
148 140 1
152 140 1
205 140 1
212 140 1
224 140 1
227 140 1
78 141 1
81 141 1
149 141 1
153 141 1
206 141 1
213 141 1
225 141 1
228 141 1
79 142 1
82 142 1
150 142 1
154 142 1
207 142 1
214 142 1
217 142 1
226 142 1
80 143 1
83 143 1
151 143 1
155 143 1
208 143 1
215 143 1
218 143 1
227 143 1
81 144 1
84 144 1
152 144 1
156 144 1
209 144 1
216 144 1
219 144 1
228 144 1
85 145 1
94 145 1
157 145 1
165 145 1
193 145 1
200 145 1
229 145 1
230 145 1
86 146 1
95 146 1
158 146 1
166 146 1
194 146 1
201 146 1
230 146 1
231 146 1
87 147 1
96 147 1
159 147 1
167 147 1
195 147 1
202 147 1
231 147 1
232 147 1
85 148 1
88 148 1
160 148 1
168 148 1
196 148 1
203 148 1
232 148 1
233 148 1
86 149 1
89 149 1
157 149 1
161 149 1
197 149 1
204 149 1
233 149 1
234 149 1
87 150 1
90 150 1
158 150 1
162 150 1
193 150 1
198 150 1
234 150 1
235 150 1
88 151 1
91 151 1
159 151 1
163 151 1
194 151 1
199 151 1
235 151 1
236 151 1
89 152 1
92 152 1
160 152 1
164 152 1
195 152 1
200 152 1
236 152 1
237 152 1
90 153 1
93 153 1
161 153 1
165 153 1
196 153 1
201 153 1
237 153 1
238 153 1
91 154 1
94 154 1
162 154 1
166 154 1
197 154 1
202 154 1
238 154 1
239 154 1
92 155 1
95 155 1
163 155 1
167 155 1
198 155 1
203 155 1
239 155 1
240 155 1
93 156 1
96 156 1
164 156 1
168 156 1
199 156 1
204 156 1
229 156 1
240 156 1
97 157 1
106 157 1
169 157 1
177 157 1
205 157 1
212 157 1
229 157 1
232 157 1
98 158 1
107 158 1
170 158 1
178 158 1
206 158 1
213 158 1
230 158 1
233 158 1
99 159 1
108 159 1
171 159 1
179 159 1
207 159 1
214 159 1
231 159 1
234 159 1
97 160 1
100 160 1
172 160 1
180 160 1
208 160 1
215 160 1
232 160 1
235 160 1
98 161 1
101 161 1
169 161 1
173 161 1
209 161 1
216 161 1
233 161 1
236 161 1
99 162 1
102 162 1
170 162 1
174 162 1
205 162 1
210 162 1
234 162 1
237 162 1
100 163 1
103 163 1
171 163 1
175 163 1
206 163 1
211 163 1
235 163 1
238 163 1
101 164 1
104 164 1
172 164 1
176 164 1
207 164 1
212 164 1
236 164 1
239 164 1
102 165 1
105 165 1
173 165 1
177 165 1
208 165 1
213 165 1
237 165 1
240 165 1
103 166 1
106 166 1
174 166 1
178 166 1
209 166 1
214 166 1
229 166 1
238 166 1
104 167 1
107 167 1
175 167 1
179 167 1
210 167 1
215 167 1
230 167 1
239 167 1
105 168 1
108 168 1
176 168 1
180 168 1
211 168 1
216 168 1
231 168 1
240 168 1
109 169 1
118 169 1
181 169 1
189 169 1
217 169 1
224 169 1
229 169 1
234 169 1
110 170 1
119 170 1
182 170 1
190 170 1
218 170 1
225 170 1
230 170 1
235 170 1
111 171 1
120 171 1
183 171 1
191 171 1
219 171 1
226 171 1
231 171 1
236 171 1
109 172 1
112 172 1
184 172 1
192 172 1
220 172 1
227 172 1
232 172 1
237 172 1
110 173 1
113 173 1
181 173 1
185 173 1
221 173 1
228 173 1
233 173 1
238 173 1
111 174 1
114 174 1
182 174 1
186 174 1
217 174 1
222 174 1
234 174 1
239 174 1
112 175 1
115 175 1
183 175 1
187 175 1
218 175 1
223 175 1
235 175 1
240 175 1
113 176 1
116 176 1
184 176 1
188 176 1
219 176 1
224 176 1
229 176 1
236 176 1
114 177 1
117 177 1
185 177 1
189 177 1
220 177 1
225 177 1
230 177 1
237 177 1
115 178 1
118 178 1
186 178 1
190 178 1
221 178 1
226 178 1
231 178 1
238 178 1
116 179 1
119 179 1
187 179 1
191 179 1
222 179 1
227 179 1
232 179 1
239 179 1
117 180 1
120 180 1
188 180 1
192 180 1
223 180 1
228 180 1
233 180 1
240 180 1
1 181 1
11 181 1
241 181 1
246 181 1
253 181 1
256 181 1
265 181 1
266 181 1
2 182 1
12 182 1
242 182 1
247 182 1
254 182 1
257 182 1
266 182 1
267 182 1
1 183 1
3 183 1
243 183 1
248 183 1
255 183 1
258 183 1
267 183 1
268 183 1
2 184 1
4 184 1
244 184 1
249 184 1
256 184 1
259 184 1
268 184 1
269 184 1
3 185 1
5 185 1
245 185 1
250 185 1
257 185 1
260 185 1
269 185 1
270 185 1
4 186 1
6 186 1
246 186 1
251 186 1
258 186 1
261 186 1
270 186 1
271 186 1
5 187 1
7 187 1
247 187 1
252 187 1
259 187 1
262 187 1
271 187 1
272 187 1
6 188 1
8 188 1
241 188 1
248 188 1
260 188 1
263 188 1
272 188 1
273 188 1
7 189 1
9 189 1
242 189 1
249 189 1
261 189 1
264 189 1
273 189 1
274 189 1
8 190 1
10 190 1
243 190 1
250 190 1
253 190 1
262 190 1
274 190 1
275 190 1
9 191 1
11 191 1
244 191 1
251 191 1
254 191 1
263 191 1
275 191 1
276 191 1
10 192 1
12 192 1
245 192 1
252 192 1
255 192 1
264 192 1
265 192 1
276 192 1
13 193 1
23 193 1
241 193 1
248 193 1
277 193 1
280 193 1
289 193 1
290 193 1
14 194 1
24 194 1
242 194 1
249 194 1
278 194 1
281 194 1
290 194 1
291 194 1
13 195 1
15 195 1
243 195 1
250 195 1
279 195 1
282 195 1
291 195 1
292 195 1
14 196 1
16 196 1
244 196 1
251 196 1
280 196 1
283 196 1
292 196 1
293 196 1
15 197 1
17 197 1
245 197 1
252 197 1
281 197 1
284 197 1
293 197 1
294 197 1
16 198 1
18 198 1
241 198 1
246 198 1
282 198 1
285 198 1
294 198 1
295 198 1
17 199 1
19 199 1
242 199 1
247 199 1
283 199 1
286 199 1
295 199 1
296 199 1
18 200 1
20 200 1
243 200 1
248 200 1
284 200 1
287 200 1
296 200 1
297 200 1
19 201 1
21 201 1
244 201 1
249 201 1
285 201 1
288 201 1
297 201 1
298 201 1
20 202 1
22 202 1
245 202 1
250 202 1
277 202 1
286 202 1
298 202 1
299 202 1
21 203 1
23 203 1
246 203 1
251 203 1
278 203 1
287 203 1
299 203 1
300 203 1
22 204 1
24 204 1
247 204 1
252 204 1
279 204 1
288 204 1
289 204 1
300 204 1
25 205 1
35 205 1
253 205 1
260 205 1
277 205 1
282 205 1
301 205 1
302 205 1
26 206 1
36 206 1
254 206 1
261 206 1
278 206 1
283 206 1
302 206 1
303 206 1
25 207 1
27 207 1
255 207 1
262 207 1
279 207 1
284 207 1
303 207 1
304 207 1
26 208 1
28 208 1
256 208 1
263 208 1
280 208 1
285 208 1
304 208 1
305 208 1
27 209 1
29 209 1
257 209 1
264 209 1
281 209 1
286 209 1
305 209 1
306 209 1
28 210 1
30 210 1
253 210 1
258 210 1
282 210 1
287 210 1
306 210 1
307 210 1
29 211 1
31 211 1
254 211 1
259 211 1
283 211 1
288 211 1
307 211 1
308 211 1
30 212 1
32 212 1
255 212 1
260 212 1
277 212 1
284 212 1
308 212 1
309 212 1
31 213 1
33 213 1
256 213 1
261 213 1
278 213 1
285 213 1
309 213 1
310 213 1
32 214 1
34 214 1
257 214 1
262 214 1
279 214 1
286 214 1
310 214 1
311 214 1
33 215 1
35 215 1
258 215 1
263 215 1
280 215 1
287 215 1
311 215 1
312 215 1
34 216 1
36 216 1
259 216 1
264 216 1
281 216 1
288 216 1
301 216 1
312 216 1
37 217 1
47 217 1
265 217 1
272 217 1
289 217 1
294 217 1
301 217 1
304 217 1
38 218 1
48 218 1
266 218 1
273 218 1
290 218 1
295 218 1
302 218 1
305 218 1
37 219 1
39 219 1
267 219 1
274 219 1
291 219 1
296 219 1
303 219 1
306 219 1
38 220 1
40 220 1
268 220 1
275 220 1
292 220 1
297 220 1
304 220 1
307 220 1
39 221 1
41 221 1
269 221 1
276 221 1
293 221 1
298 221 1
305 221 1
308 221 1
40 222 1
42 222 1
265 222 1
270 222 1
294 222 1
299 222 1
306 222 1
309 222 1
41 223 1
43 223 1
266 223 1
271 223 1
295 223 1
300 223 1
307 223 1
310 223 1
42 224 1
44 224 1
267 224 1
272 224 1
289 224 1
296 224 1
308 224 1
311 224 1
43 225 1
45 225 1
268 225 1
273 225 1
290 225 1
297 225 1
309 225 1
312 225 1
44 226 1
46 226 1
269 226 1
274 226 1
291 226 1
298 226 1
301 226 1
310 226 1
45 227 1
47 227 1
270 227 1
275 227 1
292 227 1
299 227 1
302 227 1
311 227 1
46 228 1
48 228 1
271 228 1
276 228 1
293 228 1
300 228 1
303 228 1
312 228 1
49 229 1
59 229 1
241 229 1
249 229 1
313 229 1
316 229 1
325 229 1
326 229 1
50 230 1
60 230 1
242 230 1
250 230 1
314 230 1
317 230 1
326 230 1
327 230 1
49 231 1
51 231 1
243 231 1
251 231 1
315 231 1
318 231 1
327 231 1
328 231 1
50 232 1
52 232 1
244 232 1
252 232 1
316 232 1
319 232 1
328 232 1
329 232 1
51 233 1
53 233 1
241 233 1
245 233 1
317 233 1
320 233 1
329 233 1
330 233 1
52 234 1
54 234 1
242 234 1
246 234 1
318 234 1
321 234 1
330 234 1
331 234 1
53 235 1
55 235 1
243 235 1
247 235 1
319 235 1
322 235 1
331 235 1
332 235 1
54 236 1
56 236 1
244 236 1
248 236 1
320 236 1
323 236 1
332 236 1
333 236 1
55 237 1
57 237 1
245 237 1
249 237 1
321 237 1
324 237 1
333 237 1
334 237 1
56 238 1
58 238 1
246 238 1
250 238 1
313 238 1
322 238 1
334 238 1
335 238 1
57 239 1
59 239 1
247 239 1
251 239 1
314 239 1
323 239 1
335 239 1
336 239 1
58 240 1
60 240 1
248 240 1
252 240 1
315 240 1
324 240 1
325 240 1
336 240 1
61 241 1
71 241 1
253 241 1
261 241 1
313 241 1
318 241 1
337 241 1
338 241 1
62 242 1
72 242 1
254 242 1
262 242 1
314 242 1
319 242 1
338 242 1
339 242 1
61 243 1
63 243 1
255 243 1
263 243 1
315 243 1
320 243 1
339 243 1
340 243 1
62 244 1
64 244 1
256 244 1
264 244 1
316 244 1
321 244 1
340 244 1
341 244 1
63 245 1
65 245 1
253 245 1
257 245 1
317 245 1
322 245 1
341 245 1
342 245 1
64 246 1
66 246 1
254 246 1
258 246 1
318 246 1
323 246 1
342 246 1
343 246 1
65 247 1
67 247 1
255 247 1
259 247 1
319 247 1
324 247 1
343 247 1
344 247 1
66 248 1
68 248 1
256 248 1
260 248 1
313 248 1
320 248 1
344 248 1
345 248 1
67 249 1
69 249 1
257 249 1
261 249 1
314 249 1
321 249 1
345 249 1
346 249 1
68 250 1
70 250 1
258 250 1
262 250 1
315 250 1
322 250 1
346 250 1
347 250 1
69 251 1
71 251 1
259 251 1
263 251 1
316 251 1
323 251 1
347 251 1
348 251 1
70 252 1
72 252 1
260 252 1
264 252 1
317 252 1
324 252 1
337 252 1
348 252 1
73 253 1
83 253 1
265 253 1
273 253 1
325 253 1
330 253 1
337 253 1
340 253 1
74 254 1
84 254 1
266 254 1
274 254 1
326 254 1
331 254 1
338 254 1
341 254 1
73 255 1
75 255 1
267 255 1
275 255 1
327 255 1
332 255 1
339 255 1
342 255 1
74 256 1
76 256 1
268 256 1
276 256 1
328 256 1
333 256 1
340 256 1
343 256 1
75 257 1
77 257 1
265 257 1
269 257 1
329 257 1
334 257 1
341 257 1
344 257 1
76 258 1
78 258 1
266 258 1
270 258 1
330 258 1
335 258 1
342 258 1
345 258 1
77 259 1
79 259 1
267 259 1
271 259 1
331 259 1
336 259 1
343 259 1
346 259 1
78 260 1
80 260 1
268 260 1
272 260 1
325 260 1
332 260 1
344 260 1
347 260 1
79 261 1
81 261 1
269 261 1
273 261 1
326 261 1
333 261 1
345 261 1
348 261 1
80 262 1
82 262 1
270 262 1
274 262 1
327 262 1
334 262 1
337 262 1
346 262 1
81 263 1
83 263 1
271 263 1
275 263 1
328 263 1
335 263 1
338 263 1
347 263 1
82 264 1
84 264 1
272 264 1
276 264 1
329 264 1
336 264 1
339 264 1
348 264 1
85 265 1
95 265 1
277 265 1
285 265 1
313 265 1
320 265 1
349 265 1
350 265 1
86 266 1
96 266 1
278 266 1
286 266 1
314 266 1
321 266 1
350 266 1
351 266 1
85 267 1
87 267 1
279 267 1
287 267 1
315 267 1
322 267 1
351 267 1
352 267 1
86 268 1
88 268 1
280 268 1
288 268 1
316 268 1
323 268 1
352 268 1
353 268 1
87 269 1
89 269 1
277 269 1
281 269 1
317 269 1
324 269 1
353 269 1
354 269 1
88 270 1
90 270 1
278 270 1
282 270 1
313 270 1
318 270 1
354 270 1
355 270 1
89 271 1
91 271 1
279 271 1
283 271 1
314 271 1
319 271 1
355 271 1
356 271 1
90 272 1
92 272 1
280 272 1
284 272 1
315 272 1
320 272 1
356 272 1
357 272 1
91 273 1
93 273 1
281 273 1
285 273 1
316 273 1
321 273 1
357 273 1
358 273 1
92 274 1
94 274 1
282 274 1
286 274 1
317 274 1
322 274 1
358 274 1
359 274 1
93 275 1
95 275 1
283 275 1
287 275 1
318 275 1
323 275 1
359 275 1
360 275 1
94 276 1
96 276 1
284 276 1
288 276 1
319 276 1
324 276 1
349 276 1
360 276 1
97 277 1
107 277 1
289 277 1
297 277 1
325 277 1
332 277 1
349 277 1
352 277 1
98 278 1
108 278 1
290 278 1
298 278 1
326 278 1
333 278 1
350 278 1
353 278 1
97 279 1
99 279 1
291 279 1
299 279 1
327 279 1
334 279 1
351 279 1
354 279 1
98 280 1
100 280 1
292 280 1
300 280 1
328 280 1
335 280 1
352 280 1
355 280 1
99 281 1
101 281 1
289 281 1
293 281 1
329 281 1
336 281 1
353 281 1
356 281 1
100 282 1
102 282 1
290 282 1
294 282 1
325 282 1
330 282 1
354 282 1
357 282 1
101 283 1
103 283 1
291 283 1
295 283 1
326 283 1
331 283 1
355 283 1
358 283 1
102 284 1
104 284 1
292 284 1
296 284 1
327 284 1
332 284 1
356 284 1
359 284 1
103 285 1
105 285 1
293 285 1
297 285 1
328 285 1
333 285 1
357 285 1
360 285 1
104 286 1
106 286 1
294 286 1
298 286 1
329 286 1
334 286 1
349 286 1
358 286 1
105 287 1
107 287 1
295 287 1
299 287 1
330 287 1
335 287 1
350 287 1
359 287 1
106 288 1
108 288 1
296 288 1
300 288 1
331 288 1
336 288 1
351 288 1
360 288 1
109 289 1
119 289 1
301 289 1
309 289 1
337 289 1
344 289 1
349 289 1
354 289 1
110 290 1
120 290 1
302 290 1
310 290 1
338 290 1
345 290 1
350 290 1
355 290 1
109 291 1
111 291 1
303 291 1
311 291 1
339 291 1
346 291 1
351 291 1
356 291 1
110 292 1
112 292 1
304 292 1
312 292 1
340 292 1
347 292 1
352 292 1
357 292 1
111 293 1
113 293 1
301 293 1
305 293 1
341 293 1
348 293 1
353 293 1
358 293 1
112 294 1
114 294 1
302 294 1
306 294 1
337 294 1
342 294 1
354 294 1
359 294 1
113 295 1
115 295 1
303 295 1
307 295 1
338 295 1
343 295 1
355 295 1
360 295 1
114 296 1
116 296 1
304 296 1
308 296 1
339 296 1
344 296 1
349 296 1
356 296 1
115 297 1
117 297 1
305 297 1
309 297 1
340 297 1
345 297 1
350 297 1
357 297 1
116 298 1
118 298 1
306 298 1
310 298 1
341 298 1
346 298 1
351 298 1
358 298 1
117 299 1
119 299 1
307 299 1
311 299 1
342 299 1
347 299 1
352 299 1
359 299 1
118 300 1
120 300 1
308 300 1
312 300 1
343 300 1
348 300 1
353 300 1
360 300 1
121 301 1
131 301 1
241 301 1
250 301 1
361 301 1
364 301 1
373 301 1
374 301 1
122 302 1
132 302 1
242 302 1
251 302 1
362 302 1
365 302 1
374 302 1
375 302 1
121 303 1
123 303 1
243 303 1
252 303 1
363 303 1
366 303 1
375 303 1
376 303 1
122 304 1
124 304 1
241 304 1
244 304 1
364 304 1
367 304 1
376 304 1
377 304 1
123 305 1
125 305 1
242 305 1
245 305 1
365 305 1
368 305 1
377 305 1
378 305 1
124 306 1
126 306 1
243 306 1
246 306 1
366 306 1
369 306 1
378 306 1
379 306 1
125 307 1
127 307 1
244 307 1
247 307 1
367 307 1
370 307 1
379 307 1
380 307 1
126 308 1
128 308 1
245 308 1
248 308 1
368 308 1
371 308 1
380 308 1
381 308 1
127 309 1
129 309 1
246 309 1
249 309 1
369 309 1
372 309 1
381 309 1
382 309 1
128 310 1
130 310 1
247 310 1
250 310 1
361 310 1
370 310 1
382 310 1
383 310 1
129 311 1
131 311 1
248 311 1
251 311 1
362 311 1
371 311 1
383 311 1
384 311 1
130 312 1
132 312 1
249 312 1
252 312 1
363 312 1
372 312 1
373 312 1
384 312 1
133 313 1
143 313 1
253 313 1
262 313 1
361 313 1
366 313 1
385 313 1
386 313 1
134 314 1
144 314 1
254 314 1
263 314 1
362 314 1
367 314 1
386 314 1
387 314 1
133 315 1
135 315 1
255 315 1
264 315 1
363 315 1
368 315 1
387 315 1
388 315 1
134 316 1
136 316 1
253 316 1
256 316 1
364 316 1
369 316 1
388 316 1
389 316 1
135 317 1
137 317 1
254 317 1
257 317 1
365 317 1
370 317 1
389 317 1
390 317 1
136 318 1
138 318 1
255 318 1
258 318 1
366 318 1
371 318 1
390 318 1
391 318 1
137 319 1
139 319 1
256 319 1
259 319 1
367 319 1
372 319 1
391 319 1
392 319 1
138 320 1
140 320 1
257 320 1
260 320 1
361 320 1
368 320 1
392 320 1
393 320 1
139 321 1
141 321 1
258 321 1
261 321 1
362 321 1
369 321 1
393 321 1
394 321 1
140 322 1
142 322 1
259 322 1
262 322 1
363 322 1
370 322 1
394 322 1
395 322 1
141 323 1
143 323 1
260 323 1
263 323 1
364 323 1
371 323 1
395 323 1
396 323 1
142 324 1
144 324 1
261 324 1
264 324 1
365 324 1
372 324 1
385 324 1
396 324 1
145 325 1
155 325 1
265 325 1
274 325 1
373 325 1
378 325 1
385 325 1
388 325 1
146 326 1
156 326 1
266 326 1
275 326 1
374 326 1
379 326 1
386 326 1
389 326 1
145 327 1
147 327 1
267 327 1
276 327 1
375 327 1
380 327 1
387 327 1
390 327 1
146 328 1
148 328 1
265 328 1
268 328 1
376 328 1
381 328 1
388 328 1
391 328 1
147 329 1
149 329 1
266 329 1
269 329 1
377 329 1
382 329 1
389 329 1
392 329 1
148 330 1
150 330 1
267 330 1
270 330 1
378 330 1
383 330 1
390 330 1
393 330 1
149 331 1
151 331 1
268 331 1
271 331 1
379 331 1
384 331 1
391 331 1
394 331 1
150 332 1
152 332 1
269 332 1
272 332 1
373 332 1
380 332 1
392 332 1
395 332 1
151 333 1
153 333 1
270 333 1
273 333 1
374 333 1
381 333 1
393 333 1
396 333 1
152 334 1
154 334 1
271 334 1
274 334 1
375 334 1
382 334 1
385 334 1
394 334 1
153 335 1
155 335 1
272 335 1
275 335 1
376 335 1
383 335 1
386 335 1
395 335 1
154 336 1
156 336 1
273 336 1
276 336 1
377 336 1
384 336 1
387 336 1
396 336 1
157 337 1
167 337 1
277 337 1
286 337 1
361 337 1
368 337 1
397 337 1
398 337 1
158 338 1
168 338 1
278 338 1
287 338 1
362 338 1
369 338 1
398 338 1
399 338 1
157 339 1
159 339 1
279 339 1
288 339 1
363 339 1
370 339 1
399 339 1
400 339 1
158 340 1
160 340 1
277 340 1
280 340 1
364 340 1
371 340 1
400 340 1
401 340 1
159 341 1
161 341 1
278 341 1
281 341 1
365 341 1
372 341 1
401 341 1
402 341 1
160 342 1
162 342 1
279 342 1
282 342 1
361 342 1
366 342 1
402 342 1
403 342 1
161 343 1
163 343 1
280 343 1
283 343 1
362 343 1
367 343 1
403 343 1
404 343 1
162 344 1
164 344 1
281 344 1
284 344 1
363 344 1
368 344 1
404 344 1
405 344 1
163 345 1
165 345 1
282 345 1
285 345 1
364 345 1
369 345 1
405 345 1
406 345 1
164 346 1
166 346 1
283 346 1
286 346 1
365 346 1
370 346 1
406 346 1
407 346 1
165 347 1
167 347 1
284 347 1
287 347 1
366 347 1
371 347 1
407 347 1
408 347 1
166 348 1
168 348 1
285 348 1
288 348 1
367 348 1
372 348 1
397 348 1
408 348 1
169 349 1
179 349 1
289 349 1
298 349 1
373 349 1
380 349 1
397 349 1
400 349 1
170 350 1
180 350 1
290 350 1
299 350 1
374 350 1
381 350 1
398 350 1
401 350 1
169 351 1
171 351 1
291 351 1
300 351 1
375 351 1
382 351 1
399 351 1
402 351 1
170 352 1
172 352 1
289 352 1
292 352 1
376 352 1
383 352 1
400 352 1
403 352 1
171 353 1
173 353 1
290 353 1
293 353 1
377 353 1
384 353 1
401 353 1
404 353 1
172 354 1
174 354 1
291 354 1
294 354 1
373 354 1
378 354 1
402 354 1
405 354 1
173 355 1
175 355 1
292 355 1
295 355 1
374 355 1
379 355 1
403 355 1
406 355 1
174 356 1
176 356 1
293 356 1
296 356 1
375 356 1
380 356 1
404 356 1
407 356 1
175 357 1
177 357 1
294 357 1
297 357 1
376 357 1
381 357 1
405 357 1
408 357 1
176 358 1
178 358 1
295 358 1
298 358 1
377 358 1
382 358 1
397 358 1
406 358 1
177 359 1
179 359 1
296 359 1
299 359 1
378 359 1
383 359 1
398 359 1
407 359 1
178 360 1
180 360 1
297 360 1
300 360 1
379 360 1
384 360 1
399 360 1
408 360 1
181 361 1
191 361 1
301 361 1
310 361 1
385 361 1
392 361 1
397 361 1
402 361 1
182 362 1
192 362 1
302 362 1
311 362 1
386 362 1
393 362 1
398 362 1
403 362 1
181 363 1
183 363 1
303 363 1
312 363 1
387 363 1
394 363 1
399 363 1
404 363 1
182 364 1
184 364 1
301 364 1
304 364 1
388 364 1
395 364 1
400 364 1
405 364 1
183 365 1
185 365 1
302 365 1
305 365 1
389 365 1
396 365 1
401 365 1
406 365 1
184 366 1
186 366 1
303 366 1
306 366 1
385 366 1
390 366 1
402 366 1
407 366 1
185 367 1
187 367 1
304 367 1
307 367 1
386 367 1
391 367 1
403 367 1
408 367 1
186 368 1
188 368 1
305 368 1
308 368 1
387 368 1
392 368 1
397 368 1
404 368 1
187 369 1
189 369 1
306 369 1
309 369 1
388 369 1
393 369 1
398 369 1
405 369 1
188 370 1
190 370 1
307 370 1
310 370 1
389 370 1
394 370 1
399 370 1
406 370 1
189 371 1
191 371 1
308 371 1
311 371 1
390 371 1
395 371 1
400 371 1
407 371 1
190 372 1
192 372 1
309 372 1
312 372 1
391 372 1
396 372 1
401 372 1
408 372 1
193 373 1
203 373 1
313 373 1
322 373 1
361 373 1
369 373 1
409 373 1
410 373 1
194 374 1
204 374 1
314 374 1
323 374 1
362 374 1
370 374 1
410 374 1
411 374 1
193 375 1
195 375 1
315 375 1
324 375 1
363 375 1
371 375 1
411 375 1
412 375 1
194 376 1
196 376 1
313 376 1
316 376 1
364 376 1
372 376 1
412 376 1
413 376 1
195 377 1
197 377 1
314 377 1
317 377 1
361 377 1
365 377 1
413 377 1
414 377 1
196 378 1
198 378 1
315 378 1
318 378 1
362 378 1
366 378 1
414 378 1
415 378 1
197 379 1
199 379 1
316 379 1
319 379 1
363 379 1
367 379 1
415 379 1
416 379 1
198 380 1
200 380 1
317 380 1
320 380 1
364 380 1
368 380 1
416 380 1
417 380 1
199 381 1
201 381 1
318 381 1
321 381 1
365 381 1
369 381 1
417 381 1
418 381 1
200 382 1
202 382 1
319 382 1
322 382 1
366 382 1
370 382 1
418 382 1
419 382 1
201 383 1
203 383 1
320 383 1
323 383 1
367 383 1
371 383 1
419 383 1
420 383 1
202 384 1
204 384 1
321 384 1
324 384 1
368 384 1
372 384 1
409 384 1
420 384 1
205 385 1
215 385 1
325 385 1
334 385 1
373 385 1
381 385 1
409 385 1
412 385 1
206 386 1
216 386 1
326 386 1
335 386 1
374 386 1
382 386 1
410 386 1
413 386 1
205 387 1
207 387 1
327 387 1
336 387 1
375 387 1
383 387 1
411 387 1
414 387 1
206 388 1
208 388 1
325 388 1
328 388 1
376 388 1
384 388 1
412 388 1
415 388 1
207 389 1
209 389 1
326 389 1
329 389 1
373 389 1
377 389 1
413 389 1
416 389 1
208 390 1
210 390 1
327 390 1
330 390 1
374 390 1
378 390 1
414 390 1
417 390 1
209 391 1
211 391 1
328 391 1
331 391 1
375 391 1
379 391 1
415 391 1
418 391 1
210 392 1
212 392 1
329 392 1
332 392 1
376 392 1
380 392 1
416 392 1
419 392 1
211 393 1
213 393 1
330 393 1
333 393 1
377 393 1
381 393 1
417 393 1
420 393 1
212 394 1
214 394 1
331 394 1
334 394 1
378 394 1
382 394 1
409 394 1
418 394 1
213 395 1
215 395 1
332 395 1
335 395 1
379 395 1
383 395 1
410 395 1
419 395 1
214 396 1
216 396 1
333 396 1
336 396 1
380 396 1
384 396 1
411 396 1
420 396 1
217 397 1
227 397 1
337 397 1
346 397 1
385 397 1
393 397 1
409 397 1
414 397 1
218 398 1
228 398 1
338 398 1
347 398 1
386 398 1
394 398 1
410 398 1
415 398 1
217 399 1
219 399 1
339 399 1
348 399 1
387 399 1
395 399 1
411 399 1
416 399 1
218 400 1
220 400 1
337 400 1
340 400 1
388 400 1
396 400 1
412 400 1
417 400 1
219 401 1
221 401 1
338 401 1
341 401 1
385 401 1
389 401 1
413 401 1
418 401 1
220 402 1
222 402 1
339 402 1
342 402 1
386 402 1
390 402 1
414 402 1
419 402 1
221 403 1
223 403 1
340 403 1
343 403 1
387 403 1
391 403 1
415 403 1
420 403 1
222 404 1
224 404 1
341 404 1
344 404 1
388 404 1
392 404 1
409 404 1
416 404 1
223 405 1
225 405 1
342 405 1
345 405 1
389 405 1
393 405 1
410 405 1
417 405 1
224 406 1
226 406 1
343 406 1
346 406 1
390 406 1
394 406 1
411 406 1
418 406 1
225 407 1
227 407 1
344 407 1
347 407 1
391 407 1
395 407 1
412 407 1
419 407 1
226 408 1
228 408 1
345 408 1
348 408 1
392 408 1
396 408 1
413 408 1
420 408 1
229 409 1
239 409 1
349 409 1
358 409 1
397 409 1
405 409 1
409 409 1
416 409 1
230 410 1
240 410 1
350 410 1
359 410 1
398 410 1
406 410 1
410 410 1
417 410 1
229 411 1
231 411 1
351 411 1
360 411 1
399 411 1
407 411 1
411 411 1
418 411 1
230 412 1
232 412 1
349 412 1
352 412 1
400 412 1
408 412 1
412 412 1
419 412 1
231 413 1
233 413 1
350 413 1
353 413 1
397 413 1
401 413 1
413 413 1
420 413 1
232 414 1
234 414 1
351 414 1
354 414 1
398 414 1
402 414 1
409 414 1
414 414 1
233 415 1
235 415 1
352 415 1
355 415 1
399 415 1
403 415 1
410 415 1
415 415 1
234 416 1
236 416 1
353 416 1
356 416 1
400 416 1
404 416 1
411 416 1
416 416 1
235 417 1
237 417 1
354 417 1
357 417 1
401 417 1
405 417 1
412 417 1
417 417 1
236 418 1
238 418 1
355 418 1
358 418 1
402 418 1
406 418 1
413 418 1
418 418 1
237 419 1
239 419 1
356 419 1
359 419 1
403 419 1
407 419 1
414 419 1
419 419 1
238 420 1
240 420 1
357 420 1
360 420 1
404 420 1
408 420 1
415 420 1
420 420 1
1 421 1
12 421 1
421 421 1
426 421 1
433 421 1
436 421 1
445 421 1
446 421 1
1 422 1
2 422 1
422 422 1
427 422 1
434 422 1
437 422 1
446 422 1
447 422 1
2 423 1
3 423 1
423 423 1
428 423 1
435 423 1
438 423 1
447 423 1
448 423 1
3 424 1
4 424 1
424 424 1
429 424 1
436 424 1
439 424 1
448 424 1
449 424 1
4 425 1
5 425 1
425 425 1
430 425 1
437 425 1
440 425 1
449 425 1
450 425 1
5 426 1
6 426 1
426 426 1
431 426 1
438 426 1
441 426 1
450 426 1
451 426 1
6 427 1
7 427 1
427 427 1
432 427 1
439 427 1
442 427 1
451 427 1
452 427 1
7 428 1
8 428 1
421 428 1
428 428 1
440 428 1
443 428 1
452 428 1
453 428 1
8 429 1
9 429 1
422 429 1
429 429 1
441 429 1
444 429 1
453 429 1
454 429 1
9 430 1
10 430 1
423 430 1
430 430 1
433 430 1
442 430 1
454 430 1
455 430 1
10 431 1
11 431 1
424 431 1
431 431 1
434 431 1
443 431 1
455 431 1
456 431 1
11 432 1
12 432 1
425 432 1
432 432 1
435 432 1
444 432 1
445 432 1
456 432 1
13 433 1
24 433 1
421 433 1
428 433 1
457 433 1
460 433 1
469 433 1
470 433 1
13 434 1
14 434 1
422 434 1
429 434 1
458 434 1
461 434 1
470 434 1
471 434 1
14 435 1
15 435 1
423 435 1
430 435 1
459 435 1
462 435 1
471 435 1
472 435 1
15 436 1
16 436 1
424 436 1
431 436 1
460 436 1
463 436 1
472 436 1
473 436 1
16 437 1
17 437 1
425 437 1
432 437 1
461 437 1
464 437 1
473 437 1
474 437 1
17 438 1
18 438 1
421 438 1
426 438 1
462 438 1
465 438 1
474 438 1
475 438 1
18 439 1
19 439 1
422 439 1
427 439 1
463 439 1
466 439 1
475 439 1
476 439 1
19 440 1
20 440 1
423 440 1
428 440 1
464 440 1
467 440 1
476 440 1
477 440 1
20 441 1
21 441 1
424 441 1
429 441 1
465 441 1
468 441 1
477 441 1
478 441 1
21 442 1
22 442 1
425 442 1
430 442 1
457 442 1
466 442 1
478 442 1
479 442 1
22 443 1
23 443 1
426 443 1
431 443 1
458 443 1
467 443 1
479 443 1
480 443 1
23 444 1
24 444 1
427 444 1
432 444 1
459 444 1
468 444 1
469 444 1
480 444 1
25 445 1
36 445 1
433 445 1
440 445 1
457 445 1
462 445 1
481 445 1
482 445 1
25 446 1
26 446 1
434 446 1
441 446 1
458 446 1
463 446 1
482 446 1
483 446 1
26 447 1
27 447 1
435 447 1
442 447 1
459 447 1
464 447 1
483 447 1
484 447 1
27 448 1
28 448 1
436 448 1
443 448 1
460 448 1
465 448 1
484 448 1
485 448 1
28 449 1
29 449 1
437 449 1
444 449 1
461 449 1
466 449 1
485 449 1
486 449 1
29 450 1
30 450 1
433 450 1
438 450 1
462 450 1
467 450 1
486 450 1
487 450 1
30 451 1
31 451 1
434 451 1
439 451 1
463 451 1
468 451 1
487 451 1
488 451 1
31 452 1
32 452 1
435 452 1
440 452 1
457 452 1
464 452 1
488 452 1
489 452 1
32 453 1
33 453 1
436 453 1
441 453 1
458 453 1
465 453 1
489 453 1
490 453 1
33 454 1
34 454 1
437 454 1
442 454 1
459 454 1
466 454 1
490 454 1
491 454 1
34 455 1
35 455 1
438 455 1
443 455 1
460 455 1
467 455 1
491 455 1
492 455 1
35 456 1
36 456 1
439 456 1
444 456 1
461 456 1
468 456 1
481 456 1
492 456 1
37 457 1
48 457 1
445 457 1
452 457 1
469 457 1
474 457 1
481 457 1
484 457 1
37 458 1
38 458 1
446 458 1
453 458 1
470 458 1
475 458 1
482 458 1
485 458 1
38 459 1
39 459 1
447 459 1
454 459 1
471 459 1
476 459 1
483 459 1
486 459 1
39 460 1
40 460 1
448 460 1
455 460 1
472 460 1
477 460 1
484 460 1
487 460 1
40 461 1
41 461 1
449 461 1
456 461 1
473 461 1
478 461 1
485 461 1
488 461 1
41 462 1
42 462 1
445 462 1
450 462 1
474 462 1
479 462 1
486 462 1
489 462 1
42 463 1
43 463 1
446 463 1
451 463 1
475 463 1
480 463 1
487 463 1
490 463 1
43 464 1
44 464 1
447 464 1
452 464 1
469 464 1
476 464 1
488 464 1
491 464 1
44 465 1
45 465 1
448 465 1
453 465 1
470 465 1
477 465 1
489 465 1
492 465 1
45 466 1
46 466 1
449 466 1
454 466 1
471 466 1
478 466 1
481 466 1
490 466 1
46 467 1
47 467 1
450 467 1
455 467 1
472 467 1
479 467 1
482 467 1
491 467 1
47 468 1
48 468 1
451 468 1
456 468 1
473 468 1
480 468 1
483 468 1
492 468 1
49 469 1
60 469 1
421 469 1
429 469 1
493 469 1
496 469 1
505 469 1
506 469 1
49 470 1
50 470 1
422 470 1
430 470 1
494 470 1
497 470 1
506 470 1
507 470 1
50 471 1
51 471 1
423 471 1
431 471 1
495 471 1
498 471 1
507 471 1
508 471 1
51 472 1
52 472 1
424 472 1
432 472 1
496 472 1
499 472 1
508 472 1
509 472 1
52 473 1
53 473 1
421 473 1
425 473 1
497 473 1
500 473 1
509 473 1
510 473 1
53 474 1
54 474 1
422 474 1
426 474 1
498 474 1
501 474 1
510 474 1
511 474 1
54 475 1
55 475 1
423 475 1
427 475 1
499 475 1
502 475 1
511 475 1
512 475 1
55 476 1
56 476 1
424 476 1
428 476 1
500 476 1
503 476 1
512 476 1
513 476 1
56 477 1
57 477 1
425 477 1
429 477 1
501 477 1
504 477 1
513 477 1
514 477 1
57 478 1
58 478 1
426 478 1
430 478 1
493 478 1
502 478 1
514 478 1
515 478 1
58 479 1
59 479 1
427 479 1
431 479 1
494 479 1
503 479 1
515 479 1
516 479 1
59 480 1
60 480 1
428 480 1
432 480 1
495 480 1
504 480 1
505 480 1
516 480 1
61 481 1
72 481 1
433 481 1
441 481 1
493 481 1
498 481 1
517 481 1
518 481 1
61 482 1
62 482 1
434 482 1
442 482 1
494 482 1
499 482 1
518 482 1
519 482 1
62 483 1
63 483 1
435 483 1
443 483 1
495 483 1
500 483 1
519 483 1
520 483 1
63 484 1
64 484 1
436 484 1
444 484 1
496 484 1
501 484 1
520 484 1
521 484 1
64 485 1
65 485 1
433 485 1
437 485 1
497 485 1
502 485 1
521 485 1
522 485 1
65 486 1
66 486 1
434 486 1
438 486 1
498 486 1
503 486 1
522 486 1
523 486 1
66 487 1
67 487 1
435 487 1
439 487 1
499 487 1
504 487 1
523 487 1
524 487 1
67 488 1
68 488 1
436 488 1
440 488 1
493 488 1
500 488 1
524 488 1
525 488 1
68 489 1
69 489 1
437 489 1
441 489 1
494 489 1
501 489 1
525 489 1
526 489 1
69 490 1
70 490 1
438 490 1
442 490 1
495 490 1
502 490 1
526 490 1
527 490 1
70 491 1
71 491 1
439 491 1
443 491 1
496 491 1
503 491 1
527 491 1
528 491 1
71 492 1
72 492 1
440 492 1
444 492 1
497 492 1
504 492 1
517 492 1
528 492 1
73 493 1
84 493 1
445 493 1
453 493 1
505 493 1
510 493 1
517 493 1
520 493 1
73 494 1
74 494 1
446 494 1
454 494 1
506 494 1
511 494 1
518 494 1
521 494 1
74 495 1
75 495 1
447 495 1
455 495 1
507 495 1
512 495 1
519 495 1
522 495 1
75 496 1
76 496 1
448 496 1
456 496 1
508 496 1
513 496 1
520 496 1
523 496 1
76 497 1
77 497 1
445 497 1
449 497 1
509 497 1
514 497 1
521 497 1
524 497 1
77 498 1
78 498 1
446 498 1
450 498 1
510 498 1
515 498 1
522 498 1
525 498 1
78 499 1
79 499 1
447 499 1
451 499 1
511 499 1
516 499 1
523 499 1
526 499 1
79 500 1
80 500 1
448 500 1
452 500 1
505 500 1
512 500 1
524 500 1
527 500 1
80 501 1
81 501 1
449 501 1
453 501 1
506 501 1
513 501 1
525 501 1
528 501 1
81 502 1
82 502 1
450 502 1
454 502 1
507 502 1
514 502 1
517 502 1
526 502 1
82 503 1
83 503 1
451 503 1
455 503 1
508 503 1
515 503 1
518 503 1
527 503 1
83 504 1
84 504 1
452 504 1
456 504 1
509 504 1
516 504 1
519 504 1
528 504 1
85 505 1
96 505 1
457 505 1
465 505 1
493 505 1
500 505 1
529 505 1
530 505 1
85 506 1
86 506 1
458 506 1
466 506 1
494 506 1
501 506 1
530 506 1
531 506 1
86 507 1
87 507 1
459 507 1
467 507 1
495 507 1
502 507 1
531 507 1
532 507 1
87 508 1
88 508 1
460 508 1
468 508 1
496 508 1
503 508 1
532 508 1
533 508 1
88 509 1
89 509 1
457 509 1
461 509 1
497 509 1
504 509 1
533 509 1
534 509 1
89 510 1
90 510 1
458 510 1
462 510 1
493 510 1
498 510 1
534 510 1
535 510 1
90 511 1
91 511 1
459 511 1
463 511 1
494 511 1
499 511 1
535 511 1
536 511 1
91 512 1
92 512 1
460 512 1
464 512 1
495 512 1
500 512 1
536 512 1
537 512 1
92 513 1
93 513 1
461 513 1
465 513 1
496 513 1
501 513 1
537 513 1
538 513 1
93 514 1
94 514 1
462 514 1
466 514 1
497 514 1
502 514 1
538 514 1
539 514 1
94 515 1
95 515 1
463 515 1
467 515 1
498 515 1
503 515 1
539 515 1
540 515 1
95 516 1
96 516 1
464 516 1
468 516 1
499 516 1
504 516 1
529 516 1
540 516 1
97 517 1
108 517 1
469 517 1
477 517 1
505 517 1
512 517 1
529 517 1
532 517 1
97 518 1
98 518 1
470 518 1
478 518 1
506 518 1
513 518 1
530 518 1
533 518 1
98 519 1
99 519 1
471 519 1
479 519 1
507 519 1
514 519 1
531 519 1
534 519 1
99 520 1
100 520 1
472 520 1
480 520 1
508 520 1
515 520 1
532 520 1
535 520 1
100 521 1
101 521 1
469 521 1
473 521 1
509 521 1
516 521 1
533 521 1
536 521 1
101 522 1
102 522 1
470 522 1
474 522 1
505 522 1
510 522 1
534 522 1
537 522 1
102 523 1
103 523 1
471 523 1
475 523 1
506 523 1
511 523 1
535 523 1
538 523 1
103 524 1
104 524 1
472 524 1
476 524 1
507 524 1
512 524 1
536 524 1
539 524 1
104 525 1
105 525 1
473 525 1
477 525 1
508 525 1
513 525 1
537 525 1
540 525 1
105 526 1
106 526 1
474 526 1
478 526 1
509 526 1
514 526 1
529 526 1
538 526 1
106 527 1
107 527 1
475 527 1
479 527 1
510 527 1
515 527 1
530 527 1
539 527 1
107 528 1
108 528 1
476 528 1
480 528 1
511 528 1
516 528 1
531 528 1
540 528 1
109 529 1
120 529 1
481 529 1
489 529 1
517 529 1
524 529 1
529 529 1
534 529 1
109 530 1
110 530 1
482 530 1
490 530 1
518 530 1
525 530 1
530 530 1
535 530 1
110 531 1
111 531 1
483 531 1
491 531 1
519 531 1
526 531 1
531 531 1
536 531 1
111 532 1
112 532 1
484 532 1
492 532 1
520 532 1
527 532 1
532 532 1
537 532 1
112 533 1
113 533 1
481 533 1
485 533 1
521 533 1
528 533 1
533 533 1
538 533 1
113 534 1
114 534 1
482 534 1
486 534 1
517 534 1
522 534 1
534 534 1
539 534 1
114 535 1
115 535 1
483 535 1
487 535 1
518 535 1
523 535 1
535 535 1
540 535 1
115 536 1
116 536 1
484 536 1
488 536 1
519 536 1
524 536 1
529 536 1
536 536 1
116 537 1
117 537 1
485 537 1
489 537 1
520 537 1
525 537 1
530 537 1
537 537 1
117 538 1
118 538 1
486 538 1
490 538 1
521 538 1
526 538 1
531 538 1
538 538 1
118 539 1
119 539 1
487 539 1
491 539 1
522 539 1
527 539 1
532 539 1
539 539 1
119 540 1
120 540 1
488 540 1
492 540 1
523 540 1
528 540 1
533 540 1
540 540 1
121 541 1
132 541 1
421 541 1
430 541 1
541 541 1
544 541 1
553 541 1
554 541 1
121 542 1
122 542 1
422 542 1
431 542 1
542 542 1
545 542 1
554 542 1
555 542 1
122 543 1
123 543 1
423 543 1
432 543 1
543 543 1
546 543 1
555 543 1
556 543 1
123 544 1
124 544 1
421 544 1
424 544 1
544 544 1
547 544 1
556 544 1
557 544 1
124 545 1
125 545 1
422 545 1
425 545 1
545 545 1
548 545 1
557 545 1
558 545 1
125 546 1
126 546 1
423 546 1
426 546 1
546 546 1
549 546 1
558 546 1
559 546 1
126 547 1
127 547 1
424 547 1
427 547 1
547 547 1
550 547 1
559 547 1
560 547 1
127 548 1
128 548 1
425 548 1
428 548 1
548 548 1
551 548 1
560 548 1
561 548 1
128 549 1
129 549 1
426 549 1
429 549 1
549 549 1
552 549 1
561 549 1
562 549 1
129 550 1
130 550 1
427 550 1
430 550 1
541 550 1
550 550 1
562 550 1
563 550 1
130 551 1
131 551 1
428 551 1
431 551 1
542 551 1
551 551 1
563 551 1
564 551 1
131 552 1
132 552 1
429 552 1
432 552 1
543 552 1
552 552 1
553 552 1
564 552 1
133 553 1
144 553 1
433 553 1
442 553 1
541 553 1
546 553 1
565 553 1
566 553 1
133 554 1
134 554 1
434 554 1
443 554 1
542 554 1
547 554 1
566 554 1
567 554 1
134 555 1
135 555 1
435 555 1
444 555 1
543 555 1
548 555 1
567 555 1
568 555 1
135 556 1
136 556 1
433 556 1
436 556 1
544 556 1
549 556 1
568 556 1
569 556 1
136 557 1
137 557 1
434 557 1
437 557 1
545 557 1
550 557 1
569 557 1
570 557 1
137 558 1
138 558 1
435 558 1
438 558 1
546 558 1
551 558 1
570 558 1
571 558 1
138 559 1
139 559 1
436 559 1
439 559 1
547 559 1
552 559 1
571 559 1
572 559 1
139 560 1
140 560 1
437 560 1
440 560 1
541 560 1
548 560 1
572 560 1
573 560 1
140 561 1
141 561 1
438 561 1
441 561 1
542 561 1
549 561 1
573 561 1
574 561 1
141 562 1
142 562 1
439 562 1
442 562 1
543 562 1
550 562 1
574 562 1
575 562 1
142 563 1
143 563 1
440 563 1
443 563 1
544 563 1
551 563 1
575 563 1
576 563 1
143 564 1
144 564 1
441 564 1
444 564 1
545 564 1
552 564 1
565 564 1
576 564 1
145 565 1
156 565 1
445 565 1
454 565 1
553 565 1
558 565 1
565 565 1
568 565 1
145 566 1
146 566 1
446 566 1
455 566 1
554 566 1
559 566 1
566 566 1
569 566 1
146 567 1
147 567 1
447 567 1
456 567 1
555 567 1
560 567 1
567 567 1
570 567 1
147 568 1
148 568 1
445 568 1
448 568 1
556 568 1
561 568 1
568 568 1
571 568 1
148 569 1
149 569 1
446 569 1
449 569 1
557 569 1
562 569 1
569 569 1
572 569 1
149 570 1
150 570 1
447 570 1
450 570 1
558 570 1
563 570 1
570 570 1
573 570 1
150 571 1
151 571 1
448 571 1
451 571 1
559 571 1
564 571 1
571 571 1
574 571 1
151 572 1
152 572 1
449 572 1
452 572 1
553 572 1
560 572 1
572 572 1
575 572 1
152 573 1
153 573 1
450 573 1
453 573 1
554 573 1
561 573 1
573 573 1
576 573 1
153 574 1
154 574 1
451 574 1
454 574 1
555 574 1
562 574 1
565 574 1
574 574 1
154 575 1
155 575 1
452 575 1
455 575 1
556 575 1
563 575 1
566 575 1
575 575 1
155 576 1
156 576 1
453 576 1
456 576 1
557 576 1
564 576 1
567 576 1
576 576 1
157 577 1
168 577 1
457 577 1
466 577 1
541 577 1
548 577 1
577 577 1
578 577 1
157 578 1
158 578 1
458 578 1
467 578 1
542 578 1
549 578 1
578 578 1
579 578 1
158 579 1
159 579 1
459 579 1
468 579 1
543 579 1
550 579 1
579 579 1
580 579 1
159 580 1
160 580 1
457 580 1
460 580 1
544 580 1
551 580 1
580 580 1
581 580 1
160 581 1
161 581 1
458 581 1
461 581 1
545 581 1
552 581 1
581 581 1
582 581 1
161 582 1
162 582 1
459 582 1
462 582 1
541 582 1
546 582 1
582 582 1
583 582 1
162 583 1
163 583 1
460 583 1
463 583 1
542 583 1
547 583 1
583 583 1
584 583 1
163 584 1
164 584 1
461 584 1
464 584 1
543 584 1
548 584 1
584 584 1
585 584 1
164 585 1
165 585 1
462 585 1
465 585 1
544 585 1
549 585 1
585 585 1
586 585 1
165 586 1
166 586 1
463 586 1
466 586 1
545 586 1
550 586 1
586 586 1
587 586 1
166 587 1
167 587 1
464 587 1
467 587 1
546 587 1
551 587 1
587 587 1
588 587 1
167 588 1
168 588 1
465 588 1
468 588 1
547 588 1
552 588 1
577 588 1
588 588 1
169 589 1
180 589 1
469 589 1
478 589 1
553 589 1
560 589 1
577 589 1
580 589 1
169 590 1
170 590 1
470 590 1
479 590 1
554 590 1
561 590 1
578 590 1
581 590 1
170 591 1
171 591 1
471 591 1
480 591 1
555 591 1
562 591 1
579 591 1
582 591 1
171 592 1
172 592 1
469 592 1
472 592 1
556 592 1
563 592 1
580 592 1
583 592 1
172 593 1
173 593 1
470 593 1
473 593 1
557 593 1
564 593 1
581 593 1
584 593 1
173 594 1
174 594 1
471 594 1
474 594 1
553 594 1
558 594 1
582 594 1
585 594 1
174 595 1
175 595 1
472 595 1
475 595 1
554 595 1
559 595 1
583 595 1
586 595 1
175 596 1
176 596 1
473 596 1
476 596 1
555 596 1
560 596 1
584 596 1
587 596 1
176 597 1
177 597 1
474 597 1
477 597 1
556 597 1
561 597 1
585 597 1
588 597 1
177 598 1
178 598 1
475 598 1
478 598 1
557 598 1
562 598 1
577 598 1
586 598 1
178 599 1
179 599 1
476 599 1
479 599 1
558 599 1
563 599 1
578 599 1
587 599 1
179 600 1
180 600 1
477 600 1
480 600 1
559 600 1
564 600 1
579 600 1
588 600 1
181 601 1
192 601 1
481 601 1
490 601 1
565 601 1
572 601 1
577 601 1
582 601 1
181 602 1
182 602 1
482 602 1
491 602 1
566 602 1
573 602 1
578 602 1
583 602 1
182 603 1
183 603 1
483 603 1
492 603 1
567 603 1
574 603 1
579 603 1
584 603 1
183 604 1
184 604 1
481 604 1
484 604 1
568 604 1
575 604 1
580 604 1
585 604 1
184 605 1
185 605 1
482 605 1
485 605 1
569 605 1
576 605 1
581 605 1
586 605 1
185 606 1
186 606 1
483 606 1
486 606 1
565 606 1
570 606 1
582 606 1
587 606 1
186 607 1
187 607 1
484 607 1
487 607 1
566 607 1
571 607 1
583 607 1
588 607 1
187 608 1
188 608 1
485 608 1
488 608 1
567 608 1
572 608 1
577 608 1
584 608 1
188 609 1
189 609 1
486 609 1
489 609 1
568 609 1
573 609 1
578 609 1
585 609 1
189 610 1
190 610 1
487 610 1
490 610 1
569 610 1
574 610 1
579 610 1
586 610 1
190 611 1
191 611 1
488 611 1
491 611 1
570 611 1
575 611 1
580 611 1
587 611 1
191 612 1
192 612 1
489 612 1
492 612 1
571 612 1
576 612 1
581 612 1
588 612 1
193 613 1
204 613 1
493 613 1
502 613 1
541 613 1
549 613 1
589 613 1
590 613 1
193 614 1
194 614 1
494 614 1
503 614 1
542 614 1
550 614 1
590 614 1
591 614 1
194 615 1
195 615 1
495 615 1
504 615 1
543 615 1
551 615 1
591 615 1
592 615 1
195 616 1
196 616 1
493 616 1
496 616 1
544 616 1
552 616 1
592 616 1
593 616 1
196 617 1
197 617 1
494 617 1
497 617 1
541 617 1
545 617 1
593 617 1
594 617 1
197 618 1
198 618 1
495 618 1
498 618 1
542 618 1
546 618 1
594 618 1
595 618 1
198 619 1
199 619 1
496 619 1
499 619 1
543 619 1
547 619 1
595 619 1
596 619 1
199 620 1
200 620 1
497 620 1
500 620 1
544 620 1
548 620 1
596 620 1
597 620 1
200 621 1
201 621 1
498 621 1
501 621 1
545 621 1
549 621 1
597 621 1
598 621 1
201 622 1
202 622 1
499 622 1
502 622 1
546 622 1
550 622 1
598 622 1
599 622 1
202 623 1
203 623 1
500 623 1
503 623 1
547 623 1
551 623 1
599 623 1
600 623 1
203 624 1
204 624 1
501 624 1
504 624 1
548 624 1
552 624 1
589 624 1
600 624 1
205 625 1
216 625 1
505 625 1
514 625 1
553 625 1
561 625 1
589 625 1
592 625 1
205 626 1
206 626 1
506 626 1
515 626 1
554 626 1
562 626 1
590 626 1
593 626 1
206 627 1
207 627 1
507 627 1
516 627 1
555 627 1
563 627 1
591 627 1
594 627 1
207 628 1
208 628 1
505 628 1
508 628 1
556 628 1
564 628 1
592 628 1
595 628 1
208 629 1
209 629 1
506 629 1
509 629 1
553 629 1
557 629 1
593 629 1
596 629 1
209 630 1
210 630 1
507 630 1
510 630 1
554 630 1
558 630 1
594 630 1
597 630 1
210 631 1
211 631 1
508 631 1
511 631 1
555 631 1
559 631 1
595 631 1
598 631 1
211 632 1
212 632 1
509 632 1
512 632 1
556 632 1
560 632 1
596 632 1
599 632 1
212 633 1
213 633 1
510 633 1
513 633 1
557 633 1
561 633 1
597 633 1
600 633 1
213 634 1
214 634 1
511 634 1
514 634 1
558 634 1
562 634 1
589 634 1
598 634 1
214 635 1
215 635 1
512 635 1
515 635 1
559 635 1
563 635 1
590 635 1
599 635 1
215 636 1
216 636 1
513 636 1
516 636 1
560 636 1
564 636 1
591 636 1
600 636 1
217 637 1
228 637 1
517 637 1
526 637 1
565 637 1
573 637 1
589 637 1
594 637 1
217 638 1
218 638 1
518 638 1
527 638 1
566 638 1
574 638 1
590 638 1
595 638 1
218 639 1
219 639 1
519 639 1
528 639 1
567 639 1
575 639 1
591 639 1
596 639 1
219 640 1
220 640 1
517 640 1
520 640 1
568 640 1
576 640 1
592 640 1
597 640 1
220 641 1
221 641 1
518 641 1
521 641 1
565 641 1
569 641 1
593 641 1
598 641 1
221 642 1
222 642 1
519 642 1
522 642 1
566 642 1
570 642 1
594 642 1
599 642 1
222 643 1
223 643 1
520 643 1
523 643 1
567 643 1
571 643 1
595 643 1
600 643 1
223 644 1
224 644 1
521 644 1
524 644 1
568 644 1
572 644 1
589 644 1
596 644 1
224 645 1
225 645 1
522 645 1
525 645 1
569 645 1
573 645 1
590 645 1
597 645 1
225 646 1
226 646 1
523 646 1
526 646 1
570 646 1
574 646 1
591 646 1
598 646 1
226 647 1
227 647 1
524 647 1
527 647 1
571 647 1
575 647 1
592 647 1
599 647 1
227 648 1
228 648 1
525 648 1
528 648 1
572 648 1
576 648 1
593 648 1
600 648 1
229 649 1
240 649 1
529 649 1
538 649 1
577 649 1
585 649 1
589 649 1
596 649 1
229 650 1
230 650 1
530 650 1
539 650 1
578 650 1
586 650 1
590 650 1
597 650 1
230 651 1
231 651 1
531 651 1
540 651 1
579 651 1
587 651 1
591 651 1
598 651 1
231 652 1
232 652 1
529 652 1
532 652 1
580 652 1
588 652 1
592 652 1
599 652 1
232 653 1
233 653 1
530 653 1
533 653 1
577 653 1
581 653 1
593 653 1
600 653 1
233 654 1
234 654 1
531 654 1
534 654 1
578 654 1
582 654 1
589 654 1
594 654 1
234 655 1
235 655 1
532 655 1
535 655 1
579 655 1
583 655 1
590 655 1
595 655 1
235 656 1
236 656 1
533 656 1
536 656 1
580 656 1
584 656 1
591 656 1
596 656 1
236 657 1
237 657 1
534 657 1
537 657 1
581 657 1
585 657 1
592 657 1
597 657 1
237 658 1
238 658 1
535 658 1
538 658 1
582 658 1
586 658 1
593 658 1
598 658 1
238 659 1
239 659 1
536 659 1
539 659 1
583 659 1
587 659 1
594 659 1
599 659 1
239 660 1
240 660 1
537 660 1
540 660 1
584 660 1
588 660 1
595 660 1
600 660 1
241 661 1
252 661 1
421 661 1
431 661 1
601 661 1
604 661 1
613 661 1
614 661 1
241 662 1
242 662 1
422 662 1
432 662 1
602 662 1
605 662 1
614 662 1
615 662 1
242 663 1
243 663 1
421 663 1
423 663 1
603 663 1
606 663 1
615 663 1
616 663 1
243 664 1
244 664 1
422 664 1
424 664 1
604 664 1
607 664 1
616 664 1
617 664 1
244 665 1
245 665 1
423 665 1
425 665 1
605 665 1
608 665 1
617 665 1
618 665 1
245 666 1
246 666 1
424 666 1
426 666 1
606 666 1
609 666 1
618 666 1
619 666 1
246 667 1
247 667 1
425 667 1
427 667 1
607 667 1
610 667 1
619 667 1
620 667 1
247 668 1
248 668 1
426 668 1
428 668 1
608 668 1
611 668 1
620 668 1
621 668 1
248 669 1
249 669 1
427 669 1
429 669 1
609 669 1
612 669 1
621 669 1
622 669 1
249 670 1
250 670 1
428 670 1
430 670 1
601 670 1
610 670 1
622 670 1
623 670 1
250 671 1
251 671 1
429 671 1
431 671 1
602 671 1
611 671 1
623 671 1
624 671 1
251 672 1
252 672 1
430 672 1
432 672 1
603 672 1
612 672 1
613 672 1
624 672 1
253 673 1
264 673 1
433 673 1
443 673 1
601 673 1
606 673 1
625 673 1
626 673 1
253 674 1
254 674 1
434 674 1
444 674 1
602 674 1
607 674 1
626 674 1
627 674 1
254 675 1
255 675 1
433 675 1
435 675 1
603 675 1
608 675 1
627 675 1
628 675 1
255 676 1
256 676 1
434 676 1
436 676 1
604 676 1
609 676 1
628 676 1
629 676 1
256 677 1
257 677 1
435 677 1
437 677 1
605 677 1
610 677 1
629 677 1
630 677 1
257 678 1
258 678 1
436 678 1
438 678 1
606 678 1
611 678 1
630 678 1
631 678 1
258 679 1
259 679 1
437 679 1
439 679 1
607 679 1
612 679 1
631 679 1
632 679 1
259 680 1
260 680 1
438 680 1
440 680 1
601 680 1
608 680 1
632 680 1
633 680 1
260 681 1
261 681 1
439 681 1
441 681 1
602 681 1
609 681 1
633 681 1
634 681 1
261 682 1
262 682 1
440 682 1
442 682 1
603 682 1
610 682 1
634 682 1
635 682 1
262 683 1
263 683 1
441 683 1
443 683 1
604 683 1
611 683 1
635 683 1
636 683 1
263 684 1
264 684 1
442 684 1
444 684 1
605 684 1
612 684 1
625 684 1
636 684 1
265 685 1
276 685 1
445 685 1
455 685 1
613 685 1
618 685 1
625 685 1
628 685 1
265 686 1
266 686 1
446 686 1
456 686 1
614 686 1
619 686 1
626 686 1
629 686 1
266 687 1
267 687 1
445 687 1
447 687 1
615 687 1
620 687 1
627 687 1
630 687 1
267 688 1
268 688 1
446 688 1
448 688 1
616 688 1
621 688 1
628 688 1
631 688 1
268 689 1
269 689 1
447 689 1
449 689 1
617 689 1
622 689 1
629 689 1
632 689 1
269 690 1
270 690 1
448 690 1
450 690 1
618 690 1
623 690 1
630 690 1
633 690 1
270 691 1
271 691 1
449 691 1
451 691 1
619 691 1
624 691 1
631 691 1
634 691 1
271 692 1
272 692 1
450 692 1
452 692 1
613 692 1
620 692 1
632 692 1
635 692 1
272 693 1
273 693 1
451 693 1
453 693 1
614 693 1
621 693 1
633 693 1
636 693 1
273 694 1
274 694 1
452 694 1
454 694 1
615 694 1
622 694 1
625 694 1
634 694 1
274 695 1
275 695 1
453 695 1
455 695 1
616 695 1
623 695 1
626 695 1
635 695 1
275 696 1
276 696 1
454 696 1
456 696 1
617 696 1
624 696 1
627 696 1
636 696 1
277 697 1
288 697 1
457 697 1
467 697 1
601 697 1
608 697 1
637 697 1
638 697 1
277 698 1
278 698 1
458 698 1
468 698 1
602 698 1
609 698 1
638 698 1
639 698 1
278 699 1
279 699 1
457 699 1
459 699 1
603 699 1
610 699 1
639 699 1
640 699 1
279 700 1
280 700 1
458 700 1
460 700 1
604 700 1
611 700 1
640 700 1
641 700 1
280 701 1
281 701 1
459 701 1
461 701 1
605 701 1
612 701 1
641 701 1
642 701 1
281 702 1
282 702 1
460 702 1
462 702 1
601 702 1
606 702 1
642 702 1
643 702 1
282 703 1
283 703 1
461 703 1
463 703 1
602 703 1
607 703 1
643 703 1
644 703 1
283 704 1
284 704 1
462 704 1
464 704 1
603 704 1
608 704 1
644 704 1
645 704 1
284 705 1
285 705 1
463 705 1
465 705 1
604 705 1
609 705 1
645 705 1
646 705 1
285 706 1
286 706 1
464 706 1
466 706 1
605 706 1
610 706 1
646 706 1
647 706 1
286 707 1
287 707 1
465 707 1
467 707 1
606 707 1
611 707 1
647 707 1
648 707 1
287 708 1
288 708 1
466 708 1
468 708 1
607 708 1
612 708 1
637 708 1
648 708 1
289 709 1
300 709 1
469 709 1
479 709 1
613 709 1
620 709 1
637 709 1
640 709 1
289 710 1
290 710 1
470 710 1
480 710 1
614 710 1
621 710 1
638 710 1
641 710 1
290 711 1
291 711 1
469 711 1
471 711 1
615 711 1
622 711 1
639 711 1
642 711 1
291 712 1
292 712 1
470 712 1
472 712 1
616 712 1
623 712 1
640 712 1
643 712 1
292 713 1
293 713 1
471 713 1
473 713 1
617 713 1
624 713 1
641 713 1
644 713 1
293 714 1
294 714 1
472 714 1
474 714 1
613 714 1
618 714 1
642 714 1
645 714 1
294 715 1
295 715 1
473 715 1
475 715 1
614 715 1
619 715 1
643 715 1
646 715 1
295 716 1
296 716 1
474 716 1
476 716 1
615 716 1
620 716 1
644 716 1
647 716 1
296 717 1
297 717 1
475 717 1
477 717 1
616 717 1
621 717 1
645 717 1
648 717 1
297 718 1
298 718 1
476 718 1
478 718 1
617 718 1
622 718 1
637 718 1
646 718 1
298 719 1
299 719 1
477 719 1
479 719 1
618 719 1
623 719 1
638 719 1
647 719 1
299 720 1
300 720 1
478 720 1
480 720 1
619 720 1
624 720 1
639 720 1
648 720 1
301 721 1
312 721 1
481 721 1
491 721 1
625 721 1
632 721 1
637 721 1
642 721 1
301 722 1
302 722 1
482 722 1
492 722 1
626 722 1
633 722 1
638 722 1
643 722 1
302 723 1
303 723 1
481 723 1
483 723 1
627 723 1
634 723 1
639 723 1
644 723 1
303 724 1
304 724 1
482 724 1
484 724 1
628 724 1
635 724 1
640 724 1
645 724 1
304 725 1
305 725 1
483 725 1
485 725 1
629 725 1
636 725 1
641 725 1
646 725 1
305 726 1
306 726 1
484 726 1
486 726 1
625 726 1
630 726 1
642 726 1
647 726 1
306 727 1
307 727 1
485 727 1
487 727 1
626 727 1
631 727 1
643 727 1
648 727 1
307 728 1
308 728 1
486 728 1
488 728 1
627 728 1
632 728 1
637 728 1
644 728 1
308 729 1
309 729 1
487 729 1
489 729 1
628 729 1
633 729 1
638 729 1
645 729 1
309 730 1
310 730 1
488 730 1
490 730 1
629 730 1
634 730 1
639 730 1
646 730 1
310 731 1
311 731 1
489 731 1
491 731 1
630 731 1
635 731 1
640 731 1
647 731 1
311 732 1
312 732 1
490 732 1
492 732 1
631 732 1
636 732 1
641 732 1
648 732 1
313 733 1
324 733 1
493 733 1
503 733 1
601 733 1
609 733 1
649 733 1
650 733 1
313 734 1
314 734 1
494 734 1
504 734 1
602 734 1
610 734 1
650 734 1
651 734 1
314 735 1
315 735 1
493 735 1
495 735 1
603 735 1
611 735 1
651 735 1
652 735 1
315 736 1
316 736 1
494 736 1
496 736 1
604 736 1
612 736 1
652 736 1
653 736 1
316 737 1
317 737 1
495 737 1
497 737 1
601 737 1
605 737 1
653 737 1
654 737 1
317 738 1
318 738 1
496 738 1
498 738 1
602 738 1
606 738 1
654 738 1
655 738 1
318 739 1
319 739 1
497 739 1
499 739 1
603 739 1
607 739 1
655 739 1
656 739 1
319 740 1
320 740 1
498 740 1
500 740 1
604 740 1
608 740 1
656 740 1
657 740 1
320 741 1
321 741 1
499 741 1
501 741 1
605 741 1
609 741 1
657 741 1
658 741 1
321 742 1
322 742 1
500 742 1
502 742 1
606 742 1
610 742 1
658 742 1
659 742 1
322 743 1
323 743 1
501 743 1
503 743 1
607 743 1
611 743 1
659 743 1
660 743 1
323 744 1
324 744 1
502 744 1
504 744 1
608 744 1
612 744 1
649 744 1
660 744 1
325 745 1
336 745 1
505 745 1
515 745 1
613 745 1
621 745 1
649 745 1
652 745 1
325 746 1
326 746 1
506 746 1
516 746 1
614 746 1
622 746 1
650 746 1
653 746 1
326 747 1
327 747 1
505 747 1
507 747 1
615 747 1
623 747 1
651 747 1
654 747 1
327 748 1
328 748 1
506 748 1
508 748 1
616 748 1
624 748 1
652 748 1
655 748 1
328 749 1
329 749 1
507 749 1
509 749 1
613 749 1
617 749 1
653 749 1
656 749 1
329 750 1
330 750 1
508 750 1
510 750 1
614 750 1
618 750 1
654 750 1
657 750 1
330 751 1
331 751 1
509 751 1
511 751 1
615 751 1
619 751 1
655 751 1
658 751 1
331 752 1
332 752 1
510 752 1
512 752 1
616 752 1
620 752 1
656 752 1
659 752 1
332 753 1
333 753 1
511 753 1
513 753 1
617 753 1
621 753 1
657 753 1
660 753 1
333 754 1
334 754 1
512 754 1
514 754 1
618 754 1
622 754 1
649 754 1
658 754 1
334 755 1
335 755 1
513 755 1
515 755 1
619 755 1
623 755 1
650 755 1
659 755 1
335 756 1
336 756 1
514 756 1
516 756 1
620 756 1
624 756 1
651 756 1
660 756 1
337 757 1
348 757 1
517 757 1
527 757 1
625 757 1
633 757 1
649 757 1
654 757 1
337 758 1
338 758 1
518 758 1
528 758 1
626 758 1
634 758 1
650 758 1
655 758 1
338 759 1
339 759 1
517 759 1
519 759 1
627 759 1
635 759 1
651 759 1
656 759 1
339 760 1
340 760 1
518 760 1
520 760 1
628 760 1
636 760 1
652 760 1
657 760 1
340 761 1
341 761 1
519 761 1
521 761 1
625 761 1
629 761 1
653 761 1
658 761 1
341 762 1
342 762 1
520 762 1
522 762 1
626 762 1
630 762 1
654 762 1
659 762 1
342 763 1
343 763 1
521 763 1
523 763 1
627 763 1
631 763 1
655 763 1
660 763 1
343 764 1
344 764 1
522 764 1
524 764 1
628 764 1
632 764 1
649 764 1
656 764 1
344 765 1
345 765 1
523 765 1
525 765 1
629 765 1
633 765 1
650 765 1
657 765 1
345 766 1
346 766 1
524 766 1
526 766 1
630 766 1
634 766 1
651 766 1
658 766 1
346 767 1
347 767 1
525 767 1
527 767 1
631 767 1
635 767 1
652 767 1
659 767 1
347 768 1
348 768 1
526 768 1
528 768 1
632 768 1
636 768 1
653 768 1
660 768 1
349 769 1
360 769 1
529 769 1
539 769 1
637 769 1
645 769 1
649 769 1
656 769 1
349 770 1
350 770 1
530 770 1
540 770 1
638 770 1
646 770 1
650 770 1
657 770 1
350 771 1
351 771 1
529 771 1
531 771 1
639 771 1
647 771 1
651 771 1
658 771 1
351 772 1
352 772 1
530 772 1
532 772 1
640 772 1
648 772 1
652 772 1
659 772 1
352 773 1
353 773 1
531 773 1
533 773 1
637 773 1
641 773 1
653 773 1
660 773 1
353 774 1
354 774 1
532 774 1
534 774 1
638 774 1
642 774 1
649 774 1
654 774 1
354 775 1
355 775 1
533 775 1
535 775 1
639 775 1
643 775 1
650 775 1
655 775 1
355 776 1
356 776 1
534 776 1
536 776 1
640 776 1
644 776 1
651 776 1
656 776 1
356 777 1
357 777 1
535 777 1
537 777 1
641 777 1
645 777 1
652 777 1
657 777 1
357 778 1
358 778 1
536 778 1
538 778 1
642 778 1
646 778 1
653 778 1
658 778 1
358 779 1
359 779 1
537 779 1
539 779 1
643 779 1
647 779 1
654 779 1
659 779 1
359 780 1
360 780 1
538 780 1
540 780 1
644 780 1
648 780 1
655 780 1
660 780 1
361 781 1
372 781 1
541 781 1
551 781 1
601 781 1
610 781 1
661 781 1
662 781 1
361 782 1
362 782 1
542 782 1
552 782 1
602 782 1
611 782 1
662 782 1
663 782 1
362 783 1
363 783 1
541 783 1
543 783 1
603 783 1
612 783 1
663 783 1
664 783 1
363 784 1
364 784 1
542 784 1
544 784 1
601 784 1
604 784 1
664 784 1
665 784 1
364 785 1
365 785 1
543 785 1
545 785 1
602 785 1
605 785 1
665 785 1
666 785 1
365 786 1
366 786 1
544 786 1
546 786 1
603 786 1
606 786 1
666 786 1
667 786 1
366 787 1
367 787 1
545 787 1
547 787 1
604 787 1
607 787 1
667 787 1
668 787 1
367 788 1
368 788 1
546 788 1
548 788 1
605 788 1
608 788 1
668 788 1
669 788 1
368 789 1
369 789 1
547 789 1
549 789 1
606 789 1
609 789 1
669 789 1
670 789 1
369 790 1
370 790 1
548 790 1
550 790 1
607 790 1
610 790 1
670 790 1
671 790 1
370 791 1
371 791 1
549 791 1
551 791 1
608 791 1
611 791 1
671 791 1
672 791 1
371 792 1
372 792 1
550 792 1
552 792 1
609 792 1
612 792 1
661 792 1
672 792 1
373 793 1
384 793 1
553 793 1
563 793 1
613 793 1
622 793 1
661 793 1
664 793 1
373 794 1
374 794 1
554 794 1
564 794 1
614 794 1
623 794 1
662 794 1
665 794 1
374 795 1
375 795 1
553 795 1
555 795 1
615 795 1
624 795 1
663 795 1
666 795 1
375 796 1
376 796 1
554 796 1
556 796 1
613 796 1
616 796 1
664 796 1
667 796 1
376 797 1
377 797 1
555 797 1
557 797 1
614 797 1
617 797 1
665 797 1
668 797 1
377 798 1
378 798 1
556 798 1
558 798 1
615 798 1
618 798 1
666 798 1
669 798 1
378 799 1
379 799 1
557 799 1
559 799 1
616 799 1
619 799 1
667 799 1
670 799 1
379 800 1
380 800 1
558 800 1
560 800 1
617 800 1
620 800 1
668 800 1
671 800 1
380 801 1
381 801 1
559 801 1
561 801 1
618 801 1
621 801 1
669 801 1
672 801 1
381 802 1
382 802 1
560 802 1
562 802 1
619 802 1
622 802 1
661 802 1
670 802 1
382 803 1
383 803 1
561 803 1
563 803 1
620 803 1
623 803 1
662 803 1
671 803 1
383 804 1
384 804 1
562 804 1
564 804 1
621 804 1
624 804 1
663 804 1
672 804 1
385 805 1
396 805 1
565 805 1
575 805 1
625 805 1
634 805 1
661 805 1
666 805 1
385 806 1
386 806 1
566 806 1
576 806 1
626 806 1
635 806 1
662 806 1
667 806 1
386 807 1
387 807 1
565 807 1
567 807 1
627 807 1
636 807 1
663 807 1
668 807 1
387 808 1
388 808 1
566 808 1
568 808 1
625 808 1
628 808 1
664 808 1
669 808 1
388 809 1
389 809 1
567 809 1
569 809 1
626 809 1
629 809 1
665 809 1
670 809 1
389 810 1
390 810 1
568 810 1
570 810 1
627 810 1
630 810 1
666 810 1
671 810 1
390 811 1
391 811 1
569 811 1
571 811 1
628 811 1
631 811 1
667 811 1
672 811 1
391 812 1
392 812 1
570 812 1
572 812 1
629 812 1
632 812 1
661 812 1
668 812 1
392 813 1
393 813 1
571 813 1
573 813 1
630 813 1
633 813 1
662 813 1
669 813 1
393 814 1
394 814 1
572 814 1
574 814 1
631 814 1
634 814 1
663 814 1
670 814 1
394 815 1
395 815 1
573 815 1
575 815 1
632 815 1
635 815 1
664 815 1
671 815 1
395 816 1
396 816 1
574 816 1
576 816 1
633 816 1
636 816 1
665 816 1
672 816 1
397 817 1
408 817 1
577 817 1
587 817 1
637 817 1
646 817 1
661 817 1
668 817 1
397 818 1
398 818 1
578 818 1
588 818 1
638 818 1
647 818 1
662 818 1
669 818 1
398 819 1
399 819 1
577 819 1
579 819 1
639 819 1
648 819 1
663 819 1
670 819 1
399 820 1
400 820 1
578 820 1
580 820 1
637 820 1
640 820 1
664 820 1
671 820 1
400 821 1
401 821 1
579 821 1
581 821 1
638 821 1
641 821 1
665 821 1
672 821 1
401 822 1
402 822 1
580 822 1
582 822 1
639 822 1
642 822 1
661 822 1
666 822 1
402 823 1
403 823 1
581 823 1
583 823 1
640 823 1
643 823 1
662 823 1
667 823 1
403 824 1
404 824 1
582 824 1
584 824 1
641 824 1
644 824 1
663 824 1
668 824 1
404 825 1
405 825 1
583 825 1
585 825 1
642 825 1
645 825 1
664 825 1
669 825 1
405 826 1
406 826 1
584 826 1
586 826 1
643 826 1
646 826 1
665 826 1
670 826 1
406 827 1
407 827 1
585 827 1
587 827 1
644 827 1
647 827 1
666 827 1
671 827 1
407 828 1
408 828 1
586 828 1
588 828 1
645 828 1
648 828 1
667 828 1
672 828 1
409 829 1
420 829 1
589 829 1
599 829 1
649 829 1
658 829 1
661 829 1
669 829 1
409 830 1
410 830 1
590 830 1
600 830 1
650 830 1
659 830 1
662 830 1
670 830 1
410 831 1
411 831 1
589 831 1
591 831 1
651 831 1
660 831 1
663 831 1
671 831 1
411 832 1
412 832 1
590 832 1
592 832 1
649 832 1
652 832 1
664 832 1
672 832 1
412 833 1
413 833 1
591 833 1
593 833 1
650 833 1
653 833 1
661 833 1
665 833 1
413 834 1
414 834 1
592 834 1
594 834 1
651 834 1
654 834 1
662 834 1
666 834 1
414 835 1
415 835 1
593 835 1
595 835 1
652 835 1
655 835 1
663 835 1
667 835 1
415 836 1
416 836 1
594 836 1
596 836 1
653 836 1
656 836 1
664 836 1
668 836 1
416 837 1
417 837 1
595 837 1
597 837 1
654 837 1
657 837 1
665 837 1
669 837 1
417 838 1
418 838 1
596 838 1
598 838 1
655 838 1
658 838 1
666 838 1
670 838 1
418 839 1
419 839 1
597 839 1
599 839 1
656 839 1
659 839 1
667 839 1
671 839 1
419 840 1
420 840 1
598 840 1
600 840 1
657 840 1
660 840 1
668 840 1
672 840 1
