%%MatrixMarket matrix coordinate integer general
% Binary matrix; one-based indices; arithmetic over GF(2)
375 750 3000
1 1 1
17 1 1
76 1 1
89 1 1
2 2 1
18 2 1
77 2 1
90 2 1
3 3 1
19 3 1
78 3 1
91 3 1
4 4 1
20 4 1
79 4 1
92 4 1
5 5 1
21 5 1
80 5 1
93 5 1
6 6 1
22 6 1
81 6 1
94 6 1
7 7 1
23 7 1
82 7 1
95 7 1
8 8 1
24 8 1
83 8 1
96 8 1
9 9 1
25 9 1
84 9 1
97 9 1
10 10 1
26 10 1
85 10 1
98 10 1
11 11 1
27 11 1
86 11 1
99 11 1
12 12 1
28 12 1
87 12 1
100 12 1
13 13 1
29 13 1
88 13 1
101 13 1
14 14 1
30 14 1
89 14 1
102 14 1
15 15 1
31 15 1
90 15 1
103 15 1
16 16 1
32 16 1
91 16 1
104 16 1
17 17 1
33 17 1
92 17 1
105 17 1
18 18 1
34 18 1
93 18 1
106 18 1
19 19 1
35 19 1
94 19 1
107 19 1
20 20 1
36 20 1
95 20 1
108 20 1
21 21 1
37 21 1
96 21 1
109 21 1
22 22 1
38 22 1
97 22 1
110 22 1
23 23 1
39 23 1
98 23 1
111 23 1
24 24 1
40 24 1
99 24 1
112 24 1
25 25 1
41 25 1
100 25 1
113 25 1
26 26 1
42 26 1
101 26 1
114 26 1
27 27 1
43 27 1
102 27 1
115 27 1
28 28 1
44 28 1
103 28 1
116 28 1
29 29 1
45 29 1
104 29 1
117 29 1
30 30 1
46 30 1
105 30 1
118 30 1
31 31 1
47 31 1
106 31 1
119 31 1
32 32 1
48 32 1
107 32 1
120 32 1
33 33 1
49 33 1
108 33 1
121 33 1
34 34 1
50 34 1
109 34 1
122 34 1
35 35 1
51 35 1
110 35 1
123 35 1
36 36 1
52 36 1
111 36 1
124 36 1
37 37 1
53 37 1
112 37 1
125 37 1
38 38 1
54 38 1
113 38 1
126 38 1
39 39 1
55 39 1
114 39 1
127 39 1
40 40 1
56 40 1
115 40 1
128 40 1
41 41 1
57 41 1
116 41 1
129 41 1
42 42 1
58 42 1
117 42 1
130 42 1
43 43 1
59 43 1
118 43 1
131 43 1
44 44 1
60 44 1
119 44 1
132 44 1
45 45 1
61 45 1
120 45 1
133 45 1
46 46 1
62 46 1
121 46 1
134 46 1
47 47 1
63 47 1
122 47 1
135 47 1
48 48 1
64 48 1
123 48 1
136 48 1
49 49 1
65 49 1
124 49 1
137 49 1
50 50 1
66 50 1
125 50 1
138 50 1
51 51 1
67 51 1
126 51 1
139 51 1
52 52 1
68 52 1
127 52 1
140 52 1
53 53 1
69 53 1
128 53 1
141 53 1
54 54 1
70 54 1
129 54 1
142 54 1
55 55 1
71 55 1
130 55 1
143 55 1
56 56 1
72 56 1
131 56 1
144 56 1
57 57 1
73 57 1
132 57 1
145 57 1
58 58 1
74 58 1
133 58 1
146 58 1
59 59 1
75 59 1
134 59 1
147 59 1
1 60 1
60 60 1
135 60 1
148 60 1
2 61 1
61 61 1
136 61 1
149 61 1
3 62 1
62 62 1
137 62 1
150 62 1
4 63 1
63 63 1
76 63 1
138 63 1
5 64 1
64 64 1
77 64 1
139 64 1
6 65 1
65 65 1
78 65 1
140 65 1
7 66 1
66 66 1
79 66 1
141 66 1
8 67 1
67 67 1
80 67 1
142 67 1
9 68 1
68 68 1
81 68 1
143 68 1
10 69 1
69 69 1
82 69 1
144 69 1
11 70 1
70 70 1
83 70 1
145 70 1
12 71 1
71 71 1
84 71 1
146 71 1
13 72 1
72 72 1
85 72 1
147 72 1
14 73 1
73 73 1
86 73 1
148 73 1
15 74 1
74 74 1
87 74 1
149 74 1
16 75 1
75 75 1
88 75 1
150 75 1
1 76 1
35 76 1
151 76 1
164 76 1
2 77 1
36 77 1
152 77 1
165 77 1
3 78 1
37 78 1
153 78 1
166 78 1
4 79 1
38 79 1
154 79 1
167 79 1
5 80 1
39 80 1
155 80 1
168 80 1
6 81 1
40 81 1
156 81 1
169 81 1
7 82 1
41 82 1
157 82 1
170 82 1
8 83 1
42 83 1
158 83 1
171 83 1
9 84 1
43 84 1
159 84 1
172 84 1
10 85 1
44 85 1
160 85 1
173 85 1
11 86 1
45 86 1
161 86 1
174 86 1
12 87 1
46 87 1
162 87 1
175 87 1
13 88 1
47 88 1
163 88 1
176 88 1
14 89 1
48 89 1
164 89 1
177 89 1
15 90 1
49 90 1
165 90 1
178 90 1
16 91 1
50 91 1
166 91 1
179 91 1
17 92 1
51 92 1
167 92 1
180 92 1
18 93 1
52 93 1
168 93 1
181 93 1
19 94 1
53 94 1
169 94 1
182 94 1
20 95 1
54 95 1
170 95 1
183 95 1
21 96 1
55 96 1
171 96 1
184 96 1
22 97 1
56 97 1
172 97 1
185 97 1
23 98 1
57 98 1
173 98 1
186 98 1
24 99 1
58 99 1
174 99 1
187 99 1
25 100 1
59 100 1
175 100 1
188 100 1
26 101 1
60 101 1
176 101 1
189 101 1
27 102 1
61 102 1
177 102 1
190 102 1
28 103 1
62 103 1
178 103 1
191 103 1
29 104 1
63 104 1
179 104 1
192 104 1
30 105 1
64 105 1
180 105 1
193 105 1
31 106 1
65 106 1
181 106 1
194 106 1
32 107 1
66 107 1
182 107 1
195 107 1
33 108 1
67 108 1
183 108 1
196 108 1
34 109 1
68 109 1
184 109 1
197 109 1
35 110 1
69 110 1
185 110 1
198 110 1
36 111 1
70 111 1
186 111 1
199 111 1
37 112 1
71 112 1
187 112 1
200 112 1
38 113 1
72 113 1
188 113 1
201 113 1
39 114 1
73 114 1
189 114 1
202 114 1
40 115 1
74 115 1
190 115 1
203 115 1
41 116 1
75 116 1
191 116 1
204 116 1
1 117 1
42 117 1
192 117 1
205 117 1
2 118 1
43 118 1
193 118 1
206 118 1
3 119 1
44 119 1
194 119 1
207 119 1
4 120 1
45 120 1
195 120 1
208 120 1
5 121 1
46 121 1
196 121 1
209 121 1
6 122 1
47 122 1
197 122 1
210 122 1
7 123 1
48 123 1
198 123 1
211 123 1
8 124 1
49 124 1
199 124 1
212 124 1
9 125 1
50 125 1
200 125 1
213 125 1
10 126 1
51 126 1
201 126 1
214 126 1
11 127 1
52 127 1
202 127 1
215 127 1
12 128 1
53 128 1
203 128 1
216 128 1
13 129 1
54 129 1
204 129 1
217 129 1
14 130 1
55 130 1
205 130 1
218 130 1
15 131 1
56 131 1
206 131 1
219 131 1
16 132 1
57 132 1
207 132 1
220 132 1
17 133 1
58 133 1
208 133 1
221 133 1
18 134 1
59 134 1
209 134 1
222 134 1
19 135 1
60 135 1
210 135 1
223 135 1
20 136 1
61 136 1
211 136 1
224 136 1
21 137 1
62 137 1
212 137 1
225 137 1
22 138 1
63 138 1
151 138 1
213 138 1
23 139 1
64 139 1
152 139 1
214 139 1
24 140 1
65 140 1
153 140 1
215 140 1
25 141 1
66 141 1
154 141 1
216 141 1
26 142 1
67 142 1
155 142 1
217 142 1
27 143 1
68 143 1
156 143 1
218 143 1
28 144 1
69 144 1
157 144 1
219 144 1
29 145 1
70 145 1
158 145 1
220 145 1
30 146 1
71 146 1
159 146 1
221 146 1
31 147 1
72 147 1
160 147 1
222 147 1
32 148 1
73 148 1
161 148 1
223 148 1
33 149 1
74 149 1
162 149 1
224 149 1
34 150 1
75 150 1
163 150 1
225 150 1
76 151 1
110 151 1
151 151 1
167 151 1
77 152 1
111 152 1
152 152 1
168 152 1
78 153 1
112 153 1
153 153 1
169 153 1
79 154 1
113 154 1
154 154 1
170 154 1
80 155 1
114 155 1
155 155 1
171 155 1
81 156 1
115 156 1
156 156 1
172 156 1
82 157 1
116 157 1
157 157 1
173 157 1
83 158 1
117 158 1
158 158 1
174 158 1
84 159 1
118 159 1
159 159 1
175 159 1
85 160 1
119 160 1
160 160 1
176 160 1
86 161 1
120 161 1
161 161 1
177 161 1
87 162 1
121 162 1
162 162 1
178 162 1
88 163 1
122 163 1
163 163 1
179 163 1
89 164 1
123 164 1
164 164 1
180 164 1
90 165 1
124 165 1
165 165 1
181 165 1
91 166 1
125 166 1
166 166 1
182 166 1
92 167 1
126 167 1
167 167 1
183 167 1
93 168 1
127 168 1
168 168 1
184 168 1
94 169 1
128 169 1
169 169 1
185 169 1
95 170 1
129 170 1
170 170 1
186 170 1
96 171 1
130 171 1
171 171 1
187 171 1
97 172 1
131 172 1
172 172 1
188 172 1
98 173 1
132 173 1
173 173 1
189 173 1
99 174 1
133 174 1
174 174 1
190 174 1
100 175 1
134 175 1
175 175 1
191 175 1
101 176 1
135 176 1
176 176 1
192 176 1
102 177 1
136 177 1
177 177 1
193 177 1
103 178 1
137 178 1
178 178 1
194 178 1
104 179 1
138 179 1
179 179 1
195 179 1
105 180 1
139 180 1
180 180 1
196 180 1
106 181 1
140 181 1
181 181 1
197 181 1
107 182 1
141 182 1
182 182 1
198 182 1
108 183 1
142 183 1
183 183 1
199 183 1
109 184 1
143 184 1
184 184 1
200 184 1
110 185 1
144 185 1
185 185 1
201 185 1
111 186 1
145 186 1
186 186 1
202 186 1
112 187 1
146 187 1
187 187 1
203 187 1
113 188 1
147 188 1
188 188 1
204 188 1
114 189 1
148 189 1
189 189 1
205 189 1
115 190 1
149 190 1
190 190 1
206 190 1
116 191 1
150 191 1
191 191 1
207 191 1
76 192 1
117 192 1
192 192 1
208 192 1
77 193 1
118 193 1
193 193 1
209 193 1
78 194 1
119 194 1
194 194 1
210 194 1
79 195 1
120 195 1
195 195 1
211 195 1
80 196 1
121 196 1
196 196 1
212 196 1
81 197 1
122 197 1
197 197 1
213 197 1
82 198 1
123 198 1
198 198 1
214 198 1
83 199 1
124 199 1
199 199 1
215 199 1
84 200 1
125 200 1
200 200 1
216 200 1
85 201 1
126 201 1
201 201 1
217 201 1
86 202 1
127 202 1
202 202 1
218 202 1
87 203 1
128 203 1
203 203 1
219 203 1
88 204 1
129 204 1
204 204 1
220 204 1
89 205 1
130 205 1
205 205 1
221 205 1
90 206 1
131 206 1
206 206 1
222 206 1
91 207 1
132 207 1
207 207 1
223 207 1
92 208 1
133 208 1
208 208 1
224 208 1
93 209 1
134 209 1
209 209 1
225 209 1
94 210 1
135 210 1
151 210 1
210 210 1
95 211 1
136 211 1
152 211 1
211 211 1
96 212 1
137 212 1
153 212 1
212 212 1
97 213 1
138 213 1
154 213 1
213 213 1
98 214 1
139 214 1
155 214 1
214 214 1
99 215 1
140 215 1
156 215 1
215 215 1
100 216 1
141 216 1
157 216 1
216 216 1
101 217 1
142 217 1
158 217 1
217 217 1
102 218 1
143 218 1
159 218 1
218 218 1
103 219 1
144 219 1
160 219 1
219 219 1
104 220 1
145 220 1
161 220 1
220 220 1
105 221 1
146 221 1
162 221 1
221 221 1
106 222 1
147 222 1
163 222 1
222 222 1
107 223 1
148 223 1
164 223 1
223 223 1
108 224 1
149 224 1
165 224 1
224 224 1
109 225 1
150 225 1
166 225 1
225 225 1
1 226 1
54 226 1
226 226 1
239 226 1
2 227 1
55 227 1
227 227 1
240 227 1
3 228 1
56 228 1
228 228 1
241 228 1
4 229 1
57 229 1
229 229 1
242 229 1
5 230 1
58 230 1
230 230 1
243 230 1
6 231 1
59 231 1
231 231 1
244 231 1
7 232 1
60 232 1
232 232 1
245 232 1
8 233 1
61 233 1
233 233 1
246 233 1
9 234 1
62 234 1
234 234 1
247 234 1
10 235 1
63 235 1
235 235 1
248 235 1
11 236 1
64 236 1
236 236 1
249 236 1
12 237 1
65 237 1
237 237 1
250 237 1
13 238 1
66 238 1
238 238 1
251 238 1
14 239 1
67 239 1
239 239 1
252 239 1
15 240 1
68 240 1
240 240 1
253 240 1
16 241 1
69 241 1
241 241 1
254 241 1
17 242 1
70 242 1
242 242 1
255 242 1
18 243 1
71 243 1
243 243 1
256 243 1
19 244 1
72 244 1
244 244 1
257 244 1
20 245 1
73 245 1
245 245 1
258 245 1
21 246 1
74 246 1
246 246 1
259 246 1
22 247 1
75 247 1
247 247 1
260 247 1
1 248 1
23 248 1
248 248 1
261 248 1
2 249 1
24 249 1
249 249 1
262 249 1
3 250 1
25 250 1
250 250 1
263 250 1
4 251 1
26 251 1
251 251 1
264 251 1
5 252 1
27 252 1
252 252 1
265 252 1
6 253 1
28 253 1
253 253 1
266 253 1
7 254 1
29 254 1
254 254 1
267 254 1
8 255 1
30 255 1
255 255 1
268 255 1
9 256 1
31 256 1
256 256 1
269 256 1
10 257 1
32 257 1
257 257 1
270 257 1
11 258 1
33 258 1
258 258 1
271 258 1
12 259 1
34 259 1
259 259 1
272 259 1
13 260 1
35 260 1
260 260 1
273 260 1
14 261 1
36 261 1
261 261 1
274 261 1
15 262 1
37 262 1
262 262 1
275 262 1
16 263 1
38 263 1
263 263 1
276 263 1
17 264 1
39 264 1
264 264 1
277 264 1
18 265 1
40 265 1
265 265 1
278 265 1
19 266 1
41 266 1
266 266 1
279 266 1
20 267 1
42 267 1
267 267 1
280 267 1
21 268 1
43 268 1
268 268 1
281 268 1
22 269 1
44 269 1
269 269 1
282 269 1
23 270 1
45 270 1
270 270 1
283 270 1
24 271 1
46 271 1
271 271 1
284 271 1
25 272 1
47 272 1
272 272 1
285 272 1
26 273 1
48 273 1
273 273 1
286 273 1
27 274 1
49 274 1
274 274 1
287 274 1
28 275 1
50 275 1
275 275 1
288 275 1
29 276 1
51 276 1
276 276 1
289 276 1
30 277 1
52 277 1
277 277 1
290 277 1
31 278 1
53 278 1
278 278 1
291 278 1
32 279 1
54 279 1
279 279 1
292 279 1
33 280 1
55 280 1
280 280 1
293 280 1
34 281 1
56 281 1
281 281 1
294 281 1
35 282 1
57 282 1
282 282 1
295 282 1
36 283 1
58 283 1
283 283 1
296 283 1
37 284 1
59 284 1
284 284 1
297 284 1
38 285 1
60 285 1
285 285 1
298 285 1
39 286 1
61 286 1
286 286 1
299 286 1
40 287 1
62 287 1
287 287 1
300 287 1
41 288 1
63 288 1
226 288 1
288 288 1
42 289 1
64 289 1
227 289 1
289 289 1
43 290 1
65 290 1
228 290 1
290 290 1
44 291 1
66 291 1
229 291 1
291 291 1
45 292 1
67 292 1
230 292 1
292 292 1
46 293 1
68 293 1
231 293 1
293 293 1
47 294 1
69 294 1
232 294 1
294 294 1
48 295 1
70 295 1
233 295 1
295 295 1
49 296 1
71 296 1
234 296 1
296 296 1
50 297 1
72 297 1
235 297 1
297 297 1
51 298 1
73 298 1
236 298 1
298 298 1
52 299 1
74 299 1
237 299 1
299 299 1
53 300 1
75 300 1
238 300 1
300 300 1
76 301 1
129 301 1
226 301 1
242 301 1
77 302 1
130 302 1
227 302 1
243 302 1
78 303 1
131 303 1
228 303 1
244 303 1
79 304 1
132 304 1
229 304 1
245 304 1
80 305 1
133 305 1
230 305 1
246 305 1
81 306 1
134 306 1
231 306 1
247 306 1
82 307 1
135 307 1
232 307 1
248 307 1
83 308 1
136 308 1
233 308 1
249 308 1
84 309 1
137 309 1
234 309 1
250 309 1
85 310 1
138 310 1
235 310 1
251 310 1
86 311 1
139 311 1
236 311 1
252 311 1
87 312 1
140 312 1
237 312 1
253 312 1
88 313 1
141 313 1
238 313 1
254 313 1
89 314 1
142 314 1
239 314 1
255 314 1
90 315 1
143 315 1
240 315 1
256 315 1
91 316 1
144 316 1
241 316 1
257 316 1
92 317 1
145 317 1
242 317 1
258 317 1
93 318 1
146 318 1
243 318 1
259 318 1
94 319 1
147 319 1
244 319 1
260 319 1
95 320 1
148 320 1
245 320 1
261 320 1
96 321 1
149 321 1
246 321 1
262 321 1
97 322 1
150 322 1
247 322 1
263 322 1
76 323 1
98 323 1
248 323 1
264 323 1
77 324 1
99 324 1
249 324 1
265 324 1
78 325 1
100 325 1
250 325 1
266 325 1
79 326 1
101 326 1
251 326 1
267 326 1
80 327 1
102 327 1
252 327 1
268 327 1
81 328 1
103 328 1
253 328 1
269 328 1
82 329 1
104 329 1
254 329 1
270 329 1
83 330 1
105 330 1
255 330 1
271 330 1
84 331 1
106 331 1
256 331 1
272 331 1
85 332 1
107 332 1
257 332 1
273 332 1
86 333 1
108 333 1
258 333 1
274 333 1
87 334 1
109 334 1
259 334 1
275 334 1
88 335 1
110 335 1
260 335 1
276 335 1
89 336 1
111 336 1
261 336 1
277 336 1
90 337 1
112 337 1
262 337 1
278 337 1
91 338 1
113 338 1
263 338 1
279 338 1
92 339 1
114 339 1
264 339 1
280 339 1
93 340 1
115 340 1
265 340 1
281 340 1
94 341 1
116 341 1
266 341 1
282 341 1
95 342 1
117 342 1
267 342 1
283 342 1
96 343 1
118 343 1
268 343 1
284 343 1
97 344 1
119 344 1
269 344 1
285 344 1
98 345 1
120 345 1
270 345 1
286 345 1
99 346 1
121 346 1
271 346 1
287 346 1
100 347 1
122 347 1
272 347 1
288 347 1
101 348 1
123 348 1
273 348 1
289 348 1
102 349 1
124 349 1
274 349 1
290 349 1
103 350 1
125 350 1
275 350 1
291 350 1
104 351 1
126 351 1
276 351 1
292 351 1
105 352 1
127 352 1
277 352 1
293 352 1
106 353 1
128 353 1
278 353 1
294 353 1
107 354 1
129 354 1
279 354 1
295 354 1
108 355 1
130 355 1
280 355 1
296 355 1
109 356 1
131 356 1
281 356 1
297 356 1
110 357 1
132 357 1
282 357 1
298 357 1
111 358 1
133 358 1
283 358 1
299 358 1
112 359 1
134 359 1
284 359 1
300 359 1
113 360 1
135 360 1
226 360 1
285 360 1
114 361 1
136 361 1
227 361 1
286 361 1
115 362 1
137 362 1
228 362 1
287 362 1
116 363 1
138 363 1
229 363 1
288 363 1
117 364 1
139 364 1
230 364 1
289 364 1
118 365 1
140 365 1
231 365 1
290 365 1
119 366 1
141 366 1
232 366 1
291 366 1
120 367 1
142 367 1
233 367 1
292 367 1
121 368 1
143 368 1
234 368 1
293 368 1
122 369 1
144 369 1
235 369 1
294 369 1
123 370 1
145 370 1
236 370 1
295 370 1
124 371 1
146 371 1
237 371 1
296 371 1
125 372 1
147 372 1
238 372 1
297 372 1
126 373 1
148 373 1
239 373 1
298 373 1
127 374 1
149 374 1
240 374 1
299 374 1
128 375 1
150 375 1
241 375 1
300 375 1
151 376 1
204 376 1
226 376 1
260 376 1
152 377 1
205 377 1
227 377 1
261 377 1
153 378 1
206 378 1
228 378 1
262 378 1
154 379 1
207 379 1
229 379 1
263 379 1
155 380 1
208 380 1
230 380 1
264 380 1
156 381 1
209 381 1
231 381 1
265 381 1
157 382 1
210 382 1
232 382 1
266 382 1
158 383 1
211 383 1
233 383 1
267 383 1
159 384 1
212 384 1
234 384 1
268 384 1
160 385 1
213 385 1
235 385 1
269 385 1
161 386 1
214 386 1
236 386 1
270 386 1
162 387 1
215 387 1
237 387 1
271 387 1
163 388 1
216 388 1
238 388 1
272 388 1
164 389 1
217 389 1
239 389 1
273 389 1
165 390 1
218 390 1
240 390 1
274 390 1
166 391 1
219 391 1
241 391 1
275 391 1
167 392 1
220 392 1
242 392 1
276 392 1
168 393 1
221 393 1
243 393 1
277 393 1
169 394 1
222 394 1
244 394 1
278 394 1
170 395 1
223 395 1
245 395 1
279 395 1
171 396 1
224 396 1
246 396 1
280 396 1
172 397 1
225 397 1
247 397 1
281 397 1
151 398 1
173 398 1
248 398 1
282 398 1
152 399 1
174 399 1
249 399 1
283 399 1
153 400 1
175 400 1
250 400 1
284 400 1
154 401 1
176 401 1
251 401 1
285 401 1
155 402 1
177 402 1
252 402 1
286 402 1
156 403 1
178 403 1
253 403 1
287 403 1
157 404 1
179 404 1
254 404 1
288 404 1
158 405 1
180 405 1
255 405 1
289 405 1
159 406 1
181 406 1
256 406 1
290 406 1
160 407 1
182 407 1
257 407 1
291 407 1
161 408 1
183 408 1
258 408 1
292 408 1
162 409 1
184 409 1
259 409 1
293 409 1
163 410 1
185 410 1
260 410 1
294 410 1
164 411 1
186 411 1
261 411 1
295 411 1
165 412 1
187 412 1
262 412 1
296 412 1
166 413 1
188 413 1
263 413 1
297 413 1
167 414 1
189 414 1
264 414 1
298 414 1
168 415 1
190 415 1
265 415 1
299 415 1
169 416 1
191 416 1
266 416 1
300 416 1
170 417 1
192 417 1
226 417 1
267 417 1
171 418 1
193 418 1
227 418 1
268 418 1
172 419 1
194 419 1
228 419 1
269 419 1
173 420 1
195 420 1
229 420 1
270 420 1
174 421 1
196 421 1
230 421 1
271 421 1
175 422 1
197 422 1
231 422 1
272 422 1
176 423 1
198 423 1
232 423 1
273 423 1
177 424 1
199 424 1
233 424 1
274 424 1
178 425 1
200 425 1
234 425 1
275 425 1
179 426 1
201 426 1
235 426 1
276 426 1
180 427 1
202 427 1
236 427 1
277 427 1
181 428 1
203 428 1
237 428 1
278 428 1
182 429 1
204 429 1
238 429 1
279 429 1
183 430 1
205 430 1
239 430 1
280 430 1
184 431 1
206 431 1
240 431 1
281 431 1
185 432 1
207 432 1
241 432 1
282 432 1
186 433 1
208 433 1
242 433 1
283 433 1
187 434 1
209 434 1
243 434 1
284 434 1
188 435 1
210 435 1
244 435 1
285 435 1
189 436 1
211 436 1
245 436 1
286 436 1
190 437 1
212 437 1
246 437 1
287 437 1
191 438 1
213 438 1
247 438 1
288 438 1
192 439 1
214 439 1
248 439 1
289 439 1
193 440 1
215 440 1
249 440 1
290 440 1
194 441 1
216 441 1
250 441 1
291 441 1
195 442 1
217 442 1
251 442 1
292 442 1
196 443 1
218 443 1
252 443 1
293 443 1
197 444 1
219 444 1
253 444 1
294 444 1
198 445 1
220 445 1
254 445 1
295 445 1
199 446 1
221 446 1
255 446 1
296 446 1
200 447 1
222 447 1
256 447 1
297 447 1
201 448 1
223 448 1
257 448 1
298 448 1
202 449 1
224 449 1
258 449 1
299 449 1
203 450 1
225 450 1
259 450 1
300 450 1
1 451 1
71 451 1
301 451 1
314 451 1
2 452 1
72 452 1
302 452 1
315 452 1
3 453 1
73 453 1
303 453 1
316 453 1
4 454 1
74 454 1
304 454 1
317 454 1
5 455 1
75 455 1
305 455 1
318 455 1
1 456 1
6 456 1
306 456 1
319 456 1
2 457 1
7 457 1
307 457 1
320 457 1
3 458 1
8 458 1
308 458 1
321 458 1
4 459 1
9 459 1
309 459 1
322 459 1
5 460 1
10 460 1
310 460 1
323 460 1
6 461 1
11 461 1
311 461 1
324 461 1
7 462 1
12 462 1
312 462 1
325 462 1
8 463 1
13 463 1
313 463 1
326 463 1
9 464 1
14 464 1
314 464 1
327 464 1
10 465 1
15 465 1
315 465 1
328 465 1
11 466 1
16 466 1
316 466 1
329 466 1
12 467 1
17 467 1
317 467 1
330 467 1
13 468 1
18 468 1
318 468 1
331 468 1
14 469 1
19 469 1
319 469 1
332 469 1
15 470 1
20 470 1
320 470 1
333 470 1
16 471 1
21 471 1
321 471 1
334 471 1
17 472 1
22 472 1
322 472 1
335 472 1
18 473 1
23 473 1
323 473 1
336 473 1
19 474 1
24 474 1
324 474 1
337 474 1
20 475 1
25 475 1
325 475 1
338 475 1
21 476 1
26 476 1
326 476 1
339 476 1
22 477 1
27 477 1
327 477 1
340 477 1
23 478 1
28 478 1
328 478 1
341 478 1
24 479 1
29 479 1
329 479 1
342 479 1
25 480 1
30 480 1
330 480 1
343 480 1
26 481 1
31 481 1
331 481 1
344 481 1
27 482 1
32 482 1
332 482 1
345 482 1
28 483 1
33 483 1
333 483 1
346 483 1
29 484 1
34 484 1
334 484 1
347 484 1
30 485 1
35 485 1
335 485 1
348 485 1
31 486 1
36 486 1
336 486 1
349 486 1
32 487 1
37 487 1
337 487 1
350 487 1
33 488 1
38 488 1
338 488 1
351 488 1
34 489 1
39 489 1
339 489 1
352 489 1
35 490 1
40 490 1
340 490 1
353 490 1
36 491 1
41 491 1
341 491 1
354 491 1
37 492 1
42 492 1
342 492 1
355 492 1
38 493 1
43 493 1
343 493 1
356 493 1
39 494 1
44 494 1
344 494 1
357 494 1
40 495 1
45 495 1
345 495 1
358 495 1
41 496 1
46 496 1
346 496 1
359 496 1
42 497 1
47 497 1
347 497 1
360 497 1
43 498 1
48 498 1
348 498 1
361 498 1
44 499 1
49 499 1
349 499 1
362 499 1
45 500 1
50 500 1
350 500 1
363 500 1
46 501 1
51 501 1
351 501 1
364 501 1
47 502 1
52 502 1
352 502 1
365 502 1
48 503 1
53 503 1
353 503 1
366 503 1
49 504 1
54 504 1
354 504 1
367 504 1
50 505 1
55 505 1
355 505 1
368 505 1
51 506 1
56 506 1
356 506 1
369 506 1
52 507 1
57 507 1
357 507 1
370 507 1
53 508 1
58 508 1
358 508 1
371 508 1
54 509 1
59 509 1
359 509 1
372 509 1
55 510 1
60 510 1
360 510 1
373 510 1
56 511 1
61 511 1
361 511 1
374 511 1
57 512 1
62 512 1
362 512 1
375 512 1
58 513 1
63 513 1
301 513 1
363 513 1
59 514 1
64 514 1
302 514 1
364 514 1
60 515 1
65 515 1
303 515 1
365 515 1
61 516 1
66 516 1
304 516 1
366 516 1
62 517 1
67 517 1
305 517 1
367 517 1
63 518 1
68 518 1
306 518 1
368 518 1
64 519 1
69 519 1
307 519 1
369 519 1
65 520 1
70 520 1
308 520 1
370 520 1
66 521 1
71 521 1
309 521 1
371 521 1
67 522 1
72 522 1
310 522 1
372 522 1
68 523 1
73 523 1
311 523 1
373 523 1
69 524 1
74 524 1
312 524 1
374 524 1
70 525 1
75 525 1
313 525 1
375 525 1
76 526 1
146 526 1
301 526 1
317 526 1
77 527 1
147 527 1
302 527 1
318 527 1
78 528 1
148 528 1
303 528 1
319 528 1
79 529 1
149 529 1
304 529 1
320 529 1
80 530 1
150 530 1
305 530 1
321 530 1
76 531 1
81 531 1
306 531 1
322 531 1
77 532 1
82 532 1
307 532 1
323 532 1
78 533 1
83 533 1
308 533 1
324 533 1
79 534 1
84 534 1
309 534 1
325 534 1
80 535 1
85 535 1
310 535 1
326 535 1
81 536 1
86 536 1
311 536 1
327 536 1
82 537 1
87 537 1
312 537 1
328 537 1
83 538 1
88 538 1
313 538 1
329 538 1
84 539 1
89 539 1
314 539 1
330 539 1
85 540 1
90 540 1
315 540 1
331 540 1
86 541 1
91 541 1
316 541 1
332 541 1
87 542 1
92 542 1
317 542 1
333 542 1
88 543 1
93 543 1
318 543 1
334 543 1
89 544 1
94 544 1
319 544 1
335 544 1
90 545 1
95 545 1
320 545 1
336 545 1
91 546 1
96 546 1
321 546 1
337 546 1
92 547 1
97 547 1
322 547 1
338 547 1
93 548 1
98 548 1
323 548 1
339 548 1
94 549 1
99 549 1
324 549 1
340 549 1
95 550 1
100 550 1
325 550 1
341 550 1
96 551 1
101 551 1
326 551 1
342 551 1
97 552 1
102 552 1
327 552 1
343 552 1
98 553 1
103 553 1
328 553 1
344 553 1
99 554 1
104 554 1
329 554 1
345 554 1
100 555 1
105 555 1
330 555 1
346 555 1
101 556 1
106 556 1
331 556 1
347 556 1
102 557 1
107 557 1
332 557 1
348 557 1
103 558 1
108 558 1
333 558 1
349 558 1
104 559 1
109 559 1
334 559 1
350 559 1
105 560 1
110 560 1
335 560 1
351 560 1
106 561 1
111 561 1
336 561 1
352 561 1
107 562 1
112 562 1
337 562 1
353 562 1
108 563 1
113 563 1
338 563 1
354 563 1
109 564 1
114 564 1
339 564 1
355 564 1
110 565 1
115 565 1
340 565 1
356 565 1
111 566 1
116 566 1
341 566 1
357 566 1
112 567 1
117 567 1
342 567 1
358 567 1
113 568 1
118 568 1
343 568 1
359 568 1
114 569 1
119 569 1
344 569 1
360 569 1
115 570 1
120 570 1
345 570 1
361 570 1
116 571 1
121 571 1
346 571 1
362 571 1
117 572 1
122 572 1
347 572 1
363 572 1
118 573 1
123 573 1
348 573 1
364 573 1
119 574 1
124 574 1
349 574 1
365 574 1
120 575 1
125 575 1
350 575 1
366 575 1
121 576 1
126 576 1
351 576 1
367 576 1
122 577 1
127 577 1
352 577 1
368 577 1
123 578 1
128 578 1
353 578 1
369 578 1
124 579 1
129 579 1
354 579 1
370 579 1
125 580 1
130 580 1
355 580 1
371 580 1
126 581 1
131 581 1
356 581 1
372 581 1
127 582 1
132 582 1
357 582 1
373 582 1
128 583 1
133 583 1
358 583 1
374 583 1
129 584 1
134 584 1
359 584 1
375 584 1
130 585 1
135 585 1
301 585 1
360 585 1
131 586 1
136 586 1
302 586 1
361 586 1
132 587 1
137 587 1
303 587 1
362 587 1
133 588 1
138 588 1
304 588 1
363 588 1
134 589 1
139 589 1
305 589 1
364 589 1
135 590 1
140 590 1
306 590 1
365 590 1
136 591 1
141 591 1
307 591 1
366 591 1
137 592 1
142 592 1
308 592 1
367 592 1
138 593 1
143 593 1
309 593 1
368 593 1
139 594 1
144 594 1
310 594 1
369 594 1
140 595 1
145 595 1
311 595 1
370 595 1
141 596 1
146 596 1
312 596 1
371 596 1
142 597 1
147 597 1
313 597 1
372 597 1
143 598 1
148 598 1
314 598 1
373 598 1
144 599 1
149 599 1
315 599 1
374 599 1
145 600 1
150 600 1
316 600 1
375 600 1
151 601 1
221 601 1
301 601 1
335 601 1
152 602 1
222 602 1
302 602 1
336 602 1
153 603 1
223 603 1
303 603 1
337 603 1
154 604 1
224 604 1
304 604 1
338 604 1
155 605 1
225 605 1
305 605 1
339 605 1
151 606 1
156 606 1
306 606 1
340 606 1
152 607 1
157 607 1
307 607 1
341 607 1
153 608 1
158 608 1
308 608 1
342 608 1
154 609 1
159 609 1
309 609 1
343 609 1
155 610 1
160 610 1
310 610 1
344 610 1
156 611 1
161 611 1
311 611 1
345 611 1
157 612 1
162 612 1
312 612 1
346 612 1
158 613 1
163 613 1
313 613 1
347 613 1
159 614 1
164 614 1
314 614 1
348 614 1
160 615 1
165 615 1
315 615 1
349 615 1
161 616 1
166 616 1
316 616 1
350 616 1
162 617 1
167 617 1
317 617 1
351 617 1
163 618 1
168 618 1
318 618 1
352 618 1
164 619 1
169 619 1
319 619 1
353 619 1
165 620 1
170 620 1
320 620 1
354 620 1
166 621 1
171 621 1
321 621 1
355 621 1
167 622 1
172 622 1
322 622 1
356 622 1
168 623 1
173 623 1
323 623 1
357 623 1
169 624 1
174 624 1
324 624 1
358 624 1
170 625 1
175 625 1
325 625 1
359 625 1
171 626 1
176 626 1
326 626 1
360 626 1
172 627 1
177 627 1
327 627 1
361 627 1
173 628 1
178 628 1
328 628 1
362 628 1
174 629 1
179 629 1
329 629 1
363 629 1
175 630 1
180 630 1
330 630 1
364 630 1
176 631 1
181 631 1
331 631 1
365 631 1
177 632 1
182 632 1
332 632 1
366 632 1
178 633 1
183 633 1
333 633 1
367 633 1
179 634 1
184 634 1
334 634 1
368 634 1
180 635 1
185 635 1
335 635 1
369 635 1
181 636 1
186 636 1
336 636 1
370 636 1
182 637 1
187 637 1
337 637 1
371 637 1
183 638 1
188 638 1
338 638 1
372 638 1
184 639 1
189 639 1
339 639 1
373 639 1
185 640 1
190 640 1
340 640 1
374 640 1
186 641 1
191 641 1
341 641 1
375 641 1
187 642 1
192 642 1
301 642 1
342 642 1
188 643 1
193 643 1
302 643 1
343 643 1
189 644 1
194 644 1
303 644 1
344 644 1
190 645 1
195 645 1
304 645 1
345 645 1
191 646 1
196 646 1
305 646 1
346 646 1
192 647 1
197 647 1
306 647 1
347 647 1
193 648 1
198 648 1
307 648 1
348 648 1
194 649 1
199 649 1
308 649 1
349 649 1
195 650 1
200 650 1
309 650 1
350 650 1
196 651 1
201 651 1
310 651 1
351 651 1
197 652 1
202 652 1
311 652 1
352 652 1
198 653 1
203 653 1
312 653 1
353 653 1
199 654 1
204 654 1
313 654 1
354 654 1
200 655 1
205 655 1
314 655 1
355 655 1
201 656 1
206 656 1
315 656 1
356 656 1
202 657 1
207 657 1
316 657 1
357 657 1
203 658 1
208 658 1
317 658 1
358 658 1
204 659 1
209 659 1
318 659 1
359 659 1
205 660 1
210 660 1
319 660 1
360 660 1
206 661 1
211 661 1
320 661 1
361 661 1
207 662 1
212 662 1
321 662 1
362 662 1
208 663 1
213 663 1
322 663 1
363 663 1
209 664 1
214 664 1
323 664 1
364 664 1
210 665 1
215 665 1
324 665 1
365 665 1
211 666 1
216 666 1
325 666 1
366 666 1
212 667 1
217 667 1
326 667 1
367 667 1
213 668 1
218 668 1
327 668 1
368 668 1
214 669 1
219 669 1
328 669 1
369 669 1
215 670 1
220 670 1
329 670 1
370 670 1
216 671 1
221 671 1
330 671 1
371 671 1
217 672 1
222 672 1
331 672 1
372 672 1
218 673 1
223 673 1
332 673 1
373 673 1
219 674 1
224 674 1
333 674 1
374 674 1
220 675 1
225 675 1
334 675 1
375 675 1
226 676 1
296 676 1
301 676 1
354 676 1
227 677 1
297 677 1
302 677 1
355 677 1
228 678 1
298 678 1
303 678 1
356 678 1
229 679 1
299 679 1
304 679 1
357 679 1
230 680 1
300 680 1
305 680 1
358 680 1
226 681 1
231 681 1
306 681 1
359 681 1
227 682 1
232 682 1
307 682 1
360 682 1
228 683 1
233 683 1
308 683 1
361 683 1
229 684 1
234 684 1
309 684 1
362 684 1
230 685 1
235 685 1
310 685 1
363 685 1
231 686 1
236 686 1
311 686 1
364 686 1
232 687 1
237 687 1
312 687 1
365 687 1
233 688 1
238 688 1
313 688 1
366 688 1
234 689 1
239 689 1
314 689 1
367 689 1
235 690 1
240 690 1
315 690 1
368 690 1
236 691 1
241 691 1
316 691 1
369 691 1
237 692 1
242 692 1
317 692 1
370 692 1
238 693 1
243 693 1
318 693 1
371 693 1
239 694 1
244 694 1
319 694 1
372 694 1
240 695 1
245 695 1
320 695 1
373 695 1
241 696 1
246 696 1
321 696 1
374 696 1
242 697 1
247 697 1
322 697 1
375 697 1
243 698 1
248 698 1
301 698 1
323 698 1
244 699 1
249 699 1
302 699 1
324 699 1
245 700 1
250 700 1
303 700 1
325 700 1
246 701 1
251 701 1
304 701 1
326 701 1
247 702 1
252 702 1
305 702 1
327 702 1
248 703 1
253 703 1
306 703 1
328 703 1
249 704 1
254 704 1
307 704 1
329 704 1
250 705 1
255 705 1
308 705 1
330 705 1
251 706 1
256 706 1
309 706 1
331 706 1
252 707 1
257 707 1
310 707 1
332 707 1
253 708 1
258 708 1
311 708 1
333 708 1
254 709 1
259 709 1
312 709 1
334 709 1
255 710 1
260 710 1
313 710 1
335 710 1
256 711 1
261 711 1
314 711 1
336 711 1
257 712 1
262 712 1
315 712 1
337 712 1
258 713 1
263 713 1
316 713 1
338 713 1
259 714 1
264 714 1
317 714 1
339 714 1
260 715 1
265 715 1
318 715 1
340 715 1
261 716 1
266 716 1
319 716 1
341 716 1
262 717 1
267 717 1
320 717 1
342 717 1
263 718 1
268 718 1
321 718 1
343 718 1
264 719 1
269 719 1
322 719 1
344 719 1
265 720 1
270 720 1
323 720 1
345 720 1
266 721 1
271 721 1
324 721 1
346 721 1
267 722 1
272 722 1
325 722 1
347 722 1
268 723 1
273 723 1
326 723 1
348 723 1
269 724 1
274 724 1
327 724 1
349 724 1
270 725 1
275 725 1
328 725 1
350 725 1
271 726 1
276 726 1
329 726 1
351 726 1
272 727 1
277 727 1
330 727 1
352 727 1
273 728 1
278 728 1
331 728 1
353 728 1
274 729 1
279 729 1
332 729 1
354 729 1
275 730 1
280 730 1
333 730 1
355 730 1
276 731 1
281 731 1
334 731 1
356 731 1
277 732 1
282 732 1
335 732 1
357 732 1
278 733 1
283 733 1
336 733 1
358 733 1
279 734 1
284 734 1
337 734 1
359 734 1
280 735 1
285 735 1
338 735 1
360 735 1
281 736 1
286 736 1
339 736 1
361 736 1
282 737 1
287 737 1
340 737 1
362 737 1
283 738 1
288 738 1
341 738 1
363 738 1
284 739 1
289 739 1
342 739 1
364 739 1
285 740 1
290 740 1
343 740 1
365 740 1
286 741 1
291 741 1
344 741 1
366 741 1
287 742 1
292 742 1
345 742 1
367 742 1
288 743 1
293 743 1
346 743 1
368 743 1
289 744 1
294 744 1
347 744 1
369 744 1
290 745 1
295 745 1
348 745 1
370 745 1
291 746 1
296 746 1
349 746 1
371 746 1
292 747 1
297 747 1
350 747 1
372 747 1
293 748 1
298 748 1
351 748 1
373 748 1
294 749 1
299 749 1
352 749 1
374 749 1
295 750 1
300 750 1
353 750 1
375 750 1
