%%MatrixMarket matrix coordinate integer general
% Binary matrix; one-based indices; arithmetic over GF(2)
750 750 4500
1 1 1
42 1 1
76 1 1
98 1 1
301 1 1
306 1 1
2 2 1
43 2 1
77 2 1
99 2 1
302 2 1
307 2 1
3 3 1
44 3 1
78 3 1
100 3 1
303 3 1
308 3 1
4 4 1
45 4 1
79 4 1
101 4 1
304 4 1
309 4 1
5 5 1
46 5 1
80 5 1
102 5 1
305 5 1
310 5 1
6 6 1
47 6 1
81 6 1
103 6 1
306 6 1
311 6 1
7 7 1
48 7 1
82 7 1
104 7 1
307 7 1
312 7 1
8 8 1
49 8 1
83 8 1
105 8 1
308 8 1
313 8 1
9 9 1
50 9 1
84 9 1
106 9 1
309 9 1
314 9 1
10 10 1
51 10 1
85 10 1
107 10 1
310 10 1
315 10 1
11 11 1
52 11 1
86 11 1
108 11 1
311 11 1
316 11 1
12 12 1
53 12 1
87 12 1
109 12 1
312 12 1
317 12 1
13 13 1
54 13 1
88 13 1
110 13 1
313 13 1
318 13 1
14 14 1
55 14 1
89 14 1
111 14 1
314 14 1
319 14 1
15 15 1
56 15 1
90 15 1
112 15 1
315 15 1
320 15 1
16 16 1
57 16 1
91 16 1
113 16 1
316 16 1
321 16 1
17 17 1
58 17 1
92 17 1
114 17 1
317 17 1
322 17 1
18 18 1
59 18 1
93 18 1
115 18 1
318 18 1
323 18 1
19 19 1
60 19 1
94 19 1
116 19 1
319 19 1
324 19 1
20 20 1
61 20 1
95 20 1
117 20 1
320 20 1
325 20 1
21 21 1
62 21 1
96 21 1
118 21 1
321 21 1
326 21 1
22 22 1
63 22 1
97 22 1
119 22 1
322 22 1
327 22 1
23 23 1
64 23 1
98 23 1
120 23 1
323 23 1
328 23 1
24 24 1
65 24 1
99 24 1
121 24 1
324 24 1
329 24 1
25 25 1
66 25 1
100 25 1
122 25 1
325 25 1
330 25 1
26 26 1
67 26 1
101 26 1
123 26 1
326 26 1
331 26 1
27 27 1
68 27 1
102 27 1
124 27 1
327 27 1
332 27 1
28 28 1
69 28 1
103 28 1
125 28 1
328 28 1
333 28 1
29 29 1
70 29 1
104 29 1
126 29 1
329 29 1
334 29 1
30 30 1
71 30 1
105 30 1
127 30 1
330 30 1
335 30 1
31 31 1
72 31 1
106 31 1
128 31 1
331 31 1
336 31 1
32 32 1
73 32 1
107 32 1
129 32 1
332 32 1
337 32 1
33 33 1
74 33 1
108 33 1
130 33 1
333 33 1
338 33 1
34 34 1
75 34 1
109 34 1
131 34 1
334 34 1
339 34 1
1 35 1
35 35 1
110 35 1
132 35 1
335 35 1
340 35 1
2 36 1
36 36 1
111 36 1
133 36 1
336 36 1
341 36 1
3 37 1
37 37 1
112 37 1
134 37 1
337 37 1
342 37 1
4 38 1
38 38 1
113 38 1
135 38 1
338 38 1
343 38 1
5 39 1
39 39 1
114 39 1
136 39 1
339 39 1
344 39 1
6 40 1
40 40 1
115 40 1
137 40 1
340 40 1
345 40 1
7 41 1
41 41 1
116 41 1
138 41 1
341 41 1
346 41 1
8 42 1
42 42 1
117 42 1
139 42 1
342 42 1
347 42 1
9 43 1
43 43 1
118 43 1
140 43 1
343 43 1
348 43 1
10 44 1
44 44 1
119 44 1
141 44 1
344 44 1
349 44 1
11 45 1
45 45 1
120 45 1
142 45 1
345 45 1
350 45 1
12 46 1
46 46 1
121 46 1
143 46 1
346 46 1
351 46 1
13 47 1
47 47 1
122 47 1
144 47 1
347 47 1
352 47 1
14 48 1
48 48 1
123 48 1
145 48 1
348 48 1
353 48 1
15 49 1
49 49 1
124 49 1
146 49 1
349 49 1
354 49 1
16 50 1
50 50 1
125 50 1
147 50 1
350 50 1
355 50 1
17 51 1
51 51 1
126 51 1
148 51 1
351 51 1
356 51 1
18 52 1
52 52 1
127 52 1
149 52 1
352 52 1
357 52 1
19 53 1
53 53 1
128 53 1
150 53 1
353 53 1
358 53 1
20 54 1
54 54 1
76 54 1
129 54 1
354 54 1
359 54 1
21 55 1
55 55 1
77 55 1
130 55 1
355 55 1
360 55 1
22 56 1
56 56 1
78 56 1
131 56 1
356 56 1
361 56 1
23 57 1
57 57 1
79 57 1
132 57 1
357 57 1
362 57 1
24 58 1
58 58 1
80 58 1
133 58 1
358 58 1
363 58 1
25 59 1
59 59 1
81 59 1
134 59 1
359 59 1
364 59 1
26 60 1
60 60 1
82 60 1
135 60 1
360 60 1
365 60 1
27 61 1
61 61 1
83 61 1
136 61 1
361 61 1
366 61 1
28 62 1
62 62 1
84 62 1
137 62 1
362 62 1
367 62 1
29 63 1
63 63 1
85 63 1
138 63 1
363 63 1
368 63 1
30 64 1
64 64 1
86 64 1
139 64 1
364 64 1
369 64 1
31 65 1
65 65 1
87 65 1
140 65 1
365 65 1
370 65 1
32 66 1
66 66 1
88 66 1
141 66 1
366 66 1
371 66 1
33 67 1
67 67 1
89 67 1
142 67 1
367 67 1
372 67 1
34 68 1
68 68 1
90 68 1
143 68 1
368 68 1
373 68 1
35 69 1
69 69 1
91 69 1
144 69 1
369 69 1
374 69 1
36 70 1
70 70 1
92 70 1
145 70 1
370 70 1
375 70 1
37 71 1
71 71 1
93 71 1
146 71 1
301 71 1
371 71 1
38 72 1
72 72 1
94 72 1
147 72 1
302 72 1
372 72 1
39 73 1
73 73 1
95 73 1
148 73 1
303 73 1
373 73 1
40 74 1
74 74 1
96 74 1
149 74 1
304 74 1
374 74 1
41 75 1
75 75 1
97 75 1
150 75 1
305 75 1
375 75 1
1 76 1
60 76 1
151 76 1
173 76 1
376 76 1
381 76 1
2 77 1
61 77 1
152 77 1
174 77 1
377 77 1
382 77 1
3 78 1
62 78 1
153 78 1
175 78 1
378 78 1
383 78 1
4 79 1
63 79 1
154 79 1
176 79 1
379 79 1
384 79 1
5 80 1
64 80 1
155 80 1
177 80 1
380 80 1
385 80 1
6 81 1
65 81 1
156 81 1
178 81 1
381 81 1
386 81 1
7 82 1
66 82 1
157 82 1
179 82 1
382 82 1
387 82 1
8 83 1
67 83 1
158 83 1
180 83 1
383 83 1
388 83 1
9 84 1
68 84 1
159 84 1
181 84 1
384 84 1
389 84 1
10 85 1
69 85 1
160 85 1
182 85 1
385 85 1
390 85 1
11 86 1
70 86 1
161 86 1
183 86 1
386 86 1
391 86 1
12 87 1
71 87 1
162 87 1
184 87 1
387 87 1
392 87 1
13 88 1
72 88 1
163 88 1
185 88 1
388 88 1
393 88 1
14 89 1
73 89 1
164 89 1
186 89 1
389 89 1
394 89 1
15 90 1
74 90 1
165 90 1
187 90 1
390 90 1
395 90 1
16 91 1
75 91 1
166 91 1
188 91 1
391 91 1
396 91 1
1 92 1
17 92 1
167 92 1
189 92 1
392 92 1
397 92 1
2 93 1
18 93 1
168 93 1
190 93 1
393 93 1
398 93 1
3 94 1
19 94 1
169 94 1
191 94 1
394 94 1
399 94 1
4 95 1
20 95 1
170 95 1
192 95 1
395 95 1
400 95 1
5 96 1
21 96 1
171 96 1
193 96 1
396 96 1
401 96 1
6 97 1
22 97 1
172 97 1
194 97 1
397 97 1
402 97 1
7 98 1
23 98 1
173 98 1
195 98 1
398 98 1
403 98 1
8 99 1
24 99 1
174 99 1
196 99 1
399 99 1
404 99 1
9 100 1
25 100 1
175 100 1
197 100 1
400 100 1
405 100 1
10 101 1
26 101 1
176 101 1
198 101 1
401 101 1
406 101 1
11 102 1
27 102 1
177 102 1
199 102 1
402 102 1
407 102 1
12 103 1
28 103 1
178 103 1
200 103 1
403 103 1
408 103 1
13 104 1
29 104 1
179 104 1
201 104 1
404 104 1
409 104 1
14 105 1
30 105 1
180 105 1
202 105 1
405 105 1
410 105 1
15 106 1
31 106 1
181 106 1
203 106 1
406 106 1
411 106 1
16 107 1
32 107 1
182 107 1
204 107 1
407 107 1
412 107 1
17 108 1
33 108 1
183 108 1
205 108 1
408 108 1
413 108 1
18 109 1
34 109 1
184 109 1
206 109 1
409 109 1
414 109 1
19 110 1
35 110 1
185 110 1
207 110 1
410 110 1
415 110 1
20 111 1
36 111 1
186 111 1
208 111 1
411 111 1
416 111 1
21 112 1
37 112 1
187 112 1
209 112 1
412 112 1
417 112 1
22 113 1
38 113 1
188 113 1
210 113 1
413 113 1
418 113 1
23 114 1
39 114 1
189 114 1
211 114 1
414 114 1
419 114 1
24 115 1
40 115 1
190 115 1
212 115 1
415 115 1
420 115 1
25 116 1
41 116 1
191 116 1
213 116 1
416 116 1
421 116 1
26 117 1
42 117 1
192 117 1
214 117 1
417 117 1
422 117 1
27 118 1
43 118 1
193 118 1
215 118 1
418 118 1
423 118 1
28 119 1
44 119 1
194 119 1
216 119 1
419 119 1
424 119 1
29 120 1
45 120 1
195 120 1
217 120 1
420 120 1
425 120 1
30 121 1
46 121 1
196 121 1
218 121 1
421 121 1
426 121 1
31 122 1
47 122 1
197 122 1
219 122 1
422 122 1
427 122 1
32 123 1
48 123 1
198 123 1
220 123 1
423 123 1
428 123 1
33 124 1
49 124 1
199 124 1
221 124 1
424 124 1
429 124 1
34 125 1
50 125 1
200 125 1
222 125 1
425 125 1
430 125 1
35 126 1
51 126 1
201 126 1
223 126 1
426 126 1
431 126 1
36 127 1
52 127 1
202 127 1
224 127 1
427 127 1
432 127 1
37 128 1
53 128 1
203 128 1
225 128 1
428 128 1
433 128 1
38 129 1
54 129 1
151 129 1
204 129 1
429 129 1
434 129 1
39 130 1
55 130 1
152 130 1
205 130 1
430 130 1
435 130 1
40 131 1
56 131 1
153 131 1
206 131 1
431 131 1
436 131 1
41 132 1
57 132 1
154 132 1
207 132 1
432 132 1
437 132 1
42 133 1
58 133 1
155 133 1
208 133 1
433 133 1
438 133 1
43 134 1
59 134 1
156 134 1
209 134 1
434 134 1
439 134 1
44 135 1
60 135 1
157 135 1
210 135 1
435 135 1
440 135 1
45 136 1
61 136 1
158 136 1
211 136 1
436 136 1
441 136 1
46 137 1
62 137 1
159 137 1
212 137 1
437 137 1
442 137 1
47 138 1
63 138 1
160 138 1
213 138 1
438 138 1
443 138 1
48 139 1
64 139 1
161 139 1
214 139 1
439 139 1
444 139 1
49 140 1
65 140 1
162 140 1
215 140 1
440 140 1
445 140 1
50 141 1
66 141 1
163 141 1
216 141 1
441 141 1
446 141 1
51 142 1
67 142 1
164 142 1
217 142 1
442 142 1
447 142 1
52 143 1
68 143 1
165 143 1
218 143 1
443 143 1
448 143 1
53 144 1
69 144 1
166 144 1
219 144 1
444 144 1
449 144 1
54 145 1
70 145 1
167 145 1
220 145 1
445 145 1
450 145 1
55 146 1
71 146 1
168 146 1
221 146 1
376 146 1
446 146 1
56 147 1
72 147 1
169 147 1
222 147 1
377 147 1
447 147 1
57 148 1
73 148 1
170 148 1
223 148 1
378 148 1
448 148 1
58 149 1
74 149 1
171 149 1
224 149 1
379 149 1
449 149 1
59 150 1
75 150 1
172 150 1
225 150 1
380 150 1
450 150 1
1 151 1
63 151 1
226 151 1
248 151 1
451 151 1
456 151 1
2 152 1
64 152 1
227 152 1
249 152 1
452 152 1
457 152 1
3 153 1
65 153 1
228 153 1
250 153 1
453 153 1
458 153 1
4 154 1
66 154 1
229 154 1
251 154 1
454 154 1
459 154 1
5 155 1
67 155 1
230 155 1
252 155 1
455 155 1
460 155 1
6 156 1
68 156 1
231 156 1
253 156 1
456 156 1
461 156 1
7 157 1
69 157 1
232 157 1
254 157 1
457 157 1
462 157 1
8 158 1
70 158 1
233 158 1
255 158 1
458 158 1
463 158 1
9 159 1
71 159 1
234 159 1
256 159 1
459 159 1
464 159 1
10 160 1
72 160 1
235 160 1
257 160 1
460 160 1
465 160 1
11 161 1
73 161 1
236 161 1
258 161 1
461 161 1
466 161 1
12 162 1
74 162 1
237 162 1
259 162 1
462 162 1
467 162 1
13 163 1
75 163 1
238 163 1
260 163 1
463 163 1
468 163 1
1 164 1
14 164 1
239 164 1
261 164 1
464 164 1
469 164 1
2 165 1
15 165 1
240 165 1
262 165 1
465 165 1
470 165 1
3 166 1
16 166 1
241 166 1
263 166 1
466 166 1
471 166 1
4 167 1
17 167 1
242 167 1
264 167 1
467 167 1
472 167 1
5 168 1
18 168 1
243 168 1
265 168 1
468 168 1
473 168 1
6 169 1
19 169 1
244 169 1
266 169 1
469 169 1
474 169 1
7 170 1
20 170 1
245 170 1
267 170 1
470 170 1
475 170 1
8 171 1
21 171 1
246 171 1
268 171 1
471 171 1
476 171 1
9 172 1
22 172 1
247 172 1
269 172 1
472 172 1
477 172 1
10 173 1
23 173 1
248 173 1
270 173 1
473 173 1
478 173 1
11 174 1
24 174 1
249 174 1
271 174 1
474 174 1
479 174 1
12 175 1
25 175 1
250 175 1
272 175 1
475 175 1
480 175 1
13 176 1
26 176 1
251 176 1
273 176 1
476 176 1
481 176 1
14 177 1
27 177 1
252 177 1
274 177 1
477 177 1
482 177 1
15 178 1
28 178 1
253 178 1
275 178 1
478 178 1
483 178 1
16 179 1
29 179 1
254 179 1
276 179 1
479 179 1
484 179 1
17 180 1
30 180 1
255 180 1
277 180 1
480 180 1
485 180 1
18 181 1
31 181 1
256 181 1
278 181 1
481 181 1
486 181 1
19 182 1
32 182 1
257 182 1
279 182 1
482 182 1
487 182 1
20 183 1
33 183 1
258 183 1
280 183 1
483 183 1
488 183 1
21 184 1
34 184 1
259 184 1
281 184 1
484 184 1
489 184 1
22 185 1
35 185 1
260 185 1
282 185 1
485 185 1
490 185 1
23 186 1
36 186 1
261 186 1
283 186 1
486 186 1
491 186 1
24 187 1
37 187 1
262 187 1
284 187 1
487 187 1
492 187 1
25 188 1
38 188 1
263 188 1
285 188 1
488 188 1
493 188 1
26 189 1
39 189 1
264 189 1
286 189 1
489 189 1
494 189 1
27 190 1
40 190 1
265 190 1
287 190 1
490 190 1
495 190 1
28 191 1
41 191 1
266 191 1
288 191 1
491 191 1
496 191 1
29 192 1
42 192 1
267 192 1
289 192 1
492 192 1
497 192 1
30 193 1
43 193 1
268 193 1
290 193 1
493 193 1
498 193 1
31 194 1
44 194 1
269 194 1
291 194 1
494 194 1
499 194 1
32 195 1
45 195 1
270 195 1
292 195 1
495 195 1
500 195 1
33 196 1
46 196 1
271 196 1
293 196 1
496 196 1
501 196 1
34 197 1
47 197 1
272 197 1
294 197 1
497 197 1
502 197 1
35 198 1
48 198 1
273 198 1
295 198 1
498 198 1
503 198 1
36 199 1
49 199 1
274 199 1
296 199 1
499 199 1
504 199 1
37 200 1
50 200 1
275 200 1
297 200 1
500 200 1
505 200 1
38 201 1
51 201 1
276 201 1
298 201 1
501 201 1
506 201 1
39 202 1
52 202 1
277 202 1
299 202 1
502 202 1
507 202 1
40 203 1
53 203 1
278 203 1
300 203 1
503 203 1
508 203 1
41 204 1
54 204 1
226 204 1
279 204 1
504 204 1
509 204 1
42 205 1
55 205 1
227 205 1
280 205 1
505 205 1
510 205 1
43 206 1
56 206 1
228 206 1
281 206 1
506 206 1
511 206 1
44 207 1
57 207 1
229 207 1
282 207 1
507 207 1
512 207 1
45 208 1
58 208 1
230 208 1
283 208 1
508 208 1
513 208 1
46 209 1
59 209 1
231 209 1
284 209 1
509 209 1
514 209 1
47 210 1
60 210 1
232 210 1
285 210 1
510 210 1
515 210 1
48 211 1
61 211 1
233 211 1
286 211 1
511 211 1
516 211 1
49 212 1
62 212 1
234 212 1
287 212 1
512 212 1
517 212 1
50 213 1
63 213 1
235 213 1
288 213 1
513 213 1
518 213 1
51 214 1
64 214 1
236 214 1
289 214 1
514 214 1
519 214 1
52 215 1
65 215 1
237 215 1
290 215 1
515 215 1
520 215 1
53 216 1
66 216 1
238 216 1
291 216 1
516 216 1
521 216 1
54 217 1
67 217 1
239 217 1
292 217 1
517 217 1
522 217 1
55 218 1
68 218 1
240 218 1
293 218 1
518 218 1
523 218 1
56 219 1
69 219 1
241 219 1
294 219 1
519 219 1
524 219 1
57 220 1
70 220 1
242 220 1
295 220 1
520 220 1
525 220 1
58 221 1
71 221 1
243 221 1
296 221 1
451 221 1
521 221 1
59 222 1
72 222 1
244 222 1
297 222 1
452 222 1
522 222 1
60 223 1
73 223 1
245 223 1
298 223 1
453 223 1
523 223 1
61 224 1
74 224 1
246 224 1
299 224 1
454 224 1
524 224 1
62 225 1
75 225 1
247 225 1
300 225 1
455 225 1
525 225 1
76 226 1
135 226 1
151 226 1
192 226 1
526 226 1
531 226 1
77 227 1
136 227 1
152 227 1
193 227 1
527 227 1
532 227 1
78 228 1
137 228 1
153 228 1
194 228 1
528 228 1
533 228 1
79 229 1
138 229 1
154 229 1
195 229 1
529 229 1
534 229 1
80 230 1
139 230 1
155 230 1
196 230 1
530 230 1
535 230 1
81 231 1
140 231 1
156 231 1
197 231 1
531 231 1
536 231 1
82 232 1
141 232 1
157 232 1
198 232 1
532 232 1
537 232 1
83 233 1
142 233 1
158 233 1
199 233 1
533 233 1
538 233 1
84 234 1
143 234 1
159 234 1
200 234 1
534 234 1
539 234 1
85 235 1
144 235 1
160 235 1
201 235 1
535 235 1
540 235 1
86 236 1
145 236 1
161 236 1
202 236 1
536 236 1
541 236 1
87 237 1
146 237 1
162 237 1
203 237 1
537 237 1
542 237 1
88 238 1
147 238 1
163 238 1
204 238 1
538 238 1
543 238 1
89 239 1
148 239 1
164 239 1
205 239 1
539 239 1
544 239 1
90 240 1
149 240 1
165 240 1
206 240 1
540 240 1
545 240 1
91 241 1
150 241 1
166 241 1
207 241 1
541 241 1
546 241 1
76 242 1
92 242 1
167 242 1
208 242 1
542 242 1
547 242 1
77 243 1
93 243 1
168 243 1
209 243 1
543 243 1
548 243 1
78 244 1
94 244 1
169 244 1
210 244 1
544 244 1
549 244 1
79 245 1
95 245 1
170 245 1
211 245 1
545 245 1
550 245 1
80 246 1
96 246 1
171 246 1
212 246 1
546 246 1
551 246 1
81 247 1
97 247 1
172 247 1
213 247 1
547 247 1
552 247 1
82 248 1
98 248 1
173 248 1
214 248 1
548 248 1
553 248 1
83 249 1
99 249 1
174 249 1
215 249 1
549 249 1
554 249 1
84 250 1
100 250 1
175 250 1
216 250 1
550 250 1
555 250 1
85 251 1
101 251 1
176 251 1
217 251 1
551 251 1
556 251 1
86 252 1
102 252 1
177 252 1
218 252 1
552 252 1
557 252 1
87 253 1
103 253 1
178 253 1
219 253 1
553 253 1
558 253 1
88 254 1
104 254 1
179 254 1
220 254 1
554 254 1
559 254 1
89 255 1
105 255 1
180 255 1
221 255 1
555 255 1
560 255 1
90 256 1
106 256 1
181 256 1
222 256 1
556 256 1
561 256 1
91 257 1
107 257 1
182 257 1
223 257 1
557 257 1
562 257 1
92 258 1
108 258 1
183 258 1
224 258 1
558 258 1
563 258 1
93 259 1
109 259 1
184 259 1
225 259 1
559 259 1
564 259 1
94 260 1
110 260 1
151 260 1
185 260 1
560 260 1
565 260 1
95 261 1
111 261 1
152 261 1
186 261 1
561 261 1
566 261 1
96 262 1
112 262 1
153 262 1
187 262 1
562 262 1
567 262 1
97 263 1
113 263 1
154 263 1
188 263 1
563 263 1
568 263 1
98 264 1
114 264 1
155 264 1
189 264 1
564 264 1
569 264 1
99 265 1
115 265 1
156 265 1
190 265 1
565 265 1
570 265 1
100 266 1
116 266 1
157 266 1
191 266 1
566 266 1
571 266 1
101 267 1
117 267 1
158 267 1
192 267 1
567 267 1
572 267 1
102 268 1
118 268 1
159 268 1
193 268 1
568 268 1
573 268 1
103 269 1
119 269 1
160 269 1
194 269 1
569 269 1
574 269 1
104 270 1
120 270 1
161 270 1
195 270 1
570 270 1
575 270 1
105 271 1
121 271 1
162 271 1
196 271 1
571 271 1
576 271 1
106 272 1
122 272 1
163 272 1
197 272 1
572 272 1
577 272 1
107 273 1
123 273 1
164 273 1
198 273 1
573 273 1
578 273 1
108 274 1
124 274 1
165 274 1
199 274 1
574 274 1
579 274 1
109 275 1
125 275 1
166 275 1
200 275 1
575 275 1
580 275 1
110 276 1
126 276 1
167 276 1
201 276 1
576 276 1
581 276 1
111 277 1
127 277 1
168 277 1
202 277 1
577 277 1
582 277 1
112 278 1
128 278 1
169 278 1
203 278 1
578 278 1
583 278 1
113 279 1
129 279 1
170 279 1
204 279 1
579 279 1
584 279 1
114 280 1
130 280 1
171 280 1
205 280 1
580 280 1
585 280 1
115 281 1
131 281 1
172 281 1
206 281 1
581 281 1
586 281 1
116 282 1
132 282 1
173 282 1
207 282 1
582 282 1
587 282 1
117 283 1
133 283 1
174 283 1
208 283 1
583 283 1
588 283 1
118 284 1
134 284 1
175 284 1
209 284 1
584 284 1
589 284 1
119 285 1
135 285 1
176 285 1
210 285 1
585 285 1
590 285 1
120 286 1
136 286 1
177 286 1
211 286 1
586 286 1
591 286 1
121 287 1
137 287 1
178 287 1
212 287 1
587 287 1
592 287 1
122 288 1
138 288 1
179 288 1
213 288 1
588 288 1
593 288 1
123 289 1
139 289 1
180 289 1
214 289 1
589 289 1
594 289 1
124 290 1
140 290 1
181 290 1
215 290 1
590 290 1
595 290 1
125 291 1
141 291 1
182 291 1
216 291 1
591 291 1
596 291 1
126 292 1
142 292 1
183 292 1
217 292 1
592 292 1
597 292 1
127 293 1
143 293 1
184 293 1
218 293 1
593 293 1
598 293 1
128 294 1
144 294 1
185 294 1
219 294 1
594 294 1
599 294 1
129 295 1
145 295 1
186 295 1
220 295 1
595 295 1
600 295 1
130 296 1
146 296 1
187 296 1
221 296 1
526 296 1
596 296 1
131 297 1
147 297 1
188 297 1
222 297 1
527 297 1
597 297 1
132 298 1
148 298 1
189 298 1
223 298 1
528 298 1
598 298 1
133 299 1
149 299 1
190 299 1
224 299 1
529 299 1
599 299 1
134 300 1
150 300 1
191 300 1
225 300 1
530 300 1
600 300 1
76 301 1
138 301 1
226 301 1
267 301 1
601 301 1
606 301 1
77 302 1
139 302 1
227 302 1
268 302 1
602 302 1
607 302 1
78 303 1
140 303 1
228 303 1
269 303 1
603 303 1
608 303 1
79 304 1
141 304 1
229 304 1
270 304 1
604 304 1
609 304 1
80 305 1
142 305 1
230 305 1
271 305 1
605 305 1
610 305 1
81 306 1
143 306 1
231 306 1
272 306 1
606 306 1
611 306 1
82 307 1
144 307 1
232 307 1
273 307 1
607 307 1
612 307 1
83 308 1
145 308 1
233 308 1
274 308 1
608 308 1
613 308 1
84 309 1
146 309 1
234 309 1
275 309 1
609 309 1
614 309 1
85 310 1
147 310 1
235 310 1
276 310 1
610 310 1
615 310 1
86 311 1
148 311 1
236 311 1
277 311 1
611 311 1
616 311 1
87 312 1
149 312 1
237 312 1
278 312 1
612 312 1
617 312 1
88 313 1
150 313 1
238 313 1
279 313 1
613 313 1
618 313 1
76 314 1
89 314 1
239 314 1
280 314 1
614 314 1
619 314 1
77 315 1
90 315 1
240 315 1
281 315 1
615 315 1
620 315 1
78 316 1
91 316 1
241 316 1
282 316 1
616 316 1
621 316 1
79 317 1
92 317 1
242 317 1
283 317 1
617 317 1
622 317 1
80 318 1
93 318 1
243 318 1
284 318 1
618 318 1
623 318 1
81 319 1
94 319 1
244 319 1
285 319 1
619 319 1
624 319 1
82 320 1
95 320 1
245 320 1
286 320 1
620 320 1
625 320 1
83 321 1
96 321 1
246 321 1
287 321 1
621 321 1
626 321 1
84 322 1
97 322 1
247 322 1
288 322 1
622 322 1
627 322 1
85 323 1
98 323 1
248 323 1
289 323 1
623 323 1
628 323 1
86 324 1
99 324 1
249 324 1
290 324 1
624 324 1
629 324 1
87 325 1
100 325 1
250 325 1
291 325 1
625 325 1
630 325 1
88 326 1
101 326 1
251 326 1
292 326 1
626 326 1
631 326 1
89 327 1
102 327 1
252 327 1
293 327 1
627 327 1
632 327 1
90 328 1
103 328 1
253 328 1
294 328 1
628 328 1
633 328 1
91 329 1
104 329 1
254 329 1
295 329 1
629 329 1
634 329 1
92 330 1
105 330 1
255 330 1
296 330 1
630 330 1
635 330 1
93 331 1
106 331 1
256 331 1
297 331 1
631 331 1
636 331 1
94 332 1
107 332 1
257 332 1
298 332 1
632 332 1
637 332 1
95 333 1
108 333 1
258 333 1
299 333 1
633 333 1
638 333 1
96 334 1
109 334 1
259 334 1
300 334 1
634 334 1
639 334 1
97 335 1
110 335 1
226 335 1
260 335 1
635 335 1
640 335 1
98 336 1
111 336 1
227 336 1
261 336 1
636 336 1
641 336 1
99 337 1
112 337 1
228 337 1
262 337 1
637 337 1
642 337 1
100 338 1
113 338 1
229 338 1
263 338 1
638 338 1
643 338 1
101 339 1
114 339 1
230 339 1
264 339 1
639 339 1
644 339 1
102 340 1
115 340 1
231 340 1
265 340 1
640 340 1
645 340 1
103 341 1
116 341 1
232 341 1
266 341 1
641 341 1
646 341 1
104 342 1
117 342 1
233 342 1
267 342 1
642 342 1
647 342 1
105 343 1
118 343 1
234 343 1
268 343 1
643 343 1
648 343 1
106 344 1
119 344 1
235 344 1
269 344 1
644 344 1
649 344 1
107 345 1
120 345 1
236 345 1
270 345 1
645 345 1
650 345 1
108 346 1
121 346 1
237 346 1
271 346 1
646 346 1
651 346 1
109 347 1
122 347 1
238 347 1
272 347 1
647 347 1
652 347 1
110 348 1
123 348 1
239 348 1
273 348 1
648 348 1
653 348 1
111 349 1
124 349 1
240 349 1
274 349 1
649 349 1
654 349 1
112 350 1
125 350 1
241 350 1
275 350 1
650 350 1
655 350 1
113 351 1
126 351 1
242 351 1
276 351 1
651 351 1
656 351 1
114 352 1
127 352 1
243 352 1
277 352 1
652 352 1
657 352 1
115 353 1
128 353 1
244 353 1
278 353 1
653 353 1
658 353 1
116 354 1
129 354 1
245 354 1
279 354 1
654 354 1
659 354 1
117 355 1
130 355 1
246 355 1
280 355 1
655 355 1
660 355 1
118 356 1
131 356 1
247 356 1
281 356 1
656 356 1
661 356 1
119 357 1
132 357 1
248 357 1
282 357 1
657 357 1
662 357 1
120 358 1
133 358 1
249 358 1
283 358 1
658 358 1
663 358 1
121 359 1
134 359 1
250 359 1
284 359 1
659 359 1
664 359 1
122 360 1
135 360 1
251 360 1
285 360 1
660 360 1
665 360 1
123 361 1
136 361 1
252 361 1
286 361 1
661 361 1
666 361 1
124 362 1
137 362 1
253 362 1
287 362 1
662 362 1
667 362 1
125 363 1
138 363 1
254 363 1
288 363 1
663 363 1
668 363 1
126 364 1
139 364 1
255 364 1
289 364 1
664 364 1
669 364 1
127 365 1
140 365 1
256 365 1
290 365 1
665 365 1
670 365 1
128 366 1
141 366 1
257 366 1
291 366 1
666 366 1
671 366 1
129 367 1
142 367 1
258 367 1
292 367 1
667 367 1
672 367 1
130 368 1
143 368 1
259 368 1
293 368 1
668 368 1
673 368 1
131 369 1
144 369 1
260 369 1
294 369 1
669 369 1
674 369 1
132 370 1
145 370 1
261 370 1
295 370 1
670 370 1
675 370 1
133 371 1
146 371 1
262 371 1
296 371 1
601 371 1
671 371 1
134 372 1
147 372 1
263 372 1
297 372 1
602 372 1
672 372 1
135 373 1
148 373 1
264 373 1
298 373 1
603 373 1
673 373 1
136 374 1
149 374 1
265 374 1
299 374 1
604 374 1
674 374 1
137 375 1
150 375 1
266 375 1
300 375 1
605 375 1
675 375 1
151 376 1
213 376 1
226 376 1
285 376 1
676 376 1
681 376 1
152 377 1
214 377 1
227 377 1
286 377 1
677 377 1
682 377 1
153 378 1
215 378 1
228 378 1
287 378 1
678 378 1
683 378 1
154 379 1
216 379 1
229 379 1
288 379 1
679 379 1
684 379 1
155 380 1
217 380 1
230 380 1
289 380 1
680 380 1
685 380 1
156 381 1
218 381 1
231 381 1
290 381 1
681 381 1
686 381 1
157 382 1
219 382 1
232 382 1
291 382 1
682 382 1
687 382 1
158 383 1
220 383 1
233 383 1
292 383 1
683 383 1
688 383 1
159 384 1
221 384 1
234 384 1
293 384 1
684 384 1
689 384 1
160 385 1
222 385 1
235 385 1
294 385 1
685 385 1
690 385 1
161 386 1
223 386 1
236 386 1
295 386 1
686 386 1
691 386 1
162 387 1
224 387 1
237 387 1
296 387 1
687 387 1
692 387 1
163 388 1
225 388 1
238 388 1
297 388 1
688 388 1
693 388 1
151 389 1
164 389 1
239 389 1
298 389 1
689 389 1
694 389 1
152 390 1
165 390 1
240 390 1
299 390 1
690 390 1
695 390 1
153 391 1
166 391 1
241 391 1
300 391 1
691 391 1
696 391 1
154 392 1
167 392 1
226 392 1
242 392 1
692 392 1
697 392 1
155 393 1
168 393 1
227 393 1
243 393 1
693 393 1
698 393 1
156 394 1
169 394 1
228 394 1
244 394 1
694 394 1
699 394 1
157 395 1
170 395 1
229 395 1
245 395 1
695 395 1
700 395 1
158 396 1
171 396 1
230 396 1
246 396 1
696 396 1
701 396 1
159 397 1
172 397 1
231 397 1
247 397 1
697 397 1
702 397 1
160 398 1
173 398 1
232 398 1
248 398 1
698 398 1
703 398 1
161 399 1
174 399 1
233 399 1
249 399 1
699 399 1
704 399 1
162 400 1
175 400 1
234 400 1
250 400 1
700 400 1
705 400 1
163 401 1
176 401 1
235 401 1
251 401 1
701 401 1
706 401 1
164 402 1
177 402 1
236 402 1
252 402 1
702 402 1
707 402 1
165 403 1
178 403 1
237 403 1
253 403 1
703 403 1
708 403 1
166 404 1
179 404 1
238 404 1
254 404 1
704 404 1
709 404 1
167 405 1
180 405 1
239 405 1
255 405 1
705 405 1
710 405 1
168 406 1
181 406 1
240 406 1
256 406 1
706 406 1
711 406 1
169 407 1
182 407 1
241 407 1
257 407 1
707 407 1
712 407 1
170 408 1
183 408 1
242 408 1
258 408 1
708 408 1
713 408 1
171 409 1
184 409 1
243 409 1
259 409 1
709 409 1
714 409 1
172 410 1
185 410 1
244 410 1
260 410 1
710 410 1
715 410 1
173 411 1
186 411 1
245 411 1
261 411 1
711 411 1
716 411 1
174 412 1
187 412 1
246 412 1
262 412 1
712 412 1
717 412 1
175 413 1
188 413 1
247 413 1
263 413 1
713 413 1
718 413 1
176 414 1
189 414 1
248 414 1
264 414 1
714 414 1
719 414 1
177 415 1
190 415 1
249 415 1
265 415 1
715 415 1
720 415 1
178 416 1
191 416 1
250 416 1
266 416 1
716 416 1
721 416 1
179 417 1
192 417 1
251 417 1
267 417 1
717 417 1
722 417 1
180 418 1
193 418 1
252 418 1
268 418 1
718 418 1
723 418 1
181 419 1
194 419 1
253 419 1
269 419 1
719 419 1
724 419 1
182 420 1
195 420 1
254 420 1
270 420 1
720 420 1
725 420 1
183 421 1
196 421 1
255 421 1
271 421 1
721 421 1
726 421 1
184 422 1
197 422 1
256 422 1
272 422 1
722 422 1
727 422 1
185 423 1
198 423 1
257 423 1
273 423 1
723 423 1
728 423 1
186 424 1
199 424 1
258 424 1
274 424 1
724 424 1
729 424 1
187 425 1
200 425 1
259 425 1
275 425 1
725 425 1
730 425 1
188 426 1
201 426 1
260 426 1
276 426 1
726 426 1
731 426 1
189 427 1
202 427 1
261 427 1
277 427 1
727 427 1
732 427 1
190 428 1
203 428 1
262 428 1
278 428 1
728 428 1
733 428 1
191 429 1
204 429 1
263 429 1
279 429 1
729 429 1
734 429 1
192 430 1
205 430 1
264 430 1
280 430 1
730 430 1
735 430 1
193 431 1
206 431 1
265 431 1
281 431 1
731 431 1
736 431 1
194 432 1
207 432 1
266 432 1
282 432 1
732 432 1
737 432 1
195 433 1
208 433 1
267 433 1
283 433 1
733 433 1
738 433 1
196 434 1
209 434 1
268 434 1
284 434 1
734 434 1
739 434 1
197 435 1
210 435 1
269 435 1
285 435 1
735 435 1
740 435 1
198 436 1
211 436 1
270 436 1
286 436 1
736 436 1
741 436 1
199 437 1
212 437 1
271 437 1
287 437 1
737 437 1
742 437 1
200 438 1
213 438 1
272 438 1
288 438 1
738 438 1
743 438 1
201 439 1
214 439 1
273 439 1
289 439 1
739 439 1
744 439 1
202 440 1
215 440 1
274 440 1
290 440 1
740 440 1
745 440 1
203 441 1
216 441 1
275 441 1
291 441 1
741 441 1
746 441 1
204 442 1
217 442 1
276 442 1
292 442 1
742 442 1
747 442 1
205 443 1
218 443 1
277 443 1
293 443 1
743 443 1
748 443 1
206 444 1
219 444 1
278 444 1
294 444 1
744 444 1
749 444 1
207 445 1
220 445 1
279 445 1
295 445 1
745 445 1
750 445 1
208 446 1
221 446 1
280 446 1
296 446 1
676 446 1
746 446 1
209 447 1
222 447 1
281 447 1
297 447 1
677 447 1
747 447 1
210 448 1
223 448 1
282 448 1
298 448 1
678 448 1
748 448 1
211 449 1
224 449 1
283 449 1
299 449 1
679 449 1
749 449 1
212 450 1
225 450 1
284 450 1
300 450 1
680 450 1
750 450 1
301 451 1
360 451 1
376 451 1
417 451 1
526 451 1
548 451 1
302 452 1
361 452 1
377 452 1
418 452 1
527 452 1
549 452 1
303 453 1
362 453 1
378 453 1
419 453 1
528 453 1
550 453 1
304 454 1
363 454 1
379 454 1
420 454 1
529 454 1
551 454 1
305 455 1
364 455 1
380 455 1
421 455 1
530 455 1
552 455 1
306 456 1
365 456 1
381 456 1
422 456 1
531 456 1
553 456 1
307 457 1
366 457 1
382 457 1
423 457 1
532 457 1
554 457 1
308 458 1
367 458 1
383 458 1
424 458 1
533 458 1
555 458 1
309 459 1
368 459 1
384 459 1
425 459 1
534 459 1
556 459 1
310 460 1
369 460 1
385 460 1
426 460 1
535 460 1
557 460 1
311 461 1
370 461 1
386 461 1
427 461 1
536 461 1
558 461 1
312 462 1
371 462 1
387 462 1
428 462 1
537 462 1
559 462 1
313 463 1
372 463 1
388 463 1
429 463 1
538 463 1
560 463 1
314 464 1
373 464 1
389 464 1
430 464 1
539 464 1
561 464 1
315 465 1
374 465 1
390 465 1
431 465 1
540 465 1
562 465 1
316 466 1
375 466 1
391 466 1
432 466 1
541 466 1
563 466 1
301 467 1
317 467 1
392 467 1
433 467 1
542 467 1
564 467 1
302 468 1
318 468 1
393 468 1
434 468 1
543 468 1
565 468 1
303 469 1
319 469 1
394 469 1
435 469 1
544 469 1
566 469 1
304 470 1
320 470 1
395 470 1
436 470 1
545 470 1
567 470 1
305 471 1
321 471 1
396 471 1
437 471 1
546 471 1
568 471 1
306 472 1
322 472 1
397 472 1
438 472 1
547 472 1
569 472 1
307 473 1
323 473 1
398 473 1
439 473 1
548 473 1
570 473 1
308 474 1
324 474 1
399 474 1
440 474 1
549 474 1
571 474 1
309 475 1
325 475 1
400 475 1
441 475 1
550 475 1
572 475 1
310 476 1
326 476 1
401 476 1
442 476 1
551 476 1
573 476 1
311 477 1
327 477 1
402 477 1
443 477 1
552 477 1
574 477 1
312 478 1
328 478 1
403 478 1
444 478 1
553 478 1
575 478 1
313 479 1
329 479 1
404 479 1
445 479 1
554 479 1
576 479 1
314 480 1
330 480 1
405 480 1
446 480 1
555 480 1
577 480 1
315 481 1
331 481 1
406 481 1
447 481 1
556 481 1
578 481 1
316 482 1
332 482 1
407 482 1
448 482 1
557 482 1
579 482 1
317 483 1
333 483 1
408 483 1
449 483 1
558 483 1
580 483 1
318 484 1
334 484 1
409 484 1
450 484 1
559 484 1
581 484 1
319 485 1
335 485 1
376 485 1
410 485 1
560 485 1
582 485 1
320 486 1
336 486 1
377 486 1
411 486 1
561 486 1
583 486 1
321 487 1
337 487 1
378 487 1
412 487 1
562 487 1
584 487 1
322 488 1
338 488 1
379 488 1
413 488 1
563 488 1
585 488 1
323 489 1
339 489 1
380 489 1
414 489 1
564 489 1
586 489 1
324 490 1
340 490 1
381 490 1
415 490 1
565 490 1
587 490 1
325 491 1
341 491 1
382 491 1
416 491 1
566 491 1
588 491 1
326 492 1
342 492 1
383 492 1
417 492 1
567 492 1
589 492 1
327 493 1
343 493 1
384 493 1
418 493 1
568 493 1
590 493 1
328 494 1
344 494 1
385 494 1
419 494 1
569 494 1
591 494 1
329 495 1
345 495 1
386 495 1
420 495 1
570 495 1
592 495 1
330 496 1
346 496 1
387 496 1
421 496 1
571 496 1
593 496 1
331 497 1
347 497 1
388 497 1
422 497 1
572 497 1
594 497 1
332 498 1
348 498 1
389 498 1
423 498 1
573 498 1
595 498 1
333 499 1
349 499 1
390 499 1
424 499 1
574 499 1
596 499 1
334 500 1
350 500 1
391 500 1
425 500 1
575 500 1
597 500 1
335 501 1
351 501 1
392 501 1
426 501 1
576 501 1
598 501 1
336 502 1
352 502 1
393 502 1
427 502 1
577 502 1
599 502 1
337 503 1
353 503 1
394 503 1
428 503 1
578 503 1
600 503 1
338 504 1
354 504 1
395 504 1
429 504 1
526 504 1
579 504 1
339 505 1
355 505 1
396 505 1
430 505 1
527 505 1
580 505 1
340 506 1
356 506 1
397 506 1
431 506 1
528 506 1
581 506 1
341 507 1
357 507 1
398 507 1
432 507 1
529 507 1
582 507 1
342 508 1
358 508 1
399 508 1
433 508 1
530 508 1
583 508 1
343 509 1
359 509 1
400 509 1
434 509 1
531 509 1
584 509 1
344 510 1
360 510 1
401 510 1
435 510 1
532 510 1
585 510 1
345 511 1
361 511 1
402 511 1
436 511 1
533 511 1
586 511 1
346 512 1
362 512 1
403 512 1
437 512 1
534 512 1
587 512 1
347 513 1
363 513 1
404 513 1
438 513 1
535 513 1
588 513 1
348 514 1
364 514 1
405 514 1
439 514 1
536 514 1
589 514 1
349 515 1
365 515 1
406 515 1
440 515 1
537 515 1
590 515 1
350 516 1
366 516 1
407 516 1
441 516 1
538 516 1
591 516 1
351 517 1
367 517 1
408 517 1
442 517 1
539 517 1
592 517 1
352 518 1
368 518 1
409 518 1
443 518 1
540 518 1
593 518 1
353 519 1
369 519 1
410 519 1
444 519 1
541 519 1
594 519 1
354 520 1
370 520 1
411 520 1
445 520 1
542 520 1
595 520 1
355 521 1
371 521 1
412 521 1
446 521 1
543 521 1
596 521 1
356 522 1
372 522 1
413 522 1
447 522 1
544 522 1
597 522 1
357 523 1
373 523 1
414 523 1
448 523 1
545 523 1
598 523 1
358 524 1
374 524 1
415 524 1
449 524 1
546 524 1
599 524 1
359 525 1
375 525 1
416 525 1
450 525 1
547 525 1
600 525 1
301 526 1
363 526 1
451 526 1
492 526 1
601 526 1
623 526 1
302 527 1
364 527 1
452 527 1
493 527 1
602 527 1
624 527 1
303 528 1
365 528 1
453 528 1
494 528 1
603 528 1
625 528 1
304 529 1
366 529 1
454 529 1
495 529 1
604 529 1
626 529 1
305 530 1
367 530 1
455 530 1
496 530 1
605 530 1
627 530 1
306 531 1
368 531 1
456 531 1
497 531 1
606 531 1
628 531 1
307 532 1
369 532 1
457 532 1
498 532 1
607 532 1
629 532 1
308 533 1
370 533 1
458 533 1
499 533 1
608 533 1
630 533 1
309 534 1
371 534 1
459 534 1
500 534 1
609 534 1
631 534 1
310 535 1
372 535 1
460 535 1
501 535 1
610 535 1
632 535 1
311 536 1
373 536 1
461 536 1
502 536 1
611 536 1
633 536 1
312 537 1
374 537 1
462 537 1
503 537 1
612 537 1
634 537 1
313 538 1
375 538 1
463 538 1
504 538 1
613 538 1
635 538 1
301 539 1
314 539 1
464 539 1
505 539 1
614 539 1
636 539 1
302 540 1
315 540 1
465 540 1
506 540 1
615 540 1
637 540 1
303 541 1
316 541 1
466 541 1
507 541 1
616 541 1
638 541 1
304 542 1
317 542 1
467 542 1
508 542 1
617 542 1
639 542 1
305 543 1
318 543 1
468 543 1
509 543 1
618 543 1
640 543 1
306 544 1
319 544 1
469 544 1
510 544 1
619 544 1
641 544 1
307 545 1
320 545 1
470 545 1
511 545 1
620 545 1
642 545 1
308 546 1
321 546 1
471 546 1
512 546 1
621 546 1
643 546 1
309 547 1
322 547 1
472 547 1
513 547 1
622 547 1
644 547 1
310 548 1
323 548 1
473 548 1
514 548 1
623 548 1
645 548 1
311 549 1
324 549 1
474 549 1
515 549 1
624 549 1
646 549 1
312 550 1
325 550 1
475 550 1
516 550 1
625 550 1
647 550 1
313 551 1
326 551 1
476 551 1
517 551 1
626 551 1
648 551 1
314 552 1
327 552 1
477 552 1
518 552 1
627 552 1
649 552 1
315 553 1
328 553 1
478 553 1
519 553 1
628 553 1
650 553 1
316 554 1
329 554 1
479 554 1
520 554 1
629 554 1
651 554 1
317 555 1
330 555 1
480 555 1
521 555 1
630 555 1
652 555 1
318 556 1
331 556 1
481 556 1
522 556 1
631 556 1
653 556 1
319 557 1
332 557 1
482 557 1
523 557 1
632 557 1
654 557 1
320 558 1
333 558 1
483 558 1
524 558 1
633 558 1
655 558 1
321 559 1
334 559 1
484 559 1
525 559 1
634 559 1
656 559 1
322 560 1
335 560 1
451 560 1
485 560 1
635 560 1
657 560 1
323 561 1
336 561 1
452 561 1
486 561 1
636 561 1
658 561 1
324 562 1
337 562 1
453 562 1
487 562 1
637 562 1
659 562 1
325 563 1
338 563 1
454 563 1
488 563 1
638 563 1
660 563 1
326 564 1
339 564 1
455 564 1
489 564 1
639 564 1
661 564 1
327 565 1
340 565 1
456 565 1
490 565 1
640 565 1
662 565 1
328 566 1
341 566 1
457 566 1
491 566 1
641 566 1
663 566 1
329 567 1
342 567 1
458 567 1
492 567 1
642 567 1
664 567 1
330 568 1
343 568 1
459 568 1
493 568 1
643 568 1
665 568 1
331 569 1
344 569 1
460 569 1
494 569 1
644 569 1
666 569 1
332 570 1
345 570 1
461 570 1
495 570 1
645 570 1
667 570 1
333 571 1
346 571 1
462 571 1
496 571 1
646 571 1
668 571 1
334 572 1
347 572 1
463 572 1
497 572 1
647 572 1
669 572 1
335 573 1
348 573 1
464 573 1
498 573 1
648 573 1
670 573 1
336 574 1
349 574 1
465 574 1
499 574 1
649 574 1
671 574 1
337 575 1
350 575 1
466 575 1
500 575 1
650 575 1
672 575 1
338 576 1
351 576 1
467 576 1
501 576 1
651 576 1
673 576 1
339 577 1
352 577 1
468 577 1
502 577 1
652 577 1
674 577 1
340 578 1
353 578 1
469 578 1
503 578 1
653 578 1
675 578 1
341 579 1
354 579 1
470 579 1
504 579 1
601 579 1
654 579 1
342 580 1
355 580 1
471 580 1
505 580 1
602 580 1
655 580 1
343 581 1
356 581 1
472 581 1
506 581 1
603 581 1
656 581 1
344 582 1
357 582 1
473 582 1
507 582 1
604 582 1
657 582 1
345 583 1
358 583 1
474 583 1
508 583 1
605 583 1
658 583 1
346 584 1
359 584 1
475 584 1
509 584 1
606 584 1
659 584 1
347 585 1
360 585 1
476 585 1
510 585 1
607 585 1
660 585 1
348 586 1
361 586 1
477 586 1
511 586 1
608 586 1
661 586 1
349 587 1
362 587 1
478 587 1
512 587 1
609 587 1
662 587 1
350 588 1
363 588 1
479 588 1
513 588 1
610 588 1
663 588 1
351 589 1
364 589 1
480 589 1
514 589 1
611 589 1
664 589 1
352 590 1
365 590 1
481 590 1
515 590 1
612 590 1
665 590 1
353 591 1
366 591 1
482 591 1
516 591 1
613 591 1
666 591 1
354 592 1
367 592 1
483 592 1
517 592 1
614 592 1
667 592 1
355 593 1
368 593 1
484 593 1
518 593 1
615 593 1
668 593 1
356 594 1
369 594 1
485 594 1
519 594 1
616 594 1
669 594 1
357 595 1
370 595 1
486 595 1
520 595 1
617 595 1
670 595 1
358 596 1
371 596 1
487 596 1
521 596 1
618 596 1
671 596 1
359 597 1
372 597 1
488 597 1
522 597 1
619 597 1
672 597 1
360 598 1
373 598 1
489 598 1
523 598 1
620 598 1
673 598 1
361 599 1
374 599 1
490 599 1
524 599 1
621 599 1
674 599 1
362 600 1
375 600 1
491 600 1
525 600 1
622 600 1
675 600 1
376 601 1
438 601 1
451 601 1
510 601 1
676 601 1
698 601 1
377 602 1
439 602 1
452 602 1
511 602 1
677 602 1
699 602 1
378 603 1
440 603 1
453 603 1
512 603 1
678 603 1
700 603 1
379 604 1
441 604 1
454 604 1
513 604 1
679 604 1
701 604 1
380 605 1
442 605 1
455 605 1
514 605 1
680 605 1
702 605 1
381 606 1
443 606 1
456 606 1
515 606 1
681 606 1
703 606 1
382 607 1
444 607 1
457 607 1
516 607 1
682 607 1
704 607 1
383 608 1
445 608 1
458 608 1
517 608 1
683 608 1
705 608 1
384 609 1
446 609 1
459 609 1
518 609 1
684 609 1
706 609 1
385 610 1
447 610 1
460 610 1
519 610 1
685 610 1
707 610 1
386 611 1
448 611 1
461 611 1
520 611 1
686 611 1
708 611 1
387 612 1
449 612 1
462 612 1
521 612 1
687 612 1
709 612 1
388 613 1
450 613 1
463 613 1
522 613 1
688 613 1
710 613 1
376 614 1
389 614 1
464 614 1
523 614 1
689 614 1
711 614 1
377 615 1
390 615 1
465 615 1
524 615 1
690 615 1
712 615 1
378 616 1
391 616 1
466 616 1
525 616 1
691 616 1
713 616 1
379 617 1
392 617 1
451 617 1
467 617 1
692 617 1
714 617 1
380 618 1
393 618 1
452 618 1
468 618 1
693 618 1
715 618 1
381 619 1
394 619 1
453 619 1
469 619 1
694 619 1
716 619 1
382 620 1
395 620 1
454 620 1
470 620 1
695 620 1
717 620 1
383 621 1
396 621 1
455 621 1
471 621 1
696 621 1
718 621 1
384 622 1
397 622 1
456 622 1
472 622 1
697 622 1
719 622 1
385 623 1
398 623 1
457 623 1
473 623 1
698 623 1
720 623 1
386 624 1
399 624 1
458 624 1
474 624 1
699 624 1
721 624 1
387 625 1
400 625 1
459 625 1
475 625 1
700 625 1
722 625 1
388 626 1
401 626 1
460 626 1
476 626 1
701 626 1
723 626 1
389 627 1
402 627 1
461 627 1
477 627 1
702 627 1
724 627 1
390 628 1
403 628 1
462 628 1
478 628 1
703 628 1
725 628 1
391 629 1
404 629 1
463 629 1
479 629 1
704 629 1
726 629 1
392 630 1
405 630 1
464 630 1
480 630 1
705 630 1
727 630 1
393 631 1
406 631 1
465 631 1
481 631 1
706 631 1
728 631 1
394 632 1
407 632 1
466 632 1
482 632 1
707 632 1
729 632 1
395 633 1
408 633 1
467 633 1
483 633 1
708 633 1
730 633 1
396 634 1
409 634 1
468 634 1
484 634 1
709 634 1
731 634 1
397 635 1
410 635 1
469 635 1
485 635 1
710 635 1
732 635 1
398 636 1
411 636 1
470 636 1
486 636 1
711 636 1
733 636 1
399 637 1
412 637 1
471 637 1
487 637 1
712 637 1
734 637 1
400 638 1
413 638 1
472 638 1
488 638 1
713 638 1
735 638 1
401 639 1
414 639 1
473 639 1
489 639 1
714 639 1
736 639 1
402 640 1
415 640 1
474 640 1
490 640 1
715 640 1
737 640 1
403 641 1
416 641 1
475 641 1
491 641 1
716 641 1
738 641 1
404 642 1
417 642 1
476 642 1
492 642 1
717 642 1
739 642 1
405 643 1
418 643 1
477 643 1
493 643 1
718 643 1
740 643 1
406 644 1
419 644 1
478 644 1
494 644 1
719 644 1
741 644 1
407 645 1
420 645 1
479 645 1
495 645 1
720 645 1
742 645 1
408 646 1
421 646 1
480 646 1
496 646 1
721 646 1
743 646 1
409 647 1
422 647 1
481 647 1
497 647 1
722 647 1
744 647 1
410 648 1
423 648 1
482 648 1
498 648 1
723 648 1
745 648 1
411 649 1
424 649 1
483 649 1
499 649 1
724 649 1
746 649 1
412 650 1
425 650 1
484 650 1
500 650 1
725 650 1
747 650 1
413 651 1
426 651 1
485 651 1
501 651 1
726 651 1
748 651 1
414 652 1
427 652 1
486 652 1
502 652 1
727 652 1
749 652 1
415 653 1
428 653 1
487 653 1
503 653 1
728 653 1
750 653 1
416 654 1
429 654 1
488 654 1
504 654 1
676 654 1
729 654 1
417 655 1
430 655 1
489 655 1
505 655 1
677 655 1
730 655 1
418 656 1
431 656 1
490 656 1
506 656 1
678 656 1
731 656 1
419 657 1
432 657 1
491 657 1
507 657 1
679 657 1
732 657 1
420 658 1
433 658 1
492 658 1
508 658 1
680 658 1
733 658 1
421 659 1
434 659 1
493 659 1
509 659 1
681 659 1
734 659 1
422 660 1
435 660 1
494 660 1
510 660 1
682 660 1
735 660 1
423 661 1
436 661 1
495 661 1
511 661 1
683 661 1
736 661 1
424 662 1
437 662 1
496 662 1
512 662 1
684 662 1
737 662 1
425 663 1
438 663 1
497 663 1
513 663 1
685 663 1
738 663 1
426 664 1
439 664 1
498 664 1
514 664 1
686 664 1
739 664 1
427 665 1
440 665 1
499 665 1
515 665 1
687 665 1
740 665 1
428 666 1
441 666 1
500 666 1
516 666 1
688 666 1
741 666 1
429 667 1
442 667 1
501 667 1
517 667 1
689 667 1
742 667 1
430 668 1
443 668 1
502 668 1
518 668 1
690 668 1
743 668 1
431 669 1
444 669 1
503 669 1
519 669 1
691 669 1
744 669 1
432 670 1
445 670 1
504 670 1
520 670 1
692 670 1
745 670 1
433 671 1
446 671 1
505 671 1
521 671 1
693 671 1
746 671 1
434 672 1
447 672 1
506 672 1
522 672 1
694 672 1
747 672 1
435 673 1
448 673 1
507 673 1
523 673 1
695 673 1
748 673 1
436 674 1
449 674 1
508 674 1
524 674 1
696 674 1
749 674 1
437 675 1
450 675 1
509 675 1
525 675 1
697 675 1
750 675 1
526 676 1
588 676 1
601 676 1
660 676 1
676 676 1
717 676 1
527 677 1
589 677 1
602 677 1
661 677 1
677 677 1
718 677 1
528 678 1
590 678 1
603 678 1
662 678 1
678 678 1
719 678 1
529 679 1
591 679 1
604 679 1
663 679 1
679 679 1
720 679 1
530 680 1
592 680 1
605 680 1
664 680 1
680 680 1
721 680 1
531 681 1
593 681 1
606 681 1
665 681 1
681 681 1
722 681 1
532 682 1
594 682 1
607 682 1
666 682 1
682 682 1
723 682 1
533 683 1
595 683 1
608 683 1
667 683 1
683 683 1
724 683 1
534 684 1
596 684 1
609 684 1
668 684 1
684 684 1
725 684 1
535 685 1
597 685 1
610 685 1
669 685 1
685 685 1
726 685 1
536 686 1
598 686 1
611 686 1
670 686 1
686 686 1
727 686 1
537 687 1
599 687 1
612 687 1
671 687 1
687 687 1
728 687 1
538 688 1
600 688 1
613 688 1
672 688 1
688 688 1
729 688 1
526 689 1
539 689 1
614 689 1
673 689 1
689 689 1
730 689 1
527 690 1
540 690 1
615 690 1
674 690 1
690 690 1
731 690 1
528 691 1
541 691 1
616 691 1
675 691 1
691 691 1
732 691 1
529 692 1
542 692 1
601 692 1
617 692 1
692 692 1
733 692 1
530 693 1
543 693 1
602 693 1
618 693 1
693 693 1
734 693 1
531 694 1
544 694 1
603 694 1
619 694 1
694 694 1
735 694 1
532 695 1
545 695 1
604 695 1
620 695 1
695 695 1
736 695 1
533 696 1
546 696 1
605 696 1
621 696 1
696 696 1
737 696 1
534 697 1
547 697 1
606 697 1
622 697 1
697 697 1
738 697 1
535 698 1
548 698 1
607 698 1
623 698 1
698 698 1
739 698 1
536 699 1
549 699 1
608 699 1
624 699 1
699 699 1
740 699 1
537 700 1
550 700 1
609 700 1
625 700 1
700 700 1
741 700 1
538 701 1
551 701 1
610 701 1
626 701 1
701 701 1
742 701 1
539 702 1
552 702 1
611 702 1
627 702 1
702 702 1
743 702 1
540 703 1
553 703 1
612 703 1
628 703 1
703 703 1
744 703 1
541 704 1
554 704 1
613 704 1
629 704 1
704 704 1
745 704 1
542 705 1
555 705 1
614 705 1
630 705 1
705 705 1
746 705 1
543 706 1
556 706 1
615 706 1
631 706 1
706 706 1
747 706 1
544 707 1
557 707 1
616 707 1
632 707 1
707 707 1
748 707 1
545 708 1
558 708 1
617 708 1
633 708 1
708 708 1
749 708 1
546 709 1
559 709 1
618 709 1
634 709 1
709 709 1
750 709 1
547 710 1
560 710 1
619 710 1
635 710 1
676 710 1
710 710 1
548 711 1
561 711 1
620 711 1
636 711 1
677 711 1
711 711 1
549 712 1
562 712 1
621 712 1
637 712 1
678 712 1
712 712 1
550 713 1
563 713 1
622 713 1
638 713 1
679 713 1
713 713 1
551 714 1
564 714 1
623 714 1
639 714 1
680 714 1
714 714 1
552 715 1
565 715 1
624 715 1
640 715 1
681 715 1
715 715 1
553 716 1
566 716 1
625 716 1
641 716 1
682 716 1
716 716 1
554 717 1
567 717 1
626 717 1
642 717 1
683 717 1
717 717 1
555 718 1
568 718 1
627 718 1
643 718 1
684 718 1
718 718 1
556 719 1
569 719 1
628 719 1
644 719 1
685 719 1
719 719 1
557 720 1
570 720 1
629 720 1
645 720 1
686 720 1
720 720 1
558 721 1
571 721 1
630 721 1
646 721 1
687 721 1
721 721 1
559 722 1
572 722 1
631 722 1
647 722 1
688 722 1
722 722 1
560 723 1
573 723 1
632 723 1
648 723 1
689 723 1
723 723 1
561 724 1
574 724 1
633 724 1
649 724 1
690 724 1
724 724 1
562 725 1
575 725 1
634 725 1
650 725 1
691 725 1
725 725 1
563 726 1
576 726 1
635 726 1
651 726 1
692 726 1
726 726 1
564 727 1
577 727 1
636 727 1
652 727 1
693 727 1
727 727 1
565 728 1
578 728 1
637 728 1
653 728 1
694 728 1
728 728 1
566 729 1
579 729 1
638 729 1
654 729 1
695 729 1
729 729 1
567 730 1
580 730 1
639 730 1
655 730 1
696 730 1
730 730 1
568 731 1
581 731 1
640 731 1
656 731 1
697 731 1
731 731 1
569 732 1
582 732 1
641 732 1
657 732 1
698 732 1
732 732 1
570 733 1
583 733 1
642 733 1
658 733 1
699 733 1
733 733 1
571 734 1
584 734 1
643 734 1
659 734 1
700 734 1
734 734 1
572 735 1
585 735 1
644 735 1
660 735 1
701 735 1
735 735 1
573 736 1
586 736 1
645 736 1
661 736 1
702 736 1
736 736 1
574 737 1
587 737 1
646 737 1
662 737 1
703 737 1
737 737 1
575 738 1
588 738 1
647 738 1
663 738 1
704 738 1
738 738 1
576 739 1
589 739 1
648 739 1
664 739 1
705 739 1
739 739 1
577 740 1
590 740 1
649 740 1
665 740 1
706 740 1
740 740 1
578 741 1
591 741 1
650 741 1
666 741 1
707 741 1
741 741 1
579 742 1
592 742 1
651 742 1
667 742 1
708 742 1
742 742 1
580 743 1
593 743 1
652 743 1
668 743 1
709 743 1
743 743 1
581 744 1
594 744 1
653 744 1
669 744 1
710 744 1
744 744 1
582 745 1
595 745 1
654 745 1
670 745 1
711 745 1
745 745 1
583 746 1
596 746 1
655 746 1
671 746 1
712 746 1
746 746 1
584 747 1
597 747 1
656 747 1
672 747 1
713 747 1
747 747 1
585 748 1
598 748 1
657 748 1
673 748 1
714 748 1
748 748 1
586 749 1
599 749 1
658 749 1
674 749 1
715 749 1
749 749 1
587 750 1
600 750 1
659 750 1
675 750 1
716 750 1
750 750 1
