%%MatrixMarket matrix coordinate integer general
% Binary matrix; one-based indices; arithmetic over GF(2)
480 640 3840
1 1 1
6 1 1
33 1 1
35 1 1
161 1 1
162 1 1
2 2 1
7 2 1
34 2 1
36 2 1
162 2 1
163 2 1
3 3 1
8 3 1
35 3 1
37 3 1
163 3 1
164 3 1
4 4 1
9 4 1
36 4 1
38 4 1
164 4 1
165 4 1
5 5 1
10 5 1
37 5 1
39 5 1
165 5 1
166 5 1
6 6 1
11 6 1
38 6 1
40 6 1
166 6 1
167 6 1
7 7 1
12 7 1
39 7 1
41 7 1
167 7 1
168 7 1
8 8 1
13 8 1
40 8 1
42 8 1
168 8 1
169 8 1
9 9 1
14 9 1
41 9 1
43 9 1
169 9 1
170 9 1
10 10 1
15 10 1
42 10 1
44 10 1
170 10 1
171 10 1
11 11 1
16 11 1
43 11 1
45 11 1
171 11 1
172 11 1
12 12 1
17 12 1
44 12 1
46 12 1
172 12 1
173 12 1
13 13 1
18 13 1
45 13 1
47 13 1
173 13 1
174 13 1
14 14 1
19 14 1
46 14 1
48 14 1
174 14 1
175 14 1
15 15 1
20 15 1
47 15 1
49 15 1
175 15 1
176 15 1
16 16 1
21 16 1
48 16 1
50 16 1
176 16 1
177 16 1
17 17 1
22 17 1
49 17 1
51 17 1
177 17 1
178 17 1
18 18 1
23 18 1
50 18 1
52 18 1
178 18 1
179 18 1
19 19 1
24 19 1
51 19 1
53 19 1
179 19 1
180 19 1
20 20 1
25 20 1
52 20 1
54 20 1
180 20 1
181 20 1
21 21 1
26 21 1
53 21 1
55 21 1
181 21 1
182 21 1
22 22 1
27 22 1
54 22 1
56 22 1
182 22 1
183 22 1
23 23 1
28 23 1
55 23 1
57 23 1
183 23 1
184 23 1
24 24 1
29 24 1
56 24 1
58 24 1
184 24 1
185 24 1
25 25 1
30 25 1
57 25 1
59 25 1
185 25 1
186 25 1
26 26 1
31 26 1
58 26 1
60 26 1
186 26 1
187 26 1
27 27 1
32 27 1
59 27 1
61 27 1
187 27 1
188 27 1
1 28 1
28 28 1
60 28 1
62 28 1
188 28 1
189 28 1
2 29 1
29 29 1
61 29 1
63 29 1
189 29 1
190 29 1
3 30 1
30 30 1
62 30 1
64 30 1
190 30 1
191 30 1
4 31 1
31 31 1
33 31 1
63 31 1
191 31 1
192 31 1
5 32 1
32 32 1
34 32 1
64 32 1
161 32 1
192 32 1
1 33 1
8 33 1
65 33 1
67 33 1
193 33 1
194 33 1
2 34 1
9 34 1
66 34 1
68 34 1
194 34 1
195 34 1
3 35 1
10 35 1
67 35 1
69 35 1
195 35 1
196 35 1
4 36 1
11 36 1
68 36 1
70 36 1
196 36 1
197 36 1
5 37 1
12 37 1
69 37 1
71 37 1
197 37 1
198 37 1
6 38 1
13 38 1
70 38 1
72 38 1
198 38 1
199 38 1
7 39 1
14 39 1
71 39 1
73 39 1
199 39 1
200 39 1
8 40 1
15 40 1
72 40 1
74 40 1
200 40 1
201 40 1
9 41 1
16 41 1
73 41 1
75 41 1
201 41 1
202 41 1
10 42 1
17 42 1
74 42 1
76 42 1
202 42 1
203 42 1
11 43 1
18 43 1
75 43 1
77 43 1
203 43 1
204 43 1
12 44 1
19 44 1
76 44 1
78 44 1
204 44 1
205 44 1
13 45 1
20 45 1
77 45 1
79 45 1
205 45 1
206 45 1
14 46 1
21 46 1
78 46 1
80 46 1
206 46 1
207 46 1
15 47 1
22 47 1
79 47 1
81 47 1
207 47 1
208 47 1
16 48 1
23 48 1
80 48 1
82 48 1
208 48 1
209 48 1
17 49 1
24 49 1
81 49 1
83 49 1
209 49 1
210 49 1
18 50 1
25 50 1
82 50 1
84 50 1
210 50 1
211 50 1
19 51 1
26 51 1
83 51 1
85 51 1
211 51 1
212 51 1
20 52 1
27 52 1
84 52 1
86 52 1
212 52 1
213 52 1
21 53 1
28 53 1
85 53 1
87 53 1
213 53 1
214 53 1
22 54 1
29 54 1
86 54 1
88 54 1
214 54 1
215 54 1
23 55 1
30 55 1
87 55 1
89 55 1
215 55 1
216 55 1
24 56 1
31 56 1
88 56 1
90 56 1
216 56 1
217 56 1
25 57 1
32 57 1
89 57 1
91 57 1
217 57 1
218 57 1
1 58 1
26 58 1
90 58 1
92 58 1
218 58 1
219 58 1
2 59 1
27 59 1
91 59 1
93 59 1
219 59 1
220 59 1
3 60 1
28 60 1
92 60 1
94 60 1
220 60 1
221 60 1
4 61 1
29 61 1
93 61 1
95 61 1
221 61 1
222 61 1
5 62 1
30 62 1
94 62 1
96 62 1
222 62 1
223 62 1
6 63 1
31 63 1
65 63 1
95 63 1
223 63 1
224 63 1
7 64 1
32 64 1
66 64 1
96 64 1
193 64 1
224 64 1
1 65 1
12 65 1
97 65 1
99 65 1
225 65 1
226 65 1
2 66 1
13 66 1
98 66 1
100 66 1
226 66 1
227 66 1
3 67 1
14 67 1
99 67 1
101 67 1
227 67 1
228 67 1
4 68 1
15 68 1
100 68 1
102 68 1
228 68 1
229 68 1
5 69 1
16 69 1
101 69 1
103 69 1
229 69 1
230 69 1
6 70 1
17 70 1
102 70 1
104 70 1
230 70 1
231 70 1
7 71 1
18 71 1
103 71 1
105 71 1
231 71 1
232 71 1
8 72 1
19 72 1
104 72 1
106 72 1
232 72 1
233 72 1
9 73 1
20 73 1
105 73 1
107 73 1
233 73 1
234 73 1
10 74 1
21 74 1
106 74 1
108 74 1
234 74 1
235 74 1
11 75 1
22 75 1
107 75 1
109 75 1
235 75 1
236 75 1
12 76 1
23 76 1
108 76 1
110 76 1
236 76 1
237 76 1
13 77 1
24 77 1
109 77 1
111 77 1
237 77 1
238 77 1
14 78 1
25 78 1
110 78 1
112 78 1
238 78 1
239 78 1
15 79 1
26 79 1
111 79 1
113 79 1
239 79 1
240 79 1
16 80 1
27 80 1
112 80 1
114 80 1
240 80 1
241 80 1
17 81 1
28 81 1
113 81 1
115 81 1
241 81 1
242 81 1
18 82 1
29 82 1
114 82 1
116 82 1
242 82 1
243 82 1
19 83 1
30 83 1
115 83 1
117 83 1
243 83 1
244 83 1
20 84 1
31 84 1
116 84 1
118 84 1
244 84 1
245 84 1
21 85 1
32 85 1
117 85 1
119 85 1
245 85 1
246 85 1
1 86 1
22 86 1
118 86 1
120 86 1
246 86 1
247 86 1
2 87 1
23 87 1
119 87 1
121 87 1
247 87 1
248 87 1
3 88 1
24 88 1
120 88 1
122 88 1
248 88 1
249 88 1
4 89 1
25 89 1
121 89 1
123 89 1
249 89 1
250 89 1
5 90 1
26 90 1
122 90 1
124 90 1
250 90 1
251 90 1
6 91 1
27 91 1
123 91 1
125 91 1
251 91 1
252 91 1
7 92 1
28 92 1
124 92 1
126 92 1
252 92 1
253 92 1
8 93 1
29 93 1
125 93 1
127 93 1
253 93 1
254 93 1
9 94 1
30 94 1
126 94 1
128 94 1
254 94 1
255 94 1
10 95 1
31 95 1
97 95 1
127 95 1
255 95 1
256 95 1
11 96 1
32 96 1
98 96 1
128 96 1
225 96 1
256 96 1
1 97 1
14 97 1
129 97 1
131 97 1
257 97 1
258 97 1
2 98 1
15 98 1
130 98 1
132 98 1
258 98 1
259 98 1
3 99 1
16 99 1
131 99 1
133 99 1
259 99 1
260 99 1
4 100 1
17 100 1
132 100 1
134 100 1
260 100 1
261 100 1
5 101 1
18 101 1
133 101 1
135 101 1
261 101 1
262 101 1
6 102 1
19 102 1
134 102 1
136 102 1
262 102 1
263 102 1
7 103 1
20 103 1
135 103 1
137 103 1
263 103 1
264 103 1
8 104 1
21 104 1
136 104 1
138 104 1
264 104 1
265 104 1
9 105 1
22 105 1
137 105 1
139 105 1
265 105 1
266 105 1
10 106 1
23 106 1
138 106 1
140 106 1
266 106 1
267 106 1
11 107 1
24 107 1
139 107 1
141 107 1
267 107 1
268 107 1
12 108 1
25 108 1
140 108 1
142 108 1
268 108 1
269 108 1
13 109 1
26 109 1
141 109 1
143 109 1
269 109 1
270 109 1
14 110 1
27 110 1
142 110 1
144 110 1
270 110 1
271 110 1
15 111 1
28 111 1
143 111 1
145 111 1
271 111 1
272 111 1
16 112 1
29 112 1
144 112 1
146 112 1
272 112 1
273 112 1
17 113 1
30 113 1
145 113 1
147 113 1
273 113 1
274 113 1
18 114 1
31 114 1
146 114 1
148 114 1
274 114 1
275 114 1
19 115 1
32 115 1
147 115 1
149 115 1
275 115 1
276 115 1
1 116 1
20 116 1
148 116 1
150 116 1
276 116 1
277 116 1
2 117 1
21 117 1
149 117 1
151 117 1
277 117 1
278 117 1
3 118 1
22 118 1
150 118 1
152 118 1
278 118 1
279 118 1
4 119 1
23 119 1
151 119 1
153 119 1
279 119 1
280 119 1
5 120 1
24 120 1
152 120 1
154 120 1
280 120 1
281 120 1
6 121 1
25 121 1
153 121 1
155 121 1
281 121 1
282 121 1
7 122 1
26 122 1
154 122 1
156 122 1
282 122 1
283 122 1
8 123 1
27 123 1
155 123 1
157 123 1
283 123 1
284 123 1
9 124 1
28 124 1
156 124 1
158 124 1
284 124 1
285 124 1
10 125 1
29 125 1
157 125 1
159 125 1
285 125 1
286 125 1
11 126 1
30 126 1
158 126 1
160 126 1
286 126 1
287 126 1
12 127 1
31 127 1
129 127 1
159 127 1
287 127 1
288 127 1
13 128 1
32 128 1
130 128 1
160 128 1
257 128 1
288 128 1
33 129 1
40 129 1
65 129 1
70 129 1
289 129 1
290 129 1
34 130 1
41 130 1
66 130 1
71 130 1
290 130 1
291 130 1
35 131 1
42 131 1
67 131 1
72 131 1
291 131 1
292 131 1
36 132 1
43 132 1
68 132 1
73 132 1
292 132 1
293 132 1
37 133 1
44 133 1
69 133 1
74 133 1
293 133 1
294 133 1
38 134 1
45 134 1
70 134 1
75 134 1
294 134 1
295 134 1
39 135 1
46 135 1
71 135 1
76 135 1
295 135 1
296 135 1
40 136 1
47 136 1
72 136 1
77 136 1
296 136 1
297 136 1
41 137 1
48 137 1
73 137 1
78 137 1
297 137 1
298 137 1
42 138 1
49 138 1
74 138 1
79 138 1
298 138 1
299 138 1
43 139 1
50 139 1
75 139 1
80 139 1
299 139 1
300 139 1
44 140 1
51 140 1
76 140 1
81 140 1
300 140 1
301 140 1
45 141 1
52 141 1
77 141 1
82 141 1
301 141 1
302 141 1
46 142 1
53 142 1
78 142 1
83 142 1
302 142 1
303 142 1
47 143 1
54 143 1
79 143 1
84 143 1
303 143 1
304 143 1
48 144 1
55 144 1
80 144 1
85 144 1
304 144 1
305 144 1
49 145 1
56 145 1
81 145 1
86 145 1
305 145 1
306 145 1
50 146 1
57 146 1
82 146 1
87 146 1
306 146 1
307 146 1
51 147 1
58 147 1
83 147 1
88 147 1
307 147 1
308 147 1
52 148 1
59 148 1
84 148 1
89 148 1
308 148 1
309 148 1
53 149 1
60 149 1
85 149 1
90 149 1
309 149 1
310 149 1
54 150 1
61 150 1
86 150 1
91 150 1
310 150 1
311 150 1
55 151 1
62 151 1
87 151 1
92 151 1
311 151 1
312 151 1
56 152 1
63 152 1
88 152 1
93 152 1
312 152 1
313 152 1
57 153 1
64 153 1
89 153 1
94 153 1
313 153 1
314 153 1
33 154 1
58 154 1
90 154 1
95 154 1
314 154 1
315 154 1
34 155 1
59 155 1
91 155 1
96 155 1
315 155 1
316 155 1
35 156 1
60 156 1
65 156 1
92 156 1
316 156 1
317 156 1
36 157 1
61 157 1
66 157 1
93 157 1
317 157 1
318 157 1
37 158 1
62 158 1
67 158 1
94 158 1
318 158 1
319 158 1
38 159 1
63 159 1
68 159 1
95 159 1
319 159 1
320 159 1
39 160 1
64 160 1
69 160 1
96 160 1
289 160 1
320 160 1
33 161 1
44 161 1
97 161 1
102 161 1
321 161 1
322 161 1
34 162 1
45 162 1
98 162 1
103 162 1
322 162 1
323 162 1
35 163 1
46 163 1
99 163 1
104 163 1
323 163 1
324 163 1
36 164 1
47 164 1
100 164 1
105 164 1
324 164 1
325 164 1
37 165 1
48 165 1
101 165 1
106 165 1
325 165 1
326 165 1
38 166 1
49 166 1
102 166 1
107 166 1
326 166 1
327 166 1
39 167 1
50 167 1
103 167 1
108 167 1
327 167 1
328 167 1
40 168 1
51 168 1
104 168 1
109 168 1
328 168 1
329 168 1
41 169 1
52 169 1
105 169 1
110 169 1
329 169 1
330 169 1
42 170 1
53 170 1
106 170 1
111 170 1
330 170 1
331 170 1
43 171 1
54 171 1
107 171 1
112 171 1
331 171 1
332 171 1
44 172 1
55 172 1
108 172 1
113 172 1
332 172 1
333 172 1
45 173 1
56 173 1
109 173 1
114 173 1
333 173 1
334 173 1
46 174 1
57 174 1
110 174 1
115 174 1
334 174 1
335 174 1
47 175 1
58 175 1
111 175 1
116 175 1
335 175 1
336 175 1
48 176 1
59 176 1
112 176 1
117 176 1
336 176 1
337 176 1
49 177 1
60 177 1
113 177 1
118 177 1
337 177 1
338 177 1
50 178 1
61 178 1
114 178 1
119 178 1
338 178 1
339 178 1
51 179 1
62 179 1
115 179 1
120 179 1
339 179 1
340 179 1
52 180 1
63 180 1
116 180 1
121 180 1
340 180 1
341 180 1
53 181 1
64 181 1
117 181 1
122 181 1
341 181 1
342 181 1
33 182 1
54 182 1
118 182 1
123 182 1
342 182 1
343 182 1
34 183 1
55 183 1
119 183 1
124 183 1
343 183 1
344 183 1
35 184 1
56 184 1
120 184 1
125 184 1
344 184 1
345 184 1
36 185 1
57 185 1
121 185 1
126 185 1
345 185 1
346 185 1
37 186 1
58 186 1
122 186 1
127 186 1
346 186 1
347 186 1
38 187 1
59 187 1
123 187 1
128 187 1
347 187 1
348 187 1
39 188 1
60 188 1
97 188 1
124 188 1
348 188 1
349 188 1
40 189 1
61 189 1
98 189 1
125 189 1
349 189 1
350 189 1
41 190 1
62 190 1
99 190 1
126 190 1
350 190 1
351 190 1
42 191 1
63 191 1
100 191 1
127 191 1
351 191 1
352 191 1
43 192 1
64 192 1
101 192 1
128 192 1
321 192 1
352 192 1
33 193 1
46 193 1
129 193 1
134 193 1
353 193 1
354 193 1
34 194 1
47 194 1
130 194 1
135 194 1
354 194 1
355 194 1
35 195 1
48 195 1
131 195 1
136 195 1
355 195 1
356 195 1
36 196 1
49 196 1
132 196 1
137 196 1
356 196 1
357 196 1
37 197 1
50 197 1
133 197 1
138 197 1
357 197 1
358 197 1
38 198 1
51 198 1
134 198 1
139 198 1
358 198 1
359 198 1
39 199 1
52 199 1
135 199 1
140 199 1
359 199 1
360 199 1
40 200 1
53 200 1
136 200 1
141 200 1
360 200 1
361 200 1
41 201 1
54 201 1
137 201 1
142 201 1
361 201 1
362 201 1
42 202 1
55 202 1
138 202 1
143 202 1
362 202 1
363 202 1
43 203 1
56 203 1
139 203 1
144 203 1
363 203 1
364 203 1
44 204 1
57 204 1
140 204 1
145 204 1
364 204 1
365 204 1
45 205 1
58 205 1
141 205 1
146 205 1
365 205 1
366 205 1
46 206 1
59 206 1
142 206 1
147 206 1
366 206 1
367 206 1
47 207 1
60 207 1
143 207 1
148 207 1
367 207 1
368 207 1
48 208 1
61 208 1
144 208 1
149 208 1
368 208 1
369 208 1
49 209 1
62 209 1
145 209 1
150 209 1
369 209 1
370 209 1
50 210 1
63 210 1
146 210 1
151 210 1
370 210 1
371 210 1
51 211 1
64 211 1
147 211 1
152 211 1
371 211 1
372 211 1
33 212 1
52 212 1
148 212 1
153 212 1
372 212 1
373 212 1
34 213 1
53 213 1
149 213 1
154 213 1
373 213 1
374 213 1
35 214 1
54 214 1
150 214 1
155 214 1
374 214 1
375 214 1
36 215 1
55 215 1
151 215 1
156 215 1
375 215 1
376 215 1
37 216 1
56 216 1
152 216 1
157 216 1
376 216 1
377 216 1
38 217 1
57 217 1
153 217 1
158 217 1
377 217 1
378 217 1
39 218 1
58 218 1
154 218 1
159 218 1
378 218 1
379 218 1
40 219 1
59 219 1
155 219 1
160 219 1
379 219 1
380 219 1
41 220 1
60 220 1
129 220 1
156 220 1
380 220 1
381 220 1
42 221 1
61 221 1
130 221 1
157 221 1
381 221 1
382 221 1
43 222 1
62 222 1
131 222 1
158 222 1
382 222 1
383 222 1
44 223 1
63 223 1
132 223 1
159 223 1
383 223 1
384 223 1
45 224 1
64 224 1
133 224 1
160 224 1
353 224 1
384 224 1
65 225 1
76 225 1
97 225 1
104 225 1
385 225 1
386 225 1
66 226 1
77 226 1
98 226 1
105 226 1
386 226 1
387 226 1
67 227 1
78 227 1
99 227 1
106 227 1
387 227 1
388 227 1
68 228 1
79 228 1
100 228 1
107 228 1
388 228 1
389 228 1
69 229 1
80 229 1
101 229 1
108 229 1
389 229 1
390 229 1
70 230 1
81 230 1
102 230 1
109 230 1
390 230 1
391 230 1
71 231 1
82 231 1
103 231 1
110 231 1
391 231 1
392 231 1
72 232 1
83 232 1
104 232 1
111 232 1
392 232 1
393 232 1
73 233 1
84 233 1
105 233 1
112 233 1
393 233 1
394 233 1
74 234 1
85 234 1
106 234 1
113 234 1
394 234 1
395 234 1
75 235 1
86 235 1
107 235 1
114 235 1
395 235 1
396 235 1
76 236 1
87 236 1
108 236 1
115 236 1
396 236 1
397 236 1
77 237 1
88 237 1
109 237 1
116 237 1
397 237 1
398 237 1
78 238 1
89 238 1
110 238 1
117 238 1
398 238 1
399 238 1
79 239 1
90 239 1
111 239 1
118 239 1
399 239 1
400 239 1
80 240 1
91 240 1
112 240 1
119 240 1
400 240 1
401 240 1
81 241 1
92 241 1
113 241 1
120 241 1
401 241 1
402 241 1
82 242 1
93 242 1
114 242 1
121 242 1
402 242 1
403 242 1
83 243 1
94 243 1
115 243 1
122 243 1
403 243 1
404 243 1
84 244 1
95 244 1
116 244 1
123 244 1
404 244 1
405 244 1
85 245 1
96 245 1
117 245 1
124 245 1
405 245 1
406 245 1
65 246 1
86 246 1
118 246 1
125 246 1
406 246 1
407 246 1
66 247 1
87 247 1
119 247 1
126 247 1
407 247 1
408 247 1
67 248 1
88 248 1
120 248 1
127 248 1
408 248 1
409 248 1
68 249 1
89 249 1
121 249 1
128 249 1
409 249 1
410 249 1
69 250 1
90 250 1
97 250 1
122 250 1
410 250 1
411 250 1
70 251 1
91 251 1
98 251 1
123 251 1
411 251 1
412 251 1
71 252 1
92 252 1
99 252 1
124 252 1
412 252 1
413 252 1
72 253 1
93 253 1
100 253 1
125 253 1
413 253 1
414 253 1
73 254 1
94 254 1
101 254 1
126 254 1
414 254 1
415 254 1
74 255 1
95 255 1
102 255 1
127 255 1
415 255 1
416 255 1
75 256 1
96 256 1
103 256 1
128 256 1
385 256 1
416 256 1
65 257 1
78 257 1
129 257 1
136 257 1
417 257 1
418 257 1
66 258 1
79 258 1
130 258 1
137 258 1
418 258 1
419 258 1
67 259 1
80 259 1
131 259 1
138 259 1
419 259 1
420 259 1
68 260 1
81 260 1
132 260 1
139 260 1
420 260 1
421 260 1
69 261 1
82 261 1
133 261 1
140 261 1
421 261 1
422 261 1
70 262 1
83 262 1
134 262 1
141 262 1
422 262 1
423 262 1
71 263 1
84 263 1
135 263 1
142 263 1
423 263 1
424 263 1
72 264 1
85 264 1
136 264 1
143 264 1
424 264 1
425 264 1
73 265 1
86 265 1
137 265 1
144 265 1
425 265 1
426 265 1
74 266 1
87 266 1
138 266 1
145 266 1
426 266 1
427 266 1
75 267 1
88 267 1
139 267 1
146 267 1
427 267 1
428 267 1
76 268 1
89 268 1
140 268 1
147 268 1
428 268 1
429 268 1
77 269 1
90 269 1
141 269 1
148 269 1
429 269 1
430 269 1
78 270 1
91 270 1
142 270 1
149 270 1
430 270 1
431 270 1
79 271 1
92 271 1
143 271 1
150 271 1
431 271 1
432 271 1
80 272 1
93 272 1
144 272 1
151 272 1
432 272 1
433 272 1
81 273 1
94 273 1
145 273 1
152 273 1
433 273 1
434 273 1
82 274 1
95 274 1
146 274 1
153 274 1
434 274 1
435 274 1
83 275 1
96 275 1
147 275 1
154 275 1
435 275 1
436 275 1
65 276 1
84 276 1
148 276 1
155 276 1
436 276 1
437 276 1
66 277 1
85 277 1
149 277 1
156 277 1
437 277 1
438 277 1
67 278 1
86 278 1
150 278 1
157 278 1
438 278 1
439 278 1
68 279 1
87 279 1
151 279 1
158 279 1
439 279 1
440 279 1
69 280 1
88 280 1
152 280 1
159 280 1
440 280 1
441 280 1
70 281 1
89 281 1
153 281 1
160 281 1
441 281 1
442 281 1
71 282 1
90 282 1
129 282 1
154 282 1
442 282 1
443 282 1
72 283 1
91 283 1
130 283 1
155 283 1
443 283 1
444 283 1
73 284 1
92 284 1
131 284 1
156 284 1
444 284 1
445 284 1
74 285 1
93 285 1
132 285 1
157 285 1
445 285 1
446 285 1
75 286 1
94 286 1
133 286 1
158 286 1
446 286 1
447 286 1
76 287 1
95 287 1
134 287 1
159 287 1
447 287 1
448 287 1
77 288 1
96 288 1
135 288 1
160 288 1
417 288 1
448 288 1
97 289 1
110 289 1
129 289 1
140 289 1
449 289 1
450 289 1
98 290 1
111 290 1
130 290 1
141 290 1
450 290 1
451 290 1
99 291 1
112 291 1
131 291 1
142 291 1
451 291 1
452 291 1
100 292 1
113 292 1
132 292 1
143 292 1
452 292 1
453 292 1
101 293 1
114 293 1
133 293 1
144 293 1
453 293 1
454 293 1
102 294 1
115 294 1
134 294 1
145 294 1
454 294 1
455 294 1
103 295 1
116 295 1
135 295 1
146 295 1
455 295 1
456 295 1
104 296 1
117 296 1
136 296 1
147 296 1
456 296 1
457 296 1
105 297 1
118 297 1
137 297 1
148 297 1
457 297 1
458 297 1
106 298 1
119 298 1
138 298 1
149 298 1
458 298 1
459 298 1
107 299 1
120 299 1
139 299 1
150 299 1
459 299 1
460 299 1
108 300 1
121 300 1
140 300 1
151 300 1
460 300 1
461 300 1
109 301 1
122 301 1
141 301 1
152 301 1
461 301 1
462 301 1
110 302 1
123 302 1
142 302 1
153 302 1
462 302 1
463 302 1
111 303 1
124 303 1
143 303 1
154 303 1
463 303 1
464 303 1
112 304 1
125 304 1
144 304 1
155 304 1
464 304 1
465 304 1
113 305 1
126 305 1
145 305 1
156 305 1
465 305 1
466 305 1
114 306 1
127 306 1
146 306 1
157 306 1
466 306 1
467 306 1
115 307 1
128 307 1
147 307 1
158 307 1
467 307 1
468 307 1
97 308 1
116 308 1
148 308 1
159 308 1
468 308 1
469 308 1
98 309 1
117 309 1
149 309 1
160 309 1
469 309 1
470 309 1
99 310 1
118 310 1
129 310 1
150 310 1
470 310 1
471 310 1
100 311 1
119 311 1
130 311 1
151 311 1
471 311 1
472 311 1
101 312 1
120 312 1
131 312 1
152 312 1
472 312 1
473 312 1
102 313 1
121 313 1
132 313 1
153 313 1
473 313 1
474 313 1
103 314 1
122 314 1
133 314 1
154 314 1
474 314 1
475 314 1
104 315 1
123 315 1
134 315 1
155 315 1
475 315 1
476 315 1
105 316 1
124 316 1
135 316 1
156 316 1
476 316 1
477 316 1
106 317 1
125 317 1
136 317 1
157 317 1
477 317 1
478 317 1
107 318 1
126 318 1
137 318 1
158 318 1
478 318 1
479 318 1
108 319 1
127 319 1
138 319 1
159 319 1
479 319 1
480 319 1
109 320 1
128 320 1
139 320 1
160 320 1
449 320 1
480 320 1
161 321 1
168 321 1
193 321 1
198 321 1
289 321 1
291 321 1
162 322 1
169 322 1
194 322 1
199 322 1
290 322 1
292 322 1
163 323 1
170 323 1
195 323 1
200 323 1
291 323 1
293 323 1
164 324 1
171 324 1
196 324 1
201 324 1
292 324 1
294 324 1
165 325 1
172 325 1
197 325 1
202 325 1
293 325 1
295 325 1
166 326 1
173 326 1
198 326 1
203 326 1
294 326 1
296 326 1
167 327 1
174 327 1
199 327 1
204 327 1
295 327 1
297 327 1
168 328 1
175 328 1
200 328 1
205 328 1
296 328 1
298 328 1
169 329 1
176 329 1
201 329 1
206 329 1
297 329 1
299 329 1
170 330 1
177 330 1
202 330 1
207 330 1
298 330 1
300 330 1
171 331 1
178 331 1
203 331 1
208 331 1
299 331 1
301 331 1
172 332 1
179 332 1
204 332 1
209 332 1
300 332 1
302 332 1
173 333 1
180 333 1
205 333 1
210 333 1
301 333 1
303 333 1
174 334 1
181 334 1
206 334 1
211 334 1
302 334 1
304 334 1
175 335 1
182 335 1
207 335 1
212 335 1
303 335 1
305 335 1
176 336 1
183 336 1
208 336 1
213 336 1
304 336 1
306 336 1
177 337 1
184 337 1
209 337 1
214 337 1
305 337 1
307 337 1
178 338 1
185 338 1
210 338 1
215 338 1
306 338 1
308 338 1
179 339 1
186 339 1
211 339 1
216 339 1
307 339 1
309 339 1
180 340 1
187 340 1
212 340 1
217 340 1
308 340 1
310 340 1
181 341 1
188 341 1
213 341 1
218 341 1
309 341 1
311 341 1
182 342 1
189 342 1
214 342 1
219 342 1
310 342 1
312 342 1
183 343 1
190 343 1
215 343 1
220 343 1
311 343 1
313 343 1
184 344 1
191 344 1
216 344 1
221 344 1
312 344 1
314 344 1
185 345 1
192 345 1
217 345 1
222 345 1
313 345 1
315 345 1
161 346 1
186 346 1
218 346 1
223 346 1
314 346 1
316 346 1
162 347 1
187 347 1
219 347 1
224 347 1
315 347 1
317 347 1
163 348 1
188 348 1
193 348 1
220 348 1
316 348 1
318 348 1
164 349 1
189 349 1
194 349 1
221 349 1
317 349 1
319 349 1
165 350 1
190 350 1
195 350 1
222 350 1
318 350 1
320 350 1
166 351 1
191 351 1
196 351 1
223 351 1
289 351 1
319 351 1
167 352 1
192 352 1
197 352 1
224 352 1
290 352 1
320 352 1
161 353 1
172 353 1
225 353 1
230 353 1
321 353 1
323 353 1
162 354 1
173 354 1
226 354 1
231 354 1
322 354 1
324 354 1
163 355 1
174 355 1
227 355 1
232 355 1
323 355 1
325 355 1
164 356 1
175 356 1
228 356 1
233 356 1
324 356 1
326 356 1
165 357 1
176 357 1
229 357 1
234 357 1
325 357 1
327 357 1
166 358 1
177 358 1
230 358 1
235 358 1
326 358 1
328 358 1
167 359 1
178 359 1
231 359 1
236 359 1
327 359 1
329 359 1
168 360 1
179 360 1
232 360 1
237 360 1
328 360 1
330 360 1
169 361 1
180 361 1
233 361 1
238 361 1
329 361 1
331 361 1
170 362 1
181 362 1
234 362 1
239 362 1
330 362 1
332 362 1
171 363 1
182 363 1
235 363 1
240 363 1
331 363 1
333 363 1
172 364 1
183 364 1
236 364 1
241 364 1
332 364 1
334 364 1
173 365 1
184 365 1
237 365 1
242 365 1
333 365 1
335 365 1
174 366 1
185 366 1
238 366 1
243 366 1
334 366 1
336 366 1
175 367 1
186 367 1
239 367 1
244 367 1
335 367 1
337 367 1
176 368 1
187 368 1
240 368 1
245 368 1
336 368 1
338 368 1
177 369 1
188 369 1
241 369 1
246 369 1
337 369 1
339 369 1
178 370 1
189 370 1
242 370 1
247 370 1
338 370 1
340 370 1
179 371 1
190 371 1
243 371 1
248 371 1
339 371 1
341 371 1
180 372 1
191 372 1
244 372 1
249 372 1
340 372 1
342 372 1
181 373 1
192 373 1
245 373 1
250 373 1
341 373 1
343 373 1
161 374 1
182 374 1
246 374 1
251 374 1
342 374 1
344 374 1
162 375 1
183 375 1
247 375 1
252 375 1
343 375 1
345 375 1
163 376 1
184 376 1
248 376 1
253 376 1
344 376 1
346 376 1
164 377 1
185 377 1
249 377 1
254 377 1
345 377 1
347 377 1
165 378 1
186 378 1
250 378 1
255 378 1
346 378 1
348 378 1
166 379 1
187 379 1
251 379 1
256 379 1
347 379 1
349 379 1
167 380 1
188 380 1
225 380 1
252 380 1
348 380 1
350 380 1
168 381 1
189 381 1
226 381 1
253 381 1
349 381 1
351 381 1
169 382 1
190 382 1
227 382 1
254 382 1
350 382 1
352 382 1
170 383 1
191 383 1
228 383 1
255 383 1
321 383 1
351 383 1
171 384 1
192 384 1
229 384 1
256 384 1
322 384 1
352 384 1
161 385 1
174 385 1
257 385 1
262 385 1
353 385 1
355 385 1
162 386 1
175 386 1
258 386 1
263 386 1
354 386 1
356 386 1
163 387 1
176 387 1
259 387 1
264 387 1
355 387 1
357 387 1
164 388 1
177 388 1
260 388 1
265 388 1
356 388 1
358 388 1
165 389 1
178 389 1
261 389 1
266 389 1
357 389 1
359 389 1
166 390 1
179 390 1
262 390 1
267 390 1
358 390 1
360 390 1
167 391 1
180 391 1
263 391 1
268 391 1
359 391 1
361 391 1
168 392 1
181 392 1
264 392 1
269 392 1
360 392 1
362 392 1
169 393 1
182 393 1
265 393 1
270 393 1
361 393 1
363 393 1
170 394 1
183 394 1
266 394 1
271 394 1
362 394 1
364 394 1
171 395 1
184 395 1
267 395 1
272 395 1
363 395 1
365 395 1
172 396 1
185 396 1
268 396 1
273 396 1
364 396 1
366 396 1
173 397 1
186 397 1
269 397 1
274 397 1
365 397 1
367 397 1
174 398 1
187 398 1
270 398 1
275 398 1
366 398 1
368 398 1
175 399 1
188 399 1
271 399 1
276 399 1
367 399 1
369 399 1
176 400 1
189 400 1
272 400 1
277 400 1
368 400 1
370 400 1
177 401 1
190 401 1
273 401 1
278 401 1
369 401 1
371 401 1
178 402 1
191 402 1
274 402 1
279 402 1
370 402 1
372 402 1
179 403 1
192 403 1
275 403 1
280 403 1
371 403 1
373 403 1
161 404 1
180 404 1
276 404 1
281 404 1
372 404 1
374 404 1
162 405 1
181 405 1
277 405 1
282 405 1
373 405 1
375 405 1
163 406 1
182 406 1
278 406 1
283 406 1
374 406 1
376 406 1
164 407 1
183 407 1
279 407 1
284 407 1
375 407 1
377 407 1
165 408 1
184 408 1
280 408 1
285 408 1
376 408 1
378 408 1
166 409 1
185 409 1
281 409 1
286 409 1
377 409 1
379 409 1
167 410 1
186 410 1
282 410 1
287 410 1
378 410 1
380 410 1
168 411 1
187 411 1
283 411 1
288 411 1
379 411 1
381 411 1
169 412 1
188 412 1
257 412 1
284 412 1
380 412 1
382 412 1
170 413 1
189 413 1
258 413 1
285 413 1
381 413 1
383 413 1
171 414 1
190 414 1
259 414 1
286 414 1
382 414 1
384 414 1
172 415 1
191 415 1
260 415 1
287 415 1
353 415 1
383 415 1
173 416 1
192 416 1
261 416 1
288 416 1
354 416 1
384 416 1
193 417 1
204 417 1
225 417 1
232 417 1
385 417 1
387 417 1
194 418 1
205 418 1
226 418 1
233 418 1
386 418 1
388 418 1
195 419 1
206 419 1
227 419 1
234 419 1
387 419 1
389 419 1
196 420 1
207 420 1
228 420 1
235 420 1
388 420 1
390 420 1
197 421 1
208 421 1
229 421 1
236 421 1
389 421 1
391 421 1
198 422 1
209 422 1
230 422 1
237 422 1
390 422 1
392 422 1
199 423 1
210 423 1
231 423 1
238 423 1
391 423 1
393 423 1
200 424 1
211 424 1
232 424 1
239 424 1
392 424 1
394 424 1
201 425 1
212 425 1
233 425 1
240 425 1
393 425 1
395 425 1
202 426 1
213 426 1
234 426 1
241 426 1
394 426 1
396 426 1
203 427 1
214 427 1
235 427 1
242 427 1
395 427 1
397 427 1
204 428 1
215 428 1
236 428 1
243 428 1
396 428 1
398 428 1
205 429 1
216 429 1
237 429 1
244 429 1
397 429 1
399 429 1
206 430 1
217 430 1
238 430 1
245 430 1
398 430 1
400 430 1
207 431 1
218 431 1
239 431 1
246 431 1
399 431 1
401 431 1
208 432 1
219 432 1
240 432 1
247 432 1
400 432 1
402 432 1
209 433 1
220 433 1
241 433 1
248 433 1
401 433 1
403 433 1
210 434 1
221 434 1
242 434 1
249 434 1
402 434 1
404 434 1
211 435 1
222 435 1
243 435 1
250 435 1
403 435 1
405 435 1
212 436 1
223 436 1
244 436 1
251 436 1
404 436 1
406 436 1
213 437 1
224 437 1
245 437 1
252 437 1
405 437 1
407 437 1
193 438 1
214 438 1
246 438 1
253 438 1
406 438 1
408 438 1
194 439 1
215 439 1
247 439 1
254 439 1
407 439 1
409 439 1
195 440 1
216 440 1
248 440 1
255 440 1
408 440 1
410 440 1
196 441 1
217 441 1
249 441 1
256 441 1
409 441 1
411 441 1
197 442 1
218 442 1
225 442 1
250 442 1
410 442 1
412 442 1
198 443 1
219 443 1
226 443 1
251 443 1
411 443 1
413 443 1
199 444 1
220 444 1
227 444 1
252 444 1
412 444 1
414 444 1
200 445 1
221 445 1
228 445 1
253 445 1
413 445 1
415 445 1
201 446 1
222 446 1
229 446 1
254 446 1
414 446 1
416 446 1
202 447 1
223 447 1
230 447 1
255 447 1
385 447 1
415 447 1
203 448 1
224 448 1
231 448 1
256 448 1
386 448 1
416 448 1
193 449 1
206 449 1
257 449 1
264 449 1
417 449 1
419 449 1
194 450 1
207 450 1
258 450 1
265 450 1
418 450 1
420 450 1
195 451 1
208 451 1
259 451 1
266 451 1
419 451 1
421 451 1
196 452 1
209 452 1
260 452 1
267 452 1
420 452 1
422 452 1
197 453 1
210 453 1
261 453 1
268 453 1
421 453 1
423 453 1
198 454 1
211 454 1
262 454 1
269 454 1
422 454 1
424 454 1
199 455 1
212 455 1
263 455 1
270 455 1
423 455 1
425 455 1
200 456 1
213 456 1
264 456 1
271 456 1
424 456 1
426 456 1
201 457 1
214 457 1
265 457 1
272 457 1
425 457 1
427 457 1
202 458 1
215 458 1
266 458 1
273 458 1
426 458 1
428 458 1
203 459 1
216 459 1
267 459 1
274 459 1
427 459 1
429 459 1
204 460 1
217 460 1
268 460 1
275 460 1
428 460 1
430 460 1
205 461 1
218 461 1
269 461 1
276 461 1
429 461 1
431 461 1
206 462 1
219 462 1
270 462 1
277 462 1
430 462 1
432 462 1
207 463 1
220 463 1
271 463 1
278 463 1
431 463 1
433 463 1
208 464 1
221 464 1
272 464 1
279 464 1
432 464 1
434 464 1
209 465 1
222 465 1
273 465 1
280 465 1
433 465 1
435 465 1
210 466 1
223 466 1
274 466 1
281 466 1
434 466 1
436 466 1
211 467 1
224 467 1
275 467 1
282 467 1
435 467 1
437 467 1
193 468 1
212 468 1
276 468 1
283 468 1
436 468 1
438 468 1
194 469 1
213 469 1
277 469 1
284 469 1
437 469 1
439 469 1
195 470 1
214 470 1
278 470 1
285 470 1
438 470 1
440 470 1
196 471 1
215 471 1
279 471 1
286 471 1
439 471 1
441 471 1
197 472 1
216 472 1
280 472 1
287 472 1
440 472 1
442 472 1
198 473 1
217 473 1
281 473 1
288 473 1
441 473 1
443 473 1
199 474 1
218 474 1
257 474 1
282 474 1
442 474 1
444 474 1
200 475 1
219 475 1
258 475 1
283 475 1
443 475 1
445 475 1
201 476 1
220 476 1
259 476 1
284 476 1
444 476 1
446 476 1
202 477 1
221 477 1
260 477 1
285 477 1
445 477 1
447 477 1
203 478 1
222 478 1
261 478 1
286 478 1
446 478 1
448 478 1
204 479 1
223 479 1
262 479 1
287 479 1
417 479 1
447 479 1
205 480 1
224 480 1
263 480 1
288 480 1
418 480 1
448 480 1
225 481 1
238 481 1
257 481 1
268 481 1
449 481 1
451 481 1
226 482 1
239 482 1
258 482 1
269 482 1
450 482 1
452 482 1
227 483 1
240 483 1
259 483 1
270 483 1
451 483 1
453 483 1
228 484 1
241 484 1
260 484 1
271 484 1
452 484 1
454 484 1
229 485 1
242 485 1
261 485 1
272 485 1
453 485 1
455 485 1
230 486 1
243 486 1
262 486 1
273 486 1
454 486 1
456 486 1
231 487 1
244 487 1
263 487 1
274 487 1
455 487 1
457 487 1
232 488 1
245 488 1
264 488 1
275 488 1
456 488 1
458 488 1
233 489 1
246 489 1
265 489 1
276 489 1
457 489 1
459 489 1
234 490 1
247 490 1
266 490 1
277 490 1
458 490 1
460 490 1
235 491 1
248 491 1
267 491 1
278 491 1
459 491 1
461 491 1
236 492 1
249 492 1
268 492 1
279 492 1
460 492 1
462 492 1
237 493 1
250 493 1
269 493 1
280 493 1
461 493 1
463 493 1
238 494 1
251 494 1
270 494 1
281 494 1
462 494 1
464 494 1
239 495 1
252 495 1
271 495 1
282 495 1
463 495 1
465 495 1
240 496 1
253 496 1
272 496 1
283 496 1
464 496 1
466 496 1
241 497 1
254 497 1
273 497 1
284 497 1
465 497 1
467 497 1
242 498 1
255 498 1
274 498 1
285 498 1
466 498 1
468 498 1
243 499 1
256 499 1
275 499 1
286 499 1
467 499 1
469 499 1
225 500 1
244 500 1
276 500 1
287 500 1
468 500 1
470 500 1
226 501 1
245 501 1
277 501 1
288 501 1
469 501 1
471 501 1
227 502 1
246 502 1
257 502 1
278 502 1
470 502 1
472 502 1
228 503 1
247 503 1
258 503 1
279 503 1
471 503 1
473 503 1
229 504 1
248 504 1
259 504 1
280 504 1
472 504 1
474 504 1
230 505 1
249 505 1
260 505 1
281 505 1
473 505 1
475 505 1
231 506 1
250 506 1
261 506 1
282 506 1
474 506 1
476 506 1
232 507 1
251 507 1
262 507 1
283 507 1
475 507 1
477 507 1
233 508 1
252 508 1
263 508 1
284 508 1
476 508 1
478 508 1
234 509 1
253 509 1
264 509 1
285 509 1
477 509 1
479 509 1
235 510 1
254 510 1
265 510 1
286 510 1
478 510 1
480 510 1
236 511 1
255 511 1
266 511 1
287 511 1
449 511 1
479 511 1
237 512 1
256 512 1
267 512 1
288 512 1
450 512 1
480 512 1
289 513 1
300 513 1
321 513 1
328 513 1
385 513 1
390 513 1
290 514 1
301 514 1
322 514 1
329 514 1
386 514 1
391 514 1
291 515 1
302 515 1
323 515 1
330 515 1
387 515 1
392 515 1
292 516 1
303 516 1
324 516 1
331 516 1
388 516 1
393 516 1
293 517 1
304 517 1
325 517 1
332 517 1
389 517 1
394 517 1
294 518 1
305 518 1
326 518 1
333 518 1
390 518 1
395 518 1
295 519 1
306 519 1
327 519 1
334 519 1
391 519 1
396 519 1
296 520 1
307 520 1
328 520 1
335 520 1
392 520 1
397 520 1
297 521 1
308 521 1
329 521 1
336 521 1
393 521 1
398 521 1
298 522 1
309 522 1
330 522 1
337 522 1
394 522 1
399 522 1
299 523 1
310 523 1
331 523 1
338 523 1
395 523 1
400 523 1
300 524 1
311 524 1
332 524 1
339 524 1
396 524 1
401 524 1
301 525 1
312 525 1
333 525 1
340 525 1
397 525 1
402 525 1
302 526 1
313 526 1
334 526 1
341 526 1
398 526 1
403 526 1
303 527 1
314 527 1
335 527 1
342 527 1
399 527 1
404 527 1
304 528 1
315 528 1
336 528 1
343 528 1
400 528 1
405 528 1
305 529 1
316 529 1
337 529 1
344 529 1
401 529 1
406 529 1
306 530 1
317 530 1
338 530 1
345 530 1
402 530 1
407 530 1
307 531 1
318 531 1
339 531 1
346 531 1
403 531 1
408 531 1
308 532 1
319 532 1
340 532 1
347 532 1
404 532 1
409 532 1
309 533 1
320 533 1
341 533 1
348 533 1
405 533 1
410 533 1
289 534 1
310 534 1
342 534 1
349 534 1
406 534 1
411 534 1
290 535 1
311 535 1
343 535 1
350 535 1
407 535 1
412 535 1
291 536 1
312 536 1
344 536 1
351 536 1
408 536 1
413 536 1
292 537 1
313 537 1
345 537 1
352 537 1
409 537 1
414 537 1
293 538 1
314 538 1
321 538 1
346 538 1
410 538 1
415 538 1
294 539 1
315 539 1
322 539 1
347 539 1
411 539 1
416 539 1
295 540 1
316 540 1
323 540 1
348 540 1
385 540 1
412 540 1
296 541 1
317 541 1
324 541 1
349 541 1
386 541 1
413 541 1
297 542 1
318 542 1
325 542 1
350 542 1
387 542 1
414 542 1
298 543 1
319 543 1
326 543 1
351 543 1
388 543 1
415 543 1
299 544 1
320 544 1
327 544 1
352 544 1
389 544 1
416 544 1
289 545 1
302 545 1
353 545 1
360 545 1
417 545 1
422 545 1
290 546 1
303 546 1
354 546 1
361 546 1
418 546 1
423 546 1
291 547 1
304 547 1
355 547 1
362 547 1
419 547 1
424 547 1
292 548 1
305 548 1
356 548 1
363 548 1
420 548 1
425 548 1
293 549 1
306 549 1
357 549 1
364 549 1
421 549 1
426 549 1
294 550 1
307 550 1
358 550 1
365 550 1
422 550 1
427 550 1
295 551 1
308 551 1
359 551 1
366 551 1
423 551 1
428 551 1
296 552 1
309 552 1
360 552 1
367 552 1
424 552 1
429 552 1
297 553 1
310 553 1
361 553 1
368 553 1
425 553 1
430 553 1
298 554 1
311 554 1
362 554 1
369 554 1
426 554 1
431 554 1
299 555 1
312 555 1
363 555 1
370 555 1
427 555 1
432 555 1
300 556 1
313 556 1
364 556 1
371 556 1
428 556 1
433 556 1
301 557 1
314 557 1
365 557 1
372 557 1
429 557 1
434 557 1
302 558 1
315 558 1
366 558 1
373 558 1
430 558 1
435 558 1
303 559 1
316 559 1
367 559 1
374 559 1
431 559 1
436 559 1
304 560 1
317 560 1
368 560 1
375 560 1
432 560 1
437 560 1
305 561 1
318 561 1
369 561 1
376 561 1
433 561 1
438 561 1
306 562 1
319 562 1
370 562 1
377 562 1
434 562 1
439 562 1
307 563 1
320 563 1
371 563 1
378 563 1
435 563 1
440 563 1
289 564 1
308 564 1
372 564 1
379 564 1
436 564 1
441 564 1
290 565 1
309 565 1
373 565 1
380 565 1
437 565 1
442 565 1
291 566 1
310 566 1
374 566 1
381 566 1
438 566 1
443 566 1
292 567 1
311 567 1
375 567 1
382 567 1
439 567 1
444 567 1
293 568 1
312 568 1
376 568 1
383 568 1
440 568 1
445 568 1
294 569 1
313 569 1
377 569 1
384 569 1
441 569 1
446 569 1
295 570 1
314 570 1
353 570 1
378 570 1
442 570 1
447 570 1
296 571 1
315 571 1
354 571 1
379 571 1
443 571 1
448 571 1
297 572 1
316 572 1
355 572 1
380 572 1
417 572 1
444 572 1
298 573 1
317 573 1
356 573 1
381 573 1
418 573 1
445 573 1
299 574 1
318 574 1
357 574 1
382 574 1
419 574 1
446 574 1
300 575 1
319 575 1
358 575 1
383 575 1
420 575 1
447 575 1
301 576 1
320 576 1
359 576 1
384 576 1
421 576 1
448 576 1
321 577 1
334 577 1
353 577 1
364 577 1
449 577 1
454 577 1
322 578 1
335 578 1
354 578 1
365 578 1
450 578 1
455 578 1
323 579 1
336 579 1
355 579 1
366 579 1
451 579 1
456 579 1
324 580 1
337 580 1
356 580 1
367 580 1
452 580 1
457 580 1
325 581 1
338 581 1
357 581 1
368 581 1
453 581 1
458 581 1
326 582 1
339 582 1
358 582 1
369 582 1
454 582 1
459 582 1
327 583 1
340 583 1
359 583 1
370 583 1
455 583 1
460 583 1
328 584 1
341 584 1
360 584 1
371 584 1
456 584 1
461 584 1
329 585 1
342 585 1
361 585 1
372 585 1
457 585 1
462 585 1
330 586 1
343 586 1
362 586 1
373 586 1
458 586 1
463 586 1
331 587 1
344 587 1
363 587 1
374 587 1
459 587 1
464 587 1
332 588 1
345 588 1
364 588 1
375 588 1
460 588 1
465 588 1
333 589 1
346 589 1
365 589 1
376 589 1
461 589 1
466 589 1
334 590 1
347 590 1
366 590 1
377 590 1
462 590 1
467 590 1
335 591 1
348 591 1
367 591 1
378 591 1
463 591 1
468 591 1
336 592 1
349 592 1
368 592 1
379 592 1
464 592 1
469 592 1
337 593 1
350 593 1
369 593 1
380 593 1
465 593 1
470 593 1
338 594 1
351 594 1
370 594 1
381 594 1
466 594 1
471 594 1
339 595 1
352 595 1
371 595 1
382 595 1
467 595 1
472 595 1
321 596 1
340 596 1
372 596 1
383 596 1
468 596 1
473 596 1
322 597 1
341 597 1
373 597 1
384 597 1
469 597 1
474 597 1
323 598 1
342 598 1
353 598 1
374 598 1
470 598 1
475 598 1
324 599 1
343 599 1
354 599 1
375 599 1
471 599 1
476 599 1
325 600 1
344 600 1
355 600 1
376 600 1
472 600 1
477 600 1
326 601 1
345 601 1
356 601 1
377 601 1
473 601 1
478 601 1
327 602 1
346 602 1
357 602 1
378 602 1
474 602 1
479 602 1
328 603 1
347 603 1
358 603 1
379 603 1
475 603 1
480 603 1
329 604 1
348 604 1
359 604 1
380 604 1
449 604 1
476 604 1
330 605 1
349 605 1
360 605 1
381 605 1
450 605 1
477 605 1
331 606 1
350 606 1
361 606 1
382 606 1
451 606 1
478 606 1
332 607 1
351 607 1
362 607 1
383 607 1
452 607 1
479 607 1
333 608 1
352 608 1
363 608 1
384 608 1
453 608 1
480 608 1
385 609 1
398 609 1
417 609 1
428 609 1
449 609 1
456 609 1
386 610 1
399 610 1
418 610 1
429 610 1
450 610 1
457 610 1
387 611 1
400 611 1
419 611 1
430 611 1
451 611 1
458 611 1
388 612 1
401 612 1
420 612 1
431 612 1
452 612 1
459 612 1
389 613 1
402 613 1
421 613 1
432 613 1
453 613 1
460 613 1
390 614 1
403 614 1
422 614 1
433 614 1
454 614 1
461 614 1
391 615 1
404 615 1
423 615 1
434 615 1
455 615 1
462 615 1
392 616 1
405 616 1
424 616 1
435 616 1
456 616 1
463 616 1
393 617 1
406 617 1
425 617 1
436 617 1
457 617 1
464 617 1
394 618 1
407 618 1
426 618 1
437 618 1
458 618 1
465 618 1
395 619 1
408 619 1
427 619 1
438 619 1
459 619 1
466 619 1
396 620 1
409 620 1
428 620 1
439 620 1
460 620 1
467 620 1
397 621 1
410 621 1
429 621 1
440 621 1
461 621 1
468 621 1
398 622 1
411 622 1
430 622 1
441 622 1
462 622 1
469 622 1
399 623 1
412 623 1
431 623 1
442 623 1
463 623 1
470 623 1
400 624 1
413 624 1
432 624 1
443 624 1
464 624 1
471 624 1
401 625 1
414 625 1
433 625 1
444 625 1
465 625 1
472 625 1
402 626 1
415 626 1
434 626 1
445 626 1
466 626 1
473 626 1
403 627 1
416 627 1
435 627 1
446 627 1
467 627 1
474 627 1
385 628 1
404 628 1
436 628 1
447 628 1
468 628 1
475 628 1
386 629 1
405 629 1
437 629 1
448 629 1
469 629 1
476 629 1
387 630 1
406 630 1
417 630 1
438 630 1
470 630 1
477 630 1
388 631 1
407 631 1
418 631 1
439 631 1
471 631 1
478 631 1
389 632 1
408 632 1
419 632 1
440 632 1
472 632 1
479 632 1
390 633 1
409 633 1
420 633 1
441 633 1
473 633 1
480 633 1
391 634 1
410 634 1
421 634 1
442 634 1
449 634 1
474 634 1
392 635 1
411 635 1
422 635 1
443 635 1
450 635 1
475 635 1
393 636 1
412 636 1
423 636 1
444 636 1
451 636 1
476 636 1
394 637 1
413 637 1
424 637 1
445 637 1
452 637 1
477 637 1
395 638 1
414 638 1
425 638 1
446 638 1
453 638 1
478 638 1
396 639 1
415 639 1
426 639 1
447 639 1
454 639 1
479 639 1
397 640 1
416 640 1
427 640 1
448 640 1
455 640 1
480 640 1
