%%MatrixMarket matrix coordinate integer general
% Binary matrix; one-based indices; arithmetic over GF(2)
132 198 792
1 1 1
8 1 1
34 1 1
37 1 1
2 2 1
9 2 1
35 2 1
38 2 1
3 3 1
10 3 1
36 3 1
39 3 1
4 4 1
11 4 1
37 4 1
40 4 1
5 5 1
12 5 1
38 5 1
41 5 1
6 6 1
13 6 1
39 6 1
42 6 1
7 7 1
14 7 1
40 7 1
43 7 1
8 8 1
15 8 1
41 8 1
44 8 1
9 9 1
16 9 1
42 9 1
45 9 1
10 10 1
17 10 1
43 10 1
46 10 1
11 11 1
18 11 1
44 11 1
47 11 1
12 12 1
19 12 1
45 12 1
48 12 1
13 13 1
20 13 1
46 13 1
49 13 1
14 14 1
21 14 1
47 14 1
50 14 1
15 15 1
22 15 1
48 15 1
51 15 1
16 16 1
23 16 1
49 16 1
52 16 1
17 17 1
24 17 1
50 17 1
53 17 1
18 18 1
25 18 1
51 18 1
54 18 1
19 19 1
26 19 1
52 19 1
55 19 1
20 20 1
27 20 1
53 20 1
56 20 1
21 21 1
28 21 1
54 21 1
57 21 1
22 22 1
29 22 1
55 22 1
58 22 1
23 23 1
30 23 1
56 23 1
59 23 1
24 24 1
31 24 1
57 24 1
60 24 1
25 25 1
32 25 1
58 25 1
61 25 1
26 26 1
33 26 1
59 26 1
62 26 1
1 27 1
27 27 1
60 27 1
63 27 1
2 28 1
28 28 1
61 28 1
64 28 1
3 29 1
29 29 1
62 29 1
65 29 1
4 30 1
30 30 1
63 30 1
66 30 1
5 31 1
31 31 1
34 31 1
64 31 1
6 32 1
32 32 1
35 32 1
65 32 1
7 33 1
33 33 1
36 33 1
66 33 1
1 34 1
17 34 1
67 34 1
70 34 1
2 35 1
18 35 1
68 35 1
71 35 1
3 36 1
19 36 1
69 36 1
72 36 1
4 37 1
20 37 1
70 37 1
73 37 1
5 38 1
21 38 1
71 38 1
74 38 1
6 39 1
22 39 1
72 39 1
75 39 1
7 40 1
23 40 1
73 40 1
76 40 1
8 41 1
24 41 1
74 41 1
77 41 1
9 42 1
25 42 1
75 42 1
78 42 1
10 43 1
26 43 1
76 43 1
79 43 1
11 44 1
27 44 1
77 44 1
80 44 1
12 45 1
28 45 1
78 45 1
81 45 1
13 46 1
29 46 1
79 46 1
82 46 1
14 47 1
30 47 1
80 47 1
83 47 1
15 48 1
31 48 1
81 48 1
84 48 1
16 49 1
32 49 1
82 49 1
85 49 1
17 50 1
33 50 1
83 50 1
86 50 1
1 51 1
18 51 1
84 51 1
87 51 1
2 52 1
19 52 1
85 52 1
88 52 1
3 53 1
20 53 1
86 53 1
89 53 1
4 54 1
21 54 1
87 54 1
90 54 1
5 55 1
22 55 1
88 55 1
91 55 1
6 56 1
23 56 1
89 56 1
92 56 1
7 57 1
24 57 1
90 57 1
93 57 1
8 58 1
25 58 1
91 58 1
94 58 1
9 59 1
26 59 1
92 59 1
95 59 1
10 60 1
27 60 1
93 60 1
96 60 1
11 61 1
28 61 1
94 61 1
97 61 1
12 62 1
29 62 1
95 62 1
98 62 1
13 63 1
30 63 1
96 63 1
99 63 1
14 64 1
31 64 1
67 64 1
97 64 1
15 65 1
32 65 1
68 65 1
98 65 1
16 66 1
33 66 1
69 66 1
99 66 1
1 67 1
22 67 1
100 67 1
103 67 1
2 68 1
23 68 1
101 68 1
104 68 1
3 69 1
24 69 1
102 69 1
105 69 1
4 70 1
25 70 1
103 70 1
106 70 1
5 71 1
26 71 1
104 71 1
107 71 1
6 72 1
27 72 1
105 72 1
108 72 1
7 73 1
28 73 1
106 73 1
109 73 1
8 74 1
29 74 1
107 74 1
110 74 1
9 75 1
30 75 1
108 75 1
111 75 1
10 76 1
31 76 1
109 76 1
112 76 1
11 77 1
32 77 1
110 77 1
113 77 1
12 78 1
33 78 1
111 78 1
114 78 1
1 79 1
13 79 1
112 79 1
115 79 1
2 80 1
14 80 1
113 80 1
116 80 1
3 81 1
15 81 1
114 81 1
117 81 1
4 82 1
16 82 1
115 82 1
118 82 1
5 83 1
17 83 1
116 83 1
119 83 1
6 84 1
18 84 1
117 84 1
120 84 1
7 85 1
19 85 1
118 85 1
121 85 1
8 86 1
20 86 1
119 86 1
122 86 1
9 87 1
21 87 1
120 87 1
123 87 1
10 88 1
22 88 1
121 88 1
124 88 1
11 89 1
23 89 1
122 89 1
125 89 1
12 90 1
24 90 1
123 90 1
126 90 1
13 91 1
25 91 1
124 91 1
127 91 1
14 92 1
26 92 1
125 92 1
128 92 1
15 93 1
27 93 1
126 93 1
129 93 1
16 94 1
28 94 1
127 94 1
130 94 1
17 95 1
29 95 1
128 95 1
131 95 1
18 96 1
30 96 1
129 96 1
132 96 1
19 97 1
31 97 1
100 97 1
130 97 1
20 98 1
32 98 1
101 98 1
131 98 1
21 99 1
33 99 1
102 99 1
132 99 1
34 100 1
50 100 1
67 100 1
74 100 1
35 101 1
51 101 1
68 101 1
75 101 1
36 102 1
52 102 1
69 102 1
76 102 1
37 103 1
53 103 1
70 103 1
77 103 1
38 104 1
54 104 1
71 104 1
78 104 1
39 105 1
55 105 1
72 105 1
79 105 1
40 106 1
56 106 1
73 106 1
80 106 1
41 107 1
57 107 1
74 107 1
81 107 1
42 108 1
58 108 1
75 108 1
82 108 1
43 109 1
59 109 1
76 109 1
83 109 1
44 110 1
60 110 1
77 110 1
84 110 1
45 111 1
61 111 1
78 111 1
85 111 1
46 112 1
62 112 1
79 112 1
86 112 1
47 113 1
63 113 1
80 113 1
87 113 1
48 114 1
64 114 1
81 114 1
88 114 1
49 115 1
65 115 1
82 115 1
89 115 1
50 116 1
66 116 1
83 116 1
90 116 1
34 117 1
51 117 1
84 117 1
91 117 1
35 118 1
52 118 1
85 118 1
92 118 1
36 119 1
53 119 1
86 119 1
93 119 1
37 120 1
54 120 1
87 120 1
94 120 1
38 121 1
55 121 1
88 121 1
95 121 1
39 122 1
56 122 1
89 122 1
96 122 1
40 123 1
57 123 1
90 123 1
97 123 1
41 124 1
58 124 1
91 124 1
98 124 1
42 125 1
59 125 1
92 125 1
99 125 1
43 126 1
60 126 1
67 126 1
93 126 1
44 127 1
61 127 1
68 127 1
94 127 1
45 128 1
62 128 1
69 128 1
95 128 1
46 129 1
63 129 1
70 129 1
96 129 1
47 130 1
64 130 1
71 130 1
97 130 1
48 131 1
65 131 1
72 131 1
98 131 1
49 132 1
66 132 1
73 132 1
99 132 1
34 133 1
55 133 1
100 133 1
107 133 1
35 134 1
56 134 1
101 134 1
108 134 1
36 135 1
57 135 1
102 135 1
109 135 1
37 136 1
58 136 1
103 136 1
110 136 1
38 137 1
59 137 1
104 137 1
111 137 1
39 138 1
60 138 1
105 138 1
112 138 1
40 139 1
61 139 1
106 139 1
113 139 1
41 140 1
62 140 1
107 140 1
114 140 1
42 141 1
63 141 1
108 141 1
115 141 1
43 142 1
64 142 1
109 142 1
116 142 1
44 143 1
65 143 1
110 143 1
117 143 1
45 144 1
66 144 1
111 144 1
118 144 1
34 145 1
46 145 1
112 145 1
119 145 1
35 146 1
47 146 1
113 146 1
120 146 1
36 147 1
48 147 1
114 147 1
121 147 1
37 148 1
49 148 1
115 148 1
122 148 1
38 149 1
50 149 1
116 149 1
123 149 1
39 150 1
51 150 1
117 150 1
124 150 1
40 151 1
52 151 1
118 151 1
125 151 1
41 152 1
53 152 1
119 152 1
126 152 1
42 153 1
54 153 1
120 153 1
127 153 1
43 154 1
55 154 1
121 154 1
128 154 1
44 155 1
56 155 1
122 155 1
129 155 1
45 156 1
57 156 1
123 156 1
130 156 1
46 157 1
58 157 1
124 157 1
131 157 1
47 158 1
59 158 1
125 158 1
132 158 1
48 159 1
60 159 1
100 159 1
126 159 1
49 160 1
61 160 1
101 160 1
127 160 1
50 161 1
62 161 1
102 161 1
128 161 1
51 162 1
63 162 1
103 162 1
129 162 1
52 163 1
64 163 1
104 163 1
130 163 1
53 164 1
65 164 1
105 164 1
131 164 1
54 165 1
66 165 1
106 165 1
132 165 1
67 166 1
88 166 1
100 166 1
116 166 1
68 167 1
89 167 1
101 167 1
117 167 1
69 168 1
90 168 1
102 168 1
118 168 1
70 169 1
91 169 1
103 169 1
119 169 1
71 170 1
92 170 1
104 170 1
120 170 1
72 171 1
93 171 1
105 171 1
121 171 1
73 172 1
94 172 1
106 172 1
122 172 1
74 173 1
95 173 1
107 173 1
123 173 1
75 174 1
96 174 1
108 174 1
124 174 1
76 175 1
97 175 1
109 175 1
125 175 1
77 176 1
98 176 1
110 176 1
126 176 1
78 177 1
99 177 1
111 177 1
127 177 1
67 178 1
79 178 1
112 178 1
128 178 1
68 179 1
80 179 1
113 179 1
129 179 1
69 180 1
81 180 1
114 180 1
130 180 1
70 181 1
82 181 1
115 181 1
131 181 1
71 182 1
83 182 1
116 182 1
132 182 1
72 183 1
84 183 1
100 183 1
117 183 1
73 184 1
85 184 1
101 184 1
118 184 1
74 185 1
86 185 1
102 185 1
119 185 1
75 186 1
87 186 1
103 186 1
120 186 1
76 187 1
88 187 1
104 187 1
121 187 1
77 188 1
89 188 1
105 188 1
122 188 1
78 189 1
90 189 1
106 189 1
123 189 1
79 190 1
91 190 1
107 190 1
124 190 1
80 191 1
92 191 1
108 191 1
125 191 1
81 192 1
93 192 1
109 192 1
126 192 1
82 193 1
94 193 1
110 193 1
127 193 1
83 194 1
95 194 1
111 194 1
128 194 1
84 195 1
96 195 1
112 195 1
129 195 1
85 196 1
97 196 1
113 196 1
130 196 1
86 197 1
98 197 1
114 197 1
131 197 1
87 198 1
99 198 1
115 198 1
132 198 1
