%%MatrixMarket matrix coordinate integer general
% Binary matrix; one-based indices; arithmetic over GF(2)
300 400 2400
1 1 1
15 1 1
21 1 1
32 1 1
101 1 1
109 1 1
2 2 1
16 2 1
22 2 1
33 2 1
102 2 1
110 2 1
3 3 1
17 3 1
23 3 1
34 3 1
103 3 1
111 3 1
4 4 1
18 4 1
24 4 1
35 4 1
104 4 1
112 4 1
5 5 1
19 5 1
25 5 1
36 5 1
105 5 1
113 5 1
6 6 1
20 6 1
26 6 1
37 6 1
106 6 1
114 6 1
1 7 1
7 7 1
27 7 1
38 7 1
107 7 1
115 7 1
2 8 1
8 8 1
28 8 1
39 8 1
108 8 1
116 8 1
3 9 1
9 9 1
29 9 1
40 9 1
109 9 1
117 9 1
4 10 1
10 10 1
21 10 1
30 10 1
110 10 1
118 10 1
5 11 1
11 11 1
22 11 1
31 11 1
111 11 1
119 11 1
6 12 1
12 12 1
23 12 1
32 12 1
112 12 1
120 12 1
7 13 1
13 13 1
24 13 1
33 13 1
101 13 1
113 13 1
8 14 1
14 14 1
25 14 1
34 14 1
102 14 1
114 14 1
9 15 1
15 15 1
26 15 1
35 15 1
103 15 1
115 15 1
10 16 1
16 16 1
27 16 1
36 16 1
104 16 1
116 16 1
11 17 1
17 17 1
28 17 1
37 17 1
105 17 1
117 17 1
12 18 1
18 18 1
29 18 1
38 18 1
106 18 1
118 18 1
13 19 1
19 19 1
30 19 1
39 19 1
107 19 1
119 19 1
14 20 1
20 20 1
31 20 1
40 20 1
108 20 1
120 20 1
1 21 1
16 21 1
41 21 1
52 21 1
121 21 1
129 21 1
2 22 1
17 22 1
42 22 1
53 22 1
122 22 1
130 22 1
3 23 1
18 23 1
43 23 1
54 23 1
123 23 1
131 23 1
4 24 1
19 24 1
44 24 1
55 24 1
124 24 1
132 24 1
5 25 1
20 25 1
45 25 1
56 25 1
125 25 1
133 25 1
1 26 1
6 26 1
46 26 1
57 26 1
126 26 1
134 26 1
2 27 1
7 27 1
47 27 1
58 27 1
127 27 1
135 27 1
3 28 1
8 28 1
48 28 1
59 28 1
128 28 1
136 28 1
4 29 1
9 29 1
49 29 1
60 29 1
129 29 1
137 29 1
5 30 1
10 30 1
41 30 1
50 30 1
130 30 1
138 30 1
6 31 1
11 31 1
42 31 1
51 31 1
131 31 1
139 31 1
7 32 1
12 32 1
43 32 1
52 32 1
132 32 1
140 32 1
8 33 1
13 33 1
44 33 1
53 33 1
121 33 1
133 33 1
9 34 1
14 34 1
45 34 1
54 34 1
122 34 1
134 34 1
10 35 1
15 35 1
46 35 1
55 35 1
123 35 1
135 35 1
11 36 1
16 36 1
47 36 1
56 36 1
124 36 1
136 36 1
12 37 1
17 37 1
48 37 1
57 37 1
125 37 1
137 37 1
13 38 1
18 38 1
49 38 1
58 38 1
126 38 1
138 38 1
14 39 1
19 39 1
50 39 1
59 39 1
127 39 1
139 39 1
15 40 1
20 40 1
51 40 1
60 40 1
128 40 1
140 40 1
1 41 1
18 41 1
61 41 1
72 41 1
141 41 1
149 41 1
2 42 1
19 42 1
62 42 1
73 42 1
142 42 1
150 42 1
3 43 1
20 43 1
63 43 1
74 43 1
143 43 1
151 43 1
1 44 1
4 44 1
64 44 1
75 44 1
144 44 1
152 44 1
2 45 1
5 45 1
65 45 1
76 45 1
145 45 1
153 45 1
3 46 1
6 46 1
66 46 1
77 46 1
146 46 1
154 46 1
4 47 1
7 47 1
67 47 1
78 47 1
147 47 1
155 47 1
5 48 1
8 48 1
68 48 1
79 48 1
148 48 1
156 48 1
6 49 1
9 49 1
69 49 1
80 49 1
149 49 1
157 49 1
7 50 1
10 50 1
61 50 1
70 50 1
150 50 1
158 50 1
8 51 1
11 51 1
62 51 1
71 51 1
151 51 1
159 51 1
9 52 1
12 52 1
63 52 1
72 52 1
152 52 1
160 52 1
10 53 1
13 53 1
64 53 1
73 53 1
141 53 1
153 53 1
11 54 1
14 54 1
65 54 1
74 54 1
142 54 1
154 54 1
12 55 1
15 55 1
66 55 1
75 55 1
143 55 1
155 55 1
13 56 1
16 56 1
67 56 1
76 56 1
144 56 1
156 56 1
14 57 1
17 57 1
68 57 1
77 57 1
145 57 1
157 57 1
15 58 1
18 58 1
69 58 1
78 58 1
146 58 1
158 58 1
16 59 1
19 59 1
70 59 1
79 59 1
147 59 1
159 59 1
17 60 1
20 60 1
71 60 1
80 60 1
148 60 1
160 60 1
1 61 1
19 61 1
81 61 1
92 61 1
161 61 1
169 61 1
2 62 1
20 62 1
82 62 1
93 62 1
162 62 1
170 62 1
1 63 1
3 63 1
83 63 1
94 63 1
163 63 1
171 63 1
2 64 1
4 64 1
84 64 1
95 64 1
164 64 1
172 64 1
3 65 1
5 65 1
85 65 1
96 65 1
165 65 1
173 65 1
4 66 1
6 66 1
86 66 1
97 66 1
166 66 1
174 66 1
5 67 1
7 67 1
87 67 1
98 67 1
167 67 1
175 67 1
6 68 1
8 68 1
88 68 1
99 68 1
168 68 1
176 68 1
7 69 1
9 69 1
89 69 1
100 69 1
169 69 1
177 69 1
8 70 1
10 70 1
81 70 1
90 70 1
170 70 1
178 70 1
9 71 1
11 71 1
82 71 1
91 71 1
171 71 1
179 71 1
10 72 1
12 72 1
83 72 1
92 72 1
172 72 1
180 72 1
11 73 1
13 73 1
84 73 1
93 73 1
161 73 1
173 73 1
12 74 1
14 74 1
85 74 1
94 74 1
162 74 1
174 74 1
13 75 1
15 75 1
86 75 1
95 75 1
163 75 1
175 75 1
14 76 1
16 76 1
87 76 1
96 76 1
164 76 1
176 76 1
15 77 1
17 77 1
88 77 1
97 77 1
165 77 1
177 77 1
16 78 1
18 78 1
89 78 1
98 78 1
166 78 1
178 78 1
17 79 1
19 79 1
90 79 1
99 79 1
167 79 1
179 79 1
18 80 1
20 80 1
91 80 1
100 80 1
168 80 1
180 80 1
21 81 1
36 81 1
41 81 1
55 81 1
181 81 1
189 81 1
22 82 1
37 82 1
42 82 1
56 82 1
182 82 1
190 82 1
23 83 1
38 83 1
43 83 1
57 83 1
183 83 1
191 83 1
24 84 1
39 84 1
44 84 1
58 84 1
184 84 1
192 84 1
25 85 1
40 85 1
45 85 1
59 85 1
185 85 1
193 85 1
21 86 1
26 86 1
46 86 1
60 86 1
186 86 1
194 86 1
22 87 1
27 87 1
41 87 1
47 87 1
187 87 1
195 87 1
23 88 1
28 88 1
42 88 1
48 88 1
188 88 1
196 88 1
24 89 1
29 89 1
43 89 1
49 89 1
189 89 1
197 89 1
25 90 1
30 90 1
44 90 1
50 90 1
190 90 1
198 90 1
26 91 1
31 91 1
45 91 1
51 91 1
191 91 1
199 91 1
27 92 1
32 92 1
46 92 1
52 92 1
192 92 1
200 92 1
28 93 1
33 93 1
47 93 1
53 93 1
181 93 1
193 93 1
29 94 1
34 94 1
48 94 1
54 94 1
182 94 1
194 94 1
30 95 1
35 95 1
49 95 1
55 95 1
183 95 1
195 95 1
31 96 1
36 96 1
50 96 1
56 96 1
184 96 1
196 96 1
32 97 1
37 97 1
51 97 1
57 97 1
185 97 1
197 97 1
33 98 1
38 98 1
52 98 1
58 98 1
186 98 1
198 98 1
34 99 1
39 99 1
53 99 1
59 99 1
187 99 1
199 99 1
35 100 1
40 100 1
54 100 1
60 100 1
188 100 1
200 100 1
21 101 1
38 101 1
61 101 1
75 101 1
201 101 1
209 101 1
22 102 1
39 102 1
62 102 1
76 102 1
202 102 1
210 102 1
23 103 1
40 103 1
63 103 1
77 103 1
203 103 1
211 103 1
21 104 1
24 104 1
64 104 1
78 104 1
204 104 1
212 104 1
22 105 1
25 105 1
65 105 1
79 105 1
205 105 1
213 105 1
23 106 1
26 106 1
66 106 1
80 106 1
206 106 1
214 106 1
24 107 1
27 107 1
61 107 1
67 107 1
207 107 1
215 107 1
25 108 1
28 108 1
62 108 1
68 108 1
208 108 1
216 108 1
26 109 1
29 109 1
63 109 1
69 109 1
209 109 1
217 109 1
27 110 1
30 110 1
64 110 1
70 110 1
210 110 1
218 110 1
28 111 1
31 111 1
65 111 1
71 111 1
211 111 1
219 111 1
29 112 1
32 112 1
66 112 1
72 112 1
212 112 1
220 112 1
30 113 1
33 113 1
67 113 1
73 113 1
201 113 1
213 113 1
31 114 1
34 114 1
68 114 1
74 114 1
202 114 1
214 114 1
32 115 1
35 115 1
69 115 1
75 115 1
203 115 1
215 115 1
33 116 1
36 116 1
70 116 1
76 116 1
204 116 1
216 116 1
34 117 1
37 117 1
71 117 1
77 117 1
205 117 1
217 117 1
35 118 1
38 118 1
72 118 1
78 118 1
206 118 1
218 118 1
36 119 1
39 119 1
73 119 1
79 119 1
207 119 1
219 119 1
37 120 1
40 120 1
74 120 1
80 120 1
208 120 1
220 120 1
21 121 1
39 121 1
81 121 1
95 121 1
221 121 1
229 121 1
22 122 1
40 122 1
82 122 1
96 122 1
222 122 1
230 122 1
21 123 1
23 123 1
83 123 1
97 123 1
223 123 1
231 123 1
22 124 1
24 124 1
84 124 1
98 124 1
224 124 1
232 124 1
23 125 1
25 125 1
85 125 1
99 125 1
225 125 1
233 125 1
24 126 1
26 126 1
86 126 1
100 126 1
226 126 1
234 126 1
25 127 1
27 127 1
81 127 1
87 127 1
227 127 1
235 127 1
26 128 1
28 128 1
82 128 1
88 128 1
228 128 1
236 128 1
27 129 1
29 129 1
83 129 1
89 129 1
229 129 1
237 129 1
28 130 1
30 130 1
84 130 1
90 130 1
230 130 1
238 130 1
29 131 1
31 131 1
85 131 1
91 131 1
231 131 1
239 131 1
30 132 1
32 132 1
86 132 1
92 132 1
232 132 1
240 132 1
31 133 1
33 133 1
87 133 1
93 133 1
221 133 1
233 133 1
32 134 1
34 134 1
88 134 1
94 134 1
222 134 1
234 134 1
33 135 1
35 135 1
89 135 1
95 135 1
223 135 1
235 135 1
34 136 1
36 136 1
90 136 1
96 136 1
224 136 1
236 136 1
35 137 1
37 137 1
91 137 1
97 137 1
225 137 1
237 137 1
36 138 1
38 138 1
92 138 1
98 138 1
226 138 1
238 138 1
37 139 1
39 139 1
93 139 1
99 139 1
227 139 1
239 139 1
38 140 1
40 140 1
94 140 1
100 140 1
228 140 1
240 140 1
41 141 1
58 141 1
61 141 1
76 141 1
241 141 1
249 141 1
42 142 1
59 142 1
62 142 1
77 142 1
242 142 1
250 142 1
43 143 1
60 143 1
63 143 1
78 143 1
243 143 1
251 143 1
41 144 1
44 144 1
64 144 1
79 144 1
244 144 1
252 144 1
42 145 1
45 145 1
65 145 1
80 145 1
245 145 1
253 145 1
43 146 1
46 146 1
61 146 1
66 146 1
246 146 1
254 146 1
44 147 1
47 147 1
62 147 1
67 147 1
247 147 1
255 147 1
45 148 1
48 148 1
63 148 1
68 148 1
248 148 1
256 148 1
46 149 1
49 149 1
64 149 1
69 149 1
249 149 1
257 149 1
47 150 1
50 150 1
65 150 1
70 150 1
250 150 1
258 150 1
48 151 1
51 151 1
66 151 1
71 151 1
251 151 1
259 151 1
49 152 1
52 152 1
67 152 1
72 152 1
252 152 1
260 152 1
50 153 1
53 153 1
68 153 1
73 153 1
241 153 1
253 153 1
51 154 1
54 154 1
69 154 1
74 154 1
242 154 1
254 154 1
52 155 1
55 155 1
70 155 1
75 155 1
243 155 1
255 155 1
53 156 1
56 156 1
71 156 1
76 156 1
244 156 1
256 156 1
54 157 1
57 157 1
72 157 1
77 157 1
245 157 1
257 157 1
55 158 1
58 158 1
73 158 1
78 158 1
246 158 1
258 158 1
56 159 1
59 159 1
74 159 1
79 159 1
247 159 1
259 159 1
57 160 1
60 160 1
75 160 1
80 160 1
248 160 1
260 160 1
41 161 1
59 161 1
81 161 1
96 161 1
261 161 1
269 161 1
42 162 1
60 162 1
82 162 1
97 162 1
262 162 1
270 162 1
41 163 1
43 163 1
83 163 1
98 163 1
263 163 1
271 163 1
42 164 1
44 164 1
84 164 1
99 164 1
264 164 1
272 164 1
43 165 1
45 165 1
85 165 1
100 165 1
265 165 1
273 165 1
44 166 1
46 166 1
81 166 1
86 166 1
266 166 1
274 166 1
45 167 1
47 167 1
82 167 1
87 167 1
267 167 1
275 167 1
46 168 1
48 168 1
83 168 1
88 168 1
268 168 1
276 168 1
47 169 1
49 169 1
84 169 1
89 169 1
269 169 1
277 169 1
48 170 1
50 170 1
85 170 1
90 170 1
270 170 1
278 170 1
49 171 1
51 171 1
86 171 1
91 171 1
271 171 1
279 171 1
50 172 1
52 172 1
87 172 1
92 172 1
272 172 1
280 172 1
51 173 1
53 173 1
88 173 1
93 173 1
261 173 1
273 173 1
52 174 1
54 174 1
89 174 1
94 174 1
262 174 1
274 174 1
53 175 1
55 175 1
90 175 1
95 175 1
263 175 1
275 175 1
54 176 1
56 176 1
91 176 1
96 176 1
264 176 1
276 176 1
55 177 1
57 177 1
92 177 1
97 177 1
265 177 1
277 177 1
56 178 1
58 178 1
93 178 1
98 178 1
266 178 1
278 178 1
57 179 1
59 179 1
94 179 1
99 179 1
267 179 1
279 179 1
58 180 1
60 180 1
95 180 1
100 180 1
268 180 1
280 180 1
61 181 1
79 181 1
81 181 1
98 181 1
281 181 1
289 181 1
62 182 1
80 182 1
82 182 1
99 182 1
282 182 1
290 182 1
61 183 1
63 183 1
83 183 1
100 183 1
283 183 1
291 183 1
62 184 1
64 184 1
81 184 1
84 184 1
284 184 1
292 184 1
63 185 1
65 185 1
82 185 1
85 185 1
285 185 1
293 185 1
64 186 1
66 186 1
83 186 1
86 186 1
286 186 1
294 186 1
65 187 1
67 187 1
84 187 1
87 187 1
287 187 1
295 187 1
66 188 1
68 188 1
85 188 1
88 188 1
288 188 1
296 188 1
67 189 1
69 189 1
86 189 1
89 189 1
289 189 1
297 189 1
68 190 1
70 190 1
87 190 1
90 190 1
290 190 1
298 190 1
69 191 1
71 191 1
88 191 1
91 191 1
291 191 1
299 191 1
70 192 1
72 192 1
89 192 1
92 192 1
292 192 1
300 192 1
71 193 1
73 193 1
90 193 1
93 193 1
281 193 1
293 193 1
72 194 1
74 194 1
91 194 1
94 194 1
282 194 1
294 194 1
73 195 1
75 195 1
92 195 1
95 195 1
283 195 1
295 195 1
74 196 1
76 196 1
93 196 1
96 196 1
284 196 1
296 196 1
75 197 1
77 197 1
94 197 1
97 197 1
285 197 1
297 197 1
76 198 1
78 198 1
95 198 1
98 198 1
286 198 1
298 198 1
77 199 1
79 199 1
96 199 1
99 199 1
287 199 1
299 199 1
78 200 1
80 200 1
97 200 1
100 200 1
288 200 1
300 200 1
101 201 1
116 201 1
121 201 1
135 201 1
181 201 1
192 201 1
102 202 1
117 202 1
122 202 1
136 202 1
182 202 1
193 202 1
103 203 1
118 203 1
123 203 1
137 203 1
183 203 1
194 203 1
104 204 1
119 204 1
124 204 1
138 204 1
184 204 1
195 204 1
105 205 1
120 205 1
125 205 1
139 205 1
185 205 1
196 205 1
101 206 1
106 206 1
126 206 1
140 206 1
186 206 1
197 206 1
102 207 1
107 207 1
121 207 1
127 207 1
187 207 1
198 207 1
103 208 1
108 208 1
122 208 1
128 208 1
188 208 1
199 208 1
104 209 1
109 209 1
123 209 1
129 209 1
189 209 1
200 209 1
105 210 1
110 210 1
124 210 1
130 210 1
181 210 1
190 210 1
106 211 1
111 211 1
125 211 1
131 211 1
182 211 1
191 211 1
107 212 1
112 212 1
126 212 1
132 212 1
183 212 1
192 212 1
108 213 1
113 213 1
127 213 1
133 213 1
184 213 1
193 213 1
109 214 1
114 214 1
128 214 1
134 214 1
185 214 1
194 214 1
110 215 1
115 215 1
129 215 1
135 215 1
186 215 1
195 215 1
111 216 1
116 216 1
130 216 1
136 216 1
187 216 1
196 216 1
112 217 1
117 217 1
131 217 1
137 217 1
188 217 1
197 217 1
113 218 1
118 218 1
132 218 1
138 218 1
189 218 1
198 218 1
114 219 1
119 219 1
133 219 1
139 219 1
190 219 1
199 219 1
115 220 1
120 220 1
134 220 1
140 220 1
191 220 1
200 220 1
101 221 1
118 221 1
141 221 1
155 221 1
201 221 1
212 221 1
102 222 1
119 222 1
142 222 1
156 222 1
202 222 1
213 222 1
103 223 1
120 223 1
143 223 1
157 223 1
203 223 1
214 223 1
101 224 1
104 224 1
144 224 1
158 224 1
204 224 1
215 224 1
102 225 1
105 225 1
145 225 1
159 225 1
205 225 1
216 225 1
103 226 1
106 226 1
146 226 1
160 226 1
206 226 1
217 226 1
104 227 1
107 227 1
141 227 1
147 227 1
207 227 1
218 227 1
105 228 1
108 228 1
142 228 1
148 228 1
208 228 1
219 228 1
106 229 1
109 229 1
143 229 1
149 229 1
209 229 1
220 229 1
107 230 1
110 230 1
144 230 1
150 230 1
201 230 1
210 230 1
108 231 1
111 231 1
145 231 1
151 231 1
202 231 1
211 231 1
109 232 1
112 232 1
146 232 1
152 232 1
203 232 1
212 232 1
110 233 1
113 233 1
147 233 1
153 233 1
204 233 1
213 233 1
111 234 1
114 234 1
148 234 1
154 234 1
205 234 1
214 234 1
112 235 1
115 235 1
149 235 1
155 235 1
206 235 1
215 235 1
113 236 1
116 236 1
150 236 1
156 236 1
207 236 1
216 236 1
114 237 1
117 237 1
151 237 1
157 237 1
208 237 1
217 237 1
115 238 1
118 238 1
152 238 1
158 238 1
209 238 1
218 238 1
116 239 1
119 239 1
153 239 1
159 239 1
210 239 1
219 239 1
117 240 1
120 240 1
154 240 1
160 240 1
211 240 1
220 240 1
101 241 1
119 241 1
161 241 1
175 241 1
221 241 1
232 241 1
102 242 1
120 242 1
162 242 1
176 242 1
222 242 1
233 242 1
101 243 1
103 243 1
163 243 1
177 243 1
223 243 1
234 243 1
102 244 1
104 244 1
164 244 1
178 244 1
224 244 1
235 244 1
103 245 1
105 245 1
165 245 1
179 245 1
225 245 1
236 245 1
104 246 1
106 246 1
166 246 1
180 246 1
226 246 1
237 246 1
105 247 1
107 247 1
161 247 1
167 247 1
227 247 1
238 247 1
106 248 1
108 248 1
162 248 1
168 248 1
228 248 1
239 248 1
107 249 1
109 249 1
163 249 1
169 249 1
229 249 1
240 249 1
108 250 1
110 250 1
164 250 1
170 250 1
221 250 1
230 250 1
109 251 1
111 251 1
165 251 1
171 251 1
222 251 1
231 251 1
110 252 1
112 252 1
166 252 1
172 252 1
223 252 1
232 252 1
111 253 1
113 253 1
167 253 1
173 253 1
224 253 1
233 253 1
112 254 1
114 254 1
168 254 1
174 254 1
225 254 1
234 254 1
113 255 1
115 255 1
169 255 1
175 255 1
226 255 1
235 255 1
114 256 1
116 256 1
170 256 1
176 256 1
227 256 1
236 256 1
115 257 1
117 257 1
171 257 1
177 257 1
228 257 1
237 257 1
116 258 1
118 258 1
172 258 1
178 258 1
229 258 1
238 258 1
117 259 1
119 259 1
173 259 1
179 259 1
230 259 1
239 259 1
118 260 1
120 260 1
174 260 1
180 260 1
231 260 1
240 260 1
121 261 1
138 261 1
141 261 1
156 261 1
241 261 1
252 261 1
122 262 1
139 262 1
142 262 1
157 262 1
242 262 1
253 262 1
123 263 1
140 263 1
143 263 1
158 263 1
243 263 1
254 263 1
121 264 1
124 264 1
144 264 1
159 264 1
244 264 1
255 264 1
122 265 1
125 265 1
145 265 1
160 265 1
245 265 1
256 265 1
123 266 1
126 266 1
141 266 1
146 266 1
246 266 1
257 266 1
124 267 1
127 267 1
142 267 1
147 267 1
247 267 1
258 267 1
125 268 1
128 268 1
143 268 1
148 268 1
248 268 1
259 268 1
126 269 1
129 269 1
144 269 1
149 269 1
249 269 1
260 269 1
127 270 1
130 270 1
145 270 1
150 270 1
241 270 1
250 270 1
128 271 1
131 271 1
146 271 1
151 271 1
242 271 1
251 271 1
129 272 1
132 272 1
147 272 1
152 272 1
243 272 1
252 272 1
130 273 1
133 273 1
148 273 1
153 273 1
244 273 1
253 273 1
131 274 1
134 274 1
149 274 1
154 274 1
245 274 1
254 274 1
132 275 1
135 275 1
150 275 1
155 275 1
246 275 1
255 275 1
133 276 1
136 276 1
151 276 1
156 276 1
247 276 1
256 276 1
134 277 1
137 277 1
152 277 1
157 277 1
248 277 1
257 277 1
135 278 1
138 278 1
153 278 1
158 278 1
249 278 1
258 278 1
136 279 1
139 279 1
154 279 1
159 279 1
250 279 1
259 279 1
137 280 1
140 280 1
155 280 1
160 280 1
251 280 1
260 280 1
121 281 1
139 281 1
161 281 1
176 281 1
261 281 1
272 281 1
122 282 1
140 282 1
162 282 1
177 282 1
262 282 1
273 282 1
121 283 1
123 283 1
163 283 1
178 283 1
263 283 1
274 283 1
122 284 1
124 284 1
164 284 1
179 284 1
264 284 1
275 284 1
123 285 1
125 285 1
165 285 1
180 285 1
265 285 1
276 285 1
124 286 1
126 286 1
161 286 1
166 286 1
266 286 1
277 286 1
125 287 1
127 287 1
162 287 1
167 287 1
267 287 1
278 287 1
126 288 1
128 288 1
163 288 1
168 288 1
268 288 1
279 288 1
127 289 1
129 289 1
164 289 1
169 289 1
269 289 1
280 289 1
128 290 1
130 290 1
165 290 1
170 290 1
261 290 1
270 290 1
129 291 1
131 291 1
166 291 1
171 291 1
262 291 1
271 291 1
130 292 1
132 292 1
167 292 1
172 292 1
263 292 1
272 292 1
131 293 1
133 293 1
168 293 1
173 293 1
264 293 1
273 293 1
132 294 1
134 294 1
169 294 1
174 294 1
265 294 1
274 294 1
133 295 1
135 295 1
170 295 1
175 295 1
266 295 1
275 295 1
134 296 1
136 296 1
171 296 1
176 296 1
267 296 1
276 296 1
135 297 1
137 297 1
172 297 1
177 297 1
268 297 1
277 297 1
136 298 1
138 298 1
173 298 1
178 298 1
269 298 1
278 298 1
137 299 1
139 299 1
174 299 1
179 299 1
270 299 1
279 299 1
138 300 1
140 300 1
175 300 1
180 300 1
271 300 1
280 300 1
141 301 1
159 301 1
161 301 1
178 301 1
281 301 1
292 301 1
142 302 1
160 302 1
162 302 1
179 302 1
282 302 1
293 302 1
141 303 1
143 303 1
163 303 1
180 303 1
283 303 1
294 303 1
142 304 1
144 304 1
161 304 1
164 304 1
284 304 1
295 304 1
143 305 1
145 305 1
162 305 1
165 305 1
285 305 1
296 305 1
144 306 1
146 306 1
163 306 1
166 306 1
286 306 1
297 306 1
145 307 1
147 307 1
164 307 1
167 307 1
287 307 1
298 307 1
146 308 1
148 308 1
165 308 1
168 308 1
288 308 1
299 308 1
147 309 1
149 309 1
166 309 1
169 309 1
289 309 1
300 309 1
148 310 1
150 310 1
167 310 1
170 310 1
281 310 1
290 310 1
149 311 1
151 311 1
168 311 1
171 311 1
282 311 1
291 311 1
150 312 1
152 312 1
169 312 1
172 312 1
283 312 1
292 312 1
151 313 1
153 313 1
170 313 1
173 313 1
284 313 1
293 313 1
152 314 1
154 314 1
171 314 1
174 314 1
285 314 1
294 314 1
153 315 1
155 315 1
172 315 1
175 315 1
286 315 1
295 315 1
154 316 1
156 316 1
173 316 1
176 316 1
287 316 1
296 316 1
155 317 1
157 317 1
174 317 1
177 317 1
288 317 1
297 317 1
156 318 1
158 318 1
175 318 1
178 318 1
289 318 1
298 318 1
157 319 1
159 319 1
176 319 1
179 319 1
290 319 1
299 319 1
158 320 1
160 320 1
177 320 1
180 320 1
291 320 1
300 320 1
181 321 1
198 321 1
201 321 1
216 321 1
241 321 1
255 321 1
182 322 1
199 322 1
202 322 1
217 322 1
242 322 1
256 322 1
183 323 1
200 323 1
203 323 1
218 323 1
243 323 1
257 323 1
181 324 1
184 324 1
204 324 1
219 324 1
244 324 1
258 324 1
182 325 1
185 325 1
205 325 1
220 325 1
245 325 1
259 325 1
183 326 1
186 326 1
201 326 1
206 326 1
246 326 1
260 326 1
184 327 1
187 327 1
202 327 1
207 327 1
241 327 1
247 327 1
185 328 1
188 328 1
203 328 1
208 328 1
242 328 1
248 328 1
186 329 1
189 329 1
204 329 1
209 329 1
243 329 1
249 329 1
187 330 1
190 330 1
205 330 1
210 330 1
244 330 1
250 330 1
188 331 1
191 331 1
206 331 1
211 331 1
245 331 1
251 331 1
189 332 1
192 332 1
207 332 1
212 332 1
246 332 1
252 332 1
190 333 1
193 333 1
208 333 1
213 333 1
247 333 1
253 333 1
191 334 1
194 334 1
209 334 1
214 334 1
248 334 1
254 334 1
192 335 1
195 335 1
210 335 1
215 335 1
249 335 1
255 335 1
193 336 1
196 336 1
211 336 1
216 336 1
250 336 1
256 336 1
194 337 1
197 337 1
212 337 1
217 337 1
251 337 1
257 337 1
195 338 1
198 338 1
213 338 1
218 338 1
252 338 1
258 338 1
196 339 1
199 339 1
214 339 1
219 339 1
253 339 1
259 339 1
197 340 1
200 340 1
215 340 1
220 340 1
254 340 1
260 340 1
181 341 1
199 341 1
221 341 1
236 341 1
261 341 1
275 341 1
182 342 1
200 342 1
222 342 1
237 342 1
262 342 1
276 342 1
181 343 1
183 343 1
223 343 1
238 343 1
263 343 1
277 343 1
182 344 1
184 344 1
224 344 1
239 344 1
264 344 1
278 344 1
183 345 1
185 345 1
225 345 1
240 345 1
265 345 1
279 345 1
184 346 1
186 346 1
221 346 1
226 346 1
266 346 1
280 346 1
185 347 1
187 347 1
222 347 1
227 347 1
261 347 1
267 347 1
186 348 1
188 348 1
223 348 1
228 348 1
262 348 1
268 348 1
187 349 1
189 349 1
224 349 1
229 349 1
263 349 1
269 349 1
188 350 1
190 350 1
225 350 1
230 350 1
264 350 1
270 350 1
189 351 1
191 351 1
226 351 1
231 351 1
265 351 1
271 351 1
190 352 1
192 352 1
227 352 1
232 352 1
266 352 1
272 352 1
191 353 1
193 353 1
228 353 1
233 353 1
267 353 1
273 353 1
192 354 1
194 354 1
229 354 1
234 354 1
268 354 1
274 354 1
193 355 1
195 355 1
230 355 1
235 355 1
269 355 1
275 355 1
194 356 1
196 356 1
231 356 1
236 356 1
270 356 1
276 356 1
195 357 1
197 357 1
232 357 1
237 357 1
271 357 1
277 357 1
196 358 1
198 358 1
233 358 1
238 358 1
272 358 1
278 358 1
197 359 1
199 359 1
234 359 1
239 359 1
273 359 1
279 359 1
198 360 1
200 360 1
235 360 1
240 360 1
274 360 1
280 360 1
201 361 1
219 361 1
221 361 1
238 361 1
281 361 1
295 361 1
202 362 1
220 362 1
222 362 1
239 362 1
282 362 1
296 362 1
201 363 1
203 363 1
223 363 1
240 363 1
283 363 1
297 363 1
202 364 1
204 364 1
221 364 1
224 364 1
284 364 1
298 364 1
203 365 1
205 365 1
222 365 1
225 365 1
285 365 1
299 365 1
204 366 1
206 366 1
223 366 1
226 366 1
286 366 1
300 366 1
205 367 1
207 367 1
224 367 1
227 367 1
281 367 1
287 367 1
206 368 1
208 368 1
225 368 1
228 368 1
282 368 1
288 368 1
207 369 1
209 369 1
226 369 1
229 369 1
283 369 1
289 369 1
208 370 1
210 370 1
227 370 1
230 370 1
284 370 1
290 370 1
209 371 1
211 371 1
228 371 1
231 371 1
285 371 1
291 371 1
210 372 1
212 372 1
229 372 1
232 372 1
286 372 1
292 372 1
211 373 1
213 373 1
230 373 1
233 373 1
287 373 1
293 373 1
212 374 1
214 374 1
231 374 1
234 374 1
288 374 1
294 374 1
213 375 1
215 375 1
232 375 1
235 375 1
289 375 1
295 375 1
214 376 1
216 376 1
233 376 1
236 376 1
290 376 1
296 376 1
215 377 1
217 377 1
234 377 1
237 377 1
291 377 1
297 377 1
216 378 1
218 378 1
235 378 1
238 378 1
292 378 1
298 378 1
217 379 1
219 379 1
236 379 1
239 379 1
293 379 1
299 379 1
218 380 1
220 380 1
237 380 1
240 380 1
294 380 1
300 380 1
241 381 1
259 381 1
261 381 1
278 381 1
281 381 1
296 381 1
242 382 1
260 382 1
262 382 1
279 382 1
282 382 1
297 382 1
241 383 1
243 383 1
263 383 1
280 383 1
283 383 1
298 383 1
242 384 1
244 384 1
261 384 1
264 384 1
284 384 1
299 384 1
243 385 1
245 385 1
262 385 1
265 385 1
285 385 1
300 385 1
244 386 1
246 386 1
263 386 1
266 386 1
281 386 1
286 386 1
245 387 1
247 387 1
264 387 1
267 387 1
282 387 1
287 387 1
246 388 1
248 388 1
265 388 1
268 388 1
283 388 1
288 388 1
247 389 1
249 389 1
266 389 1
269 389 1
284 389 1
289 389 1
248 390 1
250 390 1
267 390 1
270 390 1
285 390 1
290 390 1
249 391 1
251 391 1
268 391 1
271 391 1
286 391 1
291 391 1
250 392 1
252 392 1
269 392 1
272 392 1
287 392 1
292 392 1
251 393 1
253 393 1
270 393 1
273 393 1
288 393 1
293 393 1
252 394 1
254 394 1
271 394 1
274 394 1
289 394 1
294 394 1
253 395 1
255 395 1
272 395 1
275 395 1
290 395 1
295 395 1
254 396 1
256 396 1
273 396 1
276 396 1
291 396 1
296 396 1
255 397 1
257 397 1
274 397 1
277 397 1
292 397 1
297 397 1
256 398 1
258 398 1
275 398 1
278 398 1
293 398 1
298 398 1
257 399 1
259 399 1
276 399 1
279 399 1
294 399 1
299 399 1
258 400 1
260 400 1
277 400 1
280 400 1
295 400 1
300 400 1
