%%MatrixMarket matrix coordinate integer general
% Binary matrix; one-based indices; arithmetic over GF(2)
280 280 1680
1 1 1
16 1 1
29 1 1
34 1 1
113 1 1
116 1 1
2 2 1
17 2 1
30 2 1
35 2 1
114 2 1
117 2 1
3 3 1
18 3 1
31 3 1
36 3 1
115 3 1
118 3 1
4 4 1
19 4 1
32 4 1
37 4 1
116 4 1
119 4 1
5 5 1
20 5 1
33 5 1
38 5 1
117 5 1
120 5 1
6 6 1
21 6 1
34 6 1
39 6 1
118 6 1
121 6 1
7 7 1
22 7 1
35 7 1
40 7 1
119 7 1
122 7 1
8 8 1
23 8 1
36 8 1
41 8 1
120 8 1
123 8 1
9 9 1
24 9 1
37 9 1
42 9 1
121 9 1
124 9 1
10 10 1
25 10 1
38 10 1
43 10 1
122 10 1
125 10 1
11 11 1
26 11 1
39 11 1
44 11 1
123 11 1
126 11 1
12 12 1
27 12 1
40 12 1
45 12 1
124 12 1
127 12 1
13 13 1
28 13 1
41 13 1
46 13 1
125 13 1
128 13 1
1 14 1
14 14 1
42 14 1
47 14 1
126 14 1
129 14 1
2 15 1
15 15 1
43 15 1
48 15 1
127 15 1
130 15 1
3 16 1
16 16 1
44 16 1
49 16 1
128 16 1
131 16 1
4 17 1
17 17 1
45 17 1
50 17 1
129 17 1
132 17 1
5 18 1
18 18 1
46 18 1
51 18 1
130 18 1
133 18 1
6 19 1
19 19 1
47 19 1
52 19 1
131 19 1
134 19 1
7 20 1
20 20 1
48 20 1
53 20 1
132 20 1
135 20 1
8 21 1
21 21 1
49 21 1
54 21 1
133 21 1
136 21 1
9 22 1
22 22 1
50 22 1
55 22 1
134 22 1
137 22 1
10 23 1
23 23 1
51 23 1
56 23 1
135 23 1
138 23 1
11 24 1
24 24 1
29 24 1
52 24 1
136 24 1
139 24 1
12 25 1
25 25 1
30 25 1
53 25 1
137 25 1
140 25 1
13 26 1
26 26 1
31 26 1
54 26 1
113 26 1
138 26 1
14 27 1
27 27 1
32 27 1
55 27 1
114 27 1
139 27 1
15 28 1
28 28 1
33 28 1
56 28 1
115 28 1
140 28 1
1 29 1
17 29 1
57 29 1
62 29 1
141 29 1
144 29 1
2 30 1
18 30 1
58 30 1
63 30 1
142 30 1
145 30 1
3 31 1
19 31 1
59 31 1
64 31 1
143 31 1
146 31 1
4 32 1
20 32 1
60 32 1
65 32 1
144 32 1
147 32 1
5 33 1
21 33 1
61 33 1
66 33 1
145 33 1
148 33 1
6 34 1
22 34 1
62 34 1
67 34 1
146 34 1
149 34 1
7 35 1
23 35 1
63 35 1
68 35 1
147 35 1
150 35 1
8 36 1
24 36 1
64 36 1
69 36 1
148 36 1
151 36 1
9 37 1
25 37 1
65 37 1
70 37 1
149 37 1
152 37 1
10 38 1
26 38 1
66 38 1
71 38 1
150 38 1
153 38 1
11 39 1
27 39 1
67 39 1
72 39 1
151 39 1
154 39 1
12 40 1
28 40 1
68 40 1
73 40 1
152 40 1
155 40 1
1 41 1
13 41 1
69 41 1
74 41 1
153 41 1
156 41 1
2 42 1
14 42 1
70 42 1
75 42 1
154 42 1
157 42 1
3 43 1
15 43 1
71 43 1
76 43 1
155 43 1
158 43 1
4 44 1
16 44 1
72 44 1
77 44 1
156 44 1
159 44 1
5 45 1
17 45 1
73 45 1
78 45 1
157 45 1
160 45 1
6 46 1
18 46 1
74 46 1
79 46 1
158 46 1
161 46 1
7 47 1
19 47 1
75 47 1
80 47 1
159 47 1
162 47 1
8 48 1
20 48 1
76 48 1
81 48 1
160 48 1
163 48 1
9 49 1
21 49 1
77 49 1
82 49 1
161 49 1
164 49 1
10 50 1
22 50 1
78 50 1
83 50 1
162 50 1
165 50 1
11 51 1
23 51 1
79 51 1
84 51 1
163 51 1
166 51 1
12 52 1
24 52 1
57 52 1
80 52 1
164 52 1
167 52 1
13 53 1
25 53 1
58 53 1
81 53 1
165 53 1
168 53 1
14 54 1
26 54 1
59 54 1
82 54 1
141 54 1
166 54 1
15 55 1
27 55 1
60 55 1
83 55 1
142 55 1
167 55 1
16 56 1
28 56 1
61 56 1
84 56 1
143 56 1
168 56 1
1 57 1
27 57 1
85 57 1
90 57 1
169 57 1
172 57 1
2 58 1
28 58 1
86 58 1
91 58 1
170 58 1
173 58 1
1 59 1
3 59 1
87 59 1
92 59 1
171 59 1
174 59 1
2 60 1
4 60 1
88 60 1
93 60 1
172 60 1
175 60 1
3 61 1
5 61 1
89 61 1
94 61 1
173 61 1
176 61 1
4 62 1
6 62 1
90 62 1
95 62 1
174 62 1
177 62 1
5 63 1
7 63 1
91 63 1
96 63 1
175 63 1
178 63 1
6 64 1
8 64 1
92 64 1
97 64 1
176 64 1
179 64 1
7 65 1
9 65 1
93 65 1
98 65 1
177 65 1
180 65 1
8 66 1
10 66 1
94 66 1
99 66 1
178 66 1
181 66 1
9 67 1
11 67 1
95 67 1
100 67 1
179 67 1
182 67 1
10 68 1
12 68 1
96 68 1
101 68 1
180 68 1
183 68 1
11 69 1
13 69 1
97 69 1
102 69 1
181 69 1
184 69 1
12 70 1
14 70 1
98 70 1
103 70 1
182 70 1
185 70 1
13 71 1
15 71 1
99 71 1
104 71 1
183 71 1
186 71 1
14 72 1
16 72 1
100 72 1
105 72 1
184 72 1
187 72 1
15 73 1
17 73 1
101 73 1
106 73 1
185 73 1
188 73 1
16 74 1
18 74 1
102 74 1
107 74 1
186 74 1
189 74 1
17 75 1
19 75 1
103 75 1
108 75 1
187 75 1
190 75 1
18 76 1
20 76 1
104 76 1
109 76 1
188 76 1
191 76 1
19 77 1
21 77 1
105 77 1
110 77 1
189 77 1
192 77 1
20 78 1
22 78 1
106 78 1
111 78 1
190 78 1
193 78 1
21 79 1
23 79 1
107 79 1
112 79 1
191 79 1
194 79 1
22 80 1
24 80 1
85 80 1
108 80 1
192 80 1
195 80 1
23 81 1
25 81 1
86 81 1
109 81 1
193 81 1
196 81 1
24 82 1
26 82 1
87 82 1
110 82 1
169 82 1
194 82 1
25 83 1
27 83 1
88 83 1
111 83 1
170 83 1
195 83 1
26 84 1
28 84 1
89 84 1
112 84 1
171 84 1
196 84 1
29 85 1
45 85 1
57 85 1
72 85 1
197 85 1
200 85 1
30 86 1
46 86 1
58 86 1
73 86 1
198 86 1
201 86 1
31 87 1
47 87 1
59 87 1
74 87 1
199 87 1
202 87 1
32 88 1
48 88 1
60 88 1
75 88 1
200 88 1
203 88 1
33 89 1
49 89 1
61 89 1
76 89 1
201 89 1
204 89 1
34 90 1
50 90 1
62 90 1
77 90 1
202 90 1
205 90 1
35 91 1
51 91 1
63 91 1
78 91 1
203 91 1
206 91 1
36 92 1
52 92 1
64 92 1
79 92 1
204 92 1
207 92 1
37 93 1
53 93 1
65 93 1
80 93 1
205 93 1
208 93 1
38 94 1
54 94 1
66 94 1
81 94 1
206 94 1
209 94 1
39 95 1
55 95 1
67 95 1
82 95 1
207 95 1
210 95 1
40 96 1
56 96 1
68 96 1
83 96 1
208 96 1
211 96 1
29 97 1
41 97 1
69 97 1
84 97 1
209 97 1
212 97 1
30 98 1
42 98 1
57 98 1
70 98 1
210 98 1
213 98 1
31 99 1
43 99 1
58 99 1
71 99 1
211 99 1
214 99 1
32 100 1
44 100 1
59 100 1
72 100 1
212 100 1
215 100 1
33 101 1
45 101 1
60 101 1
73 101 1
213 101 1
216 101 1
34 102 1
46 102 1
61 102 1
74 102 1
214 102 1
217 102 1
35 103 1
47 103 1
62 103 1
75 103 1
215 103 1
218 103 1
36 104 1
48 104 1
63 104 1
76 104 1
216 104 1
219 104 1
37 105 1
49 105 1
64 105 1
77 105 1
217 105 1
220 105 1
38 106 1
50 106 1
65 106 1
78 106 1
218 106 1
221 106 1
39 107 1
51 107 1
66 107 1
79 107 1
219 107 1
222 107 1
40 108 1
52 108 1
67 108 1
80 108 1
220 108 1
223 108 1
41 109 1
53 109 1
68 109 1
81 109 1
221 109 1
224 109 1
42 110 1
54 110 1
69 110 1
82 110 1
197 110 1
222 110 1
43 111 1
55 111 1
70 111 1
83 111 1
198 111 1
223 111 1
44 112 1
56 112 1
71 112 1
84 112 1
199 112 1
224 112 1
29 113 1
55 113 1
85 113 1
100 113 1
225 113 1
228 113 1
30 114 1
56 114 1
86 114 1
101 114 1
226 114 1
229 114 1
29 115 1
31 115 1
87 115 1
102 115 1
227 115 1
230 115 1
30 116 1
32 116 1
88 116 1
103 116 1
228 116 1
231 116 1
31 117 1
33 117 1
89 117 1
104 117 1
229 117 1
232 117 1
32 118 1
34 118 1
90 118 1
105 118 1
230 118 1
233 118 1
33 119 1
35 119 1
91 119 1
106 119 1
231 119 1
234 119 1
34 120 1
36 120 1
92 120 1
107 120 1
232 120 1
235 120 1
35 121 1
37 121 1
93 121 1
108 121 1
233 121 1
236 121 1
36 122 1
38 122 1
94 122 1
109 122 1
234 122 1
237 122 1
37 123 1
39 123 1
95 123 1
110 123 1
235 123 1
238 123 1
38 124 1
40 124 1
96 124 1
111 124 1
236 124 1
239 124 1
39 125 1
41 125 1
97 125 1
112 125 1
237 125 1
240 125 1
40 126 1
42 126 1
85 126 1
98 126 1
238 126 1
241 126 1
41 127 1
43 127 1
86 127 1
99 127 1
239 127 1
242 127 1
42 128 1
44 128 1
87 128 1
100 128 1
240 128 1
243 128 1
43 129 1
45 129 1
88 129 1
101 129 1
241 129 1
244 129 1
44 130 1
46 130 1
89 130 1
102 130 1
242 130 1
245 130 1
45 131 1
47 131 1
90 131 1
103 131 1
243 131 1
246 131 1
46 132 1
48 132 1
91 132 1
104 132 1
244 132 1
247 132 1
47 133 1
49 133 1
92 133 1
105 133 1
245 133 1
248 133 1
48 134 1
50 134 1
93 134 1
106 134 1
246 134 1
249 134 1
49 135 1
51 135 1
94 135 1
107 135 1
247 135 1
250 135 1
50 136 1
52 136 1
95 136 1
108 136 1
248 136 1
251 136 1
51 137 1
53 137 1
96 137 1
109 137 1
249 137 1
252 137 1
52 138 1
54 138 1
97 138 1
110 138 1
225 138 1
250 138 1
53 139 1
55 139 1
98 139 1
111 139 1
226 139 1
251 139 1
54 140 1
56 140 1
99 140 1
112 140 1
227 140 1
252 140 1
57 141 1
83 141 1
85 141 1
101 141 1
253 141 1
256 141 1
58 142 1
84 142 1
86 142 1
102 142 1
254 142 1
257 142 1
57 143 1
59 143 1
87 143 1
103 143 1
255 143 1
258 143 1
58 144 1
60 144 1
88 144 1
104 144 1
256 144 1
259 144 1
59 145 1
61 145 1
89 145 1
105 145 1
257 145 1
260 145 1
60 146 1
62 146 1
90 146 1
106 146 1
258 146 1
261 146 1
61 147 1
63 147 1
91 147 1
107 147 1
259 147 1
262 147 1
62 148 1
64 148 1
92 148 1
108 148 1
260 148 1
263 148 1
63 149 1
65 149 1
93 149 1
109 149 1
261 149 1
264 149 1
64 150 1
66 150 1
94 150 1
110 150 1
262 150 1
265 150 1
65 151 1
67 151 1
95 151 1
111 151 1
263 151 1
266 151 1
66 152 1
68 152 1
96 152 1
112 152 1
264 152 1
267 152 1
67 153 1
69 153 1
85 153 1
97 153 1
265 153 1
268 153 1
68 154 1
70 154 1
86 154 1
98 154 1
266 154 1
269 154 1
69 155 1
71 155 1
87 155 1
99 155 1
267 155 1
270 155 1
70 156 1
72 156 1
88 156 1
100 156 1
268 156 1
271 156 1
71 157 1
73 157 1
89 157 1
101 157 1
269 157 1
272 157 1
72 158 1
74 158 1
90 158 1
102 158 1
270 158 1
273 158 1
73 159 1
75 159 1
91 159 1
103 159 1
271 159 1
274 159 1
74 160 1
76 160 1
92 160 1
104 160 1
272 160 1
275 160 1
75 161 1
77 161 1
93 161 1
105 161 1
273 161 1
276 161 1
76 162 1
78 162 1
94 162 1
106 162 1
274 162 1
277 162 1
77 163 1
79 163 1
95 163 1
107 163 1
275 163 1
278 163 1
78 164 1
80 164 1
96 164 1
108 164 1
276 164 1
279 164 1
79 165 1
81 165 1
97 165 1
109 165 1
277 165 1
280 165 1
80 166 1
82 166 1
98 166 1
110 166 1
253 166 1
278 166 1
81 167 1
83 167 1
99 167 1
111 167 1
254 167 1
279 167 1
82 168 1
84 168 1
100 168 1
112 168 1
255 168 1
280 168 1
113 169 1
129 169 1
141 169 1
156 169 1
197 169 1
202 169 1
114 170 1
130 170 1
142 170 1
157 170 1
198 170 1
203 170 1
115 171 1
131 171 1
143 171 1
158 171 1
199 171 1
204 171 1
116 172 1
132 172 1
144 172 1
159 172 1
200 172 1
205 172 1
117 173 1
133 173 1
145 173 1
160 173 1
201 173 1
206 173 1
118 174 1
134 174 1
146 174 1
161 174 1
202 174 1
207 174 1
119 175 1
135 175 1
147 175 1
162 175 1
203 175 1
208 175 1
120 176 1
136 176 1
148 176 1
163 176 1
204 176 1
209 176 1
121 177 1
137 177 1
149 177 1
164 177 1
205 177 1
210 177 1
122 178 1
138 178 1
150 178 1
165 178 1
206 178 1
211 178 1
123 179 1
139 179 1
151 179 1
166 179 1
207 179 1
212 179 1
124 180 1
140 180 1
152 180 1
167 180 1
208 180 1
213 180 1
113 181 1
125 181 1
153 181 1
168 181 1
209 181 1
214 181 1
114 182 1
126 182 1
141 182 1
154 182 1
210 182 1
215 182 1
115 183 1
127 183 1
142 183 1
155 183 1
211 183 1
216 183 1
116 184 1
128 184 1
143 184 1
156 184 1
212 184 1
217 184 1
117 185 1
129 185 1
144 185 1
157 185 1
213 185 1
218 185 1
118 186 1
130 186 1
145 186 1
158 186 1
214 186 1
219 186 1
119 187 1
131 187 1
146 187 1
159 187 1
215 187 1
220 187 1
120 188 1
132 188 1
147 188 1
160 188 1
216 188 1
221 188 1
121 189 1
133 189 1
148 189 1
161 189 1
217 189 1
222 189 1
122 190 1
134 190 1
149 190 1
162 190 1
218 190 1
223 190 1
123 191 1
135 191 1
150 191 1
163 191 1
219 191 1
224 191 1
124 192 1
136 192 1
151 192 1
164 192 1
197 192 1
220 192 1
125 193 1
137 193 1
152 193 1
165 193 1
198 193 1
221 193 1
126 194 1
138 194 1
153 194 1
166 194 1
199 194 1
222 194 1
127 195 1
139 195 1
154 195 1
167 195 1
200 195 1
223 195 1
128 196 1
140 196 1
155 196 1
168 196 1
201 196 1
224 196 1
113 197 1
139 197 1
169 197 1
184 197 1
225 197 1
230 197 1
114 198 1
140 198 1
170 198 1
185 198 1
226 198 1
231 198 1
113 199 1
115 199 1
171 199 1
186 199 1
227 199 1
232 199 1
114 200 1
116 200 1
172 200 1
187 200 1
228 200 1
233 200 1
115 201 1
117 201 1
173 201 1
188 201 1
229 201 1
234 201 1
116 202 1
118 202 1
174 202 1
189 202 1
230 202 1
235 202 1
117 203 1
119 203 1
175 203 1
190 203 1
231 203 1
236 203 1
118 204 1
120 204 1
176 204 1
191 204 1
232 204 1
237 204 1
119 205 1
121 205 1
177 205 1
192 205 1
233 205 1
238 205 1
120 206 1
122 206 1
178 206 1
193 206 1
234 206 1
239 206 1
121 207 1
123 207 1
179 207 1
194 207 1
235 207 1
240 207 1
122 208 1
124 208 1
180 208 1
195 208 1
236 208 1
241 208 1
123 209 1
125 209 1
181 209 1
196 209 1
237 209 1
242 209 1
124 210 1
126 210 1
169 210 1
182 210 1
238 210 1
243 210 1
125 211 1
127 211 1
170 211 1
183 211 1
239 211 1
244 211 1
126 212 1
128 212 1
171 212 1
184 212 1
240 212 1
245 212 1
127 213 1
129 213 1
172 213 1
185 213 1
241 213 1
246 213 1
128 214 1
130 214 1
173 214 1
186 214 1
242 214 1
247 214 1
129 215 1
131 215 1
174 215 1
187 215 1
243 215 1
248 215 1
130 216 1
132 216 1
175 216 1
188 216 1
244 216 1
249 216 1
131 217 1
133 217 1
176 217 1
189 217 1
245 217 1
250 217 1
132 218 1
134 218 1
177 218 1
190 218 1
246 218 1
251 218 1
133 219 1
135 219 1
178 219 1
191 219 1
247 219 1
252 219 1
134 220 1
136 220 1
179 220 1
192 220 1
225 220 1
248 220 1
135 221 1
137 221 1
180 221 1
193 221 1
226 221 1
249 221 1
136 222 1
138 222 1
181 222 1
194 222 1
227 222 1
250 222 1
137 223 1
139 223 1
182 223 1
195 223 1
228 223 1
251 223 1
138 224 1
140 224 1
183 224 1
196 224 1
229 224 1
252 224 1
141 225 1
167 225 1
169 225 1
185 225 1
253 225 1
258 225 1
142 226 1
168 226 1
170 226 1
186 226 1
254 226 1
259 226 1
141 227 1
143 227 1
171 227 1
187 227 1
255 227 1
260 227 1
142 228 1
144 228 1
172 228 1
188 228 1
256 228 1
261 228 1
143 229 1
145 229 1
173 229 1
189 229 1
257 229 1
262 229 1
144 230 1
146 230 1
174 230 1
190 230 1
258 230 1
263 230 1
145 231 1
147 231 1
175 231 1
191 231 1
259 231 1
264 231 1
146 232 1
148 232 1
176 232 1
192 232 1
260 232 1
265 232 1
147 233 1
149 233 1
177 233 1
193 233 1
261 233 1
266 233 1
148 234 1
150 234 1
178 234 1
194 234 1
262 234 1
267 234 1
149 235 1
151 235 1
179 235 1
195 235 1
263 235 1
268 235 1
150 236 1
152 236 1
180 236 1
196 236 1
264 236 1
269 236 1
151 237 1
153 237 1
169 237 1
181 237 1
265 237 1
270 237 1
152 238 1
154 238 1
170 238 1
182 238 1
266 238 1
271 238 1
153 239 1
155 239 1
171 239 1
183 239 1
267 239 1
272 239 1
154 240 1
156 240 1
172 240 1
184 240 1
268 240 1
273 240 1
155 241 1
157 241 1
173 241 1
185 241 1
269 241 1
274 241 1
156 242 1
158 242 1
174 242 1
186 242 1
270 242 1
275 242 1
157 243 1
159 243 1
175 243 1
187 243 1
271 243 1
276 243 1
158 244 1
160 244 1
176 244 1
188 244 1
272 244 1
277 244 1
159 245 1
161 245 1
177 245 1
189 245 1
273 245 1
278 245 1
160 246 1
162 246 1
178 246 1
190 246 1
274 246 1
279 246 1
161 247 1
163 247 1
179 247 1
191 247 1
275 247 1
280 247 1
162 248 1
164 248 1
180 248 1
192 248 1
253 248 1
276 248 1
163 249 1
165 249 1
181 249 1
193 249 1
254 249 1
277 249 1
164 250 1
166 250 1
182 250 1
194 250 1
255 250 1
278 250 1
165 251 1
167 251 1
183 251 1
195 251 1
256 251 1
279 251 1
166 252 1
168 252 1
184 252 1
196 252 1
257 252 1
280 252 1
197 253 1
223 253 1
225 253 1
241 253 1
253 253 1
268 253 1
198 254 1
224 254 1
226 254 1
242 254 1
254 254 1
269 254 1
197 255 1
199 255 1
227 255 1
243 255 1
255 255 1
270 255 1
198 256 1
200 256 1
228 256 1
244 256 1
256 256 1
271 256 1
199 257 1
201 257 1
229 257 1
245 257 1
257 257 1
272 257 1
200 258 1
202 258 1
230 258 1
246 258 1
258 258 1
273 258 1
201 259 1
203 259 1
231 259 1
247 259 1
259 259 1
274 259 1
202 260 1
204 260 1
232 260 1
248 260 1
260 260 1
275 260 1
203 261 1
205 261 1
233 261 1
249 261 1
261 261 1
276 261 1
204 262 1
206 262 1
234 262 1
250 262 1
262 262 1
277 262 1
205 263 1
207 263 1
235 263 1
251 263 1
263 263 1
278 263 1
206 264 1
208 264 1
236 264 1
252 264 1
264 264 1
279 264 1
207 265 1
209 265 1
225 265 1
237 265 1
265 265 1
280 265 1
208 266 1
210 266 1
226 266 1
238 266 1
253 266 1
266 266 1
209 267 1
211 267 1
227 267 1
239 267 1
254 267 1
267 267 1
210 268 1
212 268 1
228 268 1
240 268 1
255 268 1
268 268 1
211 269 1
213 269 1
229 269 1
241 269 1
256 269 1
269 269 1
212 270 1
214 270 1
230 270 1
242 270 1
257 270 1
270 270 1
213 271 1
215 271 1
231 271 1
243 271 1
258 271 1
271 271 1
214 272 1
216 272 1
232 272 1
244 272 1
259 272 1
272 272 1
215 273 1
217 273 1
233 273 1
245 273 1
260 273 1
273 273 1
216 274 1
218 274 1
234 274 1
246 274 1
261 274 1
274 274 1
217 275 1
219 275 1
235 275 1
247 275 1
262 275 1
275 275 1
218 276 1
220 276 1
236 276 1
248 276 1
263 276 1
276 276 1
219 277 1
221 277 1
237 277 1
249 277 1
264 277 1
277 277 1
220 278 1
222 278 1
238 278 1
250 278 1
265 278 1
278 278 1
221 279 1
223 279 1
239 279 1
251 279 1
266 279 1
279 279 1
222 280 1
224 280 1
240 280 1
252 280 1
267 280 1
280 280 1
