%%MatrixMarket matrix coordinate integer general
% Binary matrix; one-based indices; arithmetic over GF(2)
180 240 1440
1 1 1
4 1 1
13 1 1
15 1 1
61 1 1
62 1 1
2 2 1
5 2 1
14 2 1
16 2 1
62 2 1
63 2 1
3 3 1
6 3 1
15 3 1
17 3 1
63 3 1
64 3 1
4 4 1
7 4 1
16 4 1
18 4 1
64 4 1
65 4 1
5 5 1
8 5 1
17 5 1
19 5 1
65 5 1
66 5 1
6 6 1
9 6 1
18 6 1
20 6 1
66 6 1
67 6 1
7 7 1
10 7 1
19 7 1
21 7 1
67 7 1
68 7 1
8 8 1
11 8 1
20 8 1
22 8 1
68 8 1
69 8 1
9 9 1
12 9 1
21 9 1
23 9 1
69 9 1
70 9 1
1 10 1
10 10 1
22 10 1
24 10 1
70 10 1
71 10 1
2 11 1
11 11 1
13 11 1
23 11 1
71 11 1
72 11 1
3 12 1
12 12 1
14 12 1
24 12 1
61 12 1
72 12 1
1 13 1
6 13 1
25 13 1
27 13 1
73 13 1
74 13 1
2 14 1
7 14 1
26 14 1
28 14 1
74 14 1
75 14 1
3 15 1
8 15 1
27 15 1
29 15 1
75 15 1
76 15 1
4 16 1
9 16 1
28 16 1
30 16 1
76 16 1
77 16 1
5 17 1
10 17 1
29 17 1
31 17 1
77 17 1
78 17 1
6 18 1
11 18 1
30 18 1
32 18 1
78 18 1
79 18 1
7 19 1
12 19 1
31 19 1
33 19 1
79 19 1
80 19 1
1 20 1
8 20 1
32 20 1
34 20 1
80 20 1
81 20 1
2 21 1
9 21 1
33 21 1
35 21 1
81 21 1
82 21 1
3 22 1
10 22 1
34 22 1
36 22 1
82 22 1
83 22 1
4 23 1
11 23 1
25 23 1
35 23 1
83 23 1
84 23 1
5 24 1
12 24 1
26 24 1
36 24 1
73 24 1
84 24 1
1 25 1
10 25 1
37 25 1
39 25 1
85 25 1
86 25 1
2 26 1
11 26 1
38 26 1
40 26 1
86 26 1
87 26 1
3 27 1
12 27 1
39 27 1
41 27 1
87 27 1
88 27 1
1 28 1
4 28 1
40 28 1
42 28 1
88 28 1
89 28 1
2 29 1
5 29 1
41 29 1
43 29 1
89 29 1
90 29 1
3 30 1
6 30 1
42 30 1
44 30 1
90 30 1
91 30 1
4 31 1
7 31 1
43 31 1
45 31 1
91 31 1
92 31 1
5 32 1
8 32 1
44 32 1
46 32 1
92 32 1
93 32 1
6 33 1
9 33 1
45 33 1
47 33 1
93 33 1
94 33 1
7 34 1
10 34 1
46 34 1
48 34 1
94 34 1
95 34 1
8 35 1
11 35 1
37 35 1
47 35 1
95 35 1
96 35 1
9 36 1
12 36 1
38 36 1
48 36 1
85 36 1
96 36 1
1 37 1
11 37 1
49 37 1
51 37 1
97 37 1
98 37 1
2 38 1
12 38 1
50 38 1
52 38 1
98 38 1
99 38 1
1 39 1
3 39 1
51 39 1
53 39 1
99 39 1
100 39 1
2 40 1
4 40 1
52 40 1
54 40 1
100 40 1
101 40 1
3 41 1
5 41 1
53 41 1
55 41 1
101 41 1
102 41 1
4 42 1
6 42 1
54 42 1
56 42 1
102 42 1
103 42 1
5 43 1
7 43 1
55 43 1
57 43 1
103 43 1
104 43 1
6 44 1
8 44 1
56 44 1
58 44 1
104 44 1
105 44 1
7 45 1
9 45 1
57 45 1
59 45 1
105 45 1
106 45 1
8 46 1
10 46 1
58 46 1
60 46 1
106 46 1
107 46 1
9 47 1
11 47 1
49 47 1
59 47 1
107 47 1
108 47 1
10 48 1
12 48 1
50 48 1
60 48 1
97 48 1
108 48 1
13 49 1
18 49 1
25 49 1
28 49 1
109 49 1
110 49 1
14 50 1
19 50 1
26 50 1
29 50 1
110 50 1
111 50 1
15 51 1
20 51 1
27 51 1
30 51 1
111 51 1
112 51 1
16 52 1
21 52 1
28 52 1
31 52 1
112 52 1
113 52 1
17 53 1
22 53 1
29 53 1
32 53 1
113 53 1
114 53 1
18 54 1
23 54 1
30 54 1
33 54 1
114 54 1
115 54 1
19 55 1
24 55 1
31 55 1
34 55 1
115 55 1
116 55 1
13 56 1
20 56 1
32 56 1
35 56 1
116 56 1
117 56 1
14 57 1
21 57 1
33 57 1
36 57 1
117 57 1
118 57 1
15 58 1
22 58 1
25 58 1
34 58 1
118 58 1
119 58 1
16 59 1
23 59 1
26 59 1
35 59 1
119 59 1
120 59 1
17 60 1
24 60 1
27 60 1
36 60 1
109 60 1
120 60 1
13 61 1
22 61 1
37 61 1
40 61 1
121 61 1
122 61 1
14 62 1
23 62 1
38 62 1
41 62 1
122 62 1
123 62 1
15 63 1
24 63 1
39 63 1
42 63 1
123 63 1
124 63 1
13 64 1
16 64 1
40 64 1
43 64 1
124 64 1
125 64 1
14 65 1
17 65 1
41 65 1
44 65 1
125 65 1
126 65 1
15 66 1
18 66 1
42 66 1
45 66 1
126 66 1
127 66 1
16 67 1
19 67 1
43 67 1
46 67 1
127 67 1
128 67 1
17 68 1
20 68 1
44 68 1
47 68 1
128 68 1
129 68 1
18 69 1
21 69 1
45 69 1
48 69 1
129 69 1
130 69 1
19 70 1
22 70 1
37 70 1
46 70 1
130 70 1
131 70 1
20 71 1
23 71 1
38 71 1
47 71 1
131 71 1
132 71 1
21 72 1
24 72 1
39 72 1
48 72 1
121 72 1
132 72 1
13 73 1
23 73 1
49 73 1
52 73 1
133 73 1
134 73 1
14 74 1
24 74 1
50 74 1
53 74 1
134 74 1
135 74 1
13 75 1
15 75 1
51 75 1
54 75 1
135 75 1
136 75 1
14 76 1
16 76 1
52 76 1
55 76 1
136 76 1
137 76 1
15 77 1
17 77 1
53 77 1
56 77 1
137 77 1
138 77 1
16 78 1
18 78 1
54 78 1
57 78 1
138 78 1
139 78 1
17 79 1
19 79 1
55 79 1
58 79 1
139 79 1
140 79 1
18 80 1
20 80 1
56 80 1
59 80 1
140 80 1
141 80 1
19 81 1
21 81 1
57 81 1
60 81 1
141 81 1
142 81 1
20 82 1
22 82 1
49 82 1
58 82 1
142 82 1
143 82 1
21 83 1
23 83 1
50 83 1
59 83 1
143 83 1
144 83 1
22 84 1
24 84 1
51 84 1
60 84 1
133 84 1
144 84 1
25 85 1
34 85 1
37 85 1
42 85 1
145 85 1
146 85 1
26 86 1
35 86 1
38 86 1
43 86 1
146 86 1
147 86 1
27 87 1
36 87 1
39 87 1
44 87 1
147 87 1
148 87 1
25 88 1
28 88 1
40 88 1
45 88 1
148 88 1
149 88 1
26 89 1
29 89 1
41 89 1
46 89 1
149 89 1
150 89 1
27 90 1
30 90 1
42 90 1
47 90 1
150 90 1
151 90 1
28 91 1
31 91 1
43 91 1
48 91 1
151 91 1
152 91 1
29 92 1
32 92 1
37 92 1
44 92 1
152 92 1
153 92 1
30 93 1
33 93 1
38 93 1
45 93 1
153 93 1
154 93 1
31 94 1
34 94 1
39 94 1
46 94 1
154 94 1
155 94 1
32 95 1
35 95 1
40 95 1
47 95 1
155 95 1
156 95 1
33 96 1
36 96 1
41 96 1
48 96 1
145 96 1
156 96 1
25 97 1
35 97 1
49 97 1
54 97 1
157 97 1
158 97 1
26 98 1
36 98 1
50 98 1
55 98 1
158 98 1
159 98 1
25 99 1
27 99 1
51 99 1
56 99 1
159 99 1
160 99 1
26 100 1
28 100 1
52 100 1
57 100 1
160 100 1
161 100 1
27 101 1
29 101 1
53 101 1
58 101 1
161 101 1
162 101 1
28 102 1
30 102 1
54 102 1
59 102 1
162 102 1
163 102 1
29 103 1
31 103 1
55 103 1
60 103 1
163 103 1
164 103 1
30 104 1
32 104 1
49 104 1
56 104 1
164 104 1
165 104 1
31 105 1
33 105 1
50 105 1
57 105 1
165 105 1
166 105 1
32 106 1
34 106 1
51 106 1
58 106 1
166 106 1
167 106 1
33 107 1
35 107 1
52 107 1
59 107 1
167 107 1
168 107 1
34 108 1
36 108 1
53 108 1
60 108 1
157 108 1
168 108 1
37 109 1
47 109 1
49 109 1
58 109 1
169 109 1
170 109 1
38 110 1
48 110 1
50 110 1
59 110 1
170 110 1
171 110 1
37 111 1
39 111 1
51 111 1
60 111 1
171 111 1
172 111 1
38 112 1
40 112 1
49 112 1
52 112 1
172 112 1
173 112 1
39 113 1
41 113 1
50 113 1
53 113 1
173 113 1
174 113 1
40 114 1
42 114 1
51 114 1
54 114 1
174 114 1
175 114 1
41 115 1
43 115 1
52 115 1
55 115 1
175 115 1
176 115 1
42 116 1
44 116 1
53 116 1
56 116 1
176 116 1
177 116 1
43 117 1
45 117 1
54 117 1
57 117 1
177 117 1
178 117 1
44 118 1
46 118 1
55 118 1
58 118 1
178 118 1
179 118 1
45 119 1
47 119 1
56 119 1
59 119 1
179 119 1
180 119 1
46 120 1
48 120 1
57 120 1
60 120 1
169 120 1
180 120 1
61 121 1
66 121 1
73 121 1
76 121 1
109 121 1
111 121 1
62 122 1
67 122 1
74 122 1
77 122 1
110 122 1
112 122 1
63 123 1
68 123 1
75 123 1
78 123 1
111 123 1
113 123 1
64 124 1
69 124 1
76 124 1
79 124 1
112 124 1
114 124 1
65 125 1
70 125 1
77 125 1
80 125 1
113 125 1
115 125 1
66 126 1
71 126 1
78 126 1
81 126 1
114 126 1
116 126 1
67 127 1
72 127 1
79 127 1
82 127 1
115 127 1
117 127 1
61 128 1
68 128 1
80 128 1
83 128 1
116 128 1
118 128 1
62 129 1
69 129 1
81 129 1
84 129 1
117 129 1
119 129 1
63 130 1
70 130 1
73 130 1
82 130 1
118 130 1
120 130 1
64 131 1
71 131 1
74 131 1
83 131 1
109 131 1
119 131 1
65 132 1
72 132 1
75 132 1
84 132 1
110 132 1
120 132 1
61 133 1
70 133 1
85 133 1
88 133 1
121 133 1
123 133 1
62 134 1
71 134 1
86 134 1
89 134 1
122 134 1
124 134 1
63 135 1
72 135 1
87 135 1
90 135 1
123 135 1
125 135 1
61 136 1
64 136 1
88 136 1
91 136 1
124 136 1
126 136 1
62 137 1
65 137 1
89 137 1
92 137 1
125 137 1
127 137 1
63 138 1
66 138 1
90 138 1
93 138 1
126 138 1
128 138 1
64 139 1
67 139 1
91 139 1
94 139 1
127 139 1
129 139 1
65 140 1
68 140 1
92 140 1
95 140 1
128 140 1
130 140 1
66 141 1
69 141 1
93 141 1
96 141 1
129 141 1
131 141 1
67 142 1
70 142 1
85 142 1
94 142 1
130 142 1
132 142 1
68 143 1
71 143 1
86 143 1
95 143 1
121 143 1
131 143 1
69 144 1
72 144 1
87 144 1
96 144 1
122 144 1
132 144 1
61 145 1
71 145 1
97 145 1
100 145 1
133 145 1
135 145 1
62 146 1
72 146 1
98 146 1
101 146 1
134 146 1
136 146 1
61 147 1
63 147 1
99 147 1
102 147 1
135 147 1
137 147 1
62 148 1
64 148 1
100 148 1
103 148 1
136 148 1
138 148 1
63 149 1
65 149 1
101 149 1
104 149 1
137 149 1
139 149 1
64 150 1
66 150 1
102 150 1
105 150 1
138 150 1
140 150 1
65 151 1
67 151 1
103 151 1
106 151 1
139 151 1
141 151 1
66 152 1
68 152 1
104 152 1
107 152 1
140 152 1
142 152 1
67 153 1
69 153 1
105 153 1
108 153 1
141 153 1
143 153 1
68 154 1
70 154 1
97 154 1
106 154 1
142 154 1
144 154 1
69 155 1
71 155 1
98 155 1
107 155 1
133 155 1
143 155 1
70 156 1
72 156 1
99 156 1
108 156 1
134 156 1
144 156 1
73 157 1
82 157 1
85 157 1
90 157 1
145 157 1
147 157 1
74 158 1
83 158 1
86 158 1
91 158 1
146 158 1
148 158 1
75 159 1
84 159 1
87 159 1
92 159 1
147 159 1
149 159 1
73 160 1
76 160 1
88 160 1
93 160 1
148 160 1
150 160 1
74 161 1
77 161 1
89 161 1
94 161 1
149 161 1
151 161 1
75 162 1
78 162 1
90 162 1
95 162 1
150 162 1
152 162 1
76 163 1
79 163 1
91 163 1
96 163 1
151 163 1
153 163 1
77 164 1
80 164 1
85 164 1
92 164 1
152 164 1
154 164 1
78 165 1
81 165 1
86 165 1
93 165 1
153 165 1
155 165 1
79 166 1
82 166 1
87 166 1
94 166 1
154 166 1
156 166 1
80 167 1
83 167 1
88 167 1
95 167 1
145 167 1
155 167 1
81 168 1
84 168 1
89 168 1
96 168 1
146 168 1
156 168 1
73 169 1
83 169 1
97 169 1
102 169 1
157 169 1
159 169 1
74 170 1
84 170 1
98 170 1
103 170 1
158 170 1
160 170 1
73 171 1
75 171 1
99 171 1
104 171 1
159 171 1
161 171 1
74 172 1
76 172 1
100 172 1
105 172 1
160 172 1
162 172 1
75 173 1
77 173 1
101 173 1
106 173 1
161 173 1
163 173 1
76 174 1
78 174 1
102 174 1
107 174 1
162 174 1
164 174 1
77 175 1
79 175 1
103 175 1
108 175 1
163 175 1
165 175 1
78 176 1
80 176 1
97 176 1
104 176 1
164 176 1
166 176 1
79 177 1
81 177 1
98 177 1
105 177 1
165 177 1
167 177 1
80 178 1
82 178 1
99 178 1
106 178 1
166 178 1
168 178 1
81 179 1
83 179 1
100 179 1
107 179 1
157 179 1
167 179 1
82 180 1
84 180 1
101 180 1
108 180 1
158 180 1
168 180 1
85 181 1
95 181 1
97 181 1
106 181 1
169 181 1
171 181 1
86 182 1
96 182 1
98 182 1
107 182 1
170 182 1
172 182 1
85 183 1
87 183 1
99 183 1
108 183 1
171 183 1
173 183 1
86 184 1
88 184 1
97 184 1
100 184 1
172 184 1
174 184 1
87 185 1
89 185 1
98 185 1
101 185 1
173 185 1
175 185 1
88 186 1
90 186 1
99 186 1
102 186 1
174 186 1
176 186 1
89 187 1
91 187 1
100 187 1
103 187 1
175 187 1
177 187 1
90 188 1
92 188 1
101 188 1
104 188 1
176 188 1
178 188 1
91 189 1
93 189 1
102 189 1
105 189 1
177 189 1
179 189 1
92 190 1
94 190 1
103 190 1
106 190 1
178 190 1
180 190 1
93 191 1
95 191 1
104 191 1
107 191 1
169 191 1
179 191 1
94 192 1
96 192 1
105 192 1
108 192 1
170 192 1
180 192 1
109 193 1
118 193 1
121 193 1
126 193 1
145 193 1
148 193 1
110 194 1
119 194 1
122 194 1
127 194 1
146 194 1
149 194 1
111 195 1
120 195 1
123 195 1
128 195 1
147 195 1
150 195 1
109 196 1
112 196 1
124 196 1
129 196 1
148 196 1
151 196 1
110 197 1
113 197 1
125 197 1
130 197 1
149 197 1
152 197 1
111 198 1
114 198 1
126 198 1
131 198 1
150 198 1
153 198 1
112 199 1
115 199 1
127 199 1
132 199 1
151 199 1
154 199 1
113 200 1
116 200 1
121 200 1
128 200 1
152 200 1
155 200 1
114 201 1
117 201 1
122 201 1
129 201 1
153 201 1
156 201 1
115 202 1
118 202 1
123 202 1
130 202 1
145 202 1
154 202 1
116 203 1
119 203 1
124 203 1
131 203 1
146 203 1
155 203 1
117 204 1
120 204 1
125 204 1
132 204 1
147 204 1
156 204 1
109 205 1
119 205 1
133 205 1
138 205 1
157 205 1
160 205 1
110 206 1
120 206 1
134 206 1
139 206 1
158 206 1
161 206 1
109 207 1
111 207 1
135 207 1
140 207 1
159 207 1
162 207 1
110 208 1
112 208 1
136 208 1
141 208 1
160 208 1
163 208 1
111 209 1
113 209 1
137 209 1
142 209 1
161 209 1
164 209 1
112 210 1
114 210 1
138 210 1
143 210 1
162 210 1
165 210 1
113 211 1
115 211 1
139 211 1
144 211 1
163 211 1
166 211 1
114 212 1
116 212 1
133 212 1
140 212 1
164 212 1
167 212 1
115 213 1
117 213 1
134 213 1
141 213 1
165 213 1
168 213 1
116 214 1
118 214 1
135 214 1
142 214 1
157 214 1
166 214 1
117 215 1
119 215 1
136 215 1
143 215 1
158 215 1
167 215 1
118 216 1
120 216 1
137 216 1
144 216 1
159 216 1
168 216 1
121 217 1
131 217 1
133 217 1
142 217 1
169 217 1
172 217 1
122 218 1
132 218 1
134 218 1
143 218 1
170 218 1
173 218 1
121 219 1
123 219 1
135 219 1
144 219 1
171 219 1
174 219 1
122 220 1
124 220 1
133 220 1
136 220 1
172 220 1
175 220 1
123 221 1
125 221 1
134 221 1
137 221 1
173 221 1
176 221 1
124 222 1
126 222 1
135 222 1
138 222 1
174 222 1
177 222 1
125 223 1
127 223 1
136 223 1
139 223 1
175 223 1
178 223 1
126 224 1
128 224 1
137 224 1
140 224 1
176 224 1
179 224 1
127 225 1
129 225 1
138 225 1
141 225 1
177 225 1
180 225 1
128 226 1
130 226 1
139 226 1
142 226 1
169 226 1
178 226 1
129 227 1
131 227 1
140 227 1
143 227 1
170 227 1
179 227 1
130 228 1
132 228 1
141 228 1
144 228 1
171 228 1
180 228 1
145 229 1
155 229 1
157 229 1
166 229 1
169 229 1
174 229 1
146 230 1
156 230 1
158 230 1
167 230 1
170 230 1
175 230 1
145 231 1
147 231 1
159 231 1
168 231 1
171 231 1
176 231 1
146 232 1
148 232 1
157 232 1
160 232 1
172 232 1
177 232 1
147 233 1
149 233 1
158 233 1
161 233 1
173 233 1
178 233 1
148 234 1
150 234 1
159 234 1
162 234 1
174 234 1
179 234 1
149 235 1
151 235 1
160 235 1
163 235 1
175 235 1
180 235 1
150 236 1
152 236 1
161 236 1
164 236 1
169 236 1
176 236 1
151 237 1
153 237 1
162 237 1
165 237 1
170 237 1
177 237 1
152 238 1
154 238 1
163 238 1
166 238 1
171 238 1
178 238 1
153 239 1
155 239 1
164 239 1
167 239 1
172 239 1
179 239 1
154 240 1
156 240 1
165 240 1
168 240 1
173 240 1
180 240 1
