%%MatrixMarket matrix coordinate integer general
% Binary matrix; one-based indices; arithmetic over GF(2)
600 900 3600
58 1 1
74 1 1
234 1 1
255 1 1
59 2 1
75 2 1
235 2 1
251 2 1
60 3 1
71 3 1
231 3 1
252 3 1
56 4 1
72 4 1
232 4 1
253 4 1
57 5 1
73 5 1
233 5 1
254 5 1
54 6 1
63 6 1
239 6 1
260 6 1
55 7 1
64 7 1
240 7 1
256 7 1
51 8 1
65 8 1
236 8 1
257 8 1
52 9 1
61 9 1
237 9 1
258 9 1
53 10 1
62 10 1
238 10 1
259 10 1
59 11 1
68 11 1
244 11 1
265 11 1
60 12 1
69 12 1
245 12 1
261 12 1
56 13 1
70 13 1
241 13 1
262 13 1
57 14 1
66 14 1
242 14 1
263 14 1
58 15 1
67 15 1
243 15 1
264 15 1
64 16 1
73 16 1
249 16 1
270 16 1
65 17 1
74 17 1
250 17 1
266 17 1
61 18 1
75 18 1
246 18 1
267 18 1
62 19 1
71 19 1
247 19 1
268 19 1
63 20 1
72 20 1
248 20 1
269 20 1
53 21 1
69 21 1
229 21 1
275 21 1
54 22 1
70 22 1
230 22 1
271 22 1
55 23 1
66 23 1
226 23 1
272 23 1
51 24 1
67 24 1
227 24 1
273 24 1
52 25 1
68 25 1
228 25 1
274 25 1
8 26 1
24 26 1
259 26 1
280 26 1
9 27 1
25 27 1
260 27 1
276 27 1
10 28 1
21 28 1
256 28 1
277 28 1
6 29 1
22 29 1
257 29 1
278 29 1
7 30 1
23 30 1
258 30 1
279 30 1
4 31 1
13 31 1
264 31 1
285 31 1
5 32 1
14 32 1
265 32 1
281 32 1
1 33 1
15 33 1
261 33 1
282 33 1
2 34 1
11 34 1
262 34 1
283 34 1
3 35 1
12 35 1
263 35 1
284 35 1
9 36 1
18 36 1
269 36 1
290 36 1
10 37 1
19 37 1
270 37 1
286 37 1
6 38 1
20 38 1
266 38 1
287 38 1
7 39 1
16 39 1
267 39 1
288 39 1
8 40 1
17 40 1
268 40 1
289 40 1
14 41 1
23 41 1
274 41 1
295 41 1
15 42 1
24 42 1
275 42 1
291 42 1
11 43 1
25 43 1
271 43 1
292 43 1
12 44 1
21 44 1
272 44 1
293 44 1
13 45 1
22 45 1
273 45 1
294 45 1
3 46 1
19 46 1
254 46 1
300 46 1
4 47 1
20 47 1
255 47 1
296 47 1
5 48 1
16 48 1
251 48 1
297 48 1
1 49 1
17 49 1
252 49 1
298 49 1
2 50 1
18 50 1
253 50 1
299 50 1
33 51 1
49 51 1
230 51 1
284 51 1
34 52 1
50 52 1
226 52 1
285 52 1
35 53 1
46 53 1
227 53 1
281 53 1
31 54 1
47 54 1
228 54 1
282 54 1
32 55 1
48 55 1
229 55 1
283 55 1
29 56 1
38 56 1
235 56 1
289 56 1
30 57 1
39 57 1
231 57 1
290 57 1
26 58 1
40 58 1
232 58 1
286 58 1
27 59 1
36 59 1
233 59 1
287 59 1
28 60 1
37 60 1
234 60 1
288 60 1
34 61 1
43 61 1
240 61 1
294 61 1
35 62 1
44 62 1
236 62 1
295 62 1
31 63 1
45 63 1
237 63 1
291 63 1
32 64 1
41 64 1
238 64 1
292 64 1
33 65 1
42 65 1
239 65 1
293 65 1
39 66 1
48 66 1
245 66 1
299 66 1
40 67 1
49 67 1
241 67 1
300 67 1
36 68 1
50 68 1
242 68 1
296 68 1
37 69 1
46 69 1
243 69 1
297 69 1
38 70 1
47 70 1
244 70 1
298 70 1
28 71 1
44 71 1
250 71 1
279 71 1
29 72 1
45 72 1
246 72 1
280 72 1
30 73 1
41 73 1
247 73 1
276 73 1
26 74 1
42 74 1
248 74 1
277 74 1
27 75 1
43 75 1
249 75 1
278 75 1
133 76 1
149 76 1
159 76 1
180 76 1
134 77 1
150 77 1
160 77 1
176 77 1
135 78 1
146 78 1
156 78 1
177 78 1
131 79 1
147 79 1
157 79 1
178 79 1
132 80 1
148 80 1
158 80 1
179 80 1
129 81 1
138 81 1
164 81 1
185 81 1
130 82 1
139 82 1
165 82 1
181 82 1
126 83 1
140 83 1
161 83 1
182 83 1
127 84 1
136 84 1
162 84 1
183 84 1
128 85 1
137 85 1
163 85 1
184 85 1
134 86 1
143 86 1
169 86 1
190 86 1
135 87 1
144 87 1
170 87 1
186 87 1
131 88 1
145 88 1
166 88 1
187 88 1
132 89 1
141 89 1
167 89 1
188 89 1
133 90 1
142 90 1
168 90 1
189 90 1
139 91 1
148 91 1
174 91 1
195 91 1
140 92 1
149 92 1
175 92 1
191 92 1
136 93 1
150 93 1
171 93 1
192 93 1
137 94 1
146 94 1
172 94 1
193 94 1
138 95 1
147 95 1
173 95 1
194 95 1
128 96 1
144 96 1
154 96 1
200 96 1
129 97 1
145 97 1
155 97 1
196 97 1
130 98 1
141 98 1
151 98 1
197 98 1
126 99 1
142 99 1
152 99 1
198 99 1
127 100 1
143 100 1
153 100 1
199 100 1
83 101 1
99 101 1
184 101 1
205 101 1
84 102 1
100 102 1
185 102 1
201 102 1
85 103 1
96 103 1
181 103 1
202 103 1
81 104 1
97 104 1
182 104 1
203 104 1
82 105 1
98 105 1
183 105 1
204 105 1
79 106 1
88 106 1
189 106 1
210 106 1
80 107 1
89 107 1
190 107 1
206 107 1
76 108 1
90 108 1
186 108 1
207 108 1
77 109 1
86 109 1
187 109 1
208 109 1
78 110 1
87 110 1
188 110 1
209 110 1
84 111 1
93 111 1
194 111 1
215 111 1
85 112 1
94 112 1
195 112 1
211 112 1
81 113 1
95 113 1
191 113 1
212 113 1
82 114 1
91 114 1
192 114 1
213 114 1
83 115 1
92 115 1
193 115 1
214 115 1
89 116 1
98 116 1
199 116 1
220 116 1
90 117 1
99 117 1
200 117 1
216 117 1
86 118 1
100 118 1
196 118 1
217 118 1
87 119 1
96 119 1
197 119 1
218 119 1
88 120 1
97 120 1
198 120 1
219 120 1
78 121 1
94 121 1
179 121 1
225 121 1
79 122 1
95 122 1
180 122 1
221 122 1
80 123 1
91 123 1
176 123 1
222 123 1
76 124 1
92 124 1
177 124 1
223 124 1
77 125 1
93 125 1
178 125 1
224 125 1
108 126 1
124 126 1
155 126 1
209 126 1
109 127 1
125 127 1
151 127 1
210 127 1
110 128 1
121 128 1
152 128 1
206 128 1
106 129 1
122 129 1
153 129 1
207 129 1
107 130 1
123 130 1
154 130 1
208 130 1
104 131 1
113 131 1
160 131 1
214 131 1
105 132 1
114 132 1
156 132 1
215 132 1
101 133 1
115 133 1
157 133 1
211 133 1
102 134 1
111 134 1
158 134 1
212 134 1
103 135 1
112 135 1
159 135 1
213 135 1
109 136 1
118 136 1
165 136 1
219 136 1
110 137 1
119 137 1
161 137 1
220 137 1
106 138 1
120 138 1
162 138 1
216 138 1
107 139 1
116 139 1
163 139 1
217 139 1
108 140 1
117 140 1
164 140 1
218 140 1
114 141 1
123 141 1
170 141 1
224 141 1
115 142 1
124 142 1
166 142 1
225 142 1
111 143 1
125 143 1
167 143 1
221 143 1
112 144 1
121 144 1
168 144 1
222 144 1
113 145 1
122 145 1
169 145 1
223 145 1
103 146 1
119 146 1
175 146 1
204 146 1
104 147 1
120 147 1
171 147 1
205 147 1
105 148 1
116 148 1
172 148 1
201 148 1
101 149 1
117 149 1
173 149 1
202 149 1
102 150 1
118 150 1
174 150 1
203 150 1
92 151 1
94 151 1
384 151 1
405 151 1
93 152 1
95 152 1
385 152 1
401 152 1
91 153 1
94 153 1
381 153 1
402 153 1
92 154 1
95 154 1
382 154 1
403 154 1
91 155 1
93 155 1
383 155 1
404 155 1
97 156 1
99 156 1
389 156 1
410 156 1
98 157 1
100 157 1
390 157 1
406 157 1
96 158 1
99 158 1
386 158 1
407 158 1
97 159 1
100 159 1
387 159 1
408 159 1
96 160 1
98 160 1
388 160 1
409 160 1
77 161 1
79 161 1
394 161 1
415 161 1
78 162 1
80 162 1
395 162 1
411 162 1
76 163 1
79 163 1
391 163 1
412 163 1
77 164 1
80 164 1
392 164 1
413 164 1
76 165 1
78 165 1
393 165 1
414 165 1
82 166 1
84 166 1
399 166 1
420 166 1
83 167 1
85 167 1
400 167 1
416 167 1
81 168 1
84 168 1
396 168 1
417 168 1
82 169 1
85 169 1
397 169 1
418 169 1
81 170 1
83 170 1
398 170 1
419 170 1
87 171 1
89 171 1
379 171 1
425 171 1
88 172 1
90 172 1
380 172 1
421 172 1
86 173 1
89 173 1
376 173 1
422 173 1
87 174 1
90 174 1
377 174 1
423 174 1
86 175 1
88 175 1
378 175 1
424 175 1
117 176 1
119 176 1
409 176 1
430 176 1
118 177 1
120 177 1
410 177 1
426 177 1
116 178 1
119 178 1
406 178 1
427 178 1
117 179 1
120 179 1
407 179 1
428 179 1
116 180 1
118 180 1
408 180 1
429 180 1
122 181 1
124 181 1
414 181 1
435 181 1
123 182 1
125 182 1
415 182 1
431 182 1
121 183 1
124 183 1
411 183 1
432 183 1
122 184 1
125 184 1
412 184 1
433 184 1
121 185 1
123 185 1
413 185 1
434 185 1
102 186 1
104 186 1
419 186 1
440 186 1
103 187 1
105 187 1
420 187 1
436 187 1
101 188 1
104 188 1
416 188 1
437 188 1
102 189 1
105 189 1
417 189 1
438 189 1
101 190 1
103 190 1
418 190 1
439 190 1
107 191 1
109 191 1
424 191 1
445 191 1
108 192 1
110 192 1
425 192 1
441 192 1
106 193 1
109 193 1
421 193 1
442 193 1
107 194 1
110 194 1
422 194 1
443 194 1
106 195 1
108 195 1
423 195 1
444 195 1
112 196 1
114 196 1
404 196 1
450 196 1
113 197 1
115 197 1
405 197 1
446 197 1
111 198 1
114 198 1
401 198 1
447 198 1
112 199 1
115 199 1
402 199 1
448 199 1
111 200 1
113 200 1
403 200 1
449 200 1
142 201 1
144 201 1
380 201 1
434 201 1
143 202 1
145 202 1
376 202 1
435 202 1
141 203 1
144 203 1
377 203 1
431 203 1
142 204 1
145 204 1
378 204 1
432 204 1
141 205 1
143 205 1
379 205 1
433 205 1
147 206 1
149 206 1
385 206 1
439 206 1
148 207 1
150 207 1
381 207 1
440 207 1
146 208 1
149 208 1
382 208 1
436 208 1
147 209 1
150 209 1
383 209 1
437 209 1
146 210 1
148 210 1
384 210 1
438 210 1
127 211 1
129 211 1
390 211 1
444 211 1
128 212 1
130 212 1
386 212 1
445 212 1
126 213 1
129 213 1
387 213 1
441 213 1
127 214 1
130 214 1
388 214 1
442 214 1
126 215 1
128 215 1
389 215 1
443 215 1
132 216 1
134 216 1
395 216 1
449 216 1
133 217 1
135 217 1
391 217 1
450 217 1
131 218 1
134 218 1
392 218 1
446 218 1
132 219 1
135 219 1
393 219 1
447 219 1
131 220 1
133 220 1
394 220 1
448 220 1
137 221 1
139 221 1
400 221 1
429 221 1
138 222 1
140 222 1
396 222 1
430 222 1
136 223 1
139 223 1
397 223 1
426 223 1
137 224 1
140 224 1
398 224 1
427 224 1
136 225 1
138 225 1
399 225 1
428 225 1
17 226 1
19 226 1
309 226 1
330 226 1
18 227 1
20 227 1
310 227 1
326 227 1
16 228 1
19 228 1
306 228 1
327 228 1
17 229 1
20 229 1
307 229 1
328 229 1
16 230 1
18 230 1
308 230 1
329 230 1
22 231 1
24 231 1
314 231 1
335 231 1
23 232 1
25 232 1
315 232 1
331 232 1
21 233 1
24 233 1
311 233 1
332 233 1
22 234 1
25 234 1
312 234 1
333 234 1
21 235 1
23 235 1
313 235 1
334 235 1
2 236 1
4 236 1
319 236 1
340 236 1
3 237 1
5 237 1
320 237 1
336 237 1
1 238 1
4 238 1
316 238 1
337 238 1
2 239 1
5 239 1
317 239 1
338 239 1
1 240 1
3 240 1
318 240 1
339 240 1
7 241 1
9 241 1
324 241 1
345 241 1
8 242 1
10 242 1
325 242 1
341 242 1
6 243 1
9 243 1
321 243 1
342 243 1
7 244 1
10 244 1
322 244 1
343 244 1
6 245 1
8 245 1
323 245 1
344 245 1
12 246 1
14 246 1
304 246 1
350 246 1
13 247 1
15 247 1
305 247 1
346 247 1
11 248 1
14 248 1
301 248 1
347 248 1
12 249 1
15 249 1
302 249 1
348 249 1
11 250 1
13 250 1
303 250 1
349 250 1
42 251 1
44 251 1
334 251 1
355 251 1
43 252 1
45 252 1
335 252 1
351 252 1
41 253 1
44 253 1
331 253 1
352 253 1
42 254 1
45 254 1
332 254 1
353 254 1
41 255 1
43 255 1
333 255 1
354 255 1
47 256 1
49 256 1
339 256 1
360 256 1
48 257 1
50 257 1
340 257 1
356 257 1
46 258 1
49 258 1
336 258 1
357 258 1
47 259 1
50 259 1
337 259 1
358 259 1
46 260 1
48 260 1
338 260 1
359 260 1
27 261 1
29 261 1
344 261 1
365 261 1
28 262 1
30 262 1
345 262 1
361 262 1
26 263 1
29 263 1
341 263 1
362 263 1
27 264 1
30 264 1
342 264 1
363 264 1
26 265 1
28 265 1
343 265 1
364 265 1
32 266 1
34 266 1
349 266 1
370 266 1
33 267 1
35 267 1
350 267 1
366 267 1
31 268 1
34 268 1
346 268 1
367 268 1
32 269 1
35 269 1
347 269 1
368 269 1
31 270 1
33 270 1
348 270 1
369 270 1
37 271 1
39 271 1
329 271 1
375 271 1
38 272 1
40 272 1
330 272 1
371 272 1
36 273 1
39 273 1
326 273 1
372 273 1
37 274 1
40 274 1
327 274 1
373 274 1
36 275 1
38 275 1
328 275 1
374 275 1
67 276 1
69 276 1
305 276 1
359 276 1
68 277 1
70 277 1
301 277 1
360 277 1
66 278 1
69 278 1
302 278 1
356 278 1
67 279 1
70 279 1
303 279 1
357 279 1
66 280 1
68 280 1
304 280 1
358 280 1
72 281 1
74 281 1
310 281 1
364 281 1
73 282 1
75 282 1
306 282 1
365 282 1
71 283 1
74 283 1
307 283 1
361 283 1
72 284 1
75 284 1
308 284 1
362 284 1
71 285 1
73 285 1
309 285 1
363 285 1
52 286 1
54 286 1
315 286 1
369 286 1
53 287 1
55 287 1
311 287 1
370 287 1
51 288 1
54 288 1
312 288 1
366 288 1
52 289 1
55 289 1
313 289 1
367 289 1
51 290 1
53 290 1
314 290 1
368 290 1
57 291 1
59 291 1
320 291 1
374 291 1
58 292 1
60 292 1
316 292 1
375 292 1
56 293 1
59 293 1
317 293 1
371 293 1
57 294 1
60 294 1
318 294 1
372 294 1
56 295 1
58 295 1
319 295 1
373 295 1
62 296 1
64 296 1
325 296 1
354 296 1
63 297 1
65 297 1
321 297 1
355 297 1
61 298 1
64 298 1
322 298 1
351 298 1
62 299 1
65 299 1
323 299 1
352 299 1
61 300 1
63 300 1
324 300 1
353 300 1
31 301 1
70 301 1
534 301 1
555 301 1
32 302 1
66 302 1
535 302 1
551 302 1
33 303 1
67 303 1
531 303 1
552 303 1
34 304 1
68 304 1
532 304 1
553 304 1
35 305 1
69 305 1
533 305 1
554 305 1
36 306 1
75 306 1
539 306 1
560 306 1
37 307 1
71 307 1
540 307 1
556 307 1
38 308 1
72 308 1
536 308 1
557 308 1
39 309 1
73 309 1
537 309 1
558 309 1
40 310 1
74 310 1
538 310 1
559 310 1
41 311 1
55 311 1
544 311 1
565 311 1
42 312 1
51 312 1
545 312 1
561 312 1
43 313 1
52 313 1
541 313 1
562 313 1
44 314 1
53 314 1
542 314 1
563 314 1
45 315 1
54 315 1
543 315 1
564 315 1
46 316 1
60 316 1
549 316 1
570 316 1
47 317 1
56 317 1
550 317 1
566 317 1
48 318 1
57 318 1
546 318 1
567 318 1
49 319 1
58 319 1
547 319 1
568 319 1
50 320 1
59 320 1
548 320 1
569 320 1
26 321 1
65 321 1
529 321 1
575 321 1
27 322 1
61 322 1
530 322 1
571 322 1
28 323 1
62 323 1
526 323 1
572 323 1
29 324 1
63 324 1
527 324 1
573 324 1
30 325 1
64 325 1
528 325 1
574 325 1
20 326 1
56 326 1
559 326 1
580 326 1
16 327 1
57 327 1
560 327 1
576 327 1
17 328 1
58 328 1
556 328 1
577 328 1
18 329 1
59 329 1
557 329 1
578 329 1
19 330 1
60 330 1
558 330 1
579 330 1
25 331 1
61 331 1
564 331 1
585 331 1
21 332 1
62 332 1
565 332 1
581 332 1
22 333 1
63 333 1
561 333 1
582 333 1
23 334 1
64 334 1
562 334 1
583 334 1
24 335 1
65 335 1
563 335 1
584 335 1
5 336 1
66 336 1
569 336 1
590 336 1
1 337 1
67 337 1
570 337 1
586 337 1
2 338 1
68 338 1
566 338 1
587 338 1
3 339 1
69 339 1
567 339 1
588 339 1
4 340 1
70 340 1
568 340 1
589 340 1
10 341 1
71 341 1
574 341 1
595 341 1
6 342 1
72 342 1
575 342 1
591 342 1
7 343 1
73 343 1
571 343 1
592 343 1
8 344 1
74 344 1
572 344 1
593 344 1
9 345 1
75 345 1
573 345 1
594 345 1
15 346 1
51 346 1
554 346 1
600 346 1
11 347 1
52 347 1
555 347 1
596 347 1
12 348 1
53 348 1
551 348 1
597 348 1
13 349 1
54 349 1
552 349 1
598 349 1
14 350 1
55 350 1
553 350 1
599 350 1
6 351 1
45 351 1
530 351 1
584 351 1
7 352 1
41 352 1
526 352 1
585 352 1
8 353 1
42 353 1
527 353 1
581 353 1
9 354 1
43 354 1
528 354 1
582 354 1
10 355 1
44 355 1
529 355 1
583 355 1
11 356 1
50 356 1
535 356 1
589 356 1
12 357 1
46 357 1
531 357 1
590 357 1
13 358 1
47 358 1
532 358 1
586 358 1
14 359 1
48 359 1
533 359 1
587 359 1
15 360 1
49 360 1
534 360 1
588 360 1
16 361 1
30 361 1
540 361 1
594 361 1
17 362 1
26 362 1
536 362 1
595 362 1
18 363 1
27 363 1
537 363 1
591 363 1
19 364 1
28 364 1
538 364 1
592 364 1
20 365 1
29 365 1
539 365 1
593 365 1
21 366 1
35 366 1
545 366 1
599 366 1
22 367 1
31 367 1
541 367 1
600 367 1
23 368 1
32 368 1
542 368 1
596 368 1
24 369 1
33 369 1
543 369 1
597 369 1
25 370 1
34 370 1
544 370 1
598 370 1
1 371 1
40 371 1
550 371 1
579 371 1
2 372 1
36 372 1
546 372 1
580 372 1
3 373 1
37 373 1
547 373 1
576 373 1
4 374 1
38 374 1
548 374 1
577 374 1
5 375 1
39 375 1
549 375 1
578 375 1
106 376 1
145 376 1
459 376 1
480 376 1
107 377 1
141 377 1
460 377 1
476 377 1
108 378 1
142 378 1
456 378 1
477 378 1
109 379 1
143 379 1
457 379 1
478 379 1
110 380 1
144 380 1
458 380 1
479 380 1
111 381 1
150 381 1
464 381 1
485 381 1
112 382 1
146 382 1
465 382 1
481 382 1
113 383 1
147 383 1
461 383 1
482 383 1
114 384 1
148 384 1
462 384 1
483 384 1
115 385 1
149 385 1
463 385 1
484 385 1
116 386 1
130 386 1
469 386 1
490 386 1
117 387 1
126 387 1
470 387 1
486 387 1
118 388 1
127 388 1
466 388 1
487 388 1
119 389 1
128 389 1
467 389 1
488 389 1
120 390 1
129 390 1
468 390 1
489 390 1
121 391 1
135 391 1
474 391 1
495 391 1
122 392 1
131 392 1
475 392 1
491 392 1
123 393 1
132 393 1
471 393 1
492 393 1
124 394 1
133 394 1
472 394 1
493 394 1
125 395 1
134 395 1
473 395 1
494 395 1
101 396 1
140 396 1
454 396 1
500 396 1
102 397 1
136 397 1
455 397 1
496 397 1
103 398 1
137 398 1
451 398 1
497 398 1
104 399 1
138 399 1
452 399 1
498 399 1
105 400 1
139 400 1
453 400 1
499 400 1
95 401 1
131 401 1
484 401 1
505 401 1
91 402 1
132 402 1
485 402 1
501 402 1
92 403 1
133 403 1
481 403 1
502 403 1
93 404 1
134 404 1
482 404 1
503 404 1
94 405 1
135 405 1
483 405 1
504 405 1
100 406 1
136 406 1
489 406 1
510 406 1
96 407 1
137 407 1
490 407 1
506 407 1
97 408 1
138 408 1
486 408 1
507 408 1
98 409 1
139 409 1
487 409 1
508 409 1
99 410 1
140 410 1
488 410 1
509 410 1
80 411 1
141 411 1
494 411 1
515 411 1
76 412 1
142 412 1
495 412 1
511 412 1
77 413 1
143 413 1
491 413 1
512 413 1
78 414 1
144 414 1
492 414 1
513 414 1
79 415 1
145 415 1
493 415 1
514 415 1
85 416 1
146 416 1
499 416 1
520 416 1
81 417 1
147 417 1
500 417 1
516 417 1
82 418 1
148 418 1
496 418 1
517 418 1
83 419 1
149 419 1
497 419 1
518 419 1
84 420 1
150 420 1
498 420 1
519 420 1
90 421 1
126 421 1
479 421 1
525 421 1
86 422 1
127 422 1
480 422 1
521 422 1
87 423 1
128 423 1
476 423 1
522 423 1
88 424 1
129 424 1
477 424 1
523 424 1
89 425 1
130 425 1
478 425 1
524 425 1
81 426 1
120 426 1
455 426 1
509 426 1
82 427 1
116 427 1
451 427 1
510 427 1
83 428 1
117 428 1
452 428 1
506 428 1
84 429 1
118 429 1
453 429 1
507 429 1
85 430 1
119 430 1
454 430 1
508 430 1
86 431 1
125 431 1
460 431 1
514 431 1
87 432 1
121 432 1
456 432 1
515 432 1
88 433 1
122 433 1
457 433 1
511 433 1
89 434 1
123 434 1
458 434 1
512 434 1
90 435 1
124 435 1
459 435 1
513 435 1
91 436 1
105 436 1
465 436 1
519 436 1
92 437 1
101 437 1
461 437 1
520 437 1
93 438 1
102 438 1
462 438 1
516 438 1
94 439 1
103 439 1
463 439 1
517 439 1
95 440 1
104 440 1
464 440 1
518 440 1
96 441 1
110 441 1
470 441 1
524 441 1
97 442 1
106 442 1
466 442 1
525 442 1
98 443 1
107 443 1
467 443 1
521 443 1
99 444 1
108 444 1
468 444 1
522 444 1
100 445 1
109 445 1
469 445 1
523 445 1
76 446 1
115 446 1
475 446 1
504 446 1
77 447 1
111 447 1
471 447 1
505 447 1
78 448 1
112 448 1
472 448 1
501 448 1
79 449 1
113 449 1
473 449 1
502 449 1
80 450 1
114 450 1
474 450 1
503 450 1
242 451 1
244 451 1
358 451 1
374 451 1
243 452 1
245 452 1
359 452 1
375 452 1
241 453 1
244 453 1
360 453 1
371 453 1
242 454 1
245 454 1
356 454 1
372 454 1
241 455 1
243 455 1
357 455 1
373 455 1
247 456 1
249 456 1
354 456 1
363 456 1
248 457 1
250 457 1
355 457 1
364 457 1
246 458 1
249 458 1
351 458 1
365 458 1
247 459 1
250 459 1
352 459 1
361 459 1
246 460 1
248 460 1
353 460 1
362 460 1
227 461 1
229 461 1
359 461 1
368 461 1
228 462 1
230 462 1
360 462 1
369 462 1
226 463 1
229 463 1
356 463 1
370 463 1
227 464 1
230 464 1
357 464 1
366 464 1
226 465 1
228 465 1
358 465 1
367 465 1
232 466 1
234 466 1
364 466 1
373 466 1
233 467 1
235 467 1
365 467 1
374 467 1
231 468 1
234 468 1
361 468 1
375 468 1
232 469 1
235 469 1
362 469 1
371 469 1
231 470 1
233 470 1
363 470 1
372 470 1
237 471 1
239 471 1
353 471 1
369 471 1
238 472 1
240 472 1
354 472 1
370 472 1
236 473 1
239 473 1
355 473 1
366 473 1
237 474 1
240 474 1
351 474 1
367 474 1
236 475 1
238 475 1
352 475 1
368 475 1
267 476 1
269 476 1
308 476 1
324 476 1
268 477 1
270 477 1
309 477 1
325 477 1
266 478 1
269 478 1
310 478 1
321 478 1
267 479 1
270 479 1
306 479 1
322 479 1
266 480 1
268 480 1
307 480 1
323 480 1
272 481 1
274 481 1
304 481 1
313 481 1
273 482 1
275 482 1
305 482 1
314 482 1
271 483 1
274 483 1
301 483 1
315 483 1
272 484 1
275 484 1
302 484 1
311 484 1
271 485 1
273 485 1
303 485 1
312 485 1
252 486 1
254 486 1
309 486 1
318 486 1
253 487 1
255 487 1
310 487 1
319 487 1
251 488 1
254 488 1
306 488 1
320 488 1
252 489 1
255 489 1
307 489 1
316 489 1
251 490 1
253 490 1
308 490 1
317 490 1
257 491 1
259 491 1
314 491 1
323 491 1
258 492 1
260 492 1
315 492 1
324 492 1
256 493 1
259 493 1
311 493 1
325 493 1
257 494 1
260 494 1
312 494 1
321 494 1
256 495 1
258 495 1
313 495 1
322 495 1
262 496 1
264 496 1
303 496 1
319 496 1
263 497 1
265 497 1
304 497 1
320 497 1
261 498 1
264 498 1
305 498 1
316 498 1
262 499 1
265 499 1
301 499 1
317 499 1
261 500 1
263 500 1
302 500 1
318 500 1
292 501 1
294 501 1
333 501 1
349 501 1
293 502 1
295 502 1
334 502 1
350 502 1
291 503 1
294 503 1
335 503 1
346 503 1
292 504 1
295 504 1
331 504 1
347 504 1
291 505 1
293 505 1
332 505 1
348 505 1
297 506 1
299 506 1
329 506 1
338 506 1
298 507 1
300 507 1
330 507 1
339 507 1
296 508 1
299 508 1
326 508 1
340 508 1
297 509 1
300 509 1
327 509 1
336 509 1
296 510 1
298 510 1
328 510 1
337 510 1
277 511 1
279 511 1
334 511 1
343 511 1
278 512 1
280 512 1
335 512 1
344 512 1
276 513 1
279 513 1
331 513 1
345 513 1
277 514 1
280 514 1
332 514 1
341 514 1
276 515 1
278 515 1
333 515 1
342 515 1
282 516 1
284 516 1
339 516 1
348 516 1
283 517 1
285 517 1
340 517 1
349 517 1
281 518 1
284 518 1
336 518 1
350 518 1
282 519 1
285 519 1
337 519 1
346 519 1
281 520 1
283 520 1
338 520 1
347 520 1
287 521 1
289 521 1
328 521 1
344 521 1
288 522 1
290 522 1
329 522 1
345 522 1
286 523 1
289 523 1
330 523 1
341 523 1
287 524 1
290 524 1
326 524 1
342 524 1
286 525 1
288 525 1
327 525 1
343 525 1
167 526 1
169 526 1
433 526 1
449 526 1
168 527 1
170 527 1
434 527 1
450 527 1
166 528 1
169 528 1
435 528 1
446 528 1
167 529 1
170 529 1
431 529 1
447 529 1
166 530 1
168 530 1
432 530 1
448 530 1
172 531 1
174 531 1
429 531 1
438 531 1
173 532 1
175 532 1
430 532 1
439 532 1
171 533 1
174 533 1
426 533 1
440 533 1
172 534 1
175 534 1
427 534 1
436 534 1
171 535 1
173 535 1
428 535 1
437 535 1
152 536 1
154 536 1
434 536 1
443 536 1
153 537 1
155 537 1
435 537 1
444 537 1
151 538 1
154 538 1
431 538 1
445 538 1
152 539 1
155 539 1
432 539 1
441 539 1
151 540 1
153 540 1
433 540 1
442 540 1
157 541 1
159 541 1
439 541 1
448 541 1
158 542 1
160 542 1
440 542 1
449 542 1
156 543 1
159 543 1
436 543 1
450 543 1
157 544 1
160 544 1
437 544 1
446 544 1
156 545 1
158 545 1
438 545 1
447 545 1
162 546 1
164 546 1
428 546 1
444 546 1
163 547 1
165 547 1
429 547 1
445 547 1
161 548 1
164 548 1
430 548 1
441 548 1
162 549 1
165 549 1
426 549 1
442 549 1
161 550 1
163 550 1
427 550 1
443 550 1
192 551 1
194 551 1
383 551 1
399 551 1
193 552 1
195 552 1
384 552 1
400 552 1
191 553 1
194 553 1
385 553 1
396 553 1
192 554 1
195 554 1
381 554 1
397 554 1
191 555 1
193 555 1
382 555 1
398 555 1
197 556 1
199 556 1
379 556 1
388 556 1
198 557 1
200 557 1
380 557 1
389 557 1
196 558 1
199 558 1
376 558 1
390 558 1
197 559 1
200 559 1
377 559 1
386 559 1
196 560 1
198 560 1
378 560 1
387 560 1
177 561 1
179 561 1
384 561 1
393 561 1
178 562 1
180 562 1
385 562 1
394 562 1
176 563 1
179 563 1
381 563 1
395 563 1
177 564 1
180 564 1
382 564 1
391 564 1
176 565 1
178 565 1
383 565 1
392 565 1
182 566 1
184 566 1
389 566 1
398 566 1
183 567 1
185 567 1
390 567 1
399 567 1
181 568 1
184 568 1
386 568 1
400 568 1
182 569 1
185 569 1
387 569 1
396 569 1
181 570 1
183 570 1
388 570 1
397 570 1
187 571 1
189 571 1
378 571 1
394 571 1
188 572 1
190 572 1
379 572 1
395 572 1
186 573 1
189 573 1
380 573 1
391 573 1
187 574 1
190 574 1
376 574 1
392 574 1
186 575 1
188 575 1
377 575 1
393 575 1
217 576 1
219 576 1
408 576 1
424 576 1
218 577 1
220 577 1
409 577 1
425 577 1
216 578 1
219 578 1
410 578 1
421 578 1
217 579 1
220 579 1
406 579 1
422 579 1
216 580 1
218 580 1
407 580 1
423 580 1
222 581 1
224 581 1
404 581 1
413 581 1
223 582 1
225 582 1
405 582 1
414 582 1
221 583 1
224 583 1
401 583 1
415 583 1
222 584 1
225 584 1
402 584 1
411 584 1
221 585 1
223 585 1
403 585 1
412 585 1
202 586 1
204 586 1
409 586 1
418 586 1
203 587 1
205 587 1
410 587 1
419 587 1
201 588 1
204 588 1
406 588 1
420 588 1
202 589 1
205 589 1
407 589 1
416 589 1
201 590 1
203 590 1
408 590 1
417 590 1
207 591 1
209 591 1
414 591 1
423 591 1
208 592 1
210 592 1
415 592 1
424 592 1
206 593 1
209 593 1
411 593 1
425 593 1
207 594 1
210 594 1
412 594 1
421 594 1
206 595 1
208 595 1
413 595 1
422 595 1
212 596 1
214 596 1
403 596 1
419 596 1
213 597 1
215 597 1
404 597 1
420 597 1
211 598 1
214 598 1
405 598 1
416 598 1
212 599 1
215 599 1
401 599 1
417 599 1
211 600 1
213 600 1
402 600 1
418 600 1
181 601 1
220 601 1
508 601 1
524 601 1
182 602 1
216 602 1
509 602 1
525 602 1
183 603 1
217 603 1
510 603 1
521 603 1
184 604 1
218 604 1
506 604 1
522 604 1
185 605 1
219 605 1
507 605 1
523 605 1
186 606 1
225 606 1
504 606 1
513 606 1
187 607 1
221 607 1
505 607 1
514 607 1
188 608 1
222 608 1
501 608 1
515 608 1
189 609 1
223 609 1
502 609 1
511 609 1
190 610 1
224 610 1
503 610 1
512 610 1
191 611 1
205 611 1
509 611 1
518 611 1
192 612 1
201 612 1
510 612 1
519 612 1
193 613 1
202 613 1
506 613 1
520 613 1
194 614 1
203 614 1
507 614 1
516 614 1
195 615 1
204 615 1
508 615 1
517 615 1
196 616 1
210 616 1
514 616 1
523 616 1
197 617 1
206 617 1
515 617 1
524 617 1
198 618 1
207 618 1
511 618 1
525 618 1
199 619 1
208 619 1
512 619 1
521 619 1
200 620 1
209 620 1
513 620 1
522 620 1
176 621 1
215 621 1
503 621 1
519 621 1
177 622 1
211 622 1
504 622 1
520 622 1
178 623 1
212 623 1
505 623 1
516 623 1
179 624 1
213 624 1
501 624 1
517 624 1
180 625 1
214 625 1
502 625 1
518 625 1
170 626 1
206 626 1
458 626 1
474 626 1
166 627 1
207 627 1
459 627 1
475 627 1
167 628 1
208 628 1
460 628 1
471 628 1
168 629 1
209 629 1
456 629 1
472 629 1
169 630 1
210 630 1
457 630 1
473 630 1
175 631 1
211 631 1
454 631 1
463 631 1
171 632 1
212 632 1
455 632 1
464 632 1
172 633 1
213 633 1
451 633 1
465 633 1
173 634 1
214 634 1
452 634 1
461 634 1
174 635 1
215 635 1
453 635 1
462 635 1
155 636 1
216 636 1
459 636 1
468 636 1
151 637 1
217 637 1
460 637 1
469 637 1
152 638 1
218 638 1
456 638 1
470 638 1
153 639 1
219 639 1
457 639 1
466 639 1
154 640 1
220 640 1
458 640 1
467 640 1
160 641 1
221 641 1
464 641 1
473 641 1
156 642 1
222 642 1
465 642 1
474 642 1
157 643 1
223 643 1
461 643 1
475 643 1
158 644 1
224 644 1
462 644 1
471 644 1
159 645 1
225 645 1
463 645 1
472 645 1
165 646 1
201 646 1
453 646 1
469 646 1
161 647 1
202 647 1
454 647 1
470 647 1
162 648 1
203 648 1
455 648 1
466 648 1
163 649 1
204 649 1
451 649 1
467 649 1
164 650 1
205 650 1
452 650 1
468 650 1
156 651 1
195 651 1
483 651 1
499 651 1
157 652 1
191 652 1
484 652 1
500 652 1
158 653 1
192 653 1
485 653 1
496 653 1
159 654 1
193 654 1
481 654 1
497 654 1
160 655 1
194 655 1
482 655 1
498 655 1
161 656 1
200 656 1
479 656 1
488 656 1
162 657 1
196 657 1
480 657 1
489 657 1
163 658 1
197 658 1
476 658 1
490 658 1
164 659 1
198 659 1
477 659 1
486 659 1
165 660 1
199 660 1
478 660 1
487 660 1
166 661 1
180 661 1
484 661 1
493 661 1
167 662 1
176 662 1
485 662 1
494 662 1
168 663 1
177 663 1
481 663 1
495 663 1
169 664 1
178 664 1
482 664 1
491 664 1
170 665 1
179 665 1
483 665 1
492 665 1
171 666 1
185 666 1
489 666 1
498 666 1
172 667 1
181 667 1
490 667 1
499 667 1
173 668 1
182 668 1
486 668 1
500 668 1
174 669 1
183 669 1
487 669 1
496 669 1
175 670 1
184 670 1
488 670 1
497 670 1
151 671 1
190 671 1
478 671 1
494 671 1
152 672 1
186 672 1
479 672 1
495 672 1
153 673 1
187 673 1
480 673 1
491 673 1
154 674 1
188 674 1
476 674 1
492 674 1
155 675 1
189 675 1
477 675 1
493 675 1
256 676 1
295 676 1
583 676 1
599 676 1
257 677 1
291 677 1
584 677 1
600 677 1
258 678 1
292 678 1
585 678 1
596 678 1
259 679 1
293 679 1
581 679 1
597 679 1
260 680 1
294 680 1
582 680 1
598 680 1
261 681 1
300 681 1
579 681 1
588 681 1
262 682 1
296 682 1
580 682 1
589 682 1
263 683 1
297 683 1
576 683 1
590 683 1
264 684 1
298 684 1
577 684 1
586 684 1
265 685 1
299 685 1
578 685 1
587 685 1
266 686 1
280 686 1
584 686 1
593 686 1
267 687 1
276 687 1
585 687 1
594 687 1
268 688 1
277 688 1
581 688 1
595 688 1
269 689 1
278 689 1
582 689 1
591 689 1
270 690 1
279 690 1
583 690 1
592 690 1
271 691 1
285 691 1
589 691 1
598 691 1
272 692 1
281 692 1
590 692 1
599 692 1
273 693 1
282 693 1
586 693 1
600 693 1
274 694 1
283 694 1
587 694 1
596 694 1
275 695 1
284 695 1
588 695 1
597 695 1
251 696 1
290 696 1
578 696 1
594 696 1
252 697 1
286 697 1
579 697 1
595 697 1
253 698 1
287 698 1
580 698 1
591 698 1
254 699 1
288 699 1
576 699 1
592 699 1
255 700 1
289 700 1
577 700 1
593 700 1
245 701 1
281 701 1
533 701 1
549 701 1
241 702 1
282 702 1
534 702 1
550 702 1
242 703 1
283 703 1
535 703 1
546 703 1
243 704 1
284 704 1
531 704 1
547 704 1
244 705 1
285 705 1
532 705 1
548 705 1
250 706 1
286 706 1
529 706 1
538 706 1
246 707 1
287 707 1
530 707 1
539 707 1
247 708 1
288 708 1
526 708 1
540 708 1
248 709 1
289 709 1
527 709 1
536 709 1
249 710 1
290 710 1
528 710 1
537 710 1
230 711 1
291 711 1
534 711 1
543 711 1
226 712 1
292 712 1
535 712 1
544 712 1
227 713 1
293 713 1
531 713 1
545 713 1
228 714 1
294 714 1
532 714 1
541 714 1
229 715 1
295 715 1
533 715 1
542 715 1
235 716 1
296 716 1
539 716 1
548 716 1
231 717 1
297 717 1
540 717 1
549 717 1
232 718 1
298 718 1
536 718 1
550 718 1
233 719 1
299 719 1
537 719 1
546 719 1
234 720 1
300 720 1
538 720 1
547 720 1
240 721 1
276 721 1
528 721 1
544 721 1
236 722 1
277 722 1
529 722 1
545 722 1
237 723 1
278 723 1
530 723 1
541 723 1
238 724 1
279 724 1
526 724 1
542 724 1
239 725 1
280 725 1
527 725 1
543 725 1
231 726 1
270 726 1
558 726 1
574 726 1
232 727 1
266 727 1
559 727 1
575 727 1
233 728 1
267 728 1
560 728 1
571 728 1
234 729 1
268 729 1
556 729 1
572 729 1
235 730 1
269 730 1
557 730 1
573 730 1
236 731 1
275 731 1
554 731 1
563 731 1
237 732 1
271 732 1
555 732 1
564 732 1
238 733 1
272 733 1
551 733 1
565 733 1
239 734 1
273 734 1
552 734 1
561 734 1
240 735 1
274 735 1
553 735 1
562 735 1
241 736 1
255 736 1
559 736 1
568 736 1
242 737 1
251 737 1
560 737 1
569 737 1
243 738 1
252 738 1
556 738 1
570 738 1
244 739 1
253 739 1
557 739 1
566 739 1
245 740 1
254 740 1
558 740 1
567 740 1
246 741 1
260 741 1
564 741 1
573 741 1
247 742 1
256 742 1
565 742 1
574 742 1
248 743 1
257 743 1
561 743 1
575 743 1
249 744 1
258 744 1
562 744 1
571 744 1
250 745 1
259 745 1
563 745 1
572 745 1
226 746 1
265 746 1
553 746 1
569 746 1
227 747 1
261 747 1
554 747 1
570 747 1
228 748 1
262 748 1
555 748 1
566 748 1
229 749 1
263 749 1
551 749 1
567 749 1
230 750 1
264 750 1
552 750 1
568 750 1
331 751 1
370 751 1
542 751 1
544 751 1
332 752 1
366 752 1
543 752 1
545 752 1
333 753 1
367 753 1
541 753 1
544 753 1
334 754 1
368 754 1
542 754 1
545 754 1
335 755 1
369 755 1
541 755 1
543 755 1
336 756 1
375 756 1
547 756 1
549 756 1
337 757 1
371 757 1
548 757 1
550 757 1
338 758 1
372 758 1
546 758 1
549 758 1
339 759 1
373 759 1
547 759 1
550 759 1
340 760 1
374 760 1
546 760 1
548 760 1
341 761 1
355 761 1
527 761 1
529 761 1
342 762 1
351 762 1
528 762 1
530 762 1
343 763 1
352 763 1
526 763 1
529 763 1
344 764 1
353 764 1
527 764 1
530 764 1
345 765 1
354 765 1
526 765 1
528 765 1
346 766 1
360 766 1
532 766 1
534 766 1
347 767 1
356 767 1
533 767 1
535 767 1
348 768 1
357 768 1
531 768 1
534 768 1
349 769 1
358 769 1
532 769 1
535 769 1
350 770 1
359 770 1
531 770 1
533 770 1
326 771 1
365 771 1
537 771 1
539 771 1
327 772 1
361 772 1
538 772 1
540 772 1
328 773 1
362 773 1
536 773 1
539 773 1
329 774 1
363 774 1
537 774 1
540 774 1
330 775 1
364 775 1
536 775 1
538 775 1
320 776 1
356 776 1
567 776 1
569 776 1
316 777 1
357 777 1
568 777 1
570 777 1
317 778 1
358 778 1
566 778 1
569 778 1
318 779 1
359 779 1
567 779 1
570 779 1
319 780 1
360 780 1
566 780 1
568 780 1
325 781 1
361 781 1
572 781 1
574 781 1
321 782 1
362 782 1
573 782 1
575 782 1
322 783 1
363 783 1
571 783 1
574 783 1
323 784 1
364 784 1
572 784 1
575 784 1
324 785 1
365 785 1
571 785 1
573 785 1
305 786 1
366 786 1
552 786 1
554 786 1
301 787 1
367 787 1
553 787 1
555 787 1
302 788 1
368 788 1
551 788 1
554 788 1
303 789 1
369 789 1
552 789 1
555 789 1
304 790 1
370 790 1
551 790 1
553 790 1
310 791 1
371 791 1
557 791 1
559 791 1
306 792 1
372 792 1
558 792 1
560 792 1
307 793 1
373 793 1
556 793 1
559 793 1
308 794 1
374 794 1
557 794 1
560 794 1
309 795 1
375 795 1
556 795 1
558 795 1
315 796 1
351 796 1
562 796 1
564 796 1
311 797 1
352 797 1
563 797 1
565 797 1
312 798 1
353 798 1
561 798 1
564 798 1
313 799 1
354 799 1
562 799 1
565 799 1
314 800 1
355 800 1
561 800 1
563 800 1
306 801 1
345 801 1
592 801 1
594 801 1
307 802 1
341 802 1
593 802 1
595 802 1
308 803 1
342 803 1
591 803 1
594 803 1
309 804 1
343 804 1
592 804 1
595 804 1
310 805 1
344 805 1
591 805 1
593 805 1
311 806 1
350 806 1
597 806 1
599 806 1
312 807 1
346 807 1
598 807 1
600 807 1
313 808 1
347 808 1
596 808 1
599 808 1
314 809 1
348 809 1
597 809 1
600 809 1
315 810 1
349 810 1
596 810 1
598 810 1
316 811 1
330 811 1
577 811 1
579 811 1
317 812 1
326 812 1
578 812 1
580 812 1
318 813 1
327 813 1
576 813 1
579 813 1
319 814 1
328 814 1
577 814 1
580 814 1
320 815 1
329 815 1
576 815 1
578 815 1
321 816 1
335 816 1
582 816 1
584 816 1
322 817 1
331 817 1
583 817 1
585 817 1
323 818 1
332 818 1
581 818 1
584 818 1
324 819 1
333 819 1
582 819 1
585 819 1
325 820 1
334 820 1
581 820 1
583 820 1
301 821 1
340 821 1
587 821 1
589 821 1
302 822 1
336 822 1
588 822 1
590 822 1
303 823 1
337 823 1
586 823 1
589 823 1
304 824 1
338 824 1
587 824 1
590 824 1
305 825 1
339 825 1
586 825 1
588 825 1
406 826 1
445 826 1
467 826 1
469 826 1
407 827 1
441 827 1
468 827 1
470 827 1
408 828 1
442 828 1
466 828 1
469 828 1
409 829 1
443 829 1
467 829 1
470 829 1
410 830 1
444 830 1
466 830 1
468 830 1
411 831 1
450 831 1
472 831 1
474 831 1
412 832 1
446 832 1
473 832 1
475 832 1
413 833 1
447 833 1
471 833 1
474 833 1
414 834 1
448 834 1
472 834 1
475 834 1
415 835 1
449 835 1
471 835 1
473 835 1
416 836 1
430 836 1
452 836 1
454 836 1
417 837 1
426 837 1
453 837 1
455 837 1
418 838 1
427 838 1
451 838 1
454 838 1
419 839 1
428 839 1
452 839 1
455 839 1
420 840 1
429 840 1
451 840 1
453 840 1
421 841 1
435 841 1
457 841 1
459 841 1
422 842 1
431 842 1
458 842 1
460 842 1
423 843 1
432 843 1
456 843 1
459 843 1
424 844 1
433 844 1
457 844 1
460 844 1
425 845 1
434 845 1
456 845 1
458 845 1
401 846 1
440 846 1
462 846 1
464 846 1
402 847 1
436 847 1
463 847 1
465 847 1
403 848 1
437 848 1
461 848 1
464 848 1
404 849 1
438 849 1
462 849 1
465 849 1
405 850 1
439 850 1
461 850 1
463 850 1
395 851 1
431 851 1
492 851 1
494 851 1
391 852 1
432 852 1
493 852 1
495 852 1
392 853 1
433 853 1
491 853 1
494 853 1
393 854 1
434 854 1
492 854 1
495 854 1
394 855 1
435 855 1
491 855 1
493 855 1
400 856 1
436 856 1
497 856 1
499 856 1
396 857 1
437 857 1
498 857 1
500 857 1
397 858 1
438 858 1
496 858 1
499 858 1
398 859 1
439 859 1
497 859 1
500 859 1
399 860 1
440 860 1
496 860 1
498 860 1
380 861 1
441 861 1
477 861 1
479 861 1
376 862 1
442 862 1
478 862 1
480 862 1
377 863 1
443 863 1
476 863 1
479 863 1
378 864 1
444 864 1
477 864 1
480 864 1
379 865 1
445 865 1
476 865 1
478 865 1
385 866 1
446 866 1
482 866 1
484 866 1
381 867 1
447 867 1
483 867 1
485 867 1
382 868 1
448 868 1
481 868 1
484 868 1
383 869 1
449 869 1
482 869 1
485 869 1
384 870 1
450 870 1
481 870 1
483 870 1
390 871 1
426 871 1
487 871 1
489 871 1
386 872 1
427 872 1
488 872 1
490 872 1
387 873 1
428 873 1
486 873 1
489 873 1
388 874 1
429 874 1
487 874 1
490 874 1
389 875 1
430 875 1
486 875 1
488 875 1
381 876 1
420 876 1
517 876 1
519 876 1
382 877 1
416 877 1
518 877 1
520 877 1
383 878 1
417 878 1
516 878 1
519 878 1
384 879 1
418 879 1
517 879 1
520 879 1
385 880 1
419 880 1
516 880 1
518 880 1
386 881 1
425 881 1
522 881 1
524 881 1
387 882 1
421 882 1
523 882 1
525 882 1
388 883 1
422 883 1
521 883 1
524 883 1
389 884 1
423 884 1
522 884 1
525 884 1
390 885 1
424 885 1
521 885 1
523 885 1
391 886 1
405 886 1
502 886 1
504 886 1
392 887 1
401 887 1
503 887 1
505 887 1
393 888 1
402 888 1
501 888 1
504 888 1
394 889 1
403 889 1
502 889 1
505 889 1
395 890 1
404 890 1
501 890 1
503 890 1
396 891 1
410 891 1
507 891 1
509 891 1
397 892 1
406 892 1
508 892 1
510 892 1
398 893 1
407 893 1
506 893 1
509 893 1
399 894 1
408 894 1
507 894 1
510 894 1
400 895 1
409 895 1
506 895 1
508 895 1
376 896 1
415 896 1
512 896 1
514 896 1
377 897 1
411 897 1
513 897 1
515 897 1
378 898 1
412 898 1
511 898 1
514 898 1
379 899 1
413 899 1
512 899 1
515 899 1
380 900 1
414 900 1
511 900 1
513 900 1
