%%MatrixMarket matrix coordinate integer general
% Binary matrix; one-based indices; arithmetic over GF(2)
320 480 3840
7 1 1
18 1 1
33 1 1
41 1 1
85 1 1
102 1 1
107 1 1
123 1 1
8 2 1
19 2 1
34 2 1
42 2 1
86 2 1
103 2 1
108 2 1
124 2 1
9 3 1
20 3 1
35 3 1
43 3 1
87 3 1
104 3 1
109 3 1
125 3 1
10 4 1
11 4 1
36 4 1
44 4 1
88 4 1
105 4 1
110 4 1
126 4 1
1 5 1
12 5 1
37 5 1
45 5 1
89 5 1
101 5 1
106 5 1
127 5 1
2 6 1
13 6 1
38 6 1
46 6 1
90 6 1
102 6 1
107 6 1
128 6 1
3 7 1
14 7 1
39 7 1
47 7 1
81 7 1
103 7 1
108 7 1
129 7 1
4 8 1
15 8 1
40 8 1
48 8 1
82 8 1
104 8 1
109 8 1
130 8 1
5 9 1
16 9 1
31 9 1
49 9 1
83 9 1
105 9 1
110 9 1
121 9 1
6 10 1
17 10 1
32 10 1
50 10 1
84 10 1
101 10 1
106 10 1
122 10 1
8 11 1
17 11 1
23 11 1
51 11 1
95 11 1
112 11 1
117 11 1
133 11 1
9 12 1
18 12 1
24 12 1
52 12 1
96 12 1
113 12 1
118 12 1
134 12 1
10 13 1
19 13 1
25 13 1
53 13 1
97 13 1
114 13 1
119 13 1
135 13 1
1 14 1
20 14 1
26 14 1
54 14 1
98 14 1
115 14 1
120 14 1
136 14 1
2 15 1
11 15 1
27 15 1
55 15 1
99 15 1
111 15 1
116 15 1
137 15 1
3 16 1
12 16 1
28 16 1
56 16 1
100 16 1
112 16 1
117 16 1
138 16 1
4 17 1
13 17 1
29 17 1
57 17 1
91 17 1
113 17 1
118 17 1
139 17 1
5 18 1
14 18 1
30 18 1
58 18 1
92 18 1
114 18 1
119 18 1
140 18 1
6 19 1
15 19 1
21 19 1
59 19 1
93 19 1
115 19 1
120 19 1
131 19 1
7 20 1
16 20 1
22 20 1
60 20 1
94 20 1
111 20 1
116 20 1
132 20 1
13 21 1
27 21 1
38 21 1
61 21 1
82 21 1
87 21 1
105 21 1
143 21 1
14 22 1
28 22 1
39 22 1
62 22 1
83 22 1
88 22 1
106 22 1
144 22 1
15 23 1
29 23 1
40 23 1
63 23 1
84 23 1
89 23 1
107 23 1
145 23 1
16 24 1
30 24 1
31 24 1
64 24 1
85 24 1
90 24 1
108 24 1
146 24 1
17 25 1
21 25 1
32 25 1
65 25 1
81 25 1
86 25 1
109 25 1
147 25 1
18 26 1
22 26 1
33 26 1
66 26 1
82 26 1
87 26 1
110 26 1
148 26 1
19 27 1
23 27 1
34 27 1
67 27 1
83 27 1
88 27 1
101 27 1
149 27 1
20 28 1
24 28 1
35 28 1
68 28 1
84 28 1
89 28 1
102 28 1
150 28 1
11 29 1
25 29 1
36 29 1
69 29 1
85 29 1
90 29 1
103 29 1
141 29 1
12 30 1
26 30 1
37 30 1
70 30 1
81 30 1
86 30 1
104 30 1
142 30 1
3 31 1
28 31 1
37 31 1
71 31 1
92 31 1
97 31 1
115 31 1
153 31 1
4 32 1
29 32 1
38 32 1
72 32 1
93 32 1
98 32 1
116 32 1
154 32 1
5 33 1
30 33 1
39 33 1
73 33 1
94 33 1
99 33 1
117 33 1
155 33 1
6 34 1
21 34 1
40 34 1
74 34 1
95 34 1
100 34 1
118 34 1
156 34 1
7 35 1
22 35 1
31 35 1
75 35 1
91 35 1
96 35 1
119 35 1
157 35 1
8 36 1
23 36 1
32 36 1
76 36 1
92 36 1
97 36 1
120 36 1
158 36 1
9 37 1
24 37 1
33 37 1
77 37 1
93 37 1
98 37 1
111 37 1
159 37 1
10 38 1
25 38 1
34 38 1
78 38 1
94 38 1
99 38 1
112 38 1
160 38 1
1 39 1
26 39 1
35 39 1
79 39 1
95 39 1
100 39 1
113 39 1
151 39 1
2 40 1
27 40 1
36 40 1
80 40 1
91 40 1
96 40 1
114 40 1
152 40 1
1 41 1
47 41 1
58 41 1
73 41 1
83 41 1
125 41 1
142 41 1
147 41 1
2 42 1
48 42 1
59 42 1
74 42 1
84 42 1
126 42 1
143 42 1
148 42 1
3 43 1
49 43 1
60 43 1
75 43 1
85 43 1
127 43 1
144 43 1
149 43 1
4 44 1
50 44 1
51 44 1
76 44 1
86 44 1
128 44 1
145 44 1
150 44 1
5 45 1
41 45 1
52 45 1
77 45 1
87 45 1
129 45 1
141 45 1
146 45 1
6 46 1
42 46 1
53 46 1
78 46 1
88 46 1
130 46 1
142 46 1
147 46 1
7 47 1
43 47 1
54 47 1
79 47 1
89 47 1
121 47 1
143 47 1
148 47 1
8 48 1
44 48 1
55 48 1
80 48 1
90 48 1
122 48 1
144 48 1
149 48 1
9 49 1
45 49 1
56 49 1
71 49 1
81 49 1
123 49 1
145 49 1
150 49 1
10 50 1
46 50 1
57 50 1
72 50 1
82 50 1
124 50 1
141 50 1
146 50 1
11 51 1
48 51 1
57 51 1
63 51 1
93 51 1
135 51 1
152 51 1
157 51 1
12 52 1
49 52 1
58 52 1
64 52 1
94 52 1
136 52 1
153 52 1
158 52 1
13 53 1
50 53 1
59 53 1
65 53 1
95 53 1
137 53 1
154 53 1
159 53 1
14 54 1
41 54 1
60 54 1
66 54 1
96 54 1
138 54 1
155 54 1
160 54 1
15 55 1
42 55 1
51 55 1
67 55 1
97 55 1
139 55 1
151 55 1
156 55 1
16 56 1
43 56 1
52 56 1
68 56 1
98 56 1
140 56 1
152 56 1
157 56 1
17 57 1
44 57 1
53 57 1
69 57 1
99 57 1
131 57 1
153 57 1
158 57 1
18 58 1
45 58 1
54 58 1
70 58 1
100 58 1
132 58 1
154 58 1
159 58 1
19 59 1
46 59 1
55 59 1
61 59 1
91 59 1
133 59 1
155 59 1
160 59 1
20 60 1
47 60 1
56 60 1
62 60 1
92 60 1
134 60 1
151 60 1
156 60 1
21 61 1
53 61 1
67 61 1
78 61 1
103 61 1
122 61 1
127 61 1
145 61 1
22 62 1
54 62 1
68 62 1
79 62 1
104 62 1
123 62 1
128 62 1
146 62 1
23 63 1
55 63 1
69 63 1
80 63 1
105 63 1
124 63 1
129 63 1
147 63 1
24 64 1
56 64 1
70 64 1
71 64 1
106 64 1
125 64 1
130 64 1
148 64 1
25 65 1
57 65 1
61 65 1
72 65 1
107 65 1
121 65 1
126 65 1
149 65 1
26 66 1
58 66 1
62 66 1
73 66 1
108 66 1
122 66 1
127 66 1
150 66 1
27 67 1
59 67 1
63 67 1
74 67 1
109 67 1
123 67 1
128 67 1
141 67 1
28 68 1
60 68 1
64 68 1
75 68 1
110 68 1
124 68 1
129 68 1
142 68 1
29 69 1
51 69 1
65 69 1
76 69 1
101 69 1
125 69 1
130 69 1
143 69 1
30 70 1
52 70 1
66 70 1
77 70 1
102 70 1
121 70 1
126 70 1
144 70 1
31 71 1
43 71 1
68 71 1
77 71 1
113 71 1
132 71 1
137 71 1
155 71 1
32 72 1
44 72 1
69 72 1
78 72 1
114 72 1
133 72 1
138 72 1
156 72 1
33 73 1
45 73 1
70 73 1
79 73 1
115 73 1
134 73 1
139 73 1
157 73 1
34 74 1
46 74 1
61 74 1
80 74 1
116 74 1
135 74 1
140 74 1
158 74 1
35 75 1
47 75 1
62 75 1
71 75 1
117 75 1
131 75 1
136 75 1
159 75 1
36 76 1
48 76 1
63 76 1
72 76 1
118 76 1
132 76 1
137 76 1
160 76 1
37 77 1
49 77 1
64 77 1
73 77 1
119 77 1
133 77 1
138 77 1
151 77 1
38 78 1
50 78 1
65 78 1
74 78 1
120 78 1
134 78 1
139 78 1
152 78 1
39 79 1
41 79 1
66 79 1
75 79 1
111 79 1
135 79 1
140 79 1
153 79 1
40 80 1
42 80 1
67 80 1
76 80 1
112 80 1
131 80 1
136 80 1
154 80 1
1 81 1
18 81 1
19 81 1
31 81 1
165 81 1
182 81 1
187 81 1
203 81 1
2 82 1
19 82 1
20 82 1
32 82 1
166 82 1
183 82 1
188 82 1
204 82 1
3 83 1
11 83 1
20 83 1
33 83 1
167 83 1
184 83 1
189 83 1
205 83 1
4 84 1
11 84 1
12 84 1
34 84 1
168 84 1
185 84 1
190 84 1
206 84 1
5 85 1
12 85 1
13 85 1
35 85 1
169 85 1
181 85 1
186 85 1
207 85 1
6 86 1
13 86 1
14 86 1
36 86 1
170 86 1
182 86 1
187 86 1
208 86 1
7 87 1
14 87 1
15 87 1
37 87 1
161 87 1
183 87 1
188 87 1
209 87 1
8 88 1
15 88 1
16 88 1
38 88 1
162 88 1
184 88 1
189 88 1
210 88 1
9 89 1
16 89 1
17 89 1
39 89 1
163 89 1
185 89 1
190 89 1
201 89 1
10 90 1
17 90 1
18 90 1
40 90 1
164 90 1
181 90 1
186 90 1
202 90 1
8 91 1
9 91 1
11 91 1
21 91 1
175 91 1
192 91 1
197 91 1
213 91 1
9 92 1
10 92 1
12 92 1
22 92 1
176 92 1
193 92 1
198 92 1
214 92 1
1 93 1
10 93 1
13 93 1
23 93 1
177 93 1
194 93 1
199 93 1
215 93 1
1 94 1
2 94 1
14 94 1
24 94 1
178 94 1
195 94 1
200 94 1
216 94 1
2 95 1
3 95 1
15 95 1
25 95 1
179 95 1
191 95 1
196 95 1
217 95 1
3 96 1
4 96 1
16 96 1
26 96 1
180 96 1
192 96 1
197 96 1
218 96 1
4 97 1
5 97 1
17 97 1
27 97 1
171 97 1
193 97 1
198 97 1
219 97 1
5 98 1
6 98 1
18 98 1
28 98 1
172 98 1
194 98 1
199 98 1
220 98 1
6 99 1
7 99 1
19 99 1
29 99 1
173 99 1
195 99 1
200 99 1
211 99 1
7 100 1
8 100 1
20 100 1
30 100 1
174 100 1
191 100 1
196 100 1
212 100 1
11 101 1
21 101 1
38 101 1
39 101 1
162 101 1
167 101 1
185 101 1
223 101 1
12 102 1
22 102 1
39 102 1
40 102 1
163 102 1
168 102 1
186 102 1
224 102 1
13 103 1
23 103 1
31 103 1
40 103 1
164 103 1
169 103 1
187 103 1
225 103 1
14 104 1
24 104 1
31 104 1
32 104 1
165 104 1
170 104 1
188 104 1
226 104 1
15 105 1
25 105 1
32 105 1
33 105 1
161 105 1
166 105 1
189 105 1
227 105 1
16 106 1
26 106 1
33 106 1
34 106 1
162 106 1
167 106 1
190 106 1
228 106 1
17 107 1
27 107 1
34 107 1
35 107 1
163 107 1
168 107 1
181 107 1
229 107 1
18 108 1
28 108 1
35 108 1
36 108 1
164 108 1
169 108 1
182 108 1
230 108 1
19 109 1
29 109 1
36 109 1
37 109 1
165 109 1
170 109 1
183 109 1
221 109 1
20 110 1
30 110 1
37 110 1
38 110 1
161 110 1
166 110 1
184 110 1
222 110 1
1 111 1
28 111 1
29 111 1
31 111 1
172 111 1
177 111 1
195 111 1
233 111 1
2 112 1
29 112 1
30 112 1
32 112 1
173 112 1
178 112 1
196 112 1
234 112 1
3 113 1
21 113 1
30 113 1
33 113 1
174 113 1
179 113 1
197 113 1
235 113 1
4 114 1
21 114 1
22 114 1
34 114 1
175 114 1
180 114 1
198 114 1
236 114 1
5 115 1
22 115 1
23 115 1
35 115 1
171 115 1
176 115 1
199 115 1
237 115 1
6 116 1
23 116 1
24 116 1
36 116 1
172 116 1
177 116 1
200 116 1
238 116 1
7 117 1
24 117 1
25 117 1
37 117 1
173 117 1
178 117 1
191 117 1
239 117 1
8 118 1
25 118 1
26 118 1
38 118 1
174 118 1
179 118 1
192 118 1
240 118 1
9 119 1
26 119 1
27 119 1
39 119 1
175 119 1
180 119 1
193 119 1
231 119 1
10 120 1
27 120 1
28 120 1
40 120 1
171 120 1
176 120 1
194 120 1
232 120 1
41 121 1
58 121 1
59 121 1
71 121 1
163 121 1
205 121 1
222 121 1
227 121 1
42 122 1
59 122 1
60 122 1
72 122 1
164 122 1
206 122 1
223 122 1
228 122 1
43 123 1
51 123 1
60 123 1
73 123 1
165 123 1
207 123 1
224 123 1
229 123 1
44 124 1
51 124 1
52 124 1
74 124 1
166 124 1
208 124 1
225 124 1
230 124 1
45 125 1
52 125 1
53 125 1
75 125 1
167 125 1
209 125 1
221 125 1
226 125 1
46 126 1
53 126 1
54 126 1
76 126 1
168 126 1
210 126 1
222 126 1
227 126 1
47 127 1
54 127 1
55 127 1
77 127 1
169 127 1
201 127 1
223 127 1
228 127 1
48 128 1
55 128 1
56 128 1
78 128 1
170 128 1
202 128 1
224 128 1
229 128 1
49 129 1
56 129 1
57 129 1
79 129 1
161 129 1
203 129 1
225 129 1
230 129 1
50 130 1
57 130 1
58 130 1
80 130 1
162 130 1
204 130 1
221 130 1
226 130 1
48 131 1
49 131 1
51 131 1
61 131 1
173 131 1
215 131 1
232 131 1
237 131 1
49 132 1
50 132 1
52 132 1
62 132 1
174 132 1
216 132 1
233 132 1
238 132 1
41 133 1
50 133 1
53 133 1
63 133 1
175 133 1
217 133 1
234 133 1
239 133 1
41 134 1
42 134 1
54 134 1
64 134 1
176 134 1
218 134 1
235 134 1
240 134 1
42 135 1
43 135 1
55 135 1
65 135 1
177 135 1
219 135 1
231 135 1
236 135 1
43 136 1
44 136 1
56 136 1
66 136 1
178 136 1
220 136 1
232 136 1
237 136 1
44 137 1
45 137 1
57 137 1
67 137 1
179 137 1
211 137 1
233 137 1
238 137 1
45 138 1
46 138 1
58 138 1
68 138 1
180 138 1
212 138 1
234 138 1
239 138 1
46 139 1
47 139 1
59 139 1
69 139 1
171 139 1
213 139 1
235 139 1
240 139 1
47 140 1
48 140 1
60 140 1
70 140 1
172 140 1
214 140 1
231 140 1
236 140 1
51 141 1
61 141 1
78 141 1
79 141 1
183 141 1
202 141 1
207 141 1
225 141 1
52 142 1
62 142 1
79 142 1
80 142 1
184 142 1
203 142 1
208 142 1
226 142 1
53 143 1
63 143 1
71 143 1
80 143 1
185 143 1
204 143 1
209 143 1
227 143 1
54 144 1
64 144 1
71 144 1
72 144 1
186 144 1
205 144 1
210 144 1
228 144 1
55 145 1
65 145 1
72 145 1
73 145 1
187 145 1
201 145 1
206 145 1
229 145 1
56 146 1
66 146 1
73 146 1
74 146 1
188 146 1
202 146 1
207 146 1
230 146 1
57 147 1
67 147 1
74 147 1
75 147 1
189 147 1
203 147 1
208 147 1
221 147 1
58 148 1
68 148 1
75 148 1
76 148 1
190 148 1
204 148 1
209 148 1
222 148 1
59 149 1
69 149 1
76 149 1
77 149 1
181 149 1
205 149 1
210 149 1
223 149 1
60 150 1
70 150 1
77 150 1
78 150 1
182 150 1
201 150 1
206 150 1
224 150 1
41 151 1
68 151 1
69 151 1
71 151 1
193 151 1
212 151 1
217 151 1
235 151 1
42 152 1
69 152 1
70 152 1
72 152 1
194 152 1
213 152 1
218 152 1
236 152 1
43 153 1
61 153 1
70 153 1
73 153 1
195 153 1
214 153 1
219 153 1
237 153 1
44 154 1
61 154 1
62 154 1
74 154 1
196 154 1
215 154 1
220 154 1
238 154 1
45 155 1
62 155 1
63 155 1
75 155 1
197 155 1
211 155 1
216 155 1
239 155 1
46 156 1
63 156 1
64 156 1
76 156 1
198 156 1
212 156 1
217 156 1
240 156 1
47 157 1
64 157 1
65 157 1
77 157 1
199 157 1
213 157 1
218 157 1
231 157 1
48 158 1
65 158 1
66 158 1
78 158 1
200 158 1
214 158 1
219 158 1
232 158 1
49 159 1
66 159 1
67 159 1
79 159 1
191 159 1
215 159 1
220 159 1
233 159 1
50 160 1
67 160 1
68 160 1
80 160 1
192 160 1
211 160 1
216 160 1
234 160 1
81 161 1
98 161 1
99 161 1
111 161 1
167 161 1
178 161 1
193 161 1
201 161 1
82 162 1
99 162 1
100 162 1
112 162 1
168 162 1
179 162 1
194 162 1
202 162 1
83 163 1
91 163 1
100 163 1
113 163 1
169 163 1
180 163 1
195 163 1
203 163 1
84 164 1
91 164 1
92 164 1
114 164 1
170 164 1
171 164 1
196 164 1
204 164 1
85 165 1
92 165 1
93 165 1
115 165 1
161 165 1
172 165 1
197 165 1
205 165 1
86 166 1
93 166 1
94 166 1
116 166 1
162 166 1
173 166 1
198 166 1
206 166 1
87 167 1
94 167 1
95 167 1
117 167 1
163 167 1
174 167 1
199 167 1
207 167 1
88 168 1
95 168 1
96 168 1
118 168 1
164 168 1
175 168 1
200 168 1
208 168 1
89 169 1
96 169 1
97 169 1
119 169 1
165 169 1
176 169 1
191 169 1
209 169 1
90 170 1
97 170 1
98 170 1
120 170 1
166 170 1
177 170 1
192 170 1
210 170 1
88 171 1
89 171 1
91 171 1
101 171 1
168 171 1
177 171 1
183 171 1
211 171 1
89 172 1
90 172 1
92 172 1
102 172 1
169 172 1
178 172 1
184 172 1
212 172 1
81 173 1
90 173 1
93 173 1
103 173 1
170 173 1
179 173 1
185 173 1
213 173 1
81 174 1
82 174 1
94 174 1
104 174 1
161 174 1
180 174 1
186 174 1
214 174 1
82 175 1
83 175 1
95 175 1
105 175 1
162 175 1
171 175 1
187 175 1
215 175 1
83 176 1
84 176 1
96 176 1
106 176 1
163 176 1
172 176 1
188 176 1
216 176 1
84 177 1
85 177 1
97 177 1
107 177 1
164 177 1
173 177 1
189 177 1
217 177 1
85 178 1
86 178 1
98 178 1
108 178 1
165 178 1
174 178 1
190 178 1
218 178 1
86 179 1
87 179 1
99 179 1
109 179 1
166 179 1
175 179 1
181 179 1
219 179 1
87 180 1
88 180 1
100 180 1
110 180 1
167 180 1
176 180 1
182 180 1
220 180 1
91 181 1
101 181 1
118 181 1
119 181 1
173 181 1
187 181 1
198 181 1
221 181 1
92 182 1
102 182 1
119 182 1
120 182 1
174 182 1
188 182 1
199 182 1
222 182 1
93 183 1
103 183 1
111 183 1
120 183 1
175 183 1
189 183 1
200 183 1
223 183 1
94 184 1
104 184 1
111 184 1
112 184 1
176 184 1
190 184 1
191 184 1
224 184 1
95 185 1
105 185 1
112 185 1
113 185 1
177 185 1
181 185 1
192 185 1
225 185 1
96 186 1
106 186 1
113 186 1
114 186 1
178 186 1
182 186 1
193 186 1
226 186 1
97 187 1
107 187 1
114 187 1
115 187 1
179 187 1
183 187 1
194 187 1
227 187 1
98 188 1
108 188 1
115 188 1
116 188 1
180 188 1
184 188 1
195 188 1
228 188 1
99 189 1
109 189 1
116 189 1
117 189 1
171 189 1
185 189 1
196 189 1
229 189 1
100 190 1
110 190 1
117 190 1
118 190 1
172 190 1
186 190 1
197 190 1
230 190 1
81 191 1
108 191 1
109 191 1
111 191 1
163 191 1
188 191 1
197 191 1
231 191 1
82 192 1
109 192 1
110 192 1
112 192 1
164 192 1
189 192 1
198 192 1
232 192 1
83 193 1
101 193 1
110 193 1
113 193 1
165 193 1
190 193 1
199 193 1
233 193 1
84 194 1
101 194 1
102 194 1
114 194 1
166 194 1
181 194 1
200 194 1
234 194 1
85 195 1
102 195 1
103 195 1
115 195 1
167 195 1
182 195 1
191 195 1
235 195 1
86 196 1
103 196 1
104 196 1
116 196 1
168 196 1
183 196 1
192 196 1
236 196 1
87 197 1
104 197 1
105 197 1
117 197 1
169 197 1
184 197 1
193 197 1
237 197 1
88 198 1
105 198 1
106 198 1
118 198 1
170 198 1
185 198 1
194 198 1
238 198 1
89 199 1
106 199 1
107 199 1
119 199 1
161 199 1
186 199 1
195 199 1
239 199 1
90 200 1
107 200 1
108 200 1
120 200 1
162 200 1
187 200 1
196 200 1
240 200 1
121 201 1
138 201 1
139 201 1
151 201 1
161 201 1
207 201 1
218 201 1
233 201 1
122 202 1
139 202 1
140 202 1
152 202 1
162 202 1
208 202 1
219 202 1
234 202 1
123 203 1
131 203 1
140 203 1
153 203 1
163 203 1
209 203 1
220 203 1
235 203 1
124 204 1
131 204 1
132 204 1
154 204 1
164 204 1
210 204 1
211 204 1
236 204 1
125 205 1
132 205 1
133 205 1
155 205 1
165 205 1
201 205 1
212 205 1
237 205 1
126 206 1
133 206 1
134 206 1
156 206 1
166 206 1
202 206 1
213 206 1
238 206 1
127 207 1
134 207 1
135 207 1
157 207 1
167 207 1
203 207 1
214 207 1
239 207 1
128 208 1
135 208 1
136 208 1
158 208 1
168 208 1
204 208 1
215 208 1
240 208 1
129 209 1
136 209 1
137 209 1
159 209 1
169 209 1
205 209 1
216 209 1
231 209 1
130 210 1
137 210 1
138 210 1
160 210 1
170 210 1
206 210 1
217 210 1
232 210 1
128 211 1
129 211 1
131 211 1
141 211 1
171 211 1
208 211 1
217 211 1
223 211 1
129 212 1
130 212 1
132 212 1
142 212 1
172 212 1
209 212 1
218 212 1
224 212 1
121 213 1
130 213 1
133 213 1
143 213 1
173 213 1
210 213 1
219 213 1
225 213 1
121 214 1
122 214 1
134 214 1
144 214 1
174 214 1
201 214 1
220 214 1
226 214 1
122 215 1
123 215 1
135 215 1
145 215 1
175 215 1
202 215 1
211 215 1
227 215 1
123 216 1
124 216 1
136 216 1
146 216 1
176 216 1
203 216 1
212 216 1
228 216 1
124 217 1
125 217 1
137 217 1
147 217 1
177 217 1
204 217 1
213 217 1
229 217 1
125 218 1
126 218 1
138 218 1
148 218 1
178 218 1
205 218 1
214 218 1
230 218 1
126 219 1
127 219 1
139 219 1
149 219 1
179 219 1
206 219 1
215 219 1
221 219 1
127 220 1
128 220 1
140 220 1
150 220 1
180 220 1
207 220 1
216 220 1
222 220 1
131 221 1
141 221 1
158 221 1
159 221 1
181 221 1
213 221 1
227 221 1
238 221 1
132 222 1
142 222 1
159 222 1
160 222 1
182 222 1
214 222 1
228 222 1
239 222 1
133 223 1
143 223 1
151 223 1
160 223 1
183 223 1
215 223 1
229 223 1
240 223 1
134 224 1
144 224 1
151 224 1
152 224 1
184 224 1
216 224 1
230 224 1
231 224 1
135 225 1
145 225 1
152 225 1
153 225 1
185 225 1
217 225 1
221 225 1
232 225 1
136 226 1
146 226 1
153 226 1
154 226 1
186 226 1
218 226 1
222 226 1
233 226 1
137 227 1
147 227 1
154 227 1
155 227 1
187 227 1
219 227 1
223 227 1
234 227 1
138 228 1
148 228 1
155 228 1
156 228 1
188 228 1
220 228 1
224 228 1
235 228 1
139 229 1
149 229 1
156 229 1
157 229 1
189 229 1
211 229 1
225 229 1
236 229 1
140 230 1
150 230 1
157 230 1
158 230 1
190 230 1
212 230 1
226 230 1
237 230 1
121 231 1
148 231 1
149 231 1
151 231 1
191 231 1
203 231 1
228 231 1
237 231 1
122 232 1
149 232 1
150 232 1
152 232 1
192 232 1
204 232 1
229 232 1
238 232 1
123 233 1
141 233 1
150 233 1
153 233 1
193 233 1
205 233 1
230 233 1
239 233 1
124 234 1
141 234 1
142 234 1
154 234 1
194 234 1
206 234 1
221 234 1
240 234 1
125 235 1
142 235 1
143 235 1
155 235 1
195 235 1
207 235 1
222 235 1
231 235 1
126 236 1
143 236 1
144 236 1
156 236 1
196 236 1
208 236 1
223 236 1
232 236 1
127 237 1
144 237 1
145 237 1
157 237 1
197 237 1
209 237 1
224 237 1
233 237 1
128 238 1
145 238 1
146 238 1
158 238 1
198 238 1
210 238 1
225 238 1
234 238 1
129 239 1
146 239 1
147 239 1
159 239 1
199 239 1
201 239 1
226 239 1
235 239 1
130 240 1
147 240 1
148 240 1
160 240 1
200 240 1
202 240 1
227 240 1
236 240 1
1 241 1
23 241 1
44 241 1
66 241 1
245 241 1
262 241 1
267 241 1
283 241 1
2 242 1
24 242 1
45 242 1
67 242 1
246 242 1
263 242 1
268 242 1
284 242 1
3 243 1
25 243 1
46 243 1
68 243 1
247 243 1
264 243 1
269 243 1
285 243 1
4 244 1
26 244 1
47 244 1
69 244 1
248 244 1
265 244 1
270 244 1
286 244 1
5 245 1
27 245 1
48 245 1
70 245 1
249 245 1
261 245 1
266 245 1
287 245 1
6 246 1
28 246 1
49 246 1
61 246 1
250 246 1
262 246 1
267 246 1
288 246 1
7 247 1
29 247 1
50 247 1
62 247 1
241 247 1
263 247 1
268 247 1
289 247 1
8 248 1
30 248 1
41 248 1
63 248 1
242 248 1
264 248 1
269 248 1
290 248 1
9 249 1
21 249 1
42 249 1
64 249 1
243 249 1
265 249 1
270 249 1
281 249 1
10 250 1
22 250 1
43 250 1
65 250 1
244 250 1
261 250 1
266 250 1
282 250 1
11 251 1
33 251 1
54 251 1
76 251 1
255 251 1
272 251 1
277 251 1
293 251 1
12 252 1
34 252 1
55 252 1
77 252 1
256 252 1
273 252 1
278 252 1
294 252 1
13 253 1
35 253 1
56 253 1
78 253 1
257 253 1
274 253 1
279 253 1
295 253 1
14 254 1
36 254 1
57 254 1
79 254 1
258 254 1
275 254 1
280 254 1
296 254 1
15 255 1
37 255 1
58 255 1
80 255 1
259 255 1
271 255 1
276 255 1
297 255 1
16 256 1
38 256 1
59 256 1
71 256 1
260 256 1
272 256 1
277 256 1
298 256 1
17 257 1
39 257 1
60 257 1
72 257 1
251 257 1
273 257 1
278 257 1
299 257 1
18 258 1
40 258 1
51 258 1
73 258 1
252 258 1
274 258 1
279 258 1
300 258 1
19 259 1
31 259 1
52 259 1
74 259 1
253 259 1
275 259 1
280 259 1
291 259 1
20 260 1
32 260 1
53 260 1
75 260 1
254 260 1
271 260 1
276 260 1
292 260 1
3 261 1
21 261 1
46 261 1
64 261 1
242 261 1
247 261 1
265 261 1
303 261 1
4 262 1
22 262 1
47 262 1
65 262 1
243 262 1
248 262 1
266 262 1
304 262 1
5 263 1
23 263 1
48 263 1
66 263 1
244 263 1
249 263 1
267 263 1
305 263 1
6 264 1
24 264 1
49 264 1
67 264 1
245 264 1
250 264 1
268 264 1
306 264 1
7 265 1
25 265 1
50 265 1
68 265 1
241 265 1
246 265 1
269 265 1
307 265 1
8 266 1
26 266 1
41 266 1
69 266 1
242 266 1
247 266 1
270 266 1
308 266 1
9 267 1
27 267 1
42 267 1
70 267 1
243 267 1
248 267 1
261 267 1
309 267 1
10 268 1
28 268 1
43 268 1
61 268 1
244 268 1
249 268 1
262 268 1
310 268 1
1 269 1
29 269 1
44 269 1
62 269 1
245 269 1
250 269 1
263 269 1
301 269 1
2 270 1
30 270 1
45 270 1
63 270 1
241 270 1
246 270 1
264 270 1
302 270 1
13 271 1
31 271 1
56 271 1
74 271 1
252 271 1
257 271 1
275 271 1
313 271 1
14 272 1
32 272 1
57 272 1
75 272 1
253 272 1
258 272 1
276 272 1
314 272 1
15 273 1
33 273 1
58 273 1
76 273 1
254 273 1
259 273 1
277 273 1
315 273 1
16 274 1
34 274 1
59 274 1
77 274 1
255 274 1
260 274 1
278 274 1
316 274 1
17 275 1
35 275 1
60 275 1
78 275 1
251 275 1
256 275 1
279 275 1
317 275 1
18 276 1
36 276 1
51 276 1
79 276 1
252 276 1
257 276 1
280 276 1
318 276 1
19 277 1
37 277 1
52 277 1
80 277 1
253 277 1
258 277 1
271 277 1
319 277 1
20 278 1
38 278 1
53 278 1
71 278 1
254 278 1
259 278 1
272 278 1
320 278 1
11 279 1
39 279 1
54 279 1
72 279 1
255 279 1
260 279 1
273 279 1
311 279 1
12 280 1
40 280 1
55 280 1
73 280 1
251 280 1
256 280 1
274 280 1
312 280 1
4 281 1
26 281 1
41 281 1
63 281 1
243 281 1
285 281 1
302 281 1
307 281 1
5 282 1
27 282 1
42 282 1
64 282 1
244 282 1
286 282 1
303 282 1
308 282 1
6 283 1
28 283 1
43 283 1
65 283 1
245 283 1
287 283 1
304 283 1
309 283 1
7 284 1
29 284 1
44 284 1
66 284 1
246 284 1
288 284 1
305 284 1
310 284 1
8 285 1
30 285 1
45 285 1
67 285 1
247 285 1
289 285 1
301 285 1
306 285 1
9 286 1
21 286 1
46 286 1
68 286 1
248 286 1
290 286 1
302 286 1
307 286 1
10 287 1
22 287 1
47 287 1
69 287 1
249 287 1
281 287 1
303 287 1
308 287 1
1 288 1
23 288 1
48 288 1
70 288 1
250 288 1
282 288 1
304 288 1
309 288 1
2 289 1
24 289 1
49 289 1
61 289 1
241 289 1
283 289 1
305 289 1
310 289 1
3 290 1
25 290 1
50 290 1
62 290 1
242 290 1
284 290 1
301 290 1
306 290 1
14 291 1
36 291 1
51 291 1
73 291 1
253 291 1
295 291 1
312 291 1
317 291 1
15 292 1
37 292 1
52 292 1
74 292 1
254 292 1
296 292 1
313 292 1
318 292 1
16 293 1
38 293 1
53 293 1
75 293 1
255 293 1
297 293 1
314 293 1
319 293 1
17 294 1
39 294 1
54 294 1
76 294 1
256 294 1
298 294 1
315 294 1
320 294 1
18 295 1
40 295 1
55 295 1
77 295 1
257 295 1
299 295 1
311 295 1
316 295 1
19 296 1
31 296 1
56 296 1
78 296 1
258 296 1
300 296 1
312 296 1
317 296 1
20 297 1
32 297 1
57 297 1
79 297 1
259 297 1
291 297 1
313 297 1
318 297 1
11 298 1
33 298 1
58 298 1
80 298 1
260 298 1
292 298 1
314 298 1
319 298 1
12 299 1
34 299 1
59 299 1
71 299 1
251 299 1
293 299 1
315 299 1
320 299 1
13 300 1
35 300 1
60 300 1
72 300 1
252 300 1
294 300 1
311 300 1
316 300 1
6 301 1
24 301 1
43 301 1
61 301 1
263 301 1
282 301 1
287 301 1
305 301 1
7 302 1
25 302 1
44 302 1
62 302 1
264 302 1
283 302 1
288 302 1
306 302 1
8 303 1
26 303 1
45 303 1
63 303 1
265 303 1
284 303 1
289 303 1
307 303 1
9 304 1
27 304 1
46 304 1
64 304 1
266 304 1
285 304 1
290 304 1
308 304 1
10 305 1
28 305 1
47 305 1
65 305 1
267 305 1
281 305 1
286 305 1
309 305 1
1 306 1
29 306 1
48 306 1
66 306 1
268 306 1
282 306 1
287 306 1
310 306 1
2 307 1
30 307 1
49 307 1
67 307 1
269 307 1
283 307 1
288 307 1
301 307 1
3 308 1
21 308 1
50 308 1
68 308 1
270 308 1
284 308 1
289 308 1
302 308 1
4 309 1
22 309 1
41 309 1
69 309 1
261 309 1
285 309 1
290 309 1
303 309 1
5 310 1
23 310 1
42 310 1
70 310 1
262 310 1
281 310 1
286 310 1
304 310 1
16 311 1
34 311 1
53 311 1
71 311 1
273 311 1
292 311 1
297 311 1
315 311 1
17 312 1
35 312 1
54 312 1
72 312 1
274 312 1
293 312 1
298 312 1
316 312 1
18 313 1
36 313 1
55 313 1
73 313 1
275 313 1
294 313 1
299 313 1
317 313 1
19 314 1
37 314 1
56 314 1
74 314 1
276 314 1
295 314 1
300 314 1
318 314 1
20 315 1
38 315 1
57 315 1
75 315 1
277 315 1
291 315 1
296 315 1
319 315 1
11 316 1
39 316 1
58 316 1
76 316 1
278 316 1
292 316 1
297 316 1
320 316 1
12 317 1
40 317 1
59 317 1
77 317 1
279 317 1
293 317 1
298 317 1
311 317 1
13 318 1
31 318 1
60 318 1
78 318 1
280 318 1
294 318 1
299 318 1
312 318 1
14 319 1
32 319 1
51 319 1
79 319 1
271 319 1
295 319 1
300 319 1
313 319 1
15 320 1
33 320 1
52 320 1
80 320 1
272 320 1
291 320 1
296 320 1
314 320 1
81 321 1
103 321 1
124 321 1
146 321 1
247 321 1
258 321 1
273 321 1
281 321 1
82 322 1
104 322 1
125 322 1
147 322 1
248 322 1
259 322 1
274 322 1
282 322 1
83 323 1
105 323 1
126 323 1
148 323 1
249 323 1
260 323 1
275 323 1
283 323 1
84 324 1
106 324 1
127 324 1
149 324 1
250 324 1
251 324 1
276 324 1
284 324 1
85 325 1
107 325 1
128 325 1
150 325 1
241 325 1
252 325 1
277 325 1
285 325 1
86 326 1
108 326 1
129 326 1
141 326 1
242 326 1
253 326 1
278 326 1
286 326 1
87 327 1
109 327 1
130 327 1
142 327 1
243 327 1
254 327 1
279 327 1
287 327 1
88 328 1
110 328 1
121 328 1
143 328 1
244 328 1
255 328 1
280 328 1
288 328 1
89 329 1
101 329 1
122 329 1
144 329 1
245 329 1
256 329 1
271 329 1
289 329 1
90 330 1
102 330 1
123 330 1
145 330 1
246 330 1
257 330 1
272 330 1
290 330 1
91 331 1
113 331 1
134 331 1
156 331 1
248 331 1
257 331 1
263 331 1
291 331 1
92 332 1
114 332 1
135 332 1
157 332 1
249 332 1
258 332 1
264 332 1
292 332 1
93 333 1
115 333 1
136 333 1
158 333 1
250 333 1
259 333 1
265 333 1
293 333 1
94 334 1
116 334 1
137 334 1
159 334 1
241 334 1
260 334 1
266 334 1
294 334 1
95 335 1
117 335 1
138 335 1
160 335 1
242 335 1
251 335 1
267 335 1
295 335 1
96 336 1
118 336 1
139 336 1
151 336 1
243 336 1
252 336 1
268 336 1
296 336 1
97 337 1
119 337 1
140 337 1
152 337 1
244 337 1
253 337 1
269 337 1
297 337 1
98 338 1
120 338 1
131 338 1
153 338 1
245 338 1
254 338 1
270 338 1
298 338 1
99 339 1
111 339 1
132 339 1
154 339 1
246 339 1
255 339 1
261 339 1
299 339 1
100 340 1
112 340 1
133 340 1
155 340 1
247 340 1
256 340 1
262 340 1
300 340 1
83 341 1
101 341 1
126 341 1
144 341 1
253 341 1
267 341 1
278 341 1
301 341 1
84 342 1
102 342 1
127 342 1
145 342 1
254 342 1
268 342 1
279 342 1
302 342 1
85 343 1
103 343 1
128 343 1
146 343 1
255 343 1
269 343 1
280 343 1
303 343 1
86 344 1
104 344 1
129 344 1
147 344 1
256 344 1
270 344 1
271 344 1
304 344 1
87 345 1
105 345 1
130 345 1
148 345 1
257 345 1
261 345 1
272 345 1
305 345 1
88 346 1
106 346 1
121 346 1
149 346 1
258 346 1
262 346 1
273 346 1
306 346 1
89 347 1
107 347 1
122 347 1
150 347 1
259 347 1
263 347 1
274 347 1
307 347 1
90 348 1
108 348 1
123 348 1
141 348 1
260 348 1
264 348 1
275 348 1
308 348 1
81 349 1
109 349 1
124 349 1
142 349 1
251 349 1
265 349 1
276 349 1
309 349 1
82 350 1
110 350 1
125 350 1
143 350 1
252 350 1
266 350 1
277 350 1
310 350 1
93 351 1
111 351 1
136 351 1
154 351 1
243 351 1
268 351 1
277 351 1
311 351 1
94 352 1
112 352 1
137 352 1
155 352 1
244 352 1
269 352 1
278 352 1
312 352 1
95 353 1
113 353 1
138 353 1
156 353 1
245 353 1
270 353 1
279 353 1
313 353 1
96 354 1
114 354 1
139 354 1
157 354 1
246 354 1
261 354 1
280 354 1
314 354 1
97 355 1
115 355 1
140 355 1
158 355 1
247 355 1
262 355 1
271 355 1
315 355 1
98 356 1
116 356 1
131 356 1
159 356 1
248 356 1
263 356 1
272 356 1
316 356 1
99 357 1
117 357 1
132 357 1
160 357 1
249 357 1
264 357 1
273 357 1
317 357 1
100 358 1
118 358 1
133 358 1
151 358 1
250 358 1
265 358 1
274 358 1
318 358 1
91 359 1
119 359 1
134 359 1
152 359 1
241 359 1
266 359 1
275 359 1
319 359 1
92 360 1
120 360 1
135 360 1
153 360 1
242 360 1
267 360 1
276 360 1
320 360 1
84 361 1
106 361 1
121 361 1
143 361 1
241 361 1
287 361 1
298 361 1
313 361 1
85 362 1
107 362 1
122 362 1
144 362 1
242 362 1
288 362 1
299 362 1
314 362 1
86 363 1
108 363 1
123 363 1
145 363 1
243 363 1
289 363 1
300 363 1
315 363 1
87 364 1
109 364 1
124 364 1
146 364 1
244 364 1
290 364 1
291 364 1
316 364 1
88 365 1
110 365 1
125 365 1
147 365 1
245 365 1
281 365 1
292 365 1
317 365 1
89 366 1
101 366 1
126 366 1
148 366 1
246 366 1
282 366 1
293 366 1
318 366 1
90 367 1
102 367 1
127 367 1
149 367 1
247 367 1
283 367 1
294 367 1
319 367 1
81 368 1
103 368 1
128 368 1
150 368 1
248 368 1
284 368 1
295 368 1
320 368 1
82 369 1
104 369 1
129 369 1
141 369 1
249 369 1
285 369 1
296 369 1
311 369 1
83 370 1
105 370 1
130 370 1
142 370 1
250 370 1
286 370 1
297 370 1
312 370 1
94 371 1
116 371 1
131 371 1
153 371 1
251 371 1
288 371 1
297 371 1
303 371 1
95 372 1
117 372 1
132 372 1
154 372 1
252 372 1
289 372 1
298 372 1
304 372 1
96 373 1
118 373 1
133 373 1
155 373 1
253 373 1
290 373 1
299 373 1
305 373 1
97 374 1
119 374 1
134 374 1
156 374 1
254 374 1
281 374 1
300 374 1
306 374 1
98 375 1
120 375 1
135 375 1
157 375 1
255 375 1
282 375 1
291 375 1
307 375 1
99 376 1
111 376 1
136 376 1
158 376 1
256 376 1
283 376 1
292 376 1
308 376 1
100 377 1
112 377 1
137 377 1
159 377 1
257 377 1
284 377 1
293 377 1
309 377 1
91 378 1
113 378 1
138 378 1
160 378 1
258 378 1
285 378 1
294 378 1
310 378 1
92 379 1
114 379 1
139 379 1
151 379 1
259 379 1
286 379 1
295 379 1
301 379 1
93 380 1
115 380 1
140 380 1
152 380 1
260 380 1
287 380 1
296 380 1
302 380 1
86 381 1
104 381 1
123 381 1
141 381 1
261 381 1
293 381 1
307 381 1
318 381 1
87 382 1
105 382 1
124 382 1
142 382 1
262 382 1
294 382 1
308 382 1
319 382 1
88 383 1
106 383 1
125 383 1
143 383 1
263 383 1
295 383 1
309 383 1
320 383 1
89 384 1
107 384 1
126 384 1
144 384 1
264 384 1
296 384 1
310 384 1
311 384 1
90 385 1
108 385 1
127 385 1
145 385 1
265 385 1
297 385 1
301 385 1
312 385 1
81 386 1
109 386 1
128 386 1
146 386 1
266 386 1
298 386 1
302 386 1
313 386 1
82 387 1
110 387 1
129 387 1
147 387 1
267 387 1
299 387 1
303 387 1
314 387 1
83 388 1
101 388 1
130 388 1
148 388 1
268 388 1
300 388 1
304 388 1
315 388 1
84 389 1
102 389 1
121 389 1
149 389 1
269 389 1
291 389 1
305 389 1
316 389 1
85 390 1
103 390 1
122 390 1
150 390 1
270 390 1
292 390 1
306 390 1
317 390 1
96 391 1
114 391 1
133 391 1
151 391 1
271 391 1
283 391 1
308 391 1
317 391 1
97 392 1
115 392 1
134 392 1
152 392 1
272 392 1
284 392 1
309 392 1
318 392 1
98 393 1
116 393 1
135 393 1
153 393 1
273 393 1
285 393 1
310 393 1
319 393 1
99 394 1
117 394 1
136 394 1
154 394 1
274 394 1
286 394 1
301 394 1
320 394 1
100 395 1
118 395 1
137 395 1
155 395 1
275 395 1
287 395 1
302 395 1
311 395 1
91 396 1
119 396 1
138 396 1
156 396 1
276 396 1
288 396 1
303 396 1
312 396 1
92 397 1
120 397 1
139 397 1
157 397 1
277 397 1
289 397 1
304 397 1
313 397 1
93 398 1
111 398 1
140 398 1
158 398 1
278 398 1
290 398 1
305 398 1
314 398 1
94 399 1
112 399 1
131 399 1
159 399 1
279 399 1
281 399 1
306 399 1
315 399 1
95 400 1
113 400 1
132 400 1
160 400 1
280 400 1
282 400 1
307 400 1
316 400 1
161 401 1
183 401 1
204 401 1
226 401 1
241 401 1
258 401 1
259 401 1
271 401 1
162 402 1
184 402 1
205 402 1
227 402 1
242 402 1
259 402 1
260 402 1
272 402 1
163 403 1
185 403 1
206 403 1
228 403 1
243 403 1
251 403 1
260 403 1
273 403 1
164 404 1
186 404 1
207 404 1
229 404 1
244 404 1
251 404 1
252 404 1
274 404 1
165 405 1
187 405 1
208 405 1
230 405 1
245 405 1
252 405 1
253 405 1
275 405 1
166 406 1
188 406 1
209 406 1
221 406 1
246 406 1
253 406 1
254 406 1
276 406 1
167 407 1
189 407 1
210 407 1
222 407 1
247 407 1
254 407 1
255 407 1
277 407 1
168 408 1
190 408 1
201 408 1
223 408 1
248 408 1
255 408 1
256 408 1
278 408 1
169 409 1
181 409 1
202 409 1
224 409 1
249 409 1
256 409 1
257 409 1
279 409 1
170 410 1
182 410 1
203 410 1
225 410 1
250 410 1
257 410 1
258 410 1
280 410 1
171 411 1
193 411 1
214 411 1
236 411 1
248 411 1
249 411 1
251 411 1
261 411 1
172 412 1
194 412 1
215 412 1
237 412 1
249 412 1
250 412 1
252 412 1
262 412 1
173 413 1
195 413 1
216 413 1
238 413 1
241 413 1
250 413 1
253 413 1
263 413 1
174 414 1
196 414 1
217 414 1
239 414 1
241 414 1
242 414 1
254 414 1
264 414 1
175 415 1
197 415 1
218 415 1
240 415 1
242 415 1
243 415 1
255 415 1
265 415 1
176 416 1
198 416 1
219 416 1
231 416 1
243 416 1
244 416 1
256 416 1
266 416 1
177 417 1
199 417 1
220 417 1
232 417 1
244 417 1
245 417 1
257 417 1
267 417 1
178 418 1
200 418 1
211 418 1
233 418 1
245 418 1
246 418 1
258 418 1
268 418 1
179 419 1
191 419 1
212 419 1
234 419 1
246 419 1
247 419 1
259 419 1
269 419 1
180 420 1
192 420 1
213 420 1
235 420 1
247 420 1
248 420 1
260 420 1
270 420 1
163 421 1
181 421 1
206 421 1
224 421 1
251 421 1
261 421 1
278 421 1
279 421 1
164 422 1
182 422 1
207 422 1
225 422 1
252 422 1
262 422 1
279 422 1
280 422 1
165 423 1
183 423 1
208 423 1
226 423 1
253 423 1
263 423 1
271 423 1
280 423 1
166 424 1
184 424 1
209 424 1
227 424 1
254 424 1
264 424 1
271 424 1
272 424 1
167 425 1
185 425 1
210 425 1
228 425 1
255 425 1
265 425 1
272 425 1
273 425 1
168 426 1
186 426 1
201 426 1
229 426 1
256 426 1
266 426 1
273 426 1
274 426 1
169 427 1
187 427 1
202 427 1
230 427 1
257 427 1
267 427 1
274 427 1
275 427 1
170 428 1
188 428 1
203 428 1
221 428 1
258 428 1
268 428 1
275 428 1
276 428 1
161 429 1
189 429 1
204 429 1
222 429 1
259 429 1
269 429 1
276 429 1
277 429 1
162 430 1
190 430 1
205 430 1
223 430 1
260 430 1
270 430 1
277 430 1
278 430 1
173 431 1
191 431 1
216 431 1
234 431 1
241 431 1
268 431 1
269 431 1
271 431 1
174 432 1
192 432 1
217 432 1
235 432 1
242 432 1
269 432 1
270 432 1
272 432 1
175 433 1
193 433 1
218 433 1
236 433 1
243 433 1
261 433 1
270 433 1
273 433 1
176 434 1
194 434 1
219 434 1
237 434 1
244 434 1
261 434 1
262 434 1
274 434 1
177 435 1
195 435 1
220 435 1
238 435 1
245 435 1
262 435 1
263 435 1
275 435 1
178 436 1
196 436 1
211 436 1
239 436 1
246 436 1
263 436 1
264 436 1
276 436 1
179 437 1
197 437 1
212 437 1
240 437 1
247 437 1
264 437 1
265 437 1
277 437 1
180 438 1
198 438 1
213 438 1
231 438 1
248 438 1
265 438 1
266 438 1
278 438 1
171 439 1
199 439 1
214 439 1
232 439 1
249 439 1
266 439 1
267 439 1
279 439 1
172 440 1
200 440 1
215 440 1
233 440 1
250 440 1
267 440 1
268 440 1
280 440 1
164 441 1
186 441 1
201 441 1
223 441 1
281 441 1
298 441 1
299 441 1
311 441 1
165 442 1
187 442 1
202 442 1
224 442 1
282 442 1
299 442 1
300 442 1
312 442 1
166 443 1
188 443 1
203 443 1
225 443 1
283 443 1
291 443 1
300 443 1
313 443 1
167 444 1
189 444 1
204 444 1
226 444 1
284 444 1
291 444 1
292 444 1
314 444 1
168 445 1
190 445 1
205 445 1
227 445 1
285 445 1
292 445 1
293 445 1
315 445 1
169 446 1
181 446 1
206 446 1
228 446 1
286 446 1
293 446 1
294 446 1
316 446 1
170 447 1
182 447 1
207 447 1
229 447 1
287 447 1
294 447 1
295 447 1
317 447 1
161 448 1
183 448 1
208 448 1
230 448 1
288 448 1
295 448 1
296 448 1
318 448 1
162 449 1
184 449 1
209 449 1
221 449 1
289 449 1
296 449 1
297 449 1
319 449 1
163 450 1
185 450 1
210 450 1
222 450 1
290 450 1
297 450 1
298 450 1
320 450 1
174 451 1
196 451 1
211 451 1
233 451 1
288 451 1
289 451 1
291 451 1
301 451 1
175 452 1
197 452 1
212 452 1
234 452 1
289 452 1
290 452 1
292 452 1
302 452 1
176 453 1
198 453 1
213 453 1
235 453 1
281 453 1
290 453 1
293 453 1
303 453 1
177 454 1
199 454 1
214 454 1
236 454 1
281 454 1
282 454 1
294 454 1
304 454 1
178 455 1
200 455 1
215 455 1
237 455 1
282 455 1
283 455 1
295 455 1
305 455 1
179 456 1
191 456 1
216 456 1
238 456 1
283 456 1
284 456 1
296 456 1
306 456 1
180 457 1
192 457 1
217 457 1
239 457 1
284 457 1
285 457 1
297 457 1
307 457 1
171 458 1
193 458 1
218 458 1
240 458 1
285 458 1
286 458 1
298 458 1
308 458 1
172 459 1
194 459 1
219 459 1
231 459 1
286 459 1
287 459 1
299 459 1
309 459 1
173 460 1
195 460 1
220 460 1
232 460 1
287 460 1
288 460 1
300 460 1
310 460 1
166 461 1
184 461 1
203 461 1
221 461 1
291 461 1
301 461 1
318 461 1
319 461 1
167 462 1
185 462 1
204 462 1
222 462 1
292 462 1
302 462 1
319 462 1
320 462 1
168 463 1
186 463 1
205 463 1
223 463 1
293 463 1
303 463 1
311 463 1
320 463 1
169 464 1
187 464 1
206 464 1
224 464 1
294 464 1
304 464 1
311 464 1
312 464 1
170 465 1
188 465 1
207 465 1
225 465 1
295 465 1
305 465 1
312 465 1
313 465 1
161 466 1
189 466 1
208 466 1
226 466 1
296 466 1
306 466 1
313 466 1
314 466 1
162 467 1
190 467 1
209 467 1
227 467 1
297 467 1
307 467 1
314 467 1
315 467 1
163 468 1
181 468 1
210 468 1
228 468 1
298 468 1
308 468 1
315 468 1
316 468 1
164 469 1
182 469 1
201 469 1
229 469 1
299 469 1
309 469 1
316 469 1
317 469 1
165 470 1
183 470 1
202 470 1
230 470 1
300 470 1
310 470 1
317 470 1
318 470 1
176 471 1
194 471 1
213 471 1
231 471 1
281 471 1
308 471 1
309 471 1
311 471 1
177 472 1
195 472 1
214 472 1
232 472 1
282 472 1
309 472 1
310 472 1
312 472 1
178 473 1
196 473 1
215 473 1
233 473 1
283 473 1
301 473 1
310 473 1
313 473 1
179 474 1
197 474 1
216 474 1
234 474 1
284 474 1
301 474 1
302 474 1
314 474 1
180 475 1
198 475 1
217 475 1
235 475 1
285 475 1
302 475 1
303 475 1
315 475 1
171 476 1
199 476 1
218 476 1
236 476 1
286 476 1
303 476 1
304 476 1
316 476 1
172 477 1
200 477 1
219 477 1
237 477 1
287 477 1
304 477 1
305 477 1
317 477 1
173 478 1
191 478 1
220 478 1
238 478 1
288 478 1
305 478 1
306 478 1
318 478 1
174 479 1
192 479 1
211 479 1
239 479 1
289 479 1
306 479 1
307 479 1
319 479 1
175 480 1
193 480 1
212 480 1
240 480 1
290 480 1
307 480 1
308 480 1
320 480 1
