%%MatrixMarket matrix coordinate integer general
% Binary matrix; one-based indices; arithmetic over GF(2)
125 250 1000
1 1 1
11 1 1
26 1 1
29 1 1
2 2 1
12 2 1
27 2 1
30 2 1
3 3 1
13 3 1
28 3 1
31 3 1
4 4 1
14 4 1
29 4 1
32 4 1
5 5 1
15 5 1
30 5 1
33 5 1
6 6 1
16 6 1
31 6 1
34 6 1
7 7 1
17 7 1
32 7 1
35 7 1
8 8 1
18 8 1
33 8 1
36 8 1
9 9 1
19 9 1
34 9 1
37 9 1
10 10 1
20 10 1
35 10 1
38 10 1
11 11 1
21 11 1
36 11 1
39 11 1
12 12 1
22 12 1
37 12 1
40 12 1
13 13 1
23 13 1
38 13 1
41 13 1
14 14 1
24 14 1
39 14 1
42 14 1
15 15 1
25 15 1
40 15 1
43 15 1
1 16 1
16 16 1
41 16 1
44 16 1
2 17 1
17 17 1
42 17 1
45 17 1
3 18 1
18 18 1
43 18 1
46 18 1
4 19 1
19 19 1
44 19 1
47 19 1
5 20 1
20 20 1
45 20 1
48 20 1
6 21 1
21 21 1
46 21 1
49 21 1
7 22 1
22 22 1
47 22 1
50 22 1
8 23 1
23 23 1
26 23 1
48 23 1
9 24 1
24 24 1
27 24 1
49 24 1
10 25 1
25 25 1
28 25 1
50 25 1
1 26 1
17 26 1
51 26 1
54 26 1
2 27 1
18 27 1
52 27 1
55 27 1
3 28 1
19 28 1
53 28 1
56 28 1
4 29 1
20 29 1
54 29 1
57 29 1
5 30 1
21 30 1
55 30 1
58 30 1
6 31 1
22 31 1
56 31 1
59 31 1
7 32 1
23 32 1
57 32 1
60 32 1
8 33 1
24 33 1
58 33 1
61 33 1
9 34 1
25 34 1
59 34 1
62 34 1
1 35 1
10 35 1
60 35 1
63 35 1
2 36 1
11 36 1
61 36 1
64 36 1
3 37 1
12 37 1
62 37 1
65 37 1
4 38 1
13 38 1
63 38 1
66 38 1
5 39 1
14 39 1
64 39 1
67 39 1
6 40 1
15 40 1
65 40 1
68 40 1
7 41 1
16 41 1
66 41 1
69 41 1
8 42 1
17 42 1
67 42 1
70 42 1
9 43 1
18 43 1
68 43 1
71 43 1
10 44 1
19 44 1
69 44 1
72 44 1
11 45 1
20 45 1
70 45 1
73 45 1
12 46 1
21 46 1
71 46 1
74 46 1
13 47 1
22 47 1
72 47 1
75 47 1
14 48 1
23 48 1
51 48 1
73 48 1
15 49 1
24 49 1
52 49 1
74 49 1
16 50 1
25 50 1
53 50 1
75 50 1
26 51 1
42 51 1
51 51 1
61 51 1
27 52 1
43 52 1
52 52 1
62 52 1
28 53 1
44 53 1
53 53 1
63 53 1
29 54 1
45 54 1
54 54 1
64 54 1
30 55 1
46 55 1
55 55 1
65 55 1
31 56 1
47 56 1
56 56 1
66 56 1
32 57 1
48 57 1
57 57 1
67 57 1
33 58 1
49 58 1
58 58 1
68 58 1
34 59 1
50 59 1
59 59 1
69 59 1
26 60 1
35 60 1
60 60 1
70 60 1
27 61 1
36 61 1
61 61 1
71 61 1
28 62 1
37 62 1
62 62 1
72 62 1
29 63 1
38 63 1
63 63 1
73 63 1
30 64 1
39 64 1
64 64 1
74 64 1
31 65 1
40 65 1
65 65 1
75 65 1
32 66 1
41 66 1
51 66 1
66 66 1
33 67 1
42 67 1
52 67 1
67 67 1
34 68 1
43 68 1
53 68 1
68 68 1
35 69 1
44 69 1
54 69 1
69 69 1
36 70 1
45 70 1
55 70 1
70 70 1
37 71 1
46 71 1
56 71 1
71 71 1
38 72 1
47 72 1
57 72 1
72 72 1
39 73 1
48 73 1
58 73 1
73 73 1
40 74 1
49 74 1
59 74 1
74 74 1
41 75 1
50 75 1
60 75 1
75 75 1
1 76 1
22 76 1
76 76 1
79 76 1
2 77 1
23 77 1
77 77 1
80 77 1
3 78 1
24 78 1
78 78 1
81 78 1
4 79 1
25 79 1
79 79 1
82 79 1
1 80 1
5 80 1
80 80 1
83 80 1
2 81 1
6 81 1
81 81 1
84 81 1
3 82 1
7 82 1
82 82 1
85 82 1
4 83 1
8 83 1
83 83 1
86 83 1
5 84 1
9 84 1
84 84 1
87 84 1
6 85 1
10 85 1
85 85 1
88 85 1
7 86 1
11 86 1
86 86 1
89 86 1
8 87 1
12 87 1
87 87 1
90 87 1
9 88 1
13 88 1
88 88 1
91 88 1
10 89 1
14 89 1
89 89 1
92 89 1
11 90 1
15 90 1
90 90 1
93 90 1
12 91 1
16 91 1
91 91 1
94 91 1
13 92 1
17 92 1
92 92 1
95 92 1
14 93 1
18 93 1
93 93 1
96 93 1
15 94 1
19 94 1
94 94 1
97 94 1
16 95 1
20 95 1
95 95 1
98 95 1
17 96 1
21 96 1
96 96 1
99 96 1
18 97 1
22 97 1
97 97 1
100 97 1
19 98 1
23 98 1
76 98 1
98 98 1
20 99 1
24 99 1
77 99 1
99 99 1
21 100 1
25 100 1
78 100 1
100 100 1
26 101 1
47 101 1
76 101 1
86 101 1
27 102 1
48 102 1
77 102 1
87 102 1
28 103 1
49 103 1
78 103 1
88 103 1
29 104 1
50 104 1
79 104 1
89 104 1
26 105 1
30 105 1
80 105 1
90 105 1
27 106 1
31 106 1
81 106 1
91 106 1
28 107 1
32 107 1
82 107 1
92 107 1
29 108 1
33 108 1
83 108 1
93 108 1
30 109 1
34 109 1
84 109 1
94 109 1
31 110 1
35 110 1
85 110 1
95 110 1
32 111 1
36 111 1
86 111 1
96 111 1
33 112 1
37 112 1
87 112 1
97 112 1
34 113 1
38 113 1
88 113 1
98 113 1
35 114 1
39 114 1
89 114 1
99 114 1
36 115 1
40 115 1
90 115 1
100 115 1
37 116 1
41 116 1
76 116 1
91 116 1
38 117 1
42 117 1
77 117 1
92 117 1
39 118 1
43 118 1
78 118 1
93 118 1
40 119 1
44 119 1
79 119 1
94 119 1
41 120 1
45 120 1
80 120 1
95 120 1
42 121 1
46 121 1
81 121 1
96 121 1
43 122 1
47 122 1
82 122 1
97 122 1
44 123 1
48 123 1
83 123 1
98 123 1
45 124 1
49 124 1
84 124 1
99 124 1
46 125 1
50 125 1
85 125 1
100 125 1
51 126 1
72 126 1
76 126 1
92 126 1
52 127 1
73 127 1
77 127 1
93 127 1
53 128 1
74 128 1
78 128 1
94 128 1
54 129 1
75 129 1
79 129 1
95 129 1
51 130 1
55 130 1
80 130 1
96 130 1
52 131 1
56 131 1
81 131 1
97 131 1
53 132 1
57 132 1
82 132 1
98 132 1
54 133 1
58 133 1
83 133 1
99 133 1
55 134 1
59 134 1
84 134 1
100 134 1
56 135 1
60 135 1
76 135 1
85 135 1
57 136 1
61 136 1
77 136 1
86 136 1
58 137 1
62 137 1
78 137 1
87 137 1
59 138 1
63 138 1
79 138 1
88 138 1
60 139 1
64 139 1
80 139 1
89 139 1
61 140 1
65 140 1
81 140 1
90 140 1
62 141 1
66 141 1
82 141 1
91 141 1
63 142 1
67 142 1
83 142 1
92 142 1
64 143 1
68 143 1
84 143 1
93 143 1
65 144 1
69 144 1
85 144 1
94 144 1
66 145 1
70 145 1
86 145 1
95 145 1
67 146 1
71 146 1
87 146 1
96 146 1
68 147 1
72 147 1
88 147 1
97 147 1
69 148 1
73 148 1
89 148 1
98 148 1
70 149 1
74 149 1
90 149 1
99 149 1
71 150 1
75 150 1
91 150 1
100 150 1
1 151 1
25 151 1
101 151 1
104 151 1
1 152 1
2 152 1
102 152 1
105 152 1
2 153 1
3 153 1
103 153 1
106 153 1
3 154 1
4 154 1
104 154 1
107 154 1
4 155 1
5 155 1
105 155 1
108 155 1
5 156 1
6 156 1
106 156 1
109 156 1
6 157 1
7 157 1
107 157 1
110 157 1
7 158 1
8 158 1
108 158 1
111 158 1
8 159 1
9 159 1
109 159 1
112 159 1
9 160 1
10 160 1
110 160 1
113 160 1
10 161 1
11 161 1
111 161 1
114 161 1
11 162 1
12 162 1
112 162 1
115 162 1
12 163 1
13 163 1
113 163 1
116 163 1
13 164 1
14 164 1
114 164 1
117 164 1
14 165 1
15 165 1
115 165 1
118 165 1
15 166 1
16 166 1
116 166 1
119 166 1
16 167 1
17 167 1
117 167 1
120 167 1
17 168 1
18 168 1
118 168 1
121 168 1
18 169 1
19 169 1
119 169 1
122 169 1
19 170 1
20 170 1
120 170 1
123 170 1
20 171 1
21 171 1
121 171 1
124 171 1
21 172 1
22 172 1
122 172 1
125 172 1
22 173 1
23 173 1
101 173 1
123 173 1
23 174 1
24 174 1
102 174 1
124 174 1
24 175 1
25 175 1
103 175 1
125 175 1
26 176 1
50 176 1
101 176 1
111 176 1
26 177 1
27 177 1
102 177 1
112 177 1
27 178 1
28 178 1
103 178 1
113 178 1
28 179 1
29 179 1
104 179 1
114 179 1
29 180 1
30 180 1
105 180 1
115 180 1
30 181 1
31 181 1
106 181 1
116 181 1
31 182 1
32 182 1
107 182 1
117 182 1
32 183 1
33 183 1
108 183 1
118 183 1
33 184 1
34 184 1
109 184 1
119 184 1
34 185 1
35 185 1
110 185 1
120 185 1
35 186 1
36 186 1
111 186 1
121 186 1
36 187 1
37 187 1
112 187 1
122 187 1
37 188 1
38 188 1
113 188 1
123 188 1
38 189 1
39 189 1
114 189 1
124 189 1
39 190 1
40 190 1
115 190 1
125 190 1
40 191 1
41 191 1
101 191 1
116 191 1
41 192 1
42 192 1
102 192 1
117 192 1
42 193 1
43 193 1
103 193 1
118 193 1
43 194 1
44 194 1
104 194 1
119 194 1
44 195 1
45 195 1
105 195 1
120 195 1
45 196 1
46 196 1
106 196 1
121 196 1
46 197 1
47 197 1
107 197 1
122 197 1
47 198 1
48 198 1
108 198 1
123 198 1
48 199 1
49 199 1
109 199 1
124 199 1
49 200 1
50 200 1
110 200 1
125 200 1
51 201 1
75 201 1
101 201 1
117 201 1
51 202 1
52 202 1
102 202 1
118 202 1
52 203 1
53 203 1
103 203 1
119 203 1
53 204 1
54 204 1
104 204 1
120 204 1
54 205 1
55 205 1
105 205 1
121 205 1
55 206 1
56 206 1
106 206 1
122 206 1
56 207 1
57 207 1
107 207 1
123 207 1
57 208 1
58 208 1
108 208 1
124 208 1
58 209 1
59 209 1
109 209 1
125 209 1
59 210 1
60 210 1
101 210 1
110 210 1
60 211 1
61 211 1
102 211 1
111 211 1
61 212 1
62 212 1
103 212 1
112 212 1
62 213 1
63 213 1
104 213 1
113 213 1
63 214 1
64 214 1
105 214 1
114 214 1
64 215 1
65 215 1
106 215 1
115 215 1
65 216 1
66 216 1
107 216 1
116 216 1
66 217 1
67 217 1
108 217 1
117 217 1
67 218 1
68 218 1
109 218 1
118 218 1
68 219 1
69 219 1
110 219 1
119 219 1
69 220 1
70 220 1
111 220 1
120 220 1
70 221 1
71 221 1
112 221 1
121 221 1
71 222 1
72 222 1
113 222 1
122 222 1
72 223 1
73 223 1
114 223 1
123 223 1
73 224 1
74 224 1
115 224 1
124 224 1
74 225 1
75 225 1
116 225 1
125 225 1
76 226 1
100 226 1
101 226 1
122 226 1
76 227 1
77 227 1
102 227 1
123 227 1
77 228 1
78 228 1
103 228 1
124 228 1
78 229 1
79 229 1
104 229 1
125 229 1
79 230 1
80 230 1
101 230 1
105 230 1
80 231 1
81 231 1
102 231 1
106 231 1
81 232 1
82 232 1
103 232 1
107 232 1
82 233 1
83 233 1
104 233 1
108 233 1
83 234 1
84 234 1
105 234 1
109 234 1
84 235 1
85 235 1
106 235 1
110 235 1
85 236 1
86 236 1
107 236 1
111 236 1
86 237 1
87 237 1
108 237 1
112 237 1
87 238 1
88 238 1
109 238 1
113 238 1
88 239 1
89 239 1
110 239 1
114 239 1
89 240 1
90 240 1
111 240 1
115 240 1
90 241 1
91 241 1
112 241 1
116 241 1
91 242 1
92 242 1
113 242 1
117 242 1
92 243 1
93 243 1
114 243 1
118 243 1
93 244 1
94 244 1
115 244 1
119 244 1
94 245 1
95 245 1
116 245 1
120 245 1
95 246 1
96 246 1
117 246 1
121 246 1
96 247 1
97 247 1
118 247 1
122 247 1
97 248 1
98 248 1
119 248 1
123 248 1
98 249 1
99 249 1
120 249 1
124 249 1
99 250 1
100 250 1
121 250 1
125 250 1
