%%MatrixMarket matrix coordinate integer general
% Binary matrix; one-based indices; arithmetic over GF(2)
1176 1470 11760
1 1 1
11 1 1
22 1 1
28 1 1
43 1 1
47 1 1
64 1 1
65 1 1
2 2 1
12 2 1
23 2 1
29 2 1
44 2 1
48 2 1
65 2 1
66 2 1
3 3 1
13 3 1
24 3 1
30 3 1
45 3 1
49 3 1
66 3 1
67 3 1
4 4 1
14 4 1
25 4 1
31 4 1
46 4 1
50 4 1
67 4 1
68 4 1
5 5 1
15 5 1
26 5 1
32 5 1
47 5 1
51 5 1
68 5 1
69 5 1
6 6 1
16 6 1
27 6 1
33 6 1
48 6 1
52 6 1
69 6 1
70 6 1
7 7 1
17 7 1
28 7 1
34 7 1
49 7 1
53 7 1
70 7 1
71 7 1
8 8 1
18 8 1
29 8 1
35 8 1
50 8 1
54 8 1
71 8 1
72 8 1
9 9 1
19 9 1
30 9 1
36 9 1
51 9 1
55 9 1
72 9 1
73 9 1
10 10 1
20 10 1
31 10 1
37 10 1
52 10 1
56 10 1
73 10 1
74 10 1
11 11 1
21 11 1
32 11 1
38 11 1
53 11 1
57 11 1
74 11 1
75 11 1
1 12 1
12 12 1
33 12 1
39 12 1
54 12 1
58 12 1
75 12 1
76 12 1
2 13 1
13 13 1
34 13 1
40 13 1
55 13 1
59 13 1
76 13 1
77 13 1
3 14 1
14 14 1
35 14 1
41 14 1
56 14 1
60 14 1
77 14 1
78 14 1
4 15 1
15 15 1
36 15 1
42 15 1
57 15 1
61 15 1
78 15 1
79 15 1
5 16 1
16 16 1
22 16 1
37 16 1
58 16 1
62 16 1
79 16 1
80 16 1
6 17 1
17 17 1
23 17 1
38 17 1
59 17 1
63 17 1
80 17 1
81 17 1
7 18 1
18 18 1
24 18 1
39 18 1
43 18 1
60 18 1
81 18 1
82 18 1
8 19 1
19 19 1
25 19 1
40 19 1
44 19 1
61 19 1
82 19 1
83 19 1
9 20 1
20 20 1
26 20 1
41 20 1
45 20 1
62 20 1
83 20 1
84 20 1
10 21 1
21 21 1
27 21 1
42 21 1
46 21 1
63 21 1
64 21 1
84 21 1
1 22 1
13 22 1
85 22 1
91 22 1
106 22 1
110 22 1
127 22 1
128 22 1
2 23 1
14 23 1
86 23 1
92 23 1
107 23 1
111 23 1
128 23 1
129 23 1
3 24 1
15 24 1
87 24 1
93 24 1
108 24 1
112 24 1
129 24 1
130 24 1
4 25 1
16 25 1
88 25 1
94 25 1
109 25 1
113 25 1
130 25 1
131 25 1
5 26 1
17 26 1
89 26 1
95 26 1
110 26 1
114 26 1
131 26 1
132 26 1
6 27 1
18 27 1
90 27 1
96 27 1
111 27 1
115 27 1
132 27 1
133 27 1
7 28 1
19 28 1
91 28 1
97 28 1
112 28 1
116 28 1
133 28 1
134 28 1
8 29 1
20 29 1
92 29 1
98 29 1
113 29 1
117 29 1
134 29 1
135 29 1
9 30 1
21 30 1
93 30 1
99 30 1
114 30 1
118 30 1
135 30 1
136 30 1
1 31 1
10 31 1
94 31 1
100 31 1
115 31 1
119 31 1
136 31 1
137 31 1
2 32 1
11 32 1
95 32 1
101 32 1
116 32 1
120 32 1
137 32 1
138 32 1
3 33 1
12 33 1
96 33 1
102 33 1
117 33 1
121 33 1
138 33 1
139 33 1
4 34 1
13 34 1
97 34 1
103 34 1
118 34 1
122 34 1
139 34 1
140 34 1
5 35 1
14 35 1
98 35 1
104 35 1
119 35 1
123 35 1
140 35 1
141 35 1
6 36 1
15 36 1
99 36 1
105 36 1
120 36 1
124 36 1
141 36 1
142 36 1
7 37 1
16 37 1
85 37 1
100 37 1
121 37 1
125 37 1
142 37 1
143 37 1
8 38 1
17 38 1
86 38 1
101 38 1
122 38 1
126 38 1
143 38 1
144 38 1
9 39 1
18 39 1
87 39 1
102 39 1
106 39 1
123 39 1
144 39 1
145 39 1
10 40 1
19 40 1
88 40 1
103 40 1
107 40 1
124 40 1
145 40 1
146 40 1
11 41 1
20 41 1
89 41 1
104 41 1
108 41 1
125 41 1
146 41 1
147 41 1
12 42 1
21 42 1
90 42 1
105 42 1
109 42 1
126 42 1
127 42 1
147 42 1
22 43 1
34 43 1
85 43 1
95 43 1
148 43 1
152 43 1
169 43 1
170 43 1
23 44 1
35 44 1
86 44 1
96 44 1
149 44 1
153 44 1
170 44 1
171 44 1
24 45 1
36 45 1
87 45 1
97 45 1
150 45 1
154 45 1
171 45 1
172 45 1
25 46 1
37 46 1
88 46 1
98 46 1
151 46 1
155 46 1
172 46 1
173 46 1
26 47 1
38 47 1
89 47 1
99 47 1
152 47 1
156 47 1
173 47 1
174 47 1
27 48 1
39 48 1
90 48 1
100 48 1
153 48 1
157 48 1
174 48 1
175 48 1
28 49 1
40 49 1
91 49 1
101 49 1
154 49 1
158 49 1
175 49 1
176 49 1
29 50 1
41 50 1
92 50 1
102 50 1
155 50 1
159 50 1
176 50 1
177 50 1
30 51 1
42 51 1
93 51 1
103 51 1
156 51 1
160 51 1
177 51 1
178 51 1
22 52 1
31 52 1
94 52 1
104 52 1
157 52 1
161 52 1
178 52 1
179 52 1
23 53 1
32 53 1
95 53 1
105 53 1
158 53 1
162 53 1
179 53 1
180 53 1
24 54 1
33 54 1
85 54 1
96 54 1
159 54 1
163 54 1
180 54 1
181 54 1
25 55 1
34 55 1
86 55 1
97 55 1
160 55 1
164 55 1
181 55 1
182 55 1
26 56 1
35 56 1
87 56 1
98 56 1
161 56 1
165 56 1
182 56 1
183 56 1
27 57 1
36 57 1
88 57 1
99 57 1
162 57 1
166 57 1
183 57 1
184 57 1
28 58 1
37 58 1
89 58 1
100 58 1
163 58 1
167 58 1
184 58 1
185 58 1
29 59 1
38 59 1
90 59 1
101 59 1
164 59 1
168 59 1
185 59 1
186 59 1
30 60 1
39 60 1
91 60 1
102 60 1
148 60 1
165 60 1
186 60 1
187 60 1
31 61 1
40 61 1
92 61 1
103 61 1
149 61 1
166 61 1
187 61 1
188 61 1
32 62 1
41 62 1
93 62 1
104 62 1
150 62 1
167 62 1
188 62 1
189 62 1
33 63 1
42 63 1
94 63 1
105 63 1
151 63 1
168 63 1
169 63 1
189 63 1
43 64 1
55 64 1
106 64 1
116 64 1
148 64 1
154 64 1
190 64 1
191 64 1
44 65 1
56 65 1
107 65 1
117 65 1
149 65 1
155 65 1
191 65 1
192 65 1
45 66 1
57 66 1
108 66 1
118 66 1
150 66 1
156 66 1
192 66 1
193 66 1
46 67 1
58 67 1
109 67 1
119 67 1
151 67 1
157 67 1
193 67 1
194 67 1
47 68 1
59 68 1
110 68 1
120 68 1
152 68 1
158 68 1
194 68 1
195 68 1
48 69 1
60 69 1
111 69 1
121 69 1
153 69 1
159 69 1
195 69 1
196 69 1
49 70 1
61 70 1
112 70 1
122 70 1
154 70 1
160 70 1
196 70 1
197 70 1
50 71 1
62 71 1
113 71 1
123 71 1
155 71 1
161 71 1
197 71 1
198 71 1
51 72 1
63 72 1
114 72 1
124 72 1
156 72 1
162 72 1
198 72 1
199 72 1
43 73 1
52 73 1
115 73 1
125 73 1
157 73 1
163 73 1
199 73 1
200 73 1
44 74 1
53 74 1
116 74 1
126 74 1
158 74 1
164 74 1
200 74 1
201 74 1
45 75 1
54 75 1
106 75 1
117 75 1
159 75 1
165 75 1
201 75 1
202 75 1
46 76 1
55 76 1
107 76 1
118 76 1
160 76 1
166 76 1
202 76 1
203 76 1
47 77 1
56 77 1
108 77 1
119 77 1
161 77 1
167 77 1
203 77 1
204 77 1
48 78 1
57 78 1
109 78 1
120 78 1
162 78 1
168 78 1
204 78 1
205 78 1
49 79 1
58 79 1
110 79 1
121 79 1
148 79 1
163 79 1
205 79 1
206 79 1
50 80 1
59 80 1
111 80 1
122 80 1
149 80 1
164 80 1
206 80 1
207 80 1
51 81 1
60 81 1
112 81 1
123 81 1
150 81 1
165 81 1
207 81 1
208 81 1
52 82 1
61 82 1
113 82 1
124 82 1
151 82 1
166 82 1
208 82 1
209 82 1
53 83 1
62 83 1
114 83 1
125 83 1
152 83 1
167 83 1
209 83 1
210 83 1
54 84 1
63 84 1
115 84 1
126 84 1
153 84 1
168 84 1
190 84 1
210 84 1
64 85 1
76 85 1
127 85 1
137 85 1
169 85 1
175 85 1
190 85 1
194 85 1
65 86 1
77 86 1
128 86 1
138 86 1
170 86 1
176 86 1
191 86 1
195 86 1
66 87 1
78 87 1
129 87 1
139 87 1
171 87 1
177 87 1
192 87 1
196 87 1
67 88 1
79 88 1
130 88 1
140 88 1
172 88 1
178 88 1
193 88 1
197 88 1
68 89 1
80 89 1
131 89 1
141 89 1
173 89 1
179 89 1
194 89 1
198 89 1
69 90 1
81 90 1
132 90 1
142 90 1
174 90 1
180 90 1
195 90 1
199 90 1
70 91 1
82 91 1
133 91 1
143 91 1
175 91 1
181 91 1
196 91 1
200 91 1
71 92 1
83 92 1
134 92 1
144 92 1
176 92 1
182 92 1
197 92 1
201 92 1
72 93 1
84 93 1
135 93 1
145 93 1
177 93 1
183 93 1
198 93 1
202 93 1
64 94 1
73 94 1
136 94 1
146 94 1
178 94 1
184 94 1
199 94 1
203 94 1
65 95 1
74 95 1
137 95 1
147 95 1
179 95 1
185 95 1
200 95 1
204 95 1
66 96 1
75 96 1
127 96 1
138 96 1
180 96 1
186 96 1
201 96 1
205 96 1
67 97 1
76 97 1
128 97 1
139 97 1
181 97 1
187 97 1
202 97 1
206 97 1
68 98 1
77 98 1
129 98 1
140 98 1
182 98 1
188 98 1
203 98 1
207 98 1
69 99 1
78 99 1
130 99 1
141 99 1
183 99 1
189 99 1
204 99 1
208 99 1
70 100 1
79 100 1
131 100 1
142 100 1
169 100 1
184 100 1
205 100 1
209 100 1
71 101 1
80 101 1
132 101 1
143 101 1
170 101 1
185 101 1
206 101 1
210 101 1
72 102 1
81 102 1
133 102 1
144 102 1
171 102 1
186 102 1
190 102 1
207 102 1
73 103 1
82 103 1
134 103 1
145 103 1
172 103 1
187 103 1
191 103 1
208 103 1
74 104 1
83 104 1
135 104 1
146 104 1
173 104 1
188 104 1
192 104 1
209 104 1
75 105 1
84 105 1
136 105 1
147 105 1
174 105 1
189 105 1
193 105 1
210 105 1
1 106 1
17 106 1
211 106 1
217 106 1
232 106 1
236 106 1
253 106 1
254 106 1
2 107 1
18 107 1
212 107 1
218 107 1
233 107 1
237 107 1
254 107 1
255 107 1
3 108 1
19 108 1
213 108 1
219 108 1
234 108 1
238 108 1
255 108 1
256 108 1
4 109 1
20 109 1
214 109 1
220 109 1
235 109 1
239 109 1
256 109 1
257 109 1
5 110 1
21 110 1
215 110 1
221 110 1
236 110 1
240 110 1
257 110 1
258 110 1
1 111 1
6 111 1
216 111 1
222 111 1
237 111 1
241 111 1
258 111 1
259 111 1
2 112 1
7 112 1
217 112 1
223 112 1
238 112 1
242 112 1
259 112 1
260 112 1
3 113 1
8 113 1
218 113 1
224 113 1
239 113 1
243 113 1
260 113 1
261 113 1
4 114 1
9 114 1
219 114 1
225 114 1
240 114 1
244 114 1
261 114 1
262 114 1
5 115 1
10 115 1
220 115 1
226 115 1
241 115 1
245 115 1
262 115 1
263 115 1
6 116 1
11 116 1
221 116 1
227 116 1
242 116 1
246 116 1
263 116 1
264 116 1
7 117 1
12 117 1
222 117 1
228 117 1
243 117 1
247 117 1
264 117 1
265 117 1
8 118 1
13 118 1
223 118 1
229 118 1
244 118 1
248 118 1
265 118 1
266 118 1
9 119 1
14 119 1
224 119 1
230 119 1
245 119 1
249 119 1
266 119 1
267 119 1
10 120 1
15 120 1
225 120 1
231 120 1
246 120 1
250 120 1
267 120 1
268 120 1
11 121 1
16 121 1
211 121 1
226 121 1
247 121 1
251 121 1
268 121 1
269 121 1
12 122 1
17 122 1
212 122 1
227 122 1
248 122 1
252 122 1
269 122 1
270 122 1
13 123 1
18 123 1
213 123 1
228 123 1
232 123 1
249 123 1
270 123 1
271 123 1
14 124 1
19 124 1
214 124 1
229 124 1
233 124 1
250 124 1
271 124 1
272 124 1
15 125 1
20 125 1
215 125 1
230 125 1
234 125 1
251 125 1
272 125 1
273 125 1
16 126 1
21 126 1
216 126 1
231 126 1
235 126 1
252 126 1
253 126 1
273 126 1
22 127 1
38 127 1
211 127 1
221 127 1
274 127 1
278 127 1
295 127 1
296 127 1
23 128 1
39 128 1
212 128 1
222 128 1
275 128 1
279 128 1
296 128 1
297 128 1
24 129 1
40 129 1
213 129 1
223 129 1
276 129 1
280 129 1
297 129 1
298 129 1
25 130 1
41 130 1
214 130 1
224 130 1
277 130 1
281 130 1
298 130 1
299 130 1
26 131 1
42 131 1
215 131 1
225 131 1
278 131 1
282 131 1
299 131 1
300 131 1
22 132 1
27 132 1
216 132 1
226 132 1
279 132 1
283 132 1
300 132 1
301 132 1
23 133 1
28 133 1
217 133 1
227 133 1
280 133 1
284 133 1
301 133 1
302 133 1
24 134 1
29 134 1
218 134 1
228 134 1
281 134 1
285 134 1
302 134 1
303 134 1
25 135 1
30 135 1
219 135 1
229 135 1
282 135 1
286 135 1
303 135 1
304 135 1
26 136 1
31 136 1
220 136 1
230 136 1
283 136 1
287 136 1
304 136 1
305 136 1
27 137 1
32 137 1
221 137 1
231 137 1
284 137 1
288 137 1
305 137 1
306 137 1
28 138 1
33 138 1
211 138 1
222 138 1
285 138 1
289 138 1
306 138 1
307 138 1
29 139 1
34 139 1
212 139 1
223 139 1
286 139 1
290 139 1
307 139 1
308 139 1
30 140 1
35 140 1
213 140 1
224 140 1
287 140 1
291 140 1
308 140 1
309 140 1
31 141 1
36 141 1
214 141 1
225 141 1
288 141 1
292 141 1
309 141 1
310 141 1
32 142 1
37 142 1
215 142 1
226 142 1
289 142 1
293 142 1
310 142 1
311 142 1
33 143 1
38 143 1
216 143 1
227 143 1
290 143 1
294 143 1
311 143 1
312 143 1
34 144 1
39 144 1
217 144 1
228 144 1
274 144 1
291 144 1
312 144 1
313 144 1
35 145 1
40 145 1
218 145 1
229 145 1
275 145 1
292 145 1
313 145 1
314 145 1
36 146 1
41 146 1
219 146 1
230 146 1
276 146 1
293 146 1
314 146 1
315 146 1
37 147 1
42 147 1
220 147 1
231 147 1
277 147 1
294 147 1
295 147 1
315 147 1
43 148 1
59 148 1
232 148 1
242 148 1
274 148 1
280 148 1
316 148 1
317 148 1
44 149 1
60 149 1
233 149 1
243 149 1
275 149 1
281 149 1
317 149 1
318 149 1
45 150 1
61 150 1
234 150 1
244 150 1
276 150 1
282 150 1
318 150 1
319 150 1
46 151 1
62 151 1
235 151 1
245 151 1
277 151 1
283 151 1
319 151 1
320 151 1
47 152 1
63 152 1
236 152 1
246 152 1
278 152 1
284 152 1
320 152 1
321 152 1
43 153 1
48 153 1
237 153 1
247 153 1
279 153 1
285 153 1
321 153 1
322 153 1
44 154 1
49 154 1
238 154 1
248 154 1
280 154 1
286 154 1
322 154 1
323 154 1
45 155 1
50 155 1
239 155 1
249 155 1
281 155 1
287 155 1
323 155 1
324 155 1
46 156 1
51 156 1
240 156 1
250 156 1
282 156 1
288 156 1
324 156 1
325 156 1
47 157 1
52 157 1
241 157 1
251 157 1
283 157 1
289 157 1
325 157 1
326 157 1
48 158 1
53 158 1
242 158 1
252 158 1
284 158 1
290 158 1
326 158 1
327 158 1
49 159 1
54 159 1
232 159 1
243 159 1
285 159 1
291 159 1
327 159 1
328 159 1
50 160 1
55 160 1
233 160 1
244 160 1
286 160 1
292 160 1
328 160 1
329 160 1
51 161 1
56 161 1
234 161 1
245 161 1
287 161 1
293 161 1
329 161 1
330 161 1
52 162 1
57 162 1
235 162 1
246 162 1
288 162 1
294 162 1
330 162 1
331 162 1
53 163 1
58 163 1
236 163 1
247 163 1
274 163 1
289 163 1
331 163 1
332 163 1
54 164 1
59 164 1
237 164 1
248 164 1
275 164 1
290 164 1
332 164 1
333 164 1
55 165 1
60 165 1
238 165 1
249 165 1
276 165 1
291 165 1
333 165 1
334 165 1
56 166 1
61 166 1
239 166 1
250 166 1
277 166 1
292 166 1
334 166 1
335 166 1
57 167 1
62 167 1
240 167 1
251 167 1
278 167 1
293 167 1
335 167 1
336 167 1
58 168 1
63 168 1
241 168 1
252 168 1
279 168 1
294 168 1
316 168 1
336 168 1
64 169 1
80 169 1
253 169 1
263 169 1
295 169 1
301 169 1
316 169 1
320 169 1
65 170 1
81 170 1
254 170 1
264 170 1
296 170 1
302 170 1
317 170 1
321 170 1
66 171 1
82 171 1
255 171 1
265 171 1
297 171 1
303 171 1
318 171 1
322 171 1
67 172 1
83 172 1
256 172 1
266 172 1
298 172 1
304 172 1
319 172 1
323 172 1
68 173 1
84 173 1
257 173 1
267 173 1
299 173 1
305 173 1
320 173 1
324 173 1
64 174 1
69 174 1
258 174 1
268 174 1
300 174 1
306 174 1
321 174 1
325 174 1
65 175 1
70 175 1
259 175 1
269 175 1
301 175 1
307 175 1
322 175 1
326 175 1
66 176 1
71 176 1
260 176 1
270 176 1
302 176 1
308 176 1
323 176 1
327 176 1
67 177 1
72 177 1
261 177 1
271 177 1
303 177 1
309 177 1
324 177 1
328 177 1
68 178 1
73 178 1
262 178 1
272 178 1
304 178 1
310 178 1
325 178 1
329 178 1
69 179 1
74 179 1
263 179 1
273 179 1
305 179 1
311 179 1
326 179 1
330 179 1
70 180 1
75 180 1
253 180 1
264 180 1
306 180 1
312 180 1
327 180 1
331 180 1
71 181 1
76 181 1
254 181 1
265 181 1
307 181 1
313 181 1
328 181 1
332 181 1
72 182 1
77 182 1
255 182 1
266 182 1
308 182 1
314 182 1
329 182 1
333 182 1
73 183 1
78 183 1
256 183 1
267 183 1
309 183 1
315 183 1
330 183 1
334 183 1
74 184 1
79 184 1
257 184 1
268 184 1
295 184 1
310 184 1
331 184 1
335 184 1
75 185 1
80 185 1
258 185 1
269 185 1
296 185 1
311 185 1
332 185 1
336 185 1
76 186 1
81 186 1
259 186 1
270 186 1
297 186 1
312 186 1
316 186 1
333 186 1
77 187 1
82 187 1
260 187 1
271 187 1
298 187 1
313 187 1
317 187 1
334 187 1
78 188 1
83 188 1
261 188 1
272 188 1
299 188 1
314 188 1
318 188 1
335 188 1
79 189 1
84 189 1
262 189 1
273 189 1
300 189 1
315 189 1
319 189 1
336 189 1
85 190 1
101 190 1
211 190 1
223 190 1
337 190 1
341 190 1
358 190 1
359 190 1
86 191 1
102 191 1
212 191 1
224 191 1
338 191 1
342 191 1
359 191 1
360 191 1
87 192 1
103 192 1
213 192 1
225 192 1
339 192 1
343 192 1
360 192 1
361 192 1
88 193 1
104 193 1
214 193 1
226 193 1
340 193 1
344 193 1
361 193 1
362 193 1
89 194 1
105 194 1
215 194 1
227 194 1
341 194 1
345 194 1
362 194 1
363 194 1
85 195 1
90 195 1
216 195 1
228 195 1
342 195 1
346 195 1
363 195 1
364 195 1
86 196 1
91 196 1
217 196 1
229 196 1
343 196 1
347 196 1
364 196 1
365 196 1
87 197 1
92 197 1
218 197 1
230 197 1
344 197 1
348 197 1
365 197 1
366 197 1
88 198 1
93 198 1
219 198 1
231 198 1
345 198 1
349 198 1
366 198 1
367 198 1
89 199 1
94 199 1
211 199 1
220 199 1
346 199 1
350 199 1
367 199 1
368 199 1
90 200 1
95 200 1
212 200 1
221 200 1
347 200 1
351 200 1
368 200 1
369 200 1
91 201 1
96 201 1
213 201 1
222 201 1
348 201 1
352 201 1
369 201 1
370 201 1
92 202 1
97 202 1
214 202 1
223 202 1
349 202 1
353 202 1
370 202 1
371 202 1
93 203 1
98 203 1
215 203 1
224 203 1
350 203 1
354 203 1
371 203 1
372 203 1
94 204 1
99 204 1
216 204 1
225 204 1
351 204 1
355 204 1
372 204 1
373 204 1
95 205 1
100 205 1
217 205 1
226 205 1
352 205 1
356 205 1
373 205 1
374 205 1
96 206 1
101 206 1
218 206 1
227 206 1
353 206 1
357 206 1
374 206 1
375 206 1
97 207 1
102 207 1
219 207 1
228 207 1
337 207 1
354 207 1
375 207 1
376 207 1
98 208 1
103 208 1
220 208 1
229 208 1
338 208 1
355 208 1
376 208 1
377 208 1
99 209 1
104 209 1
221 209 1
230 209 1
339 209 1
356 209 1
377 209 1
378 209 1
100 210 1
105 210 1
222 210 1
231 210 1
340 210 1
357 210 1
358 210 1
378 210 1
106 211 1
122 211 1
232 211 1
244 211 1
337 211 1
343 211 1
379 211 1
380 211 1
107 212 1
123 212 1
233 212 1
245 212 1
338 212 1
344 212 1
380 212 1
381 212 1
108 213 1
124 213 1
234 213 1
246 213 1
339 213 1
345 213 1
381 213 1
382 213 1
109 214 1
125 214 1
235 214 1
247 214 1
340 214 1
346 214 1
382 214 1
383 214 1
110 215 1
126 215 1
236 215 1
248 215 1
341 215 1
347 215 1
383 215 1
384 215 1
106 216 1
111 216 1
237 216 1
249 216 1
342 216 1
348 216 1
384 216 1
385 216 1
107 217 1
112 217 1
238 217 1
250 217 1
343 217 1
349 217 1
385 217 1
386 217 1
108 218 1
113 218 1
239 218 1
251 218 1
344 218 1
350 218 1
386 218 1
387 218 1
109 219 1
114 219 1
240 219 1
252 219 1
345 219 1
351 219 1
387 219 1
388 219 1
110 220 1
115 220 1
232 220 1
241 220 1
346 220 1
352 220 1
388 220 1
389 220 1
111 221 1
116 221 1
233 221 1
242 221 1
347 221 1
353 221 1
389 221 1
390 221 1
112 222 1
117 222 1
234 222 1
243 222 1
348 222 1
354 222 1
390 222 1
391 222 1
113 223 1
118 223 1
235 223 1
244 223 1
349 223 1
355 223 1
391 223 1
392 223 1
114 224 1
119 224 1
236 224 1
245 224 1
350 224 1
356 224 1
392 224 1
393 224 1
115 225 1
120 225 1
237 225 1
246 225 1
351 225 1
357 225 1
393 225 1
394 225 1
116 226 1
121 226 1
238 226 1
247 226 1
337 226 1
352 226 1
394 226 1
395 226 1
117 227 1
122 227 1
239 227 1
248 227 1
338 227 1
353 227 1
395 227 1
396 227 1
118 228 1
123 228 1
240 228 1
249 228 1
339 228 1
354 228 1
396 228 1
397 228 1
119 229 1
124 229 1
241 229 1
250 229 1
340 229 1
355 229 1
397 229 1
398 229 1
120 230 1
125 230 1
242 230 1
251 230 1
341 230 1
356 230 1
398 230 1
399 230 1
121 231 1
126 231 1
243 231 1
252 231 1
342 231 1
357 231 1
379 231 1
399 231 1
127 232 1
143 232 1
253 232 1
265 232 1
358 232 1
364 232 1
379 232 1
383 232 1
128 233 1
144 233 1
254 233 1
266 233 1
359 233 1
365 233 1
380 233 1
384 233 1
129 234 1
145 234 1
255 234 1
267 234 1
360 234 1
366 234 1
381 234 1
385 234 1
130 235 1
146 235 1
256 235 1
268 235 1
361 235 1
367 235 1
382 235 1
386 235 1
131 236 1
147 236 1
257 236 1
269 236 1
362 236 1
368 236 1
383 236 1
387 236 1
127 237 1
132 237 1
258 237 1
270 237 1
363 237 1
369 237 1
384 237 1
388 237 1
128 238 1
133 238 1
259 238 1
271 238 1
364 238 1
370 238 1
385 238 1
389 238 1
129 239 1
134 239 1
260 239 1
272 239 1
365 239 1
371 239 1
386 239 1
390 239 1
130 240 1
135 240 1
261 240 1
273 240 1
366 240 1
372 240 1
387 240 1
391 240 1
131 241 1
136 241 1
253 241 1
262 241 1
367 241 1
373 241 1
388 241 1
392 241 1
132 242 1
137 242 1
254 242 1
263 242 1
368 242 1
374 242 1
389 242 1
393 242 1
133 243 1
138 243 1
255 243 1
264 243 1
369 243 1
375 243 1
390 243 1
394 243 1
134 244 1
139 244 1
256 244 1
265 244 1
370 244 1
376 244 1
391 244 1
395 244 1
135 245 1
140 245 1
257 245 1
266 245 1
371 245 1
377 245 1
392 245 1
396 245 1
136 246 1
141 246 1
258 246 1
267 246 1
372 246 1
378 246 1
393 246 1
397 246 1
137 247 1
142 247 1
259 247 1
268 247 1
358 247 1
373 247 1
394 247 1
398 247 1
138 248 1
143 248 1
260 248 1
269 248 1
359 248 1
374 248 1
395 248 1
399 248 1
139 249 1
144 249 1
261 249 1
270 249 1
360 249 1
375 249 1
379 249 1
396 249 1
140 250 1
145 250 1
262 250 1
271 250 1
361 250 1
376 250 1
380 250 1
397 250 1
141 251 1
146 251 1
263 251 1
272 251 1
362 251 1
377 251 1
381 251 1
398 251 1
142 252 1
147 252 1
264 252 1
273 252 1
363 252 1
378 252 1
382 252 1
399 252 1
148 253 1
164 253 1
274 253 1
286 253 1
337 253 1
347 253 1
400 253 1
401 253 1
149 254 1
165 254 1
275 254 1
287 254 1
338 254 1
348 254 1
401 254 1
402 254 1
150 255 1
166 255 1
276 255 1
288 255 1
339 255 1
349 255 1
402 255 1
403 255 1
151 256 1
167 256 1
277 256 1
289 256 1
340 256 1
350 256 1
403 256 1
404 256 1
152 257 1
168 257 1
278 257 1
290 257 1
341 257 1
351 257 1
404 257 1
405 257 1
148 258 1
153 258 1
279 258 1
291 258 1
342 258 1
352 258 1
405 258 1
406 258 1
149 259 1
154 259 1
280 259 1
292 259 1
343 259 1
353 259 1
406 259 1
407 259 1
150 260 1
155 260 1
281 260 1
293 260 1
344 260 1
354 260 1
407 260 1
408 260 1
151 261 1
156 261 1
282 261 1
294 261 1
345 261 1
355 261 1
408 261 1
409 261 1
152 262 1
157 262 1
274 262 1
283 262 1
346 262 1
356 262 1
409 262 1
410 262 1
153 263 1
158 263 1
275 263 1
284 263 1
347 263 1
357 263 1
410 263 1
411 263 1
154 264 1
159 264 1
276 264 1
285 264 1
337 264 1
348 264 1
411 264 1
412 264 1
155 265 1
160 265 1
277 265 1
286 265 1
338 265 1
349 265 1
412 265 1
413 265 1
156 266 1
161 266 1
278 266 1
287 266 1
339 266 1
350 266 1
413 266 1
414 266 1
157 267 1
162 267 1
279 267 1
288 267 1
340 267 1
351 267 1
414 267 1
415 267 1
158 268 1
163 268 1
280 268 1
289 268 1
341 268 1
352 268 1
415 268 1
416 268 1
159 269 1
164 269 1
281 269 1
290 269 1
342 269 1
353 269 1
416 269 1
417 269 1
160 270 1
165 270 1
282 270 1
291 270 1
343 270 1
354 270 1
417 270 1
418 270 1
161 271 1
166 271 1
283 271 1
292 271 1
344 271 1
355 271 1
418 271 1
419 271 1
162 272 1
167 272 1
284 272 1
293 272 1
345 272 1
356 272 1
419 272 1
420 272 1
163 273 1
168 273 1
285 273 1
294 273 1
346 273 1
357 273 1
400 273 1
420 273 1
169 274 1
185 274 1
295 274 1
307 274 1
358 274 1
368 274 1
400 274 1
404 274 1
170 275 1
186 275 1
296 275 1
308 275 1
359 275 1
369 275 1
401 275 1
405 275 1
171 276 1
187 276 1
297 276 1
309 276 1
360 276 1
370 276 1
402 276 1
406 276 1
172 277 1
188 277 1
298 277 1
310 277 1
361 277 1
371 277 1
403 277 1
407 277 1
173 278 1
189 278 1
299 278 1
311 278 1
362 278 1
372 278 1
404 278 1
408 278 1
169 279 1
174 279 1
300 279 1
312 279 1
363 279 1
373 279 1
405 279 1
409 279 1
170 280 1
175 280 1
301 280 1
313 280 1
364 280 1
374 280 1
406 280 1
410 280 1
171 281 1
176 281 1
302 281 1
314 281 1
365 281 1
375 281 1
407 281 1
411 281 1
172 282 1
177 282 1
303 282 1
315 282 1
366 282 1
376 282 1
408 282 1
412 282 1
173 283 1
178 283 1
295 283 1
304 283 1
367 283 1
377 283 1
409 283 1
413 283 1
174 284 1
179 284 1
296 284 1
305 284 1
368 284 1
378 284 1
410 284 1
414 284 1
175 285 1
180 285 1
297 285 1
306 285 1
358 285 1
369 285 1
411 285 1
415 285 1
176 286 1
181 286 1
298 286 1
307 286 1
359 286 1
370 286 1
412 286 1
416 286 1
177 287 1
182 287 1
299 287 1
308 287 1
360 287 1
371 287 1
413 287 1
417 287 1
178 288 1
183 288 1
300 288 1
309 288 1
361 288 1
372 288 1
414 288 1
418 288 1
179 289 1
184 289 1
301 289 1
310 289 1
362 289 1
373 289 1
415 289 1
419 289 1
180 290 1
185 290 1
302 290 1
311 290 1
363 290 1
374 290 1
416 290 1
420 290 1
181 291 1
186 291 1
303 291 1
312 291 1
364 291 1
375 291 1
400 291 1
417 291 1
182 292 1
187 292 1
304 292 1
313 292 1
365 292 1
376 292 1
401 292 1
418 292 1
183 293 1
188 293 1
305 293 1
314 293 1
366 293 1
377 293 1
402 293 1
419 293 1
184 294 1
189 294 1
306 294 1
315 294 1
367 294 1
378 294 1
403 294 1
420 294 1
190 295 1
206 295 1
316 295 1
328 295 1
379 295 1
389 295 1
400 295 1
406 295 1
191 296 1
207 296 1
317 296 1
329 296 1
380 296 1
390 296 1
401 296 1
407 296 1
192 297 1
208 297 1
318 297 1
330 297 1
381 297 1
391 297 1
402 297 1
408 297 1
193 298 1
209 298 1
319 298 1
331 298 1
382 298 1
392 298 1
403 298 1
409 298 1
194 299 1
210 299 1
320 299 1
332 299 1
383 299 1
393 299 1
404 299 1
410 299 1
190 300 1
195 300 1
321 300 1
333 300 1
384 300 1
394 300 1
405 300 1
411 300 1
191 301 1
196 301 1
322 301 1
334 301 1
385 301 1
395 301 1
406 301 1
412 301 1
192 302 1
197 302 1
323 302 1
335 302 1
386 302 1
396 302 1
407 302 1
413 302 1
193 303 1
198 303 1
324 303 1
336 303 1
387 303 1
397 303 1
408 303 1
414 303 1
194 304 1
199 304 1
316 304 1
325 304 1
388 304 1
398 304 1
409 304 1
415 304 1
195 305 1
200 305 1
317 305 1
326 305 1
389 305 1
399 305 1
410 305 1
416 305 1
196 306 1
201 306 1
318 306 1
327 306 1
379 306 1
390 306 1
411 306 1
417 306 1
197 307 1
202 307 1
319 307 1
328 307 1
380 307 1
391 307 1
412 307 1
418 307 1
198 308 1
203 308 1
320 308 1
329 308 1
381 308 1
392 308 1
413 308 1
419 308 1
199 309 1
204 309 1
321 309 1
330 309 1
382 309 1
393 309 1
414 309 1
420 309 1
200 310 1
205 310 1
322 310 1
331 310 1
383 310 1
394 310 1
400 310 1
415 310 1
201 311 1
206 311 1
323 311 1
332 311 1
384 311 1
395 311 1
401 311 1
416 311 1
202 312 1
207 312 1
324 312 1
333 312 1
385 312 1
396 312 1
402 312 1
417 312 1
203 313 1
208 313 1
325 313 1
334 313 1
386 313 1
397 313 1
403 313 1
418 313 1
204 314 1
209 314 1
326 314 1
335 314 1
387 314 1
398 314 1
404 314 1
419 314 1
205 315 1
210 315 1
327 315 1
336 315 1
388 315 1
399 315 1
405 315 1
420 315 1
1 316 1
18 316 1
421 316 1
427 316 1
442 316 1
446 316 1
463 316 1
464 316 1
2 317 1
19 317 1
422 317 1
428 317 1
443 317 1
447 317 1
464 317 1
465 317 1
3 318 1
20 318 1
423 318 1
429 318 1
444 318 1
448 318 1
465 318 1
466 318 1
4 319 1
21 319 1
424 319 1
430 319 1
445 319 1
449 319 1
466 319 1
467 319 1
1 320 1
5 320 1
425 320 1
431 320 1
446 320 1
450 320 1
467 320 1
468 320 1
2 321 1
6 321 1
426 321 1
432 321 1
447 321 1
451 321 1
468 321 1
469 321 1
3 322 1
7 322 1
427 322 1
433 322 1
448 322 1
452 322 1
469 322 1
470 322 1
4 323 1
8 323 1
428 323 1
434 323 1
449 323 1
453 323 1
470 323 1
471 323 1
5 324 1
9 324 1
429 324 1
435 324 1
450 324 1
454 324 1
471 324 1
472 324 1
6 325 1
10 325 1
430 325 1
436 325 1
451 325 1
455 325 1
472 325 1
473 325 1
7 326 1
11 326 1
431 326 1
437 326 1
452 326 1
456 326 1
473 326 1
474 326 1
8 327 1
12 327 1
432 327 1
438 327 1
453 327 1
457 327 1
474 327 1
475 327 1
9 328 1
13 328 1
433 328 1
439 328 1
454 328 1
458 328 1
475 328 1
476 328 1
10 329 1
14 329 1
434 329 1
440 329 1
455 329 1
459 329 1
476 329 1
477 329 1
11 330 1
15 330 1
435 330 1
441 330 1
456 330 1
460 330 1
477 330 1
478 330 1
12 331 1
16 331 1
421 331 1
436 331 1
457 331 1
461 331 1
478 331 1
479 331 1
13 332 1
17 332 1
422 332 1
437 332 1
458 332 1
462 332 1
479 332 1
480 332 1
14 333 1
18 333 1
423 333 1
438 333 1
442 333 1
459 333 1
480 333 1
481 333 1
15 334 1
19 334 1
424 334 1
439 334 1
443 334 1
460 334 1
481 334 1
482 334 1
16 335 1
20 335 1
425 335 1
440 335 1
444 335 1
461 335 1
482 335 1
483 335 1
17 336 1
21 336 1
426 336 1
441 336 1
445 336 1
462 336 1
463 336 1
483 336 1
22 337 1
39 337 1
421 337 1
431 337 1
484 337 1
488 337 1
505 337 1
506 337 1
23 338 1
40 338 1
422 338 1
432 338 1
485 338 1
489 338 1
506 338 1
507 338 1
24 339 1
41 339 1
423 339 1
433 339 1
486 339 1
490 339 1
507 339 1
508 339 1
25 340 1
42 340 1
424 340 1
434 340 1
487 340 1
491 340 1
508 340 1
509 340 1
22 341 1
26 341 1
425 341 1
435 341 1
488 341 1
492 341 1
509 341 1
510 341 1
23 342 1
27 342 1
426 342 1
436 342 1
489 342 1
493 342 1
510 342 1
511 342 1
24 343 1
28 343 1
427 343 1
437 343 1
490 343 1
494 343 1
511 343 1
512 343 1
25 344 1
29 344 1
428 344 1
438 344 1
491 344 1
495 344 1
512 344 1
513 344 1
26 345 1
30 345 1
429 345 1
439 345 1
492 345 1
496 345 1
513 345 1
514 345 1
27 346 1
31 346 1
430 346 1
440 346 1
493 346 1
497 346 1
514 346 1
515 346 1
28 347 1
32 347 1
431 347 1
441 347 1
494 347 1
498 347 1
515 347 1
516 347 1
29 348 1
33 348 1
421 348 1
432 348 1
495 348 1
499 348 1
516 348 1
517 348 1
30 349 1
34 349 1
422 349 1
433 349 1
496 349 1
500 349 1
517 349 1
518 349 1
31 350 1
35 350 1
423 350 1
434 350 1
497 350 1
501 350 1
518 350 1
519 350 1
32 351 1
36 351 1
424 351 1
435 351 1
498 351 1
502 351 1
519 351 1
520 351 1
33 352 1
37 352 1
425 352 1
436 352 1
499 352 1
503 352 1
520 352 1
521 352 1
34 353 1
38 353 1
426 353 1
437 353 1
500 353 1
504 353 1
521 353 1
522 353 1
35 354 1
39 354 1
427 354 1
438 354 1
484 354 1
501 354 1
522 354 1
523 354 1
36 355 1
40 355 1
428 355 1
439 355 1
485 355 1
502 355 1
523 355 1
524 355 1
37 356 1
41 356 1
429 356 1
440 356 1
486 356 1
503 356 1
524 356 1
525 356 1
38 357 1
42 357 1
430 357 1
441 357 1
487 357 1
504 357 1
505 357 1
525 357 1
43 358 1
60 358 1
442 358 1
452 358 1
484 358 1
490 358 1
526 358 1
527 358 1
44 359 1
61 359 1
443 359 1
453 359 1
485 359 1
491 359 1
527 359 1
528 359 1
45 360 1
62 360 1
444 360 1
454 360 1
486 360 1
492 360 1
528 360 1
529 360 1
46 361 1
63 361 1
445 361 1
455 361 1
487 361 1
493 361 1
529 361 1
530 361 1
43 362 1
47 362 1
446 362 1
456 362 1
488 362 1
494 362 1
530 362 1
531 362 1
44 363 1
48 363 1
447 363 1
457 363 1
489 363 1
495 363 1
531 363 1
532 363 1
45 364 1
49 364 1
448 364 1
458 364 1
490 364 1
496 364 1
532 364 1
533 364 1
46 365 1
50 365 1
449 365 1
459 365 1
491 365 1
497 365 1
533 365 1
534 365 1
47 366 1
51 366 1
450 366 1
460 366 1
492 366 1
498 366 1
534 366 1
535 366 1
48 367 1
52 367 1
451 367 1
461 367 1
493 367 1
499 367 1
535 367 1
536 367 1
49 368 1
53 368 1
452 368 1
462 368 1
494 368 1
500 368 1
536 368 1
537 368 1
50 369 1
54 369 1
442 369 1
453 369 1
495 369 1
501 369 1
537 369 1
538 369 1
51 370 1
55 370 1
443 370 1
454 370 1
496 370 1
502 370 1
538 370 1
539 370 1
52 371 1
56 371 1
444 371 1
455 371 1
497 371 1
503 371 1
539 371 1
540 371 1
53 372 1
57 372 1
445 372 1
456 372 1
498 372 1
504 372 1
540 372 1
541 372 1
54 373 1
58 373 1
446 373 1
457 373 1
484 373 1
499 373 1
541 373 1
542 373 1
55 374 1
59 374 1
447 374 1
458 374 1
485 374 1
500 374 1
542 374 1
543 374 1
56 375 1
60 375 1
448 375 1
459 375 1
486 375 1
501 375 1
543 375 1
544 375 1
57 376 1
61 376 1
449 376 1
460 376 1
487 376 1
502 376 1
544 376 1
545 376 1
58 377 1
62 377 1
450 377 1
461 377 1
488 377 1
503 377 1
545 377 1
546 377 1
59 378 1
63 378 1
451 378 1
462 378 1
489 378 1
504 378 1
526 378 1
546 378 1
64 379 1
81 379 1
463 379 1
473 379 1
505 379 1
511 379 1
526 379 1
530 379 1
65 380 1
82 380 1
464 380 1
474 380 1
506 380 1
512 380 1
527 380 1
531 380 1
66 381 1
83 381 1
465 381 1
475 381 1
507 381 1
513 381 1
528 381 1
532 381 1
67 382 1
84 382 1
466 382 1
476 382 1
508 382 1
514 382 1
529 382 1
533 382 1
64 383 1
68 383 1
467 383 1
477 383 1
509 383 1
515 383 1
530 383 1
534 383 1
65 384 1
69 384 1
468 384 1
478 384 1
510 384 1
516 384 1
531 384 1
535 384 1
66 385 1
70 385 1
469 385 1
479 385 1
511 385 1
517 385 1
532 385 1
536 385 1
67 386 1
71 386 1
470 386 1
480 386 1
512 386 1
518 386 1
533 386 1
537 386 1
68 387 1
72 387 1
471 387 1
481 387 1
513 387 1
519 387 1
534 387 1
538 387 1
69 388 1
73 388 1
472 388 1
482 388 1
514 388 1
520 388 1
535 388 1
539 388 1
70 389 1
74 389 1
473 389 1
483 389 1
515 389 1
521 389 1
536 389 1
540 389 1
71 390 1
75 390 1
463 390 1
474 390 1
516 390 1
522 390 1
537 390 1
541 390 1
72 391 1
76 391 1
464 391 1
475 391 1
517 391 1
523 391 1
538 391 1
542 391 1
73 392 1
77 392 1
465 392 1
476 392 1
518 392 1
524 392 1
539 392 1
543 392 1
74 393 1
78 393 1
466 393 1
477 393 1
519 393 1
525 393 1
540 393 1
544 393 1
75 394 1
79 394 1
467 394 1
478 394 1
505 394 1
520 394 1
541 394 1
545 394 1
76 395 1
80 395 1
468 395 1
479 395 1
506 395 1
521 395 1
542 395 1
546 395 1
77 396 1
81 396 1
469 396 1
480 396 1
507 396 1
522 396 1
526 396 1
543 396 1
78 397 1
82 397 1
470 397 1
481 397 1
508 397 1
523 397 1
527 397 1
544 397 1
79 398 1
83 398 1
471 398 1
482 398 1
509 398 1
524 398 1
528 398 1
545 398 1
80 399 1
84 399 1
472 399 1
483 399 1
510 399 1
525 399 1
529 399 1
546 399 1
85 400 1
102 400 1
421 400 1
433 400 1
547 400 1
551 400 1
568 400 1
569 400 1
86 401 1
103 401 1
422 401 1
434 401 1
548 401 1
552 401 1
569 401 1
570 401 1
87 402 1
104 402 1
423 402 1
435 402 1
549 402 1
553 402 1
570 402 1
571 402 1
88 403 1
105 403 1
424 403 1
436 403 1
550 403 1
554 403 1
571 403 1
572 403 1
85 404 1
89 404 1
425 404 1
437 404 1
551 404 1
555 404 1
572 404 1
573 404 1
86 405 1
90 405 1
426 405 1
438 405 1
552 405 1
556 405 1
573 405 1
574 405 1
87 406 1
91 406 1
427 406 1
439 406 1
553 406 1
557 406 1
574 406 1
575 406 1
88 407 1
92 407 1
428 407 1
440 407 1
554 407 1
558 407 1
575 407 1
576 407 1
89 408 1
93 408 1
429 408 1
441 408 1
555 408 1
559 408 1
576 408 1
577 408 1
90 409 1
94 409 1
421 409 1
430 409 1
556 409 1
560 409 1
577 409 1
578 409 1
91 410 1
95 410 1
422 410 1
431 410 1
557 410 1
561 410 1
578 410 1
579 410 1
92 411 1
96 411 1
423 411 1
432 411 1
558 411 1
562 411 1
579 411 1
580 411 1
93 412 1
97 412 1
424 412 1
433 412 1
559 412 1
563 412 1
580 412 1
581 412 1
94 413 1
98 413 1
425 413 1
434 413 1
560 413 1
564 413 1
581 413 1
582 413 1
95 414 1
99 414 1
426 414 1
435 414 1
561 414 1
565 414 1
582 414 1
583 414 1
96 415 1
100 415 1
427 415 1
436 415 1
562 415 1
566 415 1
583 415 1
584 415 1
97 416 1
101 416 1
428 416 1
437 416 1
563 416 1
567 416 1
584 416 1
585 416 1
98 417 1
102 417 1
429 417 1
438 417 1
547 417 1
564 417 1
585 417 1
586 417 1
99 418 1
103 418 1
430 418 1
439 418 1
548 418 1
565 418 1
586 418 1
587 418 1
100 419 1
104 419 1
431 419 1
440 419 1
549 419 1
566 419 1
587 419 1
588 419 1
101 420 1
105 420 1
432 420 1
441 420 1
550 420 1
567 420 1
568 420 1
588 420 1
106 421 1
123 421 1
442 421 1
454 421 1
547 421 1
553 421 1
589 421 1
590 421 1
107 422 1
124 422 1
443 422 1
455 422 1
548 422 1
554 422 1
590 422 1
591 422 1
108 423 1
125 423 1
444 423 1
456 423 1
549 423 1
555 423 1
591 423 1
592 423 1
109 424 1
126 424 1
445 424 1
457 424 1
550 424 1
556 424 1
592 424 1
593 424 1
106 425 1
110 425 1
446 425 1
458 425 1
551 425 1
557 425 1
593 425 1
594 425 1
107 426 1
111 426 1
447 426 1
459 426 1
552 426 1
558 426 1
594 426 1
595 426 1
108 427 1
112 427 1
448 427 1
460 427 1
553 427 1
559 427 1
595 427 1
596 427 1
109 428 1
113 428 1
449 428 1
461 428 1
554 428 1
560 428 1
596 428 1
597 428 1
110 429 1
114 429 1
450 429 1
462 429 1
555 429 1
561 429 1
597 429 1
598 429 1
111 430 1
115 430 1
442 430 1
451 430 1
556 430 1
562 430 1
598 430 1
599 430 1
112 431 1
116 431 1
443 431 1
452 431 1
557 431 1
563 431 1
599 431 1
600 431 1
113 432 1
117 432 1
444 432 1
453 432 1
558 432 1
564 432 1
600 432 1
601 432 1
114 433 1
118 433 1
445 433 1
454 433 1
559 433 1
565 433 1
601 433 1
602 433 1
115 434 1
119 434 1
446 434 1
455 434 1
560 434 1
566 434 1
602 434 1
603 434 1
116 435 1
120 435 1
447 435 1
456 435 1
561 435 1
567 435 1
603 435 1
604 435 1
117 436 1
121 436 1
448 436 1
457 436 1
547 436 1
562 436 1
604 436 1
605 436 1
118 437 1
122 437 1
449 437 1
458 437 1
548 437 1
563 437 1
605 437 1
606 437 1
119 438 1
123 438 1
450 438 1
459 438 1
549 438 1
564 438 1
606 438 1
607 438 1
120 439 1
124 439 1
451 439 1
460 439 1
550 439 1
565 439 1
607 439 1
608 439 1
121 440 1
125 440 1
452 440 1
461 440 1
551 440 1
566 440 1
608 440 1
609 440 1
122 441 1
126 441 1
453 441 1
462 441 1
552 441 1
567 441 1
589 441 1
609 441 1
127 442 1
144 442 1
463 442 1
475 442 1
568 442 1
574 442 1
589 442 1
593 442 1
128 443 1
145 443 1
464 443 1
476 443 1
569 443 1
575 443 1
590 443 1
594 443 1
129 444 1
146 444 1
465 444 1
477 444 1
570 444 1
576 444 1
591 444 1
595 444 1
130 445 1
147 445 1
466 445 1
478 445 1
571 445 1
577 445 1
592 445 1
596 445 1
127 446 1
131 446 1
467 446 1
479 446 1
572 446 1
578 446 1
593 446 1
597 446 1
128 447 1
132 447 1
468 447 1
480 447 1
573 447 1
579 447 1
594 447 1
598 447 1
129 448 1
133 448 1
469 448 1
481 448 1
574 448 1
580 448 1
595 448 1
599 448 1
130 449 1
134 449 1
470 449 1
482 449 1
575 449 1
581 449 1
596 449 1
600 449 1
131 450 1
135 450 1
471 450 1
483 450 1
576 450 1
582 450 1
597 450 1
601 450 1
132 451 1
136 451 1
463 451 1
472 451 1
577 451 1
583 451 1
598 451 1
602 451 1
133 452 1
137 452 1
464 452 1
473 452 1
578 452 1
584 452 1
599 452 1
603 452 1
134 453 1
138 453 1
465 453 1
474 453 1
579 453 1
585 453 1
600 453 1
604 453 1
135 454 1
139 454 1
466 454 1
475 454 1
580 454 1
586 454 1
601 454 1
605 454 1
136 455 1
140 455 1
467 455 1
476 455 1
581 455 1
587 455 1
602 455 1
606 455 1
137 456 1
141 456 1
468 456 1
477 456 1
582 456 1
588 456 1
603 456 1
607 456 1
138 457 1
142 457 1
469 457 1
478 457 1
568 457 1
583 457 1
604 457 1
608 457 1
139 458 1
143 458 1
470 458 1
479 458 1
569 458 1
584 458 1
605 458 1
609 458 1
140 459 1
144 459 1
471 459 1
480 459 1
570 459 1
585 459 1
589 459 1
606 459 1
141 460 1
145 460 1
472 460 1
481 460 1
571 460 1
586 460 1
590 460 1
607 460 1
142 461 1
146 461 1
473 461 1
482 461 1
572 461 1
587 461 1
591 461 1
608 461 1
143 462 1
147 462 1
474 462 1
483 462 1
573 462 1
588 462 1
592 462 1
609 462 1
148 463 1
165 463 1
484 463 1
496 463 1
547 463 1
557 463 1
610 463 1
611 463 1
149 464 1
166 464 1
485 464 1
497 464 1
548 464 1
558 464 1
611 464 1
612 464 1
150 465 1
167 465 1
486 465 1
498 465 1
549 465 1
559 465 1
612 465 1
613 465 1
151 466 1
168 466 1
487 466 1
499 466 1
550 466 1
560 466 1
613 466 1
614 466 1
148 467 1
152 467 1
488 467 1
500 467 1
551 467 1
561 467 1
614 467 1
615 467 1
149 468 1
153 468 1
489 468 1
501 468 1
552 468 1
562 468 1
615 468 1
616 468 1
150 469 1
154 469 1
490 469 1
502 469 1
553 469 1
563 469 1
616 469 1
617 469 1
151 470 1
155 470 1
491 470 1
503 470 1
554 470 1
564 470 1
617 470 1
618 470 1
152 471 1
156 471 1
492 471 1
504 471 1
555 471 1
565 471 1
618 471 1
619 471 1
153 472 1
157 472 1
484 472 1
493 472 1
556 472 1
566 472 1
619 472 1
620 472 1
154 473 1
158 473 1
485 473 1
494 473 1
557 473 1
567 473 1
620 473 1
621 473 1
155 474 1
159 474 1
486 474 1
495 474 1
547 474 1
558 474 1
621 474 1
622 474 1
156 475 1
160 475 1
487 475 1
496 475 1
548 475 1
559 475 1
622 475 1
623 475 1
157 476 1
161 476 1
488 476 1
497 476 1
549 476 1
560 476 1
623 476 1
624 476 1
158 477 1
162 477 1
489 477 1
498 477 1
550 477 1
561 477 1
624 477 1
625 477 1
159 478 1
163 478 1
490 478 1
499 478 1
551 478 1
562 478 1
625 478 1
626 478 1
160 479 1
164 479 1
491 479 1
500 479 1
552 479 1
563 479 1
626 479 1
627 479 1
161 480 1
165 480 1
492 480 1
501 480 1
553 480 1
564 480 1
627 480 1
628 480 1
162 481 1
166 481 1
493 481 1
502 481 1
554 481 1
565 481 1
628 481 1
629 481 1
163 482 1
167 482 1
494 482 1
503 482 1
555 482 1
566 482 1
629 482 1
630 482 1
164 483 1
168 483 1
495 483 1
504 483 1
556 483 1
567 483 1
610 483 1
630 483 1
169 484 1
186 484 1
505 484 1
517 484 1
568 484 1
578 484 1
610 484 1
614 484 1
170 485 1
187 485 1
506 485 1
518 485 1
569 485 1
579 485 1
611 485 1
615 485 1
171 486 1
188 486 1
507 486 1
519 486 1
570 486 1
580 486 1
612 486 1
616 486 1
172 487 1
189 487 1
508 487 1
520 487 1
571 487 1
581 487 1
613 487 1
617 487 1
169 488 1
173 488 1
509 488 1
521 488 1
572 488 1
582 488 1
614 488 1
618 488 1
170 489 1
174 489 1
510 489 1
522 489 1
573 489 1
583 489 1
615 489 1
619 489 1
171 490 1
175 490 1
511 490 1
523 490 1
574 490 1
584 490 1
616 490 1
620 490 1
172 491 1
176 491 1
512 491 1
524 491 1
575 491 1
585 491 1
617 491 1
621 491 1
173 492 1
177 492 1
513 492 1
525 492 1
576 492 1
586 492 1
618 492 1
622 492 1
174 493 1
178 493 1
505 493 1
514 493 1
577 493 1
587 493 1
619 493 1
623 493 1
175 494 1
179 494 1
506 494 1
515 494 1
578 494 1
588 494 1
620 494 1
624 494 1
176 495 1
180 495 1
507 495 1
516 495 1
568 495 1
579 495 1
621 495 1
625 495 1
177 496 1
181 496 1
508 496 1
517 496 1
569 496 1
580 496 1
622 496 1
626 496 1
178 497 1
182 497 1
509 497 1
518 497 1
570 497 1
581 497 1
623 497 1
627 497 1
179 498 1
183 498 1
510 498 1
519 498 1
571 498 1
582 498 1
624 498 1
628 498 1
180 499 1
184 499 1
511 499 1
520 499 1
572 499 1
583 499 1
625 499 1
629 499 1
181 500 1
185 500 1
512 500 1
521 500 1
573 500 1
584 500 1
626 500 1
630 500 1
182 501 1
186 501 1
513 501 1
522 501 1
574 501 1
585 501 1
610 501 1
627 501 1
183 502 1
187 502 1
514 502 1
523 502 1
575 502 1
586 502 1
611 502 1
628 502 1
184 503 1
188 503 1
515 503 1
524 503 1
576 503 1
587 503 1
612 503 1
629 503 1
185 504 1
189 504 1
516 504 1
525 504 1
577 504 1
588 504 1
613 504 1
630 504 1
190 505 1
207 505 1
526 505 1
538 505 1
589 505 1
599 505 1
610 505 1
616 505 1
191 506 1
208 506 1
527 506 1
539 506 1
590 506 1
600 506 1
611 506 1
617 506 1
192 507 1
209 507 1
528 507 1
540 507 1
591 507 1
601 507 1
612 507 1
618 507 1
193 508 1
210 508 1
529 508 1
541 508 1
592 508 1
602 508 1
613 508 1
619 508 1
190 509 1
194 509 1
530 509 1
542 509 1
593 509 1
603 509 1
614 509 1
620 509 1
191 510 1
195 510 1
531 510 1
543 510 1
594 510 1
604 510 1
615 510 1
621 510 1
192 511 1
196 511 1
532 511 1
544 511 1
595 511 1
605 511 1
616 511 1
622 511 1
193 512 1
197 512 1
533 512 1
545 512 1
596 512 1
606 512 1
617 512 1
623 512 1
194 513 1
198 513 1
534 513 1
546 513 1
597 513 1
607 513 1
618 513 1
624 513 1
195 514 1
199 514 1
526 514 1
535 514 1
598 514 1
608 514 1
619 514 1
625 514 1
196 515 1
200 515 1
527 515 1
536 515 1
599 515 1
609 515 1
620 515 1
626 515 1
197 516 1
201 516 1
528 516 1
537 516 1
589 516 1
600 516 1
621 516 1
627 516 1
198 517 1
202 517 1
529 517 1
538 517 1
590 517 1
601 517 1
622 517 1
628 517 1
199 518 1
203 518 1
530 518 1
539 518 1
591 518 1
602 518 1
623 518 1
629 518 1
200 519 1
204 519 1
531 519 1
540 519 1
592 519 1
603 519 1
624 519 1
630 519 1
201 520 1
205 520 1
532 520 1
541 520 1
593 520 1
604 520 1
610 520 1
625 520 1
202 521 1
206 521 1
533 521 1
542 521 1
594 521 1
605 521 1
611 521 1
626 521 1
203 522 1
207 522 1
534 522 1
543 522 1
595 522 1
606 522 1
612 522 1
627 522 1
204 523 1
208 523 1
535 523 1
544 523 1
596 523 1
607 523 1
613 523 1
628 523 1
205 524 1
209 524 1
536 524 1
545 524 1
597 524 1
608 524 1
614 524 1
629 524 1
206 525 1
210 525 1
537 525 1
546 525 1
598 525 1
609 525 1
615 525 1
630 525 1
211 526 1
228 526 1
421 526 1
437 526 1
631 526 1
635 526 1
652 526 1
653 526 1
212 527 1
229 527 1
422 527 1
438 527 1
632 527 1
636 527 1
653 527 1
654 527 1
213 528 1
230 528 1
423 528 1
439 528 1
633 528 1
637 528 1
654 528 1
655 528 1
214 529 1
231 529 1
424 529 1
440 529 1
634 529 1
638 529 1
655 529 1
656 529 1
211 530 1
215 530 1
425 530 1
441 530 1
635 530 1
639 530 1
656 530 1
657 530 1
212 531 1
216 531 1
421 531 1
426 531 1
636 531 1
640 531 1
657 531 1
658 531 1
213 532 1
217 532 1
422 532 1
427 532 1
637 532 1
641 532 1
658 532 1
659 532 1
214 533 1
218 533 1
423 533 1
428 533 1
638 533 1
642 533 1
659 533 1
660 533 1
215 534 1
219 534 1
424 534 1
429 534 1
639 534 1
643 534 1
660 534 1
661 534 1
216 535 1
220 535 1
425 535 1
430 535 1
640 535 1
644 535 1
661 535 1
662 535 1
217 536 1
221 536 1
426 536 1
431 536 1
641 536 1
645 536 1
662 536 1
663 536 1
218 537 1
222 537 1
427 537 1
432 537 1
642 537 1
646 537 1
663 537 1
664 537 1
219 538 1
223 538 1
428 538 1
433 538 1
643 538 1
647 538 1
664 538 1
665 538 1
220 539 1
224 539 1
429 539 1
434 539 1
644 539 1
648 539 1
665 539 1
666 539 1
221 540 1
225 540 1
430 540 1
435 540 1
645 540 1
649 540 1
666 540 1
667 540 1
222 541 1
226 541 1
431 541 1
436 541 1
646 541 1
650 541 1
667 541 1
668 541 1
223 542 1
227 542 1
432 542 1
437 542 1
647 542 1
651 542 1
668 542 1
669 542 1
224 543 1
228 543 1
433 543 1
438 543 1
631 543 1
648 543 1
669 543 1
670 543 1
225 544 1
229 544 1
434 544 1
439 544 1
632 544 1
649 544 1
670 544 1
671 544 1
226 545 1
230 545 1
435 545 1
440 545 1
633 545 1
650 545 1
671 545 1
672 545 1
227 546 1
231 546 1
436 546 1
441 546 1
634 546 1
651 546 1
652 546 1
672 546 1
232 547 1
249 547 1
442 547 1
458 547 1
631 547 1
637 547 1
673 547 1
674 547 1
233 548 1
250 548 1
443 548 1
459 548 1
632 548 1
638 548 1
674 548 1
675 548 1
234 549 1
251 549 1
444 549 1
460 549 1
633 549 1
639 549 1
675 549 1
676 549 1
235 550 1
252 550 1
445 550 1
461 550 1
634 550 1
640 550 1
676 550 1
677 550 1
232 551 1
236 551 1
446 551 1
462 551 1
635 551 1
641 551 1
677 551 1
678 551 1
233 552 1
237 552 1
442 552 1
447 552 1
636 552 1
642 552 1
678 552 1
679 552 1
234 553 1
238 553 1
443 553 1
448 553 1
637 553 1
643 553 1
679 553 1
680 553 1
235 554 1
239 554 1
444 554 1
449 554 1
638 554 1
644 554 1
680 554 1
681 554 1
236 555 1
240 555 1
445 555 1
450 555 1
639 555 1
645 555 1
681 555 1
682 555 1
237 556 1
241 556 1
446 556 1
451 556 1
640 556 1
646 556 1
682 556 1
683 556 1
238 557 1
242 557 1
447 557 1
452 557 1
641 557 1
647 557 1
683 557 1
684 557 1
239 558 1
243 558 1
448 558 1
453 558 1
642 558 1
648 558 1
684 558 1
685 558 1
240 559 1
244 559 1
449 559 1
454 559 1
643 559 1
649 559 1
685 559 1
686 559 1
241 560 1
245 560 1
450 560 1
455 560 1
644 560 1
650 560 1
686 560 1
687 560 1
242 561 1
246 561 1
451 561 1
456 561 1
645 561 1
651 561 1
687 561 1
688 561 1
243 562 1
247 562 1
452 562 1
457 562 1
631 562 1
646 562 1
688 562 1
689 562 1
244 563 1
248 563 1
453 563 1
458 563 1
632 563 1
647 563 1
689 563 1
690 563 1
245 564 1
249 564 1
454 564 1
459 564 1
633 564 1
648 564 1
690 564 1
691 564 1
246 565 1
250 565 1
455 565 1
460 565 1
634 565 1
649 565 1
691 565 1
692 565 1
247 566 1
251 566 1
456 566 1
461 566 1
635 566 1
650 566 1
692 566 1
693 566 1
248 567 1
252 567 1
457 567 1
462 567 1
636 567 1
651 567 1
673 567 1
693 567 1
253 568 1
270 568 1
463 568 1
479 568 1
652 568 1
658 568 1
673 568 1
677 568 1
254 569 1
271 569 1
464 569 1
480 569 1
653 569 1
659 569 1
674 569 1
678 569 1
255 570 1
272 570 1
465 570 1
481 570 1
654 570 1
660 570 1
675 570 1
679 570 1
256 571 1
273 571 1
466 571 1
482 571 1
655 571 1
661 571 1
676 571 1
680 571 1
253 572 1
257 572 1
467 572 1
483 572 1
656 572 1
662 572 1
677 572 1
681 572 1
254 573 1
258 573 1
463 573 1
468 573 1
657 573 1
663 573 1
678 573 1
682 573 1
255 574 1
259 574 1
464 574 1
469 574 1
658 574 1
664 574 1
679 574 1
683 574 1
256 575 1
260 575 1
465 575 1
470 575 1
659 575 1
665 575 1
680 575 1
684 575 1
257 576 1
261 576 1
466 576 1
471 576 1
660 576 1
666 576 1
681 576 1
685 576 1
258 577 1
262 577 1
467 577 1
472 577 1
661 577 1
667 577 1
682 577 1
686 577 1
259 578 1
263 578 1
468 578 1
473 578 1
662 578 1
668 578 1
683 578 1
687 578 1
260 579 1
264 579 1
469 579 1
474 579 1
663 579 1
669 579 1
684 579 1
688 579 1
261 580 1
265 580 1
470 580 1
475 580 1
664 580 1
670 580 1
685 580 1
689 580 1
262 581 1
266 581 1
471 581 1
476 581 1
665 581 1
671 581 1
686 581 1
690 581 1
263 582 1
267 582 1
472 582 1
477 582 1
666 582 1
672 582 1
687 582 1
691 582 1
264 583 1
268 583 1
473 583 1
478 583 1
652 583 1
667 583 1
688 583 1
692 583 1
265 584 1
269 584 1
474 584 1
479 584 1
653 584 1
668 584 1
689 584 1
693 584 1
266 585 1
270 585 1
475 585 1
480 585 1
654 585 1
669 585 1
673 585 1
690 585 1
267 586 1
271 586 1
476 586 1
481 586 1
655 586 1
670 586 1
674 586 1
691 586 1
268 587 1
272 587 1
477 587 1
482 587 1
656 587 1
671 587 1
675 587 1
692 587 1
269 588 1
273 588 1
478 588 1
483 588 1
657 588 1
672 588 1
676 588 1
693 588 1
274 589 1
291 589 1
484 589 1
500 589 1
631 589 1
641 589 1
694 589 1
695 589 1
275 590 1
292 590 1
485 590 1
501 590 1
632 590 1
642 590 1
695 590 1
696 590 1
276 591 1
293 591 1
486 591 1
502 591 1
633 591 1
643 591 1
696 591 1
697 591 1
277 592 1
294 592 1
487 592 1
503 592 1
634 592 1
644 592 1
697 592 1
698 592 1
274 593 1
278 593 1
488 593 1
504 593 1
635 593 1
645 593 1
698 593 1
699 593 1
275 594 1
279 594 1
484 594 1
489 594 1
636 594 1
646 594 1
699 594 1
700 594 1
276 595 1
280 595 1
485 595 1
490 595 1
637 595 1
647 595 1
700 595 1
701 595 1
277 596 1
281 596 1
486 596 1
491 596 1
638 596 1
648 596 1
701 596 1
702 596 1
278 597 1
282 597 1
487 597 1
492 597 1
639 597 1
649 597 1
702 597 1
703 597 1
279 598 1
283 598 1
488 598 1
493 598 1
640 598 1
650 598 1
703 598 1
704 598 1
280 599 1
284 599 1
489 599 1
494 599 1
641 599 1
651 599 1
704 599 1
705 599 1
281 600 1
285 600 1
490 600 1
495 600 1
631 600 1
642 600 1
705 600 1
706 600 1
282 601 1
286 601 1
491 601 1
496 601 1
632 601 1
643 601 1
706 601 1
707 601 1
283 602 1
287 602 1
492 602 1
497 602 1
633 602 1
644 602 1
707 602 1
708 602 1
284 603 1
288 603 1
493 603 1
498 603 1
634 603 1
645 603 1
708 603 1
709 603 1
285 604 1
289 604 1
494 604 1
499 604 1
635 604 1
646 604 1
709 604 1
710 604 1
286 605 1
290 605 1
495 605 1
500 605 1
636 605 1
647 605 1
710 605 1
711 605 1
287 606 1
291 606 1
496 606 1
501 606 1
637 606 1
648 606 1
711 606 1
712 606 1
288 607 1
292 607 1
497 607 1
502 607 1
638 607 1
649 607 1
712 607 1
713 607 1
289 608 1
293 608 1
498 608 1
503 608 1
639 608 1
650 608 1
713 608 1
714 608 1
290 609 1
294 609 1
499 609 1
504 609 1
640 609 1
651 609 1
694 609 1
714 609 1
295 610 1
312 610 1
505 610 1
521 610 1
652 610 1
662 610 1
694 610 1
698 610 1
296 611 1
313 611 1
506 611 1
522 611 1
653 611 1
663 611 1
695 611 1
699 611 1
297 612 1
314 612 1
507 612 1
523 612 1
654 612 1
664 612 1
696 612 1
700 612 1
298 613 1
315 613 1
508 613 1
524 613 1
655 613 1
665 613 1
697 613 1
701 613 1
295 614 1
299 614 1
509 614 1
525 614 1
656 614 1
666 614 1
698 614 1
702 614 1
296 615 1
300 615 1
505 615 1
510 615 1
657 615 1
667 615 1
699 615 1
703 615 1
297 616 1
301 616 1
506 616 1
511 616 1
658 616 1
668 616 1
700 616 1
704 616 1
298 617 1
302 617 1
507 617 1
512 617 1
659 617 1
669 617 1
701 617 1
705 617 1
299 618 1
303 618 1
508 618 1
513 618 1
660 618 1
670 618 1
702 618 1
706 618 1
300 619 1
304 619 1
509 619 1
514 619 1
661 619 1
671 619 1
703 619 1
707 619 1
301 620 1
305 620 1
510 620 1
515 620 1
662 620 1
672 620 1
704 620 1
708 620 1
302 621 1
306 621 1
511 621 1
516 621 1
652 621 1
663 621 1
705 621 1
709 621 1
303 622 1
307 622 1
512 622 1
517 622 1
653 622 1
664 622 1
706 622 1
710 622 1
304 623 1
308 623 1
513 623 1
518 623 1
654 623 1
665 623 1
707 623 1
711 623 1
305 624 1
309 624 1
514 624 1
519 624 1
655 624 1
666 624 1
708 624 1
712 624 1
306 625 1
310 625 1
515 625 1
520 625 1
656 625 1
667 625 1
709 625 1
713 625 1
307 626 1
311 626 1
516 626 1
521 626 1
657 626 1
668 626 1
710 626 1
714 626 1
308 627 1
312 627 1
517 627 1
522 627 1
658 627 1
669 627 1
694 627 1
711 627 1
309 628 1
313 628 1
518 628 1
523 628 1
659 628 1
670 628 1
695 628 1
712 628 1
310 629 1
314 629 1
519 629 1
524 629 1
660 629 1
671 629 1
696 629 1
713 629 1
311 630 1
315 630 1
520 630 1
525 630 1
661 630 1
672 630 1
697 630 1
714 630 1
316 631 1
333 631 1
526 631 1
542 631 1
673 631 1
683 631 1
694 631 1
700 631 1
317 632 1
334 632 1
527 632 1
543 632 1
674 632 1
684 632 1
695 632 1
701 632 1
318 633 1
335 633 1
528 633 1
544 633 1
675 633 1
685 633 1
696 633 1
702 633 1
319 634 1
336 634 1
529 634 1
545 634 1
676 634 1
686 634 1
697 634 1
703 634 1
316 635 1
320 635 1
530 635 1
546 635 1
677 635 1
687 635 1
698 635 1
704 635 1
317 636 1
321 636 1
526 636 1
531 636 1
678 636 1
688 636 1
699 636 1
705 636 1
318 637 1
322 637 1
527 637 1
532 637 1
679 637 1
689 637 1
700 637 1
706 637 1
319 638 1
323 638 1
528 638 1
533 638 1
680 638 1
690 638 1
701 638 1
707 638 1
320 639 1
324 639 1
529 639 1
534 639 1
681 639 1
691 639 1
702 639 1
708 639 1
321 640 1
325 640 1
530 640 1
535 640 1
682 640 1
692 640 1
703 640 1
709 640 1
322 641 1
326 641 1
531 641 1
536 641 1
683 641 1
693 641 1
704 641 1
710 641 1
323 642 1
327 642 1
532 642 1
537 642 1
673 642 1
684 642 1
705 642 1
711 642 1
324 643 1
328 643 1
533 643 1
538 643 1
674 643 1
685 643 1
706 643 1
712 643 1
325 644 1
329 644 1
534 644 1
539 644 1
675 644 1
686 644 1
707 644 1
713 644 1
326 645 1
330 645 1
535 645 1
540 645 1
676 645 1
687 645 1
708 645 1
714 645 1
327 646 1
331 646 1
536 646 1
541 646 1
677 646 1
688 646 1
694 646 1
709 646 1
328 647 1
332 647 1
537 647 1
542 647 1
678 647 1
689 647 1
695 647 1
710 647 1
329 648 1
333 648 1
538 648 1
543 648 1
679 648 1
690 648 1
696 648 1
711 648 1
330 649 1
334 649 1
539 649 1
544 649 1
680 649 1
691 649 1
697 649 1
712 649 1
331 650 1
335 650 1
540 650 1
545 650 1
681 650 1
692 650 1
698 650 1
713 650 1
332 651 1
336 651 1
541 651 1
546 651 1
682 651 1
693 651 1
699 651 1
714 651 1
337 652 1
354 652 1
547 652 1
563 652 1
631 652 1
643 652 1
715 652 1
716 652 1
338 653 1
355 653 1
548 653 1
564 653 1
632 653 1
644 653 1
716 653 1
717 653 1
339 654 1
356 654 1
549 654 1
565 654 1
633 654 1
645 654 1
717 654 1
718 654 1
340 655 1
357 655 1
550 655 1
566 655 1
634 655 1
646 655 1
718 655 1
719 655 1
337 656 1
341 656 1
551 656 1
567 656 1
635 656 1
647 656 1
719 656 1
720 656 1
338 657 1
342 657 1
547 657 1
552 657 1
636 657 1
648 657 1
720 657 1
721 657 1
339 658 1
343 658 1
548 658 1
553 658 1
637 658 1
649 658 1
721 658 1
722 658 1
340 659 1
344 659 1
549 659 1
554 659 1
638 659 1
650 659 1
722 659 1
723 659 1
341 660 1
345 660 1
550 660 1
555 660 1
639 660 1
651 660 1
723 660 1
724 660 1
342 661 1
346 661 1
551 661 1
556 661 1
631 661 1
640 661 1
724 661 1
725 661 1
343 662 1
347 662 1
552 662 1
557 662 1
632 662 1
641 662 1
725 662 1
726 662 1
344 663 1
348 663 1
553 663 1
558 663 1
633 663 1
642 663 1
726 663 1
727 663 1
345 664 1
349 664 1
554 664 1
559 664 1
634 664 1
643 664 1
727 664 1
728 664 1
346 665 1
350 665 1
555 665 1
560 665 1
635 665 1
644 665 1
728 665 1
729 665 1
347 666 1
351 666 1
556 666 1
561 666 1
636 666 1
645 666 1
729 666 1
730 666 1
348 667 1
352 667 1
557 667 1
562 667 1
637 667 1
646 667 1
730 667 1
731 667 1
349 668 1
353 668 1
558 668 1
563 668 1
638 668 1
647 668 1
731 668 1
732 668 1
350 669 1
354 669 1
559 669 1
564 669 1
639 669 1
648 669 1
732 669 1
733 669 1
351 670 1
355 670 1
560 670 1
565 670 1
640 670 1
649 670 1
733 670 1
734 670 1
352 671 1
356 671 1
561 671 1
566 671 1
641 671 1
650 671 1
734 671 1
735 671 1
353 672 1
357 672 1
562 672 1
567 672 1
642 672 1
651 672 1
715 672 1
735 672 1
358 673 1
375 673 1
568 673 1
584 673 1
652 673 1
664 673 1
715 673 1
719 673 1
359 674 1
376 674 1
569 674 1
585 674 1
653 674 1
665 674 1
716 674 1
720 674 1
360 675 1
377 675 1
570 675 1
586 675 1
654 675 1
666 675 1
717 675 1
721 675 1
361 676 1
378 676 1
571 676 1
587 676 1
655 676 1
667 676 1
718 676 1
722 676 1
358 677 1
362 677 1
572 677 1
588 677 1
656 677 1
668 677 1
719 677 1
723 677 1
359 678 1
363 678 1
568 678 1
573 678 1
657 678 1
669 678 1
720 678 1
724 678 1
360 679 1
364 679 1
569 679 1
574 679 1
658 679 1
670 679 1
721 679 1
725 679 1
361 680 1
365 680 1
570 680 1
575 680 1
659 680 1
671 680 1
722 680 1
726 680 1
362 681 1
366 681 1
571 681 1
576 681 1
660 681 1
672 681 1
723 681 1
727 681 1
363 682 1
367 682 1
572 682 1
577 682 1
652 682 1
661 682 1
724 682 1
728 682 1
364 683 1
368 683 1
573 683 1
578 683 1
653 683 1
662 683 1
725 683 1
729 683 1
365 684 1
369 684 1
574 684 1
579 684 1
654 684 1
663 684 1
726 684 1
730 684 1
366 685 1
370 685 1
575 685 1
580 685 1
655 685 1
664 685 1
727 685 1
731 685 1
367 686 1
371 686 1
576 686 1
581 686 1
656 686 1
665 686 1
728 686 1
732 686 1
368 687 1
372 687 1
577 687 1
582 687 1
657 687 1
666 687 1
729 687 1
733 687 1
369 688 1
373 688 1
578 688 1
583 688 1
658 688 1
667 688 1
730 688 1
734 688 1
370 689 1
374 689 1
579 689 1
584 689 1
659 689 1
668 689 1
731 689 1
735 689 1
371 690 1
375 690 1
580 690 1
585 690 1
660 690 1
669 690 1
715 690 1
732 690 1
372 691 1
376 691 1
581 691 1
586 691 1
661 691 1
670 691 1
716 691 1
733 691 1
373 692 1
377 692 1
582 692 1
587 692 1
662 692 1
671 692 1
717 692 1
734 692 1
374 693 1
378 693 1
583 693 1
588 693 1
663 693 1
672 693 1
718 693 1
735 693 1
379 694 1
396 694 1
589 694 1
605 694 1
673 694 1
685 694 1
715 694 1
721 694 1
380 695 1
397 695 1
590 695 1
606 695 1
674 695 1
686 695 1
716 695 1
722 695 1
381 696 1
398 696 1
591 696 1
607 696 1
675 696 1
687 696 1
717 696 1
723 696 1
382 697 1
399 697 1
592 697 1
608 697 1
676 697 1
688 697 1
718 697 1
724 697 1
379 698 1
383 698 1
593 698 1
609 698 1
677 698 1
689 698 1
719 698 1
725 698 1
380 699 1
384 699 1
589 699 1
594 699 1
678 699 1
690 699 1
720 699 1
726 699 1
381 700 1
385 700 1
590 700 1
595 700 1
679 700 1
691 700 1
721 700 1
727 700 1
382 701 1
386 701 1
591 701 1
596 701 1
680 701 1
692 701 1
722 701 1
728 701 1
383 702 1
387 702 1
592 702 1
597 702 1
681 702 1
693 702 1
723 702 1
729 702 1
384 703 1
388 703 1
593 703 1
598 703 1
673 703 1
682 703 1
724 703 1
730 703 1
385 704 1
389 704 1
594 704 1
599 704 1
674 704 1
683 704 1
725 704 1
731 704 1
386 705 1
390 705 1
595 705 1
600 705 1
675 705 1
684 705 1
726 705 1
732 705 1
387 706 1
391 706 1
596 706 1
601 706 1
676 706 1
685 706 1
727 706 1
733 706 1
388 707 1
392 707 1
597 707 1
602 707 1
677 707 1
686 707 1
728 707 1
734 707 1
389 708 1
393 708 1
598 708 1
603 708 1
678 708 1
687 708 1
729 708 1
735 708 1
390 709 1
394 709 1
599 709 1
604 709 1
679 709 1
688 709 1
715 709 1
730 709 1
391 710 1
395 710 1
600 710 1
605 710 1
680 710 1
689 710 1
716 710 1
731 710 1
392 711 1
396 711 1
601 711 1
606 711 1
681 711 1
690 711 1
717 711 1
732 711 1
393 712 1
397 712 1
602 712 1
607 712 1
682 712 1
691 712 1
718 712 1
733 712 1
394 713 1
398 713 1
603 713 1
608 713 1
683 713 1
692 713 1
719 713 1
734 713 1
395 714 1
399 714 1
604 714 1
609 714 1
684 714 1
693 714 1
720 714 1
735 714 1
400 715 1
417 715 1
610 715 1
626 715 1
694 715 1
706 715 1
715 715 1
725 715 1
401 716 1
418 716 1
611 716 1
627 716 1
695 716 1
707 716 1
716 716 1
726 716 1
402 717 1
419 717 1
612 717 1
628 717 1
696 717 1
708 717 1
717 717 1
727 717 1
403 718 1
420 718 1
613 718 1
629 718 1
697 718 1
709 718 1
718 718 1
728 718 1
400 719 1
404 719 1
614 719 1
630 719 1
698 719 1
710 719 1
719 719 1
729 719 1
401 720 1
405 720 1
610 720 1
615 720 1
699 720 1
711 720 1
720 720 1
730 720 1
402 721 1
406 721 1
611 721 1
616 721 1
700 721 1
712 721 1
721 721 1
731 721 1
403 722 1
407 722 1
612 722 1
617 722 1
701 722 1
713 722 1
722 722 1
732 722 1
404 723 1
408 723 1
613 723 1
618 723 1
702 723 1
714 723 1
723 723 1
733 723 1
405 724 1
409 724 1
614 724 1
619 724 1
694 724 1
703 724 1
724 724 1
734 724 1
406 725 1
410 725 1
615 725 1
620 725 1
695 725 1
704 725 1
725 725 1
735 725 1
407 726 1
411 726 1
616 726 1
621 726 1
696 726 1
705 726 1
715 726 1
726 726 1
408 727 1
412 727 1
617 727 1
622 727 1
697 727 1
706 727 1
716 727 1
727 727 1
409 728 1
413 728 1
618 728 1
623 728 1
698 728 1
707 728 1
717 728 1
728 728 1
410 729 1
414 729 1
619 729 1
624 729 1
699 729 1
708 729 1
718 729 1
729 729 1
411 730 1
415 730 1
620 730 1
625 730 1
700 730 1
709 730 1
719 730 1
730 730 1
412 731 1
416 731 1
621 731 1
626 731 1
701 731 1
710 731 1
720 731 1
731 731 1
413 732 1
417 732 1
622 732 1
627 732 1
702 732 1
711 732 1
721 732 1
732 732 1
414 733 1
418 733 1
623 733 1
628 733 1
703 733 1
712 733 1
722 733 1
733 733 1
415 734 1
419 734 1
624 734 1
629 734 1
704 734 1
713 734 1
723 734 1
734 734 1
416 735 1
420 735 1
625 735 1
630 735 1
705 735 1
714 735 1
724 735 1
735 735 1
1 736 1
20 736 1
736 736 1
742 736 1
757 736 1
761 736 1
778 736 1
779 736 1
2 737 1
21 737 1
737 737 1
743 737 1
758 737 1
762 737 1
779 737 1
780 737 1
1 738 1
3 738 1
738 738 1
744 738 1
759 738 1
763 738 1
780 738 1
781 738 1
2 739 1
4 739 1
739 739 1
745 739 1
760 739 1
764 739 1
781 739 1
782 739 1
3 740 1
5 740 1
740 740 1
746 740 1
761 740 1
765 740 1
782 740 1
783 740 1
4 741 1
6 741 1
741 741 1
747 741 1
762 741 1
766 741 1
783 741 1
784 741 1
5 742 1
7 742 1
742 742 1
748 742 1
763 742 1
767 742 1
784 742 1
785 742 1
6 743 1
8 743 1
743 743 1
749 743 1
764 743 1
768 743 1
785 743 1
786 743 1
7 744 1
9 744 1
744 744 1
750 744 1
765 744 1
769 744 1
786 744 1
787 744 1
8 745 1
10 745 1
745 745 1
751 745 1
766 745 1
770 745 1
787 745 1
788 745 1
9 746 1
11 746 1
746 746 1
752 746 1
767 746 1
771 746 1
788 746 1
789 746 1
10 747 1
12 747 1
747 747 1
753 747 1
768 747 1
772 747 1
789 747 1
790 747 1
11 748 1
13 748 1
748 748 1
754 748 1
769 748 1
773 748 1
790 748 1
791 748 1
12 749 1
14 749 1
749 749 1
755 749 1
770 749 1
774 749 1
791 749 1
792 749 1
13 750 1
15 750 1
750 750 1
756 750 1
771 750 1
775 750 1
792 750 1
793 750 1
14 751 1
16 751 1
736 751 1
751 751 1
772 751 1
776 751 1
793 751 1
794 751 1
15 752 1
17 752 1
737 752 1
752 752 1
773 752 1
777 752 1
794 752 1
795 752 1
16 753 1
18 753 1
738 753 1
753 753 1
757 753 1
774 753 1
795 753 1
796 753 1
17 754 1
19 754 1
739 754 1
754 754 1
758 754 1
775 754 1
796 754 1
797 754 1
18 755 1
20 755 1
740 755 1
755 755 1
759 755 1
776 755 1
797 755 1
798 755 1
19 756 1
21 756 1
741 756 1
756 756 1
760 756 1
777 756 1
778 756 1
798 756 1
22 757 1
41 757 1
736 757 1
746 757 1
799 757 1
803 757 1
820 757 1
821 757 1
23 758 1
42 758 1
737 758 1
747 758 1
800 758 1
804 758 1
821 758 1
822 758 1
22 759 1
24 759 1
738 759 1
748 759 1
801 759 1
805 759 1
822 759 1
823 759 1
23 760 1
25 760 1
739 760 1
749 760 1
802 760 1
806 760 1
823 760 1
824 760 1
24 761 1
26 761 1
740 761 1
750 761 1
803 761 1
807 761 1
824 761 1
825 761 1
25 762 1
27 762 1
741 762 1
751 762 1
804 762 1
808 762 1
825 762 1
826 762 1
26 763 1
28 763 1
742 763 1
752 763 1
805 763 1
809 763 1
826 763 1
827 763 1
27 764 1
29 764 1
743 764 1
753 764 1
806 764 1
810 764 1
827 764 1
828 764 1
28 765 1
30 765 1
744 765 1
754 765 1
807 765 1
811 765 1
828 765 1
829 765 1
29 766 1
31 766 1
745 766 1
755 766 1
808 766 1
812 766 1
829 766 1
830 766 1
30 767 1
32 767 1
746 767 1
756 767 1
809 767 1
813 767 1
830 767 1
831 767 1
31 768 1
33 768 1
736 768 1
747 768 1
810 768 1
814 768 1
831 768 1
832 768 1
32 769 1
34 769 1
737 769 1
748 769 1
811 769 1
815 769 1
832 769 1
833 769 1
33 770 1
35 770 1
738 770 1
749 770 1
812 770 1
816 770 1
833 770 1
834 770 1
34 771 1
36 771 1
739 771 1
750 771 1
813 771 1
817 771 1
834 771 1
835 771 1
35 772 1
37 772 1
740 772 1
751 772 1
814 772 1
818 772 1
835 772 1
836 772 1
36 773 1
38 773 1
741 773 1
752 773 1
815 773 1
819 773 1
836 773 1
837 773 1
37 774 1
39 774 1
742 774 1
753 774 1
799 774 1
816 774 1
837 774 1
838 774 1
38 775 1
40 775 1
743 775 1
754 775 1
800 775 1
817 775 1
838 775 1
839 775 1
39 776 1
41 776 1
744 776 1
755 776 1
801 776 1
818 776 1
839 776 1
840 776 1
40 777 1
42 777 1
745 777 1
756 777 1
802 777 1
819 777 1
820 777 1
840 777 1
43 778 1
62 778 1
757 778 1
767 778 1
799 778 1
805 778 1
841 778 1
842 778 1
44 779 1
63 779 1
758 779 1
768 779 1
800 779 1
806 779 1
842 779 1
843 779 1
43 780 1
45 780 1
759 780 1
769 780 1
801 780 1
807 780 1
843 780 1
844 780 1
44 781 1
46 781 1
760 781 1
770 781 1
802 781 1
808 781 1
844 781 1
845 781 1
45 782 1
47 782 1
761 782 1
771 782 1
803 782 1
809 782 1
845 782 1
846 782 1
46 783 1
48 783 1
762 783 1
772 783 1
804 783 1
810 783 1
846 783 1
847 783 1
47 784 1
49 784 1
763 784 1
773 784 1
805 784 1
811 784 1
847 784 1
848 784 1
48 785 1
50 785 1
764 785 1
774 785 1
806 785 1
812 785 1
848 785 1
849 785 1
49 786 1
51 786 1
765 786 1
775 786 1
807 786 1
813 786 1
849 786 1
850 786 1
50 787 1
52 787 1
766 787 1
776 787 1
808 787 1
814 787 1
850 787 1
851 787 1
51 788 1
53 788 1
767 788 1
777 788 1
809 788 1
815 788 1
851 788 1
852 788 1
52 789 1
54 789 1
757 789 1
768 789 1
810 789 1
816 789 1
852 789 1
853 789 1
53 790 1
55 790 1
758 790 1
769 790 1
811 790 1
817 790 1
853 790 1
854 790 1
54 791 1
56 791 1
759 791 1
770 791 1
812 791 1
818 791 1
854 791 1
855 791 1
55 792 1
57 792 1
760 792 1
771 792 1
813 792 1
819 792 1
855 792 1
856 792 1
56 793 1
58 793 1
761 793 1
772 793 1
799 793 1
814 793 1
856 793 1
857 793 1
57 794 1
59 794 1
762 794 1
773 794 1
800 794 1
815 794 1
857 794 1
858 794 1
58 795 1
60 795 1
763 795 1
774 795 1
801 795 1
816 795 1
858 795 1
859 795 1
59 796 1
61 796 1
764 796 1
775 796 1
802 796 1
817 796 1
859 796 1
860 796 1
60 797 1
62 797 1
765 797 1
776 797 1
803 797 1
818 797 1
860 797 1
861 797 1
61 798 1
63 798 1
766 798 1
777 798 1
804 798 1
819 798 1
841 798 1
861 798 1
64 799 1
83 799 1
778 799 1
788 799 1
820 799 1
826 799 1
841 799 1
845 799 1
65 800 1
84 800 1
779 800 1
789 800 1
821 800 1
827 800 1
842 800 1
846 800 1
64 801 1
66 801 1
780 801 1
790 801 1
822 801 1
828 801 1
843 801 1
847 801 1
65 802 1
67 802 1
781 802 1
791 802 1
823 802 1
829 802 1
844 802 1
848 802 1
66 803 1
68 803 1
782 803 1
792 803 1
824 803 1
830 803 1
845 803 1
849 803 1
67 804 1
69 804 1
783 804 1
793 804 1
825 804 1
831 804 1
846 804 1
850 804 1
68 805 1
70 805 1
784 805 1
794 805 1
826 805 1
832 805 1
847 805 1
851 805 1
69 806 1
71 806 1
785 806 1
795 806 1
827 806 1
833 806 1
848 806 1
852 806 1
70 807 1
72 807 1
786 807 1
796 807 1
828 807 1
834 807 1
849 807 1
853 807 1
71 808 1
73 808 1
787 808 1
797 808 1
829 808 1
835 808 1
850 808 1
854 808 1
72 809 1
74 809 1
788 809 1
798 809 1
830 809 1
836 809 1
851 809 1
855 809 1
73 810 1
75 810 1
778 810 1
789 810 1
831 810 1
837 810 1
852 810 1
856 810 1
74 811 1
76 811 1
779 811 1
790 811 1
832 811 1
838 811 1
853 811 1
857 811 1
75 812 1
77 812 1
780 812 1
791 812 1
833 812 1
839 812 1
854 812 1
858 812 1
76 813 1
78 813 1
781 813 1
792 813 1
834 813 1
840 813 1
855 813 1
859 813 1
77 814 1
79 814 1
782 814 1
793 814 1
820 814 1
835 814 1
856 814 1
860 814 1
78 815 1
80 815 1
783 815 1
794 815 1
821 815 1
836 815 1
857 815 1
861 815 1
79 816 1
81 816 1
784 816 1
795 816 1
822 816 1
837 816 1
841 816 1
858 816 1
80 817 1
82 817 1
785 817 1
796 817 1
823 817 1
838 817 1
842 817 1
859 817 1
81 818 1
83 818 1
786 818 1
797 818 1
824 818 1
839 818 1
843 818 1
860 818 1
82 819 1
84 819 1
787 819 1
798 819 1
825 819 1
840 819 1
844 819 1
861 819 1
85 820 1
104 820 1
736 820 1
748 820 1
862 820 1
866 820 1
883 820 1
884 820 1
86 821 1
105 821 1
737 821 1
749 821 1
863 821 1
867 821 1
884 821 1
885 821 1
85 822 1
87 822 1
738 822 1
750 822 1
864 822 1
868 822 1
885 822 1
886 822 1
86 823 1
88 823 1
739 823 1
751 823 1
865 823 1
869 823 1
886 823 1
887 823 1
87 824 1
89 824 1
740 824 1
752 824 1
866 824 1
870 824 1
887 824 1
888 824 1
88 825 1
90 825 1
741 825 1
753 825 1
867 825 1
871 825 1
888 825 1
889 825 1
89 826 1
91 826 1
742 826 1
754 826 1
868 826 1
872 826 1
889 826 1
890 826 1
90 827 1
92 827 1
743 827 1
755 827 1
869 827 1
873 827 1
890 827 1
891 827 1
91 828 1
93 828 1
744 828 1
756 828 1
870 828 1
874 828 1
891 828 1
892 828 1
92 829 1
94 829 1
736 829 1
745 829 1
871 829 1
875 829 1
892 829 1
893 829 1
93 830 1
95 830 1
737 830 1
746 830 1
872 830 1
876 830 1
893 830 1
894 830 1
94 831 1
96 831 1
738 831 1
747 831 1
873 831 1
877 831 1
894 831 1
895 831 1
95 832 1
97 832 1
739 832 1
748 832 1
874 832 1
878 832 1
895 832 1
896 832 1
96 833 1
98 833 1
740 833 1
749 833 1
875 833 1
879 833 1
896 833 1
897 833 1
97 834 1
99 834 1
741 834 1
750 834 1
876 834 1
880 834 1
897 834 1
898 834 1
98 835 1
100 835 1
742 835 1
751 835 1
877 835 1
881 835 1
898 835 1
899 835 1
99 836 1
101 836 1
743 836 1
752 836 1
878 836 1
882 836 1
899 836 1
900 836 1
100 837 1
102 837 1
744 837 1
753 837 1
862 837 1
879 837 1
900 837 1
901 837 1
101 838 1
103 838 1
745 838 1
754 838 1
863 838 1
880 838 1
901 838 1
902 838 1
102 839 1
104 839 1
746 839 1
755 839 1
864 839 1
881 839 1
902 839 1
903 839 1
103 840 1
105 840 1
747 840 1
756 840 1
865 840 1
882 840 1
883 840 1
903 840 1
106 841 1
125 841 1
757 841 1
769 841 1
862 841 1
868 841 1
904 841 1
905 841 1
107 842 1
126 842 1
758 842 1
770 842 1
863 842 1
869 842 1
905 842 1
906 842 1
106 843 1
108 843 1
759 843 1
771 843 1
864 843 1
870 843 1
906 843 1
907 843 1
107 844 1
109 844 1
760 844 1
772 844 1
865 844 1
871 844 1
907 844 1
908 844 1
108 845 1
110 845 1
761 845 1
773 845 1
866 845 1
872 845 1
908 845 1
909 845 1
109 846 1
111 846 1
762 846 1
774 846 1
867 846 1
873 846 1
909 846 1
910 846 1
110 847 1
112 847 1
763 847 1
775 847 1
868 847 1
874 847 1
910 847 1
911 847 1
111 848 1
113 848 1
764 848 1
776 848 1
869 848 1
875 848 1
911 848 1
912 848 1
112 849 1
114 849 1
765 849 1
777 849 1
870 849 1
876 849 1
912 849 1
913 849 1
113 850 1
115 850 1
757 850 1
766 850 1
871 850 1
877 850 1
913 850 1
914 850 1
114 851 1
116 851 1
758 851 1
767 851 1
872 851 1
878 851 1
914 851 1
915 851 1
115 852 1
117 852 1
759 852 1
768 852 1
873 852 1
879 852 1
915 852 1
916 852 1
116 853 1
118 853 1
760 853 1
769 853 1
874 853 1
880 853 1
916 853 1
917 853 1
117 854 1
119 854 1
761 854 1
770 854 1
875 854 1
881 854 1
917 854 1
918 854 1
118 855 1
120 855 1
762 855 1
771 855 1
876 855 1
882 855 1
918 855 1
919 855 1
119 856 1
121 856 1
763 856 1
772 856 1
862 856 1
877 856 1
919 856 1
920 856 1
120 857 1
122 857 1
764 857 1
773 857 1
863 857 1
878 857 1
920 857 1
921 857 1
121 858 1
123 858 1
765 858 1
774 858 1
864 858 1
879 858 1
921 858 1
922 858 1
122 859 1
124 859 1
766 859 1
775 859 1
865 859 1
880 859 1
922 859 1
923 859 1
123 860 1
125 860 1
767 860 1
776 860 1
866 860 1
881 860 1
923 860 1
924 860 1
124 861 1
126 861 1
768 861 1
777 861 1
867 861 1
882 861 1
904 861 1
924 861 1
127 862 1
146 862 1
778 862 1
790 862 1
883 862 1
889 862 1
904 862 1
908 862 1
128 863 1
147 863 1
779 863 1
791 863 1
884 863 1
890 863 1
905 863 1
909 863 1
127 864 1
129 864 1
780 864 1
792 864 1
885 864 1
891 864 1
906 864 1
910 864 1
128 865 1
130 865 1
781 865 1
793 865 1
886 865 1
892 865 1
907 865 1
911 865 1
129 866 1
131 866 1
782 866 1
794 866 1
887 866 1
893 866 1
908 866 1
912 866 1
130 867 1
132 867 1
783 867 1
795 867 1
888 867 1
894 867 1
909 867 1
913 867 1
131 868 1
133 868 1
784 868 1
796 868 1
889 868 1
895 868 1
910 868 1
914 868 1
132 869 1
134 869 1
785 869 1
797 869 1
890 869 1
896 869 1
911 869 1
915 869 1
133 870 1
135 870 1
786 870 1
798 870 1
891 870 1
897 870 1
912 870 1
916 870 1
134 871 1
136 871 1
778 871 1
787 871 1
892 871 1
898 871 1
913 871 1
917 871 1
135 872 1
137 872 1
779 872 1
788 872 1
893 872 1
899 872 1
914 872 1
918 872 1
136 873 1
138 873 1
780 873 1
789 873 1
894 873 1
900 873 1
915 873 1
919 873 1
137 874 1
139 874 1
781 874 1
790 874 1
895 874 1
901 874 1
916 874 1
920 874 1
138 875 1
140 875 1
782 875 1
791 875 1
896 875 1
902 875 1
917 875 1
921 875 1
139 876 1
141 876 1
783 876 1
792 876 1
897 876 1
903 876 1
918 876 1
922 876 1
140 877 1
142 877 1
784 877 1
793 877 1
883 877 1
898 877 1
919 877 1
923 877 1
141 878 1
143 878 1
785 878 1
794 878 1
884 878 1
899 878 1
920 878 1
924 878 1
142 879 1
144 879 1
786 879 1
795 879 1
885 879 1
900 879 1
904 879 1
921 879 1
143 880 1
145 880 1
787 880 1
796 880 1
886 880 1
901 880 1
905 880 1
922 880 1
144 881 1
146 881 1
788 881 1
797 881 1
887 881 1
902 881 1
906 881 1
923 881 1
145 882 1
147 882 1
789 882 1
798 882 1
888 882 1
903 882 1
907 882 1
924 882 1
148 883 1
167 883 1
799 883 1
811 883 1
862 883 1
872 883 1
925 883 1
926 883 1
149 884 1
168 884 1
800 884 1
812 884 1
863 884 1
873 884 1
926 884 1
927 884 1
148 885 1
150 885 1
801 885 1
813 885 1
864 885 1
874 885 1
927 885 1
928 885 1
149 886 1
151 886 1
802 886 1
814 886 1
865 886 1
875 886 1
928 886 1
929 886 1
150 887 1
152 887 1
803 887 1
815 887 1
866 887 1
876 887 1
929 887 1
930 887 1
151 888 1
153 888 1
804 888 1
816 888 1
867 888 1
877 888 1
930 888 1
931 888 1
152 889 1
154 889 1
805 889 1
817 889 1
868 889 1
878 889 1
931 889 1
932 889 1
153 890 1
155 890 1
806 890 1
818 890 1
869 890 1
879 890 1
932 890 1
933 890 1
154 891 1
156 891 1
807 891 1
819 891 1
870 891 1
880 891 1
933 891 1
934 891 1
155 892 1
157 892 1
799 892 1
808 892 1
871 892 1
881 892 1
934 892 1
935 892 1
156 893 1
158 893 1
800 893 1
809 893 1
872 893 1
882 893 1
935 893 1
936 893 1
157 894 1
159 894 1
801 894 1
810 894 1
862 894 1
873 894 1
936 894 1
937 894 1
158 895 1
160 895 1
802 895 1
811 895 1
863 895 1
874 895 1
937 895 1
938 895 1
159 896 1
161 896 1
803 896 1
812 896 1
864 896 1
875 896 1
938 896 1
939 896 1
160 897 1
162 897 1
804 897 1
813 897 1
865 897 1
876 897 1
939 897 1
940 897 1
161 898 1
163 898 1
805 898 1
814 898 1
866 898 1
877 898 1
940 898 1
941 898 1
162 899 1
164 899 1
806 899 1
815 899 1
867 899 1
878 899 1
941 899 1
942 899 1
163 900 1
165 900 1
807 900 1
816 900 1
868 900 1
879 900 1
942 900 1
943 900 1
164 901 1
166 901 1
808 901 1
817 901 1
869 901 1
880 901 1
943 901 1
944 901 1
165 902 1
167 902 1
809 902 1
818 902 1
870 902 1
881 902 1
944 902 1
945 902 1
166 903 1
168 903 1
810 903 1
819 903 1
871 903 1
882 903 1
925 903 1
945 903 1
169 904 1
188 904 1
820 904 1
832 904 1
883 904 1
893 904 1
925 904 1
929 904 1
170 905 1
189 905 1
821 905 1
833 905 1
884 905 1
894 905 1
926 905 1
930 905 1
169 906 1
171 906 1
822 906 1
834 906 1
885 906 1
895 906 1
927 906 1
931 906 1
170 907 1
172 907 1
823 907 1
835 907 1
886 907 1
896 907 1
928 907 1
932 907 1
171 908 1
173 908 1
824 908 1
836 908 1
887 908 1
897 908 1
929 908 1
933 908 1
172 909 1
174 909 1
825 909 1
837 909 1
888 909 1
898 909 1
930 909 1
934 909 1
173 910 1
175 910 1
826 910 1
838 910 1
889 910 1
899 910 1
931 910 1
935 910 1
174 911 1
176 911 1
827 911 1
839 911 1
890 911 1
900 911 1
932 911 1
936 911 1
175 912 1
177 912 1
828 912 1
840 912 1
891 912 1
901 912 1
933 912 1
937 912 1
176 913 1
178 913 1
820 913 1
829 913 1
892 913 1
902 913 1
934 913 1
938 913 1
177 914 1
179 914 1
821 914 1
830 914 1
893 914 1
903 914 1
935 914 1
939 914 1
178 915 1
180 915 1
822 915 1
831 915 1
883 915 1
894 915 1
936 915 1
940 915 1
179 916 1
181 916 1
823 916 1
832 916 1
884 916 1
895 916 1
937 916 1
941 916 1
180 917 1
182 917 1
824 917 1
833 917 1
885 917 1
896 917 1
938 917 1
942 917 1
181 918 1
183 918 1
825 918 1
834 918 1
886 918 1
897 918 1
939 918 1
943 918 1
182 919 1
184 919 1
826 919 1
835 919 1
887 919 1
898 919 1
940 919 1
944 919 1
183 920 1
185 920 1
827 920 1
836 920 1
888 920 1
899 920 1
941 920 1
945 920 1
184 921 1
186 921 1
828 921 1
837 921 1
889 921 1
900 921 1
925 921 1
942 921 1
185 922 1
187 922 1
829 922 1
838 922 1
890 922 1
901 922 1
926 922 1
943 922 1
186 923 1
188 923 1
830 923 1
839 923 1
891 923 1
902 923 1
927 923 1
944 923 1
187 924 1
189 924 1
831 924 1
840 924 1
892 924 1
903 924 1
928 924 1
945 924 1
190 925 1
209 925 1
841 925 1
853 925 1
904 925 1
914 925 1
925 925 1
931 925 1
191 926 1
210 926 1
842 926 1
854 926 1
905 926 1
915 926 1
926 926 1
932 926 1
190 927 1
192 927 1
843 927 1
855 927 1
906 927 1
916 927 1
927 927 1
933 927 1
191 928 1
193 928 1
844 928 1
856 928 1
907 928 1
917 928 1
928 928 1
934 928 1
192 929 1
194 929 1
845 929 1
857 929 1
908 929 1
918 929 1
929 929 1
935 929 1
193 930 1
195 930 1
846 930 1
858 930 1
909 930 1
919 930 1
930 930 1
936 930 1
194 931 1
196 931 1
847 931 1
859 931 1
910 931 1
920 931 1
931 931 1
937 931 1
195 932 1
197 932 1
848 932 1
860 932 1
911 932 1
921 932 1
932 932 1
938 932 1
196 933 1
198 933 1
849 933 1
861 933 1
912 933 1
922 933 1
933 933 1
939 933 1
197 934 1
199 934 1
841 934 1
850 934 1
913 934 1
923 934 1
934 934 1
940 934 1
198 935 1
200 935 1
842 935 1
851 935 1
914 935 1
924 935 1
935 935 1
941 935 1
199 936 1
201 936 1
843 936 1
852 936 1
904 936 1
915 936 1
936 936 1
942 936 1
200 937 1
202 937 1
844 937 1
853 937 1
905 937 1
916 937 1
937 937 1
943 937 1
201 938 1
203 938 1
845 938 1
854 938 1
906 938 1
917 938 1
938 938 1
944 938 1
202 939 1
204 939 1
846 939 1
855 939 1
907 939 1
918 939 1
939 939 1
945 939 1
203 940 1
205 940 1
847 940 1
856 940 1
908 940 1
919 940 1
925 940 1
940 940 1
204 941 1
206 941 1
848 941 1
857 941 1
909 941 1
920 941 1
926 941 1
941 941 1
205 942 1
207 942 1
849 942 1
858 942 1
910 942 1
921 942 1
927 942 1
942 942 1
206 943 1
208 943 1
850 943 1
859 943 1
911 943 1
922 943 1
928 943 1
943 943 1
207 944 1
209 944 1
851 944 1
860 944 1
912 944 1
923 944 1
929 944 1
944 944 1
208 945 1
210 945 1
852 945 1
861 945 1
913 945 1
924 945 1
930 945 1
945 945 1
211 946 1
230 946 1
736 946 1
752 946 1
946 946 1
950 946 1
967 946 1
968 946 1
212 947 1
231 947 1
737 947 1
753 947 1
947 947 1
951 947 1
968 947 1
969 947 1
211 948 1
213 948 1
738 948 1
754 948 1
948 948 1
952 948 1
969 948 1
970 948 1
212 949 1
214 949 1
739 949 1
755 949 1
949 949 1
953 949 1
970 949 1
971 949 1
213 950 1
215 950 1
740 950 1
756 950 1
950 950 1
954 950 1
971 950 1
972 950 1
214 951 1
216 951 1
736 951 1
741 951 1
951 951 1
955 951 1
972 951 1
973 951 1
215 952 1
217 952 1
737 952 1
742 952 1
952 952 1
956 952 1
973 952 1
974 952 1
216 953 1
218 953 1
738 953 1
743 953 1
953 953 1
957 953 1
974 953 1
975 953 1
217 954 1
219 954 1
739 954 1
744 954 1
954 954 1
958 954 1
975 954 1
976 954 1
218 955 1
220 955 1
740 955 1
745 955 1
955 955 1
959 955 1
976 955 1
977 955 1
219 956 1
221 956 1
741 956 1
746 956 1
956 956 1
960 956 1
977 956 1
978 956 1
220 957 1
222 957 1
742 957 1
747 957 1
957 957 1
961 957 1
978 957 1
979 957 1
221 958 1
223 958 1
743 958 1
748 958 1
958 958 1
962 958 1
979 958 1
980 958 1
222 959 1
224 959 1
744 959 1
749 959 1
959 959 1
963 959 1
980 959 1
981 959 1
223 960 1
225 960 1
745 960 1
750 960 1
960 960 1
964 960 1
981 960 1
982 960 1
224 961 1
226 961 1
746 961 1
751 961 1
961 961 1
965 961 1
982 961 1
983 961 1
225 962 1
227 962 1
747 962 1
752 962 1
962 962 1
966 962 1
983 962 1
984 962 1
226 963 1
228 963 1
748 963 1
753 963 1
946 963 1
963 963 1
984 963 1
985 963 1
227 964 1
229 964 1
749 964 1
754 964 1
947 964 1
964 964 1
985 964 1
986 964 1
228 965 1
230 965 1
750 965 1
755 965 1
948 965 1
965 965 1
986 965 1
987 965 1
229 966 1
231 966 1
751 966 1
756 966 1
949 966 1
966 966 1
967 966 1
987 966 1
232 967 1
251 967 1
757 967 1
773 967 1
946 967 1
952 967 1
988 967 1
989 967 1
233 968 1
252 968 1
758 968 1
774 968 1
947 968 1
953 968 1
989 968 1
990 968 1
232 969 1
234 969 1
759 969 1
775 969 1
948 969 1
954 969 1
990 969 1
991 969 1
233 970 1
235 970 1
760 970 1
776 970 1
949 970 1
955 970 1
991 970 1
992 970 1
234 971 1
236 971 1
761 971 1
777 971 1
950 971 1
956 971 1
992 971 1
993 971 1
235 972 1
237 972 1
757 972 1
762 972 1
951 972 1
957 972 1
993 972 1
994 972 1
236 973 1
238 973 1
758 973 1
763 973 1
952 973 1
958 973 1
994 973 1
995 973 1
237 974 1
239 974 1
759 974 1
764 974 1
953 974 1
959 974 1
995 974 1
996 974 1
238 975 1
240 975 1
760 975 1
765 975 1
954 975 1
960 975 1
996 975 1
997 975 1
239 976 1
241 976 1
761 976 1
766 976 1
955 976 1
961 976 1
997 976 1
998 976 1
240 977 1
242 977 1
762 977 1
767 977 1
956 977 1
962 977 1
998 977 1
999 977 1
241 978 1
243 978 1
763 978 1
768 978 1
957 978 1
963 978 1
999 978 1
1000 978 1
242 979 1
244 979 1
764 979 1
769 979 1
958 979 1
964 979 1
1000 979 1
1001 979 1
243 980 1
245 980 1
765 980 1
770 980 1
959 980 1
965 980 1
1001 980 1
1002 980 1
244 981 1
246 981 1
766 981 1
771 981 1
960 981 1
966 981 1
1002 981 1
1003 981 1
245 982 1
247 982 1
767 982 1
772 982 1
946 982 1
961 982 1
1003 982 1
1004 982 1
246 983 1
248 983 1
768 983 1
773 983 1
947 983 1
962 983 1
1004 983 1
1005 983 1
247 984 1
249 984 1
769 984 1
774 984 1
948 984 1
963 984 1
1005 984 1
1006 984 1
248 985 1
250 985 1
770 985 1
775 985 1
949 985 1
964 985 1
1006 985 1
1007 985 1
249 986 1
251 986 1
771 986 1
776 986 1
950 986 1
965 986 1
1007 986 1
1008 986 1
250 987 1
252 987 1
772 987 1
777 987 1
951 987 1
966 987 1
988 987 1
1008 987 1
253 988 1
272 988 1
778 988 1
794 988 1
967 988 1
973 988 1
988 988 1
992 988 1
254 989 1
273 989 1
779 989 1
795 989 1
968 989 1
974 989 1
989 989 1
993 989 1
253 990 1
255 990 1
780 990 1
796 990 1
969 990 1
975 990 1
990 990 1
994 990 1
254 991 1
256 991 1
781 991 1
797 991 1
970 991 1
976 991 1
991 991 1
995 991 1
255 992 1
257 992 1
782 992 1
798 992 1
971 992 1
977 992 1
992 992 1
996 992 1
256 993 1
258 993 1
778 993 1
783 993 1
972 993 1
978 993 1
993 993 1
997 993 1
257 994 1
259 994 1
779 994 1
784 994 1
973 994 1
979 994 1
994 994 1
998 994 1
258 995 1
260 995 1
780 995 1
785 995 1
974 995 1
980 995 1
995 995 1
999 995 1
259 996 1
261 996 1
781 996 1
786 996 1
975 996 1
981 996 1
996 996 1
1000 996 1
260 997 1
262 997 1
782 997 1
787 997 1
976 997 1
982 997 1
997 997 1
1001 997 1
261 998 1
263 998 1
783 998 1
788 998 1
977 998 1
983 998 1
998 998 1
1002 998 1
262 999 1
264 999 1
784 999 1
789 999 1
978 999 1
984 999 1
999 999 1
1003 999 1
263 1000 1
265 1000 1
785 1000 1
790 1000 1
979 1000 1
985 1000 1
1000 1000 1
1004 1000 1
264 1001 1
266 1001 1
786 1001 1
791 1001 1
980 1001 1
986 1001 1
1001 1001 1
1005 1001 1
265 1002 1
267 1002 1
787 1002 1
792 1002 1
981 1002 1
987 1002 1
1002 1002 1
1006 1002 1
266 1003 1
268 1003 1
788 1003 1
793 1003 1
967 1003 1
982 1003 1
1003 1003 1
1007 1003 1
267 1004 1
269 1004 1
789 1004 1
794 1004 1
968 1004 1
983 1004 1
1004 1004 1
1008 1004 1
268 1005 1
270 1005 1
790 1005 1
795 1005 1
969 1005 1
984 1005 1
988 1005 1
1005 1005 1
269 1006 1
271 1006 1
791 1006 1
796 1006 1
970 1006 1
985 1006 1
989 1006 1
1006 1006 1
270 1007 1
272 1007 1
792 1007 1
797 1007 1
971 1007 1
986 1007 1
990 1007 1
1007 1007 1
271 1008 1
273 1008 1
793 1008 1
798 1008 1
972 1008 1
987 1008 1
991 1008 1
1008 1008 1
274 1009 1
293 1009 1
799 1009 1
815 1009 1
946 1009 1
956 1009 1
1009 1009 1
1010 1009 1
275 1010 1
294 1010 1
800 1010 1
816 1010 1
947 1010 1
957 1010 1
1010 1010 1
1011 1010 1
274 1011 1
276 1011 1
801 1011 1
817 1011 1
948 1011 1
958 1011 1
1011 1011 1
1012 1011 1
275 1012 1
277 1012 1
802 1012 1
818 1012 1
949 1012 1
959 1012 1
1012 1012 1
1013 1012 1
276 1013 1
278 1013 1
803 1013 1
819 1013 1
950 1013 1
960 1013 1
1013 1013 1
1014 1013 1
277 1014 1
279 1014 1
799 1014 1
804 1014 1
951 1014 1
961 1014 1
1014 1014 1
1015 1014 1
278 1015 1
280 1015 1
800 1015 1
805 1015 1
952 1015 1
962 1015 1
1015 1015 1
1016 1015 1
279 1016 1
281 1016 1
801 1016 1
806 1016 1
953 1016 1
963 1016 1
1016 1016 1
1017 1016 1
280 1017 1
282 1017 1
802 1017 1
807 1017 1
954 1017 1
964 1017 1
1017 1017 1
1018 1017 1
281 1018 1
283 1018 1
803 1018 1
808 1018 1
955 1018 1
965 1018 1
1018 1018 1
1019 1018 1
282 1019 1
284 1019 1
804 1019 1
809 1019 1
956 1019 1
966 1019 1
1019 1019 1
1020 1019 1
283 1020 1
285 1020 1
805 1020 1
810 1020 1
946 1020 1
957 1020 1
1020 1020 1
1021 1020 1
284 1021 1
286 1021 1
806 1021 1
811 1021 1
947 1021 1
958 1021 1
1021 1021 1
1022 1021 1
285 1022 1
287 1022 1
807 1022 1
812 1022 1
948 1022 1
959 1022 1
1022 1022 1
1023 1022 1
286 1023 1
288 1023 1
808 1023 1
813 1023 1
949 1023 1
960 1023 1
1023 1023 1
1024 1023 1
287 1024 1
289 1024 1
809 1024 1
814 1024 1
950 1024 1
961 1024 1
1024 1024 1
1025 1024 1
288 1025 1
290 1025 1
810 1025 1
815 1025 1
951 1025 1
962 1025 1
1025 1025 1
1026 1025 1
289 1026 1
291 1026 1
811 1026 1
816 1026 1
952 1026 1
963 1026 1
1026 1026 1
1027 1026 1
290 1027 1
292 1027 1
812 1027 1
817 1027 1
953 1027 1
964 1027 1
1027 1027 1
1028 1027 1
291 1028 1
293 1028 1
813 1028 1
818 1028 1
954 1028 1
965 1028 1
1028 1028 1
1029 1028 1
292 1029 1
294 1029 1
814 1029 1
819 1029 1
955 1029 1
966 1029 1
1009 1029 1
1029 1029 1
295 1030 1
314 1030 1
820 1030 1
836 1030 1
967 1030 1
977 1030 1
1009 1030 1
1013 1030 1
296 1031 1
315 1031 1
821 1031 1
837 1031 1
968 1031 1
978 1031 1
1010 1031 1
1014 1031 1
295 1032 1
297 1032 1
822 1032 1
838 1032 1
969 1032 1
979 1032 1
1011 1032 1
1015 1032 1
296 1033 1
298 1033 1
823 1033 1
839 1033 1
970 1033 1
980 1033 1
1012 1033 1
1016 1033 1
297 1034 1
299 1034 1
824 1034 1
840 1034 1
971 1034 1
981 1034 1
1013 1034 1
1017 1034 1
298 1035 1
300 1035 1
820 1035 1
825 1035 1
972 1035 1
982 1035 1
1014 1035 1
1018 1035 1
299 1036 1
301 1036 1
821 1036 1
826 1036 1
973 1036 1
983 1036 1
1015 1036 1
1019 1036 1
300 1037 1
302 1037 1
822 1037 1
827 1037 1
974 1037 1
984 1037 1
1016 1037 1
1020 1037 1
301 1038 1
303 1038 1
823 1038 1
828 1038 1
975 1038 1
985 1038 1
1017 1038 1
1021 1038 1
302 1039 1
304 1039 1
824 1039 1
829 1039 1
976 1039 1
986 1039 1
1018 1039 1
1022 1039 1
303 1040 1
305 1040 1
825 1040 1
830 1040 1
977 1040 1
987 1040 1
1019 1040 1
1023 1040 1
304 1041 1
306 1041 1
826 1041 1
831 1041 1
967 1041 1
978 1041 1
1020 1041 1
1024 1041 1
305 1042 1
307 1042 1
827 1042 1
832 1042 1
968 1042 1
979 1042 1
1021 1042 1
1025 1042 1
306 1043 1
308 1043 1
828 1043 1
833 1043 1
969 1043 1
980 1043 1
1022 1043 1
1026 1043 1
307 1044 1
309 1044 1
829 1044 1
834 1044 1
970 1044 1
981 1044 1
1023 1044 1
1027 1044 1
308 1045 1
310 1045 1
830 1045 1
835 1045 1
971 1045 1
982 1045 1
1024 1045 1
1028 1045 1
309 1046 1
311 1046 1
831 1046 1
836 1046 1
972 1046 1
983 1046 1
1025 1046 1
1029 1046 1
310 1047 1
312 1047 1
832 1047 1
837 1047 1
973 1047 1
984 1047 1
1009 1047 1
1026 1047 1
311 1048 1
313 1048 1
833 1048 1
838 1048 1
974 1048 1
985 1048 1
1010 1048 1
1027 1048 1
312 1049 1
314 1049 1
834 1049 1
839 1049 1
975 1049 1
986 1049 1
1011 1049 1
1028 1049 1
313 1050 1
315 1050 1
835 1050 1
840 1050 1
976 1050 1
987 1050 1
1012 1050 1
1029 1050 1
316 1051 1
335 1051 1
841 1051 1
857 1051 1
988 1051 1
998 1051 1
1009 1051 1
1015 1051 1
317 1052 1
336 1052 1
842 1052 1
858 1052 1
989 1052 1
999 1052 1
1010 1052 1
1016 1052 1
316 1053 1
318 1053 1
843 1053 1
859 1053 1
990 1053 1
1000 1053 1
1011 1053 1
1017 1053 1
317 1054 1
319 1054 1
844 1054 1
860 1054 1
991 1054 1
1001 1054 1
1012 1054 1
1018 1054 1
318 1055 1
320 1055 1
845 1055 1
861 1055 1
992 1055 1
1002 1055 1
1013 1055 1
1019 1055 1
319 1056 1
321 1056 1
841 1056 1
846 1056 1
993 1056 1
1003 1056 1
1014 1056 1
1020 1056 1
320 1057 1
322 1057 1
842 1057 1
847 1057 1
994 1057 1
1004 1057 1
1015 1057 1
1021 1057 1
321 1058 1
323 1058 1
843 1058 1
848 1058 1
995 1058 1
1005 1058 1
1016 1058 1
1022 1058 1
322 1059 1
324 1059 1
844 1059 1
849 1059 1
996 1059 1
1006 1059 1
1017 1059 1
1023 1059 1
323 1060 1
325 1060 1
845 1060 1
850 1060 1
997 1060 1
1007 1060 1
1018 1060 1
1024 1060 1
324 1061 1
326 1061 1
846 1061 1
851 1061 1
998 1061 1
1008 1061 1
1019 1061 1
1025 1061 1
325 1062 1
327 1062 1
847 1062 1
852 1062 1
988 1062 1
999 1062 1
1020 1062 1
1026 1062 1
326 1063 1
328 1063 1
848 1063 1
853 1063 1
989 1063 1
1000 1063 1
1021 1063 1
1027 1063 1
327 1064 1
329 1064 1
849 1064 1
854 1064 1
990 1064 1
1001 1064 1
1022 1064 1
1028 1064 1
328 1065 1
330 1065 1
850 1065 1
855 1065 1
991 1065 1
1002 1065 1
1023 1065 1
1029 1065 1
329 1066 1
331 1066 1
851 1066 1
856 1066 1
992 1066 1
1003 1066 1
1009 1066 1
1024 1066 1
330 1067 1
332 1067 1
852 1067 1
857 1067 1
993 1067 1
1004 1067 1
1010 1067 1
1025 1067 1
331 1068 1
333 1068 1
853 1068 1
858 1068 1
994 1068 1
1005 1068 1
1011 1068 1
1026 1068 1
332 1069 1
334 1069 1
854 1069 1
859 1069 1
995 1069 1
1006 1069 1
1012 1069 1
1027 1069 1
333 1070 1
335 1070 1
855 1070 1
860 1070 1
996 1070 1
1007 1070 1
1013 1070 1
1028 1070 1
334 1071 1
336 1071 1
856 1071 1
861 1071 1
997 1071 1
1008 1071 1
1014 1071 1
1029 1071 1
337 1072 1
356 1072 1
862 1072 1
878 1072 1
946 1072 1
958 1072 1
1030 1072 1
1031 1072 1
338 1073 1
357 1073 1
863 1073 1
879 1073 1
947 1073 1
959 1073 1
1031 1073 1
1032 1073 1
337 1074 1
339 1074 1
864 1074 1
880 1074 1
948 1074 1
960 1074 1
1032 1074 1
1033 1074 1
338 1075 1
340 1075 1
865 1075 1
881 1075 1
949 1075 1
961 1075 1
1033 1075 1
1034 1075 1
339 1076 1
341 1076 1
866 1076 1
882 1076 1
950 1076 1
962 1076 1
1034 1076 1
1035 1076 1
340 1077 1
342 1077 1
862 1077 1
867 1077 1
951 1077 1
963 1077 1
1035 1077 1
1036 1077 1
341 1078 1
343 1078 1
863 1078 1
868 1078 1
952 1078 1
964 1078 1
1036 1078 1
1037 1078 1
342 1079 1
344 1079 1
864 1079 1
869 1079 1
953 1079 1
965 1079 1
1037 1079 1
1038 1079 1
343 1080 1
345 1080 1
865 1080 1
870 1080 1
954 1080 1
966 1080 1
1038 1080 1
1039 1080 1
344 1081 1
346 1081 1
866 1081 1
871 1081 1
946 1081 1
955 1081 1
1039 1081 1
1040 1081 1
345 1082 1
347 1082 1
867 1082 1
872 1082 1
947 1082 1
956 1082 1
1040 1082 1
1041 1082 1
346 1083 1
348 1083 1
868 1083 1
873 1083 1
948 1083 1
957 1083 1
1041 1083 1
1042 1083 1
347 1084 1
349 1084 1
869 1084 1
874 1084 1
949 1084 1
958 1084 1
1042 1084 1
1043 1084 1
348 1085 1
350 1085 1
870 1085 1
875 1085 1
950 1085 1
959 1085 1
1043 1085 1
1044 1085 1
349 1086 1
351 1086 1
871 1086 1
876 1086 1
951 1086 1
960 1086 1
1044 1086 1
1045 1086 1
350 1087 1
352 1087 1
872 1087 1
877 1087 1
952 1087 1
961 1087 1
1045 1087 1
1046 1087 1
351 1088 1
353 1088 1
873 1088 1
878 1088 1
953 1088 1
962 1088 1
1046 1088 1
1047 1088 1
352 1089 1
354 1089 1
874 1089 1
879 1089 1
954 1089 1
963 1089 1
1047 1089 1
1048 1089 1
353 1090 1
355 1090 1
875 1090 1
880 1090 1
955 1090 1
964 1090 1
1048 1090 1
1049 1090 1
354 1091 1
356 1091 1
876 1091 1
881 1091 1
956 1091 1
965 1091 1
1049 1091 1
1050 1091 1
355 1092 1
357 1092 1
877 1092 1
882 1092 1
957 1092 1
966 1092 1
1030 1092 1
1050 1092 1
358 1093 1
377 1093 1
883 1093 1
899 1093 1
967 1093 1
979 1093 1
1030 1093 1
1034 1093 1
359 1094 1
378 1094 1
884 1094 1
900 1094 1
968 1094 1
980 1094 1
1031 1094 1
1035 1094 1
358 1095 1
360 1095 1
885 1095 1
901 1095 1
969 1095 1
981 1095 1
1032 1095 1
1036 1095 1
359 1096 1
361 1096 1
886 1096 1
902 1096 1
970 1096 1
982 1096 1
1033 1096 1
1037 1096 1
360 1097 1
362 1097 1
887 1097 1
903 1097 1
971 1097 1
983 1097 1
1034 1097 1
1038 1097 1
361 1098 1
363 1098 1
883 1098 1
888 1098 1
972 1098 1
984 1098 1
1035 1098 1
1039 1098 1
362 1099 1
364 1099 1
884 1099 1
889 1099 1
973 1099 1
985 1099 1
1036 1099 1
1040 1099 1
363 1100 1
365 1100 1
885 1100 1
890 1100 1
974 1100 1
986 1100 1
1037 1100 1
1041 1100 1
364 1101 1
366 1101 1
886 1101 1
891 1101 1
975 1101 1
987 1101 1
1038 1101 1
1042 1101 1
365 1102 1
367 1102 1
887 1102 1
892 1102 1
967 1102 1
976 1102 1
1039 1102 1
1043 1102 1
366 1103 1
368 1103 1
888 1103 1
893 1103 1
968 1103 1
977 1103 1
1040 1103 1
1044 1103 1
367 1104 1
369 1104 1
889 1104 1
894 1104 1
969 1104 1
978 1104 1
1041 1104 1
1045 1104 1
368 1105 1
370 1105 1
890 1105 1
895 1105 1
970 1105 1
979 1105 1
1042 1105 1
1046 1105 1
369 1106 1
371 1106 1
891 1106 1
896 1106 1
971 1106 1
980 1106 1
1043 1106 1
1047 1106 1
370 1107 1
372 1107 1
892 1107 1
897 1107 1
972 1107 1
981 1107 1
1044 1107 1
1048 1107 1
371 1108 1
373 1108 1
893 1108 1
898 1108 1
973 1108 1
982 1108 1
1045 1108 1
1049 1108 1
372 1109 1
374 1109 1
894 1109 1
899 1109 1
974 1109 1
983 1109 1
1046 1109 1
1050 1109 1
373 1110 1
375 1110 1
895 1110 1
900 1110 1
975 1110 1
984 1110 1
1030 1110 1
1047 1110 1
374 1111 1
376 1111 1
896 1111 1
901 1111 1
976 1111 1
985 1111 1
1031 1111 1
1048 1111 1
375 1112 1
377 1112 1
897 1112 1
902 1112 1
977 1112 1
986 1112 1
1032 1112 1
1049 1112 1
376 1113 1
378 1113 1
898 1113 1
903 1113 1
978 1113 1
987 1113 1
1033 1113 1
1050 1113 1
379 1114 1
398 1114 1
904 1114 1
920 1114 1
988 1114 1
1000 1114 1
1030 1114 1
1036 1114 1
380 1115 1
399 1115 1
905 1115 1
921 1115 1
989 1115 1
1001 1115 1
1031 1115 1
1037 1115 1
379 1116 1
381 1116 1
906 1116 1
922 1116 1
990 1116 1
1002 1116 1
1032 1116 1
1038 1116 1
380 1117 1
382 1117 1
907 1117 1
923 1117 1
991 1117 1
1003 1117 1
1033 1117 1
1039 1117 1
381 1118 1
383 1118 1
908 1118 1
924 1118 1
992 1118 1
1004 1118 1
1034 1118 1
1040 1118 1
382 1119 1
384 1119 1
904 1119 1
909 1119 1
993 1119 1
1005 1119 1
1035 1119 1
1041 1119 1
383 1120 1
385 1120 1
905 1120 1
910 1120 1
994 1120 1
1006 1120 1
1036 1120 1
1042 1120 1
384 1121 1
386 1121 1
906 1121 1
911 1121 1
995 1121 1
1007 1121 1
1037 1121 1
1043 1121 1
385 1122 1
387 1122 1
907 1122 1
912 1122 1
996 1122 1
1008 1122 1
1038 1122 1
1044 1122 1
386 1123 1
388 1123 1
908 1123 1
913 1123 1
988 1123 1
997 1123 1
1039 1123 1
1045 1123 1
387 1124 1
389 1124 1
909 1124 1
914 1124 1
989 1124 1
998 1124 1
1040 1124 1
1046 1124 1
388 1125 1
390 1125 1
910 1125 1
915 1125 1
990 1125 1
999 1125 1
1041 1125 1
1047 1125 1
389 1126 1
391 1126 1
911 1126 1
916 1126 1
991 1126 1
1000 1126 1
1042 1126 1
1048 1126 1
390 1127 1
392 1127 1
912 1127 1
917 1127 1
992 1127 1
1001 1127 1
1043 1127 1
1049 1127 1
391 1128 1
393 1128 1
913 1128 1
918 1128 1
993 1128 1
1002 1128 1
1044 1128 1
1050 1128 1
392 1129 1
394 1129 1
914 1129 1
919 1129 1
994 1129 1
1003 1129 1
1030 1129 1
1045 1129 1
393 1130 1
395 1130 1
915 1130 1
920 1130 1
995 1130 1
1004 1130 1
1031 1130 1
1046 1130 1
394 1131 1
396 1131 1
916 1131 1
921 1131 1
996 1131 1
1005 1131 1
1032 1131 1
1047 1131 1
395 1132 1
397 1132 1
917 1132 1
922 1132 1
997 1132 1
1006 1132 1
1033 1132 1
1048 1132 1
396 1133 1
398 1133 1
918 1133 1
923 1133 1
998 1133 1
1007 1133 1
1034 1133 1
1049 1133 1
397 1134 1
399 1134 1
919 1134 1
924 1134 1
999 1134 1
1008 1134 1
1035 1134 1
1050 1134 1
400 1135 1
419 1135 1
925 1135 1
941 1135 1
1009 1135 1
1021 1135 1
1030 1135 1
1040 1135 1
401 1136 1
420 1136 1
926 1136 1
942 1136 1
1010 1136 1
1022 1136 1
1031 1136 1
1041 1136 1
400 1137 1
402 1137 1
927 1137 1
943 1137 1
1011 1137 1
1023 1137 1
1032 1137 1
1042 1137 1
401 1138 1
403 1138 1
928 1138 1
944 1138 1
1012 1138 1
1024 1138 1
1033 1138 1
1043 1138 1
402 1139 1
404 1139 1
929 1139 1
945 1139 1
1013 1139 1
1025 1139 1
1034 1139 1
1044 1139 1
403 1140 1
405 1140 1
925 1140 1
930 1140 1
1014 1140 1
1026 1140 1
1035 1140 1
1045 1140 1
404 1141 1
406 1141 1
926 1141 1
931 1141 1
1015 1141 1
1027 1141 1
1036 1141 1
1046 1141 1
405 1142 1
407 1142 1
927 1142 1
932 1142 1
1016 1142 1
1028 1142 1
1037 1142 1
1047 1142 1
406 1143 1
408 1143 1
928 1143 1
933 1143 1
1017 1143 1
1029 1143 1
1038 1143 1
1048 1143 1
407 1144 1
409 1144 1
929 1144 1
934 1144 1
1009 1144 1
1018 1144 1
1039 1144 1
1049 1144 1
408 1145 1
410 1145 1
930 1145 1
935 1145 1
1010 1145 1
1019 1145 1
1040 1145 1
1050 1145 1
409 1146 1
411 1146 1
931 1146 1
936 1146 1
1011 1146 1
1020 1146 1
1030 1146 1
1041 1146 1
410 1147 1
412 1147 1
932 1147 1
937 1147 1
1012 1147 1
1021 1147 1
1031 1147 1
1042 1147 1
411 1148 1
413 1148 1
933 1148 1
938 1148 1
1013 1148 1
1022 1148 1
1032 1148 1
1043 1148 1
412 1149 1
414 1149 1
934 1149 1
939 1149 1
1014 1149 1
1023 1149 1
1033 1149 1
1044 1149 1
413 1150 1
415 1150 1
935 1150 1
940 1150 1
1015 1150 1
1024 1150 1
1034 1150 1
1045 1150 1
414 1151 1
416 1151 1
936 1151 1
941 1151 1
1016 1151 1
1025 1151 1
1035 1151 1
1046 1151 1
415 1152 1
417 1152 1
937 1152 1
942 1152 1
1017 1152 1
1026 1152 1
1036 1152 1
1047 1152 1
416 1153 1
418 1153 1
938 1153 1
943 1153 1
1018 1153 1
1027 1153 1
1037 1153 1
1048 1153 1
417 1154 1
419 1154 1
939 1154 1
944 1154 1
1019 1154 1
1028 1154 1
1038 1154 1
1049 1154 1
418 1155 1
420 1155 1
940 1155 1
945 1155 1
1020 1155 1
1029 1155 1
1039 1155 1
1050 1155 1
421 1156 1
440 1156 1
736 1156 1
753 1156 1
1051 1156 1
1055 1156 1
1072 1156 1
1073 1156 1
422 1157 1
441 1157 1
737 1157 1
754 1157 1
1052 1157 1
1056 1157 1
1073 1157 1
1074 1157 1
421 1158 1
423 1158 1
738 1158 1
755 1158 1
1053 1158 1
1057 1158 1
1074 1158 1
1075 1158 1
422 1159 1
424 1159 1
739 1159 1
756 1159 1
1054 1159 1
1058 1159 1
1075 1159 1
1076 1159 1
423 1160 1
425 1160 1
736 1160 1
740 1160 1
1055 1160 1
1059 1160 1
1076 1160 1
1077 1160 1
424 1161 1
426 1161 1
737 1161 1
741 1161 1
1056 1161 1
1060 1161 1
1077 1161 1
1078 1161 1
425 1162 1
427 1162 1
738 1162 1
742 1162 1
1057 1162 1
1061 1162 1
1078 1162 1
1079 1162 1
426 1163 1
428 1163 1
739 1163 1
743 1163 1
1058 1163 1
1062 1163 1
1079 1163 1
1080 1163 1
427 1164 1
429 1164 1
740 1164 1
744 1164 1
1059 1164 1
1063 1164 1
1080 1164 1
1081 1164 1
428 1165 1
430 1165 1
741 1165 1
745 1165 1
1060 1165 1
1064 1165 1
1081 1165 1
1082 1165 1
429 1166 1
431 1166 1
742 1166 1
746 1166 1
1061 1166 1
1065 1166 1
1082 1166 1
1083 1166 1
430 1167 1
432 1167 1
743 1167 1
747 1167 1
1062 1167 1
1066 1167 1
1083 1167 1
1084 1167 1
431 1168 1
433 1168 1
744 1168 1
748 1168 1
1063 1168 1
1067 1168 1
1084 1168 1
1085 1168 1
432 1169 1
434 1169 1
745 1169 1
749 1169 1
1064 1169 1
1068 1169 1
1085 1169 1
1086 1169 1
433 1170 1
435 1170 1
746 1170 1
750 1170 1
1065 1170 1
1069 1170 1
1086 1170 1
1087 1170 1
434 1171 1
436 1171 1
747 1171 1
751 1171 1
1066 1171 1
1070 1171 1
1087 1171 1
1088 1171 1
435 1172 1
437 1172 1
748 1172 1
752 1172 1
1067 1172 1
1071 1172 1
1088 1172 1
1089 1172 1
436 1173 1
438 1173 1
749 1173 1
753 1173 1
1051 1173 1
1068 1173 1
1089 1173 1
1090 1173 1
437 1174 1
439 1174 1
750 1174 1
754 1174 1
1052 1174 1
1069 1174 1
1090 1174 1
1091 1174 1
438 1175 1
440 1175 1
751 1175 1
755 1175 1
1053 1175 1
1070 1175 1
1091 1175 1
1092 1175 1
439 1176 1
441 1176 1
752 1176 1
756 1176 1
1054 1176 1
1071 1176 1
1072 1176 1
1092 1176 1
442 1177 1
461 1177 1
757 1177 1
774 1177 1
1051 1177 1
1057 1177 1
1093 1177 1
1094 1177 1
443 1178 1
462 1178 1
758 1178 1
775 1178 1
1052 1178 1
1058 1178 1
1094 1178 1
1095 1178 1
442 1179 1
444 1179 1
759 1179 1
776 1179 1
1053 1179 1
1059 1179 1
1095 1179 1
1096 1179 1
443 1180 1
445 1180 1
760 1180 1
777 1180 1
1054 1180 1
1060 1180 1
1096 1180 1
1097 1180 1
444 1181 1
446 1181 1
757 1181 1
761 1181 1
1055 1181 1
1061 1181 1
1097 1181 1
1098 1181 1
445 1182 1
447 1182 1
758 1182 1
762 1182 1
1056 1182 1
1062 1182 1
1098 1182 1
1099 1182 1
446 1183 1
448 1183 1
759 1183 1
763 1183 1
1057 1183 1
1063 1183 1
1099 1183 1
1100 1183 1
447 1184 1
449 1184 1
760 1184 1
764 1184 1
1058 1184 1
1064 1184 1
1100 1184 1
1101 1184 1
448 1185 1
450 1185 1
761 1185 1
765 1185 1
1059 1185 1
1065 1185 1
1101 1185 1
1102 1185 1
449 1186 1
451 1186 1
762 1186 1
766 1186 1
1060 1186 1
1066 1186 1
1102 1186 1
1103 1186 1
450 1187 1
452 1187 1
763 1187 1
767 1187 1
1061 1187 1
1067 1187 1
1103 1187 1
1104 1187 1
451 1188 1
453 1188 1
764 1188 1
768 1188 1
1062 1188 1
1068 1188 1
1104 1188 1
1105 1188 1
452 1189 1
454 1189 1
765 1189 1
769 1189 1
1063 1189 1
1069 1189 1
1105 1189 1
1106 1189 1
453 1190 1
455 1190 1
766 1190 1
770 1190 1
1064 1190 1
1070 1190 1
1106 1190 1
1107 1190 1
454 1191 1
456 1191 1
767 1191 1
771 1191 1
1065 1191 1
1071 1191 1
1107 1191 1
1108 1191 1
455 1192 1
457 1192 1
768 1192 1
772 1192 1
1051 1192 1
1066 1192 1
1108 1192 1
1109 1192 1
456 1193 1
458 1193 1
769 1193 1
773 1193 1
1052 1193 1
1067 1193 1
1109 1193 1
1110 1193 1
457 1194 1
459 1194 1
770 1194 1
774 1194 1
1053 1194 1
1068 1194 1
1110 1194 1
1111 1194 1
458 1195 1
460 1195 1
771 1195 1
775 1195 1
1054 1195 1
1069 1195 1
1111 1195 1
1112 1195 1
459 1196 1
461 1196 1
772 1196 1
776 1196 1
1055 1196 1
1070 1196 1
1112 1196 1
1113 1196 1
460 1197 1
462 1197 1
773 1197 1
777 1197 1
1056 1197 1
1071 1197 1
1093 1197 1
1113 1197 1
463 1198 1
482 1198 1
778 1198 1
795 1198 1
1072 1198 1
1078 1198 1
1093 1198 1
1097 1198 1
464 1199 1
483 1199 1
779 1199 1
796 1199 1
1073 1199 1
1079 1199 1
1094 1199 1
1098 1199 1
463 1200 1
465 1200 1
780 1200 1
797 1200 1
1074 1200 1
1080 1200 1
1095 1200 1
1099 1200 1
464 1201 1
466 1201 1
781 1201 1
798 1201 1
1075 1201 1
1081 1201 1
1096 1201 1
1100 1201 1
465 1202 1
467 1202 1
778 1202 1
782 1202 1
1076 1202 1
1082 1202 1
1097 1202 1
1101 1202 1
466 1203 1
468 1203 1
779 1203 1
783 1203 1
1077 1203 1
1083 1203 1
1098 1203 1
1102 1203 1
467 1204 1
469 1204 1
780 1204 1
784 1204 1
1078 1204 1
1084 1204 1
1099 1204 1
1103 1204 1
468 1205 1
470 1205 1
781 1205 1
785 1205 1
1079 1205 1
1085 1205 1
1100 1205 1
1104 1205 1
469 1206 1
471 1206 1
782 1206 1
786 1206 1
1080 1206 1
1086 1206 1
1101 1206 1
1105 1206 1
470 1207 1
472 1207 1
783 1207 1
787 1207 1
1081 1207 1
1087 1207 1
1102 1207 1
1106 1207 1
471 1208 1
473 1208 1
784 1208 1
788 1208 1
1082 1208 1
1088 1208 1
1103 1208 1
1107 1208 1
472 1209 1
474 1209 1
785 1209 1
789 1209 1
1083 1209 1
1089 1209 1
1104 1209 1
1108 1209 1
473 1210 1
475 1210 1
786 1210 1
790 1210 1
1084 1210 1
1090 1210 1
1105 1210 1
1109 1210 1
474 1211 1
476 1211 1
787 1211 1
791 1211 1
1085 1211 1
1091 1211 1
1106 1211 1
1110 1211 1
475 1212 1
477 1212 1
788 1212 1
792 1212 1
1086 1212 1
1092 1212 1
1107 1212 1
1111 1212 1
476 1213 1
478 1213 1
789 1213 1
793 1213 1
1072 1213 1
1087 1213 1
1108 1213 1
1112 1213 1
477 1214 1
479 1214 1
790 1214 1
794 1214 1
1073 1214 1
1088 1214 1
1109 1214 1
1113 1214 1
478 1215 1
480 1215 1
791 1215 1
795 1215 1
1074 1215 1
1089 1215 1
1093 1215 1
1110 1215 1
479 1216 1
481 1216 1
792 1216 1
796 1216 1
1075 1216 1
1090 1216 1
1094 1216 1
1111 1216 1
480 1217 1
482 1217 1
793 1217 1
797 1217 1
1076 1217 1
1091 1217 1
1095 1217 1
1112 1217 1
481 1218 1
483 1218 1
794 1218 1
798 1218 1
1077 1218 1
1092 1218 1
1096 1218 1
1113 1218 1
484 1219 1
503 1219 1
799 1219 1
816 1219 1
1051 1219 1
1061 1219 1
1114 1219 1
1115 1219 1
485 1220 1
504 1220 1
800 1220 1
817 1220 1
1052 1220 1
1062 1220 1
1115 1220 1
1116 1220 1
484 1221 1
486 1221 1
801 1221 1
818 1221 1
1053 1221 1
1063 1221 1
1116 1221 1
1117 1221 1
485 1222 1
487 1222 1
802 1222 1
819 1222 1
1054 1222 1
1064 1222 1
1117 1222 1
1118 1222 1
486 1223 1
488 1223 1
799 1223 1
803 1223 1
1055 1223 1
1065 1223 1
1118 1223 1
1119 1223 1
487 1224 1
489 1224 1
800 1224 1
804 1224 1
1056 1224 1
1066 1224 1
1119 1224 1
1120 1224 1
488 1225 1
490 1225 1
801 1225 1
805 1225 1
1057 1225 1
1067 1225 1
1120 1225 1
1121 1225 1
489 1226 1
491 1226 1
802 1226 1
806 1226 1
1058 1226 1
1068 1226 1
1121 1226 1
1122 1226 1
490 1227 1
492 1227 1
803 1227 1
807 1227 1
1059 1227 1
1069 1227 1
1122 1227 1
1123 1227 1
491 1228 1
493 1228 1
804 1228 1
808 1228 1
1060 1228 1
1070 1228 1
1123 1228 1
1124 1228 1
492 1229 1
494 1229 1
805 1229 1
809 1229 1
1061 1229 1
1071 1229 1
1124 1229 1
1125 1229 1
493 1230 1
495 1230 1
806 1230 1
810 1230 1
1051 1230 1
1062 1230 1
1125 1230 1
1126 1230 1
494 1231 1
496 1231 1
807 1231 1
811 1231 1
1052 1231 1
1063 1231 1
1126 1231 1
1127 1231 1
495 1232 1
497 1232 1
808 1232 1
812 1232 1
1053 1232 1
1064 1232 1
1127 1232 1
1128 1232 1
496 1233 1
498 1233 1
809 1233 1
813 1233 1
1054 1233 1
1065 1233 1
1128 1233 1
1129 1233 1
497 1234 1
499 1234 1
810 1234 1
814 1234 1
1055 1234 1
1066 1234 1
1129 1234 1
1130 1234 1
498 1235 1
500 1235 1
811 1235 1
815 1235 1
1056 1235 1
1067 1235 1
1130 1235 1
1131 1235 1
499 1236 1
501 1236 1
812 1236 1
816 1236 1
1057 1236 1
1068 1236 1
1131 1236 1
1132 1236 1
500 1237 1
502 1237 1
813 1237 1
817 1237 1
1058 1237 1
1069 1237 1
1132 1237 1
1133 1237 1
501 1238 1
503 1238 1
814 1238 1
818 1238 1
1059 1238 1
1070 1238 1
1133 1238 1
1134 1238 1
502 1239 1
504 1239 1
815 1239 1
819 1239 1
1060 1239 1
1071 1239 1
1114 1239 1
1134 1239 1
505 1240 1
524 1240 1
820 1240 1
837 1240 1
1072 1240 1
1082 1240 1
1114 1240 1
1118 1240 1
506 1241 1
525 1241 1
821 1241 1
838 1241 1
1073 1241 1
1083 1241 1
1115 1241 1
1119 1241 1
505 1242 1
507 1242 1
822 1242 1
839 1242 1
1074 1242 1
1084 1242 1
1116 1242 1
1120 1242 1
506 1243 1
508 1243 1
823 1243 1
840 1243 1
1075 1243 1
1085 1243 1
1117 1243 1
1121 1243 1
507 1244 1
509 1244 1
820 1244 1
824 1244 1
1076 1244 1
1086 1244 1
1118 1244 1
1122 1244 1
508 1245 1
510 1245 1
821 1245 1
825 1245 1
1077 1245 1
1087 1245 1
1119 1245 1
1123 1245 1
509 1246 1
511 1246 1
822 1246 1
826 1246 1
1078 1246 1
1088 1246 1
1120 1246 1
1124 1246 1
510 1247 1
512 1247 1
823 1247 1
827 1247 1
1079 1247 1
1089 1247 1
1121 1247 1
1125 1247 1
511 1248 1
513 1248 1
824 1248 1
828 1248 1
1080 1248 1
1090 1248 1
1122 1248 1
1126 1248 1
512 1249 1
514 1249 1
825 1249 1
829 1249 1
1081 1249 1
1091 1249 1
1123 1249 1
1127 1249 1
513 1250 1
515 1250 1
826 1250 1
830 1250 1
1082 1250 1
1092 1250 1
1124 1250 1
1128 1250 1
514 1251 1
516 1251 1
827 1251 1
831 1251 1
1072 1251 1
1083 1251 1
1125 1251 1
1129 1251 1
515 1252 1
517 1252 1
828 1252 1
832 1252 1
1073 1252 1
1084 1252 1
1126 1252 1
1130 1252 1
516 1253 1
518 1253 1
829 1253 1
833 1253 1
1074 1253 1
1085 1253 1
1127 1253 1
1131 1253 1
517 1254 1
519 1254 1
830 1254 1
834 1254 1
1075 1254 1
1086 1254 1
1128 1254 1
1132 1254 1
518 1255 1
520 1255 1
831 1255 1
835 1255 1
1076 1255 1
1087 1255 1
1129 1255 1
1133 1255 1
519 1256 1
521 1256 1
832 1256 1
836 1256 1
1077 1256 1
1088 1256 1
1130 1256 1
1134 1256 1
520 1257 1
522 1257 1
833 1257 1
837 1257 1
1078 1257 1
1089 1257 1
1114 1257 1
1131 1257 1
521 1258 1
523 1258 1
834 1258 1
838 1258 1
1079 1258 1
1090 1258 1
1115 1258 1
1132 1258 1
522 1259 1
524 1259 1
835 1259 1
839 1259 1
1080 1259 1
1091 1259 1
1116 1259 1
1133 1259 1
523 1260 1
525 1260 1
836 1260 1
840 1260 1
1081 1260 1
1092 1260 1
1117 1260 1
1134 1260 1
526 1261 1
545 1261 1
841 1261 1
858 1261 1
1093 1261 1
1103 1261 1
1114 1261 1
1120 1261 1
527 1262 1
546 1262 1
842 1262 1
859 1262 1
1094 1262 1
1104 1262 1
1115 1262 1
1121 1262 1
526 1263 1
528 1263 1
843 1263 1
860 1263 1
1095 1263 1
1105 1263 1
1116 1263 1
1122 1263 1
527 1264 1
529 1264 1
844 1264 1
861 1264 1
1096 1264 1
1106 1264 1
1117 1264 1
1123 1264 1
528 1265 1
530 1265 1
841 1265 1
845 1265 1
1097 1265 1
1107 1265 1
1118 1265 1
1124 1265 1
529 1266 1
531 1266 1
842 1266 1
846 1266 1
1098 1266 1
1108 1266 1
1119 1266 1
1125 1266 1
530 1267 1
532 1267 1
843 1267 1
847 1267 1
1099 1267 1
1109 1267 1
1120 1267 1
1126 1267 1
531 1268 1
533 1268 1
844 1268 1
848 1268 1
1100 1268 1
1110 1268 1
1121 1268 1
1127 1268 1
532 1269 1
534 1269 1
845 1269 1
849 1269 1
1101 1269 1
1111 1269 1
1122 1269 1
1128 1269 1
533 1270 1
535 1270 1
846 1270 1
850 1270 1
1102 1270 1
1112 1270 1
1123 1270 1
1129 1270 1
534 1271 1
536 1271 1
847 1271 1
851 1271 1
1103 1271 1
1113 1271 1
1124 1271 1
1130 1271 1
535 1272 1
537 1272 1
848 1272 1
852 1272 1
1093 1272 1
1104 1272 1
1125 1272 1
1131 1272 1
536 1273 1
538 1273 1
849 1273 1
853 1273 1
1094 1273 1
1105 1273 1
1126 1273 1
1132 1273 1
537 1274 1
539 1274 1
850 1274 1
854 1274 1
1095 1274 1
1106 1274 1
1127 1274 1
1133 1274 1
538 1275 1
540 1275 1
851 1275 1
855 1275 1
1096 1275 1
1107 1275 1
1128 1275 1
1134 1275 1
539 1276 1
541 1276 1
852 1276 1
856 1276 1
1097 1276 1
1108 1276 1
1114 1276 1
1129 1276 1
540 1277 1
542 1277 1
853 1277 1
857 1277 1
1098 1277 1
1109 1277 1
1115 1277 1
1130 1277 1
541 1278 1
543 1278 1
854 1278 1
858 1278 1
1099 1278 1
1110 1278 1
1116 1278 1
1131 1278 1
542 1279 1
544 1279 1
855 1279 1
859 1279 1
1100 1279 1
1111 1279 1
1117 1279 1
1132 1279 1
543 1280 1
545 1280 1
856 1280 1
860 1280 1
1101 1280 1
1112 1280 1
1118 1280 1
1133 1280 1
544 1281 1
546 1281 1
857 1281 1
861 1281 1
1102 1281 1
1113 1281 1
1119 1281 1
1134 1281 1
547 1282 1
566 1282 1
862 1282 1
879 1282 1
1051 1282 1
1063 1282 1
1135 1282 1
1136 1282 1
548 1283 1
567 1283 1
863 1283 1
880 1283 1
1052 1283 1
1064 1283 1
1136 1283 1
1137 1283 1
547 1284 1
549 1284 1
864 1284 1
881 1284 1
1053 1284 1
1065 1284 1
1137 1284 1
1138 1284 1
548 1285 1
550 1285 1
865 1285 1
882 1285 1
1054 1285 1
1066 1285 1
1138 1285 1
1139 1285 1
549 1286 1
551 1286 1
862 1286 1
866 1286 1
1055 1286 1
1067 1286 1
1139 1286 1
1140 1286 1
550 1287 1
552 1287 1
863 1287 1
867 1287 1
1056 1287 1
1068 1287 1
1140 1287 1
1141 1287 1
551 1288 1
553 1288 1
864 1288 1
868 1288 1
1057 1288 1
1069 1288 1
1141 1288 1
1142 1288 1
552 1289 1
554 1289 1
865 1289 1
869 1289 1
1058 1289 1
1070 1289 1
1142 1289 1
1143 1289 1
553 1290 1
555 1290 1
866 1290 1
870 1290 1
1059 1290 1
1071 1290 1
1143 1290 1
1144 1290 1
554 1291 1
556 1291 1
867 1291 1
871 1291 1
1051 1291 1
1060 1291 1
1144 1291 1
1145 1291 1
555 1292 1
557 1292 1
868 1292 1
872 1292 1
1052 1292 1
1061 1292 1
1145 1292 1
1146 1292 1
556 1293 1
558 1293 1
869 1293 1
873 1293 1
1053 1293 1
1062 1293 1
1146 1293 1
1147 1293 1
557 1294 1
559 1294 1
870 1294 1
874 1294 1
1054 1294 1
1063 1294 1
1147 1294 1
1148 1294 1
558 1295 1
560 1295 1
871 1295 1
875 1295 1
1055 1295 1
1064 1295 1
1148 1295 1
1149 1295 1
559 1296 1
561 1296 1
872 1296 1
876 1296 1
1056 1296 1
1065 1296 1
1149 1296 1
1150 1296 1
560 1297 1
562 1297 1
873 1297 1
877 1297 1
1057 1297 1
1066 1297 1
1150 1297 1
1151 1297 1
561 1298 1
563 1298 1
874 1298 1
878 1298 1
1058 1298 1
1067 1298 1
1151 1298 1
1152 1298 1
562 1299 1
564 1299 1
875 1299 1
879 1299 1
1059 1299 1
1068 1299 1
1152 1299 1
1153 1299 1
563 1300 1
565 1300 1
876 1300 1
880 1300 1
1060 1300 1
1069 1300 1
1153 1300 1
1154 1300 1
564 1301 1
566 1301 1
877 1301 1
881 1301 1
1061 1301 1
1070 1301 1
1154 1301 1
1155 1301 1
565 1302 1
567 1302 1
878 1302 1
882 1302 1
1062 1302 1
1071 1302 1
1135 1302 1
1155 1302 1
568 1303 1
587 1303 1
883 1303 1
900 1303 1
1072 1303 1
1084 1303 1
1135 1303 1
1139 1303 1
569 1304 1
588 1304 1
884 1304 1
901 1304 1
1073 1304 1
1085 1304 1
1136 1304 1
1140 1304 1
568 1305 1
570 1305 1
885 1305 1
902 1305 1
1074 1305 1
1086 1305 1
1137 1305 1
1141 1305 1
569 1306 1
571 1306 1
886 1306 1
903 1306 1
1075 1306 1
1087 1306 1
1138 1306 1
1142 1306 1
570 1307 1
572 1307 1
883 1307 1
887 1307 1
1076 1307 1
1088 1307 1
1139 1307 1
1143 1307 1
571 1308 1
573 1308 1
884 1308 1
888 1308 1
1077 1308 1
1089 1308 1
1140 1308 1
1144 1308 1
572 1309 1
574 1309 1
885 1309 1
889 1309 1
1078 1309 1
1090 1309 1
1141 1309 1
1145 1309 1
573 1310 1
575 1310 1
886 1310 1
890 1310 1
1079 1310 1
1091 1310 1
1142 1310 1
1146 1310 1
574 1311 1
576 1311 1
887 1311 1
891 1311 1
1080 1311 1
1092 1311 1
1143 1311 1
1147 1311 1
575 1312 1
577 1312 1
888 1312 1
892 1312 1
1072 1312 1
1081 1312 1
1144 1312 1
1148 1312 1
576 1313 1
578 1313 1
889 1313 1
893 1313 1
1073 1313 1
1082 1313 1
1145 1313 1
1149 1313 1
577 1314 1
579 1314 1
890 1314 1
894 1314 1
1074 1314 1
1083 1314 1
1146 1314 1
1150 1314 1
578 1315 1
580 1315 1
891 1315 1
895 1315 1
1075 1315 1
1084 1315 1
1147 1315 1
1151 1315 1
579 1316 1
581 1316 1
892 1316 1
896 1316 1
1076 1316 1
1085 1316 1
1148 1316 1
1152 1316 1
580 1317 1
582 1317 1
893 1317 1
897 1317 1
1077 1317 1
1086 1317 1
1149 1317 1
1153 1317 1
581 1318 1
583 1318 1
894 1318 1
898 1318 1
1078 1318 1
1087 1318 1
1150 1318 1
1154 1318 1
582 1319 1
584 1319 1
895 1319 1
899 1319 1
1079 1319 1
1088 1319 1
1151 1319 1
1155 1319 1
583 1320 1
585 1320 1
896 1320 1
900 1320 1
1080 1320 1
1089 1320 1
1135 1320 1
1152 1320 1
584 1321 1
586 1321 1
897 1321 1
901 1321 1
1081 1321 1
1090 1321 1
1136 1321 1
1153 1321 1
585 1322 1
587 1322 1
898 1322 1
902 1322 1
1082 1322 1
1091 1322 1
1137 1322 1
1154 1322 1
586 1323 1
588 1323 1
899 1323 1
903 1323 1
1083 1323 1
1092 1323 1
1138 1323 1
1155 1323 1
589 1324 1
608 1324 1
904 1324 1
921 1324 1
1093 1324 1
1105 1324 1
1135 1324 1
1141 1324 1
590 1325 1
609 1325 1
905 1325 1
922 1325 1
1094 1325 1
1106 1325 1
1136 1325 1
1142 1325 1
589 1326 1
591 1326 1
906 1326 1
923 1326 1
1095 1326 1
1107 1326 1
1137 1326 1
1143 1326 1
590 1327 1
592 1327 1
907 1327 1
924 1327 1
1096 1327 1
1108 1327 1
1138 1327 1
1144 1327 1
591 1328 1
593 1328 1
904 1328 1
908 1328 1
1097 1328 1
1109 1328 1
1139 1328 1
1145 1328 1
592 1329 1
594 1329 1
905 1329 1
909 1329 1
1098 1329 1
1110 1329 1
1140 1329 1
1146 1329 1
593 1330 1
595 1330 1
906 1330 1
910 1330 1
1099 1330 1
1111 1330 1
1141 1330 1
1147 1330 1
594 1331 1
596 1331 1
907 1331 1
911 1331 1
1100 1331 1
1112 1331 1
1142 1331 1
1148 1331 1
595 1332 1
597 1332 1
908 1332 1
912 1332 1
1101 1332 1
1113 1332 1
1143 1332 1
1149 1332 1
596 1333 1
598 1333 1
909 1333 1
913 1333 1
1093 1333 1
1102 1333 1
1144 1333 1
1150 1333 1
597 1334 1
599 1334 1
910 1334 1
914 1334 1
1094 1334 1
1103 1334 1
1145 1334 1
1151 1334 1
598 1335 1
600 1335 1
911 1335 1
915 1335 1
1095 1335 1
1104 1335 1
1146 1335 1
1152 1335 1
599 1336 1
601 1336 1
912 1336 1
916 1336 1
1096 1336 1
1105 1336 1
1147 1336 1
1153 1336 1
600 1337 1
602 1337 1
913 1337 1
917 1337 1
1097 1337 1
1106 1337 1
1148 1337 1
1154 1337 1
601 1338 1
603 1338 1
914 1338 1
918 1338 1
1098 1338 1
1107 1338 1
1149 1338 1
1155 1338 1
602 1339 1
604 1339 1
915 1339 1
919 1339 1
1099 1339 1
1108 1339 1
1135 1339 1
1150 1339 1
603 1340 1
605 1340 1
916 1340 1
920 1340 1
1100 1340 1
1109 1340 1
1136 1340 1
1151 1340 1
604 1341 1
606 1341 1
917 1341 1
921 1341 1
1101 1341 1
1110 1341 1
1137 1341 1
1152 1341 1
605 1342 1
607 1342 1
918 1342 1
922 1342 1
1102 1342 1
1111 1342 1
1138 1342 1
1153 1342 1
606 1343 1
608 1343 1
919 1343 1
923 1343 1
1103 1343 1
1112 1343 1
1139 1343 1
1154 1343 1
607 1344 1
609 1344 1
920 1344 1
924 1344 1
1104 1344 1
1113 1344 1
1140 1344 1
1155 1344 1
610 1345 1
629 1345 1
925 1345 1
942 1345 1
1114 1345 1
1126 1345 1
1135 1345 1
1145 1345 1
611 1346 1
630 1346 1
926 1346 1
943 1346 1
1115 1346 1
1127 1346 1
1136 1346 1
1146 1346 1
610 1347 1
612 1347 1
927 1347 1
944 1347 1
1116 1347 1
1128 1347 1
1137 1347 1
1147 1347 1
611 1348 1
613 1348 1
928 1348 1
945 1348 1
1117 1348 1
1129 1348 1
1138 1348 1
1148 1348 1
612 1349 1
614 1349 1
925 1349 1
929 1349 1
1118 1349 1
1130 1349 1
1139 1349 1
1149 1349 1
613 1350 1
615 1350 1
926 1350 1
930 1350 1
1119 1350 1
1131 1350 1
1140 1350 1
1150 1350 1
614 1351 1
616 1351 1
927 1351 1
931 1351 1
1120 1351 1
1132 1351 1
1141 1351 1
1151 1351 1
615 1352 1
617 1352 1
928 1352 1
932 1352 1
1121 1352 1
1133 1352 1
1142 1352 1
1152 1352 1
616 1353 1
618 1353 1
929 1353 1
933 1353 1
1122 1353 1
1134 1353 1
1143 1353 1
1153 1353 1
617 1354 1
619 1354 1
930 1354 1
934 1354 1
1114 1354 1
1123 1354 1
1144 1354 1
1154 1354 1
618 1355 1
620 1355 1
931 1355 1
935 1355 1
1115 1355 1
1124 1355 1
1145 1355 1
1155 1355 1
619 1356 1
621 1356 1
932 1356 1
936 1356 1
1116 1356 1
1125 1356 1
1135 1356 1
1146 1356 1
620 1357 1
622 1357 1
933 1357 1
937 1357 1
1117 1357 1
1126 1357 1
1136 1357 1
1147 1357 1
621 1358 1
623 1358 1
934 1358 1
938 1358 1
1118 1358 1
1127 1358 1
1137 1358 1
1148 1358 1
622 1359 1
624 1359 1
935 1359 1
939 1359 1
1119 1359 1
1128 1359 1
1138 1359 1
1149 1359 1
623 1360 1
625 1360 1
936 1360 1
940 1360 1
1120 1360 1
1129 1360 1
1139 1360 1
1150 1360 1
624 1361 1
626 1361 1
937 1361 1
941 1361 1
1121 1361 1
1130 1361 1
1140 1361 1
1151 1361 1
625 1362 1
627 1362 1
938 1362 1
942 1362 1
1122 1362 1
1131 1362 1
1141 1362 1
1152 1362 1
626 1363 1
628 1363 1
939 1363 1
943 1363 1
1123 1363 1
1132 1363 1
1142 1363 1
1153 1363 1
627 1364 1
629 1364 1
940 1364 1
944 1364 1
1124 1364 1
1133 1364 1
1143 1364 1
1154 1364 1
628 1365 1
630 1365 1
941 1365 1
945 1365 1
1125 1365 1
1134 1365 1
1144 1365 1
1155 1365 1
631 1366 1
650 1366 1
946 1366 1
963 1366 1
1051 1366 1
1067 1366 1
1156 1366 1
1157 1366 1
632 1367 1
651 1367 1
947 1367 1
964 1367 1
1052 1367 1
1068 1367 1
1157 1367 1
1158 1367 1
631 1368 1
633 1368 1
948 1368 1
965 1368 1
1053 1368 1
1069 1368 1
1158 1368 1
1159 1368 1
632 1369 1
634 1369 1
949 1369 1
966 1369 1
1054 1369 1
1070 1369 1
1159 1369 1
1160 1369 1
633 1370 1
635 1370 1
946 1370 1
950 1370 1
1055 1370 1
1071 1370 1
1160 1370 1
1161 1370 1
634 1371 1
636 1371 1
947 1371 1
951 1371 1
1051 1371 1
1056 1371 1
1161 1371 1
1162 1371 1
635 1372 1
637 1372 1
948 1372 1
952 1372 1
1052 1372 1
1057 1372 1
1162 1372 1
1163 1372 1
636 1373 1
638 1373 1
949 1373 1
953 1373 1
1053 1373 1
1058 1373 1
1163 1373 1
1164 1373 1
637 1374 1
639 1374 1
950 1374 1
954 1374 1
1054 1374 1
1059 1374 1
1164 1374 1
1165 1374 1
638 1375 1
640 1375 1
951 1375 1
955 1375 1
1055 1375 1
1060 1375 1
1165 1375 1
1166 1375 1
639 1376 1
641 1376 1
952 1376 1
956 1376 1
1056 1376 1
1061 1376 1
1166 1376 1
1167 1376 1
640 1377 1
642 1377 1
953 1377 1
957 1377 1
1057 1377 1
1062 1377 1
1167 1377 1
1168 1377 1
641 1378 1
643 1378 1
954 1378 1
958 1378 1
1058 1378 1
1063 1378 1
1168 1378 1
1169 1378 1
642 1379 1
644 1379 1
955 1379 1
959 1379 1
1059 1379 1
1064 1379 1
1169 1379 1
1170 1379 1
643 1380 1
645 1380 1
956 1380 1
960 1380 1
1060 1380 1
1065 1380 1
1170 1380 1
1171 1380 1
644 1381 1
646 1381 1
957 1381 1
961 1381 1
1061 1381 1
1066 1381 1
1171 1381 1
1172 1381 1
645 1382 1
647 1382 1
958 1382 1
962 1382 1
1062 1382 1
1067 1382 1
1172 1382 1
1173 1382 1
646 1383 1
648 1383 1
959 1383 1
963 1383 1
1063 1383 1
1068 1383 1
1173 1383 1
1174 1383 1
647 1384 1
649 1384 1
960 1384 1
964 1384 1
1064 1384 1
1069 1384 1
1174 1384 1
1175 1384 1
648 1385 1
650 1385 1
961 1385 1
965 1385 1
1065 1385 1
1070 1385 1
1175 1385 1
1176 1385 1
649 1386 1
651 1386 1
962 1386 1
966 1386 1
1066 1386 1
1071 1386 1
1156 1386 1
1176 1386 1
652 1387 1
671 1387 1
967 1387 1
984 1387 1
1072 1387 1
1088 1387 1
1156 1387 1
1160 1387 1
653 1388 1
672 1388 1
968 1388 1
985 1388 1
1073 1388 1
1089 1388 1
1157 1388 1
1161 1388 1
652 1389 1
654 1389 1
969 1389 1
986 1389 1
1074 1389 1
1090 1389 1
1158 1389 1
1162 1389 1
653 1390 1
655 1390 1
970 1390 1
987 1390 1
1075 1390 1
1091 1390 1
1159 1390 1
1163 1390 1
654 1391 1
656 1391 1
967 1391 1
971 1391 1
1076 1391 1
1092 1391 1
1160 1391 1
1164 1391 1
655 1392 1
657 1392 1
968 1392 1
972 1392 1
1072 1392 1
1077 1392 1
1161 1392 1
1165 1392 1
656 1393 1
658 1393 1
969 1393 1
973 1393 1
1073 1393 1
1078 1393 1
1162 1393 1
1166 1393 1
657 1394 1
659 1394 1
970 1394 1
974 1394 1
1074 1394 1
1079 1394 1
1163 1394 1
1167 1394 1
658 1395 1
660 1395 1
971 1395 1
975 1395 1
1075 1395 1
1080 1395 1
1164 1395 1
1168 1395 1
659 1396 1
661 1396 1
972 1396 1
976 1396 1
1076 1396 1
1081 1396 1
1165 1396 1
1169 1396 1
660 1397 1
662 1397 1
973 1397 1
977 1397 1
1077 1397 1
1082 1397 1
1166 1397 1
1170 1397 1
661 1398 1
663 1398 1
974 1398 1
978 1398 1
1078 1398 1
1083 1398 1
1167 1398 1
1171 1398 1
662 1399 1
664 1399 1
975 1399 1
979 1399 1
1079 1399 1
1084 1399 1
1168 1399 1
1172 1399 1
663 1400 1
665 1400 1
976 1400 1
980 1400 1
1080 1400 1
1085 1400 1
1169 1400 1
1173 1400 1
664 1401 1
666 1401 1
977 1401 1
981 1401 1
1081 1401 1
1086 1401 1
1170 1401 1
1174 1401 1
665 1402 1
667 1402 1
978 1402 1
982 1402 1
1082 1402 1
1087 1402 1
1171 1402 1
1175 1402 1
666 1403 1
668 1403 1
979 1403 1
983 1403 1
1083 1403 1
1088 1403 1
1172 1403 1
1176 1403 1
667 1404 1
669 1404 1
980 1404 1
984 1404 1
1084 1404 1
1089 1404 1
1156 1404 1
1173 1404 1
668 1405 1
670 1405 1
981 1405 1
985 1405 1
1085 1405 1
1090 1405 1
1157 1405 1
1174 1405 1
669 1406 1
671 1406 1
982 1406 1
986 1406 1
1086 1406 1
1091 1406 1
1158 1406 1
1175 1406 1
670 1407 1
672 1407 1
983 1407 1
987 1407 1
1087 1407 1
1092 1407 1
1159 1407 1
1176 1407 1
673 1408 1
692 1408 1
988 1408 1
1005 1408 1
1093 1408 1
1109 1408 1
1156 1408 1
1162 1408 1
674 1409 1
693 1409 1
989 1409 1
1006 1409 1
1094 1409 1
1110 1409 1
1157 1409 1
1163 1409 1
673 1410 1
675 1410 1
990 1410 1
1007 1410 1
1095 1410 1
1111 1410 1
1158 1410 1
1164 1410 1
674 1411 1
676 1411 1
991 1411 1
1008 1411 1
1096 1411 1
1112 1411 1
1159 1411 1
1165 1411 1
675 1412 1
677 1412 1
988 1412 1
992 1412 1
1097 1412 1
1113 1412 1
1160 1412 1
1166 1412 1
676 1413 1
678 1413 1
989 1413 1
993 1413 1
1093 1413 1
1098 1413 1
1161 1413 1
1167 1413 1
677 1414 1
679 1414 1
990 1414 1
994 1414 1
1094 1414 1
1099 1414 1
1162 1414 1
1168 1414 1
678 1415 1
680 1415 1
991 1415 1
995 1415 1
1095 1415 1
1100 1415 1
1163 1415 1
1169 1415 1
679 1416 1
681 1416 1
992 1416 1
996 1416 1
1096 1416 1
1101 1416 1
1164 1416 1
1170 1416 1
680 1417 1
682 1417 1
993 1417 1
997 1417 1
1097 1417 1
1102 1417 1
1165 1417 1
1171 1417 1
681 1418 1
683 1418 1
994 1418 1
998 1418 1
1098 1418 1
1103 1418 1
1166 1418 1
1172 1418 1
682 1419 1
684 1419 1
995 1419 1
999 1419 1
1099 1419 1
1104 1419 1
1167 1419 1
1173 1419 1
683 1420 1
685 1420 1
996 1420 1
1000 1420 1
1100 1420 1
1105 1420 1
1168 1420 1
1174 1420 1
684 1421 1
686 1421 1
997 1421 1
1001 1421 1
1101 1421 1
1106 1421 1
1169 1421 1
1175 1421 1
685 1422 1
687 1422 1
998 1422 1
1002 1422 1
1102 1422 1
1107 1422 1
1170 1422 1
1176 1422 1
686 1423 1
688 1423 1
999 1423 1
1003 1423 1
1103 1423 1
1108 1423 1
1156 1423 1
1171 1423 1
687 1424 1
689 1424 1
1000 1424 1
1004 1424 1
1104 1424 1
1109 1424 1
1157 1424 1
1172 1424 1
688 1425 1
690 1425 1
1001 1425 1
1005 1425 1
1105 1425 1
1110 1425 1
1158 1425 1
1173 1425 1
689 1426 1
691 1426 1
1002 1426 1
1006 1426 1
1106 1426 1
1111 1426 1
1159 1426 1
1174 1426 1
690 1427 1
692 1427 1
1003 1427 1
1007 1427 1
1107 1427 1
1112 1427 1
1160 1427 1
1175 1427 1
691 1428 1
693 1428 1
1004 1428 1
1008 1428 1
1108 1428 1
1113 1428 1
1161 1428 1
1176 1428 1
694 1429 1
713 1429 1
1009 1429 1
1026 1429 1
1114 1429 1
1130 1429 1
1156 1429 1
1166 1429 1
695 1430 1
714 1430 1
1010 1430 1
1027 1430 1
1115 1430 1
1131 1430 1
1157 1430 1
1167 1430 1
694 1431 1
696 1431 1
1011 1431 1
1028 1431 1
1116 1431 1
1132 1431 1
1158 1431 1
1168 1431 1
695 1432 1
697 1432 1
1012 1432 1
1029 1432 1
1117 1432 1
1133 1432 1
1159 1432 1
1169 1432 1
696 1433 1
698 1433 1
1009 1433 1
1013 1433 1
1118 1433 1
1134 1433 1
1160 1433 1
1170 1433 1
697 1434 1
699 1434 1
1010 1434 1
1014 1434 1
1114 1434 1
1119 1434 1
1161 1434 1
1171 1434 1
698 1435 1
700 1435 1
1011 1435 1
1015 1435 1
1115 1435 1
1120 1435 1
1162 1435 1
1172 1435 1
699 1436 1
701 1436 1
1012 1436 1
1016 1436 1
1116 1436 1
1121 1436 1
1163 1436 1
1173 1436 1
700 1437 1
702 1437 1
1013 1437 1
1017 1437 1
1117 1437 1
1122 1437 1
1164 1437 1
1174 1437 1
701 1438 1
703 1438 1
1014 1438 1
1018 1438 1
1118 1438 1
1123 1438 1
1165 1438 1
1175 1438 1
702 1439 1
704 1439 1
1015 1439 1
1019 1439 1
1119 1439 1
1124 1439 1
1166 1439 1
1176 1439 1
703 1440 1
705 1440 1
1016 1440 1
1020 1440 1
1120 1440 1
1125 1440 1
1156 1440 1
1167 1440 1
704 1441 1
706 1441 1
1017 1441 1
1021 1441 1
1121 1441 1
1126 1441 1
1157 1441 1
1168 1441 1
705 1442 1
707 1442 1
1018 1442 1
1022 1442 1
1122 1442 1
1127 1442 1
1158 1442 1
1169 1442 1
706 1443 1
708 1443 1
1019 1443 1
1023 1443 1
1123 1443 1
1128 1443 1
1159 1443 1
1170 1443 1
707 1444 1
709 1444 1
1020 1444 1
1024 1444 1
1124 1444 1
1129 1444 1
1160 1444 1
1171 1444 1
708 1445 1
710 1445 1
1021 1445 1
1025 1445 1
1125 1445 1
1130 1445 1
1161 1445 1
1172 1445 1
709 1446 1
711 1446 1
1022 1446 1
1026 1446 1
1126 1446 1
1131 1446 1
1162 1446 1
1173 1446 1
710 1447 1
712 1447 1
1023 1447 1
1027 1447 1
1127 1447 1
1132 1447 1
1163 1447 1
1174 1447 1
711 1448 1
713 1448 1
1024 1448 1
1028 1448 1
1128 1448 1
1133 1448 1
1164 1448 1
1175 1448 1
712 1449 1
714 1449 1
1025 1449 1
1029 1449 1
1129 1449 1
1134 1449 1
1165 1449 1
1176 1449 1
715 1450 1
734 1450 1
1030 1450 1
1047 1450 1
1135 1450 1
1151 1450 1
1156 1450 1
1168 1450 1
716 1451 1
735 1451 1
1031 1451 1
1048 1451 1
1136 1451 1
1152 1451 1
1157 1451 1
1169 1451 1
715 1452 1
717 1452 1
1032 1452 1
1049 1452 1
1137 1452 1
1153 1452 1
1158 1452 1
1170 1452 1
716 1453 1
718 1453 1
1033 1453 1
1050 1453 1
1138 1453 1
1154 1453 1
1159 1453 1
1171 1453 1
717 1454 1
719 1454 1
1030 1454 1
1034 1454 1
1139 1454 1
1155 1454 1
1160 1454 1
1172 1454 1
718 1455 1
720 1455 1
1031 1455 1
1035 1455 1
1135 1455 1
1140 1455 1
1161 1455 1
1173 1455 1
719 1456 1
721 1456 1
1032 1456 1
1036 1456 1
1136 1456 1
1141 1456 1
1162 1456 1
1174 1456 1
720 1457 1
722 1457 1
1033 1457 1
1037 1457 1
1137 1457 1
1142 1457 1
1163 1457 1
1175 1457 1
721 1458 1
723 1458 1
1034 1458 1
1038 1458 1
1138 1458 1
1143 1458 1
1164 1458 1
1176 1458 1
722 1459 1
724 1459 1
1035 1459 1
1039 1459 1
1139 1459 1
1144 1459 1
1156 1459 1
1165 1459 1
723 1460 1
725 1460 1
1036 1460 1
1040 1460 1
1140 1460 1
1145 1460 1
1157 1460 1
1166 1460 1
724 1461 1
726 1461 1
1037 1461 1
1041 1461 1
1141 1461 1
1146 1461 1
1158 1461 1
1167 1461 1
725 1462 1
727 1462 1
1038 1462 1
1042 1462 1
1142 1462 1
1147 1462 1
1159 1462 1
1168 1462 1
726 1463 1
728 1463 1
1039 1463 1
1043 1463 1
1143 1463 1
1148 1463 1
1160 1463 1
1169 1463 1
727 1464 1
729 1464 1
1040 1464 1
1044 1464 1
1144 1464 1
1149 1464 1
1161 1464 1
1170 1464 1
728 1465 1
730 1465 1
1041 1465 1
1045 1465 1
1145 1465 1
1150 1465 1
1162 1465 1
1171 1465 1
729 1466 1
731 1466 1
1042 1466 1
1046 1466 1
1146 1466 1
1151 1466 1
1163 1466 1
1172 1466 1
730 1467 1
732 1467 1
1043 1467 1
1047 1467 1
1147 1467 1
1152 1467 1
1164 1467 1
1173 1467 1
731 1468 1
733 1468 1
1044 1468 1
1048 1468 1
1148 1468 1
1153 1468 1
1165 1468 1
1174 1468 1
732 1469 1
734 1469 1
1045 1469 1
1049 1469 1
1149 1469 1
1154 1469 1
1166 1469 1
1175 1469 1
733 1470 1
735 1470 1
1046 1470 1
1050 1470 1
1150 1470 1
1155 1470 1
1167 1470 1
1176 1470 1
