%%MatrixMarket matrix coordinate integer general
% Binary matrix; one-based indices; arithmetic over GF(2)
1176 1470 11760
1 1 1
10 1 1
22 1 1
27 1 1
127 1 1
131 1 1
442 1 1
444 1 1
2 2 1
11 2 1
23 2 1
28 2 1
128 2 1
132 2 1
443 2 1
445 2 1
3 3 1
12 3 1
24 3 1
29 3 1
129 3 1
133 3 1
444 3 1
446 3 1
4 4 1
13 4 1
25 4 1
30 4 1
130 4 1
134 4 1
445 4 1
447 4 1
5 5 1
14 5 1
26 5 1
31 5 1
131 5 1
135 5 1
446 5 1
448 5 1
6 6 1
15 6 1
27 6 1
32 6 1
132 6 1
136 6 1
447 6 1
449 6 1
7 7 1
16 7 1
28 7 1
33 7 1
133 7 1
137 7 1
448 7 1
450 7 1
8 8 1
17 8 1
29 8 1
34 8 1
134 8 1
138 8 1
449 8 1
451 8 1
9 9 1
18 9 1
30 9 1
35 9 1
135 9 1
139 9 1
450 9 1
452 9 1
10 10 1
19 10 1
31 10 1
36 10 1
136 10 1
140 10 1
451 10 1
453 10 1
11 11 1
20 11 1
32 11 1
37 11 1
137 11 1
141 11 1
452 11 1
454 11 1
12 12 1
21 12 1
33 12 1
38 12 1
138 12 1
142 12 1
453 12 1
455 12 1
1 13 1
13 13 1
34 13 1
39 13 1
139 13 1
143 13 1
454 13 1
456 13 1
2 14 1
14 14 1
35 14 1
40 14 1
140 14 1
144 14 1
455 14 1
457 14 1
3 15 1
15 15 1
36 15 1
41 15 1
141 15 1
145 15 1
456 15 1
458 15 1
4 16 1
16 16 1
37 16 1
42 16 1
142 16 1
146 16 1
457 16 1
459 16 1
5 17 1
17 17 1
22 17 1
38 17 1
143 17 1
147 17 1
458 17 1
460 17 1
6 18 1
18 18 1
23 18 1
39 18 1
127 18 1
144 18 1
459 18 1
461 18 1
7 19 1
19 19 1
24 19 1
40 19 1
128 19 1
145 19 1
460 19 1
462 19 1
8 20 1
20 20 1
25 20 1
41 20 1
129 20 1
146 20 1
442 20 1
461 20 1
9 21 1
21 21 1
26 21 1
42 21 1
130 21 1
147 21 1
443 21 1
462 21 1
1 22 1
12 22 1
43 22 1
48 22 1
148 22 1
152 22 1
463 22 1
465 22 1
2 23 1
13 23 1
44 23 1
49 23 1
149 23 1
153 23 1
464 23 1
466 23 1
3 24 1
14 24 1
45 24 1
50 24 1
150 24 1
154 24 1
465 24 1
467 24 1
4 25 1
15 25 1
46 25 1
51 25 1
151 25 1
155 25 1
466 25 1
468 25 1
5 26 1
16 26 1
47 26 1
52 26 1
152 26 1
156 26 1
467 26 1
469 26 1
6 27 1
17 27 1
48 27 1
53 27 1
153 27 1
157 27 1
468 27 1
470 27 1
7 28 1
18 28 1
49 28 1
54 28 1
154 28 1
158 28 1
469 28 1
471 28 1
8 29 1
19 29 1
50 29 1
55 29 1
155 29 1
159 29 1
470 29 1
472 29 1
9 30 1
20 30 1
51 30 1
56 30 1
156 30 1
160 30 1
471 30 1
473 30 1
10 31 1
21 31 1
52 31 1
57 31 1
157 31 1
161 31 1
472 31 1
474 31 1
1 32 1
11 32 1
53 32 1
58 32 1
158 32 1
162 32 1
473 32 1
475 32 1
2 33 1
12 33 1
54 33 1
59 33 1
159 33 1
163 33 1
474 33 1
476 33 1
3 34 1
13 34 1
55 34 1
60 34 1
160 34 1
164 34 1
475 34 1
477 34 1
4 35 1
14 35 1
56 35 1
61 35 1
161 35 1
165 35 1
476 35 1
478 35 1
5 36 1
15 36 1
57 36 1
62 36 1
162 36 1
166 36 1
477 36 1
479 36 1
6 37 1
16 37 1
58 37 1
63 37 1
163 37 1
167 37 1
478 37 1
480 37 1
7 38 1
17 38 1
43 38 1
59 38 1
164 38 1
168 38 1
479 38 1
481 38 1
8 39 1
18 39 1
44 39 1
60 39 1
148 39 1
165 39 1
480 39 1
482 39 1
9 40 1
19 40 1
45 40 1
61 40 1
149 40 1
166 40 1
481 40 1
483 40 1
10 41 1
20 41 1
46 41 1
62 41 1
150 41 1
167 41 1
463 41 1
482 41 1
11 42 1
21 42 1
47 42 1
63 42 1
151 42 1
168 42 1
464 42 1
483 42 1
1 43 1
16 43 1
64 43 1
69 43 1
169 43 1
173 43 1
484 43 1
486 43 1
2 44 1
17 44 1
65 44 1
70 44 1
170 44 1
174 44 1
485 44 1
487 44 1
3 45 1
18 45 1
66 45 1
71 45 1
171 45 1
175 45 1
486 45 1
488 45 1
4 46 1
19 46 1
67 46 1
72 46 1
172 46 1
176 46 1
487 46 1
489 46 1
5 47 1
20 47 1
68 47 1
73 47 1
173 47 1
177 47 1
488 47 1
490 47 1
6 48 1
21 48 1
69 48 1
74 48 1
174 48 1
178 48 1
489 48 1
491 48 1
1 49 1
7 49 1
70 49 1
75 49 1
175 49 1
179 49 1
490 49 1
492 49 1
2 50 1
8 50 1
71 50 1
76 50 1
176 50 1
180 50 1
491 50 1
493 50 1
3 51 1
9 51 1
72 51 1
77 51 1
177 51 1
181 51 1
492 51 1
494 51 1
4 52 1
10 52 1
73 52 1
78 52 1
178 52 1
182 52 1
493 52 1
495 52 1
5 53 1
11 53 1
74 53 1
79 53 1
179 53 1
183 53 1
494 53 1
496 53 1
6 54 1
12 54 1
75 54 1
80 54 1
180 54 1
184 54 1
495 54 1
497 54 1
7 55 1
13 55 1
76 55 1
81 55 1
181 55 1
185 55 1
496 55 1
498 55 1
8 56 1
14 56 1
77 56 1
82 56 1
182 56 1
186 56 1
497 56 1
499 56 1
9 57 1
15 57 1
78 57 1
83 57 1
183 57 1
187 57 1
498 57 1
500 57 1
10 58 1
16 58 1
79 58 1
84 58 1
184 58 1
188 58 1
499 58 1
501 58 1
11 59 1
17 59 1
64 59 1
80 59 1
185 59 1
189 59 1
500 59 1
502 59 1
12 60 1
18 60 1
65 60 1
81 60 1
169 60 1
186 60 1
501 60 1
503 60 1
13 61 1
19 61 1
66 61 1
82 61 1
170 61 1
187 61 1
502 61 1
504 61 1
14 62 1
20 62 1
67 62 1
83 62 1
171 62 1
188 62 1
484 62 1
503 62 1
15 63 1
21 63 1
68 63 1
84 63 1
172 63 1
189 63 1
485 63 1
504 63 1
1 64 1
18 64 1
85 64 1
90 64 1
190 64 1
194 64 1
505 64 1
507 64 1
2 65 1
19 65 1
86 65 1
91 65 1
191 65 1
195 65 1
506 65 1
508 65 1
3 66 1
20 66 1
87 66 1
92 66 1
192 66 1
196 66 1
507 66 1
509 66 1
4 67 1
21 67 1
88 67 1
93 67 1
193 67 1
197 67 1
508 67 1
510 67 1
1 68 1
5 68 1
89 68 1
94 68 1
194 68 1
198 68 1
509 68 1
511 68 1
2 69 1
6 69 1
90 69 1
95 69 1
195 69 1
199 69 1
510 69 1
512 69 1
3 70 1
7 70 1
91 70 1
96 70 1
196 70 1
200 70 1
511 70 1
513 70 1
4 71 1
8 71 1
92 71 1
97 71 1
197 71 1
201 71 1
512 71 1
514 71 1
5 72 1
9 72 1
93 72 1
98 72 1
198 72 1
202 72 1
513 72 1
515 72 1
6 73 1
10 73 1
94 73 1
99 73 1
199 73 1
203 73 1
514 73 1
516 73 1
7 74 1
11 74 1
95 74 1
100 74 1
200 74 1
204 74 1
515 74 1
517 74 1
8 75 1
12 75 1
96 75 1
101 75 1
201 75 1
205 75 1
516 75 1
518 75 1
9 76 1
13 76 1
97 76 1
102 76 1
202 76 1
206 76 1
517 76 1
519 76 1
10 77 1
14 77 1
98 77 1
103 77 1
203 77 1
207 77 1
518 77 1
520 77 1
11 78 1
15 78 1
99 78 1
104 78 1
204 78 1
208 78 1
519 78 1
521 78 1
12 79 1
16 79 1
100 79 1
105 79 1
205 79 1
209 79 1
520 79 1
522 79 1
13 80 1
17 80 1
85 80 1
101 80 1
206 80 1
210 80 1
521 80 1
523 80 1
14 81 1
18 81 1
86 81 1
102 81 1
190 81 1
207 81 1
522 81 1
524 81 1
15 82 1
19 82 1
87 82 1
103 82 1
191 82 1
208 82 1
523 82 1
525 82 1
16 83 1
20 83 1
88 83 1
104 83 1
192 83 1
209 83 1
505 83 1
524 83 1
17 84 1
21 84 1
89 84 1
105 84 1
193 84 1
210 84 1
506 84 1
525 84 1
1 85 1
21 85 1
106 85 1
111 85 1
211 85 1
215 85 1
526 85 1
528 85 1
1 86 1
2 86 1
107 86 1
112 86 1
212 86 1
216 86 1
527 86 1
529 86 1
2 87 1
3 87 1
108 87 1
113 87 1
213 87 1
217 87 1
528 87 1
530 87 1
3 88 1
4 88 1
109 88 1
114 88 1
214 88 1
218 88 1
529 88 1
531 88 1
4 89 1
5 89 1
110 89 1
115 89 1
215 89 1
219 89 1
530 89 1
532 89 1
5 90 1
6 90 1
111 90 1
116 90 1
216 90 1
220 90 1
531 90 1
533 90 1
6 91 1
7 91 1
112 91 1
117 91 1
217 91 1
221 91 1
532 91 1
534 91 1
7 92 1
8 92 1
113 92 1
118 92 1
218 92 1
222 92 1
533 92 1
535 92 1
8 93 1
9 93 1
114 93 1
119 93 1
219 93 1
223 93 1
534 93 1
536 93 1
9 94 1
10 94 1
115 94 1
120 94 1
220 94 1
224 94 1
535 94 1
537 94 1
10 95 1
11 95 1
116 95 1
121 95 1
221 95 1
225 95 1
536 95 1
538 95 1
11 96 1
12 96 1
117 96 1
122 96 1
222 96 1
226 96 1
537 96 1
539 96 1
12 97 1
13 97 1
118 97 1
123 97 1
223 97 1
227 97 1
538 97 1
540 97 1
13 98 1
14 98 1
119 98 1
124 98 1
224 98 1
228 98 1
539 98 1
541 98 1
14 99 1
15 99 1
120 99 1
125 99 1
225 99 1
229 99 1
540 99 1
542 99 1
15 100 1
16 100 1
121 100 1
126 100 1
226 100 1
230 100 1
541 100 1
543 100 1
16 101 1
17 101 1
106 101 1
122 101 1
227 101 1
231 101 1
542 101 1
544 101 1
17 102 1
18 102 1
107 102 1
123 102 1
211 102 1
228 102 1
543 102 1
545 102 1
18 103 1
19 103 1
108 103 1
124 103 1
212 103 1
229 103 1
544 103 1
546 103 1
19 104 1
20 104 1
109 104 1
125 104 1
213 104 1
230 104 1
526 104 1
545 104 1
20 105 1
21 105 1
110 105 1
126 105 1
214 105 1
231 105 1
527 105 1
546 105 1
22 106 1
33 106 1
43 106 1
52 106 1
232 106 1
236 106 1
547 106 1
549 106 1
23 107 1
34 107 1
44 107 1
53 107 1
233 107 1
237 107 1
548 107 1
550 107 1
24 108 1
35 108 1
45 108 1
54 108 1
234 108 1
238 108 1
549 108 1
551 108 1
25 109 1
36 109 1
46 109 1
55 109 1
235 109 1
239 109 1
550 109 1
552 109 1
26 110 1
37 110 1
47 110 1
56 110 1
236 110 1
240 110 1
551 110 1
553 110 1
27 111 1
38 111 1
48 111 1
57 111 1
237 111 1
241 111 1
552 111 1
554 111 1
28 112 1
39 112 1
49 112 1
58 112 1
238 112 1
242 112 1
553 112 1
555 112 1
29 113 1
40 113 1
50 113 1
59 113 1
239 113 1
243 113 1
554 113 1
556 113 1
30 114 1
41 114 1
51 114 1
60 114 1
240 114 1
244 114 1
555 114 1
557 114 1
31 115 1
42 115 1
52 115 1
61 115 1
241 115 1
245 115 1
556 115 1
558 115 1
22 116 1
32 116 1
53 116 1
62 116 1
242 116 1
246 116 1
557 116 1
559 116 1
23 117 1
33 117 1
54 117 1
63 117 1
243 117 1
247 117 1
558 117 1
560 117 1
24 118 1
34 118 1
43 118 1
55 118 1
244 118 1
248 118 1
559 118 1
561 118 1
25 119 1
35 119 1
44 119 1
56 119 1
245 119 1
249 119 1
560 119 1
562 119 1
26 120 1
36 120 1
45 120 1
57 120 1
246 120 1
250 120 1
561 120 1
563 120 1
27 121 1
37 121 1
46 121 1
58 121 1
247 121 1
251 121 1
562 121 1
564 121 1
28 122 1
38 122 1
47 122 1
59 122 1
248 122 1
252 122 1
563 122 1
565 122 1
29 123 1
39 123 1
48 123 1
60 123 1
232 123 1
249 123 1
564 123 1
566 123 1
30 124 1
40 124 1
49 124 1
61 124 1
233 124 1
250 124 1
565 124 1
567 124 1
31 125 1
41 125 1
50 125 1
62 125 1
234 125 1
251 125 1
547 125 1
566 125 1
32 126 1
42 126 1
51 126 1
63 126 1
235 126 1
252 126 1
548 126 1
567 126 1
22 127 1
37 127 1
64 127 1
73 127 1
253 127 1
257 127 1
568 127 1
570 127 1
23 128 1
38 128 1
65 128 1
74 128 1
254 128 1
258 128 1
569 128 1
571 128 1
24 129 1
39 129 1
66 129 1
75 129 1
255 129 1
259 129 1
570 129 1
572 129 1
25 130 1
40 130 1
67 130 1
76 130 1
256 130 1
260 130 1
571 130 1
573 130 1
26 131 1
41 131 1
68 131 1
77 131 1
257 131 1
261 131 1
572 131 1
574 131 1
27 132 1
42 132 1
69 132 1
78 132 1
258 132 1
262 132 1
573 132 1
575 132 1
22 133 1
28 133 1
70 133 1
79 133 1
259 133 1
263 133 1
574 133 1
576 133 1
23 134 1
29 134 1
71 134 1
80 134 1
260 134 1
264 134 1
575 134 1
577 134 1
24 135 1
30 135 1
72 135 1
81 135 1
261 135 1
265 135 1
576 135 1
578 135 1
25 136 1
31 136 1
73 136 1
82 136 1
262 136 1
266 136 1
577 136 1
579 136 1
26 137 1
32 137 1
74 137 1
83 137 1
263 137 1
267 137 1
578 137 1
580 137 1
27 138 1
33 138 1
75 138 1
84 138 1
264 138 1
268 138 1
579 138 1
581 138 1
28 139 1
34 139 1
64 139 1
76 139 1
265 139 1
269 139 1
580 139 1
582 139 1
29 140 1
35 140 1
65 140 1
77 140 1
266 140 1
270 140 1
581 140 1
583 140 1
30 141 1
36 141 1
66 141 1
78 141 1
267 141 1
271 141 1
582 141 1
584 141 1
31 142 1
37 142 1
67 142 1
79 142 1
268 142 1
272 142 1
583 142 1
585 142 1
32 143 1
38 143 1
68 143 1
80 143 1
269 143 1
273 143 1
584 143 1
586 143 1
33 144 1
39 144 1
69 144 1
81 144 1
253 144 1
270 144 1
585 144 1
587 144 1
34 145 1
40 145 1
70 145 1
82 145 1
254 145 1
271 145 1
586 145 1
588 145 1
35 146 1
41 146 1
71 146 1
83 146 1
255 146 1
272 146 1
568 146 1
587 146 1
36 147 1
42 147 1
72 147 1
84 147 1
256 147 1
273 147 1
569 147 1
588 147 1
22 148 1
39 148 1
85 148 1
94 148 1
274 148 1
278 148 1
589 148 1
591 148 1
23 149 1
40 149 1
86 149 1
95 149 1
275 149 1
279 149 1
590 149 1
592 149 1
24 150 1
41 150 1
87 150 1
96 150 1
276 150 1
280 150 1
591 150 1
593 150 1
25 151 1
42 151 1
88 151 1
97 151 1
277 151 1
281 151 1
592 151 1
594 151 1
22 152 1
26 152 1
89 152 1
98 152 1
278 152 1
282 152 1
593 152 1
595 152 1
23 153 1
27 153 1
90 153 1
99 153 1
279 153 1
283 153 1
594 153 1
596 153 1
24 154 1
28 154 1
91 154 1
100 154 1
280 154 1
284 154 1
595 154 1
597 154 1
25 155 1
29 155 1
92 155 1
101 155 1
281 155 1
285 155 1
596 155 1
598 155 1
26 156 1
30 156 1
93 156 1
102 156 1
282 156 1
286 156 1
597 156 1
599 156 1
27 157 1
31 157 1
94 157 1
103 157 1
283 157 1
287 157 1
598 157 1
600 157 1
28 158 1
32 158 1
95 158 1
104 158 1
284 158 1
288 158 1
599 158 1
601 158 1
29 159 1
33 159 1
96 159 1
105 159 1
285 159 1
289 159 1
600 159 1
602 159 1
30 160 1
34 160 1
85 160 1
97 160 1
286 160 1
290 160 1
601 160 1
603 160 1
31 161 1
35 161 1
86 161 1
98 161 1
287 161 1
291 161 1
602 161 1
604 161 1
32 162 1
36 162 1
87 162 1
99 162 1
288 162 1
292 162 1
603 162 1
605 162 1
33 163 1
37 163 1
88 163 1
100 163 1
289 163 1
293 163 1
604 163 1
606 163 1
34 164 1
38 164 1
89 164 1
101 164 1
290 164 1
294 164 1
605 164 1
607 164 1
35 165 1
39 165 1
90 165 1
102 165 1
274 165 1
291 165 1
606 165 1
608 165 1
36 166 1
40 166 1
91 166 1
103 166 1
275 166 1
292 166 1
607 166 1
609 166 1
37 167 1
41 167 1
92 167 1
104 167 1
276 167 1
293 167 1
589 167 1
608 167 1
38 168 1
42 168 1
93 168 1
105 168 1
277 168 1
294 168 1
590 168 1
609 168 1
22 169 1
42 169 1
106 169 1
115 169 1
295 169 1
299 169 1
610 169 1
612 169 1
22 170 1
23 170 1
107 170 1
116 170 1
296 170 1
300 170 1
611 170 1
613 170 1
23 171 1
24 171 1
108 171 1
117 171 1
297 171 1
301 171 1
612 171 1
614 171 1
24 172 1
25 172 1
109 172 1
118 172 1
298 172 1
302 172 1
613 172 1
615 172 1
25 173 1
26 173 1
110 173 1
119 173 1
299 173 1
303 173 1
614 173 1
616 173 1
26 174 1
27 174 1
111 174 1
120 174 1
300 174 1
304 174 1
615 174 1
617 174 1
27 175 1
28 175 1
112 175 1
121 175 1
301 175 1
305 175 1
616 175 1
618 175 1
28 176 1
29 176 1
113 176 1
122 176 1
302 176 1
306 176 1
617 176 1
619 176 1
29 177 1
30 177 1
114 177 1
123 177 1
303 177 1
307 177 1
618 177 1
620 177 1
30 178 1
31 178 1
115 178 1
124 178 1
304 178 1
308 178 1
619 178 1
621 178 1
31 179 1
32 179 1
116 179 1
125 179 1
305 179 1
309 179 1
620 179 1
622 179 1
32 180 1
33 180 1
117 180 1
126 180 1
306 180 1
310 180 1
621 180 1
623 180 1
33 181 1
34 181 1
106 181 1
118 181 1
307 181 1
311 181 1
622 181 1
624 181 1
34 182 1
35 182 1
107 182 1
119 182 1
308 182 1
312 182 1
623 182 1
625 182 1
35 183 1
36 183 1
108 183 1
120 183 1
309 183 1
313 183 1
624 183 1
626 183 1
36 184 1
37 184 1
109 184 1
121 184 1
310 184 1
314 184 1
625 184 1
627 184 1
37 185 1
38 185 1
110 185 1
122 185 1
311 185 1
315 185 1
626 185 1
628 185 1
38 186 1
39 186 1
111 186 1
123 186 1
295 186 1
312 186 1
627 186 1
629 186 1
39 187 1
40 187 1
112 187 1
124 187 1
296 187 1
313 187 1
628 187 1
630 187 1
40 188 1
41 188 1
113 188 1
125 188 1
297 188 1
314 188 1
610 188 1
629 188 1
41 189 1
42 189 1
114 189 1
126 189 1
298 189 1
315 189 1
611 189 1
630 189 1
43 190 1
58 190 1
64 190 1
75 190 1
316 190 1
320 190 1
631 190 1
633 190 1
44 191 1
59 191 1
65 191 1
76 191 1
317 191 1
321 191 1
632 191 1
634 191 1
45 192 1
60 192 1
66 192 1
77 192 1
318 192 1
322 192 1
633 192 1
635 192 1
46 193 1
61 193 1
67 193 1
78 193 1
319 193 1
323 193 1
634 193 1
636 193 1
47 194 1
62 194 1
68 194 1
79 194 1
320 194 1
324 194 1
635 194 1
637 194 1
48 195 1
63 195 1
69 195 1
80 195 1
321 195 1
325 195 1
636 195 1
638 195 1
43 196 1
49 196 1
70 196 1
81 196 1
322 196 1
326 196 1
637 196 1
639 196 1
44 197 1
50 197 1
71 197 1
82 197 1
323 197 1
327 197 1
638 197 1
640 197 1
45 198 1
51 198 1
72 198 1
83 198 1
324 198 1
328 198 1
639 198 1
641 198 1
46 199 1
52 199 1
73 199 1
84 199 1
325 199 1
329 199 1
640 199 1
642 199 1
47 200 1
53 200 1
64 200 1
74 200 1
326 200 1
330 200 1
641 200 1
643 200 1
48 201 1
54 201 1
65 201 1
75 201 1
327 201 1
331 201 1
642 201 1
644 201 1
49 202 1
55 202 1
66 202 1
76 202 1
328 202 1
332 202 1
643 202 1
645 202 1
50 203 1
56 203 1
67 203 1
77 203 1
329 203 1
333 203 1
644 203 1
646 203 1
51 204 1
57 204 1
68 204 1
78 204 1
330 204 1
334 204 1
645 204 1
647 204 1
52 205 1
58 205 1
69 205 1
79 205 1
331 205 1
335 205 1
646 205 1
648 205 1
53 206 1
59 206 1
70 206 1
80 206 1
332 206 1
336 206 1
647 206 1
649 206 1
54 207 1
60 207 1
71 207 1
81 207 1
316 207 1
333 207 1
648 207 1
650 207 1
55 208 1
61 208 1
72 208 1
82 208 1
317 208 1
334 208 1
649 208 1
651 208 1
56 209 1
62 209 1
73 209 1
83 209 1
318 209 1
335 209 1
631 209 1
650 209 1
57 210 1
63 210 1
74 210 1
84 210 1
319 210 1
336 210 1
632 210 1
651 210 1
43 211 1
60 211 1
85 211 1
96 211 1
337 211 1
341 211 1
652 211 1
654 211 1
44 212 1
61 212 1
86 212 1
97 212 1
338 212 1
342 212 1
653 212 1
655 212 1
45 213 1
62 213 1
87 213 1
98 213 1
339 213 1
343 213 1
654 213 1
656 213 1
46 214 1
63 214 1
88 214 1
99 214 1
340 214 1
344 214 1
655 214 1
657 214 1
43 215 1
47 215 1
89 215 1
100 215 1
341 215 1
345 215 1
656 215 1
658 215 1
44 216 1
48 216 1
90 216 1
101 216 1
342 216 1
346 216 1
657 216 1
659 216 1
45 217 1
49 217 1
91 217 1
102 217 1
343 217 1
347 217 1
658 217 1
660 217 1
46 218 1
50 218 1
92 218 1
103 218 1
344 218 1
348 218 1
659 218 1
661 218 1
47 219 1
51 219 1
93 219 1
104 219 1
345 219 1
349 219 1
660 219 1
662 219 1
48 220 1
52 220 1
94 220 1
105 220 1
346 220 1
350 220 1
661 220 1
663 220 1
49 221 1
53 221 1
85 221 1
95 221 1
347 221 1
351 221 1
662 221 1
664 221 1
50 222 1
54 222 1
86 222 1
96 222 1
348 222 1
352 222 1
663 222 1
665 222 1
51 223 1
55 223 1
87 223 1
97 223 1
349 223 1
353 223 1
664 223 1
666 223 1
52 224 1
56 224 1
88 224 1
98 224 1
350 224 1
354 224 1
665 224 1
667 224 1
53 225 1
57 225 1
89 225 1
99 225 1
351 225 1
355 225 1
666 225 1
668 225 1
54 226 1
58 226 1
90 226 1
100 226 1
352 226 1
356 226 1
667 226 1
669 226 1
55 227 1
59 227 1
91 227 1
101 227 1
353 227 1
357 227 1
668 227 1
670 227 1
56 228 1
60 228 1
92 228 1
102 228 1
337 228 1
354 228 1
669 228 1
671 228 1
57 229 1
61 229 1
93 229 1
103 229 1
338 229 1
355 229 1
670 229 1
672 229 1
58 230 1
62 230 1
94 230 1
104 230 1
339 230 1
356 230 1
652 230 1
671 230 1
59 231 1
63 231 1
95 231 1
105 231 1
340 231 1
357 231 1
653 231 1
672 231 1
43 232 1
63 232 1
106 232 1
117 232 1
358 232 1
362 232 1
673 232 1
675 232 1
43 233 1
44 233 1
107 233 1
118 233 1
359 233 1
363 233 1
674 233 1
676 233 1
44 234 1
45 234 1
108 234 1
119 234 1
360 234 1
364 234 1
675 234 1
677 234 1
45 235 1
46 235 1
109 235 1
120 235 1
361 235 1
365 235 1
676 235 1
678 235 1
46 236 1
47 236 1
110 236 1
121 236 1
362 236 1
366 236 1
677 236 1
679 236 1
47 237 1
48 237 1
111 237 1
122 237 1
363 237 1
367 237 1
678 237 1
680 237 1
48 238 1
49 238 1
112 238 1
123 238 1
364 238 1
368 238 1
679 238 1
681 238 1
49 239 1
50 239 1
113 239 1
124 239 1
365 239 1
369 239 1
680 239 1
682 239 1
50 240 1
51 240 1
114 240 1
125 240 1
366 240 1
370 240 1
681 240 1
683 240 1
51 241 1
52 241 1
115 241 1
126 241 1
367 241 1
371 241 1
682 241 1
684 241 1
52 242 1
53 242 1
106 242 1
116 242 1
368 242 1
372 242 1
683 242 1
685 242 1
53 243 1
54 243 1
107 243 1
117 243 1
369 243 1
373 243 1
684 243 1
686 243 1
54 244 1
55 244 1
108 244 1
118 244 1
370 244 1
374 244 1
685 244 1
687 244 1
55 245 1
56 245 1
109 245 1
119 245 1
371 245 1
375 245 1
686 245 1
688 245 1
56 246 1
57 246 1
110 246 1
120 246 1
372 246 1
376 246 1
687 246 1
689 246 1
57 247 1
58 247 1
111 247 1
121 247 1
373 247 1
377 247 1
688 247 1
690 247 1
58 248 1
59 248 1
112 248 1
122 248 1
374 248 1
378 248 1
689 248 1
691 248 1
59 249 1
60 249 1
113 249 1
123 249 1
358 249 1
375 249 1
690 249 1
692 249 1
60 250 1
61 250 1
114 250 1
124 250 1
359 250 1
376 250 1
691 250 1
693 250 1
61 251 1
62 251 1
115 251 1
125 251 1
360 251 1
377 251 1
673 251 1
692 251 1
62 252 1
63 252 1
116 252 1
126 252 1
361 252 1
378 252 1
674 252 1
693 252 1
64 253 1
81 253 1
85 253 1
100 253 1
379 253 1
383 253 1
694 253 1
696 253 1
65 254 1
82 254 1
86 254 1
101 254 1
380 254 1
384 254 1
695 254 1
697 254 1
66 255 1
83 255 1
87 255 1
102 255 1
381 255 1
385 255 1
696 255 1
698 255 1
67 256 1
84 256 1
88 256 1
103 256 1
382 256 1
386 256 1
697 256 1
699 256 1
64 257 1
68 257 1
89 257 1
104 257 1
383 257 1
387 257 1
698 257 1
700 257 1
65 258 1
69 258 1
90 258 1
105 258 1
384 258 1
388 258 1
699 258 1
701 258 1
66 259 1
70 259 1
85 259 1
91 259 1
385 259 1
389 259 1
700 259 1
702 259 1
67 260 1
71 260 1
86 260 1
92 260 1
386 260 1
390 260 1
701 260 1
703 260 1
68 261 1
72 261 1
87 261 1
93 261 1
387 261 1
391 261 1
702 261 1
704 261 1
69 262 1
73 262 1
88 262 1
94 262 1
388 262 1
392 262 1
703 262 1
705 262 1
70 263 1
74 263 1
89 263 1
95 263 1
389 263 1
393 263 1
704 263 1
706 263 1
71 264 1
75 264 1
90 264 1
96 264 1
390 264 1
394 264 1
705 264 1
707 264 1
72 265 1
76 265 1
91 265 1
97 265 1
391 265 1
395 265 1
706 265 1
708 265 1
73 266 1
77 266 1
92 266 1
98 266 1
392 266 1
396 266 1
707 266 1
709 266 1
74 267 1
78 267 1
93 267 1
99 267 1
393 267 1
397 267 1
708 267 1
710 267 1
75 268 1
79 268 1
94 268 1
100 268 1
394 268 1
398 268 1
709 268 1
711 268 1
76 269 1
80 269 1
95 269 1
101 269 1
395 269 1
399 269 1
710 269 1
712 269 1
77 270 1
81 270 1
96 270 1
102 270 1
379 270 1
396 270 1
711 270 1
713 270 1
78 271 1
82 271 1
97 271 1
103 271 1
380 271 1
397 271 1
712 271 1
714 271 1
79 272 1
83 272 1
98 272 1
104 272 1
381 272 1
398 272 1
694 272 1
713 272 1
80 273 1
84 273 1
99 273 1
105 273 1
382 273 1
399 273 1
695 273 1
714 273 1
64 274 1
84 274 1
106 274 1
121 274 1
400 274 1
404 274 1
715 274 1
717 274 1
64 275 1
65 275 1
107 275 1
122 275 1
401 275 1
405 275 1
716 275 1
718 275 1
65 276 1
66 276 1
108 276 1
123 276 1
402 276 1
406 276 1
717 276 1
719 276 1
66 277 1
67 277 1
109 277 1
124 277 1
403 277 1
407 277 1
718 277 1
720 277 1
67 278 1
68 278 1
110 278 1
125 278 1
404 278 1
408 278 1
719 278 1
721 278 1
68 279 1
69 279 1
111 279 1
126 279 1
405 279 1
409 279 1
720 279 1
722 279 1
69 280 1
70 280 1
106 280 1
112 280 1
406 280 1
410 280 1
721 280 1
723 280 1
70 281 1
71 281 1
107 281 1
113 281 1
407 281 1
411 281 1
722 281 1
724 281 1
71 282 1
72 282 1
108 282 1
114 282 1
408 282 1
412 282 1
723 282 1
725 282 1
72 283 1
73 283 1
109 283 1
115 283 1
409 283 1
413 283 1
724 283 1
726 283 1
73 284 1
74 284 1
110 284 1
116 284 1
410 284 1
414 284 1
725 284 1
727 284 1
74 285 1
75 285 1
111 285 1
117 285 1
411 285 1
415 285 1
726 285 1
728 285 1
75 286 1
76 286 1
112 286 1
118 286 1
412 286 1
416 286 1
727 286 1
729 286 1
76 287 1
77 287 1
113 287 1
119 287 1
413 287 1
417 287 1
728 287 1
730 287 1
77 288 1
78 288 1
114 288 1
120 288 1
414 288 1
418 288 1
729 288 1
731 288 1
78 289 1
79 289 1
115 289 1
121 289 1
415 289 1
419 289 1
730 289 1
732 289 1
79 290 1
80 290 1
116 290 1
122 290 1
416 290 1
420 290 1
731 290 1
733 290 1
80 291 1
81 291 1
117 291 1
123 291 1
400 291 1
417 291 1
732 291 1
734 291 1
81 292 1
82 292 1
118 292 1
124 292 1
401 292 1
418 292 1
733 292 1
735 292 1
82 293 1
83 293 1
119 293 1
125 293 1
402 293 1
419 293 1
715 293 1
734 293 1
83 294 1
84 294 1
120 294 1
126 294 1
403 294 1
420 294 1
716 294 1
735 294 1
85 295 1
105 295 1
106 295 1
123 295 1
421 295 1
425 295 1
736 295 1
738 295 1
85 296 1
86 296 1
107 296 1
124 296 1
422 296 1
426 296 1
737 296 1
739 296 1
86 297 1
87 297 1
108 297 1
125 297 1
423 297 1
427 297 1
738 297 1
740 297 1
87 298 1
88 298 1
109 298 1
126 298 1
424 298 1
428 298 1
739 298 1
741 298 1
88 299 1
89 299 1
106 299 1
110 299 1
425 299 1
429 299 1
740 299 1
742 299 1
89 300 1
90 300 1
107 300 1
111 300 1
426 300 1
430 300 1
741 300 1
743 300 1
90 301 1
91 301 1
108 301 1
112 301 1
427 301 1
431 301 1
742 301 1
744 301 1
91 302 1
92 302 1
109 302 1
113 302 1
428 302 1
432 302 1
743 302 1
745 302 1
92 303 1
93 303 1
110 303 1
114 303 1
429 303 1
433 303 1
744 303 1
746 303 1
93 304 1
94 304 1
111 304 1
115 304 1
430 304 1
434 304 1
745 304 1
747 304 1
94 305 1
95 305 1
112 305 1
116 305 1
431 305 1
435 305 1
746 305 1
748 305 1
95 306 1
96 306 1
113 306 1
117 306 1
432 306 1
436 306 1
747 306 1
749 306 1
96 307 1
97 307 1
114 307 1
118 307 1
433 307 1
437 307 1
748 307 1
750 307 1
97 308 1
98 308 1
115 308 1
119 308 1
434 308 1
438 308 1
749 308 1
751 308 1
98 309 1
99 309 1
116 309 1
120 309 1
435 309 1
439 309 1
750 309 1
752 309 1
99 310 1
100 310 1
117 310 1
121 310 1
436 310 1
440 310 1
751 310 1
753 310 1
100 311 1
101 311 1
118 311 1
122 311 1
437 311 1
441 311 1
752 311 1
754 311 1
101 312 1
102 312 1
119 312 1
123 312 1
421 312 1
438 312 1
753 312 1
755 312 1
102 313 1
103 313 1
120 313 1
124 313 1
422 313 1
439 313 1
754 313 1
756 313 1
103 314 1
104 314 1
121 314 1
125 314 1
423 314 1
440 314 1
736 314 1
755 314 1
104 315 1
105 315 1
122 315 1
126 315 1
424 315 1
441 315 1
737 315 1
756 315 1
127 316 1
138 316 1
148 316 1
157 316 1
232 316 1
237 316 1
757 316 1
759 316 1
128 317 1
139 317 1
149 317 1
158 317 1
233 317 1
238 317 1
758 317 1
760 317 1
129 318 1
140 318 1
150 318 1
159 318 1
234 318 1
239 318 1
759 318 1
761 318 1
130 319 1
141 319 1
151 319 1
160 319 1
235 319 1
240 319 1
760 319 1
762 319 1
131 320 1
142 320 1
152 320 1
161 320 1
236 320 1
241 320 1
761 320 1
763 320 1
132 321 1
143 321 1
153 321 1
162 321 1
237 321 1
242 321 1
762 321 1
764 321 1
133 322 1
144 322 1
154 322 1
163 322 1
238 322 1
243 322 1
763 322 1
765 322 1
134 323 1
145 323 1
155 323 1
164 323 1
239 323 1
244 323 1
764 323 1
766 323 1
135 324 1
146 324 1
156 324 1
165 324 1
240 324 1
245 324 1
765 324 1
767 324 1
136 325 1
147 325 1
157 325 1
166 325 1
241 325 1
246 325 1
766 325 1
768 325 1
127 326 1
137 326 1
158 326 1
167 326 1
242 326 1
247 326 1
767 326 1
769 326 1
128 327 1
138 327 1
159 327 1
168 327 1
243 327 1
248 327 1
768 327 1
770 327 1
129 328 1
139 328 1
148 328 1
160 328 1
244 328 1
249 328 1
769 328 1
771 328 1
130 329 1
140 329 1
149 329 1
161 329 1
245 329 1
250 329 1
770 329 1
772 329 1
131 330 1
141 330 1
150 330 1
162 330 1
246 330 1
251 330 1
771 330 1
773 330 1
132 331 1
142 331 1
151 331 1
163 331 1
247 331 1
252 331 1
772 331 1
774 331 1
133 332 1
143 332 1
152 332 1
164 332 1
232 332 1
248 332 1
773 332 1
775 332 1
134 333 1
144 333 1
153 333 1
165 333 1
233 333 1
249 333 1
774 333 1
776 333 1
135 334 1
145 334 1
154 334 1
166 334 1
234 334 1
250 334 1
775 334 1
777 334 1
136 335 1
146 335 1
155 335 1
167 335 1
235 335 1
251 335 1
757 335 1
776 335 1
137 336 1
147 336 1
156 336 1
168 336 1
236 336 1
252 336 1
758 336 1
777 336 1
127 337 1
142 337 1
169 337 1
178 337 1
253 337 1
258 337 1
778 337 1
780 337 1
128 338 1
143 338 1
170 338 1
179 338 1
254 338 1
259 338 1
779 338 1
781 338 1
129 339 1
144 339 1
171 339 1
180 339 1
255 339 1
260 339 1
780 339 1
782 339 1
130 340 1
145 340 1
172 340 1
181 340 1
256 340 1
261 340 1
781 340 1
783 340 1
131 341 1
146 341 1
173 341 1
182 341 1
257 341 1
262 341 1
782 341 1
784 341 1
132 342 1
147 342 1
174 342 1
183 342 1
258 342 1
263 342 1
783 342 1
785 342 1
127 343 1
133 343 1
175 343 1
184 343 1
259 343 1
264 343 1
784 343 1
786 343 1
128 344 1
134 344 1
176 344 1
185 344 1
260 344 1
265 344 1
785 344 1
787 344 1
129 345 1
135 345 1
177 345 1
186 345 1
261 345 1
266 345 1
786 345 1
788 345 1
130 346 1
136 346 1
178 346 1
187 346 1
262 346 1
267 346 1
787 346 1
789 346 1
131 347 1
137 347 1
179 347 1
188 347 1
263 347 1
268 347 1
788 347 1
790 347 1
132 348 1
138 348 1
180 348 1
189 348 1
264 348 1
269 348 1
789 348 1
791 348 1
133 349 1
139 349 1
169 349 1
181 349 1
265 349 1
270 349 1
790 349 1
792 349 1
134 350 1
140 350 1
170 350 1
182 350 1
266 350 1
271 350 1
791 350 1
793 350 1
135 351 1
141 351 1
171 351 1
183 351 1
267 351 1
272 351 1
792 351 1
794 351 1
136 352 1
142 352 1
172 352 1
184 352 1
268 352 1
273 352 1
793 352 1
795 352 1
137 353 1
143 353 1
173 353 1
185 353 1
253 353 1
269 353 1
794 353 1
796 353 1
138 354 1
144 354 1
174 354 1
186 354 1
254 354 1
270 354 1
795 354 1
797 354 1
139 355 1
145 355 1
175 355 1
187 355 1
255 355 1
271 355 1
796 355 1
798 355 1
140 356 1
146 356 1
176 356 1
188 356 1
256 356 1
272 356 1
778 356 1
797 356 1
141 357 1
147 357 1
177 357 1
189 357 1
257 357 1
273 357 1
779 357 1
798 357 1
127 358 1
144 358 1
190 358 1
199 358 1
274 358 1
279 358 1
799 358 1
801 358 1
128 359 1
145 359 1
191 359 1
200 359 1
275 359 1
280 359 1
800 359 1
802 359 1
129 360 1
146 360 1
192 360 1
201 360 1
276 360 1
281 360 1
801 360 1
803 360 1
130 361 1
147 361 1
193 361 1
202 361 1
277 361 1
282 361 1
802 361 1
804 361 1
127 362 1
131 362 1
194 362 1
203 362 1
278 362 1
283 362 1
803 362 1
805 362 1
128 363 1
132 363 1
195 363 1
204 363 1
279 363 1
284 363 1
804 363 1
806 363 1
129 364 1
133 364 1
196 364 1
205 364 1
280 364 1
285 364 1
805 364 1
807 364 1
130 365 1
134 365 1
197 365 1
206 365 1
281 365 1
286 365 1
806 365 1
808 365 1
131 366 1
135 366 1
198 366 1
207 366 1
282 366 1
287 366 1
807 366 1
809 366 1
132 367 1
136 367 1
199 367 1
208 367 1
283 367 1
288 367 1
808 367 1
810 367 1
133 368 1
137 368 1
200 368 1
209 368 1
284 368 1
289 368 1
809 368 1
811 368 1
134 369 1
138 369 1
201 369 1
210 369 1
285 369 1
290 369 1
810 369 1
812 369 1
135 370 1
139 370 1
190 370 1
202 370 1
286 370 1
291 370 1
811 370 1
813 370 1
136 371 1
140 371 1
191 371 1
203 371 1
287 371 1
292 371 1
812 371 1
814 371 1
137 372 1
141 372 1
192 372 1
204 372 1
288 372 1
293 372 1
813 372 1
815 372 1
138 373 1
142 373 1
193 373 1
205 373 1
289 373 1
294 373 1
814 373 1
816 373 1
139 374 1
143 374 1
194 374 1
206 374 1
274 374 1
290 374 1
815 374 1
817 374 1
140 375 1
144 375 1
195 375 1
207 375 1
275 375 1
291 375 1
816 375 1
818 375 1
141 376 1
145 376 1
196 376 1
208 376 1
276 376 1
292 376 1
817 376 1
819 376 1
142 377 1
146 377 1
197 377 1
209 377 1
277 377 1
293 377 1
799 377 1
818 377 1
143 378 1
147 378 1
198 378 1
210 378 1
278 378 1
294 378 1
800 378 1
819 378 1
127 379 1
147 379 1
211 379 1
220 379 1
295 379 1
300 379 1
820 379 1
822 379 1
127 380 1
128 380 1
212 380 1
221 380 1
296 380 1
301 380 1
821 380 1
823 380 1
128 381 1
129 381 1
213 381 1
222 381 1
297 381 1
302 381 1
822 381 1
824 381 1
129 382 1
130 382 1
214 382 1
223 382 1
298 382 1
303 382 1
823 382 1
825 382 1
130 383 1
131 383 1
215 383 1
224 383 1
299 383 1
304 383 1
824 383 1
826 383 1
131 384 1
132 384 1
216 384 1
225 384 1
300 384 1
305 384 1
825 384 1
827 384 1
132 385 1
133 385 1
217 385 1
226 385 1
301 385 1
306 385 1
826 385 1
828 385 1
133 386 1
134 386 1
218 386 1
227 386 1
302 386 1
307 386 1
827 386 1
829 386 1
134 387 1
135 387 1
219 387 1
228 387 1
303 387 1
308 387 1
828 387 1
830 387 1
135 388 1
136 388 1
220 388 1
229 388 1
304 388 1
309 388 1
829 388 1
831 388 1
136 389 1
137 389 1
221 389 1
230 389 1
305 389 1
310 389 1
830 389 1
832 389 1
137 390 1
138 390 1
222 390 1
231 390 1
306 390 1
311 390 1
831 390 1
833 390 1
138 391 1
139 391 1
211 391 1
223 391 1
307 391 1
312 391 1
832 391 1
834 391 1
139 392 1
140 392 1
212 392 1
224 392 1
308 392 1
313 392 1
833 392 1
835 392 1
140 393 1
141 393 1
213 393 1
225 393 1
309 393 1
314 393 1
834 393 1
836 393 1
141 394 1
142 394 1
214 394 1
226 394 1
310 394 1
315 394 1
835 394 1
837 394 1
142 395 1
143 395 1
215 395 1
227 395 1
295 395 1
311 395 1
836 395 1
838 395 1
143 396 1
144 396 1
216 396 1
228 396 1
296 396 1
312 396 1
837 396 1
839 396 1
144 397 1
145 397 1
217 397 1
229 397 1
297 397 1
313 397 1
838 397 1
840 397 1
145 398 1
146 398 1
218 398 1
230 398 1
298 398 1
314 398 1
820 398 1
839 398 1
146 399 1
147 399 1
219 399 1
231 399 1
299 399 1
315 399 1
821 399 1
840 399 1
148 400 1
163 400 1
169 400 1
180 400 1
316 400 1
321 400 1
841 400 1
843 400 1
149 401 1
164 401 1
170 401 1
181 401 1
317 401 1
322 401 1
842 401 1
844 401 1
150 402 1
165 402 1
171 402 1
182 402 1
318 402 1
323 402 1
843 402 1
845 402 1
151 403 1
166 403 1
172 403 1
183 403 1
319 403 1
324 403 1
844 403 1
846 403 1
152 404 1
167 404 1
173 404 1
184 404 1
320 404 1
325 404 1
845 404 1
847 404 1
153 405 1
168 405 1
174 405 1
185 405 1
321 405 1
326 405 1
846 405 1
848 405 1
148 406 1
154 406 1
175 406 1
186 406 1
322 406 1
327 406 1
847 406 1
849 406 1
149 407 1
155 407 1
176 407 1
187 407 1
323 407 1
328 407 1
848 407 1
850 407 1
150 408 1
156 408 1
177 408 1
188 408 1
324 408 1
329 408 1
849 408 1
851 408 1
151 409 1
157 409 1
178 409 1
189 409 1
325 409 1
330 409 1
850 409 1
852 409 1
152 410 1
158 410 1
169 410 1
179 410 1
326 410 1
331 410 1
851 410 1
853 410 1
153 411 1
159 411 1
170 411 1
180 411 1
327 411 1
332 411 1
852 411 1
854 411 1
154 412 1
160 412 1
171 412 1
181 412 1
328 412 1
333 412 1
853 412 1
855 412 1
155 413 1
161 413 1
172 413 1
182 413 1
329 413 1
334 413 1
854 413 1
856 413 1
156 414 1
162 414 1
173 414 1
183 414 1
330 414 1
335 414 1
855 414 1
857 414 1
157 415 1
163 415 1
174 415 1
184 415 1
331 415 1
336 415 1
856 415 1
858 415 1
158 416 1
164 416 1
175 416 1
185 416 1
316 416 1
332 416 1
857 416 1
859 416 1
159 417 1
165 417 1
176 417 1
186 417 1
317 417 1
333 417 1
858 417 1
860 417 1
160 418 1
166 418 1
177 418 1
187 418 1
318 418 1
334 418 1
859 418 1
861 418 1
161 419 1
167 419 1
178 419 1
188 419 1
319 419 1
335 419 1
841 419 1
860 419 1
162 420 1
168 420 1
179 420 1
189 420 1
320 420 1
336 420 1
842 420 1
861 420 1
148 421 1
165 421 1
190 421 1
201 421 1
337 421 1
342 421 1
862 421 1
864 421 1
149 422 1
166 422 1
191 422 1
202 422 1
338 422 1
343 422 1
863 422 1
865 422 1
150 423 1
167 423 1
192 423 1
203 423 1
339 423 1
344 423 1
864 423 1
866 423 1
151 424 1
168 424 1
193 424 1
204 424 1
340 424 1
345 424 1
865 424 1
867 424 1
148 425 1
152 425 1
194 425 1
205 425 1
341 425 1
346 425 1
866 425 1
868 425 1
149 426 1
153 426 1
195 426 1
206 426 1
342 426 1
347 426 1
867 426 1
869 426 1
150 427 1
154 427 1
196 427 1
207 427 1
343 427 1
348 427 1
868 427 1
870 427 1
151 428 1
155 428 1
197 428 1
208 428 1
344 428 1
349 428 1
869 428 1
871 428 1
152 429 1
156 429 1
198 429 1
209 429 1
345 429 1
350 429 1
870 429 1
872 429 1
153 430 1
157 430 1
199 430 1
210 430 1
346 430 1
351 430 1
871 430 1
873 430 1
154 431 1
158 431 1
190 431 1
200 431 1
347 431 1
352 431 1
872 431 1
874 431 1
155 432 1
159 432 1
191 432 1
201 432 1
348 432 1
353 432 1
873 432 1
875 432 1
156 433 1
160 433 1
192 433 1
202 433 1
349 433 1
354 433 1
874 433 1
876 433 1
157 434 1
161 434 1
193 434 1
203 434 1
350 434 1
355 434 1
875 434 1
877 434 1
158 435 1
162 435 1
194 435 1
204 435 1
351 435 1
356 435 1
876 435 1
878 435 1
159 436 1
163 436 1
195 436 1
205 436 1
352 436 1
357 436 1
877 436 1
879 436 1
160 437 1
164 437 1
196 437 1
206 437 1
337 437 1
353 437 1
878 437 1
880 437 1
161 438 1
165 438 1
197 438 1
207 438 1
338 438 1
354 438 1
879 438 1
881 438 1
162 439 1
166 439 1
198 439 1
208 439 1
339 439 1
355 439 1
880 439 1
882 439 1
163 440 1
167 440 1
199 440 1
209 440 1
340 440 1
356 440 1
862 440 1
881 440 1
164 441 1
168 441 1
200 441 1
210 441 1
341 441 1
357 441 1
863 441 1
882 441 1
148 442 1
168 442 1
211 442 1
222 442 1
358 442 1
363 442 1
883 442 1
885 442 1
148 443 1
149 443 1
212 443 1
223 443 1
359 443 1
364 443 1
884 443 1
886 443 1
149 444 1
150 444 1
213 444 1
224 444 1
360 444 1
365 444 1
885 444 1
887 444 1
150 445 1
151 445 1
214 445 1
225 445 1
361 445 1
366 445 1
886 445 1
888 445 1
151 446 1
152 446 1
215 446 1
226 446 1
362 446 1
367 446 1
887 446 1
889 446 1
152 447 1
153 447 1
216 447 1
227 447 1
363 447 1
368 447 1
888 447 1
890 447 1
153 448 1
154 448 1
217 448 1
228 448 1
364 448 1
369 448 1
889 448 1
891 448 1
154 449 1
155 449 1
218 449 1
229 449 1
365 449 1
370 449 1
890 449 1
892 449 1
155 450 1
156 450 1
219 450 1
230 450 1
366 450 1
371 450 1
891 450 1
893 450 1
156 451 1
157 451 1
220 451 1
231 451 1
367 451 1
372 451 1
892 451 1
894 451 1
157 452 1
158 452 1
211 452 1
221 452 1
368 452 1
373 452 1
893 452 1
895 452 1
158 453 1
159 453 1
212 453 1
222 453 1
369 453 1
374 453 1
894 453 1
896 453 1
159 454 1
160 454 1
213 454 1
223 454 1
370 454 1
375 454 1
895 454 1
897 454 1
160 455 1
161 455 1
214 455 1
224 455 1
371 455 1
376 455 1
896 455 1
898 455 1
161 456 1
162 456 1
215 456 1
225 456 1
372 456 1
377 456 1
897 456 1
899 456 1
162 457 1
163 457 1
216 457 1
226 457 1
373 457 1
378 457 1
898 457 1
900 457 1
163 458 1
164 458 1
217 458 1
227 458 1
358 458 1
374 458 1
899 458 1
901 458 1
164 459 1
165 459 1
218 459 1
228 459 1
359 459 1
375 459 1
900 459 1
902 459 1
165 460 1
166 460 1
219 460 1
229 460 1
360 460 1
376 460 1
901 460 1
903 460 1
166 461 1
167 461 1
220 461 1
230 461 1
361 461 1
377 461 1
883 461 1
902 461 1
167 462 1
168 462 1
221 462 1
231 462 1
362 462 1
378 462 1
884 462 1
903 462 1
169 463 1
186 463 1
190 463 1
205 463 1
379 463 1
384 463 1
904 463 1
906 463 1
170 464 1
187 464 1
191 464 1
206 464 1
380 464 1
385 464 1
905 464 1
907 464 1
171 465 1
188 465 1
192 465 1
207 465 1
381 465 1
386 465 1
906 465 1
908 465 1
172 466 1
189 466 1
193 466 1
208 466 1
382 466 1
387 466 1
907 466 1
909 466 1
169 467 1
173 467 1
194 467 1
209 467 1
383 467 1
388 467 1
908 467 1
910 467 1
170 468 1
174 468 1
195 468 1
210 468 1
384 468 1
389 468 1
909 468 1
911 468 1
171 469 1
175 469 1
190 469 1
196 469 1
385 469 1
390 469 1
910 469 1
912 469 1
172 470 1
176 470 1
191 470 1
197 470 1
386 470 1
391 470 1
911 470 1
913 470 1
173 471 1
177 471 1
192 471 1
198 471 1
387 471 1
392 471 1
912 471 1
914 471 1
174 472 1
178 472 1
193 472 1
199 472 1
388 472 1
393 472 1
913 472 1
915 472 1
175 473 1
179 473 1
194 473 1
200 473 1
389 473 1
394 473 1
914 473 1
916 473 1
176 474 1
180 474 1
195 474 1
201 474 1
390 474 1
395 474 1
915 474 1
917 474 1
177 475 1
181 475 1
196 475 1
202 475 1
391 475 1
396 475 1
916 475 1
918 475 1
178 476 1
182 476 1
197 476 1
203 476 1
392 476 1
397 476 1
917 476 1
919 476 1
179 477 1
183 477 1
198 477 1
204 477 1
393 477 1
398 477 1
918 477 1
920 477 1
180 478 1
184 478 1
199 478 1
205 478 1
394 478 1
399 478 1
919 478 1
921 478 1
181 479 1
185 479 1
200 479 1
206 479 1
379 479 1
395 479 1
920 479 1
922 479 1
182 480 1
186 480 1
201 480 1
207 480 1
380 480 1
396 480 1
921 480 1
923 480 1
183 481 1
187 481 1
202 481 1
208 481 1
381 481 1
397 481 1
922 481 1
924 481 1
184 482 1
188 482 1
203 482 1
209 482 1
382 482 1
398 482 1
904 482 1
923 482 1
185 483 1
189 483 1
204 483 1
210 483 1
383 483 1
399 483 1
905 483 1
924 483 1
169 484 1
189 484 1
211 484 1
226 484 1
400 484 1
405 484 1
925 484 1
927 484 1
169 485 1
170 485 1
212 485 1
227 485 1
401 485 1
406 485 1
926 485 1
928 485 1
170 486 1
171 486 1
213 486 1
228 486 1
402 486 1
407 486 1
927 486 1
929 486 1
171 487 1
172 487 1
214 487 1
229 487 1
403 487 1
408 487 1
928 487 1
930 487 1
172 488 1
173 488 1
215 488 1
230 488 1
404 488 1
409 488 1
929 488 1
931 488 1
173 489 1
174 489 1
216 489 1
231 489 1
405 489 1
410 489 1
930 489 1
932 489 1
174 490 1
175 490 1
211 490 1
217 490 1
406 490 1
411 490 1
931 490 1
933 490 1
175 491 1
176 491 1
212 491 1
218 491 1
407 491 1
412 491 1
932 491 1
934 491 1
176 492 1
177 492 1
213 492 1
219 492 1
408 492 1
413 492 1
933 492 1
935 492 1
177 493 1
178 493 1
214 493 1
220 493 1
409 493 1
414 493 1
934 493 1
936 493 1
178 494 1
179 494 1
215 494 1
221 494 1
410 494 1
415 494 1
935 494 1
937 494 1
179 495 1
180 495 1
216 495 1
222 495 1
411 495 1
416 495 1
936 495 1
938 495 1
180 496 1
181 496 1
217 496 1
223 496 1
412 496 1
417 496 1
937 496 1
939 496 1
181 497 1
182 497 1
218 497 1
224 497 1
413 497 1
418 497 1
938 497 1
940 497 1
182 498 1
183 498 1
219 498 1
225 498 1
414 498 1
419 498 1
939 498 1
941 498 1
183 499 1
184 499 1
220 499 1
226 499 1
415 499 1
420 499 1
940 499 1
942 499 1
184 500 1
185 500 1
221 500 1
227 500 1
400 500 1
416 500 1
941 500 1
943 500 1
185 501 1
186 501 1
222 501 1
228 501 1
401 501 1
417 501 1
942 501 1
944 501 1
186 502 1
187 502 1
223 502 1
229 502 1
402 502 1
418 502 1
943 502 1
945 502 1
187 503 1
188 503 1
224 503 1
230 503 1
403 503 1
419 503 1
925 503 1
944 503 1
188 504 1
189 504 1
225 504 1
231 504 1
404 504 1
420 504 1
926 504 1
945 504 1
190 505 1
210 505 1
211 505 1
228 505 1
421 505 1
426 505 1
946 505 1
948 505 1
190 506 1
191 506 1
212 506 1
229 506 1
422 506 1
427 506 1
947 506 1
949 506 1
191 507 1
192 507 1
213 507 1
230 507 1
423 507 1
428 507 1
948 507 1
950 507 1
192 508 1
193 508 1
214 508 1
231 508 1
424 508 1
429 508 1
949 508 1
951 508 1
193 509 1
194 509 1
211 509 1
215 509 1
425 509 1
430 509 1
950 509 1
952 509 1
194 510 1
195 510 1
212 510 1
216 510 1
426 510 1
431 510 1
951 510 1
953 510 1
195 511 1
196 511 1
213 511 1
217 511 1
427 511 1
432 511 1
952 511 1
954 511 1
196 512 1
197 512 1
214 512 1
218 512 1
428 512 1
433 512 1
953 512 1
955 512 1
197 513 1
198 513 1
215 513 1
219 513 1
429 513 1
434 513 1
954 513 1
956 513 1
198 514 1
199 514 1
216 514 1
220 514 1
430 514 1
435 514 1
955 514 1
957 514 1
199 515 1
200 515 1
217 515 1
221 515 1
431 515 1
436 515 1
956 515 1
958 515 1
200 516 1
201 516 1
218 516 1
222 516 1
432 516 1
437 516 1
957 516 1
959 516 1
201 517 1
202 517 1
219 517 1
223 517 1
433 517 1
438 517 1
958 517 1
960 517 1
202 518 1
203 518 1
220 518 1
224 518 1
434 518 1
439 518 1
959 518 1
961 518 1
203 519 1
204 519 1
221 519 1
225 519 1
435 519 1
440 519 1
960 519 1
962 519 1
204 520 1
205 520 1
222 520 1
226 520 1
436 520 1
441 520 1
961 520 1
963 520 1
205 521 1
206 521 1
223 521 1
227 521 1
421 521 1
437 521 1
962 521 1
964 521 1
206 522 1
207 522 1
224 522 1
228 522 1
422 522 1
438 522 1
963 522 1
965 522 1
207 523 1
208 523 1
225 523 1
229 523 1
423 523 1
439 523 1
964 523 1
966 523 1
208 524 1
209 524 1
226 524 1
230 524 1
424 524 1
440 524 1
946 524 1
965 524 1
209 525 1
210 525 1
227 525 1
231 525 1
425 525 1
441 525 1
947 525 1
966 525 1
232 526 1
247 526 1
253 526 1
264 526 1
316 526 1
325 526 1
967 526 1
969 526 1
233 527 1
248 527 1
254 527 1
265 527 1
317 527 1
326 527 1
968 527 1
970 527 1
234 528 1
249 528 1
255 528 1
266 528 1
318 528 1
327 528 1
969 528 1
971 528 1
235 529 1
250 529 1
256 529 1
267 529 1
319 529 1
328 529 1
970 529 1
972 529 1
236 530 1
251 530 1
257 530 1
268 530 1
320 530 1
329 530 1
971 530 1
973 530 1
237 531 1
252 531 1
258 531 1
269 531 1
321 531 1
330 531 1
972 531 1
974 531 1
232 532 1
238 532 1
259 532 1
270 532 1
322 532 1
331 532 1
973 532 1
975 532 1
233 533 1
239 533 1
260 533 1
271 533 1
323 533 1
332 533 1
974 533 1
976 533 1
234 534 1
240 534 1
261 534 1
272 534 1
324 534 1
333 534 1
975 534 1
977 534 1
235 535 1
241 535 1
262 535 1
273 535 1
325 535 1
334 535 1
976 535 1
978 535 1
236 536 1
242 536 1
253 536 1
263 536 1
326 536 1
335 536 1
977 536 1
979 536 1
237 537 1
243 537 1
254 537 1
264 537 1
327 537 1
336 537 1
978 537 1
980 537 1
238 538 1
244 538 1
255 538 1
265 538 1
316 538 1
328 538 1
979 538 1
981 538 1
239 539 1
245 539 1
256 539 1
266 539 1
317 539 1
329 539 1
980 539 1
982 539 1
240 540 1
246 540 1
257 540 1
267 540 1
318 540 1
330 540 1
981 540 1
983 540 1
241 541 1
247 541 1
258 541 1
268 541 1
319 541 1
331 541 1
982 541 1
984 541 1
242 542 1
248 542 1
259 542 1
269 542 1
320 542 1
332 542 1
983 542 1
985 542 1
243 543 1
249 543 1
260 543 1
270 543 1
321 543 1
333 543 1
984 543 1
986 543 1
244 544 1
250 544 1
261 544 1
271 544 1
322 544 1
334 544 1
985 544 1
987 544 1
245 545 1
251 545 1
262 545 1
272 545 1
323 545 1
335 545 1
967 545 1
986 545 1
246 546 1
252 546 1
263 546 1
273 546 1
324 546 1
336 546 1
968 546 1
987 546 1
232 547 1
249 547 1
274 547 1
285 547 1
337 547 1
346 547 1
988 547 1
990 547 1
233 548 1
250 548 1
275 548 1
286 548 1
338 548 1
347 548 1
989 548 1
991 548 1
234 549 1
251 549 1
276 549 1
287 549 1
339 549 1
348 549 1
990 549 1
992 549 1
235 550 1
252 550 1
277 550 1
288 550 1
340 550 1
349 550 1
991 550 1
993 550 1
232 551 1
236 551 1
278 551 1
289 551 1
341 551 1
350 551 1
992 551 1
994 551 1
233 552 1
237 552 1
279 552 1
290 552 1
342 552 1
351 552 1
993 552 1
995 552 1
234 553 1
238 553 1
280 553 1
291 553 1
343 553 1
352 553 1
994 553 1
996 553 1
235 554 1
239 554 1
281 554 1
292 554 1
344 554 1
353 554 1
995 554 1
997 554 1
236 555 1
240 555 1
282 555 1
293 555 1
345 555 1
354 555 1
996 555 1
998 555 1
237 556 1
241 556 1
283 556 1
294 556 1
346 556 1
355 556 1
997 556 1
999 556 1
238 557 1
242 557 1
274 557 1
284 557 1
347 557 1
356 557 1
998 557 1
1000 557 1
239 558 1
243 558 1
275 558 1
285 558 1
348 558 1
357 558 1
999 558 1
1001 558 1
240 559 1
244 559 1
276 559 1
286 559 1
337 559 1
349 559 1
1000 559 1
1002 559 1
241 560 1
245 560 1
277 560 1
287 560 1
338 560 1
350 560 1
1001 560 1
1003 560 1
242 561 1
246 561 1
278 561 1
288 561 1
339 561 1
351 561 1
1002 561 1
1004 561 1
243 562 1
247 562 1
279 562 1
289 562 1
340 562 1
352 562 1
1003 562 1
1005 562 1
244 563 1
248 563 1
280 563 1
290 563 1
341 563 1
353 563 1
1004 563 1
1006 563 1
245 564 1
249 564 1
281 564 1
291 564 1
342 564 1
354 564 1
1005 564 1
1007 564 1
246 565 1
250 565 1
282 565 1
292 565 1
343 565 1
355 565 1
1006 565 1
1008 565 1
247 566 1
251 566 1
283 566 1
293 566 1
344 566 1
356 566 1
988 566 1
1007 566 1
248 567 1
252 567 1
284 567 1
294 567 1
345 567 1
357 567 1
989 567 1
1008 567 1
232 568 1
252 568 1
295 568 1
306 568 1
358 568 1
367 568 1
1009 568 1
1011 568 1
232 569 1
233 569 1
296 569 1
307 569 1
359 569 1
368 569 1
1010 569 1
1012 569 1
233 570 1
234 570 1
297 570 1
308 570 1
360 570 1
369 570 1
1011 570 1
1013 570 1
234 571 1
235 571 1
298 571 1
309 571 1
361 571 1
370 571 1
1012 571 1
1014 571 1
235 572 1
236 572 1
299 572 1
310 572 1
362 572 1
371 572 1
1013 572 1
1015 572 1
236 573 1
237 573 1
300 573 1
311 573 1
363 573 1
372 573 1
1014 573 1
1016 573 1
237 574 1
238 574 1
301 574 1
312 574 1
364 574 1
373 574 1
1015 574 1
1017 574 1
238 575 1
239 575 1
302 575 1
313 575 1
365 575 1
374 575 1
1016 575 1
1018 575 1
239 576 1
240 576 1
303 576 1
314 576 1
366 576 1
375 576 1
1017 576 1
1019 576 1
240 577 1
241 577 1
304 577 1
315 577 1
367 577 1
376 577 1
1018 577 1
1020 577 1
241 578 1
242 578 1
295 578 1
305 578 1
368 578 1
377 578 1
1019 578 1
1021 578 1
242 579 1
243 579 1
296 579 1
306 579 1
369 579 1
378 579 1
1020 579 1
1022 579 1
243 580 1
244 580 1
297 580 1
307 580 1
358 580 1
370 580 1
1021 580 1
1023 580 1
244 581 1
245 581 1
298 581 1
308 581 1
359 581 1
371 581 1
1022 581 1
1024 581 1
245 582 1
246 582 1
299 582 1
309 582 1
360 582 1
372 582 1
1023 582 1
1025 582 1
246 583 1
247 583 1
300 583 1
310 583 1
361 583 1
373 583 1
1024 583 1
1026 583 1
247 584 1
248 584 1
301 584 1
311 584 1
362 584 1
374 584 1
1025 584 1
1027 584 1
248 585 1
249 585 1
302 585 1
312 585 1
363 585 1
375 585 1
1026 585 1
1028 585 1
249 586 1
250 586 1
303 586 1
313 586 1
364 586 1
376 586 1
1027 586 1
1029 586 1
250 587 1
251 587 1
304 587 1
314 587 1
365 587 1
377 587 1
1009 587 1
1028 587 1
251 588 1
252 588 1
305 588 1
315 588 1
366 588 1
378 588 1
1010 588 1
1029 588 1
253 589 1
270 589 1
274 589 1
289 589 1
379 589 1
388 589 1
1030 589 1
1032 589 1
254 590 1
271 590 1
275 590 1
290 590 1
380 590 1
389 590 1
1031 590 1
1033 590 1
255 591 1
272 591 1
276 591 1
291 591 1
381 591 1
390 591 1
1032 591 1
1034 591 1
256 592 1
273 592 1
277 592 1
292 592 1
382 592 1
391 592 1
1033 592 1
1035 592 1
253 593 1
257 593 1
278 593 1
293 593 1
383 593 1
392 593 1
1034 593 1
1036 593 1
254 594 1
258 594 1
279 594 1
294 594 1
384 594 1
393 594 1
1035 594 1
1037 594 1
255 595 1
259 595 1
274 595 1
280 595 1
385 595 1
394 595 1
1036 595 1
1038 595 1
256 596 1
260 596 1
275 596 1
281 596 1
386 596 1
395 596 1
1037 596 1
1039 596 1
257 597 1
261 597 1
276 597 1
282 597 1
387 597 1
396 597 1
1038 597 1
1040 597 1
258 598 1
262 598 1
277 598 1
283 598 1
388 598 1
397 598 1
1039 598 1
1041 598 1
259 599 1
263 599 1
278 599 1
284 599 1
389 599 1
398 599 1
1040 599 1
1042 599 1
260 600 1
264 600 1
279 600 1
285 600 1
390 600 1
399 600 1
1041 600 1
1043 600 1
261 601 1
265 601 1
280 601 1
286 601 1
379 601 1
391 601 1
1042 601 1
1044 601 1
262 602 1
266 602 1
281 602 1
287 602 1
380 602 1
392 602 1
1043 602 1
1045 602 1
263 603 1
267 603 1
282 603 1
288 603 1
381 603 1
393 603 1
1044 603 1
1046 603 1
264 604 1
268 604 1
283 604 1
289 604 1
382 604 1
394 604 1
1045 604 1
1047 604 1
265 605 1
269 605 1
284 605 1
290 605 1
383 605 1
395 605 1
1046 605 1
1048 605 1
266 606 1
270 606 1
285 606 1
291 606 1
384 606 1
396 606 1
1047 606 1
1049 606 1
267 607 1
271 607 1
286 607 1
292 607 1
385 607 1
397 607 1
1048 607 1
1050 607 1
268 608 1
272 608 1
287 608 1
293 608 1
386 608 1
398 608 1
1030 608 1
1049 608 1
269 609 1
273 609 1
288 609 1
294 609 1
387 609 1
399 609 1
1031 609 1
1050 609 1
253 610 1
273 610 1
295 610 1
310 610 1
400 610 1
409 610 1
1051 610 1
1053 610 1
253 611 1
254 611 1
296 611 1
311 611 1
401 611 1
410 611 1
1052 611 1
1054 611 1
254 612 1
255 612 1
297 612 1
312 612 1
402 612 1
411 612 1
1053 612 1
1055 612 1
255 613 1
256 613 1
298 613 1
313 613 1
403 613 1
412 613 1
1054 613 1
1056 613 1
256 614 1
257 614 1
299 614 1
314 614 1
404 614 1
413 614 1
1055 614 1
1057 614 1
257 615 1
258 615 1
300 615 1
315 615 1
405 615 1
414 615 1
1056 615 1
1058 615 1
258 616 1
259 616 1
295 616 1
301 616 1
406 616 1
415 616 1
1057 616 1
1059 616 1
259 617 1
260 617 1
296 617 1
302 617 1
407 617 1
416 617 1
1058 617 1
1060 617 1
260 618 1
261 618 1
297 618 1
303 618 1
408 618 1
417 618 1
1059 618 1
1061 618 1
261 619 1
262 619 1
298 619 1
304 619 1
409 619 1
418 619 1
1060 619 1
1062 619 1
262 620 1
263 620 1
299 620 1
305 620 1
410 620 1
419 620 1
1061 620 1
1063 620 1
263 621 1
264 621 1
300 621 1
306 621 1
411 621 1
420 621 1
1062 621 1
1064 621 1
264 622 1
265 622 1
301 622 1
307 622 1
400 622 1
412 622 1
1063 622 1
1065 622 1
265 623 1
266 623 1
302 623 1
308 623 1
401 623 1
413 623 1
1064 623 1
1066 623 1
266 624 1
267 624 1
303 624 1
309 624 1
402 624 1
414 624 1
1065 624 1
1067 624 1
267 625 1
268 625 1
304 625 1
310 625 1
403 625 1
415 625 1
1066 625 1
1068 625 1
268 626 1
269 626 1
305 626 1
311 626 1
404 626 1
416 626 1
1067 626 1
1069 626 1
269 627 1
270 627 1
306 627 1
312 627 1
405 627 1
417 627 1
1068 627 1
1070 627 1
270 628 1
271 628 1
307 628 1
313 628 1
406 628 1
418 628 1
1069 628 1
1071 628 1
271 629 1
272 629 1
308 629 1
314 629 1
407 629 1
419 629 1
1051 629 1
1070 629 1
272 630 1
273 630 1
309 630 1
315 630 1
408 630 1
420 630 1
1052 630 1
1071 630 1
274 631 1
294 631 1
295 631 1
312 631 1
421 631 1
430 631 1
1072 631 1
1074 631 1
274 632 1
275 632 1
296 632 1
313 632 1
422 632 1
431 632 1
1073 632 1
1075 632 1
275 633 1
276 633 1
297 633 1
314 633 1
423 633 1
432 633 1
1074 633 1
1076 633 1
276 634 1
277 634 1
298 634 1
315 634 1
424 634 1
433 634 1
1075 634 1
1077 634 1
277 635 1
278 635 1
295 635 1
299 635 1
425 635 1
434 635 1
1076 635 1
1078 635 1
278 636 1
279 636 1
296 636 1
300 636 1
426 636 1
435 636 1
1077 636 1
1079 636 1
279 637 1
280 637 1
297 637 1
301 637 1
427 637 1
436 637 1
1078 637 1
1080 637 1
280 638 1
281 638 1
298 638 1
302 638 1
428 638 1
437 638 1
1079 638 1
1081 638 1
281 639 1
282 639 1
299 639 1
303 639 1
429 639 1
438 639 1
1080 639 1
1082 639 1
282 640 1
283 640 1
300 640 1
304 640 1
430 640 1
439 640 1
1081 640 1
1083 640 1
283 641 1
284 641 1
301 641 1
305 641 1
431 641 1
440 641 1
1082 641 1
1084 641 1
284 642 1
285 642 1
302 642 1
306 642 1
432 642 1
441 642 1
1083 642 1
1085 642 1
285 643 1
286 643 1
303 643 1
307 643 1
421 643 1
433 643 1
1084 643 1
1086 643 1
286 644 1
287 644 1
304 644 1
308 644 1
422 644 1
434 644 1
1085 644 1
1087 644 1
287 645 1
288 645 1
305 645 1
309 645 1
423 645 1
435 645 1
1086 645 1
1088 645 1
288 646 1
289 646 1
306 646 1
310 646 1
424 646 1
436 646 1
1087 646 1
1089 646 1
289 647 1
290 647 1
307 647 1
311 647 1
425 647 1
437 647 1
1088 647 1
1090 647 1
290 648 1
291 648 1
308 648 1
312 648 1
426 648 1
438 648 1
1089 648 1
1091 648 1
291 649 1
292 649 1
309 649 1
313 649 1
427 649 1
439 649 1
1090 649 1
1092 649 1
292 650 1
293 650 1
310 650 1
314 650 1
428 650 1
440 650 1
1072 650 1
1091 650 1
293 651 1
294 651 1
311 651 1
315 651 1
429 651 1
441 651 1
1073 651 1
1092 651 1
316 652 1
333 652 1
337 652 1
352 652 1
379 652 1
390 652 1
1093 652 1
1095 652 1
317 653 1
334 653 1
338 653 1
353 653 1
380 653 1
391 653 1
1094 653 1
1096 653 1
318 654 1
335 654 1
339 654 1
354 654 1
381 654 1
392 654 1
1095 654 1
1097 654 1
319 655 1
336 655 1
340 655 1
355 655 1
382 655 1
393 655 1
1096 655 1
1098 655 1
316 656 1
320 656 1
341 656 1
356 656 1
383 656 1
394 656 1
1097 656 1
1099 656 1
317 657 1
321 657 1
342 657 1
357 657 1
384 657 1
395 657 1
1098 657 1
1100 657 1
318 658 1
322 658 1
337 658 1
343 658 1
385 658 1
396 658 1
1099 658 1
1101 658 1
319 659 1
323 659 1
338 659 1
344 659 1
386 659 1
397 659 1
1100 659 1
1102 659 1
320 660 1
324 660 1
339 660 1
345 660 1
387 660 1
398 660 1
1101 660 1
1103 660 1
321 661 1
325 661 1
340 661 1
346 661 1
388 661 1
399 661 1
1102 661 1
1104 661 1
322 662 1
326 662 1
341 662 1
347 662 1
379 662 1
389 662 1
1103 662 1
1105 662 1
323 663 1
327 663 1
342 663 1
348 663 1
380 663 1
390 663 1
1104 663 1
1106 663 1
324 664 1
328 664 1
343 664 1
349 664 1
381 664 1
391 664 1
1105 664 1
1107 664 1
325 665 1
329 665 1
344 665 1
350 665 1
382 665 1
392 665 1
1106 665 1
1108 665 1
326 666 1
330 666 1
345 666 1
351 666 1
383 666 1
393 666 1
1107 666 1
1109 666 1
327 667 1
331 667 1
346 667 1
352 667 1
384 667 1
394 667 1
1108 667 1
1110 667 1
328 668 1
332 668 1
347 668 1
353 668 1
385 668 1
395 668 1
1109 668 1
1111 668 1
329 669 1
333 669 1
348 669 1
354 669 1
386 669 1
396 669 1
1110 669 1
1112 669 1
330 670 1
334 670 1
349 670 1
355 670 1
387 670 1
397 670 1
1111 670 1
1113 670 1
331 671 1
335 671 1
350 671 1
356 671 1
388 671 1
398 671 1
1093 671 1
1112 671 1
332 672 1
336 672 1
351 672 1
357 672 1
389 672 1
399 672 1
1094 672 1
1113 672 1
316 673 1
336 673 1
358 673 1
373 673 1
400 673 1
411 673 1
1114 673 1
1116 673 1
316 674 1
317 674 1
359 674 1
374 674 1
401 674 1
412 674 1
1115 674 1
1117 674 1
317 675 1
318 675 1
360 675 1
375 675 1
402 675 1
413 675 1
1116 675 1
1118 675 1
318 676 1
319 676 1
361 676 1
376 676 1
403 676 1
414 676 1
1117 676 1
1119 676 1
319 677 1
320 677 1
362 677 1
377 677 1
404 677 1
415 677 1
1118 677 1
1120 677 1
320 678 1
321 678 1
363 678 1
378 678 1
405 678 1
416 678 1
1119 678 1
1121 678 1
321 679 1
322 679 1
358 679 1
364 679 1
406 679 1
417 679 1
1120 679 1
1122 679 1
322 680 1
323 680 1
359 680 1
365 680 1
407 680 1
418 680 1
1121 680 1
1123 680 1
323 681 1
324 681 1
360 681 1
366 681 1
408 681 1
419 681 1
1122 681 1
1124 681 1
324 682 1
325 682 1
361 682 1
367 682 1
409 682 1
420 682 1
1123 682 1
1125 682 1
325 683 1
326 683 1
362 683 1
368 683 1
400 683 1
410 683 1
1124 683 1
1126 683 1
326 684 1
327 684 1
363 684 1
369 684 1
401 684 1
411 684 1
1125 684 1
1127 684 1
327 685 1
328 685 1
364 685 1
370 685 1
402 685 1
412 685 1
1126 685 1
1128 685 1
328 686 1
329 686 1
365 686 1
371 686 1
403 686 1
413 686 1
1127 686 1
1129 686 1
329 687 1
330 687 1
366 687 1
372 687 1
404 687 1
414 687 1
1128 687 1
1130 687 1
330 688 1
331 688 1
367 688 1
373 688 1
405 688 1
415 688 1
1129 688 1
1131 688 1
331 689 1
332 689 1
368 689 1
374 689 1
406 689 1
416 689 1
1130 689 1
1132 689 1
332 690 1
333 690 1
369 690 1
375 690 1
407 690 1
417 690 1
1131 690 1
1133 690 1
333 691 1
334 691 1
370 691 1
376 691 1
408 691 1
418 691 1
1132 691 1
1134 691 1
334 692 1
335 692 1
371 692 1
377 692 1
409 692 1
419 692 1
1114 692 1
1133 692 1
335 693 1
336 693 1
372 693 1
378 693 1
410 693 1
420 693 1
1115 693 1
1134 693 1
337 694 1
357 694 1
358 694 1
375 694 1
421 694 1
432 694 1
1135 694 1
1137 694 1
337 695 1
338 695 1
359 695 1
376 695 1
422 695 1
433 695 1
1136 695 1
1138 695 1
338 696 1
339 696 1
360 696 1
377 696 1
423 696 1
434 696 1
1137 696 1
1139 696 1
339 697 1
340 697 1
361 697 1
378 697 1
424 697 1
435 697 1
1138 697 1
1140 697 1
340 698 1
341 698 1
358 698 1
362 698 1
425 698 1
436 698 1
1139 698 1
1141 698 1
341 699 1
342 699 1
359 699 1
363 699 1
426 699 1
437 699 1
1140 699 1
1142 699 1
342 700 1
343 700 1
360 700 1
364 700 1
427 700 1
438 700 1
1141 700 1
1143 700 1
343 701 1
344 701 1
361 701 1
365 701 1
428 701 1
439 701 1
1142 701 1
1144 701 1
344 702 1
345 702 1
362 702 1
366 702 1
429 702 1
440 702 1
1143 702 1
1145 702 1
345 703 1
346 703 1
363 703 1
367 703 1
430 703 1
441 703 1
1144 703 1
1146 703 1
346 704 1
347 704 1
364 704 1
368 704 1
421 704 1
431 704 1
1145 704 1
1147 704 1
347 705 1
348 705 1
365 705 1
369 705 1
422 705 1
432 705 1
1146 705 1
1148 705 1
348 706 1
349 706 1
366 706 1
370 706 1
423 706 1
433 706 1
1147 706 1
1149 706 1
349 707 1
350 707 1
367 707 1
371 707 1
424 707 1
434 707 1
1148 707 1
1150 707 1
350 708 1
351 708 1
368 708 1
372 708 1
425 708 1
435 708 1
1149 708 1
1151 708 1
351 709 1
352 709 1
369 709 1
373 709 1
426 709 1
436 709 1
1150 709 1
1152 709 1
352 710 1
353 710 1
370 710 1
374 710 1
427 710 1
437 710 1
1151 710 1
1153 710 1
353 711 1
354 711 1
371 711 1
375 711 1
428 711 1
438 711 1
1152 711 1
1154 711 1
354 712 1
355 712 1
372 712 1
376 712 1
429 712 1
439 712 1
1153 712 1
1155 712 1
355 713 1
356 713 1
373 713 1
377 713 1
430 713 1
440 713 1
1135 713 1
1154 713 1
356 714 1
357 714 1
374 714 1
378 714 1
431 714 1
441 714 1
1136 714 1
1155 714 1
379 715 1
399 715 1
400 715 1
417 715 1
421 715 1
436 715 1
1156 715 1
1158 715 1
379 716 1
380 716 1
401 716 1
418 716 1
422 716 1
437 716 1
1157 716 1
1159 716 1
380 717 1
381 717 1
402 717 1
419 717 1
423 717 1
438 717 1
1158 717 1
1160 717 1
381 718 1
382 718 1
403 718 1
420 718 1
424 718 1
439 718 1
1159 718 1
1161 718 1
382 719 1
383 719 1
400 719 1
404 719 1
425 719 1
440 719 1
1160 719 1
1162 719 1
383 720 1
384 720 1
401 720 1
405 720 1
426 720 1
441 720 1
1161 720 1
1163 720 1
384 721 1
385 721 1
402 721 1
406 721 1
421 721 1
427 721 1
1162 721 1
1164 721 1
385 722 1
386 722 1
403 722 1
407 722 1
422 722 1
428 722 1
1163 722 1
1165 722 1
386 723 1
387 723 1
404 723 1
408 723 1
423 723 1
429 723 1
1164 723 1
1166 723 1
387 724 1
388 724 1
405 724 1
409 724 1
424 724 1
430 724 1
1165 724 1
1167 724 1
388 725 1
389 725 1
406 725 1
410 725 1
425 725 1
431 725 1
1166 725 1
1168 725 1
389 726 1
390 726 1
407 726 1
411 726 1
426 726 1
432 726 1
1167 726 1
1169 726 1
390 727 1
391 727 1
408 727 1
412 727 1
427 727 1
433 727 1
1168 727 1
1170 727 1
391 728 1
392 728 1
409 728 1
413 728 1
428 728 1
434 728 1
1169 728 1
1171 728 1
392 729 1
393 729 1
410 729 1
414 729 1
429 729 1
435 729 1
1170 729 1
1172 729 1
393 730 1
394 730 1
411 730 1
415 730 1
430 730 1
436 730 1
1171 730 1
1173 730 1
394 731 1
395 731 1
412 731 1
416 731 1
431 731 1
437 731 1
1172 731 1
1174 731 1
395 732 1
396 732 1
413 732 1
417 732 1
432 732 1
438 732 1
1173 732 1
1175 732 1
396 733 1
397 733 1
414 733 1
418 733 1
433 733 1
439 733 1
1174 733 1
1176 733 1
397 734 1
398 734 1
415 734 1
419 734 1
434 734 1
440 734 1
1156 734 1
1175 734 1
398 735 1
399 735 1
416 735 1
420 735 1
435 735 1
441 735 1
1157 735 1
1176 735 1
442 736 1
453 736 1
463 736 1
472 736 1
547 736 1
552 736 1
757 736 1
761 736 1
443 737 1
454 737 1
464 737 1
473 737 1
548 737 1
553 737 1
758 737 1
762 737 1
444 738 1
455 738 1
465 738 1
474 738 1
549 738 1
554 738 1
759 738 1
763 738 1
445 739 1
456 739 1
466 739 1
475 739 1
550 739 1
555 739 1
760 739 1
764 739 1
446 740 1
457 740 1
467 740 1
476 740 1
551 740 1
556 740 1
761 740 1
765 740 1
447 741 1
458 741 1
468 741 1
477 741 1
552 741 1
557 741 1
762 741 1
766 741 1
448 742 1
459 742 1
469 742 1
478 742 1
553 742 1
558 742 1
763 742 1
767 742 1
449 743 1
460 743 1
470 743 1
479 743 1
554 743 1
559 743 1
764 743 1
768 743 1
450 744 1
461 744 1
471 744 1
480 744 1
555 744 1
560 744 1
765 744 1
769 744 1
451 745 1
462 745 1
472 745 1
481 745 1
556 745 1
561 745 1
766 745 1
770 745 1
442 746 1
452 746 1
473 746 1
482 746 1
557 746 1
562 746 1
767 746 1
771 746 1
443 747 1
453 747 1
474 747 1
483 747 1
558 747 1
563 747 1
768 747 1
772 747 1
444 748 1
454 748 1
463 748 1
475 748 1
559 748 1
564 748 1
769 748 1
773 748 1
445 749 1
455 749 1
464 749 1
476 749 1
560 749 1
565 749 1
770 749 1
774 749 1
446 750 1
456 750 1
465 750 1
477 750 1
561 750 1
566 750 1
771 750 1
775 750 1
447 751 1
457 751 1
466 751 1
478 751 1
562 751 1
567 751 1
772 751 1
776 751 1
448 752 1
458 752 1
467 752 1
479 752 1
547 752 1
563 752 1
773 752 1
777 752 1
449 753 1
459 753 1
468 753 1
480 753 1
548 753 1
564 753 1
757 753 1
774 753 1
450 754 1
460 754 1
469 754 1
481 754 1
549 754 1
565 754 1
758 754 1
775 754 1
451 755 1
461 755 1
470 755 1
482 755 1
550 755 1
566 755 1
759 755 1
776 755 1
452 756 1
462 756 1
471 756 1
483 756 1
551 756 1
567 756 1
760 756 1
777 756 1
442 757 1
457 757 1
484 757 1
493 757 1
568 757 1
573 757 1
778 757 1
782 757 1
443 758 1
458 758 1
485 758 1
494 758 1
569 758 1
574 758 1
779 758 1
783 758 1
444 759 1
459 759 1
486 759 1
495 759 1
570 759 1
575 759 1
780 759 1
784 759 1
445 760 1
460 760 1
487 760 1
496 760 1
571 760 1
576 760 1
781 760 1
785 760 1
446 761 1
461 761 1
488 761 1
497 761 1
572 761 1
577 761 1
782 761 1
786 761 1
447 762 1
462 762 1
489 762 1
498 762 1
573 762 1
578 762 1
783 762 1
787 762 1
442 763 1
448 763 1
490 763 1
499 763 1
574 763 1
579 763 1
784 763 1
788 763 1
443 764 1
449 764 1
491 764 1
500 764 1
575 764 1
580 764 1
785 764 1
789 764 1
444 765 1
450 765 1
492 765 1
501 765 1
576 765 1
581 765 1
786 765 1
790 765 1
445 766 1
451 766 1
493 766 1
502 766 1
577 766 1
582 766 1
787 766 1
791 766 1
446 767 1
452 767 1
494 767 1
503 767 1
578 767 1
583 767 1
788 767 1
792 767 1
447 768 1
453 768 1
495 768 1
504 768 1
579 768 1
584 768 1
789 768 1
793 768 1
448 769 1
454 769 1
484 769 1
496 769 1
580 769 1
585 769 1
790 769 1
794 769 1
449 770 1
455 770 1
485 770 1
497 770 1
581 770 1
586 770 1
791 770 1
795 770 1
450 771 1
456 771 1
486 771 1
498 771 1
582 771 1
587 771 1
792 771 1
796 771 1
451 772 1
457 772 1
487 772 1
499 772 1
583 772 1
588 772 1
793 772 1
797 772 1
452 773 1
458 773 1
488 773 1
500 773 1
568 773 1
584 773 1
794 773 1
798 773 1
453 774 1
459 774 1
489 774 1
501 774 1
569 774 1
585 774 1
778 774 1
795 774 1
454 775 1
460 775 1
490 775 1
502 775 1
570 775 1
586 775 1
779 775 1
796 775 1
455 776 1
461 776 1
491 776 1
503 776 1
571 776 1
587 776 1
780 776 1
797 776 1
456 777 1
462 777 1
492 777 1
504 777 1
572 777 1
588 777 1
781 777 1
798 777 1
442 778 1
459 778 1
505 778 1
514 778 1
589 778 1
594 778 1
799 778 1
803 778 1
443 779 1
460 779 1
506 779 1
515 779 1
590 779 1
595 779 1
800 779 1
804 779 1
444 780 1
461 780 1
507 780 1
516 780 1
591 780 1
596 780 1
801 780 1
805 780 1
445 781 1
462 781 1
508 781 1
517 781 1
592 781 1
597 781 1
802 781 1
806 781 1
442 782 1
446 782 1
509 782 1
518 782 1
593 782 1
598 782 1
803 782 1
807 782 1
443 783 1
447 783 1
510 783 1
519 783 1
594 783 1
599 783 1
804 783 1
808 783 1
444 784 1
448 784 1
511 784 1
520 784 1
595 784 1
600 784 1
805 784 1
809 784 1
445 785 1
449 785 1
512 785 1
521 785 1
596 785 1
601 785 1
806 785 1
810 785 1
446 786 1
450 786 1
513 786 1
522 786 1
597 786 1
602 786 1
807 786 1
811 786 1
447 787 1
451 787 1
514 787 1
523 787 1
598 787 1
603 787 1
808 787 1
812 787 1
448 788 1
452 788 1
515 788 1
524 788 1
599 788 1
604 788 1
809 788 1
813 788 1
449 789 1
453 789 1
516 789 1
525 789 1
600 789 1
605 789 1
810 789 1
814 789 1
450 790 1
454 790 1
505 790 1
517 790 1
601 790 1
606 790 1
811 790 1
815 790 1
451 791 1
455 791 1
506 791 1
518 791 1
602 791 1
607 791 1
812 791 1
816 791 1
452 792 1
456 792 1
507 792 1
519 792 1
603 792 1
608 792 1
813 792 1
817 792 1
453 793 1
457 793 1
508 793 1
520 793 1
604 793 1
609 793 1
814 793 1
818 793 1
454 794 1
458 794 1
509 794 1
521 794 1
589 794 1
605 794 1
815 794 1
819 794 1
455 795 1
459 795 1
510 795 1
522 795 1
590 795 1
606 795 1
799 795 1
816 795 1
456 796 1
460 796 1
511 796 1
523 796 1
591 796 1
607 796 1
800 796 1
817 796 1
457 797 1
461 797 1
512 797 1
524 797 1
592 797 1
608 797 1
801 797 1
818 797 1
458 798 1
462 798 1
513 798 1
525 798 1
593 798 1
609 798 1
802 798 1
819 798 1
442 799 1
462 799 1
526 799 1
535 799 1
610 799 1
615 799 1
820 799 1
824 799 1
442 800 1
443 800 1
527 800 1
536 800 1
611 800 1
616 800 1
821 800 1
825 800 1
443 801 1
444 801 1
528 801 1
537 801 1
612 801 1
617 801 1
822 801 1
826 801 1
444 802 1
445 802 1
529 802 1
538 802 1
613 802 1
618 802 1
823 802 1
827 802 1
445 803 1
446 803 1
530 803 1
539 803 1
614 803 1
619 803 1
824 803 1
828 803 1
446 804 1
447 804 1
531 804 1
540 804 1
615 804 1
620 804 1
825 804 1
829 804 1
447 805 1
448 805 1
532 805 1
541 805 1
616 805 1
621 805 1
826 805 1
830 805 1
448 806 1
449 806 1
533 806 1
542 806 1
617 806 1
622 806 1
827 806 1
831 806 1
449 807 1
450 807 1
534 807 1
543 807 1
618 807 1
623 807 1
828 807 1
832 807 1
450 808 1
451 808 1
535 808 1
544 808 1
619 808 1
624 808 1
829 808 1
833 808 1
451 809 1
452 809 1
536 809 1
545 809 1
620 809 1
625 809 1
830 809 1
834 809 1
452 810 1
453 810 1
537 810 1
546 810 1
621 810 1
626 810 1
831 810 1
835 810 1
453 811 1
454 811 1
526 811 1
538 811 1
622 811 1
627 811 1
832 811 1
836 811 1
454 812 1
455 812 1
527 812 1
539 812 1
623 812 1
628 812 1
833 812 1
837 812 1
455 813 1
456 813 1
528 813 1
540 813 1
624 813 1
629 813 1
834 813 1
838 813 1
456 814 1
457 814 1
529 814 1
541 814 1
625 814 1
630 814 1
835 814 1
839 814 1
457 815 1
458 815 1
530 815 1
542 815 1
610 815 1
626 815 1
836 815 1
840 815 1
458 816 1
459 816 1
531 816 1
543 816 1
611 816 1
627 816 1
820 816 1
837 816 1
459 817 1
460 817 1
532 817 1
544 817 1
612 817 1
628 817 1
821 817 1
838 817 1
460 818 1
461 818 1
533 818 1
545 818 1
613 818 1
629 818 1
822 818 1
839 818 1
461 819 1
462 819 1
534 819 1
546 819 1
614 819 1
630 819 1
823 819 1
840 819 1
463 820 1
478 820 1
484 820 1
495 820 1
631 820 1
636 820 1
841 820 1
845 820 1
464 821 1
479 821 1
485 821 1
496 821 1
632 821 1
637 821 1
842 821 1
846 821 1
465 822 1
480 822 1
486 822 1
497 822 1
633 822 1
638 822 1
843 822 1
847 822 1
466 823 1
481 823 1
487 823 1
498 823 1
634 823 1
639 823 1
844 823 1
848 823 1
467 824 1
482 824 1
488 824 1
499 824 1
635 824 1
640 824 1
845 824 1
849 824 1
468 825 1
483 825 1
489 825 1
500 825 1
636 825 1
641 825 1
846 825 1
850 825 1
463 826 1
469 826 1
490 826 1
501 826 1
637 826 1
642 826 1
847 826 1
851 826 1
464 827 1
470 827 1
491 827 1
502 827 1
638 827 1
643 827 1
848 827 1
852 827 1
465 828 1
471 828 1
492 828 1
503 828 1
639 828 1
644 828 1
849 828 1
853 828 1
466 829 1
472 829 1
493 829 1
504 829 1
640 829 1
645 829 1
850 829 1
854 829 1
467 830 1
473 830 1
484 830 1
494 830 1
641 830 1
646 830 1
851 830 1
855 830 1
468 831 1
474 831 1
485 831 1
495 831 1
642 831 1
647 831 1
852 831 1
856 831 1
469 832 1
475 832 1
486 832 1
496 832 1
643 832 1
648 832 1
853 832 1
857 832 1
470 833 1
476 833 1
487 833 1
497 833 1
644 833 1
649 833 1
854 833 1
858 833 1
471 834 1
477 834 1
488 834 1
498 834 1
645 834 1
650 834 1
855 834 1
859 834 1
472 835 1
478 835 1
489 835 1
499 835 1
646 835 1
651 835 1
856 835 1
860 835 1
473 836 1
479 836 1
490 836 1
500 836 1
631 836 1
647 836 1
857 836 1
861 836 1
474 837 1
480 837 1
491 837 1
501 837 1
632 837 1
648 837 1
841 837 1
858 837 1
475 838 1
481 838 1
492 838 1
502 838 1
633 838 1
649 838 1
842 838 1
859 838 1
476 839 1
482 839 1
493 839 1
503 839 1
634 839 1
650 839 1
843 839 1
860 839 1
477 840 1
483 840 1
494 840 1
504 840 1
635 840 1
651 840 1
844 840 1
861 840 1
463 841 1
480 841 1
505 841 1
516 841 1
652 841 1
657 841 1
862 841 1
866 841 1
464 842 1
481 842 1
506 842 1
517 842 1
653 842 1
658 842 1
863 842 1
867 842 1
465 843 1
482 843 1
507 843 1
518 843 1
654 843 1
659 843 1
864 843 1
868 843 1
466 844 1
483 844 1
508 844 1
519 844 1
655 844 1
660 844 1
865 844 1
869 844 1
463 845 1
467 845 1
509 845 1
520 845 1
656 845 1
661 845 1
866 845 1
870 845 1
464 846 1
468 846 1
510 846 1
521 846 1
657 846 1
662 846 1
867 846 1
871 846 1
465 847 1
469 847 1
511 847 1
522 847 1
658 847 1
663 847 1
868 847 1
872 847 1
466 848 1
470 848 1
512 848 1
523 848 1
659 848 1
664 848 1
869 848 1
873 848 1
467 849 1
471 849 1
513 849 1
524 849 1
660 849 1
665 849 1
870 849 1
874 849 1
468 850 1
472 850 1
514 850 1
525 850 1
661 850 1
666 850 1
871 850 1
875 850 1
469 851 1
473 851 1
505 851 1
515 851 1
662 851 1
667 851 1
872 851 1
876 851 1
470 852 1
474 852 1
506 852 1
516 852 1
663 852 1
668 852 1
873 852 1
877 852 1
471 853 1
475 853 1
507 853 1
517 853 1
664 853 1
669 853 1
874 853 1
878 853 1
472 854 1
476 854 1
508 854 1
518 854 1
665 854 1
670 854 1
875 854 1
879 854 1
473 855 1
477 855 1
509 855 1
519 855 1
666 855 1
671 855 1
876 855 1
880 855 1
474 856 1
478 856 1
510 856 1
520 856 1
667 856 1
672 856 1
877 856 1
881 856 1
475 857 1
479 857 1
511 857 1
521 857 1
652 857 1
668 857 1
878 857 1
882 857 1
476 858 1
480 858 1
512 858 1
522 858 1
653 858 1
669 858 1
862 858 1
879 858 1
477 859 1
481 859 1
513 859 1
523 859 1
654 859 1
670 859 1
863 859 1
880 859 1
478 860 1
482 860 1
514 860 1
524 860 1
655 860 1
671 860 1
864 860 1
881 860 1
479 861 1
483 861 1
515 861 1
525 861 1
656 861 1
672 861 1
865 861 1
882 861 1
463 862 1
483 862 1
526 862 1
537 862 1
673 862 1
678 862 1
883 862 1
887 862 1
463 863 1
464 863 1
527 863 1
538 863 1
674 863 1
679 863 1
884 863 1
888 863 1
464 864 1
465 864 1
528 864 1
539 864 1
675 864 1
680 864 1
885 864 1
889 864 1
465 865 1
466 865 1
529 865 1
540 865 1
676 865 1
681 865 1
886 865 1
890 865 1
466 866 1
467 866 1
530 866 1
541 866 1
677 866 1
682 866 1
887 866 1
891 866 1
467 867 1
468 867 1
531 867 1
542 867 1
678 867 1
683 867 1
888 867 1
892 867 1
468 868 1
469 868 1
532 868 1
543 868 1
679 868 1
684 868 1
889 868 1
893 868 1
469 869 1
470 869 1
533 869 1
544 869 1
680 869 1
685 869 1
890 869 1
894 869 1
470 870 1
471 870 1
534 870 1
545 870 1
681 870 1
686 870 1
891 870 1
895 870 1
471 871 1
472 871 1
535 871 1
546 871 1
682 871 1
687 871 1
892 871 1
896 871 1
472 872 1
473 872 1
526 872 1
536 872 1
683 872 1
688 872 1
893 872 1
897 872 1
473 873 1
474 873 1
527 873 1
537 873 1
684 873 1
689 873 1
894 873 1
898 873 1
474 874 1
475 874 1
528 874 1
538 874 1
685 874 1
690 874 1
895 874 1
899 874 1
475 875 1
476 875 1
529 875 1
539 875 1
686 875 1
691 875 1
896 875 1
900 875 1
476 876 1
477 876 1
530 876 1
540 876 1
687 876 1
692 876 1
897 876 1
901 876 1
477 877 1
478 877 1
531 877 1
541 877 1
688 877 1
693 877 1
898 877 1
902 877 1
478 878 1
479 878 1
532 878 1
542 878 1
673 878 1
689 878 1
899 878 1
903 878 1
479 879 1
480 879 1
533 879 1
543 879 1
674 879 1
690 879 1
883 879 1
900 879 1
480 880 1
481 880 1
534 880 1
544 880 1
675 880 1
691 880 1
884 880 1
901 880 1
481 881 1
482 881 1
535 881 1
545 881 1
676 881 1
692 881 1
885 881 1
902 881 1
482 882 1
483 882 1
536 882 1
546 882 1
677 882 1
693 882 1
886 882 1
903 882 1
484 883 1
501 883 1
505 883 1
520 883 1
694 883 1
699 883 1
904 883 1
908 883 1
485 884 1
502 884 1
506 884 1
521 884 1
695 884 1
700 884 1
905 884 1
909 884 1
486 885 1
503 885 1
507 885 1
522 885 1
696 885 1
701 885 1
906 885 1
910 885 1
487 886 1
504 886 1
508 886 1
523 886 1
697 886 1
702 886 1
907 886 1
911 886 1
484 887 1
488 887 1
509 887 1
524 887 1
698 887 1
703 887 1
908 887 1
912 887 1
485 888 1
489 888 1
510 888 1
525 888 1
699 888 1
704 888 1
909 888 1
913 888 1
486 889 1
490 889 1
505 889 1
511 889 1
700 889 1
705 889 1
910 889 1
914 889 1
487 890 1
491 890 1
506 890 1
512 890 1
701 890 1
706 890 1
911 890 1
915 890 1
488 891 1
492 891 1
507 891 1
513 891 1
702 891 1
707 891 1
912 891 1
916 891 1
489 892 1
493 892 1
508 892 1
514 892 1
703 892 1
708 892 1
913 892 1
917 892 1
490 893 1
494 893 1
509 893 1
515 893 1
704 893 1
709 893 1
914 893 1
918 893 1
491 894 1
495 894 1
510 894 1
516 894 1
705 894 1
710 894 1
915 894 1
919 894 1
492 895 1
496 895 1
511 895 1
517 895 1
706 895 1
711 895 1
916 895 1
920 895 1
493 896 1
497 896 1
512 896 1
518 896 1
707 896 1
712 896 1
917 896 1
921 896 1
494 897 1
498 897 1
513 897 1
519 897 1
708 897 1
713 897 1
918 897 1
922 897 1
495 898 1
499 898 1
514 898 1
520 898 1
709 898 1
714 898 1
919 898 1
923 898 1
496 899 1
500 899 1
515 899 1
521 899 1
694 899 1
710 899 1
920 899 1
924 899 1
497 900 1
501 900 1
516 900 1
522 900 1
695 900 1
711 900 1
904 900 1
921 900 1
498 901 1
502 901 1
517 901 1
523 901 1
696 901 1
712 901 1
905 901 1
922 901 1
499 902 1
503 902 1
518 902 1
524 902 1
697 902 1
713 902 1
906 902 1
923 902 1
500 903 1
504 903 1
519 903 1
525 903 1
698 903 1
714 903 1
907 903 1
924 903 1
484 904 1
504 904 1
526 904 1
541 904 1
715 904 1
720 904 1
925 904 1
929 904 1
484 905 1
485 905 1
527 905 1
542 905 1
716 905 1
721 905 1
926 905 1
930 905 1
485 906 1
486 906 1
528 906 1
543 906 1
717 906 1
722 906 1
927 906 1
931 906 1
486 907 1
487 907 1
529 907 1
544 907 1
718 907 1
723 907 1
928 907 1
932 907 1
487 908 1
488 908 1
530 908 1
545 908 1
719 908 1
724 908 1
929 908 1
933 908 1
488 909 1
489 909 1
531 909 1
546 909 1
720 909 1
725 909 1
930 909 1
934 909 1
489 910 1
490 910 1
526 910 1
532 910 1
721 910 1
726 910 1
931 910 1
935 910 1
490 911 1
491 911 1
527 911 1
533 911 1
722 911 1
727 911 1
932 911 1
936 911 1
491 912 1
492 912 1
528 912 1
534 912 1
723 912 1
728 912 1
933 912 1
937 912 1
492 913 1
493 913 1
529 913 1
535 913 1
724 913 1
729 913 1
934 913 1
938 913 1
493 914 1
494 914 1
530 914 1
536 914 1
725 914 1
730 914 1
935 914 1
939 914 1
494 915 1
495 915 1
531 915 1
537 915 1
726 915 1
731 915 1
936 915 1
940 915 1
495 916 1
496 916 1
532 916 1
538 916 1
727 916 1
732 916 1
937 916 1
941 916 1
496 917 1
497 917 1
533 917 1
539 917 1
728 917 1
733 917 1
938 917 1
942 917 1
497 918 1
498 918 1
534 918 1
540 918 1
729 918 1
734 918 1
939 918 1
943 918 1
498 919 1
499 919 1
535 919 1
541 919 1
730 919 1
735 919 1
940 919 1
944 919 1
499 920 1
500 920 1
536 920 1
542 920 1
715 920 1
731 920 1
941 920 1
945 920 1
500 921 1
501 921 1
537 921 1
543 921 1
716 921 1
732 921 1
925 921 1
942 921 1
501 922 1
502 922 1
538 922 1
544 922 1
717 922 1
733 922 1
926 922 1
943 922 1
502 923 1
503 923 1
539 923 1
545 923 1
718 923 1
734 923 1
927 923 1
944 923 1
503 924 1
504 924 1
540 924 1
546 924 1
719 924 1
735 924 1
928 924 1
945 924 1
505 925 1
525 925 1
526 925 1
543 925 1
736 925 1
741 925 1
946 925 1
950 925 1
505 926 1
506 926 1
527 926 1
544 926 1
737 926 1
742 926 1
947 926 1
951 926 1
506 927 1
507 927 1
528 927 1
545 927 1
738 927 1
743 927 1
948 927 1
952 927 1
507 928 1
508 928 1
529 928 1
546 928 1
739 928 1
744 928 1
949 928 1
953 928 1
508 929 1
509 929 1
526 929 1
530 929 1
740 929 1
745 929 1
950 929 1
954 929 1
509 930 1
510 930 1
527 930 1
531 930 1
741 930 1
746 930 1
951 930 1
955 930 1
510 931 1
511 931 1
528 931 1
532 931 1
742 931 1
747 931 1
952 931 1
956 931 1
511 932 1
512 932 1
529 932 1
533 932 1
743 932 1
748 932 1
953 932 1
957 932 1
512 933 1
513 933 1
530 933 1
534 933 1
744 933 1
749 933 1
954 933 1
958 933 1
513 934 1
514 934 1
531 934 1
535 934 1
745 934 1
750 934 1
955 934 1
959 934 1
514 935 1
515 935 1
532 935 1
536 935 1
746 935 1
751 935 1
956 935 1
960 935 1
515 936 1
516 936 1
533 936 1
537 936 1
747 936 1
752 936 1
957 936 1
961 936 1
516 937 1
517 937 1
534 937 1
538 937 1
748 937 1
753 937 1
958 937 1
962 937 1
517 938 1
518 938 1
535 938 1
539 938 1
749 938 1
754 938 1
959 938 1
963 938 1
518 939 1
519 939 1
536 939 1
540 939 1
750 939 1
755 939 1
960 939 1
964 939 1
519 940 1
520 940 1
537 940 1
541 940 1
751 940 1
756 940 1
961 940 1
965 940 1
520 941 1
521 941 1
538 941 1
542 941 1
736 941 1
752 941 1
962 941 1
966 941 1
521 942 1
522 942 1
539 942 1
543 942 1
737 942 1
753 942 1
946 942 1
963 942 1
522 943 1
523 943 1
540 943 1
544 943 1
738 943 1
754 943 1
947 943 1
964 943 1
523 944 1
524 944 1
541 944 1
545 944 1
739 944 1
755 944 1
948 944 1
965 944 1
524 945 1
525 945 1
542 945 1
546 945 1
740 945 1
756 945 1
949 945 1
966 945 1
547 946 1
562 946 1
568 946 1
579 946 1
631 946 1
640 946 1
967 946 1
971 946 1
548 947 1
563 947 1
569 947 1
580 947 1
632 947 1
641 947 1
968 947 1
972 947 1
549 948 1
564 948 1
570 948 1
581 948 1
633 948 1
642 948 1
969 948 1
973 948 1
550 949 1
565 949 1
571 949 1
582 949 1
634 949 1
643 949 1
970 949 1
974 949 1
551 950 1
566 950 1
572 950 1
583 950 1
635 950 1
644 950 1
971 950 1
975 950 1
552 951 1
567 951 1
573 951 1
584 951 1
636 951 1
645 951 1
972 951 1
976 951 1
547 952 1
553 952 1
574 952 1
585 952 1
637 952 1
646 952 1
973 952 1
977 952 1
548 953 1
554 953 1
575 953 1
586 953 1
638 953 1
647 953 1
974 953 1
978 953 1
549 954 1
555 954 1
576 954 1
587 954 1
639 954 1
648 954 1
975 954 1
979 954 1
550 955 1
556 955 1
577 955 1
588 955 1
640 955 1
649 955 1
976 955 1
980 955 1
551 956 1
557 956 1
568 956 1
578 956 1
641 956 1
650 956 1
977 956 1
981 956 1
552 957 1
558 957 1
569 957 1
579 957 1
642 957 1
651 957 1
978 957 1
982 957 1
553 958 1
559 958 1
570 958 1
580 958 1
631 958 1
643 958 1
979 958 1
983 958 1
554 959 1
560 959 1
571 959 1
581 959 1
632 959 1
644 959 1
980 959 1
984 959 1
555 960 1
561 960 1
572 960 1
582 960 1
633 960 1
645 960 1
981 960 1
985 960 1
556 961 1
562 961 1
573 961 1
583 961 1
634 961 1
646 961 1
982 961 1
986 961 1
557 962 1
563 962 1
574 962 1
584 962 1
635 962 1
647 962 1
983 962 1
987 962 1
558 963 1
564 963 1
575 963 1
585 963 1
636 963 1
648 963 1
967 963 1
984 963 1
559 964 1
565 964 1
576 964 1
586 964 1
637 964 1
649 964 1
968 964 1
985 964 1
560 965 1
566 965 1
577 965 1
587 965 1
638 965 1
650 965 1
969 965 1
986 965 1
561 966 1
567 966 1
578 966 1
588 966 1
639 966 1
651 966 1
970 966 1
987 966 1
547 967 1
564 967 1
589 967 1
600 967 1
652 967 1
661 967 1
988 967 1
992 967 1
548 968 1
565 968 1
590 968 1
601 968 1
653 968 1
662 968 1
989 968 1
993 968 1
549 969 1
566 969 1
591 969 1
602 969 1
654 969 1
663 969 1
990 969 1
994 969 1
550 970 1
567 970 1
592 970 1
603 970 1
655 970 1
664 970 1
991 970 1
995 970 1
547 971 1
551 971 1
593 971 1
604 971 1
656 971 1
665 971 1
992 971 1
996 971 1
548 972 1
552 972 1
594 972 1
605 972 1
657 972 1
666 972 1
993 972 1
997 972 1
549 973 1
553 973 1
595 973 1
606 973 1
658 973 1
667 973 1
994 973 1
998 973 1
550 974 1
554 974 1
596 974 1
607 974 1
659 974 1
668 974 1
995 974 1
999 974 1
551 975 1
555 975 1
597 975 1
608 975 1
660 975 1
669 975 1
996 975 1
1000 975 1
552 976 1
556 976 1
598 976 1
609 976 1
661 976 1
670 976 1
997 976 1
1001 976 1
553 977 1
557 977 1
589 977 1
599 977 1
662 977 1
671 977 1
998 977 1
1002 977 1
554 978 1
558 978 1
590 978 1
600 978 1
663 978 1
672 978 1
999 978 1
1003 978 1
555 979 1
559 979 1
591 979 1
601 979 1
652 979 1
664 979 1
1000 979 1
1004 979 1
556 980 1
560 980 1
592 980 1
602 980 1
653 980 1
665 980 1
1001 980 1
1005 980 1
557 981 1
561 981 1
593 981 1
603 981 1
654 981 1
666 981 1
1002 981 1
1006 981 1
558 982 1
562 982 1
594 982 1
604 982 1
655 982 1
667 982 1
1003 982 1
1007 982 1
559 983 1
563 983 1
595 983 1
605 983 1
656 983 1
668 983 1
1004 983 1
1008 983 1
560 984 1
564 984 1
596 984 1
606 984 1
657 984 1
669 984 1
988 984 1
1005 984 1
561 985 1
565 985 1
597 985 1
607 985 1
658 985 1
670 985 1
989 985 1
1006 985 1
562 986 1
566 986 1
598 986 1
608 986 1
659 986 1
671 986 1
990 986 1
1007 986 1
563 987 1
567 987 1
599 987 1
609 987 1
660 987 1
672 987 1
991 987 1
1008 987 1
547 988 1
567 988 1
610 988 1
621 988 1
673 988 1
682 988 1
1009 988 1
1013 988 1
547 989 1
548 989 1
611 989 1
622 989 1
674 989 1
683 989 1
1010 989 1
1014 989 1
548 990 1
549 990 1
612 990 1
623 990 1
675 990 1
684 990 1
1011 990 1
1015 990 1
549 991 1
550 991 1
613 991 1
624 991 1
676 991 1
685 991 1
1012 991 1
1016 991 1
550 992 1
551 992 1
614 992 1
625 992 1
677 992 1
686 992 1
1013 992 1
1017 992 1
551 993 1
552 993 1
615 993 1
626 993 1
678 993 1
687 993 1
1014 993 1
1018 993 1
552 994 1
553 994 1
616 994 1
627 994 1
679 994 1
688 994 1
1015 994 1
1019 994 1
553 995 1
554 995 1
617 995 1
628 995 1
680 995 1
689 995 1
1016 995 1
1020 995 1
554 996 1
555 996 1
618 996 1
629 996 1
681 996 1
690 996 1
1017 996 1
1021 996 1
555 997 1
556 997 1
619 997 1
630 997 1
682 997 1
691 997 1
1018 997 1
1022 997 1
556 998 1
557 998 1
610 998 1
620 998 1
683 998 1
692 998 1
1019 998 1
1023 998 1
557 999 1
558 999 1
611 999 1
621 999 1
684 999 1
693 999 1
1020 999 1
1024 999 1
558 1000 1
559 1000 1
612 1000 1
622 1000 1
673 1000 1
685 1000 1
1021 1000 1
1025 1000 1
559 1001 1
560 1001 1
613 1001 1
623 1001 1
674 1001 1
686 1001 1
1022 1001 1
1026 1001 1
560 1002 1
561 1002 1
614 1002 1
624 1002 1
675 1002 1
687 1002 1
1023 1002 1
1027 1002 1
561 1003 1
562 1003 1
615 1003 1
625 1003 1
676 1003 1
688 1003 1
1024 1003 1
1028 1003 1
562 1004 1
563 1004 1
616 1004 1
626 1004 1
677 1004 1
689 1004 1
1025 1004 1
1029 1004 1
563 1005 1
564 1005 1
617 1005 1
627 1005 1
678 1005 1
690 1005 1
1009 1005 1
1026 1005 1
564 1006 1
565 1006 1
618 1006 1
628 1006 1
679 1006 1
691 1006 1
1010 1006 1
1027 1006 1
565 1007 1
566 1007 1
619 1007 1
629 1007 1
680 1007 1
692 1007 1
1011 1007 1
1028 1007 1
566 1008 1
567 1008 1
620 1008 1
630 1008 1
681 1008 1
693 1008 1
1012 1008 1
1029 1008 1
568 1009 1
585 1009 1
589 1009 1
604 1009 1
694 1009 1
703 1009 1
1030 1009 1
1034 1009 1
569 1010 1
586 1010 1
590 1010 1
605 1010 1
695 1010 1
704 1010 1
1031 1010 1
1035 1010 1
570 1011 1
587 1011 1
591 1011 1
606 1011 1
696 1011 1
705 1011 1
1032 1011 1
1036 1011 1
571 1012 1
588 1012 1
592 1012 1
607 1012 1
697 1012 1
706 1012 1
1033 1012 1
1037 1012 1
568 1013 1
572 1013 1
593 1013 1
608 1013 1
698 1013 1
707 1013 1
1034 1013 1
1038 1013 1
569 1014 1
573 1014 1
594 1014 1
609 1014 1
699 1014 1
708 1014 1
1035 1014 1
1039 1014 1
570 1015 1
574 1015 1
589 1015 1
595 1015 1
700 1015 1
709 1015 1
1036 1015 1
1040 1015 1
571 1016 1
575 1016 1
590 1016 1
596 1016 1
701 1016 1
710 1016 1
1037 1016 1
1041 1016 1
572 1017 1
576 1017 1
591 1017 1
597 1017 1
702 1017 1
711 1017 1
1038 1017 1
1042 1017 1
573 1018 1
577 1018 1
592 1018 1
598 1018 1
703 1018 1
712 1018 1
1039 1018 1
1043 1018 1
574 1019 1
578 1019 1
593 1019 1
599 1019 1
704 1019 1
713 1019 1
1040 1019 1
1044 1019 1
575 1020 1
579 1020 1
594 1020 1
600 1020 1
705 1020 1
714 1020 1
1041 1020 1
1045 1020 1
576 1021 1
580 1021 1
595 1021 1
601 1021 1
694 1021 1
706 1021 1
1042 1021 1
1046 1021 1
577 1022 1
581 1022 1
596 1022 1
602 1022 1
695 1022 1
707 1022 1
1043 1022 1
1047 1022 1
578 1023 1
582 1023 1
597 1023 1
603 1023 1
696 1023 1
708 1023 1
1044 1023 1
1048 1023 1
579 1024 1
583 1024 1
598 1024 1
604 1024 1
697 1024 1
709 1024 1
1045 1024 1
1049 1024 1
580 1025 1
584 1025 1
599 1025 1
605 1025 1
698 1025 1
710 1025 1
1046 1025 1
1050 1025 1
581 1026 1
585 1026 1
600 1026 1
606 1026 1
699 1026 1
711 1026 1
1030 1026 1
1047 1026 1
582 1027 1
586 1027 1
601 1027 1
607 1027 1
700 1027 1
712 1027 1
1031 1027 1
1048 1027 1
583 1028 1
587 1028 1
602 1028 1
608 1028 1
701 1028 1
713 1028 1
1032 1028 1
1049 1028 1
584 1029 1
588 1029 1
603 1029 1
609 1029 1
702 1029 1
714 1029 1
1033 1029 1
1050 1029 1
568 1030 1
588 1030 1
610 1030 1
625 1030 1
715 1030 1
724 1030 1
1051 1030 1
1055 1030 1
568 1031 1
569 1031 1
611 1031 1
626 1031 1
716 1031 1
725 1031 1
1052 1031 1
1056 1031 1
569 1032 1
570 1032 1
612 1032 1
627 1032 1
717 1032 1
726 1032 1
1053 1032 1
1057 1032 1
570 1033 1
571 1033 1
613 1033 1
628 1033 1
718 1033 1
727 1033 1
1054 1033 1
1058 1033 1
571 1034 1
572 1034 1
614 1034 1
629 1034 1
719 1034 1
728 1034 1
1055 1034 1
1059 1034 1
572 1035 1
573 1035 1
615 1035 1
630 1035 1
720 1035 1
729 1035 1
1056 1035 1
1060 1035 1
573 1036 1
574 1036 1
610 1036 1
616 1036 1
721 1036 1
730 1036 1
1057 1036 1
1061 1036 1
574 1037 1
575 1037 1
611 1037 1
617 1037 1
722 1037 1
731 1037 1
1058 1037 1
1062 1037 1
575 1038 1
576 1038 1
612 1038 1
618 1038 1
723 1038 1
732 1038 1
1059 1038 1
1063 1038 1
576 1039 1
577 1039 1
613 1039 1
619 1039 1
724 1039 1
733 1039 1
1060 1039 1
1064 1039 1
577 1040 1
578 1040 1
614 1040 1
620 1040 1
725 1040 1
734 1040 1
1061 1040 1
1065 1040 1
578 1041 1
579 1041 1
615 1041 1
621 1041 1
726 1041 1
735 1041 1
1062 1041 1
1066 1041 1
579 1042 1
580 1042 1
616 1042 1
622 1042 1
715 1042 1
727 1042 1
1063 1042 1
1067 1042 1
580 1043 1
581 1043 1
617 1043 1
623 1043 1
716 1043 1
728 1043 1
1064 1043 1
1068 1043 1
581 1044 1
582 1044 1
618 1044 1
624 1044 1
717 1044 1
729 1044 1
1065 1044 1
1069 1044 1
582 1045 1
583 1045 1
619 1045 1
625 1045 1
718 1045 1
730 1045 1
1066 1045 1
1070 1045 1
583 1046 1
584 1046 1
620 1046 1
626 1046 1
719 1046 1
731 1046 1
1067 1046 1
1071 1046 1
584 1047 1
585 1047 1
621 1047 1
627 1047 1
720 1047 1
732 1047 1
1051 1047 1
1068 1047 1
585 1048 1
586 1048 1
622 1048 1
628 1048 1
721 1048 1
733 1048 1
1052 1048 1
1069 1048 1
586 1049 1
587 1049 1
623 1049 1
629 1049 1
722 1049 1
734 1049 1
1053 1049 1
1070 1049 1
587 1050 1
588 1050 1
624 1050 1
630 1050 1
723 1050 1
735 1050 1
1054 1050 1
1071 1050 1
589 1051 1
609 1051 1
610 1051 1
627 1051 1
736 1051 1
745 1051 1
1072 1051 1
1076 1051 1
589 1052 1
590 1052 1
611 1052 1
628 1052 1
737 1052 1
746 1052 1
1073 1052 1
1077 1052 1
590 1053 1
591 1053 1
612 1053 1
629 1053 1
738 1053 1
747 1053 1
1074 1053 1
1078 1053 1
591 1054 1
592 1054 1
613 1054 1
630 1054 1
739 1054 1
748 1054 1
1075 1054 1
1079 1054 1
592 1055 1
593 1055 1
610 1055 1
614 1055 1
740 1055 1
749 1055 1
1076 1055 1
1080 1055 1
593 1056 1
594 1056 1
611 1056 1
615 1056 1
741 1056 1
750 1056 1
1077 1056 1
1081 1056 1
594 1057 1
595 1057 1
612 1057 1
616 1057 1
742 1057 1
751 1057 1
1078 1057 1
1082 1057 1
595 1058 1
596 1058 1
613 1058 1
617 1058 1
743 1058 1
752 1058 1
1079 1058 1
1083 1058 1
596 1059 1
597 1059 1
614 1059 1
618 1059 1
744 1059 1
753 1059 1
1080 1059 1
1084 1059 1
597 1060 1
598 1060 1
615 1060 1
619 1060 1
745 1060 1
754 1060 1
1081 1060 1
1085 1060 1
598 1061 1
599 1061 1
616 1061 1
620 1061 1
746 1061 1
755 1061 1
1082 1061 1
1086 1061 1
599 1062 1
600 1062 1
617 1062 1
621 1062 1
747 1062 1
756 1062 1
1083 1062 1
1087 1062 1
600 1063 1
601 1063 1
618 1063 1
622 1063 1
736 1063 1
748 1063 1
1084 1063 1
1088 1063 1
601 1064 1
602 1064 1
619 1064 1
623 1064 1
737 1064 1
749 1064 1
1085 1064 1
1089 1064 1
602 1065 1
603 1065 1
620 1065 1
624 1065 1
738 1065 1
750 1065 1
1086 1065 1
1090 1065 1
603 1066 1
604 1066 1
621 1066 1
625 1066 1
739 1066 1
751 1066 1
1087 1066 1
1091 1066 1
604 1067 1
605 1067 1
622 1067 1
626 1067 1
740 1067 1
752 1067 1
1088 1067 1
1092 1067 1
605 1068 1
606 1068 1
623 1068 1
627 1068 1
741 1068 1
753 1068 1
1072 1068 1
1089 1068 1
606 1069 1
607 1069 1
624 1069 1
628 1069 1
742 1069 1
754 1069 1
1073 1069 1
1090 1069 1
607 1070 1
608 1070 1
625 1070 1
629 1070 1
743 1070 1
755 1070 1
1074 1070 1
1091 1070 1
608 1071 1
609 1071 1
626 1071 1
630 1071 1
744 1071 1
756 1071 1
1075 1071 1
1092 1071 1
631 1072 1
648 1072 1
652 1072 1
667 1072 1
694 1072 1
705 1072 1
1093 1072 1
1097 1072 1
632 1073 1
649 1073 1
653 1073 1
668 1073 1
695 1073 1
706 1073 1
1094 1073 1
1098 1073 1
633 1074 1
650 1074 1
654 1074 1
669 1074 1
696 1074 1
707 1074 1
1095 1074 1
1099 1074 1
634 1075 1
651 1075 1
655 1075 1
670 1075 1
697 1075 1
708 1075 1
1096 1075 1
1100 1075 1
631 1076 1
635 1076 1
656 1076 1
671 1076 1
698 1076 1
709 1076 1
1097 1076 1
1101 1076 1
632 1077 1
636 1077 1
657 1077 1
672 1077 1
699 1077 1
710 1077 1
1098 1077 1
1102 1077 1
633 1078 1
637 1078 1
652 1078 1
658 1078 1
700 1078 1
711 1078 1
1099 1078 1
1103 1078 1
634 1079 1
638 1079 1
653 1079 1
659 1079 1
701 1079 1
712 1079 1
1100 1079 1
1104 1079 1
635 1080 1
639 1080 1
654 1080 1
660 1080 1
702 1080 1
713 1080 1
1101 1080 1
1105 1080 1
636 1081 1
640 1081 1
655 1081 1
661 1081 1
703 1081 1
714 1081 1
1102 1081 1
1106 1081 1
637 1082 1
641 1082 1
656 1082 1
662 1082 1
694 1082 1
704 1082 1
1103 1082 1
1107 1082 1
638 1083 1
642 1083 1
657 1083 1
663 1083 1
695 1083 1
705 1083 1
1104 1083 1
1108 1083 1
639 1084 1
643 1084 1
658 1084 1
664 1084 1
696 1084 1
706 1084 1
1105 1084 1
1109 1084 1
640 1085 1
644 1085 1
659 1085 1
665 1085 1
697 1085 1
707 1085 1
1106 1085 1
1110 1085 1
641 1086 1
645 1086 1
660 1086 1
666 1086 1
698 1086 1
708 1086 1
1107 1086 1
1111 1086 1
642 1087 1
646 1087 1
661 1087 1
667 1087 1
699 1087 1
709 1087 1
1108 1087 1
1112 1087 1
643 1088 1
647 1088 1
662 1088 1
668 1088 1
700 1088 1
710 1088 1
1109 1088 1
1113 1088 1
644 1089 1
648 1089 1
663 1089 1
669 1089 1
701 1089 1
711 1089 1
1093 1089 1
1110 1089 1
645 1090 1
649 1090 1
664 1090 1
670 1090 1
702 1090 1
712 1090 1
1094 1090 1
1111 1090 1
646 1091 1
650 1091 1
665 1091 1
671 1091 1
703 1091 1
713 1091 1
1095 1091 1
1112 1091 1
647 1092 1
651 1092 1
666 1092 1
672 1092 1
704 1092 1
714 1092 1
1096 1092 1
1113 1092 1
631 1093 1
651 1093 1
673 1093 1
688 1093 1
715 1093 1
726 1093 1
1114 1093 1
1118 1093 1
631 1094 1
632 1094 1
674 1094 1
689 1094 1
716 1094 1
727 1094 1
1115 1094 1
1119 1094 1
632 1095 1
633 1095 1
675 1095 1
690 1095 1
717 1095 1
728 1095 1
1116 1095 1
1120 1095 1
633 1096 1
634 1096 1
676 1096 1
691 1096 1
718 1096 1
729 1096 1
1117 1096 1
1121 1096 1
634 1097 1
635 1097 1
677 1097 1
692 1097 1
719 1097 1
730 1097 1
1118 1097 1
1122 1097 1
635 1098 1
636 1098 1
678 1098 1
693 1098 1
720 1098 1
731 1098 1
1119 1098 1
1123 1098 1
636 1099 1
637 1099 1
673 1099 1
679 1099 1
721 1099 1
732 1099 1
1120 1099 1
1124 1099 1
637 1100 1
638 1100 1
674 1100 1
680 1100 1
722 1100 1
733 1100 1
1121 1100 1
1125 1100 1
638 1101 1
639 1101 1
675 1101 1
681 1101 1
723 1101 1
734 1101 1
1122 1101 1
1126 1101 1
639 1102 1
640 1102 1
676 1102 1
682 1102 1
724 1102 1
735 1102 1
1123 1102 1
1127 1102 1
640 1103 1
641 1103 1
677 1103 1
683 1103 1
715 1103 1
725 1103 1
1124 1103 1
1128 1103 1
641 1104 1
642 1104 1
678 1104 1
684 1104 1
716 1104 1
726 1104 1
1125 1104 1
1129 1104 1
642 1105 1
643 1105 1
679 1105 1
685 1105 1
717 1105 1
727 1105 1
1126 1105 1
1130 1105 1
643 1106 1
644 1106 1
680 1106 1
686 1106 1
718 1106 1
728 1106 1
1127 1106 1
1131 1106 1
644 1107 1
645 1107 1
681 1107 1
687 1107 1
719 1107 1
729 1107 1
1128 1107 1
1132 1107 1
645 1108 1
646 1108 1
682 1108 1
688 1108 1
720 1108 1
730 1108 1
1129 1108 1
1133 1108 1
646 1109 1
647 1109 1
683 1109 1
689 1109 1
721 1109 1
731 1109 1
1130 1109 1
1134 1109 1
647 1110 1
648 1110 1
684 1110 1
690 1110 1
722 1110 1
732 1110 1
1114 1110 1
1131 1110 1
648 1111 1
649 1111 1
685 1111 1
691 1111 1
723 1111 1
733 1111 1
1115 1111 1
1132 1111 1
649 1112 1
650 1112 1
686 1112 1
692 1112 1
724 1112 1
734 1112 1
1116 1112 1
1133 1112 1
650 1113 1
651 1113 1
687 1113 1
693 1113 1
725 1113 1
735 1113 1
1117 1113 1
1134 1113 1
652 1114 1
672 1114 1
673 1114 1
690 1114 1
736 1114 1
747 1114 1
1135 1114 1
1139 1114 1
652 1115 1
653 1115 1
674 1115 1
691 1115 1
737 1115 1
748 1115 1
1136 1115 1
1140 1115 1
653 1116 1
654 1116 1
675 1116 1
692 1116 1
738 1116 1
749 1116 1
1137 1116 1
1141 1116 1
654 1117 1
655 1117 1
676 1117 1
693 1117 1
739 1117 1
750 1117 1
1138 1117 1
1142 1117 1
655 1118 1
656 1118 1
673 1118 1
677 1118 1
740 1118 1
751 1118 1
1139 1118 1
1143 1118 1
656 1119 1
657 1119 1
674 1119 1
678 1119 1
741 1119 1
752 1119 1
1140 1119 1
1144 1119 1
657 1120 1
658 1120 1
675 1120 1
679 1120 1
742 1120 1
753 1120 1
1141 1120 1
1145 1120 1
658 1121 1
659 1121 1
676 1121 1
680 1121 1
743 1121 1
754 1121 1
1142 1121 1
1146 1121 1
659 1122 1
660 1122 1
677 1122 1
681 1122 1
744 1122 1
755 1122 1
1143 1122 1
1147 1122 1
660 1123 1
661 1123 1
678 1123 1
682 1123 1
745 1123 1
756 1123 1
1144 1123 1
1148 1123 1
661 1124 1
662 1124 1
679 1124 1
683 1124 1
736 1124 1
746 1124 1
1145 1124 1
1149 1124 1
662 1125 1
663 1125 1
680 1125 1
684 1125 1
737 1125 1
747 1125 1
1146 1125 1
1150 1125 1
663 1126 1
664 1126 1
681 1126 1
685 1126 1
738 1126 1
748 1126 1
1147 1126 1
1151 1126 1
664 1127 1
665 1127 1
682 1127 1
686 1127 1
739 1127 1
749 1127 1
1148 1127 1
1152 1127 1
665 1128 1
666 1128 1
683 1128 1
687 1128 1
740 1128 1
750 1128 1
1149 1128 1
1153 1128 1
666 1129 1
667 1129 1
684 1129 1
688 1129 1
741 1129 1
751 1129 1
1150 1129 1
1154 1129 1
667 1130 1
668 1130 1
685 1130 1
689 1130 1
742 1130 1
752 1130 1
1151 1130 1
1155 1130 1
668 1131 1
669 1131 1
686 1131 1
690 1131 1
743 1131 1
753 1131 1
1135 1131 1
1152 1131 1
669 1132 1
670 1132 1
687 1132 1
691 1132 1
744 1132 1
754 1132 1
1136 1132 1
1153 1132 1
670 1133 1
671 1133 1
688 1133 1
692 1133 1
745 1133 1
755 1133 1
1137 1133 1
1154 1133 1
671 1134 1
672 1134 1
689 1134 1
693 1134 1
746 1134 1
756 1134 1
1138 1134 1
1155 1134 1
694 1135 1
714 1135 1
715 1135 1
732 1135 1
736 1135 1
751 1135 1
1156 1135 1
1160 1135 1
694 1136 1
695 1136 1
716 1136 1
733 1136 1
737 1136 1
752 1136 1
1157 1136 1
1161 1136 1
695 1137 1
696 1137 1
717 1137 1
734 1137 1
738 1137 1
753 1137 1
1158 1137 1
1162 1137 1
696 1138 1
697 1138 1
718 1138 1
735 1138 1
739 1138 1
754 1138 1
1159 1138 1
1163 1138 1
697 1139 1
698 1139 1
715 1139 1
719 1139 1
740 1139 1
755 1139 1
1160 1139 1
1164 1139 1
698 1140 1
699 1140 1
716 1140 1
720 1140 1
741 1140 1
756 1140 1
1161 1140 1
1165 1140 1
699 1141 1
700 1141 1
717 1141 1
721 1141 1
736 1141 1
742 1141 1
1162 1141 1
1166 1141 1
700 1142 1
701 1142 1
718 1142 1
722 1142 1
737 1142 1
743 1142 1
1163 1142 1
1167 1142 1
701 1143 1
702 1143 1
719 1143 1
723 1143 1
738 1143 1
744 1143 1
1164 1143 1
1168 1143 1
702 1144 1
703 1144 1
720 1144 1
724 1144 1
739 1144 1
745 1144 1
1165 1144 1
1169 1144 1
703 1145 1
704 1145 1
721 1145 1
725 1145 1
740 1145 1
746 1145 1
1166 1145 1
1170 1145 1
704 1146 1
705 1146 1
722 1146 1
726 1146 1
741 1146 1
747 1146 1
1167 1146 1
1171 1146 1
705 1147 1
706 1147 1
723 1147 1
727 1147 1
742 1147 1
748 1147 1
1168 1147 1
1172 1147 1
706 1148 1
707 1148 1
724 1148 1
728 1148 1
743 1148 1
749 1148 1
1169 1148 1
1173 1148 1
707 1149 1
708 1149 1
725 1149 1
729 1149 1
744 1149 1
750 1149 1
1170 1149 1
1174 1149 1
708 1150 1
709 1150 1
726 1150 1
730 1150 1
745 1150 1
751 1150 1
1171 1150 1
1175 1150 1
709 1151 1
710 1151 1
727 1151 1
731 1151 1
746 1151 1
752 1151 1
1172 1151 1
1176 1151 1
710 1152 1
711 1152 1
728 1152 1
732 1152 1
747 1152 1
753 1152 1
1156 1152 1
1173 1152 1
711 1153 1
712 1153 1
729 1153 1
733 1153 1
748 1153 1
754 1153 1
1157 1153 1
1174 1153 1
712 1154 1
713 1154 1
730 1154 1
734 1154 1
749 1154 1
755 1154 1
1158 1154 1
1175 1154 1
713 1155 1
714 1155 1
731 1155 1
735 1155 1
750 1155 1
756 1155 1
1159 1155 1
1176 1155 1
757 1156 1
772 1156 1
778 1156 1
789 1156 1
841 1156 1
850 1156 1
967 1156 1
972 1156 1
758 1157 1
773 1157 1
779 1157 1
790 1157 1
842 1157 1
851 1157 1
968 1157 1
973 1157 1
759 1158 1
774 1158 1
780 1158 1
791 1158 1
843 1158 1
852 1158 1
969 1158 1
974 1158 1
760 1159 1
775 1159 1
781 1159 1
792 1159 1
844 1159 1
853 1159 1
970 1159 1
975 1159 1
761 1160 1
776 1160 1
782 1160 1
793 1160 1
845 1160 1
854 1160 1
971 1160 1
976 1160 1
762 1161 1
777 1161 1
783 1161 1
794 1161 1
846 1161 1
855 1161 1
972 1161 1
977 1161 1
757 1162 1
763 1162 1
784 1162 1
795 1162 1
847 1162 1
856 1162 1
973 1162 1
978 1162 1
758 1163 1
764 1163 1
785 1163 1
796 1163 1
848 1163 1
857 1163 1
974 1163 1
979 1163 1
759 1164 1
765 1164 1
786 1164 1
797 1164 1
849 1164 1
858 1164 1
975 1164 1
980 1164 1
760 1165 1
766 1165 1
787 1165 1
798 1165 1
850 1165 1
859 1165 1
976 1165 1
981 1165 1
761 1166 1
767 1166 1
778 1166 1
788 1166 1
851 1166 1
860 1166 1
977 1166 1
982 1166 1
762 1167 1
768 1167 1
779 1167 1
789 1167 1
852 1167 1
861 1167 1
978 1167 1
983 1167 1
763 1168 1
769 1168 1
780 1168 1
790 1168 1
841 1168 1
853 1168 1
979 1168 1
984 1168 1
764 1169 1
770 1169 1
781 1169 1
791 1169 1
842 1169 1
854 1169 1
980 1169 1
985 1169 1
765 1170 1
771 1170 1
782 1170 1
792 1170 1
843 1170 1
855 1170 1
981 1170 1
986 1170 1
766 1171 1
772 1171 1
783 1171 1
793 1171 1
844 1171 1
856 1171 1
982 1171 1
987 1171 1
767 1172 1
773 1172 1
784 1172 1
794 1172 1
845 1172 1
857 1172 1
967 1172 1
983 1172 1
768 1173 1
774 1173 1
785 1173 1
795 1173 1
846 1173 1
858 1173 1
968 1173 1
984 1173 1
769 1174 1
775 1174 1
786 1174 1
796 1174 1
847 1174 1
859 1174 1
969 1174 1
985 1174 1
770 1175 1
776 1175 1
787 1175 1
797 1175 1
848 1175 1
860 1175 1
970 1175 1
986 1175 1
771 1176 1
777 1176 1
788 1176 1
798 1176 1
849 1176 1
861 1176 1
971 1176 1
987 1176 1
757 1177 1
774 1177 1
799 1177 1
810 1177 1
862 1177 1
871 1177 1
988 1177 1
993 1177 1
758 1178 1
775 1178 1
800 1178 1
811 1178 1
863 1178 1
872 1178 1
989 1178 1
994 1178 1
759 1179 1
776 1179 1
801 1179 1
812 1179 1
864 1179 1
873 1179 1
990 1179 1
995 1179 1
760 1180 1
777 1180 1
802 1180 1
813 1180 1
865 1180 1
874 1180 1
991 1180 1
996 1180 1
757 1181 1
761 1181 1
803 1181 1
814 1181 1
866 1181 1
875 1181 1
992 1181 1
997 1181 1
758 1182 1
762 1182 1
804 1182 1
815 1182 1
867 1182 1
876 1182 1
993 1182 1
998 1182 1
759 1183 1
763 1183 1
805 1183 1
816 1183 1
868 1183 1
877 1183 1
994 1183 1
999 1183 1
760 1184 1
764 1184 1
806 1184 1
817 1184 1
869 1184 1
878 1184 1
995 1184 1
1000 1184 1
761 1185 1
765 1185 1
807 1185 1
818 1185 1
870 1185 1
879 1185 1
996 1185 1
1001 1185 1
762 1186 1
766 1186 1
808 1186 1
819 1186 1
871 1186 1
880 1186 1
997 1186 1
1002 1186 1
763 1187 1
767 1187 1
799 1187 1
809 1187 1
872 1187 1
881 1187 1
998 1187 1
1003 1187 1
764 1188 1
768 1188 1
800 1188 1
810 1188 1
873 1188 1
882 1188 1
999 1188 1
1004 1188 1
765 1189 1
769 1189 1
801 1189 1
811 1189 1
862 1189 1
874 1189 1
1000 1189 1
1005 1189 1
766 1190 1
770 1190 1
802 1190 1
812 1190 1
863 1190 1
875 1190 1
1001 1190 1
1006 1190 1
767 1191 1
771 1191 1
803 1191 1
813 1191 1
864 1191 1
876 1191 1
1002 1191 1
1007 1191 1
768 1192 1
772 1192 1
804 1192 1
814 1192 1
865 1192 1
877 1192 1
1003 1192 1
1008 1192 1
769 1193 1
773 1193 1
805 1193 1
815 1193 1
866 1193 1
878 1193 1
988 1193 1
1004 1193 1
770 1194 1
774 1194 1
806 1194 1
816 1194 1
867 1194 1
879 1194 1
989 1194 1
1005 1194 1
771 1195 1
775 1195 1
807 1195 1
817 1195 1
868 1195 1
880 1195 1
990 1195 1
1006 1195 1
772 1196 1
776 1196 1
808 1196 1
818 1196 1
869 1196 1
881 1196 1
991 1196 1
1007 1196 1
773 1197 1
777 1197 1
809 1197 1
819 1197 1
870 1197 1
882 1197 1
992 1197 1
1008 1197 1
757 1198 1
777 1198 1
820 1198 1
831 1198 1
883 1198 1
892 1198 1
1009 1198 1
1014 1198 1
757 1199 1
758 1199 1
821 1199 1
832 1199 1
884 1199 1
893 1199 1
1010 1199 1
1015 1199 1
758 1200 1
759 1200 1
822 1200 1
833 1200 1
885 1200 1
894 1200 1
1011 1200 1
1016 1200 1
759 1201 1
760 1201 1
823 1201 1
834 1201 1
886 1201 1
895 1201 1
1012 1201 1
1017 1201 1
760 1202 1
761 1202 1
824 1202 1
835 1202 1
887 1202 1
896 1202 1
1013 1202 1
1018 1202 1
761 1203 1
762 1203 1
825 1203 1
836 1203 1
888 1203 1
897 1203 1
1014 1203 1
1019 1203 1
762 1204 1
763 1204 1
826 1204 1
837 1204 1
889 1204 1
898 1204 1
1015 1204 1
1020 1204 1
763 1205 1
764 1205 1
827 1205 1
838 1205 1
890 1205 1
899 1205 1
1016 1205 1
1021 1205 1
764 1206 1
765 1206 1
828 1206 1
839 1206 1
891 1206 1
900 1206 1
1017 1206 1
1022 1206 1
765 1207 1
766 1207 1
829 1207 1
840 1207 1
892 1207 1
901 1207 1
1018 1207 1
1023 1207 1
766 1208 1
767 1208 1
820 1208 1
830 1208 1
893 1208 1
902 1208 1
1019 1208 1
1024 1208 1
767 1209 1
768 1209 1
821 1209 1
831 1209 1
894 1209 1
903 1209 1
1020 1209 1
1025 1209 1
768 1210 1
769 1210 1
822 1210 1
832 1210 1
883 1210 1
895 1210 1
1021 1210 1
1026 1210 1
769 1211 1
770 1211 1
823 1211 1
833 1211 1
884 1211 1
896 1211 1
1022 1211 1
1027 1211 1
770 1212 1
771 1212 1
824 1212 1
834 1212 1
885 1212 1
897 1212 1
1023 1212 1
1028 1212 1
771 1213 1
772 1213 1
825 1213 1
835 1213 1
886 1213 1
898 1213 1
1024 1213 1
1029 1213 1
772 1214 1
773 1214 1
826 1214 1
836 1214 1
887 1214 1
899 1214 1
1009 1214 1
1025 1214 1
773 1215 1
774 1215 1
827 1215 1
837 1215 1
888 1215 1
900 1215 1
1010 1215 1
1026 1215 1
774 1216 1
775 1216 1
828 1216 1
838 1216 1
889 1216 1
901 1216 1
1011 1216 1
1027 1216 1
775 1217 1
776 1217 1
829 1217 1
839 1217 1
890 1217 1
902 1217 1
1012 1217 1
1028 1217 1
776 1218 1
777 1218 1
830 1218 1
840 1218 1
891 1218 1
903 1218 1
1013 1218 1
1029 1218 1
778 1219 1
795 1219 1
799 1219 1
814 1219 1
904 1219 1
913 1219 1
1030 1219 1
1035 1219 1
779 1220 1
796 1220 1
800 1220 1
815 1220 1
905 1220 1
914 1220 1
1031 1220 1
1036 1220 1
780 1221 1
797 1221 1
801 1221 1
816 1221 1
906 1221 1
915 1221 1
1032 1221 1
1037 1221 1
781 1222 1
798 1222 1
802 1222 1
817 1222 1
907 1222 1
916 1222 1
1033 1222 1
1038 1222 1
778 1223 1
782 1223 1
803 1223 1
818 1223 1
908 1223 1
917 1223 1
1034 1223 1
1039 1223 1
779 1224 1
783 1224 1
804 1224 1
819 1224 1
909 1224 1
918 1224 1
1035 1224 1
1040 1224 1
780 1225 1
784 1225 1
799 1225 1
805 1225 1
910 1225 1
919 1225 1
1036 1225 1
1041 1225 1
781 1226 1
785 1226 1
800 1226 1
806 1226 1
911 1226 1
920 1226 1
1037 1226 1
1042 1226 1
782 1227 1
786 1227 1
801 1227 1
807 1227 1
912 1227 1
921 1227 1
1038 1227 1
1043 1227 1
783 1228 1
787 1228 1
802 1228 1
808 1228 1
913 1228 1
922 1228 1
1039 1228 1
1044 1228 1
784 1229 1
788 1229 1
803 1229 1
809 1229 1
914 1229 1
923 1229 1
1040 1229 1
1045 1229 1
785 1230 1
789 1230 1
804 1230 1
810 1230 1
915 1230 1
924 1230 1
1041 1230 1
1046 1230 1
786 1231 1
790 1231 1
805 1231 1
811 1231 1
904 1231 1
916 1231 1
1042 1231 1
1047 1231 1
787 1232 1
791 1232 1
806 1232 1
812 1232 1
905 1232 1
917 1232 1
1043 1232 1
1048 1232 1
788 1233 1
792 1233 1
807 1233 1
813 1233 1
906 1233 1
918 1233 1
1044 1233 1
1049 1233 1
789 1234 1
793 1234 1
808 1234 1
814 1234 1
907 1234 1
919 1234 1
1045 1234 1
1050 1234 1
790 1235 1
794 1235 1
809 1235 1
815 1235 1
908 1235 1
920 1235 1
1030 1235 1
1046 1235 1
791 1236 1
795 1236 1
810 1236 1
816 1236 1
909 1236 1
921 1236 1
1031 1236 1
1047 1236 1
792 1237 1
796 1237 1
811 1237 1
817 1237 1
910 1237 1
922 1237 1
1032 1237 1
1048 1237 1
793 1238 1
797 1238 1
812 1238 1
818 1238 1
911 1238 1
923 1238 1
1033 1238 1
1049 1238 1
794 1239 1
798 1239 1
813 1239 1
819 1239 1
912 1239 1
924 1239 1
1034 1239 1
1050 1239 1
778 1240 1
798 1240 1
820 1240 1
835 1240 1
925 1240 1
934 1240 1
1051 1240 1
1056 1240 1
778 1241 1
779 1241 1
821 1241 1
836 1241 1
926 1241 1
935 1241 1
1052 1241 1
1057 1241 1
779 1242 1
780 1242 1
822 1242 1
837 1242 1
927 1242 1
936 1242 1
1053 1242 1
1058 1242 1
780 1243 1
781 1243 1
823 1243 1
838 1243 1
928 1243 1
937 1243 1
1054 1243 1
1059 1243 1
781 1244 1
782 1244 1
824 1244 1
839 1244 1
929 1244 1
938 1244 1
1055 1244 1
1060 1244 1
782 1245 1
783 1245 1
825 1245 1
840 1245 1
930 1245 1
939 1245 1
1056 1245 1
1061 1245 1
783 1246 1
784 1246 1
820 1246 1
826 1246 1
931 1246 1
940 1246 1
1057 1246 1
1062 1246 1
784 1247 1
785 1247 1
821 1247 1
827 1247 1
932 1247 1
941 1247 1
1058 1247 1
1063 1247 1
785 1248 1
786 1248 1
822 1248 1
828 1248 1
933 1248 1
942 1248 1
1059 1248 1
1064 1248 1
786 1249 1
787 1249 1
823 1249 1
829 1249 1
934 1249 1
943 1249 1
1060 1249 1
1065 1249 1
787 1250 1
788 1250 1
824 1250 1
830 1250 1
935 1250 1
944 1250 1
1061 1250 1
1066 1250 1
788 1251 1
789 1251 1
825 1251 1
831 1251 1
936 1251 1
945 1251 1
1062 1251 1
1067 1251 1
789 1252 1
790 1252 1
826 1252 1
832 1252 1
925 1252 1
937 1252 1
1063 1252 1
1068 1252 1
790 1253 1
791 1253 1
827 1253 1
833 1253 1
926 1253 1
938 1253 1
1064 1253 1
1069 1253 1
791 1254 1
792 1254 1
828 1254 1
834 1254 1
927 1254 1
939 1254 1
1065 1254 1
1070 1254 1
792 1255 1
793 1255 1
829 1255 1
835 1255 1
928 1255 1
940 1255 1
1066 1255 1
1071 1255 1
793 1256 1
794 1256 1
830 1256 1
836 1256 1
929 1256 1
941 1256 1
1051 1256 1
1067 1256 1
794 1257 1
795 1257 1
831 1257 1
837 1257 1
930 1257 1
942 1257 1
1052 1257 1
1068 1257 1
795 1258 1
796 1258 1
832 1258 1
838 1258 1
931 1258 1
943 1258 1
1053 1258 1
1069 1258 1
796 1259 1
797 1259 1
833 1259 1
839 1259 1
932 1259 1
944 1259 1
1054 1259 1
1070 1259 1
797 1260 1
798 1260 1
834 1260 1
840 1260 1
933 1260 1
945 1260 1
1055 1260 1
1071 1260 1
799 1261 1
819 1261 1
820 1261 1
837 1261 1
946 1261 1
955 1261 1
1072 1261 1
1077 1261 1
799 1262 1
800 1262 1
821 1262 1
838 1262 1
947 1262 1
956 1262 1
1073 1262 1
1078 1262 1
800 1263 1
801 1263 1
822 1263 1
839 1263 1
948 1263 1
957 1263 1
1074 1263 1
1079 1263 1
801 1264 1
802 1264 1
823 1264 1
840 1264 1
949 1264 1
958 1264 1
1075 1264 1
1080 1264 1
802 1265 1
803 1265 1
820 1265 1
824 1265 1
950 1265 1
959 1265 1
1076 1265 1
1081 1265 1
803 1266 1
804 1266 1
821 1266 1
825 1266 1
951 1266 1
960 1266 1
1077 1266 1
1082 1266 1
804 1267 1
805 1267 1
822 1267 1
826 1267 1
952 1267 1
961 1267 1
1078 1267 1
1083 1267 1
805 1268 1
806 1268 1
823 1268 1
827 1268 1
953 1268 1
962 1268 1
1079 1268 1
1084 1268 1
806 1269 1
807 1269 1
824 1269 1
828 1269 1
954 1269 1
963 1269 1
1080 1269 1
1085 1269 1
807 1270 1
808 1270 1
825 1270 1
829 1270 1
955 1270 1
964 1270 1
1081 1270 1
1086 1270 1
808 1271 1
809 1271 1
826 1271 1
830 1271 1
956 1271 1
965 1271 1
1082 1271 1
1087 1271 1
809 1272 1
810 1272 1
827 1272 1
831 1272 1
957 1272 1
966 1272 1
1083 1272 1
1088 1272 1
810 1273 1
811 1273 1
828 1273 1
832 1273 1
946 1273 1
958 1273 1
1084 1273 1
1089 1273 1
811 1274 1
812 1274 1
829 1274 1
833 1274 1
947 1274 1
959 1274 1
1085 1274 1
1090 1274 1
812 1275 1
813 1275 1
830 1275 1
834 1275 1
948 1275 1
960 1275 1
1086 1275 1
1091 1275 1
813 1276 1
814 1276 1
831 1276 1
835 1276 1
949 1276 1
961 1276 1
1087 1276 1
1092 1276 1
814 1277 1
815 1277 1
832 1277 1
836 1277 1
950 1277 1
962 1277 1
1072 1277 1
1088 1277 1
815 1278 1
816 1278 1
833 1278 1
837 1278 1
951 1278 1
963 1278 1
1073 1278 1
1089 1278 1
816 1279 1
817 1279 1
834 1279 1
838 1279 1
952 1279 1
964 1279 1
1074 1279 1
1090 1279 1
817 1280 1
818 1280 1
835 1280 1
839 1280 1
953 1280 1
965 1280 1
1075 1280 1
1091 1280 1
818 1281 1
819 1281 1
836 1281 1
840 1281 1
954 1281 1
966 1281 1
1076 1281 1
1092 1281 1
841 1282 1
858 1282 1
862 1282 1
877 1282 1
904 1282 1
915 1282 1
1093 1282 1
1098 1282 1
842 1283 1
859 1283 1
863 1283 1
878 1283 1
905 1283 1
916 1283 1
1094 1283 1
1099 1283 1
843 1284 1
860 1284 1
864 1284 1
879 1284 1
906 1284 1
917 1284 1
1095 1284 1
1100 1284 1
844 1285 1
861 1285 1
865 1285 1
880 1285 1
907 1285 1
918 1285 1
1096 1285 1
1101 1285 1
841 1286 1
845 1286 1
866 1286 1
881 1286 1
908 1286 1
919 1286 1
1097 1286 1
1102 1286 1
842 1287 1
846 1287 1
867 1287 1
882 1287 1
909 1287 1
920 1287 1
1098 1287 1
1103 1287 1
843 1288 1
847 1288 1
862 1288 1
868 1288 1
910 1288 1
921 1288 1
1099 1288 1
1104 1288 1
844 1289 1
848 1289 1
863 1289 1
869 1289 1
911 1289 1
922 1289 1
1100 1289 1
1105 1289 1
845 1290 1
849 1290 1
864 1290 1
870 1290 1
912 1290 1
923 1290 1
1101 1290 1
1106 1290 1
846 1291 1
850 1291 1
865 1291 1
871 1291 1
913 1291 1
924 1291 1
1102 1291 1
1107 1291 1
847 1292 1
851 1292 1
866 1292 1
872 1292 1
904 1292 1
914 1292 1
1103 1292 1
1108 1292 1
848 1293 1
852 1293 1
867 1293 1
873 1293 1
905 1293 1
915 1293 1
1104 1293 1
1109 1293 1
849 1294 1
853 1294 1
868 1294 1
874 1294 1
906 1294 1
916 1294 1
1105 1294 1
1110 1294 1
850 1295 1
854 1295 1
869 1295 1
875 1295 1
907 1295 1
917 1295 1
1106 1295 1
1111 1295 1
851 1296 1
855 1296 1
870 1296 1
876 1296 1
908 1296 1
918 1296 1
1107 1296 1
1112 1296 1
852 1297 1
856 1297 1
871 1297 1
877 1297 1
909 1297 1
919 1297 1
1108 1297 1
1113 1297 1
853 1298 1
857 1298 1
872 1298 1
878 1298 1
910 1298 1
920 1298 1
1093 1298 1
1109 1298 1
854 1299 1
858 1299 1
873 1299 1
879 1299 1
911 1299 1
921 1299 1
1094 1299 1
1110 1299 1
855 1300 1
859 1300 1
874 1300 1
880 1300 1
912 1300 1
922 1300 1
1095 1300 1
1111 1300 1
856 1301 1
860 1301 1
875 1301 1
881 1301 1
913 1301 1
923 1301 1
1096 1301 1
1112 1301 1
857 1302 1
861 1302 1
876 1302 1
882 1302 1
914 1302 1
924 1302 1
1097 1302 1
1113 1302 1
841 1303 1
861 1303 1
883 1303 1
898 1303 1
925 1303 1
936 1303 1
1114 1303 1
1119 1303 1
841 1304 1
842 1304 1
884 1304 1
899 1304 1
926 1304 1
937 1304 1
1115 1304 1
1120 1304 1
842 1305 1
843 1305 1
885 1305 1
900 1305 1
927 1305 1
938 1305 1
1116 1305 1
1121 1305 1
843 1306 1
844 1306 1
886 1306 1
901 1306 1
928 1306 1
939 1306 1
1117 1306 1
1122 1306 1
844 1307 1
845 1307 1
887 1307 1
902 1307 1
929 1307 1
940 1307 1
1118 1307 1
1123 1307 1
845 1308 1
846 1308 1
888 1308 1
903 1308 1
930 1308 1
941 1308 1
1119 1308 1
1124 1308 1
846 1309 1
847 1309 1
883 1309 1
889 1309 1
931 1309 1
942 1309 1
1120 1309 1
1125 1309 1
847 1310 1
848 1310 1
884 1310 1
890 1310 1
932 1310 1
943 1310 1
1121 1310 1
1126 1310 1
848 1311 1
849 1311 1
885 1311 1
891 1311 1
933 1311 1
944 1311 1
1122 1311 1
1127 1311 1
849 1312 1
850 1312 1
886 1312 1
892 1312 1
934 1312 1
945 1312 1
1123 1312 1
1128 1312 1
850 1313 1
851 1313 1
887 1313 1
893 1313 1
925 1313 1
935 1313 1
1124 1313 1
1129 1313 1
851 1314 1
852 1314 1
888 1314 1
894 1314 1
926 1314 1
936 1314 1
1125 1314 1
1130 1314 1
852 1315 1
853 1315 1
889 1315 1
895 1315 1
927 1315 1
937 1315 1
1126 1315 1
1131 1315 1
853 1316 1
854 1316 1
890 1316 1
896 1316 1
928 1316 1
938 1316 1
1127 1316 1
1132 1316 1
854 1317 1
855 1317 1
891 1317 1
897 1317 1
929 1317 1
939 1317 1
1128 1317 1
1133 1317 1
855 1318 1
856 1318 1
892 1318 1
898 1318 1
930 1318 1
940 1318 1
1129 1318 1
1134 1318 1
856 1319 1
857 1319 1
893 1319 1
899 1319 1
931 1319 1
941 1319 1
1114 1319 1
1130 1319 1
857 1320 1
858 1320 1
894 1320 1
900 1320 1
932 1320 1
942 1320 1
1115 1320 1
1131 1320 1
858 1321 1
859 1321 1
895 1321 1
901 1321 1
933 1321 1
943 1321 1
1116 1321 1
1132 1321 1
859 1322 1
860 1322 1
896 1322 1
902 1322 1
934 1322 1
944 1322 1
1117 1322 1
1133 1322 1
860 1323 1
861 1323 1
897 1323 1
903 1323 1
935 1323 1
945 1323 1
1118 1323 1
1134 1323 1
862 1324 1
882 1324 1
883 1324 1
900 1324 1
946 1324 1
957 1324 1
1135 1324 1
1140 1324 1
862 1325 1
863 1325 1
884 1325 1
901 1325 1
947 1325 1
958 1325 1
1136 1325 1
1141 1325 1
863 1326 1
864 1326 1
885 1326 1
902 1326 1
948 1326 1
959 1326 1
1137 1326 1
1142 1326 1
864 1327 1
865 1327 1
886 1327 1
903 1327 1
949 1327 1
960 1327 1
1138 1327 1
1143 1327 1
865 1328 1
866 1328 1
883 1328 1
887 1328 1
950 1328 1
961 1328 1
1139 1328 1
1144 1328 1
866 1329 1
867 1329 1
884 1329 1
888 1329 1
951 1329 1
962 1329 1
1140 1329 1
1145 1329 1
867 1330 1
868 1330 1
885 1330 1
889 1330 1
952 1330 1
963 1330 1
1141 1330 1
1146 1330 1
868 1331 1
869 1331 1
886 1331 1
890 1331 1
953 1331 1
964 1331 1
1142 1331 1
1147 1331 1
869 1332 1
870 1332 1
887 1332 1
891 1332 1
954 1332 1
965 1332 1
1143 1332 1
1148 1332 1
870 1333 1
871 1333 1
888 1333 1
892 1333 1
955 1333 1
966 1333 1
1144 1333 1
1149 1333 1
871 1334 1
872 1334 1
889 1334 1
893 1334 1
946 1334 1
956 1334 1
1145 1334 1
1150 1334 1
872 1335 1
873 1335 1
890 1335 1
894 1335 1
947 1335 1
957 1335 1
1146 1335 1
1151 1335 1
873 1336 1
874 1336 1
891 1336 1
895 1336 1
948 1336 1
958 1336 1
1147 1336 1
1152 1336 1
874 1337 1
875 1337 1
892 1337 1
896 1337 1
949 1337 1
959 1337 1
1148 1337 1
1153 1337 1
875 1338 1
876 1338 1
893 1338 1
897 1338 1
950 1338 1
960 1338 1
1149 1338 1
1154 1338 1
876 1339 1
877 1339 1
894 1339 1
898 1339 1
951 1339 1
961 1339 1
1150 1339 1
1155 1339 1
877 1340 1
878 1340 1
895 1340 1
899 1340 1
952 1340 1
962 1340 1
1135 1340 1
1151 1340 1
878 1341 1
879 1341 1
896 1341 1
900 1341 1
953 1341 1
963 1341 1
1136 1341 1
1152 1341 1
879 1342 1
880 1342 1
897 1342 1
901 1342 1
954 1342 1
964 1342 1
1137 1342 1
1153 1342 1
880 1343 1
881 1343 1
898 1343 1
902 1343 1
955 1343 1
965 1343 1
1138 1343 1
1154 1343 1
881 1344 1
882 1344 1
899 1344 1
903 1344 1
956 1344 1
966 1344 1
1139 1344 1
1155 1344 1
904 1345 1
924 1345 1
925 1345 1
942 1345 1
946 1345 1
961 1345 1
1156 1345 1
1161 1345 1
904 1346 1
905 1346 1
926 1346 1
943 1346 1
947 1346 1
962 1346 1
1157 1346 1
1162 1346 1
905 1347 1
906 1347 1
927 1347 1
944 1347 1
948 1347 1
963 1347 1
1158 1347 1
1163 1347 1
906 1348 1
907 1348 1
928 1348 1
945 1348 1
949 1348 1
964 1348 1
1159 1348 1
1164 1348 1
907 1349 1
908 1349 1
925 1349 1
929 1349 1
950 1349 1
965 1349 1
1160 1349 1
1165 1349 1
908 1350 1
909 1350 1
926 1350 1
930 1350 1
951 1350 1
966 1350 1
1161 1350 1
1166 1350 1
909 1351 1
910 1351 1
927 1351 1
931 1351 1
946 1351 1
952 1351 1
1162 1351 1
1167 1351 1
910 1352 1
911 1352 1
928 1352 1
932 1352 1
947 1352 1
953 1352 1
1163 1352 1
1168 1352 1
911 1353 1
912 1353 1
929 1353 1
933 1353 1
948 1353 1
954 1353 1
1164 1353 1
1169 1353 1
912 1354 1
913 1354 1
930 1354 1
934 1354 1
949 1354 1
955 1354 1
1165 1354 1
1170 1354 1
913 1355 1
914 1355 1
931 1355 1
935 1355 1
950 1355 1
956 1355 1
1166 1355 1
1171 1355 1
914 1356 1
915 1356 1
932 1356 1
936 1356 1
951 1356 1
957 1356 1
1167 1356 1
1172 1356 1
915 1357 1
916 1357 1
933 1357 1
937 1357 1
952 1357 1
958 1357 1
1168 1357 1
1173 1357 1
916 1358 1
917 1358 1
934 1358 1
938 1358 1
953 1358 1
959 1358 1
1169 1358 1
1174 1358 1
917 1359 1
918 1359 1
935 1359 1
939 1359 1
954 1359 1
960 1359 1
1170 1359 1
1175 1359 1
918 1360 1
919 1360 1
936 1360 1
940 1360 1
955 1360 1
961 1360 1
1171 1360 1
1176 1360 1
919 1361 1
920 1361 1
937 1361 1
941 1361 1
956 1361 1
962 1361 1
1156 1361 1
1172 1361 1
920 1362 1
921 1362 1
938 1362 1
942 1362 1
957 1362 1
963 1362 1
1157 1362 1
1173 1362 1
921 1363 1
922 1363 1
939 1363 1
943 1363 1
958 1363 1
964 1363 1
1158 1363 1
1174 1363 1
922 1364 1
923 1364 1
940 1364 1
944 1364 1
959 1364 1
965 1364 1
1159 1364 1
1175 1364 1
923 1365 1
924 1365 1
941 1365 1
945 1365 1
960 1365 1
966 1365 1
1160 1365 1
1176 1365 1
967 1366 1
984 1366 1
988 1366 1
1003 1366 1
1030 1366 1
1041 1366 1
1093 1366 1
1102 1366 1
968 1367 1
985 1367 1
989 1367 1
1004 1367 1
1031 1367 1
1042 1367 1
1094 1367 1
1103 1367 1
969 1368 1
986 1368 1
990 1368 1
1005 1368 1
1032 1368 1
1043 1368 1
1095 1368 1
1104 1368 1
970 1369 1
987 1369 1
991 1369 1
1006 1369 1
1033 1369 1
1044 1369 1
1096 1369 1
1105 1369 1
967 1370 1
971 1370 1
992 1370 1
1007 1370 1
1034 1370 1
1045 1370 1
1097 1370 1
1106 1370 1
968 1371 1
972 1371 1
993 1371 1
1008 1371 1
1035 1371 1
1046 1371 1
1098 1371 1
1107 1371 1
969 1372 1
973 1372 1
988 1372 1
994 1372 1
1036 1372 1
1047 1372 1
1099 1372 1
1108 1372 1
970 1373 1
974 1373 1
989 1373 1
995 1373 1
1037 1373 1
1048 1373 1
1100 1373 1
1109 1373 1
971 1374 1
975 1374 1
990 1374 1
996 1374 1
1038 1374 1
1049 1374 1
1101 1374 1
1110 1374 1
972 1375 1
976 1375 1
991 1375 1
997 1375 1
1039 1375 1
1050 1375 1
1102 1375 1
1111 1375 1
973 1376 1
977 1376 1
992 1376 1
998 1376 1
1030 1376 1
1040 1376 1
1103 1376 1
1112 1376 1
974 1377 1
978 1377 1
993 1377 1
999 1377 1
1031 1377 1
1041 1377 1
1104 1377 1
1113 1377 1
975 1378 1
979 1378 1
994 1378 1
1000 1378 1
1032 1378 1
1042 1378 1
1093 1378 1
1105 1378 1
976 1379 1
980 1379 1
995 1379 1
1001 1379 1
1033 1379 1
1043 1379 1
1094 1379 1
1106 1379 1
977 1380 1
981 1380 1
996 1380 1
1002 1380 1
1034 1380 1
1044 1380 1
1095 1380 1
1107 1380 1
978 1381 1
982 1381 1
997 1381 1
1003 1381 1
1035 1381 1
1045 1381 1
1096 1381 1
1108 1381 1
979 1382 1
983 1382 1
998 1382 1
1004 1382 1
1036 1382 1
1046 1382 1
1097 1382 1
1109 1382 1
980 1383 1
984 1383 1
999 1383 1
1005 1383 1
1037 1383 1
1047 1383 1
1098 1383 1
1110 1383 1
981 1384 1
985 1384 1
1000 1384 1
1006 1384 1
1038 1384 1
1048 1384 1
1099 1384 1
1111 1384 1
982 1385 1
986 1385 1
1001 1385 1
1007 1385 1
1039 1385 1
1049 1385 1
1100 1385 1
1112 1385 1
983 1386 1
987 1386 1
1002 1386 1
1008 1386 1
1040 1386 1
1050 1386 1
1101 1386 1
1113 1386 1
967 1387 1
987 1387 1
1009 1387 1
1024 1387 1
1051 1387 1
1062 1387 1
1114 1387 1
1123 1387 1
967 1388 1
968 1388 1
1010 1388 1
1025 1388 1
1052 1388 1
1063 1388 1
1115 1388 1
1124 1388 1
968 1389 1
969 1389 1
1011 1389 1
1026 1389 1
1053 1389 1
1064 1389 1
1116 1389 1
1125 1389 1
969 1390 1
970 1390 1
1012 1390 1
1027 1390 1
1054 1390 1
1065 1390 1
1117 1390 1
1126 1390 1
970 1391 1
971 1391 1
1013 1391 1
1028 1391 1
1055 1391 1
1066 1391 1
1118 1391 1
1127 1391 1
971 1392 1
972 1392 1
1014 1392 1
1029 1392 1
1056 1392 1
1067 1392 1
1119 1392 1
1128 1392 1
972 1393 1
973 1393 1
1009 1393 1
1015 1393 1
1057 1393 1
1068 1393 1
1120 1393 1
1129 1393 1
973 1394 1
974 1394 1
1010 1394 1
1016 1394 1
1058 1394 1
1069 1394 1
1121 1394 1
1130 1394 1
974 1395 1
975 1395 1
1011 1395 1
1017 1395 1
1059 1395 1
1070 1395 1
1122 1395 1
1131 1395 1
975 1396 1
976 1396 1
1012 1396 1
1018 1396 1
1060 1396 1
1071 1396 1
1123 1396 1
1132 1396 1
976 1397 1
977 1397 1
1013 1397 1
1019 1397 1
1051 1397 1
1061 1397 1
1124 1397 1
1133 1397 1
977 1398 1
978 1398 1
1014 1398 1
1020 1398 1
1052 1398 1
1062 1398 1
1125 1398 1
1134 1398 1
978 1399 1
979 1399 1
1015 1399 1
1021 1399 1
1053 1399 1
1063 1399 1
1114 1399 1
1126 1399 1
979 1400 1
980 1400 1
1016 1400 1
1022 1400 1
1054 1400 1
1064 1400 1
1115 1400 1
1127 1400 1
980 1401 1
981 1401 1
1017 1401 1
1023 1401 1
1055 1401 1
1065 1401 1
1116 1401 1
1128 1401 1
981 1402 1
982 1402 1
1018 1402 1
1024 1402 1
1056 1402 1
1066 1402 1
1117 1402 1
1129 1402 1
982 1403 1
983 1403 1
1019 1403 1
1025 1403 1
1057 1403 1
1067 1403 1
1118 1403 1
1130 1403 1
983 1404 1
984 1404 1
1020 1404 1
1026 1404 1
1058 1404 1
1068 1404 1
1119 1404 1
1131 1404 1
984 1405 1
985 1405 1
1021 1405 1
1027 1405 1
1059 1405 1
1069 1405 1
1120 1405 1
1132 1405 1
985 1406 1
986 1406 1
1022 1406 1
1028 1406 1
1060 1406 1
1070 1406 1
1121 1406 1
1133 1406 1
986 1407 1
987 1407 1
1023 1407 1
1029 1407 1
1061 1407 1
1071 1407 1
1122 1407 1
1134 1407 1
988 1408 1
1008 1408 1
1009 1408 1
1026 1408 1
1072 1408 1
1083 1408 1
1135 1408 1
1144 1408 1
988 1409 1
989 1409 1
1010 1409 1
1027 1409 1
1073 1409 1
1084 1409 1
1136 1409 1
1145 1409 1
989 1410 1
990 1410 1
1011 1410 1
1028 1410 1
1074 1410 1
1085 1410 1
1137 1410 1
1146 1410 1
990 1411 1
991 1411 1
1012 1411 1
1029 1411 1
1075 1411 1
1086 1411 1
1138 1411 1
1147 1411 1
991 1412 1
992 1412 1
1009 1412 1
1013 1412 1
1076 1412 1
1087 1412 1
1139 1412 1
1148 1412 1
992 1413 1
993 1413 1
1010 1413 1
1014 1413 1
1077 1413 1
1088 1413 1
1140 1413 1
1149 1413 1
993 1414 1
994 1414 1
1011 1414 1
1015 1414 1
1078 1414 1
1089 1414 1
1141 1414 1
1150 1414 1
994 1415 1
995 1415 1
1012 1415 1
1016 1415 1
1079 1415 1
1090 1415 1
1142 1415 1
1151 1415 1
995 1416 1
996 1416 1
1013 1416 1
1017 1416 1
1080 1416 1
1091 1416 1
1143 1416 1
1152 1416 1
996 1417 1
997 1417 1
1014 1417 1
1018 1417 1
1081 1417 1
1092 1417 1
1144 1417 1
1153 1417 1
997 1418 1
998 1418 1
1015 1418 1
1019 1418 1
1072 1418 1
1082 1418 1
1145 1418 1
1154 1418 1
998 1419 1
999 1419 1
1016 1419 1
1020 1419 1
1073 1419 1
1083 1419 1
1146 1419 1
1155 1419 1
999 1420 1
1000 1420 1
1017 1420 1
1021 1420 1
1074 1420 1
1084 1420 1
1135 1420 1
1147 1420 1
1000 1421 1
1001 1421 1
1018 1421 1
1022 1421 1
1075 1421 1
1085 1421 1
1136 1421 1
1148 1421 1
1001 1422 1
1002 1422 1
1019 1422 1
1023 1422 1
1076 1422 1
1086 1422 1
1137 1422 1
1149 1422 1
1002 1423 1
1003 1423 1
1020 1423 1
1024 1423 1
1077 1423 1
1087 1423 1
1138 1423 1
1150 1423 1
1003 1424 1
1004 1424 1
1021 1424 1
1025 1424 1
1078 1424 1
1088 1424 1
1139 1424 1
1151 1424 1
1004 1425 1
1005 1425 1
1022 1425 1
1026 1425 1
1079 1425 1
1089 1425 1
1140 1425 1
1152 1425 1
1005 1426 1
1006 1426 1
1023 1426 1
1027 1426 1
1080 1426 1
1090 1426 1
1141 1426 1
1153 1426 1
1006 1427 1
1007 1427 1
1024 1427 1
1028 1427 1
1081 1427 1
1091 1427 1
1142 1427 1
1154 1427 1
1007 1428 1
1008 1428 1
1025 1428 1
1029 1428 1
1082 1428 1
1092 1428 1
1143 1428 1
1155 1428 1
1030 1429 1
1050 1429 1
1051 1429 1
1068 1429 1
1072 1429 1
1087 1429 1
1156 1429 1
1165 1429 1
1030 1430 1
1031 1430 1
1052 1430 1
1069 1430 1
1073 1430 1
1088 1430 1
1157 1430 1
1166 1430 1
1031 1431 1
1032 1431 1
1053 1431 1
1070 1431 1
1074 1431 1
1089 1431 1
1158 1431 1
1167 1431 1
1032 1432 1
1033 1432 1
1054 1432 1
1071 1432 1
1075 1432 1
1090 1432 1
1159 1432 1
1168 1432 1
1033 1433 1
1034 1433 1
1051 1433 1
1055 1433 1
1076 1433 1
1091 1433 1
1160 1433 1
1169 1433 1
1034 1434 1
1035 1434 1
1052 1434 1
1056 1434 1
1077 1434 1
1092 1434 1
1161 1434 1
1170 1434 1
1035 1435 1
1036 1435 1
1053 1435 1
1057 1435 1
1072 1435 1
1078 1435 1
1162 1435 1
1171 1435 1
1036 1436 1
1037 1436 1
1054 1436 1
1058 1436 1
1073 1436 1
1079 1436 1
1163 1436 1
1172 1436 1
1037 1437 1
1038 1437 1
1055 1437 1
1059 1437 1
1074 1437 1
1080 1437 1
1164 1437 1
1173 1437 1
1038 1438 1
1039 1438 1
1056 1438 1
1060 1438 1
1075 1438 1
1081 1438 1
1165 1438 1
1174 1438 1
1039 1439 1
1040 1439 1
1057 1439 1
1061 1439 1
1076 1439 1
1082 1439 1
1166 1439 1
1175 1439 1
1040 1440 1
1041 1440 1
1058 1440 1
1062 1440 1
1077 1440 1
1083 1440 1
1167 1440 1
1176 1440 1
1041 1441 1
1042 1441 1
1059 1441 1
1063 1441 1
1078 1441 1
1084 1441 1
1156 1441 1
1168 1441 1
1042 1442 1
1043 1442 1
1060 1442 1
1064 1442 1
1079 1442 1
1085 1442 1
1157 1442 1
1169 1442 1
1043 1443 1
1044 1443 1
1061 1443 1
1065 1443 1
1080 1443 1
1086 1443 1
1158 1443 1
1170 1443 1
1044 1444 1
1045 1444 1
1062 1444 1
1066 1444 1
1081 1444 1
1087 1444 1
1159 1444 1
1171 1444 1
1045 1445 1
1046 1445 1
1063 1445 1
1067 1445 1
1082 1445 1
1088 1445 1
1160 1445 1
1172 1445 1
1046 1446 1
1047 1446 1
1064 1446 1
1068 1446 1
1083 1446 1
1089 1446 1
1161 1446 1
1173 1446 1
1047 1447 1
1048 1447 1
1065 1447 1
1069 1447 1
1084 1447 1
1090 1447 1
1162 1447 1
1174 1447 1
1048 1448 1
1049 1448 1
1066 1448 1
1070 1448 1
1085 1448 1
1091 1448 1
1163 1448 1
1175 1448 1
1049 1449 1
1050 1449 1
1067 1449 1
1071 1449 1
1086 1449 1
1092 1449 1
1164 1449 1
1176 1449 1
1093 1450 1
1113 1450 1
1114 1450 1
1131 1450 1
1135 1450 1
1150 1450 1
1156 1450 1
1167 1450 1
1093 1451 1
1094 1451 1
1115 1451 1
1132 1451 1
1136 1451 1
1151 1451 1
1157 1451 1
1168 1451 1
1094 1452 1
1095 1452 1
1116 1452 1
1133 1452 1
1137 1452 1
1152 1452 1
1158 1452 1
1169 1452 1
1095 1453 1
1096 1453 1
1117 1453 1
1134 1453 1
1138 1453 1
1153 1453 1
1159 1453 1
1170 1453 1
1096 1454 1
1097 1454 1
1114 1454 1
1118 1454 1
1139 1454 1
1154 1454 1
1160 1454 1
1171 1454 1
1097 1455 1
1098 1455 1
1115 1455 1
1119 1455 1
1140 1455 1
1155 1455 1
1161 1455 1
1172 1455 1
1098 1456 1
1099 1456 1
1116 1456 1
1120 1456 1
1135 1456 1
1141 1456 1
1162 1456 1
1173 1456 1
1099 1457 1
1100 1457 1
1117 1457 1
1121 1457 1
1136 1457 1
1142 1457 1
1163 1457 1
1174 1457 1
1100 1458 1
1101 1458 1
1118 1458 1
1122 1458 1
1137 1458 1
1143 1458 1
1164 1458 1
1175 1458 1
1101 1459 1
1102 1459 1
1119 1459 1
1123 1459 1
1138 1459 1
1144 1459 1
1165 1459 1
1176 1459 1
1102 1460 1
1103 1460 1
1120 1460 1
1124 1460 1
1139 1460 1
1145 1460 1
1156 1460 1
1166 1460 1
1103 1461 1
1104 1461 1
1121 1461 1
1125 1461 1
1140 1461 1
1146 1461 1
1157 1461 1
1167 1461 1
1104 1462 1
1105 1462 1
1122 1462 1
1126 1462 1
1141 1462 1
1147 1462 1
1158 1462 1
1168 1462 1
1105 1463 1
1106 1463 1
1123 1463 1
1127 1463 1
1142 1463 1
1148 1463 1
1159 1463 1
1169 1463 1
1106 1464 1
1107 1464 1
1124 1464 1
1128 1464 1
1143 1464 1
1149 1464 1
1160 1464 1
1170 1464 1
1107 1465 1
1108 1465 1
1125 1465 1
1129 1465 1
1144 1465 1
1150 1465 1
1161 1465 1
1171 1465 1
1108 1466 1
1109 1466 1
1126 1466 1
1130 1466 1
1145 1466 1
1151 1466 1
1162 1466 1
1172 1466 1
1109 1467 1
1110 1467 1
1127 1467 1
1131 1467 1
1146 1467 1
1152 1467 1
1163 1467 1
1173 1467 1
1110 1468 1
1111 1468 1
1128 1468 1
1132 1468 1
1147 1468 1
1153 1468 1
1164 1468 1
1174 1468 1
1111 1469 1
1112 1469 1
1129 1469 1
1133 1469 1
1148 1469 1
1154 1469 1
1165 1469 1
1175 1469 1
1112 1470 1
1113 1470 1
1130 1470 1
1134 1470 1
1149 1470 1
1155 1470 1
1166 1470 1
1176 1470 1
