%%MatrixMarket matrix coordinate integer general
% Binary matrix; one-based indices; arithmetic over GF(2)
435 580 3480
1 1 1
18 1 1
30 1 1
41 1 1
59 1 1
63 1 1
2 2 1
19 2 1
31 2 1
42 2 1
60 2 1
64 2 1
3 3 1
20 3 1
32 3 1
43 3 1
61 3 1
65 3 1
4 4 1
21 4 1
33 4 1
44 4 1
62 4 1
66 4 1
5 5 1
22 5 1
34 5 1
45 5 1
63 5 1
67 5 1
6 6 1
23 6 1
35 6 1
46 6 1
64 6 1
68 6 1
7 7 1
24 7 1
36 7 1
47 7 1
65 7 1
69 7 1
8 8 1
25 8 1
37 8 1
48 8 1
66 8 1
70 8 1
9 9 1
26 9 1
38 9 1
49 9 1
67 9 1
71 9 1
10 10 1
27 10 1
39 10 1
50 10 1
68 10 1
72 10 1
11 11 1
28 11 1
40 11 1
51 11 1
69 11 1
73 11 1
12 12 1
29 12 1
41 12 1
52 12 1
70 12 1
74 12 1
1 13 1
13 13 1
42 13 1
53 13 1
71 13 1
75 13 1
2 14 1
14 14 1
43 14 1
54 14 1
72 14 1
76 14 1
3 15 1
15 15 1
44 15 1
55 15 1
73 15 1
77 15 1
4 16 1
16 16 1
45 16 1
56 16 1
74 16 1
78 16 1
5 17 1
17 17 1
46 17 1
57 17 1
75 17 1
79 17 1
6 18 1
18 18 1
47 18 1
58 18 1
76 18 1
80 18 1
7 19 1
19 19 1
30 19 1
48 19 1
77 19 1
81 19 1
8 20 1
20 20 1
31 20 1
49 20 1
78 20 1
82 20 1
9 21 1
21 21 1
32 21 1
50 21 1
79 21 1
83 21 1
10 22 1
22 22 1
33 22 1
51 22 1
80 22 1
84 22 1
11 23 1
23 23 1
34 23 1
52 23 1
81 23 1
85 23 1
12 24 1
24 24 1
35 24 1
53 24 1
82 24 1
86 24 1
13 25 1
25 25 1
36 25 1
54 25 1
83 25 1
87 25 1
14 26 1
26 26 1
37 26 1
55 26 1
59 26 1
84 26 1
15 27 1
27 27 1
38 27 1
56 27 1
60 27 1
85 27 1
16 28 1
28 28 1
39 28 1
57 28 1
61 28 1
86 28 1
17 29 1
29 29 1
40 29 1
58 29 1
62 29 1
87 29 1
1 30 1
21 30 1
88 30 1
99 30 1
117 30 1
121 30 1
2 31 1
22 31 1
89 31 1
100 31 1
118 31 1
122 31 1
3 32 1
23 32 1
90 32 1
101 32 1
119 32 1
123 32 1
4 33 1
24 33 1
91 33 1
102 33 1
120 33 1
124 33 1
5 34 1
25 34 1
92 34 1
103 34 1
121 34 1
125 34 1
6 35 1
26 35 1
93 35 1
104 35 1
122 35 1
126 35 1
7 36 1
27 36 1
94 36 1
105 36 1
123 36 1
127 36 1
8 37 1
28 37 1
95 37 1
106 37 1
124 37 1
128 37 1
9 38 1
29 38 1
96 38 1
107 38 1
125 38 1
129 38 1
1 39 1
10 39 1
97 39 1
108 39 1
126 39 1
130 39 1
2 40 1
11 40 1
98 40 1
109 40 1
127 40 1
131 40 1
3 41 1
12 41 1
99 41 1
110 41 1
128 41 1
132 41 1
4 42 1
13 42 1
100 42 1
111 42 1
129 42 1
133 42 1
5 43 1
14 43 1
101 43 1
112 43 1
130 43 1
134 43 1
6 44 1
15 44 1
102 44 1
113 44 1
131 44 1
135 44 1
7 45 1
16 45 1
103 45 1
114 45 1
132 45 1
136 45 1
8 46 1
17 46 1
104 46 1
115 46 1
133 46 1
137 46 1
9 47 1
18 47 1
105 47 1
116 47 1
134 47 1
138 47 1
10 48 1
19 48 1
88 48 1
106 48 1
135 48 1
139 48 1
11 49 1
20 49 1
89 49 1
107 49 1
136 49 1
140 49 1
12 50 1
21 50 1
90 50 1
108 50 1
137 50 1
141 50 1
13 51 1
22 51 1
91 51 1
109 51 1
138 51 1
142 51 1
14 52 1
23 52 1
92 52 1
110 52 1
139 52 1
143 52 1
15 53 1
24 53 1
93 53 1
111 53 1
140 53 1
144 53 1
16 54 1
25 54 1
94 54 1
112 54 1
141 54 1
145 54 1
17 55 1
26 55 1
95 55 1
113 55 1
117 55 1
142 55 1
18 56 1
27 56 1
96 56 1
114 56 1
118 56 1
143 56 1
19 57 1
28 57 1
97 57 1
115 57 1
119 57 1
144 57 1
20 58 1
29 58 1
98 58 1
116 58 1
120 58 1
145 58 1
30 59 1
50 59 1
88 59 1
105 59 1
146 59 1
150 59 1
31 60 1
51 60 1
89 60 1
106 60 1
147 60 1
151 60 1
32 61 1
52 61 1
90 61 1
107 61 1
148 61 1
152 61 1
33 62 1
53 62 1
91 62 1
108 62 1
149 62 1
153 62 1
34 63 1
54 63 1
92 63 1
109 63 1
150 63 1
154 63 1
35 64 1
55 64 1
93 64 1
110 64 1
151 64 1
155 64 1
36 65 1
56 65 1
94 65 1
111 65 1
152 65 1
156 65 1
37 66 1
57 66 1
95 66 1
112 66 1
153 66 1
157 66 1
38 67 1
58 67 1
96 67 1
113 67 1
154 67 1
158 67 1
30 68 1
39 68 1
97 68 1
114 68 1
155 68 1
159 68 1
31 69 1
40 69 1
98 69 1
115 69 1
156 69 1
160 69 1
32 70 1
41 70 1
99 70 1
116 70 1
157 70 1
161 70 1
33 71 1
42 71 1
88 71 1
100 71 1
158 71 1
162 71 1
34 72 1
43 72 1
89 72 1
101 72 1
159 72 1
163 72 1
35 73 1
44 73 1
90 73 1
102 73 1
160 73 1
164 73 1
36 74 1
45 74 1
91 74 1
103 74 1
161 74 1
165 74 1
37 75 1
46 75 1
92 75 1
104 75 1
162 75 1
166 75 1
38 76 1
47 76 1
93 76 1
105 76 1
163 76 1
167 76 1
39 77 1
48 77 1
94 77 1
106 77 1
164 77 1
168 77 1
40 78 1
49 78 1
95 78 1
107 78 1
165 78 1
169 78 1
41 79 1
50 79 1
96 79 1
108 79 1
166 79 1
170 79 1
42 80 1
51 80 1
97 80 1
109 80 1
167 80 1
171 80 1
43 81 1
52 81 1
98 81 1
110 81 1
168 81 1
172 81 1
44 82 1
53 82 1
99 82 1
111 82 1
169 82 1
173 82 1
45 83 1
54 83 1
100 83 1
112 83 1
170 83 1
174 83 1
46 84 1
55 84 1
101 84 1
113 84 1
146 84 1
171 84 1
47 85 1
56 85 1
102 85 1
114 85 1
147 85 1
172 85 1
48 86 1
57 86 1
103 86 1
115 86 1
148 86 1
173 86 1
49 87 1
58 87 1
104 87 1
116 87 1
149 87 1
174 87 1
59 88 1
79 88 1
117 88 1
134 88 1
146 88 1
157 88 1
60 89 1
80 89 1
118 89 1
135 89 1
147 89 1
158 89 1
61 90 1
81 90 1
119 90 1
136 90 1
148 90 1
159 90 1
62 91 1
82 91 1
120 91 1
137 91 1
149 91 1
160 91 1
63 92 1
83 92 1
121 92 1
138 92 1
150 92 1
161 92 1
64 93 1
84 93 1
122 93 1
139 93 1
151 93 1
162 93 1
65 94 1
85 94 1
123 94 1
140 94 1
152 94 1
163 94 1
66 95 1
86 95 1
124 95 1
141 95 1
153 95 1
164 95 1
67 96 1
87 96 1
125 96 1
142 96 1
154 96 1
165 96 1
59 97 1
68 97 1
126 97 1
143 97 1
155 97 1
166 97 1
60 98 1
69 98 1
127 98 1
144 98 1
156 98 1
167 98 1
61 99 1
70 99 1
128 99 1
145 99 1
157 99 1
168 99 1
62 100 1
71 100 1
117 100 1
129 100 1
158 100 1
169 100 1
63 101 1
72 101 1
118 101 1
130 101 1
159 101 1
170 101 1
64 102 1
73 102 1
119 102 1
131 102 1
160 102 1
171 102 1
65 103 1
74 103 1
120 103 1
132 103 1
161 103 1
172 103 1
66 104 1
75 104 1
121 104 1
133 104 1
162 104 1
173 104 1
67 105 1
76 105 1
122 105 1
134 105 1
163 105 1
174 105 1
68 106 1
77 106 1
123 106 1
135 106 1
146 106 1
164 106 1
69 107 1
78 107 1
124 107 1
136 107 1
147 107 1
165 107 1
70 108 1
79 108 1
125 108 1
137 108 1
148 108 1
166 108 1
71 109 1
80 109 1
126 109 1
138 109 1
149 109 1
167 109 1
72 110 1
81 110 1
127 110 1
139 110 1
150 110 1
168 110 1
73 111 1
82 111 1
128 111 1
140 111 1
151 111 1
169 111 1
74 112 1
83 112 1
129 112 1
141 112 1
152 112 1
170 112 1
75 113 1
84 113 1
130 113 1
142 113 1
153 113 1
171 113 1
76 114 1
85 114 1
131 114 1
143 114 1
154 114 1
172 114 1
77 115 1
86 115 1
132 115 1
144 115 1
155 115 1
173 115 1
78 116 1
87 116 1
133 116 1
145 116 1
156 116 1
174 116 1
1 117 1
25 117 1
175 117 1
186 117 1
204 117 1
208 117 1
2 118 1
26 118 1
176 118 1
187 118 1
205 118 1
209 118 1
3 119 1
27 119 1
177 119 1
188 119 1
206 119 1
210 119 1
4 120 1
28 120 1
178 120 1
189 120 1
207 120 1
211 120 1
5 121 1
29 121 1
179 121 1
190 121 1
208 121 1
212 121 1
1 122 1
6 122 1
180 122 1
191 122 1
209 122 1
213 122 1
2 123 1
7 123 1
181 123 1
192 123 1
210 123 1
214 123 1
3 124 1
8 124 1
182 124 1
193 124 1
211 124 1
215 124 1
4 125 1
9 125 1
183 125 1
194 125 1
212 125 1
216 125 1
5 126 1
10 126 1
184 126 1
195 126 1
213 126 1
217 126 1
6 127 1
11 127 1
185 127 1
196 127 1
214 127 1
218 127 1
7 128 1
12 128 1
186 128 1
197 128 1
215 128 1
219 128 1
8 129 1
13 129 1
187 129 1
198 129 1
216 129 1
220 129 1
9 130 1
14 130 1
188 130 1
199 130 1
217 130 1
221 130 1
10 131 1
15 131 1
189 131 1
200 131 1
218 131 1
222 131 1
11 132 1
16 132 1
190 132 1
201 132 1
219 132 1
223 132 1
12 133 1
17 133 1
191 133 1
202 133 1
220 133 1
224 133 1
13 134 1
18 134 1
192 134 1
203 134 1
221 134 1
225 134 1
14 135 1
19 135 1
175 135 1
193 135 1
222 135 1
226 135 1
15 136 1
20 136 1
176 136 1
194 136 1
223 136 1
227 136 1
16 137 1
21 137 1
177 137 1
195 137 1
224 137 1
228 137 1
17 138 1
22 138 1
178 138 1
196 138 1
225 138 1
229 138 1
18 139 1
23 139 1
179 139 1
197 139 1
226 139 1
230 139 1
19 140 1
24 140 1
180 140 1
198 140 1
227 140 1
231 140 1
20 141 1
25 141 1
181 141 1
199 141 1
228 141 1
232 141 1
21 142 1
26 142 1
182 142 1
200 142 1
204 142 1
229 142 1
22 143 1
27 143 1
183 143 1
201 143 1
205 143 1
230 143 1
23 144 1
28 144 1
184 144 1
202 144 1
206 144 1
231 144 1
24 145 1
29 145 1
185 145 1
203 145 1
207 145 1
232 145 1
30 146 1
54 146 1
175 146 1
192 146 1
233 146 1
237 146 1
31 147 1
55 147 1
176 147 1
193 147 1
234 147 1
238 147 1
32 148 1
56 148 1
177 148 1
194 148 1
235 148 1
239 148 1
33 149 1
57 149 1
178 149 1
195 149 1
236 149 1
240 149 1
34 150 1
58 150 1
179 150 1
196 150 1
237 150 1
241 150 1
30 151 1
35 151 1
180 151 1
197 151 1
238 151 1
242 151 1
31 152 1
36 152 1
181 152 1
198 152 1
239 152 1
243 152 1
32 153 1
37 153 1
182 153 1
199 153 1
240 153 1
244 153 1
33 154 1
38 154 1
183 154 1
200 154 1
241 154 1
245 154 1
34 155 1
39 155 1
184 155 1
201 155 1
242 155 1
246 155 1
35 156 1
40 156 1
185 156 1
202 156 1
243 156 1
247 156 1
36 157 1
41 157 1
186 157 1
203 157 1
244 157 1
248 157 1
37 158 1
42 158 1
175 158 1
187 158 1
245 158 1
249 158 1
38 159 1
43 159 1
176 159 1
188 159 1
246 159 1
250 159 1
39 160 1
44 160 1
177 160 1
189 160 1
247 160 1
251 160 1
40 161 1
45 161 1
178 161 1
190 161 1
248 161 1
252 161 1
41 162 1
46 162 1
179 162 1
191 162 1
249 162 1
253 162 1
42 163 1
47 163 1
180 163 1
192 163 1
250 163 1
254 163 1
43 164 1
48 164 1
181 164 1
193 164 1
251 164 1
255 164 1
44 165 1
49 165 1
182 165 1
194 165 1
252 165 1
256 165 1
45 166 1
50 166 1
183 166 1
195 166 1
253 166 1
257 166 1
46 167 1
51 167 1
184 167 1
196 167 1
254 167 1
258 167 1
47 168 1
52 168 1
185 168 1
197 168 1
255 168 1
259 168 1
48 169 1
53 169 1
186 169 1
198 169 1
256 169 1
260 169 1
49 170 1
54 170 1
187 170 1
199 170 1
257 170 1
261 170 1
50 171 1
55 171 1
188 171 1
200 171 1
233 171 1
258 171 1
51 172 1
56 172 1
189 172 1
201 172 1
234 172 1
259 172 1
52 173 1
57 173 1
190 173 1
202 173 1
235 173 1
260 173 1
53 174 1
58 174 1
191 174 1
203 174 1
236 174 1
261 174 1
59 175 1
83 175 1
204 175 1
221 175 1
233 175 1
244 175 1
60 176 1
84 176 1
205 176 1
222 176 1
234 176 1
245 176 1
61 177 1
85 177 1
206 177 1
223 177 1
235 177 1
246 177 1
62 178 1
86 178 1
207 178 1
224 178 1
236 178 1
247 178 1
63 179 1
87 179 1
208 179 1
225 179 1
237 179 1
248 179 1
59 180 1
64 180 1
209 180 1
226 180 1
238 180 1
249 180 1
60 181 1
65 181 1
210 181 1
227 181 1
239 181 1
250 181 1
61 182 1
66 182 1
211 182 1
228 182 1
240 182 1
251 182 1
62 183 1
67 183 1
212 183 1
229 183 1
241 183 1
252 183 1
63 184 1
68 184 1
213 184 1
230 184 1
242 184 1
253 184 1
64 185 1
69 185 1
214 185 1
231 185 1
243 185 1
254 185 1
65 186 1
70 186 1
215 186 1
232 186 1
244 186 1
255 186 1
66 187 1
71 187 1
204 187 1
216 187 1
245 187 1
256 187 1
67 188 1
72 188 1
205 188 1
217 188 1
246 188 1
257 188 1
68 189 1
73 189 1
206 189 1
218 189 1
247 189 1
258 189 1
69 190 1
74 190 1
207 190 1
219 190 1
248 190 1
259 190 1
70 191 1
75 191 1
208 191 1
220 191 1
249 191 1
260 191 1
71 192 1
76 192 1
209 192 1
221 192 1
250 192 1
261 192 1
72 193 1
77 193 1
210 193 1
222 193 1
233 193 1
251 193 1
73 194 1
78 194 1
211 194 1
223 194 1
234 194 1
252 194 1
74 195 1
79 195 1
212 195 1
224 195 1
235 195 1
253 195 1
75 196 1
80 196 1
213 196 1
225 196 1
236 196 1
254 196 1
76 197 1
81 197 1
214 197 1
226 197 1
237 197 1
255 197 1
77 198 1
82 198 1
215 198 1
227 198 1
238 198 1
256 198 1
78 199 1
83 199 1
216 199 1
228 199 1
239 199 1
257 199 1
79 200 1
84 200 1
217 200 1
229 200 1
240 200 1
258 200 1
80 201 1
85 201 1
218 201 1
230 201 1
241 201 1
259 201 1
81 202 1
86 202 1
219 202 1
231 202 1
242 202 1
260 202 1
82 203 1
87 203 1
220 203 1
232 203 1
243 203 1
261 203 1
88 204 1
112 204 1
175 204 1
195 204 1
262 204 1
266 204 1
89 205 1
113 205 1
176 205 1
196 205 1
263 205 1
267 205 1
90 206 1
114 206 1
177 206 1
197 206 1
264 206 1
268 206 1
91 207 1
115 207 1
178 207 1
198 207 1
265 207 1
269 207 1
92 208 1
116 208 1
179 208 1
199 208 1
266 208 1
270 208 1
88 209 1
93 209 1
180 209 1
200 209 1
267 209 1
271 209 1
89 210 1
94 210 1
181 210 1
201 210 1
268 210 1
272 210 1
90 211 1
95 211 1
182 211 1
202 211 1
269 211 1
273 211 1
91 212 1
96 212 1
183 212 1
203 212 1
270 212 1
274 212 1
92 213 1
97 213 1
175 213 1
184 213 1
271 213 1
275 213 1
93 214 1
98 214 1
176 214 1
185 214 1
272 214 1
276 214 1
94 215 1
99 215 1
177 215 1
186 215 1
273 215 1
277 215 1
95 216 1
100 216 1
178 216 1
187 216 1
274 216 1
278 216 1
96 217 1
101 217 1
179 217 1
188 217 1
275 217 1
279 217 1
97 218 1
102 218 1
180 218 1
189 218 1
276 218 1
280 218 1
98 219 1
103 219 1
181 219 1
190 219 1
277 219 1
281 219 1
99 220 1
104 220 1
182 220 1
191 220 1
278 220 1
282 220 1
100 221 1
105 221 1
183 221 1
192 221 1
279 221 1
283 221 1
101 222 1
106 222 1
184 222 1
193 222 1
280 222 1
284 222 1
102 223 1
107 223 1
185 223 1
194 223 1
281 223 1
285 223 1
103 224 1
108 224 1
186 224 1
195 224 1
282 224 1
286 224 1
104 225 1
109 225 1
187 225 1
196 225 1
283 225 1
287 225 1
105 226 1
110 226 1
188 226 1
197 226 1
284 226 1
288 226 1
106 227 1
111 227 1
189 227 1
198 227 1
285 227 1
289 227 1
107 228 1
112 228 1
190 228 1
199 228 1
286 228 1
290 228 1
108 229 1
113 229 1
191 229 1
200 229 1
262 229 1
287 229 1
109 230 1
114 230 1
192 230 1
201 230 1
263 230 1
288 230 1
110 231 1
115 231 1
193 231 1
202 231 1
264 231 1
289 231 1
111 232 1
116 232 1
194 232 1
203 232 1
265 232 1
290 232 1
117 233 1
141 233 1
204 233 1
224 233 1
262 233 1
273 233 1
118 234 1
142 234 1
205 234 1
225 234 1
263 234 1
274 234 1
119 235 1
143 235 1
206 235 1
226 235 1
264 235 1
275 235 1
120 236 1
144 236 1
207 236 1
227 236 1
265 236 1
276 236 1
121 237 1
145 237 1
208 237 1
228 237 1
266 237 1
277 237 1
117 238 1
122 238 1
209 238 1
229 238 1
267 238 1
278 238 1
118 239 1
123 239 1
210 239 1
230 239 1
268 239 1
279 239 1
119 240 1
124 240 1
211 240 1
231 240 1
269 240 1
280 240 1
120 241 1
125 241 1
212 241 1
232 241 1
270 241 1
281 241 1
121 242 1
126 242 1
204 242 1
213 242 1
271 242 1
282 242 1
122 243 1
127 243 1
205 243 1
214 243 1
272 243 1
283 243 1
123 244 1
128 244 1
206 244 1
215 244 1
273 244 1
284 244 1
124 245 1
129 245 1
207 245 1
216 245 1
274 245 1
285 245 1
125 246 1
130 246 1
208 246 1
217 246 1
275 246 1
286 246 1
126 247 1
131 247 1
209 247 1
218 247 1
276 247 1
287 247 1
127 248 1
132 248 1
210 248 1
219 248 1
277 248 1
288 248 1
128 249 1
133 249 1
211 249 1
220 249 1
278 249 1
289 249 1
129 250 1
134 250 1
212 250 1
221 250 1
279 250 1
290 250 1
130 251 1
135 251 1
213 251 1
222 251 1
262 251 1
280 251 1
131 252 1
136 252 1
214 252 1
223 252 1
263 252 1
281 252 1
132 253 1
137 253 1
215 253 1
224 253 1
264 253 1
282 253 1
133 254 1
138 254 1
216 254 1
225 254 1
265 254 1
283 254 1
134 255 1
139 255 1
217 255 1
226 255 1
266 255 1
284 255 1
135 256 1
140 256 1
218 256 1
227 256 1
267 256 1
285 256 1
136 257 1
141 257 1
219 257 1
228 257 1
268 257 1
286 257 1
137 258 1
142 258 1
220 258 1
229 258 1
269 258 1
287 258 1
138 259 1
143 259 1
221 259 1
230 259 1
270 259 1
288 259 1
139 260 1
144 260 1
222 260 1
231 260 1
271 260 1
289 260 1
140 261 1
145 261 1
223 261 1
232 261 1
272 261 1
290 261 1
146 262 1
170 262 1
233 262 1
253 262 1
262 262 1
279 262 1
147 263 1
171 263 1
234 263 1
254 263 1
263 263 1
280 263 1
148 264 1
172 264 1
235 264 1
255 264 1
264 264 1
281 264 1
149 265 1
173 265 1
236 265 1
256 265 1
265 265 1
282 265 1
150 266 1
174 266 1
237 266 1
257 266 1
266 266 1
283 266 1
146 267 1
151 267 1
238 267 1
258 267 1
267 267 1
284 267 1
147 268 1
152 268 1
239 268 1
259 268 1
268 268 1
285 268 1
148 269 1
153 269 1
240 269 1
260 269 1
269 269 1
286 269 1
149 270 1
154 270 1
241 270 1
261 270 1
270 270 1
287 270 1
150 271 1
155 271 1
233 271 1
242 271 1
271 271 1
288 271 1
151 272 1
156 272 1
234 272 1
243 272 1
272 272 1
289 272 1
152 273 1
157 273 1
235 273 1
244 273 1
273 273 1
290 273 1
153 274 1
158 274 1
236 274 1
245 274 1
262 274 1
274 274 1
154 275 1
159 275 1
237 275 1
246 275 1
263 275 1
275 275 1
155 276 1
160 276 1
238 276 1
247 276 1
264 276 1
276 276 1
156 277 1
161 277 1
239 277 1
248 277 1
265 277 1
277 277 1
157 278 1
162 278 1
240 278 1
249 278 1
266 278 1
278 278 1
158 279 1
163 279 1
241 279 1
250 279 1
267 279 1
279 279 1
159 280 1
164 280 1
242 280 1
251 280 1
268 280 1
280 280 1
160 281 1
165 281 1
243 281 1
252 281 1
269 281 1
281 281 1
161 282 1
166 282 1
244 282 1
253 282 1
270 282 1
282 282 1
162 283 1
167 283 1
245 283 1
254 283 1
271 283 1
283 283 1
163 284 1
168 284 1
246 284 1
255 284 1
272 284 1
284 284 1
164 285 1
169 285 1
247 285 1
256 285 1
273 285 1
285 285 1
165 286 1
170 286 1
248 286 1
257 286 1
274 286 1
286 286 1
166 287 1
171 287 1
249 287 1
258 287 1
275 287 1
287 287 1
167 288 1
172 288 1
250 288 1
259 288 1
276 288 1
288 288 1
168 289 1
173 289 1
251 289 1
260 289 1
277 289 1
289 289 1
169 290 1
174 290 1
252 290 1
261 290 1
278 290 1
290 290 1
1 291 1
27 291 1
291 291 1
302 291 1
320 291 1
324 291 1
2 292 1
28 292 1
292 292 1
303 292 1
321 292 1
325 292 1
3 293 1
29 293 1
293 293 1
304 293 1
322 293 1
326 293 1
1 294 1
4 294 1
294 294 1
305 294 1
323 294 1
327 294 1
2 295 1
5 295 1
295 295 1
306 295 1
324 295 1
328 295 1
3 296 1
6 296 1
296 296 1
307 296 1
325 296 1
329 296 1
4 297 1
7 297 1
297 297 1
308 297 1
326 297 1
330 297 1
5 298 1
8 298 1
298 298 1
309 298 1
327 298 1
331 298 1
6 299 1
9 299 1
299 299 1
310 299 1
328 299 1
332 299 1
7 300 1
10 300 1
300 300 1
311 300 1
329 300 1
333 300 1
8 301 1
11 301 1
301 301 1
312 301 1
330 301 1
334 301 1
9 302 1
12 302 1
302 302 1
313 302 1
331 302 1
335 302 1
10 303 1
13 303 1
303 303 1
314 303 1
332 303 1
336 303 1
11 304 1
14 304 1
304 304 1
315 304 1
333 304 1
337 304 1
12 305 1
15 305 1
305 305 1
316 305 1
334 305 1
338 305 1
13 306 1
16 306 1
306 306 1
317 306 1
335 306 1
339 306 1
14 307 1
17 307 1
307 307 1
318 307 1
336 307 1
340 307 1
15 308 1
18 308 1
308 308 1
319 308 1
337 308 1
341 308 1
16 309 1
19 309 1
291 309 1
309 309 1
338 309 1
342 309 1
17 310 1
20 310 1
292 310 1
310 310 1
339 310 1
343 310 1
18 311 1
21 311 1
293 311 1
311 311 1
340 311 1
344 311 1
19 312 1
22 312 1
294 312 1
312 312 1
341 312 1
345 312 1
20 313 1
23 313 1
295 313 1
313 313 1
342 313 1
346 313 1
21 314 1
24 314 1
296 314 1
314 314 1
343 314 1
347 314 1
22 315 1
25 315 1
297 315 1
315 315 1
344 315 1
348 315 1
23 316 1
26 316 1
298 316 1
316 316 1
320 316 1
345 316 1
24 317 1
27 317 1
299 317 1
317 317 1
321 317 1
346 317 1
25 318 1
28 318 1
300 318 1
318 318 1
322 318 1
347 318 1
26 319 1
29 319 1
301 319 1
319 319 1
323 319 1
348 319 1
30 320 1
56 320 1
291 320 1
308 320 1
349 320 1
353 320 1
31 321 1
57 321 1
292 321 1
309 321 1
350 321 1
354 321 1
32 322 1
58 322 1
293 322 1
310 322 1
351 322 1
355 322 1
30 323 1
33 323 1
294 323 1
311 323 1
352 323 1
356 323 1
31 324 1
34 324 1
295 324 1
312 324 1
353 324 1
357 324 1
32 325 1
35 325 1
296 325 1
313 325 1
354 325 1
358 325 1
33 326 1
36 326 1
297 326 1
314 326 1
355 326 1
359 326 1
34 327 1
37 327 1
298 327 1
315 327 1
356 327 1
360 327 1
35 328 1
38 328 1
299 328 1
316 328 1
357 328 1
361 328 1
36 329 1
39 329 1
300 329 1
317 329 1
358 329 1
362 329 1
37 330 1
40 330 1
301 330 1
318 330 1
359 330 1
363 330 1
38 331 1
41 331 1
302 331 1
319 331 1
360 331 1
364 331 1
39 332 1
42 332 1
291 332 1
303 332 1
361 332 1
365 332 1
40 333 1
43 333 1
292 333 1
304 333 1
362 333 1
366 333 1
41 334 1
44 334 1
293 334 1
305 334 1
363 334 1
367 334 1
42 335 1
45 335 1
294 335 1
306 335 1
364 335 1
368 335 1
43 336 1
46 336 1
295 336 1
307 336 1
365 336 1
369 336 1
44 337 1
47 337 1
296 337 1
308 337 1
366 337 1
370 337 1
45 338 1
48 338 1
297 338 1
309 338 1
367 338 1
371 338 1
46 339 1
49 339 1
298 339 1
310 339 1
368 339 1
372 339 1
47 340 1
50 340 1
299 340 1
311 340 1
369 340 1
373 340 1
48 341 1
51 341 1
300 341 1
312 341 1
370 341 1
374 341 1
49 342 1
52 342 1
301 342 1
313 342 1
371 342 1
375 342 1
50 343 1
53 343 1
302 343 1
314 343 1
372 343 1
376 343 1
51 344 1
54 344 1
303 344 1
315 344 1
373 344 1
377 344 1
52 345 1
55 345 1
304 345 1
316 345 1
349 345 1
374 345 1
53 346 1
56 346 1
305 346 1
317 346 1
350 346 1
375 346 1
54 347 1
57 347 1
306 347 1
318 347 1
351 347 1
376 347 1
55 348 1
58 348 1
307 348 1
319 348 1
352 348 1
377 348 1
59 349 1
85 349 1
320 349 1
337 349 1
349 349 1
360 349 1
60 350 1
86 350 1
321 350 1
338 350 1
350 350 1
361 350 1
61 351 1
87 351 1
322 351 1
339 351 1
351 351 1
362 351 1
59 352 1
62 352 1
323 352 1
340 352 1
352 352 1
363 352 1
60 353 1
63 353 1
324 353 1
341 353 1
353 353 1
364 353 1
61 354 1
64 354 1
325 354 1
342 354 1
354 354 1
365 354 1
62 355 1
65 355 1
326 355 1
343 355 1
355 355 1
366 355 1
63 356 1
66 356 1
327 356 1
344 356 1
356 356 1
367 356 1
64 357 1
67 357 1
328 357 1
345 357 1
357 357 1
368 357 1
65 358 1
68 358 1
329 358 1
346 358 1
358 358 1
369 358 1
66 359 1
69 359 1
330 359 1
347 359 1
359 359 1
370 359 1
67 360 1
70 360 1
331 360 1
348 360 1
360 360 1
371 360 1
68 361 1
71 361 1
320 361 1
332 361 1
361 361 1
372 361 1
69 362 1
72 362 1
321 362 1
333 362 1
362 362 1
373 362 1
70 363 1
73 363 1
322 363 1
334 363 1
363 363 1
374 363 1
71 364 1
74 364 1
323 364 1
335 364 1
364 364 1
375 364 1
72 365 1
75 365 1
324 365 1
336 365 1
365 365 1
376 365 1
73 366 1
76 366 1
325 366 1
337 366 1
366 366 1
377 366 1
74 367 1
77 367 1
326 367 1
338 367 1
349 367 1
367 367 1
75 368 1
78 368 1
327 368 1
339 368 1
350 368 1
368 368 1
76 369 1
79 369 1
328 369 1
340 369 1
351 369 1
369 369 1
77 370 1
80 370 1
329 370 1
341 370 1
352 370 1
370 370 1
78 371 1
81 371 1
330 371 1
342 371 1
353 371 1
371 371 1
79 372 1
82 372 1
331 372 1
343 372 1
354 372 1
372 372 1
80 373 1
83 373 1
332 373 1
344 373 1
355 373 1
373 373 1
81 374 1
84 374 1
333 374 1
345 374 1
356 374 1
374 374 1
82 375 1
85 375 1
334 375 1
346 375 1
357 375 1
375 375 1
83 376 1
86 376 1
335 376 1
347 376 1
358 376 1
376 376 1
84 377 1
87 377 1
336 377 1
348 377 1
359 377 1
377 377 1
88 378 1
114 378 1
291 378 1
311 378 1
378 378 1
382 378 1
89 379 1
115 379 1
292 379 1
312 379 1
379 379 1
383 379 1
90 380 1
116 380 1
293 380 1
313 380 1
380 380 1
384 380 1
88 381 1
91 381 1
294 381 1
314 381 1
381 381 1
385 381 1
89 382 1
92 382 1
295 382 1
315 382 1
382 382 1
386 382 1
90 383 1
93 383 1
296 383 1
316 383 1
383 383 1
387 383 1
91 384 1
94 384 1
297 384 1
317 384 1
384 384 1
388 384 1
92 385 1
95 385 1
298 385 1
318 385 1
385 385 1
389 385 1
93 386 1
96 386 1
299 386 1
319 386 1
386 386 1
390 386 1
94 387 1
97 387 1
291 387 1
300 387 1
387 387 1
391 387 1
95 388 1
98 388 1
292 388 1
301 388 1
388 388 1
392 388 1
96 389 1
99 389 1
293 389 1
302 389 1
389 389 1
393 389 1
97 390 1
100 390 1
294 390 1
303 390 1
390 390 1
394 390 1
98 391 1
101 391 1
295 391 1
304 391 1
391 391 1
395 391 1
99 392 1
102 392 1
296 392 1
305 392 1
392 392 1
396 392 1
100 393 1
103 393 1
297 393 1
306 393 1
393 393 1
397 393 1
101 394 1
104 394 1
298 394 1
307 394 1
394 394 1
398 394 1
102 395 1
105 395 1
299 395 1
308 395 1
395 395 1
399 395 1
103 396 1
106 396 1
300 396 1
309 396 1
396 396 1
400 396 1
104 397 1
107 397 1
301 397 1
310 397 1
397 397 1
401 397 1
105 398 1
108 398 1
302 398 1
311 398 1
398 398 1
402 398 1
106 399 1
109 399 1
303 399 1
312 399 1
399 399 1
403 399 1
107 400 1
110 400 1
304 400 1
313 400 1
400 400 1
404 400 1
108 401 1
111 401 1
305 401 1
314 401 1
401 401 1
405 401 1
109 402 1
112 402 1
306 402 1
315 402 1
402 402 1
406 402 1
110 403 1
113 403 1
307 403 1
316 403 1
378 403 1
403 403 1
111 404 1
114 404 1
308 404 1
317 404 1
379 404 1
404 404 1
112 405 1
115 405 1
309 405 1
318 405 1
380 405 1
405 405 1
113 406 1
116 406 1
310 406 1
319 406 1
381 406 1
406 406 1
117 407 1
143 407 1
320 407 1
340 407 1
378 407 1
389 407 1
118 408 1
144 408 1
321 408 1
341 408 1
379 408 1
390 408 1
119 409 1
145 409 1
322 409 1
342 409 1
380 409 1
391 409 1
117 410 1
120 410 1
323 410 1
343 410 1
381 410 1
392 410 1
118 411 1
121 411 1
324 411 1
344 411 1
382 411 1
393 411 1
119 412 1
122 412 1
325 412 1
345 412 1
383 412 1
394 412 1
120 413 1
123 413 1
326 413 1
346 413 1
384 413 1
395 413 1
121 414 1
124 414 1
327 414 1
347 414 1
385 414 1
396 414 1
122 415 1
125 415 1
328 415 1
348 415 1
386 415 1
397 415 1
123 416 1
126 416 1
320 416 1
329 416 1
387 416 1
398 416 1
124 417 1
127 417 1
321 417 1
330 417 1
388 417 1
399 417 1
125 418 1
128 418 1
322 418 1
331 418 1
389 418 1
400 418 1
126 419 1
129 419 1
323 419 1
332 419 1
390 419 1
401 419 1
127 420 1
130 420 1
324 420 1
333 420 1
391 420 1
402 420 1
128 421 1
131 421 1
325 421 1
334 421 1
392 421 1
403 421 1
129 422 1
132 422 1
326 422 1
335 422 1
393 422 1
404 422 1
130 423 1
133 423 1
327 423 1
336 423 1
394 423 1
405 423 1
131 424 1
134 424 1
328 424 1
337 424 1
395 424 1
406 424 1
132 425 1
135 425 1
329 425 1
338 425 1
378 425 1
396 425 1
133 426 1
136 426 1
330 426 1
339 426 1
379 426 1
397 426 1
134 427 1
137 427 1
331 427 1
340 427 1
380 427 1
398 427 1
135 428 1
138 428 1
332 428 1
341 428 1
381 428 1
399 428 1
136 429 1
139 429 1
333 429 1
342 429 1
382 429 1
400 429 1
137 430 1
140 430 1
334 430 1
343 430 1
383 430 1
401 430 1
138 431 1
141 431 1
335 431 1
344 431 1
384 431 1
402 431 1
139 432 1
142 432 1
336 432 1
345 432 1
385 432 1
403 432 1
140 433 1
143 433 1
337 433 1
346 433 1
386 433 1
404 433 1
141 434 1
144 434 1
338 434 1
347 434 1
387 434 1
405 434 1
142 435 1
145 435 1
339 435 1
348 435 1
388 435 1
406 435 1
146 436 1
172 436 1
349 436 1
369 436 1
378 436 1
395 436 1
147 437 1
173 437 1
350 437 1
370 437 1
379 437 1
396 437 1
148 438 1
174 438 1
351 438 1
371 438 1
380 438 1
397 438 1
146 439 1
149 439 1
352 439 1
372 439 1
381 439 1
398 439 1
147 440 1
150 440 1
353 440 1
373 440 1
382 440 1
399 440 1
148 441 1
151 441 1
354 441 1
374 441 1
383 441 1
400 441 1
149 442 1
152 442 1
355 442 1
375 442 1
384 442 1
401 442 1
150 443 1
153 443 1
356 443 1
376 443 1
385 443 1
402 443 1
151 444 1
154 444 1
357 444 1
377 444 1
386 444 1
403 444 1
152 445 1
155 445 1
349 445 1
358 445 1
387 445 1
404 445 1
153 446 1
156 446 1
350 446 1
359 446 1
388 446 1
405 446 1
154 447 1
157 447 1
351 447 1
360 447 1
389 447 1
406 447 1
155 448 1
158 448 1
352 448 1
361 448 1
378 448 1
390 448 1
156 449 1
159 449 1
353 449 1
362 449 1
379 449 1
391 449 1
157 450 1
160 450 1
354 450 1
363 450 1
380 450 1
392 450 1
158 451 1
161 451 1
355 451 1
364 451 1
381 451 1
393 451 1
159 452 1
162 452 1
356 452 1
365 452 1
382 452 1
394 452 1
160 453 1
163 453 1
357 453 1
366 453 1
383 453 1
395 453 1
161 454 1
164 454 1
358 454 1
367 454 1
384 454 1
396 454 1
162 455 1
165 455 1
359 455 1
368 455 1
385 455 1
397 455 1
163 456 1
166 456 1
360 456 1
369 456 1
386 456 1
398 456 1
164 457 1
167 457 1
361 457 1
370 457 1
387 457 1
399 457 1
165 458 1
168 458 1
362 458 1
371 458 1
388 458 1
400 458 1
166 459 1
169 459 1
363 459 1
372 459 1
389 459 1
401 459 1
167 460 1
170 460 1
364 460 1
373 460 1
390 460 1
402 460 1
168 461 1
171 461 1
365 461 1
374 461 1
391 461 1
403 461 1
169 462 1
172 462 1
366 462 1
375 462 1
392 462 1
404 462 1
170 463 1
173 463 1
367 463 1
376 463 1
393 463 1
405 463 1
171 464 1
174 464 1
368 464 1
377 464 1
394 464 1
406 464 1
175 465 1
201 465 1
291 465 1
315 465 1
407 465 1
411 465 1
176 466 1
202 466 1
292 466 1
316 466 1
408 466 1
412 466 1
177 467 1
203 467 1
293 467 1
317 467 1
409 467 1
413 467 1
175 468 1
178 468 1
294 468 1
318 468 1
410 468 1
414 468 1
176 469 1
179 469 1
295 469 1
319 469 1
411 469 1
415 469 1
177 470 1
180 470 1
291 470 1
296 470 1
412 470 1
416 470 1
178 471 1
181 471 1
292 471 1
297 471 1
413 471 1
417 471 1
179 472 1
182 472 1
293 472 1
298 472 1
414 472 1
418 472 1
180 473 1
183 473 1
294 473 1
299 473 1
415 473 1
419 473 1
181 474 1
184 474 1
295 474 1
300 474 1
416 474 1
420 474 1
182 475 1
185 475 1
296 475 1
301 475 1
417 475 1
421 475 1
183 476 1
186 476 1
297 476 1
302 476 1
418 476 1
422 476 1
184 477 1
187 477 1
298 477 1
303 477 1
419 477 1
423 477 1
185 478 1
188 478 1
299 478 1
304 478 1
420 478 1
424 478 1
186 479 1
189 479 1
300 479 1
305 479 1
421 479 1
425 479 1
187 480 1
190 480 1
301 480 1
306 480 1
422 480 1
426 480 1
188 481 1
191 481 1
302 481 1
307 481 1
423 481 1
427 481 1
189 482 1
192 482 1
303 482 1
308 482 1
424 482 1
428 482 1
190 483 1
193 483 1
304 483 1
309 483 1
425 483 1
429 483 1
191 484 1
194 484 1
305 484 1
310 484 1
426 484 1
430 484 1
192 485 1
195 485 1
306 485 1
311 485 1
427 485 1
431 485 1
193 486 1
196 486 1
307 486 1
312 486 1
428 486 1
432 486 1
194 487 1
197 487 1
308 487 1
313 487 1
429 487 1
433 487 1
195 488 1
198 488 1
309 488 1
314 488 1
430 488 1
434 488 1
196 489 1
199 489 1
310 489 1
315 489 1
431 489 1
435 489 1
197 490 1
200 490 1
311 490 1
316 490 1
407 490 1
432 490 1
198 491 1
201 491 1
312 491 1
317 491 1
408 491 1
433 491 1
199 492 1
202 492 1
313 492 1
318 492 1
409 492 1
434 492 1
200 493 1
203 493 1
314 493 1
319 493 1
410 493 1
435 493 1
204 494 1
230 494 1
320 494 1
344 494 1
407 494 1
418 494 1
205 495 1
231 495 1
321 495 1
345 495 1
408 495 1
419 495 1
206 496 1
232 496 1
322 496 1
346 496 1
409 496 1
420 496 1
204 497 1
207 497 1
323 497 1
347 497 1
410 497 1
421 497 1
205 498 1
208 498 1
324 498 1
348 498 1
411 498 1
422 498 1
206 499 1
209 499 1
320 499 1
325 499 1
412 499 1
423 499 1
207 500 1
210 500 1
321 500 1
326 500 1
413 500 1
424 500 1
208 501 1
211 501 1
322 501 1
327 501 1
414 501 1
425 501 1
209 502 1
212 502 1
323 502 1
328 502 1
415 502 1
426 502 1
210 503 1
213 503 1
324 503 1
329 503 1
416 503 1
427 503 1
211 504 1
214 504 1
325 504 1
330 504 1
417 504 1
428 504 1
212 505 1
215 505 1
326 505 1
331 505 1
418 505 1
429 505 1
213 506 1
216 506 1
327 506 1
332 506 1
419 506 1
430 506 1
214 507 1
217 507 1
328 507 1
333 507 1
420 507 1
431 507 1
215 508 1
218 508 1
329 508 1
334 508 1
421 508 1
432 508 1
216 509 1
219 509 1
330 509 1
335 509 1
422 509 1
433 509 1
217 510 1
220 510 1
331 510 1
336 510 1
423 510 1
434 510 1
218 511 1
221 511 1
332 511 1
337 511 1
424 511 1
435 511 1
219 512 1
222 512 1
333 512 1
338 512 1
407 512 1
425 512 1
220 513 1
223 513 1
334 513 1
339 513 1
408 513 1
426 513 1
221 514 1
224 514 1
335 514 1
340 514 1
409 514 1
427 514 1
222 515 1
225 515 1
336 515 1
341 515 1
410 515 1
428 515 1
223 516 1
226 516 1
337 516 1
342 516 1
411 516 1
429 516 1
224 517 1
227 517 1
338 517 1
343 517 1
412 517 1
430 517 1
225 518 1
228 518 1
339 518 1
344 518 1
413 518 1
431 518 1
226 519 1
229 519 1
340 519 1
345 519 1
414 519 1
432 519 1
227 520 1
230 520 1
341 520 1
346 520 1
415 520 1
433 520 1
228 521 1
231 521 1
342 521 1
347 521 1
416 521 1
434 521 1
229 522 1
232 522 1
343 522 1
348 522 1
417 522 1
435 522 1
233 523 1
259 523 1
349 523 1
373 523 1
407 523 1
424 523 1
234 524 1
260 524 1
350 524 1
374 524 1
408 524 1
425 524 1
235 525 1
261 525 1
351 525 1
375 525 1
409 525 1
426 525 1
233 526 1
236 526 1
352 526 1
376 526 1
410 526 1
427 526 1
234 527 1
237 527 1
353 527 1
377 527 1
411 527 1
428 527 1
235 528 1
238 528 1
349 528 1
354 528 1
412 528 1
429 528 1
236 529 1
239 529 1
350 529 1
355 529 1
413 529 1
430 529 1
237 530 1
240 530 1
351 530 1
356 530 1
414 530 1
431 530 1
238 531 1
241 531 1
352 531 1
357 531 1
415 531 1
432 531 1
239 532 1
242 532 1
353 532 1
358 532 1
416 532 1
433 532 1
240 533 1
243 533 1
354 533 1
359 533 1
417 533 1
434 533 1
241 534 1
244 534 1
355 534 1
360 534 1
418 534 1
435 534 1
242 535 1
245 535 1
356 535 1
361 535 1
407 535 1
419 535 1
243 536 1
246 536 1
357 536 1
362 536 1
408 536 1
420 536 1
244 537 1
247 537 1
358 537 1
363 537 1
409 537 1
421 537 1
245 538 1
248 538 1
359 538 1
364 538 1
410 538 1
422 538 1
246 539 1
249 539 1
360 539 1
365 539 1
411 539 1
423 539 1
247 540 1
250 540 1
361 540 1
366 540 1
412 540 1
424 540 1
248 541 1
251 541 1
362 541 1
367 541 1
413 541 1
425 541 1
249 542 1
252 542 1
363 542 1
368 542 1
414 542 1
426 542 1
250 543 1
253 543 1
364 543 1
369 543 1
415 543 1
427 543 1
251 544 1
254 544 1
365 544 1
370 544 1
416 544 1
428 544 1
252 545 1
255 545 1
366 545 1
371 545 1
417 545 1
429 545 1
253 546 1
256 546 1
367 546 1
372 546 1
418 546 1
430 546 1
254 547 1
257 547 1
368 547 1
373 547 1
419 547 1
431 547 1
255 548 1
258 548 1
369 548 1
374 548 1
420 548 1
432 548 1
256 549 1
259 549 1
370 549 1
375 549 1
421 549 1
433 549 1
257 550 1
260 550 1
371 550 1
376 550 1
422 550 1
434 550 1
258 551 1
261 551 1
372 551 1
377 551 1
423 551 1
435 551 1
262 552 1
288 552 1
378 552 1
402 552 1
407 552 1
427 552 1
263 553 1
289 553 1
379 553 1
403 553 1
408 553 1
428 553 1
264 554 1
290 554 1
380 554 1
404 554 1
409 554 1
429 554 1
262 555 1
265 555 1
381 555 1
405 555 1
410 555 1
430 555 1
263 556 1
266 556 1
382 556 1
406 556 1
411 556 1
431 556 1
264 557 1
267 557 1
378 557 1
383 557 1
412 557 1
432 557 1
265 558 1
268 558 1
379 558 1
384 558 1
413 558 1
433 558 1
266 559 1
269 559 1
380 559 1
385 559 1
414 559 1
434 559 1
267 560 1
270 560 1
381 560 1
386 560 1
415 560 1
435 560 1
268 561 1
271 561 1
382 561 1
387 561 1
407 561 1
416 561 1
269 562 1
272 562 1
383 562 1
388 562 1
408 562 1
417 562 1
270 563 1
273 563 1
384 563 1
389 563 1
409 563 1
418 563 1
271 564 1
274 564 1
385 564 1
390 564 1
410 564 1
419 564 1
272 565 1
275 565 1
386 565 1
391 565 1
411 565 1
420 565 1
273 566 1
276 566 1
387 566 1
392 566 1
412 566 1
421 566 1
274 567 1
277 567 1
388 567 1
393 567 1
413 567 1
422 567 1
275 568 1
278 568 1
389 568 1
394 568 1
414 568 1
423 568 1
276 569 1
279 569 1
390 569 1
395 569 1
415 569 1
424 569 1
277 570 1
280 570 1
391 570 1
396 570 1
416 570 1
425 570 1
278 571 1
281 571 1
392 571 1
397 571 1
417 571 1
426 571 1
279 572 1
282 572 1
393 572 1
398 572 1
418 572 1
427 572 1
280 573 1
283 573 1
394 573 1
399 573 1
419 573 1
428 573 1
281 574 1
284 574 1
395 574 1
400 574 1
420 574 1
429 574 1
282 575 1
285 575 1
396 575 1
401 575 1
421 575 1
430 575 1
283 576 1
286 576 1
397 576 1
402 576 1
422 576 1
431 576 1
284 577 1
287 577 1
398 577 1
403 577 1
423 577 1
432 577 1
285 578 1
288 578 1
399 578 1
404 578 1
424 578 1
433 578 1
286 579 1
289 579 1
400 579 1
405 579 1
425 579 1
434 579 1
287 580 1
290 580 1
401 580 1
406 580 1
426 580 1
435 580 1
