%%MatrixMarket matrix coordinate integer general
% Binary matrix; one-based indices; arithmetic over GF(2)
140 280 1120
1 1 1
10 1 1
29 1 1
35 1 1
2 2 1
11 2 1
30 2 1
36 2 1
3 3 1
12 3 1
31 3 1
37 3 1
4 4 1
13 4 1
32 4 1
38 4 1
5 5 1
14 5 1
33 5 1
39 5 1
6 6 1
15 6 1
34 6 1
40 6 1
7 7 1
16 7 1
35 7 1
41 7 1
8 8 1
17 8 1
36 8 1
42 8 1
9 9 1
18 9 1
37 9 1
43 9 1
10 10 1
19 10 1
38 10 1
44 10 1
11 11 1
20 11 1
39 11 1
45 11 1
12 12 1
21 12 1
40 12 1
46 12 1
13 13 1
22 13 1
41 13 1
47 13 1
14 14 1
23 14 1
42 14 1
48 14 1
15 15 1
24 15 1
43 15 1
49 15 1
16 16 1
25 16 1
44 16 1
50 16 1
17 17 1
26 17 1
45 17 1
51 17 1
18 18 1
27 18 1
46 18 1
52 18 1
19 19 1
28 19 1
47 19 1
53 19 1
1 20 1
20 20 1
48 20 1
54 20 1
2 21 1
21 21 1
49 21 1
55 21 1
3 22 1
22 22 1
50 22 1
56 22 1
4 23 1
23 23 1
29 23 1
51 23 1
5 24 1
24 24 1
30 24 1
52 24 1
6 25 1
25 25 1
31 25 1
53 25 1
7 26 1
26 26 1
32 26 1
54 26 1
8 27 1
27 27 1
33 27 1
55 27 1
9 28 1
28 28 1
34 28 1
56 28 1
1 29 1
13 29 1
57 29 1
63 29 1
2 30 1
14 30 1
58 30 1
64 30 1
3 31 1
15 31 1
59 31 1
65 31 1
4 32 1
16 32 1
60 32 1
66 32 1
5 33 1
17 33 1
61 33 1
67 33 1
6 34 1
18 34 1
62 34 1
68 34 1
7 35 1
19 35 1
63 35 1
69 35 1
8 36 1
20 36 1
64 36 1
70 36 1
9 37 1
21 37 1
65 37 1
71 37 1
10 38 1
22 38 1
66 38 1
72 38 1
11 39 1
23 39 1
67 39 1
73 39 1
12 40 1
24 40 1
68 40 1
74 40 1
13 41 1
25 41 1
69 41 1
75 41 1
14 42 1
26 42 1
70 42 1
76 42 1
15 43 1
27 43 1
71 43 1
77 43 1
16 44 1
28 44 1
72 44 1
78 44 1
1 45 1
17 45 1
73 45 1
79 45 1
2 46 1
18 46 1
74 46 1
80 46 1
3 47 1
19 47 1
75 47 1
81 47 1
4 48 1
20 48 1
76 48 1
82 48 1
5 49 1
21 49 1
77 49 1
83 49 1
6 50 1
22 50 1
78 50 1
84 50 1
7 51 1
23 51 1
57 51 1
79 51 1
8 52 1
24 52 1
58 52 1
80 52 1
9 53 1
25 53 1
59 53 1
81 53 1
10 54 1
26 54 1
60 54 1
82 54 1
11 55 1
27 55 1
61 55 1
83 55 1
12 56 1
28 56 1
62 56 1
84 56 1
29 57 1
41 57 1
57 57 1
66 57 1
30 58 1
42 58 1
58 58 1
67 58 1
31 59 1
43 59 1
59 59 1
68 59 1
32 60 1
44 60 1
60 60 1
69 60 1
33 61 1
45 61 1
61 61 1
70 61 1
34 62 1
46 62 1
62 62 1
71 62 1
35 63 1
47 63 1
63 63 1
72 63 1
36 64 1
48 64 1
64 64 1
73 64 1
37 65 1
49 65 1
65 65 1
74 65 1
38 66 1
50 66 1
66 66 1
75 66 1
39 67 1
51 67 1
67 67 1
76 67 1
40 68 1
52 68 1
68 68 1
77 68 1
41 69 1
53 69 1
69 69 1
78 69 1
42 70 1
54 70 1
70 70 1
79 70 1
43 71 1
55 71 1
71 71 1
80 71 1
44 72 1
56 72 1
72 72 1
81 72 1
29 73 1
45 73 1
73 73 1
82 73 1
30 74 1
46 74 1
74 74 1
83 74 1
31 75 1
47 75 1
75 75 1
84 75 1
32 76 1
48 76 1
57 76 1
76 76 1
33 77 1
49 77 1
58 77 1
77 77 1
34 78 1
50 78 1
59 78 1
78 78 1
35 79 1
51 79 1
60 79 1
79 79 1
36 80 1
52 80 1
61 80 1
80 80 1
37 81 1
53 81 1
62 81 1
81 81 1
38 82 1
54 82 1
63 82 1
82 82 1
39 83 1
55 83 1
64 83 1
83 83 1
40 84 1
56 84 1
65 84 1
84 84 1
1 85 1
18 85 1
85 85 1
91 85 1
2 86 1
19 86 1
86 86 1
92 86 1
3 87 1
20 87 1
87 87 1
93 87 1
4 88 1
21 88 1
88 88 1
94 88 1
5 89 1
22 89 1
89 89 1
95 89 1
6 90 1
23 90 1
90 90 1
96 90 1
7 91 1
24 91 1
91 91 1
97 91 1
8 92 1
25 92 1
92 92 1
98 92 1
9 93 1
26 93 1
93 93 1
99 93 1
10 94 1
27 94 1
94 94 1
100 94 1
11 95 1
28 95 1
95 95 1
101 95 1
1 96 1
12 96 1
96 96 1
102 96 1
2 97 1
13 97 1
97 97 1
103 97 1
3 98 1
14 98 1
98 98 1
104 98 1
4 99 1
15 99 1
99 99 1
105 99 1
5 100 1
16 100 1
100 100 1
106 100 1
6 101 1
17 101 1
101 101 1
107 101 1
7 102 1
18 102 1
102 102 1
108 102 1
8 103 1
19 103 1
103 103 1
109 103 1
9 104 1
20 104 1
104 104 1
110 104 1
10 105 1
21 105 1
105 105 1
111 105 1
11 106 1
22 106 1
106 106 1
112 106 1
12 107 1
23 107 1
85 107 1
107 107 1
13 108 1
24 108 1
86 108 1
108 108 1
14 109 1
25 109 1
87 109 1
109 109 1
15 110 1
26 110 1
88 110 1
110 110 1
16 111 1
27 111 1
89 111 1
111 111 1
17 112 1
28 112 1
90 112 1
112 112 1
29 113 1
46 113 1
85 113 1
94 113 1
30 114 1
47 114 1
86 114 1
95 114 1
31 115 1
48 115 1
87 115 1
96 115 1
32 116 1
49 116 1
88 116 1
97 116 1
33 117 1
50 117 1
89 117 1
98 117 1
34 118 1
51 118 1
90 118 1
99 118 1
35 119 1
52 119 1
91 119 1
100 119 1
36 120 1
53 120 1
92 120 1
101 120 1
37 121 1
54 121 1
93 121 1
102 121 1
38 122 1
55 122 1
94 122 1
103 122 1
39 123 1
56 123 1
95 123 1
104 123 1
29 124 1
40 124 1
96 124 1
105 124 1
30 125 1
41 125 1
97 125 1
106 125 1
31 126 1
42 126 1
98 126 1
107 126 1
32 127 1
43 127 1
99 127 1
108 127 1
33 128 1
44 128 1
100 128 1
109 128 1
34 129 1
45 129 1
101 129 1
110 129 1
35 130 1
46 130 1
102 130 1
111 130 1
36 131 1
47 131 1
103 131 1
112 131 1
37 132 1
48 132 1
85 132 1
104 132 1
38 133 1
49 133 1
86 133 1
105 133 1
39 134 1
50 134 1
87 134 1
106 134 1
40 135 1
51 135 1
88 135 1
107 135 1
41 136 1
52 136 1
89 136 1
108 136 1
42 137 1
53 137 1
90 137 1
109 137 1
43 138 1
54 138 1
91 138 1
110 138 1
44 139 1
55 139 1
92 139 1
111 139 1
45 140 1
56 140 1
93 140 1
112 140 1
57 141 1
74 141 1
85 141 1
97 141 1
58 142 1
75 142 1
86 142 1
98 142 1
59 143 1
76 143 1
87 143 1
99 143 1
60 144 1
77 144 1
88 144 1
100 144 1
61 145 1
78 145 1
89 145 1
101 145 1
62 146 1
79 146 1
90 146 1
102 146 1
63 147 1
80 147 1
91 147 1
103 147 1
64 148 1
81 148 1
92 148 1
104 148 1
65 149 1
82 149 1
93 149 1
105 149 1
66 150 1
83 150 1
94 150 1
106 150 1
67 151 1
84 151 1
95 151 1
107 151 1
57 152 1
68 152 1
96 152 1
108 152 1
58 153 1
69 153 1
97 153 1
109 153 1
59 154 1
70 154 1
98 154 1
110 154 1
60 155 1
71 155 1
99 155 1
111 155 1
61 156 1
72 156 1
100 156 1
112 156 1
62 157 1
73 157 1
85 157 1
101 157 1
63 158 1
74 158 1
86 158 1
102 158 1
64 159 1
75 159 1
87 159 1
103 159 1
65 160 1
76 160 1
88 160 1
104 160 1
66 161 1
77 161 1
89 161 1
105 161 1
67 162 1
78 162 1
90 162 1
106 162 1
68 163 1
79 163 1
91 163 1
107 163 1
69 164 1
80 164 1
92 164 1
108 164 1
70 165 1
81 165 1
93 165 1
109 165 1
71 166 1
82 166 1
94 166 1
110 166 1
72 167 1
83 167 1
95 167 1
111 167 1
73 168 1
84 168 1
96 168 1
112 168 1
1 169 1
24 169 1
113 169 1
119 169 1
2 170 1
25 170 1
114 170 1
120 170 1
3 171 1
26 171 1
115 171 1
121 171 1
4 172 1
27 172 1
116 172 1
122 172 1
5 173 1
28 173 1
117 173 1
123 173 1
1 174 1
6 174 1
118 174 1
124 174 1
2 175 1
7 175 1
119 175 1
125 175 1
3 176 1
8 176 1
120 176 1
126 176 1
4 177 1
9 177 1
121 177 1
127 177 1
5 178 1
10 178 1
122 178 1
128 178 1
6 179 1
11 179 1
123 179 1
129 179 1
7 180 1
12 180 1
124 180 1
130 180 1
8 181 1
13 181 1
125 181 1
131 181 1
9 182 1
14 182 1
126 182 1
132 182 1
10 183 1
15 183 1
127 183 1
133 183 1
11 184 1
16 184 1
128 184 1
134 184 1
12 185 1
17 185 1
129 185 1
135 185 1
13 186 1
18 186 1
130 186 1
136 186 1
14 187 1
19 187 1
131 187 1
137 187 1
15 188 1
20 188 1
132 188 1
138 188 1
16 189 1
21 189 1
133 189 1
139 189 1
17 190 1
22 190 1
134 190 1
140 190 1
18 191 1
23 191 1
113 191 1
135 191 1
19 192 1
24 192 1
114 192 1
136 192 1
20 193 1
25 193 1
115 193 1
137 193 1
21 194 1
26 194 1
116 194 1
138 194 1
22 195 1
27 195 1
117 195 1
139 195 1
23 196 1
28 196 1
118 196 1
140 196 1
29 197 1
52 197 1
113 197 1
122 197 1
30 198 1
53 198 1
114 198 1
123 198 1
31 199 1
54 199 1
115 199 1
124 199 1
32 200 1
55 200 1
116 200 1
125 200 1
33 201 1
56 201 1
117 201 1
126 201 1
29 202 1
34 202 1
118 202 1
127 202 1
30 203 1
35 203 1
119 203 1
128 203 1
31 204 1
36 204 1
120 204 1
129 204 1
32 205 1
37 205 1
121 205 1
130 205 1
33 206 1
38 206 1
122 206 1
131 206 1
34 207 1
39 207 1
123 207 1
132 207 1
35 208 1
40 208 1
124 208 1
133 208 1
36 209 1
41 209 1
125 209 1
134 209 1
37 210 1
42 210 1
126 210 1
135 210 1
38 211 1
43 211 1
127 211 1
136 211 1
39 212 1
44 212 1
128 212 1
137 212 1
40 213 1
45 213 1
129 213 1
138 213 1
41 214 1
46 214 1
130 214 1
139 214 1
42 215 1
47 215 1
131 215 1
140 215 1
43 216 1
48 216 1
113 216 1
132 216 1
44 217 1
49 217 1
114 217 1
133 217 1
45 218 1
50 218 1
115 218 1
134 218 1
46 219 1
51 219 1
116 219 1
135 219 1
47 220 1
52 220 1
117 220 1
136 220 1
48 221 1
53 221 1
118 221 1
137 221 1
49 222 1
54 222 1
119 222 1
138 222 1
50 223 1
55 223 1
120 223 1
139 223 1
51 224 1
56 224 1
121 224 1
140 224 1
57 225 1
80 225 1
113 225 1
125 225 1
58 226 1
81 226 1
114 226 1
126 226 1
59 227 1
82 227 1
115 227 1
127 227 1
60 228 1
83 228 1
116 228 1
128 228 1
61 229 1
84 229 1
117 229 1
129 229 1
57 230 1
62 230 1
118 230 1
130 230 1
58 231 1
63 231 1
119 231 1
131 231 1
59 232 1
64 232 1
120 232 1
132 232 1
60 233 1
65 233 1
121 233 1
133 233 1
61 234 1
66 234 1
122 234 1
134 234 1
62 235 1
67 235 1
123 235 1
135 235 1
63 236 1
68 236 1
124 236 1
136 236 1
64 237 1
69 237 1
125 237 1
137 237 1
65 238 1
70 238 1
126 238 1
138 238 1
66 239 1
71 239 1
127 239 1
139 239 1
67 240 1
72 240 1
128 240 1
140 240 1
68 241 1
73 241 1
113 241 1
129 241 1
69 242 1
74 242 1
114 242 1
130 242 1
70 243 1
75 243 1
115 243 1
131 243 1
71 244 1
76 244 1
116 244 1
132 244 1
72 245 1
77 245 1
117 245 1
133 245 1
73 246 1
78 246 1
118 246 1
134 246 1
74 247 1
79 247 1
119 247 1
135 247 1
75 248 1
80 248 1
120 248 1
136 248 1
76 249 1
81 249 1
121 249 1
137 249 1
77 250 1
82 250 1
122 250 1
138 250 1
78 251 1
83 251 1
123 251 1
139 251 1
79 252 1
84 252 1
124 252 1
140 252 1
85 253 1
108 253 1
113 253 1
130 253 1
86 254 1
109 254 1
114 254 1
131 254 1
87 255 1
110 255 1
115 255 1
132 255 1
88 256 1
111 256 1
116 256 1
133 256 1
89 257 1
112 257 1
117 257 1
134 257 1
85 258 1
90 258 1
118 258 1
135 258 1
86 259 1
91 259 1
119 259 1
136 259 1
87 260 1
92 260 1
120 260 1
137 260 1
88 261 1
93 261 1
121 261 1
138 261 1
89 262 1
94 262 1
122 262 1
139 262 1
90 263 1
95 263 1
123 263 1
140 263 1
91 264 1
96 264 1
113 264 1
124 264 1
92 265 1
97 265 1
114 265 1
125 265 1
93 266 1
98 266 1
115 266 1
126 266 1
94 267 1
99 267 1
116 267 1
127 267 1
95 268 1
100 268 1
117 268 1
128 268 1
96 269 1
101 269 1
118 269 1
129 269 1
97 270 1
102 270 1
119 270 1
130 270 1
98 271 1
103 271 1
120 271 1
131 271 1
99 272 1
104 272 1
121 272 1
132 272 1
100 273 1
105 273 1
122 273 1
133 273 1
101 274 1
106 274 1
123 274 1
134 274 1
102 275 1
107 275 1
124 275 1
135 275 1
103 276 1
108 276 1
125 276 1
136 276 1
104 277 1
109 277 1
126 277 1
137 277 1
105 278 1
110 278 1
127 278 1
138 278 1
106 279 1
111 279 1
128 279 1
139 279 1
107 280 1
112 280 1
129 280 1
140 280 1
