%%MatrixMarket matrix coordinate integer general
% Binary matrix; one-based indices; arithmetic over GF(2)
100 200 800
1 1 1
10 1 1
21 1 1
29 1 1
2 2 1
11 2 1
22 2 1
30 2 1
3 3 1
12 3 1
23 3 1
31 3 1
4 4 1
13 4 1
24 4 1
32 4 1
5 5 1
14 5 1
25 5 1
33 5 1
6 6 1
15 6 1
26 6 1
34 6 1
7 7 1
16 7 1
27 7 1
35 7 1
8 8 1
17 8 1
28 8 1
36 8 1
9 9 1
18 9 1
29 9 1
37 9 1
10 10 1
19 10 1
30 10 1
38 10 1
11 11 1
20 11 1
31 11 1
39 11 1
1 12 1
12 12 1
32 12 1
40 12 1
2 13 1
13 13 1
21 13 1
33 13 1
3 14 1
14 14 1
22 14 1
34 14 1
4 15 1
15 15 1
23 15 1
35 15 1
5 16 1
16 16 1
24 16 1
36 16 1
6 17 1
17 17 1
25 17 1
37 17 1
7 18 1
18 18 1
26 18 1
38 18 1
8 19 1
19 19 1
27 19 1
39 19 1
9 20 1
20 20 1
28 20 1
40 20 1
1 21 1
14 21 1
41 21 1
49 21 1
2 22 1
15 22 1
42 22 1
50 22 1
3 23 1
16 23 1
43 23 1
51 23 1
4 24 1
17 24 1
44 24 1
52 24 1
5 25 1
18 25 1
45 25 1
53 25 1
6 26 1
19 26 1
46 26 1
54 26 1
7 27 1
20 27 1
47 27 1
55 27 1
1 28 1
8 28 1
48 28 1
56 28 1
2 29 1
9 29 1
49 29 1
57 29 1
3 30 1
10 30 1
50 30 1
58 30 1
4 31 1
11 31 1
51 31 1
59 31 1
5 32 1
12 32 1
52 32 1
60 32 1
6 33 1
13 33 1
41 33 1
53 33 1
7 34 1
14 34 1
42 34 1
54 34 1
8 35 1
15 35 1
43 35 1
55 35 1
9 36 1
16 36 1
44 36 1
56 36 1
10 37 1
17 37 1
45 37 1
57 37 1
11 38 1
18 38 1
46 38 1
58 38 1
12 39 1
19 39 1
47 39 1
59 39 1
13 40 1
20 40 1
48 40 1
60 40 1
21 41 1
34 41 1
41 41 1
50 41 1
22 42 1
35 42 1
42 42 1
51 42 1
23 43 1
36 43 1
43 43 1
52 43 1
24 44 1
37 44 1
44 44 1
53 44 1
25 45 1
38 45 1
45 45 1
54 45 1
26 46 1
39 46 1
46 46 1
55 46 1
27 47 1
40 47 1
47 47 1
56 47 1
21 48 1
28 48 1
48 48 1
57 48 1
22 49 1
29 49 1
49 49 1
58 49 1
23 50 1
30 50 1
50 50 1
59 50 1
24 51 1
31 51 1
51 51 1
60 51 1
25 52 1
32 52 1
41 52 1
52 52 1
26 53 1
33 53 1
42 53 1
53 53 1
27 54 1
34 54 1
43 54 1
54 54 1
28 55 1
35 55 1
44 55 1
55 55 1
29 56 1
36 56 1
45 56 1
56 56 1
30 57 1
37 57 1
46 57 1
57 57 1
31 58 1
38 58 1
47 58 1
58 58 1
32 59 1
39 59 1
48 59 1
59 59 1
33 60 1
40 60 1
49 60 1
60 60 1
1 61 1
18 61 1
61 61 1
69 61 1
2 62 1
19 62 1
62 62 1
70 62 1
3 63 1
20 63 1
63 63 1
71 63 1
1 64 1
4 64 1
64 64 1
72 64 1
2 65 1
5 65 1
65 65 1
73 65 1
3 66 1
6 66 1
66 66 1
74 66 1
4 67 1
7 67 1
67 67 1
75 67 1
5 68 1
8 68 1
68 68 1
76 68 1
6 69 1
9 69 1
69 69 1
77 69 1
7 70 1
10 70 1
70 70 1
78 70 1
8 71 1
11 71 1
71 71 1
79 71 1
9 72 1
12 72 1
72 72 1
80 72 1
10 73 1
13 73 1
61 73 1
73 73 1
11 74 1
14 74 1
62 74 1
74 74 1
12 75 1
15 75 1
63 75 1
75 75 1
13 76 1
16 76 1
64 76 1
76 76 1
14 77 1
17 77 1
65 77 1
77 77 1
15 78 1
18 78 1
66 78 1
78 78 1
16 79 1
19 79 1
67 79 1
79 79 1
17 80 1
20 80 1
68 80 1
80 80 1
21 81 1
38 81 1
61 81 1
70 81 1
22 82 1
39 82 1
62 82 1
71 82 1
23 83 1
40 83 1
63 83 1
72 83 1
21 84 1
24 84 1
64 84 1
73 84 1
22 85 1
25 85 1
65 85 1
74 85 1
23 86 1
26 86 1
66 86 1
75 86 1
24 87 1
27 87 1
67 87 1
76 87 1
25 88 1
28 88 1
68 88 1
77 88 1
26 89 1
29 89 1
69 89 1
78 89 1
27 90 1
30 90 1
70 90 1
79 90 1
28 91 1
31 91 1
71 91 1
80 91 1
29 92 1
32 92 1
61 92 1
72 92 1
30 93 1
33 93 1
62 93 1
73 93 1
31 94 1
34 94 1
63 94 1
74 94 1
32 95 1
35 95 1
64 95 1
75 95 1
33 96 1
36 96 1
65 96 1
76 96 1
34 97 1
37 97 1
66 97 1
77 97 1
35 98 1
38 98 1
67 98 1
78 98 1
36 99 1
39 99 1
68 99 1
79 99 1
37 100 1
40 100 1
69 100 1
80 100 1
41 101 1
58 101 1
61 101 1
74 101 1
42 102 1
59 102 1
62 102 1
75 102 1
43 103 1
60 103 1
63 103 1
76 103 1
41 104 1
44 104 1
64 104 1
77 104 1
42 105 1
45 105 1
65 105 1
78 105 1
43 106 1
46 106 1
66 106 1
79 106 1
44 107 1
47 107 1
67 107 1
80 107 1
45 108 1
48 108 1
61 108 1
68 108 1
46 109 1
49 109 1
62 109 1
69 109 1
47 110 1
50 110 1
63 110 1
70 110 1
48 111 1
51 111 1
64 111 1
71 111 1
49 112 1
52 112 1
65 112 1
72 112 1
50 113 1
53 113 1
66 113 1
73 113 1
51 114 1
54 114 1
67 114 1
74 114 1
52 115 1
55 115 1
68 115 1
75 115 1
53 116 1
56 116 1
69 116 1
76 116 1
54 117 1
57 117 1
70 117 1
77 117 1
55 118 1
58 118 1
71 118 1
78 118 1
56 119 1
59 119 1
72 119 1
79 119 1
57 120 1
60 120 1
73 120 1
80 120 1
1 121 1
19 121 1
81 121 1
89 121 1
2 122 1
20 122 1
82 122 1
90 122 1
1 123 1
3 123 1
83 123 1
91 123 1
2 124 1
4 124 1
84 124 1
92 124 1
3 125 1
5 125 1
85 125 1
93 125 1
4 126 1
6 126 1
86 126 1
94 126 1
5 127 1
7 127 1
87 127 1
95 127 1
6 128 1
8 128 1
88 128 1
96 128 1
7 129 1
9 129 1
89 129 1
97 129 1
8 130 1
10 130 1
90 130 1
98 130 1
9 131 1
11 131 1
91 131 1
99 131 1
10 132 1
12 132 1
92 132 1
100 132 1
11 133 1
13 133 1
81 133 1
93 133 1
12 134 1
14 134 1
82 134 1
94 134 1
13 135 1
15 135 1
83 135 1
95 135 1
14 136 1
16 136 1
84 136 1
96 136 1
15 137 1
17 137 1
85 137 1
97 137 1
16 138 1
18 138 1
86 138 1
98 138 1
17 139 1
19 139 1
87 139 1
99 139 1
18 140 1
20 140 1
88 140 1
100 140 1
21 141 1
39 141 1
81 141 1
90 141 1
22 142 1
40 142 1
82 142 1
91 142 1
21 143 1
23 143 1
83 143 1
92 143 1
22 144 1
24 144 1
84 144 1
93 144 1
23 145 1
25 145 1
85 145 1
94 145 1
24 146 1
26 146 1
86 146 1
95 146 1
25 147 1
27 147 1
87 147 1
96 147 1
26 148 1
28 148 1
88 148 1
97 148 1
27 149 1
29 149 1
89 149 1
98 149 1
28 150 1
30 150 1
90 150 1
99 150 1
29 151 1
31 151 1
91 151 1
100 151 1
30 152 1
32 152 1
81 152 1
92 152 1
31 153 1
33 153 1
82 153 1
93 153 1
32 154 1
34 154 1
83 154 1
94 154 1
33 155 1
35 155 1
84 155 1
95 155 1
34 156 1
36 156 1
85 156 1
96 156 1
35 157 1
37 157 1
86 157 1
97 157 1
36 158 1
38 158 1
87 158 1
98 158 1
37 159 1
39 159 1
88 159 1
99 159 1
38 160 1
40 160 1
89 160 1
100 160 1
41 161 1
59 161 1
81 161 1
94 161 1
42 162 1
60 162 1
82 162 1
95 162 1
41 163 1
43 163 1
83 163 1
96 163 1
42 164 1
44 164 1
84 164 1
97 164 1
43 165 1
45 165 1
85 165 1
98 165 1
44 166 1
46 166 1
86 166 1
99 166 1
45 167 1
47 167 1
87 167 1
100 167 1
46 168 1
48 168 1
81 168 1
88 168 1
47 169 1
49 169 1
82 169 1
89 169 1
48 170 1
50 170 1
83 170 1
90 170 1
49 171 1
51 171 1
84 171 1
91 171 1
50 172 1
52 172 1
85 172 1
92 172 1
51 173 1
53 173 1
86 173 1
93 173 1
52 174 1
54 174 1
87 174 1
94 174 1
53 175 1
55 175 1
88 175 1
95 175 1
54 176 1
56 176 1
89 176 1
96 176 1
55 177 1
57 177 1
90 177 1
97 177 1
56 178 1
58 178 1
91 178 1
98 178 1
57 179 1
59 179 1
92 179 1
99 179 1
58 180 1
60 180 1
93 180 1
100 180 1
61 181 1
79 181 1
81 181 1
98 181 1
62 182 1
80 182 1
82 182 1
99 182 1
61 183 1
63 183 1
83 183 1
100 183 1
62 184 1
64 184 1
81 184 1
84 184 1
63 185 1
65 185 1
82 185 1
85 185 1
64 186 1
66 186 1
83 186 1
86 186 1
65 187 1
67 187 1
84 187 1
87 187 1
66 188 1
68 188 1
85 188 1
88 188 1
67 189 1
69 189 1
86 189 1
89 189 1
68 190 1
70 190 1
87 190 1
90 190 1
69 191 1
71 191 1
88 191 1
91 191 1
70 192 1
72 192 1
89 192 1
92 192 1
71 193 1
73 193 1
90 193 1
93 193 1
72 194 1
74 194 1
91 194 1
94 194 1
73 195 1
75 195 1
92 195 1
95 195 1
74 196 1
76 196 1
93 196 1
96 196 1
75 197 1
77 197 1
94 197 1
97 197 1
76 198 1
78 198 1
95 198 1
98 198 1
77 199 1
79 199 1
96 199 1
99 199 1
78 200 1
80 200 1
97 200 1
100 200 1
