%%MatrixMarket matrix coordinate integer general
% Binary matrix; one-based indices; arithmetic over GF(2)
256 384 1536
1 1 1
22 1 1
65 1 1
78 1 1
2 2 1
23 2 1
66 2 1
79 2 1
3 3 1
24 3 1
67 3 1
80 3 1
4 4 1
25 4 1
68 4 1
81 4 1
5 5 1
26 5 1
69 5 1
82 5 1
6 6 1
27 6 1
70 6 1
83 6 1
7 7 1
28 7 1
71 7 1
84 7 1
8 8 1
29 8 1
72 8 1
85 8 1
9 9 1
30 9 1
73 9 1
86 9 1
10 10 1
31 10 1
74 10 1
87 10 1
11 11 1
32 11 1
75 11 1
88 11 1
12 12 1
33 12 1
76 12 1
89 12 1
13 13 1
34 13 1
77 13 1
90 13 1
14 14 1
35 14 1
78 14 1
91 14 1
15 15 1
36 15 1
79 15 1
92 15 1
16 16 1
37 16 1
80 16 1
93 16 1
17 17 1
38 17 1
81 17 1
94 17 1
18 18 1
39 18 1
82 18 1
95 18 1
19 19 1
40 19 1
83 19 1
96 19 1
20 20 1
41 20 1
84 20 1
97 20 1
21 21 1
42 21 1
85 21 1
98 21 1
22 22 1
43 22 1
86 22 1
99 22 1
23 23 1
44 23 1
87 23 1
100 23 1
24 24 1
45 24 1
88 24 1
101 24 1
25 25 1
46 25 1
89 25 1
102 25 1
26 26 1
47 26 1
90 26 1
103 26 1
27 27 1
48 27 1
91 27 1
104 27 1
28 28 1
49 28 1
92 28 1
105 28 1
29 29 1
50 29 1
93 29 1
106 29 1
30 30 1
51 30 1
94 30 1
107 30 1
31 31 1
52 31 1
95 31 1
108 31 1
32 32 1
53 32 1
96 32 1
109 32 1
33 33 1
54 33 1
97 33 1
110 33 1
34 34 1
55 34 1
98 34 1
111 34 1
35 35 1
56 35 1
99 35 1
112 35 1
36 36 1
57 36 1
100 36 1
113 36 1
37 37 1
58 37 1
101 37 1
114 37 1
38 38 1
59 38 1
102 38 1
115 38 1
39 39 1
60 39 1
103 39 1
116 39 1
40 40 1
61 40 1
104 40 1
117 40 1
41 41 1
62 41 1
105 41 1
118 41 1
42 42 1
63 42 1
106 42 1
119 42 1
43 43 1
64 43 1
107 43 1
120 43 1
1 44 1
44 44 1
108 44 1
121 44 1
2 45 1
45 45 1
109 45 1
122 45 1
3 46 1
46 46 1
110 46 1
123 46 1
4 47 1
47 47 1
111 47 1
124 47 1
5 48 1
48 48 1
112 48 1
125 48 1
6 49 1
49 49 1
113 49 1
126 49 1
7 50 1
50 50 1
114 50 1
127 50 1
8 51 1
51 51 1
115 51 1
128 51 1
9 52 1
52 52 1
65 52 1
116 52 1
10 53 1
53 53 1
66 53 1
117 53 1
11 54 1
54 54 1
67 54 1
118 54 1
12 55 1
55 55 1
68 55 1
119 55 1
13 56 1
56 56 1
69 56 1
120 56 1
14 57 1
57 57 1
70 57 1
121 57 1
15 58 1
58 58 1
71 58 1
122 58 1
16 59 1
59 59 1
72 59 1
123 59 1
17 60 1
60 60 1
73 60 1
124 60 1
18 61 1
61 61 1
74 61 1
125 61 1
19 62 1
62 62 1
75 62 1
126 62 1
20 63 1
63 63 1
76 63 1
127 63 1
21 64 1
64 64 1
77 64 1
128 64 1
1 65 1
55 65 1
129 65 1
142 65 1
2 66 1
56 66 1
130 66 1
143 66 1
3 67 1
57 67 1
131 67 1
144 67 1
4 68 1
58 68 1
132 68 1
145 68 1
5 69 1
59 69 1
133 69 1
146 69 1
6 70 1
60 70 1
134 70 1
147 70 1
7 71 1
61 71 1
135 71 1
148 71 1
8 72 1
62 72 1
136 72 1
149 72 1
9 73 1
63 73 1
137 73 1
150 73 1
10 74 1
64 74 1
138 74 1
151 74 1
1 75 1
11 75 1
139 75 1
152 75 1
2 76 1
12 76 1
140 76 1
153 76 1
3 77 1
13 77 1
141 77 1
154 77 1
4 78 1
14 78 1
142 78 1
155 78 1
5 79 1
15 79 1
143 79 1
156 79 1
6 80 1
16 80 1
144 80 1
157 80 1
7 81 1
17 81 1
145 81 1
158 81 1
8 82 1
18 82 1
146 82 1
159 82 1
9 83 1
19 83 1
147 83 1
160 83 1
10 84 1
20 84 1
148 84 1
161 84 1
11 85 1
21 85 1
149 85 1
162 85 1
12 86 1
22 86 1
150 86 1
163 86 1
13 87 1
23 87 1
151 87 1
164 87 1
14 88 1
24 88 1
152 88 1
165 88 1
15 89 1
25 89 1
153 89 1
166 89 1
16 90 1
26 90 1
154 90 1
167 90 1
17 91 1
27 91 1
155 91 1
168 91 1
18 92 1
28 92 1
156 92 1
169 92 1
19 93 1
29 93 1
157 93 1
170 93 1
20 94 1
30 94 1
158 94 1
171 94 1
21 95 1
31 95 1
159 95 1
172 95 1
22 96 1
32 96 1
160 96 1
173 96 1
23 97 1
33 97 1
161 97 1
174 97 1
24 98 1
34 98 1
162 98 1
175 98 1
25 99 1
35 99 1
163 99 1
176 99 1
26 100 1
36 100 1
164 100 1
177 100 1
27 101 1
37 101 1
165 101 1
178 101 1
28 102 1
38 102 1
166 102 1
179 102 1
29 103 1
39 103 1
167 103 1
180 103 1
30 104 1
40 104 1
168 104 1
181 104 1
31 105 1
41 105 1
169 105 1
182 105 1
32 106 1
42 106 1
170 106 1
183 106 1
33 107 1
43 107 1
171 107 1
184 107 1
34 108 1
44 108 1
172 108 1
185 108 1
35 109 1
45 109 1
173 109 1
186 109 1
36 110 1
46 110 1
174 110 1
187 110 1
37 111 1
47 111 1
175 111 1
188 111 1
38 112 1
48 112 1
176 112 1
189 112 1
39 113 1
49 113 1
177 113 1
190 113 1
40 114 1
50 114 1
178 114 1
191 114 1
41 115 1
51 115 1
179 115 1
192 115 1
42 116 1
52 116 1
129 116 1
180 116 1
43 117 1
53 117 1
130 117 1
181 117 1
44 118 1
54 118 1
131 118 1
182 118 1
45 119 1
55 119 1
132 119 1
183 119 1
46 120 1
56 120 1
133 120 1
184 120 1
47 121 1
57 121 1
134 121 1
185 121 1
48 122 1
58 122 1
135 122 1
186 122 1
49 123 1
59 123 1
136 123 1
187 123 1
50 124 1
60 124 1
137 124 1
188 124 1
51 125 1
61 125 1
138 125 1
189 125 1
52 126 1
62 126 1
139 126 1
190 126 1
53 127 1
63 127 1
140 127 1
191 127 1
54 128 1
64 128 1
141 128 1
192 128 1
65 129 1
119 129 1
129 129 1
150 129 1
66 130 1
120 130 1
130 130 1
151 130 1
67 131 1
121 131 1
131 131 1
152 131 1
68 132 1
122 132 1
132 132 1
153 132 1
69 133 1
123 133 1
133 133 1
154 133 1
70 134 1
124 134 1
134 134 1
155 134 1
71 135 1
125 135 1
135 135 1
156 135 1
72 136 1
126 136 1
136 136 1
157 136 1
73 137 1
127 137 1
137 137 1
158 137 1
74 138 1
128 138 1
138 138 1
159 138 1
65 139 1
75 139 1
139 139 1
160 139 1
66 140 1
76 140 1
140 140 1
161 140 1
67 141 1
77 141 1
141 141 1
162 141 1
68 142 1
78 142 1
142 142 1
163 142 1
69 143 1
79 143 1
143 143 1
164 143 1
70 144 1
80 144 1
144 144 1
165 144 1
71 145 1
81 145 1
145 145 1
166 145 1
72 146 1
82 146 1
146 146 1
167 146 1
73 147 1
83 147 1
147 147 1
168 147 1
74 148 1
84 148 1
148 148 1
169 148 1
75 149 1
85 149 1
149 149 1
170 149 1
76 150 1
86 150 1
150 150 1
171 150 1
77 151 1
87 151 1
151 151 1
172 151 1
78 152 1
88 152 1
152 152 1
173 152 1
79 153 1
89 153 1
153 153 1
174 153 1
80 154 1
90 154 1
154 154 1
175 154 1
81 155 1
91 155 1
155 155 1
176 155 1
82 156 1
92 156 1
156 156 1
177 156 1
83 157 1
93 157 1
157 157 1
178 157 1
84 158 1
94 158 1
158 158 1
179 158 1
85 159 1
95 159 1
159 159 1
180 159 1
86 160 1
96 160 1
160 160 1
181 160 1
87 161 1
97 161 1
161 161 1
182 161 1
88 162 1
98 162 1
162 162 1
183 162 1
89 163 1
99 163 1
163 163 1
184 163 1
90 164 1
100 164 1
164 164 1
185 164 1
91 165 1
101 165 1
165 165 1
186 165 1
92 166 1
102 166 1
166 166 1
187 166 1
93 167 1
103 167 1
167 167 1
188 167 1
94 168 1
104 168 1
168 168 1
189 168 1
95 169 1
105 169 1
169 169 1
190 169 1
96 170 1
106 170 1
170 170 1
191 170 1
97 171 1
107 171 1
171 171 1
192 171 1
98 172 1
108 172 1
129 172 1
172 172 1
99 173 1
109 173 1
130 173 1
173 173 1
100 174 1
110 174 1
131 174 1
174 174 1
101 175 1
111 175 1
132 175 1
175 175 1
102 176 1
112 176 1
133 176 1
176 176 1
103 177 1
113 177 1
134 177 1
177 177 1
104 178 1
114 178 1
135 178 1
178 178 1
105 179 1
115 179 1
136 179 1
179 179 1
106 180 1
116 180 1
137 180 1
180 180 1
107 181 1
117 181 1
138 181 1
181 181 1
108 182 1
118 182 1
139 182 1
182 182 1
109 183 1
119 183 1
140 183 1
183 183 1
110 184 1
120 184 1
141 184 1
184 184 1
111 185 1
121 185 1
142 185 1
185 185 1
112 186 1
122 186 1
143 186 1
186 186 1
113 187 1
123 187 1
144 187 1
187 187 1
114 188 1
124 188 1
145 188 1
188 188 1
115 189 1
125 189 1
146 189 1
189 189 1
116 190 1
126 190 1
147 190 1
190 190 1
117 191 1
127 191 1
148 191 1
191 191 1
118 192 1
128 192 1
149 192 1
192 192 1
1 193 1
59 193 1
193 193 1
206 193 1
2 194 1
60 194 1
194 194 1
207 194 1
3 195 1
61 195 1
195 195 1
208 195 1
4 196 1
62 196 1
196 196 1
209 196 1
5 197 1
63 197 1
197 197 1
210 197 1
6 198 1
64 198 1
198 198 1
211 198 1
1 199 1
7 199 1
199 199 1
212 199 1
2 200 1
8 200 1
200 200 1
213 200 1
3 201 1
9 201 1
201 201 1
214 201 1
4 202 1
10 202 1
202 202 1
215 202 1
5 203 1
11 203 1
203 203 1
216 203 1
6 204 1
12 204 1
204 204 1
217 204 1
7 205 1
13 205 1
205 205 1
218 205 1
8 206 1
14 206 1
206 206 1
219 206 1
9 207 1
15 207 1
207 207 1
220 207 1
10 208 1
16 208 1
208 208 1
221 208 1
11 209 1
17 209 1
209 209 1
222 209 1
12 210 1
18 210 1
210 210 1
223 210 1
13 211 1
19 211 1
211 211 1
224 211 1
14 212 1
20 212 1
212 212 1
225 212 1
15 213 1
21 213 1
213 213 1
226 213 1
16 214 1
22 214 1
214 214 1
227 214 1
17 215 1
23 215 1
215 215 1
228 215 1
18 216 1
24 216 1
216 216 1
229 216 1
19 217 1
25 217 1
217 217 1
230 217 1
20 218 1
26 218 1
218 218 1
231 218 1
21 219 1
27 219 1
219 219 1
232 219 1
22 220 1
28 220 1
220 220 1
233 220 1
23 221 1
29 221 1
221 221 1
234 221 1
24 222 1
30 222 1
222 222 1
235 222 1
25 223 1
31 223 1
223 223 1
236 223 1
26 224 1
32 224 1
224 224 1
237 224 1
27 225 1
33 225 1
225 225 1
238 225 1
28 226 1
34 226 1
226 226 1
239 226 1
29 227 1
35 227 1
227 227 1
240 227 1
30 228 1
36 228 1
228 228 1
241 228 1
31 229 1
37 229 1
229 229 1
242 229 1
32 230 1
38 230 1
230 230 1
243 230 1
33 231 1
39 231 1
231 231 1
244 231 1
34 232 1
40 232 1
232 232 1
245 232 1
35 233 1
41 233 1
233 233 1
246 233 1
36 234 1
42 234 1
234 234 1
247 234 1
37 235 1
43 235 1
235 235 1
248 235 1
38 236 1
44 236 1
236 236 1
249 236 1
39 237 1
45 237 1
237 237 1
250 237 1
40 238 1
46 238 1
238 238 1
251 238 1
41 239 1
47 239 1
239 239 1
252 239 1
42 240 1
48 240 1
240 240 1
253 240 1
43 241 1
49 241 1
241 241 1
254 241 1
44 242 1
50 242 1
242 242 1
255 242 1
45 243 1
51 243 1
243 243 1
256 243 1
46 244 1
52 244 1
193 244 1
244 244 1
47 245 1
53 245 1
194 245 1
245 245 1
48 246 1
54 246 1
195 246 1
246 246 1
49 247 1
55 247 1
196 247 1
247 247 1
50 248 1
56 248 1
197 248 1
248 248 1
51 249 1
57 249 1
198 249 1
249 249 1
52 250 1
58 250 1
199 250 1
250 250 1
53 251 1
59 251 1
200 251 1
251 251 1
54 252 1
60 252 1
201 252 1
252 252 1
55 253 1
61 253 1
202 253 1
253 253 1
56 254 1
62 254 1
203 254 1
254 254 1
57 255 1
63 255 1
204 255 1
255 255 1
58 256 1
64 256 1
205 256 1
256 256 1
65 257 1
123 257 1
193 257 1
214 257 1
66 258 1
124 258 1
194 258 1
215 258 1
67 259 1
125 259 1
195 259 1
216 259 1
68 260 1
126 260 1
196 260 1
217 260 1
69 261 1
127 261 1
197 261 1
218 261 1
70 262 1
128 262 1
198 262 1
219 262 1
65 263 1
71 263 1
199 263 1
220 263 1
66 264 1
72 264 1
200 264 1
221 264 1
67 265 1
73 265 1
201 265 1
222 265 1
68 266 1
74 266 1
202 266 1
223 266 1
69 267 1
75 267 1
203 267 1
224 267 1
70 268 1
76 268 1
204 268 1
225 268 1
71 269 1
77 269 1
205 269 1
226 269 1
72 270 1
78 270 1
206 270 1
227 270 1
73 271 1
79 271 1
207 271 1
228 271 1
74 272 1
80 272 1
208 272 1
229 272 1
75 273 1
81 273 1
209 273 1
230 273 1
76 274 1
82 274 1
210 274 1
231 274 1
77 275 1
83 275 1
211 275 1
232 275 1
78 276 1
84 276 1
212 276 1
233 276 1
79 277 1
85 277 1
213 277 1
234 277 1
80 278 1
86 278 1
214 278 1
235 278 1
81 279 1
87 279 1
215 279 1
236 279 1
82 280 1
88 280 1
216 280 1
237 280 1
83 281 1
89 281 1
217 281 1
238 281 1
84 282 1
90 282 1
218 282 1
239 282 1
85 283 1
91 283 1
219 283 1
240 283 1
86 284 1
92 284 1
220 284 1
241 284 1
87 285 1
93 285 1
221 285 1
242 285 1
88 286 1
94 286 1
222 286 1
243 286 1
89 287 1
95 287 1
223 287 1
244 287 1
90 288 1
96 288 1
224 288 1
245 288 1
91 289 1
97 289 1
225 289 1
246 289 1
92 290 1
98 290 1
226 290 1
247 290 1
93 291 1
99 291 1
227 291 1
248 291 1
94 292 1
100 292 1
228 292 1
249 292 1
95 293 1
101 293 1
229 293 1
250 293 1
96 294 1
102 294 1
230 294 1
251 294 1
97 295 1
103 295 1
231 295 1
252 295 1
98 296 1
104 296 1
232 296 1
253 296 1
99 297 1
105 297 1
233 297 1
254 297 1
100 298 1
106 298 1
234 298 1
255 298 1
101 299 1
107 299 1
235 299 1
256 299 1
102 300 1
108 300 1
193 300 1
236 300 1
103 301 1
109 301 1
194 301 1
237 301 1
104 302 1
110 302 1
195 302 1
238 302 1
105 303 1
111 303 1
196 303 1
239 303 1
106 304 1
112 304 1
197 304 1
240 304 1
107 305 1
113 305 1
198 305 1
241 305 1
108 306 1
114 306 1
199 306 1
242 306 1
109 307 1
115 307 1
200 307 1
243 307 1
110 308 1
116 308 1
201 308 1
244 308 1
111 309 1
117 309 1
202 309 1
245 309 1
112 310 1
118 310 1
203 310 1
246 310 1
113 311 1
119 311 1
204 311 1
247 311 1
114 312 1
120 312 1
205 312 1
248 312 1
115 313 1
121 313 1
206 313 1
249 313 1
116 314 1
122 314 1
207 314 1
250 314 1
117 315 1
123 315 1
208 315 1
251 315 1
118 316 1
124 316 1
209 316 1
252 316 1
119 317 1
125 317 1
210 317 1
253 317 1
120 318 1
126 318 1
211 318 1
254 318 1
121 319 1
127 319 1
212 319 1
255 319 1
122 320 1
128 320 1
213 320 1
256 320 1
129 321 1
187 321 1
193 321 1
247 321 1
130 322 1
188 322 1
194 322 1
248 322 1
131 323 1
189 323 1
195 323 1
249 323 1
132 324 1
190 324 1
196 324 1
250 324 1
133 325 1
191 325 1
197 325 1
251 325 1
134 326 1
192 326 1
198 326 1
252 326 1
129 327 1
135 327 1
199 327 1
253 327 1
130 328 1
136 328 1
200 328 1
254 328 1
131 329 1
137 329 1
201 329 1
255 329 1
132 330 1
138 330 1
202 330 1
256 330 1
133 331 1
139 331 1
193 331 1
203 331 1
134 332 1
140 332 1
194 332 1
204 332 1
135 333 1
141 333 1
195 333 1
205 333 1
136 334 1
142 334 1
196 334 1
206 334 1
137 335 1
143 335 1
197 335 1
207 335 1
138 336 1
144 336 1
198 336 1
208 336 1
139 337 1
145 337 1
199 337 1
209 337 1
140 338 1
146 338 1
200 338 1
210 338 1
141 339 1
147 339 1
201 339 1
211 339 1
142 340 1
148 340 1
202 340 1
212 340 1
143 341 1
149 341 1
203 341 1
213 341 1
144 342 1
150 342 1
204 342 1
214 342 1
145 343 1
151 343 1
205 343 1
215 343 1
146 344 1
152 344 1
206 344 1
216 344 1
147 345 1
153 345 1
207 345 1
217 345 1
148 346 1
154 346 1
208 346 1
218 346 1
149 347 1
155 347 1
209 347 1
219 347 1
150 348 1
156 348 1
210 348 1
220 348 1
151 349 1
157 349 1
211 349 1
221 349 1
152 350 1
158 350 1
212 350 1
222 350 1
153 351 1
159 351 1
213 351 1
223 351 1
154 352 1
160 352 1
214 352 1
224 352 1
155 353 1
161 353 1
215 353 1
225 353 1
156 354 1
162 354 1
216 354 1
226 354 1
157 355 1
163 355 1
217 355 1
227 355 1
158 356 1
164 356 1
218 356 1
228 356 1
159 357 1
165 357 1
219 357 1
229 357 1
160 358 1
166 358 1
220 358 1
230 358 1
161 359 1
167 359 1
221 359 1
231 359 1
162 360 1
168 360 1
222 360 1
232 360 1
163 361 1
169 361 1
223 361 1
233 361 1
164 362 1
170 362 1
224 362 1
234 362 1
165 363 1
171 363 1
225 363 1
235 363 1
166 364 1
172 364 1
226 364 1
236 364 1
167 365 1
173 365 1
227 365 1
237 365 1
168 366 1
174 366 1
228 366 1
238 366 1
169 367 1
175 367 1
229 367 1
239 367 1
170 368 1
176 368 1
230 368 1
240 368 1
171 369 1
177 369 1
231 369 1
241 369 1
172 370 1
178 370 1
232 370 1
242 370 1
173 371 1
179 371 1
233 371 1
243 371 1
174 372 1
180 372 1
234 372 1
244 372 1
175 373 1
181 373 1
235 373 1
245 373 1
176 374 1
182 374 1
236 374 1
246 374 1
177 375 1
183 375 1
237 375 1
247 375 1
178 376 1
184 376 1
238 376 1
248 376 1
179 377 1
185 377 1
239 377 1
249 377 1
180 378 1
186 378 1
240 378 1
250 378 1
181 379 1
187 379 1
241 379 1
251 379 1
182 380 1
188 380 1
242 380 1
252 380 1
183 381 1
189 381 1
243 381 1
253 381 1
184 382 1
190 382 1
244 382 1
254 382 1
185 383 1
191 383 1
245 383 1
255 383 1
186 384 1
192 384 1
246 384 1
256 384 1
