%%MatrixMarket matrix coordinate integer general
% Binary matrix; one-based indices; arithmetic over GF(2)
1288 1610 12880
1 1 1
7 1 1
24 1 1
27 1 1
139 1 1
141 1 1
484 1 1
485 1 1
2 2 1
8 2 1
25 2 1
28 2 1
140 2 1
142 2 1
485 2 1
486 2 1
3 3 1
9 3 1
26 3 1
29 3 1
141 3 1
143 3 1
486 3 1
487 3 1
4 4 1
10 4 1
27 4 1
30 4 1
142 4 1
144 4 1
487 4 1
488 4 1
5 5 1
11 5 1
28 5 1
31 5 1
143 5 1
145 5 1
488 5 1
489 5 1
6 6 1
12 6 1
29 6 1
32 6 1
144 6 1
146 6 1
489 6 1
490 6 1
7 7 1
13 7 1
30 7 1
33 7 1
145 7 1
147 7 1
490 7 1
491 7 1
8 8 1
14 8 1
31 8 1
34 8 1
146 8 1
148 8 1
491 8 1
492 8 1
9 9 1
15 9 1
32 9 1
35 9 1
147 9 1
149 9 1
492 9 1
493 9 1
10 10 1
16 10 1
33 10 1
36 10 1
148 10 1
150 10 1
493 10 1
494 10 1
11 11 1
17 11 1
34 11 1
37 11 1
149 11 1
151 11 1
494 11 1
495 11 1
12 12 1
18 12 1
35 12 1
38 12 1
150 12 1
152 12 1
495 12 1
496 12 1
13 13 1
19 13 1
36 13 1
39 13 1
151 13 1
153 13 1
496 13 1
497 13 1
14 14 1
20 14 1
37 14 1
40 14 1
152 14 1
154 14 1
497 14 1
498 14 1
15 15 1
21 15 1
38 15 1
41 15 1
153 15 1
155 15 1
498 15 1
499 15 1
16 16 1
22 16 1
39 16 1
42 16 1
154 16 1
156 16 1
499 16 1
500 16 1
17 17 1
23 17 1
40 17 1
43 17 1
155 17 1
157 17 1
500 17 1
501 17 1
1 18 1
18 18 1
41 18 1
44 18 1
156 18 1
158 18 1
501 18 1
502 18 1
2 19 1
19 19 1
42 19 1
45 19 1
157 19 1
159 19 1
502 19 1
503 19 1
3 20 1
20 20 1
43 20 1
46 20 1
158 20 1
160 20 1
503 20 1
504 20 1
4 21 1
21 21 1
24 21 1
44 21 1
159 21 1
161 21 1
504 21 1
505 21 1
5 22 1
22 22 1
25 22 1
45 22 1
139 22 1
160 22 1
505 22 1
506 22 1
6 23 1
23 23 1
26 23 1
46 23 1
140 23 1
161 23 1
484 23 1
506 23 1
1 24 1
8 24 1
47 24 1
50 24 1
162 24 1
164 24 1
507 24 1
508 24 1
2 25 1
9 25 1
48 25 1
51 25 1
163 25 1
165 25 1
508 25 1
509 25 1
3 26 1
10 26 1
49 26 1
52 26 1
164 26 1
166 26 1
509 26 1
510 26 1
4 27 1
11 27 1
50 27 1
53 27 1
165 27 1
167 27 1
510 27 1
511 27 1
5 28 1
12 28 1
51 28 1
54 28 1
166 28 1
168 28 1
511 28 1
512 28 1
6 29 1
13 29 1
52 29 1
55 29 1
167 29 1
169 29 1
512 29 1
513 29 1
7 30 1
14 30 1
53 30 1
56 30 1
168 30 1
170 30 1
513 30 1
514 30 1
8 31 1
15 31 1
54 31 1
57 31 1
169 31 1
171 31 1
514 31 1
515 31 1
9 32 1
16 32 1
55 32 1
58 32 1
170 32 1
172 32 1
515 32 1
516 32 1
10 33 1
17 33 1
56 33 1
59 33 1
171 33 1
173 33 1
516 33 1
517 33 1
11 34 1
18 34 1
57 34 1
60 34 1
172 34 1
174 34 1
517 34 1
518 34 1
12 35 1
19 35 1
58 35 1
61 35 1
173 35 1
175 35 1
518 35 1
519 35 1
13 36 1
20 36 1
59 36 1
62 36 1
174 36 1
176 36 1
519 36 1
520 36 1
14 37 1
21 37 1
60 37 1
63 37 1
175 37 1
177 37 1
520 37 1
521 37 1
15 38 1
22 38 1
61 38 1
64 38 1
176 38 1
178 38 1
521 38 1
522 38 1
16 39 1
23 39 1
62 39 1
65 39 1
177 39 1
179 39 1
522 39 1
523 39 1
1 40 1
17 40 1
63 40 1
66 40 1
178 40 1
180 40 1
523 40 1
524 40 1
2 41 1
18 41 1
64 41 1
67 41 1
179 41 1
181 41 1
524 41 1
525 41 1
3 42 1
19 42 1
65 42 1
68 42 1
180 42 1
182 42 1
525 42 1
526 42 1
4 43 1
20 43 1
66 43 1
69 43 1
181 43 1
183 43 1
526 43 1
527 43 1
5 44 1
21 44 1
47 44 1
67 44 1
182 44 1
184 44 1
527 44 1
528 44 1
6 45 1
22 45 1
48 45 1
68 45 1
162 45 1
183 45 1
528 45 1
529 45 1
7 46 1
23 46 1
49 46 1
69 46 1
163 46 1
184 46 1
507 46 1
529 46 1
1 47 1
9 47 1
70 47 1
73 47 1
185 47 1
187 47 1
530 47 1
531 47 1
2 48 1
10 48 1
71 48 1
74 48 1
186 48 1
188 48 1
531 48 1
532 48 1
3 49 1
11 49 1
72 49 1
75 49 1
187 49 1
189 49 1
532 49 1
533 49 1
4 50 1
12 50 1
73 50 1
76 50 1
188 50 1
190 50 1
533 50 1
534 50 1
5 51 1
13 51 1
74 51 1
77 51 1
189 51 1
191 51 1
534 51 1
535 51 1
6 52 1
14 52 1
75 52 1
78 52 1
190 52 1
192 52 1
535 52 1
536 52 1
7 53 1
15 53 1
76 53 1
79 53 1
191 53 1
193 53 1
536 53 1
537 53 1
8 54 1
16 54 1
77 54 1
80 54 1
192 54 1
194 54 1
537 54 1
538 54 1
9 55 1
17 55 1
78 55 1
81 55 1
193 55 1
195 55 1
538 55 1
539 55 1
10 56 1
18 56 1
79 56 1
82 56 1
194 56 1
196 56 1
539 56 1
540 56 1
11 57 1
19 57 1
80 57 1
83 57 1
195 57 1
197 57 1
540 57 1
541 57 1
12 58 1
20 58 1
81 58 1
84 58 1
196 58 1
198 58 1
541 58 1
542 58 1
13 59 1
21 59 1
82 59 1
85 59 1
197 59 1
199 59 1
542 59 1
543 59 1
14 60 1
22 60 1
83 60 1
86 60 1
198 60 1
200 60 1
543 60 1
544 60 1
15 61 1
23 61 1
84 61 1
87 61 1
199 61 1
201 61 1
544 61 1
545 61 1
1 62 1
16 62 1
85 62 1
88 62 1
200 62 1
202 62 1
545 62 1
546 62 1
2 63 1
17 63 1
86 63 1
89 63 1
201 63 1
203 63 1
546 63 1
547 63 1
3 64 1
18 64 1
87 64 1
90 64 1
202 64 1
204 64 1
547 64 1
548 64 1
4 65 1
19 65 1
88 65 1
91 65 1
203 65 1
205 65 1
548 65 1
549 65 1
5 66 1
20 66 1
89 66 1
92 66 1
204 66 1
206 66 1
549 66 1
550 66 1
6 67 1
21 67 1
70 67 1
90 67 1
205 67 1
207 67 1
550 67 1
551 67 1
7 68 1
22 68 1
71 68 1
91 68 1
185 68 1
206 68 1
551 68 1
552 68 1
8 69 1
23 69 1
72 69 1
92 69 1
186 69 1
207 69 1
530 69 1
552 69 1
1 70 1
13 70 1
93 70 1
96 70 1
208 70 1
210 70 1
553 70 1
554 70 1
2 71 1
14 71 1
94 71 1
97 71 1
209 71 1
211 71 1
554 71 1
555 71 1
3 72 1
15 72 1
95 72 1
98 72 1
210 72 1
212 72 1
555 72 1
556 72 1
4 73 1
16 73 1
96 73 1
99 73 1
211 73 1
213 73 1
556 73 1
557 73 1
5 74 1
17 74 1
97 74 1
100 74 1
212 74 1
214 74 1
557 74 1
558 74 1
6 75 1
18 75 1
98 75 1
101 75 1
213 75 1
215 75 1
558 75 1
559 75 1
7 76 1
19 76 1
99 76 1
102 76 1
214 76 1
216 76 1
559 76 1
560 76 1
8 77 1
20 77 1
100 77 1
103 77 1
215 77 1
217 77 1
560 77 1
561 77 1
9 78 1
21 78 1
101 78 1
104 78 1
216 78 1
218 78 1
561 78 1
562 78 1
10 79 1
22 79 1
102 79 1
105 79 1
217 79 1
219 79 1
562 79 1
563 79 1
11 80 1
23 80 1
103 80 1
106 80 1
218 80 1
220 80 1
563 80 1
564 80 1
1 81 1
12 81 1
104 81 1
107 81 1
219 81 1
221 81 1
564 81 1
565 81 1
2 82 1
13 82 1
105 82 1
108 82 1
220 82 1
222 82 1
565 82 1
566 82 1
3 83 1
14 83 1
106 83 1
109 83 1
221 83 1
223 83 1
566 83 1
567 83 1
4 84 1
15 84 1
107 84 1
110 84 1
222 84 1
224 84 1
567 84 1
568 84 1
5 85 1
16 85 1
108 85 1
111 85 1
223 85 1
225 85 1
568 85 1
569 85 1
6 86 1
17 86 1
109 86 1
112 86 1
224 86 1
226 86 1
569 86 1
570 86 1
7 87 1
18 87 1
110 87 1
113 87 1
225 87 1
227 87 1
570 87 1
571 87 1
8 88 1
19 88 1
111 88 1
114 88 1
226 88 1
228 88 1
571 88 1
572 88 1
9 89 1
20 89 1
112 89 1
115 89 1
227 89 1
229 89 1
572 89 1
573 89 1
10 90 1
21 90 1
93 90 1
113 90 1
228 90 1
230 90 1
573 90 1
574 90 1
11 91 1
22 91 1
94 91 1
114 91 1
208 91 1
229 91 1
574 91 1
575 91 1
12 92 1
23 92 1
95 92 1
115 92 1
209 92 1
230 92 1
553 92 1
575 92 1
1 93 1
14 93 1
116 93 1
119 93 1
231 93 1
233 93 1
576 93 1
577 93 1
2 94 1
15 94 1
117 94 1
120 94 1
232 94 1
234 94 1
577 94 1
578 94 1
3 95 1
16 95 1
118 95 1
121 95 1
233 95 1
235 95 1
578 95 1
579 95 1
4 96 1
17 96 1
119 96 1
122 96 1
234 96 1
236 96 1
579 96 1
580 96 1
5 97 1
18 97 1
120 97 1
123 97 1
235 97 1
237 97 1
580 97 1
581 97 1
6 98 1
19 98 1
121 98 1
124 98 1
236 98 1
238 98 1
581 98 1
582 98 1
7 99 1
20 99 1
122 99 1
125 99 1
237 99 1
239 99 1
582 99 1
583 99 1
8 100 1
21 100 1
123 100 1
126 100 1
238 100 1
240 100 1
583 100 1
584 100 1
9 101 1
22 101 1
124 101 1
127 101 1
239 101 1
241 101 1
584 101 1
585 101 1
10 102 1
23 102 1
125 102 1
128 102 1
240 102 1
242 102 1
585 102 1
586 102 1
1 103 1
11 103 1
126 103 1
129 103 1
241 103 1
243 103 1
586 103 1
587 103 1
2 104 1
12 104 1
127 104 1
130 104 1
242 104 1
244 104 1
587 104 1
588 104 1
3 105 1
13 105 1
128 105 1
131 105 1
243 105 1
245 105 1
588 105 1
589 105 1
4 106 1
14 106 1
129 106 1
132 106 1
244 106 1
246 106 1
589 106 1
590 106 1
5 107 1
15 107 1
130 107 1
133 107 1
245 107 1
247 107 1
590 107 1
591 107 1
6 108 1
16 108 1
131 108 1
134 108 1
246 108 1
248 108 1
591 108 1
592 108 1
7 109 1
17 109 1
132 109 1
135 109 1
247 109 1
249 109 1
592 109 1
593 109 1
8 110 1
18 110 1
133 110 1
136 110 1
248 110 1
250 110 1
593 110 1
594 110 1
9 111 1
19 111 1
134 111 1
137 111 1
249 111 1
251 111 1
594 111 1
595 111 1
10 112 1
20 112 1
135 112 1
138 112 1
250 112 1
252 112 1
595 112 1
596 112 1
11 113 1
21 113 1
116 113 1
136 113 1
251 113 1
253 113 1
596 113 1
597 113 1
12 114 1
22 114 1
117 114 1
137 114 1
231 114 1
252 114 1
597 114 1
598 114 1
13 115 1
23 115 1
118 115 1
138 115 1
232 115 1
253 115 1
576 115 1
598 115 1
24 116 1
31 116 1
47 116 1
53 116 1
254 116 1
256 116 1
599 116 1
600 116 1
25 117 1
32 117 1
48 117 1
54 117 1
255 117 1
257 117 1
600 117 1
601 117 1
26 118 1
33 118 1
49 118 1
55 118 1
256 118 1
258 118 1
601 118 1
602 118 1
27 119 1
34 119 1
50 119 1
56 119 1
257 119 1
259 119 1
602 119 1
603 119 1
28 120 1
35 120 1
51 120 1
57 120 1
258 120 1
260 120 1
603 120 1
604 120 1
29 121 1
36 121 1
52 121 1
58 121 1
259 121 1
261 121 1
604 121 1
605 121 1
30 122 1
37 122 1
53 122 1
59 122 1
260 122 1
262 122 1
605 122 1
606 122 1
31 123 1
38 123 1
54 123 1
60 123 1
261 123 1
263 123 1
606 123 1
607 123 1
32 124 1
39 124 1
55 124 1
61 124 1
262 124 1
264 124 1
607 124 1
608 124 1
33 125 1
40 125 1
56 125 1
62 125 1
263 125 1
265 125 1
608 125 1
609 125 1
34 126 1
41 126 1
57 126 1
63 126 1
264 126 1
266 126 1
609 126 1
610 126 1
35 127 1
42 127 1
58 127 1
64 127 1
265 127 1
267 127 1
610 127 1
611 127 1
36 128 1
43 128 1
59 128 1
65 128 1
266 128 1
268 128 1
611 128 1
612 128 1
37 129 1
44 129 1
60 129 1
66 129 1
267 129 1
269 129 1
612 129 1
613 129 1
38 130 1
45 130 1
61 130 1
67 130 1
268 130 1
270 130 1
613 130 1
614 130 1
39 131 1
46 131 1
62 131 1
68 131 1
269 131 1
271 131 1
614 131 1
615 131 1
24 132 1
40 132 1
63 132 1
69 132 1
270 132 1
272 132 1
615 132 1
616 132 1
25 133 1
41 133 1
47 133 1
64 133 1
271 133 1
273 133 1
616 133 1
617 133 1
26 134 1
42 134 1
48 134 1
65 134 1
272 134 1
274 134 1
617 134 1
618 134 1
27 135 1
43 135 1
49 135 1
66 135 1
273 135 1
275 135 1
618 135 1
619 135 1
28 136 1
44 136 1
50 136 1
67 136 1
274 136 1
276 136 1
619 136 1
620 136 1
29 137 1
45 137 1
51 137 1
68 137 1
254 137 1
275 137 1
620 137 1
621 137 1
30 138 1
46 138 1
52 138 1
69 138 1
255 138 1
276 138 1
599 138 1
621 138 1
24 139 1
32 139 1
70 139 1
76 139 1
277 139 1
279 139 1
622 139 1
623 139 1
25 140 1
33 140 1
71 140 1
77 140 1
278 140 1
280 140 1
623 140 1
624 140 1
26 141 1
34 141 1
72 141 1
78 141 1
279 141 1
281 141 1
624 141 1
625 141 1
27 142 1
35 142 1
73 142 1
79 142 1
280 142 1
282 142 1
625 142 1
626 142 1
28 143 1
36 143 1
74 143 1
80 143 1
281 143 1
283 143 1
626 143 1
627 143 1
29 144 1
37 144 1
75 144 1
81 144 1
282 144 1
284 144 1
627 144 1
628 144 1
30 145 1
38 145 1
76 145 1
82 145 1
283 145 1
285 145 1
628 145 1
629 145 1
31 146 1
39 146 1
77 146 1
83 146 1
284 146 1
286 146 1
629 146 1
630 146 1
32 147 1
40 147 1
78 147 1
84 147 1
285 147 1
287 147 1
630 147 1
631 147 1
33 148 1
41 148 1
79 148 1
85 148 1
286 148 1
288 148 1
631 148 1
632 148 1
34 149 1
42 149 1
80 149 1
86 149 1
287 149 1
289 149 1
632 149 1
633 149 1
35 150 1
43 150 1
81 150 1
87 150 1
288 150 1
290 150 1
633 150 1
634 150 1
36 151 1
44 151 1
82 151 1
88 151 1
289 151 1
291 151 1
634 151 1
635 151 1
37 152 1
45 152 1
83 152 1
89 152 1
290 152 1
292 152 1
635 152 1
636 152 1
38 153 1
46 153 1
84 153 1
90 153 1
291 153 1
293 153 1
636 153 1
637 153 1
24 154 1
39 154 1
85 154 1
91 154 1
292 154 1
294 154 1
637 154 1
638 154 1
25 155 1
40 155 1
86 155 1
92 155 1
293 155 1
295 155 1
638 155 1
639 155 1
26 156 1
41 156 1
70 156 1
87 156 1
294 156 1
296 156 1
639 156 1
640 156 1
27 157 1
42 157 1
71 157 1
88 157 1
295 157 1
297 157 1
640 157 1
641 157 1
28 158 1
43 158 1
72 158 1
89 158 1
296 158 1
298 158 1
641 158 1
642 158 1
29 159 1
44 159 1
73 159 1
90 159 1
297 159 1
299 159 1
642 159 1
643 159 1
30 160 1
45 160 1
74 160 1
91 160 1
277 160 1
298 160 1
643 160 1
644 160 1
31 161 1
46 161 1
75 161 1
92 161 1
278 161 1
299 161 1
622 161 1
644 161 1
24 162 1
36 162 1
93 162 1
99 162 1
300 162 1
302 162 1
645 162 1
646 162 1
25 163 1
37 163 1
94 163 1
100 163 1
301 163 1
303 163 1
646 163 1
647 163 1
26 164 1
38 164 1
95 164 1
101 164 1
302 164 1
304 164 1
647 164 1
648 164 1
27 165 1
39 165 1
96 165 1
102 165 1
303 165 1
305 165 1
648 165 1
649 165 1
28 166 1
40 166 1
97 166 1
103 166 1
304 166 1
306 166 1
649 166 1
650 166 1
29 167 1
41 167 1
98 167 1
104 167 1
305 167 1
307 167 1
650 167 1
651 167 1
30 168 1
42 168 1
99 168 1
105 168 1
306 168 1
308 168 1
651 168 1
652 168 1
31 169 1
43 169 1
100 169 1
106 169 1
307 169 1
309 169 1
652 169 1
653 169 1
32 170 1
44 170 1
101 170 1
107 170 1
308 170 1
310 170 1
653 170 1
654 170 1
33 171 1
45 171 1
102 171 1
108 171 1
309 171 1
311 171 1
654 171 1
655 171 1
34 172 1
46 172 1
103 172 1
109 172 1
310 172 1
312 172 1
655 172 1
656 172 1
24 173 1
35 173 1
104 173 1
110 173 1
311 173 1
313 173 1
656 173 1
657 173 1
25 174 1
36 174 1
105 174 1
111 174 1
312 174 1
314 174 1
657 174 1
658 174 1
26 175 1
37 175 1
106 175 1
112 175 1
313 175 1
315 175 1
658 175 1
659 175 1
27 176 1
38 176 1
107 176 1
113 176 1
314 176 1
316 176 1
659 176 1
660 176 1
28 177 1
39 177 1
108 177 1
114 177 1
315 177 1
317 177 1
660 177 1
661 177 1
29 178 1
40 178 1
109 178 1
115 178 1
316 178 1
318 178 1
661 178 1
662 178 1
30 179 1
41 179 1
93 179 1
110 179 1
317 179 1
319 179 1
662 179 1
663 179 1
31 180 1
42 180 1
94 180 1
111 180 1
318 180 1
320 180 1
663 180 1
664 180 1
32 181 1
43 181 1
95 181 1
112 181 1
319 181 1
321 181 1
664 181 1
665 181 1
33 182 1
44 182 1
96 182 1
113 182 1
320 182 1
322 182 1
665 182 1
666 182 1
34 183 1
45 183 1
97 183 1
114 183 1
300 183 1
321 183 1
666 183 1
667 183 1
35 184 1
46 184 1
98 184 1
115 184 1
301 184 1
322 184 1
645 184 1
667 184 1
24 185 1
37 185 1
116 185 1
122 185 1
323 185 1
325 185 1
668 185 1
669 185 1
25 186 1
38 186 1
117 186 1
123 186 1
324 186 1
326 186 1
669 186 1
670 186 1
26 187 1
39 187 1
118 187 1
124 187 1
325 187 1
327 187 1
670 187 1
671 187 1
27 188 1
40 188 1
119 188 1
125 188 1
326 188 1
328 188 1
671 188 1
672 188 1
28 189 1
41 189 1
120 189 1
126 189 1
327 189 1
329 189 1
672 189 1
673 189 1
29 190 1
42 190 1
121 190 1
127 190 1
328 190 1
330 190 1
673 190 1
674 190 1
30 191 1
43 191 1
122 191 1
128 191 1
329 191 1
331 191 1
674 191 1
675 191 1
31 192 1
44 192 1
123 192 1
129 192 1
330 192 1
332 192 1
675 192 1
676 192 1
32 193 1
45 193 1
124 193 1
130 193 1
331 193 1
333 193 1
676 193 1
677 193 1
33 194 1
46 194 1
125 194 1
131 194 1
332 194 1
334 194 1
677 194 1
678 194 1
24 195 1
34 195 1
126 195 1
132 195 1
333 195 1
335 195 1
678 195 1
679 195 1
25 196 1
35 196 1
127 196 1
133 196 1
334 196 1
336 196 1
679 196 1
680 196 1
26 197 1
36 197 1
128 197 1
134 197 1
335 197 1
337 197 1
680 197 1
681 197 1
27 198 1
37 198 1
129 198 1
135 198 1
336 198 1
338 198 1
681 198 1
682 198 1
28 199 1
38 199 1
130 199 1
136 199 1
337 199 1
339 199 1
682 199 1
683 199 1
29 200 1
39 200 1
131 200 1
137 200 1
338 200 1
340 200 1
683 200 1
684 200 1
30 201 1
40 201 1
132 201 1
138 201 1
339 201 1
341 201 1
684 201 1
685 201 1
31 202 1
41 202 1
116 202 1
133 202 1
340 202 1
342 202 1
685 202 1
686 202 1
32 203 1
42 203 1
117 203 1
134 203 1
341 203 1
343 203 1
686 203 1
687 203 1
33 204 1
43 204 1
118 204 1
135 204 1
342 204 1
344 204 1
687 204 1
688 204 1
34 205 1
44 205 1
119 205 1
136 205 1
343 205 1
345 205 1
688 205 1
689 205 1
35 206 1
45 206 1
120 206 1
137 206 1
323 206 1
344 206 1
689 206 1
690 206 1
36 207 1
46 207 1
121 207 1
138 207 1
324 207 1
345 207 1
668 207 1
690 207 1
47 208 1
55 208 1
70 208 1
77 208 1
346 208 1
348 208 1
691 208 1
692 208 1
48 209 1
56 209 1
71 209 1
78 209 1
347 209 1
349 209 1
692 209 1
693 209 1
49 210 1
57 210 1
72 210 1
79 210 1
348 210 1
350 210 1
693 210 1
694 210 1
50 211 1
58 211 1
73 211 1
80 211 1
349 211 1
351 211 1
694 211 1
695 211 1
51 212 1
59 212 1
74 212 1
81 212 1
350 212 1
352 212 1
695 212 1
696 212 1
52 213 1
60 213 1
75 213 1
82 213 1
351 213 1
353 213 1
696 213 1
697 213 1
53 214 1
61 214 1
76 214 1
83 214 1
352 214 1
354 214 1
697 214 1
698 214 1
54 215 1
62 215 1
77 215 1
84 215 1
353 215 1
355 215 1
698 215 1
699 215 1
55 216 1
63 216 1
78 216 1
85 216 1
354 216 1
356 216 1
699 216 1
700 216 1
56 217 1
64 217 1
79 217 1
86 217 1
355 217 1
357 217 1
700 217 1
701 217 1
57 218 1
65 218 1
80 218 1
87 218 1
356 218 1
358 218 1
701 218 1
702 218 1
58 219 1
66 219 1
81 219 1
88 219 1
357 219 1
359 219 1
702 219 1
703 219 1
59 220 1
67 220 1
82 220 1
89 220 1
358 220 1
360 220 1
703 220 1
704 220 1
60 221 1
68 221 1
83 221 1
90 221 1
359 221 1
361 221 1
704 221 1
705 221 1
61 222 1
69 222 1
84 222 1
91 222 1
360 222 1
362 222 1
705 222 1
706 222 1
47 223 1
62 223 1
85 223 1
92 223 1
361 223 1
363 223 1
706 223 1
707 223 1
48 224 1
63 224 1
70 224 1
86 224 1
362 224 1
364 224 1
707 224 1
708 224 1
49 225 1
64 225 1
71 225 1
87 225 1
363 225 1
365 225 1
708 225 1
709 225 1
50 226 1
65 226 1
72 226 1
88 226 1
364 226 1
366 226 1
709 226 1
710 226 1
51 227 1
66 227 1
73 227 1
89 227 1
365 227 1
367 227 1
710 227 1
711 227 1
52 228 1
67 228 1
74 228 1
90 228 1
366 228 1
368 228 1
711 228 1
712 228 1
53 229 1
68 229 1
75 229 1
91 229 1
346 229 1
367 229 1
712 229 1
713 229 1
54 230 1
69 230 1
76 230 1
92 230 1
347 230 1
368 230 1
691 230 1
713 230 1
47 231 1
59 231 1
93 231 1
100 231 1
369 231 1
371 231 1
714 231 1
715 231 1
48 232 1
60 232 1
94 232 1
101 232 1
370 232 1
372 232 1
715 232 1
716 232 1
49 233 1
61 233 1
95 233 1
102 233 1
371 233 1
373 233 1
716 233 1
717 233 1
50 234 1
62 234 1
96 234 1
103 234 1
372 234 1
374 234 1
717 234 1
718 234 1
51 235 1
63 235 1
97 235 1
104 235 1
373 235 1
375 235 1
718 235 1
719 235 1
52 236 1
64 236 1
98 236 1
105 236 1
374 236 1
376 236 1
719 236 1
720 236 1
53 237 1
65 237 1
99 237 1
106 237 1
375 237 1
377 237 1
720 237 1
721 237 1
54 238 1
66 238 1
100 238 1
107 238 1
376 238 1
378 238 1
721 238 1
722 238 1
55 239 1
67 239 1
101 239 1
108 239 1
377 239 1
379 239 1
722 239 1
723 239 1
56 240 1
68 240 1
102 240 1
109 240 1
378 240 1
380 240 1
723 240 1
724 240 1
57 241 1
69 241 1
103 241 1
110 241 1
379 241 1
381 241 1
724 241 1
725 241 1
47 242 1
58 242 1
104 242 1
111 242 1
380 242 1
382 242 1
725 242 1
726 242 1
48 243 1
59 243 1
105 243 1
112 243 1
381 243 1
383 243 1
726 243 1
727 243 1
49 244 1
60 244 1
106 244 1
113 244 1
382 244 1
384 244 1
727 244 1
728 244 1
50 245 1
61 245 1
107 245 1
114 245 1
383 245 1
385 245 1
728 245 1
729 245 1
51 246 1
62 246 1
108 246 1
115 246 1
384 246 1
386 246 1
729 246 1
730 246 1
52 247 1
63 247 1
93 247 1
109 247 1
385 247 1
387 247 1
730 247 1
731 247 1
53 248 1
64 248 1
94 248 1
110 248 1
386 248 1
388 248 1
731 248 1
732 248 1
54 249 1
65 249 1
95 249 1
111 249 1
387 249 1
389 249 1
732 249 1
733 249 1
55 250 1
66 250 1
96 250 1
112 250 1
388 250 1
390 250 1
733 250 1
734 250 1
56 251 1
67 251 1
97 251 1
113 251 1
389 251 1
391 251 1
734 251 1
735 251 1
57 252 1
68 252 1
98 252 1
114 252 1
369 252 1
390 252 1
735 252 1
736 252 1
58 253 1
69 253 1
99 253 1
115 253 1
370 253 1
391 253 1
714 253 1
736 253 1
47 254 1
60 254 1
116 254 1
123 254 1
392 254 1
394 254 1
737 254 1
738 254 1
48 255 1
61 255 1
117 255 1
124 255 1
393 255 1
395 255 1
738 255 1
739 255 1
49 256 1
62 256 1
118 256 1
125 256 1
394 256 1
396 256 1
739 256 1
740 256 1
50 257 1
63 257 1
119 257 1
126 257 1
395 257 1
397 257 1
740 257 1
741 257 1
51 258 1
64 258 1
120 258 1
127 258 1
396 258 1
398 258 1
741 258 1
742 258 1
52 259 1
65 259 1
121 259 1
128 259 1
397 259 1
399 259 1
742 259 1
743 259 1
53 260 1
66 260 1
122 260 1
129 260 1
398 260 1
400 260 1
743 260 1
744 260 1
54 261 1
67 261 1
123 261 1
130 261 1
399 261 1
401 261 1
744 261 1
745 261 1
55 262 1
68 262 1
124 262 1
131 262 1
400 262 1
402 262 1
745 262 1
746 262 1
56 263 1
69 263 1
125 263 1
132 263 1
401 263 1
403 263 1
746 263 1
747 263 1
47 264 1
57 264 1
126 264 1
133 264 1
402 264 1
404 264 1
747 264 1
748 264 1
48 265 1
58 265 1
127 265 1
134 265 1
403 265 1
405 265 1
748 265 1
749 265 1
49 266 1
59 266 1
128 266 1
135 266 1
404 266 1
406 266 1
749 266 1
750 266 1
50 267 1
60 267 1
129 267 1
136 267 1
405 267 1
407 267 1
750 267 1
751 267 1
51 268 1
61 268 1
130 268 1
137 268 1
406 268 1
408 268 1
751 268 1
752 268 1
52 269 1
62 269 1
131 269 1
138 269 1
407 269 1
409 269 1
752 269 1
753 269 1
53 270 1
63 270 1
116 270 1
132 270 1
408 270 1
410 270 1
753 270 1
754 270 1
54 271 1
64 271 1
117 271 1
133 271 1
409 271 1
411 271 1
754 271 1
755 271 1
55 272 1
65 272 1
118 272 1
134 272 1
410 272 1
412 272 1
755 272 1
756 272 1
56 273 1
66 273 1
119 273 1
135 273 1
411 273 1
413 273 1
756 273 1
757 273 1
57 274 1
67 274 1
120 274 1
136 274 1
412 274 1
414 274 1
757 274 1
758 274 1
58 275 1
68 275 1
121 275 1
137 275 1
392 275 1
413 275 1
758 275 1
759 275 1
59 276 1
69 276 1
122 276 1
138 276 1
393 276 1
414 276 1
737 276 1
759 276 1
70 277 1
82 277 1
93 277 1
101 277 1
415 277 1
417 277 1
760 277 1
761 277 1
71 278 1
83 278 1
94 278 1
102 278 1
416 278 1
418 278 1
761 278 1
762 278 1
72 279 1
84 279 1
95 279 1
103 279 1
417 279 1
419 279 1
762 279 1
763 279 1
73 280 1
85 280 1
96 280 1
104 280 1
418 280 1
420 280 1
763 280 1
764 280 1
74 281 1
86 281 1
97 281 1
105 281 1
419 281 1
421 281 1
764 281 1
765 281 1
75 282 1
87 282 1
98 282 1
106 282 1
420 282 1
422 282 1
765 282 1
766 282 1
76 283 1
88 283 1
99 283 1
107 283 1
421 283 1
423 283 1
766 283 1
767 283 1
77 284 1
89 284 1
100 284 1
108 284 1
422 284 1
424 284 1
767 284 1
768 284 1
78 285 1
90 285 1
101 285 1
109 285 1
423 285 1
425 285 1
768 285 1
769 285 1
79 286 1
91 286 1
102 286 1
110 286 1
424 286 1
426 286 1
769 286 1
770 286 1
80 287 1
92 287 1
103 287 1
111 287 1
425 287 1
427 287 1
770 287 1
771 287 1
70 288 1
81 288 1
104 288 1
112 288 1
426 288 1
428 288 1
771 288 1
772 288 1
71 289 1
82 289 1
105 289 1
113 289 1
427 289 1
429 289 1
772 289 1
773 289 1
72 290 1
83 290 1
106 290 1
114 290 1
428 290 1
430 290 1
773 290 1
774 290 1
73 291 1
84 291 1
107 291 1
115 291 1
429 291 1
431 291 1
774 291 1
775 291 1
74 292 1
85 292 1
93 292 1
108 292 1
430 292 1
432 292 1
775 292 1
776 292 1
75 293 1
86 293 1
94 293 1
109 293 1
431 293 1
433 293 1
776 293 1
777 293 1
76 294 1
87 294 1
95 294 1
110 294 1
432 294 1
434 294 1
777 294 1
778 294 1
77 295 1
88 295 1
96 295 1
111 295 1
433 295 1
435 295 1
778 295 1
779 295 1
78 296 1
89 296 1
97 296 1
112 296 1
434 296 1
436 296 1
779 296 1
780 296 1
79 297 1
90 297 1
98 297 1
113 297 1
435 297 1
437 297 1
780 297 1
781 297 1
80 298 1
91 298 1
99 298 1
114 298 1
415 298 1
436 298 1
781 298 1
782 298 1
81 299 1
92 299 1
100 299 1
115 299 1
416 299 1
437 299 1
760 299 1
782 299 1
70 300 1
83 300 1
116 300 1
124 300 1
438 300 1
440 300 1
783 300 1
784 300 1
71 301 1
84 301 1
117 301 1
125 301 1
439 301 1
441 301 1
784 301 1
785 301 1
72 302 1
85 302 1
118 302 1
126 302 1
440 302 1
442 302 1
785 302 1
786 302 1
73 303 1
86 303 1
119 303 1
127 303 1
441 303 1
443 303 1
786 303 1
787 303 1
74 304 1
87 304 1
120 304 1
128 304 1
442 304 1
444 304 1
787 304 1
788 304 1
75 305 1
88 305 1
121 305 1
129 305 1
443 305 1
445 305 1
788 305 1
789 305 1
76 306 1
89 306 1
122 306 1
130 306 1
444 306 1
446 306 1
789 306 1
790 306 1
77 307 1
90 307 1
123 307 1
131 307 1
445 307 1
447 307 1
790 307 1
791 307 1
78 308 1
91 308 1
124 308 1
132 308 1
446 308 1
448 308 1
791 308 1
792 308 1
79 309 1
92 309 1
125 309 1
133 309 1
447 309 1
449 309 1
792 309 1
793 309 1
70 310 1
80 310 1
126 310 1
134 310 1
448 310 1
450 310 1
793 310 1
794 310 1
71 311 1
81 311 1
127 311 1
135 311 1
449 311 1
451 311 1
794 311 1
795 311 1
72 312 1
82 312 1
128 312 1
136 312 1
450 312 1
452 312 1
795 312 1
796 312 1
73 313 1
83 313 1
129 313 1
137 313 1
451 313 1
453 313 1
796 313 1
797 313 1
74 314 1
84 314 1
130 314 1
138 314 1
452 314 1
454 314 1
797 314 1
798 314 1
75 315 1
85 315 1
116 315 1
131 315 1
453 315 1
455 315 1
798 315 1
799 315 1
76 316 1
86 316 1
117 316 1
132 316 1
454 316 1
456 316 1
799 316 1
800 316 1
77 317 1
87 317 1
118 317 1
133 317 1
455 317 1
457 317 1
800 317 1
801 317 1
78 318 1
88 318 1
119 318 1
134 318 1
456 318 1
458 318 1
801 318 1
802 318 1
79 319 1
89 319 1
120 319 1
135 319 1
457 319 1
459 319 1
802 319 1
803 319 1
80 320 1
90 320 1
121 320 1
136 320 1
458 320 1
460 320 1
803 320 1
804 320 1
81 321 1
91 321 1
122 321 1
137 321 1
438 321 1
459 321 1
804 321 1
805 321 1
82 322 1
92 322 1
123 322 1
138 322 1
439 322 1
460 322 1
783 322 1
805 322 1
93 323 1
106 323 1
116 323 1
128 323 1
461 323 1
463 323 1
806 323 1
807 323 1
94 324 1
107 324 1
117 324 1
129 324 1
462 324 1
464 324 1
807 324 1
808 324 1
95 325 1
108 325 1
118 325 1
130 325 1
463 325 1
465 325 1
808 325 1
809 325 1
96 326 1
109 326 1
119 326 1
131 326 1
464 326 1
466 326 1
809 326 1
810 326 1
97 327 1
110 327 1
120 327 1
132 327 1
465 327 1
467 327 1
810 327 1
811 327 1
98 328 1
111 328 1
121 328 1
133 328 1
466 328 1
468 328 1
811 328 1
812 328 1
99 329 1
112 329 1
122 329 1
134 329 1
467 329 1
469 329 1
812 329 1
813 329 1
100 330 1
113 330 1
123 330 1
135 330 1
468 330 1
470 330 1
813 330 1
814 330 1
101 331 1
114 331 1
124 331 1
136 331 1
469 331 1
471 331 1
814 331 1
815 331 1
102 332 1
115 332 1
125 332 1
137 332 1
470 332 1
472 332 1
815 332 1
816 332 1
93 333 1
103 333 1
126 333 1
138 333 1
471 333 1
473 333 1
816 333 1
817 333 1
94 334 1
104 334 1
116 334 1
127 334 1
472 334 1
474 334 1
817 334 1
818 334 1
95 335 1
105 335 1
117 335 1
128 335 1
473 335 1
475 335 1
818 335 1
819 335 1
96 336 1
106 336 1
118 336 1
129 336 1
474 336 1
476 336 1
819 336 1
820 336 1
97 337 1
107 337 1
119 337 1
130 337 1
475 337 1
477 337 1
820 337 1
821 337 1
98 338 1
108 338 1
120 338 1
131 338 1
476 338 1
478 338 1
821 338 1
822 338 1
99 339 1
109 339 1
121 339 1
132 339 1
477 339 1
479 339 1
822 339 1
823 339 1
100 340 1
110 340 1
122 340 1
133 340 1
478 340 1
480 340 1
823 340 1
824 340 1
101 341 1
111 341 1
123 341 1
134 341 1
479 341 1
481 341 1
824 341 1
825 341 1
102 342 1
112 342 1
124 342 1
135 342 1
480 342 1
482 342 1
825 342 1
826 342 1
103 343 1
113 343 1
125 343 1
136 343 1
481 343 1
483 343 1
826 343 1
827 343 1
104 344 1
114 344 1
126 344 1
137 344 1
461 344 1
482 344 1
827 344 1
828 344 1
105 345 1
115 345 1
127 345 1
138 345 1
462 345 1
483 345 1
806 345 1
828 345 1
139 346 1
146 346 1
162 346 1
168 346 1
254 346 1
257 346 1
829 346 1
830 346 1
140 347 1
147 347 1
163 347 1
169 347 1
255 347 1
258 347 1
830 347 1
831 347 1
141 348 1
148 348 1
164 348 1
170 348 1
256 348 1
259 348 1
831 348 1
832 348 1
142 349 1
149 349 1
165 349 1
171 349 1
257 349 1
260 349 1
832 349 1
833 349 1
143 350 1
150 350 1
166 350 1
172 350 1
258 350 1
261 350 1
833 350 1
834 350 1
144 351 1
151 351 1
167 351 1
173 351 1
259 351 1
262 351 1
834 351 1
835 351 1
145 352 1
152 352 1
168 352 1
174 352 1
260 352 1
263 352 1
835 352 1
836 352 1
146 353 1
153 353 1
169 353 1
175 353 1
261 353 1
264 353 1
836 353 1
837 353 1
147 354 1
154 354 1
170 354 1
176 354 1
262 354 1
265 354 1
837 354 1
838 354 1
148 355 1
155 355 1
171 355 1
177 355 1
263 355 1
266 355 1
838 355 1
839 355 1
149 356 1
156 356 1
172 356 1
178 356 1
264 356 1
267 356 1
839 356 1
840 356 1
150 357 1
157 357 1
173 357 1
179 357 1
265 357 1
268 357 1
840 357 1
841 357 1
151 358 1
158 358 1
174 358 1
180 358 1
266 358 1
269 358 1
841 358 1
842 358 1
152 359 1
159 359 1
175 359 1
181 359 1
267 359 1
270 359 1
842 359 1
843 359 1
153 360 1
160 360 1
176 360 1
182 360 1
268 360 1
271 360 1
843 360 1
844 360 1
154 361 1
161 361 1
177 361 1
183 361 1
269 361 1
272 361 1
844 361 1
845 361 1
139 362 1
155 362 1
178 362 1
184 362 1
270 362 1
273 362 1
845 362 1
846 362 1
140 363 1
156 363 1
162 363 1
179 363 1
271 363 1
274 363 1
846 363 1
847 363 1
141 364 1
157 364 1
163 364 1
180 364 1
272 364 1
275 364 1
847 364 1
848 364 1
142 365 1
158 365 1
164 365 1
181 365 1
273 365 1
276 365 1
848 365 1
849 365 1
143 366 1
159 366 1
165 366 1
182 366 1
254 366 1
274 366 1
849 366 1
850 366 1
144 367 1
160 367 1
166 367 1
183 367 1
255 367 1
275 367 1
850 367 1
851 367 1
145 368 1
161 368 1
167 368 1
184 368 1
256 368 1
276 368 1
829 368 1
851 368 1
139 369 1
147 369 1
185 369 1
191 369 1
277 369 1
280 369 1
852 369 1
853 369 1
140 370 1
148 370 1
186 370 1
192 370 1
278 370 1
281 370 1
853 370 1
854 370 1
141 371 1
149 371 1
187 371 1
193 371 1
279 371 1
282 371 1
854 371 1
855 371 1
142 372 1
150 372 1
188 372 1
194 372 1
280 372 1
283 372 1
855 372 1
856 372 1
143 373 1
151 373 1
189 373 1
195 373 1
281 373 1
284 373 1
856 373 1
857 373 1
144 374 1
152 374 1
190 374 1
196 374 1
282 374 1
285 374 1
857 374 1
858 374 1
145 375 1
153 375 1
191 375 1
197 375 1
283 375 1
286 375 1
858 375 1
859 375 1
146 376 1
154 376 1
192 376 1
198 376 1
284 376 1
287 376 1
859 376 1
860 376 1
147 377 1
155 377 1
193 377 1
199 377 1
285 377 1
288 377 1
860 377 1
861 377 1
148 378 1
156 378 1
194 378 1
200 378 1
286 378 1
289 378 1
861 378 1
862 378 1
149 379 1
157 379 1
195 379 1
201 379 1
287 379 1
290 379 1
862 379 1
863 379 1
150 380 1
158 380 1
196 380 1
202 380 1
288 380 1
291 380 1
863 380 1
864 380 1
151 381 1
159 381 1
197 381 1
203 381 1
289 381 1
292 381 1
864 381 1
865 381 1
152 382 1
160 382 1
198 382 1
204 382 1
290 382 1
293 382 1
865 382 1
866 382 1
153 383 1
161 383 1
199 383 1
205 383 1
291 383 1
294 383 1
866 383 1
867 383 1
139 384 1
154 384 1
200 384 1
206 384 1
292 384 1
295 384 1
867 384 1
868 384 1
140 385 1
155 385 1
201 385 1
207 385 1
293 385 1
296 385 1
868 385 1
869 385 1
141 386 1
156 386 1
185 386 1
202 386 1
294 386 1
297 386 1
869 386 1
870 386 1
142 387 1
157 387 1
186 387 1
203 387 1
295 387 1
298 387 1
870 387 1
871 387 1
143 388 1
158 388 1
187 388 1
204 388 1
296 388 1
299 388 1
871 388 1
872 388 1
144 389 1
159 389 1
188 389 1
205 389 1
277 389 1
297 389 1
872 389 1
873 389 1
145 390 1
160 390 1
189 390 1
206 390 1
278 390 1
298 390 1
873 390 1
874 390 1
146 391 1
161 391 1
190 391 1
207 391 1
279 391 1
299 391 1
852 391 1
874 391 1
139 392 1
151 392 1
208 392 1
214 392 1
300 392 1
303 392 1
875 392 1
876 392 1
140 393 1
152 393 1
209 393 1
215 393 1
301 393 1
304 393 1
876 393 1
877 393 1
141 394 1
153 394 1
210 394 1
216 394 1
302 394 1
305 394 1
877 394 1
878 394 1
142 395 1
154 395 1
211 395 1
217 395 1
303 395 1
306 395 1
878 395 1
879 395 1
143 396 1
155 396 1
212 396 1
218 396 1
304 396 1
307 396 1
879 396 1
880 396 1
144 397 1
156 397 1
213 397 1
219 397 1
305 397 1
308 397 1
880 397 1
881 397 1
145 398 1
157 398 1
214 398 1
220 398 1
306 398 1
309 398 1
881 398 1
882 398 1
146 399 1
158 399 1
215 399 1
221 399 1
307 399 1
310 399 1
882 399 1
883 399 1
147 400 1
159 400 1
216 400 1
222 400 1
308 400 1
311 400 1
883 400 1
884 400 1
148 401 1
160 401 1
217 401 1
223 401 1
309 401 1
312 401 1
884 401 1
885 401 1
149 402 1
161 402 1
218 402 1
224 402 1
310 402 1
313 402 1
885 402 1
886 402 1
139 403 1
150 403 1
219 403 1
225 403 1
311 403 1
314 403 1
886 403 1
887 403 1
140 404 1
151 404 1
220 404 1
226 404 1
312 404 1
315 404 1
887 404 1
888 404 1
141 405 1
152 405 1
221 405 1
227 405 1
313 405 1
316 405 1
888 405 1
889 405 1
142 406 1
153 406 1
222 406 1
228 406 1
314 406 1
317 406 1
889 406 1
890 406 1
143 407 1
154 407 1
223 407 1
229 407 1
315 407 1
318 407 1
890 407 1
891 407 1
144 408 1
155 408 1
224 408 1
230 408 1
316 408 1
319 408 1
891 408 1
892 408 1
145 409 1
156 409 1
208 409 1
225 409 1
317 409 1
320 409 1
892 409 1
893 409 1
146 410 1
157 410 1
209 410 1
226 410 1
318 410 1
321 410 1
893 410 1
894 410 1
147 411 1
158 411 1
210 411 1
227 411 1
319 411 1
322 411 1
894 411 1
895 411 1
148 412 1
159 412 1
211 412 1
228 412 1
300 412 1
320 412 1
895 412 1
896 412 1
149 413 1
160 413 1
212 413 1
229 413 1
301 413 1
321 413 1
896 413 1
897 413 1
150 414 1
161 414 1
213 414 1
230 414 1
302 414 1
322 414 1
875 414 1
897 414 1
139 415 1
152 415 1
231 415 1
237 415 1
323 415 1
326 415 1
898 415 1
899 415 1
140 416 1
153 416 1
232 416 1
238 416 1
324 416 1
327 416 1
899 416 1
900 416 1
141 417 1
154 417 1
233 417 1
239 417 1
325 417 1
328 417 1
900 417 1
901 417 1
142 418 1
155 418 1
234 418 1
240 418 1
326 418 1
329 418 1
901 418 1
902 418 1
143 419 1
156 419 1
235 419 1
241 419 1
327 419 1
330 419 1
902 419 1
903 419 1
144 420 1
157 420 1
236 420 1
242 420 1
328 420 1
331 420 1
903 420 1
904 420 1
145 421 1
158 421 1
237 421 1
243 421 1
329 421 1
332 421 1
904 421 1
905 421 1
146 422 1
159 422 1
238 422 1
244 422 1
330 422 1
333 422 1
905 422 1
906 422 1
147 423 1
160 423 1
239 423 1
245 423 1
331 423 1
334 423 1
906 423 1
907 423 1
148 424 1
161 424 1
240 424 1
246 424 1
332 424 1
335 424 1
907 424 1
908 424 1
139 425 1
149 425 1
241 425 1
247 425 1
333 425 1
336 425 1
908 425 1
909 425 1
140 426 1
150 426 1
242 426 1
248 426 1
334 426 1
337 426 1
909 426 1
910 426 1
141 427 1
151 427 1
243 427 1
249 427 1
335 427 1
338 427 1
910 427 1
911 427 1
142 428 1
152 428 1
244 428 1
250 428 1
336 428 1
339 428 1
911 428 1
912 428 1
143 429 1
153 429 1
245 429 1
251 429 1
337 429 1
340 429 1
912 429 1
913 429 1
144 430 1
154 430 1
246 430 1
252 430 1
338 430 1
341 430 1
913 430 1
914 430 1
145 431 1
155 431 1
247 431 1
253 431 1
339 431 1
342 431 1
914 431 1
915 431 1
146 432 1
156 432 1
231 432 1
248 432 1
340 432 1
343 432 1
915 432 1
916 432 1
147 433 1
157 433 1
232 433 1
249 433 1
341 433 1
344 433 1
916 433 1
917 433 1
148 434 1
158 434 1
233 434 1
250 434 1
342 434 1
345 434 1
917 434 1
918 434 1
149 435 1
159 435 1
234 435 1
251 435 1
323 435 1
343 435 1
918 435 1
919 435 1
150 436 1
160 436 1
235 436 1
252 436 1
324 436 1
344 436 1
919 436 1
920 436 1
151 437 1
161 437 1
236 437 1
253 437 1
325 437 1
345 437 1
898 437 1
920 437 1
162 438 1
170 438 1
185 438 1
192 438 1
346 438 1
349 438 1
921 438 1
922 438 1
163 439 1
171 439 1
186 439 1
193 439 1
347 439 1
350 439 1
922 439 1
923 439 1
164 440 1
172 440 1
187 440 1
194 440 1
348 440 1
351 440 1
923 440 1
924 440 1
165 441 1
173 441 1
188 441 1
195 441 1
349 441 1
352 441 1
924 441 1
925 441 1
166 442 1
174 442 1
189 442 1
196 442 1
350 442 1
353 442 1
925 442 1
926 442 1
167 443 1
175 443 1
190 443 1
197 443 1
351 443 1
354 443 1
926 443 1
927 443 1
168 444 1
176 444 1
191 444 1
198 444 1
352 444 1
355 444 1
927 444 1
928 444 1
169 445 1
177 445 1
192 445 1
199 445 1
353 445 1
356 445 1
928 445 1
929 445 1
170 446 1
178 446 1
193 446 1
200 446 1
354 446 1
357 446 1
929 446 1
930 446 1
171 447 1
179 447 1
194 447 1
201 447 1
355 447 1
358 447 1
930 447 1
931 447 1
172 448 1
180 448 1
195 448 1
202 448 1
356 448 1
359 448 1
931 448 1
932 448 1
173 449 1
181 449 1
196 449 1
203 449 1
357 449 1
360 449 1
932 449 1
933 449 1
174 450 1
182 450 1
197 450 1
204 450 1
358 450 1
361 450 1
933 450 1
934 450 1
175 451 1
183 451 1
198 451 1
205 451 1
359 451 1
362 451 1
934 451 1
935 451 1
176 452 1
184 452 1
199 452 1
206 452 1
360 452 1
363 452 1
935 452 1
936 452 1
162 453 1
177 453 1
200 453 1
207 453 1
361 453 1
364 453 1
936 453 1
937 453 1
163 454 1
178 454 1
185 454 1
201 454 1
362 454 1
365 454 1
937 454 1
938 454 1
164 455 1
179 455 1
186 455 1
202 455 1
363 455 1
366 455 1
938 455 1
939 455 1
165 456 1
180 456 1
187 456 1
203 456 1
364 456 1
367 456 1
939 456 1
940 456 1
166 457 1
181 457 1
188 457 1
204 457 1
365 457 1
368 457 1
940 457 1
941 457 1
167 458 1
182 458 1
189 458 1
205 458 1
346 458 1
366 458 1
941 458 1
942 458 1
168 459 1
183 459 1
190 459 1
206 459 1
347 459 1
367 459 1
942 459 1
943 459 1
169 460 1
184 460 1
191 460 1
207 460 1
348 460 1
368 460 1
921 460 1
943 460 1
162 461 1
174 461 1
208 461 1
215 461 1
369 461 1
372 461 1
944 461 1
945 461 1
163 462 1
175 462 1
209 462 1
216 462 1
370 462 1
373 462 1
945 462 1
946 462 1
164 463 1
176 463 1
210 463 1
217 463 1
371 463 1
374 463 1
946 463 1
947 463 1
165 464 1
177 464 1
211 464 1
218 464 1
372 464 1
375 464 1
947 464 1
948 464 1
166 465 1
178 465 1
212 465 1
219 465 1
373 465 1
376 465 1
948 465 1
949 465 1
167 466 1
179 466 1
213 466 1
220 466 1
374 466 1
377 466 1
949 466 1
950 466 1
168 467 1
180 467 1
214 467 1
221 467 1
375 467 1
378 467 1
950 467 1
951 467 1
169 468 1
181 468 1
215 468 1
222 468 1
376 468 1
379 468 1
951 468 1
952 468 1
170 469 1
182 469 1
216 469 1
223 469 1
377 469 1
380 469 1
952 469 1
953 469 1
171 470 1
183 470 1
217 470 1
224 470 1
378 470 1
381 470 1
953 470 1
954 470 1
172 471 1
184 471 1
218 471 1
225 471 1
379 471 1
382 471 1
954 471 1
955 471 1
162 472 1
173 472 1
219 472 1
226 472 1
380 472 1
383 472 1
955 472 1
956 472 1
163 473 1
174 473 1
220 473 1
227 473 1
381 473 1
384 473 1
956 473 1
957 473 1
164 474 1
175 474 1
221 474 1
228 474 1
382 474 1
385 474 1
957 474 1
958 474 1
165 475 1
176 475 1
222 475 1
229 475 1
383 475 1
386 475 1
958 475 1
959 475 1
166 476 1
177 476 1
223 476 1
230 476 1
384 476 1
387 476 1
959 476 1
960 476 1
167 477 1
178 477 1
208 477 1
224 477 1
385 477 1
388 477 1
960 477 1
961 477 1
168 478 1
179 478 1
209 478 1
225 478 1
386 478 1
389 478 1
961 478 1
962 478 1
169 479 1
180 479 1
210 479 1
226 479 1
387 479 1
390 479 1
962 479 1
963 479 1
170 480 1
181 480 1
211 480 1
227 480 1
388 480 1
391 480 1
963 480 1
964 480 1
171 481 1
182 481 1
212 481 1
228 481 1
369 481 1
389 481 1
964 481 1
965 481 1
172 482 1
183 482 1
213 482 1
229 482 1
370 482 1
390 482 1
965 482 1
966 482 1
173 483 1
184 483 1
214 483 1
230 483 1
371 483 1
391 483 1
944 483 1
966 483 1
162 484 1
175 484 1
231 484 1
238 484 1
392 484 1
395 484 1
967 484 1
968 484 1
163 485 1
176 485 1
232 485 1
239 485 1
393 485 1
396 485 1
968 485 1
969 485 1
164 486 1
177 486 1
233 486 1
240 486 1
394 486 1
397 486 1
969 486 1
970 486 1
165 487 1
178 487 1
234 487 1
241 487 1
395 487 1
398 487 1
970 487 1
971 487 1
166 488 1
179 488 1
235 488 1
242 488 1
396 488 1
399 488 1
971 488 1
972 488 1
167 489 1
180 489 1
236 489 1
243 489 1
397 489 1
400 489 1
972 489 1
973 489 1
168 490 1
181 490 1
237 490 1
244 490 1
398 490 1
401 490 1
973 490 1
974 490 1
169 491 1
182 491 1
238 491 1
245 491 1
399 491 1
402 491 1
974 491 1
975 491 1
170 492 1
183 492 1
239 492 1
246 492 1
400 492 1
403 492 1
975 492 1
976 492 1
171 493 1
184 493 1
240 493 1
247 493 1
401 493 1
404 493 1
976 493 1
977 493 1
162 494 1
172 494 1
241 494 1
248 494 1
402 494 1
405 494 1
977 494 1
978 494 1
163 495 1
173 495 1
242 495 1
249 495 1
403 495 1
406 495 1
978 495 1
979 495 1
164 496 1
174 496 1
243 496 1
250 496 1
404 496 1
407 496 1
979 496 1
980 496 1
165 497 1
175 497 1
244 497 1
251 497 1
405 497 1
408 497 1
980 497 1
981 497 1
166 498 1
176 498 1
245 498 1
252 498 1
406 498 1
409 498 1
981 498 1
982 498 1
167 499 1
177 499 1
246 499 1
253 499 1
407 499 1
410 499 1
982 499 1
983 499 1
168 500 1
178 500 1
231 500 1
247 500 1
408 500 1
411 500 1
983 500 1
984 500 1
169 501 1
179 501 1
232 501 1
248 501 1
409 501 1
412 501 1
984 501 1
985 501 1
170 502 1
180 502 1
233 502 1
249 502 1
410 502 1
413 502 1
985 502 1
986 502 1
171 503 1
181 503 1
234 503 1
250 503 1
411 503 1
414 503 1
986 503 1
987 503 1
172 504 1
182 504 1
235 504 1
251 504 1
392 504 1
412 504 1
987 504 1
988 504 1
173 505 1
183 505 1
236 505 1
252 505 1
393 505 1
413 505 1
988 505 1
989 505 1
174 506 1
184 506 1
237 506 1
253 506 1
394 506 1
414 506 1
967 506 1
989 506 1
185 507 1
197 507 1
208 507 1
216 507 1
415 507 1
418 507 1
990 507 1
991 507 1
186 508 1
198 508 1
209 508 1
217 508 1
416 508 1
419 508 1
991 508 1
992 508 1
187 509 1
199 509 1
210 509 1
218 509 1
417 509 1
420 509 1
992 509 1
993 509 1
188 510 1
200 510 1
211 510 1
219 510 1
418 510 1
421 510 1
993 510 1
994 510 1
189 511 1
201 511 1
212 511 1
220 511 1
419 511 1
422 511 1
994 511 1
995 511 1
190 512 1
202 512 1
213 512 1
221 512 1
420 512 1
423 512 1
995 512 1
996 512 1
191 513 1
203 513 1
214 513 1
222 513 1
421 513 1
424 513 1
996 513 1
997 513 1
192 514 1
204 514 1
215 514 1
223 514 1
422 514 1
425 514 1
997 514 1
998 514 1
193 515 1
205 515 1
216 515 1
224 515 1
423 515 1
426 515 1
998 515 1
999 515 1
194 516 1
206 516 1
217 516 1
225 516 1
424 516 1
427 516 1
999 516 1
1000 516 1
195 517 1
207 517 1
218 517 1
226 517 1
425 517 1
428 517 1
1000 517 1
1001 517 1
185 518 1
196 518 1
219 518 1
227 518 1
426 518 1
429 518 1
1001 518 1
1002 518 1
186 519 1
197 519 1
220 519 1
228 519 1
427 519 1
430 519 1
1002 519 1
1003 519 1
187 520 1
198 520 1
221 520 1
229 520 1
428 520 1
431 520 1
1003 520 1
1004 520 1
188 521 1
199 521 1
222 521 1
230 521 1
429 521 1
432 521 1
1004 521 1
1005 521 1
189 522 1
200 522 1
208 522 1
223 522 1
430 522 1
433 522 1
1005 522 1
1006 522 1
190 523 1
201 523 1
209 523 1
224 523 1
431 523 1
434 523 1
1006 523 1
1007 523 1
191 524 1
202 524 1
210 524 1
225 524 1
432 524 1
435 524 1
1007 524 1
1008 524 1
192 525 1
203 525 1
211 525 1
226 525 1
433 525 1
436 525 1
1008 525 1
1009 525 1
193 526 1
204 526 1
212 526 1
227 526 1
434 526 1
437 526 1
1009 526 1
1010 526 1
194 527 1
205 527 1
213 527 1
228 527 1
415 527 1
435 527 1
1010 527 1
1011 527 1
195 528 1
206 528 1
214 528 1
229 528 1
416 528 1
436 528 1
1011 528 1
1012 528 1
196 529 1
207 529 1
215 529 1
230 529 1
417 529 1
437 529 1
990 529 1
1012 529 1
185 530 1
198 530 1
231 530 1
239 530 1
438 530 1
441 530 1
1013 530 1
1014 530 1
186 531 1
199 531 1
232 531 1
240 531 1
439 531 1
442 531 1
1014 531 1
1015 531 1
187 532 1
200 532 1
233 532 1
241 532 1
440 532 1
443 532 1
1015 532 1
1016 532 1
188 533 1
201 533 1
234 533 1
242 533 1
441 533 1
444 533 1
1016 533 1
1017 533 1
189 534 1
202 534 1
235 534 1
243 534 1
442 534 1
445 534 1
1017 534 1
1018 534 1
190 535 1
203 535 1
236 535 1
244 535 1
443 535 1
446 535 1
1018 535 1
1019 535 1
191 536 1
204 536 1
237 536 1
245 536 1
444 536 1
447 536 1
1019 536 1
1020 536 1
192 537 1
205 537 1
238 537 1
246 537 1
445 537 1
448 537 1
1020 537 1
1021 537 1
193 538 1
206 538 1
239 538 1
247 538 1
446 538 1
449 538 1
1021 538 1
1022 538 1
194 539 1
207 539 1
240 539 1
248 539 1
447 539 1
450 539 1
1022 539 1
1023 539 1
185 540 1
195 540 1
241 540 1
249 540 1
448 540 1
451 540 1
1023 540 1
1024 540 1
186 541 1
196 541 1
242 541 1
250 541 1
449 541 1
452 541 1
1024 541 1
1025 541 1
187 542 1
197 542 1
243 542 1
251 542 1
450 542 1
453 542 1
1025 542 1
1026 542 1
188 543 1
198 543 1
244 543 1
252 543 1
451 543 1
454 543 1
1026 543 1
1027 543 1
189 544 1
199 544 1
245 544 1
253 544 1
452 544 1
455 544 1
1027 544 1
1028 544 1
190 545 1
200 545 1
231 545 1
246 545 1
453 545 1
456 545 1
1028 545 1
1029 545 1
191 546 1
201 546 1
232 546 1
247 546 1
454 546 1
457 546 1
1029 546 1
1030 546 1
192 547 1
202 547 1
233 547 1
248 547 1
455 547 1
458 547 1
1030 547 1
1031 547 1
193 548 1
203 548 1
234 548 1
249 548 1
456 548 1
459 548 1
1031 548 1
1032 548 1
194 549 1
204 549 1
235 549 1
250 549 1
457 549 1
460 549 1
1032 549 1
1033 549 1
195 550 1
205 550 1
236 550 1
251 550 1
438 550 1
458 550 1
1033 550 1
1034 550 1
196 551 1
206 551 1
237 551 1
252 551 1
439 551 1
459 551 1
1034 551 1
1035 551 1
197 552 1
207 552 1
238 552 1
253 552 1
440 552 1
460 552 1
1013 552 1
1035 552 1
208 553 1
221 553 1
231 553 1
243 553 1
461 553 1
464 553 1
1036 553 1
1037 553 1
209 554 1
222 554 1
232 554 1
244 554 1
462 554 1
465 554 1
1037 554 1
1038 554 1
210 555 1
223 555 1
233 555 1
245 555 1
463 555 1
466 555 1
1038 555 1
1039 555 1
211 556 1
224 556 1
234 556 1
246 556 1
464 556 1
467 556 1
1039 556 1
1040 556 1
212 557 1
225 557 1
235 557 1
247 557 1
465 557 1
468 557 1
1040 557 1
1041 557 1
213 558 1
226 558 1
236 558 1
248 558 1
466 558 1
469 558 1
1041 558 1
1042 558 1
214 559 1
227 559 1
237 559 1
249 559 1
467 559 1
470 559 1
1042 559 1
1043 559 1
215 560 1
228 560 1
238 560 1
250 560 1
468 560 1
471 560 1
1043 560 1
1044 560 1
216 561 1
229 561 1
239 561 1
251 561 1
469 561 1
472 561 1
1044 561 1
1045 561 1
217 562 1
230 562 1
240 562 1
252 562 1
470 562 1
473 562 1
1045 562 1
1046 562 1
208 563 1
218 563 1
241 563 1
253 563 1
471 563 1
474 563 1
1046 563 1
1047 563 1
209 564 1
219 564 1
231 564 1
242 564 1
472 564 1
475 564 1
1047 564 1
1048 564 1
210 565 1
220 565 1
232 565 1
243 565 1
473 565 1
476 565 1
1048 565 1
1049 565 1
211 566 1
221 566 1
233 566 1
244 566 1
474 566 1
477 566 1
1049 566 1
1050 566 1
212 567 1
222 567 1
234 567 1
245 567 1
475 567 1
478 567 1
1050 567 1
1051 567 1
213 568 1
223 568 1
235 568 1
246 568 1
476 568 1
479 568 1
1051 568 1
1052 568 1
214 569 1
224 569 1
236 569 1
247 569 1
477 569 1
480 569 1
1052 569 1
1053 569 1
215 570 1
225 570 1
237 570 1
248 570 1
478 570 1
481 570 1
1053 570 1
1054 570 1
216 571 1
226 571 1
238 571 1
249 571 1
479 571 1
482 571 1
1054 571 1
1055 571 1
217 572 1
227 572 1
239 572 1
250 572 1
480 572 1
483 572 1
1055 572 1
1056 572 1
218 573 1
228 573 1
240 573 1
251 573 1
461 573 1
481 573 1
1056 573 1
1057 573 1
219 574 1
229 574 1
241 574 1
252 574 1
462 574 1
482 574 1
1057 574 1
1058 574 1
220 575 1
230 575 1
242 575 1
253 575 1
463 575 1
483 575 1
1036 575 1
1058 575 1
254 576 1
262 576 1
277 576 1
284 576 1
346 576 1
352 576 1
1059 576 1
1060 576 1
255 577 1
263 577 1
278 577 1
285 577 1
347 577 1
353 577 1
1060 577 1
1061 577 1
256 578 1
264 578 1
279 578 1
286 578 1
348 578 1
354 578 1
1061 578 1
1062 578 1
257 579 1
265 579 1
280 579 1
287 579 1
349 579 1
355 579 1
1062 579 1
1063 579 1
258 580 1
266 580 1
281 580 1
288 580 1
350 580 1
356 580 1
1063 580 1
1064 580 1
259 581 1
267 581 1
282 581 1
289 581 1
351 581 1
357 581 1
1064 581 1
1065 581 1
260 582 1
268 582 1
283 582 1
290 582 1
352 582 1
358 582 1
1065 582 1
1066 582 1
261 583 1
269 583 1
284 583 1
291 583 1
353 583 1
359 583 1
1066 583 1
1067 583 1
262 584 1
270 584 1
285 584 1
292 584 1
354 584 1
360 584 1
1067 584 1
1068 584 1
263 585 1
271 585 1
286 585 1
293 585 1
355 585 1
361 585 1
1068 585 1
1069 585 1
264 586 1
272 586 1
287 586 1
294 586 1
356 586 1
362 586 1
1069 586 1
1070 586 1
265 587 1
273 587 1
288 587 1
295 587 1
357 587 1
363 587 1
1070 587 1
1071 587 1
266 588 1
274 588 1
289 588 1
296 588 1
358 588 1
364 588 1
1071 588 1
1072 588 1
267 589 1
275 589 1
290 589 1
297 589 1
359 589 1
365 589 1
1072 589 1
1073 589 1
268 590 1
276 590 1
291 590 1
298 590 1
360 590 1
366 590 1
1073 590 1
1074 590 1
254 591 1
269 591 1
292 591 1
299 591 1
361 591 1
367 591 1
1074 591 1
1075 591 1
255 592 1
270 592 1
277 592 1
293 592 1
362 592 1
368 592 1
1075 592 1
1076 592 1
256 593 1
271 593 1
278 593 1
294 593 1
346 593 1
363 593 1
1076 593 1
1077 593 1
257 594 1
272 594 1
279 594 1
295 594 1
347 594 1
364 594 1
1077 594 1
1078 594 1
258 595 1
273 595 1
280 595 1
296 595 1
348 595 1
365 595 1
1078 595 1
1079 595 1
259 596 1
274 596 1
281 596 1
297 596 1
349 596 1
366 596 1
1079 596 1
1080 596 1
260 597 1
275 597 1
282 597 1
298 597 1
350 597 1
367 597 1
1080 597 1
1081 597 1
261 598 1
276 598 1
283 598 1
299 598 1
351 598 1
368 598 1
1059 598 1
1081 598 1
254 599 1
266 599 1
300 599 1
307 599 1
369 599 1
375 599 1
1082 599 1
1083 599 1
255 600 1
267 600 1
301 600 1
308 600 1
370 600 1
376 600 1
1083 600 1
1084 600 1
256 601 1
268 601 1
302 601 1
309 601 1
371 601 1
377 601 1
1084 601 1
1085 601 1
257 602 1
269 602 1
303 602 1
310 602 1
372 602 1
378 602 1
1085 602 1
1086 602 1
258 603 1
270 603 1
304 603 1
311 603 1
373 603 1
379 603 1
1086 603 1
1087 603 1
259 604 1
271 604 1
305 604 1
312 604 1
374 604 1
380 604 1
1087 604 1
1088 604 1
260 605 1
272 605 1
306 605 1
313 605 1
375 605 1
381 605 1
1088 605 1
1089 605 1
261 606 1
273 606 1
307 606 1
314 606 1
376 606 1
382 606 1
1089 606 1
1090 606 1
262 607 1
274 607 1
308 607 1
315 607 1
377 607 1
383 607 1
1090 607 1
1091 607 1
263 608 1
275 608 1
309 608 1
316 608 1
378 608 1
384 608 1
1091 608 1
1092 608 1
264 609 1
276 609 1
310 609 1
317 609 1
379 609 1
385 609 1
1092 609 1
1093 609 1
254 610 1
265 610 1
311 610 1
318 610 1
380 610 1
386 610 1
1093 610 1
1094 610 1
255 611 1
266 611 1
312 611 1
319 611 1
381 611 1
387 611 1
1094 611 1
1095 611 1
256 612 1
267 612 1
313 612 1
320 612 1
382 612 1
388 612 1
1095 612 1
1096 612 1
257 613 1
268 613 1
314 613 1
321 613 1
383 613 1
389 613 1
1096 613 1
1097 613 1
258 614 1
269 614 1
315 614 1
322 614 1
384 614 1
390 614 1
1097 614 1
1098 614 1
259 615 1
270 615 1
300 615 1
316 615 1
385 615 1
391 615 1
1098 615 1
1099 615 1
260 616 1
271 616 1
301 616 1
317 616 1
369 616 1
386 616 1
1099 616 1
1100 616 1
261 617 1
272 617 1
302 617 1
318 617 1
370 617 1
387 617 1
1100 617 1
1101 617 1
262 618 1
273 618 1
303 618 1
319 618 1
371 618 1
388 618 1
1101 618 1
1102 618 1
263 619 1
274 619 1
304 619 1
320 619 1
372 619 1
389 619 1
1102 619 1
1103 619 1
264 620 1
275 620 1
305 620 1
321 620 1
373 620 1
390 620 1
1103 620 1
1104 620 1
265 621 1
276 621 1
306 621 1
322 621 1
374 621 1
391 621 1
1082 621 1
1104 621 1
254 622 1
267 622 1
323 622 1
330 622 1
392 622 1
398 622 1
1105 622 1
1106 622 1
255 623 1
268 623 1
324 623 1
331 623 1
393 623 1
399 623 1
1106 623 1
1107 623 1
256 624 1
269 624 1
325 624 1
332 624 1
394 624 1
400 624 1
1107 624 1
1108 624 1
257 625 1
270 625 1
326 625 1
333 625 1
395 625 1
401 625 1
1108 625 1
1109 625 1
258 626 1
271 626 1
327 626 1
334 626 1
396 626 1
402 626 1
1109 626 1
1110 626 1
259 627 1
272 627 1
328 627 1
335 627 1
397 627 1
403 627 1
1110 627 1
1111 627 1
260 628 1
273 628 1
329 628 1
336 628 1
398 628 1
404 628 1
1111 628 1
1112 628 1
261 629 1
274 629 1
330 629 1
337 629 1
399 629 1
405 629 1
1112 629 1
1113 629 1
262 630 1
275 630 1
331 630 1
338 630 1
400 630 1
406 630 1
1113 630 1
1114 630 1
263 631 1
276 631 1
332 631 1
339 631 1
401 631 1
407 631 1
1114 631 1
1115 631 1
254 632 1
264 632 1
333 632 1
340 632 1
402 632 1
408 632 1
1115 632 1
1116 632 1
255 633 1
265 633 1
334 633 1
341 633 1
403 633 1
409 633 1
1116 633 1
1117 633 1
256 634 1
266 634 1
335 634 1
342 634 1
404 634 1
410 634 1
1117 634 1
1118 634 1
257 635 1
267 635 1
336 635 1
343 635 1
405 635 1
411 635 1
1118 635 1
1119 635 1
258 636 1
268 636 1
337 636 1
344 636 1
406 636 1
412 636 1
1119 636 1
1120 636 1
259 637 1
269 637 1
338 637 1
345 637 1
407 637 1
413 637 1
1120 637 1
1121 637 1
260 638 1
270 638 1
323 638 1
339 638 1
408 638 1
414 638 1
1121 638 1
1122 638 1
261 639 1
271 639 1
324 639 1
340 639 1
392 639 1
409 639 1
1122 639 1
1123 639 1
262 640 1
272 640 1
325 640 1
341 640 1
393 640 1
410 640 1
1123 640 1
1124 640 1
263 641 1
273 641 1
326 641 1
342 641 1
394 641 1
411 641 1
1124 641 1
1125 641 1
264 642 1
274 642 1
327 642 1
343 642 1
395 642 1
412 642 1
1125 642 1
1126 642 1
265 643 1
275 643 1
328 643 1
344 643 1
396 643 1
413 643 1
1126 643 1
1127 643 1
266 644 1
276 644 1
329 644 1
345 644 1
397 644 1
414 644 1
1105 644 1
1127 644 1
277 645 1
289 645 1
300 645 1
308 645 1
415 645 1
421 645 1
1128 645 1
1129 645 1
278 646 1
290 646 1
301 646 1
309 646 1
416 646 1
422 646 1
1129 646 1
1130 646 1
279 647 1
291 647 1
302 647 1
310 647 1
417 647 1
423 647 1
1130 647 1
1131 647 1
280 648 1
292 648 1
303 648 1
311 648 1
418 648 1
424 648 1
1131 648 1
1132 648 1
281 649 1
293 649 1
304 649 1
312 649 1
419 649 1
425 649 1
1132 649 1
1133 649 1
282 650 1
294 650 1
305 650 1
313 650 1
420 650 1
426 650 1
1133 650 1
1134 650 1
283 651 1
295 651 1
306 651 1
314 651 1
421 651 1
427 651 1
1134 651 1
1135 651 1
284 652 1
296 652 1
307 652 1
315 652 1
422 652 1
428 652 1
1135 652 1
1136 652 1
285 653 1
297 653 1
308 653 1
316 653 1
423 653 1
429 653 1
1136 653 1
1137 653 1
286 654 1
298 654 1
309 654 1
317 654 1
424 654 1
430 654 1
1137 654 1
1138 654 1
287 655 1
299 655 1
310 655 1
318 655 1
425 655 1
431 655 1
1138 655 1
1139 655 1
277 656 1
288 656 1
311 656 1
319 656 1
426 656 1
432 656 1
1139 656 1
1140 656 1
278 657 1
289 657 1
312 657 1
320 657 1
427 657 1
433 657 1
1140 657 1
1141 657 1
279 658 1
290 658 1
313 658 1
321 658 1
428 658 1
434 658 1
1141 658 1
1142 658 1
280 659 1
291 659 1
314 659 1
322 659 1
429 659 1
435 659 1
1142 659 1
1143 659 1
281 660 1
292 660 1
300 660 1
315 660 1
430 660 1
436 660 1
1143 660 1
1144 660 1
282 661 1
293 661 1
301 661 1
316 661 1
431 661 1
437 661 1
1144 661 1
1145 661 1
283 662 1
294 662 1
302 662 1
317 662 1
415 662 1
432 662 1
1145 662 1
1146 662 1
284 663 1
295 663 1
303 663 1
318 663 1
416 663 1
433 663 1
1146 663 1
1147 663 1
285 664 1
296 664 1
304 664 1
319 664 1
417 664 1
434 664 1
1147 664 1
1148 664 1
286 665 1
297 665 1
305 665 1
320 665 1
418 665 1
435 665 1
1148 665 1
1149 665 1
287 666 1
298 666 1
306 666 1
321 666 1
419 666 1
436 666 1
1149 666 1
1150 666 1
288 667 1
299 667 1
307 667 1
322 667 1
420 667 1
437 667 1
1128 667 1
1150 667 1
277 668 1
290 668 1
323 668 1
331 668 1
438 668 1
444 668 1
1151 668 1
1152 668 1
278 669 1
291 669 1
324 669 1
332 669 1
439 669 1
445 669 1
1152 669 1
1153 669 1
279 670 1
292 670 1
325 670 1
333 670 1
440 670 1
446 670 1
1153 670 1
1154 670 1
280 671 1
293 671 1
326 671 1
334 671 1
441 671 1
447 671 1
1154 671 1
1155 671 1
281 672 1
294 672 1
327 672 1
335 672 1
442 672 1
448 672 1
1155 672 1
1156 672 1
282 673 1
295 673 1
328 673 1
336 673 1
443 673 1
449 673 1
1156 673 1
1157 673 1
283 674 1
296 674 1
329 674 1
337 674 1
444 674 1
450 674 1
1157 674 1
1158 674 1
284 675 1
297 675 1
330 675 1
338 675 1
445 675 1
451 675 1
1158 675 1
1159 675 1
285 676 1
298 676 1
331 676 1
339 676 1
446 676 1
452 676 1
1159 676 1
1160 676 1
286 677 1
299 677 1
332 677 1
340 677 1
447 677 1
453 677 1
1160 677 1
1161 677 1
277 678 1
287 678 1
333 678 1
341 678 1
448 678 1
454 678 1
1161 678 1
1162 678 1
278 679 1
288 679 1
334 679 1
342 679 1
449 679 1
455 679 1
1162 679 1
1163 679 1
279 680 1
289 680 1
335 680 1
343 680 1
450 680 1
456 680 1
1163 680 1
1164 680 1
280 681 1
290 681 1
336 681 1
344 681 1
451 681 1
457 681 1
1164 681 1
1165 681 1
281 682 1
291 682 1
337 682 1
345 682 1
452 682 1
458 682 1
1165 682 1
1166 682 1
282 683 1
292 683 1
323 683 1
338 683 1
453 683 1
459 683 1
1166 683 1
1167 683 1
283 684 1
293 684 1
324 684 1
339 684 1
454 684 1
460 684 1
1167 684 1
1168 684 1
284 685 1
294 685 1
325 685 1
340 685 1
438 685 1
455 685 1
1168 685 1
1169 685 1
285 686 1
295 686 1
326 686 1
341 686 1
439 686 1
456 686 1
1169 686 1
1170 686 1
286 687 1
296 687 1
327 687 1
342 687 1
440 687 1
457 687 1
1170 687 1
1171 687 1
287 688 1
297 688 1
328 688 1
343 688 1
441 688 1
458 688 1
1171 688 1
1172 688 1
288 689 1
298 689 1
329 689 1
344 689 1
442 689 1
459 689 1
1172 689 1
1173 689 1
289 690 1
299 690 1
330 690 1
345 690 1
443 690 1
460 690 1
1151 690 1
1173 690 1
300 691 1
313 691 1
323 691 1
335 691 1
461 691 1
467 691 1
1174 691 1
1175 691 1
301 692 1
314 692 1
324 692 1
336 692 1
462 692 1
468 692 1
1175 692 1
1176 692 1
302 693 1
315 693 1
325 693 1
337 693 1
463 693 1
469 693 1
1176 693 1
1177 693 1
303 694 1
316 694 1
326 694 1
338 694 1
464 694 1
470 694 1
1177 694 1
1178 694 1
304 695 1
317 695 1
327 695 1
339 695 1
465 695 1
471 695 1
1178 695 1
1179 695 1
305 696 1
318 696 1
328 696 1
340 696 1
466 696 1
472 696 1
1179 696 1
1180 696 1
306 697 1
319 697 1
329 697 1
341 697 1
467 697 1
473 697 1
1180 697 1
1181 697 1
307 698 1
320 698 1
330 698 1
342 698 1
468 698 1
474 698 1
1181 698 1
1182 698 1
308 699 1
321 699 1
331 699 1
343 699 1
469 699 1
475 699 1
1182 699 1
1183 699 1
309 700 1
322 700 1
332 700 1
344 700 1
470 700 1
476 700 1
1183 700 1
1184 700 1
300 701 1
310 701 1
333 701 1
345 701 1
471 701 1
477 701 1
1184 701 1
1185 701 1
301 702 1
311 702 1
323 702 1
334 702 1
472 702 1
478 702 1
1185 702 1
1186 702 1
302 703 1
312 703 1
324 703 1
335 703 1
473 703 1
479 703 1
1186 703 1
1187 703 1
303 704 1
313 704 1
325 704 1
336 704 1
474 704 1
480 704 1
1187 704 1
1188 704 1
304 705 1
314 705 1
326 705 1
337 705 1
475 705 1
481 705 1
1188 705 1
1189 705 1
305 706 1
315 706 1
327 706 1
338 706 1
476 706 1
482 706 1
1189 706 1
1190 706 1
306 707 1
316 707 1
328 707 1
339 707 1
477 707 1
483 707 1
1190 707 1
1191 707 1
307 708 1
317 708 1
329 708 1
340 708 1
461 708 1
478 708 1
1191 708 1
1192 708 1
308 709 1
318 709 1
330 709 1
341 709 1
462 709 1
479 709 1
1192 709 1
1193 709 1
309 710 1
319 710 1
331 710 1
342 710 1
463 710 1
480 710 1
1193 710 1
1194 710 1
310 711 1
320 711 1
332 711 1
343 711 1
464 711 1
481 711 1
1194 711 1
1195 711 1
311 712 1
321 712 1
333 712 1
344 712 1
465 712 1
482 712 1
1195 712 1
1196 712 1
312 713 1
322 713 1
334 713 1
345 713 1
466 713 1
483 713 1
1174 713 1
1196 713 1
346 714 1
358 714 1
369 714 1
377 714 1
415 714 1
422 714 1
1197 714 1
1198 714 1
347 715 1
359 715 1
370 715 1
378 715 1
416 715 1
423 715 1
1198 715 1
1199 715 1
348 716 1
360 716 1
371 716 1
379 716 1
417 716 1
424 716 1
1199 716 1
1200 716 1
349 717 1
361 717 1
372 717 1
380 717 1
418 717 1
425 717 1
1200 717 1
1201 717 1
350 718 1
362 718 1
373 718 1
381 718 1
419 718 1
426 718 1
1201 718 1
1202 718 1
351 719 1
363 719 1
374 719 1
382 719 1
420 719 1
427 719 1
1202 719 1
1203 719 1
352 720 1
364 720 1
375 720 1
383 720 1
421 720 1
428 720 1
1203 720 1
1204 720 1
353 721 1
365 721 1
376 721 1
384 721 1
422 721 1
429 721 1
1204 721 1
1205 721 1
354 722 1
366 722 1
377 722 1
385 722 1
423 722 1
430 722 1
1205 722 1
1206 722 1
355 723 1
367 723 1
378 723 1
386 723 1
424 723 1
431 723 1
1206 723 1
1207 723 1
356 724 1
368 724 1
379 724 1
387 724 1
425 724 1
432 724 1
1207 724 1
1208 724 1
346 725 1
357 725 1
380 725 1
388 725 1
426 725 1
433 725 1
1208 725 1
1209 725 1
347 726 1
358 726 1
381 726 1
389 726 1
427 726 1
434 726 1
1209 726 1
1210 726 1
348 727 1
359 727 1
382 727 1
390 727 1
428 727 1
435 727 1
1210 727 1
1211 727 1
349 728 1
360 728 1
383 728 1
391 728 1
429 728 1
436 728 1
1211 728 1
1212 728 1
350 729 1
361 729 1
369 729 1
384 729 1
430 729 1
437 729 1
1212 729 1
1213 729 1
351 730 1
362 730 1
370 730 1
385 730 1
415 730 1
431 730 1
1213 730 1
1214 730 1
352 731 1
363 731 1
371 731 1
386 731 1
416 731 1
432 731 1
1214 731 1
1215 731 1
353 732 1
364 732 1
372 732 1
387 732 1
417 732 1
433 732 1
1215 732 1
1216 732 1
354 733 1
365 733 1
373 733 1
388 733 1
418 733 1
434 733 1
1216 733 1
1217 733 1
355 734 1
366 734 1
374 734 1
389 734 1
419 734 1
435 734 1
1217 734 1
1218 734 1
356 735 1
367 735 1
375 735 1
390 735 1
420 735 1
436 735 1
1218 735 1
1219 735 1
357 736 1
368 736 1
376 736 1
391 736 1
421 736 1
437 736 1
1197 736 1
1219 736 1
346 737 1
359 737 1
392 737 1
400 737 1
438 737 1
445 737 1
1220 737 1
1221 737 1
347 738 1
360 738 1
393 738 1
401 738 1
439 738 1
446 738 1
1221 738 1
1222 738 1
348 739 1
361 739 1
394 739 1
402 739 1
440 739 1
447 739 1
1222 739 1
1223 739 1
349 740 1
362 740 1
395 740 1
403 740 1
441 740 1
448 740 1
1223 740 1
1224 740 1
350 741 1
363 741 1
396 741 1
404 741 1
442 741 1
449 741 1
1224 741 1
1225 741 1
351 742 1
364 742 1
397 742 1
405 742 1
443 742 1
450 742 1
1225 742 1
1226 742 1
352 743 1
365 743 1
398 743 1
406 743 1
444 743 1
451 743 1
1226 743 1
1227 743 1
353 744 1
366 744 1
399 744 1
407 744 1
445 744 1
452 744 1
1227 744 1
1228 744 1
354 745 1
367 745 1
400 745 1
408 745 1
446 745 1
453 745 1
1228 745 1
1229 745 1
355 746 1
368 746 1
401 746 1
409 746 1
447 746 1
454 746 1
1229 746 1
1230 746 1
346 747 1
356 747 1
402 747 1
410 747 1
448 747 1
455 747 1
1230 747 1
1231 747 1
347 748 1
357 748 1
403 748 1
411 748 1
449 748 1
456 748 1
1231 748 1
1232 748 1
348 749 1
358 749 1
404 749 1
412 749 1
450 749 1
457 749 1
1232 749 1
1233 749 1
349 750 1
359 750 1
405 750 1
413 750 1
451 750 1
458 750 1
1233 750 1
1234 750 1
350 751 1
360 751 1
406 751 1
414 751 1
452 751 1
459 751 1
1234 751 1
1235 751 1
351 752 1
361 752 1
392 752 1
407 752 1
453 752 1
460 752 1
1235 752 1
1236 752 1
352 753 1
362 753 1
393 753 1
408 753 1
438 753 1
454 753 1
1236 753 1
1237 753 1
353 754 1
363 754 1
394 754 1
409 754 1
439 754 1
455 754 1
1237 754 1
1238 754 1
354 755 1
364 755 1
395 755 1
410 755 1
440 755 1
456 755 1
1238 755 1
1239 755 1
355 756 1
365 756 1
396 756 1
411 756 1
441 756 1
457 756 1
1239 756 1
1240 756 1
356 757 1
366 757 1
397 757 1
412 757 1
442 757 1
458 757 1
1240 757 1
1241 757 1
357 758 1
367 758 1
398 758 1
413 758 1
443 758 1
459 758 1
1241 758 1
1242 758 1
358 759 1
368 759 1
399 759 1
414 759 1
444 759 1
460 759 1
1220 759 1
1242 759 1
369 760 1
382 760 1
392 760 1
404 760 1
461 760 1
468 760 1
1243 760 1
1244 760 1
370 761 1
383 761 1
393 761 1
405 761 1
462 761 1
469 761 1
1244 761 1
1245 761 1
371 762 1
384 762 1
394 762 1
406 762 1
463 762 1
470 762 1
1245 762 1
1246 762 1
372 763 1
385 763 1
395 763 1
407 763 1
464 763 1
471 763 1
1246 763 1
1247 763 1
373 764 1
386 764 1
396 764 1
408 764 1
465 764 1
472 764 1
1247 764 1
1248 764 1
374 765 1
387 765 1
397 765 1
409 765 1
466 765 1
473 765 1
1248 765 1
1249 765 1
375 766 1
388 766 1
398 766 1
410 766 1
467 766 1
474 766 1
1249 766 1
1250 766 1
376 767 1
389 767 1
399 767 1
411 767 1
468 767 1
475 767 1
1250 767 1
1251 767 1
377 768 1
390 768 1
400 768 1
412 768 1
469 768 1
476 768 1
1251 768 1
1252 768 1
378 769 1
391 769 1
401 769 1
413 769 1
470 769 1
477 769 1
1252 769 1
1253 769 1
369 770 1
379 770 1
402 770 1
414 770 1
471 770 1
478 770 1
1253 770 1
1254 770 1
370 771 1
380 771 1
392 771 1
403 771 1
472 771 1
479 771 1
1254 771 1
1255 771 1
371 772 1
381 772 1
393 772 1
404 772 1
473 772 1
480 772 1
1255 772 1
1256 772 1
372 773 1
382 773 1
394 773 1
405 773 1
474 773 1
481 773 1
1256 773 1
1257 773 1
373 774 1
383 774 1
395 774 1
406 774 1
475 774 1
482 774 1
1257 774 1
1258 774 1
374 775 1
384 775 1
396 775 1
407 775 1
476 775 1
483 775 1
1258 775 1
1259 775 1
375 776 1
385 776 1
397 776 1
408 776 1
461 776 1
477 776 1
1259 776 1
1260 776 1
376 777 1
386 777 1
398 777 1
409 777 1
462 777 1
478 777 1
1260 777 1
1261 777 1
377 778 1
387 778 1
399 778 1
410 778 1
463 778 1
479 778 1
1261 778 1
1262 778 1
378 779 1
388 779 1
400 779 1
411 779 1
464 779 1
480 779 1
1262 779 1
1263 779 1
379 780 1
389 780 1
401 780 1
412 780 1
465 780 1
481 780 1
1263 780 1
1264 780 1
380 781 1
390 781 1
402 781 1
413 781 1
466 781 1
482 781 1
1264 781 1
1265 781 1
381 782 1
391 782 1
403 782 1
414 782 1
467 782 1
483 782 1
1243 782 1
1265 782 1
415 783 1
428 783 1
438 783 1
450 783 1
461 783 1
469 783 1
1266 783 1
1267 783 1
416 784 1
429 784 1
439 784 1
451 784 1
462 784 1
470 784 1
1267 784 1
1268 784 1
417 785 1
430 785 1
440 785 1
452 785 1
463 785 1
471 785 1
1268 785 1
1269 785 1
418 786 1
431 786 1
441 786 1
453 786 1
464 786 1
472 786 1
1269 786 1
1270 786 1
419 787 1
432 787 1
442 787 1
454 787 1
465 787 1
473 787 1
1270 787 1
1271 787 1
420 788 1
433 788 1
443 788 1
455 788 1
466 788 1
474 788 1
1271 788 1
1272 788 1
421 789 1
434 789 1
444 789 1
456 789 1
467 789 1
475 789 1
1272 789 1
1273 789 1
422 790 1
435 790 1
445 790 1
457 790 1
468 790 1
476 790 1
1273 790 1
1274 790 1
423 791 1
436 791 1
446 791 1
458 791 1
469 791 1
477 791 1
1274 791 1
1275 791 1
424 792 1
437 792 1
447 792 1
459 792 1
470 792 1
478 792 1
1275 792 1
1276 792 1
415 793 1
425 793 1
448 793 1
460 793 1
471 793 1
479 793 1
1276 793 1
1277 793 1
416 794 1
426 794 1
438 794 1
449 794 1
472 794 1
480 794 1
1277 794 1
1278 794 1
417 795 1
427 795 1
439 795 1
450 795 1
473 795 1
481 795 1
1278 795 1
1279 795 1
418 796 1
428 796 1
440 796 1
451 796 1
474 796 1
482 796 1
1279 796 1
1280 796 1
419 797 1
429 797 1
441 797 1
452 797 1
475 797 1
483 797 1
1280 797 1
1281 797 1
420 798 1
430 798 1
442 798 1
453 798 1
461 798 1
476 798 1
1281 798 1
1282 798 1
421 799 1
431 799 1
443 799 1
454 799 1
462 799 1
477 799 1
1282 799 1
1283 799 1
422 800 1
432 800 1
444 800 1
455 800 1
463 800 1
478 800 1
1283 800 1
1284 800 1
423 801 1
433 801 1
445 801 1
456 801 1
464 801 1
479 801 1
1284 801 1
1285 801 1
424 802 1
434 802 1
446 802 1
457 802 1
465 802 1
480 802 1
1285 802 1
1286 802 1
425 803 1
435 803 1
447 803 1
458 803 1
466 803 1
481 803 1
1286 803 1
1287 803 1
426 804 1
436 804 1
448 804 1
459 804 1
467 804 1
482 804 1
1287 804 1
1288 804 1
427 805 1
437 805 1
449 805 1
460 805 1
468 805 1
483 805 1
1266 805 1
1288 805 1
484 806 1
491 806 1
507 806 1
513 806 1
599 806 1
602 806 1
829 806 1
831 806 1
485 807 1
492 807 1
508 807 1
514 807 1
600 807 1
603 807 1
830 807 1
832 807 1
486 808 1
493 808 1
509 808 1
515 808 1
601 808 1
604 808 1
831 808 1
833 808 1
487 809 1
494 809 1
510 809 1
516 809 1
602 809 1
605 809 1
832 809 1
834 809 1
488 810 1
495 810 1
511 810 1
517 810 1
603 810 1
606 810 1
833 810 1
835 810 1
489 811 1
496 811 1
512 811 1
518 811 1
604 811 1
607 811 1
834 811 1
836 811 1
490 812 1
497 812 1
513 812 1
519 812 1
605 812 1
608 812 1
835 812 1
837 812 1
491 813 1
498 813 1
514 813 1
520 813 1
606 813 1
609 813 1
836 813 1
838 813 1
492 814 1
499 814 1
515 814 1
521 814 1
607 814 1
610 814 1
837 814 1
839 814 1
493 815 1
500 815 1
516 815 1
522 815 1
608 815 1
611 815 1
838 815 1
840 815 1
494 816 1
501 816 1
517 816 1
523 816 1
609 816 1
612 816 1
839 816 1
841 816 1
495 817 1
502 817 1
518 817 1
524 817 1
610 817 1
613 817 1
840 817 1
842 817 1
496 818 1
503 818 1
519 818 1
525 818 1
611 818 1
614 818 1
841 818 1
843 818 1
497 819 1
504 819 1
520 819 1
526 819 1
612 819 1
615 819 1
842 819 1
844 819 1
498 820 1
505 820 1
521 820 1
527 820 1
613 820 1
616 820 1
843 820 1
845 820 1
499 821 1
506 821 1
522 821 1
528 821 1
614 821 1
617 821 1
844 821 1
846 821 1
484 822 1
500 822 1
523 822 1
529 822 1
615 822 1
618 822 1
845 822 1
847 822 1
485 823 1
501 823 1
507 823 1
524 823 1
616 823 1
619 823 1
846 823 1
848 823 1
486 824 1
502 824 1
508 824 1
525 824 1
617 824 1
620 824 1
847 824 1
849 824 1
487 825 1
503 825 1
509 825 1
526 825 1
618 825 1
621 825 1
848 825 1
850 825 1
488 826 1
504 826 1
510 826 1
527 826 1
599 826 1
619 826 1
849 826 1
851 826 1
489 827 1
505 827 1
511 827 1
528 827 1
600 827 1
620 827 1
829 827 1
850 827 1
490 828 1
506 828 1
512 828 1
529 828 1
601 828 1
621 828 1
830 828 1
851 828 1
484 829 1
492 829 1
530 829 1
536 829 1
622 829 1
625 829 1
852 829 1
854 829 1
485 830 1
493 830 1
531 830 1
537 830 1
623 830 1
626 830 1
853 830 1
855 830 1
486 831 1
494 831 1
532 831 1
538 831 1
624 831 1
627 831 1
854 831 1
856 831 1
487 832 1
495 832 1
533 832 1
539 832 1
625 832 1
628 832 1
855 832 1
857 832 1
488 833 1
496 833 1
534 833 1
540 833 1
626 833 1
629 833 1
856 833 1
858 833 1
489 834 1
497 834 1
535 834 1
541 834 1
627 834 1
630 834 1
857 834 1
859 834 1
490 835 1
498 835 1
536 835 1
542 835 1
628 835 1
631 835 1
858 835 1
860 835 1
491 836 1
499 836 1
537 836 1
543 836 1
629 836 1
632 836 1
859 836 1
861 836 1
492 837 1
500 837 1
538 837 1
544 837 1
630 837 1
633 837 1
860 837 1
862 837 1
493 838 1
501 838 1
539 838 1
545 838 1
631 838 1
634 838 1
861 838 1
863 838 1
494 839 1
502 839 1
540 839 1
546 839 1
632 839 1
635 839 1
862 839 1
864 839 1
495 840 1
503 840 1
541 840 1
547 840 1
633 840 1
636 840 1
863 840 1
865 840 1
496 841 1
504 841 1
542 841 1
548 841 1
634 841 1
637 841 1
864 841 1
866 841 1
497 842 1
505 842 1
543 842 1
549 842 1
635 842 1
638 842 1
865 842 1
867 842 1
498 843 1
506 843 1
544 843 1
550 843 1
636 843 1
639 843 1
866 843 1
868 843 1
484 844 1
499 844 1
545 844 1
551 844 1
637 844 1
640 844 1
867 844 1
869 844 1
485 845 1
500 845 1
546 845 1
552 845 1
638 845 1
641 845 1
868 845 1
870 845 1
486 846 1
501 846 1
530 846 1
547 846 1
639 846 1
642 846 1
869 846 1
871 846 1
487 847 1
502 847 1
531 847 1
548 847 1
640 847 1
643 847 1
870 847 1
872 847 1
488 848 1
503 848 1
532 848 1
549 848 1
641 848 1
644 848 1
871 848 1
873 848 1
489 849 1
504 849 1
533 849 1
550 849 1
622 849 1
642 849 1
872 849 1
874 849 1
490 850 1
505 850 1
534 850 1
551 850 1
623 850 1
643 850 1
852 850 1
873 850 1
491 851 1
506 851 1
535 851 1
552 851 1
624 851 1
644 851 1
853 851 1
874 851 1
484 852 1
496 852 1
553 852 1
559 852 1
645 852 1
648 852 1
875 852 1
877 852 1
485 853 1
497 853 1
554 853 1
560 853 1
646 853 1
649 853 1
876 853 1
878 853 1
486 854 1
498 854 1
555 854 1
561 854 1
647 854 1
650 854 1
877 854 1
879 854 1
487 855 1
499 855 1
556 855 1
562 855 1
648 855 1
651 855 1
878 855 1
880 855 1
488 856 1
500 856 1
557 856 1
563 856 1
649 856 1
652 856 1
879 856 1
881 856 1
489 857 1
501 857 1
558 857 1
564 857 1
650 857 1
653 857 1
880 857 1
882 857 1
490 858 1
502 858 1
559 858 1
565 858 1
651 858 1
654 858 1
881 858 1
883 858 1
491 859 1
503 859 1
560 859 1
566 859 1
652 859 1
655 859 1
882 859 1
884 859 1
492 860 1
504 860 1
561 860 1
567 860 1
653 860 1
656 860 1
883 860 1
885 860 1
493 861 1
505 861 1
562 861 1
568 861 1
654 861 1
657 861 1
884 861 1
886 861 1
494 862 1
506 862 1
563 862 1
569 862 1
655 862 1
658 862 1
885 862 1
887 862 1
484 863 1
495 863 1
564 863 1
570 863 1
656 863 1
659 863 1
886 863 1
888 863 1
485 864 1
496 864 1
565 864 1
571 864 1
657 864 1
660 864 1
887 864 1
889 864 1
486 865 1
497 865 1
566 865 1
572 865 1
658 865 1
661 865 1
888 865 1
890 865 1
487 866 1
498 866 1
567 866 1
573 866 1
659 866 1
662 866 1
889 866 1
891 866 1
488 867 1
499 867 1
568 867 1
574 867 1
660 867 1
663 867 1
890 867 1
892 867 1
489 868 1
500 868 1
569 868 1
575 868 1
661 868 1
664 868 1
891 868 1
893 868 1
490 869 1
501 869 1
553 869 1
570 869 1
662 869 1
665 869 1
892 869 1
894 869 1
491 870 1
502 870 1
554 870 1
571 870 1
663 870 1
666 870 1
893 870 1
895 870 1
492 871 1
503 871 1
555 871 1
572 871 1
664 871 1
667 871 1
894 871 1
896 871 1
493 872 1
504 872 1
556 872 1
573 872 1
645 872 1
665 872 1
895 872 1
897 872 1
494 873 1
505 873 1
557 873 1
574 873 1
646 873 1
666 873 1
875 873 1
896 873 1
495 874 1
506 874 1
558 874 1
575 874 1
647 874 1
667 874 1
876 874 1
897 874 1
484 875 1
497 875 1
576 875 1
582 875 1
668 875 1
671 875 1
898 875 1
900 875 1
485 876 1
498 876 1
577 876 1
583 876 1
669 876 1
672 876 1
899 876 1
901 876 1
486 877 1
499 877 1
578 877 1
584 877 1
670 877 1
673 877 1
900 877 1
902 877 1
487 878 1
500 878 1
579 878 1
585 878 1
671 878 1
674 878 1
901 878 1
903 878 1
488 879 1
501 879 1
580 879 1
586 879 1
672 879 1
675 879 1
902 879 1
904 879 1
489 880 1
502 880 1
581 880 1
587 880 1
673 880 1
676 880 1
903 880 1
905 880 1
490 881 1
503 881 1
582 881 1
588 881 1
674 881 1
677 881 1
904 881 1
906 881 1
491 882 1
504 882 1
583 882 1
589 882 1
675 882 1
678 882 1
905 882 1
907 882 1
492 883 1
505 883 1
584 883 1
590 883 1
676 883 1
679 883 1
906 883 1
908 883 1
493 884 1
506 884 1
585 884 1
591 884 1
677 884 1
680 884 1
907 884 1
909 884 1
484 885 1
494 885 1
586 885 1
592 885 1
678 885 1
681 885 1
908 885 1
910 885 1
485 886 1
495 886 1
587 886 1
593 886 1
679 886 1
682 886 1
909 886 1
911 886 1
486 887 1
496 887 1
588 887 1
594 887 1
680 887 1
683 887 1
910 887 1
912 887 1
487 888 1
497 888 1
589 888 1
595 888 1
681 888 1
684 888 1
911 888 1
913 888 1
488 889 1
498 889 1
590 889 1
596 889 1
682 889 1
685 889 1
912 889 1
914 889 1
489 890 1
499 890 1
591 890 1
597 890 1
683 890 1
686 890 1
913 890 1
915 890 1
490 891 1
500 891 1
592 891 1
598 891 1
684 891 1
687 891 1
914 891 1
916 891 1
491 892 1
501 892 1
576 892 1
593 892 1
685 892 1
688 892 1
915 892 1
917 892 1
492 893 1
502 893 1
577 893 1
594 893 1
686 893 1
689 893 1
916 893 1
918 893 1
493 894 1
503 894 1
578 894 1
595 894 1
687 894 1
690 894 1
917 894 1
919 894 1
494 895 1
504 895 1
579 895 1
596 895 1
668 895 1
688 895 1
918 895 1
920 895 1
495 896 1
505 896 1
580 896 1
597 896 1
669 896 1
689 896 1
898 896 1
919 896 1
496 897 1
506 897 1
581 897 1
598 897 1
670 897 1
690 897 1
899 897 1
920 897 1
507 898 1
515 898 1
530 898 1
537 898 1
691 898 1
694 898 1
921 898 1
923 898 1
508 899 1
516 899 1
531 899 1
538 899 1
692 899 1
695 899 1
922 899 1
924 899 1
509 900 1
517 900 1
532 900 1
539 900 1
693 900 1
696 900 1
923 900 1
925 900 1
510 901 1
518 901 1
533 901 1
540 901 1
694 901 1
697 901 1
924 901 1
926 901 1
511 902 1
519 902 1
534 902 1
541 902 1
695 902 1
698 902 1
925 902 1
927 902 1
512 903 1
520 903 1
535 903 1
542 903 1
696 903 1
699 903 1
926 903 1
928 903 1
513 904 1
521 904 1
536 904 1
543 904 1
697 904 1
700 904 1
927 904 1
929 904 1
514 905 1
522 905 1
537 905 1
544 905 1
698 905 1
701 905 1
928 905 1
930 905 1
515 906 1
523 906 1
538 906 1
545 906 1
699 906 1
702 906 1
929 906 1
931 906 1
516 907 1
524 907 1
539 907 1
546 907 1
700 907 1
703 907 1
930 907 1
932 907 1
517 908 1
525 908 1
540 908 1
547 908 1
701 908 1
704 908 1
931 908 1
933 908 1
518 909 1
526 909 1
541 909 1
548 909 1
702 909 1
705 909 1
932 909 1
934 909 1
519 910 1
527 910 1
542 910 1
549 910 1
703 910 1
706 910 1
933 910 1
935 910 1
520 911 1
528 911 1
543 911 1
550 911 1
704 911 1
707 911 1
934 911 1
936 911 1
521 912 1
529 912 1
544 912 1
551 912 1
705 912 1
708 912 1
935 912 1
937 912 1
507 913 1
522 913 1
545 913 1
552 913 1
706 913 1
709 913 1
936 913 1
938 913 1
508 914 1
523 914 1
530 914 1
546 914 1
707 914 1
710 914 1
937 914 1
939 914 1
509 915 1
524 915 1
531 915 1
547 915 1
708 915 1
711 915 1
938 915 1
940 915 1
510 916 1
525 916 1
532 916 1
548 916 1
709 916 1
712 916 1
939 916 1
941 916 1
511 917 1
526 917 1
533 917 1
549 917 1
710 917 1
713 917 1
940 917 1
942 917 1
512 918 1
527 918 1
534 918 1
550 918 1
691 918 1
711 918 1
941 918 1
943 918 1
513 919 1
528 919 1
535 919 1
551 919 1
692 919 1
712 919 1
921 919 1
942 919 1
514 920 1
529 920 1
536 920 1
552 920 1
693 920 1
713 920 1
922 920 1
943 920 1
507 921 1
519 921 1
553 921 1
560 921 1
714 921 1
717 921 1
944 921 1
946 921 1
508 922 1
520 922 1
554 922 1
561 922 1
715 922 1
718 922 1
945 922 1
947 922 1
509 923 1
521 923 1
555 923 1
562 923 1
716 923 1
719 923 1
946 923 1
948 923 1
510 924 1
522 924 1
556 924 1
563 924 1
717 924 1
720 924 1
947 924 1
949 924 1
511 925 1
523 925 1
557 925 1
564 925 1
718 925 1
721 925 1
948 925 1
950 925 1
512 926 1
524 926 1
558 926 1
565 926 1
719 926 1
722 926 1
949 926 1
951 926 1
513 927 1
525 927 1
559 927 1
566 927 1
720 927 1
723 927 1
950 927 1
952 927 1
514 928 1
526 928 1
560 928 1
567 928 1
721 928 1
724 928 1
951 928 1
953 928 1
515 929 1
527 929 1
561 929 1
568 929 1
722 929 1
725 929 1
952 929 1
954 929 1
516 930 1
528 930 1
562 930 1
569 930 1
723 930 1
726 930 1
953 930 1
955 930 1
517 931 1
529 931 1
563 931 1
570 931 1
724 931 1
727 931 1
954 931 1
956 931 1
507 932 1
518 932 1
564 932 1
571 932 1
725 932 1
728 932 1
955 932 1
957 932 1
508 933 1
519 933 1
565 933 1
572 933 1
726 933 1
729 933 1
956 933 1
958 933 1
509 934 1
520 934 1
566 934 1
573 934 1
727 934 1
730 934 1
957 934 1
959 934 1
510 935 1
521 935 1
567 935 1
574 935 1
728 935 1
731 935 1
958 935 1
960 935 1
511 936 1
522 936 1
568 936 1
575 936 1
729 936 1
732 936 1
959 936 1
961 936 1
512 937 1
523 937 1
553 937 1
569 937 1
730 937 1
733 937 1
960 937 1
962 937 1
513 938 1
524 938 1
554 938 1
570 938 1
731 938 1
734 938 1
961 938 1
963 938 1
514 939 1
525 939 1
555 939 1
571 939 1
732 939 1
735 939 1
962 939 1
964 939 1
515 940 1
526 940 1
556 940 1
572 940 1
733 940 1
736 940 1
963 940 1
965 940 1
516 941 1
527 941 1
557 941 1
573 941 1
714 941 1
734 941 1
964 941 1
966 941 1
517 942 1
528 942 1
558 942 1
574 942 1
715 942 1
735 942 1
944 942 1
965 942 1
518 943 1
529 943 1
559 943 1
575 943 1
716 943 1
736 943 1
945 943 1
966 943 1
507 944 1
520 944 1
576 944 1
583 944 1
737 944 1
740 944 1
967 944 1
969 944 1
508 945 1
521 945 1
577 945 1
584 945 1
738 945 1
741 945 1
968 945 1
970 945 1
509 946 1
522 946 1
578 946 1
585 946 1
739 946 1
742 946 1
969 946 1
971 946 1
510 947 1
523 947 1
579 947 1
586 947 1
740 947 1
743 947 1
970 947 1
972 947 1
511 948 1
524 948 1
580 948 1
587 948 1
741 948 1
744 948 1
971 948 1
973 948 1
512 949 1
525 949 1
581 949 1
588 949 1
742 949 1
745 949 1
972 949 1
974 949 1
513 950 1
526 950 1
582 950 1
589 950 1
743 950 1
746 950 1
973 950 1
975 950 1
514 951 1
527 951 1
583 951 1
590 951 1
744 951 1
747 951 1
974 951 1
976 951 1
515 952 1
528 952 1
584 952 1
591 952 1
745 952 1
748 952 1
975 952 1
977 952 1
516 953 1
529 953 1
585 953 1
592 953 1
746 953 1
749 953 1
976 953 1
978 953 1
507 954 1
517 954 1
586 954 1
593 954 1
747 954 1
750 954 1
977 954 1
979 954 1
508 955 1
518 955 1
587 955 1
594 955 1
748 955 1
751 955 1
978 955 1
980 955 1
509 956 1
519 956 1
588 956 1
595 956 1
749 956 1
752 956 1
979 956 1
981 956 1
510 957 1
520 957 1
589 957 1
596 957 1
750 957 1
753 957 1
980 957 1
982 957 1
511 958 1
521 958 1
590 958 1
597 958 1
751 958 1
754 958 1
981 958 1
983 958 1
512 959 1
522 959 1
591 959 1
598 959 1
752 959 1
755 959 1
982 959 1
984 959 1
513 960 1
523 960 1
576 960 1
592 960 1
753 960 1
756 960 1
983 960 1
985 960 1
514 961 1
524 961 1
577 961 1
593 961 1
754 961 1
757 961 1
984 961 1
986 961 1
515 962 1
525 962 1
578 962 1
594 962 1
755 962 1
758 962 1
985 962 1
987 962 1
516 963 1
526 963 1
579 963 1
595 963 1
756 963 1
759 963 1
986 963 1
988 963 1
517 964 1
527 964 1
580 964 1
596 964 1
737 964 1
757 964 1
987 964 1
989 964 1
518 965 1
528 965 1
581 965 1
597 965 1
738 965 1
758 965 1
967 965 1
988 965 1
519 966 1
529 966 1
582 966 1
598 966 1
739 966 1
759 966 1
968 966 1
989 966 1
530 967 1
542 967 1
553 967 1
561 967 1
760 967 1
763 967 1
990 967 1
992 967 1
531 968 1
543 968 1
554 968 1
562 968 1
761 968 1
764 968 1
991 968 1
993 968 1
532 969 1
544 969 1
555 969 1
563 969 1
762 969 1
765 969 1
992 969 1
994 969 1
533 970 1
545 970 1
556 970 1
564 970 1
763 970 1
766 970 1
993 970 1
995 970 1
534 971 1
546 971 1
557 971 1
565 971 1
764 971 1
767 971 1
994 971 1
996 971 1
535 972 1
547 972 1
558 972 1
566 972 1
765 972 1
768 972 1
995 972 1
997 972 1
536 973 1
548 973 1
559 973 1
567 973 1
766 973 1
769 973 1
996 973 1
998 973 1
537 974 1
549 974 1
560 974 1
568 974 1
767 974 1
770 974 1
997 974 1
999 974 1
538 975 1
550 975 1
561 975 1
569 975 1
768 975 1
771 975 1
998 975 1
1000 975 1
539 976 1
551 976 1
562 976 1
570 976 1
769 976 1
772 976 1
999 976 1
1001 976 1
540 977 1
552 977 1
563 977 1
571 977 1
770 977 1
773 977 1
1000 977 1
1002 977 1
530 978 1
541 978 1
564 978 1
572 978 1
771 978 1
774 978 1
1001 978 1
1003 978 1
531 979 1
542 979 1
565 979 1
573 979 1
772 979 1
775 979 1
1002 979 1
1004 979 1
532 980 1
543 980 1
566 980 1
574 980 1
773 980 1
776 980 1
1003 980 1
1005 980 1
533 981 1
544 981 1
567 981 1
575 981 1
774 981 1
777 981 1
1004 981 1
1006 981 1
534 982 1
545 982 1
553 982 1
568 982 1
775 982 1
778 982 1
1005 982 1
1007 982 1
535 983 1
546 983 1
554 983 1
569 983 1
776 983 1
779 983 1
1006 983 1
1008 983 1
536 984 1
547 984 1
555 984 1
570 984 1
777 984 1
780 984 1
1007 984 1
1009 984 1
537 985 1
548 985 1
556 985 1
571 985 1
778 985 1
781 985 1
1008 985 1
1010 985 1
538 986 1
549 986 1
557 986 1
572 986 1
779 986 1
782 986 1
1009 986 1
1011 986 1
539 987 1
550 987 1
558 987 1
573 987 1
760 987 1
780 987 1
1010 987 1
1012 987 1
540 988 1
551 988 1
559 988 1
574 988 1
761 988 1
781 988 1
990 988 1
1011 988 1
541 989 1
552 989 1
560 989 1
575 989 1
762 989 1
782 989 1
991 989 1
1012 989 1
530 990 1
543 990 1
576 990 1
584 990 1
783 990 1
786 990 1
1013 990 1
1015 990 1
531 991 1
544 991 1
577 991 1
585 991 1
784 991 1
787 991 1
1014 991 1
1016 991 1
532 992 1
545 992 1
578 992 1
586 992 1
785 992 1
788 992 1
1015 992 1
1017 992 1
533 993 1
546 993 1
579 993 1
587 993 1
786 993 1
789 993 1
1016 993 1
1018 993 1
534 994 1
547 994 1
580 994 1
588 994 1
787 994 1
790 994 1
1017 994 1
1019 994 1
535 995 1
548 995 1
581 995 1
589 995 1
788 995 1
791 995 1
1018 995 1
1020 995 1
536 996 1
549 996 1
582 996 1
590 996 1
789 996 1
792 996 1
1019 996 1
1021 996 1
537 997 1
550 997 1
583 997 1
591 997 1
790 997 1
793 997 1
1020 997 1
1022 997 1
538 998 1
551 998 1
584 998 1
592 998 1
791 998 1
794 998 1
1021 998 1
1023 998 1
539 999 1
552 999 1
585 999 1
593 999 1
792 999 1
795 999 1
1022 999 1
1024 999 1
530 1000 1
540 1000 1
586 1000 1
594 1000 1
793 1000 1
796 1000 1
1023 1000 1
1025 1000 1
531 1001 1
541 1001 1
587 1001 1
595 1001 1
794 1001 1
797 1001 1
1024 1001 1
1026 1001 1
532 1002 1
542 1002 1
588 1002 1
596 1002 1
795 1002 1
798 1002 1
1025 1002 1
1027 1002 1
533 1003 1
543 1003 1
589 1003 1
597 1003 1
796 1003 1
799 1003 1
1026 1003 1
1028 1003 1
534 1004 1
544 1004 1
590 1004 1
598 1004 1
797 1004 1
800 1004 1
1027 1004 1
1029 1004 1
535 1005 1
545 1005 1
576 1005 1
591 1005 1
798 1005 1
801 1005 1
1028 1005 1
1030 1005 1
536 1006 1
546 1006 1
577 1006 1
592 1006 1
799 1006 1
802 1006 1
1029 1006 1
1031 1006 1
537 1007 1
547 1007 1
578 1007 1
593 1007 1
800 1007 1
803 1007 1
1030 1007 1
1032 1007 1
538 1008 1
548 1008 1
579 1008 1
594 1008 1
801 1008 1
804 1008 1
1031 1008 1
1033 1008 1
539 1009 1
549 1009 1
580 1009 1
595 1009 1
802 1009 1
805 1009 1
1032 1009 1
1034 1009 1
540 1010 1
550 1010 1
581 1010 1
596 1010 1
783 1010 1
803 1010 1
1033 1010 1
1035 1010 1
541 1011 1
551 1011 1
582 1011 1
597 1011 1
784 1011 1
804 1011 1
1013 1011 1
1034 1011 1
542 1012 1
552 1012 1
583 1012 1
598 1012 1
785 1012 1
805 1012 1
1014 1012 1
1035 1012 1
553 1013 1
566 1013 1
576 1013 1
588 1013 1
806 1013 1
809 1013 1
1036 1013 1
1038 1013 1
554 1014 1
567 1014 1
577 1014 1
589 1014 1
807 1014 1
810 1014 1
1037 1014 1
1039 1014 1
555 1015 1
568 1015 1
578 1015 1
590 1015 1
808 1015 1
811 1015 1
1038 1015 1
1040 1015 1
556 1016 1
569 1016 1
579 1016 1
591 1016 1
809 1016 1
812 1016 1
1039 1016 1
1041 1016 1
557 1017 1
570 1017 1
580 1017 1
592 1017 1
810 1017 1
813 1017 1
1040 1017 1
1042 1017 1
558 1018 1
571 1018 1
581 1018 1
593 1018 1
811 1018 1
814 1018 1
1041 1018 1
1043 1018 1
559 1019 1
572 1019 1
582 1019 1
594 1019 1
812 1019 1
815 1019 1
1042 1019 1
1044 1019 1
560 1020 1
573 1020 1
583 1020 1
595 1020 1
813 1020 1
816 1020 1
1043 1020 1
1045 1020 1
561 1021 1
574 1021 1
584 1021 1
596 1021 1
814 1021 1
817 1021 1
1044 1021 1
1046 1021 1
562 1022 1
575 1022 1
585 1022 1
597 1022 1
815 1022 1
818 1022 1
1045 1022 1
1047 1022 1
553 1023 1
563 1023 1
586 1023 1
598 1023 1
816 1023 1
819 1023 1
1046 1023 1
1048 1023 1
554 1024 1
564 1024 1
576 1024 1
587 1024 1
817 1024 1
820 1024 1
1047 1024 1
1049 1024 1
555 1025 1
565 1025 1
577 1025 1
588 1025 1
818 1025 1
821 1025 1
1048 1025 1
1050 1025 1
556 1026 1
566 1026 1
578 1026 1
589 1026 1
819 1026 1
822 1026 1
1049 1026 1
1051 1026 1
557 1027 1
567 1027 1
579 1027 1
590 1027 1
820 1027 1
823 1027 1
1050 1027 1
1052 1027 1
558 1028 1
568 1028 1
580 1028 1
591 1028 1
821 1028 1
824 1028 1
1051 1028 1
1053 1028 1
559 1029 1
569 1029 1
581 1029 1
592 1029 1
822 1029 1
825 1029 1
1052 1029 1
1054 1029 1
560 1030 1
570 1030 1
582 1030 1
593 1030 1
823 1030 1
826 1030 1
1053 1030 1
1055 1030 1
561 1031 1
571 1031 1
583 1031 1
594 1031 1
824 1031 1
827 1031 1
1054 1031 1
1056 1031 1
562 1032 1
572 1032 1
584 1032 1
595 1032 1
825 1032 1
828 1032 1
1055 1032 1
1057 1032 1
563 1033 1
573 1033 1
585 1033 1
596 1033 1
806 1033 1
826 1033 1
1056 1033 1
1058 1033 1
564 1034 1
574 1034 1
586 1034 1
597 1034 1
807 1034 1
827 1034 1
1036 1034 1
1057 1034 1
565 1035 1
575 1035 1
587 1035 1
598 1035 1
808 1035 1
828 1035 1
1037 1035 1
1058 1035 1
599 1036 1
607 1036 1
622 1036 1
629 1036 1
691 1036 1
697 1036 1
1059 1036 1
1061 1036 1
600 1037 1
608 1037 1
623 1037 1
630 1037 1
692 1037 1
698 1037 1
1060 1037 1
1062 1037 1
601 1038 1
609 1038 1
624 1038 1
631 1038 1
693 1038 1
699 1038 1
1061 1038 1
1063 1038 1
602 1039 1
610 1039 1
625 1039 1
632 1039 1
694 1039 1
700 1039 1
1062 1039 1
1064 1039 1
603 1040 1
611 1040 1
626 1040 1
633 1040 1
695 1040 1
701 1040 1
1063 1040 1
1065 1040 1
604 1041 1
612 1041 1
627 1041 1
634 1041 1
696 1041 1
702 1041 1
1064 1041 1
1066 1041 1
605 1042 1
613 1042 1
628 1042 1
635 1042 1
697 1042 1
703 1042 1
1065 1042 1
1067 1042 1
606 1043 1
614 1043 1
629 1043 1
636 1043 1
698 1043 1
704 1043 1
1066 1043 1
1068 1043 1
607 1044 1
615 1044 1
630 1044 1
637 1044 1
699 1044 1
705 1044 1
1067 1044 1
1069 1044 1
608 1045 1
616 1045 1
631 1045 1
638 1045 1
700 1045 1
706 1045 1
1068 1045 1
1070 1045 1
609 1046 1
617 1046 1
632 1046 1
639 1046 1
701 1046 1
707 1046 1
1069 1046 1
1071 1046 1
610 1047 1
618 1047 1
633 1047 1
640 1047 1
702 1047 1
708 1047 1
1070 1047 1
1072 1047 1
611 1048 1
619 1048 1
634 1048 1
641 1048 1
703 1048 1
709 1048 1
1071 1048 1
1073 1048 1
612 1049 1
620 1049 1
635 1049 1
642 1049 1
704 1049 1
710 1049 1
1072 1049 1
1074 1049 1
613 1050 1
621 1050 1
636 1050 1
643 1050 1
705 1050 1
711 1050 1
1073 1050 1
1075 1050 1
599 1051 1
614 1051 1
637 1051 1
644 1051 1
706 1051 1
712 1051 1
1074 1051 1
1076 1051 1
600 1052 1
615 1052 1
622 1052 1
638 1052 1
707 1052 1
713 1052 1
1075 1052 1
1077 1052 1
601 1053 1
616 1053 1
623 1053 1
639 1053 1
691 1053 1
708 1053 1
1076 1053 1
1078 1053 1
602 1054 1
617 1054 1
624 1054 1
640 1054 1
692 1054 1
709 1054 1
1077 1054 1
1079 1054 1
603 1055 1
618 1055 1
625 1055 1
641 1055 1
693 1055 1
710 1055 1
1078 1055 1
1080 1055 1
604 1056 1
619 1056 1
626 1056 1
642 1056 1
694 1056 1
711 1056 1
1079 1056 1
1081 1056 1
605 1057 1
620 1057 1
627 1057 1
643 1057 1
695 1057 1
712 1057 1
1059 1057 1
1080 1057 1
606 1058 1
621 1058 1
628 1058 1
644 1058 1
696 1058 1
713 1058 1
1060 1058 1
1081 1058 1
599 1059 1
611 1059 1
645 1059 1
652 1059 1
714 1059 1
720 1059 1
1082 1059 1
1084 1059 1
600 1060 1
612 1060 1
646 1060 1
653 1060 1
715 1060 1
721 1060 1
1083 1060 1
1085 1060 1
601 1061 1
613 1061 1
647 1061 1
654 1061 1
716 1061 1
722 1061 1
1084 1061 1
1086 1061 1
602 1062 1
614 1062 1
648 1062 1
655 1062 1
717 1062 1
723 1062 1
1085 1062 1
1087 1062 1
603 1063 1
615 1063 1
649 1063 1
656 1063 1
718 1063 1
724 1063 1
1086 1063 1
1088 1063 1
604 1064 1
616 1064 1
650 1064 1
657 1064 1
719 1064 1
725 1064 1
1087 1064 1
1089 1064 1
605 1065 1
617 1065 1
651 1065 1
658 1065 1
720 1065 1
726 1065 1
1088 1065 1
1090 1065 1
606 1066 1
618 1066 1
652 1066 1
659 1066 1
721 1066 1
727 1066 1
1089 1066 1
1091 1066 1
607 1067 1
619 1067 1
653 1067 1
660 1067 1
722 1067 1
728 1067 1
1090 1067 1
1092 1067 1
608 1068 1
620 1068 1
654 1068 1
661 1068 1
723 1068 1
729 1068 1
1091 1068 1
1093 1068 1
609 1069 1
621 1069 1
655 1069 1
662 1069 1
724 1069 1
730 1069 1
1092 1069 1
1094 1069 1
599 1070 1
610 1070 1
656 1070 1
663 1070 1
725 1070 1
731 1070 1
1093 1070 1
1095 1070 1
600 1071 1
611 1071 1
657 1071 1
664 1071 1
726 1071 1
732 1071 1
1094 1071 1
1096 1071 1
601 1072 1
612 1072 1
658 1072 1
665 1072 1
727 1072 1
733 1072 1
1095 1072 1
1097 1072 1
602 1073 1
613 1073 1
659 1073 1
666 1073 1
728 1073 1
734 1073 1
1096 1073 1
1098 1073 1
603 1074 1
614 1074 1
660 1074 1
667 1074 1
729 1074 1
735 1074 1
1097 1074 1
1099 1074 1
604 1075 1
615 1075 1
645 1075 1
661 1075 1
730 1075 1
736 1075 1
1098 1075 1
1100 1075 1
605 1076 1
616 1076 1
646 1076 1
662 1076 1
714 1076 1
731 1076 1
1099 1076 1
1101 1076 1
606 1077 1
617 1077 1
647 1077 1
663 1077 1
715 1077 1
732 1077 1
1100 1077 1
1102 1077 1
607 1078 1
618 1078 1
648 1078 1
664 1078 1
716 1078 1
733 1078 1
1101 1078 1
1103 1078 1
608 1079 1
619 1079 1
649 1079 1
665 1079 1
717 1079 1
734 1079 1
1102 1079 1
1104 1079 1
609 1080 1
620 1080 1
650 1080 1
666 1080 1
718 1080 1
735 1080 1
1082 1080 1
1103 1080 1
610 1081 1
621 1081 1
651 1081 1
667 1081 1
719 1081 1
736 1081 1
1083 1081 1
1104 1081 1
599 1082 1
612 1082 1
668 1082 1
675 1082 1
737 1082 1
743 1082 1
1105 1082 1
1107 1082 1
600 1083 1
613 1083 1
669 1083 1
676 1083 1
738 1083 1
744 1083 1
1106 1083 1
1108 1083 1
601 1084 1
614 1084 1
670 1084 1
677 1084 1
739 1084 1
745 1084 1
1107 1084 1
1109 1084 1
602 1085 1
615 1085 1
671 1085 1
678 1085 1
740 1085 1
746 1085 1
1108 1085 1
1110 1085 1
603 1086 1
616 1086 1
672 1086 1
679 1086 1
741 1086 1
747 1086 1
1109 1086 1
1111 1086 1
604 1087 1
617 1087 1
673 1087 1
680 1087 1
742 1087 1
748 1087 1
1110 1087 1
1112 1087 1
605 1088 1
618 1088 1
674 1088 1
681 1088 1
743 1088 1
749 1088 1
1111 1088 1
1113 1088 1
606 1089 1
619 1089 1
675 1089 1
682 1089 1
744 1089 1
750 1089 1
1112 1089 1
1114 1089 1
607 1090 1
620 1090 1
676 1090 1
683 1090 1
745 1090 1
751 1090 1
1113 1090 1
1115 1090 1
608 1091 1
621 1091 1
677 1091 1
684 1091 1
746 1091 1
752 1091 1
1114 1091 1
1116 1091 1
599 1092 1
609 1092 1
678 1092 1
685 1092 1
747 1092 1
753 1092 1
1115 1092 1
1117 1092 1
600 1093 1
610 1093 1
679 1093 1
686 1093 1
748 1093 1
754 1093 1
1116 1093 1
1118 1093 1
601 1094 1
611 1094 1
680 1094 1
687 1094 1
749 1094 1
755 1094 1
1117 1094 1
1119 1094 1
602 1095 1
612 1095 1
681 1095 1
688 1095 1
750 1095 1
756 1095 1
1118 1095 1
1120 1095 1
603 1096 1
613 1096 1
682 1096 1
689 1096 1
751 1096 1
757 1096 1
1119 1096 1
1121 1096 1
604 1097 1
614 1097 1
683 1097 1
690 1097 1
752 1097 1
758 1097 1
1120 1097 1
1122 1097 1
605 1098 1
615 1098 1
668 1098 1
684 1098 1
753 1098 1
759 1098 1
1121 1098 1
1123 1098 1
606 1099 1
616 1099 1
669 1099 1
685 1099 1
737 1099 1
754 1099 1
1122 1099 1
1124 1099 1
607 1100 1
617 1100 1
670 1100 1
686 1100 1
738 1100 1
755 1100 1
1123 1100 1
1125 1100 1
608 1101 1
618 1101 1
671 1101 1
687 1101 1
739 1101 1
756 1101 1
1124 1101 1
1126 1101 1
609 1102 1
619 1102 1
672 1102 1
688 1102 1
740 1102 1
757 1102 1
1125 1102 1
1127 1102 1
610 1103 1
620 1103 1
673 1103 1
689 1103 1
741 1103 1
758 1103 1
1105 1103 1
1126 1103 1
611 1104 1
621 1104 1
674 1104 1
690 1104 1
742 1104 1
759 1104 1
1106 1104 1
1127 1104 1
622 1105 1
634 1105 1
645 1105 1
653 1105 1
760 1105 1
766 1105 1
1128 1105 1
1130 1105 1
623 1106 1
635 1106 1
646 1106 1
654 1106 1
761 1106 1
767 1106 1
1129 1106 1
1131 1106 1
624 1107 1
636 1107 1
647 1107 1
655 1107 1
762 1107 1
768 1107 1
1130 1107 1
1132 1107 1
625 1108 1
637 1108 1
648 1108 1
656 1108 1
763 1108 1
769 1108 1
1131 1108 1
1133 1108 1
626 1109 1
638 1109 1
649 1109 1
657 1109 1
764 1109 1
770 1109 1
1132 1109 1
1134 1109 1
627 1110 1
639 1110 1
650 1110 1
658 1110 1
765 1110 1
771 1110 1
1133 1110 1
1135 1110 1
628 1111 1
640 1111 1
651 1111 1
659 1111 1
766 1111 1
772 1111 1
1134 1111 1
1136 1111 1
629 1112 1
641 1112 1
652 1112 1
660 1112 1
767 1112 1
773 1112 1
1135 1112 1
1137 1112 1
630 1113 1
642 1113 1
653 1113 1
661 1113 1
768 1113 1
774 1113 1
1136 1113 1
1138 1113 1
631 1114 1
643 1114 1
654 1114 1
662 1114 1
769 1114 1
775 1114 1
1137 1114 1
1139 1114 1
632 1115 1
644 1115 1
655 1115 1
663 1115 1
770 1115 1
776 1115 1
1138 1115 1
1140 1115 1
622 1116 1
633 1116 1
656 1116 1
664 1116 1
771 1116 1
777 1116 1
1139 1116 1
1141 1116 1
623 1117 1
634 1117 1
657 1117 1
665 1117 1
772 1117 1
778 1117 1
1140 1117 1
1142 1117 1
624 1118 1
635 1118 1
658 1118 1
666 1118 1
773 1118 1
779 1118 1
1141 1118 1
1143 1118 1
625 1119 1
636 1119 1
659 1119 1
667 1119 1
774 1119 1
780 1119 1
1142 1119 1
1144 1119 1
626 1120 1
637 1120 1
645 1120 1
660 1120 1
775 1120 1
781 1120 1
1143 1120 1
1145 1120 1
627 1121 1
638 1121 1
646 1121 1
661 1121 1
776 1121 1
782 1121 1
1144 1121 1
1146 1121 1
628 1122 1
639 1122 1
647 1122 1
662 1122 1
760 1122 1
777 1122 1
1145 1122 1
1147 1122 1
629 1123 1
640 1123 1
648 1123 1
663 1123 1
761 1123 1
778 1123 1
1146 1123 1
1148 1123 1
630 1124 1
641 1124 1
649 1124 1
664 1124 1
762 1124 1
779 1124 1
1147 1124 1
1149 1124 1
631 1125 1
642 1125 1
650 1125 1
665 1125 1
763 1125 1
780 1125 1
1148 1125 1
1150 1125 1
632 1126 1
643 1126 1
651 1126 1
666 1126 1
764 1126 1
781 1126 1
1128 1126 1
1149 1126 1
633 1127 1
644 1127 1
652 1127 1
667 1127 1
765 1127 1
782 1127 1
1129 1127 1
1150 1127 1
622 1128 1
635 1128 1
668 1128 1
676 1128 1
783 1128 1
789 1128 1
1151 1128 1
1153 1128 1
623 1129 1
636 1129 1
669 1129 1
677 1129 1
784 1129 1
790 1129 1
1152 1129 1
1154 1129 1
624 1130 1
637 1130 1
670 1130 1
678 1130 1
785 1130 1
791 1130 1
1153 1130 1
1155 1130 1
625 1131 1
638 1131 1
671 1131 1
679 1131 1
786 1131 1
792 1131 1
1154 1131 1
1156 1131 1
626 1132 1
639 1132 1
672 1132 1
680 1132 1
787 1132 1
793 1132 1
1155 1132 1
1157 1132 1
627 1133 1
640 1133 1
673 1133 1
681 1133 1
788 1133 1
794 1133 1
1156 1133 1
1158 1133 1
628 1134 1
641 1134 1
674 1134 1
682 1134 1
789 1134 1
795 1134 1
1157 1134 1
1159 1134 1
629 1135 1
642 1135 1
675 1135 1
683 1135 1
790 1135 1
796 1135 1
1158 1135 1
1160 1135 1
630 1136 1
643 1136 1
676 1136 1
684 1136 1
791 1136 1
797 1136 1
1159 1136 1
1161 1136 1
631 1137 1
644 1137 1
677 1137 1
685 1137 1
792 1137 1
798 1137 1
1160 1137 1
1162 1137 1
622 1138 1
632 1138 1
678 1138 1
686 1138 1
793 1138 1
799 1138 1
1161 1138 1
1163 1138 1
623 1139 1
633 1139 1
679 1139 1
687 1139 1
794 1139 1
800 1139 1
1162 1139 1
1164 1139 1
624 1140 1
634 1140 1
680 1140 1
688 1140 1
795 1140 1
801 1140 1
1163 1140 1
1165 1140 1
625 1141 1
635 1141 1
681 1141 1
689 1141 1
796 1141 1
802 1141 1
1164 1141 1
1166 1141 1
626 1142 1
636 1142 1
682 1142 1
690 1142 1
797 1142 1
803 1142 1
1165 1142 1
1167 1142 1
627 1143 1
637 1143 1
668 1143 1
683 1143 1
798 1143 1
804 1143 1
1166 1143 1
1168 1143 1
628 1144 1
638 1144 1
669 1144 1
684 1144 1
799 1144 1
805 1144 1
1167 1144 1
1169 1144 1
629 1145 1
639 1145 1
670 1145 1
685 1145 1
783 1145 1
800 1145 1
1168 1145 1
1170 1145 1
630 1146 1
640 1146 1
671 1146 1
686 1146 1
784 1146 1
801 1146 1
1169 1146 1
1171 1146 1
631 1147 1
641 1147 1
672 1147 1
687 1147 1
785 1147 1
802 1147 1
1170 1147 1
1172 1147 1
632 1148 1
642 1148 1
673 1148 1
688 1148 1
786 1148 1
803 1148 1
1171 1148 1
1173 1148 1
633 1149 1
643 1149 1
674 1149 1
689 1149 1
787 1149 1
804 1149 1
1151 1149 1
1172 1149 1
634 1150 1
644 1150 1
675 1150 1
690 1150 1
788 1150 1
805 1150 1
1152 1150 1
1173 1150 1
645 1151 1
658 1151 1
668 1151 1
680 1151 1
806 1151 1
812 1151 1
1174 1151 1
1176 1151 1
646 1152 1
659 1152 1
669 1152 1
681 1152 1
807 1152 1
813 1152 1
1175 1152 1
1177 1152 1
647 1153 1
660 1153 1
670 1153 1
682 1153 1
808 1153 1
814 1153 1
1176 1153 1
1178 1153 1
648 1154 1
661 1154 1
671 1154 1
683 1154 1
809 1154 1
815 1154 1
1177 1154 1
1179 1154 1
649 1155 1
662 1155 1
672 1155 1
684 1155 1
810 1155 1
816 1155 1
1178 1155 1
1180 1155 1
650 1156 1
663 1156 1
673 1156 1
685 1156 1
811 1156 1
817 1156 1
1179 1156 1
1181 1156 1
651 1157 1
664 1157 1
674 1157 1
686 1157 1
812 1157 1
818 1157 1
1180 1157 1
1182 1157 1
652 1158 1
665 1158 1
675 1158 1
687 1158 1
813 1158 1
819 1158 1
1181 1158 1
1183 1158 1
653 1159 1
666 1159 1
676 1159 1
688 1159 1
814 1159 1
820 1159 1
1182 1159 1
1184 1159 1
654 1160 1
667 1160 1
677 1160 1
689 1160 1
815 1160 1
821 1160 1
1183 1160 1
1185 1160 1
645 1161 1
655 1161 1
678 1161 1
690 1161 1
816 1161 1
822 1161 1
1184 1161 1
1186 1161 1
646 1162 1
656 1162 1
668 1162 1
679 1162 1
817 1162 1
823 1162 1
1185 1162 1
1187 1162 1
647 1163 1
657 1163 1
669 1163 1
680 1163 1
818 1163 1
824 1163 1
1186 1163 1
1188 1163 1
648 1164 1
658 1164 1
670 1164 1
681 1164 1
819 1164 1
825 1164 1
1187 1164 1
1189 1164 1
649 1165 1
659 1165 1
671 1165 1
682 1165 1
820 1165 1
826 1165 1
1188 1165 1
1190 1165 1
650 1166 1
660 1166 1
672 1166 1
683 1166 1
821 1166 1
827 1166 1
1189 1166 1
1191 1166 1
651 1167 1
661 1167 1
673 1167 1
684 1167 1
822 1167 1
828 1167 1
1190 1167 1
1192 1167 1
652 1168 1
662 1168 1
674 1168 1
685 1168 1
806 1168 1
823 1168 1
1191 1168 1
1193 1168 1
653 1169 1
663 1169 1
675 1169 1
686 1169 1
807 1169 1
824 1169 1
1192 1169 1
1194 1169 1
654 1170 1
664 1170 1
676 1170 1
687 1170 1
808 1170 1
825 1170 1
1193 1170 1
1195 1170 1
655 1171 1
665 1171 1
677 1171 1
688 1171 1
809 1171 1
826 1171 1
1194 1171 1
1196 1171 1
656 1172 1
666 1172 1
678 1172 1
689 1172 1
810 1172 1
827 1172 1
1174 1172 1
1195 1172 1
657 1173 1
667 1173 1
679 1173 1
690 1173 1
811 1173 1
828 1173 1
1175 1173 1
1196 1173 1
691 1174 1
703 1174 1
714 1174 1
722 1174 1
760 1174 1
767 1174 1
1197 1174 1
1199 1174 1
692 1175 1
704 1175 1
715 1175 1
723 1175 1
761 1175 1
768 1175 1
1198 1175 1
1200 1175 1
693 1176 1
705 1176 1
716 1176 1
724 1176 1
762 1176 1
769 1176 1
1199 1176 1
1201 1176 1
694 1177 1
706 1177 1
717 1177 1
725 1177 1
763 1177 1
770 1177 1
1200 1177 1
1202 1177 1
695 1178 1
707 1178 1
718 1178 1
726 1178 1
764 1178 1
771 1178 1
1201 1178 1
1203 1178 1
696 1179 1
708 1179 1
719 1179 1
727 1179 1
765 1179 1
772 1179 1
1202 1179 1
1204 1179 1
697 1180 1
709 1180 1
720 1180 1
728 1180 1
766 1180 1
773 1180 1
1203 1180 1
1205 1180 1
698 1181 1
710 1181 1
721 1181 1
729 1181 1
767 1181 1
774 1181 1
1204 1181 1
1206 1181 1
699 1182 1
711 1182 1
722 1182 1
730 1182 1
768 1182 1
775 1182 1
1205 1182 1
1207 1182 1
700 1183 1
712 1183 1
723 1183 1
731 1183 1
769 1183 1
776 1183 1
1206 1183 1
1208 1183 1
701 1184 1
713 1184 1
724 1184 1
732 1184 1
770 1184 1
777 1184 1
1207 1184 1
1209 1184 1
691 1185 1
702 1185 1
725 1185 1
733 1185 1
771 1185 1
778 1185 1
1208 1185 1
1210 1185 1
692 1186 1
703 1186 1
726 1186 1
734 1186 1
772 1186 1
779 1186 1
1209 1186 1
1211 1186 1
693 1187 1
704 1187 1
727 1187 1
735 1187 1
773 1187 1
780 1187 1
1210 1187 1
1212 1187 1
694 1188 1
705 1188 1
728 1188 1
736 1188 1
774 1188 1
781 1188 1
1211 1188 1
1213 1188 1
695 1189 1
706 1189 1
714 1189 1
729 1189 1
775 1189 1
782 1189 1
1212 1189 1
1214 1189 1
696 1190 1
707 1190 1
715 1190 1
730 1190 1
760 1190 1
776 1190 1
1213 1190 1
1215 1190 1
697 1191 1
708 1191 1
716 1191 1
731 1191 1
761 1191 1
777 1191 1
1214 1191 1
1216 1191 1
698 1192 1
709 1192 1
717 1192 1
732 1192 1
762 1192 1
778 1192 1
1215 1192 1
1217 1192 1
699 1193 1
710 1193 1
718 1193 1
733 1193 1
763 1193 1
779 1193 1
1216 1193 1
1218 1193 1
700 1194 1
711 1194 1
719 1194 1
734 1194 1
764 1194 1
780 1194 1
1217 1194 1
1219 1194 1
701 1195 1
712 1195 1
720 1195 1
735 1195 1
765 1195 1
781 1195 1
1197 1195 1
1218 1195 1
702 1196 1
713 1196 1
721 1196 1
736 1196 1
766 1196 1
782 1196 1
1198 1196 1
1219 1196 1
691 1197 1
704 1197 1
737 1197 1
745 1197 1
783 1197 1
790 1197 1
1220 1197 1
1222 1197 1
692 1198 1
705 1198 1
738 1198 1
746 1198 1
784 1198 1
791 1198 1
1221 1198 1
1223 1198 1
693 1199 1
706 1199 1
739 1199 1
747 1199 1
785 1199 1
792 1199 1
1222 1199 1
1224 1199 1
694 1200 1
707 1200 1
740 1200 1
748 1200 1
786 1200 1
793 1200 1
1223 1200 1
1225 1200 1
695 1201 1
708 1201 1
741 1201 1
749 1201 1
787 1201 1
794 1201 1
1224 1201 1
1226 1201 1
696 1202 1
709 1202 1
742 1202 1
750 1202 1
788 1202 1
795 1202 1
1225 1202 1
1227 1202 1
697 1203 1
710 1203 1
743 1203 1
751 1203 1
789 1203 1
796 1203 1
1226 1203 1
1228 1203 1
698 1204 1
711 1204 1
744 1204 1
752 1204 1
790 1204 1
797 1204 1
1227 1204 1
1229 1204 1
699 1205 1
712 1205 1
745 1205 1
753 1205 1
791 1205 1
798 1205 1
1228 1205 1
1230 1205 1
700 1206 1
713 1206 1
746 1206 1
754 1206 1
792 1206 1
799 1206 1
1229 1206 1
1231 1206 1
691 1207 1
701 1207 1
747 1207 1
755 1207 1
793 1207 1
800 1207 1
1230 1207 1
1232 1207 1
692 1208 1
702 1208 1
748 1208 1
756 1208 1
794 1208 1
801 1208 1
1231 1208 1
1233 1208 1
693 1209 1
703 1209 1
749 1209 1
757 1209 1
795 1209 1
802 1209 1
1232 1209 1
1234 1209 1
694 1210 1
704 1210 1
750 1210 1
758 1210 1
796 1210 1
803 1210 1
1233 1210 1
1235 1210 1
695 1211 1
705 1211 1
751 1211 1
759 1211 1
797 1211 1
804 1211 1
1234 1211 1
1236 1211 1
696 1212 1
706 1212 1
737 1212 1
752 1212 1
798 1212 1
805 1212 1
1235 1212 1
1237 1212 1
697 1213 1
707 1213 1
738 1213 1
753 1213 1
783 1213 1
799 1213 1
1236 1213 1
1238 1213 1
698 1214 1
708 1214 1
739 1214 1
754 1214 1
784 1214 1
800 1214 1
1237 1214 1
1239 1214 1
699 1215 1
709 1215 1
740 1215 1
755 1215 1
785 1215 1
801 1215 1
1238 1215 1
1240 1215 1
700 1216 1
710 1216 1
741 1216 1
756 1216 1
786 1216 1
802 1216 1
1239 1216 1
1241 1216 1
701 1217 1
711 1217 1
742 1217 1
757 1217 1
787 1217 1
803 1217 1
1240 1217 1
1242 1217 1
702 1218 1
712 1218 1
743 1218 1
758 1218 1
788 1218 1
804 1218 1
1220 1218 1
1241 1218 1
703 1219 1
713 1219 1
744 1219 1
759 1219 1
789 1219 1
805 1219 1
1221 1219 1
1242 1219 1
714 1220 1
727 1220 1
737 1220 1
749 1220 1
806 1220 1
813 1220 1
1243 1220 1
1245 1220 1
715 1221 1
728 1221 1
738 1221 1
750 1221 1
807 1221 1
814 1221 1
1244 1221 1
1246 1221 1
716 1222 1
729 1222 1
739 1222 1
751 1222 1
808 1222 1
815 1222 1
1245 1222 1
1247 1222 1
717 1223 1
730 1223 1
740 1223 1
752 1223 1
809 1223 1
816 1223 1
1246 1223 1
1248 1223 1
718 1224 1
731 1224 1
741 1224 1
753 1224 1
810 1224 1
817 1224 1
1247 1224 1
1249 1224 1
719 1225 1
732 1225 1
742 1225 1
754 1225 1
811 1225 1
818 1225 1
1248 1225 1
1250 1225 1
720 1226 1
733 1226 1
743 1226 1
755 1226 1
812 1226 1
819 1226 1
1249 1226 1
1251 1226 1
721 1227 1
734 1227 1
744 1227 1
756 1227 1
813 1227 1
820 1227 1
1250 1227 1
1252 1227 1
722 1228 1
735 1228 1
745 1228 1
757 1228 1
814 1228 1
821 1228 1
1251 1228 1
1253 1228 1
723 1229 1
736 1229 1
746 1229 1
758 1229 1
815 1229 1
822 1229 1
1252 1229 1
1254 1229 1
714 1230 1
724 1230 1
747 1230 1
759 1230 1
816 1230 1
823 1230 1
1253 1230 1
1255 1230 1
715 1231 1
725 1231 1
737 1231 1
748 1231 1
817 1231 1
824 1231 1
1254 1231 1
1256 1231 1
716 1232 1
726 1232 1
738 1232 1
749 1232 1
818 1232 1
825 1232 1
1255 1232 1
1257 1232 1
717 1233 1
727 1233 1
739 1233 1
750 1233 1
819 1233 1
826 1233 1
1256 1233 1
1258 1233 1
718 1234 1
728 1234 1
740 1234 1
751 1234 1
820 1234 1
827 1234 1
1257 1234 1
1259 1234 1
719 1235 1
729 1235 1
741 1235 1
752 1235 1
821 1235 1
828 1235 1
1258 1235 1
1260 1235 1
720 1236 1
730 1236 1
742 1236 1
753 1236 1
806 1236 1
822 1236 1
1259 1236 1
1261 1236 1
721 1237 1
731 1237 1
743 1237 1
754 1237 1
807 1237 1
823 1237 1
1260 1237 1
1262 1237 1
722 1238 1
732 1238 1
744 1238 1
755 1238 1
808 1238 1
824 1238 1
1261 1238 1
1263 1238 1
723 1239 1
733 1239 1
745 1239 1
756 1239 1
809 1239 1
825 1239 1
1262 1239 1
1264 1239 1
724 1240 1
734 1240 1
746 1240 1
757 1240 1
810 1240 1
826 1240 1
1263 1240 1
1265 1240 1
725 1241 1
735 1241 1
747 1241 1
758 1241 1
811 1241 1
827 1241 1
1243 1241 1
1264 1241 1
726 1242 1
736 1242 1
748 1242 1
759 1242 1
812 1242 1
828 1242 1
1244 1242 1
1265 1242 1
760 1243 1
773 1243 1
783 1243 1
795 1243 1
806 1243 1
814 1243 1
1266 1243 1
1268 1243 1
761 1244 1
774 1244 1
784 1244 1
796 1244 1
807 1244 1
815 1244 1
1267 1244 1
1269 1244 1
762 1245 1
775 1245 1
785 1245 1
797 1245 1
808 1245 1
816 1245 1
1268 1245 1
1270 1245 1
763 1246 1
776 1246 1
786 1246 1
798 1246 1
809 1246 1
817 1246 1
1269 1246 1
1271 1246 1
764 1247 1
777 1247 1
787 1247 1
799 1247 1
810 1247 1
818 1247 1
1270 1247 1
1272 1247 1
765 1248 1
778 1248 1
788 1248 1
800 1248 1
811 1248 1
819 1248 1
1271 1248 1
1273 1248 1
766 1249 1
779 1249 1
789 1249 1
801 1249 1
812 1249 1
820 1249 1
1272 1249 1
1274 1249 1
767 1250 1
780 1250 1
790 1250 1
802 1250 1
813 1250 1
821 1250 1
1273 1250 1
1275 1250 1
768 1251 1
781 1251 1
791 1251 1
803 1251 1
814 1251 1
822 1251 1
1274 1251 1
1276 1251 1
769 1252 1
782 1252 1
792 1252 1
804 1252 1
815 1252 1
823 1252 1
1275 1252 1
1277 1252 1
760 1253 1
770 1253 1
793 1253 1
805 1253 1
816 1253 1
824 1253 1
1276 1253 1
1278 1253 1
761 1254 1
771 1254 1
783 1254 1
794 1254 1
817 1254 1
825 1254 1
1277 1254 1
1279 1254 1
762 1255 1
772 1255 1
784 1255 1
795 1255 1
818 1255 1
826 1255 1
1278 1255 1
1280 1255 1
763 1256 1
773 1256 1
785 1256 1
796 1256 1
819 1256 1
827 1256 1
1279 1256 1
1281 1256 1
764 1257 1
774 1257 1
786 1257 1
797 1257 1
820 1257 1
828 1257 1
1280 1257 1
1282 1257 1
765 1258 1
775 1258 1
787 1258 1
798 1258 1
806 1258 1
821 1258 1
1281 1258 1
1283 1258 1
766 1259 1
776 1259 1
788 1259 1
799 1259 1
807 1259 1
822 1259 1
1282 1259 1
1284 1259 1
767 1260 1
777 1260 1
789 1260 1
800 1260 1
808 1260 1
823 1260 1
1283 1260 1
1285 1260 1
768 1261 1
778 1261 1
790 1261 1
801 1261 1
809 1261 1
824 1261 1
1284 1261 1
1286 1261 1
769 1262 1
779 1262 1
791 1262 1
802 1262 1
810 1262 1
825 1262 1
1285 1262 1
1287 1262 1
770 1263 1
780 1263 1
792 1263 1
803 1263 1
811 1263 1
826 1263 1
1286 1263 1
1288 1263 1
771 1264 1
781 1264 1
793 1264 1
804 1264 1
812 1264 1
827 1264 1
1266 1264 1
1287 1264 1
772 1265 1
782 1265 1
794 1265 1
805 1265 1
813 1265 1
828 1265 1
1267 1265 1
1288 1265 1
829 1266 1
837 1266 1
852 1266 1
859 1266 1
921 1266 1
927 1266 1
1059 1266 1
1062 1266 1
830 1267 1
838 1267 1
853 1267 1
860 1267 1
922 1267 1
928 1267 1
1060 1267 1
1063 1267 1
831 1268 1
839 1268 1
854 1268 1
861 1268 1
923 1268 1
929 1268 1
1061 1268 1
1064 1268 1
832 1269 1
840 1269 1
855 1269 1
862 1269 1
924 1269 1
930 1269 1
1062 1269 1
1065 1269 1
833 1270 1
841 1270 1
856 1270 1
863 1270 1
925 1270 1
931 1270 1
1063 1270 1
1066 1270 1
834 1271 1
842 1271 1
857 1271 1
864 1271 1
926 1271 1
932 1271 1
1064 1271 1
1067 1271 1
835 1272 1
843 1272 1
858 1272 1
865 1272 1
927 1272 1
933 1272 1
1065 1272 1
1068 1272 1
836 1273 1
844 1273 1
859 1273 1
866 1273 1
928 1273 1
934 1273 1
1066 1273 1
1069 1273 1
837 1274 1
845 1274 1
860 1274 1
867 1274 1
929 1274 1
935 1274 1
1067 1274 1
1070 1274 1
838 1275 1
846 1275 1
861 1275 1
868 1275 1
930 1275 1
936 1275 1
1068 1275 1
1071 1275 1
839 1276 1
847 1276 1
862 1276 1
869 1276 1
931 1276 1
937 1276 1
1069 1276 1
1072 1276 1
840 1277 1
848 1277 1
863 1277 1
870 1277 1
932 1277 1
938 1277 1
1070 1277 1
1073 1277 1
841 1278 1
849 1278 1
864 1278 1
871 1278 1
933 1278 1
939 1278 1
1071 1278 1
1074 1278 1
842 1279 1
850 1279 1
865 1279 1
872 1279 1
934 1279 1
940 1279 1
1072 1279 1
1075 1279 1
843 1280 1
851 1280 1
866 1280 1
873 1280 1
935 1280 1
941 1280 1
1073 1280 1
1076 1280 1
829 1281 1
844 1281 1
867 1281 1
874 1281 1
936 1281 1
942 1281 1
1074 1281 1
1077 1281 1
830 1282 1
845 1282 1
852 1282 1
868 1282 1
937 1282 1
943 1282 1
1075 1282 1
1078 1282 1
831 1283 1
846 1283 1
853 1283 1
869 1283 1
921 1283 1
938 1283 1
1076 1283 1
1079 1283 1
832 1284 1
847 1284 1
854 1284 1
870 1284 1
922 1284 1
939 1284 1
1077 1284 1
1080 1284 1
833 1285 1
848 1285 1
855 1285 1
871 1285 1
923 1285 1
940 1285 1
1078 1285 1
1081 1285 1
834 1286 1
849 1286 1
856 1286 1
872 1286 1
924 1286 1
941 1286 1
1059 1286 1
1079 1286 1
835 1287 1
850 1287 1
857 1287 1
873 1287 1
925 1287 1
942 1287 1
1060 1287 1
1080 1287 1
836 1288 1
851 1288 1
858 1288 1
874 1288 1
926 1288 1
943 1288 1
1061 1288 1
1081 1288 1
829 1289 1
841 1289 1
875 1289 1
882 1289 1
944 1289 1
950 1289 1
1082 1289 1
1085 1289 1
830 1290 1
842 1290 1
876 1290 1
883 1290 1
945 1290 1
951 1290 1
1083 1290 1
1086 1290 1
831 1291 1
843 1291 1
877 1291 1
884 1291 1
946 1291 1
952 1291 1
1084 1291 1
1087 1291 1
832 1292 1
844 1292 1
878 1292 1
885 1292 1
947 1292 1
953 1292 1
1085 1292 1
1088 1292 1
833 1293 1
845 1293 1
879 1293 1
886 1293 1
948 1293 1
954 1293 1
1086 1293 1
1089 1293 1
834 1294 1
846 1294 1
880 1294 1
887 1294 1
949 1294 1
955 1294 1
1087 1294 1
1090 1294 1
835 1295 1
847 1295 1
881 1295 1
888 1295 1
950 1295 1
956 1295 1
1088 1295 1
1091 1295 1
836 1296 1
848 1296 1
882 1296 1
889 1296 1
951 1296 1
957 1296 1
1089 1296 1
1092 1296 1
837 1297 1
849 1297 1
883 1297 1
890 1297 1
952 1297 1
958 1297 1
1090 1297 1
1093 1297 1
838 1298 1
850 1298 1
884 1298 1
891 1298 1
953 1298 1
959 1298 1
1091 1298 1
1094 1298 1
839 1299 1
851 1299 1
885 1299 1
892 1299 1
954 1299 1
960 1299 1
1092 1299 1
1095 1299 1
829 1300 1
840 1300 1
886 1300 1
893 1300 1
955 1300 1
961 1300 1
1093 1300 1
1096 1300 1
830 1301 1
841 1301 1
887 1301 1
894 1301 1
956 1301 1
962 1301 1
1094 1301 1
1097 1301 1
831 1302 1
842 1302 1
888 1302 1
895 1302 1
957 1302 1
963 1302 1
1095 1302 1
1098 1302 1
832 1303 1
843 1303 1
889 1303 1
896 1303 1
958 1303 1
964 1303 1
1096 1303 1
1099 1303 1
833 1304 1
844 1304 1
890 1304 1
897 1304 1
959 1304 1
965 1304 1
1097 1304 1
1100 1304 1
834 1305 1
845 1305 1
875 1305 1
891 1305 1
960 1305 1
966 1305 1
1098 1305 1
1101 1305 1
835 1306 1
846 1306 1
876 1306 1
892 1306 1
944 1306 1
961 1306 1
1099 1306 1
1102 1306 1
836 1307 1
847 1307 1
877 1307 1
893 1307 1
945 1307 1
962 1307 1
1100 1307 1
1103 1307 1
837 1308 1
848 1308 1
878 1308 1
894 1308 1
946 1308 1
963 1308 1
1101 1308 1
1104 1308 1
838 1309 1
849 1309 1
879 1309 1
895 1309 1
947 1309 1
964 1309 1
1082 1309 1
1102 1309 1
839 1310 1
850 1310 1
880 1310 1
896 1310 1
948 1310 1
965 1310 1
1083 1310 1
1103 1310 1
840 1311 1
851 1311 1
881 1311 1
897 1311 1
949 1311 1
966 1311 1
1084 1311 1
1104 1311 1
829 1312 1
842 1312 1
898 1312 1
905 1312 1
967 1312 1
973 1312 1
1105 1312 1
1108 1312 1
830 1313 1
843 1313 1
899 1313 1
906 1313 1
968 1313 1
974 1313 1
1106 1313 1
1109 1313 1
831 1314 1
844 1314 1
900 1314 1
907 1314 1
969 1314 1
975 1314 1
1107 1314 1
1110 1314 1
832 1315 1
845 1315 1
901 1315 1
908 1315 1
970 1315 1
976 1315 1
1108 1315 1
1111 1315 1
833 1316 1
846 1316 1
902 1316 1
909 1316 1
971 1316 1
977 1316 1
1109 1316 1
1112 1316 1
834 1317 1
847 1317 1
903 1317 1
910 1317 1
972 1317 1
978 1317 1
1110 1317 1
1113 1317 1
835 1318 1
848 1318 1
904 1318 1
911 1318 1
973 1318 1
979 1318 1
1111 1318 1
1114 1318 1
836 1319 1
849 1319 1
905 1319 1
912 1319 1
974 1319 1
980 1319 1
1112 1319 1
1115 1319 1
837 1320 1
850 1320 1
906 1320 1
913 1320 1
975 1320 1
981 1320 1
1113 1320 1
1116 1320 1
838 1321 1
851 1321 1
907 1321 1
914 1321 1
976 1321 1
982 1321 1
1114 1321 1
1117 1321 1
829 1322 1
839 1322 1
908 1322 1
915 1322 1
977 1322 1
983 1322 1
1115 1322 1
1118 1322 1
830 1323 1
840 1323 1
909 1323 1
916 1323 1
978 1323 1
984 1323 1
1116 1323 1
1119 1323 1
831 1324 1
841 1324 1
910 1324 1
917 1324 1
979 1324 1
985 1324 1
1117 1324 1
1120 1324 1
832 1325 1
842 1325 1
911 1325 1
918 1325 1
980 1325 1
986 1325 1
1118 1325 1
1121 1325 1
833 1326 1
843 1326 1
912 1326 1
919 1326 1
981 1326 1
987 1326 1
1119 1326 1
1122 1326 1
834 1327 1
844 1327 1
913 1327 1
920 1327 1
982 1327 1
988 1327 1
1120 1327 1
1123 1327 1
835 1328 1
845 1328 1
898 1328 1
914 1328 1
983 1328 1
989 1328 1
1121 1328 1
1124 1328 1
836 1329 1
846 1329 1
899 1329 1
915 1329 1
967 1329 1
984 1329 1
1122 1329 1
1125 1329 1
837 1330 1
847 1330 1
900 1330 1
916 1330 1
968 1330 1
985 1330 1
1123 1330 1
1126 1330 1
838 1331 1
848 1331 1
901 1331 1
917 1331 1
969 1331 1
986 1331 1
1124 1331 1
1127 1331 1
839 1332 1
849 1332 1
902 1332 1
918 1332 1
970 1332 1
987 1332 1
1105 1332 1
1125 1332 1
840 1333 1
850 1333 1
903 1333 1
919 1333 1
971 1333 1
988 1333 1
1106 1333 1
1126 1333 1
841 1334 1
851 1334 1
904 1334 1
920 1334 1
972 1334 1
989 1334 1
1107 1334 1
1127 1334 1
852 1335 1
864 1335 1
875 1335 1
883 1335 1
990 1335 1
996 1335 1
1128 1335 1
1131 1335 1
853 1336 1
865 1336 1
876 1336 1
884 1336 1
991 1336 1
997 1336 1
1129 1336 1
1132 1336 1
854 1337 1
866 1337 1
877 1337 1
885 1337 1
992 1337 1
998 1337 1
1130 1337 1
1133 1337 1
855 1338 1
867 1338 1
878 1338 1
886 1338 1
993 1338 1
999 1338 1
1131 1338 1
1134 1338 1
856 1339 1
868 1339 1
879 1339 1
887 1339 1
994 1339 1
1000 1339 1
1132 1339 1
1135 1339 1
857 1340 1
869 1340 1
880 1340 1
888 1340 1
995 1340 1
1001 1340 1
1133 1340 1
1136 1340 1
858 1341 1
870 1341 1
881 1341 1
889 1341 1
996 1341 1
1002 1341 1
1134 1341 1
1137 1341 1
859 1342 1
871 1342 1
882 1342 1
890 1342 1
997 1342 1
1003 1342 1
1135 1342 1
1138 1342 1
860 1343 1
872 1343 1
883 1343 1
891 1343 1
998 1343 1
1004 1343 1
1136 1343 1
1139 1343 1
861 1344 1
873 1344 1
884 1344 1
892 1344 1
999 1344 1
1005 1344 1
1137 1344 1
1140 1344 1
862 1345 1
874 1345 1
885 1345 1
893 1345 1
1000 1345 1
1006 1345 1
1138 1345 1
1141 1345 1
852 1346 1
863 1346 1
886 1346 1
894 1346 1
1001 1346 1
1007 1346 1
1139 1346 1
1142 1346 1
853 1347 1
864 1347 1
887 1347 1
895 1347 1
1002 1347 1
1008 1347 1
1140 1347 1
1143 1347 1
854 1348 1
865 1348 1
888 1348 1
896 1348 1
1003 1348 1
1009 1348 1
1141 1348 1
1144 1348 1
855 1349 1
866 1349 1
889 1349 1
897 1349 1
1004 1349 1
1010 1349 1
1142 1349 1
1145 1349 1
856 1350 1
867 1350 1
875 1350 1
890 1350 1
1005 1350 1
1011 1350 1
1143 1350 1
1146 1350 1
857 1351 1
868 1351 1
876 1351 1
891 1351 1
1006 1351 1
1012 1351 1
1144 1351 1
1147 1351 1
858 1352 1
869 1352 1
877 1352 1
892 1352 1
990 1352 1
1007 1352 1
1145 1352 1
1148 1352 1
859 1353 1
870 1353 1
878 1353 1
893 1353 1
991 1353 1
1008 1353 1
1146 1353 1
1149 1353 1
860 1354 1
871 1354 1
879 1354 1
894 1354 1
992 1354 1
1009 1354 1
1147 1354 1
1150 1354 1
861 1355 1
872 1355 1
880 1355 1
895 1355 1
993 1355 1
1010 1355 1
1128 1355 1
1148 1355 1
862 1356 1
873 1356 1
881 1356 1
896 1356 1
994 1356 1
1011 1356 1
1129 1356 1
1149 1356 1
863 1357 1
874 1357 1
882 1357 1
897 1357 1
995 1357 1
1012 1357 1
1130 1357 1
1150 1357 1
852 1358 1
865 1358 1
898 1358 1
906 1358 1
1013 1358 1
1019 1358 1
1151 1358 1
1154 1358 1
853 1359 1
866 1359 1
899 1359 1
907 1359 1
1014 1359 1
1020 1359 1
1152 1359 1
1155 1359 1
854 1360 1
867 1360 1
900 1360 1
908 1360 1
1015 1360 1
1021 1360 1
1153 1360 1
1156 1360 1
855 1361 1
868 1361 1
901 1361 1
909 1361 1
1016 1361 1
1022 1361 1
1154 1361 1
1157 1361 1
856 1362 1
869 1362 1
902 1362 1
910 1362 1
1017 1362 1
1023 1362 1
1155 1362 1
1158 1362 1
857 1363 1
870 1363 1
903 1363 1
911 1363 1
1018 1363 1
1024 1363 1
1156 1363 1
1159 1363 1
858 1364 1
871 1364 1
904 1364 1
912 1364 1
1019 1364 1
1025 1364 1
1157 1364 1
1160 1364 1
859 1365 1
872 1365 1
905 1365 1
913 1365 1
1020 1365 1
1026 1365 1
1158 1365 1
1161 1365 1
860 1366 1
873 1366 1
906 1366 1
914 1366 1
1021 1366 1
1027 1366 1
1159 1366 1
1162 1366 1
861 1367 1
874 1367 1
907 1367 1
915 1367 1
1022 1367 1
1028 1367 1
1160 1367 1
1163 1367 1
852 1368 1
862 1368 1
908 1368 1
916 1368 1
1023 1368 1
1029 1368 1
1161 1368 1
1164 1368 1
853 1369 1
863 1369 1
909 1369 1
917 1369 1
1024 1369 1
1030 1369 1
1162 1369 1
1165 1369 1
854 1370 1
864 1370 1
910 1370 1
918 1370 1
1025 1370 1
1031 1370 1
1163 1370 1
1166 1370 1
855 1371 1
865 1371 1
911 1371 1
919 1371 1
1026 1371 1
1032 1371 1
1164 1371 1
1167 1371 1
856 1372 1
866 1372 1
912 1372 1
920 1372 1
1027 1372 1
1033 1372 1
1165 1372 1
1168 1372 1
857 1373 1
867 1373 1
898 1373 1
913 1373 1
1028 1373 1
1034 1373 1
1166 1373 1
1169 1373 1
858 1374 1
868 1374 1
899 1374 1
914 1374 1
1029 1374 1
1035 1374 1
1167 1374 1
1170 1374 1
859 1375 1
869 1375 1
900 1375 1
915 1375 1
1013 1375 1
1030 1375 1
1168 1375 1
1171 1375 1
860 1376 1
870 1376 1
901 1376 1
916 1376 1
1014 1376 1
1031 1376 1
1169 1376 1
1172 1376 1
861 1377 1
871 1377 1
902 1377 1
917 1377 1
1015 1377 1
1032 1377 1
1170 1377 1
1173 1377 1
862 1378 1
872 1378 1
903 1378 1
918 1378 1
1016 1378 1
1033 1378 1
1151 1378 1
1171 1378 1
863 1379 1
873 1379 1
904 1379 1
919 1379 1
1017 1379 1
1034 1379 1
1152 1379 1
1172 1379 1
864 1380 1
874 1380 1
905 1380 1
920 1380 1
1018 1380 1
1035 1380 1
1153 1380 1
1173 1380 1
875 1381 1
888 1381 1
898 1381 1
910 1381 1
1036 1381 1
1042 1381 1
1174 1381 1
1177 1381 1
876 1382 1
889 1382 1
899 1382 1
911 1382 1
1037 1382 1
1043 1382 1
1175 1382 1
1178 1382 1
877 1383 1
890 1383 1
900 1383 1
912 1383 1
1038 1383 1
1044 1383 1
1176 1383 1
1179 1383 1
878 1384 1
891 1384 1
901 1384 1
913 1384 1
1039 1384 1
1045 1384 1
1177 1384 1
1180 1384 1
879 1385 1
892 1385 1
902 1385 1
914 1385 1
1040 1385 1
1046 1385 1
1178 1385 1
1181 1385 1
880 1386 1
893 1386 1
903 1386 1
915 1386 1
1041 1386 1
1047 1386 1
1179 1386 1
1182 1386 1
881 1387 1
894 1387 1
904 1387 1
916 1387 1
1042 1387 1
1048 1387 1
1180 1387 1
1183 1387 1
882 1388 1
895 1388 1
905 1388 1
917 1388 1
1043 1388 1
1049 1388 1
1181 1388 1
1184 1388 1
883 1389 1
896 1389 1
906 1389 1
918 1389 1
1044 1389 1
1050 1389 1
1182 1389 1
1185 1389 1
884 1390 1
897 1390 1
907 1390 1
919 1390 1
1045 1390 1
1051 1390 1
1183 1390 1
1186 1390 1
875 1391 1
885 1391 1
908 1391 1
920 1391 1
1046 1391 1
1052 1391 1
1184 1391 1
1187 1391 1
876 1392 1
886 1392 1
898 1392 1
909 1392 1
1047 1392 1
1053 1392 1
1185 1392 1
1188 1392 1
877 1393 1
887 1393 1
899 1393 1
910 1393 1
1048 1393 1
1054 1393 1
1186 1393 1
1189 1393 1
878 1394 1
888 1394 1
900 1394 1
911 1394 1
1049 1394 1
1055 1394 1
1187 1394 1
1190 1394 1
879 1395 1
889 1395 1
901 1395 1
912 1395 1
1050 1395 1
1056 1395 1
1188 1395 1
1191 1395 1
880 1396 1
890 1396 1
902 1396 1
913 1396 1
1051 1396 1
1057 1396 1
1189 1396 1
1192 1396 1
881 1397 1
891 1397 1
903 1397 1
914 1397 1
1052 1397 1
1058 1397 1
1190 1397 1
1193 1397 1
882 1398 1
892 1398 1
904 1398 1
915 1398 1
1036 1398 1
1053 1398 1
1191 1398 1
1194 1398 1
883 1399 1
893 1399 1
905 1399 1
916 1399 1
1037 1399 1
1054 1399 1
1192 1399 1
1195 1399 1
884 1400 1
894 1400 1
906 1400 1
917 1400 1
1038 1400 1
1055 1400 1
1193 1400 1
1196 1400 1
885 1401 1
895 1401 1
907 1401 1
918 1401 1
1039 1401 1
1056 1401 1
1174 1401 1
1194 1401 1
886 1402 1
896 1402 1
908 1402 1
919 1402 1
1040 1402 1
1057 1402 1
1175 1402 1
1195 1402 1
887 1403 1
897 1403 1
909 1403 1
920 1403 1
1041 1403 1
1058 1403 1
1176 1403 1
1196 1403 1
921 1404 1
933 1404 1
944 1404 1
952 1404 1
990 1404 1
997 1404 1
1197 1404 1
1200 1404 1
922 1405 1
934 1405 1
945 1405 1
953 1405 1
991 1405 1
998 1405 1
1198 1405 1
1201 1405 1
923 1406 1
935 1406 1
946 1406 1
954 1406 1
992 1406 1
999 1406 1
1199 1406 1
1202 1406 1
924 1407 1
936 1407 1
947 1407 1
955 1407 1
993 1407 1
1000 1407 1
1200 1407 1
1203 1407 1
925 1408 1
937 1408 1
948 1408 1
956 1408 1
994 1408 1
1001 1408 1
1201 1408 1
1204 1408 1
926 1409 1
938 1409 1
949 1409 1
957 1409 1
995 1409 1
1002 1409 1
1202 1409 1
1205 1409 1
927 1410 1
939 1410 1
950 1410 1
958 1410 1
996 1410 1
1003 1410 1
1203 1410 1
1206 1410 1
928 1411 1
940 1411 1
951 1411 1
959 1411 1
997 1411 1
1004 1411 1
1204 1411 1
1207 1411 1
929 1412 1
941 1412 1
952 1412 1
960 1412 1
998 1412 1
1005 1412 1
1205 1412 1
1208 1412 1
930 1413 1
942 1413 1
953 1413 1
961 1413 1
999 1413 1
1006 1413 1
1206 1413 1
1209 1413 1
931 1414 1
943 1414 1
954 1414 1
962 1414 1
1000 1414 1
1007 1414 1
1207 1414 1
1210 1414 1
921 1415 1
932 1415 1
955 1415 1
963 1415 1
1001 1415 1
1008 1415 1
1208 1415 1
1211 1415 1
922 1416 1
933 1416 1
956 1416 1
964 1416 1
1002 1416 1
1009 1416 1
1209 1416 1
1212 1416 1
923 1417 1
934 1417 1
957 1417 1
965 1417 1
1003 1417 1
1010 1417 1
1210 1417 1
1213 1417 1
924 1418 1
935 1418 1
958 1418 1
966 1418 1
1004 1418 1
1011 1418 1
1211 1418 1
1214 1418 1
925 1419 1
936 1419 1
944 1419 1
959 1419 1
1005 1419 1
1012 1419 1
1212 1419 1
1215 1419 1
926 1420 1
937 1420 1
945 1420 1
960 1420 1
990 1420 1
1006 1420 1
1213 1420 1
1216 1420 1
927 1421 1
938 1421 1
946 1421 1
961 1421 1
991 1421 1
1007 1421 1
1214 1421 1
1217 1421 1
928 1422 1
939 1422 1
947 1422 1
962 1422 1
992 1422 1
1008 1422 1
1215 1422 1
1218 1422 1
929 1423 1
940 1423 1
948 1423 1
963 1423 1
993 1423 1
1009 1423 1
1216 1423 1
1219 1423 1
930 1424 1
941 1424 1
949 1424 1
964 1424 1
994 1424 1
1010 1424 1
1197 1424 1
1217 1424 1
931 1425 1
942 1425 1
950 1425 1
965 1425 1
995 1425 1
1011 1425 1
1198 1425 1
1218 1425 1
932 1426 1
943 1426 1
951 1426 1
966 1426 1
996 1426 1
1012 1426 1
1199 1426 1
1219 1426 1
921 1427 1
934 1427 1
967 1427 1
975 1427 1
1013 1427 1
1020 1427 1
1220 1427 1
1223 1427 1
922 1428 1
935 1428 1
968 1428 1
976 1428 1
1014 1428 1
1021 1428 1
1221 1428 1
1224 1428 1
923 1429 1
936 1429 1
969 1429 1
977 1429 1
1015 1429 1
1022 1429 1
1222 1429 1
1225 1429 1
924 1430 1
937 1430 1
970 1430 1
978 1430 1
1016 1430 1
1023 1430 1
1223 1430 1
1226 1430 1
925 1431 1
938 1431 1
971 1431 1
979 1431 1
1017 1431 1
1024 1431 1
1224 1431 1
1227 1431 1
926 1432 1
939 1432 1
972 1432 1
980 1432 1
1018 1432 1
1025 1432 1
1225 1432 1
1228 1432 1
927 1433 1
940 1433 1
973 1433 1
981 1433 1
1019 1433 1
1026 1433 1
1226 1433 1
1229 1433 1
928 1434 1
941 1434 1
974 1434 1
982 1434 1
1020 1434 1
1027 1434 1
1227 1434 1
1230 1434 1
929 1435 1
942 1435 1
975 1435 1
983 1435 1
1021 1435 1
1028 1435 1
1228 1435 1
1231 1435 1
930 1436 1
943 1436 1
976 1436 1
984 1436 1
1022 1436 1
1029 1436 1
1229 1436 1
1232 1436 1
921 1437 1
931 1437 1
977 1437 1
985 1437 1
1023 1437 1
1030 1437 1
1230 1437 1
1233 1437 1
922 1438 1
932 1438 1
978 1438 1
986 1438 1
1024 1438 1
1031 1438 1
1231 1438 1
1234 1438 1
923 1439 1
933 1439 1
979 1439 1
987 1439 1
1025 1439 1
1032 1439 1
1232 1439 1
1235 1439 1
924 1440 1
934 1440 1
980 1440 1
988 1440 1
1026 1440 1
1033 1440 1
1233 1440 1
1236 1440 1
925 1441 1
935 1441 1
981 1441 1
989 1441 1
1027 1441 1
1034 1441 1
1234 1441 1
1237 1441 1
926 1442 1
936 1442 1
967 1442 1
982 1442 1
1028 1442 1
1035 1442 1
1235 1442 1
1238 1442 1
927 1443 1
937 1443 1
968 1443 1
983 1443 1
1013 1443 1
1029 1443 1
1236 1443 1
1239 1443 1
928 1444 1
938 1444 1
969 1444 1
984 1444 1
1014 1444 1
1030 1444 1
1237 1444 1
1240 1444 1
929 1445 1
939 1445 1
970 1445 1
985 1445 1
1015 1445 1
1031 1445 1
1238 1445 1
1241 1445 1
930 1446 1
940 1446 1
971 1446 1
986 1446 1
1016 1446 1
1032 1446 1
1239 1446 1
1242 1446 1
931 1447 1
941 1447 1
972 1447 1
987 1447 1
1017 1447 1
1033 1447 1
1220 1447 1
1240 1447 1
932 1448 1
942 1448 1
973 1448 1
988 1448 1
1018 1448 1
1034 1448 1
1221 1448 1
1241 1448 1
933 1449 1
943 1449 1
974 1449 1
989 1449 1
1019 1449 1
1035 1449 1
1222 1449 1
1242 1449 1
944 1450 1
957 1450 1
967 1450 1
979 1450 1
1036 1450 1
1043 1450 1
1243 1450 1
1246 1450 1
945 1451 1
958 1451 1
968 1451 1
980 1451 1
1037 1451 1
1044 1451 1
1244 1451 1
1247 1451 1
946 1452 1
959 1452 1
969 1452 1
981 1452 1
1038 1452 1
1045 1452 1
1245 1452 1
1248 1452 1
947 1453 1
960 1453 1
970 1453 1
982 1453 1
1039 1453 1
1046 1453 1
1246 1453 1
1249 1453 1
948 1454 1
961 1454 1
971 1454 1
983 1454 1
1040 1454 1
1047 1454 1
1247 1454 1
1250 1454 1
949 1455 1
962 1455 1
972 1455 1
984 1455 1
1041 1455 1
1048 1455 1
1248 1455 1
1251 1455 1
950 1456 1
963 1456 1
973 1456 1
985 1456 1
1042 1456 1
1049 1456 1
1249 1456 1
1252 1456 1
951 1457 1
964 1457 1
974 1457 1
986 1457 1
1043 1457 1
1050 1457 1
1250 1457 1
1253 1457 1
952 1458 1
965 1458 1
975 1458 1
987 1458 1
1044 1458 1
1051 1458 1
1251 1458 1
1254 1458 1
953 1459 1
966 1459 1
976 1459 1
988 1459 1
1045 1459 1
1052 1459 1
1252 1459 1
1255 1459 1
944 1460 1
954 1460 1
977 1460 1
989 1460 1
1046 1460 1
1053 1460 1
1253 1460 1
1256 1460 1
945 1461 1
955 1461 1
967 1461 1
978 1461 1
1047 1461 1
1054 1461 1
1254 1461 1
1257 1461 1
946 1462 1
956 1462 1
968 1462 1
979 1462 1
1048 1462 1
1055 1462 1
1255 1462 1
1258 1462 1
947 1463 1
957 1463 1
969 1463 1
980 1463 1
1049 1463 1
1056 1463 1
1256 1463 1
1259 1463 1
948 1464 1
958 1464 1
970 1464 1
981 1464 1
1050 1464 1
1057 1464 1
1257 1464 1
1260 1464 1
949 1465 1
959 1465 1
971 1465 1
982 1465 1
1051 1465 1
1058 1465 1
1258 1465 1
1261 1465 1
950 1466 1
960 1466 1
972 1466 1
983 1466 1
1036 1466 1
1052 1466 1
1259 1466 1
1262 1466 1
951 1467 1
961 1467 1
973 1467 1
984 1467 1
1037 1467 1
1053 1467 1
1260 1467 1
1263 1467 1
952 1468 1
962 1468 1
974 1468 1
985 1468 1
1038 1468 1
1054 1468 1
1261 1468 1
1264 1468 1
953 1469 1
963 1469 1
975 1469 1
986 1469 1
1039 1469 1
1055 1469 1
1262 1469 1
1265 1469 1
954 1470 1
964 1470 1
976 1470 1
987 1470 1
1040 1470 1
1056 1470 1
1243 1470 1
1263 1470 1
955 1471 1
965 1471 1
977 1471 1
988 1471 1
1041 1471 1
1057 1471 1
1244 1471 1
1264 1471 1
956 1472 1
966 1472 1
978 1472 1
989 1472 1
1042 1472 1
1058 1472 1
1245 1472 1
1265 1472 1
990 1473 1
1003 1473 1
1013 1473 1
1025 1473 1
1036 1473 1
1044 1473 1
1266 1473 1
1269 1473 1
991 1474 1
1004 1474 1
1014 1474 1
1026 1474 1
1037 1474 1
1045 1474 1
1267 1474 1
1270 1474 1
992 1475 1
1005 1475 1
1015 1475 1
1027 1475 1
1038 1475 1
1046 1475 1
1268 1475 1
1271 1475 1
993 1476 1
1006 1476 1
1016 1476 1
1028 1476 1
1039 1476 1
1047 1476 1
1269 1476 1
1272 1476 1
994 1477 1
1007 1477 1
1017 1477 1
1029 1477 1
1040 1477 1
1048 1477 1
1270 1477 1
1273 1477 1
995 1478 1
1008 1478 1
1018 1478 1
1030 1478 1
1041 1478 1
1049 1478 1
1271 1478 1
1274 1478 1
996 1479 1
1009 1479 1
1019 1479 1
1031 1479 1
1042 1479 1
1050 1479 1
1272 1479 1
1275 1479 1
997 1480 1
1010 1480 1
1020 1480 1
1032 1480 1
1043 1480 1
1051 1480 1
1273 1480 1
1276 1480 1
998 1481 1
1011 1481 1
1021 1481 1
1033 1481 1
1044 1481 1
1052 1481 1
1274 1481 1
1277 1481 1
999 1482 1
1012 1482 1
1022 1482 1
1034 1482 1
1045 1482 1
1053 1482 1
1275 1482 1
1278 1482 1
990 1483 1
1000 1483 1
1023 1483 1
1035 1483 1
1046 1483 1
1054 1483 1
1276 1483 1
1279 1483 1
991 1484 1
1001 1484 1
1013 1484 1
1024 1484 1
1047 1484 1
1055 1484 1
1277 1484 1
1280 1484 1
992 1485 1
1002 1485 1
1014 1485 1
1025 1485 1
1048 1485 1
1056 1485 1
1278 1485 1
1281 1485 1
993 1486 1
1003 1486 1
1015 1486 1
1026 1486 1
1049 1486 1
1057 1486 1
1279 1486 1
1282 1486 1
994 1487 1
1004 1487 1
1016 1487 1
1027 1487 1
1050 1487 1
1058 1487 1
1280 1487 1
1283 1487 1
995 1488 1
1005 1488 1
1017 1488 1
1028 1488 1
1036 1488 1
1051 1488 1
1281 1488 1
1284 1488 1
996 1489 1
1006 1489 1
1018 1489 1
1029 1489 1
1037 1489 1
1052 1489 1
1282 1489 1
1285 1489 1
997 1490 1
1007 1490 1
1019 1490 1
1030 1490 1
1038 1490 1
1053 1490 1
1283 1490 1
1286 1490 1
998 1491 1
1008 1491 1
1020 1491 1
1031 1491 1
1039 1491 1
1054 1491 1
1284 1491 1
1287 1491 1
999 1492 1
1009 1492 1
1021 1492 1
1032 1492 1
1040 1492 1
1055 1492 1
1285 1492 1
1288 1492 1
1000 1493 1
1010 1493 1
1022 1493 1
1033 1493 1
1041 1493 1
1056 1493 1
1266 1493 1
1286 1493 1
1001 1494 1
1011 1494 1
1023 1494 1
1034 1494 1
1042 1494 1
1057 1494 1
1267 1494 1
1287 1494 1
1002 1495 1
1012 1495 1
1024 1495 1
1035 1495 1
1043 1495 1
1058 1495 1
1268 1495 1
1288 1495 1
1059 1496 1
1071 1496 1
1082 1496 1
1090 1496 1
1128 1496 1
1135 1496 1
1197 1496 1
1203 1496 1
1060 1497 1
1072 1497 1
1083 1497 1
1091 1497 1
1129 1497 1
1136 1497 1
1198 1497 1
1204 1497 1
1061 1498 1
1073 1498 1
1084 1498 1
1092 1498 1
1130 1498 1
1137 1498 1
1199 1498 1
1205 1498 1
1062 1499 1
1074 1499 1
1085 1499 1
1093 1499 1
1131 1499 1
1138 1499 1
1200 1499 1
1206 1499 1
1063 1500 1
1075 1500 1
1086 1500 1
1094 1500 1
1132 1500 1
1139 1500 1
1201 1500 1
1207 1500 1
1064 1501 1
1076 1501 1
1087 1501 1
1095 1501 1
1133 1501 1
1140 1501 1
1202 1501 1
1208 1501 1
1065 1502 1
1077 1502 1
1088 1502 1
1096 1502 1
1134 1502 1
1141 1502 1
1203 1502 1
1209 1502 1
1066 1503 1
1078 1503 1
1089 1503 1
1097 1503 1
1135 1503 1
1142 1503 1
1204 1503 1
1210 1503 1
1067 1504 1
1079 1504 1
1090 1504 1
1098 1504 1
1136 1504 1
1143 1504 1
1205 1504 1
1211 1504 1
1068 1505 1
1080 1505 1
1091 1505 1
1099 1505 1
1137 1505 1
1144 1505 1
1206 1505 1
1212 1505 1
1069 1506 1
1081 1506 1
1092 1506 1
1100 1506 1
1138 1506 1
1145 1506 1
1207 1506 1
1213 1506 1
1059 1507 1
1070 1507 1
1093 1507 1
1101 1507 1
1139 1507 1
1146 1507 1
1208 1507 1
1214 1507 1
1060 1508 1
1071 1508 1
1094 1508 1
1102 1508 1
1140 1508 1
1147 1508 1
1209 1508 1
1215 1508 1
1061 1509 1
1072 1509 1
1095 1509 1
1103 1509 1
1141 1509 1
1148 1509 1
1210 1509 1
1216 1509 1
1062 1510 1
1073 1510 1
1096 1510 1
1104 1510 1
1142 1510 1
1149 1510 1
1211 1510 1
1217 1510 1
1063 1511 1
1074 1511 1
1082 1511 1
1097 1511 1
1143 1511 1
1150 1511 1
1212 1511 1
1218 1511 1
1064 1512 1
1075 1512 1
1083 1512 1
1098 1512 1
1128 1512 1
1144 1512 1
1213 1512 1
1219 1512 1
1065 1513 1
1076 1513 1
1084 1513 1
1099 1513 1
1129 1513 1
1145 1513 1
1197 1513 1
1214 1513 1
1066 1514 1
1077 1514 1
1085 1514 1
1100 1514 1
1130 1514 1
1146 1514 1
1198 1514 1
1215 1514 1
1067 1515 1
1078 1515 1
1086 1515 1
1101 1515 1
1131 1515 1
1147 1515 1
1199 1515 1
1216 1515 1
1068 1516 1
1079 1516 1
1087 1516 1
1102 1516 1
1132 1516 1
1148 1516 1
1200 1516 1
1217 1516 1
1069 1517 1
1080 1517 1
1088 1517 1
1103 1517 1
1133 1517 1
1149 1517 1
1201 1517 1
1218 1517 1
1070 1518 1
1081 1518 1
1089 1518 1
1104 1518 1
1134 1518 1
1150 1518 1
1202 1518 1
1219 1518 1
1059 1519 1
1072 1519 1
1105 1519 1
1113 1519 1
1151 1519 1
1158 1519 1
1220 1519 1
1226 1519 1
1060 1520 1
1073 1520 1
1106 1520 1
1114 1520 1
1152 1520 1
1159 1520 1
1221 1520 1
1227 1520 1
1061 1521 1
1074 1521 1
1107 1521 1
1115 1521 1
1153 1521 1
1160 1521 1
1222 1521 1
1228 1521 1
1062 1522 1
1075 1522 1
1108 1522 1
1116 1522 1
1154 1522 1
1161 1522 1
1223 1522 1
1229 1522 1
1063 1523 1
1076 1523 1
1109 1523 1
1117 1523 1
1155 1523 1
1162 1523 1
1224 1523 1
1230 1523 1
1064 1524 1
1077 1524 1
1110 1524 1
1118 1524 1
1156 1524 1
1163 1524 1
1225 1524 1
1231 1524 1
1065 1525 1
1078 1525 1
1111 1525 1
1119 1525 1
1157 1525 1
1164 1525 1
1226 1525 1
1232 1525 1
1066 1526 1
1079 1526 1
1112 1526 1
1120 1526 1
1158 1526 1
1165 1526 1
1227 1526 1
1233 1526 1
1067 1527 1
1080 1527 1
1113 1527 1
1121 1527 1
1159 1527 1
1166 1527 1
1228 1527 1
1234 1527 1
1068 1528 1
1081 1528 1
1114 1528 1
1122 1528 1
1160 1528 1
1167 1528 1
1229 1528 1
1235 1528 1
1059 1529 1
1069 1529 1
1115 1529 1
1123 1529 1
1161 1529 1
1168 1529 1
1230 1529 1
1236 1529 1
1060 1530 1
1070 1530 1
1116 1530 1
1124 1530 1
1162 1530 1
1169 1530 1
1231 1530 1
1237 1530 1
1061 1531 1
1071 1531 1
1117 1531 1
1125 1531 1
1163 1531 1
1170 1531 1
1232 1531 1
1238 1531 1
1062 1532 1
1072 1532 1
1118 1532 1
1126 1532 1
1164 1532 1
1171 1532 1
1233 1532 1
1239 1532 1
1063 1533 1
1073 1533 1
1119 1533 1
1127 1533 1
1165 1533 1
1172 1533 1
1234 1533 1
1240 1533 1
1064 1534 1
1074 1534 1
1105 1534 1
1120 1534 1
1166 1534 1
1173 1534 1
1235 1534 1
1241 1534 1
1065 1535 1
1075 1535 1
1106 1535 1
1121 1535 1
1151 1535 1
1167 1535 1
1236 1535 1
1242 1535 1
1066 1536 1
1076 1536 1
1107 1536 1
1122 1536 1
1152 1536 1
1168 1536 1
1220 1536 1
1237 1536 1
1067 1537 1
1077 1537 1
1108 1537 1
1123 1537 1
1153 1537 1
1169 1537 1
1221 1537 1
1238 1537 1
1068 1538 1
1078 1538 1
1109 1538 1
1124 1538 1
1154 1538 1
1170 1538 1
1222 1538 1
1239 1538 1
1069 1539 1
1079 1539 1
1110 1539 1
1125 1539 1
1155 1539 1
1171 1539 1
1223 1539 1
1240 1539 1
1070 1540 1
1080 1540 1
1111 1540 1
1126 1540 1
1156 1540 1
1172 1540 1
1224 1540 1
1241 1540 1
1071 1541 1
1081 1541 1
1112 1541 1
1127 1541 1
1157 1541 1
1173 1541 1
1225 1541 1
1242 1541 1
1082 1542 1
1095 1542 1
1105 1542 1
1117 1542 1
1174 1542 1
1181 1542 1
1243 1542 1
1249 1542 1
1083 1543 1
1096 1543 1
1106 1543 1
1118 1543 1
1175 1543 1
1182 1543 1
1244 1543 1
1250 1543 1
1084 1544 1
1097 1544 1
1107 1544 1
1119 1544 1
1176 1544 1
1183 1544 1
1245 1544 1
1251 1544 1
1085 1545 1
1098 1545 1
1108 1545 1
1120 1545 1
1177 1545 1
1184 1545 1
1246 1545 1
1252 1545 1
1086 1546 1
1099 1546 1
1109 1546 1
1121 1546 1
1178 1546 1
1185 1546 1
1247 1546 1
1253 1546 1
1087 1547 1
1100 1547 1
1110 1547 1
1122 1547 1
1179 1547 1
1186 1547 1
1248 1547 1
1254 1547 1
1088 1548 1
1101 1548 1
1111 1548 1
1123 1548 1
1180 1548 1
1187 1548 1
1249 1548 1
1255 1548 1
1089 1549 1
1102 1549 1
1112 1549 1
1124 1549 1
1181 1549 1
1188 1549 1
1250 1549 1
1256 1549 1
1090 1550 1
1103 1550 1
1113 1550 1
1125 1550 1
1182 1550 1
1189 1550 1
1251 1550 1
1257 1550 1
1091 1551 1
1104 1551 1
1114 1551 1
1126 1551 1
1183 1551 1
1190 1551 1
1252 1551 1
1258 1551 1
1082 1552 1
1092 1552 1
1115 1552 1
1127 1552 1
1184 1552 1
1191 1552 1
1253 1552 1
1259 1552 1
1083 1553 1
1093 1553 1
1105 1553 1
1116 1553 1
1185 1553 1
1192 1553 1
1254 1553 1
1260 1553 1
1084 1554 1
1094 1554 1
1106 1554 1
1117 1554 1
1186 1554 1
1193 1554 1
1255 1554 1
1261 1554 1
1085 1555 1
1095 1555 1
1107 1555 1
1118 1555 1
1187 1555 1
1194 1555 1
1256 1555 1
1262 1555 1
1086 1556 1
1096 1556 1
1108 1556 1
1119 1556 1
1188 1556 1
1195 1556 1
1257 1556 1
1263 1556 1
1087 1557 1
1097 1557 1
1109 1557 1
1120 1557 1
1189 1557 1
1196 1557 1
1258 1557 1
1264 1557 1
1088 1558 1
1098 1558 1
1110 1558 1
1121 1558 1
1174 1558 1
1190 1558 1
1259 1558 1
1265 1558 1
1089 1559 1
1099 1559 1
1111 1559 1
1122 1559 1
1175 1559 1
1191 1559 1
1243 1559 1
1260 1559 1
1090 1560 1
1100 1560 1
1112 1560 1
1123 1560 1
1176 1560 1
1192 1560 1
1244 1560 1
1261 1560 1
1091 1561 1
1101 1561 1
1113 1561 1
1124 1561 1
1177 1561 1
1193 1561 1
1245 1561 1
1262 1561 1
1092 1562 1
1102 1562 1
1114 1562 1
1125 1562 1
1178 1562 1
1194 1562 1
1246 1562 1
1263 1562 1
1093 1563 1
1103 1563 1
1115 1563 1
1126 1563 1
1179 1563 1
1195 1563 1
1247 1563 1
1264 1563 1
1094 1564 1
1104 1564 1
1116 1564 1
1127 1564 1
1180 1564 1
1196 1564 1
1248 1564 1
1265 1564 1
1128 1565 1
1141 1565 1
1151 1565 1
1163 1565 1
1174 1565 1
1182 1565 1
1266 1565 1
1272 1565 1
1129 1566 1
1142 1566 1
1152 1566 1
1164 1566 1
1175 1566 1
1183 1566 1
1267 1566 1
1273 1566 1
1130 1567 1
1143 1567 1
1153 1567 1
1165 1567 1
1176 1567 1
1184 1567 1
1268 1567 1
1274 1567 1
1131 1568 1
1144 1568 1
1154 1568 1
1166 1568 1
1177 1568 1
1185 1568 1
1269 1568 1
1275 1568 1
1132 1569 1
1145 1569 1
1155 1569 1
1167 1569 1
1178 1569 1
1186 1569 1
1270 1569 1
1276 1569 1
1133 1570 1
1146 1570 1
1156 1570 1
1168 1570 1
1179 1570 1
1187 1570 1
1271 1570 1
1277 1570 1
1134 1571 1
1147 1571 1
1157 1571 1
1169 1571 1
1180 1571 1
1188 1571 1
1272 1571 1
1278 1571 1
1135 1572 1
1148 1572 1
1158 1572 1
1170 1572 1
1181 1572 1
1189 1572 1
1273 1572 1
1279 1572 1
1136 1573 1
1149 1573 1
1159 1573 1
1171 1573 1
1182 1573 1
1190 1573 1
1274 1573 1
1280 1573 1
1137 1574 1
1150 1574 1
1160 1574 1
1172 1574 1
1183 1574 1
1191 1574 1
1275 1574 1
1281 1574 1
1128 1575 1
1138 1575 1
1161 1575 1
1173 1575 1
1184 1575 1
1192 1575 1
1276 1575 1
1282 1575 1
1129 1576 1
1139 1576 1
1151 1576 1
1162 1576 1
1185 1576 1
1193 1576 1
1277 1576 1
1283 1576 1
1130 1577 1
1140 1577 1
1152 1577 1
1163 1577 1
1186 1577 1
1194 1577 1
1278 1577 1
1284 1577 1
1131 1578 1
1141 1578 1
1153 1578 1
1164 1578 1
1187 1578 1
1195 1578 1
1279 1578 1
1285 1578 1
1132 1579 1
1142 1579 1
1154 1579 1
1165 1579 1
1188 1579 1
1196 1579 1
1280 1579 1
1286 1579 1
1133 1580 1
1143 1580 1
1155 1580 1
1166 1580 1
1174 1580 1
1189 1580 1
1281 1580 1
1287 1580 1
1134 1581 1
1144 1581 1
1156 1581 1
1167 1581 1
1175 1581 1
1190 1581 1
1282 1581 1
1288 1581 1
1135 1582 1
1145 1582 1
1157 1582 1
1168 1582 1
1176 1582 1
1191 1582 1
1266 1582 1
1283 1582 1
1136 1583 1
1146 1583 1
1158 1583 1
1169 1583 1
1177 1583 1
1192 1583 1
1267 1583 1
1284 1583 1
1137 1584 1
1147 1584 1
1159 1584 1
1170 1584 1
1178 1584 1
1193 1584 1
1268 1584 1
1285 1584 1
1138 1585 1
1148 1585 1
1160 1585 1
1171 1585 1
1179 1585 1
1194 1585 1
1269 1585 1
1286 1585 1
1139 1586 1
1149 1586 1
1161 1586 1
1172 1586 1
1180 1586 1
1195 1586 1
1270 1586 1
1287 1586 1
1140 1587 1
1150 1587 1
1162 1587 1
1173 1587 1
1181 1587 1
1196 1587 1
1271 1587 1
1288 1587 1
1197 1588 1
1210 1588 1
1220 1588 1
1232 1588 1
1243 1588 1
1251 1588 1
1266 1588 1
1273 1588 1
1198 1589 1
1211 1589 1
1221 1589 1
1233 1589 1
1244 1589 1
1252 1589 1
1267 1589 1
1274 1589 1
1199 1590 1
1212 1590 1
1222 1590 1
1234 1590 1
1245 1590 1
1253 1590 1
1268 1590 1
1275 1590 1
1200 1591 1
1213 1591 1
1223 1591 1
1235 1591 1
1246 1591 1
1254 1591 1
1269 1591 1
1276 1591 1
1201 1592 1
1214 1592 1
1224 1592 1
1236 1592 1
1247 1592 1
1255 1592 1
1270 1592 1
1277 1592 1
1202 1593 1
1215 1593 1
1225 1593 1
1237 1593 1
1248 1593 1
1256 1593 1
1271 1593 1
1278 1593 1
1203 1594 1
1216 1594 1
1226 1594 1
1238 1594 1
1249 1594 1
1257 1594 1
1272 1594 1
1279 1594 1
1204 1595 1
1217 1595 1
1227 1595 1
1239 1595 1
1250 1595 1
1258 1595 1
1273 1595 1
1280 1595 1
1205 1596 1
1218 1596 1
1228 1596 1
1240 1596 1
1251 1596 1
1259 1596 1
1274 1596 1
1281 1596 1
1206 1597 1
1219 1597 1
1229 1597 1
1241 1597 1
1252 1597 1
1260 1597 1
1275 1597 1
1282 1597 1
1197 1598 1
1207 1598 1
1230 1598 1
1242 1598 1
1253 1598 1
1261 1598 1
1276 1598 1
1283 1598 1
1198 1599 1
1208 1599 1
1220 1599 1
1231 1599 1
1254 1599 1
1262 1599 1
1277 1599 1
1284 1599 1
1199 1600 1
1209 1600 1
1221 1600 1
1232 1600 1
1255 1600 1
1263 1600 1
1278 1600 1
1285 1600 1
1200 1601 1
1210 1601 1
1222 1601 1
1233 1601 1
1256 1601 1
1264 1601 1
1279 1601 1
1286 1601 1
1201 1602 1
1211 1602 1
1223 1602 1
1234 1602 1
1257 1602 1
1265 1602 1
1280 1602 1
1287 1602 1
1202 1603 1
1212 1603 1
1224 1603 1
1235 1603 1
1243 1603 1
1258 1603 1
1281 1603 1
1288 1603 1
1203 1604 1
1213 1604 1
1225 1604 1
1236 1604 1
1244 1604 1
1259 1604 1
1266 1604 1
1282 1604 1
1204 1605 1
1214 1605 1
1226 1605 1
1237 1605 1
1245 1605 1
1260 1605 1
1267 1605 1
1283 1605 1
1205 1606 1
1215 1606 1
1227 1606 1
1238 1606 1
1246 1606 1
1261 1606 1
1268 1606 1
1284 1606 1
1206 1607 1
1216 1607 1
1228 1607 1
1239 1607 1
1247 1607 1
1262 1607 1
1269 1607 1
1285 1607 1
1207 1608 1
1217 1608 1
1229 1608 1
1240 1608 1
1248 1608 1
1263 1608 1
1270 1608 1
1286 1608 1
1208 1609 1
1218 1609 1
1230 1609 1
1241 1609 1
1249 1609 1
1264 1609 1
1271 1609 1
1287 1609 1
1209 1610 1
1219 1610 1
1231 1610 1
1242 1610 1
1250 1610 1
1265 1610 1
1272 1610 1
1288 1610 1
