%%MatrixMarket matrix coordinate integer general
% Binary matrix; one-based indices; arithmetic over GF(2)
600 900 3600
2 1 1
104 1 1
279 1 1
286 1 1
3 2 1
105 2 1
280 2 1
287 2 1
4 3 1
101 3 1
276 3 1
288 3 1
5 4 1
102 4 1
277 4 1
289 4 1
1 5 1
103 5 1
278 5 1
290 5 1
7 6 1
109 6 1
284 6 1
291 6 1
8 7 1
110 7 1
285 7 1
292 7 1
9 8 1
106 8 1
281 8 1
293 8 1
10 9 1
107 9 1
282 9 1
294 9 1
6 10 1
108 10 1
283 10 1
295 10 1
12 11 1
114 11 1
289 11 1
296 11 1
13 12 1
115 12 1
290 12 1
297 12 1
14 13 1
111 13 1
286 13 1
298 13 1
15 14 1
112 14 1
287 14 1
299 14 1
11 15 1
113 15 1
288 15 1
300 15 1
17 16 1
119 16 1
276 16 1
294 16 1
18 17 1
120 17 1
277 17 1
295 17 1
19 18 1
116 18 1
278 18 1
291 18 1
20 19 1
117 19 1
279 19 1
292 19 1
16 20 1
118 20 1
280 20 1
293 20 1
22 21 1
124 21 1
281 21 1
299 21 1
23 22 1
125 22 1
282 22 1
300 22 1
24 23 1
121 23 1
283 23 1
296 23 1
25 24 1
122 24 1
284 24 1
297 24 1
21 25 1
123 25 1
285 25 1
298 25 1
27 26 1
129 26 1
229 26 1
236 26 1
28 27 1
130 27 1
230 27 1
237 27 1
29 28 1
126 28 1
226 28 1
238 28 1
30 29 1
127 29 1
227 29 1
239 29 1
26 30 1
128 30 1
228 30 1
240 30 1
32 31 1
134 31 1
234 31 1
241 31 1
33 32 1
135 32 1
235 32 1
242 32 1
34 33 1
131 33 1
231 33 1
243 33 1
35 34 1
132 34 1
232 34 1
244 34 1
31 35 1
133 35 1
233 35 1
245 35 1
37 36 1
139 36 1
239 36 1
246 36 1
38 37 1
140 37 1
240 37 1
247 37 1
39 38 1
136 38 1
236 38 1
248 38 1
40 39 1
137 39 1
237 39 1
249 39 1
36 40 1
138 40 1
238 40 1
250 40 1
42 41 1
144 41 1
226 41 1
244 41 1
43 42 1
145 42 1
227 42 1
245 42 1
44 43 1
141 43 1
228 43 1
241 43 1
45 44 1
142 44 1
229 44 1
242 44 1
41 45 1
143 45 1
230 45 1
243 45 1
47 46 1
149 46 1
231 46 1
249 46 1
48 47 1
150 47 1
232 47 1
250 47 1
49 48 1
146 48 1
233 48 1
246 48 1
50 49 1
147 49 1
234 49 1
247 49 1
46 50 1
148 50 1
235 50 1
248 50 1
52 51 1
79 51 1
254 51 1
261 51 1
53 52 1
80 52 1
255 52 1
262 52 1
54 53 1
76 53 1
251 53 1
263 53 1
55 54 1
77 54 1
252 54 1
264 54 1
51 55 1
78 55 1
253 55 1
265 55 1
57 56 1
84 56 1
259 56 1
266 56 1
58 57 1
85 57 1
260 57 1
267 57 1
59 58 1
81 58 1
256 58 1
268 58 1
60 59 1
82 59 1
257 59 1
269 59 1
56 60 1
83 60 1
258 60 1
270 60 1
62 61 1
89 61 1
264 61 1
271 61 1
63 62 1
90 62 1
265 62 1
272 62 1
64 63 1
86 63 1
261 63 1
273 63 1
65 64 1
87 64 1
262 64 1
274 64 1
61 65 1
88 65 1
263 65 1
275 65 1
67 66 1
94 66 1
251 66 1
269 66 1
68 67 1
95 67 1
252 67 1
270 67 1
69 68 1
91 68 1
253 68 1
266 68 1
70 69 1
92 69 1
254 69 1
267 69 1
66 70 1
93 70 1
255 70 1
268 70 1
72 71 1
99 71 1
256 71 1
274 71 1
73 72 1
100 72 1
257 72 1
275 72 1
74 73 1
96 73 1
258 73 1
271 73 1
75 74 1
97 74 1
259 74 1
272 74 1
71 75 1
98 75 1
260 75 1
273 75 1
29 76 1
77 76 1
204 76 1
211 76 1
30 77 1
78 77 1
205 77 1
212 77 1
26 78 1
79 78 1
201 78 1
213 78 1
27 79 1
80 79 1
202 79 1
214 79 1
28 80 1
76 80 1
203 80 1
215 80 1
34 81 1
82 81 1
209 81 1
216 81 1
35 82 1
83 82 1
210 82 1
217 82 1
31 83 1
84 83 1
206 83 1
218 83 1
32 84 1
85 84 1
207 84 1
219 84 1
33 85 1
81 85 1
208 85 1
220 85 1
39 86 1
87 86 1
214 86 1
221 86 1
40 87 1
88 87 1
215 87 1
222 87 1
36 88 1
89 88 1
211 88 1
223 88 1
37 89 1
90 89 1
212 89 1
224 89 1
38 90 1
86 90 1
213 90 1
225 90 1
44 91 1
92 91 1
201 91 1
219 91 1
45 92 1
93 92 1
202 92 1
220 92 1
41 93 1
94 93 1
203 93 1
216 93 1
42 94 1
95 94 1
204 94 1
217 94 1
43 95 1
91 95 1
205 95 1
218 95 1
49 96 1
97 96 1
206 96 1
224 96 1
50 97 1
98 97 1
207 97 1
225 97 1
46 98 1
99 98 1
208 98 1
221 98 1
47 99 1
100 99 1
209 99 1
222 99 1
48 100 1
96 100 1
210 100 1
223 100 1
54 101 1
102 101 1
154 101 1
161 101 1
55 102 1
103 102 1
155 102 1
162 102 1
51 103 1
104 103 1
151 103 1
163 103 1
52 104 1
105 104 1
152 104 1
164 104 1
53 105 1
101 105 1
153 105 1
165 105 1
59 106 1
107 106 1
159 106 1
166 106 1
60 107 1
108 107 1
160 107 1
167 107 1
56 108 1
109 108 1
156 108 1
168 108 1
57 109 1
110 109 1
157 109 1
169 109 1
58 110 1
106 110 1
158 110 1
170 110 1
64 111 1
112 111 1
164 111 1
171 111 1
65 112 1
113 112 1
165 112 1
172 112 1
61 113 1
114 113 1
161 113 1
173 113 1
62 114 1
115 114 1
162 114 1
174 114 1
63 115 1
111 115 1
163 115 1
175 115 1
69 116 1
117 116 1
151 116 1
169 116 1
70 117 1
118 117 1
152 117 1
170 117 1
66 118 1
119 118 1
153 118 1
166 118 1
67 119 1
120 119 1
154 119 1
167 119 1
68 120 1
116 120 1
155 120 1
168 120 1
74 121 1
122 121 1
156 121 1
174 121 1
75 122 1
123 122 1
157 122 1
175 122 1
71 123 1
124 123 1
158 123 1
171 123 1
72 124 1
125 124 1
159 124 1
172 124 1
73 125 1
121 125 1
160 125 1
173 125 1
4 126 1
127 126 1
179 126 1
186 126 1
5 127 1
128 127 1
180 127 1
187 127 1
1 128 1
129 128 1
176 128 1
188 128 1
2 129 1
130 129 1
177 129 1
189 129 1
3 130 1
126 130 1
178 130 1
190 130 1
9 131 1
132 131 1
184 131 1
191 131 1
10 132 1
133 132 1
185 132 1
192 132 1
6 133 1
134 133 1
181 133 1
193 133 1
7 134 1
135 134 1
182 134 1
194 134 1
8 135 1
131 135 1
183 135 1
195 135 1
14 136 1
137 136 1
189 136 1
196 136 1
15 137 1
138 137 1
190 137 1
197 137 1
11 138 1
139 138 1
186 138 1
198 138 1
12 139 1
140 139 1
187 139 1
199 139 1
13 140 1
136 140 1
188 140 1
200 140 1
19 141 1
142 141 1
176 141 1
194 141 1
20 142 1
143 142 1
177 142 1
195 142 1
16 143 1
144 143 1
178 143 1
191 143 1
17 144 1
145 144 1
179 144 1
192 144 1
18 145 1
141 145 1
180 145 1
193 145 1
24 146 1
147 146 1
181 146 1
199 146 1
25 147 1
148 147 1
182 147 1
200 147 1
21 148 1
149 148 1
183 148 1
196 148 1
22 149 1
150 149 1
184 149 1
197 149 1
23 150 1
146 150 1
185 150 1
198 150 1
84 151 1
108 151 1
429 151 1
436 151 1
85 152 1
109 152 1
430 152 1
437 152 1
81 153 1
110 153 1
426 153 1
438 153 1
82 154 1
106 154 1
427 154 1
439 154 1
83 155 1
107 155 1
428 155 1
440 155 1
89 156 1
113 156 1
434 156 1
441 156 1
90 157 1
114 157 1
435 157 1
442 157 1
86 158 1
115 158 1
431 158 1
443 158 1
87 159 1
111 159 1
432 159 1
444 159 1
88 160 1
112 160 1
433 160 1
445 160 1
94 161 1
118 161 1
439 161 1
446 161 1
95 162 1
119 162 1
440 162 1
447 162 1
91 163 1
120 163 1
436 163 1
448 163 1
92 164 1
116 164 1
437 164 1
449 164 1
93 165 1
117 165 1
438 165 1
450 165 1
99 166 1
123 166 1
426 166 1
444 166 1
100 167 1
124 167 1
427 167 1
445 167 1
96 168 1
125 168 1
428 168 1
441 168 1
97 169 1
121 169 1
429 169 1
442 169 1
98 170 1
122 170 1
430 170 1
443 170 1
79 171 1
103 171 1
431 171 1
449 171 1
80 172 1
104 172 1
432 172 1
450 172 1
76 173 1
105 173 1
433 173 1
446 173 1
77 174 1
101 174 1
434 174 1
447 174 1
78 175 1
102 175 1
435 175 1
448 175 1
109 176 1
133 176 1
379 176 1
386 176 1
110 177 1
134 177 1
380 177 1
387 177 1
106 178 1
135 178 1
376 178 1
388 178 1
107 179 1
131 179 1
377 179 1
389 179 1
108 180 1
132 180 1
378 180 1
390 180 1
114 181 1
138 181 1
384 181 1
391 181 1
115 182 1
139 182 1
385 182 1
392 182 1
111 183 1
140 183 1
381 183 1
393 183 1
112 184 1
136 184 1
382 184 1
394 184 1
113 185 1
137 185 1
383 185 1
395 185 1
119 186 1
143 186 1
389 186 1
396 186 1
120 187 1
144 187 1
390 187 1
397 187 1
116 188 1
145 188 1
386 188 1
398 188 1
117 189 1
141 189 1
387 189 1
399 189 1
118 190 1
142 190 1
388 190 1
400 190 1
124 191 1
148 191 1
376 191 1
394 191 1
125 192 1
149 192 1
377 192 1
395 192 1
121 193 1
150 193 1
378 193 1
391 193 1
122 194 1
146 194 1
379 194 1
392 194 1
123 195 1
147 195 1
380 195 1
393 195 1
104 196 1
128 196 1
381 196 1
399 196 1
105 197 1
129 197 1
382 197 1
400 197 1
101 198 1
130 198 1
383 198 1
396 198 1
102 199 1
126 199 1
384 199 1
397 199 1
103 200 1
127 200 1
385 200 1
398 200 1
83 201 1
134 201 1
404 201 1
411 201 1
84 202 1
135 202 1
405 202 1
412 202 1
85 203 1
131 203 1
401 203 1
413 203 1
81 204 1
132 204 1
402 204 1
414 204 1
82 205 1
133 205 1
403 205 1
415 205 1
88 206 1
139 206 1
409 206 1
416 206 1
89 207 1
140 207 1
410 207 1
417 207 1
90 208 1
136 208 1
406 208 1
418 208 1
86 209 1
137 209 1
407 209 1
419 209 1
87 210 1
138 210 1
408 210 1
420 210 1
93 211 1
144 211 1
414 211 1
421 211 1
94 212 1
145 212 1
415 212 1
422 212 1
95 213 1
141 213 1
411 213 1
423 213 1
91 214 1
142 214 1
412 214 1
424 214 1
92 215 1
143 215 1
413 215 1
425 215 1
98 216 1
149 216 1
401 216 1
419 216 1
99 217 1
150 217 1
402 217 1
420 217 1
100 218 1
146 218 1
403 218 1
416 218 1
96 219 1
147 219 1
404 219 1
417 219 1
97 220 1
148 220 1
405 220 1
418 220 1
78 221 1
129 221 1
406 221 1
424 221 1
79 222 1
130 222 1
407 222 1
425 222 1
80 223 1
126 223 1
408 223 1
421 223 1
76 224 1
127 224 1
409 224 1
422 224 1
77 225 1
128 225 1
410 225 1
423 225 1
9 226 1
33 226 1
354 226 1
361 226 1
10 227 1
34 227 1
355 227 1
362 227 1
6 228 1
35 228 1
351 228 1
363 228 1
7 229 1
31 229 1
352 229 1
364 229 1
8 230 1
32 230 1
353 230 1
365 230 1
14 231 1
38 231 1
359 231 1
366 231 1
15 232 1
39 232 1
360 232 1
367 232 1
11 233 1
40 233 1
356 233 1
368 233 1
12 234 1
36 234 1
357 234 1
369 234 1
13 235 1
37 235 1
358 235 1
370 235 1
19 236 1
43 236 1
364 236 1
371 236 1
20 237 1
44 237 1
365 237 1
372 237 1
16 238 1
45 238 1
361 238 1
373 238 1
17 239 1
41 239 1
362 239 1
374 239 1
18 240 1
42 240 1
363 240 1
375 240 1
24 241 1
48 241 1
351 241 1
369 241 1
25 242 1
49 242 1
352 242 1
370 242 1
21 243 1
50 243 1
353 243 1
366 243 1
22 244 1
46 244 1
354 244 1
367 244 1
23 245 1
47 245 1
355 245 1
368 245 1
4 246 1
28 246 1
356 246 1
374 246 1
5 247 1
29 247 1
357 247 1
375 247 1
1 248 1
30 248 1
358 248 1
371 248 1
2 249 1
26 249 1
359 249 1
372 249 1
3 250 1
27 250 1
360 250 1
373 250 1
34 251 1
58 251 1
304 251 1
311 251 1
35 252 1
59 252 1
305 252 1
312 252 1
31 253 1
60 253 1
301 253 1
313 253 1
32 254 1
56 254 1
302 254 1
314 254 1
33 255 1
57 255 1
303 255 1
315 255 1
39 256 1
63 256 1
309 256 1
316 256 1
40 257 1
64 257 1
310 257 1
317 257 1
36 258 1
65 258 1
306 258 1
318 258 1
37 259 1
61 259 1
307 259 1
319 259 1
38 260 1
62 260 1
308 260 1
320 260 1
44 261 1
68 261 1
314 261 1
321 261 1
45 262 1
69 262 1
315 262 1
322 262 1
41 263 1
70 263 1
311 263 1
323 263 1
42 264 1
66 264 1
312 264 1
324 264 1
43 265 1
67 265 1
313 265 1
325 265 1
49 266 1
73 266 1
301 266 1
319 266 1
50 267 1
74 267 1
302 267 1
320 267 1
46 268 1
75 268 1
303 268 1
316 268 1
47 269 1
71 269 1
304 269 1
317 269 1
48 270 1
72 270 1
305 270 1
318 270 1
29 271 1
53 271 1
306 271 1
324 271 1
30 272 1
54 272 1
307 272 1
325 272 1
26 273 1
55 273 1
308 273 1
321 273 1
27 274 1
51 274 1
309 274 1
322 274 1
28 275 1
52 275 1
310 275 1
323 275 1
8 276 1
59 276 1
329 276 1
336 276 1
9 277 1
60 277 1
330 277 1
337 277 1
10 278 1
56 278 1
326 278 1
338 278 1
6 279 1
57 279 1
327 279 1
339 279 1
7 280 1
58 280 1
328 280 1
340 280 1
13 281 1
64 281 1
334 281 1
341 281 1
14 282 1
65 282 1
335 282 1
342 282 1
15 283 1
61 283 1
331 283 1
343 283 1
11 284 1
62 284 1
332 284 1
344 284 1
12 285 1
63 285 1
333 285 1
345 285 1
18 286 1
69 286 1
339 286 1
346 286 1
19 287 1
70 287 1
340 287 1
347 287 1
20 288 1
66 288 1
336 288 1
348 288 1
16 289 1
67 289 1
337 289 1
349 289 1
17 290 1
68 290 1
338 290 1
350 290 1
23 291 1
74 291 1
326 291 1
344 291 1
24 292 1
75 292 1
327 292 1
345 292 1
25 293 1
71 293 1
328 293 1
341 293 1
21 294 1
72 294 1
329 294 1
342 294 1
22 295 1
73 295 1
330 295 1
343 295 1
3 296 1
54 296 1
331 296 1
349 296 1
4 297 1
55 297 1
332 297 1
350 297 1
5 298 1
51 298 1
333 298 1
346 298 1
1 299 1
52 299 1
334 299 1
347 299 1
2 300 1
53 300 1
335 300 1
348 300 1
234 301 1
258 301 1
302 301 1
404 301 1
235 302 1
259 302 1
303 302 1
405 302 1
231 303 1
260 303 1
304 303 1
401 303 1
232 304 1
256 304 1
305 304 1
402 304 1
233 305 1
257 305 1
301 305 1
403 305 1
239 306 1
263 306 1
307 306 1
409 306 1
240 307 1
264 307 1
308 307 1
410 307 1
236 308 1
265 308 1
309 308 1
406 308 1
237 309 1
261 309 1
310 309 1
407 309 1
238 310 1
262 310 1
306 310 1
408 310 1
244 311 1
268 311 1
312 311 1
414 311 1
245 312 1
269 312 1
313 312 1
415 312 1
241 313 1
270 313 1
314 313 1
411 313 1
242 314 1
266 314 1
315 314 1
412 314 1
243 315 1
267 315 1
311 315 1
413 315 1
249 316 1
273 316 1
317 316 1
419 316 1
250 317 1
274 317 1
318 317 1
420 317 1
246 318 1
275 318 1
319 318 1
416 318 1
247 319 1
271 319 1
320 319 1
417 319 1
248 320 1
272 320 1
316 320 1
418 320 1
229 321 1
253 321 1
322 321 1
424 321 1
230 322 1
254 322 1
323 322 1
425 322 1
226 323 1
255 323 1
324 323 1
421 323 1
227 324 1
251 324 1
325 324 1
422 324 1
228 325 1
252 325 1
321 325 1
423 325 1
259 326 1
283 326 1
327 326 1
429 326 1
260 327 1
284 327 1
328 327 1
430 327 1
256 328 1
285 328 1
329 328 1
426 328 1
257 329 1
281 329 1
330 329 1
427 329 1
258 330 1
282 330 1
326 330 1
428 330 1
264 331 1
288 331 1
332 331 1
434 331 1
265 332 1
289 332 1
333 332 1
435 332 1
261 333 1
290 333 1
334 333 1
431 333 1
262 334 1
286 334 1
335 334 1
432 334 1
263 335 1
287 335 1
331 335 1
433 335 1
269 336 1
293 336 1
337 336 1
439 336 1
270 337 1
294 337 1
338 337 1
440 337 1
266 338 1
295 338 1
339 338 1
436 338 1
267 339 1
291 339 1
340 339 1
437 339 1
268 340 1
292 340 1
336 340 1
438 340 1
274 341 1
298 341 1
342 341 1
444 341 1
275 342 1
299 342 1
343 342 1
445 342 1
271 343 1
300 343 1
344 343 1
441 343 1
272 344 1
296 344 1
345 344 1
442 344 1
273 345 1
297 345 1
341 345 1
443 345 1
254 346 1
278 346 1
347 346 1
449 346 1
255 347 1
279 347 1
348 347 1
450 347 1
251 348 1
280 348 1
349 348 1
446 348 1
252 349 1
276 349 1
350 349 1
447 349 1
253 350 1
277 350 1
346 350 1
448 350 1
233 351 1
284 351 1
352 351 1
379 351 1
234 352 1
285 352 1
353 352 1
380 352 1
235 353 1
281 353 1
354 353 1
376 353 1
231 354 1
282 354 1
355 354 1
377 354 1
232 355 1
283 355 1
351 355 1
378 355 1
238 356 1
289 356 1
357 356 1
384 356 1
239 357 1
290 357 1
358 357 1
385 357 1
240 358 1
286 358 1
359 358 1
381 358 1
236 359 1
287 359 1
360 359 1
382 359 1
237 360 1
288 360 1
356 360 1
383 360 1
243 361 1
294 361 1
362 361 1
389 361 1
244 362 1
295 362 1
363 362 1
390 362 1
245 363 1
291 363 1
364 363 1
386 363 1
241 364 1
292 364 1
365 364 1
387 364 1
242 365 1
293 365 1
361 365 1
388 365 1
248 366 1
299 366 1
367 366 1
394 366 1
249 367 1
300 367 1
368 367 1
395 367 1
250 368 1
296 368 1
369 368 1
391 368 1
246 369 1
297 369 1
370 369 1
392 369 1
247 370 1
298 370 1
366 370 1
393 370 1
228 371 1
279 371 1
372 371 1
399 371 1
229 372 1
280 372 1
373 372 1
400 372 1
230 373 1
276 373 1
374 373 1
396 373 1
226 374 1
277 374 1
375 374 1
397 374 1
227 375 1
278 375 1
371 375 1
398 375 1
159 376 1
183 376 1
329 376 1
377 376 1
160 377 1
184 377 1
330 377 1
378 377 1
156 378 1
185 378 1
326 378 1
379 378 1
157 379 1
181 379 1
327 379 1
380 379 1
158 380 1
182 380 1
328 380 1
376 380 1
164 381 1
188 381 1
334 381 1
382 381 1
165 382 1
189 382 1
335 382 1
383 382 1
161 383 1
190 383 1
331 383 1
384 383 1
162 384 1
186 384 1
332 384 1
385 384 1
163 385 1
187 385 1
333 385 1
381 385 1
169 386 1
193 386 1
339 386 1
387 386 1
170 387 1
194 387 1
340 387 1
388 387 1
166 388 1
195 388 1
336 388 1
389 388 1
167 389 1
191 389 1
337 389 1
390 389 1
168 390 1
192 390 1
338 390 1
386 390 1
174 391 1
198 391 1
344 391 1
392 391 1
175 392 1
199 392 1
345 392 1
393 392 1
171 393 1
200 393 1
341 393 1
394 393 1
172 394 1
196 394 1
342 394 1
395 394 1
173 395 1
197 395 1
343 395 1
391 395 1
154 396 1
178 396 1
349 396 1
397 396 1
155 397 1
179 397 1
350 397 1
398 397 1
151 398 1
180 398 1
346 398 1
399 398 1
152 399 1
176 399 1
347 399 1
400 399 1
153 400 1
177 400 1
348 400 1
396 400 1
184 401 1
208 401 1
354 401 1
402 401 1
185 402 1
209 402 1
355 402 1
403 402 1
181 403 1
210 403 1
351 403 1
404 403 1
182 404 1
206 404 1
352 404 1
405 404 1
183 405 1
207 405 1
353 405 1
401 405 1
189 406 1
213 406 1
359 406 1
407 406 1
190 407 1
214 407 1
360 407 1
408 407 1
186 408 1
215 408 1
356 408 1
409 408 1
187 409 1
211 409 1
357 409 1
410 409 1
188 410 1
212 410 1
358 410 1
406 410 1
194 411 1
218 411 1
364 411 1
412 411 1
195 412 1
219 412 1
365 412 1
413 412 1
191 413 1
220 413 1
361 413 1
414 413 1
192 414 1
216 414 1
362 414 1
415 414 1
193 415 1
217 415 1
363 415 1
411 415 1
199 416 1
223 416 1
369 416 1
417 416 1
200 417 1
224 417 1
370 417 1
418 417 1
196 418 1
225 418 1
366 418 1
419 418 1
197 419 1
221 419 1
367 419 1
420 419 1
198 420 1
222 420 1
368 420 1
416 420 1
179 421 1
203 421 1
374 421 1
422 421 1
180 422 1
204 422 1
375 422 1
423 422 1
176 423 1
205 423 1
371 423 1
424 423 1
177 424 1
201 424 1
372 424 1
425 424 1
178 425 1
202 425 1
373 425 1
421 425 1
158 426 1
209 426 1
304 426 1
427 426 1
159 427 1
210 427 1
305 427 1
428 427 1
160 428 1
206 428 1
301 428 1
429 428 1
156 429 1
207 429 1
302 429 1
430 429 1
157 430 1
208 430 1
303 430 1
426 430 1
163 431 1
214 431 1
309 431 1
432 431 1
164 432 1
215 432 1
310 432 1
433 432 1
165 433 1
211 433 1
306 433 1
434 433 1
161 434 1
212 434 1
307 434 1
435 434 1
162 435 1
213 435 1
308 435 1
431 435 1
168 436 1
219 436 1
314 436 1
437 436 1
169 437 1
220 437 1
315 437 1
438 437 1
170 438 1
216 438 1
311 438 1
439 438 1
166 439 1
217 439 1
312 439 1
440 439 1
167 440 1
218 440 1
313 440 1
436 440 1
173 441 1
224 441 1
319 441 1
442 441 1
174 442 1
225 442 1
320 442 1
443 442 1
175 443 1
221 443 1
316 443 1
444 443 1
171 444 1
222 444 1
317 444 1
445 444 1
172 445 1
223 445 1
318 445 1
441 445 1
153 446 1
204 446 1
324 446 1
447 446 1
154 447 1
205 447 1
325 447 1
448 447 1
155 448 1
201 448 1
321 448 1
449 448 1
151 449 1
202 449 1
322 449 1
450 449 1
152 450 1
203 450 1
323 450 1
446 450 1
32 451 1
45 451 1
579 451 1
586 451 1
33 452 1
41 452 1
580 452 1
587 452 1
34 453 1
42 453 1
576 453 1
588 453 1
35 454 1
43 454 1
577 454 1
589 454 1
31 455 1
44 455 1
578 455 1
590 455 1
37 456 1
50 456 1
584 456 1
591 456 1
38 457 1
46 457 1
585 457 1
592 457 1
39 458 1
47 458 1
581 458 1
593 458 1
40 459 1
48 459 1
582 459 1
594 459 1
36 460 1
49 460 1
583 460 1
595 460 1
30 461 1
42 461 1
589 461 1
596 461 1
26 462 1
43 462 1
590 462 1
597 462 1
27 463 1
44 463 1
586 463 1
598 463 1
28 464 1
45 464 1
587 464 1
599 464 1
29 465 1
41 465 1
588 465 1
600 465 1
35 466 1
47 466 1
576 466 1
594 466 1
31 467 1
48 467 1
577 467 1
595 467 1
32 468 1
49 468 1
578 468 1
591 468 1
33 469 1
50 469 1
579 469 1
592 469 1
34 470 1
46 470 1
580 470 1
593 470 1
27 471 1
40 471 1
581 471 1
599 471 1
28 472 1
36 472 1
582 472 1
600 472 1
29 473 1
37 473 1
583 473 1
596 473 1
30 474 1
38 474 1
584 474 1
597 474 1
26 475 1
39 475 1
585 475 1
598 475 1
57 476 1
70 476 1
529 476 1
536 476 1
58 477 1
66 477 1
530 477 1
537 477 1
59 478 1
67 478 1
526 478 1
538 478 1
60 479 1
68 479 1
527 479 1
539 479 1
56 480 1
69 480 1
528 480 1
540 480 1
62 481 1
75 481 1
534 481 1
541 481 1
63 482 1
71 482 1
535 482 1
542 482 1
64 483 1
72 483 1
531 483 1
543 483 1
65 484 1
73 484 1
532 484 1
544 484 1
61 485 1
74 485 1
533 485 1
545 485 1
55 486 1
67 486 1
539 486 1
546 486 1
51 487 1
68 487 1
540 487 1
547 487 1
52 488 1
69 488 1
536 488 1
548 488 1
53 489 1
70 489 1
537 489 1
549 489 1
54 490 1
66 490 1
538 490 1
550 490 1
60 491 1
72 491 1
526 491 1
544 491 1
56 492 1
73 492 1
527 492 1
545 492 1
57 493 1
74 493 1
528 493 1
541 493 1
58 494 1
75 494 1
529 494 1
542 494 1
59 495 1
71 495 1
530 495 1
543 495 1
52 496 1
65 496 1
531 496 1
549 496 1
53 497 1
61 497 1
532 497 1
550 497 1
54 498 1
62 498 1
533 498 1
546 498 1
55 499 1
63 499 1
534 499 1
547 499 1
51 500 1
64 500 1
535 500 1
548 500 1
7 501 1
20 501 1
554 501 1
561 501 1
8 502 1
16 502 1
555 502 1
562 502 1
9 503 1
17 503 1
551 503 1
563 503 1
10 504 1
18 504 1
552 504 1
564 504 1
6 505 1
19 505 1
553 505 1
565 505 1
12 506 1
25 506 1
559 506 1
566 506 1
13 507 1
21 507 1
560 507 1
567 507 1
14 508 1
22 508 1
556 508 1
568 508 1
15 509 1
23 509 1
557 509 1
569 509 1
11 510 1
24 510 1
558 510 1
570 510 1
5 511 1
17 511 1
564 511 1
571 511 1
1 512 1
18 512 1
565 512 1
572 512 1
2 513 1
19 513 1
561 513 1
573 513 1
3 514 1
20 514 1
562 514 1
574 514 1
4 515 1
16 515 1
563 515 1
575 515 1
10 516 1
22 516 1
551 516 1
569 516 1
6 517 1
23 517 1
552 517 1
570 517 1
7 518 1
24 518 1
553 518 1
566 518 1
8 519 1
25 519 1
554 519 1
567 519 1
9 520 1
21 520 1
555 520 1
568 520 1
2 521 1
15 521 1
556 521 1
574 521 1
3 522 1
11 522 1
557 522 1
575 522 1
4 523 1
12 523 1
558 523 1
571 523 1
5 524 1
13 524 1
559 524 1
572 524 1
1 525 1
14 525 1
560 525 1
573 525 1
107 526 1
120 526 1
504 526 1
511 526 1
108 527 1
116 527 1
505 527 1
512 527 1
109 528 1
117 528 1
501 528 1
513 528 1
110 529 1
118 529 1
502 529 1
514 529 1
106 530 1
119 530 1
503 530 1
515 530 1
112 531 1
125 531 1
509 531 1
516 531 1
113 532 1
121 532 1
510 532 1
517 532 1
114 533 1
122 533 1
506 533 1
518 533 1
115 534 1
123 534 1
507 534 1
519 534 1
111 535 1
124 535 1
508 535 1
520 535 1
105 536 1
117 536 1
514 536 1
521 536 1
101 537 1
118 537 1
515 537 1
522 537 1
102 538 1
119 538 1
511 538 1
523 538 1
103 539 1
120 539 1
512 539 1
524 539 1
104 540 1
116 540 1
513 540 1
525 540 1
110 541 1
122 541 1
501 541 1
519 541 1
106 542 1
123 542 1
502 542 1
520 542 1
107 543 1
124 543 1
503 543 1
516 543 1
108 544 1
125 544 1
504 544 1
517 544 1
109 545 1
121 545 1
505 545 1
518 545 1
102 546 1
115 546 1
506 546 1
524 546 1
103 547 1
111 547 1
507 547 1
525 547 1
104 548 1
112 548 1
508 548 1
521 548 1
105 549 1
113 549 1
509 549 1
522 549 1
101 550 1
114 550 1
510 550 1
523 550 1
132 551 1
145 551 1
454 551 1
461 551 1
133 552 1
141 552 1
455 552 1
462 552 1
134 553 1
142 553 1
451 553 1
463 553 1
135 554 1
143 554 1
452 554 1
464 554 1
131 555 1
144 555 1
453 555 1
465 555 1
137 556 1
150 556 1
459 556 1
466 556 1
138 557 1
146 557 1
460 557 1
467 557 1
139 558 1
147 558 1
456 558 1
468 558 1
140 559 1
148 559 1
457 559 1
469 559 1
136 560 1
149 560 1
458 560 1
470 560 1
130 561 1
142 561 1
464 561 1
471 561 1
126 562 1
143 562 1
465 562 1
472 562 1
127 563 1
144 563 1
461 563 1
473 563 1
128 564 1
145 564 1
462 564 1
474 564 1
129 565 1
141 565 1
463 565 1
475 565 1
135 566 1
147 566 1
451 566 1
469 566 1
131 567 1
148 567 1
452 567 1
470 567 1
132 568 1
149 568 1
453 568 1
466 568 1
133 569 1
150 569 1
454 569 1
467 569 1
134 570 1
146 570 1
455 570 1
468 570 1
127 571 1
140 571 1
456 571 1
474 571 1
128 572 1
136 572 1
457 572 1
475 572 1
129 573 1
137 573 1
458 573 1
471 573 1
130 574 1
138 574 1
459 574 1
472 574 1
126 575 1
139 575 1
460 575 1
473 575 1
82 576 1
95 576 1
479 576 1
486 576 1
83 577 1
91 577 1
480 577 1
487 577 1
84 578 1
92 578 1
476 578 1
488 578 1
85 579 1
93 579 1
477 579 1
489 579 1
81 580 1
94 580 1
478 580 1
490 580 1
87 581 1
100 581 1
484 581 1
491 581 1
88 582 1
96 582 1
485 582 1
492 582 1
89 583 1
97 583 1
481 583 1
493 583 1
90 584 1
98 584 1
482 584 1
494 584 1
86 585 1
99 585 1
483 585 1
495 585 1
80 586 1
92 586 1
489 586 1
496 586 1
76 587 1
93 587 1
490 587 1
497 587 1
77 588 1
94 588 1
486 588 1
498 588 1
78 589 1
95 589 1
487 589 1
499 589 1
79 590 1
91 590 1
488 590 1
500 590 1
85 591 1
97 591 1
476 591 1
494 591 1
81 592 1
98 592 1
477 592 1
495 592 1
82 593 1
99 593 1
478 593 1
491 593 1
83 594 1
100 594 1
479 594 1
492 594 1
84 595 1
96 595 1
480 595 1
493 595 1
77 596 1
90 596 1
481 596 1
499 596 1
78 597 1
86 597 1
482 597 1
500 597 1
79 598 1
87 598 1
483 598 1
496 598 1
80 599 1
88 599 1
484 599 1
497 599 1
76 600 1
89 600 1
485 600 1
498 600 1
182 601 1
195 601 1
452 601 1
554 601 1
183 602 1
191 602 1
453 602 1
555 602 1
184 603 1
192 603 1
454 603 1
551 603 1
185 604 1
193 604 1
455 604 1
552 604 1
181 605 1
194 605 1
451 605 1
553 605 1
187 606 1
200 606 1
457 606 1
559 606 1
188 607 1
196 607 1
458 607 1
560 607 1
189 608 1
197 608 1
459 608 1
556 608 1
190 609 1
198 609 1
460 609 1
557 609 1
186 610 1
199 610 1
456 610 1
558 610 1
180 611 1
192 611 1
462 611 1
564 611 1
176 612 1
193 612 1
463 612 1
565 612 1
177 613 1
194 613 1
464 613 1
561 613 1
178 614 1
195 614 1
465 614 1
562 614 1
179 615 1
191 615 1
461 615 1
563 615 1
185 616 1
197 616 1
467 616 1
569 616 1
181 617 1
198 617 1
468 617 1
570 617 1
182 618 1
199 618 1
469 618 1
566 618 1
183 619 1
200 619 1
470 619 1
567 619 1
184 620 1
196 620 1
466 620 1
568 620 1
177 621 1
190 621 1
472 621 1
574 621 1
178 622 1
186 622 1
473 622 1
575 622 1
179 623 1
187 623 1
474 623 1
571 623 1
180 624 1
188 624 1
475 624 1
572 624 1
176 625 1
189 625 1
471 625 1
573 625 1
207 626 1
220 626 1
477 626 1
579 626 1
208 627 1
216 627 1
478 627 1
580 627 1
209 628 1
217 628 1
479 628 1
576 628 1
210 629 1
218 629 1
480 629 1
577 629 1
206 630 1
219 630 1
476 630 1
578 630 1
212 631 1
225 631 1
482 631 1
584 631 1
213 632 1
221 632 1
483 632 1
585 632 1
214 633 1
222 633 1
484 633 1
581 633 1
215 634 1
223 634 1
485 634 1
582 634 1
211 635 1
224 635 1
481 635 1
583 635 1
205 636 1
217 636 1
487 636 1
589 636 1
201 637 1
218 637 1
488 637 1
590 637 1
202 638 1
219 638 1
489 638 1
586 638 1
203 639 1
220 639 1
490 639 1
587 639 1
204 640 1
216 640 1
486 640 1
588 640 1
210 641 1
222 641 1
492 641 1
594 641 1
206 642 1
223 642 1
493 642 1
595 642 1
207 643 1
224 643 1
494 643 1
591 643 1
208 644 1
225 644 1
495 644 1
592 644 1
209 645 1
221 645 1
491 645 1
593 645 1
202 646 1
215 646 1
497 646 1
599 646 1
203 647 1
211 647 1
498 647 1
600 647 1
204 648 1
212 648 1
499 648 1
596 648 1
205 649 1
213 649 1
500 649 1
597 649 1
201 650 1
214 650 1
496 650 1
598 650 1
157 651 1
170 651 1
502 651 1
529 651 1
158 652 1
166 652 1
503 652 1
530 652 1
159 653 1
167 653 1
504 653 1
526 653 1
160 654 1
168 654 1
505 654 1
527 654 1
156 655 1
169 655 1
501 655 1
528 655 1
162 656 1
175 656 1
507 656 1
534 656 1
163 657 1
171 657 1
508 657 1
535 657 1
164 658 1
172 658 1
509 658 1
531 658 1
165 659 1
173 659 1
510 659 1
532 659 1
161 660 1
174 660 1
506 660 1
533 660 1
155 661 1
167 661 1
512 661 1
539 661 1
151 662 1
168 662 1
513 662 1
540 662 1
152 663 1
169 663 1
514 663 1
536 663 1
153 664 1
170 664 1
515 664 1
537 664 1
154 665 1
166 665 1
511 665 1
538 665 1
160 666 1
172 666 1
517 666 1
544 666 1
156 667 1
173 667 1
518 667 1
545 667 1
157 668 1
174 668 1
519 668 1
541 668 1
158 669 1
175 669 1
520 669 1
542 669 1
159 670 1
171 670 1
516 670 1
543 670 1
152 671 1
165 671 1
522 671 1
549 671 1
153 672 1
161 672 1
523 672 1
550 672 1
154 673 1
162 673 1
524 673 1
546 673 1
155 674 1
163 674 1
525 674 1
547 674 1
151 675 1
164 675 1
521 675 1
548 675 1
257 676 1
270 676 1
479 676 1
527 676 1
258 677 1
266 677 1
480 677 1
528 677 1
259 678 1
267 678 1
476 678 1
529 678 1
260 679 1
268 679 1
477 679 1
530 679 1
256 680 1
269 680 1
478 680 1
526 680 1
262 681 1
275 681 1
484 681 1
532 681 1
263 682 1
271 682 1
485 682 1
533 682 1
264 683 1
272 683 1
481 683 1
534 683 1
265 684 1
273 684 1
482 684 1
535 684 1
261 685 1
274 685 1
483 685 1
531 685 1
255 686 1
267 686 1
489 686 1
537 686 1
251 687 1
268 687 1
490 687 1
538 687 1
252 688 1
269 688 1
486 688 1
539 688 1
253 689 1
270 689 1
487 689 1
540 689 1
254 690 1
266 690 1
488 690 1
536 690 1
260 691 1
272 691 1
494 691 1
542 691 1
256 692 1
273 692 1
495 692 1
543 692 1
257 693 1
274 693 1
491 693 1
544 693 1
258 694 1
275 694 1
492 694 1
545 694 1
259 695 1
271 695 1
493 695 1
541 695 1
252 696 1
265 696 1
499 696 1
547 696 1
253 697 1
261 697 1
500 697 1
548 697 1
254 698 1
262 698 1
496 698 1
549 698 1
255 699 1
263 699 1
497 699 1
550 699 1
251 700 1
264 700 1
498 700 1
546 700 1
282 701 1
295 701 1
504 701 1
552 701 1
283 702 1
291 702 1
505 702 1
553 702 1
284 703 1
292 703 1
501 703 1
554 703 1
285 704 1
293 704 1
502 704 1
555 704 1
281 705 1
294 705 1
503 705 1
551 705 1
287 706 1
300 706 1
509 706 1
557 706 1
288 707 1
296 707 1
510 707 1
558 707 1
289 708 1
297 708 1
506 708 1
559 708 1
290 709 1
298 709 1
507 709 1
560 709 1
286 710 1
299 710 1
508 710 1
556 710 1
280 711 1
292 711 1
514 711 1
562 711 1
276 712 1
293 712 1
515 712 1
563 712 1
277 713 1
294 713 1
511 713 1
564 713 1
278 714 1
295 714 1
512 714 1
565 714 1
279 715 1
291 715 1
513 715 1
561 715 1
285 716 1
297 716 1
519 716 1
567 716 1
281 717 1
298 717 1
520 717 1
568 717 1
282 718 1
299 718 1
516 718 1
569 718 1
283 719 1
300 719 1
517 719 1
570 719 1
284 720 1
296 720 1
518 720 1
566 720 1
277 721 1
290 721 1
524 721 1
572 721 1
278 722 1
286 722 1
525 722 1
573 722 1
279 723 1
287 723 1
521 723 1
574 723 1
280 724 1
288 724 1
522 724 1
575 724 1
276 725 1
289 725 1
523 725 1
571 725 1
232 726 1
245 726 1
454 726 1
577 726 1
233 727 1
241 727 1
455 727 1
578 727 1
234 728 1
242 728 1
451 728 1
579 728 1
235 729 1
243 729 1
452 729 1
580 729 1
231 730 1
244 730 1
453 730 1
576 730 1
237 731 1
250 731 1
459 731 1
582 731 1
238 732 1
246 732 1
460 732 1
583 732 1
239 733 1
247 733 1
456 733 1
584 733 1
240 734 1
248 734 1
457 734 1
585 734 1
236 735 1
249 735 1
458 735 1
581 735 1
230 736 1
242 736 1
464 736 1
587 736 1
226 737 1
243 737 1
465 737 1
588 737 1
227 738 1
244 738 1
461 738 1
589 738 1
228 739 1
245 739 1
462 739 1
590 739 1
229 740 1
241 740 1
463 740 1
586 740 1
235 741 1
247 741 1
469 741 1
592 741 1
231 742 1
248 742 1
470 742 1
593 742 1
232 743 1
249 743 1
466 743 1
594 743 1
233 744 1
250 744 1
467 744 1
595 744 1
234 745 1
246 745 1
468 745 1
591 745 1
227 746 1
240 746 1
474 746 1
597 746 1
228 747 1
236 747 1
475 747 1
598 747 1
229 748 1
237 748 1
471 748 1
599 748 1
230 749 1
238 749 1
472 749 1
600 749 1
226 750 1
239 750 1
473 750 1
596 750 1
332 751 1
345 751 1
534 751 1
558 751 1
333 752 1
341 752 1
535 752 1
559 752 1
334 753 1
342 753 1
531 753 1
560 753 1
335 754 1
343 754 1
532 754 1
556 754 1
331 755 1
344 755 1
533 755 1
557 755 1
337 756 1
350 756 1
539 756 1
563 756 1
338 757 1
346 757 1
540 757 1
564 757 1
339 758 1
347 758 1
536 758 1
565 758 1
340 759 1
348 759 1
537 759 1
561 759 1
336 760 1
349 760 1
538 760 1
562 760 1
330 761 1
342 761 1
544 761 1
568 761 1
326 762 1
343 762 1
545 762 1
569 762 1
327 763 1
344 763 1
541 763 1
570 763 1
328 764 1
345 764 1
542 764 1
566 764 1
329 765 1
341 765 1
543 765 1
567 765 1
335 766 1
347 766 1
549 766 1
573 766 1
331 767 1
348 767 1
550 767 1
574 767 1
332 768 1
349 768 1
546 768 1
575 768 1
333 769 1
350 769 1
547 769 1
571 769 1
334 770 1
346 770 1
548 770 1
572 770 1
327 771 1
340 771 1
529 771 1
553 771 1
328 772 1
336 772 1
530 772 1
554 772 1
329 773 1
337 773 1
526 773 1
555 773 1
330 774 1
338 774 1
527 774 1
551 774 1
326 775 1
339 775 1
528 775 1
552 775 1
357 776 1
370 776 1
559 776 1
583 776 1
358 777 1
366 777 1
560 777 1
584 777 1
359 778 1
367 778 1
556 778 1
585 778 1
360 779 1
368 779 1
557 779 1
581 779 1
356 780 1
369 780 1
558 780 1
582 780 1
362 781 1
375 781 1
564 781 1
588 781 1
363 782 1
371 782 1
565 782 1
589 782 1
364 783 1
372 783 1
561 783 1
590 783 1
365 784 1
373 784 1
562 784 1
586 784 1
361 785 1
374 785 1
563 785 1
587 785 1
355 786 1
367 786 1
569 786 1
593 786 1
351 787 1
368 787 1
570 787 1
594 787 1
352 788 1
369 788 1
566 788 1
595 788 1
353 789 1
370 789 1
567 789 1
591 789 1
354 790 1
366 790 1
568 790 1
592 790 1
360 791 1
372 791 1
574 791 1
598 791 1
356 792 1
373 792 1
575 792 1
599 792 1
357 793 1
374 793 1
571 793 1
600 793 1
358 794 1
375 794 1
572 794 1
596 794 1
359 795 1
371 795 1
573 795 1
597 795 1
352 796 1
365 796 1
554 796 1
578 796 1
353 797 1
361 797 1
555 797 1
579 797 1
354 798 1
362 798 1
551 798 1
580 798 1
355 799 1
363 799 1
552 799 1
576 799 1
351 800 1
364 800 1
553 800 1
577 800 1
307 801 1
320 801 1
533 801 1
584 801 1
308 802 1
316 802 1
534 802 1
585 802 1
309 803 1
317 803 1
535 803 1
581 803 1
310 804 1
318 804 1
531 804 1
582 804 1
306 805 1
319 805 1
532 805 1
583 805 1
312 806 1
325 806 1
538 806 1
589 806 1
313 807 1
321 807 1
539 807 1
590 807 1
314 808 1
322 808 1
540 808 1
586 808 1
315 809 1
323 809 1
536 809 1
587 809 1
311 810 1
324 810 1
537 810 1
588 810 1
305 811 1
317 811 1
543 811 1
594 811 1
301 812 1
318 812 1
544 812 1
595 812 1
302 813 1
319 813 1
545 813 1
591 813 1
303 814 1
320 814 1
541 814 1
592 814 1
304 815 1
316 815 1
542 815 1
593 815 1
310 816 1
322 816 1
548 816 1
599 816 1
306 817 1
323 817 1
549 817 1
600 817 1
307 818 1
324 818 1
550 818 1
596 818 1
308 819 1
325 819 1
546 819 1
597 819 1
309 820 1
321 820 1
547 820 1
598 820 1
302 821 1
315 821 1
528 821 1
579 821 1
303 822 1
311 822 1
529 822 1
580 822 1
304 823 1
312 823 1
530 823 1
576 823 1
305 824 1
313 824 1
526 824 1
577 824 1
301 825 1
314 825 1
527 825 1
578 825 1
407 826 1
420 826 1
459 826 1
483 826 1
408 827 1
416 827 1
460 827 1
484 827 1
409 828 1
417 828 1
456 828 1
485 828 1
410 829 1
418 829 1
457 829 1
481 829 1
406 830 1
419 830 1
458 830 1
482 830 1
412 831 1
425 831 1
464 831 1
488 831 1
413 832 1
421 832 1
465 832 1
489 832 1
414 833 1
422 833 1
461 833 1
490 833 1
415 834 1
423 834 1
462 834 1
486 834 1
411 835 1
424 835 1
463 835 1
487 835 1
405 836 1
417 836 1
469 836 1
493 836 1
401 837 1
418 837 1
470 837 1
494 837 1
402 838 1
419 838 1
466 838 1
495 838 1
403 839 1
420 839 1
467 839 1
491 839 1
404 840 1
416 840 1
468 840 1
492 840 1
410 841 1
422 841 1
474 841 1
498 841 1
406 842 1
423 842 1
475 842 1
499 842 1
407 843 1
424 843 1
471 843 1
500 843 1
408 844 1
425 844 1
472 844 1
496 844 1
409 845 1
421 845 1
473 845 1
497 845 1
402 846 1
415 846 1
454 846 1
478 846 1
403 847 1
411 847 1
455 847 1
479 847 1
404 848 1
412 848 1
451 848 1
480 848 1
405 849 1
413 849 1
452 849 1
476 849 1
401 850 1
414 850 1
453 850 1
477 850 1
432 851 1
445 851 1
484 851 1
508 851 1
433 852 1
441 852 1
485 852 1
509 852 1
434 853 1
442 853 1
481 853 1
510 853 1
435 854 1
443 854 1
482 854 1
506 854 1
431 855 1
444 855 1
483 855 1
507 855 1
437 856 1
450 856 1
489 856 1
513 856 1
438 857 1
446 857 1
490 857 1
514 857 1
439 858 1
447 858 1
486 858 1
515 858 1
440 859 1
448 859 1
487 859 1
511 859 1
436 860 1
449 860 1
488 860 1
512 860 1
430 861 1
442 861 1
494 861 1
518 861 1
426 862 1
443 862 1
495 862 1
519 862 1
427 863 1
444 863 1
491 863 1
520 863 1
428 864 1
445 864 1
492 864 1
516 864 1
429 865 1
441 865 1
493 865 1
517 865 1
435 866 1
447 866 1
499 866 1
523 866 1
431 867 1
448 867 1
500 867 1
524 867 1
432 868 1
449 868 1
496 868 1
525 868 1
433 869 1
450 869 1
497 869 1
521 869 1
434 870 1
446 870 1
498 870 1
522 870 1
427 871 1
440 871 1
479 871 1
503 871 1
428 872 1
436 872 1
480 872 1
504 872 1
429 873 1
437 873 1
476 873 1
505 873 1
430 874 1
438 874 1
477 874 1
501 874 1
426 875 1
439 875 1
478 875 1
502 875 1
382 876 1
395 876 1
458 876 1
509 876 1
383 877 1
391 877 1
459 877 1
510 877 1
384 878 1
392 878 1
460 878 1
506 878 1
385 879 1
393 879 1
456 879 1
507 879 1
381 880 1
394 880 1
457 880 1
508 880 1
387 881 1
400 881 1
463 881 1
514 881 1
388 882 1
396 882 1
464 882 1
515 882 1
389 883 1
397 883 1
465 883 1
511 883 1
390 884 1
398 884 1
461 884 1
512 884 1
386 885 1
399 885 1
462 885 1
513 885 1
380 886 1
392 886 1
468 886 1
519 886 1
376 887 1
393 887 1
469 887 1
520 887 1
377 888 1
394 888 1
470 888 1
516 888 1
378 889 1
395 889 1
466 889 1
517 889 1
379 890 1
391 890 1
467 890 1
518 890 1
385 891 1
397 891 1
473 891 1
524 891 1
381 892 1
398 892 1
474 892 1
525 892 1
382 893 1
399 893 1
475 893 1
521 893 1
383 894 1
400 894 1
471 894 1
522 894 1
384 895 1
396 895 1
472 895 1
523 895 1
377 896 1
390 896 1
453 896 1
504 896 1
378 897 1
386 897 1
454 897 1
505 897 1
379 898 1
387 898 1
455 898 1
501 898 1
380 899 1
388 899 1
451 899 1
502 899 1
376 900 1
389 900 1
452 900 1
503 900 1
