%%MatrixMarket matrix coordinate integer general
% Binary matrix; one-based indices; arithmetic over GF(2)
30 60 240
1 1 1
3 1 1
7 1 1
8 1 1
2 2 1
4 2 1
8 2 1
9 2 1
3 3 1
5 3 1
9 3 1
10 3 1
4 4 1
6 4 1
10 4 1
11 4 1
1 5 1
5 5 1
11 5 1
12 5 1
2 6 1
6 6 1
7 6 1
12 6 1
1 7 1
4 7 1
13 7 1
14 7 1
2 8 1
5 8 1
14 8 1
15 8 1
3 9 1
6 9 1
15 9 1
16 9 1
1 10 1
4 10 1
16 10 1
17 10 1
2 11 1
5 11 1
17 11 1
18 11 1
3 12 1
6 12 1
13 12 1
18 12 1
7 13 1
10 13 1
13 13 1
15 13 1
8 14 1
11 14 1
14 14 1
16 14 1
9 15 1
12 15 1
15 15 1
17 15 1
7 16 1
10 16 1
16 16 1
18 16 1
8 17 1
11 17 1
13 17 1
17 17 1
9 18 1
12 18 1
14 18 1
18 18 1
1 19 1
5 19 1
19 19 1
20 19 1
2 20 1
6 20 1
20 20 1
21 20 1
1 21 1
3 21 1
21 21 1
22 21 1
2 22 1
4 22 1
22 22 1
23 22 1
3 23 1
5 23 1
23 23 1
24 23 1
4 24 1
6 24 1
19 24 1
24 24 1
7 25 1
11 25 1
19 25 1
21 25 1
8 26 1
12 26 1
20 26 1
22 26 1
7 27 1
9 27 1
21 27 1
23 27 1
8 28 1
10 28 1
22 28 1
24 28 1
9 29 1
11 29 1
19 29 1
23 29 1
10 30 1
12 30 1
20 30 1
24 30 1
13 31 1
17 31 1
19 31 1
22 31 1
14 32 1
18 32 1
20 32 1
23 32 1
13 33 1
15 33 1
21 33 1
24 33 1
14 34 1
16 34 1
19 34 1
22 34 1
15 35 1
17 35 1
20 35 1
23 35 1
16 36 1
18 36 1
21 36 1
24 36 1
1 37 1
6 37 1
25 37 1
26 37 1
1 38 1
2 38 1
26 38 1
27 38 1
2 39 1
3 39 1
27 39 1
28 39 1
3 40 1
4 40 1
28 40 1
29 40 1
4 41 1
5 41 1
29 41 1
30 41 1
5 42 1
6 42 1
25 42 1
30 42 1
7 43 1
12 43 1
25 43 1
27 43 1
7 44 1
8 44 1
26 44 1
28 44 1
8 45 1
9 45 1
27 45 1
29 45 1
9 46 1
10 46 1
28 46 1
30 46 1
10 47 1
11 47 1
25 47 1
29 47 1
11 48 1
12 48 1
26 48 1
30 48 1
13 49 1
18 49 1
25 49 1
28 49 1
13 50 1
14 50 1
26 50 1
29 50 1
14 51 1
15 51 1
27 51 1
30 51 1
15 52 1
16 52 1
25 52 1
28 52 1
16 53 1
17 53 1
26 53 1
29 53 1
17 54 1
18 54 1
27 54 1
30 54 1
19 55 1
24 55 1
25 55 1
29 55 1
19 56 1
20 56 1
26 56 1
30 56 1
20 57 1
21 57 1
25 57 1
27 57 1
21 58 1
22 58 1
26 58 1
28 58 1
22 59 1
23 59 1
27 59 1
29 59 1
23 60 1
24 60 1
28 60 1
30 60 1
