%%MatrixMarket matrix coordinate integer general
% Binary matrix; one-based indices; arithmetic over GF(2)
448 672 2688
1 1 1
20 1 1
174 1 1
204 1 1
2 2 1
21 2 1
175 2 1
205 2 1
3 3 1
15 3 1
169 3 1
206 3 1
4 4 1
16 4 1
170 4 1
207 4 1
5 5 1
17 5 1
171 5 1
208 5 1
6 6 1
18 6 1
172 6 1
209 6 1
7 7 1
19 7 1
173 7 1
210 7 1
8 8 1
27 8 1
181 8 1
211 8 1
9 9 1
28 9 1
182 9 1
212 9 1
10 10 1
22 10 1
176 10 1
213 10 1
11 11 1
23 11 1
177 11 1
214 11 1
12 12 1
24 12 1
178 12 1
215 12 1
13 13 1
25 13 1
179 13 1
216 13 1
14 14 1
26 14 1
180 14 1
217 14 1
6 15 1
15 15 1
188 15 1
218 15 1
7 16 1
16 16 1
189 16 1
219 16 1
1 17 1
17 17 1
183 17 1
220 17 1
2 18 1
18 18 1
184 18 1
221 18 1
3 19 1
19 19 1
185 19 1
222 19 1
4 20 1
20 20 1
186 20 1
223 20 1
5 21 1
21 21 1
187 21 1
224 21 1
13 22 1
22 22 1
195 22 1
197 22 1
14 23 1
23 23 1
196 23 1
198 23 1
8 24 1
24 24 1
190 24 1
199 24 1
9 25 1
25 25 1
191 25 1
200 25 1
10 26 1
26 26 1
192 26 1
201 26 1
11 27 1
27 27 1
193 27 1
202 27 1
12 28 1
28 28 1
194 28 1
203 28 1
29 29 1
48 29 1
176 29 1
202 29 1
30 30 1
49 30 1
177 30 1
203 30 1
31 31 1
43 31 1
178 31 1
197 31 1
32 32 1
44 32 1
179 32 1
198 32 1
33 33 1
45 33 1
180 33 1
199 33 1
34 34 1
46 34 1
181 34 1
200 34 1
35 35 1
47 35 1
182 35 1
201 35 1
36 36 1
55 36 1
183 36 1
209 36 1
37 37 1
56 37 1
184 37 1
210 37 1
38 38 1
50 38 1
185 38 1
204 38 1
39 39 1
51 39 1
186 39 1
205 39 1
40 40 1
52 40 1
187 40 1
206 40 1
41 41 1
53 41 1
188 41 1
207 41 1
42 42 1
54 42 1
189 42 1
208 42 1
34 43 1
43 43 1
190 43 1
216 43 1
35 44 1
44 44 1
191 44 1
217 44 1
29 45 1
45 45 1
192 45 1
211 45 1
30 46 1
46 46 1
193 46 1
212 46 1
31 47 1
47 47 1
194 47 1
213 47 1
32 48 1
48 48 1
195 48 1
214 48 1
33 49 1
49 49 1
196 49 1
215 49 1
41 50 1
50 50 1
169 50 1
223 50 1
42 51 1
51 51 1
170 51 1
224 51 1
36 52 1
52 52 1
171 52 1
218 52 1
37 53 1
53 53 1
172 53 1
219 53 1
38 54 1
54 54 1
173 54 1
220 54 1
39 55 1
55 55 1
174 55 1
221 55 1
40 56 1
56 56 1
175 56 1
222 56 1
57 57 1
76 57 1
118 57 1
148 57 1
58 58 1
77 58 1
119 58 1
149 58 1
59 59 1
71 59 1
113 59 1
150 59 1
60 60 1
72 60 1
114 60 1
151 60 1
61 61 1
73 61 1
115 61 1
152 61 1
62 62 1
74 62 1
116 62 1
153 62 1
63 63 1
75 63 1
117 63 1
154 63 1
64 64 1
83 64 1
125 64 1
155 64 1
65 65 1
84 65 1
126 65 1
156 65 1
66 66 1
78 66 1
120 66 1
157 66 1
67 67 1
79 67 1
121 67 1
158 67 1
68 68 1
80 68 1
122 68 1
159 68 1
69 69 1
81 69 1
123 69 1
160 69 1
70 70 1
82 70 1
124 70 1
161 70 1
62 71 1
71 71 1
132 71 1
162 71 1
63 72 1
72 72 1
133 72 1
163 72 1
57 73 1
73 73 1
127 73 1
164 73 1
58 74 1
74 74 1
128 74 1
165 74 1
59 75 1
75 75 1
129 75 1
166 75 1
60 76 1
76 76 1
130 76 1
167 76 1
61 77 1
77 77 1
131 77 1
168 77 1
69 78 1
78 78 1
139 78 1
141 78 1
70 79 1
79 79 1
140 79 1
142 79 1
64 80 1
80 80 1
134 80 1
143 80 1
65 81 1
81 81 1
135 81 1
144 81 1
66 82 1
82 82 1
136 82 1
145 82 1
67 83 1
83 83 1
137 83 1
146 83 1
68 84 1
84 84 1
138 84 1
147 84 1
85 85 1
104 85 1
120 85 1
146 85 1
86 86 1
105 86 1
121 86 1
147 86 1
87 87 1
99 87 1
122 87 1
141 87 1
88 88 1
100 88 1
123 88 1
142 88 1
89 89 1
101 89 1
124 89 1
143 89 1
90 90 1
102 90 1
125 90 1
144 90 1
91 91 1
103 91 1
126 91 1
145 91 1
92 92 1
111 92 1
127 92 1
153 92 1
93 93 1
112 93 1
128 93 1
154 93 1
94 94 1
106 94 1
129 94 1
148 94 1
95 95 1
107 95 1
130 95 1
149 95 1
96 96 1
108 96 1
131 96 1
150 96 1
97 97 1
109 97 1
132 97 1
151 97 1
98 98 1
110 98 1
133 98 1
152 98 1
90 99 1
99 99 1
134 99 1
160 99 1
91 100 1
100 100 1
135 100 1
161 100 1
85 101 1
101 101 1
136 101 1
155 101 1
86 102 1
102 102 1
137 102 1
156 102 1
87 103 1
103 103 1
138 103 1
157 103 1
88 104 1
104 104 1
139 104 1
158 104 1
89 105 1
105 105 1
140 105 1
159 105 1
97 106 1
106 106 1
113 106 1
167 106 1
98 107 1
107 107 1
114 107 1
168 107 1
92 108 1
108 108 1
115 108 1
162 108 1
93 109 1
109 109 1
116 109 1
163 109 1
94 110 1
110 110 1
117 110 1
164 110 1
95 111 1
111 111 1
118 111 1
165 111 1
96 112 1
112 112 1
119 112 1
166 112 1
58 113 1
109 113 1
286 113 1
316 113 1
59 114 1
110 114 1
287 114 1
317 114 1
60 115 1
111 115 1
281 115 1
318 115 1
61 116 1
112 116 1
282 116 1
319 116 1
62 117 1
106 117 1
283 117 1
320 117 1
63 118 1
107 118 1
284 118 1
321 118 1
57 119 1
108 119 1
285 119 1
322 119 1
65 120 1
88 120 1
293 120 1
323 120 1
66 121 1
89 121 1
294 121 1
324 121 1
67 122 1
90 122 1
288 122 1
325 122 1
68 123 1
91 123 1
289 123 1
326 123 1
69 124 1
85 124 1
290 124 1
327 124 1
70 125 1
86 125 1
291 125 1
328 125 1
64 126 1
87 126 1
292 126 1
329 126 1
72 127 1
95 127 1
300 127 1
330 127 1
73 128 1
96 128 1
301 128 1
331 128 1
74 129 1
97 129 1
295 129 1
332 129 1
75 130 1
98 130 1
296 130 1
333 130 1
76 131 1
92 131 1
297 131 1
334 131 1
77 132 1
93 132 1
298 132 1
335 132 1
71 133 1
94 133 1
299 133 1
336 133 1
79 134 1
102 134 1
307 134 1
309 134 1
80 135 1
103 135 1
308 135 1
310 135 1
81 136 1
104 136 1
302 136 1
311 136 1
82 137 1
105 137 1
303 137 1
312 137 1
83 138 1
99 138 1
304 138 1
313 138 1
84 139 1
100 139 1
305 139 1
314 139 1
78 140 1
101 140 1
306 140 1
315 140 1
81 141 1
86 141 1
288 141 1
314 141 1
82 142 1
87 142 1
289 142 1
315 142 1
83 143 1
88 143 1
290 143 1
309 143 1
84 144 1
89 144 1
291 144 1
310 144 1
78 145 1
90 145 1
292 145 1
311 145 1
79 146 1
91 146 1
293 146 1
312 146 1
80 147 1
85 147 1
294 147 1
313 147 1
60 148 1
93 148 1
295 148 1
321 148 1
61 149 1
94 149 1
296 149 1
322 149 1
62 150 1
95 150 1
297 150 1
316 150 1
63 151 1
96 151 1
298 151 1
317 151 1
57 152 1
97 152 1
299 152 1
318 152 1
58 153 1
98 153 1
300 153 1
319 153 1
59 154 1
92 154 1
301 154 1
320 154 1
67 155 1
100 155 1
302 155 1
328 155 1
68 156 1
101 156 1
303 156 1
329 156 1
69 157 1
102 157 1
304 157 1
323 157 1
70 158 1
103 158 1
305 158 1
324 158 1
64 159 1
104 159 1
306 159 1
325 159 1
65 160 1
105 160 1
307 160 1
326 160 1
66 161 1
99 161 1
308 161 1
327 161 1
74 162 1
107 162 1
281 162 1
335 162 1
75 163 1
108 163 1
282 163 1
336 163 1
76 164 1
109 164 1
283 164 1
330 164 1
77 165 1
110 165 1
284 165 1
331 165 1
71 166 1
111 166 1
285 166 1
332 166 1
72 167 1
112 167 1
286 167 1
333 167 1
73 168 1
106 168 1
287 168 1
334 168 1
2 169 1
53 169 1
230 169 1
260 169 1
3 170 1
54 170 1
231 170 1
261 170 1
4 171 1
55 171 1
225 171 1
262 171 1
5 172 1
56 172 1
226 172 1
263 172 1
6 173 1
50 173 1
227 173 1
264 173 1
7 174 1
51 174 1
228 174 1
265 174 1
1 175 1
52 175 1
229 175 1
266 175 1
9 176 1
32 176 1
237 176 1
267 176 1
10 177 1
33 177 1
238 177 1
268 177 1
11 178 1
34 178 1
232 178 1
269 178 1
12 179 1
35 179 1
233 179 1
270 179 1
13 180 1
29 180 1
234 180 1
271 180 1
14 181 1
30 181 1
235 181 1
272 181 1
8 182 1
31 182 1
236 182 1
273 182 1
16 183 1
39 183 1
244 183 1
274 183 1
17 184 1
40 184 1
245 184 1
275 184 1
18 185 1
41 185 1
239 185 1
276 185 1
19 186 1
42 186 1
240 186 1
277 186 1
20 187 1
36 187 1
241 187 1
278 187 1
21 188 1
37 188 1
242 188 1
279 188 1
15 189 1
38 189 1
243 189 1
280 189 1
23 190 1
46 190 1
251 190 1
253 190 1
24 191 1
47 191 1
252 191 1
254 191 1
25 192 1
48 192 1
246 192 1
255 192 1
26 193 1
49 193 1
247 193 1
256 193 1
27 194 1
43 194 1
248 194 1
257 194 1
28 195 1
44 195 1
249 195 1
258 195 1
22 196 1
45 196 1
250 196 1
259 196 1
25 197 1
30 197 1
232 197 1
258 197 1
26 198 1
31 198 1
233 198 1
259 198 1
27 199 1
32 199 1
234 199 1
253 199 1
28 200 1
33 200 1
235 200 1
254 200 1
22 201 1
34 201 1
236 201 1
255 201 1
23 202 1
35 202 1
237 202 1
256 202 1
24 203 1
29 203 1
238 203 1
257 203 1
4 204 1
37 204 1
239 204 1
265 204 1
5 205 1
38 205 1
240 205 1
266 205 1
6 206 1
39 206 1
241 206 1
260 206 1
7 207 1
40 207 1
242 207 1
261 207 1
1 208 1
41 208 1
243 208 1
262 208 1
2 209 1
42 209 1
244 209 1
263 209 1
3 210 1
36 210 1
245 210 1
264 210 1
11 211 1
44 211 1
246 211 1
272 211 1
12 212 1
45 212 1
247 212 1
273 212 1
13 213 1
46 213 1
248 213 1
267 213 1
14 214 1
47 214 1
249 214 1
268 214 1
8 215 1
48 215 1
250 215 1
269 215 1
9 216 1
49 216 1
251 216 1
270 216 1
10 217 1
43 217 1
252 217 1
271 217 1
18 218 1
51 218 1
225 218 1
279 218 1
19 219 1
52 219 1
226 219 1
280 219 1
20 220 1
53 220 1
227 220 1
274 220 1
21 221 1
54 221 1
228 221 1
275 221 1
15 222 1
55 222 1
229 222 1
276 222 1
16 223 1
56 223 1
230 223 1
277 223 1
17 224 1
50 224 1
231 224 1
278 224 1
170 225 1
221 225 1
225 225 1
244 225 1
171 226 1
222 226 1
226 226 1
245 226 1
172 227 1
223 227 1
227 227 1
239 227 1
173 228 1
224 228 1
228 228 1
240 228 1
174 229 1
218 229 1
229 229 1
241 229 1
175 230 1
219 230 1
230 230 1
242 230 1
169 231 1
220 231 1
231 231 1
243 231 1
177 232 1
200 232 1
232 232 1
251 232 1
178 233 1
201 233 1
233 233 1
252 233 1
179 234 1
202 234 1
234 234 1
246 234 1
180 235 1
203 235 1
235 235 1
247 235 1
181 236 1
197 236 1
236 236 1
248 236 1
182 237 1
198 237 1
237 237 1
249 237 1
176 238 1
199 238 1
238 238 1
250 238 1
184 239 1
207 239 1
230 239 1
239 239 1
185 240 1
208 240 1
231 240 1
240 240 1
186 241 1
209 241 1
225 241 1
241 241 1
187 242 1
210 242 1
226 242 1
242 242 1
188 243 1
204 243 1
227 243 1
243 243 1
189 244 1
205 244 1
228 244 1
244 244 1
183 245 1
206 245 1
229 245 1
245 245 1
191 246 1
214 246 1
237 246 1
246 246 1
192 247 1
215 247 1
238 247 1
247 247 1
193 248 1
216 248 1
232 248 1
248 248 1
194 249 1
217 249 1
233 249 1
249 249 1
195 250 1
211 250 1
234 250 1
250 250 1
196 251 1
212 251 1
235 251 1
251 251 1
190 252 1
213 252 1
236 252 1
252 252 1
193 253 1
198 253 1
253 253 1
272 253 1
194 254 1
199 254 1
254 254 1
273 254 1
195 255 1
200 255 1
255 255 1
267 255 1
196 256 1
201 256 1
256 256 1
268 256 1
190 257 1
202 257 1
257 257 1
269 257 1
191 258 1
203 258 1
258 258 1
270 258 1
192 259 1
197 259 1
259 259 1
271 259 1
172 260 1
205 260 1
260 260 1
279 260 1
173 261 1
206 261 1
261 261 1
280 261 1
174 262 1
207 262 1
262 262 1
274 262 1
175 263 1
208 263 1
263 263 1
275 263 1
169 264 1
209 264 1
264 264 1
276 264 1
170 265 1
210 265 1
265 265 1
277 265 1
171 266 1
204 266 1
266 266 1
278 266 1
179 267 1
212 267 1
258 267 1
267 267 1
180 268 1
213 268 1
259 268 1
268 268 1
181 269 1
214 269 1
253 269 1
269 269 1
182 270 1
215 270 1
254 270 1
270 270 1
176 271 1
216 271 1
255 271 1
271 271 1
177 272 1
217 272 1
256 272 1
272 272 1
178 273 1
211 273 1
257 273 1
273 273 1
186 274 1
219 274 1
265 274 1
274 274 1
187 275 1
220 275 1
266 275 1
275 275 1
188 276 1
221 276 1
260 276 1
276 276 1
189 277 1
222 277 1
261 277 1
277 277 1
183 278 1
223 278 1
262 278 1
278 278 1
184 279 1
224 279 1
263 279 1
279 279 1
185 280 1
218 280 1
264 280 1
280 280 1
114 281 1
165 281 1
281 281 1
300 281 1
115 282 1
166 282 1
282 282 1
301 282 1
116 283 1
167 283 1
283 283 1
295 283 1
117 284 1
168 284 1
284 284 1
296 284 1
118 285 1
162 285 1
285 285 1
297 285 1
119 286 1
163 286 1
286 286 1
298 286 1
113 287 1
164 287 1
287 287 1
299 287 1
121 288 1
144 288 1
288 288 1
307 288 1
122 289 1
145 289 1
289 289 1
308 289 1
123 290 1
146 290 1
290 290 1
302 290 1
124 291 1
147 291 1
291 291 1
303 291 1
125 292 1
141 292 1
292 292 1
304 292 1
126 293 1
142 293 1
293 293 1
305 293 1
120 294 1
143 294 1
294 294 1
306 294 1
128 295 1
151 295 1
286 295 1
295 295 1
129 296 1
152 296 1
287 296 1
296 296 1
130 297 1
153 297 1
281 297 1
297 297 1
131 298 1
154 298 1
282 298 1
298 298 1
132 299 1
148 299 1
283 299 1
299 299 1
133 300 1
149 300 1
284 300 1
300 300 1
127 301 1
150 301 1
285 301 1
301 301 1
135 302 1
158 302 1
293 302 1
302 302 1
136 303 1
159 303 1
294 303 1
303 303 1
137 304 1
160 304 1
288 304 1
304 304 1
138 305 1
161 305 1
289 305 1
305 305 1
139 306 1
155 306 1
290 306 1
306 306 1
140 307 1
156 307 1
291 307 1
307 307 1
134 308 1
157 308 1
292 308 1
308 308 1
137 309 1
142 309 1
309 309 1
328 309 1
138 310 1
143 310 1
310 310 1
329 310 1
139 311 1
144 311 1
311 311 1
323 311 1
140 312 1
145 312 1
312 312 1
324 312 1
134 313 1
146 313 1
313 313 1
325 313 1
135 314 1
147 314 1
314 314 1
326 314 1
136 315 1
141 315 1
315 315 1
327 315 1
116 316 1
149 316 1
316 316 1
335 316 1
117 317 1
150 317 1
317 317 1
336 317 1
118 318 1
151 318 1
318 318 1
330 318 1
119 319 1
152 319 1
319 319 1
331 319 1
113 320 1
153 320 1
320 320 1
332 320 1
114 321 1
154 321 1
321 321 1
333 321 1
115 322 1
148 322 1
322 322 1
334 322 1
123 323 1
156 323 1
314 323 1
323 323 1
124 324 1
157 324 1
315 324 1
324 324 1
125 325 1
158 325 1
309 325 1
325 325 1
126 326 1
159 326 1
310 326 1
326 326 1
120 327 1
160 327 1
311 327 1
327 327 1
121 328 1
161 328 1
312 328 1
328 328 1
122 329 1
155 329 1
313 329 1
329 329 1
130 330 1
163 330 1
321 330 1
330 330 1
131 331 1
164 331 1
322 331 1
331 331 1
132 332 1
165 332 1
316 332 1
332 332 1
133 333 1
166 333 1
317 333 1
333 333 1
127 334 1
167 334 1
318 334 1
334 334 1
128 335 1
168 335 1
319 335 1
335 335 1
129 336 1
162 336 1
320 336 1
336 336 1
64 337 1
70 337 1
398 337 1
428 337 1
64 338 1
65 338 1
399 338 1
429 338 1
65 339 1
66 339 1
393 339 1
430 339 1
66 340 1
67 340 1
394 340 1
431 340 1
67 341 1
68 341 1
395 341 1
432 341 1
68 342 1
69 342 1
396 342 1
433 342 1
69 343 1
70 343 1
397 343 1
434 343 1
71 344 1
77 344 1
405 344 1
435 344 1
71 345 1
72 345 1
406 345 1
436 345 1
72 346 1
73 346 1
400 346 1
437 346 1
73 347 1
74 347 1
401 347 1
438 347 1
74 348 1
75 348 1
402 348 1
439 348 1
75 349 1
76 349 1
403 349 1
440 349 1
76 350 1
77 350 1
404 350 1
441 350 1
78 351 1
84 351 1
412 351 1
442 351 1
78 352 1
79 352 1
413 352 1
443 352 1
79 353 1
80 353 1
407 353 1
444 353 1
80 354 1
81 354 1
408 354 1
445 354 1
81 355 1
82 355 1
409 355 1
446 355 1
82 356 1
83 356 1
410 356 1
447 356 1
83 357 1
84 357 1
411 357 1
448 357 1
57 358 1
63 358 1
419 358 1
421 358 1
57 359 1
58 359 1
420 359 1
422 359 1
58 360 1
59 360 1
414 360 1
423 360 1
59 361 1
60 361 1
415 361 1
424 361 1
60 362 1
61 362 1
416 362 1
425 362 1
61 363 1
62 363 1
417 363 1
426 363 1
62 364 1
63 364 1
418 364 1
427 364 1
92 365 1
98 365 1
400 365 1
426 365 1
92 366 1
93 366 1
401 366 1
427 366 1
93 367 1
94 367 1
402 367 1
421 367 1
94 368 1
95 368 1
403 368 1
422 368 1
95 369 1
96 369 1
404 369 1
423 369 1
96 370 1
97 370 1
405 370 1
424 370 1
97 371 1
98 371 1
406 371 1
425 371 1
99 372 1
105 372 1
407 372 1
433 372 1
99 373 1
100 373 1
408 373 1
434 373 1
100 374 1
101 374 1
409 374 1
428 374 1
101 375 1
102 375 1
410 375 1
429 375 1
102 376 1
103 376 1
411 376 1
430 376 1
103 377 1
104 377 1
412 377 1
431 377 1
104 378 1
105 378 1
413 378 1
432 378 1
106 379 1
112 379 1
414 379 1
440 379 1
106 380 1
107 380 1
415 380 1
441 380 1
107 381 1
108 381 1
416 381 1
435 381 1
108 382 1
109 382 1
417 382 1
436 382 1
109 383 1
110 383 1
418 383 1
437 383 1
110 384 1
111 384 1
419 384 1
438 384 1
111 385 1
112 385 1
420 385 1
439 385 1
85 386 1
91 386 1
393 386 1
447 386 1
85 387 1
86 387 1
394 387 1
448 387 1
86 388 1
87 388 1
395 388 1
442 388 1
87 389 1
88 389 1
396 389 1
443 389 1
88 390 1
89 390 1
397 390 1
444 390 1
89 391 1
90 391 1
398 391 1
445 391 1
90 392 1
91 392 1
399 392 1
446 392 1
8 393 1
14 393 1
342 393 1
372 393 1
8 394 1
9 394 1
343 394 1
373 394 1
9 395 1
10 395 1
337 395 1
374 395 1
10 396 1
11 396 1
338 396 1
375 396 1
11 397 1
12 397 1
339 397 1
376 397 1
12 398 1
13 398 1
340 398 1
377 398 1
13 399 1
14 399 1
341 399 1
378 399 1
15 400 1
21 400 1
349 400 1
379 400 1
15 401 1
16 401 1
350 401 1
380 401 1
16 402 1
17 402 1
344 402 1
381 402 1
17 403 1
18 403 1
345 403 1
382 403 1
18 404 1
19 404 1
346 404 1
383 404 1
19 405 1
20 405 1
347 405 1
384 405 1
20 406 1
21 406 1
348 406 1
385 406 1
22 407 1
28 407 1
356 407 1
386 407 1
22 408 1
23 408 1
357 408 1
387 408 1
23 409 1
24 409 1
351 409 1
388 409 1
24 410 1
25 410 1
352 410 1
389 410 1
25 411 1
26 411 1
353 411 1
390 411 1
26 412 1
27 412 1
354 412 1
391 412 1
27 413 1
28 413 1
355 413 1
392 413 1
1 414 1
7 414 1
363 414 1
365 414 1
1 415 1
2 415 1
364 415 1
366 415 1
2 416 1
3 416 1
358 416 1
367 416 1
3 417 1
4 417 1
359 417 1
368 417 1
4 418 1
5 418 1
360 418 1
369 418 1
5 419 1
6 419 1
361 419 1
370 419 1
6 420 1
7 420 1
362 420 1
371 420 1
36 421 1
42 421 1
344 421 1
370 421 1
36 422 1
37 422 1
345 422 1
371 422 1
37 423 1
38 423 1
346 423 1
365 423 1
38 424 1
39 424 1
347 424 1
366 424 1
39 425 1
40 425 1
348 425 1
367 425 1
40 426 1
41 426 1
349 426 1
368 426 1
41 427 1
42 427 1
350 427 1
369 427 1
43 428 1
49 428 1
351 428 1
377 428 1
43 429 1
44 429 1
352 429 1
378 429 1
44 430 1
45 430 1
353 430 1
372 430 1
45 431 1
46 431 1
354 431 1
373 431 1
46 432 1
47 432 1
355 432 1
374 432 1
47 433 1
48 433 1
356 433 1
375 433 1
48 434 1
49 434 1
357 434 1
376 434 1
50 435 1
56 435 1
358 435 1
384 435 1
50 436 1
51 436 1
359 436 1
385 436 1
51 437 1
52 437 1
360 437 1
379 437 1
52 438 1
53 438 1
361 438 1
380 438 1
53 439 1
54 439 1
362 439 1
381 439 1
54 440 1
55 440 1
363 440 1
382 440 1
55 441 1
56 441 1
364 441 1
383 441 1
29 442 1
35 442 1
337 442 1
391 442 1
29 443 1
30 443 1
338 443 1
392 443 1
30 444 1
31 444 1
339 444 1
386 444 1
31 445 1
32 445 1
340 445 1
387 445 1
32 446 1
33 446 1
341 446 1
388 446 1
33 447 1
34 447 1
342 447 1
389 447 1
34 448 1
35 448 1
343 448 1
390 448 1
176 449 1
182 449 1
337 449 1
356 449 1
176 450 1
177 450 1
338 450 1
357 450 1
177 451 1
178 451 1
339 451 1
351 451 1
178 452 1
179 452 1
340 452 1
352 452 1
179 453 1
180 453 1
341 453 1
353 453 1
180 454 1
181 454 1
342 454 1
354 454 1
181 455 1
182 455 1
343 455 1
355 455 1
183 456 1
189 456 1
344 456 1
363 456 1
183 457 1
184 457 1
345 457 1
364 457 1
184 458 1
185 458 1
346 458 1
358 458 1
185 459 1
186 459 1
347 459 1
359 459 1
186 460 1
187 460 1
348 460 1
360 460 1
187 461 1
188 461 1
349 461 1
361 461 1
188 462 1
189 462 1
350 462 1
362 462 1
190 463 1
196 463 1
342 463 1
351 463 1
190 464 1
191 464 1
343 464 1
352 464 1
191 465 1
192 465 1
337 465 1
353 465 1
192 466 1
193 466 1
338 466 1
354 466 1
193 467 1
194 467 1
339 467 1
355 467 1
194 468 1
195 468 1
340 468 1
356 468 1
195 469 1
196 469 1
341 469 1
357 469 1
169 470 1
175 470 1
349 470 1
358 470 1
169 471 1
170 471 1
350 471 1
359 471 1
170 472 1
171 472 1
344 472 1
360 472 1
171 473 1
172 473 1
345 473 1
361 473 1
172 474 1
173 474 1
346 474 1
362 474 1
173 475 1
174 475 1
347 475 1
363 475 1
174 476 1
175 476 1
348 476 1
364 476 1
204 477 1
210 477 1
365 477 1
384 477 1
204 478 1
205 478 1
366 478 1
385 478 1
205 479 1
206 479 1
367 479 1
379 479 1
206 480 1
207 480 1
368 480 1
380 480 1
207 481 1
208 481 1
369 481 1
381 481 1
208 482 1
209 482 1
370 482 1
382 482 1
209 483 1
210 483 1
371 483 1
383 483 1
211 484 1
217 484 1
372 484 1
391 484 1
211 485 1
212 485 1
373 485 1
392 485 1
212 486 1
213 486 1
374 486 1
386 486 1
213 487 1
214 487 1
375 487 1
387 487 1
214 488 1
215 488 1
376 488 1
388 488 1
215 489 1
216 489 1
377 489 1
389 489 1
216 490 1
217 490 1
378 490 1
390 490 1
218 491 1
224 491 1
370 491 1
379 491 1
218 492 1
219 492 1
371 492 1
380 492 1
219 493 1
220 493 1
365 493 1
381 493 1
220 494 1
221 494 1
366 494 1
382 494 1
221 495 1
222 495 1
367 495 1
383 495 1
222 496 1
223 496 1
368 496 1
384 496 1
223 497 1
224 497 1
369 497 1
385 497 1
197 498 1
203 498 1
377 498 1
386 498 1
197 499 1
198 499 1
378 499 1
387 499 1
198 500 1
199 500 1
372 500 1
388 500 1
199 501 1
200 501 1
373 501 1
389 501 1
200 502 1
201 502 1
374 502 1
390 502 1
201 503 1
202 503 1
375 503 1
391 503 1
202 504 1
203 504 1
376 504 1
392 504 1
120 505 1
126 505 1
393 505 1
412 505 1
120 506 1
121 506 1
394 506 1
413 506 1
121 507 1
122 507 1
395 507 1
407 507 1
122 508 1
123 508 1
396 508 1
408 508 1
123 509 1
124 509 1
397 509 1
409 509 1
124 510 1
125 510 1
398 510 1
410 510 1
125 511 1
126 511 1
399 511 1
411 511 1
127 512 1
133 512 1
400 512 1
419 512 1
127 513 1
128 513 1
401 513 1
420 513 1
128 514 1
129 514 1
402 514 1
414 514 1
129 515 1
130 515 1
403 515 1
415 515 1
130 516 1
131 516 1
404 516 1
416 516 1
131 517 1
132 517 1
405 517 1
417 517 1
132 518 1
133 518 1
406 518 1
418 518 1
134 519 1
140 519 1
398 519 1
407 519 1
134 520 1
135 520 1
399 520 1
408 520 1
135 521 1
136 521 1
393 521 1
409 521 1
136 522 1
137 522 1
394 522 1
410 522 1
137 523 1
138 523 1
395 523 1
411 523 1
138 524 1
139 524 1
396 524 1
412 524 1
139 525 1
140 525 1
397 525 1
413 525 1
113 526 1
119 526 1
405 526 1
414 526 1
113 527 1
114 527 1
406 527 1
415 527 1
114 528 1
115 528 1
400 528 1
416 528 1
115 529 1
116 529 1
401 529 1
417 529 1
116 530 1
117 530 1
402 530 1
418 530 1
117 531 1
118 531 1
403 531 1
419 531 1
118 532 1
119 532 1
404 532 1
420 532 1
148 533 1
154 533 1
421 533 1
440 533 1
148 534 1
149 534 1
422 534 1
441 534 1
149 535 1
150 535 1
423 535 1
435 535 1
150 536 1
151 536 1
424 536 1
436 536 1
151 537 1
152 537 1
425 537 1
437 537 1
152 538 1
153 538 1
426 538 1
438 538 1
153 539 1
154 539 1
427 539 1
439 539 1
155 540 1
161 540 1
428 540 1
447 540 1
155 541 1
156 541 1
429 541 1
448 541 1
156 542 1
157 542 1
430 542 1
442 542 1
157 543 1
158 543 1
431 543 1
443 543 1
158 544 1
159 544 1
432 544 1
444 544 1
159 545 1
160 545 1
433 545 1
445 545 1
160 546 1
161 546 1
434 546 1
446 546 1
162 547 1
168 547 1
426 547 1
435 547 1
162 548 1
163 548 1
427 548 1
436 548 1
163 549 1
164 549 1
421 549 1
437 549 1
164 550 1
165 550 1
422 550 1
438 550 1
165 551 1
166 551 1
423 551 1
439 551 1
166 552 1
167 552 1
424 552 1
440 552 1
167 553 1
168 553 1
425 553 1
441 553 1
141 554 1
147 554 1
433 554 1
442 554 1
141 555 1
142 555 1
434 555 1
443 555 1
142 556 1
143 556 1
428 556 1
444 556 1
143 557 1
144 557 1
429 557 1
445 557 1
144 558 1
145 558 1
430 558 1
446 558 1
145 559 1
146 559 1
431 559 1
447 559 1
146 560 1
147 560 1
432 560 1
448 560 1
288 561 1
294 561 1
394 561 1
445 561 1
288 562 1
289 562 1
395 562 1
446 562 1
289 563 1
290 563 1
396 563 1
447 563 1
290 564 1
291 564 1
397 564 1
448 564 1
291 565 1
292 565 1
398 565 1
442 565 1
292 566 1
293 566 1
399 566 1
443 566 1
293 567 1
294 567 1
393 567 1
444 567 1
295 568 1
301 568 1
401 568 1
424 568 1
295 569 1
296 569 1
402 569 1
425 569 1
296 570 1
297 570 1
403 570 1
426 570 1
297 571 1
298 571 1
404 571 1
427 571 1
298 572 1
299 572 1
405 572 1
421 572 1
299 573 1
300 573 1
406 573 1
422 573 1
300 574 1
301 574 1
400 574 1
423 574 1
302 575 1
308 575 1
408 575 1
431 575 1
302 576 1
303 576 1
409 576 1
432 576 1
303 577 1
304 577 1
410 577 1
433 577 1
304 578 1
305 578 1
411 578 1
434 578 1
305 579 1
306 579 1
412 579 1
428 579 1
306 580 1
307 580 1
413 580 1
429 580 1
307 581 1
308 581 1
407 581 1
430 581 1
281 582 1
287 582 1
415 582 1
438 582 1
281 583 1
282 583 1
416 583 1
439 583 1
282 584 1
283 584 1
417 584 1
440 584 1
283 585 1
284 585 1
418 585 1
441 585 1
284 586 1
285 586 1
419 586 1
435 586 1
285 587 1
286 587 1
420 587 1
436 587 1
286 588 1
287 588 1
414 588 1
437 588 1
316 589 1
322 589 1
417 589 1
422 589 1
316 590 1
317 590 1
418 590 1
423 590 1
317 591 1
318 591 1
419 591 1
424 591 1
318 592 1
319 592 1
420 592 1
425 592 1
319 593 1
320 593 1
414 593 1
426 593 1
320 594 1
321 594 1
415 594 1
427 594 1
321 595 1
322 595 1
416 595 1
421 595 1
323 596 1
329 596 1
396 596 1
429 596 1
323 597 1
324 597 1
397 597 1
430 597 1
324 598 1
325 598 1
398 598 1
431 598 1
325 599 1
326 599 1
399 599 1
432 599 1
326 600 1
327 600 1
393 600 1
433 600 1
327 601 1
328 601 1
394 601 1
434 601 1
328 602 1
329 602 1
395 602 1
428 602 1
330 603 1
336 603 1
403 603 1
436 603 1
330 604 1
331 604 1
404 604 1
437 604 1
331 605 1
332 605 1
405 605 1
438 605 1
332 606 1
333 606 1
406 606 1
439 606 1
333 607 1
334 607 1
400 607 1
440 607 1
334 608 1
335 608 1
401 608 1
441 608 1
335 609 1
336 609 1
402 609 1
435 609 1
309 610 1
315 610 1
410 610 1
443 610 1
309 611 1
310 611 1
411 611 1
444 611 1
310 612 1
311 612 1
412 612 1
445 612 1
311 613 1
312 613 1
413 613 1
446 613 1
312 614 1
313 614 1
407 614 1
447 614 1
313 615 1
314 615 1
408 615 1
448 615 1
314 616 1
315 616 1
409 616 1
442 616 1
232 617 1
238 617 1
338 617 1
389 617 1
232 618 1
233 618 1
339 618 1
390 618 1
233 619 1
234 619 1
340 619 1
391 619 1
234 620 1
235 620 1
341 620 1
392 620 1
235 621 1
236 621 1
342 621 1
386 621 1
236 622 1
237 622 1
343 622 1
387 622 1
237 623 1
238 623 1
337 623 1
388 623 1
239 624 1
245 624 1
345 624 1
368 624 1
239 625 1
240 625 1
346 625 1
369 625 1
240 626 1
241 626 1
347 626 1
370 626 1
241 627 1
242 627 1
348 627 1
371 627 1
242 628 1
243 628 1
349 628 1
365 628 1
243 629 1
244 629 1
350 629 1
366 629 1
244 630 1
245 630 1
344 630 1
367 630 1
246 631 1
252 631 1
352 631 1
375 631 1
246 632 1
247 632 1
353 632 1
376 632 1
247 633 1
248 633 1
354 633 1
377 633 1
248 634 1
249 634 1
355 634 1
378 634 1
249 635 1
250 635 1
356 635 1
372 635 1
250 636 1
251 636 1
357 636 1
373 636 1
251 637 1
252 637 1
351 637 1
374 637 1
225 638 1
231 638 1
359 638 1
382 638 1
225 639 1
226 639 1
360 639 1
383 639 1
226 640 1
227 640 1
361 640 1
384 640 1
227 641 1
228 641 1
362 641 1
385 641 1
228 642 1
229 642 1
363 642 1
379 642 1
229 643 1
230 643 1
364 643 1
380 643 1
230 644 1
231 644 1
358 644 1
381 644 1
260 645 1
266 645 1
361 645 1
366 645 1
260 646 1
261 646 1
362 646 1
367 646 1
261 647 1
262 647 1
363 647 1
368 647 1
262 648 1
263 648 1
364 648 1
369 648 1
263 649 1
264 649 1
358 649 1
370 649 1
264 650 1
265 650 1
359 650 1
371 650 1
265 651 1
266 651 1
360 651 1
365 651 1
267 652 1
273 652 1
340 652 1
373 652 1
267 653 1
268 653 1
341 653 1
374 653 1
268 654 1
269 654 1
342 654 1
375 654 1
269 655 1
270 655 1
343 655 1
376 655 1
270 656 1
271 656 1
337 656 1
377 656 1
271 657 1
272 657 1
338 657 1
378 657 1
272 658 1
273 658 1
339 658 1
372 658 1
274 659 1
280 659 1
347 659 1
380 659 1
274 660 1
275 660 1
348 660 1
381 660 1
275 661 1
276 661 1
349 661 1
382 661 1
276 662 1
277 662 1
350 662 1
383 662 1
277 663 1
278 663 1
344 663 1
384 663 1
278 664 1
279 664 1
345 664 1
385 664 1
279 665 1
280 665 1
346 665 1
379 665 1
253 666 1
259 666 1
354 666 1
387 666 1
253 667 1
254 667 1
355 667 1
388 667 1
254 668 1
255 668 1
356 668 1
389 668 1
255 669 1
256 669 1
357 669 1
390 669 1
256 670 1
257 670 1
351 670 1
391 670 1
257 671 1
258 671 1
352 671 1
392 671 1
258 672 1
259 672 1
353 672 1
386 672 1
