%%MatrixMarket matrix coordinate integer general
% Binary matrix; one-based indices; arithmetic over GF(2)
448 672 2688
63 1 1
96 1 1
190 1 1
191 1 1
57 2 1
97 2 1
191 2 1
192 2 1
58 3 1
98 3 1
192 3 1
193 3 1
59 4 1
92 4 1
193 4 1
194 4 1
60 5 1
93 5 1
194 5 1
195 5 1
61 6 1
94 6 1
195 6 1
196 6 1
62 7 1
95 7 1
190 7 1
196 7 1
70 8 1
103 8 1
169 8 1
170 8 1
64 9 1
104 9 1
170 9 1
171 9 1
65 10 1
105 10 1
171 10 1
172 10 1
66 11 1
99 11 1
172 11 1
173 11 1
67 12 1
100 12 1
173 12 1
174 12 1
68 13 1
101 13 1
174 13 1
175 13 1
69 14 1
102 14 1
169 14 1
175 14 1
77 15 1
110 15 1
176 15 1
177 15 1
71 16 1
111 16 1
177 16 1
178 16 1
72 17 1
112 17 1
178 17 1
179 17 1
73 18 1
106 18 1
179 18 1
180 18 1
74 19 1
107 19 1
180 19 1
181 19 1
75 20 1
108 20 1
181 20 1
182 20 1
76 21 1
109 21 1
176 21 1
182 21 1
84 22 1
89 22 1
183 22 1
184 22 1
78 23 1
90 23 1
184 23 1
185 23 1
79 24 1
91 24 1
185 24 1
186 24 1
80 25 1
85 25 1
186 25 1
187 25 1
81 26 1
86 26 1
187 26 1
188 26 1
82 27 1
87 27 1
188 27 1
189 27 1
83 28 1
88 28 1
183 28 1
189 28 1
68 29 1
91 29 1
218 29 1
219 29 1
69 30 1
85 30 1
219 30 1
220 30 1
70 31 1
86 31 1
220 31 1
221 31 1
64 32 1
87 32 1
221 32 1
222 32 1
65 33 1
88 33 1
222 33 1
223 33 1
66 34 1
89 34 1
223 34 1
224 34 1
67 35 1
90 35 1
218 35 1
224 35 1
75 36 1
98 36 1
197 36 1
198 36 1
76 37 1
92 37 1
198 37 1
199 37 1
77 38 1
93 38 1
199 38 1
200 38 1
71 39 1
94 39 1
200 39 1
201 39 1
72 40 1
95 40 1
201 40 1
202 40 1
73 41 1
96 41 1
202 41 1
203 41 1
74 42 1
97 42 1
197 42 1
203 42 1
82 43 1
105 43 1
204 43 1
205 43 1
83 44 1
99 44 1
205 44 1
206 44 1
84 45 1
100 45 1
206 45 1
207 45 1
78 46 1
101 46 1
207 46 1
208 46 1
79 47 1
102 47 1
208 47 1
209 47 1
80 48 1
103 48 1
209 48 1
210 48 1
81 49 1
104 49 1
204 49 1
210 49 1
61 50 1
112 50 1
211 50 1
212 50 1
62 51 1
106 51 1
212 51 1
213 51 1
63 52 1
107 52 1
213 52 1
214 52 1
57 53 1
108 53 1
214 53 1
215 53 1
58 54 1
109 54 1
215 54 1
216 54 1
59 55 1
110 55 1
216 55 1
217 55 1
60 56 1
111 56 1
211 56 1
217 56 1
7 57 1
40 57 1
134 57 1
135 57 1
1 58 1
41 58 1
135 58 1
136 58 1
2 59 1
42 59 1
136 59 1
137 59 1
3 60 1
36 60 1
137 60 1
138 60 1
4 61 1
37 61 1
138 61 1
139 61 1
5 62 1
38 62 1
139 62 1
140 62 1
6 63 1
39 63 1
134 63 1
140 63 1
14 64 1
47 64 1
113 64 1
114 64 1
8 65 1
48 65 1
114 65 1
115 65 1
9 66 1
49 66 1
115 66 1
116 66 1
10 67 1
43 67 1
116 67 1
117 67 1
11 68 1
44 68 1
117 68 1
118 68 1
12 69 1
45 69 1
118 69 1
119 69 1
13 70 1
46 70 1
113 70 1
119 70 1
21 71 1
54 71 1
120 71 1
121 71 1
15 72 1
55 72 1
121 72 1
122 72 1
16 73 1
56 73 1
122 73 1
123 73 1
17 74 1
50 74 1
123 74 1
124 74 1
18 75 1
51 75 1
124 75 1
125 75 1
19 76 1
52 76 1
125 76 1
126 76 1
20 77 1
53 77 1
120 77 1
126 77 1
28 78 1
33 78 1
127 78 1
128 78 1
22 79 1
34 79 1
128 79 1
129 79 1
23 80 1
35 80 1
129 80 1
130 80 1
24 81 1
29 81 1
130 81 1
131 81 1
25 82 1
30 82 1
131 82 1
132 82 1
26 83 1
31 83 1
132 83 1
133 83 1
27 84 1
32 84 1
127 84 1
133 84 1
12 85 1
35 85 1
162 85 1
163 85 1
13 86 1
29 86 1
163 86 1
164 86 1
14 87 1
30 87 1
164 87 1
165 87 1
8 88 1
31 88 1
165 88 1
166 88 1
9 89 1
32 89 1
166 89 1
167 89 1
10 90 1
33 90 1
167 90 1
168 90 1
11 91 1
34 91 1
162 91 1
168 91 1
19 92 1
42 92 1
141 92 1
142 92 1
20 93 1
36 93 1
142 93 1
143 93 1
21 94 1
37 94 1
143 94 1
144 94 1
15 95 1
38 95 1
144 95 1
145 95 1
16 96 1
39 96 1
145 96 1
146 96 1
17 97 1
40 97 1
146 97 1
147 97 1
18 98 1
41 98 1
141 98 1
147 98 1
26 99 1
49 99 1
148 99 1
149 99 1
27 100 1
43 100 1
149 100 1
150 100 1
28 101 1
44 101 1
150 101 1
151 101 1
22 102 1
45 102 1
151 102 1
152 102 1
23 103 1
46 103 1
152 103 1
153 103 1
24 104 1
47 104 1
153 104 1
154 104 1
25 105 1
48 105 1
148 105 1
154 105 1
5 106 1
56 106 1
155 106 1
156 106 1
6 107 1
50 107 1
156 107 1
157 107 1
7 108 1
51 108 1
157 108 1
158 108 1
1 109 1
52 109 1
158 109 1
159 109 1
2 110 1
53 110 1
159 110 1
160 110 1
3 111 1
54 111 1
160 111 1
161 111 1
4 112 1
55 112 1
155 112 1
161 112 1
1 113 1
17 113 1
302 113 1
303 113 1
2 114 1
18 114 1
303 114 1
304 114 1
3 115 1
19 115 1
304 115 1
305 115 1
4 116 1
20 116 1
305 116 1
306 116 1
5 117 1
21 117 1
306 117 1
307 117 1
6 118 1
15 118 1
307 118 1
308 118 1
7 119 1
16 119 1
302 119 1
308 119 1
8 120 1
24 120 1
281 120 1
282 120 1
9 121 1
25 121 1
282 121 1
283 121 1
10 122 1
26 122 1
283 122 1
284 122 1
11 123 1
27 123 1
284 123 1
285 123 1
12 124 1
28 124 1
285 124 1
286 124 1
13 125 1
22 125 1
286 125 1
287 125 1
14 126 1
23 126 1
281 126 1
287 126 1
3 127 1
15 127 1
288 127 1
289 127 1
4 128 1
16 128 1
289 128 1
290 128 1
5 129 1
17 129 1
290 129 1
291 129 1
6 130 1
18 130 1
291 130 1
292 130 1
7 131 1
19 131 1
292 131 1
293 131 1
1 132 1
20 132 1
293 132 1
294 132 1
2 133 1
21 133 1
288 133 1
294 133 1
10 134 1
22 134 1
295 134 1
296 134 1
11 135 1
23 135 1
296 135 1
297 135 1
12 136 1
24 136 1
297 136 1
298 136 1
13 137 1
25 137 1
298 137 1
299 137 1
14 138 1
26 138 1
299 138 1
300 138 1
8 139 1
27 139 1
300 139 1
301 139 1
9 140 1
28 140 1
295 140 1
301 140 1
29 141 1
45 141 1
330 141 1
331 141 1
30 142 1
46 142 1
331 142 1
332 142 1
31 143 1
47 143 1
332 143 1
333 143 1
32 144 1
48 144 1
333 144 1
334 144 1
33 145 1
49 145 1
334 145 1
335 145 1
34 146 1
43 146 1
335 146 1
336 146 1
35 147 1
44 147 1
330 147 1
336 147 1
36 148 1
52 148 1
309 148 1
310 148 1
37 149 1
53 149 1
310 149 1
311 149 1
38 150 1
54 150 1
311 150 1
312 150 1
39 151 1
55 151 1
312 151 1
313 151 1
40 152 1
56 152 1
313 152 1
314 152 1
41 153 1
50 153 1
314 153 1
315 153 1
42 154 1
51 154 1
309 154 1
315 154 1
31 155 1
43 155 1
316 155 1
317 155 1
32 156 1
44 156 1
317 156 1
318 156 1
33 157 1
45 157 1
318 157 1
319 157 1
34 158 1
46 158 1
319 158 1
320 158 1
35 159 1
47 159 1
320 159 1
321 159 1
29 160 1
48 160 1
321 160 1
322 160 1
30 161 1
49 161 1
316 161 1
322 161 1
38 162 1
50 162 1
323 162 1
324 162 1
39 163 1
51 163 1
324 163 1
325 163 1
40 164 1
52 164 1
325 164 1
326 164 1
41 165 1
53 165 1
326 165 1
327 165 1
42 166 1
54 166 1
327 166 1
328 166 1
36 167 1
55 167 1
328 167 1
329 167 1
37 168 1
56 168 1
323 168 1
329 168 1
57 169 1
73 169 1
246 169 1
247 169 1
58 170 1
74 170 1
247 170 1
248 170 1
59 171 1
75 171 1
248 171 1
249 171 1
60 172 1
76 172 1
249 172 1
250 172 1
61 173 1
77 173 1
250 173 1
251 173 1
62 174 1
71 174 1
251 174 1
252 174 1
63 175 1
72 175 1
246 175 1
252 175 1
64 176 1
80 176 1
225 176 1
226 176 1
65 177 1
81 177 1
226 177 1
227 177 1
66 178 1
82 178 1
227 178 1
228 178 1
67 179 1
83 179 1
228 179 1
229 179 1
68 180 1
84 180 1
229 180 1
230 180 1
69 181 1
78 181 1
230 181 1
231 181 1
70 182 1
79 182 1
225 182 1
231 182 1
59 183 1
71 183 1
232 183 1
233 183 1
60 184 1
72 184 1
233 184 1
234 184 1
61 185 1
73 185 1
234 185 1
235 185 1
62 186 1
74 186 1
235 186 1
236 186 1
63 187 1
75 187 1
236 187 1
237 187 1
57 188 1
76 188 1
237 188 1
238 188 1
58 189 1
77 189 1
232 189 1
238 189 1
66 190 1
78 190 1
239 190 1
240 190 1
67 191 1
79 191 1
240 191 1
241 191 1
68 192 1
80 192 1
241 192 1
242 192 1
69 193 1
81 193 1
242 193 1
243 193 1
70 194 1
82 194 1
243 194 1
244 194 1
64 195 1
83 195 1
244 195 1
245 195 1
65 196 1
84 196 1
239 196 1
245 196 1
85 197 1
101 197 1
274 197 1
275 197 1
86 198 1
102 198 1
275 198 1
276 198 1
87 199 1
103 199 1
276 199 1
277 199 1
88 200 1
104 200 1
277 200 1
278 200 1
89 201 1
105 201 1
278 201 1
279 201 1
90 202 1
99 202 1
279 202 1
280 202 1
91 203 1
100 203 1
274 203 1
280 203 1
92 204 1
108 204 1
253 204 1
254 204 1
93 205 1
109 205 1
254 205 1
255 205 1
94 206 1
110 206 1
255 206 1
256 206 1
95 207 1
111 207 1
256 207 1
257 207 1
96 208 1
112 208 1
257 208 1
258 208 1
97 209 1
106 209 1
258 209 1
259 209 1
98 210 1
107 210 1
253 210 1
259 210 1
87 211 1
99 211 1
260 211 1
261 211 1
88 212 1
100 212 1
261 212 1
262 212 1
89 213 1
101 213 1
262 213 1
263 213 1
90 214 1
102 214 1
263 214 1
264 214 1
91 215 1
103 215 1
264 215 1
265 215 1
85 216 1
104 216 1
265 216 1
266 216 1
86 217 1
105 217 1
260 217 1
266 217 1
94 218 1
106 218 1
267 218 1
268 218 1
95 219 1
107 219 1
268 219 1
269 219 1
96 220 1
108 220 1
269 220 1
270 220 1
97 221 1
109 221 1
270 221 1
271 221 1
98 222 1
110 222 1
271 222 1
272 222 1
92 223 1
111 223 1
272 223 1
273 223 1
93 224 1
112 224 1
267 224 1
273 224 1
59 225 1
106 225 1
414 225 1
415 225 1
60 226 1
107 226 1
415 226 1
416 226 1
61 227 1
108 227 1
416 227 1
417 227 1
62 228 1
109 228 1
417 228 1
418 228 1
63 229 1
110 229 1
418 229 1
419 229 1
57 230 1
111 230 1
419 230 1
420 230 1
58 231 1
112 231 1
414 231 1
420 231 1
66 232 1
85 232 1
393 232 1
394 232 1
67 233 1
86 233 1
394 233 1
395 233 1
68 234 1
87 234 1
395 234 1
396 234 1
69 235 1
88 235 1
396 235 1
397 235 1
70 236 1
89 236 1
397 236 1
398 236 1
64 237 1
90 237 1
398 237 1
399 237 1
65 238 1
91 238 1
393 238 1
399 238 1
73 239 1
92 239 1
400 239 1
401 239 1
74 240 1
93 240 1
401 240 1
402 240 1
75 241 1
94 241 1
402 241 1
403 241 1
76 242 1
95 242 1
403 242 1
404 242 1
77 243 1
96 243 1
404 243 1
405 243 1
71 244 1
97 244 1
405 244 1
406 244 1
72 245 1
98 245 1
400 245 1
406 245 1
80 246 1
99 246 1
407 246 1
408 246 1
81 247 1
100 247 1
408 247 1
409 247 1
82 248 1
101 248 1
409 248 1
410 248 1
83 249 1
102 249 1
410 249 1
411 249 1
84 250 1
103 250 1
411 250 1
412 250 1
78 251 1
104 251 1
412 251 1
413 251 1
79 252 1
105 252 1
407 252 1
413 252 1
78 253 1
87 253 1
442 253 1
443 253 1
79 254 1
88 254 1
443 254 1
444 254 1
80 255 1
89 255 1
444 255 1
445 255 1
81 256 1
90 256 1
445 256 1
446 256 1
82 257 1
91 257 1
446 257 1
447 257 1
83 258 1
85 258 1
447 258 1
448 258 1
84 259 1
86 259 1
442 259 1
448 259 1
57 260 1
94 260 1
421 260 1
422 260 1
58 261 1
95 261 1
422 261 1
423 261 1
59 262 1
96 262 1
423 262 1
424 262 1
60 263 1
97 263 1
424 263 1
425 263 1
61 264 1
98 264 1
425 264 1
426 264 1
62 265 1
92 265 1
426 265 1
427 265 1
63 266 1
93 266 1
421 266 1
427 266 1
64 267 1
101 267 1
428 267 1
429 267 1
65 268 1
102 268 1
429 268 1
430 268 1
66 269 1
103 269 1
430 269 1
431 269 1
67 270 1
104 270 1
431 270 1
432 270 1
68 271 1
105 271 1
432 271 1
433 271 1
69 272 1
99 272 1
433 272 1
434 272 1
70 273 1
100 273 1
428 273 1
434 273 1
71 274 1
108 274 1
435 274 1
436 274 1
72 275 1
109 275 1
436 275 1
437 275 1
73 276 1
110 276 1
437 276 1
438 276 1
74 277 1
111 277 1
438 277 1
439 277 1
75 278 1
112 278 1
439 278 1
440 278 1
76 279 1
106 279 1
440 279 1
441 279 1
77 280 1
107 280 1
435 280 1
441 280 1
3 281 1
50 281 1
358 281 1
359 281 1
4 282 1
51 282 1
359 282 1
360 282 1
5 283 1
52 283 1
360 283 1
361 283 1
6 284 1
53 284 1
361 284 1
362 284 1
7 285 1
54 285 1
362 285 1
363 285 1
1 286 1
55 286 1
363 286 1
364 286 1
2 287 1
56 287 1
358 287 1
364 287 1
10 288 1
29 288 1
337 288 1
338 288 1
11 289 1
30 289 1
338 289 1
339 289 1
12 290 1
31 290 1
339 290 1
340 290 1
13 291 1
32 291 1
340 291 1
341 291 1
14 292 1
33 292 1
341 292 1
342 292 1
8 293 1
34 293 1
342 293 1
343 293 1
9 294 1
35 294 1
337 294 1
343 294 1
17 295 1
36 295 1
344 295 1
345 295 1
18 296 1
37 296 1
345 296 1
346 296 1
19 297 1
38 297 1
346 297 1
347 297 1
20 298 1
39 298 1
347 298 1
348 298 1
21 299 1
40 299 1
348 299 1
349 299 1
15 300 1
41 300 1
349 300 1
350 300 1
16 301 1
42 301 1
344 301 1
350 301 1
24 302 1
43 302 1
351 302 1
352 302 1
25 303 1
44 303 1
352 303 1
353 303 1
26 304 1
45 304 1
353 304 1
354 304 1
27 305 1
46 305 1
354 305 1
355 305 1
28 306 1
47 306 1
355 306 1
356 306 1
22 307 1
48 307 1
356 307 1
357 307 1
23 308 1
49 308 1
351 308 1
357 308 1
22 309 1
31 309 1
386 309 1
387 309 1
23 310 1
32 310 1
387 310 1
388 310 1
24 311 1
33 311 1
388 311 1
389 311 1
25 312 1
34 312 1
389 312 1
390 312 1
26 313 1
35 313 1
390 313 1
391 313 1
27 314 1
29 314 1
391 314 1
392 314 1
28 315 1
30 315 1
386 315 1
392 315 1
1 316 1
38 316 1
365 316 1
366 316 1
2 317 1
39 317 1
366 317 1
367 317 1
3 318 1
40 318 1
367 318 1
368 318 1
4 319 1
41 319 1
368 319 1
369 319 1
5 320 1
42 320 1
369 320 1
370 320 1
6 321 1
36 321 1
370 321 1
371 321 1
7 322 1
37 322 1
365 322 1
371 322 1
8 323 1
45 323 1
372 323 1
373 323 1
9 324 1
46 324 1
373 324 1
374 324 1
10 325 1
47 325 1
374 325 1
375 325 1
11 326 1
48 326 1
375 326 1
376 326 1
12 327 1
49 327 1
376 327 1
377 327 1
13 328 1
43 328 1
377 328 1
378 328 1
14 329 1
44 329 1
372 329 1
378 329 1
15 330 1
52 330 1
379 330 1
380 330 1
16 331 1
53 331 1
380 331 1
381 331 1
17 332 1
54 332 1
381 332 1
382 332 1
18 333 1
55 333 1
382 333 1
383 333 1
19 334 1
56 334 1
383 334 1
384 334 1
20 335 1
50 335 1
384 335 1
385 335 1
21 336 1
51 336 1
379 336 1
385 336 1
113 337 1
129 337 1
287 337 1
320 337 1
114 338 1
130 338 1
281 338 1
321 338 1
115 339 1
131 339 1
282 339 1
322 339 1
116 340 1
132 340 1
283 340 1
316 340 1
117 341 1
133 341 1
284 341 1
317 341 1
118 342 1
127 342 1
285 342 1
318 342 1
119 343 1
128 343 1
286 343 1
319 343 1
120 344 1
136 344 1
294 344 1
327 344 1
121 345 1
137 345 1
288 345 1
328 345 1
122 346 1
138 346 1
289 346 1
329 346 1
123 347 1
139 347 1
290 347 1
323 347 1
124 348 1
140 348 1
291 348 1
324 348 1
125 349 1
134 349 1
292 349 1
325 349 1
126 350 1
135 350 1
293 350 1
326 350 1
115 351 1
127 351 1
301 351 1
334 351 1
116 352 1
128 352 1
295 352 1
335 352 1
117 353 1
129 353 1
296 353 1
336 353 1
118 354 1
130 354 1
297 354 1
330 354 1
119 355 1
131 355 1
298 355 1
331 355 1
113 356 1
132 356 1
299 356 1
332 356 1
114 357 1
133 357 1
300 357 1
333 357 1
122 358 1
134 358 1
308 358 1
313 358 1
123 359 1
135 359 1
302 359 1
314 359 1
124 360 1
136 360 1
303 360 1
315 360 1
125 361 1
137 361 1
304 361 1
309 361 1
126 362 1
138 362 1
305 362 1
310 362 1
120 363 1
139 363 1
306 363 1
311 363 1
121 364 1
140 364 1
307 364 1
312 364 1
141 365 1
157 365 1
292 365 1
315 365 1
142 366 1
158 366 1
293 366 1
309 366 1
143 367 1
159 367 1
294 367 1
310 367 1
144 368 1
160 368 1
288 368 1
311 368 1
145 369 1
161 369 1
289 369 1
312 369 1
146 370 1
155 370 1
290 370 1
313 370 1
147 371 1
156 371 1
291 371 1
314 371 1
148 372 1
164 372 1
299 372 1
322 372 1
149 373 1
165 373 1
300 373 1
316 373 1
150 374 1
166 374 1
301 374 1
317 374 1
151 375 1
167 375 1
295 375 1
318 375 1
152 376 1
168 376 1
296 376 1
319 376 1
153 377 1
162 377 1
297 377 1
320 377 1
154 378 1
163 378 1
298 378 1
321 378 1
143 379 1
155 379 1
306 379 1
329 379 1
144 380 1
156 380 1
307 380 1
323 380 1
145 381 1
157 381 1
308 381 1
324 381 1
146 382 1
158 382 1
302 382 1
325 382 1
147 383 1
159 383 1
303 383 1
326 383 1
141 384 1
160 384 1
304 384 1
327 384 1
142 385 1
161 385 1
305 385 1
328 385 1
150 386 1
162 386 1
285 386 1
336 386 1
151 387 1
163 387 1
286 387 1
330 387 1
152 388 1
164 388 1
287 388 1
331 388 1
153 389 1
165 389 1
281 389 1
332 389 1
154 390 1
166 390 1
282 390 1
333 390 1
148 391 1
167 391 1
283 391 1
334 391 1
149 392 1
168 392 1
284 392 1
335 392 1
169 393 1
185 393 1
231 393 1
264 393 1
170 394 1
186 394 1
225 394 1
265 394 1
171 395 1
187 395 1
226 395 1
266 395 1
172 396 1
188 396 1
227 396 1
260 396 1
173 397 1
189 397 1
228 397 1
261 397 1
174 398 1
183 398 1
229 398 1
262 398 1
175 399 1
184 399 1
230 399 1
263 399 1
176 400 1
192 400 1
238 400 1
271 400 1
177 401 1
193 401 1
232 401 1
272 401 1
178 402 1
194 402 1
233 402 1
273 402 1
179 403 1
195 403 1
234 403 1
267 403 1
180 404 1
196 404 1
235 404 1
268 404 1
181 405 1
190 405 1
236 405 1
269 405 1
182 406 1
191 406 1
237 406 1
270 406 1
171 407 1
183 407 1
245 407 1
278 407 1
172 408 1
184 408 1
239 408 1
279 408 1
173 409 1
185 409 1
240 409 1
280 409 1
174 410 1
186 410 1
241 410 1
274 410 1
175 411 1
187 411 1
242 411 1
275 411 1
169 412 1
188 412 1
243 412 1
276 412 1
170 413 1
189 413 1
244 413 1
277 413 1
178 414 1
190 414 1
252 414 1
257 414 1
179 415 1
191 415 1
246 415 1
258 415 1
180 416 1
192 416 1
247 416 1
259 416 1
181 417 1
193 417 1
248 417 1
253 417 1
182 418 1
194 418 1
249 418 1
254 418 1
176 419 1
195 419 1
250 419 1
255 419 1
177 420 1
196 420 1
251 420 1
256 420 1
197 421 1
213 421 1
236 421 1
259 421 1
198 422 1
214 422 1
237 422 1
253 422 1
199 423 1
215 423 1
238 423 1
254 423 1
200 424 1
216 424 1
232 424 1
255 424 1
201 425 1
217 425 1
233 425 1
256 425 1
202 426 1
211 426 1
234 426 1
257 426 1
203 427 1
212 427 1
235 427 1
258 427 1
204 428 1
220 428 1
243 428 1
266 428 1
205 429 1
221 429 1
244 429 1
260 429 1
206 430 1
222 430 1
245 430 1
261 430 1
207 431 1
223 431 1
239 431 1
262 431 1
208 432 1
224 432 1
240 432 1
263 432 1
209 433 1
218 433 1
241 433 1
264 433 1
210 434 1
219 434 1
242 434 1
265 434 1
199 435 1
211 435 1
250 435 1
273 435 1
200 436 1
212 436 1
251 436 1
267 436 1
201 437 1
213 437 1
252 437 1
268 437 1
202 438 1
214 438 1
246 438 1
269 438 1
203 439 1
215 439 1
247 439 1
270 439 1
197 440 1
216 440 1
248 440 1
271 440 1
198 441 1
217 441 1
249 441 1
272 441 1
206 442 1
218 442 1
229 442 1
280 442 1
207 443 1
219 443 1
230 443 1
274 443 1
208 444 1
220 444 1
231 444 1
275 444 1
209 445 1
221 445 1
225 445 1
276 445 1
210 446 1
222 446 1
226 446 1
277 446 1
204 447 1
223 447 1
227 447 1
278 447 1
205 448 1
224 448 1
228 448 1
279 448 1
171 449 1
218 449 1
399 449 1
432 449 1
172 450 1
219 450 1
393 450 1
433 450 1
173 451 1
220 451 1
394 451 1
434 451 1
174 452 1
221 452 1
395 452 1
428 452 1
175 453 1
222 453 1
396 453 1
429 453 1
169 454 1
223 454 1
397 454 1
430 454 1
170 455 1
224 455 1
398 455 1
431 455 1
178 456 1
197 456 1
406 456 1
439 456 1
179 457 1
198 457 1
400 457 1
440 457 1
180 458 1
199 458 1
401 458 1
441 458 1
181 459 1
200 459 1
402 459 1
435 459 1
182 460 1
201 460 1
403 460 1
436 460 1
176 461 1
202 461 1
404 461 1
437 461 1
177 462 1
203 462 1
405 462 1
438 462 1
185 463 1
204 463 1
413 463 1
446 463 1
186 464 1
205 464 1
407 464 1
447 464 1
187 465 1
206 465 1
408 465 1
448 465 1
188 466 1
207 466 1
409 466 1
442 466 1
189 467 1
208 467 1
410 467 1
443 467 1
183 468 1
209 468 1
411 468 1
444 468 1
184 469 1
210 469 1
412 469 1
445 469 1
192 470 1
211 470 1
420 470 1
425 470 1
193 471 1
212 471 1
414 471 1
426 471 1
194 472 1
213 472 1
415 472 1
427 472 1
195 473 1
214 473 1
416 473 1
421 473 1
196 474 1
215 474 1
417 474 1
422 474 1
190 475 1
216 475 1
418 475 1
423 475 1
191 476 1
217 476 1
419 476 1
424 476 1
190 477 1
199 477 1
404 477 1
427 477 1
191 478 1
200 478 1
405 478 1
421 478 1
192 479 1
201 479 1
406 479 1
422 479 1
193 480 1
202 480 1
400 480 1
423 480 1
194 481 1
203 481 1
401 481 1
424 481 1
195 482 1
197 482 1
402 482 1
425 482 1
196 483 1
198 483 1
403 483 1
426 483 1
169 484 1
206 484 1
411 484 1
434 484 1
170 485 1
207 485 1
412 485 1
428 485 1
171 486 1
208 486 1
413 486 1
429 486 1
172 487 1
209 487 1
407 487 1
430 487 1
173 488 1
210 488 1
408 488 1
431 488 1
174 489 1
204 489 1
409 489 1
432 489 1
175 490 1
205 490 1
410 490 1
433 490 1
176 491 1
213 491 1
418 491 1
441 491 1
177 492 1
214 492 1
419 492 1
435 492 1
178 493 1
215 493 1
420 493 1
436 493 1
179 494 1
216 494 1
414 494 1
437 494 1
180 495 1
217 495 1
415 495 1
438 495 1
181 496 1
211 496 1
416 496 1
439 496 1
182 497 1
212 497 1
417 497 1
440 497 1
183 498 1
220 498 1
397 498 1
448 498 1
184 499 1
221 499 1
398 499 1
442 499 1
185 500 1
222 500 1
399 500 1
443 500 1
186 501 1
223 501 1
393 501 1
444 501 1
187 502 1
224 502 1
394 502 1
445 502 1
188 503 1
218 503 1
395 503 1
446 503 1
189 504 1
219 504 1
396 504 1
447 504 1
115 505 1
162 505 1
343 505 1
376 505 1
116 506 1
163 506 1
337 506 1
377 506 1
117 507 1
164 507 1
338 507 1
378 507 1
118 508 1
165 508 1
339 508 1
372 508 1
119 509 1
166 509 1
340 509 1
373 509 1
113 510 1
167 510 1
341 510 1
374 510 1
114 511 1
168 511 1
342 511 1
375 511 1
122 512 1
141 512 1
350 512 1
383 512 1
123 513 1
142 513 1
344 513 1
384 513 1
124 514 1
143 514 1
345 514 1
385 514 1
125 515 1
144 515 1
346 515 1
379 515 1
126 516 1
145 516 1
347 516 1
380 516 1
120 517 1
146 517 1
348 517 1
381 517 1
121 518 1
147 518 1
349 518 1
382 518 1
129 519 1
148 519 1
357 519 1
390 519 1
130 520 1
149 520 1
351 520 1
391 520 1
131 521 1
150 521 1
352 521 1
392 521 1
132 522 1
151 522 1
353 522 1
386 522 1
133 523 1
152 523 1
354 523 1
387 523 1
127 524 1
153 524 1
355 524 1
388 524 1
128 525 1
154 525 1
356 525 1
389 525 1
136 526 1
155 526 1
364 526 1
369 526 1
137 527 1
156 527 1
358 527 1
370 527 1
138 528 1
157 528 1
359 528 1
371 528 1
139 529 1
158 529 1
360 529 1
365 529 1
140 530 1
159 530 1
361 530 1
366 530 1
134 531 1
160 531 1
362 531 1
367 531 1
135 532 1
161 532 1
363 532 1
368 532 1
134 533 1
143 533 1
348 533 1
371 533 1
135 534 1
144 534 1
349 534 1
365 534 1
136 535 1
145 535 1
350 535 1
366 535 1
137 536 1
146 536 1
344 536 1
367 536 1
138 537 1
147 537 1
345 537 1
368 537 1
139 538 1
141 538 1
346 538 1
369 538 1
140 539 1
142 539 1
347 539 1
370 539 1
113 540 1
150 540 1
355 540 1
378 540 1
114 541 1
151 541 1
356 541 1
372 541 1
115 542 1
152 542 1
357 542 1
373 542 1
116 543 1
153 543 1
351 543 1
374 543 1
117 544 1
154 544 1
352 544 1
375 544 1
118 545 1
148 545 1
353 545 1
376 545 1
119 546 1
149 546 1
354 546 1
377 546 1
120 547 1
157 547 1
362 547 1
385 547 1
121 548 1
158 548 1
363 548 1
379 548 1
122 549 1
159 549 1
364 549 1
380 549 1
123 550 1
160 550 1
358 550 1
381 550 1
124 551 1
161 551 1
359 551 1
382 551 1
125 552 1
155 552 1
360 552 1
383 552 1
126 553 1
156 553 1
361 553 1
384 553 1
127 554 1
164 554 1
341 554 1
392 554 1
128 555 1
165 555 1
342 555 1
386 555 1
129 556 1
166 556 1
343 556 1
387 556 1
130 557 1
167 557 1
337 557 1
388 557 1
131 558 1
168 558 1
338 558 1
389 558 1
132 559 1
162 559 1
339 559 1
390 559 1
133 560 1
163 560 1
340 560 1
391 560 1
283 561 1
330 561 1
337 561 1
353 561 1
284 562 1
331 562 1
338 562 1
354 562 1
285 563 1
332 563 1
339 563 1
355 563 1
286 564 1
333 564 1
340 564 1
356 564 1
287 565 1
334 565 1
341 565 1
357 565 1
281 566 1
335 566 1
342 566 1
351 566 1
282 567 1
336 567 1
343 567 1
352 567 1
290 568 1
309 568 1
344 568 1
360 568 1
291 569 1
310 569 1
345 569 1
361 569 1
292 570 1
311 570 1
346 570 1
362 570 1
293 571 1
312 571 1
347 571 1
363 571 1
294 572 1
313 572 1
348 572 1
364 572 1
288 573 1
314 573 1
349 573 1
358 573 1
289 574 1
315 574 1
350 574 1
359 574 1
297 575 1
316 575 1
339 575 1
351 575 1
298 576 1
317 576 1
340 576 1
352 576 1
299 577 1
318 577 1
341 577 1
353 577 1
300 578 1
319 578 1
342 578 1
354 578 1
301 579 1
320 579 1
343 579 1
355 579 1
295 580 1
321 580 1
337 580 1
356 580 1
296 581 1
322 581 1
338 581 1
357 581 1
304 582 1
323 582 1
346 582 1
358 582 1
305 583 1
324 583 1
347 583 1
359 583 1
306 584 1
325 584 1
348 584 1
360 584 1
307 585 1
326 585 1
349 585 1
361 585 1
308 586 1
327 586 1
350 586 1
362 586 1
302 587 1
328 587 1
344 587 1
363 587 1
303 588 1
329 588 1
345 588 1
364 588 1
302 589 1
311 589 1
365 589 1
381 589 1
303 590 1
312 590 1
366 590 1
382 590 1
304 591 1
313 591 1
367 591 1
383 591 1
305 592 1
314 592 1
368 592 1
384 592 1
306 593 1
315 593 1
369 593 1
385 593 1
307 594 1
309 594 1
370 594 1
379 594 1
308 595 1
310 595 1
371 595 1
380 595 1
281 596 1
318 596 1
372 596 1
388 596 1
282 597 1
319 597 1
373 597 1
389 597 1
283 598 1
320 598 1
374 598 1
390 598 1
284 599 1
321 599 1
375 599 1
391 599 1
285 600 1
322 600 1
376 600 1
392 600 1
286 601 1
316 601 1
377 601 1
386 601 1
287 602 1
317 602 1
378 602 1
387 602 1
288 603 1
325 603 1
367 603 1
379 603 1
289 604 1
326 604 1
368 604 1
380 604 1
290 605 1
327 605 1
369 605 1
381 605 1
291 606 1
328 606 1
370 606 1
382 606 1
292 607 1
329 607 1
371 607 1
383 607 1
293 608 1
323 608 1
365 608 1
384 608 1
294 609 1
324 609 1
366 609 1
385 609 1
295 610 1
332 610 1
374 610 1
386 610 1
296 611 1
333 611 1
375 611 1
387 611 1
297 612 1
334 612 1
376 612 1
388 612 1
298 613 1
335 613 1
377 613 1
389 613 1
299 614 1
336 614 1
378 614 1
390 614 1
300 615 1
330 615 1
372 615 1
391 615 1
301 616 1
331 616 1
373 616 1
392 616 1
227 617 1
274 617 1
393 617 1
409 617 1
228 618 1
275 618 1
394 618 1
410 618 1
229 619 1
276 619 1
395 619 1
411 619 1
230 620 1
277 620 1
396 620 1
412 620 1
231 621 1
278 621 1
397 621 1
413 621 1
225 622 1
279 622 1
398 622 1
407 622 1
226 623 1
280 623 1
399 623 1
408 623 1
234 624 1
253 624 1
400 624 1
416 624 1
235 625 1
254 625 1
401 625 1
417 625 1
236 626 1
255 626 1
402 626 1
418 626 1
237 627 1
256 627 1
403 627 1
419 627 1
238 628 1
257 628 1
404 628 1
420 628 1
232 629 1
258 629 1
405 629 1
414 629 1
233 630 1
259 630 1
406 630 1
415 630 1
241 631 1
260 631 1
395 631 1
407 631 1
242 632 1
261 632 1
396 632 1
408 632 1
243 633 1
262 633 1
397 633 1
409 633 1
244 634 1
263 634 1
398 634 1
410 634 1
245 635 1
264 635 1
399 635 1
411 635 1
239 636 1
265 636 1
393 636 1
412 636 1
240 637 1
266 637 1
394 637 1
413 637 1
248 638 1
267 638 1
402 638 1
414 638 1
249 639 1
268 639 1
403 639 1
415 639 1
250 640 1
269 640 1
404 640 1
416 640 1
251 641 1
270 641 1
405 641 1
417 641 1
252 642 1
271 642 1
406 642 1
418 642 1
246 643 1
272 643 1
400 643 1
419 643 1
247 644 1
273 644 1
401 644 1
420 644 1
246 645 1
255 645 1
421 645 1
437 645 1
247 646 1
256 646 1
422 646 1
438 646 1
248 647 1
257 647 1
423 647 1
439 647 1
249 648 1
258 648 1
424 648 1
440 648 1
250 649 1
259 649 1
425 649 1
441 649 1
251 650 1
253 650 1
426 650 1
435 650 1
252 651 1
254 651 1
427 651 1
436 651 1
225 652 1
262 652 1
428 652 1
444 652 1
226 653 1
263 653 1
429 653 1
445 653 1
227 654 1
264 654 1
430 654 1
446 654 1
228 655 1
265 655 1
431 655 1
447 655 1
229 656 1
266 656 1
432 656 1
448 656 1
230 657 1
260 657 1
433 657 1
442 657 1
231 658 1
261 658 1
434 658 1
443 658 1
232 659 1
269 659 1
423 659 1
435 659 1
233 660 1
270 660 1
424 660 1
436 660 1
234 661 1
271 661 1
425 661 1
437 661 1
235 662 1
272 662 1
426 662 1
438 662 1
236 663 1
273 663 1
427 663 1
439 663 1
237 664 1
267 664 1
421 664 1
440 664 1
238 665 1
268 665 1
422 665 1
441 665 1
239 666 1
276 666 1
430 666 1
442 666 1
240 667 1
277 667 1
431 667 1
443 667 1
241 668 1
278 668 1
432 668 1
444 668 1
242 669 1
279 669 1
433 669 1
445 669 1
243 670 1
280 670 1
434 670 1
446 670 1
244 671 1
274 671 1
428 671 1
447 671 1
245 672 1
275 672 1
429 672 1
448 672 1
