%%MatrixMarket matrix coordinate integer general
% Binary matrix; one-based indices; arithmetic over GF(2)
152 228 912
1 1 1
25 1 1
39 1 1
42 1 1
2 2 1
26 2 1
40 2 1
43 2 1
3 3 1
27 3 1
41 3 1
44 3 1
4 4 1
28 4 1
42 4 1
45 4 1
5 5 1
29 5 1
43 5 1
46 5 1
6 6 1
30 6 1
44 6 1
47 6 1
7 7 1
31 7 1
45 7 1
48 7 1
8 8 1
32 8 1
46 8 1
49 8 1
9 9 1
33 9 1
47 9 1
50 9 1
10 10 1
34 10 1
48 10 1
51 10 1
11 11 1
35 11 1
49 11 1
52 11 1
12 12 1
36 12 1
50 12 1
53 12 1
13 13 1
37 13 1
51 13 1
54 13 1
14 14 1
38 14 1
52 14 1
55 14 1
1 15 1
15 15 1
53 15 1
56 15 1
2 16 1
16 16 1
54 16 1
57 16 1
3 17 1
17 17 1
55 17 1
58 17 1
4 18 1
18 18 1
56 18 1
59 18 1
5 19 1
19 19 1
57 19 1
60 19 1
6 20 1
20 20 1
58 20 1
61 20 1
7 21 1
21 21 1
59 21 1
62 21 1
8 22 1
22 22 1
60 22 1
63 22 1
9 23 1
23 23 1
61 23 1
64 23 1
10 24 1
24 24 1
62 24 1
65 24 1
11 25 1
25 25 1
63 25 1
66 25 1
12 26 1
26 26 1
64 26 1
67 26 1
13 27 1
27 27 1
65 27 1
68 27 1
14 28 1
28 28 1
66 28 1
69 28 1
15 29 1
29 29 1
67 29 1
70 29 1
16 30 1
30 30 1
68 30 1
71 30 1
17 31 1
31 31 1
69 31 1
72 31 1
18 32 1
32 32 1
70 32 1
73 32 1
19 33 1
33 33 1
71 33 1
74 33 1
20 34 1
34 34 1
72 34 1
75 34 1
21 35 1
35 35 1
73 35 1
76 35 1
22 36 1
36 36 1
39 36 1
74 36 1
23 37 1
37 37 1
40 37 1
75 37 1
24 38 1
38 38 1
41 38 1
76 38 1
1 39 1
31 39 1
77 39 1
80 39 1
2 40 1
32 40 1
78 40 1
81 40 1
3 41 1
33 41 1
79 41 1
82 41 1
4 42 1
34 42 1
80 42 1
83 42 1
5 43 1
35 43 1
81 43 1
84 43 1
6 44 1
36 44 1
82 44 1
85 44 1
7 45 1
37 45 1
83 45 1
86 45 1
8 46 1
38 46 1
84 46 1
87 46 1
1 47 1
9 47 1
85 47 1
88 47 1
2 48 1
10 48 1
86 48 1
89 48 1
3 49 1
11 49 1
87 49 1
90 49 1
4 50 1
12 50 1
88 50 1
91 50 1
5 51 1
13 51 1
89 51 1
92 51 1
6 52 1
14 52 1
90 52 1
93 52 1
7 53 1
15 53 1
91 53 1
94 53 1
8 54 1
16 54 1
92 54 1
95 54 1
9 55 1
17 55 1
93 55 1
96 55 1
10 56 1
18 56 1
94 56 1
97 56 1
11 57 1
19 57 1
95 57 1
98 57 1
12 58 1
20 58 1
96 58 1
99 58 1
13 59 1
21 59 1
97 59 1
100 59 1
14 60 1
22 60 1
98 60 1
101 60 1
15 61 1
23 61 1
99 61 1
102 61 1
16 62 1
24 62 1
100 62 1
103 62 1
17 63 1
25 63 1
101 63 1
104 63 1
18 64 1
26 64 1
102 64 1
105 64 1
19 65 1
27 65 1
103 65 1
106 65 1
20 66 1
28 66 1
104 66 1
107 66 1
21 67 1
29 67 1
105 67 1
108 67 1
22 68 1
30 68 1
106 68 1
109 68 1
23 69 1
31 69 1
107 69 1
110 69 1
24 70 1
32 70 1
108 70 1
111 70 1
25 71 1
33 71 1
109 71 1
112 71 1
26 72 1
34 72 1
110 72 1
113 72 1
27 73 1
35 73 1
111 73 1
114 73 1
28 74 1
36 74 1
77 74 1
112 74 1
29 75 1
37 75 1
78 75 1
113 75 1
30 76 1
38 76 1
79 76 1
114 76 1
1 77 1
38 77 1
115 77 1
118 77 1
1 78 1
2 78 1
116 78 1
119 78 1
2 79 1
3 79 1
117 79 1
120 79 1
3 80 1
4 80 1
118 80 1
121 80 1
4 81 1
5 81 1
119 81 1
122 81 1
5 82 1
6 82 1
120 82 1
123 82 1
6 83 1
7 83 1
121 83 1
124 83 1
7 84 1
8 84 1
122 84 1
125 84 1
8 85 1
9 85 1
123 85 1
126 85 1
9 86 1
10 86 1
124 86 1
127 86 1
10 87 1
11 87 1
125 87 1
128 87 1
11 88 1
12 88 1
126 88 1
129 88 1
12 89 1
13 89 1
127 89 1
130 89 1
13 90 1
14 90 1
128 90 1
131 90 1
14 91 1
15 91 1
129 91 1
132 91 1
15 92 1
16 92 1
130 92 1
133 92 1
16 93 1
17 93 1
131 93 1
134 93 1
17 94 1
18 94 1
132 94 1
135 94 1
18 95 1
19 95 1
133 95 1
136 95 1
19 96 1
20 96 1
134 96 1
137 96 1
20 97 1
21 97 1
135 97 1
138 97 1
21 98 1
22 98 1
136 98 1
139 98 1
22 99 1
23 99 1
137 99 1
140 99 1
23 100 1
24 100 1
138 100 1
141 100 1
24 101 1
25 101 1
139 101 1
142 101 1
25 102 1
26 102 1
140 102 1
143 102 1
26 103 1
27 103 1
141 103 1
144 103 1
27 104 1
28 104 1
142 104 1
145 104 1
28 105 1
29 105 1
143 105 1
146 105 1
29 106 1
30 106 1
144 106 1
147 106 1
30 107 1
31 107 1
145 107 1
148 107 1
31 108 1
32 108 1
146 108 1
149 108 1
32 109 1
33 109 1
147 109 1
150 109 1
33 110 1
34 110 1
148 110 1
151 110 1
34 111 1
35 111 1
149 111 1
152 111 1
35 112 1
36 112 1
115 112 1
150 112 1
36 113 1
37 113 1
116 113 1
151 113 1
37 114 1
38 114 1
117 114 1
152 114 1
39 115 1
69 115 1
77 115 1
101 115 1
40 116 1
70 116 1
78 116 1
102 116 1
41 117 1
71 117 1
79 117 1
103 117 1
42 118 1
72 118 1
80 118 1
104 118 1
43 119 1
73 119 1
81 119 1
105 119 1
44 120 1
74 120 1
82 120 1
106 120 1
45 121 1
75 121 1
83 121 1
107 121 1
46 122 1
76 122 1
84 122 1
108 122 1
39 123 1
47 123 1
85 123 1
109 123 1
40 124 1
48 124 1
86 124 1
110 124 1
41 125 1
49 125 1
87 125 1
111 125 1
42 126 1
50 126 1
88 126 1
112 126 1
43 127 1
51 127 1
89 127 1
113 127 1
44 128 1
52 128 1
90 128 1
114 128 1
45 129 1
53 129 1
77 129 1
91 129 1
46 130 1
54 130 1
78 130 1
92 130 1
47 131 1
55 131 1
79 131 1
93 131 1
48 132 1
56 132 1
80 132 1
94 132 1
49 133 1
57 133 1
81 133 1
95 133 1
50 134 1
58 134 1
82 134 1
96 134 1
51 135 1
59 135 1
83 135 1
97 135 1
52 136 1
60 136 1
84 136 1
98 136 1
53 137 1
61 137 1
85 137 1
99 137 1
54 138 1
62 138 1
86 138 1
100 138 1
55 139 1
63 139 1
87 139 1
101 139 1
56 140 1
64 140 1
88 140 1
102 140 1
57 141 1
65 141 1
89 141 1
103 141 1
58 142 1
66 142 1
90 142 1
104 142 1
59 143 1
67 143 1
91 143 1
105 143 1
60 144 1
68 144 1
92 144 1
106 144 1
61 145 1
69 145 1
93 145 1
107 145 1
62 146 1
70 146 1
94 146 1
108 146 1
63 147 1
71 147 1
95 147 1
109 147 1
64 148 1
72 148 1
96 148 1
110 148 1
65 149 1
73 149 1
97 149 1
111 149 1
66 150 1
74 150 1
98 150 1
112 150 1
67 151 1
75 151 1
99 151 1
113 151 1
68 152 1
76 152 1
100 152 1
114 152 1
39 153 1
76 153 1
115 153 1
139 153 1
39 154 1
40 154 1
116 154 1
140 154 1
40 155 1
41 155 1
117 155 1
141 155 1
41 156 1
42 156 1
118 156 1
142 156 1
42 157 1
43 157 1
119 157 1
143 157 1
43 158 1
44 158 1
120 158 1
144 158 1
44 159 1
45 159 1
121 159 1
145 159 1
45 160 1
46 160 1
122 160 1
146 160 1
46 161 1
47 161 1
123 161 1
147 161 1
47 162 1
48 162 1
124 162 1
148 162 1
48 163 1
49 163 1
125 163 1
149 163 1
49 164 1
50 164 1
126 164 1
150 164 1
50 165 1
51 165 1
127 165 1
151 165 1
51 166 1
52 166 1
128 166 1
152 166 1
52 167 1
53 167 1
115 167 1
129 167 1
53 168 1
54 168 1
116 168 1
130 168 1
54 169 1
55 169 1
117 169 1
131 169 1
55 170 1
56 170 1
118 170 1
132 170 1
56 171 1
57 171 1
119 171 1
133 171 1
57 172 1
58 172 1
120 172 1
134 172 1
58 173 1
59 173 1
121 173 1
135 173 1
59 174 1
60 174 1
122 174 1
136 174 1
60 175 1
61 175 1
123 175 1
137 175 1
61 176 1
62 176 1
124 176 1
138 176 1
62 177 1
63 177 1
125 177 1
139 177 1
63 178 1
64 178 1
126 178 1
140 178 1
64 179 1
65 179 1
127 179 1
141 179 1
65 180 1
66 180 1
128 180 1
142 180 1
66 181 1
67 181 1
129 181 1
143 181 1
67 182 1
68 182 1
130 182 1
144 182 1
68 183 1
69 183 1
131 183 1
145 183 1
69 184 1
70 184 1
132 184 1
146 184 1
70 185 1
71 185 1
133 185 1
147 185 1
71 186 1
72 186 1
134 186 1
148 186 1
72 187 1
73 187 1
135 187 1
149 187 1
73 188 1
74 188 1
136 188 1
150 188 1
74 189 1
75 189 1
137 189 1
151 189 1
75 190 1
76 190 1
138 190 1
152 190 1
77 191 1
114 191 1
115 191 1
145 191 1
77 192 1
78 192 1
116 192 1
146 192 1
78 193 1
79 193 1
117 193 1
147 193 1
79 194 1
80 194 1
118 194 1
148 194 1
80 195 1
81 195 1
119 195 1
149 195 1
81 196 1
82 196 1
120 196 1
150 196 1
82 197 1
83 197 1
121 197 1
151 197 1
83 198 1
84 198 1
122 198 1
152 198 1
84 199 1
85 199 1
115 199 1
123 199 1
85 200 1
86 200 1
116 200 1
124 200 1
86 201 1
87 201 1
117 201 1
125 201 1
87 202 1
88 202 1
118 202 1
126 202 1
88 203 1
89 203 1
119 203 1
127 203 1
89 204 1
90 204 1
120 204 1
128 204 1
90 205 1
91 205 1
121 205 1
129 205 1
91 206 1
92 206 1
122 206 1
130 206 1
92 207 1
93 207 1
123 207 1
131 207 1
93 208 1
94 208 1
124 208 1
132 208 1
94 209 1
95 209 1
125 209 1
133 209 1
95 210 1
96 210 1
126 210 1
134 210 1
96 211 1
97 211 1
127 211 1
135 211 1
97 212 1
98 212 1
128 212 1
136 212 1
98 213 1
99 213 1
129 213 1
137 213 1
99 214 1
100 214 1
130 214 1
138 214 1
100 215 1
101 215 1
131 215 1
139 215 1
101 216 1
102 216 1
132 216 1
140 216 1
102 217 1
103 217 1
133 217 1
141 217 1
103 218 1
104 218 1
134 218 1
142 218 1
104 219 1
105 219 1
135 219 1
143 219 1
105 220 1
106 220 1
136 220 1
144 220 1
106 221 1
107 221 1
137 221 1
145 221 1
107 222 1
108 222 1
138 222 1
146 222 1
108 223 1
109 223 1
139 223 1
147 223 1
109 224 1
110 224 1
140 224 1
148 224 1
110 225 1
111 225 1
141 225 1
149 225 1
111 226 1
112 226 1
142 226 1
150 226 1
112 227 1
113 227 1
143 227 1
151 227 1
113 228 1
114 228 1
144 228 1
152 228 1
