%%MatrixMarket matrix coordinate integer general
% Binary matrix; one-based indices; arithmetic over GF(2)
1120 1400 11200
1 1 1
11 1 1
21 1 1
30 1 1
41 1 1
47 1 1
61 1 1
64 1 1
2 2 1
12 2 1
22 2 1
31 2 1
42 2 1
48 2 1
62 2 1
65 2 1
3 3 1
13 3 1
23 3 1
32 3 1
43 3 1
49 3 1
63 3 1
66 3 1
4 4 1
14 4 1
24 4 1
33 4 1
44 4 1
50 4 1
64 4 1
67 4 1
5 5 1
15 5 1
25 5 1
34 5 1
45 5 1
51 5 1
65 5 1
68 5 1
6 6 1
16 6 1
26 6 1
35 6 1
46 6 1
52 6 1
66 6 1
69 6 1
7 7 1
17 7 1
27 7 1
36 7 1
47 7 1
53 7 1
67 7 1
70 7 1
8 8 1
18 8 1
28 8 1
37 8 1
48 8 1
54 8 1
68 8 1
71 8 1
9 9 1
19 9 1
29 9 1
38 9 1
49 9 1
55 9 1
69 9 1
72 9 1
10 10 1
20 10 1
30 10 1
39 10 1
50 10 1
56 10 1
70 10 1
73 10 1
1 11 1
11 11 1
31 11 1
40 11 1
51 11 1
57 11 1
71 11 1
74 11 1
2 12 1
12 12 1
21 12 1
32 12 1
52 12 1
58 12 1
72 12 1
75 12 1
3 13 1
13 13 1
22 13 1
33 13 1
53 13 1
59 13 1
73 13 1
76 13 1
4 14 1
14 14 1
23 14 1
34 14 1
54 14 1
60 14 1
74 14 1
77 14 1
5 15 1
15 15 1
24 15 1
35 15 1
41 15 1
55 15 1
75 15 1
78 15 1
6 16 1
16 16 1
25 16 1
36 16 1
42 16 1
56 16 1
76 16 1
79 16 1
7 17 1
17 17 1
26 17 1
37 17 1
43 17 1
57 17 1
77 17 1
80 17 1
8 18 1
18 18 1
27 18 1
38 18 1
44 18 1
58 18 1
61 18 1
78 18 1
9 19 1
19 19 1
28 19 1
39 19 1
45 19 1
59 19 1
62 19 1
79 19 1
10 20 1
20 20 1
29 20 1
40 20 1
46 20 1
60 20 1
63 20 1
80 20 1
1 21 1
12 21 1
81 21 1
90 21 1
101 21 1
107 21 1
121 21 1
124 21 1
2 22 1
13 22 1
82 22 1
91 22 1
102 22 1
108 22 1
122 22 1
125 22 1
3 23 1
14 23 1
83 23 1
92 23 1
103 23 1
109 23 1
123 23 1
126 23 1
4 24 1
15 24 1
84 24 1
93 24 1
104 24 1
110 24 1
124 24 1
127 24 1
5 25 1
16 25 1
85 25 1
94 25 1
105 25 1
111 25 1
125 25 1
128 25 1
6 26 1
17 26 1
86 26 1
95 26 1
106 26 1
112 26 1
126 26 1
129 26 1
7 27 1
18 27 1
87 27 1
96 27 1
107 27 1
113 27 1
127 27 1
130 27 1
8 28 1
19 28 1
88 28 1
97 28 1
108 28 1
114 28 1
128 28 1
131 28 1
9 29 1
20 29 1
89 29 1
98 29 1
109 29 1
115 29 1
129 29 1
132 29 1
1 30 1
10 30 1
90 30 1
99 30 1
110 30 1
116 30 1
130 30 1
133 30 1
2 31 1
11 31 1
91 31 1
100 31 1
111 31 1
117 31 1
131 31 1
134 31 1
3 32 1
12 32 1
81 32 1
92 32 1
112 32 1
118 32 1
132 32 1
135 32 1
4 33 1
13 33 1
82 33 1
93 33 1
113 33 1
119 33 1
133 33 1
136 33 1
5 34 1
14 34 1
83 34 1
94 34 1
114 34 1
120 34 1
134 34 1
137 34 1
6 35 1
15 35 1
84 35 1
95 35 1
101 35 1
115 35 1
135 35 1
138 35 1
7 36 1
16 36 1
85 36 1
96 36 1
102 36 1
116 36 1
136 36 1
139 36 1
8 37 1
17 37 1
86 37 1
97 37 1
103 37 1
117 37 1
137 37 1
140 37 1
9 38 1
18 38 1
87 38 1
98 38 1
104 38 1
118 38 1
121 38 1
138 38 1
10 39 1
19 39 1
88 39 1
99 39 1
105 39 1
119 39 1
122 39 1
139 39 1
11 40 1
20 40 1
89 40 1
100 40 1
106 40 1
120 40 1
123 40 1
140 40 1
21 41 1
32 41 1
81 41 1
91 41 1
141 41 1
147 41 1
161 41 1
164 41 1
22 42 1
33 42 1
82 42 1
92 42 1
142 42 1
148 42 1
162 42 1
165 42 1
23 43 1
34 43 1
83 43 1
93 43 1
143 43 1
149 43 1
163 43 1
166 43 1
24 44 1
35 44 1
84 44 1
94 44 1
144 44 1
150 44 1
164 44 1
167 44 1
25 45 1
36 45 1
85 45 1
95 45 1
145 45 1
151 45 1
165 45 1
168 45 1
26 46 1
37 46 1
86 46 1
96 46 1
146 46 1
152 46 1
166 46 1
169 46 1
27 47 1
38 47 1
87 47 1
97 47 1
147 47 1
153 47 1
167 47 1
170 47 1
28 48 1
39 48 1
88 48 1
98 48 1
148 48 1
154 48 1
168 48 1
171 48 1
29 49 1
40 49 1
89 49 1
99 49 1
149 49 1
155 49 1
169 49 1
172 49 1
21 50 1
30 50 1
90 50 1
100 50 1
150 50 1
156 50 1
170 50 1
173 50 1
22 51 1
31 51 1
81 51 1
91 51 1
151 51 1
157 51 1
171 51 1
174 51 1
23 52 1
32 52 1
82 52 1
92 52 1
152 52 1
158 52 1
172 52 1
175 52 1
24 53 1
33 53 1
83 53 1
93 53 1
153 53 1
159 53 1
173 53 1
176 53 1
25 54 1
34 54 1
84 54 1
94 54 1
154 54 1
160 54 1
174 54 1
177 54 1
26 55 1
35 55 1
85 55 1
95 55 1
141 55 1
155 55 1
175 55 1
178 55 1
27 56 1
36 56 1
86 56 1
96 56 1
142 56 1
156 56 1
176 56 1
179 56 1
28 57 1
37 57 1
87 57 1
97 57 1
143 57 1
157 57 1
177 57 1
180 57 1
29 58 1
38 58 1
88 58 1
98 58 1
144 58 1
158 58 1
161 58 1
178 58 1
30 59 1
39 59 1
89 59 1
99 59 1
145 59 1
159 59 1
162 59 1
179 59 1
31 60 1
40 60 1
90 60 1
100 60 1
146 60 1
160 60 1
163 60 1
180 60 1
41 61 1
52 61 1
101 61 1
111 61 1
141 61 1
150 61 1
181 61 1
184 61 1
42 62 1
53 62 1
102 62 1
112 62 1
142 62 1
151 62 1
182 62 1
185 62 1
43 63 1
54 63 1
103 63 1
113 63 1
143 63 1
152 63 1
183 63 1
186 63 1
44 64 1
55 64 1
104 64 1
114 64 1
144 64 1
153 64 1
184 64 1
187 64 1
45 65 1
56 65 1
105 65 1
115 65 1
145 65 1
154 65 1
185 65 1
188 65 1
46 66 1
57 66 1
106 66 1
116 66 1
146 66 1
155 66 1
186 66 1
189 66 1
47 67 1
58 67 1
107 67 1
117 67 1
147 67 1
156 67 1
187 67 1
190 67 1
48 68 1
59 68 1
108 68 1
118 68 1
148 68 1
157 68 1
188 68 1
191 68 1
49 69 1
60 69 1
109 69 1
119 69 1
149 69 1
158 69 1
189 69 1
192 69 1
41 70 1
50 70 1
110 70 1
120 70 1
150 70 1
159 70 1
190 70 1
193 70 1
42 71 1
51 71 1
101 71 1
111 71 1
151 71 1
160 71 1
191 71 1
194 71 1
43 72 1
52 72 1
102 72 1
112 72 1
141 72 1
152 72 1
192 72 1
195 72 1
44 73 1
53 73 1
103 73 1
113 73 1
142 73 1
153 73 1
193 73 1
196 73 1
45 74 1
54 74 1
104 74 1
114 74 1
143 74 1
154 74 1
194 74 1
197 74 1
46 75 1
55 75 1
105 75 1
115 75 1
144 75 1
155 75 1
195 75 1
198 75 1
47 76 1
56 76 1
106 76 1
116 76 1
145 76 1
156 76 1
196 76 1
199 76 1
48 77 1
57 77 1
107 77 1
117 77 1
146 77 1
157 77 1
197 77 1
200 77 1
49 78 1
58 78 1
108 78 1
118 78 1
147 78 1
158 78 1
181 78 1
198 78 1
50 79 1
59 79 1
109 79 1
119 79 1
148 79 1
159 79 1
182 79 1
199 79 1
51 80 1
60 80 1
110 80 1
120 80 1
149 80 1
160 80 1
183 80 1
200 80 1
61 81 1
72 81 1
121 81 1
131 81 1
161 81 1
170 81 1
181 81 1
187 81 1
62 82 1
73 82 1
122 82 1
132 82 1
162 82 1
171 82 1
182 82 1
188 82 1
63 83 1
74 83 1
123 83 1
133 83 1
163 83 1
172 83 1
183 83 1
189 83 1
64 84 1
75 84 1
124 84 1
134 84 1
164 84 1
173 84 1
184 84 1
190 84 1
65 85 1
76 85 1
125 85 1
135 85 1
165 85 1
174 85 1
185 85 1
191 85 1
66 86 1
77 86 1
126 86 1
136 86 1
166 86 1
175 86 1
186 86 1
192 86 1
67 87 1
78 87 1
127 87 1
137 87 1
167 87 1
176 87 1
187 87 1
193 87 1
68 88 1
79 88 1
128 88 1
138 88 1
168 88 1
177 88 1
188 88 1
194 88 1
69 89 1
80 89 1
129 89 1
139 89 1
169 89 1
178 89 1
189 89 1
195 89 1
61 90 1
70 90 1
130 90 1
140 90 1
170 90 1
179 90 1
190 90 1
196 90 1
62 91 1
71 91 1
121 91 1
131 91 1
171 91 1
180 91 1
191 91 1
197 91 1
63 92 1
72 92 1
122 92 1
132 92 1
161 92 1
172 92 1
192 92 1
198 92 1
64 93 1
73 93 1
123 93 1
133 93 1
162 93 1
173 93 1
193 93 1
199 93 1
65 94 1
74 94 1
124 94 1
134 94 1
163 94 1
174 94 1
194 94 1
200 94 1
66 95 1
75 95 1
125 95 1
135 95 1
164 95 1
175 95 1
181 95 1
195 95 1
67 96 1
76 96 1
126 96 1
136 96 1
165 96 1
176 96 1
182 96 1
196 96 1
68 97 1
77 97 1
127 97 1
137 97 1
166 97 1
177 97 1
183 97 1
197 97 1
69 98 1
78 98 1
128 98 1
138 98 1
167 98 1
178 98 1
184 98 1
198 98 1
70 99 1
79 99 1
129 99 1
139 99 1
168 99 1
179 99 1
185 99 1
199 99 1
71 100 1
80 100 1
130 100 1
140 100 1
169 100 1
180 100 1
186 100 1
200 100 1
1 101 1
14 101 1
201 101 1
210 101 1
221 101 1
227 101 1
241 101 1
244 101 1
2 102 1
15 102 1
202 102 1
211 102 1
222 102 1
228 102 1
242 102 1
245 102 1
3 103 1
16 103 1
203 103 1
212 103 1
223 103 1
229 103 1
243 103 1
246 103 1
4 104 1
17 104 1
204 104 1
213 104 1
224 104 1
230 104 1
244 104 1
247 104 1
5 105 1
18 105 1
205 105 1
214 105 1
225 105 1
231 105 1
245 105 1
248 105 1
6 106 1
19 106 1
206 106 1
215 106 1
226 106 1
232 106 1
246 106 1
249 106 1
7 107 1
20 107 1
207 107 1
216 107 1
227 107 1
233 107 1
247 107 1
250 107 1
1 108 1
8 108 1
208 108 1
217 108 1
228 108 1
234 108 1
248 108 1
251 108 1
2 109 1
9 109 1
209 109 1
218 109 1
229 109 1
235 109 1
249 109 1
252 109 1
3 110 1
10 110 1
210 110 1
219 110 1
230 110 1
236 110 1
250 110 1
253 110 1
4 111 1
11 111 1
211 111 1
220 111 1
231 111 1
237 111 1
251 111 1
254 111 1
5 112 1
12 112 1
201 112 1
212 112 1
232 112 1
238 112 1
252 112 1
255 112 1
6 113 1
13 113 1
202 113 1
213 113 1
233 113 1
239 113 1
253 113 1
256 113 1
7 114 1
14 114 1
203 114 1
214 114 1
234 114 1
240 114 1
254 114 1
257 114 1
8 115 1
15 115 1
204 115 1
215 115 1
221 115 1
235 115 1
255 115 1
258 115 1
9 116 1
16 116 1
205 116 1
216 116 1
222 116 1
236 116 1
256 116 1
259 116 1
10 117 1
17 117 1
206 117 1
217 117 1
223 117 1
237 117 1
257 117 1
260 117 1
11 118 1
18 118 1
207 118 1
218 118 1
224 118 1
238 118 1
241 118 1
258 118 1
12 119 1
19 119 1
208 119 1
219 119 1
225 119 1
239 119 1
242 119 1
259 119 1
13 120 1
20 120 1
209 120 1
220 120 1
226 120 1
240 120 1
243 120 1
260 120 1
21 121 1
34 121 1
201 121 1
211 121 1
261 121 1
267 121 1
281 121 1
284 121 1
22 122 1
35 122 1
202 122 1
212 122 1
262 122 1
268 122 1
282 122 1
285 122 1
23 123 1
36 123 1
203 123 1
213 123 1
263 123 1
269 123 1
283 123 1
286 123 1
24 124 1
37 124 1
204 124 1
214 124 1
264 124 1
270 124 1
284 124 1
287 124 1
25 125 1
38 125 1
205 125 1
215 125 1
265 125 1
271 125 1
285 125 1
288 125 1
26 126 1
39 126 1
206 126 1
216 126 1
266 126 1
272 126 1
286 126 1
289 126 1
27 127 1
40 127 1
207 127 1
217 127 1
267 127 1
273 127 1
287 127 1
290 127 1
21 128 1
28 128 1
208 128 1
218 128 1
268 128 1
274 128 1
288 128 1
291 128 1
22 129 1
29 129 1
209 129 1
219 129 1
269 129 1
275 129 1
289 129 1
292 129 1
23 130 1
30 130 1
210 130 1
220 130 1
270 130 1
276 130 1
290 130 1
293 130 1
24 131 1
31 131 1
201 131 1
211 131 1
271 131 1
277 131 1
291 131 1
294 131 1
25 132 1
32 132 1
202 132 1
212 132 1
272 132 1
278 132 1
292 132 1
295 132 1
26 133 1
33 133 1
203 133 1
213 133 1
273 133 1
279 133 1
293 133 1
296 133 1
27 134 1
34 134 1
204 134 1
214 134 1
274 134 1
280 134 1
294 134 1
297 134 1
28 135 1
35 135 1
205 135 1
215 135 1
261 135 1
275 135 1
295 135 1
298 135 1
29 136 1
36 136 1
206 136 1
216 136 1
262 136 1
276 136 1
296 136 1
299 136 1
30 137 1
37 137 1
207 137 1
217 137 1
263 137 1
277 137 1
297 137 1
300 137 1
31 138 1
38 138 1
208 138 1
218 138 1
264 138 1
278 138 1
281 138 1
298 138 1
32 139 1
39 139 1
209 139 1
219 139 1
265 139 1
279 139 1
282 139 1
299 139 1
33 140 1
40 140 1
210 140 1
220 140 1
266 140 1
280 140 1
283 140 1
300 140 1
41 141 1
54 141 1
221 141 1
231 141 1
261 141 1
270 141 1
301 141 1
304 141 1
42 142 1
55 142 1
222 142 1
232 142 1
262 142 1
271 142 1
302 142 1
305 142 1
43 143 1
56 143 1
223 143 1
233 143 1
263 143 1
272 143 1
303 143 1
306 143 1
44 144 1
57 144 1
224 144 1
234 144 1
264 144 1
273 144 1
304 144 1
307 144 1
45 145 1
58 145 1
225 145 1
235 145 1
265 145 1
274 145 1
305 145 1
308 145 1
46 146 1
59 146 1
226 146 1
236 146 1
266 146 1
275 146 1
306 146 1
309 146 1
47 147 1
60 147 1
227 147 1
237 147 1
267 147 1
276 147 1
307 147 1
310 147 1
41 148 1
48 148 1
228 148 1
238 148 1
268 148 1
277 148 1
308 148 1
311 148 1
42 149 1
49 149 1
229 149 1
239 149 1
269 149 1
278 149 1
309 149 1
312 149 1
43 150 1
50 150 1
230 150 1
240 150 1
270 150 1
279 150 1
310 150 1
313 150 1
44 151 1
51 151 1
221 151 1
231 151 1
271 151 1
280 151 1
311 151 1
314 151 1
45 152 1
52 152 1
222 152 1
232 152 1
261 152 1
272 152 1
312 152 1
315 152 1
46 153 1
53 153 1
223 153 1
233 153 1
262 153 1
273 153 1
313 153 1
316 153 1
47 154 1
54 154 1
224 154 1
234 154 1
263 154 1
274 154 1
314 154 1
317 154 1
48 155 1
55 155 1
225 155 1
235 155 1
264 155 1
275 155 1
315 155 1
318 155 1
49 156 1
56 156 1
226 156 1
236 156 1
265 156 1
276 156 1
316 156 1
319 156 1
50 157 1
57 157 1
227 157 1
237 157 1
266 157 1
277 157 1
317 157 1
320 157 1
51 158 1
58 158 1
228 158 1
238 158 1
267 158 1
278 158 1
301 158 1
318 158 1
52 159 1
59 159 1
229 159 1
239 159 1
268 159 1
279 159 1
302 159 1
319 159 1
53 160 1
60 160 1
230 160 1
240 160 1
269 160 1
280 160 1
303 160 1
320 160 1
61 161 1
74 161 1
241 161 1
251 161 1
281 161 1
290 161 1
301 161 1
307 161 1
62 162 1
75 162 1
242 162 1
252 162 1
282 162 1
291 162 1
302 162 1
308 162 1
63 163 1
76 163 1
243 163 1
253 163 1
283 163 1
292 163 1
303 163 1
309 163 1
64 164 1
77 164 1
244 164 1
254 164 1
284 164 1
293 164 1
304 164 1
310 164 1
65 165 1
78 165 1
245 165 1
255 165 1
285 165 1
294 165 1
305 165 1
311 165 1
66 166 1
79 166 1
246 166 1
256 166 1
286 166 1
295 166 1
306 166 1
312 166 1
67 167 1
80 167 1
247 167 1
257 167 1
287 167 1
296 167 1
307 167 1
313 167 1
61 168 1
68 168 1
248 168 1
258 168 1
288 168 1
297 168 1
308 168 1
314 168 1
62 169 1
69 169 1
249 169 1
259 169 1
289 169 1
298 169 1
309 169 1
315 169 1
63 170 1
70 170 1
250 170 1
260 170 1
290 170 1
299 170 1
310 170 1
316 170 1
64 171 1
71 171 1
241 171 1
251 171 1
291 171 1
300 171 1
311 171 1
317 171 1
65 172 1
72 172 1
242 172 1
252 172 1
281 172 1
292 172 1
312 172 1
318 172 1
66 173 1
73 173 1
243 173 1
253 173 1
282 173 1
293 173 1
313 173 1
319 173 1
67 174 1
74 174 1
244 174 1
254 174 1
283 174 1
294 174 1
314 174 1
320 174 1
68 175 1
75 175 1
245 175 1
255 175 1
284 175 1
295 175 1
301 175 1
315 175 1
69 176 1
76 176 1
246 176 1
256 176 1
285 176 1
296 176 1
302 176 1
316 176 1
70 177 1
77 177 1
247 177 1
257 177 1
286 177 1
297 177 1
303 177 1
317 177 1
71 178 1
78 178 1
248 178 1
258 178 1
287 178 1
298 178 1
304 178 1
318 178 1
72 179 1
79 179 1
249 179 1
259 179 1
288 179 1
299 179 1
305 179 1
319 179 1
73 180 1
80 180 1
250 180 1
260 180 1
289 180 1
300 180 1
306 180 1
320 180 1
81 181 1
94 181 1
201 181 1
212 181 1
321 181 1
327 181 1
341 181 1
344 181 1
82 182 1
95 182 1
202 182 1
213 182 1
322 182 1
328 182 1
342 182 1
345 182 1
83 183 1
96 183 1
203 183 1
214 183 1
323 183 1
329 183 1
343 183 1
346 183 1
84 184 1
97 184 1
204 184 1
215 184 1
324 184 1
330 184 1
344 184 1
347 184 1
85 185 1
98 185 1
205 185 1
216 185 1
325 185 1
331 185 1
345 185 1
348 185 1
86 186 1
99 186 1
206 186 1
217 186 1
326 186 1
332 186 1
346 186 1
349 186 1
87 187 1
100 187 1
207 187 1
218 187 1
327 187 1
333 187 1
347 187 1
350 187 1
81 188 1
88 188 1
208 188 1
219 188 1
328 188 1
334 188 1
348 188 1
351 188 1
82 189 1
89 189 1
209 189 1
220 189 1
329 189 1
335 189 1
349 189 1
352 189 1
83 190 1
90 190 1
201 190 1
210 190 1
330 190 1
336 190 1
350 190 1
353 190 1
84 191 1
91 191 1
202 191 1
211 191 1
331 191 1
337 191 1
351 191 1
354 191 1
85 192 1
92 192 1
203 192 1
212 192 1
332 192 1
338 192 1
352 192 1
355 192 1
86 193 1
93 193 1
204 193 1
213 193 1
333 193 1
339 193 1
353 193 1
356 193 1
87 194 1
94 194 1
205 194 1
214 194 1
334 194 1
340 194 1
354 194 1
357 194 1
88 195 1
95 195 1
206 195 1
215 195 1
321 195 1
335 195 1
355 195 1
358 195 1
89 196 1
96 196 1
207 196 1
216 196 1
322 196 1
336 196 1
356 196 1
359 196 1
90 197 1
97 197 1
208 197 1
217 197 1
323 197 1
337 197 1
357 197 1
360 197 1
91 198 1
98 198 1
209 198 1
218 198 1
324 198 1
338 198 1
341 198 1
358 198 1
92 199 1
99 199 1
210 199 1
219 199 1
325 199 1
339 199 1
342 199 1
359 199 1
93 200 1
100 200 1
211 200 1
220 200 1
326 200 1
340 200 1
343 200 1
360 200 1
101 201 1
114 201 1
221 201 1
232 201 1
321 201 1
330 201 1
361 201 1
364 201 1
102 202 1
115 202 1
222 202 1
233 202 1
322 202 1
331 202 1
362 202 1
365 202 1
103 203 1
116 203 1
223 203 1
234 203 1
323 203 1
332 203 1
363 203 1
366 203 1
104 204 1
117 204 1
224 204 1
235 204 1
324 204 1
333 204 1
364 204 1
367 204 1
105 205 1
118 205 1
225 205 1
236 205 1
325 205 1
334 205 1
365 205 1
368 205 1
106 206 1
119 206 1
226 206 1
237 206 1
326 206 1
335 206 1
366 206 1
369 206 1
107 207 1
120 207 1
227 207 1
238 207 1
327 207 1
336 207 1
367 207 1
370 207 1
101 208 1
108 208 1
228 208 1
239 208 1
328 208 1
337 208 1
368 208 1
371 208 1
102 209 1
109 209 1
229 209 1
240 209 1
329 209 1
338 209 1
369 209 1
372 209 1
103 210 1
110 210 1
221 210 1
230 210 1
330 210 1
339 210 1
370 210 1
373 210 1
104 211 1
111 211 1
222 211 1
231 211 1
331 211 1
340 211 1
371 211 1
374 211 1
105 212 1
112 212 1
223 212 1
232 212 1
321 212 1
332 212 1
372 212 1
375 212 1
106 213 1
113 213 1
224 213 1
233 213 1
322 213 1
333 213 1
373 213 1
376 213 1
107 214 1
114 214 1
225 214 1
234 214 1
323 214 1
334 214 1
374 214 1
377 214 1
108 215 1
115 215 1
226 215 1
235 215 1
324 215 1
335 215 1
375 215 1
378 215 1
109 216 1
116 216 1
227 216 1
236 216 1
325 216 1
336 216 1
376 216 1
379 216 1
110 217 1
117 217 1
228 217 1
237 217 1
326 217 1
337 217 1
377 217 1
380 217 1
111 218 1
118 218 1
229 218 1
238 218 1
327 218 1
338 218 1
361 218 1
378 218 1
112 219 1
119 219 1
230 219 1
239 219 1
328 219 1
339 219 1
362 219 1
379 219 1
113 220 1
120 220 1
231 220 1
240 220 1
329 220 1
340 220 1
363 220 1
380 220 1
121 221 1
134 221 1
241 221 1
252 221 1
341 221 1
350 221 1
361 221 1
367 221 1
122 222 1
135 222 1
242 222 1
253 222 1
342 222 1
351 222 1
362 222 1
368 222 1
123 223 1
136 223 1
243 223 1
254 223 1
343 223 1
352 223 1
363 223 1
369 223 1
124 224 1
137 224 1
244 224 1
255 224 1
344 224 1
353 224 1
364 224 1
370 224 1
125 225 1
138 225 1
245 225 1
256 225 1
345 225 1
354 225 1
365 225 1
371 225 1
126 226 1
139 226 1
246 226 1
257 226 1
346 226 1
355 226 1
366 226 1
372 226 1
127 227 1
140 227 1
247 227 1
258 227 1
347 227 1
356 227 1
367 227 1
373 227 1
121 228 1
128 228 1
248 228 1
259 228 1
348 228 1
357 228 1
368 228 1
374 228 1
122 229 1
129 229 1
249 229 1
260 229 1
349 229 1
358 229 1
369 229 1
375 229 1
123 230 1
130 230 1
241 230 1
250 230 1
350 230 1
359 230 1
370 230 1
376 230 1
124 231 1
131 231 1
242 231 1
251 231 1
351 231 1
360 231 1
371 231 1
377 231 1
125 232 1
132 232 1
243 232 1
252 232 1
341 232 1
352 232 1
372 232 1
378 232 1
126 233 1
133 233 1
244 233 1
253 233 1
342 233 1
353 233 1
373 233 1
379 233 1
127 234 1
134 234 1
245 234 1
254 234 1
343 234 1
354 234 1
374 234 1
380 234 1
128 235 1
135 235 1
246 235 1
255 235 1
344 235 1
355 235 1
361 235 1
375 235 1
129 236 1
136 236 1
247 236 1
256 236 1
345 236 1
356 236 1
362 236 1
376 236 1
130 237 1
137 237 1
248 237 1
257 237 1
346 237 1
357 237 1
363 237 1
377 237 1
131 238 1
138 238 1
249 238 1
258 238 1
347 238 1
358 238 1
364 238 1
378 238 1
132 239 1
139 239 1
250 239 1
259 239 1
348 239 1
359 239 1
365 239 1
379 239 1
133 240 1
140 240 1
251 240 1
260 240 1
349 240 1
360 240 1
366 240 1
380 240 1
141 241 1
154 241 1
261 241 1
272 241 1
321 241 1
331 241 1
381 241 1
384 241 1
142 242 1
155 242 1
262 242 1
273 242 1
322 242 1
332 242 1
382 242 1
385 242 1
143 243 1
156 243 1
263 243 1
274 243 1
323 243 1
333 243 1
383 243 1
386 243 1
144 244 1
157 244 1
264 244 1
275 244 1
324 244 1
334 244 1
384 244 1
387 244 1
145 245 1
158 245 1
265 245 1
276 245 1
325 245 1
335 245 1
385 245 1
388 245 1
146 246 1
159 246 1
266 246 1
277 246 1
326 246 1
336 246 1
386 246 1
389 246 1
147 247 1
160 247 1
267 247 1
278 247 1
327 247 1
337 247 1
387 247 1
390 247 1
141 248 1
148 248 1
268 248 1
279 248 1
328 248 1
338 248 1
388 248 1
391 248 1
142 249 1
149 249 1
269 249 1
280 249 1
329 249 1
339 249 1
389 249 1
392 249 1
143 250 1
150 250 1
261 250 1
270 250 1
330 250 1
340 250 1
390 250 1
393 250 1
144 251 1
151 251 1
262 251 1
271 251 1
321 251 1
331 251 1
391 251 1
394 251 1
145 252 1
152 252 1
263 252 1
272 252 1
322 252 1
332 252 1
392 252 1
395 252 1
146 253 1
153 253 1
264 253 1
273 253 1
323 253 1
333 253 1
393 253 1
396 253 1
147 254 1
154 254 1
265 254 1
274 254 1
324 254 1
334 254 1
394 254 1
397 254 1
148 255 1
155 255 1
266 255 1
275 255 1
325 255 1
335 255 1
395 255 1
398 255 1
149 256 1
156 256 1
267 256 1
276 256 1
326 256 1
336 256 1
396 256 1
399 256 1
150 257 1
157 257 1
268 257 1
277 257 1
327 257 1
337 257 1
397 257 1
400 257 1
151 258 1
158 258 1
269 258 1
278 258 1
328 258 1
338 258 1
381 258 1
398 258 1
152 259 1
159 259 1
270 259 1
279 259 1
329 259 1
339 259 1
382 259 1
399 259 1
153 260 1
160 260 1
271 260 1
280 260 1
330 260 1
340 260 1
383 260 1
400 260 1
161 261 1
174 261 1
281 261 1
292 261 1
341 261 1
351 261 1
381 261 1
387 261 1
162 262 1
175 262 1
282 262 1
293 262 1
342 262 1
352 262 1
382 262 1
388 262 1
163 263 1
176 263 1
283 263 1
294 263 1
343 263 1
353 263 1
383 263 1
389 263 1
164 264 1
177 264 1
284 264 1
295 264 1
344 264 1
354 264 1
384 264 1
390 264 1
165 265 1
178 265 1
285 265 1
296 265 1
345 265 1
355 265 1
385 265 1
391 265 1
166 266 1
179 266 1
286 266 1
297 266 1
346 266 1
356 266 1
386 266 1
392 266 1
167 267 1
180 267 1
287 267 1
298 267 1
347 267 1
357 267 1
387 267 1
393 267 1
161 268 1
168 268 1
288 268 1
299 268 1
348 268 1
358 268 1
388 268 1
394 268 1
162 269 1
169 269 1
289 269 1
300 269 1
349 269 1
359 269 1
389 269 1
395 269 1
163 270 1
170 270 1
281 270 1
290 270 1
350 270 1
360 270 1
390 270 1
396 270 1
164 271 1
171 271 1
282 271 1
291 271 1
341 271 1
351 271 1
391 271 1
397 271 1
165 272 1
172 272 1
283 272 1
292 272 1
342 272 1
352 272 1
392 272 1
398 272 1
166 273 1
173 273 1
284 273 1
293 273 1
343 273 1
353 273 1
393 273 1
399 273 1
167 274 1
174 274 1
285 274 1
294 274 1
344 274 1
354 274 1
394 274 1
400 274 1
168 275 1
175 275 1
286 275 1
295 275 1
345 275 1
355 275 1
381 275 1
395 275 1
169 276 1
176 276 1
287 276 1
296 276 1
346 276 1
356 276 1
382 276 1
396 276 1
170 277 1
177 277 1
288 277 1
297 277 1
347 277 1
357 277 1
383 277 1
397 277 1
171 278 1
178 278 1
289 278 1
298 278 1
348 278 1
358 278 1
384 278 1
398 278 1
172 279 1
179 279 1
290 279 1
299 279 1
349 279 1
359 279 1
385 279 1
399 279 1
173 280 1
180 280 1
291 280 1
300 280 1
350 280 1
360 280 1
386 280 1
400 280 1
181 281 1
194 281 1
301 281 1
312 281 1
361 281 1
371 281 1
381 281 1
390 281 1
182 282 1
195 282 1
302 282 1
313 282 1
362 282 1
372 282 1
382 282 1
391 282 1
183 283 1
196 283 1
303 283 1
314 283 1
363 283 1
373 283 1
383 283 1
392 283 1
184 284 1
197 284 1
304 284 1
315 284 1
364 284 1
374 284 1
384 284 1
393 284 1
185 285 1
198 285 1
305 285 1
316 285 1
365 285 1
375 285 1
385 285 1
394 285 1
186 286 1
199 286 1
306 286 1
317 286 1
366 286 1
376 286 1
386 286 1
395 286 1
187 287 1
200 287 1
307 287 1
318 287 1
367 287 1
377 287 1
387 287 1
396 287 1
181 288 1
188 288 1
308 288 1
319 288 1
368 288 1
378 288 1
388 288 1
397 288 1
182 289 1
189 289 1
309 289 1
320 289 1
369 289 1
379 289 1
389 289 1
398 289 1
183 290 1
190 290 1
301 290 1
310 290 1
370 290 1
380 290 1
390 290 1
399 290 1
184 291 1
191 291 1
302 291 1
311 291 1
361 291 1
371 291 1
391 291 1
400 291 1
185 292 1
192 292 1
303 292 1
312 292 1
362 292 1
372 292 1
381 292 1
392 292 1
186 293 1
193 293 1
304 293 1
313 293 1
363 293 1
373 293 1
382 293 1
393 293 1
187 294 1
194 294 1
305 294 1
314 294 1
364 294 1
374 294 1
383 294 1
394 294 1
188 295 1
195 295 1
306 295 1
315 295 1
365 295 1
375 295 1
384 295 1
395 295 1
189 296 1
196 296 1
307 296 1
316 296 1
366 296 1
376 296 1
385 296 1
396 296 1
190 297 1
197 297 1
308 297 1
317 297 1
367 297 1
377 297 1
386 297 1
397 297 1
191 298 1
198 298 1
309 298 1
318 298 1
368 298 1
378 298 1
387 298 1
398 298 1
192 299 1
199 299 1
310 299 1
319 299 1
369 299 1
379 299 1
388 299 1
399 299 1
193 300 1
200 300 1
311 300 1
320 300 1
370 300 1
380 300 1
389 300 1
400 300 1
1 301 1
17 301 1
401 301 1
410 301 1
421 301 1
427 301 1
441 301 1
444 301 1
2 302 1
18 302 1
402 302 1
411 302 1
422 302 1
428 302 1
442 302 1
445 302 1
3 303 1
19 303 1
403 303 1
412 303 1
423 303 1
429 303 1
443 303 1
446 303 1
4 304 1
20 304 1
404 304 1
413 304 1
424 304 1
430 304 1
444 304 1
447 304 1
1 305 1
5 305 1
405 305 1
414 305 1
425 305 1
431 305 1
445 305 1
448 305 1
2 306 1
6 306 1
406 306 1
415 306 1
426 306 1
432 306 1
446 306 1
449 306 1
3 307 1
7 307 1
407 307 1
416 307 1
427 307 1
433 307 1
447 307 1
450 307 1
4 308 1
8 308 1
408 308 1
417 308 1
428 308 1
434 308 1
448 308 1
451 308 1
5 309 1
9 309 1
409 309 1
418 309 1
429 309 1
435 309 1
449 309 1
452 309 1
6 310 1
10 310 1
410 310 1
419 310 1
430 310 1
436 310 1
450 310 1
453 310 1
7 311 1
11 311 1
411 311 1
420 311 1
431 311 1
437 311 1
451 311 1
454 311 1
8 312 1
12 312 1
401 312 1
412 312 1
432 312 1
438 312 1
452 312 1
455 312 1
9 313 1
13 313 1
402 313 1
413 313 1
433 313 1
439 313 1
453 313 1
456 313 1
10 314 1
14 314 1
403 314 1
414 314 1
434 314 1
440 314 1
454 314 1
457 314 1
11 315 1
15 315 1
404 315 1
415 315 1
421 315 1
435 315 1
455 315 1
458 315 1
12 316 1
16 316 1
405 316 1
416 316 1
422 316 1
436 316 1
456 316 1
459 316 1
13 317 1
17 317 1
406 317 1
417 317 1
423 317 1
437 317 1
457 317 1
460 317 1
14 318 1
18 318 1
407 318 1
418 318 1
424 318 1
438 318 1
441 318 1
458 318 1
15 319 1
19 319 1
408 319 1
419 319 1
425 319 1
439 319 1
442 319 1
459 319 1
16 320 1
20 320 1
409 320 1
420 320 1
426 320 1
440 320 1
443 320 1
460 320 1
21 321 1
37 321 1
401 321 1
411 321 1
461 321 1
467 321 1
481 321 1
484 321 1
22 322 1
38 322 1
402 322 1
412 322 1
462 322 1
468 322 1
482 322 1
485 322 1
23 323 1
39 323 1
403 323 1
413 323 1
463 323 1
469 323 1
483 323 1
486 323 1
24 324 1
40 324 1
404 324 1
414 324 1
464 324 1
470 324 1
484 324 1
487 324 1
21 325 1
25 325 1
405 325 1
415 325 1
465 325 1
471 325 1
485 325 1
488 325 1
22 326 1
26 326 1
406 326 1
416 326 1
466 326 1
472 326 1
486 326 1
489 326 1
23 327 1
27 327 1
407 327 1
417 327 1
467 327 1
473 327 1
487 327 1
490 327 1
24 328 1
28 328 1
408 328 1
418 328 1
468 328 1
474 328 1
488 328 1
491 328 1
25 329 1
29 329 1
409 329 1
419 329 1
469 329 1
475 329 1
489 329 1
492 329 1
26 330 1
30 330 1
410 330 1
420 330 1
470 330 1
476 330 1
490 330 1
493 330 1
27 331 1
31 331 1
401 331 1
411 331 1
471 331 1
477 331 1
491 331 1
494 331 1
28 332 1
32 332 1
402 332 1
412 332 1
472 332 1
478 332 1
492 332 1
495 332 1
29 333 1
33 333 1
403 333 1
413 333 1
473 333 1
479 333 1
493 333 1
496 333 1
30 334 1
34 334 1
404 334 1
414 334 1
474 334 1
480 334 1
494 334 1
497 334 1
31 335 1
35 335 1
405 335 1
415 335 1
461 335 1
475 335 1
495 335 1
498 335 1
32 336 1
36 336 1
406 336 1
416 336 1
462 336 1
476 336 1
496 336 1
499 336 1
33 337 1
37 337 1
407 337 1
417 337 1
463 337 1
477 337 1
497 337 1
500 337 1
34 338 1
38 338 1
408 338 1
418 338 1
464 338 1
478 338 1
481 338 1
498 338 1
35 339 1
39 339 1
409 339 1
419 339 1
465 339 1
479 339 1
482 339 1
499 339 1
36 340 1
40 340 1
410 340 1
420 340 1
466 340 1
480 340 1
483 340 1
500 340 1
41 341 1
57 341 1
421 341 1
431 341 1
461 341 1
470 341 1
501 341 1
504 341 1
42 342 1
58 342 1
422 342 1
432 342 1
462 342 1
471 342 1
502 342 1
505 342 1
43 343 1
59 343 1
423 343 1
433 343 1
463 343 1
472 343 1
503 343 1
506 343 1
44 344 1
60 344 1
424 344 1
434 344 1
464 344 1
473 344 1
504 344 1
507 344 1
41 345 1
45 345 1
425 345 1
435 345 1
465 345 1
474 345 1
505 345 1
508 345 1
42 346 1
46 346 1
426 346 1
436 346 1
466 346 1
475 346 1
506 346 1
509 346 1
43 347 1
47 347 1
427 347 1
437 347 1
467 347 1
476 347 1
507 347 1
510 347 1
44 348 1
48 348 1
428 348 1
438 348 1
468 348 1
477 348 1
508 348 1
511 348 1
45 349 1
49 349 1
429 349 1
439 349 1
469 349 1
478 349 1
509 349 1
512 349 1
46 350 1
50 350 1
430 350 1
440 350 1
470 350 1
479 350 1
510 350 1
513 350 1
47 351 1
51 351 1
421 351 1
431 351 1
471 351 1
480 351 1
511 351 1
514 351 1
48 352 1
52 352 1
422 352 1
432 352 1
461 352 1
472 352 1
512 352 1
515 352 1
49 353 1
53 353 1
423 353 1
433 353 1
462 353 1
473 353 1
513 353 1
516 353 1
50 354 1
54 354 1
424 354 1
434 354 1
463 354 1
474 354 1
514 354 1
517 354 1
51 355 1
55 355 1
425 355 1
435 355 1
464 355 1
475 355 1
515 355 1
518 355 1
52 356 1
56 356 1
426 356 1
436 356 1
465 356 1
476 356 1
516 356 1
519 356 1
53 357 1
57 357 1
427 357 1
437 357 1
466 357 1
477 357 1
517 357 1
520 357 1
54 358 1
58 358 1
428 358 1
438 358 1
467 358 1
478 358 1
501 358 1
518 358 1
55 359 1
59 359 1
429 359 1
439 359 1
468 359 1
479 359 1
502 359 1
519 359 1
56 360 1
60 360 1
430 360 1
440 360 1
469 360 1
480 360 1
503 360 1
520 360 1
61 361 1
77 361 1
441 361 1
451 361 1
481 361 1
490 361 1
501 361 1
507 361 1
62 362 1
78 362 1
442 362 1
452 362 1
482 362 1
491 362 1
502 362 1
508 362 1
63 363 1
79 363 1
443 363 1
453 363 1
483 363 1
492 363 1
503 363 1
509 363 1
64 364 1
80 364 1
444 364 1
454 364 1
484 364 1
493 364 1
504 364 1
510 364 1
61 365 1
65 365 1
445 365 1
455 365 1
485 365 1
494 365 1
505 365 1
511 365 1
62 366 1
66 366 1
446 366 1
456 366 1
486 366 1
495 366 1
506 366 1
512 366 1
63 367 1
67 367 1
447 367 1
457 367 1
487 367 1
496 367 1
507 367 1
513 367 1
64 368 1
68 368 1
448 368 1
458 368 1
488 368 1
497 368 1
508 368 1
514 368 1
65 369 1
69 369 1
449 369 1
459 369 1
489 369 1
498 369 1
509 369 1
515 369 1
66 370 1
70 370 1
450 370 1
460 370 1
490 370 1
499 370 1
510 370 1
516 370 1
67 371 1
71 371 1
441 371 1
451 371 1
491 371 1
500 371 1
511 371 1
517 371 1
68 372 1
72 372 1
442 372 1
452 372 1
481 372 1
492 372 1
512 372 1
518 372 1
69 373 1
73 373 1
443 373 1
453 373 1
482 373 1
493 373 1
513 373 1
519 373 1
70 374 1
74 374 1
444 374 1
454 374 1
483 374 1
494 374 1
514 374 1
520 374 1
71 375 1
75 375 1
445 375 1
455 375 1
484 375 1
495 375 1
501 375 1
515 375 1
72 376 1
76 376 1
446 376 1
456 376 1
485 376 1
496 376 1
502 376 1
516 376 1
73 377 1
77 377 1
447 377 1
457 377 1
486 377 1
497 377 1
503 377 1
517 377 1
74 378 1
78 378 1
448 378 1
458 378 1
487 378 1
498 378 1
504 378 1
518 378 1
75 379 1
79 379 1
449 379 1
459 379 1
488 379 1
499 379 1
505 379 1
519 379 1
76 380 1
80 380 1
450 380 1
460 380 1
489 380 1
500 380 1
506 380 1
520 380 1
81 381 1
97 381 1
401 381 1
412 381 1
521 381 1
527 381 1
541 381 1
544 381 1
82 382 1
98 382 1
402 382 1
413 382 1
522 382 1
528 382 1
542 382 1
545 382 1
83 383 1
99 383 1
403 383 1
414 383 1
523 383 1
529 383 1
543 383 1
546 383 1
84 384 1
100 384 1
404 384 1
415 384 1
524 384 1
530 384 1
544 384 1
547 384 1
81 385 1
85 385 1
405 385 1
416 385 1
525 385 1
531 385 1
545 385 1
548 385 1
82 386 1
86 386 1
406 386 1
417 386 1
526 386 1
532 386 1
546 386 1
549 386 1
83 387 1
87 387 1
407 387 1
418 387 1
527 387 1
533 387 1
547 387 1
550 387 1
84 388 1
88 388 1
408 388 1
419 388 1
528 388 1
534 388 1
548 388 1
551 388 1
85 389 1
89 389 1
409 389 1
420 389 1
529 389 1
535 389 1
549 389 1
552 389 1
86 390 1
90 390 1
401 390 1
410 390 1
530 390 1
536 390 1
550 390 1
553 390 1
87 391 1
91 391 1
402 391 1
411 391 1
531 391 1
537 391 1
551 391 1
554 391 1
88 392 1
92 392 1
403 392 1
412 392 1
532 392 1
538 392 1
552 392 1
555 392 1
89 393 1
93 393 1
404 393 1
413 393 1
533 393 1
539 393 1
553 393 1
556 393 1
90 394 1
94 394 1
405 394 1
414 394 1
534 394 1
540 394 1
554 394 1
557 394 1
91 395 1
95 395 1
406 395 1
415 395 1
521 395 1
535 395 1
555 395 1
558 395 1
92 396 1
96 396 1
407 396 1
416 396 1
522 396 1
536 396 1
556 396 1
559 396 1
93 397 1
97 397 1
408 397 1
417 397 1
523 397 1
537 397 1
557 397 1
560 397 1
94 398 1
98 398 1
409 398 1
418 398 1
524 398 1
538 398 1
541 398 1
558 398 1
95 399 1
99 399 1
410 399 1
419 399 1
525 399 1
539 399 1
542 399 1
559 399 1
96 400 1
100 400 1
411 400 1
420 400 1
526 400 1
540 400 1
543 400 1
560 400 1
101 401 1
117 401 1
421 401 1
432 401 1
521 401 1
530 401 1
561 401 1
564 401 1
102 402 1
118 402 1
422 402 1
433 402 1
522 402 1
531 402 1
562 402 1
565 402 1
103 403 1
119 403 1
423 403 1
434 403 1
523 403 1
532 403 1
563 403 1
566 403 1
104 404 1
120 404 1
424 404 1
435 404 1
524 404 1
533 404 1
564 404 1
567 404 1
101 405 1
105 405 1
425 405 1
436 405 1
525 405 1
534 405 1
565 405 1
568 405 1
102 406 1
106 406 1
426 406 1
437 406 1
526 406 1
535 406 1
566 406 1
569 406 1
103 407 1
107 407 1
427 407 1
438 407 1
527 407 1
536 407 1
567 407 1
570 407 1
104 408 1
108 408 1
428 408 1
439 408 1
528 408 1
537 408 1
568 408 1
571 408 1
105 409 1
109 409 1
429 409 1
440 409 1
529 409 1
538 409 1
569 409 1
572 409 1
106 410 1
110 410 1
421 410 1
430 410 1
530 410 1
539 410 1
570 410 1
573 410 1
107 411 1
111 411 1
422 411 1
431 411 1
531 411 1
540 411 1
571 411 1
574 411 1
108 412 1
112 412 1
423 412 1
432 412 1
521 412 1
532 412 1
572 412 1
575 412 1
109 413 1
113 413 1
424 413 1
433 413 1
522 413 1
533 413 1
573 413 1
576 413 1
110 414 1
114 414 1
425 414 1
434 414 1
523 414 1
534 414 1
574 414 1
577 414 1
111 415 1
115 415 1
426 415 1
435 415 1
524 415 1
535 415 1
575 415 1
578 415 1
112 416 1
116 416 1
427 416 1
436 416 1
525 416 1
536 416 1
576 416 1
579 416 1
113 417 1
117 417 1
428 417 1
437 417 1
526 417 1
537 417 1
577 417 1
580 417 1
114 418 1
118 418 1
429 418 1
438 418 1
527 418 1
538 418 1
561 418 1
578 418 1
115 419 1
119 419 1
430 419 1
439 419 1
528 419 1
539 419 1
562 419 1
579 419 1
116 420 1
120 420 1
431 420 1
440 420 1
529 420 1
540 420 1
563 420 1
580 420 1
121 421 1
137 421 1
441 421 1
452 421 1
541 421 1
550 421 1
561 421 1
567 421 1
122 422 1
138 422 1
442 422 1
453 422 1
542 422 1
551 422 1
562 422 1
568 422 1
123 423 1
139 423 1
443 423 1
454 423 1
543 423 1
552 423 1
563 423 1
569 423 1
124 424 1
140 424 1
444 424 1
455 424 1
544 424 1
553 424 1
564 424 1
570 424 1
121 425 1
125 425 1
445 425 1
456 425 1
545 425 1
554 425 1
565 425 1
571 425 1
122 426 1
126 426 1
446 426 1
457 426 1
546 426 1
555 426 1
566 426 1
572 426 1
123 427 1
127 427 1
447 427 1
458 427 1
547 427 1
556 427 1
567 427 1
573 427 1
124 428 1
128 428 1
448 428 1
459 428 1
548 428 1
557 428 1
568 428 1
574 428 1
125 429 1
129 429 1
449 429 1
460 429 1
549 429 1
558 429 1
569 429 1
575 429 1
126 430 1
130 430 1
441 430 1
450 430 1
550 430 1
559 430 1
570 430 1
576 430 1
127 431 1
131 431 1
442 431 1
451 431 1
551 431 1
560 431 1
571 431 1
577 431 1
128 432 1
132 432 1
443 432 1
452 432 1
541 432 1
552 432 1
572 432 1
578 432 1
129 433 1
133 433 1
444 433 1
453 433 1
542 433 1
553 433 1
573 433 1
579 433 1
130 434 1
134 434 1
445 434 1
454 434 1
543 434 1
554 434 1
574 434 1
580 434 1
131 435 1
135 435 1
446 435 1
455 435 1
544 435 1
555 435 1
561 435 1
575 435 1
132 436 1
136 436 1
447 436 1
456 436 1
545 436 1
556 436 1
562 436 1
576 436 1
133 437 1
137 437 1
448 437 1
457 437 1
546 437 1
557 437 1
563 437 1
577 437 1
134 438 1
138 438 1
449 438 1
458 438 1
547 438 1
558 438 1
564 438 1
578 438 1
135 439 1
139 439 1
450 439 1
459 439 1
548 439 1
559 439 1
565 439 1
579 439 1
136 440 1
140 440 1
451 440 1
460 440 1
549 440 1
560 440 1
566 440 1
580 440 1
141 441 1
157 441 1
461 441 1
472 441 1
521 441 1
531 441 1
581 441 1
584 441 1
142 442 1
158 442 1
462 442 1
473 442 1
522 442 1
532 442 1
582 442 1
585 442 1
143 443 1
159 443 1
463 443 1
474 443 1
523 443 1
533 443 1
583 443 1
586 443 1
144 444 1
160 444 1
464 444 1
475 444 1
524 444 1
534 444 1
584 444 1
587 444 1
141 445 1
145 445 1
465 445 1
476 445 1
525 445 1
535 445 1
585 445 1
588 445 1
142 446 1
146 446 1
466 446 1
477 446 1
526 446 1
536 446 1
586 446 1
589 446 1
143 447 1
147 447 1
467 447 1
478 447 1
527 447 1
537 447 1
587 447 1
590 447 1
144 448 1
148 448 1
468 448 1
479 448 1
528 448 1
538 448 1
588 448 1
591 448 1
145 449 1
149 449 1
469 449 1
480 449 1
529 449 1
539 449 1
589 449 1
592 449 1
146 450 1
150 450 1
461 450 1
470 450 1
530 450 1
540 450 1
590 450 1
593 450 1
147 451 1
151 451 1
462 451 1
471 451 1
521 451 1
531 451 1
591 451 1
594 451 1
148 452 1
152 452 1
463 452 1
472 452 1
522 452 1
532 452 1
592 452 1
595 452 1
149 453 1
153 453 1
464 453 1
473 453 1
523 453 1
533 453 1
593 453 1
596 453 1
150 454 1
154 454 1
465 454 1
474 454 1
524 454 1
534 454 1
594 454 1
597 454 1
151 455 1
155 455 1
466 455 1
475 455 1
525 455 1
535 455 1
595 455 1
598 455 1
152 456 1
156 456 1
467 456 1
476 456 1
526 456 1
536 456 1
596 456 1
599 456 1
153 457 1
157 457 1
468 457 1
477 457 1
527 457 1
537 457 1
597 457 1
600 457 1
154 458 1
158 458 1
469 458 1
478 458 1
528 458 1
538 458 1
581 458 1
598 458 1
155 459 1
159 459 1
470 459 1
479 459 1
529 459 1
539 459 1
582 459 1
599 459 1
156 460 1
160 460 1
471 460 1
480 460 1
530 460 1
540 460 1
583 460 1
600 460 1
161 461 1
177 461 1
481 461 1
492 461 1
541 461 1
551 461 1
581 461 1
587 461 1
162 462 1
178 462 1
482 462 1
493 462 1
542 462 1
552 462 1
582 462 1
588 462 1
163 463 1
179 463 1
483 463 1
494 463 1
543 463 1
553 463 1
583 463 1
589 463 1
164 464 1
180 464 1
484 464 1
495 464 1
544 464 1
554 464 1
584 464 1
590 464 1
161 465 1
165 465 1
485 465 1
496 465 1
545 465 1
555 465 1
585 465 1
591 465 1
162 466 1
166 466 1
486 466 1
497 466 1
546 466 1
556 466 1
586 466 1
592 466 1
163 467 1
167 467 1
487 467 1
498 467 1
547 467 1
557 467 1
587 467 1
593 467 1
164 468 1
168 468 1
488 468 1
499 468 1
548 468 1
558 468 1
588 468 1
594 468 1
165 469 1
169 469 1
489 469 1
500 469 1
549 469 1
559 469 1
589 469 1
595 469 1
166 470 1
170 470 1
481 470 1
490 470 1
550 470 1
560 470 1
590 470 1
596 470 1
167 471 1
171 471 1
482 471 1
491 471 1
541 471 1
551 471 1
591 471 1
597 471 1
168 472 1
172 472 1
483 472 1
492 472 1
542 472 1
552 472 1
592 472 1
598 472 1
169 473 1
173 473 1
484 473 1
493 473 1
543 473 1
553 473 1
593 473 1
599 473 1
170 474 1
174 474 1
485 474 1
494 474 1
544 474 1
554 474 1
594 474 1
600 474 1
171 475 1
175 475 1
486 475 1
495 475 1
545 475 1
555 475 1
581 475 1
595 475 1
172 476 1
176 476 1
487 476 1
496 476 1
546 476 1
556 476 1
582 476 1
596 476 1
173 477 1
177 477 1
488 477 1
497 477 1
547 477 1
557 477 1
583 477 1
597 477 1
174 478 1
178 478 1
489 478 1
498 478 1
548 478 1
558 478 1
584 478 1
598 478 1
175 479 1
179 479 1
490 479 1
499 479 1
549 479 1
559 479 1
585 479 1
599 479 1
176 480 1
180 480 1
491 480 1
500 480 1
550 480 1
560 480 1
586 480 1
600 480 1
181 481 1
197 481 1
501 481 1
512 481 1
561 481 1
571 481 1
581 481 1
590 481 1
182 482 1
198 482 1
502 482 1
513 482 1
562 482 1
572 482 1
582 482 1
591 482 1
183 483 1
199 483 1
503 483 1
514 483 1
563 483 1
573 483 1
583 483 1
592 483 1
184 484 1
200 484 1
504 484 1
515 484 1
564 484 1
574 484 1
584 484 1
593 484 1
181 485 1
185 485 1
505 485 1
516 485 1
565 485 1
575 485 1
585 485 1
594 485 1
182 486 1
186 486 1
506 486 1
517 486 1
566 486 1
576 486 1
586 486 1
595 486 1
183 487 1
187 487 1
507 487 1
518 487 1
567 487 1
577 487 1
587 487 1
596 487 1
184 488 1
188 488 1
508 488 1
519 488 1
568 488 1
578 488 1
588 488 1
597 488 1
185 489 1
189 489 1
509 489 1
520 489 1
569 489 1
579 489 1
589 489 1
598 489 1
186 490 1
190 490 1
501 490 1
510 490 1
570 490 1
580 490 1
590 490 1
599 490 1
187 491 1
191 491 1
502 491 1
511 491 1
561 491 1
571 491 1
591 491 1
600 491 1
188 492 1
192 492 1
503 492 1
512 492 1
562 492 1
572 492 1
581 492 1
592 492 1
189 493 1
193 493 1
504 493 1
513 493 1
563 493 1
573 493 1
582 493 1
593 493 1
190 494 1
194 494 1
505 494 1
514 494 1
564 494 1
574 494 1
583 494 1
594 494 1
191 495 1
195 495 1
506 495 1
515 495 1
565 495 1
575 495 1
584 495 1
595 495 1
192 496 1
196 496 1
507 496 1
516 496 1
566 496 1
576 496 1
585 496 1
596 496 1
193 497 1
197 497 1
508 497 1
517 497 1
567 497 1
577 497 1
586 497 1
597 497 1
194 498 1
198 498 1
509 498 1
518 498 1
568 498 1
578 498 1
587 498 1
598 498 1
195 499 1
199 499 1
510 499 1
519 499 1
569 499 1
579 499 1
588 499 1
599 499 1
196 500 1
200 500 1
511 500 1
520 500 1
570 500 1
580 500 1
589 500 1
600 500 1
201 501 1
217 501 1
401 501 1
414 501 1
601 501 1
607 501 1
621 501 1
624 501 1
202 502 1
218 502 1
402 502 1
415 502 1
602 502 1
608 502 1
622 502 1
625 502 1
203 503 1
219 503 1
403 503 1
416 503 1
603 503 1
609 503 1
623 503 1
626 503 1
204 504 1
220 504 1
404 504 1
417 504 1
604 504 1
610 504 1
624 504 1
627 504 1
201 505 1
205 505 1
405 505 1
418 505 1
605 505 1
611 505 1
625 505 1
628 505 1
202 506 1
206 506 1
406 506 1
419 506 1
606 506 1
612 506 1
626 506 1
629 506 1
203 507 1
207 507 1
407 507 1
420 507 1
607 507 1
613 507 1
627 507 1
630 507 1
204 508 1
208 508 1
401 508 1
408 508 1
608 508 1
614 508 1
628 508 1
631 508 1
205 509 1
209 509 1
402 509 1
409 509 1
609 509 1
615 509 1
629 509 1
632 509 1
206 510 1
210 510 1
403 510 1
410 510 1
610 510 1
616 510 1
630 510 1
633 510 1
207 511 1
211 511 1
404 511 1
411 511 1
611 511 1
617 511 1
631 511 1
634 511 1
208 512 1
212 512 1
405 512 1
412 512 1
612 512 1
618 512 1
632 512 1
635 512 1
209 513 1
213 513 1
406 513 1
413 513 1
613 513 1
619 513 1
633 513 1
636 513 1
210 514 1
214 514 1
407 514 1
414 514 1
614 514 1
620 514 1
634 514 1
637 514 1
211 515 1
215 515 1
408 515 1
415 515 1
601 515 1
615 515 1
635 515 1
638 515 1
212 516 1
216 516 1
409 516 1
416 516 1
602 516 1
616 516 1
636 516 1
639 516 1
213 517 1
217 517 1
410 517 1
417 517 1
603 517 1
617 517 1
637 517 1
640 517 1
214 518 1
218 518 1
411 518 1
418 518 1
604 518 1
618 518 1
621 518 1
638 518 1
215 519 1
219 519 1
412 519 1
419 519 1
605 519 1
619 519 1
622 519 1
639 519 1
216 520 1
220 520 1
413 520 1
420 520 1
606 520 1
620 520 1
623 520 1
640 520 1
221 521 1
237 521 1
421 521 1
434 521 1
601 521 1
610 521 1
641 521 1
644 521 1
222 522 1
238 522 1
422 522 1
435 522 1
602 522 1
611 522 1
642 522 1
645 522 1
223 523 1
239 523 1
423 523 1
436 523 1
603 523 1
612 523 1
643 523 1
646 523 1
224 524 1
240 524 1
424 524 1
437 524 1
604 524 1
613 524 1
644 524 1
647 524 1
221 525 1
225 525 1
425 525 1
438 525 1
605 525 1
614 525 1
645 525 1
648 525 1
222 526 1
226 526 1
426 526 1
439 526 1
606 526 1
615 526 1
646 526 1
649 526 1
223 527 1
227 527 1
427 527 1
440 527 1
607 527 1
616 527 1
647 527 1
650 527 1
224 528 1
228 528 1
421 528 1
428 528 1
608 528 1
617 528 1
648 528 1
651 528 1
225 529 1
229 529 1
422 529 1
429 529 1
609 529 1
618 529 1
649 529 1
652 529 1
226 530 1
230 530 1
423 530 1
430 530 1
610 530 1
619 530 1
650 530 1
653 530 1
227 531 1
231 531 1
424 531 1
431 531 1
611 531 1
620 531 1
651 531 1
654 531 1
228 532 1
232 532 1
425 532 1
432 532 1
601 532 1
612 532 1
652 532 1
655 532 1
229 533 1
233 533 1
426 533 1
433 533 1
602 533 1
613 533 1
653 533 1
656 533 1
230 534 1
234 534 1
427 534 1
434 534 1
603 534 1
614 534 1
654 534 1
657 534 1
231 535 1
235 535 1
428 535 1
435 535 1
604 535 1
615 535 1
655 535 1
658 535 1
232 536 1
236 536 1
429 536 1
436 536 1
605 536 1
616 536 1
656 536 1
659 536 1
233 537 1
237 537 1
430 537 1
437 537 1
606 537 1
617 537 1
657 537 1
660 537 1
234 538 1
238 538 1
431 538 1
438 538 1
607 538 1
618 538 1
641 538 1
658 538 1
235 539 1
239 539 1
432 539 1
439 539 1
608 539 1
619 539 1
642 539 1
659 539 1
236 540 1
240 540 1
433 540 1
440 540 1
609 540 1
620 540 1
643 540 1
660 540 1
241 541 1
257 541 1
441 541 1
454 541 1
621 541 1
630 541 1
641 541 1
647 541 1
242 542 1
258 542 1
442 542 1
455 542 1
622 542 1
631 542 1
642 542 1
648 542 1
243 543 1
259 543 1
443 543 1
456 543 1
623 543 1
632 543 1
643 543 1
649 543 1
244 544 1
260 544 1
444 544 1
457 544 1
624 544 1
633 544 1
644 544 1
650 544 1
241 545 1
245 545 1
445 545 1
458 545 1
625 545 1
634 545 1
645 545 1
651 545 1
242 546 1
246 546 1
446 546 1
459 546 1
626 546 1
635 546 1
646 546 1
652 546 1
243 547 1
247 547 1
447 547 1
460 547 1
627 547 1
636 547 1
647 547 1
653 547 1
244 548 1
248 548 1
441 548 1
448 548 1
628 548 1
637 548 1
648 548 1
654 548 1
245 549 1
249 549 1
442 549 1
449 549 1
629 549 1
638 549 1
649 549 1
655 549 1
246 550 1
250 550 1
443 550 1
450 550 1
630 550 1
639 550 1
650 550 1
656 550 1
247 551 1
251 551 1
444 551 1
451 551 1
631 551 1
640 551 1
651 551 1
657 551 1
248 552 1
252 552 1
445 552 1
452 552 1
621 552 1
632 552 1
652 552 1
658 552 1
249 553 1
253 553 1
446 553 1
453 553 1
622 553 1
633 553 1
653 553 1
659 553 1
250 554 1
254 554 1
447 554 1
454 554 1
623 554 1
634 554 1
654 554 1
660 554 1
251 555 1
255 555 1
448 555 1
455 555 1
624 555 1
635 555 1
641 555 1
655 555 1
252 556 1
256 556 1
449 556 1
456 556 1
625 556 1
636 556 1
642 556 1
656 556 1
253 557 1
257 557 1
450 557 1
457 557 1
626 557 1
637 557 1
643 557 1
657 557 1
254 558 1
258 558 1
451 558 1
458 558 1
627 558 1
638 558 1
644 558 1
658 558 1
255 559 1
259 559 1
452 559 1
459 559 1
628 559 1
639 559 1
645 559 1
659 559 1
256 560 1
260 560 1
453 560 1
460 560 1
629 560 1
640 560 1
646 560 1
660 560 1
261 561 1
277 561 1
461 561 1
474 561 1
601 561 1
611 561 1
661 561 1
664 561 1
262 562 1
278 562 1
462 562 1
475 562 1
602 562 1
612 562 1
662 562 1
665 562 1
263 563 1
279 563 1
463 563 1
476 563 1
603 563 1
613 563 1
663 563 1
666 563 1
264 564 1
280 564 1
464 564 1
477 564 1
604 564 1
614 564 1
664 564 1
667 564 1
261 565 1
265 565 1
465 565 1
478 565 1
605 565 1
615 565 1
665 565 1
668 565 1
262 566 1
266 566 1
466 566 1
479 566 1
606 566 1
616 566 1
666 566 1
669 566 1
263 567 1
267 567 1
467 567 1
480 567 1
607 567 1
617 567 1
667 567 1
670 567 1
264 568 1
268 568 1
461 568 1
468 568 1
608 568 1
618 568 1
668 568 1
671 568 1
265 569 1
269 569 1
462 569 1
469 569 1
609 569 1
619 569 1
669 569 1
672 569 1
266 570 1
270 570 1
463 570 1
470 570 1
610 570 1
620 570 1
670 570 1
673 570 1
267 571 1
271 571 1
464 571 1
471 571 1
601 571 1
611 571 1
671 571 1
674 571 1
268 572 1
272 572 1
465 572 1
472 572 1
602 572 1
612 572 1
672 572 1
675 572 1
269 573 1
273 573 1
466 573 1
473 573 1
603 573 1
613 573 1
673 573 1
676 573 1
270 574 1
274 574 1
467 574 1
474 574 1
604 574 1
614 574 1
674 574 1
677 574 1
271 575 1
275 575 1
468 575 1
475 575 1
605 575 1
615 575 1
675 575 1
678 575 1
272 576 1
276 576 1
469 576 1
476 576 1
606 576 1
616 576 1
676 576 1
679 576 1
273 577 1
277 577 1
470 577 1
477 577 1
607 577 1
617 577 1
677 577 1
680 577 1
274 578 1
278 578 1
471 578 1
478 578 1
608 578 1
618 578 1
661 578 1
678 578 1
275 579 1
279 579 1
472 579 1
479 579 1
609 579 1
619 579 1
662 579 1
679 579 1
276 580 1
280 580 1
473 580 1
480 580 1
610 580 1
620 580 1
663 580 1
680 580 1
281 581 1
297 581 1
481 581 1
494 581 1
621 581 1
631 581 1
661 581 1
667 581 1
282 582 1
298 582 1
482 582 1
495 582 1
622 582 1
632 582 1
662 582 1
668 582 1
283 583 1
299 583 1
483 583 1
496 583 1
623 583 1
633 583 1
663 583 1
669 583 1
284 584 1
300 584 1
484 584 1
497 584 1
624 584 1
634 584 1
664 584 1
670 584 1
281 585 1
285 585 1
485 585 1
498 585 1
625 585 1
635 585 1
665 585 1
671 585 1
282 586 1
286 586 1
486 586 1
499 586 1
626 586 1
636 586 1
666 586 1
672 586 1
283 587 1
287 587 1
487 587 1
500 587 1
627 587 1
637 587 1
667 587 1
673 587 1
284 588 1
288 588 1
481 588 1
488 588 1
628 588 1
638 588 1
668 588 1
674 588 1
285 589 1
289 589 1
482 589 1
489 589 1
629 589 1
639 589 1
669 589 1
675 589 1
286 590 1
290 590 1
483 590 1
490 590 1
630 590 1
640 590 1
670 590 1
676 590 1
287 591 1
291 591 1
484 591 1
491 591 1
621 591 1
631 591 1
671 591 1
677 591 1
288 592 1
292 592 1
485 592 1
492 592 1
622 592 1
632 592 1
672 592 1
678 592 1
289 593 1
293 593 1
486 593 1
493 593 1
623 593 1
633 593 1
673 593 1
679 593 1
290 594 1
294 594 1
487 594 1
494 594 1
624 594 1
634 594 1
674 594 1
680 594 1
291 595 1
295 595 1
488 595 1
495 595 1
625 595 1
635 595 1
661 595 1
675 595 1
292 596 1
296 596 1
489 596 1
496 596 1
626 596 1
636 596 1
662 596 1
676 596 1
293 597 1
297 597 1
490 597 1
497 597 1
627 597 1
637 597 1
663 597 1
677 597 1
294 598 1
298 598 1
491 598 1
498 598 1
628 598 1
638 598 1
664 598 1
678 598 1
295 599 1
299 599 1
492 599 1
499 599 1
629 599 1
639 599 1
665 599 1
679 599 1
296 600 1
300 600 1
493 600 1
500 600 1
630 600 1
640 600 1
666 600 1
680 600 1
301 601 1
317 601 1
501 601 1
514 601 1
641 601 1
651 601 1
661 601 1
670 601 1
302 602 1
318 602 1
502 602 1
515 602 1
642 602 1
652 602 1
662 602 1
671 602 1
303 603 1
319 603 1
503 603 1
516 603 1
643 603 1
653 603 1
663 603 1
672 603 1
304 604 1
320 604 1
504 604 1
517 604 1
644 604 1
654 604 1
664 604 1
673 604 1
301 605 1
305 605 1
505 605 1
518 605 1
645 605 1
655 605 1
665 605 1
674 605 1
302 606 1
306 606 1
506 606 1
519 606 1
646 606 1
656 606 1
666 606 1
675 606 1
303 607 1
307 607 1
507 607 1
520 607 1
647 607 1
657 607 1
667 607 1
676 607 1
304 608 1
308 608 1
501 608 1
508 608 1
648 608 1
658 608 1
668 608 1
677 608 1
305 609 1
309 609 1
502 609 1
509 609 1
649 609 1
659 609 1
669 609 1
678 609 1
306 610 1
310 610 1
503 610 1
510 610 1
650 610 1
660 610 1
670 610 1
679 610 1
307 611 1
311 611 1
504 611 1
511 611 1
641 611 1
651 611 1
671 611 1
680 611 1
308 612 1
312 612 1
505 612 1
512 612 1
642 612 1
652 612 1
661 612 1
672 612 1
309 613 1
313 613 1
506 613 1
513 613 1
643 613 1
653 613 1
662 613 1
673 613 1
310 614 1
314 614 1
507 614 1
514 614 1
644 614 1
654 614 1
663 614 1
674 614 1
311 615 1
315 615 1
508 615 1
515 615 1
645 615 1
655 615 1
664 615 1
675 615 1
312 616 1
316 616 1
509 616 1
516 616 1
646 616 1
656 616 1
665 616 1
676 616 1
313 617 1
317 617 1
510 617 1
517 617 1
647 617 1
657 617 1
666 617 1
677 617 1
314 618 1
318 618 1
511 618 1
518 618 1
648 618 1
658 618 1
667 618 1
678 618 1
315 619 1
319 619 1
512 619 1
519 619 1
649 619 1
659 619 1
668 619 1
679 619 1
316 620 1
320 620 1
513 620 1
520 620 1
650 620 1
660 620 1
669 620 1
680 620 1
321 621 1
337 621 1
521 621 1
534 621 1
601 621 1
612 621 1
681 621 1
684 621 1
322 622 1
338 622 1
522 622 1
535 622 1
602 622 1
613 622 1
682 622 1
685 622 1
323 623 1
339 623 1
523 623 1
536 623 1
603 623 1
614 623 1
683 623 1
686 623 1
324 624 1
340 624 1
524 624 1
537 624 1
604 624 1
615 624 1
684 624 1
687 624 1
321 625 1
325 625 1
525 625 1
538 625 1
605 625 1
616 625 1
685 625 1
688 625 1
322 626 1
326 626 1
526 626 1
539 626 1
606 626 1
617 626 1
686 626 1
689 626 1
323 627 1
327 627 1
527 627 1
540 627 1
607 627 1
618 627 1
687 627 1
690 627 1
324 628 1
328 628 1
521 628 1
528 628 1
608 628 1
619 628 1
688 628 1
691 628 1
325 629 1
329 629 1
522 629 1
529 629 1
609 629 1
620 629 1
689 629 1
692 629 1
326 630 1
330 630 1
523 630 1
530 630 1
601 630 1
610 630 1
690 630 1
693 630 1
327 631 1
331 631 1
524 631 1
531 631 1
602 631 1
611 631 1
691 631 1
694 631 1
328 632 1
332 632 1
525 632 1
532 632 1
603 632 1
612 632 1
692 632 1
695 632 1
329 633 1
333 633 1
526 633 1
533 633 1
604 633 1
613 633 1
693 633 1
696 633 1
330 634 1
334 634 1
527 634 1
534 634 1
605 634 1
614 634 1
694 634 1
697 634 1
331 635 1
335 635 1
528 635 1
535 635 1
606 635 1
615 635 1
695 635 1
698 635 1
332 636 1
336 636 1
529 636 1
536 636 1
607 636 1
616 636 1
696 636 1
699 636 1
333 637 1
337 637 1
530 637 1
537 637 1
608 637 1
617 637 1
697 637 1
700 637 1
334 638 1
338 638 1
531 638 1
538 638 1
609 638 1
618 638 1
681 638 1
698 638 1
335 639 1
339 639 1
532 639 1
539 639 1
610 639 1
619 639 1
682 639 1
699 639 1
336 640 1
340 640 1
533 640 1
540 640 1
611 640 1
620 640 1
683 640 1
700 640 1
341 641 1
357 641 1
541 641 1
554 641 1
621 641 1
632 641 1
681 641 1
687 641 1
342 642 1
358 642 1
542 642 1
555 642 1
622 642 1
633 642 1
682 642 1
688 642 1
343 643 1
359 643 1
543 643 1
556 643 1
623 643 1
634 643 1
683 643 1
689 643 1
344 644 1
360 644 1
544 644 1
557 644 1
624 644 1
635 644 1
684 644 1
690 644 1
341 645 1
345 645 1
545 645 1
558 645 1
625 645 1
636 645 1
685 645 1
691 645 1
342 646 1
346 646 1
546 646 1
559 646 1
626 646 1
637 646 1
686 646 1
692 646 1
343 647 1
347 647 1
547 647 1
560 647 1
627 647 1
638 647 1
687 647 1
693 647 1
344 648 1
348 648 1
541 648 1
548 648 1
628 648 1
639 648 1
688 648 1
694 648 1
345 649 1
349 649 1
542 649 1
549 649 1
629 649 1
640 649 1
689 649 1
695 649 1
346 650 1
350 650 1
543 650 1
550 650 1
621 650 1
630 650 1
690 650 1
696 650 1
347 651 1
351 651 1
544 651 1
551 651 1
622 651 1
631 651 1
691 651 1
697 651 1
348 652 1
352 652 1
545 652 1
552 652 1
623 652 1
632 652 1
692 652 1
698 652 1
349 653 1
353 653 1
546 653 1
553 653 1
624 653 1
633 653 1
693 653 1
699 653 1
350 654 1
354 654 1
547 654 1
554 654 1
625 654 1
634 654 1
694 654 1
700 654 1
351 655 1
355 655 1
548 655 1
555 655 1
626 655 1
635 655 1
681 655 1
695 655 1
352 656 1
356 656 1
549 656 1
556 656 1
627 656 1
636 656 1
682 656 1
696 656 1
353 657 1
357 657 1
550 657 1
557 657 1
628 657 1
637 657 1
683 657 1
697 657 1
354 658 1
358 658 1
551 658 1
558 658 1
629 658 1
638 658 1
684 658 1
698 658 1
355 659 1
359 659 1
552 659 1
559 659 1
630 659 1
639 659 1
685 659 1
699 659 1
356 660 1
360 660 1
553 660 1
560 660 1
631 660 1
640 660 1
686 660 1
700 660 1
361 661 1
377 661 1
561 661 1
574 661 1
641 661 1
652 661 1
681 661 1
690 661 1
362 662 1
378 662 1
562 662 1
575 662 1
642 662 1
653 662 1
682 662 1
691 662 1
363 663 1
379 663 1
563 663 1
576 663 1
643 663 1
654 663 1
683 663 1
692 663 1
364 664 1
380 664 1
564 664 1
577 664 1
644 664 1
655 664 1
684 664 1
693 664 1
361 665 1
365 665 1
565 665 1
578 665 1
645 665 1
656 665 1
685 665 1
694 665 1
362 666 1
366 666 1
566 666 1
579 666 1
646 666 1
657 666 1
686 666 1
695 666 1
363 667 1
367 667 1
567 667 1
580 667 1
647 667 1
658 667 1
687 667 1
696 667 1
364 668 1
368 668 1
561 668 1
568 668 1
648 668 1
659 668 1
688 668 1
697 668 1
365 669 1
369 669 1
562 669 1
569 669 1
649 669 1
660 669 1
689 669 1
698 669 1
366 670 1
370 670 1
563 670 1
570 670 1
641 670 1
650 670 1
690 670 1
699 670 1
367 671 1
371 671 1
564 671 1
571 671 1
642 671 1
651 671 1
691 671 1
700 671 1
368 672 1
372 672 1
565 672 1
572 672 1
643 672 1
652 672 1
681 672 1
692 672 1
369 673 1
373 673 1
566 673 1
573 673 1
644 673 1
653 673 1
682 673 1
693 673 1
370 674 1
374 674 1
567 674 1
574 674 1
645 674 1
654 674 1
683 674 1
694 674 1
371 675 1
375 675 1
568 675 1
575 675 1
646 675 1
655 675 1
684 675 1
695 675 1
372 676 1
376 676 1
569 676 1
576 676 1
647 676 1
656 676 1
685 676 1
696 676 1
373 677 1
377 677 1
570 677 1
577 677 1
648 677 1
657 677 1
686 677 1
697 677 1
374 678 1
378 678 1
571 678 1
578 678 1
649 678 1
658 678 1
687 678 1
698 678 1
375 679 1
379 679 1
572 679 1
579 679 1
650 679 1
659 679 1
688 679 1
699 679 1
376 680 1
380 680 1
573 680 1
580 680 1
651 680 1
660 680 1
689 680 1
700 680 1
381 681 1
397 681 1
581 681 1
594 681 1
661 681 1
672 681 1
681 681 1
691 681 1
382 682 1
398 682 1
582 682 1
595 682 1
662 682 1
673 682 1
682 682 1
692 682 1
383 683 1
399 683 1
583 683 1
596 683 1
663 683 1
674 683 1
683 683 1
693 683 1
384 684 1
400 684 1
584 684 1
597 684 1
664 684 1
675 684 1
684 684 1
694 684 1
381 685 1
385 685 1
585 685 1
598 685 1
665 685 1
676 685 1
685 685 1
695 685 1
382 686 1
386 686 1
586 686 1
599 686 1
666 686 1
677 686 1
686 686 1
696 686 1
383 687 1
387 687 1
587 687 1
600 687 1
667 687 1
678 687 1
687 687 1
697 687 1
384 688 1
388 688 1
581 688 1
588 688 1
668 688 1
679 688 1
688 688 1
698 688 1
385 689 1
389 689 1
582 689 1
589 689 1
669 689 1
680 689 1
689 689 1
699 689 1
386 690 1
390 690 1
583 690 1
590 690 1
661 690 1
670 690 1
690 690 1
700 690 1
387 691 1
391 691 1
584 691 1
591 691 1
662 691 1
671 691 1
681 691 1
691 691 1
388 692 1
392 692 1
585 692 1
592 692 1
663 692 1
672 692 1
682 692 1
692 692 1
389 693 1
393 693 1
586 693 1
593 693 1
664 693 1
673 693 1
683 693 1
693 693 1
390 694 1
394 694 1
587 694 1
594 694 1
665 694 1
674 694 1
684 694 1
694 694 1
391 695 1
395 695 1
588 695 1
595 695 1
666 695 1
675 695 1
685 695 1
695 695 1
392 696 1
396 696 1
589 696 1
596 696 1
667 696 1
676 696 1
686 696 1
696 696 1
393 697 1
397 697 1
590 697 1
597 697 1
668 697 1
677 697 1
687 697 1
697 697 1
394 698 1
398 698 1
591 698 1
598 698 1
669 698 1
678 698 1
688 698 1
698 698 1
395 699 1
399 699 1
592 699 1
599 699 1
670 699 1
679 699 1
689 699 1
699 699 1
396 700 1
400 700 1
593 700 1
600 700 1
671 700 1
680 700 1
690 700 1
700 700 1
1 701 1
18 701 1
701 701 1
710 701 1
721 701 1
727 701 1
741 701 1
744 701 1
2 702 1
19 702 1
702 702 1
711 702 1
722 702 1
728 702 1
742 702 1
745 702 1
3 703 1
20 703 1
703 703 1
712 703 1
723 703 1
729 703 1
743 703 1
746 703 1
1 704 1
4 704 1
704 704 1
713 704 1
724 704 1
730 704 1
744 704 1
747 704 1
2 705 1
5 705 1
705 705 1
714 705 1
725 705 1
731 705 1
745 705 1
748 705 1
3 706 1
6 706 1
706 706 1
715 706 1
726 706 1
732 706 1
746 706 1
749 706 1
4 707 1
7 707 1
707 707 1
716 707 1
727 707 1
733 707 1
747 707 1
750 707 1
5 708 1
8 708 1
708 708 1
717 708 1
728 708 1
734 708 1
748 708 1
751 708 1
6 709 1
9 709 1
709 709 1
718 709 1
729 709 1
735 709 1
749 709 1
752 709 1
7 710 1
10 710 1
710 710 1
719 710 1
730 710 1
736 710 1
750 710 1
753 710 1
8 711 1
11 711 1
711 711 1
720 711 1
731 711 1
737 711 1
751 711 1
754 711 1
9 712 1
12 712 1
701 712 1
712 712 1
732 712 1
738 712 1
752 712 1
755 712 1
10 713 1
13 713 1
702 713 1
713 713 1
733 713 1
739 713 1
753 713 1
756 713 1
11 714 1
14 714 1
703 714 1
714 714 1
734 714 1
740 714 1
754 714 1
757 714 1
12 715 1
15 715 1
704 715 1
715 715 1
721 715 1
735 715 1
755 715 1
758 715 1
13 716 1
16 716 1
705 716 1
716 716 1
722 716 1
736 716 1
756 716 1
759 716 1
14 717 1
17 717 1
706 717 1
717 717 1
723 717 1
737 717 1
757 717 1
760 717 1
15 718 1
18 718 1
707 718 1
718 718 1
724 718 1
738 718 1
741 718 1
758 718 1
16 719 1
19 719 1
708 719 1
719 719 1
725 719 1
739 719 1
742 719 1
759 719 1
17 720 1
20 720 1
709 720 1
720 720 1
726 720 1
740 720 1
743 720 1
760 720 1
21 721 1
38 721 1
701 721 1
711 721 1
761 721 1
767 721 1
781 721 1
784 721 1
22 722 1
39 722 1
702 722 1
712 722 1
762 722 1
768 722 1
782 722 1
785 722 1
23 723 1
40 723 1
703 723 1
713 723 1
763 723 1
769 723 1
783 723 1
786 723 1
21 724 1
24 724 1
704 724 1
714 724 1
764 724 1
770 724 1
784 724 1
787 724 1
22 725 1
25 725 1
705 725 1
715 725 1
765 725 1
771 725 1
785 725 1
788 725 1
23 726 1
26 726 1
706 726 1
716 726 1
766 726 1
772 726 1
786 726 1
789 726 1
24 727 1
27 727 1
707 727 1
717 727 1
767 727 1
773 727 1
787 727 1
790 727 1
25 728 1
28 728 1
708 728 1
718 728 1
768 728 1
774 728 1
788 728 1
791 728 1
26 729 1
29 729 1
709 729 1
719 729 1
769 729 1
775 729 1
789 729 1
792 729 1
27 730 1
30 730 1
710 730 1
720 730 1
770 730 1
776 730 1
790 730 1
793 730 1
28 731 1
31 731 1
701 731 1
711 731 1
771 731 1
777 731 1
791 731 1
794 731 1
29 732 1
32 732 1
702 732 1
712 732 1
772 732 1
778 732 1
792 732 1
795 732 1
30 733 1
33 733 1
703 733 1
713 733 1
773 733 1
779 733 1
793 733 1
796 733 1
31 734 1
34 734 1
704 734 1
714 734 1
774 734 1
780 734 1
794 734 1
797 734 1
32 735 1
35 735 1
705 735 1
715 735 1
761 735 1
775 735 1
795 735 1
798 735 1
33 736 1
36 736 1
706 736 1
716 736 1
762 736 1
776 736 1
796 736 1
799 736 1
34 737 1
37 737 1
707 737 1
717 737 1
763 737 1
777 737 1
797 737 1
800 737 1
35 738 1
38 738 1
708 738 1
718 738 1
764 738 1
778 738 1
781 738 1
798 738 1
36 739 1
39 739 1
709 739 1
719 739 1
765 739 1
779 739 1
782 739 1
799 739 1
37 740 1
40 740 1
710 740 1
720 740 1
766 740 1
780 740 1
783 740 1
800 740 1
41 741 1
58 741 1
721 741 1
731 741 1
761 741 1
770 741 1
801 741 1
804 741 1
42 742 1
59 742 1
722 742 1
732 742 1
762 742 1
771 742 1
802 742 1
805 742 1
43 743 1
60 743 1
723 743 1
733 743 1
763 743 1
772 743 1
803 743 1
806 743 1
41 744 1
44 744 1
724 744 1
734 744 1
764 744 1
773 744 1
804 744 1
807 744 1
42 745 1
45 745 1
725 745 1
735 745 1
765 745 1
774 745 1
805 745 1
808 745 1
43 746 1
46 746 1
726 746 1
736 746 1
766 746 1
775 746 1
806 746 1
809 746 1
44 747 1
47 747 1
727 747 1
737 747 1
767 747 1
776 747 1
807 747 1
810 747 1
45 748 1
48 748 1
728 748 1
738 748 1
768 748 1
777 748 1
808 748 1
811 748 1
46 749 1
49 749 1
729 749 1
739 749 1
769 749 1
778 749 1
809 749 1
812 749 1
47 750 1
50 750 1
730 750 1
740 750 1
770 750 1
779 750 1
810 750 1
813 750 1
48 751 1
51 751 1
721 751 1
731 751 1
771 751 1
780 751 1
811 751 1
814 751 1
49 752 1
52 752 1
722 752 1
732 752 1
761 752 1
772 752 1
812 752 1
815 752 1
50 753 1
53 753 1
723 753 1
733 753 1
762 753 1
773 753 1
813 753 1
816 753 1
51 754 1
54 754 1
724 754 1
734 754 1
763 754 1
774 754 1
814 754 1
817 754 1
52 755 1
55 755 1
725 755 1
735 755 1
764 755 1
775 755 1
815 755 1
818 755 1
53 756 1
56 756 1
726 756 1
736 756 1
765 756 1
776 756 1
816 756 1
819 756 1
54 757 1
57 757 1
727 757 1
737 757 1
766 757 1
777 757 1
817 757 1
820 757 1
55 758 1
58 758 1
728 758 1
738 758 1
767 758 1
778 758 1
801 758 1
818 758 1
56 759 1
59 759 1
729 759 1
739 759 1
768 759 1
779 759 1
802 759 1
819 759 1
57 760 1
60 760 1
730 760 1
740 760 1
769 760 1
780 760 1
803 760 1
820 760 1
61 761 1
78 761 1
741 761 1
751 761 1
781 761 1
790 761 1
801 761 1
807 761 1
62 762 1
79 762 1
742 762 1
752 762 1
782 762 1
791 762 1
802 762 1
808 762 1
63 763 1
80 763 1
743 763 1
753 763 1
783 763 1
792 763 1
803 763 1
809 763 1
61 764 1
64 764 1
744 764 1
754 764 1
784 764 1
793 764 1
804 764 1
810 764 1
62 765 1
65 765 1
745 765 1
755 765 1
785 765 1
794 765 1
805 765 1
811 765 1
63 766 1
66 766 1
746 766 1
756 766 1
786 766 1
795 766 1
806 766 1
812 766 1
64 767 1
67 767 1
747 767 1
757 767 1
787 767 1
796 767 1
807 767 1
813 767 1
65 768 1
68 768 1
748 768 1
758 768 1
788 768 1
797 768 1
808 768 1
814 768 1
66 769 1
69 769 1
749 769 1
759 769 1
789 769 1
798 769 1
809 769 1
815 769 1
67 770 1
70 770 1
750 770 1
760 770 1
790 770 1
799 770 1
810 770 1
816 770 1
68 771 1
71 771 1
741 771 1
751 771 1
791 771 1
800 771 1
811 771 1
817 771 1
69 772 1
72 772 1
742 772 1
752 772 1
781 772 1
792 772 1
812 772 1
818 772 1
70 773 1
73 773 1
743 773 1
753 773 1
782 773 1
793 773 1
813 773 1
819 773 1
71 774 1
74 774 1
744 774 1
754 774 1
783 774 1
794 774 1
814 774 1
820 774 1
72 775 1
75 775 1
745 775 1
755 775 1
784 775 1
795 775 1
801 775 1
815 775 1
73 776 1
76 776 1
746 776 1
756 776 1
785 776 1
796 776 1
802 776 1
816 776 1
74 777 1
77 777 1
747 777 1
757 777 1
786 777 1
797 777 1
803 777 1
817 777 1
75 778 1
78 778 1
748 778 1
758 778 1
787 778 1
798 778 1
804 778 1
818 778 1
76 779 1
79 779 1
749 779 1
759 779 1
788 779 1
799 779 1
805 779 1
819 779 1
77 780 1
80 780 1
750 780 1
760 780 1
789 780 1
800 780 1
806 780 1
820 780 1
81 781 1
98 781 1
701 781 1
712 781 1
821 781 1
827 781 1
841 781 1
844 781 1
82 782 1
99 782 1
702 782 1
713 782 1
822 782 1
828 782 1
842 782 1
845 782 1
83 783 1
100 783 1
703 783 1
714 783 1
823 783 1
829 783 1
843 783 1
846 783 1
81 784 1
84 784 1
704 784 1
715 784 1
824 784 1
830 784 1
844 784 1
847 784 1
82 785 1
85 785 1
705 785 1
716 785 1
825 785 1
831 785 1
845 785 1
848 785 1
83 786 1
86 786 1
706 786 1
717 786 1
826 786 1
832 786 1
846 786 1
849 786 1
84 787 1
87 787 1
707 787 1
718 787 1
827 787 1
833 787 1
847 787 1
850 787 1
85 788 1
88 788 1
708 788 1
719 788 1
828 788 1
834 788 1
848 788 1
851 788 1
86 789 1
89 789 1
709 789 1
720 789 1
829 789 1
835 789 1
849 789 1
852 789 1
87 790 1
90 790 1
701 790 1
710 790 1
830 790 1
836 790 1
850 790 1
853 790 1
88 791 1
91 791 1
702 791 1
711 791 1
831 791 1
837 791 1
851 791 1
854 791 1
89 792 1
92 792 1
703 792 1
712 792 1
832 792 1
838 792 1
852 792 1
855 792 1
90 793 1
93 793 1
704 793 1
713 793 1
833 793 1
839 793 1
853 793 1
856 793 1
91 794 1
94 794 1
705 794 1
714 794 1
834 794 1
840 794 1
854 794 1
857 794 1
92 795 1
95 795 1
706 795 1
715 795 1
821 795 1
835 795 1
855 795 1
858 795 1
93 796 1
96 796 1
707 796 1
716 796 1
822 796 1
836 796 1
856 796 1
859 796 1
94 797 1
97 797 1
708 797 1
717 797 1
823 797 1
837 797 1
857 797 1
860 797 1
95 798 1
98 798 1
709 798 1
718 798 1
824 798 1
838 798 1
841 798 1
858 798 1
96 799 1
99 799 1
710 799 1
719 799 1
825 799 1
839 799 1
842 799 1
859 799 1
97 800 1
100 800 1
711 800 1
720 800 1
826 800 1
840 800 1
843 800 1
860 800 1
101 801 1
118 801 1
721 801 1
732 801 1
821 801 1
830 801 1
861 801 1
864 801 1
102 802 1
119 802 1
722 802 1
733 802 1
822 802 1
831 802 1
862 802 1
865 802 1
103 803 1
120 803 1
723 803 1
734 803 1
823 803 1
832 803 1
863 803 1
866 803 1
101 804 1
104 804 1
724 804 1
735 804 1
824 804 1
833 804 1
864 804 1
867 804 1
102 805 1
105 805 1
725 805 1
736 805 1
825 805 1
834 805 1
865 805 1
868 805 1
103 806 1
106 806 1
726 806 1
737 806 1
826 806 1
835 806 1
866 806 1
869 806 1
104 807 1
107 807 1
727 807 1
738 807 1
827 807 1
836 807 1
867 807 1
870 807 1
105 808 1
108 808 1
728 808 1
739 808 1
828 808 1
837 808 1
868 808 1
871 808 1
106 809 1
109 809 1
729 809 1
740 809 1
829 809 1
838 809 1
869 809 1
872 809 1
107 810 1
110 810 1
721 810 1
730 810 1
830 810 1
839 810 1
870 810 1
873 810 1
108 811 1
111 811 1
722 811 1
731 811 1
831 811 1
840 811 1
871 811 1
874 811 1
109 812 1
112 812 1
723 812 1
732 812 1
821 812 1
832 812 1
872 812 1
875 812 1
110 813 1
113 813 1
724 813 1
733 813 1
822 813 1
833 813 1
873 813 1
876 813 1
111 814 1
114 814 1
725 814 1
734 814 1
823 814 1
834 814 1
874 814 1
877 814 1
112 815 1
115 815 1
726 815 1
735 815 1
824 815 1
835 815 1
875 815 1
878 815 1
113 816 1
116 816 1
727 816 1
736 816 1
825 816 1
836 816 1
876 816 1
879 816 1
114 817 1
117 817 1
728 817 1
737 817 1
826 817 1
837 817 1
877 817 1
880 817 1
115 818 1
118 818 1
729 818 1
738 818 1
827 818 1
838 818 1
861 818 1
878 818 1
116 819 1
119 819 1
730 819 1
739 819 1
828 819 1
839 819 1
862 819 1
879 819 1
117 820 1
120 820 1
731 820 1
740 820 1
829 820 1
840 820 1
863 820 1
880 820 1
121 821 1
138 821 1
741 821 1
752 821 1
841 821 1
850 821 1
861 821 1
867 821 1
122 822 1
139 822 1
742 822 1
753 822 1
842 822 1
851 822 1
862 822 1
868 822 1
123 823 1
140 823 1
743 823 1
754 823 1
843 823 1
852 823 1
863 823 1
869 823 1
121 824 1
124 824 1
744 824 1
755 824 1
844 824 1
853 824 1
864 824 1
870 824 1
122 825 1
125 825 1
745 825 1
756 825 1
845 825 1
854 825 1
865 825 1
871 825 1
123 826 1
126 826 1
746 826 1
757 826 1
846 826 1
855 826 1
866 826 1
872 826 1
124 827 1
127 827 1
747 827 1
758 827 1
847 827 1
856 827 1
867 827 1
873 827 1
125 828 1
128 828 1
748 828 1
759 828 1
848 828 1
857 828 1
868 828 1
874 828 1
126 829 1
129 829 1
749 829 1
760 829 1
849 829 1
858 829 1
869 829 1
875 829 1
127 830 1
130 830 1
741 830 1
750 830 1
850 830 1
859 830 1
870 830 1
876 830 1
128 831 1
131 831 1
742 831 1
751 831 1
851 831 1
860 831 1
871 831 1
877 831 1
129 832 1
132 832 1
743 832 1
752 832 1
841 832 1
852 832 1
872 832 1
878 832 1
130 833 1
133 833 1
744 833 1
753 833 1
842 833 1
853 833 1
873 833 1
879 833 1
131 834 1
134 834 1
745 834 1
754 834 1
843 834 1
854 834 1
874 834 1
880 834 1
132 835 1
135 835 1
746 835 1
755 835 1
844 835 1
855 835 1
861 835 1
875 835 1
133 836 1
136 836 1
747 836 1
756 836 1
845 836 1
856 836 1
862 836 1
876 836 1
134 837 1
137 837 1
748 837 1
757 837 1
846 837 1
857 837 1
863 837 1
877 837 1
135 838 1
138 838 1
749 838 1
758 838 1
847 838 1
858 838 1
864 838 1
878 838 1
136 839 1
139 839 1
750 839 1
759 839 1
848 839 1
859 839 1
865 839 1
879 839 1
137 840 1
140 840 1
751 840 1
760 840 1
849 840 1
860 840 1
866 840 1
880 840 1
141 841 1
158 841 1
761 841 1
772 841 1
821 841 1
831 841 1
881 841 1
884 841 1
142 842 1
159 842 1
762 842 1
773 842 1
822 842 1
832 842 1
882 842 1
885 842 1
143 843 1
160 843 1
763 843 1
774 843 1
823 843 1
833 843 1
883 843 1
886 843 1
141 844 1
144 844 1
764 844 1
775 844 1
824 844 1
834 844 1
884 844 1
887 844 1
142 845 1
145 845 1
765 845 1
776 845 1
825 845 1
835 845 1
885 845 1
888 845 1
143 846 1
146 846 1
766 846 1
777 846 1
826 846 1
836 846 1
886 846 1
889 846 1
144 847 1
147 847 1
767 847 1
778 847 1
827 847 1
837 847 1
887 847 1
890 847 1
145 848 1
148 848 1
768 848 1
779 848 1
828 848 1
838 848 1
888 848 1
891 848 1
146 849 1
149 849 1
769 849 1
780 849 1
829 849 1
839 849 1
889 849 1
892 849 1
147 850 1
150 850 1
761 850 1
770 850 1
830 850 1
840 850 1
890 850 1
893 850 1
148 851 1
151 851 1
762 851 1
771 851 1
821 851 1
831 851 1
891 851 1
894 851 1
149 852 1
152 852 1
763 852 1
772 852 1
822 852 1
832 852 1
892 852 1
895 852 1
150 853 1
153 853 1
764 853 1
773 853 1
823 853 1
833 853 1
893 853 1
896 853 1
151 854 1
154 854 1
765 854 1
774 854 1
824 854 1
834 854 1
894 854 1
897 854 1
152 855 1
155 855 1
766 855 1
775 855 1
825 855 1
835 855 1
895 855 1
898 855 1
153 856 1
156 856 1
767 856 1
776 856 1
826 856 1
836 856 1
896 856 1
899 856 1
154 857 1
157 857 1
768 857 1
777 857 1
827 857 1
837 857 1
897 857 1
900 857 1
155 858 1
158 858 1
769 858 1
778 858 1
828 858 1
838 858 1
881 858 1
898 858 1
156 859 1
159 859 1
770 859 1
779 859 1
829 859 1
839 859 1
882 859 1
899 859 1
157 860 1
160 860 1
771 860 1
780 860 1
830 860 1
840 860 1
883 860 1
900 860 1
161 861 1
178 861 1
781 861 1
792 861 1
841 861 1
851 861 1
881 861 1
887 861 1
162 862 1
179 862 1
782 862 1
793 862 1
842 862 1
852 862 1
882 862 1
888 862 1
163 863 1
180 863 1
783 863 1
794 863 1
843 863 1
853 863 1
883 863 1
889 863 1
161 864 1
164 864 1
784 864 1
795 864 1
844 864 1
854 864 1
884 864 1
890 864 1
162 865 1
165 865 1
785 865 1
796 865 1
845 865 1
855 865 1
885 865 1
891 865 1
163 866 1
166 866 1
786 866 1
797 866 1
846 866 1
856 866 1
886 866 1
892 866 1
164 867 1
167 867 1
787 867 1
798 867 1
847 867 1
857 867 1
887 867 1
893 867 1
165 868 1
168 868 1
788 868 1
799 868 1
848 868 1
858 868 1
888 868 1
894 868 1
166 869 1
169 869 1
789 869 1
800 869 1
849 869 1
859 869 1
889 869 1
895 869 1
167 870 1
170 870 1
781 870 1
790 870 1
850 870 1
860 870 1
890 870 1
896 870 1
168 871 1
171 871 1
782 871 1
791 871 1
841 871 1
851 871 1
891 871 1
897 871 1
169 872 1
172 872 1
783 872 1
792 872 1
842 872 1
852 872 1
892 872 1
898 872 1
170 873 1
173 873 1
784 873 1
793 873 1
843 873 1
853 873 1
893 873 1
899 873 1
171 874 1
174 874 1
785 874 1
794 874 1
844 874 1
854 874 1
894 874 1
900 874 1
172 875 1
175 875 1
786 875 1
795 875 1
845 875 1
855 875 1
881 875 1
895 875 1
173 876 1
176 876 1
787 876 1
796 876 1
846 876 1
856 876 1
882 876 1
896 876 1
174 877 1
177 877 1
788 877 1
797 877 1
847 877 1
857 877 1
883 877 1
897 877 1
175 878 1
178 878 1
789 878 1
798 878 1
848 878 1
858 878 1
884 878 1
898 878 1
176 879 1
179 879 1
790 879 1
799 879 1
849 879 1
859 879 1
885 879 1
899 879 1
177 880 1
180 880 1
791 880 1
800 880 1
850 880 1
860 880 1
886 880 1
900 880 1
181 881 1
198 881 1
801 881 1
812 881 1
861 881 1
871 881 1
881 881 1
890 881 1
182 882 1
199 882 1
802 882 1
813 882 1
862 882 1
872 882 1
882 882 1
891 882 1
183 883 1
200 883 1
803 883 1
814 883 1
863 883 1
873 883 1
883 883 1
892 883 1
181 884 1
184 884 1
804 884 1
815 884 1
864 884 1
874 884 1
884 884 1
893 884 1
182 885 1
185 885 1
805 885 1
816 885 1
865 885 1
875 885 1
885 885 1
894 885 1
183 886 1
186 886 1
806 886 1
817 886 1
866 886 1
876 886 1
886 886 1
895 886 1
184 887 1
187 887 1
807 887 1
818 887 1
867 887 1
877 887 1
887 887 1
896 887 1
185 888 1
188 888 1
808 888 1
819 888 1
868 888 1
878 888 1
888 888 1
897 888 1
186 889 1
189 889 1
809 889 1
820 889 1
869 889 1
879 889 1
889 889 1
898 889 1
187 890 1
190 890 1
801 890 1
810 890 1
870 890 1
880 890 1
890 890 1
899 890 1
188 891 1
191 891 1
802 891 1
811 891 1
861 891 1
871 891 1
891 891 1
900 891 1
189 892 1
192 892 1
803 892 1
812 892 1
862 892 1
872 892 1
881 892 1
892 892 1
190 893 1
193 893 1
804 893 1
813 893 1
863 893 1
873 893 1
882 893 1
893 893 1
191 894 1
194 894 1
805 894 1
814 894 1
864 894 1
874 894 1
883 894 1
894 894 1
192 895 1
195 895 1
806 895 1
815 895 1
865 895 1
875 895 1
884 895 1
895 895 1
193 896 1
196 896 1
807 896 1
816 896 1
866 896 1
876 896 1
885 896 1
896 896 1
194 897 1
197 897 1
808 897 1
817 897 1
867 897 1
877 897 1
886 897 1
897 897 1
195 898 1
198 898 1
809 898 1
818 898 1
868 898 1
878 898 1
887 898 1
898 898 1
196 899 1
199 899 1
810 899 1
819 899 1
869 899 1
879 899 1
888 899 1
899 899 1
197 900 1
200 900 1
811 900 1
820 900 1
870 900 1
880 900 1
889 900 1
900 900 1
201 901 1
218 901 1
701 901 1
714 901 1
901 901 1
907 901 1
921 901 1
924 901 1
202 902 1
219 902 1
702 902 1
715 902 1
902 902 1
908 902 1
922 902 1
925 902 1
203 903 1
220 903 1
703 903 1
716 903 1
903 903 1
909 903 1
923 903 1
926 903 1
201 904 1
204 904 1
704 904 1
717 904 1
904 904 1
910 904 1
924 904 1
927 904 1
202 905 1
205 905 1
705 905 1
718 905 1
905 905 1
911 905 1
925 905 1
928 905 1
203 906 1
206 906 1
706 906 1
719 906 1
906 906 1
912 906 1
926 906 1
929 906 1
204 907 1
207 907 1
707 907 1
720 907 1
907 907 1
913 907 1
927 907 1
930 907 1
205 908 1
208 908 1
701 908 1
708 908 1
908 908 1
914 908 1
928 908 1
931 908 1
206 909 1
209 909 1
702 909 1
709 909 1
909 909 1
915 909 1
929 909 1
932 909 1
207 910 1
210 910 1
703 910 1
710 910 1
910 910 1
916 910 1
930 910 1
933 910 1
208 911 1
211 911 1
704 911 1
711 911 1
911 911 1
917 911 1
931 911 1
934 911 1
209 912 1
212 912 1
705 912 1
712 912 1
912 912 1
918 912 1
932 912 1
935 912 1
210 913 1
213 913 1
706 913 1
713 913 1
913 913 1
919 913 1
933 913 1
936 913 1
211 914 1
214 914 1
707 914 1
714 914 1
914 914 1
920 914 1
934 914 1
937 914 1
212 915 1
215 915 1
708 915 1
715 915 1
901 915 1
915 915 1
935 915 1
938 915 1
213 916 1
216 916 1
709 916 1
716 916 1
902 916 1
916 916 1
936 916 1
939 916 1
214 917 1
217 917 1
710 917 1
717 917 1
903 917 1
917 917 1
937 917 1
940 917 1
215 918 1
218 918 1
711 918 1
718 918 1
904 918 1
918 918 1
921 918 1
938 918 1
216 919 1
219 919 1
712 919 1
719 919 1
905 919 1
919 919 1
922 919 1
939 919 1
217 920 1
220 920 1
713 920 1
720 920 1
906 920 1
920 920 1
923 920 1
940 920 1
221 921 1
238 921 1
721 921 1
734 921 1
901 921 1
910 921 1
941 921 1
944 921 1
222 922 1
239 922 1
722 922 1
735 922 1
902 922 1
911 922 1
942 922 1
945 922 1
223 923 1
240 923 1
723 923 1
736 923 1
903 923 1
912 923 1
943 923 1
946 923 1
221 924 1
224 924 1
724 924 1
737 924 1
904 924 1
913 924 1
944 924 1
947 924 1
222 925 1
225 925 1
725 925 1
738 925 1
905 925 1
914 925 1
945 925 1
948 925 1
223 926 1
226 926 1
726 926 1
739 926 1
906 926 1
915 926 1
946 926 1
949 926 1
224 927 1
227 927 1
727 927 1
740 927 1
907 927 1
916 927 1
947 927 1
950 927 1
225 928 1
228 928 1
721 928 1
728 928 1
908 928 1
917 928 1
948 928 1
951 928 1
226 929 1
229 929 1
722 929 1
729 929 1
909 929 1
918 929 1
949 929 1
952 929 1
227 930 1
230 930 1
723 930 1
730 930 1
910 930 1
919 930 1
950 930 1
953 930 1
228 931 1
231 931 1
724 931 1
731 931 1
911 931 1
920 931 1
951 931 1
954 931 1
229 932 1
232 932 1
725 932 1
732 932 1
901 932 1
912 932 1
952 932 1
955 932 1
230 933 1
233 933 1
726 933 1
733 933 1
902 933 1
913 933 1
953 933 1
956 933 1
231 934 1
234 934 1
727 934 1
734 934 1
903 934 1
914 934 1
954 934 1
957 934 1
232 935 1
235 935 1
728 935 1
735 935 1
904 935 1
915 935 1
955 935 1
958 935 1
233 936 1
236 936 1
729 936 1
736 936 1
905 936 1
916 936 1
956 936 1
959 936 1
234 937 1
237 937 1
730 937 1
737 937 1
906 937 1
917 937 1
957 937 1
960 937 1
235 938 1
238 938 1
731 938 1
738 938 1
907 938 1
918 938 1
941 938 1
958 938 1
236 939 1
239 939 1
732 939 1
739 939 1
908 939 1
919 939 1
942 939 1
959 939 1
237 940 1
240 940 1
733 940 1
740 940 1
909 940 1
920 940 1
943 940 1
960 940 1
241 941 1
258 941 1
741 941 1
754 941 1
921 941 1
930 941 1
941 941 1
947 941 1
242 942 1
259 942 1
742 942 1
755 942 1
922 942 1
931 942 1
942 942 1
948 942 1
243 943 1
260 943 1
743 943 1
756 943 1
923 943 1
932 943 1
943 943 1
949 943 1
241 944 1
244 944 1
744 944 1
757 944 1
924 944 1
933 944 1
944 944 1
950 944 1
242 945 1
245 945 1
745 945 1
758 945 1
925 945 1
934 945 1
945 945 1
951 945 1
243 946 1
246 946 1
746 946 1
759 946 1
926 946 1
935 946 1
946 946 1
952 946 1
244 947 1
247 947 1
747 947 1
760 947 1
927 947 1
936 947 1
947 947 1
953 947 1
245 948 1
248 948 1
741 948 1
748 948 1
928 948 1
937 948 1
948 948 1
954 948 1
246 949 1
249 949 1
742 949 1
749 949 1
929 949 1
938 949 1
949 949 1
955 949 1
247 950 1
250 950 1
743 950 1
750 950 1
930 950 1
939 950 1
950 950 1
956 950 1
248 951 1
251 951 1
744 951 1
751 951 1
931 951 1
940 951 1
951 951 1
957 951 1
249 952 1
252 952 1
745 952 1
752 952 1
921 952 1
932 952 1
952 952 1
958 952 1
250 953 1
253 953 1
746 953 1
753 953 1
922 953 1
933 953 1
953 953 1
959 953 1
251 954 1
254 954 1
747 954 1
754 954 1
923 954 1
934 954 1
954 954 1
960 954 1
252 955 1
255 955 1
748 955 1
755 955 1
924 955 1
935 955 1
941 955 1
955 955 1
253 956 1
256 956 1
749 956 1
756 956 1
925 956 1
936 956 1
942 956 1
956 956 1
254 957 1
257 957 1
750 957 1
757 957 1
926 957 1
937 957 1
943 957 1
957 957 1
255 958 1
258 958 1
751 958 1
758 958 1
927 958 1
938 958 1
944 958 1
958 958 1
256 959 1
259 959 1
752 959 1
759 959 1
928 959 1
939 959 1
945 959 1
959 959 1
257 960 1
260 960 1
753 960 1
760 960 1
929 960 1
940 960 1
946 960 1
960 960 1
261 961 1
278 961 1
761 961 1
774 961 1
901 961 1
911 961 1
961 961 1
964 961 1
262 962 1
279 962 1
762 962 1
775 962 1
902 962 1
912 962 1
962 962 1
965 962 1
263 963 1
280 963 1
763 963 1
776 963 1
903 963 1
913 963 1
963 963 1
966 963 1
261 964 1
264 964 1
764 964 1
777 964 1
904 964 1
914 964 1
964 964 1
967 964 1
262 965 1
265 965 1
765 965 1
778 965 1
905 965 1
915 965 1
965 965 1
968 965 1
263 966 1
266 966 1
766 966 1
779 966 1
906 966 1
916 966 1
966 966 1
969 966 1
264 967 1
267 967 1
767 967 1
780 967 1
907 967 1
917 967 1
967 967 1
970 967 1
265 968 1
268 968 1
761 968 1
768 968 1
908 968 1
918 968 1
968 968 1
971 968 1
266 969 1
269 969 1
762 969 1
769 969 1
909 969 1
919 969 1
969 969 1
972 969 1
267 970 1
270 970 1
763 970 1
770 970 1
910 970 1
920 970 1
970 970 1
973 970 1
268 971 1
271 971 1
764 971 1
771 971 1
901 971 1
911 971 1
971 971 1
974 971 1
269 972 1
272 972 1
765 972 1
772 972 1
902 972 1
912 972 1
972 972 1
975 972 1
270 973 1
273 973 1
766 973 1
773 973 1
903 973 1
913 973 1
973 973 1
976 973 1
271 974 1
274 974 1
767 974 1
774 974 1
904 974 1
914 974 1
974 974 1
977 974 1
272 975 1
275 975 1
768 975 1
775 975 1
905 975 1
915 975 1
975 975 1
978 975 1
273 976 1
276 976 1
769 976 1
776 976 1
906 976 1
916 976 1
976 976 1
979 976 1
274 977 1
277 977 1
770 977 1
777 977 1
907 977 1
917 977 1
977 977 1
980 977 1
275 978 1
278 978 1
771 978 1
778 978 1
908 978 1
918 978 1
961 978 1
978 978 1
276 979 1
279 979 1
772 979 1
779 979 1
909 979 1
919 979 1
962 979 1
979 979 1
277 980 1
280 980 1
773 980 1
780 980 1
910 980 1
920 980 1
963 980 1
980 980 1
281 981 1
298 981 1
781 981 1
794 981 1
921 981 1
931 981 1
961 981 1
967 981 1
282 982 1
299 982 1
782 982 1
795 982 1
922 982 1
932 982 1
962 982 1
968 982 1
283 983 1
300 983 1
783 983 1
796 983 1
923 983 1
933 983 1
963 983 1
969 983 1
281 984 1
284 984 1
784 984 1
797 984 1
924 984 1
934 984 1
964 984 1
970 984 1
282 985 1
285 985 1
785 985 1
798 985 1
925 985 1
935 985 1
965 985 1
971 985 1
283 986 1
286 986 1
786 986 1
799 986 1
926 986 1
936 986 1
966 986 1
972 986 1
284 987 1
287 987 1
787 987 1
800 987 1
927 987 1
937 987 1
967 987 1
973 987 1
285 988 1
288 988 1
781 988 1
788 988 1
928 988 1
938 988 1
968 988 1
974 988 1
286 989 1
289 989 1
782 989 1
789 989 1
929 989 1
939 989 1
969 989 1
975 989 1
287 990 1
290 990 1
783 990 1
790 990 1
930 990 1
940 990 1
970 990 1
976 990 1
288 991 1
291 991 1
784 991 1
791 991 1
921 991 1
931 991 1
971 991 1
977 991 1
289 992 1
292 992 1
785 992 1
792 992 1
922 992 1
932 992 1
972 992 1
978 992 1
290 993 1
293 993 1
786 993 1
793 993 1
923 993 1
933 993 1
973 993 1
979 993 1
291 994 1
294 994 1
787 994 1
794 994 1
924 994 1
934 994 1
974 994 1
980 994 1
292 995 1
295 995 1
788 995 1
795 995 1
925 995 1
935 995 1
961 995 1
975 995 1
293 996 1
296 996 1
789 996 1
796 996 1
926 996 1
936 996 1
962 996 1
976 996 1
294 997 1
297 997 1
790 997 1
797 997 1
927 997 1
937 997 1
963 997 1
977 997 1
295 998 1
298 998 1
791 998 1
798 998 1
928 998 1
938 998 1
964 998 1
978 998 1
296 999 1
299 999 1
792 999 1
799 999 1
929 999 1
939 999 1
965 999 1
979 999 1
297 1000 1
300 1000 1
793 1000 1
800 1000 1
930 1000 1
940 1000 1
966 1000 1
980 1000 1
301 1001 1
318 1001 1
801 1001 1
814 1001 1
941 1001 1
951 1001 1
961 1001 1
970 1001 1
302 1002 1
319 1002 1
802 1002 1
815 1002 1
942 1002 1
952 1002 1
962 1002 1
971 1002 1
303 1003 1
320 1003 1
803 1003 1
816 1003 1
943 1003 1
953 1003 1
963 1003 1
972 1003 1
301 1004 1
304 1004 1
804 1004 1
817 1004 1
944 1004 1
954 1004 1
964 1004 1
973 1004 1
302 1005 1
305 1005 1
805 1005 1
818 1005 1
945 1005 1
955 1005 1
965 1005 1
974 1005 1
303 1006 1
306 1006 1
806 1006 1
819 1006 1
946 1006 1
956 1006 1
966 1006 1
975 1006 1
304 1007 1
307 1007 1
807 1007 1
820 1007 1
947 1007 1
957 1007 1
967 1007 1
976 1007 1
305 1008 1
308 1008 1
801 1008 1
808 1008 1
948 1008 1
958 1008 1
968 1008 1
977 1008 1
306 1009 1
309 1009 1
802 1009 1
809 1009 1
949 1009 1
959 1009 1
969 1009 1
978 1009 1
307 1010 1
310 1010 1
803 1010 1
810 1010 1
950 1010 1
960 1010 1
970 1010 1
979 1010 1
308 1011 1
311 1011 1
804 1011 1
811 1011 1
941 1011 1
951 1011 1
971 1011 1
980 1011 1
309 1012 1
312 1012 1
805 1012 1
812 1012 1
942 1012 1
952 1012 1
961 1012 1
972 1012 1
310 1013 1
313 1013 1
806 1013 1
813 1013 1
943 1013 1
953 1013 1
962 1013 1
973 1013 1
311 1014 1
314 1014 1
807 1014 1
814 1014 1
944 1014 1
954 1014 1
963 1014 1
974 1014 1
312 1015 1
315 1015 1
808 1015 1
815 1015 1
945 1015 1
955 1015 1
964 1015 1
975 1015 1
313 1016 1
316 1016 1
809 1016 1
816 1016 1
946 1016 1
956 1016 1
965 1016 1
976 1016 1
314 1017 1
317 1017 1
810 1017 1
817 1017 1
947 1017 1
957 1017 1
966 1017 1
977 1017 1
315 1018 1
318 1018 1
811 1018 1
818 1018 1
948 1018 1
958 1018 1
967 1018 1
978 1018 1
316 1019 1
319 1019 1
812 1019 1
819 1019 1
949 1019 1
959 1019 1
968 1019 1
979 1019 1
317 1020 1
320 1020 1
813 1020 1
820 1020 1
950 1020 1
960 1020 1
969 1020 1
980 1020 1
321 1021 1
338 1021 1
821 1021 1
834 1021 1
901 1021 1
912 1021 1
981 1021 1
984 1021 1
322 1022 1
339 1022 1
822 1022 1
835 1022 1
902 1022 1
913 1022 1
982 1022 1
985 1022 1
323 1023 1
340 1023 1
823 1023 1
836 1023 1
903 1023 1
914 1023 1
983 1023 1
986 1023 1
321 1024 1
324 1024 1
824 1024 1
837 1024 1
904 1024 1
915 1024 1
984 1024 1
987 1024 1
322 1025 1
325 1025 1
825 1025 1
838 1025 1
905 1025 1
916 1025 1
985 1025 1
988 1025 1
323 1026 1
326 1026 1
826 1026 1
839 1026 1
906 1026 1
917 1026 1
986 1026 1
989 1026 1
324 1027 1
327 1027 1
827 1027 1
840 1027 1
907 1027 1
918 1027 1
987 1027 1
990 1027 1
325 1028 1
328 1028 1
821 1028 1
828 1028 1
908 1028 1
919 1028 1
988 1028 1
991 1028 1
326 1029 1
329 1029 1
822 1029 1
829 1029 1
909 1029 1
920 1029 1
989 1029 1
992 1029 1
327 1030 1
330 1030 1
823 1030 1
830 1030 1
901 1030 1
910 1030 1
990 1030 1
993 1030 1
328 1031 1
331 1031 1
824 1031 1
831 1031 1
902 1031 1
911 1031 1
991 1031 1
994 1031 1
329 1032 1
332 1032 1
825 1032 1
832 1032 1
903 1032 1
912 1032 1
992 1032 1
995 1032 1
330 1033 1
333 1033 1
826 1033 1
833 1033 1
904 1033 1
913 1033 1
993 1033 1
996 1033 1
331 1034 1
334 1034 1
827 1034 1
834 1034 1
905 1034 1
914 1034 1
994 1034 1
997 1034 1
332 1035 1
335 1035 1
828 1035 1
835 1035 1
906 1035 1
915 1035 1
995 1035 1
998 1035 1
333 1036 1
336 1036 1
829 1036 1
836 1036 1
907 1036 1
916 1036 1
996 1036 1
999 1036 1
334 1037 1
337 1037 1
830 1037 1
837 1037 1
908 1037 1
917 1037 1
997 1037 1
1000 1037 1
335 1038 1
338 1038 1
831 1038 1
838 1038 1
909 1038 1
918 1038 1
981 1038 1
998 1038 1
336 1039 1
339 1039 1
832 1039 1
839 1039 1
910 1039 1
919 1039 1
982 1039 1
999 1039 1
337 1040 1
340 1040 1
833 1040 1
840 1040 1
911 1040 1
920 1040 1
983 1040 1
1000 1040 1
341 1041 1
358 1041 1
841 1041 1
854 1041 1
921 1041 1
932 1041 1
981 1041 1
987 1041 1
342 1042 1
359 1042 1
842 1042 1
855 1042 1
922 1042 1
933 1042 1
982 1042 1
988 1042 1
343 1043 1
360 1043 1
843 1043 1
856 1043 1
923 1043 1
934 1043 1
983 1043 1
989 1043 1
341 1044 1
344 1044 1
844 1044 1
857 1044 1
924 1044 1
935 1044 1
984 1044 1
990 1044 1
342 1045 1
345 1045 1
845 1045 1
858 1045 1
925 1045 1
936 1045 1
985 1045 1
991 1045 1
343 1046 1
346 1046 1
846 1046 1
859 1046 1
926 1046 1
937 1046 1
986 1046 1
992 1046 1
344 1047 1
347 1047 1
847 1047 1
860 1047 1
927 1047 1
938 1047 1
987 1047 1
993 1047 1
345 1048 1
348 1048 1
841 1048 1
848 1048 1
928 1048 1
939 1048 1
988 1048 1
994 1048 1
346 1049 1
349 1049 1
842 1049 1
849 1049 1
929 1049 1
940 1049 1
989 1049 1
995 1049 1
347 1050 1
350 1050 1
843 1050 1
850 1050 1
921 1050 1
930 1050 1
990 1050 1
996 1050 1
348 1051 1
351 1051 1
844 1051 1
851 1051 1
922 1051 1
931 1051 1
991 1051 1
997 1051 1
349 1052 1
352 1052 1
845 1052 1
852 1052 1
923 1052 1
932 1052 1
992 1052 1
998 1052 1
350 1053 1
353 1053 1
846 1053 1
853 1053 1
924 1053 1
933 1053 1
993 1053 1
999 1053 1
351 1054 1
354 1054 1
847 1054 1
854 1054 1
925 1054 1
934 1054 1
994 1054 1
1000 1054 1
352 1055 1
355 1055 1
848 1055 1
855 1055 1
926 1055 1
935 1055 1
981 1055 1
995 1055 1
353 1056 1
356 1056 1
849 1056 1
856 1056 1
927 1056 1
936 1056 1
982 1056 1
996 1056 1
354 1057 1
357 1057 1
850 1057 1
857 1057 1
928 1057 1
937 1057 1
983 1057 1
997 1057 1
355 1058 1
358 1058 1
851 1058 1
858 1058 1
929 1058 1
938 1058 1
984 1058 1
998 1058 1
356 1059 1
359 1059 1
852 1059 1
859 1059 1
930 1059 1
939 1059 1
985 1059 1
999 1059 1
357 1060 1
360 1060 1
853 1060 1
860 1060 1
931 1060 1
940 1060 1
986 1060 1
1000 1060 1
361 1061 1
378 1061 1
861 1061 1
874 1061 1
941 1061 1
952 1061 1
981 1061 1
990 1061 1
362 1062 1
379 1062 1
862 1062 1
875 1062 1
942 1062 1
953 1062 1
982 1062 1
991 1062 1
363 1063 1
380 1063 1
863 1063 1
876 1063 1
943 1063 1
954 1063 1
983 1063 1
992 1063 1
361 1064 1
364 1064 1
864 1064 1
877 1064 1
944 1064 1
955 1064 1
984 1064 1
993 1064 1
362 1065 1
365 1065 1
865 1065 1
878 1065 1
945 1065 1
956 1065 1
985 1065 1
994 1065 1
363 1066 1
366 1066 1
866 1066 1
879 1066 1
946 1066 1
957 1066 1
986 1066 1
995 1066 1
364 1067 1
367 1067 1
867 1067 1
880 1067 1
947 1067 1
958 1067 1
987 1067 1
996 1067 1
365 1068 1
368 1068 1
861 1068 1
868 1068 1
948 1068 1
959 1068 1
988 1068 1
997 1068 1
366 1069 1
369 1069 1
862 1069 1
869 1069 1
949 1069 1
960 1069 1
989 1069 1
998 1069 1
367 1070 1
370 1070 1
863 1070 1
870 1070 1
941 1070 1
950 1070 1
990 1070 1
999 1070 1
368 1071 1
371 1071 1
864 1071 1
871 1071 1
942 1071 1
951 1071 1
991 1071 1
1000 1071 1
369 1072 1
372 1072 1
865 1072 1
872 1072 1
943 1072 1
952 1072 1
981 1072 1
992 1072 1
370 1073 1
373 1073 1
866 1073 1
873 1073 1
944 1073 1
953 1073 1
982 1073 1
993 1073 1
371 1074 1
374 1074 1
867 1074 1
874 1074 1
945 1074 1
954 1074 1
983 1074 1
994 1074 1
372 1075 1
375 1075 1
868 1075 1
875 1075 1
946 1075 1
955 1075 1
984 1075 1
995 1075 1
373 1076 1
376 1076 1
869 1076 1
876 1076 1
947 1076 1
956 1076 1
985 1076 1
996 1076 1
374 1077 1
377 1077 1
870 1077 1
877 1077 1
948 1077 1
957 1077 1
986 1077 1
997 1077 1
375 1078 1
378 1078 1
871 1078 1
878 1078 1
949 1078 1
958 1078 1
987 1078 1
998 1078 1
376 1079 1
379 1079 1
872 1079 1
879 1079 1
950 1079 1
959 1079 1
988 1079 1
999 1079 1
377 1080 1
380 1080 1
873 1080 1
880 1080 1
951 1080 1
960 1080 1
989 1080 1
1000 1080 1
381 1081 1
398 1081 1
881 1081 1
894 1081 1
961 1081 1
972 1081 1
981 1081 1
991 1081 1
382 1082 1
399 1082 1
882 1082 1
895 1082 1
962 1082 1
973 1082 1
982 1082 1
992 1082 1
383 1083 1
400 1083 1
883 1083 1
896 1083 1
963 1083 1
974 1083 1
983 1083 1
993 1083 1
381 1084 1
384 1084 1
884 1084 1
897 1084 1
964 1084 1
975 1084 1
984 1084 1
994 1084 1
382 1085 1
385 1085 1
885 1085 1
898 1085 1
965 1085 1
976 1085 1
985 1085 1
995 1085 1
383 1086 1
386 1086 1
886 1086 1
899 1086 1
966 1086 1
977 1086 1
986 1086 1
996 1086 1
384 1087 1
387 1087 1
887 1087 1
900 1087 1
967 1087 1
978 1087 1
987 1087 1
997 1087 1
385 1088 1
388 1088 1
881 1088 1
888 1088 1
968 1088 1
979 1088 1
988 1088 1
998 1088 1
386 1089 1
389 1089 1
882 1089 1
889 1089 1
969 1089 1
980 1089 1
989 1089 1
999 1089 1
387 1090 1
390 1090 1
883 1090 1
890 1090 1
961 1090 1
970 1090 1
990 1090 1
1000 1090 1
388 1091 1
391 1091 1
884 1091 1
891 1091 1
962 1091 1
971 1091 1
981 1091 1
991 1091 1
389 1092 1
392 1092 1
885 1092 1
892 1092 1
963 1092 1
972 1092 1
982 1092 1
992 1092 1
390 1093 1
393 1093 1
886 1093 1
893 1093 1
964 1093 1
973 1093 1
983 1093 1
993 1093 1
391 1094 1
394 1094 1
887 1094 1
894 1094 1
965 1094 1
974 1094 1
984 1094 1
994 1094 1
392 1095 1
395 1095 1
888 1095 1
895 1095 1
966 1095 1
975 1095 1
985 1095 1
995 1095 1
393 1096 1
396 1096 1
889 1096 1
896 1096 1
967 1096 1
976 1096 1
986 1096 1
996 1096 1
394 1097 1
397 1097 1
890 1097 1
897 1097 1
968 1097 1
977 1097 1
987 1097 1
997 1097 1
395 1098 1
398 1098 1
891 1098 1
898 1098 1
969 1098 1
978 1098 1
988 1098 1
998 1098 1
396 1099 1
399 1099 1
892 1099 1
899 1099 1
970 1099 1
979 1099 1
989 1099 1
999 1099 1
397 1100 1
400 1100 1
893 1100 1
900 1100 1
971 1100 1
980 1100 1
990 1100 1
1000 1100 1
401 1101 1
418 1101 1
701 1101 1
717 1101 1
1001 1101 1
1007 1101 1
1021 1101 1
1024 1101 1
402 1102 1
419 1102 1
702 1102 1
718 1102 1
1002 1102 1
1008 1102 1
1022 1102 1
1025 1102 1
403 1103 1
420 1103 1
703 1103 1
719 1103 1
1003 1103 1
1009 1103 1
1023 1103 1
1026 1103 1
401 1104 1
404 1104 1
704 1104 1
720 1104 1
1004 1104 1
1010 1104 1
1024 1104 1
1027 1104 1
402 1105 1
405 1105 1
701 1105 1
705 1105 1
1005 1105 1
1011 1105 1
1025 1105 1
1028 1105 1
403 1106 1
406 1106 1
702 1106 1
706 1106 1
1006 1106 1
1012 1106 1
1026 1106 1
1029 1106 1
404 1107 1
407 1107 1
703 1107 1
707 1107 1
1007 1107 1
1013 1107 1
1027 1107 1
1030 1107 1
405 1108 1
408 1108 1
704 1108 1
708 1108 1
1008 1108 1
1014 1108 1
1028 1108 1
1031 1108 1
406 1109 1
409 1109 1
705 1109 1
709 1109 1
1009 1109 1
1015 1109 1
1029 1109 1
1032 1109 1
407 1110 1
410 1110 1
706 1110 1
710 1110 1
1010 1110 1
1016 1110 1
1030 1110 1
1033 1110 1
408 1111 1
411 1111 1
707 1111 1
711 1111 1
1011 1111 1
1017 1111 1
1031 1111 1
1034 1111 1
409 1112 1
412 1112 1
708 1112 1
712 1112 1
1012 1112 1
1018 1112 1
1032 1112 1
1035 1112 1
410 1113 1
413 1113 1
709 1113 1
713 1113 1
1013 1113 1
1019 1113 1
1033 1113 1
1036 1113 1
411 1114 1
414 1114 1
710 1114 1
714 1114 1
1014 1114 1
1020 1114 1
1034 1114 1
1037 1114 1
412 1115 1
415 1115 1
711 1115 1
715 1115 1
1001 1115 1
1015 1115 1
1035 1115 1
1038 1115 1
413 1116 1
416 1116 1
712 1116 1
716 1116 1
1002 1116 1
1016 1116 1
1036 1116 1
1039 1116 1
414 1117 1
417 1117 1
713 1117 1
717 1117 1
1003 1117 1
1017 1117 1
1037 1117 1
1040 1117 1
415 1118 1
418 1118 1
714 1118 1
718 1118 1
1004 1118 1
1018 1118 1
1021 1118 1
1038 1118 1
416 1119 1
419 1119 1
715 1119 1
719 1119 1
1005 1119 1
1019 1119 1
1022 1119 1
1039 1119 1
417 1120 1
420 1120 1
716 1120 1
720 1120 1
1006 1120 1
1020 1120 1
1023 1120 1
1040 1120 1
421 1121 1
438 1121 1
721 1121 1
737 1121 1
1001 1121 1
1010 1121 1
1041 1121 1
1044 1121 1
422 1122 1
439 1122 1
722 1122 1
738 1122 1
1002 1122 1
1011 1122 1
1042 1122 1
1045 1122 1
423 1123 1
440 1123 1
723 1123 1
739 1123 1
1003 1123 1
1012 1123 1
1043 1123 1
1046 1123 1
421 1124 1
424 1124 1
724 1124 1
740 1124 1
1004 1124 1
1013 1124 1
1044 1124 1
1047 1124 1
422 1125 1
425 1125 1
721 1125 1
725 1125 1
1005 1125 1
1014 1125 1
1045 1125 1
1048 1125 1
423 1126 1
426 1126 1
722 1126 1
726 1126 1
1006 1126 1
1015 1126 1
1046 1126 1
1049 1126 1
424 1127 1
427 1127 1
723 1127 1
727 1127 1
1007 1127 1
1016 1127 1
1047 1127 1
1050 1127 1
425 1128 1
428 1128 1
724 1128 1
728 1128 1
1008 1128 1
1017 1128 1
1048 1128 1
1051 1128 1
426 1129 1
429 1129 1
725 1129 1
729 1129 1
1009 1129 1
1018 1129 1
1049 1129 1
1052 1129 1
427 1130 1
430 1130 1
726 1130 1
730 1130 1
1010 1130 1
1019 1130 1
1050 1130 1
1053 1130 1
428 1131 1
431 1131 1
727 1131 1
731 1131 1
1011 1131 1
1020 1131 1
1051 1131 1
1054 1131 1
429 1132 1
432 1132 1
728 1132 1
732 1132 1
1001 1132 1
1012 1132 1
1052 1132 1
1055 1132 1
430 1133 1
433 1133 1
729 1133 1
733 1133 1
1002 1133 1
1013 1133 1
1053 1133 1
1056 1133 1
431 1134 1
434 1134 1
730 1134 1
734 1134 1
1003 1134 1
1014 1134 1
1054 1134 1
1057 1134 1
432 1135 1
435 1135 1
731 1135 1
735 1135 1
1004 1135 1
1015 1135 1
1055 1135 1
1058 1135 1
433 1136 1
436 1136 1
732 1136 1
736 1136 1
1005 1136 1
1016 1136 1
1056 1136 1
1059 1136 1
434 1137 1
437 1137 1
733 1137 1
737 1137 1
1006 1137 1
1017 1137 1
1057 1137 1
1060 1137 1
435 1138 1
438 1138 1
734 1138 1
738 1138 1
1007 1138 1
1018 1138 1
1041 1138 1
1058 1138 1
436 1139 1
439 1139 1
735 1139 1
739 1139 1
1008 1139 1
1019 1139 1
1042 1139 1
1059 1139 1
437 1140 1
440 1140 1
736 1140 1
740 1140 1
1009 1140 1
1020 1140 1
1043 1140 1
1060 1140 1
441 1141 1
458 1141 1
741 1141 1
757 1141 1
1021 1141 1
1030 1141 1
1041 1141 1
1047 1141 1
442 1142 1
459 1142 1
742 1142 1
758 1142 1
1022 1142 1
1031 1142 1
1042 1142 1
1048 1142 1
443 1143 1
460 1143 1
743 1143 1
759 1143 1
1023 1143 1
1032 1143 1
1043 1143 1
1049 1143 1
441 1144 1
444 1144 1
744 1144 1
760 1144 1
1024 1144 1
1033 1144 1
1044 1144 1
1050 1144 1
442 1145 1
445 1145 1
741 1145 1
745 1145 1
1025 1145 1
1034 1145 1
1045 1145 1
1051 1145 1
443 1146 1
446 1146 1
742 1146 1
746 1146 1
1026 1146 1
1035 1146 1
1046 1146 1
1052 1146 1
444 1147 1
447 1147 1
743 1147 1
747 1147 1
1027 1147 1
1036 1147 1
1047 1147 1
1053 1147 1
445 1148 1
448 1148 1
744 1148 1
748 1148 1
1028 1148 1
1037 1148 1
1048 1148 1
1054 1148 1
446 1149 1
449 1149 1
745 1149 1
749 1149 1
1029 1149 1
1038 1149 1
1049 1149 1
1055 1149 1
447 1150 1
450 1150 1
746 1150 1
750 1150 1
1030 1150 1
1039 1150 1
1050 1150 1
1056 1150 1
448 1151 1
451 1151 1
747 1151 1
751 1151 1
1031 1151 1
1040 1151 1
1051 1151 1
1057 1151 1
449 1152 1
452 1152 1
748 1152 1
752 1152 1
1021 1152 1
1032 1152 1
1052 1152 1
1058 1152 1
450 1153 1
453 1153 1
749 1153 1
753 1153 1
1022 1153 1
1033 1153 1
1053 1153 1
1059 1153 1
451 1154 1
454 1154 1
750 1154 1
754 1154 1
1023 1154 1
1034 1154 1
1054 1154 1
1060 1154 1
452 1155 1
455 1155 1
751 1155 1
755 1155 1
1024 1155 1
1035 1155 1
1041 1155 1
1055 1155 1
453 1156 1
456 1156 1
752 1156 1
756 1156 1
1025 1156 1
1036 1156 1
1042 1156 1
1056 1156 1
454 1157 1
457 1157 1
753 1157 1
757 1157 1
1026 1157 1
1037 1157 1
1043 1157 1
1057 1157 1
455 1158 1
458 1158 1
754 1158 1
758 1158 1
1027 1158 1
1038 1158 1
1044 1158 1
1058 1158 1
456 1159 1
459 1159 1
755 1159 1
759 1159 1
1028 1159 1
1039 1159 1
1045 1159 1
1059 1159 1
457 1160 1
460 1160 1
756 1160 1
760 1160 1
1029 1160 1
1040 1160 1
1046 1160 1
1060 1160 1
461 1161 1
478 1161 1
761 1161 1
777 1161 1
1001 1161 1
1011 1161 1
1061 1161 1
1064 1161 1
462 1162 1
479 1162 1
762 1162 1
778 1162 1
1002 1162 1
1012 1162 1
1062 1162 1
1065 1162 1
463 1163 1
480 1163 1
763 1163 1
779 1163 1
1003 1163 1
1013 1163 1
1063 1163 1
1066 1163 1
461 1164 1
464 1164 1
764 1164 1
780 1164 1
1004 1164 1
1014 1164 1
1064 1164 1
1067 1164 1
462 1165 1
465 1165 1
761 1165 1
765 1165 1
1005 1165 1
1015 1165 1
1065 1165 1
1068 1165 1
463 1166 1
466 1166 1
762 1166 1
766 1166 1
1006 1166 1
1016 1166 1
1066 1166 1
1069 1166 1
464 1167 1
467 1167 1
763 1167 1
767 1167 1
1007 1167 1
1017 1167 1
1067 1167 1
1070 1167 1
465 1168 1
468 1168 1
764 1168 1
768 1168 1
1008 1168 1
1018 1168 1
1068 1168 1
1071 1168 1
466 1169 1
469 1169 1
765 1169 1
769 1169 1
1009 1169 1
1019 1169 1
1069 1169 1
1072 1169 1
467 1170 1
470 1170 1
766 1170 1
770 1170 1
1010 1170 1
1020 1170 1
1070 1170 1
1073 1170 1
468 1171 1
471 1171 1
767 1171 1
771 1171 1
1001 1171 1
1011 1171 1
1071 1171 1
1074 1171 1
469 1172 1
472 1172 1
768 1172 1
772 1172 1
1002 1172 1
1012 1172 1
1072 1172 1
1075 1172 1
470 1173 1
473 1173 1
769 1173 1
773 1173 1
1003 1173 1
1013 1173 1
1073 1173 1
1076 1173 1
471 1174 1
474 1174 1
770 1174 1
774 1174 1
1004 1174 1
1014 1174 1
1074 1174 1
1077 1174 1
472 1175 1
475 1175 1
771 1175 1
775 1175 1
1005 1175 1
1015 1175 1
1075 1175 1
1078 1175 1
473 1176 1
476 1176 1
772 1176 1
776 1176 1
1006 1176 1
1016 1176 1
1076 1176 1
1079 1176 1
474 1177 1
477 1177 1
773 1177 1
777 1177 1
1007 1177 1
1017 1177 1
1077 1177 1
1080 1177 1
475 1178 1
478 1178 1
774 1178 1
778 1178 1
1008 1178 1
1018 1178 1
1061 1178 1
1078 1178 1
476 1179 1
479 1179 1
775 1179 1
779 1179 1
1009 1179 1
1019 1179 1
1062 1179 1
1079 1179 1
477 1180 1
480 1180 1
776 1180 1
780 1180 1
1010 1180 1
1020 1180 1
1063 1180 1
1080 1180 1
481 1181 1
498 1181 1
781 1181 1
797 1181 1
1021 1181 1
1031 1181 1
1061 1181 1
1067 1181 1
482 1182 1
499 1182 1
782 1182 1
798 1182 1
1022 1182 1
1032 1182 1
1062 1182 1
1068 1182 1
483 1183 1
500 1183 1
783 1183 1
799 1183 1
1023 1183 1
1033 1183 1
1063 1183 1
1069 1183 1
481 1184 1
484 1184 1
784 1184 1
800 1184 1
1024 1184 1
1034 1184 1
1064 1184 1
1070 1184 1
482 1185 1
485 1185 1
781 1185 1
785 1185 1
1025 1185 1
1035 1185 1
1065 1185 1
1071 1185 1
483 1186 1
486 1186 1
782 1186 1
786 1186 1
1026 1186 1
1036 1186 1
1066 1186 1
1072 1186 1
484 1187 1
487 1187 1
783 1187 1
787 1187 1
1027 1187 1
1037 1187 1
1067 1187 1
1073 1187 1
485 1188 1
488 1188 1
784 1188 1
788 1188 1
1028 1188 1
1038 1188 1
1068 1188 1
1074 1188 1
486 1189 1
489 1189 1
785 1189 1
789 1189 1
1029 1189 1
1039 1189 1
1069 1189 1
1075 1189 1
487 1190 1
490 1190 1
786 1190 1
790 1190 1
1030 1190 1
1040 1190 1
1070 1190 1
1076 1190 1
488 1191 1
491 1191 1
787 1191 1
791 1191 1
1021 1191 1
1031 1191 1
1071 1191 1
1077 1191 1
489 1192 1
492 1192 1
788 1192 1
792 1192 1
1022 1192 1
1032 1192 1
1072 1192 1
1078 1192 1
490 1193 1
493 1193 1
789 1193 1
793 1193 1
1023 1193 1
1033 1193 1
1073 1193 1
1079 1193 1
491 1194 1
494 1194 1
790 1194 1
794 1194 1
1024 1194 1
1034 1194 1
1074 1194 1
1080 1194 1
492 1195 1
495 1195 1
791 1195 1
795 1195 1
1025 1195 1
1035 1195 1
1061 1195 1
1075 1195 1
493 1196 1
496 1196 1
792 1196 1
796 1196 1
1026 1196 1
1036 1196 1
1062 1196 1
1076 1196 1
494 1197 1
497 1197 1
793 1197 1
797 1197 1
1027 1197 1
1037 1197 1
1063 1197 1
1077 1197 1
495 1198 1
498 1198 1
794 1198 1
798 1198 1
1028 1198 1
1038 1198 1
1064 1198 1
1078 1198 1
496 1199 1
499 1199 1
795 1199 1
799 1199 1
1029 1199 1
1039 1199 1
1065 1199 1
1079 1199 1
497 1200 1
500 1200 1
796 1200 1
800 1200 1
1030 1200 1
1040 1200 1
1066 1200 1
1080 1200 1
501 1201 1
518 1201 1
801 1201 1
817 1201 1
1041 1201 1
1051 1201 1
1061 1201 1
1070 1201 1
502 1202 1
519 1202 1
802 1202 1
818 1202 1
1042 1202 1
1052 1202 1
1062 1202 1
1071 1202 1
503 1203 1
520 1203 1
803 1203 1
819 1203 1
1043 1203 1
1053 1203 1
1063 1203 1
1072 1203 1
501 1204 1
504 1204 1
804 1204 1
820 1204 1
1044 1204 1
1054 1204 1
1064 1204 1
1073 1204 1
502 1205 1
505 1205 1
801 1205 1
805 1205 1
1045 1205 1
1055 1205 1
1065 1205 1
1074 1205 1
503 1206 1
506 1206 1
802 1206 1
806 1206 1
1046 1206 1
1056 1206 1
1066 1206 1
1075 1206 1
504 1207 1
507 1207 1
803 1207 1
807 1207 1
1047 1207 1
1057 1207 1
1067 1207 1
1076 1207 1
505 1208 1
508 1208 1
804 1208 1
808 1208 1
1048 1208 1
1058 1208 1
1068 1208 1
1077 1208 1
506 1209 1
509 1209 1
805 1209 1
809 1209 1
1049 1209 1
1059 1209 1
1069 1209 1
1078 1209 1
507 1210 1
510 1210 1
806 1210 1
810 1210 1
1050 1210 1
1060 1210 1
1070 1210 1
1079 1210 1
508 1211 1
511 1211 1
807 1211 1
811 1211 1
1041 1211 1
1051 1211 1
1071 1211 1
1080 1211 1
509 1212 1
512 1212 1
808 1212 1
812 1212 1
1042 1212 1
1052 1212 1
1061 1212 1
1072 1212 1
510 1213 1
513 1213 1
809 1213 1
813 1213 1
1043 1213 1
1053 1213 1
1062 1213 1
1073 1213 1
511 1214 1
514 1214 1
810 1214 1
814 1214 1
1044 1214 1
1054 1214 1
1063 1214 1
1074 1214 1
512 1215 1
515 1215 1
811 1215 1
815 1215 1
1045 1215 1
1055 1215 1
1064 1215 1
1075 1215 1
513 1216 1
516 1216 1
812 1216 1
816 1216 1
1046 1216 1
1056 1216 1
1065 1216 1
1076 1216 1
514 1217 1
517 1217 1
813 1217 1
817 1217 1
1047 1217 1
1057 1217 1
1066 1217 1
1077 1217 1
515 1218 1
518 1218 1
814 1218 1
818 1218 1
1048 1218 1
1058 1218 1
1067 1218 1
1078 1218 1
516 1219 1
519 1219 1
815 1219 1
819 1219 1
1049 1219 1
1059 1219 1
1068 1219 1
1079 1219 1
517 1220 1
520 1220 1
816 1220 1
820 1220 1
1050 1220 1
1060 1220 1
1069 1220 1
1080 1220 1
521 1221 1
538 1221 1
821 1221 1
837 1221 1
1001 1221 1
1012 1221 1
1081 1221 1
1084 1221 1
522 1222 1
539 1222 1
822 1222 1
838 1222 1
1002 1222 1
1013 1222 1
1082 1222 1
1085 1222 1
523 1223 1
540 1223 1
823 1223 1
839 1223 1
1003 1223 1
1014 1223 1
1083 1223 1
1086 1223 1
521 1224 1
524 1224 1
824 1224 1
840 1224 1
1004 1224 1
1015 1224 1
1084 1224 1
1087 1224 1
522 1225 1
525 1225 1
821 1225 1
825 1225 1
1005 1225 1
1016 1225 1
1085 1225 1
1088 1225 1
523 1226 1
526 1226 1
822 1226 1
826 1226 1
1006 1226 1
1017 1226 1
1086 1226 1
1089 1226 1
524 1227 1
527 1227 1
823 1227 1
827 1227 1
1007 1227 1
1018 1227 1
1087 1227 1
1090 1227 1
525 1228 1
528 1228 1
824 1228 1
828 1228 1
1008 1228 1
1019 1228 1
1088 1228 1
1091 1228 1
526 1229 1
529 1229 1
825 1229 1
829 1229 1
1009 1229 1
1020 1229 1
1089 1229 1
1092 1229 1
527 1230 1
530 1230 1
826 1230 1
830 1230 1
1001 1230 1
1010 1230 1
1090 1230 1
1093 1230 1
528 1231 1
531 1231 1
827 1231 1
831 1231 1
1002 1231 1
1011 1231 1
1091 1231 1
1094 1231 1
529 1232 1
532 1232 1
828 1232 1
832 1232 1
1003 1232 1
1012 1232 1
1092 1232 1
1095 1232 1
530 1233 1
533 1233 1
829 1233 1
833 1233 1
1004 1233 1
1013 1233 1
1093 1233 1
1096 1233 1
531 1234 1
534 1234 1
830 1234 1
834 1234 1
1005 1234 1
1014 1234 1
1094 1234 1
1097 1234 1
532 1235 1
535 1235 1
831 1235 1
835 1235 1
1006 1235 1
1015 1235 1
1095 1235 1
1098 1235 1
533 1236 1
536 1236 1
832 1236 1
836 1236 1
1007 1236 1
1016 1236 1
1096 1236 1
1099 1236 1
534 1237 1
537 1237 1
833 1237 1
837 1237 1
1008 1237 1
1017 1237 1
1097 1237 1
1100 1237 1
535 1238 1
538 1238 1
834 1238 1
838 1238 1
1009 1238 1
1018 1238 1
1081 1238 1
1098 1238 1
536 1239 1
539 1239 1
835 1239 1
839 1239 1
1010 1239 1
1019 1239 1
1082 1239 1
1099 1239 1
537 1240 1
540 1240 1
836 1240 1
840 1240 1
1011 1240 1
1020 1240 1
1083 1240 1
1100 1240 1
541 1241 1
558 1241 1
841 1241 1
857 1241 1
1021 1241 1
1032 1241 1
1081 1241 1
1087 1241 1
542 1242 1
559 1242 1
842 1242 1
858 1242 1
1022 1242 1
1033 1242 1
1082 1242 1
1088 1242 1
543 1243 1
560 1243 1
843 1243 1
859 1243 1
1023 1243 1
1034 1243 1
1083 1243 1
1089 1243 1
541 1244 1
544 1244 1
844 1244 1
860 1244 1
1024 1244 1
1035 1244 1
1084 1244 1
1090 1244 1
542 1245 1
545 1245 1
841 1245 1
845 1245 1
1025 1245 1
1036 1245 1
1085 1245 1
1091 1245 1
543 1246 1
546 1246 1
842 1246 1
846 1246 1
1026 1246 1
1037 1246 1
1086 1246 1
1092 1246 1
544 1247 1
547 1247 1
843 1247 1
847 1247 1
1027 1247 1
1038 1247 1
1087 1247 1
1093 1247 1
545 1248 1
548 1248 1
844 1248 1
848 1248 1
1028 1248 1
1039 1248 1
1088 1248 1
1094 1248 1
546 1249 1
549 1249 1
845 1249 1
849 1249 1
1029 1249 1
1040 1249 1
1089 1249 1
1095 1249 1
547 1250 1
550 1250 1
846 1250 1
850 1250 1
1021 1250 1
1030 1250 1
1090 1250 1
1096 1250 1
548 1251 1
551 1251 1
847 1251 1
851 1251 1
1022 1251 1
1031 1251 1
1091 1251 1
1097 1251 1
549 1252 1
552 1252 1
848 1252 1
852 1252 1
1023 1252 1
1032 1252 1
1092 1252 1
1098 1252 1
550 1253 1
553 1253 1
849 1253 1
853 1253 1
1024 1253 1
1033 1253 1
1093 1253 1
1099 1253 1
551 1254 1
554 1254 1
850 1254 1
854 1254 1
1025 1254 1
1034 1254 1
1094 1254 1
1100 1254 1
552 1255 1
555 1255 1
851 1255 1
855 1255 1
1026 1255 1
1035 1255 1
1081 1255 1
1095 1255 1
553 1256 1
556 1256 1
852 1256 1
856 1256 1
1027 1256 1
1036 1256 1
1082 1256 1
1096 1256 1
554 1257 1
557 1257 1
853 1257 1
857 1257 1
1028 1257 1
1037 1257 1
1083 1257 1
1097 1257 1
555 1258 1
558 1258 1
854 1258 1
858 1258 1
1029 1258 1
1038 1258 1
1084 1258 1
1098 1258 1
556 1259 1
559 1259 1
855 1259 1
859 1259 1
1030 1259 1
1039 1259 1
1085 1259 1
1099 1259 1
557 1260 1
560 1260 1
856 1260 1
860 1260 1
1031 1260 1
1040 1260 1
1086 1260 1
1100 1260 1
561 1261 1
578 1261 1
861 1261 1
877 1261 1
1041 1261 1
1052 1261 1
1081 1261 1
1090 1261 1
562 1262 1
579 1262 1
862 1262 1
878 1262 1
1042 1262 1
1053 1262 1
1082 1262 1
1091 1262 1
563 1263 1
580 1263 1
863 1263 1
879 1263 1
1043 1263 1
1054 1263 1
1083 1263 1
1092 1263 1
561 1264 1
564 1264 1
864 1264 1
880 1264 1
1044 1264 1
1055 1264 1
1084 1264 1
1093 1264 1
562 1265 1
565 1265 1
861 1265 1
865 1265 1
1045 1265 1
1056 1265 1
1085 1265 1
1094 1265 1
563 1266 1
566 1266 1
862 1266 1
866 1266 1
1046 1266 1
1057 1266 1
1086 1266 1
1095 1266 1
564 1267 1
567 1267 1
863 1267 1
867 1267 1
1047 1267 1
1058 1267 1
1087 1267 1
1096 1267 1
565 1268 1
568 1268 1
864 1268 1
868 1268 1
1048 1268 1
1059 1268 1
1088 1268 1
1097 1268 1
566 1269 1
569 1269 1
865 1269 1
869 1269 1
1049 1269 1
1060 1269 1
1089 1269 1
1098 1269 1
567 1270 1
570 1270 1
866 1270 1
870 1270 1
1041 1270 1
1050 1270 1
1090 1270 1
1099 1270 1
568 1271 1
571 1271 1
867 1271 1
871 1271 1
1042 1271 1
1051 1271 1
1091 1271 1
1100 1271 1
569 1272 1
572 1272 1
868 1272 1
872 1272 1
1043 1272 1
1052 1272 1
1081 1272 1
1092 1272 1
570 1273 1
573 1273 1
869 1273 1
873 1273 1
1044 1273 1
1053 1273 1
1082 1273 1
1093 1273 1
571 1274 1
574 1274 1
870 1274 1
874 1274 1
1045 1274 1
1054 1274 1
1083 1274 1
1094 1274 1
572 1275 1
575 1275 1
871 1275 1
875 1275 1
1046 1275 1
1055 1275 1
1084 1275 1
1095 1275 1
573 1276 1
576 1276 1
872 1276 1
876 1276 1
1047 1276 1
1056 1276 1
1085 1276 1
1096 1276 1
574 1277 1
577 1277 1
873 1277 1
877 1277 1
1048 1277 1
1057 1277 1
1086 1277 1
1097 1277 1
575 1278 1
578 1278 1
874 1278 1
878 1278 1
1049 1278 1
1058 1278 1
1087 1278 1
1098 1278 1
576 1279 1
579 1279 1
875 1279 1
879 1279 1
1050 1279 1
1059 1279 1
1088 1279 1
1099 1279 1
577 1280 1
580 1280 1
876 1280 1
880 1280 1
1051 1280 1
1060 1280 1
1089 1280 1
1100 1280 1
581 1281 1
598 1281 1
881 1281 1
897 1281 1
1061 1281 1
1072 1281 1
1081 1281 1
1091 1281 1
582 1282 1
599 1282 1
882 1282 1
898 1282 1
1062 1282 1
1073 1282 1
1082 1282 1
1092 1282 1
583 1283 1
600 1283 1
883 1283 1
899 1283 1
1063 1283 1
1074 1283 1
1083 1283 1
1093 1283 1
581 1284 1
584 1284 1
884 1284 1
900 1284 1
1064 1284 1
1075 1284 1
1084 1284 1
1094 1284 1
582 1285 1
585 1285 1
881 1285 1
885 1285 1
1065 1285 1
1076 1285 1
1085 1285 1
1095 1285 1
583 1286 1
586 1286 1
882 1286 1
886 1286 1
1066 1286 1
1077 1286 1
1086 1286 1
1096 1286 1
584 1287 1
587 1287 1
883 1287 1
887 1287 1
1067 1287 1
1078 1287 1
1087 1287 1
1097 1287 1
585 1288 1
588 1288 1
884 1288 1
888 1288 1
1068 1288 1
1079 1288 1
1088 1288 1
1098 1288 1
586 1289 1
589 1289 1
885 1289 1
889 1289 1
1069 1289 1
1080 1289 1
1089 1289 1
1099 1289 1
587 1290 1
590 1290 1
886 1290 1
890 1290 1
1061 1290 1
1070 1290 1
1090 1290 1
1100 1290 1
588 1291 1
591 1291 1
887 1291 1
891 1291 1
1062 1291 1
1071 1291 1
1081 1291 1
1091 1291 1
589 1292 1
592 1292 1
888 1292 1
892 1292 1
1063 1292 1
1072 1292 1
1082 1292 1
1092 1292 1
590 1293 1
593 1293 1
889 1293 1
893 1293 1
1064 1293 1
1073 1293 1
1083 1293 1
1093 1293 1
591 1294 1
594 1294 1
890 1294 1
894 1294 1
1065 1294 1
1074 1294 1
1084 1294 1
1094 1294 1
592 1295 1
595 1295 1
891 1295 1
895 1295 1
1066 1295 1
1075 1295 1
1085 1295 1
1095 1295 1
593 1296 1
596 1296 1
892 1296 1
896 1296 1
1067 1296 1
1076 1296 1
1086 1296 1
1096 1296 1
594 1297 1
597 1297 1
893 1297 1
897 1297 1
1068 1297 1
1077 1297 1
1087 1297 1
1097 1297 1
595 1298 1
598 1298 1
894 1298 1
898 1298 1
1069 1298 1
1078 1298 1
1088 1298 1
1098 1298 1
596 1299 1
599 1299 1
895 1299 1
899 1299 1
1070 1299 1
1079 1299 1
1089 1299 1
1099 1299 1
597 1300 1
600 1300 1
896 1300 1
900 1300 1
1071 1300 1
1080 1300 1
1090 1300 1
1100 1300 1
601 1301 1
618 1301 1
901 1301 1
917 1301 1
1001 1301 1
1014 1301 1
1101 1301 1
1104 1301 1
602 1302 1
619 1302 1
902 1302 1
918 1302 1
1002 1302 1
1015 1302 1
1102 1302 1
1105 1302 1
603 1303 1
620 1303 1
903 1303 1
919 1303 1
1003 1303 1
1016 1303 1
1103 1303 1
1106 1303 1
601 1304 1
604 1304 1
904 1304 1
920 1304 1
1004 1304 1
1017 1304 1
1104 1304 1
1107 1304 1
602 1305 1
605 1305 1
901 1305 1
905 1305 1
1005 1305 1
1018 1305 1
1105 1305 1
1108 1305 1
603 1306 1
606 1306 1
902 1306 1
906 1306 1
1006 1306 1
1019 1306 1
1106 1306 1
1109 1306 1
604 1307 1
607 1307 1
903 1307 1
907 1307 1
1007 1307 1
1020 1307 1
1107 1307 1
1110 1307 1
605 1308 1
608 1308 1
904 1308 1
908 1308 1
1001 1308 1
1008 1308 1
1108 1308 1
1111 1308 1
606 1309 1
609 1309 1
905 1309 1
909 1309 1
1002 1309 1
1009 1309 1
1109 1309 1
1112 1309 1
607 1310 1
610 1310 1
906 1310 1
910 1310 1
1003 1310 1
1010 1310 1
1110 1310 1
1113 1310 1
608 1311 1
611 1311 1
907 1311 1
911 1311 1
1004 1311 1
1011 1311 1
1111 1311 1
1114 1311 1
609 1312 1
612 1312 1
908 1312 1
912 1312 1
1005 1312 1
1012 1312 1
1112 1312 1
1115 1312 1
610 1313 1
613 1313 1
909 1313 1
913 1313 1
1006 1313 1
1013 1313 1
1113 1313 1
1116 1313 1
611 1314 1
614 1314 1
910 1314 1
914 1314 1
1007 1314 1
1014 1314 1
1114 1314 1
1117 1314 1
612 1315 1
615 1315 1
911 1315 1
915 1315 1
1008 1315 1
1015 1315 1
1115 1315 1
1118 1315 1
613 1316 1
616 1316 1
912 1316 1
916 1316 1
1009 1316 1
1016 1316 1
1116 1316 1
1119 1316 1
614 1317 1
617 1317 1
913 1317 1
917 1317 1
1010 1317 1
1017 1317 1
1117 1317 1
1120 1317 1
615 1318 1
618 1318 1
914 1318 1
918 1318 1
1011 1318 1
1018 1318 1
1101 1318 1
1118 1318 1
616 1319 1
619 1319 1
915 1319 1
919 1319 1
1012 1319 1
1019 1319 1
1102 1319 1
1119 1319 1
617 1320 1
620 1320 1
916 1320 1
920 1320 1
1013 1320 1
1020 1320 1
1103 1320 1
1120 1320 1
621 1321 1
638 1321 1
921 1321 1
937 1321 1
1021 1321 1
1034 1321 1
1101 1321 1
1107 1321 1
622 1322 1
639 1322 1
922 1322 1
938 1322 1
1022 1322 1
1035 1322 1
1102 1322 1
1108 1322 1
623 1323 1
640 1323 1
923 1323 1
939 1323 1
1023 1323 1
1036 1323 1
1103 1323 1
1109 1323 1
621 1324 1
624 1324 1
924 1324 1
940 1324 1
1024 1324 1
1037 1324 1
1104 1324 1
1110 1324 1
622 1325 1
625 1325 1
921 1325 1
925 1325 1
1025 1325 1
1038 1325 1
1105 1325 1
1111 1325 1
623 1326 1
626 1326 1
922 1326 1
926 1326 1
1026 1326 1
1039 1326 1
1106 1326 1
1112 1326 1
624 1327 1
627 1327 1
923 1327 1
927 1327 1
1027 1327 1
1040 1327 1
1107 1327 1
1113 1327 1
625 1328 1
628 1328 1
924 1328 1
928 1328 1
1021 1328 1
1028 1328 1
1108 1328 1
1114 1328 1
626 1329 1
629 1329 1
925 1329 1
929 1329 1
1022 1329 1
1029 1329 1
1109 1329 1
1115 1329 1
627 1330 1
630 1330 1
926 1330 1
930 1330 1
1023 1330 1
1030 1330 1
1110 1330 1
1116 1330 1
628 1331 1
631 1331 1
927 1331 1
931 1331 1
1024 1331 1
1031 1331 1
1111 1331 1
1117 1331 1
629 1332 1
632 1332 1
928 1332 1
932 1332 1
1025 1332 1
1032 1332 1
1112 1332 1
1118 1332 1
630 1333 1
633 1333 1
929 1333 1
933 1333 1
1026 1333 1
1033 1333 1
1113 1333 1
1119 1333 1
631 1334 1
634 1334 1
930 1334 1
934 1334 1
1027 1334 1
1034 1334 1
1114 1334 1
1120 1334 1
632 1335 1
635 1335 1
931 1335 1
935 1335 1
1028 1335 1
1035 1335 1
1101 1335 1
1115 1335 1
633 1336 1
636 1336 1
932 1336 1
936 1336 1
1029 1336 1
1036 1336 1
1102 1336 1
1116 1336 1
634 1337 1
637 1337 1
933 1337 1
937 1337 1
1030 1337 1
1037 1337 1
1103 1337 1
1117 1337 1
635 1338 1
638 1338 1
934 1338 1
938 1338 1
1031 1338 1
1038 1338 1
1104 1338 1
1118 1338 1
636 1339 1
639 1339 1
935 1339 1
939 1339 1
1032 1339 1
1039 1339 1
1105 1339 1
1119 1339 1
637 1340 1
640 1340 1
936 1340 1
940 1340 1
1033 1340 1
1040 1340 1
1106 1340 1
1120 1340 1
641 1341 1
658 1341 1
941 1341 1
957 1341 1
1041 1341 1
1054 1341 1
1101 1341 1
1110 1341 1
642 1342 1
659 1342 1
942 1342 1
958 1342 1
1042 1342 1
1055 1342 1
1102 1342 1
1111 1342 1
643 1343 1
660 1343 1
943 1343 1
959 1343 1
1043 1343 1
1056 1343 1
1103 1343 1
1112 1343 1
641 1344 1
644 1344 1
944 1344 1
960 1344 1
1044 1344 1
1057 1344 1
1104 1344 1
1113 1344 1
642 1345 1
645 1345 1
941 1345 1
945 1345 1
1045 1345 1
1058 1345 1
1105 1345 1
1114 1345 1
643 1346 1
646 1346 1
942 1346 1
946 1346 1
1046 1346 1
1059 1346 1
1106 1346 1
1115 1346 1
644 1347 1
647 1347 1
943 1347 1
947 1347 1
1047 1347 1
1060 1347 1
1107 1347 1
1116 1347 1
645 1348 1
648 1348 1
944 1348 1
948 1348 1
1041 1348 1
1048 1348 1
1108 1348 1
1117 1348 1
646 1349 1
649 1349 1
945 1349 1
949 1349 1
1042 1349 1
1049 1349 1
1109 1349 1
1118 1349 1
647 1350 1
650 1350 1
946 1350 1
950 1350 1
1043 1350 1
1050 1350 1
1110 1350 1
1119 1350 1
648 1351 1
651 1351 1
947 1351 1
951 1351 1
1044 1351 1
1051 1351 1
1111 1351 1
1120 1351 1
649 1352 1
652 1352 1
948 1352 1
952 1352 1
1045 1352 1
1052 1352 1
1101 1352 1
1112 1352 1
650 1353 1
653 1353 1
949 1353 1
953 1353 1
1046 1353 1
1053 1353 1
1102 1353 1
1113 1353 1
651 1354 1
654 1354 1
950 1354 1
954 1354 1
1047 1354 1
1054 1354 1
1103 1354 1
1114 1354 1
652 1355 1
655 1355 1
951 1355 1
955 1355 1
1048 1355 1
1055 1355 1
1104 1355 1
1115 1355 1
653 1356 1
656 1356 1
952 1356 1
956 1356 1
1049 1356 1
1056 1356 1
1105 1356 1
1116 1356 1
654 1357 1
657 1357 1
953 1357 1
957 1357 1
1050 1357 1
1057 1357 1
1106 1357 1
1117 1357 1
655 1358 1
658 1358 1
954 1358 1
958 1358 1
1051 1358 1
1058 1358 1
1107 1358 1
1118 1358 1
656 1359 1
659 1359 1
955 1359 1
959 1359 1
1052 1359 1
1059 1359 1
1108 1359 1
1119 1359 1
657 1360 1
660 1360 1
956 1360 1
960 1360 1
1053 1360 1
1060 1360 1
1109 1360 1
1120 1360 1
661 1361 1
678 1361 1
961 1361 1
977 1361 1
1061 1361 1
1074 1361 1
1101 1361 1
1111 1361 1
662 1362 1
679 1362 1
962 1362 1
978 1362 1
1062 1362 1
1075 1362 1
1102 1362 1
1112 1362 1
663 1363 1
680 1363 1
963 1363 1
979 1363 1
1063 1363 1
1076 1363 1
1103 1363 1
1113 1363 1
661 1364 1
664 1364 1
964 1364 1
980 1364 1
1064 1364 1
1077 1364 1
1104 1364 1
1114 1364 1
662 1365 1
665 1365 1
961 1365 1
965 1365 1
1065 1365 1
1078 1365 1
1105 1365 1
1115 1365 1
663 1366 1
666 1366 1
962 1366 1
966 1366 1
1066 1366 1
1079 1366 1
1106 1366 1
1116 1366 1
664 1367 1
667 1367 1
963 1367 1
967 1367 1
1067 1367 1
1080 1367 1
1107 1367 1
1117 1367 1
665 1368 1
668 1368 1
964 1368 1
968 1368 1
1061 1368 1
1068 1368 1
1108 1368 1
1118 1368 1
666 1369 1
669 1369 1
965 1369 1
969 1369 1
1062 1369 1
1069 1369 1
1109 1369 1
1119 1369 1
667 1370 1
670 1370 1
966 1370 1
970 1370 1
1063 1370 1
1070 1370 1
1110 1370 1
1120 1370 1
668 1371 1
671 1371 1
967 1371 1
971 1371 1
1064 1371 1
1071 1371 1
1101 1371 1
1111 1371 1
669 1372 1
672 1372 1
968 1372 1
972 1372 1
1065 1372 1
1072 1372 1
1102 1372 1
1112 1372 1
670 1373 1
673 1373 1
969 1373 1
973 1373 1
1066 1373 1
1073 1373 1
1103 1373 1
1113 1373 1
671 1374 1
674 1374 1
970 1374 1
974 1374 1
1067 1374 1
1074 1374 1
1104 1374 1
1114 1374 1
672 1375 1
675 1375 1
971 1375 1
975 1375 1
1068 1375 1
1075 1375 1
1105 1375 1
1115 1375 1
673 1376 1
676 1376 1
972 1376 1
976 1376 1
1069 1376 1
1076 1376 1
1106 1376 1
1116 1376 1
674 1377 1
677 1377 1
973 1377 1
977 1377 1
1070 1377 1
1077 1377 1
1107 1377 1
1117 1377 1
675 1378 1
678 1378 1
974 1378 1
978 1378 1
1071 1378 1
1078 1378 1
1108 1378 1
1118 1378 1
676 1379 1
679 1379 1
975 1379 1
979 1379 1
1072 1379 1
1079 1379 1
1109 1379 1
1119 1379 1
677 1380 1
680 1380 1
976 1380 1
980 1380 1
1073 1380 1
1080 1380 1
1110 1380 1
1120 1380 1
681 1381 1
698 1381 1
981 1381 1
997 1381 1
1081 1381 1
1094 1381 1
1101 1381 1
1112 1381 1
682 1382 1
699 1382 1
982 1382 1
998 1382 1
1082 1382 1
1095 1382 1
1102 1382 1
1113 1382 1
683 1383 1
700 1383 1
983 1383 1
999 1383 1
1083 1383 1
1096 1383 1
1103 1383 1
1114 1383 1
681 1384 1
684 1384 1
984 1384 1
1000 1384 1
1084 1384 1
1097 1384 1
1104 1384 1
1115 1384 1
682 1385 1
685 1385 1
981 1385 1
985 1385 1
1085 1385 1
1098 1385 1
1105 1385 1
1116 1385 1
683 1386 1
686 1386 1
982 1386 1
986 1386 1
1086 1386 1
1099 1386 1
1106 1386 1
1117 1386 1
684 1387 1
687 1387 1
983 1387 1
987 1387 1
1087 1387 1
1100 1387 1
1107 1387 1
1118 1387 1
685 1388 1
688 1388 1
984 1388 1
988 1388 1
1081 1388 1
1088 1388 1
1108 1388 1
1119 1388 1
686 1389 1
689 1389 1
985 1389 1
989 1389 1
1082 1389 1
1089 1389 1
1109 1389 1
1120 1389 1
687 1390 1
690 1390 1
986 1390 1
990 1390 1
1083 1390 1
1090 1390 1
1101 1390 1
1110 1390 1
688 1391 1
691 1391 1
987 1391 1
991 1391 1
1084 1391 1
1091 1391 1
1102 1391 1
1111 1391 1
689 1392 1
692 1392 1
988 1392 1
992 1392 1
1085 1392 1
1092 1392 1
1103 1392 1
1112 1392 1
690 1393 1
693 1393 1
989 1393 1
993 1393 1
1086 1393 1
1093 1393 1
1104 1393 1
1113 1393 1
691 1394 1
694 1394 1
990 1394 1
994 1394 1
1087 1394 1
1094 1394 1
1105 1394 1
1114 1394 1
692 1395 1
695 1395 1
991 1395 1
995 1395 1
1088 1395 1
1095 1395 1
1106 1395 1
1115 1395 1
693 1396 1
696 1396 1
992 1396 1
996 1396 1
1089 1396 1
1096 1396 1
1107 1396 1
1116 1396 1
694 1397 1
697 1397 1
993 1397 1
997 1397 1
1090 1397 1
1097 1397 1
1108 1397 1
1117 1397 1
695 1398 1
698 1398 1
994 1398 1
998 1398 1
1091 1398 1
1098 1398 1
1109 1398 1
1118 1398 1
696 1399 1
699 1399 1
995 1399 1
999 1399 1
1092 1399 1
1099 1399 1
1110 1399 1
1119 1399 1
697 1400 1
700 1400 1
996 1400 1
1000 1400 1
1093 1400 1
1100 1400 1
1111 1400 1
1120 1400 1
