%%MatrixMarket matrix coordinate integer general
% Binary matrix; one-based indices; arithmetic over GF(2)
284 426 1704
1 1 1
43 1 1
72 1 1
108 1 1
2 2 1
44 2 1
73 2 1
109 2 1
3 3 1
45 3 1
74 3 1
110 3 1
4 4 1
46 4 1
75 4 1
111 4 1
5 5 1
47 5 1
76 5 1
112 5 1
6 6 1
48 6 1
77 6 1
113 6 1
7 7 1
49 7 1
78 7 1
114 7 1
8 8 1
50 8 1
79 8 1
115 8 1
9 9 1
51 9 1
80 9 1
116 9 1
10 10 1
52 10 1
81 10 1
117 10 1
11 11 1
53 11 1
82 11 1
118 11 1
12 12 1
54 12 1
83 12 1
119 12 1
13 13 1
55 13 1
84 13 1
120 13 1
14 14 1
56 14 1
85 14 1
121 14 1
15 15 1
57 15 1
86 15 1
122 15 1
16 16 1
58 16 1
87 16 1
123 16 1
17 17 1
59 17 1
88 17 1
124 17 1
18 18 1
60 18 1
89 18 1
125 18 1
19 19 1
61 19 1
90 19 1
126 19 1
20 20 1
62 20 1
91 20 1
127 20 1
21 21 1
63 21 1
92 21 1
128 21 1
22 22 1
64 22 1
93 22 1
129 22 1
23 23 1
65 23 1
94 23 1
130 23 1
24 24 1
66 24 1
95 24 1
131 24 1
25 25 1
67 25 1
96 25 1
132 25 1
26 26 1
68 26 1
97 26 1
133 26 1
27 27 1
69 27 1
98 27 1
134 27 1
28 28 1
70 28 1
99 28 1
135 28 1
29 29 1
71 29 1
100 29 1
136 29 1
1 30 1
30 30 1
101 30 1
137 30 1
2 31 1
31 31 1
102 31 1
138 31 1
3 32 1
32 32 1
103 32 1
139 32 1
4 33 1
33 33 1
104 33 1
140 33 1
5 34 1
34 34 1
105 34 1
141 34 1
6 35 1
35 35 1
106 35 1
142 35 1
7 36 1
36 36 1
72 36 1
107 36 1
8 37 1
37 37 1
73 37 1
108 37 1
9 38 1
38 38 1
74 38 1
109 38 1
10 39 1
39 39 1
75 39 1
110 39 1
11 40 1
40 40 1
76 40 1
111 40 1
12 41 1
41 41 1
77 41 1
112 41 1
13 42 1
42 42 1
78 42 1
113 42 1
14 43 1
43 43 1
79 43 1
114 43 1
15 44 1
44 44 1
80 44 1
115 44 1
16 45 1
45 45 1
81 45 1
116 45 1
17 46 1
46 46 1
82 46 1
117 46 1
18 47 1
47 47 1
83 47 1
118 47 1
19 48 1
48 48 1
84 48 1
119 48 1
20 49 1
49 49 1
85 49 1
120 49 1
21 50 1
50 50 1
86 50 1
121 50 1
22 51 1
51 51 1
87 51 1
122 51 1
23 52 1
52 52 1
88 52 1
123 52 1
24 53 1
53 53 1
89 53 1
124 53 1
25 54 1
54 54 1
90 54 1
125 54 1
26 55 1
55 55 1
91 55 1
126 55 1
27 56 1
56 56 1
92 56 1
127 56 1
28 57 1
57 57 1
93 57 1
128 57 1
29 58 1
58 58 1
94 58 1
129 58 1
30 59 1
59 59 1
95 59 1
130 59 1
31 60 1
60 60 1
96 60 1
131 60 1
32 61 1
61 61 1
97 61 1
132 61 1
33 62 1
62 62 1
98 62 1
133 62 1
34 63 1
63 63 1
99 63 1
134 63 1
35 64 1
64 64 1
100 64 1
135 64 1
36 65 1
65 65 1
101 65 1
136 65 1
37 66 1
66 66 1
102 66 1
137 66 1
38 67 1
67 67 1
103 67 1
138 67 1
39 68 1
68 68 1
104 68 1
139 68 1
40 69 1
69 69 1
105 69 1
140 69 1
41 70 1
70 70 1
106 70 1
141 70 1
42 71 1
71 71 1
107 71 1
142 71 1
1 72 1
53 72 1
143 72 1
179 72 1
2 73 1
54 73 1
144 73 1
180 73 1
3 74 1
55 74 1
145 74 1
181 74 1
4 75 1
56 75 1
146 75 1
182 75 1
5 76 1
57 76 1
147 76 1
183 76 1
6 77 1
58 77 1
148 77 1
184 77 1
7 78 1
59 78 1
149 78 1
185 78 1
8 79 1
60 79 1
150 79 1
186 79 1
9 80 1
61 80 1
151 80 1
187 80 1
10 81 1
62 81 1
152 81 1
188 81 1
11 82 1
63 82 1
153 82 1
189 82 1
12 83 1
64 83 1
154 83 1
190 83 1
13 84 1
65 84 1
155 84 1
191 84 1
14 85 1
66 85 1
156 85 1
192 85 1
15 86 1
67 86 1
157 86 1
193 86 1
16 87 1
68 87 1
158 87 1
194 87 1
17 88 1
69 88 1
159 88 1
195 88 1
18 89 1
70 89 1
160 89 1
196 89 1
19 90 1
71 90 1
161 90 1
197 90 1
1 91 1
20 91 1
162 91 1
198 91 1
2 92 1
21 92 1
163 92 1
199 92 1
3 93 1
22 93 1
164 93 1
200 93 1
4 94 1
23 94 1
165 94 1
201 94 1
5 95 1
24 95 1
166 95 1
202 95 1
6 96 1
25 96 1
167 96 1
203 96 1
7 97 1
26 97 1
168 97 1
204 97 1
8 98 1
27 98 1
169 98 1
205 98 1
9 99 1
28 99 1
170 99 1
206 99 1
10 100 1
29 100 1
171 100 1
207 100 1
11 101 1
30 101 1
172 101 1
208 101 1
12 102 1
31 102 1
173 102 1
209 102 1
13 103 1
32 103 1
174 103 1
210 103 1
14 104 1
33 104 1
175 104 1
211 104 1
15 105 1
34 105 1
176 105 1
212 105 1
16 106 1
35 106 1
177 106 1
213 106 1
17 107 1
36 107 1
143 107 1
178 107 1
18 108 1
37 108 1
144 108 1
179 108 1
19 109 1
38 109 1
145 109 1
180 109 1
20 110 1
39 110 1
146 110 1
181 110 1
21 111 1
40 111 1
147 111 1
182 111 1
22 112 1
41 112 1
148 112 1
183 112 1
23 113 1
42 113 1
149 113 1
184 113 1
24 114 1
43 114 1
150 114 1
185 114 1
25 115 1
44 115 1
151 115 1
186 115 1
26 116 1
45 116 1
152 116 1
187 116 1
27 117 1
46 117 1
153 117 1
188 117 1
28 118 1
47 118 1
154 118 1
189 118 1
29 119 1
48 119 1
155 119 1
190 119 1
30 120 1
49 120 1
156 120 1
191 120 1
31 121 1
50 121 1
157 121 1
192 121 1
32 122 1
51 122 1
158 122 1
193 122 1
33 123 1
52 123 1
159 123 1
194 123 1
34 124 1
53 124 1
160 124 1
195 124 1
35 125 1
54 125 1
161 125 1
196 125 1
36 126 1
55 126 1
162 126 1
197 126 1
37 127 1
56 127 1
163 127 1
198 127 1
38 128 1
57 128 1
164 128 1
199 128 1
39 129 1
58 129 1
165 129 1
200 129 1
40 130 1
59 130 1
166 130 1
201 130 1
41 131 1
60 131 1
167 131 1
202 131 1
42 132 1
61 132 1
168 132 1
203 132 1
43 133 1
62 133 1
169 133 1
204 133 1
44 134 1
63 134 1
170 134 1
205 134 1
45 135 1
64 135 1
171 135 1
206 135 1
46 136 1
65 136 1
172 136 1
207 136 1
47 137 1
66 137 1
173 137 1
208 137 1
48 138 1
67 138 1
174 138 1
209 138 1
49 139 1
68 139 1
175 139 1
210 139 1
50 140 1
69 140 1
176 140 1
211 140 1
51 141 1
70 141 1
177 141 1
212 141 1
52 142 1
71 142 1
178 142 1
213 142 1
72 143 1
124 143 1
143 143 1
185 143 1
73 144 1
125 144 1
144 144 1
186 144 1
74 145 1
126 145 1
145 145 1
187 145 1
75 146 1
127 146 1
146 146 1
188 146 1
76 147 1
128 147 1
147 147 1
189 147 1
77 148 1
129 148 1
148 148 1
190 148 1
78 149 1
130 149 1
149 149 1
191 149 1
79 150 1
131 150 1
150 150 1
192 150 1
80 151 1
132 151 1
151 151 1
193 151 1
81 152 1
133 152 1
152 152 1
194 152 1
82 153 1
134 153 1
153 153 1
195 153 1
83 154 1
135 154 1
154 154 1
196 154 1
84 155 1
136 155 1
155 155 1
197 155 1
85 156 1
137 156 1
156 156 1
198 156 1
86 157 1
138 157 1
157 157 1
199 157 1
87 158 1
139 158 1
158 158 1
200 158 1
88 159 1
140 159 1
159 159 1
201 159 1
89 160 1
141 160 1
160 160 1
202 160 1
90 161 1
142 161 1
161 161 1
203 161 1
72 162 1
91 162 1
162 162 1
204 162 1
73 163 1
92 163 1
163 163 1
205 163 1
74 164 1
93 164 1
164 164 1
206 164 1
75 165 1
94 165 1
165 165 1
207 165 1
76 166 1
95 166 1
166 166 1
208 166 1
77 167 1
96 167 1
167 167 1
209 167 1
78 168 1
97 168 1
168 168 1
210 168 1
79 169 1
98 169 1
169 169 1
211 169 1
80 170 1
99 170 1
170 170 1
212 170 1
81 171 1
100 171 1
171 171 1
213 171 1
82 172 1
101 172 1
143 172 1
172 172 1
83 173 1
102 173 1
144 173 1
173 173 1
84 174 1
103 174 1
145 174 1
174 174 1
85 175 1
104 175 1
146 175 1
175 175 1
86 176 1
105 176 1
147 176 1
176 176 1
87 177 1
106 177 1
148 177 1
177 177 1
88 178 1
107 178 1
149 178 1
178 178 1
89 179 1
108 179 1
150 179 1
179 179 1
90 180 1
109 180 1
151 180 1
180 180 1
91 181 1
110 181 1
152 181 1
181 181 1
92 182 1
111 182 1
153 182 1
182 182 1
93 183 1
112 183 1
154 183 1
183 183 1
94 184 1
113 184 1
155 184 1
184 184 1
95 185 1
114 185 1
156 185 1
185 185 1
96 186 1
115 186 1
157 186 1
186 186 1
97 187 1
116 187 1
158 187 1
187 187 1
98 188 1
117 188 1
159 188 1
188 188 1
99 189 1
118 189 1
160 189 1
189 189 1
100 190 1
119 190 1
161 190 1
190 190 1
101 191 1
120 191 1
162 191 1
191 191 1
102 192 1
121 192 1
163 192 1
192 192 1
103 193 1
122 193 1
164 193 1
193 193 1
104 194 1
123 194 1
165 194 1
194 194 1
105 195 1
124 195 1
166 195 1
195 195 1
106 196 1
125 196 1
167 196 1
196 196 1
107 197 1
126 197 1
168 197 1
197 197 1
108 198 1
127 198 1
169 198 1
198 198 1
109 199 1
128 199 1
170 199 1
199 199 1
110 200 1
129 200 1
171 200 1
200 200 1
111 201 1
130 201 1
172 201 1
201 201 1
112 202 1
131 202 1
173 202 1
202 202 1
113 203 1
132 203 1
174 203 1
203 203 1
114 204 1
133 204 1
175 204 1
204 204 1
115 205 1
134 205 1
176 205 1
205 205 1
116 206 1
135 206 1
177 206 1
206 206 1
117 207 1
136 207 1
178 207 1
207 207 1
118 208 1
137 208 1
179 208 1
208 208 1
119 209 1
138 209 1
180 209 1
209 209 1
120 210 1
139 210 1
181 210 1
210 210 1
121 211 1
140 211 1
182 211 1
211 211 1
122 212 1
141 212 1
183 212 1
212 212 1
123 213 1
142 213 1
184 213 1
213 213 1
1 214 1
57 214 1
214 214 1
250 214 1
2 215 1
58 215 1
215 215 1
251 215 1
3 216 1
59 216 1
216 216 1
252 216 1
4 217 1
60 217 1
217 217 1
253 217 1
5 218 1
61 218 1
218 218 1
254 218 1
6 219 1
62 219 1
219 219 1
255 219 1
7 220 1
63 220 1
220 220 1
256 220 1
8 221 1
64 221 1
221 221 1
257 221 1
9 222 1
65 222 1
222 222 1
258 222 1
10 223 1
66 223 1
223 223 1
259 223 1
11 224 1
67 224 1
224 224 1
260 224 1
12 225 1
68 225 1
225 225 1
261 225 1
13 226 1
69 226 1
226 226 1
262 226 1
14 227 1
70 227 1
227 227 1
263 227 1
15 228 1
71 228 1
228 228 1
264 228 1
1 229 1
16 229 1
229 229 1
265 229 1
2 230 1
17 230 1
230 230 1
266 230 1
3 231 1
18 231 1
231 231 1
267 231 1
4 232 1
19 232 1
232 232 1
268 232 1
5 233 1
20 233 1
233 233 1
269 233 1
6 234 1
21 234 1
234 234 1
270 234 1
7 235 1
22 235 1
235 235 1
271 235 1
8 236 1
23 236 1
236 236 1
272 236 1
9 237 1
24 237 1
237 237 1
273 237 1
10 238 1
25 238 1
238 238 1
274 238 1
11 239 1
26 239 1
239 239 1
275 239 1
12 240 1
27 240 1
240 240 1
276 240 1
13 241 1
28 241 1
241 241 1
277 241 1
14 242 1
29 242 1
242 242 1
278 242 1
15 243 1
30 243 1
243 243 1
279 243 1
16 244 1
31 244 1
244 244 1
280 244 1
17 245 1
32 245 1
245 245 1
281 245 1
18 246 1
33 246 1
246 246 1
282 246 1
19 247 1
34 247 1
247 247 1
283 247 1
20 248 1
35 248 1
248 248 1
284 248 1
21 249 1
36 249 1
214 249 1
249 249 1
22 250 1
37 250 1
215 250 1
250 250 1
23 251 1
38 251 1
216 251 1
251 251 1
24 252 1
39 252 1
217 252 1
252 252 1
25 253 1
40 253 1
218 253 1
253 253 1
26 254 1
41 254 1
219 254 1
254 254 1
27 255 1
42 255 1
220 255 1
255 255 1
28 256 1
43 256 1
221 256 1
256 256 1
29 257 1
44 257 1
222 257 1
257 257 1
30 258 1
45 258 1
223 258 1
258 258 1
31 259 1
46 259 1
224 259 1
259 259 1
32 260 1
47 260 1
225 260 1
260 260 1
33 261 1
48 261 1
226 261 1
261 261 1
34 262 1
49 262 1
227 262 1
262 262 1
35 263 1
50 263 1
228 263 1
263 263 1
36 264 1
51 264 1
229 264 1
264 264 1
37 265 1
52 265 1
230 265 1
265 265 1
38 266 1
53 266 1
231 266 1
266 266 1
39 267 1
54 267 1
232 267 1
267 267 1
40 268 1
55 268 1
233 268 1
268 268 1
41 269 1
56 269 1
234 269 1
269 269 1
42 270 1
57 270 1
235 270 1
270 270 1
43 271 1
58 271 1
236 271 1
271 271 1
44 272 1
59 272 1
237 272 1
272 272 1
45 273 1
60 273 1
238 273 1
273 273 1
46 274 1
61 274 1
239 274 1
274 274 1
47 275 1
62 275 1
240 275 1
275 275 1
48 276 1
63 276 1
241 276 1
276 276 1
49 277 1
64 277 1
242 277 1
277 277 1
50 278 1
65 278 1
243 278 1
278 278 1
51 279 1
66 279 1
244 279 1
279 279 1
52 280 1
67 280 1
245 280 1
280 280 1
53 281 1
68 281 1
246 281 1
281 281 1
54 282 1
69 282 1
247 282 1
282 282 1
55 283 1
70 283 1
248 283 1
283 283 1
56 284 1
71 284 1
249 284 1
284 284 1
72 285 1
128 285 1
214 285 1
256 285 1
73 286 1
129 286 1
215 286 1
257 286 1
74 287 1
130 287 1
216 287 1
258 287 1
75 288 1
131 288 1
217 288 1
259 288 1
76 289 1
132 289 1
218 289 1
260 289 1
77 290 1
133 290 1
219 290 1
261 290 1
78 291 1
134 291 1
220 291 1
262 291 1
79 292 1
135 292 1
221 292 1
263 292 1
80 293 1
136 293 1
222 293 1
264 293 1
81 294 1
137 294 1
223 294 1
265 294 1
82 295 1
138 295 1
224 295 1
266 295 1
83 296 1
139 296 1
225 296 1
267 296 1
84 297 1
140 297 1
226 297 1
268 297 1
85 298 1
141 298 1
227 298 1
269 298 1
86 299 1
142 299 1
228 299 1
270 299 1
72 300 1
87 300 1
229 300 1
271 300 1
73 301 1
88 301 1
230 301 1
272 301 1
74 302 1
89 302 1
231 302 1
273 302 1
75 303 1
90 303 1
232 303 1
274 303 1
76 304 1
91 304 1
233 304 1
275 304 1
77 305 1
92 305 1
234 305 1
276 305 1
78 306 1
93 306 1
235 306 1
277 306 1
79 307 1
94 307 1
236 307 1
278 307 1
80 308 1
95 308 1
237 308 1
279 308 1
81 309 1
96 309 1
238 309 1
280 309 1
82 310 1
97 310 1
239 310 1
281 310 1
83 311 1
98 311 1
240 311 1
282 311 1
84 312 1
99 312 1
241 312 1
283 312 1
85 313 1
100 313 1
242 313 1
284 313 1
86 314 1
101 314 1
214 314 1
243 314 1
87 315 1
102 315 1
215 315 1
244 315 1
88 316 1
103 316 1
216 316 1
245 316 1
89 317 1
104 317 1
217 317 1
246 317 1
90 318 1
105 318 1
218 318 1
247 318 1
91 319 1
106 319 1
219 319 1
248 319 1
92 320 1
107 320 1
220 320 1
249 320 1
93 321 1
108 321 1
221 321 1
250 321 1
94 322 1
109 322 1
222 322 1
251 322 1
95 323 1
110 323 1
223 323 1
252 323 1
96 324 1
111 324 1
224 324 1
253 324 1
97 325 1
112 325 1
225 325 1
254 325 1
98 326 1
113 326 1
226 326 1
255 326 1
99 327 1
114 327 1
227 327 1
256 327 1
100 328 1
115 328 1
228 328 1
257 328 1
101 329 1
116 329 1
229 329 1
258 329 1
102 330 1
117 330 1
230 330 1
259 330 1
103 331 1
118 331 1
231 331 1
260 331 1
104 332 1
119 332 1
232 332 1
261 332 1
105 333 1
120 333 1
233 333 1
262 333 1
106 334 1
121 334 1
234 334 1
263 334 1
107 335 1
122 335 1
235 335 1
264 335 1
108 336 1
123 336 1
236 336 1
265 336 1
109 337 1
124 337 1
237 337 1
266 337 1
110 338 1
125 338 1
238 338 1
267 338 1
111 339 1
126 339 1
239 339 1
268 339 1
112 340 1
127 340 1
240 340 1
269 340 1
113 341 1
128 341 1
241 341 1
270 341 1
114 342 1
129 342 1
242 342 1
271 342 1
115 343 1
130 343 1
243 343 1
272 343 1
116 344 1
131 344 1
244 344 1
273 344 1
117 345 1
132 345 1
245 345 1
274 345 1
118 346 1
133 346 1
246 346 1
275 346 1
119 347 1
134 347 1
247 347 1
276 347 1
120 348 1
135 348 1
248 348 1
277 348 1
121 349 1
136 349 1
249 349 1
278 349 1
122 350 1
137 350 1
250 350 1
279 350 1
123 351 1
138 351 1
251 351 1
280 351 1
124 352 1
139 352 1
252 352 1
281 352 1
125 353 1
140 353 1
253 353 1
282 353 1
126 354 1
141 354 1
254 354 1
283 354 1
127 355 1
142 355 1
255 355 1
284 355 1
143 356 1
199 356 1
214 356 1
266 356 1
144 357 1
200 357 1
215 357 1
267 357 1
145 358 1
201 358 1
216 358 1
268 358 1
146 359 1
202 359 1
217 359 1
269 359 1
147 360 1
203 360 1
218 360 1
270 360 1
148 361 1
204 361 1
219 361 1
271 361 1
149 362 1
205 362 1
220 362 1
272 362 1
150 363 1
206 363 1
221 363 1
273 363 1
151 364 1
207 364 1
222 364 1
274 364 1
152 365 1
208 365 1
223 365 1
275 365 1
153 366 1
209 366 1
224 366 1
276 366 1
154 367 1
210 367 1
225 367 1
277 367 1
155 368 1
211 368 1
226 368 1
278 368 1
156 369 1
212 369 1
227 369 1
279 369 1
157 370 1
213 370 1
228 370 1
280 370 1
143 371 1
158 371 1
229 371 1
281 371 1
144 372 1
159 372 1
230 372 1
282 372 1
145 373 1
160 373 1
231 373 1
283 373 1
146 374 1
161 374 1
232 374 1
284 374 1
147 375 1
162 375 1
214 375 1
233 375 1
148 376 1
163 376 1
215 376 1
234 376 1
149 377 1
164 377 1
216 377 1
235 377 1
150 378 1
165 378 1
217 378 1
236 378 1
151 379 1
166 379 1
218 379 1
237 379 1
152 380 1
167 380 1
219 380 1
238 380 1
153 381 1
168 381 1
220 381 1
239 381 1
154 382 1
169 382 1
221 382 1
240 382 1
155 383 1
170 383 1
222 383 1
241 383 1
156 384 1
171 384 1
223 384 1
242 384 1
157 385 1
172 385 1
224 385 1
243 385 1
158 386 1
173 386 1
225 386 1
244 386 1
159 387 1
174 387 1
226 387 1
245 387 1
160 388 1
175 388 1
227 388 1
246 388 1
161 389 1
176 389 1
228 389 1
247 389 1
162 390 1
177 390 1
229 390 1
248 390 1
163 391 1
178 391 1
230 391 1
249 391 1
164 392 1
179 392 1
231 392 1
250 392 1
165 393 1
180 393 1
232 393 1
251 393 1
166 394 1
181 394 1
233 394 1
252 394 1
167 395 1
182 395 1
234 395 1
253 395 1
168 396 1
183 396 1
235 396 1
254 396 1
169 397 1
184 397 1
236 397 1
255 397 1
170 398 1
185 398 1
237 398 1
256 398 1
171 399 1
186 399 1
238 399 1
257 399 1
172 400 1
187 400 1
239 400 1
258 400 1
173 401 1
188 401 1
240 401 1
259 401 1
174 402 1
189 402 1
241 402 1
260 402 1
175 403 1
190 403 1
242 403 1
261 403 1
176 404 1
191 404 1
243 404 1
262 404 1
177 405 1
192 405 1
244 405 1
263 405 1
178 406 1
193 406 1
245 406 1
264 406 1
179 407 1
194 407 1
246 407 1
265 407 1
180 408 1
195 408 1
247 408 1
266 408 1
181 409 1
196 409 1
248 409 1
267 409 1
182 410 1
197 410 1
249 410 1
268 410 1
183 411 1
198 411 1
250 411 1
269 411 1
184 412 1
199 412 1
251 412 1
270 412 1
185 413 1
200 413 1
252 413 1
271 413 1
186 414 1
201 414 1
253 414 1
272 414 1
187 415 1
202 415 1
254 415 1
273 415 1
188 416 1
203 416 1
255 416 1
274 416 1
189 417 1
204 417 1
256 417 1
275 417 1
190 418 1
205 418 1
257 418 1
276 418 1
191 419 1
206 419 1
258 419 1
277 419 1
192 420 1
207 420 1
259 420 1
278 420 1
193 421 1
208 421 1
260 421 1
279 421 1
194 422 1
209 422 1
261 422 1
280 422 1
195 423 1
210 423 1
262 423 1
281 423 1
196 424 1
211 424 1
263 424 1
282 424 1
197 425 1
212 425 1
264 425 1
283 425 1
198 426 1
213 426 1
265 426 1
284 426 1
