%%MatrixMarket matrix coordinate integer general
% Binary matrix; one-based indices; arithmetic over GF(2)
284 426 1704
1 1 1
20 1 1
72 1 1
87 1 1
2 2 1
21 2 1
73 2 1
88 2 1
3 3 1
22 3 1
74 3 1
89 3 1
4 4 1
23 4 1
75 4 1
90 4 1
5 5 1
24 5 1
76 5 1
91 5 1
6 6 1
25 6 1
77 6 1
92 6 1
7 7 1
26 7 1
78 7 1
93 7 1
8 8 1
27 8 1
79 8 1
94 8 1
9 9 1
28 9 1
80 9 1
95 9 1
10 10 1
29 10 1
81 10 1
96 10 1
11 11 1
30 11 1
82 11 1
97 11 1
12 12 1
31 12 1
83 12 1
98 12 1
13 13 1
32 13 1
84 13 1
99 13 1
14 14 1
33 14 1
85 14 1
100 14 1
15 15 1
34 15 1
86 15 1
101 15 1
16 16 1
35 16 1
87 16 1
102 16 1
17 17 1
36 17 1
88 17 1
103 17 1
18 18 1
37 18 1
89 18 1
104 18 1
19 19 1
38 19 1
90 19 1
105 19 1
20 20 1
39 20 1
91 20 1
106 20 1
21 21 1
40 21 1
92 21 1
107 21 1
22 22 1
41 22 1
93 22 1
108 22 1
23 23 1
42 23 1
94 23 1
109 23 1
24 24 1
43 24 1
95 24 1
110 24 1
25 25 1
44 25 1
96 25 1
111 25 1
26 26 1
45 26 1
97 26 1
112 26 1
27 27 1
46 27 1
98 27 1
113 27 1
28 28 1
47 28 1
99 28 1
114 28 1
29 29 1
48 29 1
100 29 1
115 29 1
30 30 1
49 30 1
101 30 1
116 30 1
31 31 1
50 31 1
102 31 1
117 31 1
32 32 1
51 32 1
103 32 1
118 32 1
33 33 1
52 33 1
104 33 1
119 33 1
34 34 1
53 34 1
105 34 1
120 34 1
35 35 1
54 35 1
106 35 1
121 35 1
36 36 1
55 36 1
107 36 1
122 36 1
37 37 1
56 37 1
108 37 1
123 37 1
38 38 1
57 38 1
109 38 1
124 38 1
39 39 1
58 39 1
110 39 1
125 39 1
40 40 1
59 40 1
111 40 1
126 40 1
41 41 1
60 41 1
112 41 1
127 41 1
42 42 1
61 42 1
113 42 1
128 42 1
43 43 1
62 43 1
114 43 1
129 43 1
44 44 1
63 44 1
115 44 1
130 44 1
45 45 1
64 45 1
116 45 1
131 45 1
46 46 1
65 46 1
117 46 1
132 46 1
47 47 1
66 47 1
118 47 1
133 47 1
48 48 1
67 48 1
119 48 1
134 48 1
49 49 1
68 49 1
120 49 1
135 49 1
50 50 1
69 50 1
121 50 1
136 50 1
51 51 1
70 51 1
122 51 1
137 51 1
52 52 1
71 52 1
123 52 1
138 52 1
1 53 1
53 53 1
124 53 1
139 53 1
2 54 1
54 54 1
125 54 1
140 54 1
3 55 1
55 55 1
126 55 1
141 55 1
4 56 1
56 56 1
127 56 1
142 56 1
5 57 1
57 57 1
72 57 1
128 57 1
6 58 1
58 58 1
73 58 1
129 58 1
7 59 1
59 59 1
74 59 1
130 59 1
8 60 1
60 60 1
75 60 1
131 60 1
9 61 1
61 61 1
76 61 1
132 61 1
10 62 1
62 62 1
77 62 1
133 62 1
11 63 1
63 63 1
78 63 1
134 63 1
12 64 1
64 64 1
79 64 1
135 64 1
13 65 1
65 65 1
80 65 1
136 65 1
14 66 1
66 66 1
81 66 1
137 66 1
15 67 1
67 67 1
82 67 1
138 67 1
16 68 1
68 68 1
83 68 1
139 68 1
17 69 1
69 69 1
84 69 1
140 69 1
18 70 1
70 70 1
85 70 1
141 70 1
19 71 1
71 71 1
86 71 1
142 71 1
1 72 1
30 72 1
143 72 1
158 72 1
2 73 1
31 73 1
144 73 1
159 73 1
3 74 1
32 74 1
145 74 1
160 74 1
4 75 1
33 75 1
146 75 1
161 75 1
5 76 1
34 76 1
147 76 1
162 76 1
6 77 1
35 77 1
148 77 1
163 77 1
7 78 1
36 78 1
149 78 1
164 78 1
8 79 1
37 79 1
150 79 1
165 79 1
9 80 1
38 80 1
151 80 1
166 80 1
10 81 1
39 81 1
152 81 1
167 81 1
11 82 1
40 82 1
153 82 1
168 82 1
12 83 1
41 83 1
154 83 1
169 83 1
13 84 1
42 84 1
155 84 1
170 84 1
14 85 1
43 85 1
156 85 1
171 85 1
15 86 1
44 86 1
157 86 1
172 86 1
16 87 1
45 87 1
158 87 1
173 87 1
17 88 1
46 88 1
159 88 1
174 88 1
18 89 1
47 89 1
160 89 1
175 89 1
19 90 1
48 90 1
161 90 1
176 90 1
20 91 1
49 91 1
162 91 1
177 91 1
21 92 1
50 92 1
163 92 1
178 92 1
22 93 1
51 93 1
164 93 1
179 93 1
23 94 1
52 94 1
165 94 1
180 94 1
24 95 1
53 95 1
166 95 1
181 95 1
25 96 1
54 96 1
167 96 1
182 96 1
26 97 1
55 97 1
168 97 1
183 97 1
27 98 1
56 98 1
169 98 1
184 98 1
28 99 1
57 99 1
170 99 1
185 99 1
29 100 1
58 100 1
171 100 1
186 100 1
30 101 1
59 101 1
172 101 1
187 101 1
31 102 1
60 102 1
173 102 1
188 102 1
32 103 1
61 103 1
174 103 1
189 103 1
33 104 1
62 104 1
175 104 1
190 104 1
34 105 1
63 105 1
176 105 1
191 105 1
35 106 1
64 106 1
177 106 1
192 106 1
36 107 1
65 107 1
178 107 1
193 107 1
37 108 1
66 108 1
179 108 1
194 108 1
38 109 1
67 109 1
180 109 1
195 109 1
39 110 1
68 110 1
181 110 1
196 110 1
40 111 1
69 111 1
182 111 1
197 111 1
41 112 1
70 112 1
183 112 1
198 112 1
42 113 1
71 113 1
184 113 1
199 113 1
1 114 1
43 114 1
185 114 1
200 114 1
2 115 1
44 115 1
186 115 1
201 115 1
3 116 1
45 116 1
187 116 1
202 116 1
4 117 1
46 117 1
188 117 1
203 117 1
5 118 1
47 118 1
189 118 1
204 118 1
6 119 1
48 119 1
190 119 1
205 119 1
7 120 1
49 120 1
191 120 1
206 120 1
8 121 1
50 121 1
192 121 1
207 121 1
9 122 1
51 122 1
193 122 1
208 122 1
10 123 1
52 123 1
194 123 1
209 123 1
11 124 1
53 124 1
195 124 1
210 124 1
12 125 1
54 125 1
196 125 1
211 125 1
13 126 1
55 126 1
197 126 1
212 126 1
14 127 1
56 127 1
198 127 1
213 127 1
15 128 1
57 128 1
143 128 1
199 128 1
16 129 1
58 129 1
144 129 1
200 129 1
17 130 1
59 130 1
145 130 1
201 130 1
18 131 1
60 131 1
146 131 1
202 131 1
19 132 1
61 132 1
147 132 1
203 132 1
20 133 1
62 133 1
148 133 1
204 133 1
21 134 1
63 134 1
149 134 1
205 134 1
22 135 1
64 135 1
150 135 1
206 135 1
23 136 1
65 136 1
151 136 1
207 136 1
24 137 1
66 137 1
152 137 1
208 137 1
25 138 1
67 138 1
153 138 1
209 138 1
26 139 1
68 139 1
154 139 1
210 139 1
27 140 1
69 140 1
155 140 1
211 140 1
28 141 1
70 141 1
156 141 1
212 141 1
29 142 1
71 142 1
157 142 1
213 142 1
1 143 1
36 143 1
214 143 1
229 143 1
2 144 1
37 144 1
215 144 1
230 144 1
3 145 1
38 145 1
216 145 1
231 145 1
4 146 1
39 146 1
217 146 1
232 146 1
5 147 1
40 147 1
218 147 1
233 147 1
6 148 1
41 148 1
219 148 1
234 148 1
7 149 1
42 149 1
220 149 1
235 149 1
8 150 1
43 150 1
221 150 1
236 150 1
9 151 1
44 151 1
222 151 1
237 151 1
10 152 1
45 152 1
223 152 1
238 152 1
11 153 1
46 153 1
224 153 1
239 153 1
12 154 1
47 154 1
225 154 1
240 154 1
13 155 1
48 155 1
226 155 1
241 155 1
14 156 1
49 156 1
227 156 1
242 156 1
15 157 1
50 157 1
228 157 1
243 157 1
16 158 1
51 158 1
229 158 1
244 158 1
17 159 1
52 159 1
230 159 1
245 159 1
18 160 1
53 160 1
231 160 1
246 160 1
19 161 1
54 161 1
232 161 1
247 161 1
20 162 1
55 162 1
233 162 1
248 162 1
21 163 1
56 163 1
234 163 1
249 163 1
22 164 1
57 164 1
235 164 1
250 164 1
23 165 1
58 165 1
236 165 1
251 165 1
24 166 1
59 166 1
237 166 1
252 166 1
25 167 1
60 167 1
238 167 1
253 167 1
26 168 1
61 168 1
239 168 1
254 168 1
27 169 1
62 169 1
240 169 1
255 169 1
28 170 1
63 170 1
241 170 1
256 170 1
29 171 1
64 171 1
242 171 1
257 171 1
30 172 1
65 172 1
243 172 1
258 172 1
31 173 1
66 173 1
244 173 1
259 173 1
32 174 1
67 174 1
245 174 1
260 174 1
33 175 1
68 175 1
246 175 1
261 175 1
34 176 1
69 176 1
247 176 1
262 176 1
35 177 1
70 177 1
248 177 1
263 177 1
36 178 1
71 178 1
249 178 1
264 178 1
1 179 1
37 179 1
250 179 1
265 179 1
2 180 1
38 180 1
251 180 1
266 180 1
3 181 1
39 181 1
252 181 1
267 181 1
4 182 1
40 182 1
253 182 1
268 182 1
5 183 1
41 183 1
254 183 1
269 183 1
6 184 1
42 184 1
255 184 1
270 184 1
7 185 1
43 185 1
256 185 1
271 185 1
8 186 1
44 186 1
257 186 1
272 186 1
9 187 1
45 187 1
258 187 1
273 187 1
10 188 1
46 188 1
259 188 1
274 188 1
11 189 1
47 189 1
260 189 1
275 189 1
12 190 1
48 190 1
261 190 1
276 190 1
13 191 1
49 191 1
262 191 1
277 191 1
14 192 1
50 192 1
263 192 1
278 192 1
15 193 1
51 193 1
264 193 1
279 193 1
16 194 1
52 194 1
265 194 1
280 194 1
17 195 1
53 195 1
266 195 1
281 195 1
18 196 1
54 196 1
267 196 1
282 196 1
19 197 1
55 197 1
268 197 1
283 197 1
20 198 1
56 198 1
269 198 1
284 198 1
21 199 1
57 199 1
214 199 1
270 199 1
22 200 1
58 200 1
215 200 1
271 200 1
23 201 1
59 201 1
216 201 1
272 201 1
24 202 1
60 202 1
217 202 1
273 202 1
25 203 1
61 203 1
218 203 1
274 203 1
26 204 1
62 204 1
219 204 1
275 204 1
27 205 1
63 205 1
220 205 1
276 205 1
28 206 1
64 206 1
221 206 1
277 206 1
29 207 1
65 207 1
222 207 1
278 207 1
30 208 1
66 208 1
223 208 1
279 208 1
31 209 1
67 209 1
224 209 1
280 209 1
32 210 1
68 210 1
225 210 1
281 210 1
33 211 1
69 211 1
226 211 1
282 211 1
34 212 1
70 212 1
227 212 1
283 212 1
35 213 1
71 213 1
228 213 1
284 213 1
72 214 1
101 214 1
143 214 1
162 214 1
73 215 1
102 215 1
144 215 1
163 215 1
74 216 1
103 216 1
145 216 1
164 216 1
75 217 1
104 217 1
146 217 1
165 217 1
76 218 1
105 218 1
147 218 1
166 218 1
77 219 1
106 219 1
148 219 1
167 219 1
78 220 1
107 220 1
149 220 1
168 220 1
79 221 1
108 221 1
150 221 1
169 221 1
80 222 1
109 222 1
151 222 1
170 222 1
81 223 1
110 223 1
152 223 1
171 223 1
82 224 1
111 224 1
153 224 1
172 224 1
83 225 1
112 225 1
154 225 1
173 225 1
84 226 1
113 226 1
155 226 1
174 226 1
85 227 1
114 227 1
156 227 1
175 227 1
86 228 1
115 228 1
157 228 1
176 228 1
87 229 1
116 229 1
158 229 1
177 229 1
88 230 1
117 230 1
159 230 1
178 230 1
89 231 1
118 231 1
160 231 1
179 231 1
90 232 1
119 232 1
161 232 1
180 232 1
91 233 1
120 233 1
162 233 1
181 233 1
92 234 1
121 234 1
163 234 1
182 234 1
93 235 1
122 235 1
164 235 1
183 235 1
94 236 1
123 236 1
165 236 1
184 236 1
95 237 1
124 237 1
166 237 1
185 237 1
96 238 1
125 238 1
167 238 1
186 238 1
97 239 1
126 239 1
168 239 1
187 239 1
98 240 1
127 240 1
169 240 1
188 240 1
99 241 1
128 241 1
170 241 1
189 241 1
100 242 1
129 242 1
171 242 1
190 242 1
101 243 1
130 243 1
172 243 1
191 243 1
102 244 1
131 244 1
173 244 1
192 244 1
103 245 1
132 245 1
174 245 1
193 245 1
104 246 1
133 246 1
175 246 1
194 246 1
105 247 1
134 247 1
176 247 1
195 247 1
106 248 1
135 248 1
177 248 1
196 248 1
107 249 1
136 249 1
178 249 1
197 249 1
108 250 1
137 250 1
179 250 1
198 250 1
109 251 1
138 251 1
180 251 1
199 251 1
110 252 1
139 252 1
181 252 1
200 252 1
111 253 1
140 253 1
182 253 1
201 253 1
112 254 1
141 254 1
183 254 1
202 254 1
113 255 1
142 255 1
184 255 1
203 255 1
72 256 1
114 256 1
185 256 1
204 256 1
73 257 1
115 257 1
186 257 1
205 257 1
74 258 1
116 258 1
187 258 1
206 258 1
75 259 1
117 259 1
188 259 1
207 259 1
76 260 1
118 260 1
189 260 1
208 260 1
77 261 1
119 261 1
190 261 1
209 261 1
78 262 1
120 262 1
191 262 1
210 262 1
79 263 1
121 263 1
192 263 1
211 263 1
80 264 1
122 264 1
193 264 1
212 264 1
81 265 1
123 265 1
194 265 1
213 265 1
82 266 1
124 266 1
143 266 1
195 266 1
83 267 1
125 267 1
144 267 1
196 267 1
84 268 1
126 268 1
145 268 1
197 268 1
85 269 1
127 269 1
146 269 1
198 269 1
86 270 1
128 270 1
147 270 1
199 270 1
87 271 1
129 271 1
148 271 1
200 271 1
88 272 1
130 272 1
149 272 1
201 272 1
89 273 1
131 273 1
150 273 1
202 273 1
90 274 1
132 274 1
151 274 1
203 274 1
91 275 1
133 275 1
152 275 1
204 275 1
92 276 1
134 276 1
153 276 1
205 276 1
93 277 1
135 277 1
154 277 1
206 277 1
94 278 1
136 278 1
155 278 1
207 278 1
95 279 1
137 279 1
156 279 1
208 279 1
96 280 1
138 280 1
157 280 1
209 280 1
97 281 1
139 281 1
158 281 1
210 281 1
98 282 1
140 282 1
159 282 1
211 282 1
99 283 1
141 283 1
160 283 1
212 283 1
100 284 1
142 284 1
161 284 1
213 284 1
72 285 1
107 285 1
214 285 1
233 285 1
73 286 1
108 286 1
215 286 1
234 286 1
74 287 1
109 287 1
216 287 1
235 287 1
75 288 1
110 288 1
217 288 1
236 288 1
76 289 1
111 289 1
218 289 1
237 289 1
77 290 1
112 290 1
219 290 1
238 290 1
78 291 1
113 291 1
220 291 1
239 291 1
79 292 1
114 292 1
221 292 1
240 292 1
80 293 1
115 293 1
222 293 1
241 293 1
81 294 1
116 294 1
223 294 1
242 294 1
82 295 1
117 295 1
224 295 1
243 295 1
83 296 1
118 296 1
225 296 1
244 296 1
84 297 1
119 297 1
226 297 1
245 297 1
85 298 1
120 298 1
227 298 1
246 298 1
86 299 1
121 299 1
228 299 1
247 299 1
87 300 1
122 300 1
229 300 1
248 300 1
88 301 1
123 301 1
230 301 1
249 301 1
89 302 1
124 302 1
231 302 1
250 302 1
90 303 1
125 303 1
232 303 1
251 303 1
91 304 1
126 304 1
233 304 1
252 304 1
92 305 1
127 305 1
234 305 1
253 305 1
93 306 1
128 306 1
235 306 1
254 306 1
94 307 1
129 307 1
236 307 1
255 307 1
95 308 1
130 308 1
237 308 1
256 308 1
96 309 1
131 309 1
238 309 1
257 309 1
97 310 1
132 310 1
239 310 1
258 310 1
98 311 1
133 311 1
240 311 1
259 311 1
99 312 1
134 312 1
241 312 1
260 312 1
100 313 1
135 313 1
242 313 1
261 313 1
101 314 1
136 314 1
243 314 1
262 314 1
102 315 1
137 315 1
244 315 1
263 315 1
103 316 1
138 316 1
245 316 1
264 316 1
104 317 1
139 317 1
246 317 1
265 317 1
105 318 1
140 318 1
247 318 1
266 318 1
106 319 1
141 319 1
248 319 1
267 319 1
107 320 1
142 320 1
249 320 1
268 320 1
72 321 1
108 321 1
250 321 1
269 321 1
73 322 1
109 322 1
251 322 1
270 322 1
74 323 1
110 323 1
252 323 1
271 323 1
75 324 1
111 324 1
253 324 1
272 324 1
76 325 1
112 325 1
254 325 1
273 325 1
77 326 1
113 326 1
255 326 1
274 326 1
78 327 1
114 327 1
256 327 1
275 327 1
79 328 1
115 328 1
257 328 1
276 328 1
80 329 1
116 329 1
258 329 1
277 329 1
81 330 1
117 330 1
259 330 1
278 330 1
82 331 1
118 331 1
260 331 1
279 331 1
83 332 1
119 332 1
261 332 1
280 332 1
84 333 1
120 333 1
262 333 1
281 333 1
85 334 1
121 334 1
263 334 1
282 334 1
86 335 1
122 335 1
264 335 1
283 335 1
87 336 1
123 336 1
265 336 1
284 336 1
88 337 1
124 337 1
214 337 1
266 337 1
89 338 1
125 338 1
215 338 1
267 338 1
90 339 1
126 339 1
216 339 1
268 339 1
91 340 1
127 340 1
217 340 1
269 340 1
92 341 1
128 341 1
218 341 1
270 341 1
93 342 1
129 342 1
219 342 1
271 342 1
94 343 1
130 343 1
220 343 1
272 343 1
95 344 1
131 344 1
221 344 1
273 344 1
96 345 1
132 345 1
222 345 1
274 345 1
97 346 1
133 346 1
223 346 1
275 346 1
98 347 1
134 347 1
224 347 1
276 347 1
99 348 1
135 348 1
225 348 1
277 348 1
100 349 1
136 349 1
226 349 1
278 349 1
101 350 1
137 350 1
227 350 1
279 350 1
102 351 1
138 351 1
228 351 1
280 351 1
103 352 1
139 352 1
229 352 1
281 352 1
104 353 1
140 353 1
230 353 1
282 353 1
105 354 1
141 354 1
231 354 1
283 354 1
106 355 1
142 355 1
232 355 1
284 355 1
143 356 1
178 356 1
214 356 1
243 356 1
144 357 1
179 357 1
215 357 1
244 357 1
145 358 1
180 358 1
216 358 1
245 358 1
146 359 1
181 359 1
217 359 1
246 359 1
147 360 1
182 360 1
218 360 1
247 360 1
148 361 1
183 361 1
219 361 1
248 361 1
149 362 1
184 362 1
220 362 1
249 362 1
150 363 1
185 363 1
221 363 1
250 363 1
151 364 1
186 364 1
222 364 1
251 364 1
152 365 1
187 365 1
223 365 1
252 365 1
153 366 1
188 366 1
224 366 1
253 366 1
154 367 1
189 367 1
225 367 1
254 367 1
155 368 1
190 368 1
226 368 1
255 368 1
156 369 1
191 369 1
227 369 1
256 369 1
157 370 1
192 370 1
228 370 1
257 370 1
158 371 1
193 371 1
229 371 1
258 371 1
159 372 1
194 372 1
230 372 1
259 372 1
160 373 1
195 373 1
231 373 1
260 373 1
161 374 1
196 374 1
232 374 1
261 374 1
162 375 1
197 375 1
233 375 1
262 375 1
163 376 1
198 376 1
234 376 1
263 376 1
164 377 1
199 377 1
235 377 1
264 377 1
165 378 1
200 378 1
236 378 1
265 378 1
166 379 1
201 379 1
237 379 1
266 379 1
167 380 1
202 380 1
238 380 1
267 380 1
168 381 1
203 381 1
239 381 1
268 381 1
169 382 1
204 382 1
240 382 1
269 382 1
170 383 1
205 383 1
241 383 1
270 383 1
171 384 1
206 384 1
242 384 1
271 384 1
172 385 1
207 385 1
243 385 1
272 385 1
173 386 1
208 386 1
244 386 1
273 386 1
174 387 1
209 387 1
245 387 1
274 387 1
175 388 1
210 388 1
246 388 1
275 388 1
176 389 1
211 389 1
247 389 1
276 389 1
177 390 1
212 390 1
248 390 1
277 390 1
178 391 1
213 391 1
249 391 1
278 391 1
143 392 1
179 392 1
250 392 1
279 392 1
144 393 1
180 393 1
251 393 1
280 393 1
145 394 1
181 394 1
252 394 1
281 394 1
146 395 1
182 395 1
253 395 1
282 395 1
147 396 1
183 396 1
254 396 1
283 396 1
148 397 1
184 397 1
255 397 1
284 397 1
149 398 1
185 398 1
214 398 1
256 398 1
150 399 1
186 399 1
215 399 1
257 399 1
151 400 1
187 400 1
216 400 1
258 400 1
152 401 1
188 401 1
217 401 1
259 401 1
153 402 1
189 402 1
218 402 1
260 402 1
154 403 1
190 403 1
219 403 1
261 403 1
155 404 1
191 404 1
220 404 1
262 404 1
156 405 1
192 405 1
221 405 1
263 405 1
157 406 1
193 406 1
222 406 1
264 406 1
158 407 1
194 407 1
223 407 1
265 407 1
159 408 1
195 408 1
224 408 1
266 408 1
160 409 1
196 409 1
225 409 1
267 409 1
161 410 1
197 410 1
226 410 1
268 410 1
162 411 1
198 411 1
227 411 1
269 411 1
163 412 1
199 412 1
228 412 1
270 412 1
164 413 1
200 413 1
229 413 1
271 413 1
165 414 1
201 414 1
230 414 1
272 414 1
166 415 1
202 415 1
231 415 1
273 415 1
167 416 1
203 416 1
232 416 1
274 416 1
168 417 1
204 417 1
233 417 1
275 417 1
169 418 1
205 418 1
234 418 1
276 418 1
170 419 1
206 419 1
235 419 1
277 419 1
171 420 1
207 420 1
236 420 1
278 420 1
172 421 1
208 421 1
237 421 1
279 421 1
173 422 1
209 422 1
238 422 1
280 422 1
174 423 1
210 423 1
239 423 1
281 423 1
175 424 1
211 424 1
240 424 1
282 424 1
176 425 1
212 425 1
241 425 1
283 425 1
177 426 1
213 426 1
242 426 1
284 426 1
