%%MatrixMarket matrix coordinate integer general
% Binary matrix; one-based indices; arithmetic over GF(2)
870 870 5220
1 1 1
27 1 1
88 1 1
106 1 1
349 1 1
354 1 1
2 2 1
28 2 1
89 2 1
107 2 1
350 2 1
355 2 1
3 3 1
29 3 1
90 3 1
108 3 1
351 3 1
356 3 1
4 4 1
30 4 1
91 4 1
109 4 1
352 4 1
357 4 1
5 5 1
31 5 1
92 5 1
110 5 1
353 5 1
358 5 1
6 6 1
32 6 1
93 6 1
111 6 1
354 6 1
359 6 1
7 7 1
33 7 1
94 7 1
112 7 1
355 7 1
360 7 1
8 8 1
34 8 1
95 8 1
113 8 1
356 8 1
361 8 1
9 9 1
35 9 1
96 9 1
114 9 1
357 9 1
362 9 1
10 10 1
36 10 1
97 10 1
115 10 1
358 10 1
363 10 1
11 11 1
37 11 1
98 11 1
116 11 1
359 11 1
364 11 1
12 12 1
38 12 1
99 12 1
117 12 1
360 12 1
365 12 1
13 13 1
39 13 1
100 13 1
118 13 1
361 13 1
366 13 1
14 14 1
40 14 1
101 14 1
119 14 1
362 14 1
367 14 1
15 15 1
41 15 1
102 15 1
120 15 1
363 15 1
368 15 1
16 16 1
42 16 1
103 16 1
121 16 1
364 16 1
369 16 1
17 17 1
43 17 1
104 17 1
122 17 1
365 17 1
370 17 1
18 18 1
44 18 1
105 18 1
123 18 1
366 18 1
371 18 1
19 19 1
45 19 1
106 19 1
124 19 1
367 19 1
372 19 1
20 20 1
46 20 1
107 20 1
125 20 1
368 20 1
373 20 1
21 21 1
47 21 1
108 21 1
126 21 1
369 21 1
374 21 1
22 22 1
48 22 1
109 22 1
127 22 1
370 22 1
375 22 1
23 23 1
49 23 1
110 23 1
128 23 1
371 23 1
376 23 1
24 24 1
50 24 1
111 24 1
129 24 1
372 24 1
377 24 1
25 25 1
51 25 1
112 25 1
130 25 1
373 25 1
378 25 1
26 26 1
52 26 1
113 26 1
131 26 1
374 26 1
379 26 1
27 27 1
53 27 1
114 27 1
132 27 1
375 27 1
380 27 1
28 28 1
54 28 1
115 28 1
133 28 1
376 28 1
381 28 1
29 29 1
55 29 1
116 29 1
134 29 1
377 29 1
382 29 1
30 30 1
56 30 1
117 30 1
135 30 1
378 30 1
383 30 1
31 31 1
57 31 1
118 31 1
136 31 1
379 31 1
384 31 1
32 32 1
58 32 1
119 32 1
137 32 1
380 32 1
385 32 1
33 33 1
59 33 1
120 33 1
138 33 1
381 33 1
386 33 1
34 34 1
60 34 1
121 34 1
139 34 1
382 34 1
387 34 1
35 35 1
61 35 1
122 35 1
140 35 1
383 35 1
388 35 1
36 36 1
62 36 1
123 36 1
141 36 1
384 36 1
389 36 1
37 37 1
63 37 1
124 37 1
142 37 1
385 37 1
390 37 1
38 38 1
64 38 1
125 38 1
143 38 1
386 38 1
391 38 1
39 39 1
65 39 1
126 39 1
144 39 1
387 39 1
392 39 1
40 40 1
66 40 1
127 40 1
145 40 1
388 40 1
393 40 1
41 41 1
67 41 1
128 41 1
146 41 1
389 41 1
394 41 1
42 42 1
68 42 1
129 42 1
147 42 1
390 42 1
395 42 1
43 43 1
69 43 1
130 43 1
148 43 1
391 43 1
396 43 1
44 44 1
70 44 1
131 44 1
149 44 1
392 44 1
397 44 1
45 45 1
71 45 1
132 45 1
150 45 1
393 45 1
398 45 1
46 46 1
72 46 1
133 46 1
151 46 1
394 46 1
399 46 1
47 47 1
73 47 1
134 47 1
152 47 1
395 47 1
400 47 1
48 48 1
74 48 1
135 48 1
153 48 1
396 48 1
401 48 1
49 49 1
75 49 1
136 49 1
154 49 1
397 49 1
402 49 1
50 50 1
76 50 1
137 50 1
155 50 1
398 50 1
403 50 1
51 51 1
77 51 1
138 51 1
156 51 1
399 51 1
404 51 1
52 52 1
78 52 1
139 52 1
157 52 1
400 52 1
405 52 1
53 53 1
79 53 1
140 53 1
158 53 1
401 53 1
406 53 1
54 54 1
80 54 1
141 54 1
159 54 1
402 54 1
407 54 1
55 55 1
81 55 1
142 55 1
160 55 1
403 55 1
408 55 1
56 56 1
82 56 1
143 56 1
161 56 1
404 56 1
409 56 1
57 57 1
83 57 1
144 57 1
162 57 1
405 57 1
410 57 1
58 58 1
84 58 1
145 58 1
163 58 1
406 58 1
411 58 1
59 59 1
85 59 1
146 59 1
164 59 1
407 59 1
412 59 1
60 60 1
86 60 1
147 60 1
165 60 1
408 60 1
413 60 1
61 61 1
87 61 1
148 61 1
166 61 1
409 61 1
414 61 1
1 62 1
62 62 1
149 62 1
167 62 1
410 62 1
415 62 1
2 63 1
63 63 1
150 63 1
168 63 1
411 63 1
416 63 1
3 64 1
64 64 1
151 64 1
169 64 1
412 64 1
417 64 1
4 65 1
65 65 1
152 65 1
170 65 1
413 65 1
418 65 1
5 66 1
66 66 1
153 66 1
171 66 1
414 66 1
419 66 1
6 67 1
67 67 1
154 67 1
172 67 1
415 67 1
420 67 1
7 68 1
68 68 1
155 68 1
173 68 1
416 68 1
421 68 1
8 69 1
69 69 1
156 69 1
174 69 1
417 69 1
422 69 1
9 70 1
70 70 1
88 70 1
157 70 1
418 70 1
423 70 1
10 71 1
71 71 1
89 71 1
158 71 1
419 71 1
424 71 1
11 72 1
72 72 1
90 72 1
159 72 1
420 72 1
425 72 1
12 73 1
73 73 1
91 73 1
160 73 1
421 73 1
426 73 1
13 74 1
74 74 1
92 74 1
161 74 1
422 74 1
427 74 1
14 75 1
75 75 1
93 75 1
162 75 1
423 75 1
428 75 1
15 76 1
76 76 1
94 76 1
163 76 1
424 76 1
429 76 1
16 77 1
77 77 1
95 77 1
164 77 1
425 77 1
430 77 1
17 78 1
78 78 1
96 78 1
165 78 1
426 78 1
431 78 1
18 79 1
79 79 1
97 79 1
166 79 1
427 79 1
432 79 1
19 80 1
80 80 1
98 80 1
167 80 1
428 80 1
433 80 1
20 81 1
81 81 1
99 81 1
168 81 1
429 81 1
434 81 1
21 82 1
82 82 1
100 82 1
169 82 1
430 82 1
435 82 1
22 83 1
83 83 1
101 83 1
170 83 1
349 83 1
431 83 1
23 84 1
84 84 1
102 84 1
171 84 1
350 84 1
432 84 1
24 85 1
85 85 1
103 85 1
172 85 1
351 85 1
433 85 1
25 86 1
86 86 1
104 86 1
173 86 1
352 86 1
434 86 1
26 87 1
87 87 1
105 87 1
174 87 1
353 87 1
435 87 1
1 88 1
73 88 1
175 88 1
193 88 1
436 88 1
441 88 1
2 89 1
74 89 1
176 89 1
194 89 1
437 89 1
442 89 1
3 90 1
75 90 1
177 90 1
195 90 1
438 90 1
443 90 1
4 91 1
76 91 1
178 91 1
196 91 1
439 91 1
444 91 1
5 92 1
77 92 1
179 92 1
197 92 1
440 92 1
445 92 1
6 93 1
78 93 1
180 93 1
198 93 1
441 93 1
446 93 1
7 94 1
79 94 1
181 94 1
199 94 1
442 94 1
447 94 1
8 95 1
80 95 1
182 95 1
200 95 1
443 95 1
448 95 1
9 96 1
81 96 1
183 96 1
201 96 1
444 96 1
449 96 1
10 97 1
82 97 1
184 97 1
202 97 1
445 97 1
450 97 1
11 98 1
83 98 1
185 98 1
203 98 1
446 98 1
451 98 1
12 99 1
84 99 1
186 99 1
204 99 1
447 99 1
452 99 1
13 100 1
85 100 1
187 100 1
205 100 1
448 100 1
453 100 1
14 101 1
86 101 1
188 101 1
206 101 1
449 101 1
454 101 1
15 102 1
87 102 1
189 102 1
207 102 1
450 102 1
455 102 1
1 103 1
16 103 1
190 103 1
208 103 1
451 103 1
456 103 1
2 104 1
17 104 1
191 104 1
209 104 1
452 104 1
457 104 1
3 105 1
18 105 1
192 105 1
210 105 1
453 105 1
458 105 1
4 106 1
19 106 1
193 106 1
211 106 1
454 106 1
459 106 1
5 107 1
20 107 1
194 107 1
212 107 1
455 107 1
460 107 1
6 108 1
21 108 1
195 108 1
213 108 1
456 108 1
461 108 1
7 109 1
22 109 1
196 109 1
214 109 1
457 109 1
462 109 1
8 110 1
23 110 1
197 110 1
215 110 1
458 110 1
463 110 1
9 111 1
24 111 1
198 111 1
216 111 1
459 111 1
464 111 1
10 112 1
25 112 1
199 112 1
217 112 1
460 112 1
465 112 1
11 113 1
26 113 1
200 113 1
218 113 1
461 113 1
466 113 1
12 114 1
27 114 1
201 114 1
219 114 1
462 114 1
467 114 1
13 115 1
28 115 1
202 115 1
220 115 1
463 115 1
468 115 1
14 116 1
29 116 1
203 116 1
221 116 1
464 116 1
469 116 1
15 117 1
30 117 1
204 117 1
222 117 1
465 117 1
470 117 1
16 118 1
31 118 1
205 118 1
223 118 1
466 118 1
471 118 1
17 119 1
32 119 1
206 119 1
224 119 1
467 119 1
472 119 1
18 120 1
33 120 1
207 120 1
225 120 1
468 120 1
473 120 1
19 121 1
34 121 1
208 121 1
226 121 1
469 121 1
474 121 1
20 122 1
35 122 1
209 122 1
227 122 1
470 122 1
475 122 1
21 123 1
36 123 1
210 123 1
228 123 1
471 123 1
476 123 1
22 124 1
37 124 1
211 124 1
229 124 1
472 124 1
477 124 1
23 125 1
38 125 1
212 125 1
230 125 1
473 125 1
478 125 1
24 126 1
39 126 1
213 126 1
231 126 1
474 126 1
479 126 1
25 127 1
40 127 1
214 127 1
232 127 1
475 127 1
480 127 1
26 128 1
41 128 1
215 128 1
233 128 1
476 128 1
481 128 1
27 129 1
42 129 1
216 129 1
234 129 1
477 129 1
482 129 1
28 130 1
43 130 1
217 130 1
235 130 1
478 130 1
483 130 1
29 131 1
44 131 1
218 131 1
236 131 1
479 131 1
484 131 1
30 132 1
45 132 1
219 132 1
237 132 1
480 132 1
485 132 1
31 133 1
46 133 1
220 133 1
238 133 1
481 133 1
486 133 1
32 134 1
47 134 1
221 134 1
239 134 1
482 134 1
487 134 1
33 135 1
48 135 1
222 135 1
240 135 1
483 135 1
488 135 1
34 136 1
49 136 1
223 136 1
241 136 1
484 136 1
489 136 1
35 137 1
50 137 1
224 137 1
242 137 1
485 137 1
490 137 1
36 138 1
51 138 1
225 138 1
243 138 1
486 138 1
491 138 1
37 139 1
52 139 1
226 139 1
244 139 1
487 139 1
492 139 1
38 140 1
53 140 1
227 140 1
245 140 1
488 140 1
493 140 1
39 141 1
54 141 1
228 141 1
246 141 1
489 141 1
494 141 1
40 142 1
55 142 1
229 142 1
247 142 1
490 142 1
495 142 1
41 143 1
56 143 1
230 143 1
248 143 1
491 143 1
496 143 1
42 144 1
57 144 1
231 144 1
249 144 1
492 144 1
497 144 1
43 145 1
58 145 1
232 145 1
250 145 1
493 145 1
498 145 1
44 146 1
59 146 1
233 146 1
251 146 1
494 146 1
499 146 1
45 147 1
60 147 1
234 147 1
252 147 1
495 147 1
500 147 1
46 148 1
61 148 1
235 148 1
253 148 1
496 148 1
501 148 1
47 149 1
62 149 1
236 149 1
254 149 1
497 149 1
502 149 1
48 150 1
63 150 1
237 150 1
255 150 1
498 150 1
503 150 1
49 151 1
64 151 1
238 151 1
256 151 1
499 151 1
504 151 1
50 152 1
65 152 1
239 152 1
257 152 1
500 152 1
505 152 1
51 153 1
66 153 1
240 153 1
258 153 1
501 153 1
506 153 1
52 154 1
67 154 1
241 154 1
259 154 1
502 154 1
507 154 1
53 155 1
68 155 1
242 155 1
260 155 1
503 155 1
508 155 1
54 156 1
69 156 1
243 156 1
261 156 1
504 156 1
509 156 1
55 157 1
70 157 1
175 157 1
244 157 1
505 157 1
510 157 1
56 158 1
71 158 1
176 158 1
245 158 1
506 158 1
511 158 1
57 159 1
72 159 1
177 159 1
246 159 1
507 159 1
512 159 1
58 160 1
73 160 1
178 160 1
247 160 1
508 160 1
513 160 1
59 161 1
74 161 1
179 161 1
248 161 1
509 161 1
514 161 1
60 162 1
75 162 1
180 162 1
249 162 1
510 162 1
515 162 1
61 163 1
76 163 1
181 163 1
250 163 1
511 163 1
516 163 1
62 164 1
77 164 1
182 164 1
251 164 1
512 164 1
517 164 1
63 165 1
78 165 1
183 165 1
252 165 1
513 165 1
518 165 1
64 166 1
79 166 1
184 166 1
253 166 1
514 166 1
519 166 1
65 167 1
80 167 1
185 167 1
254 167 1
515 167 1
520 167 1
66 168 1
81 168 1
186 168 1
255 168 1
516 168 1
521 168 1
67 169 1
82 169 1
187 169 1
256 169 1
517 169 1
522 169 1
68 170 1
83 170 1
188 170 1
257 170 1
436 170 1
518 170 1
69 171 1
84 171 1
189 171 1
258 171 1
437 171 1
519 171 1
70 172 1
85 172 1
190 172 1
259 172 1
438 172 1
520 172 1
71 173 1
86 173 1
191 173 1
260 173 1
439 173 1
521 173 1
72 174 1
87 174 1
192 174 1
261 174 1
440 174 1
522 174 1
1 175 1
74 175 1
262 175 1
280 175 1
523 175 1
528 175 1
2 176 1
75 176 1
263 176 1
281 176 1
524 176 1
529 176 1
3 177 1
76 177 1
264 177 1
282 177 1
525 177 1
530 177 1
4 178 1
77 178 1
265 178 1
283 178 1
526 178 1
531 178 1
5 179 1
78 179 1
266 179 1
284 179 1
527 179 1
532 179 1
6 180 1
79 180 1
267 180 1
285 180 1
528 180 1
533 180 1
7 181 1
80 181 1
268 181 1
286 181 1
529 181 1
534 181 1
8 182 1
81 182 1
269 182 1
287 182 1
530 182 1
535 182 1
9 183 1
82 183 1
270 183 1
288 183 1
531 183 1
536 183 1
10 184 1
83 184 1
271 184 1
289 184 1
532 184 1
537 184 1
11 185 1
84 185 1
272 185 1
290 185 1
533 185 1
538 185 1
12 186 1
85 186 1
273 186 1
291 186 1
534 186 1
539 186 1
13 187 1
86 187 1
274 187 1
292 187 1
535 187 1
540 187 1
14 188 1
87 188 1
275 188 1
293 188 1
536 188 1
541 188 1
1 189 1
15 189 1
276 189 1
294 189 1
537 189 1
542 189 1
2 190 1
16 190 1
277 190 1
295 190 1
538 190 1
543 190 1
3 191 1
17 191 1
278 191 1
296 191 1
539 191 1
544 191 1
4 192 1
18 192 1
279 192 1
297 192 1
540 192 1
545 192 1
5 193 1
19 193 1
280 193 1
298 193 1
541 193 1
546 193 1
6 194 1
20 194 1
281 194 1
299 194 1
542 194 1
547 194 1
7 195 1
21 195 1
282 195 1
300 195 1
543 195 1
548 195 1
8 196 1
22 196 1
283 196 1
301 196 1
544 196 1
549 196 1
9 197 1
23 197 1
284 197 1
302 197 1
545 197 1
550 197 1
10 198 1
24 198 1
285 198 1
303 198 1
546 198 1
551 198 1
11 199 1
25 199 1
286 199 1
304 199 1
547 199 1
552 199 1
12 200 1
26 200 1
287 200 1
305 200 1
548 200 1
553 200 1
13 201 1
27 201 1
288 201 1
306 201 1
549 201 1
554 201 1
14 202 1
28 202 1
289 202 1
307 202 1
550 202 1
555 202 1
15 203 1
29 203 1
290 203 1
308 203 1
551 203 1
556 203 1
16 204 1
30 204 1
291 204 1
309 204 1
552 204 1
557 204 1
17 205 1
31 205 1
292 205 1
310 205 1
553 205 1
558 205 1
18 206 1
32 206 1
293 206 1
311 206 1
554 206 1
559 206 1
19 207 1
33 207 1
294 207 1
312 207 1
555 207 1
560 207 1
20 208 1
34 208 1
295 208 1
313 208 1
556 208 1
561 208 1
21 209 1
35 209 1
296 209 1
314 209 1
557 209 1
562 209 1
22 210 1
36 210 1
297 210 1
315 210 1
558 210 1
563 210 1
23 211 1
37 211 1
298 211 1
316 211 1
559 211 1
564 211 1
24 212 1
38 212 1
299 212 1
317 212 1
560 212 1
565 212 1
25 213 1
39 213 1
300 213 1
318 213 1
561 213 1
566 213 1
26 214 1
40 214 1
301 214 1
319 214 1
562 214 1
567 214 1
27 215 1
41 215 1
302 215 1
320 215 1
563 215 1
568 215 1
28 216 1
42 216 1
303 216 1
321 216 1
564 216 1
569 216 1
29 217 1
43 217 1
304 217 1
322 217 1
565 217 1
570 217 1
30 218 1
44 218 1
305 218 1
323 218 1
566 218 1
571 218 1
31 219 1
45 219 1
306 219 1
324 219 1
567 219 1
572 219 1
32 220 1
46 220 1
307 220 1
325 220 1
568 220 1
573 220 1
33 221 1
47 221 1
308 221 1
326 221 1
569 221 1
574 221 1
34 222 1
48 222 1
309 222 1
327 222 1
570 222 1
575 222 1
35 223 1
49 223 1
310 223 1
328 223 1
571 223 1
576 223 1
36 224 1
50 224 1
311 224 1
329 224 1
572 224 1
577 224 1
37 225 1
51 225 1
312 225 1
330 225 1
573 225 1
578 225 1
38 226 1
52 226 1
313 226 1
331 226 1
574 226 1
579 226 1
39 227 1
53 227 1
314 227 1
332 227 1
575 227 1
580 227 1
40 228 1
54 228 1
315 228 1
333 228 1
576 228 1
581 228 1
41 229 1
55 229 1
316 229 1
334 229 1
577 229 1
582 229 1
42 230 1
56 230 1
317 230 1
335 230 1
578 230 1
583 230 1
43 231 1
57 231 1
318 231 1
336 231 1
579 231 1
584 231 1
44 232 1
58 232 1
319 232 1
337 232 1
580 232 1
585 232 1
45 233 1
59 233 1
320 233 1
338 233 1
581 233 1
586 233 1
46 234 1
60 234 1
321 234 1
339 234 1
582 234 1
587 234 1
47 235 1
61 235 1
322 235 1
340 235 1
583 235 1
588 235 1
48 236 1
62 236 1
323 236 1
341 236 1
584 236 1
589 236 1
49 237 1
63 237 1
324 237 1
342 237 1
585 237 1
590 237 1
50 238 1
64 238 1
325 238 1
343 238 1
586 238 1
591 238 1
51 239 1
65 239 1
326 239 1
344 239 1
587 239 1
592 239 1
52 240 1
66 240 1
327 240 1
345 240 1
588 240 1
593 240 1
53 241 1
67 241 1
328 241 1
346 241 1
589 241 1
594 241 1
54 242 1
68 242 1
329 242 1
347 242 1
590 242 1
595 242 1
55 243 1
69 243 1
330 243 1
348 243 1
591 243 1
596 243 1
56 244 1
70 244 1
262 244 1
331 244 1
592 244 1
597 244 1
57 245 1
71 245 1
263 245 1
332 245 1
593 245 1
598 245 1
58 246 1
72 246 1
264 246 1
333 246 1
594 246 1
599 246 1
59 247 1
73 247 1
265 247 1
334 247 1
595 247 1
600 247 1
60 248 1
74 248 1
266 248 1
335 248 1
596 248 1
601 248 1
61 249 1
75 249 1
267 249 1
336 249 1
597 249 1
602 249 1
62 250 1
76 250 1
268 250 1
337 250 1
598 250 1
603 250 1
63 251 1
77 251 1
269 251 1
338 251 1
599 251 1
604 251 1
64 252 1
78 252 1
270 252 1
339 252 1
600 252 1
605 252 1
65 253 1
79 253 1
271 253 1
340 253 1
601 253 1
606 253 1
66 254 1
80 254 1
272 254 1
341 254 1
602 254 1
607 254 1
67 255 1
81 255 1
273 255 1
342 255 1
603 255 1
608 255 1
68 256 1
82 256 1
274 256 1
343 256 1
604 256 1
609 256 1
69 257 1
83 257 1
275 257 1
344 257 1
523 257 1
605 257 1
70 258 1
84 258 1
276 258 1
345 258 1
524 258 1
606 258 1
71 259 1
85 259 1
277 259 1
346 259 1
525 259 1
607 259 1
72 260 1
86 260 1
278 260 1
347 260 1
526 260 1
608 260 1
73 261 1
87 261 1
279 261 1
348 261 1
527 261 1
609 261 1
88 262 1
160 262 1
175 262 1
201 262 1
610 262 1
615 262 1
89 263 1
161 263 1
176 263 1
202 263 1
611 263 1
616 263 1
90 264 1
162 264 1
177 264 1
203 264 1
612 264 1
617 264 1
91 265 1
163 265 1
178 265 1
204 265 1
613 265 1
618 265 1
92 266 1
164 266 1
179 266 1
205 266 1
614 266 1
619 266 1
93 267 1
165 267 1
180 267 1
206 267 1
615 267 1
620 267 1
94 268 1
166 268 1
181 268 1
207 268 1
616 268 1
621 268 1
95 269 1
167 269 1
182 269 1
208 269 1
617 269 1
622 269 1
96 270 1
168 270 1
183 270 1
209 270 1
618 270 1
623 270 1
97 271 1
169 271 1
184 271 1
210 271 1
619 271 1
624 271 1
98 272 1
170 272 1
185 272 1
211 272 1
620 272 1
625 272 1
99 273 1
171 273 1
186 273 1
212 273 1
621 273 1
626 273 1
100 274 1
172 274 1
187 274 1
213 274 1
622 274 1
627 274 1
101 275 1
173 275 1
188 275 1
214 275 1
623 275 1
628 275 1
102 276 1
174 276 1
189 276 1
215 276 1
624 276 1
629 276 1
88 277 1
103 277 1
190 277 1
216 277 1
625 277 1
630 277 1
89 278 1
104 278 1
191 278 1
217 278 1
626 278 1
631 278 1
90 279 1
105 279 1
192 279 1
218 279 1
627 279 1
632 279 1
91 280 1
106 280 1
193 280 1
219 280 1
628 280 1
633 280 1
92 281 1
107 281 1
194 281 1
220 281 1
629 281 1
634 281 1
93 282 1
108 282 1
195 282 1
221 282 1
630 282 1
635 282 1
94 283 1
109 283 1
196 283 1
222 283 1
631 283 1
636 283 1
95 284 1
110 284 1
197 284 1
223 284 1
632 284 1
637 284 1
96 285 1
111 285 1
198 285 1
224 285 1
633 285 1
638 285 1
97 286 1
112 286 1
199 286 1
225 286 1
634 286 1
639 286 1
98 287 1
113 287 1
200 287 1
226 287 1
635 287 1
640 287 1
99 288 1
114 288 1
201 288 1
227 288 1
636 288 1
641 288 1
100 289 1
115 289 1
202 289 1
228 289 1
637 289 1
642 289 1
101 290 1
116 290 1
203 290 1
229 290 1
638 290 1
643 290 1
102 291 1
117 291 1
204 291 1
230 291 1
639 291 1
644 291 1
103 292 1
118 292 1
205 292 1
231 292 1
640 292 1
645 292 1
104 293 1
119 293 1
206 293 1
232 293 1
641 293 1
646 293 1
105 294 1
120 294 1
207 294 1
233 294 1
642 294 1
647 294 1
106 295 1
121 295 1
208 295 1
234 295 1
643 295 1
648 295 1
107 296 1
122 296 1
209 296 1
235 296 1
644 296 1
649 296 1
108 297 1
123 297 1
210 297 1
236 297 1
645 297 1
650 297 1
109 298 1
124 298 1
211 298 1
237 298 1
646 298 1
651 298 1
110 299 1
125 299 1
212 299 1
238 299 1
647 299 1
652 299 1
111 300 1
126 300 1
213 300 1
239 300 1
648 300 1
653 300 1
112 301 1
127 301 1
214 301 1
240 301 1
649 301 1
654 301 1
113 302 1
128 302 1
215 302 1
241 302 1
650 302 1
655 302 1
114 303 1
129 303 1
216 303 1
242 303 1
651 303 1
656 303 1
115 304 1
130 304 1
217 304 1
243 304 1
652 304 1
657 304 1
116 305 1
131 305 1
218 305 1
244 305 1
653 305 1
658 305 1
117 306 1
132 306 1
219 306 1
245 306 1
654 306 1
659 306 1
118 307 1
133 307 1
220 307 1
246 307 1
655 307 1
660 307 1
119 308 1
134 308 1
221 308 1
247 308 1
656 308 1
661 308 1
120 309 1
135 309 1
222 309 1
248 309 1
657 309 1
662 309 1
121 310 1
136 310 1
223 310 1
249 310 1
658 310 1
663 310 1
122 311 1
137 311 1
224 311 1
250 311 1
659 311 1
664 311 1
123 312 1
138 312 1
225 312 1
251 312 1
660 312 1
665 312 1
124 313 1
139 313 1
226 313 1
252 313 1
661 313 1
666 313 1
125 314 1
140 314 1
227 314 1
253 314 1
662 314 1
667 314 1
126 315 1
141 315 1
228 315 1
254 315 1
663 315 1
668 315 1
127 316 1
142 316 1
229 316 1
255 316 1
664 316 1
669 316 1
128 317 1
143 317 1
230 317 1
256 317 1
665 317 1
670 317 1
129 318 1
144 318 1
231 318 1
257 318 1
666 318 1
671 318 1
130 319 1
145 319 1
232 319 1
258 319 1
667 319 1
672 319 1
131 320 1
146 320 1
233 320 1
259 320 1
668 320 1
673 320 1
132 321 1
147 321 1
234 321 1
260 321 1
669 321 1
674 321 1
133 322 1
148 322 1
235 322 1
261 322 1
670 322 1
675 322 1
134 323 1
149 323 1
175 323 1
236 323 1
671 323 1
676 323 1
135 324 1
150 324 1
176 324 1
237 324 1
672 324 1
677 324 1
136 325 1
151 325 1
177 325 1
238 325 1
673 325 1
678 325 1
137 326 1
152 326 1
178 326 1
239 326 1
674 326 1
679 326 1
138 327 1
153 327 1
179 327 1
240 327 1
675 327 1
680 327 1
139 328 1
154 328 1
180 328 1
241 328 1
676 328 1
681 328 1
140 329 1
155 329 1
181 329 1
242 329 1
677 329 1
682 329 1
141 330 1
156 330 1
182 330 1
243 330 1
678 330 1
683 330 1
142 331 1
157 331 1
183 331 1
244 331 1
679 331 1
684 331 1
143 332 1
158 332 1
184 332 1
245 332 1
680 332 1
685 332 1
144 333 1
159 333 1
185 333 1
246 333 1
681 333 1
686 333 1
145 334 1
160 334 1
186 334 1
247 334 1
682 334 1
687 334 1
146 335 1
161 335 1
187 335 1
248 335 1
683 335 1
688 335 1
147 336 1
162 336 1
188 336 1
249 336 1
684 336 1
689 336 1
148 337 1
163 337 1
189 337 1
250 337 1
685 337 1
690 337 1
149 338 1
164 338 1
190 338 1
251 338 1
686 338 1
691 338 1
150 339 1
165 339 1
191 339 1
252 339 1
687 339 1
692 339 1
151 340 1
166 340 1
192 340 1
253 340 1
688 340 1
693 340 1
152 341 1
167 341 1
193 341 1
254 341 1
689 341 1
694 341 1
153 342 1
168 342 1
194 342 1
255 342 1
690 342 1
695 342 1
154 343 1
169 343 1
195 343 1
256 343 1
691 343 1
696 343 1
155 344 1
170 344 1
196 344 1
257 344 1
610 344 1
692 344 1
156 345 1
171 345 1
197 345 1
258 345 1
611 345 1
693 345 1
157 346 1
172 346 1
198 346 1
259 346 1
612 346 1
694 346 1
158 347 1
173 347 1
199 347 1
260 347 1
613 347 1
695 347 1
159 348 1
174 348 1
200 348 1
261 348 1
614 348 1
696 348 1
88 349 1
161 349 1
262 349 1
288 349 1
697 349 1
702 349 1
89 350 1
162 350 1
263 350 1
289 350 1
698 350 1
703 350 1
90 351 1
163 351 1
264 351 1
290 351 1
699 351 1
704 351 1
91 352 1
164 352 1
265 352 1
291 352 1
700 352 1
705 352 1
92 353 1
165 353 1
266 353 1
292 353 1
701 353 1
706 353 1
93 354 1
166 354 1
267 354 1
293 354 1
702 354 1
707 354 1
94 355 1
167 355 1
268 355 1
294 355 1
703 355 1
708 355 1
95 356 1
168 356 1
269 356 1
295 356 1
704 356 1
709 356 1
96 357 1
169 357 1
270 357 1
296 357 1
705 357 1
710 357 1
97 358 1
170 358 1
271 358 1
297 358 1
706 358 1
711 358 1
98 359 1
171 359 1
272 359 1
298 359 1
707 359 1
712 359 1
99 360 1
172 360 1
273 360 1
299 360 1
708 360 1
713 360 1
100 361 1
173 361 1
274 361 1
300 361 1
709 361 1
714 361 1
101 362 1
174 362 1
275 362 1
301 362 1
710 362 1
715 362 1
88 363 1
102 363 1
276 363 1
302 363 1
711 363 1
716 363 1
89 364 1
103 364 1
277 364 1
303 364 1
712 364 1
717 364 1
90 365 1
104 365 1
278 365 1
304 365 1
713 365 1
718 365 1
91 366 1
105 366 1
279 366 1
305 366 1
714 366 1
719 366 1
92 367 1
106 367 1
280 367 1
306 367 1
715 367 1
720 367 1
93 368 1
107 368 1
281 368 1
307 368 1
716 368 1
721 368 1
94 369 1
108 369 1
282 369 1
308 369 1
717 369 1
722 369 1
95 370 1
109 370 1
283 370 1
309 370 1
718 370 1
723 370 1
96 371 1
110 371 1
284 371 1
310 371 1
719 371 1
724 371 1
97 372 1
111 372 1
285 372 1
311 372 1
720 372 1
725 372 1
98 373 1
112 373 1
286 373 1
312 373 1
721 373 1
726 373 1
99 374 1
113 374 1
287 374 1
313 374 1
722 374 1
727 374 1
100 375 1
114 375 1
288 375 1
314 375 1
723 375 1
728 375 1
101 376 1
115 376 1
289 376 1
315 376 1
724 376 1
729 376 1
102 377 1
116 377 1
290 377 1
316 377 1
725 377 1
730 377 1
103 378 1
117 378 1
291 378 1
317 378 1
726 378 1
731 378 1
104 379 1
118 379 1
292 379 1
318 379 1
727 379 1
732 379 1
105 380 1
119 380 1
293 380 1
319 380 1
728 380 1
733 380 1
106 381 1
120 381 1
294 381 1
320 381 1
729 381 1
734 381 1
107 382 1
121 382 1
295 382 1
321 382 1
730 382 1
735 382 1
108 383 1
122 383 1
296 383 1
322 383 1
731 383 1
736 383 1
109 384 1
123 384 1
297 384 1
323 384 1
732 384 1
737 384 1
110 385 1
124 385 1
298 385 1
324 385 1
733 385 1
738 385 1
111 386 1
125 386 1
299 386 1
325 386 1
734 386 1
739 386 1
112 387 1
126 387 1
300 387 1
326 387 1
735 387 1
740 387 1
113 388 1
127 388 1
301 388 1
327 388 1
736 388 1
741 388 1
114 389 1
128 389 1
302 389 1
328 389 1
737 389 1
742 389 1
115 390 1
129 390 1
303 390 1
329 390 1
738 390 1
743 390 1
116 391 1
130 391 1
304 391 1
330 391 1
739 391 1
744 391 1
117 392 1
131 392 1
305 392 1
331 392 1
740 392 1
745 392 1
118 393 1
132 393 1
306 393 1
332 393 1
741 393 1
746 393 1
119 394 1
133 394 1
307 394 1
333 394 1
742 394 1
747 394 1
120 395 1
134 395 1
308 395 1
334 395 1
743 395 1
748 395 1
121 396 1
135 396 1
309 396 1
335 396 1
744 396 1
749 396 1
122 397 1
136 397 1
310 397 1
336 397 1
745 397 1
750 397 1
123 398 1
137 398 1
311 398 1
337 398 1
746 398 1
751 398 1
124 399 1
138 399 1
312 399 1
338 399 1
747 399 1
752 399 1
125 400 1
139 400 1
313 400 1
339 400 1
748 400 1
753 400 1
126 401 1
140 401 1
314 401 1
340 401 1
749 401 1
754 401 1
127 402 1
141 402 1
315 402 1
341 402 1
750 402 1
755 402 1
128 403 1
142 403 1
316 403 1
342 403 1
751 403 1
756 403 1
129 404 1
143 404 1
317 404 1
343 404 1
752 404 1
757 404 1
130 405 1
144 405 1
318 405 1
344 405 1
753 405 1
758 405 1
131 406 1
145 406 1
319 406 1
345 406 1
754 406 1
759 406 1
132 407 1
146 407 1
320 407 1
346 407 1
755 407 1
760 407 1
133 408 1
147 408 1
321 408 1
347 408 1
756 408 1
761 408 1
134 409 1
148 409 1
322 409 1
348 409 1
757 409 1
762 409 1
135 410 1
149 410 1
262 410 1
323 410 1
758 410 1
763 410 1
136 411 1
150 411 1
263 411 1
324 411 1
759 411 1
764 411 1
137 412 1
151 412 1
264 412 1
325 412 1
760 412 1
765 412 1
138 413 1
152 413 1
265 413 1
326 413 1
761 413 1
766 413 1
139 414 1
153 414 1
266 414 1
327 414 1
762 414 1
767 414 1
140 415 1
154 415 1
267 415 1
328 415 1
763 415 1
768 415 1
141 416 1
155 416 1
268 416 1
329 416 1
764 416 1
769 416 1
142 417 1
156 417 1
269 417 1
330 417 1
765 417 1
770 417 1
143 418 1
157 418 1
270 418 1
331 418 1
766 418 1
771 418 1
144 419 1
158 419 1
271 419 1
332 419 1
767 419 1
772 419 1
145 420 1
159 420 1
272 420 1
333 420 1
768 420 1
773 420 1
146 421 1
160 421 1
273 421 1
334 421 1
769 421 1
774 421 1
147 422 1
161 422 1
274 422 1
335 422 1
770 422 1
775 422 1
148 423 1
162 423 1
275 423 1
336 423 1
771 423 1
776 423 1
149 424 1
163 424 1
276 424 1
337 424 1
772 424 1
777 424 1
150 425 1
164 425 1
277 425 1
338 425 1
773 425 1
778 425 1
151 426 1
165 426 1
278 426 1
339 426 1
774 426 1
779 426 1
152 427 1
166 427 1
279 427 1
340 427 1
775 427 1
780 427 1
153 428 1
167 428 1
280 428 1
341 428 1
776 428 1
781 428 1
154 429 1
168 429 1
281 429 1
342 429 1
777 429 1
782 429 1
155 430 1
169 430 1
282 430 1
343 430 1
778 430 1
783 430 1
156 431 1
170 431 1
283 431 1
344 431 1
697 431 1
779 431 1
157 432 1
171 432 1
284 432 1
345 432 1
698 432 1
780 432 1
158 433 1
172 433 1
285 433 1
346 433 1
699 433 1
781 433 1
159 434 1
173 434 1
286 434 1
347 434 1
700 434 1
782 434 1
160 435 1
174 435 1
287 435 1
348 435 1
701 435 1
783 435 1
175 436 1
248 436 1
262 436 1
334 436 1
784 436 1
789 436 1
176 437 1
249 437 1
263 437 1
335 437 1
785 437 1
790 437 1
177 438 1
250 438 1
264 438 1
336 438 1
786 438 1
791 438 1
178 439 1
251 439 1
265 439 1
337 439 1
787 439 1
792 439 1
179 440 1
252 440 1
266 440 1
338 440 1
788 440 1
793 440 1
180 441 1
253 441 1
267 441 1
339 441 1
789 441 1
794 441 1
181 442 1
254 442 1
268 442 1
340 442 1
790 442 1
795 442 1
182 443 1
255 443 1
269 443 1
341 443 1
791 443 1
796 443 1
183 444 1
256 444 1
270 444 1
342 444 1
792 444 1
797 444 1
184 445 1
257 445 1
271 445 1
343 445 1
793 445 1
798 445 1
185 446 1
258 446 1
272 446 1
344 446 1
794 446 1
799 446 1
186 447 1
259 447 1
273 447 1
345 447 1
795 447 1
800 447 1
187 448 1
260 448 1
274 448 1
346 448 1
796 448 1
801 448 1
188 449 1
261 449 1
275 449 1
347 449 1
797 449 1
802 449 1
175 450 1
189 450 1
276 450 1
348 450 1
798 450 1
803 450 1
176 451 1
190 451 1
262 451 1
277 451 1
799 451 1
804 451 1
177 452 1
191 452 1
263 452 1
278 452 1
800 452 1
805 452 1
178 453 1
192 453 1
264 453 1
279 453 1
801 453 1
806 453 1
179 454 1
193 454 1
265 454 1
280 454 1
802 454 1
807 454 1
180 455 1
194 455 1
266 455 1
281 455 1
803 455 1
808 455 1
181 456 1
195 456 1
267 456 1
282 456 1
804 456 1
809 456 1
182 457 1
196 457 1
268 457 1
283 457 1
805 457 1
810 457 1
183 458 1
197 458 1
269 458 1
284 458 1
806 458 1
811 458 1
184 459 1
198 459 1
270 459 1
285 459 1
807 459 1
812 459 1
185 460 1
199 460 1
271 460 1
286 460 1
808 460 1
813 460 1
186 461 1
200 461 1
272 461 1
287 461 1
809 461 1
814 461 1
187 462 1
201 462 1
273 462 1
288 462 1
810 462 1
815 462 1
188 463 1
202 463 1
274 463 1
289 463 1
811 463 1
816 463 1
189 464 1
203 464 1
275 464 1
290 464 1
812 464 1
817 464 1
190 465 1
204 465 1
276 465 1
291 465 1
813 465 1
818 465 1
191 466 1
205 466 1
277 466 1
292 466 1
814 466 1
819 466 1
192 467 1
206 467 1
278 467 1
293 467 1
815 467 1
820 467 1
193 468 1
207 468 1
279 468 1
294 468 1
816 468 1
821 468 1
194 469 1
208 469 1
280 469 1
295 469 1
817 469 1
822 469 1
195 470 1
209 470 1
281 470 1
296 470 1
818 470 1
823 470 1
196 471 1
210 471 1
282 471 1
297 471 1
819 471 1
824 471 1
197 472 1
211 472 1
283 472 1
298 472 1
820 472 1
825 472 1
198 473 1
212 473 1
284 473 1
299 473 1
821 473 1
826 473 1
199 474 1
213 474 1
285 474 1
300 474 1
822 474 1
827 474 1
200 475 1
214 475 1
286 475 1
301 475 1
823 475 1
828 475 1
201 476 1
215 476 1
287 476 1
302 476 1
824 476 1
829 476 1
202 477 1
216 477 1
288 477 1
303 477 1
825 477 1
830 477 1
203 478 1
217 478 1
289 478 1
304 478 1
826 478 1
831 478 1
204 479 1
218 479 1
290 479 1
305 479 1
827 479 1
832 479 1
205 480 1
219 480 1
291 480 1
306 480 1
828 480 1
833 480 1
206 481 1
220 481 1
292 481 1
307 481 1
829 481 1
834 481 1
207 482 1
221 482 1
293 482 1
308 482 1
830 482 1
835 482 1
208 483 1
222 483 1
294 483 1
309 483 1
831 483 1
836 483 1
209 484 1
223 484 1
295 484 1
310 484 1
832 484 1
837 484 1
210 485 1
224 485 1
296 485 1
311 485 1
833 485 1
838 485 1
211 486 1
225 486 1
297 486 1
312 486 1
834 486 1
839 486 1
212 487 1
226 487 1
298 487 1
313 487 1
835 487 1
840 487 1
213 488 1
227 488 1
299 488 1
314 488 1
836 488 1
841 488 1
214 489 1
228 489 1
300 489 1
315 489 1
837 489 1
842 489 1
215 490 1
229 490 1
301 490 1
316 490 1
838 490 1
843 490 1
216 491 1
230 491 1
302 491 1
317 491 1
839 491 1
844 491 1
217 492 1
231 492 1
303 492 1
318 492 1
840 492 1
845 492 1
218 493 1
232 493 1
304 493 1
319 493 1
841 493 1
846 493 1
219 494 1
233 494 1
305 494 1
320 494 1
842 494 1
847 494 1
220 495 1
234 495 1
306 495 1
321 495 1
843 495 1
848 495 1
221 496 1
235 496 1
307 496 1
322 496 1
844 496 1
849 496 1
222 497 1
236 497 1
308 497 1
323 497 1
845 497 1
850 497 1
223 498 1
237 498 1
309 498 1
324 498 1
846 498 1
851 498 1
224 499 1
238 499 1
310 499 1
325 499 1
847 499 1
852 499 1
225 500 1
239 500 1
311 500 1
326 500 1
848 500 1
853 500 1
226 501 1
240 501 1
312 501 1
327 501 1
849 501 1
854 501 1
227 502 1
241 502 1
313 502 1
328 502 1
850 502 1
855 502 1
228 503 1
242 503 1
314 503 1
329 503 1
851 503 1
856 503 1
229 504 1
243 504 1
315 504 1
330 504 1
852 504 1
857 504 1
230 505 1
244 505 1
316 505 1
331 505 1
853 505 1
858 505 1
231 506 1
245 506 1
317 506 1
332 506 1
854 506 1
859 506 1
232 507 1
246 507 1
318 507 1
333 507 1
855 507 1
860 507 1
233 508 1
247 508 1
319 508 1
334 508 1
856 508 1
861 508 1
234 509 1
248 509 1
320 509 1
335 509 1
857 509 1
862 509 1
235 510 1
249 510 1
321 510 1
336 510 1
858 510 1
863 510 1
236 511 1
250 511 1
322 511 1
337 511 1
859 511 1
864 511 1
237 512 1
251 512 1
323 512 1
338 512 1
860 512 1
865 512 1
238 513 1
252 513 1
324 513 1
339 513 1
861 513 1
866 513 1
239 514 1
253 514 1
325 514 1
340 514 1
862 514 1
867 514 1
240 515 1
254 515 1
326 515 1
341 515 1
863 515 1
868 515 1
241 516 1
255 516 1
327 516 1
342 516 1
864 516 1
869 516 1
242 517 1
256 517 1
328 517 1
343 517 1
865 517 1
870 517 1
243 518 1
257 518 1
329 518 1
344 518 1
784 518 1
866 518 1
244 519 1
258 519 1
330 519 1
345 519 1
785 519 1
867 519 1
245 520 1
259 520 1
331 520 1
346 520 1
786 520 1
868 520 1
246 521 1
260 521 1
332 521 1
347 521 1
787 521 1
869 521 1
247 522 1
261 522 1
333 522 1
348 522 1
788 522 1
870 522 1
349 523 1
421 523 1
436 523 1
462 523 1
610 523 1
628 523 1
350 524 1
422 524 1
437 524 1
463 524 1
611 524 1
629 524 1
351 525 1
423 525 1
438 525 1
464 525 1
612 525 1
630 525 1
352 526 1
424 526 1
439 526 1
465 526 1
613 526 1
631 526 1
353 527 1
425 527 1
440 527 1
466 527 1
614 527 1
632 527 1
354 528 1
426 528 1
441 528 1
467 528 1
615 528 1
633 528 1
355 529 1
427 529 1
442 529 1
468 529 1
616 529 1
634 529 1
356 530 1
428 530 1
443 530 1
469 530 1
617 530 1
635 530 1
357 531 1
429 531 1
444 531 1
470 531 1
618 531 1
636 531 1
358 532 1
430 532 1
445 532 1
471 532 1
619 532 1
637 532 1
359 533 1
431 533 1
446 533 1
472 533 1
620 533 1
638 533 1
360 534 1
432 534 1
447 534 1
473 534 1
621 534 1
639 534 1
361 535 1
433 535 1
448 535 1
474 535 1
622 535 1
640 535 1
362 536 1
434 536 1
449 536 1
475 536 1
623 536 1
641 536 1
363 537 1
435 537 1
450 537 1
476 537 1
624 537 1
642 537 1
349 538 1
364 538 1
451 538 1
477 538 1
625 538 1
643 538 1
350 539 1
365 539 1
452 539 1
478 539 1
626 539 1
644 539 1
351 540 1
366 540 1
453 540 1
479 540 1
627 540 1
645 540 1
352 541 1
367 541 1
454 541 1
480 541 1
628 541 1
646 541 1
353 542 1
368 542 1
455 542 1
481 542 1
629 542 1
647 542 1
354 543 1
369 543 1
456 543 1
482 543 1
630 543 1
648 543 1
355 544 1
370 544 1
457 544 1
483 544 1
631 544 1
649 544 1
356 545 1
371 545 1
458 545 1
484 545 1
632 545 1
650 545 1
357 546 1
372 546 1
459 546 1
485 546 1
633 546 1
651 546 1
358 547 1
373 547 1
460 547 1
486 547 1
634 547 1
652 547 1
359 548 1
374 548 1
461 548 1
487 548 1
635 548 1
653 548 1
360 549 1
375 549 1
462 549 1
488 549 1
636 549 1
654 549 1
361 550 1
376 550 1
463 550 1
489 550 1
637 550 1
655 550 1
362 551 1
377 551 1
464 551 1
490 551 1
638 551 1
656 551 1
363 552 1
378 552 1
465 552 1
491 552 1
639 552 1
657 552 1
364 553 1
379 553 1
466 553 1
492 553 1
640 553 1
658 553 1
365 554 1
380 554 1
467 554 1
493 554 1
641 554 1
659 554 1
366 555 1
381 555 1
468 555 1
494 555 1
642 555 1
660 555 1
367 556 1
382 556 1
469 556 1
495 556 1
643 556 1
661 556 1
368 557 1
383 557 1
470 557 1
496 557 1
644 557 1
662 557 1
369 558 1
384 558 1
471 558 1
497 558 1
645 558 1
663 558 1
370 559 1
385 559 1
472 559 1
498 559 1
646 559 1
664 559 1
371 560 1
386 560 1
473 560 1
499 560 1
647 560 1
665 560 1
372 561 1
387 561 1
474 561 1
500 561 1
648 561 1
666 561 1
373 562 1
388 562 1
475 562 1
501 562 1
649 562 1
667 562 1
374 563 1
389 563 1
476 563 1
502 563 1
650 563 1
668 563 1
375 564 1
390 564 1
477 564 1
503 564 1
651 564 1
669 564 1
376 565 1
391 565 1
478 565 1
504 565 1
652 565 1
670 565 1
377 566 1
392 566 1
479 566 1
505 566 1
653 566 1
671 566 1
378 567 1
393 567 1
480 567 1
506 567 1
654 567 1
672 567 1
379 568 1
394 568 1
481 568 1
507 568 1
655 568 1
673 568 1
380 569 1
395 569 1
482 569 1
508 569 1
656 569 1
674 569 1
381 570 1
396 570 1
483 570 1
509 570 1
657 570 1
675 570 1
382 571 1
397 571 1
484 571 1
510 571 1
658 571 1
676 571 1
383 572 1
398 572 1
485 572 1
511 572 1
659 572 1
677 572 1
384 573 1
399 573 1
486 573 1
512 573 1
660 573 1
678 573 1
385 574 1
400 574 1
487 574 1
513 574 1
661 574 1
679 574 1
386 575 1
401 575 1
488 575 1
514 575 1
662 575 1
680 575 1
387 576 1
402 576 1
489 576 1
515 576 1
663 576 1
681 576 1
388 577 1
403 577 1
490 577 1
516 577 1
664 577 1
682 577 1
389 578 1
404 578 1
491 578 1
517 578 1
665 578 1
683 578 1
390 579 1
405 579 1
492 579 1
518 579 1
666 579 1
684 579 1
391 580 1
406 580 1
493 580 1
519 580 1
667 580 1
685 580 1
392 581 1
407 581 1
494 581 1
520 581 1
668 581 1
686 581 1
393 582 1
408 582 1
495 582 1
521 582 1
669 582 1
687 582 1
394 583 1
409 583 1
496 583 1
522 583 1
670 583 1
688 583 1
395 584 1
410 584 1
436 584 1
497 584 1
671 584 1
689 584 1
396 585 1
411 585 1
437 585 1
498 585 1
672 585 1
690 585 1
397 586 1
412 586 1
438 586 1
499 586 1
673 586 1
691 586 1
398 587 1
413 587 1
439 587 1
500 587 1
674 587 1
692 587 1
399 588 1
414 588 1
440 588 1
501 588 1
675 588 1
693 588 1
400 589 1
415 589 1
441 589 1
502 589 1
676 589 1
694 589 1
401 590 1
416 590 1
442 590 1
503 590 1
677 590 1
695 590 1
402 591 1
417 591 1
443 591 1
504 591 1
678 591 1
696 591 1
403 592 1
418 592 1
444 592 1
505 592 1
610 592 1
679 592 1
404 593 1
419 593 1
445 593 1
506 593 1
611 593 1
680 593 1
405 594 1
420 594 1
446 594 1
507 594 1
612 594 1
681 594 1
406 595 1
421 595 1
447 595 1
508 595 1
613 595 1
682 595 1
407 596 1
422 596 1
448 596 1
509 596 1
614 596 1
683 596 1
408 597 1
423 597 1
449 597 1
510 597 1
615 597 1
684 597 1
409 598 1
424 598 1
450 598 1
511 598 1
616 598 1
685 598 1
410 599 1
425 599 1
451 599 1
512 599 1
617 599 1
686 599 1
411 600 1
426 600 1
452 600 1
513 600 1
618 600 1
687 600 1
412 601 1
427 601 1
453 601 1
514 601 1
619 601 1
688 601 1
413 602 1
428 602 1
454 602 1
515 602 1
620 602 1
689 602 1
414 603 1
429 603 1
455 603 1
516 603 1
621 603 1
690 603 1
415 604 1
430 604 1
456 604 1
517 604 1
622 604 1
691 604 1
416 605 1
431 605 1
457 605 1
518 605 1
623 605 1
692 605 1
417 606 1
432 606 1
458 606 1
519 606 1
624 606 1
693 606 1
418 607 1
433 607 1
459 607 1
520 607 1
625 607 1
694 607 1
419 608 1
434 608 1
460 608 1
521 608 1
626 608 1
695 608 1
420 609 1
435 609 1
461 609 1
522 609 1
627 609 1
696 609 1
349 610 1
422 610 1
523 610 1
549 610 1
697 610 1
715 610 1
350 611 1
423 611 1
524 611 1
550 611 1
698 611 1
716 611 1
351 612 1
424 612 1
525 612 1
551 612 1
699 612 1
717 612 1
352 613 1
425 613 1
526 613 1
552 613 1
700 613 1
718 613 1
353 614 1
426 614 1
527 614 1
553 614 1
701 614 1
719 614 1
354 615 1
427 615 1
528 615 1
554 615 1
702 615 1
720 615 1
355 616 1
428 616 1
529 616 1
555 616 1
703 616 1
721 616 1
356 617 1
429 617 1
530 617 1
556 617 1
704 617 1
722 617 1
357 618 1
430 618 1
531 618 1
557 618 1
705 618 1
723 618 1
358 619 1
431 619 1
532 619 1
558 619 1
706 619 1
724 619 1
359 620 1
432 620 1
533 620 1
559 620 1
707 620 1
725 620 1
360 621 1
433 621 1
534 621 1
560 621 1
708 621 1
726 621 1
361 622 1
434 622 1
535 622 1
561 622 1
709 622 1
727 622 1
362 623 1
435 623 1
536 623 1
562 623 1
710 623 1
728 623 1
349 624 1
363 624 1
537 624 1
563 624 1
711 624 1
729 624 1
350 625 1
364 625 1
538 625 1
564 625 1
712 625 1
730 625 1
351 626 1
365 626 1
539 626 1
565 626 1
713 626 1
731 626 1
352 627 1
366 627 1
540 627 1
566 627 1
714 627 1
732 627 1
353 628 1
367 628 1
541 628 1
567 628 1
715 628 1
733 628 1
354 629 1
368 629 1
542 629 1
568 629 1
716 629 1
734 629 1
355 630 1
369 630 1
543 630 1
569 630 1
717 630 1
735 630 1
356 631 1
370 631 1
544 631 1
570 631 1
718 631 1
736 631 1
357 632 1
371 632 1
545 632 1
571 632 1
719 632 1
737 632 1
358 633 1
372 633 1
546 633 1
572 633 1
720 633 1
738 633 1
359 634 1
373 634 1
547 634 1
573 634 1
721 634 1
739 634 1
360 635 1
374 635 1
548 635 1
574 635 1
722 635 1
740 635 1
361 636 1
375 636 1
549 636 1
575 636 1
723 636 1
741 636 1
362 637 1
376 637 1
550 637 1
576 637 1
724 637 1
742 637 1
363 638 1
377 638 1
551 638 1
577 638 1
725 638 1
743 638 1
364 639 1
378 639 1
552 639 1
578 639 1
726 639 1
744 639 1
365 640 1
379 640 1
553 640 1
579 640 1
727 640 1
745 640 1
366 641 1
380 641 1
554 641 1
580 641 1
728 641 1
746 641 1
367 642 1
381 642 1
555 642 1
581 642 1
729 642 1
747 642 1
368 643 1
382 643 1
556 643 1
582 643 1
730 643 1
748 643 1
369 644 1
383 644 1
557 644 1
583 644 1
731 644 1
749 644 1
370 645 1
384 645 1
558 645 1
584 645 1
732 645 1
750 645 1
371 646 1
385 646 1
559 646 1
585 646 1
733 646 1
751 646 1
372 647 1
386 647 1
560 647 1
586 647 1
734 647 1
752 647 1
373 648 1
387 648 1
561 648 1
587 648 1
735 648 1
753 648 1
374 649 1
388 649 1
562 649 1
588 649 1
736 649 1
754 649 1
375 650 1
389 650 1
563 650 1
589 650 1
737 650 1
755 650 1
376 651 1
390 651 1
564 651 1
590 651 1
738 651 1
756 651 1
377 652 1
391 652 1
565 652 1
591 652 1
739 652 1
757 652 1
378 653 1
392 653 1
566 653 1
592 653 1
740 653 1
758 653 1
379 654 1
393 654 1
567 654 1
593 654 1
741 654 1
759 654 1
380 655 1
394 655 1
568 655 1
594 655 1
742 655 1
760 655 1
381 656 1
395 656 1
569 656 1
595 656 1
743 656 1
761 656 1
382 657 1
396 657 1
570 657 1
596 657 1
744 657 1
762 657 1
383 658 1
397 658 1
571 658 1
597 658 1
745 658 1
763 658 1
384 659 1
398 659 1
572 659 1
598 659 1
746 659 1
764 659 1
385 660 1
399 660 1
573 660 1
599 660 1
747 660 1
765 660 1
386 661 1
400 661 1
574 661 1
600 661 1
748 661 1
766 661 1
387 662 1
401 662 1
575 662 1
601 662 1
749 662 1
767 662 1
388 663 1
402 663 1
576 663 1
602 663 1
750 663 1
768 663 1
389 664 1
403 664 1
577 664 1
603 664 1
751 664 1
769 664 1
390 665 1
404 665 1
578 665 1
604 665 1
752 665 1
770 665 1
391 666 1
405 666 1
579 666 1
605 666 1
753 666 1
771 666 1
392 667 1
406 667 1
580 667 1
606 667 1
754 667 1
772 667 1
393 668 1
407 668 1
581 668 1
607 668 1
755 668 1
773 668 1
394 669 1
408 669 1
582 669 1
608 669 1
756 669 1
774 669 1
395 670 1
409 670 1
583 670 1
609 670 1
757 670 1
775 670 1
396 671 1
410 671 1
523 671 1
584 671 1
758 671 1
776 671 1
397 672 1
411 672 1
524 672 1
585 672 1
759 672 1
777 672 1
398 673 1
412 673 1
525 673 1
586 673 1
760 673 1
778 673 1
399 674 1
413 674 1
526 674 1
587 674 1
761 674 1
779 674 1
400 675 1
414 675 1
527 675 1
588 675 1
762 675 1
780 675 1
401 676 1
415 676 1
528 676 1
589 676 1
763 676 1
781 676 1
402 677 1
416 677 1
529 677 1
590 677 1
764 677 1
782 677 1
403 678 1
417 678 1
530 678 1
591 678 1
765 678 1
783 678 1
404 679 1
418 679 1
531 679 1
592 679 1
697 679 1
766 679 1
405 680 1
419 680 1
532 680 1
593 680 1
698 680 1
767 680 1
406 681 1
420 681 1
533 681 1
594 681 1
699 681 1
768 681 1
407 682 1
421 682 1
534 682 1
595 682 1
700 682 1
769 682 1
408 683 1
422 683 1
535 683 1
596 683 1
701 683 1
770 683 1
409 684 1
423 684 1
536 684 1
597 684 1
702 684 1
771 684 1
410 685 1
424 685 1
537 685 1
598 685 1
703 685 1
772 685 1
411 686 1
425 686 1
538 686 1
599 686 1
704 686 1
773 686 1
412 687 1
426 687 1
539 687 1
600 687 1
705 687 1
774 687 1
413 688 1
427 688 1
540 688 1
601 688 1
706 688 1
775 688 1
414 689 1
428 689 1
541 689 1
602 689 1
707 689 1
776 689 1
415 690 1
429 690 1
542 690 1
603 690 1
708 690 1
777 690 1
416 691 1
430 691 1
543 691 1
604 691 1
709 691 1
778 691 1
417 692 1
431 692 1
544 692 1
605 692 1
710 692 1
779 692 1
418 693 1
432 693 1
545 693 1
606 693 1
711 693 1
780 693 1
419 694 1
433 694 1
546 694 1
607 694 1
712 694 1
781 694 1
420 695 1
434 695 1
547 695 1
608 695 1
713 695 1
782 695 1
421 696 1
435 696 1
548 696 1
609 696 1
714 696 1
783 696 1
436 697 1
509 697 1
523 697 1
595 697 1
784 697 1
802 697 1
437 698 1
510 698 1
524 698 1
596 698 1
785 698 1
803 698 1
438 699 1
511 699 1
525 699 1
597 699 1
786 699 1
804 699 1
439 700 1
512 700 1
526 700 1
598 700 1
787 700 1
805 700 1
440 701 1
513 701 1
527 701 1
599 701 1
788 701 1
806 701 1
441 702 1
514 702 1
528 702 1
600 702 1
789 702 1
807 702 1
442 703 1
515 703 1
529 703 1
601 703 1
790 703 1
808 703 1
443 704 1
516 704 1
530 704 1
602 704 1
791 704 1
809 704 1
444 705 1
517 705 1
531 705 1
603 705 1
792 705 1
810 705 1
445 706 1
518 706 1
532 706 1
604 706 1
793 706 1
811 706 1
446 707 1
519 707 1
533 707 1
605 707 1
794 707 1
812 707 1
447 708 1
520 708 1
534 708 1
606 708 1
795 708 1
813 708 1
448 709 1
521 709 1
535 709 1
607 709 1
796 709 1
814 709 1
449 710 1
522 710 1
536 710 1
608 710 1
797 710 1
815 710 1
436 711 1
450 711 1
537 711 1
609 711 1
798 711 1
816 711 1
437 712 1
451 712 1
523 712 1
538 712 1
799 712 1
817 712 1
438 713 1
452 713 1
524 713 1
539 713 1
800 713 1
818 713 1
439 714 1
453 714 1
525 714 1
540 714 1
801 714 1
819 714 1
440 715 1
454 715 1
526 715 1
541 715 1
802 715 1
820 715 1
441 716 1
455 716 1
527 716 1
542 716 1
803 716 1
821 716 1
442 717 1
456 717 1
528 717 1
543 717 1
804 717 1
822 717 1
443 718 1
457 718 1
529 718 1
544 718 1
805 718 1
823 718 1
444 719 1
458 719 1
530 719 1
545 719 1
806 719 1
824 719 1
445 720 1
459 720 1
531 720 1
546 720 1
807 720 1
825 720 1
446 721 1
460 721 1
532 721 1
547 721 1
808 721 1
826 721 1
447 722 1
461 722 1
533 722 1
548 722 1
809 722 1
827 722 1
448 723 1
462 723 1
534 723 1
549 723 1
810 723 1
828 723 1
449 724 1
463 724 1
535 724 1
550 724 1
811 724 1
829 724 1
450 725 1
464 725 1
536 725 1
551 725 1
812 725 1
830 725 1
451 726 1
465 726 1
537 726 1
552 726 1
813 726 1
831 726 1
452 727 1
466 727 1
538 727 1
553 727 1
814 727 1
832 727 1
453 728 1
467 728 1
539 728 1
554 728 1
815 728 1
833 728 1
454 729 1
468 729 1
540 729 1
555 729 1
816 729 1
834 729 1
455 730 1
469 730 1
541 730 1
556 730 1
817 730 1
835 730 1
456 731 1
470 731 1
542 731 1
557 731 1
818 731 1
836 731 1
457 732 1
471 732 1
543 732 1
558 732 1
819 732 1
837 732 1
458 733 1
472 733 1
544 733 1
559 733 1
820 733 1
838 733 1
459 734 1
473 734 1
545 734 1
560 734 1
821 734 1
839 734 1
460 735 1
474 735 1
546 735 1
561 735 1
822 735 1
840 735 1
461 736 1
475 736 1
547 736 1
562 736 1
823 736 1
841 736 1
462 737 1
476 737 1
548 737 1
563 737 1
824 737 1
842 737 1
463 738 1
477 738 1
549 738 1
564 738 1
825 738 1
843 738 1
464 739 1
478 739 1
550 739 1
565 739 1
826 739 1
844 739 1
465 740 1
479 740 1
551 740 1
566 740 1
827 740 1
845 740 1
466 741 1
480 741 1
552 741 1
567 741 1
828 741 1
846 741 1
467 742 1
481 742 1
553 742 1
568 742 1
829 742 1
847 742 1
468 743 1
482 743 1
554 743 1
569 743 1
830 743 1
848 743 1
469 744 1
483 744 1
555 744 1
570 744 1
831 744 1
849 744 1
470 745 1
484 745 1
556 745 1
571 745 1
832 745 1
850 745 1
471 746 1
485 746 1
557 746 1
572 746 1
833 746 1
851 746 1
472 747 1
486 747 1
558 747 1
573 747 1
834 747 1
852 747 1
473 748 1
487 748 1
559 748 1
574 748 1
835 748 1
853 748 1
474 749 1
488 749 1
560 749 1
575 749 1
836 749 1
854 749 1
475 750 1
489 750 1
561 750 1
576 750 1
837 750 1
855 750 1
476 751 1
490 751 1
562 751 1
577 751 1
838 751 1
856 751 1
477 752 1
491 752 1
563 752 1
578 752 1
839 752 1
857 752 1
478 753 1
492 753 1
564 753 1
579 753 1
840 753 1
858 753 1
479 754 1
493 754 1
565 754 1
580 754 1
841 754 1
859 754 1
480 755 1
494 755 1
566 755 1
581 755 1
842 755 1
860 755 1
481 756 1
495 756 1
567 756 1
582 756 1
843 756 1
861 756 1
482 757 1
496 757 1
568 757 1
583 757 1
844 757 1
862 757 1
483 758 1
497 758 1
569 758 1
584 758 1
845 758 1
863 758 1
484 759 1
498 759 1
570 759 1
585 759 1
846 759 1
864 759 1
485 760 1
499 760 1
571 760 1
586 760 1
847 760 1
865 760 1
486 761 1
500 761 1
572 761 1
587 761 1
848 761 1
866 761 1
487 762 1
501 762 1
573 762 1
588 762 1
849 762 1
867 762 1
488 763 1
502 763 1
574 763 1
589 763 1
850 763 1
868 763 1
489 764 1
503 764 1
575 764 1
590 764 1
851 764 1
869 764 1
490 765 1
504 765 1
576 765 1
591 765 1
852 765 1
870 765 1
491 766 1
505 766 1
577 766 1
592 766 1
784 766 1
853 766 1
492 767 1
506 767 1
578 767 1
593 767 1
785 767 1
854 767 1
493 768 1
507 768 1
579 768 1
594 768 1
786 768 1
855 768 1
494 769 1
508 769 1
580 769 1
595 769 1
787 769 1
856 769 1
495 770 1
509 770 1
581 770 1
596 770 1
788 770 1
857 770 1
496 771 1
510 771 1
582 771 1
597 771 1
789 771 1
858 771 1
497 772 1
511 772 1
583 772 1
598 772 1
790 772 1
859 772 1
498 773 1
512 773 1
584 773 1
599 773 1
791 773 1
860 773 1
499 774 1
513 774 1
585 774 1
600 774 1
792 774 1
861 774 1
500 775 1
514 775 1
586 775 1
601 775 1
793 775 1
862 775 1
501 776 1
515 776 1
587 776 1
602 776 1
794 776 1
863 776 1
502 777 1
516 777 1
588 777 1
603 777 1
795 777 1
864 777 1
503 778 1
517 778 1
589 778 1
604 778 1
796 778 1
865 778 1
504 779 1
518 779 1
590 779 1
605 779 1
797 779 1
866 779 1
505 780 1
519 780 1
591 780 1
606 780 1
798 780 1
867 780 1
506 781 1
520 781 1
592 781 1
607 781 1
799 781 1
868 781 1
507 782 1
521 782 1
593 782 1
608 782 1
800 782 1
869 782 1
508 783 1
522 783 1
594 783 1
609 783 1
801 783 1
870 783 1
610 784 1
683 784 1
697 784 1
769 784 1
784 784 1
810 784 1
611 785 1
684 785 1
698 785 1
770 785 1
785 785 1
811 785 1
612 786 1
685 786 1
699 786 1
771 786 1
786 786 1
812 786 1
613 787 1
686 787 1
700 787 1
772 787 1
787 787 1
813 787 1
614 788 1
687 788 1
701 788 1
773 788 1
788 788 1
814 788 1
615 789 1
688 789 1
702 789 1
774 789 1
789 789 1
815 789 1
616 790 1
689 790 1
703 790 1
775 790 1
790 790 1
816 790 1
617 791 1
690 791 1
704 791 1
776 791 1
791 791 1
817 791 1
618 792 1
691 792 1
705 792 1
777 792 1
792 792 1
818 792 1
619 793 1
692 793 1
706 793 1
778 793 1
793 793 1
819 793 1
620 794 1
693 794 1
707 794 1
779 794 1
794 794 1
820 794 1
621 795 1
694 795 1
708 795 1
780 795 1
795 795 1
821 795 1
622 796 1
695 796 1
709 796 1
781 796 1
796 796 1
822 796 1
623 797 1
696 797 1
710 797 1
782 797 1
797 797 1
823 797 1
610 798 1
624 798 1
711 798 1
783 798 1
798 798 1
824 798 1
611 799 1
625 799 1
697 799 1
712 799 1
799 799 1
825 799 1
612 800 1
626 800 1
698 800 1
713 800 1
800 800 1
826 800 1
613 801 1
627 801 1
699 801 1
714 801 1
801 801 1
827 801 1
614 802 1
628 802 1
700 802 1
715 802 1
802 802 1
828 802 1
615 803 1
629 803 1
701 803 1
716 803 1
803 803 1
829 803 1
616 804 1
630 804 1
702 804 1
717 804 1
804 804 1
830 804 1
617 805 1
631 805 1
703 805 1
718 805 1
805 805 1
831 805 1
618 806 1
632 806 1
704 806 1
719 806 1
806 806 1
832 806 1
619 807 1
633 807 1
705 807 1
720 807 1
807 807 1
833 807 1
620 808 1
634 808 1
706 808 1
721 808 1
808 808 1
834 808 1
621 809 1
635 809 1
707 809 1
722 809 1
809 809 1
835 809 1
622 810 1
636 810 1
708 810 1
723 810 1
810 810 1
836 810 1
623 811 1
637 811 1
709 811 1
724 811 1
811 811 1
837 811 1
624 812 1
638 812 1
710 812 1
725 812 1
812 812 1
838 812 1
625 813 1
639 813 1
711 813 1
726 813 1
813 813 1
839 813 1
626 814 1
640 814 1
712 814 1
727 814 1
814 814 1
840 814 1
627 815 1
641 815 1
713 815 1
728 815 1
815 815 1
841 815 1
628 816 1
642 816 1
714 816 1
729 816 1
816 816 1
842 816 1
629 817 1
643 817 1
715 817 1
730 817 1
817 817 1
843 817 1
630 818 1
644 818 1
716 818 1
731 818 1
818 818 1
844 818 1
631 819 1
645 819 1
717 819 1
732 819 1
819 819 1
845 819 1
632 820 1
646 820 1
718 820 1
733 820 1
820 820 1
846 820 1
633 821 1
647 821 1
719 821 1
734 821 1
821 821 1
847 821 1
634 822 1
648 822 1
720 822 1
735 822 1
822 822 1
848 822 1
635 823 1
649 823 1
721 823 1
736 823 1
823 823 1
849 823 1
636 824 1
650 824 1
722 824 1
737 824 1
824 824 1
850 824 1
637 825 1
651 825 1
723 825 1
738 825 1
825 825 1
851 825 1
638 826 1
652 826 1
724 826 1
739 826 1
826 826 1
852 826 1
639 827 1
653 827 1
725 827 1
740 827 1
827 827 1
853 827 1
640 828 1
654 828 1
726 828 1
741 828 1
828 828 1
854 828 1
641 829 1
655 829 1
727 829 1
742 829 1
829 829 1
855 829 1
642 830 1
656 830 1
728 830 1
743 830 1
830 830 1
856 830 1
643 831 1
657 831 1
729 831 1
744 831 1
831 831 1
857 831 1
644 832 1
658 832 1
730 832 1
745 832 1
832 832 1
858 832 1
645 833 1
659 833 1
731 833 1
746 833 1
833 833 1
859 833 1
646 834 1
660 834 1
732 834 1
747 834 1
834 834 1
860 834 1
647 835 1
661 835 1
733 835 1
748 835 1
835 835 1
861 835 1
648 836 1
662 836 1
734 836 1
749 836 1
836 836 1
862 836 1
649 837 1
663 837 1
735 837 1
750 837 1
837 837 1
863 837 1
650 838 1
664 838 1
736 838 1
751 838 1
838 838 1
864 838 1
651 839 1
665 839 1
737 839 1
752 839 1
839 839 1
865 839 1
652 840 1
666 840 1
738 840 1
753 840 1
840 840 1
866 840 1
653 841 1
667 841 1
739 841 1
754 841 1
841 841 1
867 841 1
654 842 1
668 842 1
740 842 1
755 842 1
842 842 1
868 842 1
655 843 1
669 843 1
741 843 1
756 843 1
843 843 1
869 843 1
656 844 1
670 844 1
742 844 1
757 844 1
844 844 1
870 844 1
657 845 1
671 845 1
743 845 1
758 845 1
784 845 1
845 845 1
658 846 1
672 846 1
744 846 1
759 846 1
785 846 1
846 846 1
659 847 1
673 847 1
745 847 1
760 847 1
786 847 1
847 847 1
660 848 1
674 848 1
746 848 1
761 848 1
787 848 1
848 848 1
661 849 1
675 849 1
747 849 1
762 849 1
788 849 1
849 849 1
662 850 1
676 850 1
748 850 1
763 850 1
789 850 1
850 850 1
663 851 1
677 851 1
749 851 1
764 851 1
790 851 1
851 851 1
664 852 1
678 852 1
750 852 1
765 852 1
791 852 1
852 852 1
665 853 1
679 853 1
751 853 1
766 853 1
792 853 1
853 853 1
666 854 1
680 854 1
752 854 1
767 854 1
793 854 1
854 854 1
667 855 1
681 855 1
753 855 1
768 855 1
794 855 1
855 855 1
668 856 1
682 856 1
754 856 1
769 856 1
795 856 1
856 856 1
669 857 1
683 857 1
755 857 1
770 857 1
796 857 1
857 857 1
670 858 1
684 858 1
756 858 1
771 858 1
797 858 1
858 858 1
671 859 1
685 859 1
757 859 1
772 859 1
798 859 1
859 859 1
672 860 1
686 860 1
758 860 1
773 860 1
799 860 1
860 860 1
673 861 1
687 861 1
759 861 1
774 861 1
800 861 1
861 861 1
674 862 1
688 862 1
760 862 1
775 862 1
801 862 1
862 862 1
675 863 1
689 863 1
761 863 1
776 863 1
802 863 1
863 863 1
676 864 1
690 864 1
762 864 1
777 864 1
803 864 1
864 864 1
677 865 1
691 865 1
763 865 1
778 865 1
804 865 1
865 865 1
678 866 1
692 866 1
764 866 1
779 866 1
805 866 1
866 866 1
679 867 1
693 867 1
765 867 1
780 867 1
806 867 1
867 867 1
680 868 1
694 868 1
766 868 1
781 868 1
807 868 1
868 868 1
681 869 1
695 869 1
767 869 1
782 869 1
808 869 1
869 869 1
682 870 1
696 870 1
768 870 1
783 870 1
809 870 1
870 870 1
