%%MatrixMarket matrix coordinate integer general
% Binary matrix; one-based indices; arithmetic over GF(2)
224 336 2016
5 1 1
28 1 1
32 1 1
59 1 1
99 1 1
112 1 1
6 2 1
22 2 1
33 2 1
60 2 1
100 2 1
106 2 1
7 3 1
23 3 1
34 3 1
61 3 1
101 3 1
107 3 1
1 4 1
24 4 1
35 4 1
62 4 1
102 4 1
108 4 1
2 5 1
25 5 1
29 5 1
63 5 1
103 5 1
109 5 1
3 6 1
26 6 1
30 6 1
57 6 1
104 6 1
110 6 1
4 7 1
27 7 1
31 7 1
58 7 1
105 7 1
111 7 1
12 8 1
21 8 1
39 8 1
66 8 1
105 8 1
106 8 1
13 9 1
15 9 1
40 9 1
67 9 1
99 9 1
107 9 1
14 10 1
16 10 1
41 10 1
68 10 1
100 10 1
108 10 1
8 11 1
17 11 1
42 11 1
69 11 1
101 11 1
109 11 1
9 12 1
18 12 1
36 12 1
70 12 1
102 12 1
110 12 1
10 13 1
19 13 1
37 13 1
64 13 1
103 13 1
111 13 1
11 14 1
20 14 1
38 14 1
65 14 1
104 14 1
112 14 1
14 15 1
19 15 1
46 15 1
73 15 1
85 15 1
98 15 1
8 16 1
20 16 1
47 16 1
74 16 1
86 16 1
92 16 1
9 17 1
21 17 1
48 17 1
75 17 1
87 17 1
93 17 1
10 18 1
15 18 1
49 18 1
76 18 1
88 18 1
94 18 1
11 19 1
16 19 1
43 19 1
77 19 1
89 19 1
95 19 1
12 20 1
17 20 1
44 20 1
71 20 1
90 20 1
96 20 1
13 21 1
18 21 1
45 21 1
72 21 1
91 21 1
97 21 1
7 22 1
26 22 1
53 22 1
80 22 1
91 22 1
92 22 1
1 23 1
27 23 1
54 23 1
81 23 1
85 23 1
93 23 1
2 24 1
28 24 1
55 24 1
82 24 1
86 24 1
94 24 1
3 25 1
22 25 1
56 25 1
83 25 1
87 25 1
95 25 1
4 26 1
23 26 1
50 26 1
84 26 1
88 26 1
96 26 1
5 27 1
24 27 1
51 27 1
78 27 1
89 27 1
97 27 1
6 28 1
25 28 1
52 28 1
79 28 1
90 28 1
98 28 1
4 29 1
33 29 1
56 29 1
71 29 1
84 29 1
87 29 1
5 30 1
34 30 1
50 30 1
72 30 1
78 30 1
88 30 1
6 31 1
35 31 1
51 31 1
73 31 1
79 31 1
89 31 1
7 32 1
29 32 1
52 32 1
74 32 1
80 32 1
90 32 1
1 33 1
30 33 1
53 33 1
75 33 1
81 33 1
91 33 1
2 34 1
31 34 1
54 34 1
76 34 1
82 34 1
85 34 1
3 35 1
32 35 1
55 35 1
77 35 1
83 35 1
86 35 1
11 36 1
40 36 1
49 36 1
77 36 1
78 36 1
94 36 1
12 37 1
41 37 1
43 37 1
71 37 1
79 37 1
95 37 1
13 38 1
42 38 1
44 38 1
72 38 1
80 38 1
96 38 1
14 39 1
36 39 1
45 39 1
73 39 1
81 39 1
97 39 1
8 40 1
37 40 1
46 40 1
74 40 1
82 40 1
98 40 1
9 41 1
38 41 1
47 41 1
75 41 1
83 41 1
92 41 1
10 42 1
39 42 1
48 42 1
76 42 1
84 42 1
93 42 1
18 43 1
42 43 1
47 43 1
57 43 1
70 43 1
101 43 1
19 44 1
36 44 1
48 44 1
58 44 1
64 44 1
102 44 1
20 45 1
37 45 1
49 45 1
59 45 1
65 45 1
103 45 1
21 46 1
38 46 1
43 46 1
60 46 1
66 46 1
104 46 1
15 47 1
39 47 1
44 47 1
61 47 1
67 47 1
105 47 1
16 48 1
40 48 1
45 48 1
62 48 1
68 48 1
99 48 1
17 49 1
41 49 1
46 49 1
63 49 1
69 49 1
100 49 1
25 50 1
35 50 1
54 50 1
63 50 1
64 50 1
108 50 1
26 51 1
29 51 1
55 51 1
57 51 1
65 51 1
109 51 1
27 52 1
30 52 1
56 52 1
58 52 1
66 52 1
110 52 1
28 53 1
31 53 1
50 53 1
59 53 1
67 53 1
111 53 1
22 54 1
32 54 1
51 54 1
60 54 1
68 54 1
112 54 1
23 55 1
33 55 1
52 55 1
61 55 1
69 55 1
106 55 1
24 56 1
34 56 1
53 56 1
62 56 1
70 56 1
107 56 1
12 57 1
20 57 1
22 57 1
115 57 1
155 57 1
168 57 1
13 58 1
21 58 1
23 58 1
116 58 1
156 58 1
162 58 1
14 59 1
15 59 1
24 59 1
117 59 1
157 59 1
163 59 1
8 60 1
16 60 1
25 60 1
118 60 1
158 60 1
164 60 1
9 61 1
17 61 1
26 61 1
119 61 1
159 61 1
165 61 1
10 62 1
18 62 1
27 62 1
113 62 1
160 62 1
166 62 1
11 63 1
19 63 1
28 63 1
114 63 1
161 63 1
167 63 1
5 64 1
15 64 1
27 64 1
122 64 1
161 64 1
162 64 1
6 65 1
16 65 1
28 65 1
123 65 1
155 65 1
163 65 1
7 66 1
17 66 1
22 66 1
124 66 1
156 66 1
164 66 1
1 67 1
18 67 1
23 67 1
125 67 1
157 67 1
165 67 1
2 68 1
19 68 1
24 68 1
126 68 1
158 68 1
166 68 1
3 69 1
20 69 1
25 69 1
120 69 1
159 69 1
167 69 1
4 70 1
21 70 1
26 70 1
121 70 1
160 70 1
168 70 1
6 71 1
8 71 1
26 71 1
129 71 1
141 71 1
154 71 1
7 72 1
9 72 1
27 72 1
130 72 1
142 72 1
148 72 1
1 73 1
10 73 1
28 73 1
131 73 1
143 73 1
149 73 1
2 74 1
11 74 1
22 74 1
132 74 1
144 74 1
150 74 1
3 75 1
12 75 1
23 75 1
133 75 1
145 75 1
151 75 1
4 76 1
13 76 1
24 76 1
127 76 1
146 76 1
152 76 1
5 77 1
14 77 1
25 77 1
128 77 1
147 77 1
153 77 1
1 78 1
13 78 1
19 78 1
136 78 1
147 78 1
148 78 1
2 79 1
14 79 1
20 79 1
137 79 1
141 79 1
149 79 1
3 80 1
8 80 1
21 80 1
138 80 1
142 80 1
150 80 1
4 81 1
9 81 1
15 81 1
139 81 1
143 81 1
151 81 1
5 82 1
10 82 1
16 82 1
140 82 1
144 82 1
152 82 1
6 83 1
11 83 1
17 83 1
134 83 1
145 83 1
153 83 1
7 84 1
12 84 1
18 84 1
135 84 1
146 84 1
154 84 1
40 85 1
48 85 1
50 85 1
127 85 1
140 85 1
143 85 1
41 86 1
49 86 1
51 86 1
128 86 1
134 86 1
144 86 1
42 87 1
43 87 1
52 87 1
129 87 1
135 87 1
145 87 1
36 88 1
44 88 1
53 88 1
130 88 1
136 88 1
146 88 1
37 89 1
45 89 1
54 89 1
131 89 1
137 89 1
147 89 1
38 90 1
46 90 1
55 90 1
132 90 1
138 90 1
141 90 1
39 91 1
47 91 1
56 91 1
133 91 1
139 91 1
142 91 1
33 92 1
43 92 1
55 92 1
133 92 1
134 92 1
150 92 1
34 93 1
44 93 1
56 93 1
127 93 1
135 93 1
151 93 1
35 94 1
45 94 1
50 94 1
128 94 1
136 94 1
152 94 1
29 95 1
46 95 1
51 95 1
129 95 1
137 95 1
153 95 1
30 96 1
47 96 1
52 96 1
130 96 1
138 96 1
154 96 1
31 97 1
48 97 1
53 97 1
131 97 1
139 97 1
148 97 1
32 98 1
49 98 1
54 98 1
132 98 1
140 98 1
149 98 1
34 99 1
36 99 1
54 99 1
113 99 1
126 99 1
157 99 1
35 100 1
37 100 1
55 100 1
114 100 1
120 100 1
158 100 1
29 101 1
38 101 1
56 101 1
115 101 1
121 101 1
159 101 1
30 102 1
39 102 1
50 102 1
116 102 1
122 102 1
160 102 1
31 103 1
40 103 1
51 103 1
117 103 1
123 103 1
161 103 1
32 104 1
41 104 1
52 104 1
118 104 1
124 104 1
155 104 1
33 105 1
42 105 1
53 105 1
119 105 1
125 105 1
156 105 1
29 106 1
41 106 1
47 106 1
119 106 1
120 106 1
164 106 1
30 107 1
42 107 1
48 107 1
113 107 1
121 107 1
165 107 1
31 108 1
36 108 1
49 108 1
114 108 1
122 108 1
166 108 1
32 109 1
37 109 1
43 109 1
115 109 1
123 109 1
167 109 1
33 110 1
38 110 1
44 110 1
116 110 1
124 110 1
168 110 1
34 111 1
39 111 1
45 111 1
117 111 1
125 111 1
162 111 1
35 112 1
40 112 1
46 112 1
118 112 1
126 112 1
163 112 1
36 113 1
37 113 1
53 113 1
171 113 1
211 113 1
224 113 1
37 114 1
38 114 1
54 114 1
172 114 1
212 114 1
218 114 1
38 115 1
39 115 1
55 115 1
173 115 1
213 115 1
219 115 1
39 116 1
40 116 1
56 116 1
174 116 1
214 116 1
220 116 1
40 117 1
41 117 1
50 117 1
175 117 1
215 117 1
221 117 1
41 118 1
42 118 1
51 118 1
169 118 1
216 118 1
222 118 1
36 119 1
42 119 1
52 119 1
170 119 1
217 119 1
223 119 1
29 120 1
30 120 1
46 120 1
178 120 1
217 120 1
218 120 1
30 121 1
31 121 1
47 121 1
179 121 1
211 121 1
219 121 1
31 122 1
32 122 1
48 122 1
180 122 1
212 122 1
220 122 1
32 123 1
33 123 1
49 123 1
181 123 1
213 123 1
221 123 1
33 124 1
34 124 1
43 124 1
182 124 1
214 124 1
222 124 1
34 125 1
35 125 1
44 125 1
176 125 1
215 125 1
223 125 1
29 126 1
35 126 1
45 126 1
177 126 1
216 126 1
224 126 1
39 127 1
50 127 1
51 127 1
185 127 1
197 127 1
210 127 1
40 128 1
51 128 1
52 128 1
186 128 1
198 128 1
204 128 1
41 129 1
52 129 1
53 129 1
187 129 1
199 129 1
205 129 1
42 130 1
53 130 1
54 130 1
188 130 1
200 130 1
206 130 1
36 131 1
54 131 1
55 131 1
189 131 1
201 131 1
207 131 1
37 132 1
55 132 1
56 132 1
183 132 1
202 132 1
208 132 1
38 133 1
50 133 1
56 133 1
184 133 1
203 133 1
209 133 1
32 134 1
43 134 1
44 134 1
192 134 1
203 134 1
204 134 1
33 135 1
44 135 1
45 135 1
193 135 1
197 135 1
205 135 1
34 136 1
45 136 1
46 136 1
194 136 1
198 136 1
206 136 1
35 137 1
46 137 1
47 137 1
195 137 1
199 137 1
207 137 1
29 138 1
47 138 1
48 138 1
196 138 1
200 138 1
208 138 1
30 139 1
48 139 1
49 139 1
190 139 1
201 139 1
209 139 1
31 140 1
43 140 1
49 140 1
191 140 1
202 140 1
210 140 1
8 141 1
9 141 1
25 141 1
183 141 1
196 141 1
199 141 1
9 142 1
10 142 1
26 142 1
184 142 1
190 142 1
200 142 1
10 143 1
11 143 1
27 143 1
185 143 1
191 143 1
201 143 1
11 144 1
12 144 1
28 144 1
186 144 1
192 144 1
202 144 1
12 145 1
13 145 1
22 145 1
187 145 1
193 145 1
203 145 1
13 146 1
14 146 1
23 146 1
188 146 1
194 146 1
197 146 1
8 147 1
14 147 1
24 147 1
189 147 1
195 147 1
198 147 1
1 148 1
2 148 1
18 148 1
189 148 1
190 148 1
206 148 1
2 149 1
3 149 1
19 149 1
183 149 1
191 149 1
207 149 1
3 150 1
4 150 1
20 150 1
184 150 1
192 150 1
208 150 1
4 151 1
5 151 1
21 151 1
185 151 1
193 151 1
209 151 1
5 152 1
6 152 1
15 152 1
186 152 1
194 152 1
210 152 1
6 153 1
7 153 1
16 153 1
187 153 1
195 153 1
204 153 1
1 154 1
7 154 1
17 154 1
188 154 1
196 154 1
205 154 1
11 155 1
22 155 1
23 155 1
169 155 1
182 155 1
213 155 1
12 156 1
23 156 1
24 156 1
170 156 1
176 156 1
214 156 1
13 157 1
24 157 1
25 157 1
171 157 1
177 157 1
215 157 1
14 158 1
25 158 1
26 158 1
172 158 1
178 158 1
216 158 1
8 159 1
26 159 1
27 159 1
173 159 1
179 159 1
217 159 1
9 160 1
27 160 1
28 160 1
174 160 1
180 160 1
211 160 1
10 161 1
22 161 1
28 161 1
175 161 1
181 161 1
212 161 1
4 162 1
15 162 1
16 162 1
175 162 1
176 162 1
220 162 1
5 163 1
16 163 1
17 163 1
169 163 1
177 163 1
221 163 1
6 164 1
17 164 1
18 164 1
170 164 1
178 164 1
222 164 1
7 165 1
18 165 1
19 165 1
171 165 1
179 165 1
223 165 1
1 166 1
19 166 1
20 166 1
172 166 1
180 166 1
224 166 1
2 167 1
20 167 1
21 167 1
173 167 1
181 167 1
218 167 1
3 168 1
15 168 1
21 168 1
174 168 1
182 168 1
219 168 1
68 169 1
76 169 1
78 169 1
117 169 1
140 169 1
144 169 1
69 170 1
77 170 1
79 170 1
118 170 1
134 170 1
145 170 1
70 171 1
71 171 1
80 171 1
119 171 1
135 171 1
146 171 1
64 172 1
72 172 1
81 172 1
113 172 1
136 172 1
147 172 1
65 173 1
73 173 1
82 173 1
114 173 1
137 173 1
141 173 1
66 174 1
74 174 1
83 174 1
115 174 1
138 174 1
142 174 1
67 175 1
75 175 1
84 175 1
116 175 1
139 175 1
143 175 1
61 176 1
71 176 1
83 176 1
124 176 1
133 176 1
151 176 1
62 177 1
72 177 1
84 177 1
125 177 1
127 177 1
152 177 1
63 178 1
73 178 1
78 178 1
126 178 1
128 178 1
153 178 1
57 179 1
74 179 1
79 179 1
120 179 1
129 179 1
154 179 1
58 180 1
75 180 1
80 180 1
121 180 1
130 180 1
148 180 1
59 181 1
76 181 1
81 181 1
122 181 1
131 181 1
149 181 1
60 182 1
77 182 1
82 182 1
123 182 1
132 182 1
150 182 1
62 183 1
64 183 1
82 183 1
126 183 1
131 183 1
158 183 1
63 184 1
65 184 1
83 184 1
120 184 1
132 184 1
159 184 1
57 185 1
66 185 1
84 185 1
121 185 1
133 185 1
160 185 1
58 186 1
67 186 1
78 186 1
122 186 1
127 186 1
161 186 1
59 187 1
68 187 1
79 187 1
123 187 1
128 187 1
155 187 1
60 188 1
69 188 1
80 188 1
124 188 1
129 188 1
156 188 1
61 189 1
70 189 1
81 189 1
125 189 1
130 189 1
157 189 1
57 190 1
69 190 1
75 190 1
119 190 1
138 190 1
165 190 1
58 191 1
70 191 1
76 191 1
113 191 1
139 191 1
166 191 1
59 192 1
64 192 1
77 192 1
114 192 1
140 192 1
167 192 1
60 193 1
65 193 1
71 193 1
115 193 1
134 193 1
168 193 1
61 194 1
66 194 1
72 194 1
116 194 1
135 194 1
162 194 1
62 195 1
67 195 1
73 195 1
117 195 1
136 195 1
163 195 1
63 196 1
68 196 1
74 196 1
118 196 1
137 196 1
164 196 1
96 197 1
104 197 1
106 197 1
116 197 1
145 197 1
168 197 1
97 198 1
105 198 1
107 198 1
117 198 1
146 198 1
162 198 1
98 199 1
99 199 1
108 199 1
118 199 1
147 199 1
163 199 1
92 200 1
100 200 1
109 200 1
119 200 1
141 200 1
164 200 1
93 201 1
101 201 1
110 201 1
113 201 1
142 201 1
165 201 1
94 202 1
102 202 1
111 202 1
114 202 1
143 202 1
166 202 1
95 203 1
103 203 1
112 203 1
115 203 1
144 203 1
167 203 1
89 204 1
99 204 1
111 204 1
123 204 1
152 204 1
161 204 1
90 205 1
100 205 1
112 205 1
124 205 1
153 205 1
155 205 1
91 206 1
101 206 1
106 206 1
125 206 1
154 206 1
156 206 1
85 207 1
102 207 1
107 207 1
126 207 1
148 207 1
157 207 1
86 208 1
103 208 1
108 208 1
120 208 1
149 208 1
158 208 1
87 209 1
104 209 1
109 209 1
121 209 1
150 209 1
159 209 1
88 210 1
105 210 1
110 210 1
122 210 1
151 210 1
160 210 1
90 211 1
92 211 1
110 211 1
130 211 1
154 211 1
159 211 1
91 212 1
93 212 1
111 212 1
131 212 1
148 212 1
160 212 1
85 213 1
94 213 1
112 213 1
132 213 1
149 213 1
161 213 1
86 214 1
95 214 1
106 214 1
133 214 1
150 214 1
155 214 1
87 215 1
96 215 1
107 215 1
127 215 1
151 215 1
156 215 1
88 216 1
97 216 1
108 216 1
128 216 1
152 216 1
157 216 1
89 217 1
98 217 1
109 217 1
129 217 1
153 217 1
158 217 1
85 218 1
97 218 1
103 218 1
137 218 1
147 218 1
166 218 1
86 219 1
98 219 1
104 219 1
138 219 1
141 219 1
167 219 1
87 220 1
92 220 1
105 220 1
139 220 1
142 220 1
168 220 1
88 221 1
93 221 1
99 221 1
140 221 1
143 221 1
162 221 1
89 222 1
94 222 1
100 222 1
134 222 1
144 222 1
163 222 1
90 223 1
95 223 1
101 223 1
135 223 1
145 223 1
164 223 1
91 224 1
96 224 1
102 224 1
136 224 1
146 224 1
165 224 1
92 225 1
93 225 1
109 225 1
173 225 1
196 225 1
200 225 1
93 226 1
94 226 1
110 226 1
174 226 1
190 226 1
201 226 1
94 227 1
95 227 1
111 227 1
175 227 1
191 227 1
202 227 1
95 228 1
96 228 1
112 228 1
169 228 1
192 228 1
203 228 1
96 229 1
97 229 1
106 229 1
170 229 1
193 229 1
197 229 1
97 230 1
98 230 1
107 230 1
171 230 1
194 230 1
198 230 1
92 231 1
98 231 1
108 231 1
172 231 1
195 231 1
199 231 1
85 232 1
86 232 1
102 232 1
180 232 1
189 232 1
207 232 1
86 233 1
87 233 1
103 233 1
181 233 1
183 233 1
208 233 1
87 234 1
88 234 1
104 234 1
182 234 1
184 234 1
209 234 1
88 235 1
89 235 1
105 235 1
176 235 1
185 235 1
210 235 1
89 236 1
90 236 1
99 236 1
177 236 1
186 236 1
204 236 1
90 237 1
91 237 1
100 237 1
178 237 1
187 237 1
205 237 1
85 238 1
91 238 1
101 238 1
179 238 1
188 238 1
206 238 1
95 239 1
106 239 1
107 239 1
182 239 1
187 239 1
214 239 1
96 240 1
107 240 1
108 240 1
176 240 1
188 240 1
215 240 1
97 241 1
108 241 1
109 241 1
177 241 1
189 241 1
216 241 1
98 242 1
109 242 1
110 242 1
178 242 1
183 242 1
217 242 1
92 243 1
110 243 1
111 243 1
179 243 1
184 243 1
211 243 1
93 244 1
111 244 1
112 244 1
180 244 1
185 244 1
212 244 1
94 245 1
106 245 1
112 245 1
181 245 1
186 245 1
213 245 1
88 246 1
99 246 1
100 246 1
175 246 1
194 246 1
221 246 1
89 247 1
100 247 1
101 247 1
169 247 1
195 247 1
222 247 1
90 248 1
101 248 1
102 248 1
170 248 1
196 248 1
223 248 1
91 249 1
102 249 1
103 249 1
171 249 1
190 249 1
224 249 1
85 250 1
103 250 1
104 250 1
172 250 1
191 250 1
218 250 1
86 251 1
104 251 1
105 251 1
173 251 1
192 251 1
219 251 1
87 252 1
99 252 1
105 252 1
174 252 1
193 252 1
220 252 1
64 253 1
65 253 1
81 253 1
172 253 1
201 253 1
224 253 1
65 254 1
66 254 1
82 254 1
173 254 1
202 254 1
218 254 1
66 255 1
67 255 1
83 255 1
174 255 1
203 255 1
219 255 1
67 256 1
68 256 1
84 256 1
175 256 1
197 256 1
220 256 1
68 257 1
69 257 1
78 257 1
169 257 1
198 257 1
221 257 1
69 258 1
70 258 1
79 258 1
170 258 1
199 258 1
222 258 1
64 259 1
70 259 1
80 259 1
171 259 1
200 259 1
223 259 1
57 260 1
58 260 1
74 260 1
179 260 1
208 260 1
217 260 1
58 261 1
59 261 1
75 261 1
180 261 1
209 261 1
211 261 1
59 262 1
60 262 1
76 262 1
181 262 1
210 262 1
212 262 1
60 263 1
61 263 1
77 263 1
182 263 1
204 263 1
213 263 1
61 264 1
62 264 1
71 264 1
176 264 1
205 264 1
214 264 1
62 265 1
63 265 1
72 265 1
177 265 1
206 265 1
215 265 1
57 266 1
63 266 1
73 266 1
178 266 1
207 266 1
216 266 1
67 267 1
78 267 1
79 267 1
186 267 1
210 267 1
215 267 1
68 268 1
79 268 1
80 268 1
187 268 1
204 268 1
216 268 1
69 269 1
80 269 1
81 269 1
188 269 1
205 269 1
217 269 1
70 270 1
81 270 1
82 270 1
189 270 1
206 270 1
211 270 1
64 271 1
82 271 1
83 271 1
183 271 1
207 271 1
212 271 1
65 272 1
83 272 1
84 272 1
184 272 1
208 272 1
213 272 1
66 273 1
78 273 1
84 273 1
185 273 1
209 273 1
214 273 1
60 274 1
71 274 1
72 274 1
193 274 1
203 274 1
222 274 1
61 275 1
72 275 1
73 275 1
194 275 1
197 275 1
223 275 1
62 276 1
73 276 1
74 276 1
195 276 1
198 276 1
224 276 1
63 277 1
74 277 1
75 277 1
196 277 1
199 277 1
218 277 1
57 278 1
75 278 1
76 278 1
190 278 1
200 278 1
219 278 1
58 279 1
76 279 1
77 279 1
191 279 1
201 279 1
220 279 1
59 280 1
71 280 1
77 280 1
192 280 1
202 280 1
221 280 1
148 281 1
149 281 1
165 281 1
180 281 1
188 281 1
190 281 1
149 282 1
150 282 1
166 282 1
181 282 1
189 282 1
191 282 1
150 283 1
151 283 1
167 283 1
182 283 1
183 283 1
192 283 1
151 284 1
152 284 1
168 284 1
176 284 1
184 284 1
193 284 1
152 285 1
153 285 1
162 285 1
177 285 1
185 285 1
194 285 1
153 286 1
154 286 1
163 286 1
178 286 1
186 286 1
195 286 1
148 287 1
154 287 1
164 287 1
179 287 1
187 287 1
196 287 1
141 288 1
142 288 1
158 288 1
173 288 1
183 288 1
195 288 1
142 289 1
143 289 1
159 289 1
174 289 1
184 289 1
196 289 1
143 290 1
144 290 1
160 290 1
175 290 1
185 290 1
190 290 1
144 291 1
145 291 1
161 291 1
169 291 1
186 291 1
191 291 1
145 292 1
146 292 1
155 292 1
170 292 1
187 292 1
192 292 1
146 293 1
147 293 1
156 293 1
171 293 1
188 293 1
193 293 1
141 294 1
147 294 1
157 294 1
172 294 1
189 294 1
194 294 1
151 295 1
162 295 1
163 295 1
174 295 1
176 295 1
194 295 1
152 296 1
163 296 1
164 296 1
175 296 1
177 296 1
195 296 1
153 297 1
164 297 1
165 297 1
169 297 1
178 297 1
196 297 1
154 298 1
165 298 1
166 298 1
170 298 1
179 298 1
190 298 1
148 299 1
166 299 1
167 299 1
171 299 1
180 299 1
191 299 1
149 300 1
167 300 1
168 300 1
172 300 1
181 300 1
192 300 1
150 301 1
162 301 1
168 301 1
173 301 1
182 301 1
193 301 1
144 302 1
155 302 1
156 302 1
169 302 1
181 302 1
187 302 1
145 303 1
156 303 1
157 303 1
170 303 1
182 303 1
188 303 1
146 304 1
157 304 1
158 304 1
171 304 1
176 304 1
189 304 1
147 305 1
158 305 1
159 305 1
172 305 1
177 305 1
183 305 1
141 306 1
159 306 1
160 306 1
173 306 1
178 306 1
184 306 1
142 307 1
160 307 1
161 307 1
174 307 1
179 307 1
185 307 1
143 308 1
155 308 1
161 308 1
175 308 1
180 308 1
186 308 1
120 309 1
121 309 1
137 309 1
208 309 1
216 309 1
218 309 1
121 310 1
122 310 1
138 310 1
209 310 1
217 310 1
219 310 1
122 311 1
123 311 1
139 311 1
210 311 1
211 311 1
220 311 1
123 312 1
124 312 1
140 312 1
204 312 1
212 312 1
221 312 1
124 313 1
125 313 1
134 313 1
205 313 1
213 313 1
222 313 1
125 314 1
126 314 1
135 314 1
206 314 1
214 314 1
223 314 1
120 315 1
126 315 1
136 315 1
207 315 1
215 315 1
224 315 1
113 316 1
114 316 1
130 316 1
201 316 1
211 316 1
223 316 1
114 317 1
115 317 1
131 317 1
202 317 1
212 317 1
224 317 1
115 318 1
116 318 1
132 318 1
203 318 1
213 318 1
218 318 1
116 319 1
117 319 1
133 319 1
197 319 1
214 319 1
219 319 1
117 320 1
118 320 1
127 320 1
198 320 1
215 320 1
220 320 1
118 321 1
119 321 1
128 321 1
199 321 1
216 321 1
221 321 1
113 322 1
119 322 1
129 322 1
200 322 1
217 322 1
222 322 1
123 323 1
134 323 1
135 323 1
202 323 1
204 323 1
222 323 1
124 324 1
135 324 1
136 324 1
203 324 1
205 324 1
223 324 1
125 325 1
136 325 1
137 325 1
197 325 1
206 325 1
224 325 1
126 326 1
137 326 1
138 326 1
198 326 1
207 326 1
218 326 1
120 327 1
138 327 1
139 327 1
199 327 1
208 327 1
219 327 1
121 328 1
139 328 1
140 328 1
200 328 1
209 328 1
220 328 1
122 329 1
134 329 1
140 329 1
201 329 1
210 329 1
221 329 1
116 330 1
127 330 1
128 330 1
197 330 1
209 330 1
215 330 1
117 331 1
128 331 1
129 331 1
198 331 1
210 331 1
216 331 1
118 332 1
129 332 1
130 332 1
199 332 1
204 332 1
217 332 1
119 333 1
130 333 1
131 333 1
200 333 1
205 333 1
211 333 1
113 334 1
131 334 1
132 334 1
201 334 1
206 334 1
212 334 1
114 335 1
132 335 1
133 335 1
202 335 1
207 335 1
213 335 1
115 336 1
127 336 1
133 336 1
203 336 1
208 336 1
214 336 1
