%%MatrixMarket matrix coordinate integer general
% Binary matrix; one-based indices; arithmetic over GF(2)
480 720 4320
68 1 1
94 1 1
105 1 1
135 1 1
151 1 1
185 1 1
69 2 1
95 2 1
106 2 1
136 2 1
152 2 1
186 2 1
70 3 1
96 3 1
107 3 1
137 3 1
153 3 1
181 3 1
71 4 1
91 4 1
108 4 1
138 4 1
154 4 1
182 4 1
72 5 1
92 5 1
103 5 1
133 5 1
155 5 1
183 5 1
67 6 1
93 6 1
104 6 1
134 6 1
156 6 1
184 6 1
74 7 1
100 7 1
111 7 1
141 7 1
157 7 1
191 7 1
75 8 1
101 8 1
112 8 1
142 8 1
158 8 1
192 8 1
76 9 1
102 9 1
113 9 1
143 9 1
159 9 1
187 9 1
77 10 1
97 10 1
114 10 1
144 10 1
160 10 1
188 10 1
78 11 1
98 11 1
109 11 1
139 11 1
161 11 1
189 11 1
73 12 1
99 12 1
110 12 1
140 12 1
162 12 1
190 12 1
80 13 1
106 13 1
117 13 1
147 13 1
163 13 1
197 13 1
81 14 1
107 14 1
118 14 1
148 14 1
164 14 1
198 14 1
82 15 1
108 15 1
119 15 1
149 15 1
165 15 1
193 15 1
83 16 1
103 16 1
120 16 1
150 16 1
166 16 1
194 16 1
84 17 1
104 17 1
115 17 1
145 17 1
167 17 1
195 17 1
79 18 1
105 18 1
116 18 1
146 18 1
168 18 1
196 18 1
86 19 1
93 19 1
112 19 1
123 19 1
169 19 1
203 19 1
87 20 1
94 20 1
113 20 1
124 20 1
170 20 1
204 20 1
88 21 1
95 21 1
114 21 1
125 21 1
171 21 1
199 21 1
89 22 1
96 22 1
109 22 1
126 22 1
172 22 1
200 22 1
90 23 1
91 23 1
110 23 1
121 23 1
173 23 1
201 23 1
85 24 1
92 24 1
111 24 1
122 24 1
174 24 1
202 24 1
62 25 1
99 25 1
118 25 1
129 25 1
175 25 1
209 25 1
63 26 1
100 26 1
119 26 1
130 26 1
176 26 1
210 26 1
64 27 1
101 27 1
120 27 1
131 27 1
177 27 1
205 27 1
65 28 1
102 28 1
115 28 1
132 28 1
178 28 1
206 28 1
66 29 1
97 29 1
116 29 1
127 29 1
179 29 1
207 29 1
61 30 1
98 30 1
117 30 1
128 30 1
180 30 1
208 30 1
64 31 1
75 31 1
98 31 1
121 31 1
165 31 1
215 31 1
65 32 1
76 32 1
99 32 1
122 32 1
166 32 1
216 32 1
66 33 1
77 33 1
100 33 1
123 33 1
167 33 1
211 33 1
61 34 1
78 34 1
101 34 1
124 34 1
168 34 1
212 34 1
62 35 1
73 35 1
102 35 1
125 35 1
163 35 1
213 35 1
63 36 1
74 36 1
97 36 1
126 36 1
164 36 1
214 36 1
70 37 1
81 37 1
104 37 1
127 37 1
171 37 1
221 37 1
71 38 1
82 38 1
105 38 1
128 38 1
172 38 1
222 38 1
72 39 1
83 39 1
106 39 1
129 39 1
173 39 1
217 39 1
67 40 1
84 40 1
107 40 1
130 40 1
174 40 1
218 40 1
68 41 1
79 41 1
108 41 1
131 41 1
169 41 1
219 41 1
69 42 1
80 42 1
103 42 1
132 42 1
170 42 1
220 42 1
76 43 1
87 43 1
110 43 1
133 43 1
177 43 1
227 43 1
77 44 1
88 44 1
111 44 1
134 44 1
178 44 1
228 44 1
78 45 1
89 45 1
112 45 1
135 45 1
179 45 1
223 45 1
73 46 1
90 46 1
113 46 1
136 46 1
180 46 1
224 46 1
74 47 1
85 47 1
114 47 1
137 47 1
175 47 1
225 47 1
75 48 1
86 48 1
109 48 1
138 48 1
176 48 1
226 48 1
63 49 1
82 49 1
116 49 1
139 49 1
153 49 1
233 49 1
64 50 1
83 50 1
117 50 1
140 50 1
154 50 1
234 50 1
65 51 1
84 51 1
118 51 1
141 51 1
155 51 1
229 51 1
66 52 1
79 52 1
119 52 1
142 52 1
156 52 1
230 52 1
61 53 1
80 53 1
120 53 1
143 53 1
151 53 1
231 53 1
62 54 1
81 54 1
115 54 1
144 54 1
152 54 1
232 54 1
69 55 1
88 55 1
92 55 1
145 55 1
159 55 1
239 55 1
70 56 1
89 56 1
93 56 1
146 56 1
160 56 1
240 56 1
71 57 1
90 57 1
94 57 1
147 57 1
161 57 1
235 57 1
72 58 1
85 58 1
95 58 1
148 58 1
162 58 1
236 58 1
67 59 1
86 59 1
96 59 1
149 59 1
157 59 1
237 59 1
68 60 1
87 60 1
91 60 1
150 60 1
158 60 1
238 60 1
8 61 1
34 61 1
45 61 1
125 61 1
195 61 1
211 61 1
9 62 1
35 62 1
46 62 1
126 62 1
196 62 1
212 62 1
10 63 1
36 63 1
47 63 1
121 63 1
197 63 1
213 63 1
11 64 1
31 64 1
48 64 1
122 64 1
198 64 1
214 64 1
12 65 1
32 65 1
43 65 1
123 65 1
193 65 1
215 65 1
7 66 1
33 66 1
44 66 1
124 66 1
194 66 1
216 66 1
14 67 1
40 67 1
51 67 1
131 67 1
201 67 1
217 67 1
15 68 1
41 68 1
52 68 1
132 68 1
202 68 1
218 68 1
16 69 1
42 69 1
53 69 1
127 69 1
203 69 1
219 69 1
17 70 1
37 70 1
54 70 1
128 70 1
204 70 1
220 70 1
18 71 1
38 71 1
49 71 1
129 71 1
199 71 1
221 71 1
13 72 1
39 72 1
50 72 1
130 72 1
200 72 1
222 72 1
20 73 1
46 73 1
57 73 1
137 73 1
207 73 1
223 73 1
21 74 1
47 74 1
58 74 1
138 74 1
208 74 1
224 74 1
22 75 1
48 75 1
59 75 1
133 75 1
209 75 1
225 75 1
23 76 1
43 76 1
60 76 1
134 76 1
210 76 1
226 76 1
24 77 1
44 77 1
55 77 1
135 77 1
205 77 1
227 77 1
19 78 1
45 78 1
56 78 1
136 78 1
206 78 1
228 78 1
26 79 1
33 79 1
52 79 1
143 79 1
183 79 1
229 79 1
27 80 1
34 80 1
53 80 1
144 80 1
184 80 1
230 80 1
28 81 1
35 81 1
54 81 1
139 81 1
185 81 1
231 81 1
29 82 1
36 82 1
49 82 1
140 82 1
186 82 1
232 82 1
30 83 1
31 83 1
50 83 1
141 83 1
181 83 1
233 83 1
25 84 1
32 84 1
51 84 1
142 84 1
182 84 1
234 84 1
2 85 1
39 85 1
58 85 1
149 85 1
189 85 1
235 85 1
3 86 1
40 86 1
59 86 1
150 86 1
190 86 1
236 86 1
4 87 1
41 87 1
60 87 1
145 87 1
191 87 1
237 87 1
5 88 1
42 88 1
55 88 1
146 88 1
192 88 1
238 88 1
6 89 1
37 89 1
56 89 1
147 89 1
187 89 1
239 89 1
1 90 1
38 90 1
57 90 1
148 90 1
188 90 1
240 90 1
4 91 1
15 91 1
38 91 1
155 91 1
181 91 1
225 91 1
5 92 1
16 92 1
39 92 1
156 92 1
182 92 1
226 92 1
6 93 1
17 93 1
40 93 1
151 93 1
183 93 1
227 93 1
1 94 1
18 94 1
41 94 1
152 94 1
184 94 1
228 94 1
2 95 1
13 95 1
42 95 1
153 95 1
185 95 1
223 95 1
3 96 1
14 96 1
37 96 1
154 96 1
186 96 1
224 96 1
10 97 1
21 97 1
44 97 1
161 97 1
187 97 1
231 97 1
11 98 1
22 98 1
45 98 1
162 98 1
188 98 1
232 98 1
12 99 1
23 99 1
46 99 1
157 99 1
189 99 1
233 99 1
7 100 1
24 100 1
47 100 1
158 100 1
190 100 1
234 100 1
8 101 1
19 101 1
48 101 1
159 101 1
191 101 1
229 101 1
9 102 1
20 102 1
43 102 1
160 102 1
192 102 1
230 102 1
16 103 1
27 103 1
50 103 1
167 103 1
193 103 1
237 103 1
17 104 1
28 104 1
51 104 1
168 104 1
194 104 1
238 104 1
18 105 1
29 105 1
52 105 1
163 105 1
195 105 1
239 105 1
13 106 1
30 106 1
53 106 1
164 106 1
196 106 1
240 106 1
14 107 1
25 107 1
54 107 1
165 107 1
197 107 1
235 107 1
15 108 1
26 108 1
49 108 1
166 108 1
198 108 1
236 108 1
3 109 1
22 109 1
56 109 1
173 109 1
199 109 1
213 109 1
4 110 1
23 110 1
57 110 1
174 110 1
200 110 1
214 110 1
5 111 1
24 111 1
58 111 1
169 111 1
201 111 1
215 111 1
6 112 1
19 112 1
59 112 1
170 112 1
202 112 1
216 112 1
1 113 1
20 113 1
60 113 1
171 113 1
203 113 1
211 113 1
2 114 1
21 114 1
55 114 1
172 114 1
204 114 1
212 114 1
9 115 1
28 115 1
32 115 1
179 115 1
205 115 1
219 115 1
10 116 1
29 116 1
33 116 1
180 116 1
206 116 1
220 116 1
11 117 1
30 117 1
34 117 1
175 117 1
207 117 1
221 117 1
12 118 1
25 118 1
35 118 1
176 118 1
208 118 1
222 118 1
7 119 1
26 119 1
36 119 1
177 119 1
209 119 1
217 119 1
8 120 1
27 120 1
31 120 1
178 120 1
210 120 1
218 120 1
47 121 1
49 121 1
87 121 1
255 121 1
271 121 1
305 121 1
48 122 1
50 122 1
88 122 1
256 122 1
272 122 1
306 122 1
43 123 1
51 123 1
89 123 1
257 123 1
273 123 1
301 123 1
44 124 1
52 124 1
90 124 1
258 124 1
274 124 1
302 124 1
45 125 1
53 125 1
85 125 1
253 125 1
275 125 1
303 125 1
46 126 1
54 126 1
86 126 1
254 126 1
276 126 1
304 126 1
53 127 1
55 127 1
63 127 1
261 127 1
277 127 1
311 127 1
54 128 1
56 128 1
64 128 1
262 128 1
278 128 1
312 128 1
49 129 1
57 129 1
65 129 1
263 129 1
279 129 1
307 129 1
50 130 1
58 130 1
66 130 1
264 130 1
280 130 1
308 130 1
51 131 1
59 131 1
61 131 1
259 131 1
281 131 1
309 131 1
52 132 1
60 132 1
62 132 1
260 132 1
282 132 1
310 132 1
31 133 1
59 133 1
69 133 1
267 133 1
283 133 1
317 133 1
32 134 1
60 134 1
70 134 1
268 134 1
284 134 1
318 134 1
33 135 1
55 135 1
71 135 1
269 135 1
285 135 1
313 135 1
34 136 1
56 136 1
72 136 1
270 136 1
286 136 1
314 136 1
35 137 1
57 137 1
67 137 1
265 137 1
287 137 1
315 137 1
36 138 1
58 138 1
68 138 1
266 138 1
288 138 1
316 138 1
35 139 1
37 139 1
75 139 1
243 139 1
289 139 1
323 139 1
36 140 1
38 140 1
76 140 1
244 140 1
290 140 1
324 140 1
31 141 1
39 141 1
77 141 1
245 141 1
291 141 1
319 141 1
32 142 1
40 142 1
78 142 1
246 142 1
292 142 1
320 142 1
33 143 1
41 143 1
73 143 1
241 143 1
293 143 1
321 143 1
34 144 1
42 144 1
74 144 1
242 144 1
294 144 1
322 144 1
41 145 1
43 145 1
81 145 1
249 145 1
295 145 1
329 145 1
42 146 1
44 146 1
82 146 1
250 146 1
296 146 1
330 146 1
37 147 1
45 147 1
83 147 1
251 147 1
297 147 1
325 147 1
38 148 1
46 148 1
84 148 1
252 148 1
298 148 1
326 148 1
39 149 1
47 149 1
79 149 1
247 149 1
299 149 1
327 149 1
40 150 1
48 150 1
80 150 1
248 150 1
300 150 1
328 150 1
17 151 1
19 151 1
117 151 1
241 151 1
285 151 1
335 151 1
18 152 1
20 152 1
118 152 1
242 152 1
286 152 1
336 152 1
13 153 1
21 153 1
119 153 1
243 153 1
287 153 1
331 153 1
14 154 1
22 154 1
120 154 1
244 154 1
288 154 1
332 154 1
15 155 1
23 155 1
115 155 1
245 155 1
283 155 1
333 155 1
16 156 1
24 156 1
116 156 1
246 156 1
284 156 1
334 156 1
23 157 1
25 157 1
93 157 1
247 157 1
291 157 1
341 157 1
24 158 1
26 158 1
94 158 1
248 158 1
292 158 1
342 158 1
19 159 1
27 159 1
95 159 1
249 159 1
293 159 1
337 159 1
20 160 1
28 160 1
96 160 1
250 160 1
294 160 1
338 160 1
21 161 1
29 161 1
91 161 1
251 161 1
289 161 1
339 161 1
22 162 1
30 162 1
92 162 1
252 162 1
290 162 1
340 162 1
1 163 1
29 163 1
99 163 1
253 163 1
297 163 1
347 163 1
2 164 1
30 164 1
100 164 1
254 164 1
298 164 1
348 164 1
3 165 1
25 165 1
101 165 1
255 165 1
299 165 1
343 165 1
4 166 1
26 166 1
102 166 1
256 166 1
300 166 1
344 166 1
5 167 1
27 167 1
97 167 1
257 167 1
295 167 1
345 167 1
6 168 1
28 168 1
98 168 1
258 168 1
296 168 1
346 168 1
5 169 1
7 169 1
105 169 1
259 169 1
273 169 1
353 169 1
6 170 1
8 170 1
106 170 1
260 170 1
274 170 1
354 170 1
1 171 1
9 171 1
107 171 1
261 171 1
275 171 1
349 171 1
2 172 1
10 172 1
108 172 1
262 172 1
276 172 1
350 172 1
3 173 1
11 173 1
103 173 1
263 173 1
271 173 1
351 173 1
4 174 1
12 174 1
104 174 1
264 174 1
272 174 1
352 174 1
11 175 1
13 175 1
111 175 1
265 175 1
279 175 1
359 175 1
12 176 1
14 176 1
112 176 1
266 176 1
280 176 1
360 176 1
7 177 1
15 177 1
113 177 1
267 177 1
281 177 1
355 177 1
8 178 1
16 178 1
114 178 1
268 178 1
282 178 1
356 178 1
9 179 1
17 179 1
109 179 1
269 179 1
277 179 1
357 179 1
10 180 1
18 180 1
110 180 1
270 180 1
278 180 1
358 180 1
27 181 1
107 181 1
109 181 1
245 181 1
315 181 1
331 181 1
28 182 1
108 182 1
110 182 1
246 182 1
316 182 1
332 182 1
29 183 1
103 183 1
111 183 1
241 183 1
317 183 1
333 183 1
30 184 1
104 184 1
112 184 1
242 184 1
318 184 1
334 184 1
25 185 1
105 185 1
113 185 1
243 185 1
313 185 1
335 185 1
26 186 1
106 186 1
114 186 1
244 186 1
314 186 1
336 186 1
3 187 1
113 187 1
115 187 1
251 187 1
321 187 1
337 187 1
4 188 1
114 188 1
116 188 1
252 188 1
322 188 1
338 188 1
5 189 1
109 189 1
117 189 1
247 189 1
323 189 1
339 189 1
6 190 1
110 190 1
118 190 1
248 190 1
324 190 1
340 190 1
1 191 1
111 191 1
119 191 1
249 191 1
319 191 1
341 191 1
2 192 1
112 192 1
120 192 1
250 192 1
320 192 1
342 192 1
9 193 1
91 193 1
119 193 1
257 193 1
327 193 1
343 193 1
10 194 1
92 194 1
120 194 1
258 194 1
328 194 1
344 194 1
11 195 1
93 195 1
115 195 1
253 195 1
329 195 1
345 195 1
12 196 1
94 196 1
116 196 1
254 196 1
330 196 1
346 196 1
7 197 1
95 197 1
117 197 1
255 197 1
325 197 1
347 197 1
8 198 1
96 198 1
118 198 1
256 198 1
326 198 1
348 198 1
15 199 1
95 199 1
97 199 1
263 199 1
303 199 1
349 199 1
16 200 1
96 200 1
98 200 1
264 200 1
304 200 1
350 200 1
17 201 1
91 201 1
99 201 1
259 201 1
305 201 1
351 201 1
18 202 1
92 202 1
100 202 1
260 202 1
306 202 1
352 202 1
13 203 1
93 203 1
101 203 1
261 203 1
301 203 1
353 203 1
14 204 1
94 204 1
102 204 1
262 204 1
302 204 1
354 204 1
21 205 1
101 205 1
103 205 1
269 205 1
309 205 1
355 205 1
22 206 1
102 206 1
104 206 1
270 206 1
310 206 1
356 206 1
23 207 1
97 207 1
105 207 1
265 207 1
311 207 1
357 207 1
24 208 1
98 208 1
106 208 1
266 208 1
312 208 1
358 208 1
19 209 1
99 209 1
107 209 1
267 209 1
307 209 1
359 209 1
20 210 1
100 210 1
108 210 1
268 210 1
308 210 1
360 210 1
57 211 1
77 211 1
79 211 1
275 211 1
301 211 1
345 211 1
58 212 1
78 212 1
80 212 1
276 212 1
302 212 1
346 212 1
59 213 1
73 213 1
81 213 1
271 213 1
303 213 1
347 213 1
60 214 1
74 214 1
82 214 1
272 214 1
304 214 1
348 214 1
55 215 1
75 215 1
83 215 1
273 215 1
305 215 1
343 215 1
56 216 1
76 216 1
84 216 1
274 216 1
306 216 1
344 216 1
33 217 1
83 217 1
85 217 1
281 217 1
307 217 1
351 217 1
34 218 1
84 218 1
86 218 1
282 218 1
308 218 1
352 218 1
35 219 1
79 219 1
87 219 1
277 219 1
309 219 1
353 219 1
36 220 1
80 220 1
88 220 1
278 220 1
310 220 1
354 220 1
31 221 1
81 221 1
89 221 1
279 221 1
311 221 1
349 221 1
32 222 1
82 222 1
90 222 1
280 222 1
312 222 1
350 222 1
39 223 1
61 223 1
89 223 1
287 223 1
313 223 1
357 223 1
40 224 1
62 224 1
90 224 1
288 224 1
314 224 1
358 224 1
41 225 1
63 225 1
85 225 1
283 225 1
315 225 1
359 225 1
42 226 1
64 226 1
86 226 1
284 226 1
316 226 1
360 226 1
37 227 1
65 227 1
87 227 1
285 227 1
317 227 1
355 227 1
38 228 1
66 228 1
88 228 1
286 228 1
318 228 1
356 228 1
45 229 1
65 229 1
67 229 1
293 229 1
319 229 1
333 229 1
46 230 1
66 230 1
68 230 1
294 230 1
320 230 1
334 230 1
47 231 1
61 231 1
69 231 1
289 231 1
321 231 1
335 231 1
48 232 1
62 232 1
70 232 1
290 232 1
322 232 1
336 232 1
43 233 1
63 233 1
71 233 1
291 233 1
323 233 1
331 233 1
44 234 1
64 234 1
72 234 1
292 234 1
324 234 1
332 234 1
51 235 1
71 235 1
73 235 1
299 235 1
325 235 1
339 235 1
52 236 1
72 236 1
74 236 1
300 236 1
326 236 1
340 236 1
53 237 1
67 237 1
75 237 1
295 237 1
327 237 1
341 237 1
54 238 1
68 238 1
76 238 1
296 238 1
328 238 1
342 238 1
49 239 1
69 239 1
77 239 1
297 239 1
329 239 1
337 239 1
50 240 1
70 240 1
78 240 1
298 240 1
330 240 1
338 240 1
11 241 1
49 241 1
102 241 1
375 241 1
391 241 1
425 241 1
12 242 1
50 242 1
97 242 1
376 242 1
392 242 1
426 242 1
7 243 1
51 243 1
98 243 1
377 243 1
393 243 1
421 243 1
8 244 1
52 244 1
99 244 1
378 244 1
394 244 1
422 244 1
9 245 1
53 245 1
100 245 1
373 245 1
395 245 1
423 245 1
10 246 1
54 246 1
101 246 1
374 246 1
396 246 1
424 246 1
17 247 1
55 247 1
108 247 1
381 247 1
397 247 1
431 247 1
18 248 1
56 248 1
103 248 1
382 248 1
398 248 1
432 248 1
13 249 1
57 249 1
104 249 1
383 249 1
399 249 1
427 249 1
14 250 1
58 250 1
105 250 1
384 250 1
400 250 1
428 250 1
15 251 1
59 251 1
106 251 1
379 251 1
401 251 1
429 251 1
16 252 1
60 252 1
107 252 1
380 252 1
402 252 1
430 252 1
23 253 1
31 253 1
114 253 1
387 253 1
403 253 1
437 253 1
24 254 1
32 254 1
109 254 1
388 254 1
404 254 1
438 254 1
19 255 1
33 255 1
110 255 1
389 255 1
405 255 1
433 255 1
20 256 1
34 256 1
111 256 1
390 256 1
406 256 1
434 256 1
21 257 1
35 257 1
112 257 1
385 257 1
407 257 1
435 257 1
22 258 1
36 258 1
113 258 1
386 258 1
408 258 1
436 258 1
29 259 1
37 259 1
120 259 1
363 259 1
409 259 1
443 259 1
30 260 1
38 260 1
115 260 1
364 260 1
410 260 1
444 260 1
25 261 1
39 261 1
116 261 1
365 261 1
411 261 1
439 261 1
26 262 1
40 262 1
117 262 1
366 262 1
412 262 1
440 262 1
27 263 1
41 263 1
118 263 1
361 263 1
413 263 1
441 263 1
28 264 1
42 264 1
119 264 1
362 264 1
414 264 1
442 264 1
5 265 1
43 265 1
96 265 1
369 265 1
415 265 1
449 265 1
6 266 1
44 266 1
91 266 1
370 266 1
416 266 1
450 266 1
1 267 1
45 267 1
92 267 1
371 267 1
417 267 1
445 267 1
2 268 1
46 268 1
93 268 1
372 268 1
418 268 1
446 268 1
3 269 1
47 269 1
94 269 1
367 269 1
419 269 1
447 269 1
4 270 1
48 270 1
95 270 1
368 270 1
420 270 1
448 270 1
19 271 1
41 271 1
72 271 1
361 271 1
405 271 1
455 271 1
20 272 1
42 272 1
67 272 1
362 272 1
406 272 1
456 272 1
21 273 1
37 273 1
68 273 1
363 273 1
407 273 1
451 273 1
22 274 1
38 274 1
69 274 1
364 274 1
408 274 1
452 274 1
23 275 1
39 275 1
70 275 1
365 275 1
403 275 1
453 275 1
24 276 1
40 276 1
71 276 1
366 276 1
404 276 1
454 276 1
25 277 1
47 277 1
78 277 1
367 277 1
411 277 1
461 277 1
26 278 1
48 278 1
73 278 1
368 278 1
412 278 1
462 278 1
27 279 1
43 279 1
74 279 1
369 279 1
413 279 1
457 279 1
28 280 1
44 280 1
75 280 1
370 280 1
414 280 1
458 280 1
29 281 1
45 281 1
76 281 1
371 281 1
409 281 1
459 281 1
30 282 1
46 282 1
77 282 1
372 282 1
410 282 1
460 282 1
1 283 1
53 283 1
84 283 1
373 283 1
417 283 1
467 283 1
2 284 1
54 284 1
79 284 1
374 284 1
418 284 1
468 284 1
3 285 1
49 285 1
80 285 1
375 285 1
419 285 1
463 285 1
4 286 1
50 286 1
81 286 1
376 286 1
420 286 1
464 286 1
5 287 1
51 287 1
82 287 1
377 287 1
415 287 1
465 287 1
6 288 1
52 288 1
83 288 1
378 288 1
416 288 1
466 288 1
7 289 1
59 289 1
90 289 1
379 289 1
393 289 1
473 289 1
8 290 1
60 290 1
85 290 1
380 290 1
394 290 1
474 290 1
9 291 1
55 291 1
86 291 1
381 291 1
395 291 1
469 291 1
10 292 1
56 292 1
87 292 1
382 292 1
396 292 1
470 292 1
11 293 1
57 293 1
88 293 1
383 293 1
391 293 1
471 293 1
12 294 1
58 294 1
89 294 1
384 294 1
392 294 1
472 294 1
13 295 1
35 295 1
66 295 1
385 295 1
399 295 1
479 295 1
14 296 1
36 296 1
61 296 1
386 296 1
400 296 1
480 296 1
15 297 1
31 297 1
62 297 1
387 297 1
401 297 1
475 297 1
16 298 1
32 298 1
63 298 1
388 298 1
402 298 1
476 298 1
17 299 1
33 299 1
64 299 1
389 299 1
397 299 1
477 299 1
18 300 1
34 300 1
65 300 1
390 300 1
398 300 1
478 300 1
42 301 1
71 301 1
109 301 1
365 301 1
435 301 1
451 301 1
37 302 1
72 302 1
110 302 1
366 302 1
436 302 1
452 302 1
38 303 1
67 303 1
111 303 1
361 303 1
437 303 1
453 303 1
39 304 1
68 304 1
112 304 1
362 304 1
438 304 1
454 304 1
40 305 1
69 305 1
113 305 1
363 305 1
433 305 1
455 305 1
41 306 1
70 306 1
114 306 1
364 306 1
434 306 1
456 306 1
48 307 1
77 307 1
115 307 1
371 307 1
441 307 1
457 307 1
43 308 1
78 308 1
116 308 1
372 308 1
442 308 1
458 308 1
44 309 1
73 309 1
117 309 1
367 309 1
443 309 1
459 309 1
45 310 1
74 310 1
118 310 1
368 310 1
444 310 1
460 310 1
46 311 1
75 311 1
119 311 1
369 311 1
439 311 1
461 311 1
47 312 1
76 312 1
120 312 1
370 312 1
440 312 1
462 312 1
54 313 1
83 313 1
91 313 1
377 313 1
447 313 1
463 313 1
49 314 1
84 314 1
92 314 1
378 314 1
448 314 1
464 314 1
50 315 1
79 315 1
93 315 1
373 315 1
449 315 1
465 315 1
51 316 1
80 316 1
94 316 1
374 316 1
450 316 1
466 316 1
52 317 1
81 317 1
95 317 1
375 317 1
445 317 1
467 317 1
53 318 1
82 318 1
96 318 1
376 318 1
446 318 1
468 318 1
60 319 1
89 319 1
97 319 1
383 319 1
423 319 1
469 319 1
55 320 1
90 320 1
98 320 1
384 320 1
424 320 1
470 320 1
56 321 1
85 321 1
99 321 1
379 321 1
425 321 1
471 321 1
57 322 1
86 322 1
100 322 1
380 322 1
426 322 1
472 322 1
58 323 1
87 323 1
101 323 1
381 323 1
421 323 1
473 323 1
59 324 1
88 324 1
102 324 1
382 324 1
422 324 1
474 324 1
36 325 1
65 325 1
103 325 1
389 325 1
429 325 1
475 325 1
31 326 1
66 326 1
104 326 1
390 326 1
430 326 1
476 326 1
32 327 1
61 327 1
105 327 1
385 327 1
431 327 1
477 327 1
33 328 1
62 328 1
106 328 1
386 328 1
432 328 1
478 328 1
34 329 1
63 329 1
107 329 1
387 329 1
427 329 1
479 329 1
35 330 1
64 330 1
108 330 1
388 330 1
428 330 1
480 330 1
12 331 1
79 331 1
101 331 1
395 331 1
421 331 1
465 331 1
7 332 1
80 332 1
102 332 1
396 332 1
422 332 1
466 332 1
8 333 1
81 333 1
97 333 1
391 333 1
423 333 1
467 333 1
9 334 1
82 334 1
98 334 1
392 334 1
424 334 1
468 334 1
10 335 1
83 335 1
99 335 1
393 335 1
425 335 1
463 335 1
11 336 1
84 336 1
100 336 1
394 336 1
426 336 1
464 336 1
18 337 1
85 337 1
107 337 1
401 337 1
427 337 1
471 337 1
13 338 1
86 338 1
108 338 1
402 338 1
428 338 1
472 338 1
14 339 1
87 339 1
103 339 1
397 339 1
429 339 1
473 339 1
15 340 1
88 340 1
104 340 1
398 340 1
430 340 1
474 340 1
16 341 1
89 341 1
105 341 1
399 341 1
431 341 1
469 341 1
17 342 1
90 342 1
106 342 1
400 342 1
432 342 1
470 342 1
24 343 1
61 343 1
113 343 1
407 343 1
433 343 1
477 343 1
19 344 1
62 344 1
114 344 1
408 344 1
434 344 1
478 344 1
20 345 1
63 345 1
109 345 1
403 345 1
435 345 1
479 345 1
21 346 1
64 346 1
110 346 1
404 346 1
436 346 1
480 346 1
22 347 1
65 347 1
111 347 1
405 347 1
437 347 1
475 347 1
23 348 1
66 348 1
112 348 1
406 348 1
438 348 1
476 348 1
30 349 1
67 349 1
119 349 1
413 349 1
439 349 1
453 349 1
25 350 1
68 350 1
120 350 1
414 350 1
440 350 1
454 350 1
26 351 1
69 351 1
115 351 1
409 351 1
441 351 1
455 351 1
27 352 1
70 352 1
116 352 1
410 352 1
442 352 1
456 352 1
28 353 1
71 353 1
117 353 1
411 353 1
443 353 1
451 353 1
29 354 1
72 354 1
118 354 1
412 354 1
444 354 1
452 354 1
6 355 1
73 355 1
95 355 1
419 355 1
445 355 1
459 355 1
1 356 1
74 356 1
96 356 1
420 356 1
446 356 1
460 356 1
2 357 1
75 357 1
91 357 1
415 357 1
447 357 1
461 357 1
3 358 1
76 358 1
92 358 1
416 358 1
448 358 1
462 358 1
4 359 1
77 359 1
93 359 1
417 359 1
449 359 1
457 359 1
5 360 1
78 360 1
94 360 1
418 360 1
450 360 1
458 360 1
167 361 1
169 361 1
207 361 1
308 361 1
334 361 1
345 361 1
168 362 1
170 362 1
208 362 1
309 362 1
335 362 1
346 362 1
163 363 1
171 363 1
209 363 1
310 363 1
336 363 1
347 363 1
164 364 1
172 364 1
210 364 1
311 364 1
331 364 1
348 364 1
165 365 1
173 365 1
205 365 1
312 365 1
332 365 1
343 365 1
166 366 1
174 366 1
206 366 1
307 366 1
333 366 1
344 366 1
173 367 1
175 367 1
183 367 1
314 367 1
340 367 1
351 367 1
174 368 1
176 368 1
184 368 1
315 368 1
341 368 1
352 368 1
169 369 1
177 369 1
185 369 1
316 369 1
342 369 1
353 369 1
170 370 1
178 370 1
186 370 1
317 370 1
337 370 1
354 370 1
171 371 1
179 371 1
181 371 1
318 371 1
338 371 1
349 371 1
172 372 1
180 372 1
182 372 1
313 372 1
339 372 1
350 372 1
151 373 1
179 373 1
189 373 1
320 373 1
346 373 1
357 373 1
152 374 1
180 374 1
190 374 1
321 374 1
347 374 1
358 374 1
153 375 1
175 375 1
191 375 1
322 375 1
348 375 1
359 375 1
154 376 1
176 376 1
192 376 1
323 376 1
343 376 1
360 376 1
155 377 1
177 377 1
187 377 1
324 377 1
344 377 1
355 377 1
156 378 1
178 378 1
188 378 1
319 378 1
345 378 1
356 378 1
155 379 1
157 379 1
195 379 1
326 379 1
333 379 1
352 379 1
156 380 1
158 380 1
196 380 1
327 380 1
334 380 1
353 380 1
151 381 1
159 381 1
197 381 1
328 381 1
335 381 1
354 381 1
152 382 1
160 382 1
198 382 1
329 382 1
336 382 1
349 382 1
153 383 1
161 383 1
193 383 1
330 383 1
331 383 1
350 383 1
154 384 1
162 384 1
194 384 1
325 384 1
332 384 1
351 384 1
161 385 1
163 385 1
201 385 1
302 385 1
339 385 1
358 385 1
162 386 1
164 386 1
202 386 1
303 386 1
340 386 1
359 386 1
157 387 1
165 387 1
203 387 1
304 387 1
341 387 1
360 387 1
158 388 1
166 388 1
204 388 1
305 388 1
342 388 1
355 388 1
159 389 1
167 389 1
199 389 1
306 389 1
337 389 1
356 389 1
160 390 1
168 390 1
200 390 1
301 390 1
338 390 1
357 390 1
137 391 1
139 391 1
237 391 1
304 391 1
315 391 1
338 391 1
138 392 1
140 392 1
238 392 1
305 392 1
316 392 1
339 392 1
133 393 1
141 393 1
239 393 1
306 393 1
317 393 1
340 393 1
134 394 1
142 394 1
240 394 1
301 394 1
318 394 1
341 394 1
135 395 1
143 395 1
235 395 1
302 395 1
313 395 1
342 395 1
136 396 1
144 396 1
236 396 1
303 396 1
314 396 1
337 396 1
143 397 1
145 397 1
213 397 1
310 397 1
321 397 1
344 397 1
144 398 1
146 398 1
214 398 1
311 398 1
322 398 1
345 398 1
139 399 1
147 399 1
215 399 1
312 399 1
323 399 1
346 399 1
140 400 1
148 400 1
216 400 1
307 400 1
324 400 1
347 400 1
141 401 1
149 401 1
211 401 1
308 401 1
319 401 1
348 401 1
142 402 1
150 402 1
212 402 1
309 402 1
320 402 1
343 402 1
121 403 1
149 403 1
219 403 1
316 403 1
327 403 1
350 403 1
122 404 1
150 404 1
220 404 1
317 404 1
328 404 1
351 404 1
123 405 1
145 405 1
221 405 1
318 405 1
329 405 1
352 405 1
124 406 1
146 406 1
222 406 1
313 406 1
330 406 1
353 406 1
125 407 1
147 407 1
217 407 1
314 407 1
325 407 1
354 407 1
126 408 1
148 408 1
218 408 1
315 408 1
326 408 1
349 408 1
125 409 1
127 409 1
225 409 1
303 409 1
322 409 1
356 409 1
126 410 1
128 410 1
226 410 1
304 410 1
323 410 1
357 410 1
121 411 1
129 411 1
227 411 1
305 411 1
324 411 1
358 411 1
122 412 1
130 412 1
228 412 1
306 412 1
319 412 1
359 412 1
123 413 1
131 413 1
223 413 1
301 413 1
320 413 1
360 413 1
124 414 1
132 414 1
224 414 1
302 414 1
321 414 1
355 414 1
131 415 1
133 415 1
231 415 1
309 415 1
328 415 1
332 415 1
132 416 1
134 416 1
232 416 1
310 416 1
329 416 1
333 416 1
127 417 1
135 417 1
233 417 1
311 417 1
330 417 1
334 417 1
128 418 1
136 418 1
234 418 1
312 418 1
325 418 1
335 418 1
129 419 1
137 419 1
229 419 1
307 419 1
326 419 1
336 419 1
130 420 1
138 420 1
230 420 1
308 420 1
327 420 1
331 420 1
147 421 1
227 421 1
229 421 1
248 421 1
274 421 1
285 421 1
148 422 1
228 422 1
230 422 1
249 422 1
275 422 1
286 422 1
149 423 1
223 423 1
231 423 1
250 423 1
276 423 1
287 423 1
150 424 1
224 424 1
232 424 1
251 424 1
271 424 1
288 424 1
145 425 1
225 425 1
233 425 1
252 425 1
272 425 1
283 425 1
146 426 1
226 426 1
234 426 1
247 426 1
273 426 1
284 426 1
123 427 1
233 427 1
235 427 1
254 427 1
280 427 1
291 427 1
124 428 1
234 428 1
236 428 1
255 428 1
281 428 1
292 428 1
125 429 1
229 429 1
237 429 1
256 429 1
282 429 1
293 429 1
126 430 1
230 430 1
238 430 1
257 430 1
277 430 1
294 430 1
121 431 1
231 431 1
239 431 1
258 431 1
278 431 1
289 431 1
122 432 1
232 432 1
240 432 1
253 432 1
279 432 1
290 432 1
129 433 1
211 433 1
239 433 1
260 433 1
286 433 1
297 433 1
130 434 1
212 434 1
240 434 1
261 434 1
287 434 1
298 434 1
131 435 1
213 435 1
235 435 1
262 435 1
288 435 1
299 435 1
132 436 1
214 436 1
236 436 1
263 436 1
283 436 1
300 436 1
127 437 1
215 437 1
237 437 1
264 437 1
284 437 1
295 437 1
128 438 1
216 438 1
238 438 1
259 438 1
285 438 1
296 438 1
135 439 1
215 439 1
217 439 1
266 439 1
273 439 1
292 439 1
136 440 1
216 440 1
218 440 1
267 440 1
274 440 1
293 440 1
137 441 1
211 441 1
219 441 1
268 441 1
275 441 1
294 441 1
138 442 1
212 442 1
220 442 1
269 442 1
276 442 1
289 442 1
133 443 1
213 443 1
221 443 1
270 443 1
271 443 1
290 443 1
134 444 1
214 444 1
222 444 1
265 444 1
272 444 1
291 444 1
141 445 1
221 445 1
223 445 1
242 445 1
279 445 1
298 445 1
142 446 1
222 446 1
224 446 1
243 446 1
280 446 1
299 446 1
143 447 1
217 447 1
225 447 1
244 447 1
281 447 1
300 447 1
144 448 1
218 448 1
226 448 1
245 448 1
282 448 1
295 448 1
139 449 1
219 449 1
227 449 1
246 449 1
277 449 1
296 449 1
140 450 1
220 450 1
228 450 1
241 450 1
278 450 1
297 450 1
177 451 1
197 451 1
199 451 1
244 451 1
255 451 1
278 451 1
178 452 1
198 452 1
200 452 1
245 452 1
256 452 1
279 452 1
179 453 1
193 453 1
201 453 1
246 453 1
257 453 1
280 453 1
180 454 1
194 454 1
202 454 1
241 454 1
258 454 1
281 454 1
175 455 1
195 455 1
203 455 1
242 455 1
253 455 1
282 455 1
176 456 1
196 456 1
204 456 1
243 456 1
254 456 1
277 456 1
153 457 1
203 457 1
205 457 1
250 457 1
261 457 1
284 457 1
154 458 1
204 458 1
206 458 1
251 458 1
262 458 1
285 458 1
155 459 1
199 459 1
207 459 1
252 459 1
263 459 1
286 459 1
156 460 1
200 460 1
208 460 1
247 460 1
264 460 1
287 460 1
151 461 1
201 461 1
209 461 1
248 461 1
259 461 1
288 461 1
152 462 1
202 462 1
210 462 1
249 462 1
260 462 1
283 462 1
159 463 1
181 463 1
209 463 1
256 463 1
267 463 1
290 463 1
160 464 1
182 464 1
210 464 1
257 464 1
268 464 1
291 464 1
161 465 1
183 465 1
205 465 1
258 465 1
269 465 1
292 465 1
162 466 1
184 466 1
206 466 1
253 466 1
270 466 1
293 466 1
157 467 1
185 467 1
207 467 1
254 467 1
265 467 1
294 467 1
158 468 1
186 468 1
208 468 1
255 468 1
266 468 1
289 468 1
165 469 1
185 469 1
187 469 1
243 469 1
262 469 1
296 469 1
166 470 1
186 470 1
188 470 1
244 470 1
263 470 1
297 470 1
167 471 1
181 471 1
189 471 1
245 471 1
264 471 1
298 471 1
168 472 1
182 472 1
190 472 1
246 472 1
259 472 1
299 472 1
163 473 1
183 473 1
191 473 1
241 473 1
260 473 1
300 473 1
164 474 1
184 474 1
192 474 1
242 474 1
261 474 1
295 474 1
171 475 1
191 475 1
193 475 1
249 475 1
268 475 1
272 475 1
172 476 1
192 476 1
194 476 1
250 476 1
269 476 1
273 476 1
173 477 1
187 477 1
195 477 1
251 477 1
270 477 1
274 477 1
174 478 1
188 478 1
196 478 1
252 478 1
265 478 1
275 478 1
169 479 1
189 479 1
197 479 1
247 479 1
266 479 1
276 479 1
170 480 1
190 480 1
198 480 1
248 480 1
267 480 1
271 480 1
131 481 1
169 481 1
222 481 1
428 481 1
454 481 1
465 481 1
132 482 1
170 482 1
217 482 1
429 482 1
455 482 1
466 482 1
127 483 1
171 483 1
218 483 1
430 483 1
456 483 1
467 483 1
128 484 1
172 484 1
219 484 1
431 484 1
451 484 1
468 484 1
129 485 1
173 485 1
220 485 1
432 485 1
452 485 1
463 485 1
130 486 1
174 486 1
221 486 1
427 486 1
453 486 1
464 486 1
137 487 1
175 487 1
228 487 1
434 487 1
460 487 1
471 487 1
138 488 1
176 488 1
223 488 1
435 488 1
461 488 1
472 488 1
133 489 1
177 489 1
224 489 1
436 489 1
462 489 1
473 489 1
134 490 1
178 490 1
225 490 1
437 490 1
457 490 1
474 490 1
135 491 1
179 491 1
226 491 1
438 491 1
458 491 1
469 491 1
136 492 1
180 492 1
227 492 1
433 492 1
459 492 1
470 492 1
143 493 1
151 493 1
234 493 1
440 493 1
466 493 1
477 493 1
144 494 1
152 494 1
229 494 1
441 494 1
467 494 1
478 494 1
139 495 1
153 495 1
230 495 1
442 495 1
468 495 1
479 495 1
140 496 1
154 496 1
231 496 1
443 496 1
463 496 1
480 496 1
141 497 1
155 497 1
232 497 1
444 497 1
464 497 1
475 497 1
142 498 1
156 498 1
233 498 1
439 498 1
465 498 1
476 498 1
149 499 1
157 499 1
240 499 1
446 499 1
453 499 1
472 499 1
150 500 1
158 500 1
235 500 1
447 500 1
454 500 1
473 500 1
145 501 1
159 501 1
236 501 1
448 501 1
455 501 1
474 501 1
146 502 1
160 502 1
237 502 1
449 502 1
456 502 1
469 502 1
147 503 1
161 503 1
238 503 1
450 503 1
451 503 1
470 503 1
148 504 1
162 504 1
239 504 1
445 504 1
452 504 1
471 504 1
125 505 1
163 505 1
216 505 1
422 505 1
459 505 1
478 505 1
126 506 1
164 506 1
211 506 1
423 506 1
460 506 1
479 506 1
121 507 1
165 507 1
212 507 1
424 507 1
461 507 1
480 507 1
122 508 1
166 508 1
213 508 1
425 508 1
462 508 1
475 508 1
123 509 1
167 509 1
214 509 1
426 509 1
457 509 1
476 509 1
124 510 1
168 510 1
215 510 1
421 510 1
458 510 1
477 510 1
139 511 1
161 511 1
192 511 1
424 511 1
435 511 1
458 511 1
140 512 1
162 512 1
187 512 1
425 512 1
436 512 1
459 512 1
141 513 1
157 513 1
188 513 1
426 513 1
437 513 1
460 513 1
142 514 1
158 514 1
189 514 1
421 514 1
438 514 1
461 514 1
143 515 1
159 515 1
190 515 1
422 515 1
433 515 1
462 515 1
144 516 1
160 516 1
191 516 1
423 516 1
434 516 1
457 516 1
145 517 1
167 517 1
198 517 1
430 517 1
441 517 1
464 517 1
146 518 1
168 518 1
193 518 1
431 518 1
442 518 1
465 518 1
147 519 1
163 519 1
194 519 1
432 519 1
443 519 1
466 519 1
148 520 1
164 520 1
195 520 1
427 520 1
444 520 1
467 520 1
149 521 1
165 521 1
196 521 1
428 521 1
439 521 1
468 521 1
150 522 1
166 522 1
197 522 1
429 522 1
440 522 1
463 522 1
121 523 1
173 523 1
204 523 1
436 523 1
447 523 1
470 523 1
122 524 1
174 524 1
199 524 1
437 524 1
448 524 1
471 524 1
123 525 1
169 525 1
200 525 1
438 525 1
449 525 1
472 525 1
124 526 1
170 526 1
201 526 1
433 526 1
450 526 1
473 526 1
125 527 1
171 527 1
202 527 1
434 527 1
445 527 1
474 527 1
126 528 1
172 528 1
203 528 1
435 528 1
446 528 1
469 528 1
127 529 1
179 529 1
210 529 1
423 529 1
442 529 1
476 529 1
128 530 1
180 530 1
205 530 1
424 530 1
443 530 1
477 530 1
129 531 1
175 531 1
206 531 1
425 531 1
444 531 1
478 531 1
130 532 1
176 532 1
207 532 1
426 532 1
439 532 1
479 532 1
131 533 1
177 533 1
208 533 1
421 533 1
440 533 1
480 533 1
132 534 1
178 534 1
209 534 1
422 534 1
441 534 1
475 534 1
133 535 1
155 535 1
186 535 1
429 535 1
448 535 1
452 535 1
134 536 1
156 536 1
181 536 1
430 536 1
449 536 1
453 536 1
135 537 1
151 537 1
182 537 1
431 537 1
450 537 1
454 537 1
136 538 1
152 538 1
183 538 1
432 538 1
445 538 1
455 538 1
137 539 1
153 539 1
184 539 1
427 539 1
446 539 1
456 539 1
138 540 1
154 540 1
185 540 1
428 540 1
447 540 1
451 540 1
162 541 1
191 541 1
229 541 1
368 541 1
394 541 1
405 541 1
157 542 1
192 542 1
230 542 1
369 542 1
395 542 1
406 542 1
158 543 1
187 543 1
231 543 1
370 543 1
396 543 1
407 543 1
159 544 1
188 544 1
232 544 1
371 544 1
391 544 1
408 544 1
160 545 1
189 545 1
233 545 1
372 545 1
392 545 1
403 545 1
161 546 1
190 546 1
234 546 1
367 546 1
393 546 1
404 546 1
168 547 1
197 547 1
235 547 1
374 547 1
400 547 1
411 547 1
163 548 1
198 548 1
236 548 1
375 548 1
401 548 1
412 548 1
164 549 1
193 549 1
237 549 1
376 549 1
402 549 1
413 549 1
165 550 1
194 550 1
238 550 1
377 550 1
397 550 1
414 550 1
166 551 1
195 551 1
239 551 1
378 551 1
398 551 1
409 551 1
167 552 1
196 552 1
240 552 1
373 552 1
399 552 1
410 552 1
174 553 1
203 553 1
211 553 1
380 553 1
406 553 1
417 553 1
169 554 1
204 554 1
212 554 1
381 554 1
407 554 1
418 554 1
170 555 1
199 555 1
213 555 1
382 555 1
408 555 1
419 555 1
171 556 1
200 556 1
214 556 1
383 556 1
403 556 1
420 556 1
172 557 1
201 557 1
215 557 1
384 557 1
404 557 1
415 557 1
173 558 1
202 558 1
216 558 1
379 558 1
405 558 1
416 558 1
180 559 1
209 559 1
217 559 1
386 559 1
393 559 1
412 559 1
175 560 1
210 560 1
218 560 1
387 560 1
394 560 1
413 560 1
176 561 1
205 561 1
219 561 1
388 561 1
395 561 1
414 561 1
177 562 1
206 562 1
220 562 1
389 562 1
396 562 1
409 562 1
178 563 1
207 563 1
221 563 1
390 563 1
391 563 1
410 563 1
179 564 1
208 564 1
222 564 1
385 564 1
392 564 1
411 564 1
156 565 1
185 565 1
223 565 1
362 565 1
399 565 1
418 565 1
151 566 1
186 566 1
224 566 1
363 566 1
400 566 1
419 566 1
152 567 1
181 567 1
225 567 1
364 567 1
401 567 1
420 567 1
153 568 1
182 568 1
226 568 1
365 568 1
402 568 1
415 568 1
154 569 1
183 569 1
227 569 1
366 569 1
397 569 1
416 569 1
155 570 1
184 570 1
228 570 1
361 570 1
398 570 1
417 570 1
132 571 1
199 571 1
221 571 1
364 571 1
375 571 1
398 571 1
127 572 1
200 572 1
222 572 1
365 572 1
376 572 1
399 572 1
128 573 1
201 573 1
217 573 1
366 573 1
377 573 1
400 573 1
129 574 1
202 574 1
218 574 1
361 574 1
378 574 1
401 574 1
130 575 1
203 575 1
219 575 1
362 575 1
373 575 1
402 575 1
131 576 1
204 576 1
220 576 1
363 576 1
374 576 1
397 576 1
138 577 1
205 577 1
227 577 1
370 577 1
381 577 1
404 577 1
133 578 1
206 578 1
228 578 1
371 578 1
382 578 1
405 578 1
134 579 1
207 579 1
223 579 1
372 579 1
383 579 1
406 579 1
135 580 1
208 580 1
224 580 1
367 580 1
384 580 1
407 580 1
136 581 1
209 581 1
225 581 1
368 581 1
379 581 1
408 581 1
137 582 1
210 582 1
226 582 1
369 582 1
380 582 1
403 582 1
144 583 1
181 583 1
233 583 1
376 583 1
387 583 1
410 583 1
139 584 1
182 584 1
234 584 1
377 584 1
388 584 1
411 584 1
140 585 1
183 585 1
229 585 1
378 585 1
389 585 1
412 585 1
141 586 1
184 586 1
230 586 1
373 586 1
390 586 1
413 586 1
142 587 1
185 587 1
231 587 1
374 587 1
385 587 1
414 587 1
143 588 1
186 588 1
232 588 1
375 588 1
386 588 1
409 588 1
150 589 1
187 589 1
239 589 1
363 589 1
382 589 1
416 589 1
145 590 1
188 590 1
240 590 1
364 590 1
383 590 1
417 590 1
146 591 1
189 591 1
235 591 1
365 591 1
384 591 1
418 591 1
147 592 1
190 592 1
236 592 1
366 592 1
379 592 1
419 592 1
148 593 1
191 593 1
237 593 1
361 593 1
380 593 1
420 593 1
149 594 1
192 594 1
238 594 1
362 594 1
381 594 1
415 594 1
126 595 1
193 595 1
215 595 1
369 595 1
388 595 1
392 595 1
121 596 1
194 596 1
216 596 1
370 596 1
389 596 1
393 596 1
122 597 1
195 597 1
211 597 1
371 597 1
390 597 1
394 597 1
123 598 1
196 598 1
212 598 1
372 598 1
385 598 1
395 598 1
124 599 1
197 599 1
213 599 1
367 599 1
386 599 1
396 599 1
125 600 1
198 600 1
214 600 1
368 600 1
387 600 1
391 600 1
251 601 1
289 601 1
342 601 1
407 601 1
409 601 1
447 601 1
252 602 1
290 602 1
337 602 1
408 602 1
410 602 1
448 602 1
247 603 1
291 603 1
338 603 1
403 603 1
411 603 1
449 603 1
248 604 1
292 604 1
339 604 1
404 604 1
412 604 1
450 604 1
249 605 1
293 605 1
340 605 1
405 605 1
413 605 1
445 605 1
250 606 1
294 606 1
341 606 1
406 606 1
414 606 1
446 606 1
257 607 1
295 607 1
348 607 1
413 607 1
415 607 1
423 607 1
258 608 1
296 608 1
343 608 1
414 608 1
416 608 1
424 608 1
253 609 1
297 609 1
344 609 1
409 609 1
417 609 1
425 609 1
254 610 1
298 610 1
345 610 1
410 610 1
418 610 1
426 610 1
255 611 1
299 611 1
346 611 1
411 611 1
419 611 1
421 611 1
256 612 1
300 612 1
347 612 1
412 612 1
420 612 1
422 612 1
263 613 1
271 613 1
354 613 1
391 613 1
419 613 1
429 613 1
264 614 1
272 614 1
349 614 1
392 614 1
420 614 1
430 614 1
259 615 1
273 615 1
350 615 1
393 615 1
415 615 1
431 615 1
260 616 1
274 616 1
351 616 1
394 616 1
416 616 1
432 616 1
261 617 1
275 617 1
352 617 1
395 617 1
417 617 1
427 617 1
262 618 1
276 618 1
353 618 1
396 618 1
418 618 1
428 618 1
269 619 1
277 619 1
360 619 1
395 619 1
397 619 1
435 619 1
270 620 1
278 620 1
355 620 1
396 620 1
398 620 1
436 620 1
265 621 1
279 621 1
356 621 1
391 621 1
399 621 1
437 621 1
266 622 1
280 622 1
357 622 1
392 622 1
400 622 1
438 622 1
267 623 1
281 623 1
358 623 1
393 623 1
401 623 1
433 623 1
268 624 1
282 624 1
359 624 1
394 624 1
402 624 1
434 624 1
245 625 1
283 625 1
336 625 1
401 625 1
403 625 1
441 625 1
246 626 1
284 626 1
331 626 1
402 626 1
404 626 1
442 626 1
241 627 1
285 627 1
332 627 1
397 627 1
405 627 1
443 627 1
242 628 1
286 628 1
333 628 1
398 628 1
406 628 1
444 628 1
243 629 1
287 629 1
334 629 1
399 629 1
407 629 1
439 629 1
244 630 1
288 630 1
335 630 1
400 630 1
408 630 1
440 630 1
259 631 1
281 631 1
312 631 1
377 631 1
379 631 1
477 631 1
260 632 1
282 632 1
307 632 1
378 632 1
380 632 1
478 632 1
261 633 1
277 633 1
308 633 1
373 633 1
381 633 1
479 633 1
262 634 1
278 634 1
309 634 1
374 634 1
382 634 1
480 634 1
263 635 1
279 635 1
310 635 1
375 635 1
383 635 1
475 635 1
264 636 1
280 636 1
311 636 1
376 636 1
384 636 1
476 636 1
265 637 1
287 637 1
318 637 1
383 637 1
385 637 1
453 637 1
266 638 1
288 638 1
313 638 1
384 638 1
386 638 1
454 638 1
267 639 1
283 639 1
314 639 1
379 639 1
387 639 1
455 639 1
268 640 1
284 640 1
315 640 1
380 640 1
388 640 1
456 640 1
269 641 1
285 641 1
316 641 1
381 641 1
389 641 1
451 641 1
270 642 1
286 642 1
317 642 1
382 642 1
390 642 1
452 642 1
241 643 1
293 643 1
324 643 1
361 643 1
389 643 1
459 643 1
242 644 1
294 644 1
319 644 1
362 644 1
390 644 1
460 644 1
243 645 1
289 645 1
320 645 1
363 645 1
385 645 1
461 645 1
244 646 1
290 646 1
321 646 1
364 646 1
386 646 1
462 646 1
245 647 1
291 647 1
322 647 1
365 647 1
387 647 1
457 647 1
246 648 1
292 648 1
323 648 1
366 648 1
388 648 1
458 648 1
247 649 1
299 649 1
330 649 1
365 649 1
367 649 1
465 649 1
248 650 1
300 650 1
325 650 1
366 650 1
368 650 1
466 650 1
249 651 1
295 651 1
326 651 1
361 651 1
369 651 1
467 651 1
250 652 1
296 652 1
327 652 1
362 652 1
370 652 1
468 652 1
251 653 1
297 653 1
328 653 1
363 653 1
371 653 1
463 653 1
252 654 1
298 654 1
329 654 1
364 654 1
372 654 1
464 654 1
253 655 1
275 655 1
306 655 1
371 655 1
373 655 1
471 655 1
254 656 1
276 656 1
301 656 1
372 656 1
374 656 1
472 656 1
255 657 1
271 657 1
302 657 1
367 657 1
375 657 1
473 657 1
256 658 1
272 658 1
303 658 1
368 658 1
376 658 1
474 658 1
257 659 1
273 659 1
304 659 1
369 659 1
377 659 1
469 659 1
258 660 1
274 660 1
305 660 1
370 660 1
378 660 1
470 660 1
282 661 1
311 661 1
349 661 1
387 661 1
467 661 1
469 661 1
277 662 1
312 662 1
350 662 1
388 662 1
468 662 1
470 662 1
278 663 1
307 663 1
351 663 1
389 663 1
463 663 1
471 663 1
279 664 1
308 664 1
352 664 1
390 664 1
464 664 1
472 664 1
280 665 1
309 665 1
353 665 1
385 665 1
465 665 1
473 665 1
281 666 1
310 666 1
354 666 1
386 666 1
466 666 1
474 666 1
288 667 1
317 667 1
355 667 1
363 667 1
473 667 1
475 667 1
283 668 1
318 668 1
356 668 1
364 668 1
474 668 1
476 668 1
284 669 1
313 669 1
357 669 1
365 669 1
469 669 1
477 669 1
285 670 1
314 670 1
358 670 1
366 670 1
470 670 1
478 670 1
286 671 1
315 671 1
359 671 1
361 671 1
471 671 1
479 671 1
287 672 1
316 672 1
360 672 1
362 672 1
472 672 1
480 672 1
294 673 1
323 673 1
331 673 1
369 673 1
451 673 1
479 673 1
289 674 1
324 674 1
332 674 1
370 674 1
452 674 1
480 674 1
290 675 1
319 675 1
333 675 1
371 675 1
453 675 1
475 675 1
291 676 1
320 676 1
334 676 1
372 676 1
454 676 1
476 676 1
292 677 1
321 677 1
335 677 1
367 677 1
455 677 1
477 677 1
293 678 1
322 678 1
336 678 1
368 678 1
456 678 1
478 678 1
300 679 1
329 679 1
337 679 1
375 679 1
455 679 1
457 679 1
295 680 1
330 680 1
338 680 1
376 680 1
456 680 1
458 680 1
296 681 1
325 681 1
339 681 1
377 681 1
451 681 1
459 681 1
297 682 1
326 682 1
340 682 1
378 682 1
452 682 1
460 682 1
298 683 1
327 683 1
341 683 1
373 683 1
453 683 1
461 683 1
299 684 1
328 684 1
342 684 1
374 684 1
454 684 1
462 684 1
276 685 1
305 685 1
343 685 1
381 685 1
461 685 1
463 685 1
271 686 1
306 686 1
344 686 1
382 686 1
462 686 1
464 686 1
272 687 1
301 687 1
345 687 1
383 687 1
457 687 1
465 687 1
273 688 1
302 688 1
346 688 1
384 688 1
458 688 1
466 688 1
274 689 1
303 689 1
347 689 1
379 689 1
459 689 1
467 689 1
275 690 1
304 690 1
348 690 1
380 690 1
460 690 1
468 690 1
252 691 1
319 691 1
341 691 1
417 691 1
437 691 1
439 691 1
247 692 1
320 692 1
342 692 1
418 692 1
438 692 1
440 692 1
248 693 1
321 693 1
337 693 1
419 693 1
433 693 1
441 693 1
249 694 1
322 694 1
338 694 1
420 694 1
434 694 1
442 694 1
250 695 1
323 695 1
339 695 1
415 695 1
435 695 1
443 695 1
251 696 1
324 696 1
340 696 1
416 696 1
436 696 1
444 696 1
258 697 1
325 697 1
347 697 1
393 697 1
443 697 1
445 697 1
253 698 1
326 698 1
348 698 1
394 698 1
444 698 1
446 698 1
254 699 1
327 699 1
343 699 1
395 699 1
439 699 1
447 699 1
255 700 1
328 700 1
344 700 1
396 700 1
440 700 1
448 700 1
256 701 1
329 701 1
345 701 1
391 701 1
441 701 1
449 701 1
257 702 1
330 702 1
346 702 1
392 702 1
442 702 1
450 702 1
264 703 1
301 703 1
353 703 1
399 703 1
421 703 1
449 703 1
259 704 1
302 704 1
354 704 1
400 704 1
422 704 1
450 704 1
260 705 1
303 705 1
349 705 1
401 705 1
423 705 1
445 705 1
261 706 1
304 706 1
350 706 1
402 706 1
424 706 1
446 706 1
262 707 1
305 707 1
351 707 1
397 707 1
425 707 1
447 707 1
263 708 1
306 708 1
352 708 1
398 708 1
426 708 1
448 708 1
270 709 1
307 709 1
359 709 1
405 709 1
425 709 1
427 709 1
265 710 1
308 710 1
360 710 1
406 710 1
426 710 1
428 710 1
266 711 1
309 711 1
355 711 1
407 711 1
421 711 1
429 711 1
267 712 1
310 712 1
356 712 1
408 712 1
422 712 1
430 712 1
268 713 1
311 713 1
357 713 1
403 713 1
423 713 1
431 713 1
269 714 1
312 714 1
358 714 1
404 714 1
424 714 1
432 714 1
246 715 1
313 715 1
335 715 1
411 715 1
431 715 1
433 715 1
241 716 1
314 716 1
336 716 1
412 716 1
432 716 1
434 716 1
242 717 1
315 717 1
331 717 1
413 717 1
427 717 1
435 717 1
243 718 1
316 718 1
332 718 1
414 718 1
428 718 1
436 718 1
244 719 1
317 719 1
333 719 1
409 719 1
429 719 1
437 719 1
245 720 1
318 720 1
334 720 1
410 720 1
430 720 1
438 720 1
