%%MatrixMarket matrix coordinate integer general
% Binary matrix; one-based indices; arithmetic over GF(2)
624 936 3744
103 1 1
112 1 1
206 1 1
216 1 1
104 2 1
113 2 1
207 2 1
217 2 1
92 3 1
114 3 1
208 3 1
218 3 1
93 4 1
115 4 1
196 4 1
219 4 1
94 5 1
116 5 1
197 5 1
220 5 1
95 6 1
117 6 1
198 6 1
221 6 1
96 7 1
105 7 1
199 7 1
209 7 1
97 8 1
106 8 1
200 8 1
210 8 1
98 9 1
107 9 1
201 9 1
211 9 1
99 10 1
108 10 1
202 10 1
212 10 1
100 11 1
109 11 1
203 11 1
213 11 1
101 12 1
110 12 1
204 12 1
214 12 1
102 13 1
111 13 1
205 13 1
215 13 1
86 14 1
116 14 1
219 14 1
229 14 1
87 15 1
117 15 1
220 15 1
230 15 1
88 16 1
105 16 1
221 16 1
231 16 1
89 17 1
106 17 1
209 17 1
232 17 1
90 18 1
107 18 1
210 18 1
233 18 1
91 19 1
108 19 1
211 19 1
234 19 1
79 20 1
109 20 1
212 20 1
222 20 1
80 21 1
110 21 1
213 21 1
223 21 1
81 22 1
111 22 1
214 22 1
224 22 1
82 23 1
112 23 1
215 23 1
225 23 1
83 24 1
113 24 1
216 24 1
226 24 1
84 25 1
114 25 1
217 25 1
227 25 1
85 26 1
115 26 1
218 26 1
228 26 1
90 27 1
99 27 1
203 27 1
232 27 1
91 28 1
100 28 1
204 28 1
233 28 1
79 29 1
101 29 1
205 29 1
234 29 1
80 30 1
102 30 1
206 30 1
222 30 1
81 31 1
103 31 1
207 31 1
223 31 1
82 32 1
104 32 1
208 32 1
224 32 1
83 33 1
92 33 1
196 33 1
225 33 1
84 34 1
93 34 1
197 34 1
226 34 1
85 35 1
94 35 1
198 35 1
227 35 1
86 36 1
95 36 1
199 36 1
228 36 1
87 37 1
96 37 1
200 37 1
229 37 1
88 38 1
97 38 1
201 38 1
230 38 1
89 39 1
98 39 1
202 39 1
231 39 1
142 40 1
151 40 1
167 40 1
177 40 1
143 41 1
152 41 1
168 41 1
178 41 1
131 42 1
153 42 1
169 42 1
179 42 1
132 43 1
154 43 1
157 43 1
180 43 1
133 44 1
155 44 1
158 44 1
181 44 1
134 45 1
156 45 1
159 45 1
182 45 1
135 46 1
144 46 1
160 46 1
170 46 1
136 47 1
145 47 1
161 47 1
171 47 1
137 48 1
146 48 1
162 48 1
172 48 1
138 49 1
147 49 1
163 49 1
173 49 1
139 50 1
148 50 1
164 50 1
174 50 1
140 51 1
149 51 1
165 51 1
175 51 1
141 52 1
150 52 1
166 52 1
176 52 1
125 53 1
155 53 1
180 53 1
190 53 1
126 54 1
156 54 1
181 54 1
191 54 1
127 55 1
144 55 1
182 55 1
192 55 1
128 56 1
145 56 1
170 56 1
193 56 1
129 57 1
146 57 1
171 57 1
194 57 1
130 58 1
147 58 1
172 58 1
195 58 1
118 59 1
148 59 1
173 59 1
183 59 1
119 60 1
149 60 1
174 60 1
184 60 1
120 61 1
150 61 1
175 61 1
185 61 1
121 62 1
151 62 1
176 62 1
186 62 1
122 63 1
152 63 1
177 63 1
187 63 1
123 64 1
153 64 1
178 64 1
188 64 1
124 65 1
154 65 1
179 65 1
189 65 1
129 66 1
138 66 1
164 66 1
193 66 1
130 67 1
139 67 1
165 67 1
194 67 1
118 68 1
140 68 1
166 68 1
195 68 1
119 69 1
141 69 1
167 69 1
183 69 1
120 70 1
142 70 1
168 70 1
184 70 1
121 71 1
143 71 1
169 71 1
185 71 1
122 72 1
131 72 1
157 72 1
186 72 1
123 73 1
132 73 1
158 73 1
187 73 1
124 74 1
133 74 1
159 74 1
188 74 1
125 75 1
134 75 1
160 75 1
189 75 1
126 76 1
135 76 1
161 76 1
190 76 1
127 77 1
136 77 1
162 77 1
191 77 1
128 78 1
137 78 1
163 78 1
192 78 1
25 79 1
34 79 1
284 79 1
294 79 1
26 80 1
35 80 1
285 80 1
295 80 1
14 81 1
36 81 1
286 81 1
296 81 1
15 82 1
37 82 1
274 82 1
297 82 1
16 83 1
38 83 1
275 83 1
298 83 1
17 84 1
39 84 1
276 84 1
299 84 1
18 85 1
27 85 1
277 85 1
287 85 1
19 86 1
28 86 1
278 86 1
288 86 1
20 87 1
29 87 1
279 87 1
289 87 1
21 88 1
30 88 1
280 88 1
290 88 1
22 89 1
31 89 1
281 89 1
291 89 1
23 90 1
32 90 1
282 90 1
292 90 1
24 91 1
33 91 1
283 91 1
293 91 1
8 92 1
38 92 1
297 92 1
307 92 1
9 93 1
39 93 1
298 93 1
308 93 1
10 94 1
27 94 1
299 94 1
309 94 1
11 95 1
28 95 1
287 95 1
310 95 1
12 96 1
29 96 1
288 96 1
311 96 1
13 97 1
30 97 1
289 97 1
312 97 1
1 98 1
31 98 1
290 98 1
300 98 1
2 99 1
32 99 1
291 99 1
301 99 1
3 100 1
33 100 1
292 100 1
302 100 1
4 101 1
34 101 1
293 101 1
303 101 1
5 102 1
35 102 1
294 102 1
304 102 1
6 103 1
36 103 1
295 103 1
305 103 1
7 104 1
37 104 1
296 104 1
306 104 1
12 105 1
21 105 1
281 105 1
310 105 1
13 106 1
22 106 1
282 106 1
311 106 1
1 107 1
23 107 1
283 107 1
312 107 1
2 108 1
24 108 1
284 108 1
300 108 1
3 109 1
25 109 1
285 109 1
301 109 1
4 110 1
26 110 1
286 110 1
302 110 1
5 111 1
14 111 1
274 111 1
303 111 1
6 112 1
15 112 1
275 112 1
304 112 1
7 113 1
16 113 1
276 113 1
305 113 1
8 114 1
17 114 1
277 114 1
306 114 1
9 115 1
18 115 1
278 115 1
307 115 1
10 116 1
19 116 1
279 116 1
308 116 1
11 117 1
20 117 1
280 117 1
309 117 1
64 118 1
73 118 1
245 118 1
255 118 1
65 119 1
74 119 1
246 119 1
256 119 1
53 120 1
75 120 1
247 120 1
257 120 1
54 121 1
76 121 1
235 121 1
258 121 1
55 122 1
77 122 1
236 122 1
259 122 1
56 123 1
78 123 1
237 123 1
260 123 1
57 124 1
66 124 1
238 124 1
248 124 1
58 125 1
67 125 1
239 125 1
249 125 1
59 126 1
68 126 1
240 126 1
250 126 1
60 127 1
69 127 1
241 127 1
251 127 1
61 128 1
70 128 1
242 128 1
252 128 1
62 129 1
71 129 1
243 129 1
253 129 1
63 130 1
72 130 1
244 130 1
254 130 1
47 131 1
77 131 1
258 131 1
268 131 1
48 132 1
78 132 1
259 132 1
269 132 1
49 133 1
66 133 1
260 133 1
270 133 1
50 134 1
67 134 1
248 134 1
271 134 1
51 135 1
68 135 1
249 135 1
272 135 1
52 136 1
69 136 1
250 136 1
273 136 1
40 137 1
70 137 1
251 137 1
261 137 1
41 138 1
71 138 1
252 138 1
262 138 1
42 139 1
72 139 1
253 139 1
263 139 1
43 140 1
73 140 1
254 140 1
264 140 1
44 141 1
74 141 1
255 141 1
265 141 1
45 142 1
75 142 1
256 142 1
266 142 1
46 143 1
76 143 1
257 143 1
267 143 1
51 144 1
60 144 1
242 144 1
271 144 1
52 145 1
61 145 1
243 145 1
272 145 1
40 146 1
62 146 1
244 146 1
273 146 1
41 147 1
63 147 1
245 147 1
261 147 1
42 148 1
64 148 1
246 148 1
262 148 1
43 149 1
65 149 1
247 149 1
263 149 1
44 150 1
53 150 1
235 150 1
264 150 1
45 151 1
54 151 1
236 151 1
265 151 1
46 152 1
55 152 1
237 152 1
266 152 1
47 153 1
56 153 1
238 153 1
267 153 1
48 154 1
57 154 1
239 154 1
268 154 1
49 155 1
58 155 1
240 155 1
269 155 1
50 156 1
59 156 1
241 156 1
270 156 1
3 157 1
21 157 1
362 157 1
372 157 1
4 158 1
22 158 1
363 158 1
373 158 1
5 159 1
23 159 1
364 159 1
374 159 1
6 160 1
24 160 1
352 160 1
375 160 1
7 161 1
25 161 1
353 161 1
376 161 1
8 162 1
26 162 1
354 162 1
377 162 1
9 163 1
14 163 1
355 163 1
365 163 1
10 164 1
15 164 1
356 164 1
366 164 1
11 165 1
16 165 1
357 165 1
367 165 1
12 166 1
17 166 1
358 166 1
368 166 1
13 167 1
18 167 1
359 167 1
369 167 1
1 168 1
19 168 1
360 168 1
370 168 1
2 169 1
20 169 1
361 169 1
371 169 1
16 170 1
34 170 1
375 170 1
385 170 1
17 171 1
35 171 1
376 171 1
386 171 1
18 172 1
36 172 1
377 172 1
387 172 1
19 173 1
37 173 1
365 173 1
388 173 1
20 174 1
38 174 1
366 174 1
389 174 1
21 175 1
39 175 1
367 175 1
390 175 1
22 176 1
27 176 1
368 176 1
378 176 1
23 177 1
28 177 1
369 177 1
379 177 1
24 178 1
29 178 1
370 178 1
380 178 1
25 179 1
30 179 1
371 179 1
381 179 1
26 180 1
31 180 1
372 180 1
382 180 1
14 181 1
32 181 1
373 181 1
383 181 1
15 182 1
33 182 1
374 182 1
384 182 1
8 183 1
29 183 1
359 183 1
388 183 1
9 184 1
30 184 1
360 184 1
389 184 1
10 185 1
31 185 1
361 185 1
390 185 1
11 186 1
32 186 1
362 186 1
378 186 1
12 187 1
33 187 1
363 187 1
379 187 1
13 188 1
34 188 1
364 188 1
380 188 1
1 189 1
35 189 1
352 189 1
381 189 1
2 190 1
36 190 1
353 190 1
382 190 1
3 191 1
37 191 1
354 191 1
383 191 1
4 192 1
38 192 1
355 192 1
384 192 1
5 193 1
39 193 1
356 193 1
385 193 1
6 194 1
27 194 1
357 194 1
386 194 1
7 195 1
28 195 1
358 195 1
387 195 1
42 196 1
60 196 1
323 196 1
333 196 1
43 197 1
61 197 1
324 197 1
334 197 1
44 198 1
62 198 1
325 198 1
335 198 1
45 199 1
63 199 1
313 199 1
336 199 1
46 200 1
64 200 1
314 200 1
337 200 1
47 201 1
65 201 1
315 201 1
338 201 1
48 202 1
53 202 1
316 202 1
326 202 1
49 203 1
54 203 1
317 203 1
327 203 1
50 204 1
55 204 1
318 204 1
328 204 1
51 205 1
56 205 1
319 205 1
329 205 1
52 206 1
57 206 1
320 206 1
330 206 1
40 207 1
58 207 1
321 207 1
331 207 1
41 208 1
59 208 1
322 208 1
332 208 1
55 209 1
73 209 1
336 209 1
346 209 1
56 210 1
74 210 1
337 210 1
347 210 1
57 211 1
75 211 1
338 211 1
348 211 1
58 212 1
76 212 1
326 212 1
349 212 1
59 213 1
77 213 1
327 213 1
350 213 1
60 214 1
78 214 1
328 214 1
351 214 1
61 215 1
66 215 1
329 215 1
339 215 1
62 216 1
67 216 1
330 216 1
340 216 1
63 217 1
68 217 1
331 217 1
341 217 1
64 218 1
69 218 1
332 218 1
342 218 1
65 219 1
70 219 1
333 219 1
343 219 1
53 220 1
71 220 1
334 220 1
344 220 1
54 221 1
72 221 1
335 221 1
345 221 1
47 222 1
68 222 1
320 222 1
349 222 1
48 223 1
69 223 1
321 223 1
350 223 1
49 224 1
70 224 1
322 224 1
351 224 1
50 225 1
71 225 1
323 225 1
339 225 1
51 226 1
72 226 1
324 226 1
340 226 1
52 227 1
73 227 1
325 227 1
341 227 1
40 228 1
74 228 1
313 228 1
342 228 1
41 229 1
75 229 1
314 229 1
343 229 1
42 230 1
76 230 1
315 230 1
344 230 1
43 231 1
77 231 1
316 231 1
345 231 1
44 232 1
78 232 1
317 232 1
346 232 1
45 233 1
66 233 1
318 233 1
347 233 1
46 234 1
67 234 1
319 234 1
348 234 1
81 235 1
99 235 1
440 235 1
450 235 1
82 236 1
100 236 1
441 236 1
451 236 1
83 237 1
101 237 1
442 237 1
452 237 1
84 238 1
102 238 1
430 238 1
453 238 1
85 239 1
103 239 1
431 239 1
454 239 1
86 240 1
104 240 1
432 240 1
455 240 1
87 241 1
92 241 1
433 241 1
443 241 1
88 242 1
93 242 1
434 242 1
444 242 1
89 243 1
94 243 1
435 243 1
445 243 1
90 244 1
95 244 1
436 244 1
446 244 1
91 245 1
96 245 1
437 245 1
447 245 1
79 246 1
97 246 1
438 246 1
448 246 1
80 247 1
98 247 1
439 247 1
449 247 1
94 248 1
112 248 1
453 248 1
463 248 1
95 249 1
113 249 1
454 249 1
464 249 1
96 250 1
114 250 1
455 250 1
465 250 1
97 251 1
115 251 1
443 251 1
466 251 1
98 252 1
116 252 1
444 252 1
467 252 1
99 253 1
117 253 1
445 253 1
468 253 1
100 254 1
105 254 1
446 254 1
456 254 1
101 255 1
106 255 1
447 255 1
457 255 1
102 256 1
107 256 1
448 256 1
458 256 1
103 257 1
108 257 1
449 257 1
459 257 1
104 258 1
109 258 1
450 258 1
460 258 1
92 259 1
110 259 1
451 259 1
461 259 1
93 260 1
111 260 1
452 260 1
462 260 1
86 261 1
107 261 1
437 261 1
466 261 1
87 262 1
108 262 1
438 262 1
467 262 1
88 263 1
109 263 1
439 263 1
468 263 1
89 264 1
110 264 1
440 264 1
456 264 1
90 265 1
111 265 1
441 265 1
457 265 1
91 266 1
112 266 1
442 266 1
458 266 1
79 267 1
113 267 1
430 267 1
459 267 1
80 268 1
114 268 1
431 268 1
460 268 1
81 269 1
115 269 1
432 269 1
461 269 1
82 270 1
116 270 1
433 270 1
462 270 1
83 271 1
117 271 1
434 271 1
463 271 1
84 272 1
105 272 1
435 272 1
464 272 1
85 273 1
106 273 1
436 273 1
465 273 1
120 274 1
138 274 1
401 274 1
411 274 1
121 275 1
139 275 1
402 275 1
412 275 1
122 276 1
140 276 1
403 276 1
413 276 1
123 277 1
141 277 1
391 277 1
414 277 1
124 278 1
142 278 1
392 278 1
415 278 1
125 279 1
143 279 1
393 279 1
416 279 1
126 280 1
131 280 1
394 280 1
404 280 1
127 281 1
132 281 1
395 281 1
405 281 1
128 282 1
133 282 1
396 282 1
406 282 1
129 283 1
134 283 1
397 283 1
407 283 1
130 284 1
135 284 1
398 284 1
408 284 1
118 285 1
136 285 1
399 285 1
409 285 1
119 286 1
137 286 1
400 286 1
410 286 1
133 287 1
151 287 1
414 287 1
424 287 1
134 288 1
152 288 1
415 288 1
425 288 1
135 289 1
153 289 1
416 289 1
426 289 1
136 290 1
154 290 1
404 290 1
427 290 1
137 291 1
155 291 1
405 291 1
428 291 1
138 292 1
156 292 1
406 292 1
429 292 1
139 293 1
144 293 1
407 293 1
417 293 1
140 294 1
145 294 1
408 294 1
418 294 1
141 295 1
146 295 1
409 295 1
419 295 1
142 296 1
147 296 1
410 296 1
420 296 1
143 297 1
148 297 1
411 297 1
421 297 1
131 298 1
149 298 1
412 298 1
422 298 1
132 299 1
150 299 1
413 299 1
423 299 1
125 300 1
146 300 1
398 300 1
427 300 1
126 301 1
147 301 1
399 301 1
428 301 1
127 302 1
148 302 1
400 302 1
429 302 1
128 303 1
149 303 1
401 303 1
417 303 1
129 304 1
150 304 1
402 304 1
418 304 1
130 305 1
151 305 1
403 305 1
419 305 1
118 306 1
152 306 1
391 306 1
420 306 1
119 307 1
153 307 1
392 307 1
421 307 1
120 308 1
154 308 1
393 308 1
422 308 1
121 309 1
155 309 1
394 309 1
423 309 1
122 310 1
156 310 1
395 310 1
424 310 1
123 311 1
144 311 1
396 311 1
425 311 1
124 312 1
145 312 1
397 312 1
426 312 1
159 313 1
177 313 1
415 313 1
424 313 1
160 314 1
178 314 1
416 314 1
425 314 1
161 315 1
179 315 1
404 315 1
426 315 1
162 316 1
180 316 1
405 316 1
427 316 1
163 317 1
181 317 1
406 317 1
428 317 1
164 318 1
182 318 1
407 318 1
429 318 1
165 319 1
170 319 1
408 319 1
417 319 1
166 320 1
171 320 1
409 320 1
418 320 1
167 321 1
172 321 1
410 321 1
419 321 1
168 322 1
173 322 1
411 322 1
420 322 1
169 323 1
174 323 1
412 323 1
421 323 1
157 324 1
175 324 1
413 324 1
422 324 1
158 325 1
176 325 1
414 325 1
423 325 1
172 326 1
190 326 1
398 326 1
428 326 1
173 327 1
191 327 1
399 327 1
429 327 1
174 328 1
192 328 1
400 328 1
417 328 1
175 329 1
193 329 1
401 329 1
418 329 1
176 330 1
194 330 1
402 330 1
419 330 1
177 331 1
195 331 1
403 331 1
420 331 1
178 332 1
183 332 1
391 332 1
421 332 1
179 333 1
184 333 1
392 333 1
422 333 1
180 334 1
185 334 1
393 334 1
423 334 1
181 335 1
186 335 1
394 335 1
424 335 1
182 336 1
187 336 1
395 336 1
425 336 1
170 337 1
188 337 1
396 337 1
426 337 1
171 338 1
189 338 1
397 338 1
427 338 1
164 339 1
185 339 1
402 339 1
411 339 1
165 340 1
186 340 1
403 340 1
412 340 1
166 341 1
187 341 1
391 341 1
413 341 1
167 342 1
188 342 1
392 342 1
414 342 1
168 343 1
189 343 1
393 343 1
415 343 1
169 344 1
190 344 1
394 344 1
416 344 1
157 345 1
191 345 1
395 345 1
404 345 1
158 346 1
192 346 1
396 346 1
405 346 1
159 347 1
193 347 1
397 347 1
406 347 1
160 348 1
194 348 1
398 348 1
407 348 1
161 349 1
195 349 1
399 349 1
408 349 1
162 350 1
183 350 1
400 350 1
409 350 1
163 351 1
184 351 1
401 351 1
410 351 1
198 352 1
216 352 1
454 352 1
463 352 1
199 353 1
217 353 1
455 353 1
464 353 1
200 354 1
218 354 1
443 354 1
465 354 1
201 355 1
219 355 1
444 355 1
466 355 1
202 356 1
220 356 1
445 356 1
467 356 1
203 357 1
221 357 1
446 357 1
468 357 1
204 358 1
209 358 1
447 358 1
456 358 1
205 359 1
210 359 1
448 359 1
457 359 1
206 360 1
211 360 1
449 360 1
458 360 1
207 361 1
212 361 1
450 361 1
459 361 1
208 362 1
213 362 1
451 362 1
460 362 1
196 363 1
214 363 1
452 363 1
461 363 1
197 364 1
215 364 1
453 364 1
462 364 1
211 365 1
229 365 1
437 365 1
467 365 1
212 366 1
230 366 1
438 366 1
468 366 1
213 367 1
231 367 1
439 367 1
456 367 1
214 368 1
232 368 1
440 368 1
457 368 1
215 369 1
233 369 1
441 369 1
458 369 1
216 370 1
234 370 1
442 370 1
459 370 1
217 371 1
222 371 1
430 371 1
460 371 1
218 372 1
223 372 1
431 372 1
461 372 1
219 373 1
224 373 1
432 373 1
462 373 1
220 374 1
225 374 1
433 374 1
463 374 1
221 375 1
226 375 1
434 375 1
464 375 1
209 376 1
227 376 1
435 376 1
465 376 1
210 377 1
228 377 1
436 377 1
466 377 1
203 378 1
224 378 1
441 378 1
450 378 1
204 379 1
225 379 1
442 379 1
451 379 1
205 380 1
226 380 1
430 380 1
452 380 1
206 381 1
227 381 1
431 381 1
453 381 1
207 382 1
228 382 1
432 382 1
454 382 1
208 383 1
229 383 1
433 383 1
455 383 1
196 384 1
230 384 1
434 384 1
443 384 1
197 385 1
231 385 1
435 385 1
444 385 1
198 386 1
232 386 1
436 386 1
445 386 1
199 387 1
233 387 1
437 387 1
446 387 1
200 388 1
234 388 1
438 388 1
447 388 1
201 389 1
222 389 1
439 389 1
448 389 1
202 390 1
223 390 1
440 390 1
449 390 1
237 391 1
255 391 1
337 391 1
346 391 1
238 392 1
256 392 1
338 392 1
347 392 1
239 393 1
257 393 1
326 393 1
348 393 1
240 394 1
258 394 1
327 394 1
349 394 1
241 395 1
259 395 1
328 395 1
350 395 1
242 396 1
260 396 1
329 396 1
351 396 1
243 397 1
248 397 1
330 397 1
339 397 1
244 398 1
249 398 1
331 398 1
340 398 1
245 399 1
250 399 1
332 399 1
341 399 1
246 400 1
251 400 1
333 400 1
342 400 1
247 401 1
252 401 1
334 401 1
343 401 1
235 402 1
253 402 1
335 402 1
344 402 1
236 403 1
254 403 1
336 403 1
345 403 1
250 404 1
268 404 1
320 404 1
350 404 1
251 405 1
269 405 1
321 405 1
351 405 1
252 406 1
270 406 1
322 406 1
339 406 1
253 407 1
271 407 1
323 407 1
340 407 1
254 408 1
272 408 1
324 408 1
341 408 1
255 409 1
273 409 1
325 409 1
342 409 1
256 410 1
261 410 1
313 410 1
343 410 1
257 411 1
262 411 1
314 411 1
344 411 1
258 412 1
263 412 1
315 412 1
345 412 1
259 413 1
264 413 1
316 413 1
346 413 1
260 414 1
265 414 1
317 414 1
347 414 1
248 415 1
266 415 1
318 415 1
348 415 1
249 416 1
267 416 1
319 416 1
349 416 1
242 417 1
263 417 1
324 417 1
333 417 1
243 418 1
264 418 1
325 418 1
334 418 1
244 419 1
265 419 1
313 419 1
335 419 1
245 420 1
266 420 1
314 420 1
336 420 1
246 421 1
267 421 1
315 421 1
337 421 1
247 422 1
268 422 1
316 422 1
338 422 1
235 423 1
269 423 1
317 423 1
326 423 1
236 424 1
270 424 1
318 424 1
327 424 1
237 425 1
271 425 1
319 425 1
328 425 1
238 426 1
272 426 1
320 426 1
329 426 1
239 427 1
273 427 1
321 427 1
330 427 1
240 428 1
261 428 1
322 428 1
331 428 1
241 429 1
262 429 1
323 429 1
332 429 1
276 430 1
294 430 1
376 430 1
385 430 1
277 431 1
295 431 1
377 431 1
386 431 1
278 432 1
296 432 1
365 432 1
387 432 1
279 433 1
297 433 1
366 433 1
388 433 1
280 434 1
298 434 1
367 434 1
389 434 1
281 435 1
299 435 1
368 435 1
390 435 1
282 436 1
287 436 1
369 436 1
378 436 1
283 437 1
288 437 1
370 437 1
379 437 1
284 438 1
289 438 1
371 438 1
380 438 1
285 439 1
290 439 1
372 439 1
381 439 1
286 440 1
291 440 1
373 440 1
382 440 1
274 441 1
292 441 1
374 441 1
383 441 1
275 442 1
293 442 1
375 442 1
384 442 1
289 443 1
307 443 1
359 443 1
389 443 1
290 444 1
308 444 1
360 444 1
390 444 1
291 445 1
309 445 1
361 445 1
378 445 1
292 446 1
310 446 1
362 446 1
379 446 1
293 447 1
311 447 1
363 447 1
380 447 1
294 448 1
312 448 1
364 448 1
381 448 1
295 449 1
300 449 1
352 449 1
382 449 1
296 450 1
301 450 1
353 450 1
383 450 1
297 451 1
302 451 1
354 451 1
384 451 1
298 452 1
303 452 1
355 452 1
385 452 1
299 453 1
304 453 1
356 453 1
386 453 1
287 454 1
305 454 1
357 454 1
387 454 1
288 455 1
306 455 1
358 455 1
388 455 1
281 456 1
302 456 1
363 456 1
372 456 1
282 457 1
303 457 1
364 457 1
373 457 1
283 458 1
304 458 1
352 458 1
374 458 1
284 459 1
305 459 1
353 459 1
375 459 1
285 460 1
306 460 1
354 460 1
376 460 1
286 461 1
307 461 1
355 461 1
377 461 1
274 462 1
308 462 1
356 462 1
365 462 1
275 463 1
309 463 1
357 463 1
366 463 1
276 464 1
310 464 1
358 464 1
367 464 1
277 465 1
311 465 1
359 465 1
368 465 1
278 466 1
312 466 1
360 466 1
369 466 1
279 467 1
300 467 1
361 467 1
370 467 1
280 468 1
301 468 1
362 468 1
371 468 1
16 469 1
103 469 1
518 469 1
528 469 1
17 470 1
104 470 1
519 470 1
529 470 1
18 471 1
92 471 1
520 471 1
530 471 1
19 472 1
93 472 1
508 472 1
531 472 1
20 473 1
94 473 1
509 473 1
532 473 1
21 474 1
95 474 1
510 474 1
533 474 1
22 475 1
96 475 1
511 475 1
521 475 1
23 476 1
97 476 1
512 476 1
522 476 1
24 477 1
98 477 1
513 477 1
523 477 1
25 478 1
99 478 1
514 478 1
524 478 1
26 479 1
100 479 1
515 479 1
525 479 1
14 480 1
101 480 1
516 480 1
526 480 1
15 481 1
102 481 1
517 481 1
527 481 1
29 482 1
116 482 1
531 482 1
541 482 1
30 483 1
117 483 1
532 483 1
542 483 1
31 484 1
105 484 1
533 484 1
543 484 1
32 485 1
106 485 1
521 485 1
544 485 1
33 486 1
107 486 1
522 486 1
545 486 1
34 487 1
108 487 1
523 487 1
546 487 1
35 488 1
109 488 1
524 488 1
534 488 1
36 489 1
110 489 1
525 489 1
535 489 1
37 490 1
111 490 1
526 490 1
536 490 1
38 491 1
112 491 1
527 491 1
537 491 1
39 492 1
113 492 1
528 492 1
538 492 1
27 493 1
114 493 1
529 493 1
539 493 1
28 494 1
115 494 1
530 494 1
540 494 1
3 495 1
90 495 1
515 495 1
544 495 1
4 496 1
91 496 1
516 496 1
545 496 1
5 497 1
79 497 1
517 497 1
546 497 1
6 498 1
80 498 1
518 498 1
534 498 1
7 499 1
81 499 1
519 499 1
535 499 1
8 500 1
82 500 1
520 500 1
536 500 1
9 501 1
83 501 1
508 501 1
537 501 1
10 502 1
84 502 1
509 502 1
538 502 1
11 503 1
85 503 1
510 503 1
539 503 1
12 504 1
86 504 1
511 504 1
540 504 1
13 505 1
87 505 1
512 505 1
541 505 1
1 506 1
88 506 1
513 506 1
542 506 1
2 507 1
89 507 1
514 507 1
543 507 1
55 508 1
142 508 1
479 508 1
489 508 1
56 509 1
143 509 1
480 509 1
490 509 1
57 510 1
131 510 1
481 510 1
491 510 1
58 511 1
132 511 1
469 511 1
492 511 1
59 512 1
133 512 1
470 512 1
493 512 1
60 513 1
134 513 1
471 513 1
494 513 1
61 514 1
135 514 1
472 514 1
482 514 1
62 515 1
136 515 1
473 515 1
483 515 1
63 516 1
137 516 1
474 516 1
484 516 1
64 517 1
138 517 1
475 517 1
485 517 1
65 518 1
139 518 1
476 518 1
486 518 1
53 519 1
140 519 1
477 519 1
487 519 1
54 520 1
141 520 1
478 520 1
488 520 1
68 521 1
155 521 1
492 521 1
502 521 1
69 522 1
156 522 1
493 522 1
503 522 1
70 523 1
144 523 1
494 523 1
504 523 1
71 524 1
145 524 1
482 524 1
505 524 1
72 525 1
146 525 1
483 525 1
506 525 1
73 526 1
147 526 1
484 526 1
507 526 1
74 527 1
148 527 1
485 527 1
495 527 1
75 528 1
149 528 1
486 528 1
496 528 1
76 529 1
150 529 1
487 529 1
497 529 1
77 530 1
151 530 1
488 530 1
498 530 1
78 531 1
152 531 1
489 531 1
499 531 1
66 532 1
153 532 1
490 532 1
500 532 1
67 533 1
154 533 1
491 533 1
501 533 1
42 534 1
129 534 1
476 534 1
505 534 1
43 535 1
130 535 1
477 535 1
506 535 1
44 536 1
118 536 1
478 536 1
507 536 1
45 537 1
119 537 1
479 537 1
495 537 1
46 538 1
120 538 1
480 538 1
496 538 1
47 539 1
121 539 1
481 539 1
497 539 1
48 540 1
122 540 1
469 540 1
498 540 1
49 541 1
123 541 1
470 541 1
499 541 1
50 542 1
124 542 1
471 542 1
500 542 1
51 543 1
125 543 1
472 543 1
501 543 1
52 544 1
126 544 1
473 544 1
502 544 1
40 545 1
127 545 1
474 545 1
503 545 1
41 546 1
128 546 1
475 546 1
504 546 1
25 547 1
94 547 1
596 547 1
606 547 1
26 548 1
95 548 1
597 548 1
607 548 1
14 549 1
96 549 1
598 549 1
608 549 1
15 550 1
97 550 1
586 550 1
609 550 1
16 551 1
98 551 1
587 551 1
610 551 1
17 552 1
99 552 1
588 552 1
611 552 1
18 553 1
100 553 1
589 553 1
599 553 1
19 554 1
101 554 1
590 554 1
600 554 1
20 555 1
102 555 1
591 555 1
601 555 1
21 556 1
103 556 1
592 556 1
602 556 1
22 557 1
104 557 1
593 557 1
603 557 1
23 558 1
92 558 1
594 558 1
604 558 1
24 559 1
93 559 1
595 559 1
605 559 1
38 560 1
107 560 1
609 560 1
619 560 1
39 561 1
108 561 1
610 561 1
620 561 1
27 562 1
109 562 1
611 562 1
621 562 1
28 563 1
110 563 1
599 563 1
622 563 1
29 564 1
111 564 1
600 564 1
623 564 1
30 565 1
112 565 1
601 565 1
624 565 1
31 566 1
113 566 1
602 566 1
612 566 1
32 567 1
114 567 1
603 567 1
613 567 1
33 568 1
115 568 1
604 568 1
614 568 1
34 569 1
116 569 1
605 569 1
615 569 1
35 570 1
117 570 1
606 570 1
616 570 1
36 571 1
105 571 1
607 571 1
617 571 1
37 572 1
106 572 1
608 572 1
618 572 1
12 573 1
81 573 1
593 573 1
622 573 1
13 574 1
82 574 1
594 574 1
623 574 1
1 575 1
83 575 1
595 575 1
624 575 1
2 576 1
84 576 1
596 576 1
612 576 1
3 577 1
85 577 1
597 577 1
613 577 1
4 578 1
86 578 1
598 578 1
614 578 1
5 579 1
87 579 1
586 579 1
615 579 1
6 580 1
88 580 1
587 580 1
616 580 1
7 581 1
89 581 1
588 581 1
617 581 1
8 582 1
90 582 1
589 582 1
618 582 1
9 583 1
91 583 1
590 583 1
619 583 1
10 584 1
79 584 1
591 584 1
620 584 1
11 585 1
80 585 1
592 585 1
621 585 1
64 586 1
133 586 1
557 586 1
567 586 1
65 587 1
134 587 1
558 587 1
568 587 1
53 588 1
135 588 1
559 588 1
569 588 1
54 589 1
136 589 1
547 589 1
570 589 1
55 590 1
137 590 1
548 590 1
571 590 1
56 591 1
138 591 1
549 591 1
572 591 1
57 592 1
139 592 1
550 592 1
560 592 1
58 593 1
140 593 1
551 593 1
561 593 1
59 594 1
141 594 1
552 594 1
562 594 1
60 595 1
142 595 1
553 595 1
563 595 1
61 596 1
143 596 1
554 596 1
564 596 1
62 597 1
131 597 1
555 597 1
565 597 1
63 598 1
132 598 1
556 598 1
566 598 1
77 599 1
146 599 1
570 599 1
580 599 1
78 600 1
147 600 1
571 600 1
581 600 1
66 601 1
148 601 1
572 601 1
582 601 1
67 602 1
149 602 1
560 602 1
583 602 1
68 603 1
150 603 1
561 603 1
584 603 1
69 604 1
151 604 1
562 604 1
585 604 1
70 605 1
152 605 1
563 605 1
573 605 1
71 606 1
153 606 1
564 606 1
574 606 1
72 607 1
154 607 1
565 607 1
575 607 1
73 608 1
155 608 1
566 608 1
576 608 1
74 609 1
156 609 1
567 609 1
577 609 1
75 610 1
144 610 1
568 610 1
578 610 1
76 611 1
145 611 1
569 611 1
579 611 1
51 612 1
120 612 1
554 612 1
583 612 1
52 613 1
121 613 1
555 613 1
584 613 1
40 614 1
122 614 1
556 614 1
585 614 1
41 615 1
123 615 1
557 615 1
573 615 1
42 616 1
124 616 1
558 616 1
574 616 1
43 617 1
125 617 1
559 617 1
575 617 1
44 618 1
126 618 1
547 618 1
576 618 1
45 619 1
127 619 1
548 619 1
577 619 1
46 620 1
128 620 1
549 620 1
578 620 1
47 621 1
129 621 1
550 621 1
579 621 1
48 622 1
130 622 1
551 622 1
580 622 1
49 623 1
118 623 1
552 623 1
581 623 1
50 624 1
119 624 1
553 624 1
582 624 1
172 625 1
259 625 1
571 625 1
580 625 1
173 626 1
260 626 1
572 626 1
581 626 1
174 627 1
248 627 1
560 627 1
582 627 1
175 628 1
249 628 1
561 628 1
583 628 1
176 629 1
250 629 1
562 629 1
584 629 1
177 630 1
251 630 1
563 630 1
585 630 1
178 631 1
252 631 1
564 631 1
573 631 1
179 632 1
253 632 1
565 632 1
574 632 1
180 633 1
254 633 1
566 633 1
575 633 1
181 634 1
255 634 1
567 634 1
576 634 1
182 635 1
256 635 1
568 635 1
577 635 1
170 636 1
257 636 1
569 636 1
578 636 1
171 637 1
258 637 1
570 637 1
579 637 1
185 638 1
272 638 1
554 638 1
584 638 1
186 639 1
273 639 1
555 639 1
585 639 1
187 640 1
261 640 1
556 640 1
573 640 1
188 641 1
262 641 1
557 641 1
574 641 1
189 642 1
263 642 1
558 642 1
575 642 1
190 643 1
264 643 1
559 643 1
576 643 1
191 644 1
265 644 1
547 644 1
577 644 1
192 645 1
266 645 1
548 645 1
578 645 1
193 646 1
267 646 1
549 646 1
579 646 1
194 647 1
268 647 1
550 647 1
580 647 1
195 648 1
269 648 1
551 648 1
581 648 1
183 649 1
270 649 1
552 649 1
582 649 1
184 650 1
271 650 1
553 650 1
583 650 1
159 651 1
246 651 1
558 651 1
567 651 1
160 652 1
247 652 1
559 652 1
568 652 1
161 653 1
235 653 1
547 653 1
569 653 1
162 654 1
236 654 1
548 654 1
570 654 1
163 655 1
237 655 1
549 655 1
571 655 1
164 656 1
238 656 1
550 656 1
572 656 1
165 657 1
239 657 1
551 657 1
560 657 1
166 658 1
240 658 1
552 658 1
561 658 1
167 659 1
241 659 1
553 659 1
562 659 1
168 660 1
242 660 1
554 660 1
563 660 1
169 661 1
243 661 1
555 661 1
564 661 1
157 662 1
244 662 1
556 662 1
565 662 1
158 663 1
245 663 1
557 663 1
566 663 1
211 664 1
298 664 1
610 664 1
619 664 1
212 665 1
299 665 1
611 665 1
620 665 1
213 666 1
287 666 1
599 666 1
621 666 1
214 667 1
288 667 1
600 667 1
622 667 1
215 668 1
289 668 1
601 668 1
623 668 1
216 669 1
290 669 1
602 669 1
624 669 1
217 670 1
291 670 1
603 670 1
612 670 1
218 671 1
292 671 1
604 671 1
613 671 1
219 672 1
293 672 1
605 672 1
614 672 1
220 673 1
294 673 1
606 673 1
615 673 1
221 674 1
295 674 1
607 674 1
616 674 1
209 675 1
296 675 1
608 675 1
617 675 1
210 676 1
297 676 1
609 676 1
618 676 1
224 677 1
311 677 1
593 677 1
623 677 1
225 678 1
312 678 1
594 678 1
624 678 1
226 679 1
300 679 1
595 679 1
612 679 1
227 680 1
301 680 1
596 680 1
613 680 1
228 681 1
302 681 1
597 681 1
614 681 1
229 682 1
303 682 1
598 682 1
615 682 1
230 683 1
304 683 1
586 683 1
616 683 1
231 684 1
305 684 1
587 684 1
617 684 1
232 685 1
306 685 1
588 685 1
618 685 1
233 686 1
307 686 1
589 686 1
619 686 1
234 687 1
308 687 1
590 687 1
620 687 1
222 688 1
309 688 1
591 688 1
621 688 1
223 689 1
310 689 1
592 689 1
622 689 1
198 690 1
285 690 1
597 690 1
606 690 1
199 691 1
286 691 1
598 691 1
607 691 1
200 692 1
274 692 1
586 692 1
608 692 1
201 693 1
275 693 1
587 693 1
609 693 1
202 694 1
276 694 1
588 694 1
610 694 1
203 695 1
277 695 1
589 695 1
611 695 1
204 696 1
278 696 1
590 696 1
599 696 1
205 697 1
279 697 1
591 697 1
600 697 1
206 698 1
280 698 1
592 698 1
601 698 1
207 699 1
281 699 1
593 699 1
602 699 1
208 700 1
282 700 1
594 700 1
603 700 1
196 701 1
283 701 1
595 701 1
604 701 1
197 702 1
284 702 1
596 702 1
605 702 1
181 703 1
250 703 1
493 703 1
502 703 1
182 704 1
251 704 1
494 704 1
503 704 1
170 705 1
252 705 1
482 705 1
504 705 1
171 706 1
253 706 1
483 706 1
505 706 1
172 707 1
254 707 1
484 707 1
506 707 1
173 708 1
255 708 1
485 708 1
507 708 1
174 709 1
256 709 1
486 709 1
495 709 1
175 710 1
257 710 1
487 710 1
496 710 1
176 711 1
258 711 1
488 711 1
497 711 1
177 712 1
259 712 1
489 712 1
498 712 1
178 713 1
260 713 1
490 713 1
499 713 1
179 714 1
248 714 1
491 714 1
500 714 1
180 715 1
249 715 1
492 715 1
501 715 1
194 716 1
263 716 1
476 716 1
506 716 1
195 717 1
264 717 1
477 717 1
507 717 1
183 718 1
265 718 1
478 718 1
495 718 1
184 719 1
266 719 1
479 719 1
496 719 1
185 720 1
267 720 1
480 720 1
497 720 1
186 721 1
268 721 1
481 721 1
498 721 1
187 722 1
269 722 1
469 722 1
499 722 1
188 723 1
270 723 1
470 723 1
500 723 1
189 724 1
271 724 1
471 724 1
501 724 1
190 725 1
272 725 1
472 725 1
502 725 1
191 726 1
273 726 1
473 726 1
503 726 1
192 727 1
261 727 1
474 727 1
504 727 1
193 728 1
262 728 1
475 728 1
505 728 1
168 729 1
237 729 1
480 729 1
489 729 1
169 730 1
238 730 1
481 730 1
490 730 1
157 731 1
239 731 1
469 731 1
491 731 1
158 732 1
240 732 1
470 732 1
492 732 1
159 733 1
241 733 1
471 733 1
493 733 1
160 734 1
242 734 1
472 734 1
494 734 1
161 735 1
243 735 1
473 735 1
482 735 1
162 736 1
244 736 1
474 736 1
483 736 1
163 737 1
245 737 1
475 737 1
484 737 1
164 738 1
246 738 1
476 738 1
485 738 1
165 739 1
247 739 1
477 739 1
486 739 1
166 740 1
235 740 1
478 740 1
487 740 1
167 741 1
236 741 1
479 741 1
488 741 1
220 742 1
289 742 1
532 742 1
541 742 1
221 743 1
290 743 1
533 743 1
542 743 1
209 744 1
291 744 1
521 744 1
543 744 1
210 745 1
292 745 1
522 745 1
544 745 1
211 746 1
293 746 1
523 746 1
545 746 1
212 747 1
294 747 1
524 747 1
546 747 1
213 748 1
295 748 1
525 748 1
534 748 1
214 749 1
296 749 1
526 749 1
535 749 1
215 750 1
297 750 1
527 750 1
536 750 1
216 751 1
298 751 1
528 751 1
537 751 1
217 752 1
299 752 1
529 752 1
538 752 1
218 753 1
287 753 1
530 753 1
539 753 1
219 754 1
288 754 1
531 754 1
540 754 1
233 755 1
302 755 1
515 755 1
545 755 1
234 756 1
303 756 1
516 756 1
546 756 1
222 757 1
304 757 1
517 757 1
534 757 1
223 758 1
305 758 1
518 758 1
535 758 1
224 759 1
306 759 1
519 759 1
536 759 1
225 760 1
307 760 1
520 760 1
537 760 1
226 761 1
308 761 1
508 761 1
538 761 1
227 762 1
309 762 1
509 762 1
539 762 1
228 763 1
310 763 1
510 763 1
540 763 1
229 764 1
311 764 1
511 764 1
541 764 1
230 765 1
312 765 1
512 765 1
542 765 1
231 766 1
300 766 1
513 766 1
543 766 1
232 767 1
301 767 1
514 767 1
544 767 1
207 768 1
276 768 1
519 768 1
528 768 1
208 769 1
277 769 1
520 769 1
529 769 1
196 770 1
278 770 1
508 770 1
530 770 1
197 771 1
279 771 1
509 771 1
531 771 1
198 772 1
280 772 1
510 772 1
532 772 1
199 773 1
281 773 1
511 773 1
533 773 1
200 774 1
282 774 1
512 774 1
521 774 1
201 775 1
283 775 1
513 775 1
522 775 1
202 776 1
284 776 1
514 776 1
523 776 1
203 777 1
285 777 1
515 777 1
524 777 1
204 778 1
286 778 1
516 778 1
525 778 1
205 779 1
274 779 1
517 779 1
526 779 1
206 780 1
275 780 1
518 780 1
527 780 1
328 781 1
415 781 1
471 781 1
489 781 1
329 782 1
416 782 1
472 782 1
490 782 1
330 783 1
404 783 1
473 783 1
491 783 1
331 784 1
405 784 1
474 784 1
492 784 1
332 785 1
406 785 1
475 785 1
493 785 1
333 786 1
407 786 1
476 786 1
494 786 1
334 787 1
408 787 1
477 787 1
482 787 1
335 788 1
409 788 1
478 788 1
483 788 1
336 789 1
410 789 1
479 789 1
484 789 1
337 790 1
411 790 1
480 790 1
485 790 1
338 791 1
412 791 1
481 791 1
486 791 1
326 792 1
413 792 1
469 792 1
487 792 1
327 793 1
414 793 1
470 793 1
488 793 1
341 794 1
428 794 1
484 794 1
502 794 1
342 795 1
429 795 1
485 795 1
503 795 1
343 796 1
417 796 1
486 796 1
504 796 1
344 797 1
418 797 1
487 797 1
505 797 1
345 798 1
419 798 1
488 798 1
506 798 1
346 799 1
420 799 1
489 799 1
507 799 1
347 800 1
421 800 1
490 800 1
495 800 1
348 801 1
422 801 1
491 801 1
496 801 1
349 802 1
423 802 1
492 802 1
497 802 1
350 803 1
424 803 1
493 803 1
498 803 1
351 804 1
425 804 1
494 804 1
499 804 1
339 805 1
426 805 1
482 805 1
500 805 1
340 806 1
427 806 1
483 806 1
501 806 1
315 807 1
402 807 1
476 807 1
497 807 1
316 808 1
403 808 1
477 808 1
498 808 1
317 809 1
391 809 1
478 809 1
499 809 1
318 810 1
392 810 1
479 810 1
500 810 1
319 811 1
393 811 1
480 811 1
501 811 1
320 812 1
394 812 1
481 812 1
502 812 1
321 813 1
395 813 1
469 813 1
503 813 1
322 814 1
396 814 1
470 814 1
504 814 1
323 815 1
397 815 1
471 815 1
505 815 1
324 816 1
398 816 1
472 816 1
506 816 1
325 817 1
399 817 1
473 817 1
507 817 1
313 818 1
400 818 1
474 818 1
495 818 1
314 819 1
401 819 1
475 819 1
496 819 1
367 820 1
454 820 1
510 820 1
528 820 1
368 821 1
455 821 1
511 821 1
529 821 1
369 822 1
443 822 1
512 822 1
530 822 1
370 823 1
444 823 1
513 823 1
531 823 1
371 824 1
445 824 1
514 824 1
532 824 1
372 825 1
446 825 1
515 825 1
533 825 1
373 826 1
447 826 1
516 826 1
521 826 1
374 827 1
448 827 1
517 827 1
522 827 1
375 828 1
449 828 1
518 828 1
523 828 1
376 829 1
450 829 1
519 829 1
524 829 1
377 830 1
451 830 1
520 830 1
525 830 1
365 831 1
452 831 1
508 831 1
526 831 1
366 832 1
453 832 1
509 832 1
527 832 1
380 833 1
467 833 1
523 833 1
541 833 1
381 834 1
468 834 1
524 834 1
542 834 1
382 835 1
456 835 1
525 835 1
543 835 1
383 836 1
457 836 1
526 836 1
544 836 1
384 837 1
458 837 1
527 837 1
545 837 1
385 838 1
459 838 1
528 838 1
546 838 1
386 839 1
460 839 1
529 839 1
534 839 1
387 840 1
461 840 1
530 840 1
535 840 1
388 841 1
462 841 1
531 841 1
536 841 1
389 842 1
463 842 1
532 842 1
537 842 1
390 843 1
464 843 1
533 843 1
538 843 1
378 844 1
465 844 1
521 844 1
539 844 1
379 845 1
466 845 1
522 845 1
540 845 1
354 846 1
441 846 1
515 846 1
536 846 1
355 847 1
442 847 1
516 847 1
537 847 1
356 848 1
430 848 1
517 848 1
538 848 1
357 849 1
431 849 1
518 849 1
539 849 1
358 850 1
432 850 1
519 850 1
540 850 1
359 851 1
433 851 1
520 851 1
541 851 1
360 852 1
434 852 1
508 852 1
542 852 1
361 853 1
435 853 1
509 853 1
543 853 1
362 854 1
436 854 1
510 854 1
544 854 1
363 855 1
437 855 1
511 855 1
545 855 1
364 856 1
438 856 1
512 856 1
546 856 1
352 857 1
439 857 1
513 857 1
534 857 1
353 858 1
440 858 1
514 858 1
535 858 1
337 859 1
406 859 1
549 859 1
567 859 1
338 860 1
407 860 1
550 860 1
568 860 1
326 861 1
408 861 1
551 861 1
569 861 1
327 862 1
409 862 1
552 862 1
570 862 1
328 863 1
410 863 1
553 863 1
571 863 1
329 864 1
411 864 1
554 864 1
572 864 1
330 865 1
412 865 1
555 865 1
560 865 1
331 866 1
413 866 1
556 866 1
561 866 1
332 867 1
414 867 1
557 867 1
562 867 1
333 868 1
415 868 1
558 868 1
563 868 1
334 869 1
416 869 1
559 869 1
564 869 1
335 870 1
404 870 1
547 870 1
565 870 1
336 871 1
405 871 1
548 871 1
566 871 1
350 872 1
419 872 1
562 872 1
580 872 1
351 873 1
420 873 1
563 873 1
581 873 1
339 874 1
421 874 1
564 874 1
582 874 1
340 875 1
422 875 1
565 875 1
583 875 1
341 876 1
423 876 1
566 876 1
584 876 1
342 877 1
424 877 1
567 877 1
585 877 1
343 878 1
425 878 1
568 878 1
573 878 1
344 879 1
426 879 1
569 879 1
574 879 1
345 880 1
427 880 1
570 880 1
575 880 1
346 881 1
428 881 1
571 881 1
576 881 1
347 882 1
429 882 1
572 882 1
577 882 1
348 883 1
417 883 1
560 883 1
578 883 1
349 884 1
418 884 1
561 884 1
579 884 1
324 885 1
393 885 1
554 885 1
575 885 1
325 886 1
394 886 1
555 886 1
576 886 1
313 887 1
395 887 1
556 887 1
577 887 1
314 888 1
396 888 1
557 888 1
578 888 1
315 889 1
397 889 1
558 889 1
579 889 1
316 890 1
398 890 1
559 890 1
580 890 1
317 891 1
399 891 1
547 891 1
581 891 1
318 892 1
400 892 1
548 892 1
582 892 1
319 893 1
401 893 1
549 893 1
583 893 1
320 894 1
402 894 1
550 894 1
584 894 1
321 895 1
403 895 1
551 895 1
585 895 1
322 896 1
391 896 1
552 896 1
573 896 1
323 897 1
392 897 1
553 897 1
574 897 1
376 898 1
445 898 1
588 898 1
606 898 1
377 899 1
446 899 1
589 899 1
607 899 1
365 900 1
447 900 1
590 900 1
608 900 1
366 901 1
448 901 1
591 901 1
609 901 1
367 902 1
449 902 1
592 902 1
610 902 1
368 903 1
450 903 1
593 903 1
611 903 1
369 904 1
451 904 1
594 904 1
599 904 1
370 905 1
452 905 1
595 905 1
600 905 1
371 906 1
453 906 1
596 906 1
601 906 1
372 907 1
454 907 1
597 907 1
602 907 1
373 908 1
455 908 1
598 908 1
603 908 1
374 909 1
443 909 1
586 909 1
604 909 1
375 910 1
444 910 1
587 910 1
605 910 1
389 911 1
458 911 1
601 911 1
619 911 1
390 912 1
459 912 1
602 912 1
620 912 1
378 913 1
460 913 1
603 913 1
621 913 1
379 914 1
461 914 1
604 914 1
622 914 1
380 915 1
462 915 1
605 915 1
623 915 1
381 916 1
463 916 1
606 916 1
624 916 1
382 917 1
464 917 1
607 917 1
612 917 1
383 918 1
465 918 1
608 918 1
613 918 1
384 919 1
466 919 1
609 919 1
614 919 1
385 920 1
467 920 1
610 920 1
615 920 1
386 921 1
468 921 1
611 921 1
616 921 1
387 922 1
456 922 1
599 922 1
617 922 1
388 923 1
457 923 1
600 923 1
618 923 1
363 924 1
432 924 1
593 924 1
614 924 1
364 925 1
433 925 1
594 925 1
615 925 1
352 926 1
434 926 1
595 926 1
616 926 1
353 927 1
435 927 1
596 927 1
617 927 1
354 928 1
436 928 1
597 928 1
618 928 1
355 929 1
437 929 1
598 929 1
619 929 1
356 930 1
438 930 1
586 930 1
620 930 1
357 931 1
439 931 1
587 931 1
621 931 1
358 932 1
440 932 1
588 932 1
622 932 1
359 933 1
441 933 1
589 933 1
623 933 1
360 934 1
442 934 1
590 934 1
624 934 1
361 935 1
430 935 1
591 935 1
612 935 1
362 936 1
431 936 1
592 936 1
613 936 1
