%%MatrixMarket matrix coordinate integer general
% Binary matrix; one-based indices; arithmetic over GF(2)
96 144 1152
5 1 1
13 1 1
22 1 1
23 1 1
28 1 1
31 1 1
35 1 1
43 1 1
6 2 1
14 2 1
21 2 1
24 2 1
27 2 1
32 2 1
36 2 1
44 2 1
7 3 1
15 3 1
21 3 1
24 3 1
26 3 1
29 3 1
33 3 1
41 3 1
8 4 1
16 4 1
22 4 1
23 4 1
25 4 1
30 4 1
34 4 1
42 4 1
9 5 1
14 5 1
15 5 1
17 5 1
27 5 1
32 5 1
35 5 1
47 5 1
10 6 1
13 6 1
16 6 1
18 6 1
28 6 1
31 6 1
36 6 1
48 6 1
11 7 1
13 7 1
16 7 1
19 7 1
25 7 1
30 7 1
33 7 1
45 7 1
12 8 1
14 8 1
15 8 1
20 8 1
26 8 1
29 8 1
34 8 1
46 8 1
1 9 1
18 9 1
19 9 1
21 9 1
27 9 1
31 9 1
36 9 1
39 9 1
2 10 1
17 10 1
20 10 1
22 10 1
28 10 1
32 10 1
35 10 1
40 10 1
3 11 1
17 11 1
20 11 1
23 11 1
25 11 1
29 11 1
34 11 1
37 11 1
4 12 1
18 12 1
19 12 1
24 12 1
26 12 1
30 12 1
33 12 1
38 12 1
1 13 1
10 13 1
11 13 1
17 13 1
31 13 1
40 13 1
43 13 1
47 13 1
2 14 1
9 14 1
12 14 1
18 14 1
32 14 1
39 14 1
44 14 1
48 14 1
3 15 1
9 15 1
12 15 1
19 15 1
29 15 1
38 15 1
41 15 1
45 15 1
4 16 1
10 16 1
11 16 1
20 16 1
30 16 1
37 16 1
42 16 1
46 16 1
2 17 1
3 17 1
5 17 1
21 17 1
35 17 1
39 17 1
44 17 1
47 17 1
1 18 1
4 18 1
6 18 1
22 18 1
36 18 1
40 18 1
43 18 1
48 18 1
1 19 1
4 19 1
7 19 1
23 19 1
33 19 1
37 19 1
42 19 1
45 19 1
2 20 1
3 20 1
8 20 1
24 20 1
34 20 1
38 20 1
41 20 1
46 20 1
6 21 1
7 21 1
9 21 1
13 21 1
27 21 1
39 21 1
43 21 1
48 21 1
5 22 1
8 22 1
10 22 1
14 22 1
28 22 1
40 22 1
44 22 1
47 22 1
5 23 1
8 23 1
11 23 1
15 23 1
25 23 1
37 23 1
41 23 1
46 23 1
6 24 1
7 24 1
12 24 1
16 24 1
26 24 1
38 24 1
42 24 1
45 24 1
3 25 1
4 25 1
7 25 1
9 25 1
52 25 1
55 25 1
59 25 1
67 25 1
3 26 1
4 26 1
8 26 1
10 26 1
51 26 1
56 26 1
60 26 1
68 26 1
1 27 1
2 27 1
5 27 1
11 27 1
50 27 1
53 27 1
57 27 1
65 27 1
1 28 1
2 28 1
6 28 1
12 28 1
49 28 1
54 28 1
58 28 1
66 28 1
1 29 1
7 29 1
8 29 1
11 29 1
51 29 1
56 29 1
59 29 1
71 29 1
2 30 1
7 30 1
8 30 1
12 30 1
52 30 1
55 30 1
60 30 1
72 30 1
3 31 1
5 31 1
6 31 1
9 31 1
49 31 1
54 31 1
57 31 1
69 31 1
4 32 1
5 32 1
6 32 1
10 32 1
50 32 1
53 32 1
58 32 1
70 32 1
3 33 1
5 33 1
11 33 1
12 33 1
51 33 1
55 33 1
60 33 1
63 33 1
4 34 1
6 34 1
11 34 1
12 34 1
52 34 1
56 34 1
59 34 1
64 34 1
1 35 1
7 35 1
9 35 1
10 35 1
49 35 1
53 35 1
58 35 1
61 35 1
2 36 1
8 36 1
9 36 1
10 36 1
50 36 1
54 36 1
57 36 1
62 36 1
15 37 1
16 37 1
19 37 1
21 37 1
55 37 1
64 37 1
67 37 1
71 37 1
15 38 1
16 38 1
20 38 1
22 38 1
56 38 1
63 38 1
68 38 1
72 38 1
13 39 1
14 39 1
17 39 1
23 39 1
53 39 1
62 39 1
65 39 1
69 39 1
13 40 1
14 40 1
18 40 1
24 40 1
54 40 1
61 40 1
66 40 1
70 40 1
13 41 1
19 41 1
20 41 1
23 41 1
59 41 1
63 41 1
68 41 1
71 41 1
14 42 1
19 42 1
20 42 1
24 42 1
60 42 1
64 42 1
67 42 1
72 42 1
15 43 1
17 43 1
18 43 1
21 43 1
57 43 1
61 43 1
66 43 1
69 43 1
16 44 1
17 44 1
18 44 1
22 44 1
58 44 1
62 44 1
65 44 1
70 44 1
15 45 1
17 45 1
23 45 1
24 45 1
51 45 1
63 45 1
67 45 1
72 45 1
16 46 1
18 46 1
23 46 1
24 46 1
52 46 1
64 46 1
68 46 1
71 46 1
13 47 1
19 47 1
21 47 1
22 47 1
49 47 1
61 47 1
65 47 1
70 47 1
14 48 1
20 48 1
21 48 1
22 48 1
50 48 1
62 48 1
66 48 1
69 48 1
27 49 1
28 49 1
31 49 1
33 49 1
53 49 1
61 49 1
70 49 1
71 49 1
27 50 1
28 50 1
32 50 1
34 50 1
54 50 1
62 50 1
69 50 1
72 50 1
25 51 1
26 51 1
29 51 1
35 51 1
55 51 1
63 51 1
69 51 1
72 51 1
25 52 1
26 52 1
30 52 1
36 52 1
56 52 1
64 52 1
70 52 1
71 52 1
25 53 1
31 53 1
32 53 1
35 53 1
57 53 1
62 53 1
63 53 1
65 53 1
26 54 1
31 54 1
32 54 1
36 54 1
58 54 1
61 54 1
64 54 1
66 54 1
27 55 1
29 55 1
30 55 1
33 55 1
59 55 1
61 55 1
64 55 1
67 55 1
28 56 1
29 56 1
30 56 1
34 56 1
60 56 1
62 56 1
63 56 1
68 56 1
27 57 1
29 57 1
35 57 1
36 57 1
49 57 1
66 57 1
67 57 1
69 57 1
28 58 1
30 58 1
35 58 1
36 58 1
50 58 1
65 58 1
68 58 1
70 58 1
25 59 1
31 59 1
33 59 1
34 59 1
51 59 1
65 59 1
68 59 1
71 59 1
26 60 1
32 60 1
33 60 1
34 60 1
52 60 1
66 60 1
67 60 1
72 60 1
39 61 1
40 61 1
43 61 1
45 61 1
49 61 1
58 61 1
59 61 1
65 61 1
39 62 1
40 62 1
44 62 1
46 62 1
50 62 1
57 62 1
60 62 1
66 62 1
37 63 1
38 63 1
41 63 1
47 63 1
51 63 1
57 63 1
60 63 1
67 63 1
37 64 1
38 64 1
42 64 1
48 64 1
52 64 1
58 64 1
59 64 1
68 64 1
37 65 1
43 65 1
44 65 1
47 65 1
50 65 1
51 65 1
53 65 1
69 65 1
38 66 1
43 66 1
44 66 1
48 66 1
49 66 1
52 66 1
54 66 1
70 66 1
39 67 1
41 67 1
42 67 1
45 67 1
49 67 1
52 67 1
55 67 1
71 67 1
40 68 1
41 68 1
42 68 1
46 68 1
50 68 1
51 68 1
56 68 1
72 68 1
39 69 1
41 69 1
47 69 1
48 69 1
54 69 1
55 69 1
57 69 1
61 69 1
40 70 1
42 70 1
47 70 1
48 70 1
53 70 1
56 70 1
58 70 1
62 70 1
37 71 1
43 71 1
45 71 1
46 71 1
53 71 1
56 71 1
59 71 1
63 71 1
38 72 1
44 72 1
45 72 1
46 72 1
54 72 1
55 72 1
60 72 1
64 72 1
4 73 1
6 73 1
8 73 1
13 73 1
76 73 1
79 73 1
83 73 1
91 73 1
3 74 1
5 74 1
7 74 1
14 74 1
75 74 1
80 74 1
84 74 1
92 74 1
2 75 1
6 75 1
8 75 1
15 75 1
74 75 1
77 75 1
81 75 1
89 75 1
1 76 1
5 76 1
7 76 1
16 76 1
73 76 1
78 76 1
82 76 1
90 76 1
8 77 1
10 77 1
12 77 1
17 77 1
75 77 1
80 77 1
83 77 1
95 77 1
7 78 1
9 78 1
11 78 1
18 78 1
76 78 1
79 78 1
84 78 1
96 78 1
6 79 1
10 79 1
12 79 1
19 79 1
73 79 1
78 79 1
81 79 1
93 79 1
5 80 1
9 80 1
11 80 1
20 80 1
74 80 1
77 80 1
82 80 1
94 80 1
2 81 1
4 81 1
12 81 1
21 81 1
75 81 1
79 81 1
84 81 1
87 81 1
1 82 1
3 82 1
11 82 1
22 82 1
76 82 1
80 82 1
83 82 1
88 82 1
2 83 1
4 83 1
10 83 1
23 83 1
73 83 1
77 83 1
82 83 1
85 83 1
1 84 1
3 84 1
9 84 1
24 84 1
74 84 1
78 84 1
81 84 1
86 84 1
1 85 1
16 85 1
18 85 1
20 85 1
79 85 1
88 85 1
91 85 1
95 85 1
2 86 1
15 86 1
17 86 1
19 86 1
80 86 1
87 86 1
92 86 1
96 86 1
3 87 1
14 87 1
18 87 1
20 87 1
77 87 1
86 87 1
89 87 1
93 87 1
4 88 1
13 88 1
17 88 1
19 88 1
78 88 1
85 88 1
90 88 1
94 88 1
5 89 1
20 89 1
22 89 1
24 89 1
83 89 1
87 89 1
92 89 1
95 89 1
6 90 1
19 90 1
21 90 1
23 90 1
84 90 1
88 90 1
91 90 1
96 90 1
7 91 1
18 91 1
22 91 1
24 91 1
81 91 1
85 91 1
90 91 1
93 91 1
8 92 1
17 92 1
21 92 1
23 92 1
82 92 1
86 92 1
89 92 1
94 92 1
9 93 1
14 93 1
16 93 1
24 93 1
75 93 1
87 93 1
91 93 1
96 93 1
10 94 1
13 94 1
15 94 1
23 94 1
76 94 1
88 94 1
92 94 1
95 94 1
11 95 1
14 95 1
16 95 1
22 95 1
73 95 1
85 95 1
89 95 1
94 95 1
12 96 1
13 96 1
15 96 1
21 96 1
74 96 1
86 96 1
90 96 1
93 96 1
28 97 1
30 97 1
32 97 1
37 97 1
77 97 1
85 97 1
94 97 1
95 97 1
27 98 1
29 98 1
31 98 1
38 98 1
78 98 1
86 98 1
93 98 1
96 98 1
26 99 1
30 99 1
32 99 1
39 99 1
79 99 1
87 99 1
93 99 1
96 99 1
25 100 1
29 100 1
31 100 1
40 100 1
80 100 1
88 100 1
94 100 1
95 100 1
32 101 1
34 101 1
36 101 1
41 101 1
81 101 1
86 101 1
87 101 1
89 101 1
31 102 1
33 102 1
35 102 1
42 102 1
82 102 1
85 102 1
88 102 1
90 102 1
30 103 1
34 103 1
36 103 1
43 103 1
83 103 1
85 103 1
88 103 1
91 103 1
29 104 1
33 104 1
35 104 1
44 104 1
84 104 1
86 104 1
87 104 1
92 104 1
26 105 1
28 105 1
36 105 1
45 105 1
73 105 1
90 105 1
91 105 1
93 105 1
25 106 1
27 106 1
35 106 1
46 106 1
74 106 1
89 106 1
92 106 1
94 106 1
26 107 1
28 107 1
34 107 1
47 107 1
75 107 1
89 107 1
92 107 1
95 107 1
25 108 1
27 108 1
33 108 1
48 108 1
76 108 1
90 108 1
91 108 1
96 108 1
25 109 1
40 109 1
42 109 1
44 109 1
73 109 1
82 109 1
83 109 1
89 109 1
26 110 1
39 110 1
41 110 1
43 110 1
74 110 1
81 110 1
84 110 1
90 110 1
27 111 1
38 111 1
42 111 1
44 111 1
75 111 1
81 111 1
84 111 1
91 111 1
28 112 1
37 112 1
41 112 1
43 112 1
76 112 1
82 112 1
83 112 1
92 112 1
29 113 1
44 113 1
46 113 1
48 113 1
74 113 1
75 113 1
77 113 1
93 113 1
30 114 1
43 114 1
45 114 1
47 114 1
73 114 1
76 114 1
78 114 1
94 114 1
31 115 1
42 115 1
46 115 1
48 115 1
73 115 1
76 115 1
79 115 1
95 115 1
32 116 1
41 116 1
45 116 1
47 116 1
74 116 1
75 116 1
80 116 1
96 116 1
33 117 1
38 117 1
40 117 1
48 117 1
78 117 1
79 117 1
81 117 1
85 117 1
34 118 1
37 118 1
39 118 1
47 118 1
77 118 1
80 118 1
82 118 1
86 118 1
35 119 1
38 119 1
40 119 1
46 119 1
77 119 1
80 119 1
83 119 1
87 119 1
36 120 1
37 120 1
39 120 1
45 120 1
78 120 1
79 120 1
84 120 1
88 120 1
52 121 1
54 121 1
56 121 1
61 121 1
75 121 1
76 121 1
79 121 1
81 121 1
51 122 1
53 122 1
55 122 1
62 122 1
75 122 1
76 122 1
80 122 1
82 122 1
50 123 1
54 123 1
56 123 1
63 123 1
73 123 1
74 123 1
77 123 1
83 123 1
49 124 1
53 124 1
55 124 1
64 124 1
73 124 1
74 124 1
78 124 1
84 124 1
56 125 1
58 125 1
60 125 1
65 125 1
73 125 1
79 125 1
80 125 1
83 125 1
55 126 1
57 126 1
59 126 1
66 126 1
74 126 1
79 126 1
80 126 1
84 126 1
54 127 1
58 127 1
60 127 1
67 127 1
75 127 1
77 127 1
78 127 1
81 127 1
53 128 1
57 128 1
59 128 1
68 128 1
76 128 1
77 128 1
78 128 1
82 128 1
50 129 1
52 129 1
60 129 1
69 129 1
75 129 1
77 129 1
83 129 1
84 129 1
49 130 1
51 130 1
59 130 1
70 130 1
76 130 1
78 130 1
83 130 1
84 130 1
50 131 1
52 131 1
58 131 1
71 131 1
73 131 1
79 131 1
81 131 1
82 131 1
49 132 1
51 132 1
57 132 1
72 132 1
74 132 1
80 132 1
81 132 1
82 132 1
49 133 1
64 133 1
66 133 1
68 133 1
87 133 1
88 133 1
91 133 1
93 133 1
50 134 1
63 134 1
65 134 1
67 134 1
87 134 1
88 134 1
92 134 1
94 134 1
51 135 1
62 135 1
66 135 1
68 135 1
85 135 1
86 135 1
89 135 1
95 135 1
52 136 1
61 136 1
65 136 1
67 136 1
85 136 1
86 136 1
90 136 1
96 136 1
53 137 1
68 137 1
70 137 1
72 137 1
85 137 1
91 137 1
92 137 1
95 137 1
54 138 1
67 138 1
69 138 1
71 138 1
86 138 1
91 138 1
92 138 1
96 138 1
55 139 1
66 139 1
70 139 1
72 139 1
87 139 1
89 139 1
90 139 1
93 139 1
56 140 1
65 140 1
69 140 1
71 140 1
88 140 1
89 140 1
90 140 1
94 140 1
57 141 1
62 141 1
64 141 1
72 141 1
87 141 1
89 141 1
95 141 1
96 141 1
58 142 1
61 142 1
63 142 1
71 142 1
88 142 1
90 142 1
95 142 1
96 142 1
59 143 1
62 143 1
64 143 1
70 143 1
85 143 1
91 143 1
93 143 1
94 143 1
60 144 1
61 144 1
63 144 1
69 144 1
86 144 1
92 144 1
93 144 1
94 144 1
