%%MatrixMarket matrix coordinate integer general
% Binary matrix; one-based indices; arithmetic over GF(2)
416 624 2496
67 1 1
94 1 1
139 1 1
173 1 1
68 2 1
95 2 1
140 2 1
174 2 1
69 3 1
96 3 1
141 3 1
175 3 1
70 4 1
97 4 1
142 4 1
176 4 1
71 5 1
98 5 1
143 5 1
177 5 1
72 6 1
99 6 1
131 6 1
178 6 1
73 7 1
100 7 1
132 7 1
179 7 1
74 8 1
101 8 1
133 8 1
180 8 1
75 9 1
102 9 1
134 9 1
181 9 1
76 10 1
103 10 1
135 10 1
182 10 1
77 11 1
104 11 1
136 11 1
170 11 1
78 12 1
92 12 1
137 12 1
171 12 1
66 13 1
93 13 1
138 13 1
172 13 1
54 14 1
81 14 1
152 14 1
160 14 1
55 15 1
82 15 1
153 15 1
161 15 1
56 16 1
83 16 1
154 16 1
162 16 1
57 17 1
84 17 1
155 17 1
163 17 1
58 18 1
85 18 1
156 18 1
164 18 1
59 19 1
86 19 1
144 19 1
165 19 1
60 20 1
87 20 1
145 20 1
166 20 1
61 21 1
88 21 1
146 21 1
167 21 1
62 22 1
89 22 1
147 22 1
168 22 1
63 23 1
90 23 1
148 23 1
169 23 1
64 24 1
91 24 1
149 24 1
157 24 1
65 25 1
79 25 1
150 25 1
158 25 1
53 26 1
80 26 1
151 26 1
159 26 1
68 27 1
93 27 1
113 27 1
199 27 1
69 28 1
94 28 1
114 28 1
200 28 1
70 29 1
95 29 1
115 29 1
201 29 1
71 30 1
96 30 1
116 30 1
202 30 1
72 31 1
97 31 1
117 31 1
203 31 1
73 32 1
98 32 1
105 32 1
204 32 1
74 33 1
99 33 1
106 33 1
205 33 1
75 34 1
100 34 1
107 34 1
206 34 1
76 35 1
101 35 1
108 35 1
207 35 1
77 36 1
102 36 1
109 36 1
208 36 1
78 37 1
103 37 1
110 37 1
196 37 1
66 38 1
104 38 1
111 38 1
197 38 1
67 39 1
92 39 1
112 39 1
198 39 1
55 40 1
80 40 1
126 40 1
186 40 1
56 41 1
81 41 1
127 41 1
187 41 1
57 42 1
82 42 1
128 42 1
188 42 1
58 43 1
83 43 1
129 43 1
189 43 1
59 44 1
84 44 1
130 44 1
190 44 1
60 45 1
85 45 1
118 45 1
191 45 1
61 46 1
86 46 1
119 46 1
192 46 1
62 47 1
87 47 1
120 47 1
193 47 1
63 48 1
88 48 1
121 48 1
194 48 1
64 49 1
89 49 1
122 49 1
195 49 1
65 50 1
90 50 1
123 50 1
183 50 1
53 51 1
91 51 1
124 51 1
184 51 1
54 52 1
79 52 1
125 52 1
185 52 1
15 53 1
42 53 1
121 53 1
191 53 1
16 54 1
43 54 1
122 54 1
192 54 1
17 55 1
44 55 1
123 55 1
193 55 1
18 56 1
45 56 1
124 56 1
194 56 1
19 57 1
46 57 1
125 57 1
195 57 1
20 58 1
47 58 1
126 58 1
183 58 1
21 59 1
48 59 1
127 59 1
184 59 1
22 60 1
49 60 1
128 60 1
185 60 1
23 61 1
50 61 1
129 61 1
186 61 1
24 62 1
51 62 1
130 62 1
187 62 1
25 63 1
52 63 1
118 63 1
188 63 1
26 64 1
40 64 1
119 64 1
189 64 1
14 65 1
41 65 1
120 65 1
190 65 1
2 66 1
29 66 1
108 66 1
204 66 1
3 67 1
30 67 1
109 67 1
205 67 1
4 68 1
31 68 1
110 68 1
206 68 1
5 69 1
32 69 1
111 69 1
207 69 1
6 70 1
33 70 1
112 70 1
208 70 1
7 71 1
34 71 1
113 71 1
196 71 1
8 72 1
35 72 1
114 72 1
197 72 1
9 73 1
36 73 1
115 73 1
198 73 1
10 74 1
37 74 1
116 74 1
199 74 1
11 75 1
38 75 1
117 75 1
200 75 1
12 76 1
39 76 1
105 76 1
201 76 1
13 77 1
27 77 1
106 77 1
202 77 1
1 78 1
28 78 1
107 78 1
203 78 1
16 79 1
41 79 1
147 79 1
165 79 1
17 80 1
42 80 1
148 80 1
166 80 1
18 81 1
43 81 1
149 81 1
167 81 1
19 82 1
44 82 1
150 82 1
168 82 1
20 83 1
45 83 1
151 83 1
169 83 1
21 84 1
46 84 1
152 84 1
157 84 1
22 85 1
47 85 1
153 85 1
158 85 1
23 86 1
48 86 1
154 86 1
159 86 1
24 87 1
49 87 1
155 87 1
160 87 1
25 88 1
50 88 1
156 88 1
161 88 1
26 89 1
51 89 1
144 89 1
162 89 1
14 90 1
52 90 1
145 90 1
163 90 1
15 91 1
40 91 1
146 91 1
164 91 1
3 92 1
28 92 1
134 92 1
178 92 1
4 93 1
29 93 1
135 93 1
179 93 1
5 94 1
30 94 1
136 94 1
180 94 1
6 95 1
31 95 1
137 95 1
181 95 1
7 96 1
32 96 1
138 96 1
182 96 1
8 97 1
33 97 1
139 97 1
170 97 1
9 98 1
34 98 1
140 98 1
171 98 1
10 99 1
35 99 1
141 99 1
172 99 1
11 100 1
36 100 1
142 100 1
173 100 1
12 101 1
37 101 1
143 101 1
174 101 1
13 102 1
38 102 1
131 102 1
175 102 1
1 103 1
39 103 1
132 103 1
176 103 1
2 104 1
27 104 1
133 104 1
177 104 1
39 105 1
46 105 1
243 105 1
277 105 1
27 106 1
47 106 1
244 106 1
278 106 1
28 107 1
48 107 1
245 107 1
279 107 1
29 108 1
49 108 1
246 108 1
280 108 1
30 109 1
50 109 1
247 109 1
281 109 1
31 110 1
51 110 1
235 110 1
282 110 1
32 111 1
52 111 1
236 111 1
283 111 1
33 112 1
40 112 1
237 112 1
284 112 1
34 113 1
41 113 1
238 113 1
285 113 1
35 114 1
42 114 1
239 114 1
286 114 1
36 115 1
43 115 1
240 115 1
274 115 1
37 116 1
44 116 1
241 116 1
275 116 1
38 117 1
45 117 1
242 117 1
276 117 1
33 118 1
52 118 1
256 118 1
264 118 1
34 119 1
40 119 1
257 119 1
265 119 1
35 120 1
41 120 1
258 120 1
266 120 1
36 121 1
42 121 1
259 121 1
267 121 1
37 122 1
43 122 1
260 122 1
268 122 1
38 123 1
44 123 1
248 123 1
269 123 1
39 124 1
45 124 1
249 124 1
270 124 1
27 125 1
46 125 1
250 125 1
271 125 1
28 126 1
47 126 1
251 126 1
272 126 1
29 127 1
48 127 1
252 127 1
273 127 1
30 128 1
49 128 1
253 128 1
261 128 1
31 129 1
50 129 1
254 129 1
262 129 1
32 130 1
51 130 1
255 130 1
263 130 1
13 131 1
20 131 1
217 131 1
303 131 1
1 132 1
21 132 1
218 132 1
304 132 1
2 133 1
22 133 1
219 133 1
305 133 1
3 134 1
23 134 1
220 134 1
306 134 1
4 135 1
24 135 1
221 135 1
307 135 1
5 136 1
25 136 1
209 136 1
308 136 1
6 137 1
26 137 1
210 137 1
309 137 1
7 138 1
14 138 1
211 138 1
310 138 1
8 139 1
15 139 1
212 139 1
311 139 1
9 140 1
16 140 1
213 140 1
312 140 1
10 141 1
17 141 1
214 141 1
300 141 1
11 142 1
18 142 1
215 142 1
301 142 1
12 143 1
19 143 1
216 143 1
302 143 1
7 144 1
26 144 1
230 144 1
290 144 1
8 145 1
14 145 1
231 145 1
291 145 1
9 146 1
15 146 1
232 146 1
292 146 1
10 147 1
16 147 1
233 147 1
293 147 1
11 148 1
17 148 1
234 148 1
294 148 1
12 149 1
18 149 1
222 149 1
295 149 1
13 150 1
19 150 1
223 150 1
296 150 1
1 151 1
20 151 1
224 151 1
297 151 1
2 152 1
21 152 1
225 152 1
298 152 1
3 153 1
22 153 1
226 153 1
299 153 1
4 154 1
23 154 1
227 154 1
287 154 1
5 155 1
24 155 1
228 155 1
288 155 1
6 156 1
25 156 1
229 156 1
289 156 1
91 157 1
98 157 1
225 157 1
295 157 1
79 158 1
99 158 1
226 158 1
296 158 1
80 159 1
100 159 1
227 159 1
297 159 1
81 160 1
101 160 1
228 160 1
298 160 1
82 161 1
102 161 1
229 161 1
299 161 1
83 162 1
103 162 1
230 162 1
287 162 1
84 163 1
104 163 1
231 163 1
288 163 1
85 164 1
92 164 1
232 164 1
289 164 1
86 165 1
93 165 1
233 165 1
290 165 1
87 166 1
94 166 1
234 166 1
291 166 1
88 167 1
95 167 1
222 167 1
292 167 1
89 168 1
96 168 1
223 168 1
293 168 1
90 169 1
97 169 1
224 169 1
294 169 1
85 170 1
104 170 1
212 170 1
308 170 1
86 171 1
92 171 1
213 171 1
309 171 1
87 172 1
93 172 1
214 172 1
310 172 1
88 173 1
94 173 1
215 173 1
311 173 1
89 174 1
95 174 1
216 174 1
312 174 1
90 175 1
96 175 1
217 175 1
300 175 1
91 176 1
97 176 1
218 176 1
301 176 1
79 177 1
98 177 1
219 177 1
302 177 1
80 178 1
99 178 1
220 178 1
303 178 1
81 179 1
100 179 1
221 179 1
304 179 1
82 180 1
101 180 1
209 180 1
305 180 1
83 181 1
102 181 1
210 181 1
306 181 1
84 182 1
103 182 1
211 182 1
307 182 1
65 183 1
72 183 1
251 183 1
269 183 1
53 184 1
73 184 1
252 184 1
270 184 1
54 185 1
74 185 1
253 185 1
271 185 1
55 186 1
75 186 1
254 186 1
272 186 1
56 187 1
76 187 1
255 187 1
273 187 1
57 188 1
77 188 1
256 188 1
261 188 1
58 189 1
78 189 1
257 189 1
262 189 1
59 190 1
66 190 1
258 190 1
263 190 1
60 191 1
67 191 1
259 191 1
264 191 1
61 192 1
68 192 1
260 192 1
265 192 1
62 193 1
69 193 1
248 193 1
266 193 1
63 194 1
70 194 1
249 194 1
267 194 1
64 195 1
71 195 1
250 195 1
268 195 1
59 196 1
78 196 1
238 196 1
282 196 1
60 197 1
66 197 1
239 197 1
283 197 1
61 198 1
67 198 1
240 198 1
284 198 1
62 199 1
68 199 1
241 199 1
285 199 1
63 200 1
69 200 1
242 200 1
286 200 1
64 201 1
70 201 1
243 201 1
274 201 1
65 202 1
71 202 1
244 202 1
275 202 1
53 203 1
72 203 1
245 203 1
276 203 1
54 204 1
73 204 1
246 204 1
277 204 1
55 205 1
74 205 1
247 205 1
278 205 1
56 206 1
75 206 1
235 206 1
279 206 1
57 207 1
76 207 1
236 207 1
280 207 1
58 208 1
77 208 1
237 208 1
281 208 1
143 209 1
150 209 1
275 209 1
302 209 1
131 210 1
151 210 1
276 210 1
303 210 1
132 211 1
152 211 1
277 211 1
304 211 1
133 212 1
153 212 1
278 212 1
305 212 1
134 213 1
154 213 1
279 213 1
306 213 1
135 214 1
155 214 1
280 214 1
307 214 1
136 215 1
156 215 1
281 215 1
308 215 1
137 216 1
144 216 1
282 216 1
309 216 1
138 217 1
145 217 1
283 217 1
310 217 1
139 218 1
146 218 1
284 218 1
311 218 1
140 219 1
147 219 1
285 219 1
312 219 1
141 220 1
148 220 1
286 220 1
300 220 1
142 221 1
149 221 1
274 221 1
301 221 1
137 222 1
156 222 1
262 222 1
289 222 1
138 223 1
144 223 1
263 223 1
290 223 1
139 224 1
145 224 1
264 224 1
291 224 1
140 225 1
146 225 1
265 225 1
292 225 1
141 226 1
147 226 1
266 226 1
293 226 1
142 227 1
148 227 1
267 227 1
294 227 1
143 228 1
149 228 1
268 228 1
295 228 1
131 229 1
150 229 1
269 229 1
296 229 1
132 230 1
151 230 1
270 230 1
297 230 1
133 231 1
152 231 1
271 231 1
298 231 1
134 232 1
153 232 1
272 232 1
299 232 1
135 233 1
154 233 1
273 233 1
287 233 1
136 234 1
155 234 1
261 234 1
288 234 1
117 235 1
124 235 1
276 235 1
301 235 1
105 236 1
125 236 1
277 236 1
302 236 1
106 237 1
126 237 1
278 237 1
303 237 1
107 238 1
127 238 1
279 238 1
304 238 1
108 239 1
128 239 1
280 239 1
305 239 1
109 240 1
129 240 1
281 240 1
306 240 1
110 241 1
130 241 1
282 241 1
307 241 1
111 242 1
118 242 1
283 242 1
308 242 1
112 243 1
119 243 1
284 243 1
309 243 1
113 244 1
120 244 1
285 244 1
310 244 1
114 245 1
121 245 1
286 245 1
311 245 1
115 246 1
122 246 1
274 246 1
312 246 1
116 247 1
123 247 1
275 247 1
300 247 1
111 248 1
130 248 1
263 248 1
288 248 1
112 249 1
118 249 1
264 249 1
289 249 1
113 250 1
119 250 1
265 250 1
290 250 1
114 251 1
120 251 1
266 251 1
291 251 1
115 252 1
121 252 1
267 252 1
292 252 1
116 253 1
122 253 1
268 253 1
293 253 1
117 254 1
123 254 1
269 254 1
294 254 1
105 255 1
124 255 1
270 255 1
295 255 1
106 256 1
125 256 1
271 256 1
296 256 1
107 257 1
126 257 1
272 257 1
297 257 1
108 258 1
127 258 1
273 258 1
298 258 1
109 259 1
128 259 1
261 259 1
299 259 1
110 260 1
129 260 1
262 260 1
287 260 1
195 261 1
202 261 1
223 261 1
250 261 1
183 262 1
203 262 1
224 262 1
251 262 1
184 263 1
204 263 1
225 263 1
252 263 1
185 264 1
205 264 1
226 264 1
253 264 1
186 265 1
206 265 1
227 265 1
254 265 1
187 266 1
207 266 1
228 266 1
255 266 1
188 267 1
208 267 1
229 267 1
256 267 1
189 268 1
196 268 1
230 268 1
257 268 1
190 269 1
197 269 1
231 269 1
258 269 1
191 270 1
198 270 1
232 270 1
259 270 1
192 271 1
199 271 1
233 271 1
260 271 1
193 272 1
200 272 1
234 272 1
248 272 1
194 273 1
201 273 1
222 273 1
249 273 1
189 274 1
208 274 1
210 274 1
237 274 1
190 275 1
196 275 1
211 275 1
238 275 1
191 276 1
197 276 1
212 276 1
239 276 1
192 277 1
198 277 1
213 277 1
240 277 1
193 278 1
199 278 1
214 278 1
241 278 1
194 279 1
200 279 1
215 279 1
242 279 1
195 280 1
201 280 1
216 280 1
243 280 1
183 281 1
202 281 1
217 281 1
244 281 1
184 282 1
203 282 1
218 282 1
245 282 1
185 283 1
204 283 1
219 283 1
246 283 1
186 284 1
205 284 1
220 284 1
247 284 1
187 285 1
206 285 1
221 285 1
235 285 1
188 286 1
207 286 1
209 286 1
236 286 1
169 287 1
176 287 1
224 287 1
249 287 1
157 288 1
177 288 1
225 288 1
250 288 1
158 289 1
178 289 1
226 289 1
251 289 1
159 290 1
179 290 1
227 290 1
252 290 1
160 291 1
180 291 1
228 291 1
253 291 1
161 292 1
181 292 1
229 292 1
254 292 1
162 293 1
182 293 1
230 293 1
255 293 1
163 294 1
170 294 1
231 294 1
256 294 1
164 295 1
171 295 1
232 295 1
257 295 1
165 296 1
172 296 1
233 296 1
258 296 1
166 297 1
173 297 1
234 297 1
259 297 1
167 298 1
174 298 1
222 298 1
260 298 1
168 299 1
175 299 1
223 299 1
248 299 1
163 300 1
182 300 1
211 300 1
236 300 1
164 301 1
170 301 1
212 301 1
237 301 1
165 302 1
171 302 1
213 302 1
238 302 1
166 303 1
172 303 1
214 303 1
239 303 1
167 304 1
173 304 1
215 304 1
240 304 1
168 305 1
174 305 1
216 305 1
241 305 1
169 306 1
175 306 1
217 306 1
242 306 1
157 307 1
176 307 1
218 307 1
243 307 1
158 308 1
177 308 1
219 308 1
244 308 1
159 309 1
178 309 1
220 309 1
245 309 1
160 310 1
179 310 1
221 310 1
246 310 1
161 311 1
180 311 1
209 311 1
247 311 1
162 312 1
181 312 1
210 312 1
235 312 1
18 313 1
34 313 1
347 313 1
381 313 1
19 314 1
35 314 1
348 314 1
382 314 1
20 315 1
36 315 1
349 315 1
383 315 1
21 316 1
37 316 1
350 316 1
384 316 1
22 317 1
38 317 1
351 317 1
385 317 1
23 318 1
39 318 1
339 318 1
386 318 1
24 319 1
27 319 1
340 319 1
387 319 1
25 320 1
28 320 1
341 320 1
388 320 1
26 321 1
29 321 1
342 321 1
389 321 1
14 322 1
30 322 1
343 322 1
390 322 1
15 323 1
31 323 1
344 323 1
378 323 1
16 324 1
32 324 1
345 324 1
379 324 1
17 325 1
33 325 1
346 325 1
380 325 1
5 326 1
47 326 1
360 326 1
368 326 1
6 327 1
48 327 1
361 327 1
369 327 1
7 328 1
49 328 1
362 328 1
370 328 1
8 329 1
50 329 1
363 329 1
371 329 1
9 330 1
51 330 1
364 330 1
372 330 1
10 331 1
52 331 1
352 331 1
373 331 1
11 332 1
40 332 1
353 332 1
374 332 1
12 333 1
41 333 1
354 333 1
375 333 1
13 334 1
42 334 1
355 334 1
376 334 1
1 335 1
43 335 1
356 335 1
377 335 1
2 336 1
44 336 1
357 336 1
365 336 1
3 337 1
45 337 1
358 337 1
366 337 1
4 338 1
46 338 1
359 338 1
367 338 1
8 339 1
44 339 1
321 339 1
407 339 1
9 340 1
45 340 1
322 340 1
408 340 1
10 341 1
46 341 1
323 341 1
409 341 1
11 342 1
47 342 1
324 342 1
410 342 1
12 343 1
48 343 1
325 343 1
411 343 1
13 344 1
49 344 1
313 344 1
412 344 1
1 345 1
50 345 1
314 345 1
413 345 1
2 346 1
51 346 1
315 346 1
414 346 1
3 347 1
52 347 1
316 347 1
415 347 1
4 348 1
40 348 1
317 348 1
416 348 1
5 349 1
41 349 1
318 349 1
404 349 1
6 350 1
42 350 1
319 350 1
405 350 1
7 351 1
43 351 1
320 351 1
406 351 1
21 352 1
31 352 1
334 352 1
394 352 1
22 353 1
32 353 1
335 353 1
395 353 1
23 354 1
33 354 1
336 354 1
396 354 1
24 355 1
34 355 1
337 355 1
397 355 1
25 356 1
35 356 1
338 356 1
398 356 1
26 357 1
36 357 1
326 357 1
399 357 1
14 358 1
37 358 1
327 358 1
400 358 1
15 359 1
38 359 1
328 359 1
401 359 1
16 360 1
39 360 1
329 360 1
402 360 1
17 361 1
27 361 1
330 361 1
403 361 1
18 362 1
28 362 1
331 362 1
391 362 1
19 363 1
29 363 1
332 363 1
392 363 1
20 364 1
30 364 1
333 364 1
393 364 1
70 365 1
86 365 1
329 365 1
399 365 1
71 366 1
87 366 1
330 366 1
400 366 1
72 367 1
88 367 1
331 367 1
401 367 1
73 368 1
89 368 1
332 368 1
402 368 1
74 369 1
90 369 1
333 369 1
403 369 1
75 370 1
91 370 1
334 370 1
391 370 1
76 371 1
79 371 1
335 371 1
392 371 1
77 372 1
80 372 1
336 372 1
393 372 1
78 373 1
81 373 1
337 373 1
394 373 1
66 374 1
82 374 1
338 374 1
395 374 1
67 375 1
83 375 1
326 375 1
396 375 1
68 376 1
84 376 1
327 376 1
397 376 1
69 377 1
85 377 1
328 377 1
398 377 1
57 378 1
99 378 1
316 378 1
412 378 1
58 379 1
100 379 1
317 379 1
413 379 1
59 380 1
101 380 1
318 380 1
414 380 1
60 381 1
102 381 1
319 381 1
415 381 1
61 382 1
103 382 1
320 382 1
416 382 1
62 383 1
104 383 1
321 383 1
404 383 1
63 384 1
92 384 1
322 384 1
405 384 1
64 385 1
93 385 1
323 385 1
406 385 1
65 386 1
94 386 1
324 386 1
407 386 1
53 387 1
95 387 1
325 387 1
408 387 1
54 388 1
96 388 1
313 388 1
409 388 1
55 389 1
97 389 1
314 389 1
410 389 1
56 390 1
98 390 1
315 390 1
411 390 1
60 391 1
96 391 1
355 391 1
373 391 1
61 392 1
97 392 1
356 392 1
374 392 1
62 393 1
98 393 1
357 393 1
375 393 1
63 394 1
99 394 1
358 394 1
376 394 1
64 395 1
100 395 1
359 395 1
377 395 1
65 396 1
101 396 1
360 396 1
365 396 1
53 397 1
102 397 1
361 397 1
366 397 1
54 398 1
103 398 1
362 398 1
367 398 1
55 399 1
104 399 1
363 399 1
368 399 1
56 400 1
92 400 1
364 400 1
369 400 1
57 401 1
93 401 1
352 401 1
370 401 1
58 402 1
94 402 1
353 402 1
371 402 1
59 403 1
95 403 1
354 403 1
372 403 1
73 404 1
83 404 1
342 404 1
386 404 1
74 405 1
84 405 1
343 405 1
387 405 1
75 406 1
85 406 1
344 406 1
388 406 1
76 407 1
86 407 1
345 407 1
389 407 1
77 408 1
87 408 1
346 408 1
390 408 1
78 409 1
88 409 1
347 409 1
378 409 1
66 410 1
89 410 1
348 410 1
379 410 1
67 411 1
90 411 1
349 411 1
380 411 1
68 412 1
91 412 1
350 412 1
381 412 1
69 413 1
79 413 1
351 413 1
382 413 1
70 414 1
80 414 1
339 414 1
383 414 1
71 415 1
81 415 1
340 415 1
384 415 1
72 416 1
82 416 1
341 416 1
385 416 1
122 417 1
138 417 1
379 417 1
406 417 1
123 418 1
139 418 1
380 418 1
407 418 1
124 419 1
140 419 1
381 419 1
408 419 1
125 420 1
141 420 1
382 420 1
409 420 1
126 421 1
142 421 1
383 421 1
410 421 1
127 422 1
143 422 1
384 422 1
411 422 1
128 423 1
131 423 1
385 423 1
412 423 1
129 424 1
132 424 1
386 424 1
413 424 1
130 425 1
133 425 1
387 425 1
414 425 1
118 426 1
134 426 1
388 426 1
415 426 1
119 427 1
135 427 1
389 427 1
416 427 1
120 428 1
136 428 1
390 428 1
404 428 1
121 429 1
137 429 1
378 429 1
405 429 1
109 430 1
151 430 1
366 430 1
393 430 1
110 431 1
152 431 1
367 431 1
394 431 1
111 432 1
153 432 1
368 432 1
395 432 1
112 433 1
154 433 1
369 433 1
396 433 1
113 434 1
155 434 1
370 434 1
397 434 1
114 435 1
156 435 1
371 435 1
398 435 1
115 436 1
144 436 1
372 436 1
399 436 1
116 437 1
145 437 1
373 437 1
400 437 1
117 438 1
146 438 1
374 438 1
401 438 1
105 439 1
147 439 1
375 439 1
402 439 1
106 440 1
148 440 1
376 440 1
403 440 1
107 441 1
149 441 1
377 441 1
391 441 1
108 442 1
150 442 1
365 442 1
392 442 1
112 443 1
148 443 1
380 443 1
405 443 1
113 444 1
149 444 1
381 444 1
406 444 1
114 445 1
150 445 1
382 445 1
407 445 1
115 446 1
151 446 1
383 446 1
408 446 1
116 447 1
152 447 1
384 447 1
409 447 1
117 448 1
153 448 1
385 448 1
410 448 1
105 449 1
154 449 1
386 449 1
411 449 1
106 450 1
155 450 1
387 450 1
412 450 1
107 451 1
156 451 1
388 451 1
413 451 1
108 452 1
144 452 1
389 452 1
414 452 1
109 453 1
145 453 1
390 453 1
415 453 1
110 454 1
146 454 1
378 454 1
416 454 1
111 455 1
147 455 1
379 455 1
404 455 1
125 456 1
135 456 1
367 456 1
392 456 1
126 457 1
136 457 1
368 457 1
393 457 1
127 458 1
137 458 1
369 458 1
394 458 1
128 459 1
138 459 1
370 459 1
395 459 1
129 460 1
139 460 1
371 460 1
396 460 1
130 461 1
140 461 1
372 461 1
397 461 1
118 462 1
141 462 1
373 462 1
398 462 1
119 463 1
142 463 1
374 463 1
399 463 1
120 464 1
143 464 1
375 464 1
400 464 1
121 465 1
131 465 1
376 465 1
401 465 1
122 466 1
132 466 1
377 466 1
402 466 1
123 467 1
133 467 1
365 467 1
403 467 1
124 468 1
134 468 1
366 468 1
391 468 1
174 469 1
190 469 1
327 469 1
354 469 1
175 470 1
191 470 1
328 470 1
355 470 1
176 471 1
192 471 1
329 471 1
356 471 1
177 472 1
193 472 1
330 472 1
357 472 1
178 473 1
194 473 1
331 473 1
358 473 1
179 474 1
195 474 1
332 474 1
359 474 1
180 475 1
183 475 1
333 475 1
360 475 1
181 476 1
184 476 1
334 476 1
361 476 1
182 477 1
185 477 1
335 477 1
362 477 1
170 478 1
186 478 1
336 478 1
363 478 1
171 479 1
187 479 1
337 479 1
364 479 1
172 480 1
188 480 1
338 480 1
352 480 1
173 481 1
189 481 1
326 481 1
353 481 1
161 482 1
203 482 1
314 482 1
341 482 1
162 483 1
204 483 1
315 483 1
342 483 1
163 484 1
205 484 1
316 484 1
343 484 1
164 485 1
206 485 1
317 485 1
344 485 1
165 486 1
207 486 1
318 486 1
345 486 1
166 487 1
208 487 1
319 487 1
346 487 1
167 488 1
196 488 1
320 488 1
347 488 1
168 489 1
197 489 1
321 489 1
348 489 1
169 490 1
198 490 1
322 490 1
349 490 1
157 491 1
199 491 1
323 491 1
350 491 1
158 492 1
200 492 1
324 492 1
351 492 1
159 493 1
201 493 1
325 493 1
339 493 1
160 494 1
202 494 1
313 494 1
340 494 1
164 495 1
200 495 1
328 495 1
353 495 1
165 496 1
201 496 1
329 496 1
354 496 1
166 497 1
202 497 1
330 497 1
355 497 1
167 498 1
203 498 1
331 498 1
356 498 1
168 499 1
204 499 1
332 499 1
357 499 1
169 500 1
205 500 1
333 500 1
358 500 1
157 501 1
206 501 1
334 501 1
359 501 1
158 502 1
207 502 1
335 502 1
360 502 1
159 503 1
208 503 1
336 503 1
361 503 1
160 504 1
196 504 1
337 504 1
362 504 1
161 505 1
197 505 1
338 505 1
363 505 1
162 506 1
198 506 1
326 506 1
364 506 1
163 507 1
199 507 1
327 507 1
352 507 1
177 508 1
187 508 1
315 508 1
340 508 1
178 509 1
188 509 1
316 509 1
341 509 1
179 510 1
189 510 1
317 510 1
342 510 1
180 511 1
190 511 1
318 511 1
343 511 1
181 512 1
191 512 1
319 512 1
344 512 1
182 513 1
192 513 1
320 513 1
345 513 1
170 514 1
193 514 1
321 514 1
346 514 1
171 515 1
194 515 1
322 515 1
347 515 1
172 516 1
195 516 1
323 516 1
348 516 1
173 517 1
183 517 1
324 517 1
349 517 1
174 518 1
184 518 1
325 518 1
350 518 1
175 519 1
185 519 1
313 519 1
351 519 1
176 520 1
186 520 1
314 520 1
339 520 1
226 521 1
242 521 1
351 521 1
358 521 1
227 522 1
243 522 1
339 522 1
359 522 1
228 523 1
244 523 1
340 523 1
360 523 1
229 524 1
245 524 1
341 524 1
361 524 1
230 525 1
246 525 1
342 525 1
362 525 1
231 526 1
247 526 1
343 526 1
363 526 1
232 527 1
235 527 1
344 527 1
364 527 1
233 528 1
236 528 1
345 528 1
352 528 1
234 529 1
237 529 1
346 529 1
353 529 1
222 530 1
238 530 1
347 530 1
354 530 1
223 531 1
239 531 1
348 531 1
355 531 1
224 532 1
240 532 1
349 532 1
356 532 1
225 533 1
241 533 1
350 533 1
357 533 1
213 534 1
255 534 1
345 534 1
364 534 1
214 535 1
256 535 1
346 535 1
352 535 1
215 536 1
257 536 1
347 536 1
353 536 1
216 537 1
258 537 1
348 537 1
354 537 1
217 538 1
259 538 1
349 538 1
355 538 1
218 539 1
260 539 1
350 539 1
356 539 1
219 540 1
248 540 1
351 540 1
357 540 1
220 541 1
249 541 1
339 541 1
358 541 1
221 542 1
250 542 1
340 542 1
359 542 1
209 543 1
251 543 1
341 543 1
360 543 1
210 544 1
252 544 1
342 544 1
361 544 1
211 545 1
253 545 1
343 545 1
362 545 1
212 546 1
254 546 1
344 546 1
363 546 1
216 547 1
252 547 1
325 547 1
332 547 1
217 548 1
253 548 1
313 548 1
333 548 1
218 549 1
254 549 1
314 549 1
334 549 1
219 550 1
255 550 1
315 550 1
335 550 1
220 551 1
256 551 1
316 551 1
336 551 1
221 552 1
257 552 1
317 552 1
337 552 1
209 553 1
258 553 1
318 553 1
338 553 1
210 554 1
259 554 1
319 554 1
326 554 1
211 555 1
260 555 1
320 555 1
327 555 1
212 556 1
248 556 1
321 556 1
328 556 1
213 557 1
249 557 1
322 557 1
329 557 1
214 558 1
250 558 1
323 558 1
330 558 1
215 559 1
251 559 1
324 559 1
331 559 1
229 560 1
239 560 1
319 560 1
338 560 1
230 561 1
240 561 1
320 561 1
326 561 1
231 562 1
241 562 1
321 562 1
327 562 1
232 563 1
242 563 1
322 563 1
328 563 1
233 564 1
243 564 1
323 564 1
329 564 1
234 565 1
244 565 1
324 565 1
330 565 1
222 566 1
245 566 1
325 566 1
331 566 1
223 567 1
246 567 1
313 567 1
332 567 1
224 568 1
247 568 1
314 568 1
333 568 1
225 569 1
235 569 1
315 569 1
334 569 1
226 570 1
236 570 1
316 570 1
335 570 1
227 571 1
237 571 1
317 571 1
336 571 1
228 572 1
238 572 1
318 572 1
337 572 1
278 573 1
294 573 1
403 573 1
410 573 1
279 574 1
295 574 1
391 574 1
411 574 1
280 575 1
296 575 1
392 575 1
412 575 1
281 576 1
297 576 1
393 576 1
413 576 1
282 577 1
298 577 1
394 577 1
414 577 1
283 578 1
299 578 1
395 578 1
415 578 1
284 579 1
287 579 1
396 579 1
416 579 1
285 580 1
288 580 1
397 580 1
404 580 1
286 581 1
289 581 1
398 581 1
405 581 1
274 582 1
290 582 1
399 582 1
406 582 1
275 583 1
291 583 1
400 583 1
407 583 1
276 584 1
292 584 1
401 584 1
408 584 1
277 585 1
293 585 1
402 585 1
409 585 1
265 586 1
307 586 1
397 586 1
416 586 1
266 587 1
308 587 1
398 587 1
404 587 1
267 588 1
309 588 1
399 588 1
405 588 1
268 589 1
310 589 1
400 589 1
406 589 1
269 590 1
311 590 1
401 590 1
407 590 1
270 591 1
312 591 1
402 591 1
408 591 1
271 592 1
300 592 1
403 592 1
409 592 1
272 593 1
301 593 1
391 593 1
410 593 1
273 594 1
302 594 1
392 594 1
411 594 1
261 595 1
303 595 1
393 595 1
412 595 1
262 596 1
304 596 1
394 596 1
413 596 1
263 597 1
305 597 1
395 597 1
414 597 1
264 598 1
306 598 1
396 598 1
415 598 1
268 599 1
304 599 1
377 599 1
384 599 1
269 600 1
305 600 1
365 600 1
385 600 1
270 601 1
306 601 1
366 601 1
386 601 1
271 602 1
307 602 1
367 602 1
387 602 1
272 603 1
308 603 1
368 603 1
388 603 1
273 604 1
309 604 1
369 604 1
389 604 1
261 605 1
310 605 1
370 605 1
390 605 1
262 606 1
311 606 1
371 606 1
378 606 1
263 607 1
312 607 1
372 607 1
379 607 1
264 608 1
300 608 1
373 608 1
380 608 1
265 609 1
301 609 1
374 609 1
381 609 1
266 610 1
302 610 1
375 610 1
382 610 1
267 611 1
303 611 1
376 611 1
383 611 1
281 612 1
291 612 1
371 612 1
390 612 1
282 613 1
292 613 1
372 613 1
378 613 1
283 614 1
293 614 1
373 614 1
379 614 1
284 615 1
294 615 1
374 615 1
380 615 1
285 616 1
295 616 1
375 616 1
381 616 1
286 617 1
296 617 1
376 617 1
382 617 1
274 618 1
297 618 1
377 618 1
383 618 1
275 619 1
298 619 1
365 619 1
384 619 1
276 620 1
299 620 1
366 620 1
385 620 1
277 621 1
287 621 1
367 621 1
386 621 1
278 622 1
288 622 1
368 622 1
387 622 1
279 623 1
289 623 1
369 623 1
388 623 1
280 624 1
290 624 1
370 624 1
389 624 1
