%%MatrixMarket matrix coordinate integer general
% Binary matrix; one-based indices; arithmetic over GF(2)
144 216 864
6 1 1
13 1 1
48 1 1
71 1 1
4 2 1
14 2 1
46 2 1
72 2 1
5 3 1
15 3 1
47 3 1
70 3 1
9 4 1
16 4 1
51 4 1
65 4 1
7 5 1
17 5 1
49 5 1
66 5 1
8 6 1
18 6 1
50 6 1
64 6 1
3 7 1
10 7 1
54 7 1
68 7 1
1 8 1
11 8 1
52 8 1
69 8 1
2 9 1
12 9 1
53 9 1
67 9 1
4 10 1
15 10 1
39 10 1
62 10 1
5 11 1
13 11 1
37 11 1
63 11 1
6 12 1
14 12 1
38 12 1
61 12 1
7 13 1
18 13 1
42 13 1
56 13 1
8 14 1
16 14 1
40 14 1
57 14 1
9 15 1
17 15 1
41 15 1
55 15 1
1 16 1
12 16 1
45 16 1
59 16 1
2 17 1
10 17 1
43 17 1
60 17 1
3 18 1
11 18 1
44 18 1
58 18 1
24 19 1
31 19 1
53 19 1
66 19 1
22 20 1
32 20 1
54 20 1
64 20 1
23 21 1
33 21 1
52 21 1
65 21 1
27 22 1
34 22 1
47 22 1
69 22 1
25 23 1
35 23 1
48 23 1
67 23 1
26 24 1
36 24 1
46 24 1
68 24 1
21 25 1
28 25 1
50 25 1
72 25 1
19 26 1
29 26 1
51 26 1
70 26 1
20 27 1
30 27 1
49 27 1
71 27 1
22 28 1
33 28 1
44 28 1
57 28 1
23 29 1
31 29 1
45 29 1
55 29 1
24 30 1
32 30 1
43 30 1
56 30 1
25 31 1
36 31 1
38 31 1
60 31 1
26 32 1
34 32 1
39 32 1
58 32 1
27 33 1
35 33 1
37 33 1
59 33 1
19 34 1
30 34 1
41 34 1
63 34 1
20 35 1
28 35 1
42 35 1
61 35 1
21 36 1
29 36 1
40 36 1
62 36 1
17 37 1
25 37 1
84 37 1
107 37 1
18 38 1
26 38 1
82 38 1
108 38 1
16 39 1
27 39 1
83 39 1
106 39 1
11 40 1
19 40 1
87 40 1
101 40 1
12 41 1
20 41 1
85 41 1
102 41 1
10 42 1
21 42 1
86 42 1
100 42 1
14 43 1
22 43 1
90 43 1
104 43 1
15 44 1
23 44 1
88 44 1
105 44 1
13 45 1
24 45 1
89 45 1
103 45 1
8 46 1
34 46 1
75 46 1
98 46 1
9 47 1
35 47 1
73 47 1
99 47 1
7 48 1
36 48 1
74 48 1
97 48 1
2 49 1
28 49 1
78 49 1
92 49 1
3 50 1
29 50 1
76 50 1
93 50 1
1 51 1
30 51 1
77 51 1
91 51 1
5 52 1
31 52 1
81 52 1
95 52 1
6 53 1
32 53 1
79 53 1
96 53 1
4 54 1
33 54 1
80 54 1
94 54 1
7 55 1
35 55 1
89 55 1
102 55 1
8 56 1
36 56 1
90 56 1
100 56 1
9 57 1
34 57 1
88 57 1
101 57 1
1 58 1
29 58 1
83 58 1
105 58 1
2 59 1
30 59 1
84 59 1
103 59 1
3 60 1
28 60 1
82 60 1
104 60 1
4 61 1
32 61 1
86 61 1
108 61 1
5 62 1
33 62 1
87 62 1
106 62 1
6 63 1
31 63 1
85 63 1
107 63 1
16 64 1
26 64 1
80 64 1
93 64 1
17 65 1
27 65 1
81 65 1
91 65 1
18 66 1
25 66 1
79 66 1
92 66 1
10 67 1
20 67 1
74 67 1
96 67 1
11 68 1
21 68 1
75 68 1
94 68 1
12 69 1
19 69 1
73 69 1
95 69 1
13 70 1
23 70 1
77 70 1
99 70 1
14 71 1
24 71 1
78 71 1
97 71 1
15 72 1
22 72 1
76 72 1
98 72 1
53 73 1
61 73 1
78 73 1
85 73 1
54 74 1
62 74 1
76 74 1
86 74 1
52 75 1
63 75 1
77 75 1
87 75 1
47 76 1
55 76 1
81 76 1
88 76 1
48 77 1
56 77 1
79 77 1
89 77 1
46 78 1
57 78 1
80 78 1
90 78 1
50 79 1
58 79 1
75 79 1
82 79 1
51 80 1
59 80 1
73 80 1
83 80 1
49 81 1
60 81 1
74 81 1
84 81 1
44 82 1
70 82 1
76 82 1
87 82 1
45 83 1
71 83 1
77 83 1
85 83 1
43 84 1
72 84 1
78 84 1
86 84 1
38 85 1
64 85 1
79 85 1
90 85 1
39 86 1
65 86 1
80 86 1
88 86 1
37 87 1
66 87 1
81 87 1
89 87 1
41 88 1
67 88 1
73 88 1
84 88 1
42 89 1
68 89 1
74 89 1
82 89 1
40 90 1
69 90 1
75 90 1
83 90 1
43 91 1
71 91 1
96 91 1
103 91 1
44 92 1
72 92 1
94 92 1
104 92 1
45 93 1
70 93 1
95 93 1
105 93 1
37 94 1
65 94 1
99 94 1
106 94 1
38 95 1
66 95 1
97 95 1
107 95 1
39 96 1
64 96 1
98 96 1
108 96 1
40 97 1
68 97 1
93 97 1
100 97 1
41 98 1
69 98 1
91 98 1
101 98 1
42 99 1
67 99 1
92 99 1
102 99 1
52 100 1
62 100 1
94 100 1
105 100 1
53 101 1
63 101 1
95 101 1
103 101 1
54 102 1
61 102 1
96 102 1
104 102 1
46 103 1
56 103 1
97 103 1
108 103 1
47 104 1
57 104 1
98 104 1
106 104 1
48 105 1
55 105 1
99 105 1
107 105 1
49 106 1
59 106 1
91 106 1
102 106 1
50 107 1
60 107 1
92 107 1
100 107 1
51 108 1
58 108 1
93 108 1
101 108 1
13 109 1
34 109 1
120 109 1
143 109 1
14 110 1
35 110 1
118 110 1
144 110 1
15 111 1
36 111 1
119 111 1
142 111 1
16 112 1
28 112 1
123 112 1
137 112 1
17 113 1
29 113 1
121 113 1
138 113 1
18 114 1
30 114 1
122 114 1
136 114 1
10 115 1
31 115 1
126 115 1
140 115 1
11 116 1
32 116 1
124 116 1
141 116 1
12 117 1
33 117 1
125 117 1
139 117 1
4 118 1
25 118 1
111 118 1
134 118 1
5 119 1
26 119 1
109 119 1
135 119 1
6 120 1
27 120 1
110 120 1
133 120 1
7 121 1
19 121 1
114 121 1
128 121 1
8 122 1
20 122 1
112 122 1
129 122 1
9 123 1
21 123 1
113 123 1
127 123 1
1 124 1
22 124 1
117 124 1
131 124 1
2 125 1
23 125 1
115 125 1
132 125 1
3 126 1
24 126 1
116 126 1
130 126 1
16 127 1
31 127 1
125 127 1
138 127 1
17 128 1
32 128 1
126 128 1
136 128 1
18 129 1
33 129 1
124 129 1
137 129 1
10 130 1
34 130 1
119 130 1
141 130 1
11 131 1
35 131 1
120 131 1
139 131 1
12 132 1
36 132 1
118 132 1
140 132 1
13 133 1
28 133 1
122 133 1
144 133 1
14 134 1
29 134 1
123 134 1
142 134 1
15 135 1
30 135 1
121 135 1
143 135 1
7 136 1
22 136 1
116 136 1
129 136 1
8 137 1
23 137 1
117 137 1
127 137 1
9 138 1
24 138 1
115 138 1
128 138 1
1 139 1
25 139 1
110 139 1
132 139 1
2 140 1
26 140 1
111 140 1
130 140 1
3 141 1
27 141 1
109 141 1
131 141 1
4 142 1
19 142 1
113 142 1
135 142 1
5 143 1
20 143 1
114 143 1
133 143 1
6 144 1
21 144 1
112 144 1
134 144 1
49 145 1
70 145 1
114 145 1
121 145 1
50 146 1
71 146 1
112 146 1
122 146 1
51 147 1
72 147 1
113 147 1
123 147 1
52 148 1
64 148 1
117 148 1
124 148 1
53 149 1
65 149 1
115 149 1
125 149 1
54 150 1
66 150 1
116 150 1
126 150 1
46 151 1
67 151 1
111 151 1
118 151 1
47 152 1
68 152 1
109 152 1
119 152 1
48 153 1
69 153 1
110 153 1
120 153 1
40 154 1
61 154 1
112 154 1
123 154 1
41 155 1
62 155 1
113 155 1
121 155 1
42 156 1
63 156 1
114 156 1
122 156 1
43 157 1
55 157 1
115 157 1
126 157 1
44 158 1
56 158 1
116 158 1
124 158 1
45 159 1
57 159 1
117 159 1
125 159 1
37 160 1
58 160 1
109 160 1
120 160 1
38 161 1
59 161 1
110 161 1
118 161 1
39 162 1
60 162 1
111 162 1
119 162 1
52 163 1
67 163 1
132 163 1
139 163 1
53 164 1
68 164 1
130 164 1
140 164 1
54 165 1
69 165 1
131 165 1
141 165 1
46 166 1
70 166 1
135 166 1
142 166 1
47 167 1
71 167 1
133 167 1
143 167 1
48 168 1
72 168 1
134 168 1
144 168 1
49 169 1
64 169 1
129 169 1
136 169 1
50 170 1
65 170 1
127 170 1
137 170 1
51 171 1
66 171 1
128 171 1
138 171 1
43 172 1
58 172 1
130 172 1
141 172 1
44 173 1
59 173 1
131 173 1
139 173 1
45 174 1
60 174 1
132 174 1
140 174 1
37 175 1
61 175 1
133 175 1
144 175 1
38 176 1
62 176 1
134 176 1
142 176 1
39 177 1
63 177 1
135 177 1
143 177 1
40 178 1
55 178 1
127 178 1
138 178 1
41 179 1
56 179 1
128 179 1
136 179 1
42 180 1
57 180 1
129 180 1
137 180 1
85 181 1
106 181 1
125 181 1
133 181 1
86 182 1
107 182 1
126 182 1
134 182 1
87 183 1
108 183 1
124 183 1
135 183 1
88 184 1
100 184 1
119 184 1
127 184 1
89 185 1
101 185 1
120 185 1
128 185 1
90 186 1
102 186 1
118 186 1
129 186 1
82 187 1
103 187 1
122 187 1
130 187 1
83 188 1
104 188 1
123 188 1
131 188 1
84 189 1
105 189 1
121 189 1
132 189 1
76 190 1
97 190 1
116 190 1
142 190 1
77 191 1
98 191 1
117 191 1
143 191 1
78 192 1
99 192 1
115 192 1
144 192 1
79 193 1
91 193 1
110 193 1
136 193 1
80 194 1
92 194 1
111 194 1
137 194 1
81 195 1
93 195 1
109 195 1
138 195 1
73 196 1
94 196 1
113 196 1
139 196 1
74 197 1
95 197 1
114 197 1
140 197 1
75 198 1
96 198 1
112 198 1
141 198 1
88 199 1
103 199 1
115 199 1
143 199 1
89 200 1
104 200 1
116 200 1
144 200 1
90 201 1
105 201 1
117 201 1
142 201 1
82 202 1
106 202 1
109 202 1
137 202 1
83 203 1
107 203 1
110 203 1
138 203 1
84 204 1
108 204 1
111 204 1
136 204 1
85 205 1
100 205 1
112 205 1
140 205 1
86 206 1
101 206 1
113 206 1
141 206 1
87 207 1
102 207 1
114 207 1
139 207 1
79 208 1
94 208 1
124 208 1
134 208 1
80 209 1
95 209 1
125 209 1
135 209 1
81 210 1
96 210 1
126 210 1
133 210 1
73 211 1
97 211 1
118 211 1
128 211 1
74 212 1
98 212 1
119 212 1
129 212 1
75 213 1
99 213 1
120 213 1
127 213 1
76 214 1
91 214 1
121 214 1
131 214 1
77 215 1
92 215 1
122 215 1
132 215 1
78 216 1
93 216 1
123 216 1
130 216 1
