%%MatrixMarket matrix coordinate integer general
% Binary matrix; one-based indices; arithmetic over GF(2)
432 648 3888
8 1 1
24 1 1
55 1 1
130 1 1
161 1 1
202 1 1
5 2 1
21 2 1
56 2 1
131 2 1
162 2 1
203 2 1
6 3 1
22 3 1
53 3 1
132 3 1
163 3 1
204 3 1
7 4 1
23 4 1
54 4 1
129 4 1
164 4 1
201 4 1
12 5 1
16 5 1
59 5 1
122 5 1
165 5 1
194 5 1
9 6 1
13 6 1
60 6 1
123 6 1
166 6 1
195 6 1
10 7 1
14 7 1
57 7 1
124 7 1
167 7 1
196 7 1
11 8 1
15 8 1
58 8 1
121 8 1
168 8 1
193 8 1
4 9 1
20 9 1
51 9 1
126 9 1
157 9 1
198 9 1
1 10 1
17 10 1
52 10 1
127 10 1
158 10 1
199 10 1
2 11 1
18 11 1
49 11 1
128 11 1
159 11 1
200 11 1
3 12 1
19 12 1
50 12 1
125 12 1
160 12 1
197 12 1
20 13 1
36 13 1
67 13 1
142 13 1
173 13 1
214 13 1
17 14 1
33 14 1
68 14 1
143 14 1
174 14 1
215 14 1
18 15 1
34 15 1
65 15 1
144 15 1
175 15 1
216 15 1
19 16 1
35 16 1
66 16 1
141 16 1
176 16 1
213 16 1
24 17 1
28 17 1
71 17 1
134 17 1
177 17 1
206 17 1
21 18 1
25 18 1
72 18 1
135 18 1
178 18 1
207 18 1
22 19 1
26 19 1
69 19 1
136 19 1
179 19 1
208 19 1
23 20 1
27 20 1
70 20 1
133 20 1
180 20 1
205 20 1
16 21 1
32 21 1
63 21 1
138 21 1
169 21 1
210 21 1
13 22 1
29 22 1
64 22 1
139 22 1
170 22 1
211 22 1
14 23 1
30 23 1
61 23 1
140 23 1
171 23 1
212 23 1
15 24 1
31 24 1
62 24 1
137 24 1
172 24 1
209 24 1
12 25 1
32 25 1
43 25 1
118 25 1
149 25 1
190 25 1
9 26 1
29 26 1
44 26 1
119 26 1
150 26 1
191 26 1
10 27 1
30 27 1
41 27 1
120 27 1
151 27 1
192 27 1
11 28 1
31 28 1
42 28 1
117 28 1
152 28 1
189 28 1
4 29 1
36 29 1
47 29 1
110 29 1
153 29 1
182 29 1
1 30 1
33 30 1
48 30 1
111 30 1
154 30 1
183 30 1
2 31 1
34 31 1
45 31 1
112 31 1
155 31 1
184 31 1
3 32 1
35 32 1
46 32 1
109 32 1
156 32 1
181 32 1
8 33 1
28 33 1
39 33 1
114 33 1
145 33 1
186 33 1
5 34 1
25 34 1
40 34 1
115 34 1
146 34 1
187 34 1
6 35 1
26 35 1
37 35 1
116 35 1
147 35 1
188 35 1
7 36 1
27 36 1
38 36 1
113 36 1
148 36 1
185 36 1
44 37 1
60 37 1
91 37 1
130 37 1
166 37 1
197 37 1
41 38 1
57 38 1
92 38 1
131 38 1
167 38 1
198 38 1
42 39 1
58 39 1
89 39 1
132 39 1
168 39 1
199 39 1
43 40 1
59 40 1
90 40 1
129 40 1
165 40 1
200 40 1
48 41 1
52 41 1
95 41 1
122 41 1
158 41 1
201 41 1
45 42 1
49 42 1
96 42 1
123 42 1
159 42 1
202 42 1
46 43 1
50 43 1
93 43 1
124 43 1
160 43 1
203 43 1
47 44 1
51 44 1
94 44 1
121 44 1
157 44 1
204 44 1
40 45 1
56 45 1
87 45 1
126 45 1
162 45 1
193 45 1
37 46 1
53 46 1
88 46 1
127 46 1
163 46 1
194 46 1
38 47 1
54 47 1
85 47 1
128 47 1
164 47 1
195 47 1
39 48 1
55 48 1
86 48 1
125 48 1
161 48 1
196 48 1
56 49 1
72 49 1
103 49 1
142 49 1
178 49 1
209 49 1
53 50 1
69 50 1
104 50 1
143 50 1
179 50 1
210 50 1
54 51 1
70 51 1
101 51 1
144 51 1
180 51 1
211 51 1
55 52 1
71 52 1
102 52 1
141 52 1
177 52 1
212 52 1
60 53 1
64 53 1
107 53 1
134 53 1
170 53 1
213 53 1
57 54 1
61 54 1
108 54 1
135 54 1
171 54 1
214 54 1
58 55 1
62 55 1
105 55 1
136 55 1
172 55 1
215 55 1
59 56 1
63 56 1
106 56 1
133 56 1
169 56 1
216 56 1
52 57 1
68 57 1
99 57 1
138 57 1
174 57 1
205 57 1
49 58 1
65 58 1
100 58 1
139 58 1
175 58 1
206 58 1
50 59 1
66 59 1
97 59 1
140 59 1
176 59 1
207 59 1
51 60 1
67 60 1
98 60 1
137 60 1
173 60 1
208 60 1
48 61 1
68 61 1
79 61 1
118 61 1
154 61 1
185 61 1
45 62 1
65 62 1
80 62 1
119 62 1
155 62 1
186 62 1
46 63 1
66 63 1
77 63 1
120 63 1
156 63 1
187 63 1
47 64 1
67 64 1
78 64 1
117 64 1
153 64 1
188 64 1
40 65 1
72 65 1
83 65 1
110 65 1
146 65 1
189 65 1
37 66 1
69 66 1
84 66 1
111 66 1
147 66 1
190 66 1
38 67 1
70 67 1
81 67 1
112 67 1
148 67 1
191 67 1
39 68 1
71 68 1
82 68 1
109 68 1
145 68 1
192 68 1
44 69 1
64 69 1
75 69 1
114 69 1
150 69 1
181 69 1
41 70 1
61 70 1
76 70 1
115 70 1
151 70 1
182 70 1
42 71 1
62 71 1
73 71 1
116 71 1
152 71 1
183 71 1
43 72 1
63 72 1
74 72 1
113 72 1
149 72 1
184 72 1
19 73 1
80 73 1
96 73 1
125 73 1
166 73 1
202 73 1
20 74 1
77 74 1
93 74 1
126 74 1
167 74 1
203 74 1
17 75 1
78 75 1
94 75 1
127 75 1
168 75 1
204 75 1
18 76 1
79 76 1
95 76 1
128 76 1
165 76 1
201 76 1
23 77 1
84 77 1
88 77 1
129 77 1
158 77 1
194 77 1
24 78 1
81 78 1
85 78 1
130 78 1
159 78 1
195 78 1
21 79 1
82 79 1
86 79 1
131 79 1
160 79 1
196 79 1
22 80 1
83 80 1
87 80 1
132 80 1
157 80 1
193 80 1
15 81 1
76 81 1
92 81 1
121 81 1
162 81 1
198 81 1
16 82 1
73 82 1
89 82 1
122 82 1
163 82 1
199 82 1
13 83 1
74 83 1
90 83 1
123 83 1
164 83 1
200 83 1
14 84 1
75 84 1
91 84 1
124 84 1
161 84 1
197 84 1
31 85 1
92 85 1
108 85 1
137 85 1
178 85 1
214 85 1
32 86 1
89 86 1
105 86 1
138 86 1
179 86 1
215 86 1
29 87 1
90 87 1
106 87 1
139 87 1
180 87 1
216 87 1
30 88 1
91 88 1
107 88 1
140 88 1
177 88 1
213 88 1
35 89 1
96 89 1
100 89 1
141 89 1
170 89 1
206 89 1
36 90 1
93 90 1
97 90 1
142 90 1
171 90 1
207 90 1
33 91 1
94 91 1
98 91 1
143 91 1
172 91 1
208 91 1
34 92 1
95 92 1
99 92 1
144 92 1
169 92 1
205 92 1
27 93 1
88 93 1
104 93 1
133 93 1
174 93 1
210 93 1
28 94 1
85 94 1
101 94 1
134 94 1
175 94 1
211 94 1
25 95 1
86 95 1
102 95 1
135 95 1
176 95 1
212 95 1
26 96 1
87 96 1
103 96 1
136 96 1
173 96 1
209 96 1
7 97 1
84 97 1
104 97 1
113 97 1
154 97 1
190 97 1
8 98 1
81 98 1
101 98 1
114 98 1
155 98 1
191 98 1
5 99 1
82 99 1
102 99 1
115 99 1
156 99 1
192 99 1
6 100 1
83 100 1
103 100 1
116 100 1
153 100 1
189 100 1
11 101 1
76 101 1
108 101 1
117 101 1
146 101 1
182 101 1
12 102 1
73 102 1
105 102 1
118 102 1
147 102 1
183 102 1
9 103 1
74 103 1
106 103 1
119 103 1
148 103 1
184 103 1
10 104 1
75 104 1
107 104 1
120 104 1
145 104 1
181 104 1
3 105 1
80 105 1
100 105 1
109 105 1
150 105 1
186 105 1
4 106 1
77 106 1
97 106 1
110 106 1
151 106 1
187 106 1
1 107 1
78 107 1
98 107 1
111 107 1
152 107 1
188 107 1
2 108 1
79 108 1
99 108 1
112 108 1
149 108 1
185 108 1
15 109 1
51 109 1
71 109 1
238 109 1
269 109 1
310 109 1
16 110 1
52 110 1
72 110 1
239 110 1
270 110 1
311 110 1
13 111 1
49 111 1
69 111 1
240 111 1
271 111 1
312 111 1
14 112 1
50 112 1
70 112 1
237 112 1
272 112 1
309 112 1
19 113 1
55 113 1
63 113 1
230 113 1
273 113 1
302 113 1
20 114 1
56 114 1
64 114 1
231 114 1
274 114 1
303 114 1
17 115 1
53 115 1
61 115 1
232 115 1
275 115 1
304 115 1
18 116 1
54 116 1
62 116 1
229 116 1
276 116 1
301 116 1
23 117 1
59 117 1
67 117 1
234 117 1
265 117 1
306 117 1
24 118 1
60 118 1
68 118 1
235 118 1
266 118 1
307 118 1
21 119 1
57 119 1
65 119 1
236 119 1
267 119 1
308 119 1
22 120 1
58 120 1
66 120 1
233 120 1
268 120 1
305 120 1
27 121 1
47 121 1
63 121 1
250 121 1
281 121 1
322 121 1
28 122 1
48 122 1
64 122 1
251 122 1
282 122 1
323 122 1
25 123 1
45 123 1
61 123 1
252 123 1
283 123 1
324 123 1
26 124 1
46 124 1
62 124 1
249 124 1
284 124 1
321 124 1
31 125 1
39 125 1
67 125 1
242 125 1
285 125 1
314 125 1
32 126 1
40 126 1
68 126 1
243 126 1
286 126 1
315 126 1
29 127 1
37 127 1
65 127 1
244 127 1
287 127 1
316 127 1
30 128 1
38 128 1
66 128 1
241 128 1
288 128 1
313 128 1
35 129 1
43 129 1
71 129 1
246 129 1
277 129 1
318 129 1
36 130 1
44 130 1
72 130 1
247 130 1
278 130 1
319 130 1
33 131 1
41 131 1
69 131 1
248 131 1
279 131 1
320 131 1
34 132 1
42 132 1
70 132 1
245 132 1
280 132 1
317 132 1
3 133 1
39 133 1
59 133 1
226 133 1
257 133 1
298 133 1
4 134 1
40 134 1
60 134 1
227 134 1
258 134 1
299 134 1
1 135 1
37 135 1
57 135 1
228 135 1
259 135 1
300 135 1
2 136 1
38 136 1
58 136 1
225 136 1
260 136 1
297 136 1
7 137 1
43 137 1
51 137 1
218 137 1
261 137 1
290 137 1
8 138 1
44 138 1
52 138 1
219 138 1
262 138 1
291 138 1
5 139 1
41 139 1
49 139 1
220 139 1
263 139 1
292 139 1
6 140 1
42 140 1
50 140 1
217 140 1
264 140 1
289 140 1
11 141 1
47 141 1
55 141 1
222 141 1
253 141 1
294 141 1
12 142 1
48 142 1
56 142 1
223 142 1
254 142 1
295 142 1
9 143 1
45 143 1
53 143 1
224 143 1
255 143 1
296 143 1
10 144 1
46 144 1
54 144 1
221 144 1
256 144 1
293 144 1
51 145 1
87 145 1
107 145 1
238 145 1
274 145 1
305 145 1
52 146 1
88 146 1
108 146 1
239 146 1
275 146 1
306 146 1
49 147 1
85 147 1
105 147 1
240 147 1
276 147 1
307 147 1
50 148 1
86 148 1
106 148 1
237 148 1
273 148 1
308 148 1
55 149 1
91 149 1
99 149 1
230 149 1
266 149 1
309 149 1
56 150 1
92 150 1
100 150 1
231 150 1
267 150 1
310 150 1
53 151 1
89 151 1
97 151 1
232 151 1
268 151 1
311 151 1
54 152 1
90 152 1
98 152 1
229 152 1
265 152 1
312 152 1
59 153 1
95 153 1
103 153 1
234 153 1
270 153 1
301 153 1
60 154 1
96 154 1
104 154 1
235 154 1
271 154 1
302 154 1
57 155 1
93 155 1
101 155 1
236 155 1
272 155 1
303 155 1
58 156 1
94 156 1
102 156 1
233 156 1
269 156 1
304 156 1
63 157 1
83 157 1
99 157 1
250 157 1
286 157 1
317 157 1
64 158 1
84 158 1
100 158 1
251 158 1
287 158 1
318 158 1
61 159 1
81 159 1
97 159 1
252 159 1
288 159 1
319 159 1
62 160 1
82 160 1
98 160 1
249 160 1
285 160 1
320 160 1
67 161 1
75 161 1
103 161 1
242 161 1
278 161 1
321 161 1
68 162 1
76 162 1
104 162 1
243 162 1
279 162 1
322 162 1
65 163 1
73 163 1
101 163 1
244 163 1
280 163 1
323 163 1
66 164 1
74 164 1
102 164 1
241 164 1
277 164 1
324 164 1
71 165 1
79 165 1
107 165 1
246 165 1
282 165 1
313 165 1
72 166 1
80 166 1
108 166 1
247 166 1
283 166 1
314 166 1
69 167 1
77 167 1
105 167 1
248 167 1
284 167 1
315 167 1
70 168 1
78 168 1
106 168 1
245 168 1
281 168 1
316 168 1
39 169 1
75 169 1
95 169 1
226 169 1
262 169 1
293 169 1
40 170 1
76 170 1
96 170 1
227 170 1
263 170 1
294 170 1
37 171 1
73 171 1
93 171 1
228 171 1
264 171 1
295 171 1
38 172 1
74 172 1
94 172 1
225 172 1
261 172 1
296 172 1
43 173 1
79 173 1
87 173 1
218 173 1
254 173 1
297 173 1
44 174 1
80 174 1
88 174 1
219 174 1
255 174 1
298 174 1
41 175 1
77 175 1
85 175 1
220 175 1
256 175 1
299 175 1
42 176 1
78 176 1
86 176 1
217 176 1
253 176 1
300 176 1
47 177 1
83 177 1
91 177 1
222 177 1
258 177 1
289 177 1
48 178 1
84 178 1
92 178 1
223 178 1
259 178 1
290 178 1
45 179 1
81 179 1
89 179 1
224 179 1
260 179 1
291 179 1
46 180 1
82 180 1
90 180 1
221 180 1
257 180 1
292 180 1
15 181 1
35 181 1
87 181 1
233 181 1
274 181 1
310 181 1
16 182 1
36 182 1
88 182 1
234 182 1
275 182 1
311 182 1
13 183 1
33 183 1
85 183 1
235 183 1
276 183 1
312 183 1
14 184 1
34 184 1
86 184 1
236 184 1
273 184 1
309 184 1
19 185 1
27 185 1
91 185 1
237 185 1
266 185 1
302 185 1
20 186 1
28 186 1
92 186 1
238 186 1
267 186 1
303 186 1
17 187 1
25 187 1
89 187 1
239 187 1
268 187 1
304 187 1
18 188 1
26 188 1
90 188 1
240 188 1
265 188 1
301 188 1
23 189 1
31 189 1
95 189 1
229 189 1
270 189 1
306 189 1
24 190 1
32 190 1
96 190 1
230 190 1
271 190 1
307 190 1
21 191 1
29 191 1
93 191 1
231 191 1
272 191 1
308 191 1
22 192 1
30 192 1
94 192 1
232 192 1
269 192 1
305 192 1
11 193 1
27 193 1
99 193 1
245 193 1
286 193 1
322 193 1
12 194 1
28 194 1
100 194 1
246 194 1
287 194 1
323 194 1
9 195 1
25 195 1
97 195 1
247 195 1
288 195 1
324 195 1
10 196 1
26 196 1
98 196 1
248 196 1
285 196 1
321 196 1
3 197 1
31 197 1
103 197 1
249 197 1
278 197 1
314 197 1
4 198 1
32 198 1
104 198 1
250 198 1
279 198 1
315 198 1
1 199 1
29 199 1
101 199 1
251 199 1
280 199 1
316 199 1
2 200 1
30 200 1
102 200 1
252 200 1
277 200 1
313 200 1
7 201 1
35 201 1
107 201 1
241 201 1
282 201 1
318 201 1
8 202 1
36 202 1
108 202 1
242 202 1
283 202 1
319 202 1
5 203 1
33 203 1
105 203 1
243 203 1
284 203 1
320 203 1
6 204 1
34 204 1
106 204 1
244 204 1
281 204 1
317 204 1
3 205 1
23 205 1
75 205 1
221 205 1
262 205 1
298 205 1
4 206 1
24 206 1
76 206 1
222 206 1
263 206 1
299 206 1
1 207 1
21 207 1
73 207 1
223 207 1
264 207 1
300 207 1
2 208 1
22 208 1
74 208 1
224 208 1
261 208 1
297 208 1
7 209 1
15 209 1
79 209 1
225 209 1
254 209 1
290 209 1
8 210 1
16 210 1
80 210 1
226 210 1
255 210 1
291 210 1
5 211 1
13 211 1
77 211 1
227 211 1
256 211 1
292 211 1
6 212 1
14 212 1
78 212 1
228 212 1
253 212 1
289 212 1
11 213 1
19 213 1
83 213 1
217 213 1
258 213 1
294 213 1
12 214 1
20 214 1
84 214 1
218 214 1
259 214 1
295 214 1
9 215 1
17 215 1
81 215 1
219 215 1
260 215 1
296 215 1
10 216 1
18 216 1
82 216 1
220 216 1
257 216 1
293 216 1
123 217 1
159 217 1
179 217 1
224 217 1
240 217 1
271 217 1
124 218 1
160 218 1
180 218 1
221 218 1
237 218 1
272 218 1
121 219 1
157 219 1
177 219 1
222 219 1
238 219 1
269 219 1
122 220 1
158 220 1
178 220 1
223 220 1
239 220 1
270 220 1
127 221 1
163 221 1
171 221 1
228 221 1
232 221 1
275 221 1
128 222 1
164 222 1
172 222 1
225 222 1
229 222 1
276 222 1
125 223 1
161 223 1
169 223 1
226 223 1
230 223 1
273 223 1
126 224 1
162 224 1
170 224 1
227 224 1
231 224 1
274 224 1
131 225 1
167 225 1
175 225 1
220 225 1
236 225 1
267 225 1
132 226 1
168 226 1
176 226 1
217 226 1
233 226 1
268 226 1
129 227 1
165 227 1
173 227 1
218 227 1
234 227 1
265 227 1
130 228 1
166 228 1
174 228 1
219 228 1
235 228 1
266 228 1
135 229 1
155 229 1
171 229 1
236 229 1
252 229 1
283 229 1
136 230 1
156 230 1
172 230 1
233 230 1
249 230 1
284 230 1
133 231 1
153 231 1
169 231 1
234 231 1
250 231 1
281 231 1
134 232 1
154 232 1
170 232 1
235 232 1
251 232 1
282 232 1
139 233 1
147 233 1
175 233 1
240 233 1
244 233 1
287 233 1
140 234 1
148 234 1
176 234 1
237 234 1
241 234 1
288 234 1
137 235 1
145 235 1
173 235 1
238 235 1
242 235 1
285 235 1
138 236 1
146 236 1
174 236 1
239 236 1
243 236 1
286 236 1
143 237 1
151 237 1
179 237 1
232 237 1
248 237 1
279 237 1
144 238 1
152 238 1
180 238 1
229 238 1
245 238 1
280 238 1
141 239 1
149 239 1
177 239 1
230 239 1
246 239 1
277 239 1
142 240 1
150 240 1
178 240 1
231 240 1
247 240 1
278 240 1
111 241 1
147 241 1
167 241 1
228 241 1
248 241 1
259 241 1
112 242 1
148 242 1
168 242 1
225 242 1
245 242 1
260 242 1
109 243 1
145 243 1
165 243 1
226 243 1
246 243 1
257 243 1
110 244 1
146 244 1
166 244 1
227 244 1
247 244 1
258 244 1
115 245 1
151 245 1
159 245 1
220 245 1
252 245 1
263 245 1
116 246 1
152 246 1
160 246 1
217 246 1
249 246 1
264 246 1
113 247 1
149 247 1
157 247 1
218 247 1
250 247 1
261 247 1
114 248 1
150 248 1
158 248 1
219 248 1
251 248 1
262 248 1
119 249 1
155 249 1
163 249 1
224 249 1
244 249 1
255 249 1
120 250 1
156 250 1
164 250 1
221 250 1
241 250 1
256 250 1
117 251 1
153 251 1
161 251 1
222 251 1
242 251 1
253 251 1
118 252 1
154 252 1
162 252 1
223 252 1
243 252 1
254 252 1
159 253 1
195 253 1
215 253 1
260 253 1
276 253 1
307 253 1
160 254 1
196 254 1
216 254 1
257 254 1
273 254 1
308 254 1
157 255 1
193 255 1
213 255 1
258 255 1
274 255 1
305 255 1
158 256 1
194 256 1
214 256 1
259 256 1
275 256 1
306 256 1
163 257 1
199 257 1
207 257 1
264 257 1
268 257 1
311 257 1
164 258 1
200 258 1
208 258 1
261 258 1
265 258 1
312 258 1
161 259 1
197 259 1
205 259 1
262 259 1
266 259 1
309 259 1
162 260 1
198 260 1
206 260 1
263 260 1
267 260 1
310 260 1
167 261 1
203 261 1
211 261 1
256 261 1
272 261 1
303 261 1
168 262 1
204 262 1
212 262 1
253 262 1
269 262 1
304 262 1
165 263 1
201 263 1
209 263 1
254 263 1
270 263 1
301 263 1
166 264 1
202 264 1
210 264 1
255 264 1
271 264 1
302 264 1
171 265 1
191 265 1
207 265 1
272 265 1
288 265 1
319 265 1
172 266 1
192 266 1
208 266 1
269 266 1
285 266 1
320 266 1
169 267 1
189 267 1
205 267 1
270 267 1
286 267 1
317 267 1
170 268 1
190 268 1
206 268 1
271 268 1
287 268 1
318 268 1
175 269 1
183 269 1
211 269 1
276 269 1
280 269 1
323 269 1
176 270 1
184 270 1
212 270 1
273 270 1
277 270 1
324 270 1
173 271 1
181 271 1
209 271 1
274 271 1
278 271 1
321 271 1
174 272 1
182 272 1
210 272 1
275 272 1
279 272 1
322 272 1
179 273 1
187 273 1
215 273 1
268 273 1
284 273 1
315 273 1
180 274 1
188 274 1
216 274 1
265 274 1
281 274 1
316 274 1
177 275 1
185 275 1
213 275 1
266 275 1
282 275 1
313 275 1
178 276 1
186 276 1
214 276 1
267 276 1
283 276 1
314 276 1
147 277 1
183 277 1
203 277 1
264 277 1
284 277 1
295 277 1
148 278 1
184 278 1
204 278 1
261 278 1
281 278 1
296 278 1
145 279 1
181 279 1
201 279 1
262 279 1
282 279 1
293 279 1
146 280 1
182 280 1
202 280 1
263 280 1
283 280 1
294 280 1
151 281 1
187 281 1
195 281 1
256 281 1
288 281 1
299 281 1
152 282 1
188 282 1
196 282 1
253 282 1
285 282 1
300 282 1
149 283 1
185 283 1
193 283 1
254 283 1
286 283 1
297 283 1
150 284 1
186 284 1
194 284 1
255 284 1
287 284 1
298 284 1
155 285 1
191 285 1
199 285 1
260 285 1
280 285 1
291 285 1
156 286 1
192 286 1
200 286 1
257 286 1
277 286 1
292 286 1
153 287 1
189 287 1
197 287 1
258 287 1
278 287 1
289 287 1
154 288 1
190 288 1
198 288 1
259 288 1
279 288 1
290 288 1
123 289 1
143 289 1
195 289 1
235 289 1
296 289 1
312 289 1
124 290 1
144 290 1
196 290 1
236 290 1
293 290 1
309 290 1
121 291 1
141 291 1
193 291 1
233 291 1
294 291 1
310 291 1
122 292 1
142 292 1
194 292 1
234 292 1
295 292 1
311 292 1
127 293 1
135 293 1
199 293 1
239 293 1
300 293 1
304 293 1
128 294 1
136 294 1
200 294 1
240 294 1
297 294 1
301 294 1
125 295 1
133 295 1
197 295 1
237 295 1
298 295 1
302 295 1
126 296 1
134 296 1
198 296 1
238 296 1
299 296 1
303 296 1
131 297 1
139 297 1
203 297 1
231 297 1
292 297 1
308 297 1
132 298 1
140 298 1
204 298 1
232 298 1
289 298 1
305 298 1
129 299 1
137 299 1
201 299 1
229 299 1
290 299 1
306 299 1
130 300 1
138 300 1
202 300 1
230 300 1
291 300 1
307 300 1
119 301 1
135 301 1
207 301 1
247 301 1
308 301 1
324 301 1
120 302 1
136 302 1
208 302 1
248 302 1
305 302 1
321 302 1
117 303 1
133 303 1
205 303 1
245 303 1
306 303 1
322 303 1
118 304 1
134 304 1
206 304 1
246 304 1
307 304 1
323 304 1
111 305 1
139 305 1
211 305 1
251 305 1
312 305 1
316 305 1
112 306 1
140 306 1
212 306 1
252 306 1
309 306 1
313 306 1
109 307 1
137 307 1
209 307 1
249 307 1
310 307 1
314 307 1
110 308 1
138 308 1
210 308 1
250 308 1
311 308 1
315 308 1
115 309 1
143 309 1
215 309 1
243 309 1
304 309 1
320 309 1
116 310 1
144 310 1
216 310 1
244 310 1
301 310 1
317 310 1
113 311 1
141 311 1
213 311 1
241 311 1
302 311 1
318 311 1
114 312 1
142 312 1
214 312 1
242 312 1
303 312 1
319 312 1
111 313 1
131 313 1
183 313 1
223 313 1
300 313 1
320 313 1
112 314 1
132 314 1
184 314 1
224 314 1
297 314 1
317 314 1
109 315 1
129 315 1
181 315 1
221 315 1
298 315 1
318 315 1
110 316 1
130 316 1
182 316 1
222 316 1
299 316 1
319 316 1
115 317 1
123 317 1
187 317 1
227 317 1
292 317 1
324 317 1
116 318 1
124 318 1
188 318 1
228 318 1
289 318 1
321 318 1
113 319 1
121 319 1
185 319 1
225 319 1
290 319 1
322 319 1
114 320 1
122 320 1
186 320 1
226 320 1
291 320 1
323 320 1
119 321 1
127 321 1
191 321 1
219 321 1
296 321 1
316 321 1
120 322 1
128 322 1
192 322 1
220 322 1
293 322 1
313 322 1
117 323 1
125 323 1
189 323 1
217 323 1
294 323 1
314 323 1
118 324 1
126 324 1
190 324 1
218 324 1
295 324 1
315 324 1
2 325 1
47 325 1
52 325 1
346 325 1
377 325 1
418 325 1
3 326 1
48 326 1
49 326 1
347 326 1
378 326 1
419 326 1
4 327 1
45 327 1
50 327 1
348 327 1
379 327 1
420 327 1
1 328 1
46 328 1
51 328 1
345 328 1
380 328 1
417 328 1
6 329 1
39 329 1
56 329 1
338 329 1
381 329 1
410 329 1
7 330 1
40 330 1
53 330 1
339 330 1
382 330 1
411 330 1
8 331 1
37 331 1
54 331 1
340 331 1
383 331 1
412 331 1
5 332 1
38 332 1
55 332 1
337 332 1
384 332 1
409 332 1
10 333 1
43 333 1
60 333 1
342 333 1
373 333 1
414 333 1
11 334 1
44 334 1
57 334 1
343 334 1
374 334 1
415 334 1
12 335 1
41 335 1
58 335 1
344 335 1
375 335 1
416 335 1
9 336 1
42 336 1
59 336 1
341 336 1
376 336 1
413 336 1
14 337 1
59 337 1
64 337 1
358 337 1
389 337 1
430 337 1
15 338 1
60 338 1
61 338 1
359 338 1
390 338 1
431 338 1
16 339 1
57 339 1
62 339 1
360 339 1
391 339 1
432 339 1
13 340 1
58 340 1
63 340 1
357 340 1
392 340 1
429 340 1
18 341 1
51 341 1
68 341 1
350 341 1
393 341 1
422 341 1
19 342 1
52 342 1
65 342 1
351 342 1
394 342 1
423 342 1
20 343 1
49 343 1
66 343 1
352 343 1
395 343 1
424 343 1
17 344 1
50 344 1
67 344 1
349 344 1
396 344 1
421 344 1
22 345 1
55 345 1
72 345 1
354 345 1
385 345 1
426 345 1
23 346 1
56 346 1
69 346 1
355 346 1
386 346 1
427 346 1
24 347 1
53 347 1
70 347 1
356 347 1
387 347 1
428 347 1
21 348 1
54 348 1
71 348 1
353 348 1
388 348 1
425 348 1
26 349 1
40 349 1
71 349 1
334 349 1
365 349 1
406 349 1
27 350 1
37 350 1
72 350 1
335 350 1
366 350 1
407 350 1
28 351 1
38 351 1
69 351 1
336 351 1
367 351 1
408 351 1
25 352 1
39 352 1
70 352 1
333 352 1
368 352 1
405 352 1
30 353 1
44 353 1
63 353 1
326 353 1
369 353 1
398 353 1
31 354 1
41 354 1
64 354 1
327 354 1
370 354 1
399 354 1
32 355 1
42 355 1
61 355 1
328 355 1
371 355 1
400 355 1
29 356 1
43 356 1
62 356 1
325 356 1
372 356 1
397 356 1
34 357 1
48 357 1
67 357 1
330 357 1
361 357 1
402 357 1
35 358 1
45 358 1
68 358 1
331 358 1
362 358 1
403 358 1
36 359 1
46 359 1
65 359 1
332 359 1
363 359 1
404 359 1
33 360 1
47 360 1
66 360 1
329 360 1
364 360 1
401 360 1
38 361 1
83 361 1
88 361 1
346 361 1
382 361 1
413 361 1
39 362 1
84 362 1
85 362 1
347 362 1
383 362 1
414 362 1
40 363 1
81 363 1
86 363 1
348 363 1
384 363 1
415 363 1
37 364 1
82 364 1
87 364 1
345 364 1
381 364 1
416 364 1
42 365 1
75 365 1
92 365 1
338 365 1
374 365 1
417 365 1
43 366 1
76 366 1
89 366 1
339 366 1
375 366 1
418 366 1
44 367 1
73 367 1
90 367 1
340 367 1
376 367 1
419 367 1
41 368 1
74 368 1
91 368 1
337 368 1
373 368 1
420 368 1
46 369 1
79 369 1
96 369 1
342 369 1
378 369 1
409 369 1
47 370 1
80 370 1
93 370 1
343 370 1
379 370 1
410 370 1
48 371 1
77 371 1
94 371 1
344 371 1
380 371 1
411 371 1
45 372 1
78 372 1
95 372 1
341 372 1
377 372 1
412 372 1
50 373 1
95 373 1
100 373 1
358 373 1
394 373 1
425 373 1
51 374 1
96 374 1
97 374 1
359 374 1
395 374 1
426 374 1
52 375 1
93 375 1
98 375 1
360 375 1
396 375 1
427 375 1
49 376 1
94 376 1
99 376 1
357 376 1
393 376 1
428 376 1
54 377 1
87 377 1
104 377 1
350 377 1
386 377 1
429 377 1
55 378 1
88 378 1
101 378 1
351 378 1
387 378 1
430 378 1
56 379 1
85 379 1
102 379 1
352 379 1
388 379 1
431 379 1
53 380 1
86 380 1
103 380 1
349 380 1
385 380 1
432 380 1
58 381 1
91 381 1
108 381 1
354 381 1
390 381 1
421 381 1
59 382 1
92 382 1
105 382 1
355 382 1
391 382 1
422 382 1
60 383 1
89 383 1
106 383 1
356 383 1
392 383 1
423 383 1
57 384 1
90 384 1
107 384 1
353 384 1
389 384 1
424 384 1
62 385 1
76 385 1
107 385 1
334 385 1
370 385 1
401 385 1
63 386 1
73 386 1
108 386 1
335 386 1
371 386 1
402 386 1
64 387 1
74 387 1
105 387 1
336 387 1
372 387 1
403 387 1
61 388 1
75 388 1
106 388 1
333 388 1
369 388 1
404 388 1
66 389 1
80 389 1
99 389 1
326 389 1
362 389 1
405 389 1
67 390 1
77 390 1
100 390 1
327 390 1
363 390 1
406 390 1
68 391 1
78 391 1
97 391 1
328 391 1
364 391 1
407 391 1
65 392 1
79 392 1
98 392 1
325 392 1
361 392 1
408 392 1
70 393 1
84 393 1
103 393 1
330 393 1
366 393 1
397 393 1
71 394 1
81 394 1
104 394 1
331 394 1
367 394 1
398 394 1
72 395 1
82 395 1
101 395 1
332 395 1
368 395 1
399 395 1
69 396 1
83 396 1
102 396 1
329 396 1
365 396 1
400 396 1
11 397 1
16 397 1
74 397 1
341 397 1
382 397 1
418 397 1
12 398 1
13 398 1
75 398 1
342 398 1
383 398 1
419 398 1
9 399 1
14 399 1
76 399 1
343 399 1
384 399 1
420 399 1
10 400 1
15 400 1
73 400 1
344 400 1
381 400 1
417 400 1
3 401 1
20 401 1
78 401 1
345 401 1
374 401 1
410 401 1
4 402 1
17 402 1
79 402 1
346 402 1
375 402 1
411 402 1
1 403 1
18 403 1
80 403 1
347 403 1
376 403 1
412 403 1
2 404 1
19 404 1
77 404 1
348 404 1
373 404 1
409 404 1
7 405 1
24 405 1
82 405 1
337 405 1
378 405 1
414 405 1
8 406 1
21 406 1
83 406 1
338 406 1
379 406 1
415 406 1
5 407 1
22 407 1
84 407 1
339 407 1
380 407 1
416 407 1
6 408 1
23 408 1
81 408 1
340 408 1
377 408 1
413 408 1
23 409 1
28 409 1
86 409 1
353 409 1
394 409 1
430 409 1
24 410 1
25 410 1
87 410 1
354 410 1
395 410 1
431 410 1
21 411 1
26 411 1
88 411 1
355 411 1
396 411 1
432 411 1
22 412 1
27 412 1
85 412 1
356 412 1
393 412 1
429 412 1
15 413 1
32 413 1
90 413 1
357 413 1
386 413 1
422 413 1
16 414 1
29 414 1
91 414 1
358 414 1
387 414 1
423 414 1
13 415 1
30 415 1
92 415 1
359 415 1
388 415 1
424 415 1
14 416 1
31 416 1
89 416 1
360 416 1
385 416 1
421 416 1
19 417 1
36 417 1
94 417 1
349 417 1
390 417 1
426 417 1
20 418 1
33 418 1
95 418 1
350 418 1
391 418 1
427 418 1
17 419 1
34 419 1
96 419 1
351 419 1
392 419 1
428 419 1
18 420 1
35 420 1
93 420 1
352 420 1
389 420 1
425 420 1
4 421 1
35 421 1
98 421 1
329 421 1
370 421 1
406 421 1
1 422 1
36 422 1
99 422 1
330 422 1
371 422 1
407 422 1
2 423 1
33 423 1
100 423 1
331 423 1
372 423 1
408 423 1
3 424 1
34 424 1
97 424 1
332 424 1
369 424 1
405 424 1
8 425 1
27 425 1
102 425 1
333 425 1
362 425 1
398 425 1
5 426 1
28 426 1
103 426 1
334 426 1
363 426 1
399 426 1
6 427 1
25 427 1
104 427 1
335 427 1
364 427 1
400 427 1
7 428 1
26 428 1
101 428 1
336 428 1
361 428 1
397 428 1
12 429 1
31 429 1
106 429 1
325 429 1
366 429 1
402 429 1
9 430 1
32 430 1
107 430 1
326 430 1
367 430 1
403 430 1
10 431 1
29 431 1
108 431 1
327 431 1
368 431 1
404 431 1
11 432 1
30 432 1
105 432 1
328 432 1
365 432 1
401 432 1
110 433 1
155 433 1
160 433 1
332 433 1
348 433 1
379 433 1
111 434 1
156 434 1
157 434 1
329 434 1
345 434 1
380 434 1
112 435 1
153 435 1
158 435 1
330 435 1
346 435 1
377 435 1
109 436 1
154 436 1
159 436 1
331 436 1
347 436 1
378 436 1
114 437 1
147 437 1
164 437 1
336 437 1
340 437 1
383 437 1
115 438 1
148 438 1
161 438 1
333 438 1
337 438 1
384 438 1
116 439 1
145 439 1
162 439 1
334 439 1
338 439 1
381 439 1
113 440 1
146 440 1
163 440 1
335 440 1
339 440 1
382 440 1
118 441 1
151 441 1
168 441 1
328 441 1
344 441 1
375 441 1
119 442 1
152 442 1
165 442 1
325 442 1
341 442 1
376 442 1
120 443 1
149 443 1
166 443 1
326 443 1
342 443 1
373 443 1
117 444 1
150 444 1
167 444 1
327 444 1
343 444 1
374 444 1
122 445 1
167 445 1
172 445 1
344 445 1
360 445 1
391 445 1
123 446 1
168 446 1
169 446 1
341 446 1
357 446 1
392 446 1
124 447 1
165 447 1
170 447 1
342 447 1
358 447 1
389 447 1
121 448 1
166 448 1
171 448 1
343 448 1
359 448 1
390 448 1
126 449 1
159 449 1
176 449 1
348 449 1
352 449 1
395 449 1
127 450 1
160 450 1
173 450 1
345 450 1
349 450 1
396 450 1
128 451 1
157 451 1
174 451 1
346 451 1
350 451 1
393 451 1
125 452 1
158 452 1
175 452 1
347 452 1
351 452 1
394 452 1
130 453 1
163 453 1
180 453 1
340 453 1
356 453 1
387 453 1
131 454 1
164 454 1
177 454 1
337 454 1
353 454 1
388 454 1
132 455 1
161 455 1
178 455 1
338 455 1
354 455 1
385 455 1
129 456 1
162 456 1
179 456 1
339 456 1
355 456 1
386 456 1
134 457 1
148 457 1
179 457 1
336 457 1
356 457 1
367 457 1
135 458 1
145 458 1
180 458 1
333 458 1
353 458 1
368 458 1
136 459 1
146 459 1
177 459 1
334 459 1
354 459 1
365 459 1
133 460 1
147 460 1
178 460 1
335 460 1
355 460 1
366 460 1
138 461 1
152 461 1
171 461 1
328 461 1
360 461 1
371 461 1
139 462 1
149 462 1
172 462 1
325 462 1
357 462 1
372 462 1
140 463 1
150 463 1
169 463 1
326 463 1
358 463 1
369 463 1
137 464 1
151 464 1
170 464 1
327 464 1
359 464 1
370 464 1
142 465 1
156 465 1
175 465 1
332 465 1
352 465 1
363 465 1
143 466 1
153 466 1
176 466 1
329 466 1
349 466 1
364 466 1
144 467 1
154 467 1
173 467 1
330 467 1
350 467 1
361 467 1
141 468 1
155 468 1
174 468 1
331 468 1
351 468 1
362 468 1
146 469 1
191 469 1
196 469 1
368 469 1
384 469 1
415 469 1
147 470 1
192 470 1
193 470 1
365 470 1
381 470 1
416 470 1
148 471 1
189 471 1
194 471 1
366 471 1
382 471 1
413 471 1
145 472 1
190 472 1
195 472 1
367 472 1
383 472 1
414 472 1
150 473 1
183 473 1
200 473 1
372 473 1
376 473 1
419 473 1
151 474 1
184 474 1
197 474 1
369 474 1
373 474 1
420 474 1
152 475 1
181 475 1
198 475 1
370 475 1
374 475 1
417 475 1
149 476 1
182 476 1
199 476 1
371 476 1
375 476 1
418 476 1
154 477 1
187 477 1
204 477 1
364 477 1
380 477 1
411 477 1
155 478 1
188 478 1
201 478 1
361 478 1
377 478 1
412 478 1
156 479 1
185 479 1
202 479 1
362 479 1
378 479 1
409 479 1
153 480 1
186 480 1
203 480 1
363 480 1
379 480 1
410 480 1
158 481 1
203 481 1
208 481 1
380 481 1
396 481 1
427 481 1
159 482 1
204 482 1
205 482 1
377 482 1
393 482 1
428 482 1
160 483 1
201 483 1
206 483 1
378 483 1
394 483 1
425 483 1
157 484 1
202 484 1
207 484 1
379 484 1
395 484 1
426 484 1
162 485 1
195 485 1
212 485 1
384 485 1
388 485 1
431 485 1
163 486 1
196 486 1
209 486 1
381 486 1
385 486 1
432 486 1
164 487 1
193 487 1
210 487 1
382 487 1
386 487 1
429 487 1
161 488 1
194 488 1
211 488 1
383 488 1
387 488 1
430 488 1
166 489 1
199 489 1
216 489 1
376 489 1
392 489 1
423 489 1
167 490 1
200 490 1
213 490 1
373 490 1
389 490 1
424 490 1
168 491 1
197 491 1
214 491 1
374 491 1
390 491 1
421 491 1
165 492 1
198 492 1
215 492 1
375 492 1
391 492 1
422 492 1
170 493 1
184 493 1
215 493 1
372 493 1
392 493 1
403 493 1
171 494 1
181 494 1
216 494 1
369 494 1
389 494 1
404 494 1
172 495 1
182 495 1
213 495 1
370 495 1
390 495 1
401 495 1
169 496 1
183 496 1
214 496 1
371 496 1
391 496 1
402 496 1
174 497 1
188 497 1
207 497 1
364 497 1
396 497 1
407 497 1
175 498 1
185 498 1
208 498 1
361 498 1
393 498 1
408 498 1
176 499 1
186 499 1
205 499 1
362 499 1
394 499 1
405 499 1
173 500 1
187 500 1
206 500 1
363 500 1
395 500 1
406 500 1
178 501 1
192 501 1
211 501 1
368 501 1
388 501 1
399 501 1
179 502 1
189 502 1
212 502 1
365 502 1
385 502 1
400 502 1
180 503 1
190 503 1
209 503 1
366 503 1
386 503 1
397 503 1
177 504 1
191 504 1
210 504 1
367 504 1
387 504 1
398 504 1
119 505 1
124 505 1
182 505 1
343 505 1
404 505 1
420 505 1
120 506 1
121 506 1
183 506 1
344 506 1
401 506 1
417 506 1
117 507 1
122 507 1
184 507 1
341 507 1
402 507 1
418 507 1
118 508 1
123 508 1
181 508 1
342 508 1
403 508 1
419 508 1
111 509 1
128 509 1
186 509 1
347 509 1
408 509 1
412 509 1
112 510 1
125 510 1
187 510 1
348 510 1
405 510 1
409 510 1
109 511 1
126 511 1
188 511 1
345 511 1
406 511 1
410 511 1
110 512 1
127 512 1
185 512 1
346 512 1
407 512 1
411 512 1
115 513 1
132 513 1
190 513 1
339 513 1
400 513 1
416 513 1
116 514 1
129 514 1
191 514 1
340 514 1
397 514 1
413 514 1
113 515 1
130 515 1
192 515 1
337 515 1
398 515 1
414 515 1
114 516 1
131 516 1
189 516 1
338 516 1
399 516 1
415 516 1
131 517 1
136 517 1
194 517 1
355 517 1
416 517 1
432 517 1
132 518 1
133 518 1
195 518 1
356 518 1
413 518 1
429 518 1
129 519 1
134 519 1
196 519 1
353 519 1
414 519 1
430 519 1
130 520 1
135 520 1
193 520 1
354 520 1
415 520 1
431 520 1
123 521 1
140 521 1
198 521 1
359 521 1
420 521 1
424 521 1
124 522 1
137 522 1
199 522 1
360 522 1
417 522 1
421 522 1
121 523 1
138 523 1
200 523 1
357 523 1
418 523 1
422 523 1
122 524 1
139 524 1
197 524 1
358 524 1
419 524 1
423 524 1
127 525 1
144 525 1
202 525 1
351 525 1
412 525 1
428 525 1
128 526 1
141 526 1
203 526 1
352 526 1
409 526 1
425 526 1
125 527 1
142 527 1
204 527 1
349 527 1
410 527 1
426 527 1
126 528 1
143 528 1
201 528 1
350 528 1
411 528 1
427 528 1
112 529 1
143 529 1
206 529 1
331 529 1
408 529 1
428 529 1
109 530 1
144 530 1
207 530 1
332 530 1
405 530 1
425 530 1
110 531 1
141 531 1
208 531 1
329 531 1
406 531 1
426 531 1
111 532 1
142 532 1
205 532 1
330 532 1
407 532 1
427 532 1
116 533 1
135 533 1
210 533 1
335 533 1
400 533 1
432 533 1
113 534 1
136 534 1
211 534 1
336 534 1
397 534 1
429 534 1
114 535 1
133 535 1
212 535 1
333 535 1
398 535 1
430 535 1
115 536 1
134 536 1
209 536 1
334 536 1
399 536 1
431 536 1
120 537 1
139 537 1
214 537 1
327 537 1
404 537 1
424 537 1
117 538 1
140 538 1
215 538 1
328 538 1
401 538 1
421 538 1
118 539 1
137 539 1
216 539 1
325 539 1
402 539 1
422 539 1
119 540 1
138 540 1
213 540 1
326 540 1
403 540 1
423 540 1
218 541 1
263 541 1
268 541 1
339 541 1
375 541 1
395 541 1
219 542 1
264 542 1
265 542 1
340 542 1
376 542 1
396 542 1
220 543 1
261 543 1
266 543 1
337 543 1
373 543 1
393 543 1
217 544 1
262 544 1
267 544 1
338 544 1
374 544 1
394 544 1
222 545 1
255 545 1
272 545 1
343 545 1
379 545 1
387 545 1
223 546 1
256 546 1
269 546 1
344 546 1
380 546 1
388 546 1
224 547 1
253 547 1
270 547 1
341 547 1
377 547 1
385 547 1
221 548 1
254 548 1
271 548 1
342 548 1
378 548 1
386 548 1
226 549 1
259 549 1
276 549 1
347 549 1
383 549 1
391 549 1
227 550 1
260 550 1
273 550 1
348 550 1
384 550 1
392 550 1
228 551 1
257 551 1
274 551 1
345 551 1
381 551 1
389 551 1
225 552 1
258 552 1
275 552 1
346 552 1
382 552 1
390 552 1
230 553 1
275 553 1
280 553 1
351 553 1
371 553 1
387 553 1
231 554 1
276 554 1
277 554 1
352 554 1
372 554 1
388 554 1
232 555 1
273 555 1
278 555 1
349 555 1
369 555 1
385 555 1
229 556 1
274 556 1
279 556 1
350 556 1
370 556 1
386 556 1
234 557 1
267 557 1
284 557 1
355 557 1
363 557 1
391 557 1
235 558 1
268 558 1
281 558 1
356 558 1
364 558 1
392 558 1
236 559 1
265 559 1
282 559 1
353 559 1
361 559 1
389 559 1
233 560 1
266 560 1
283 560 1
354 560 1
362 560 1
390 560 1
238 561 1
271 561 1
288 561 1
359 561 1
367 561 1
395 561 1
239 562 1
272 562 1
285 562 1
360 562 1
368 562 1
396 562 1
240 563 1
269 563 1
286 563 1
357 563 1
365 563 1
393 563 1
237 564 1
270 564 1
287 564 1
358 564 1
366 564 1
394 564 1
242 565 1
256 565 1
287 565 1
327 565 1
363 565 1
383 565 1
243 566 1
253 566 1
288 566 1
328 566 1
364 566 1
384 566 1
244 567 1
254 567 1
285 567 1
325 567 1
361 567 1
381 567 1
241 568 1
255 568 1
286 568 1
326 568 1
362 568 1
382 568 1
246 569 1
260 569 1
279 569 1
331 569 1
367 569 1
375 569 1
247 570 1
257 570 1
280 570 1
332 570 1
368 570 1
376 570 1
248 571 1
258 571 1
277 571 1
329 571 1
365 571 1
373 571 1
245 572 1
259 572 1
278 572 1
330 572 1
366 572 1
374 572 1
250 573 1
264 573 1
283 573 1
335 573 1
371 573 1
379 573 1
251 574 1
261 574 1
284 574 1
336 574 1
372 574 1
380 574 1
252 575 1
262 575 1
281 575 1
333 575 1
369 575 1
377 575 1
249 576 1
263 576 1
282 576 1
334 576 1
370 576 1
378 576 1
254 577 1
299 577 1
304 577 1
375 577 1
411 577 1
431 577 1
255 578 1
300 578 1
301 578 1
376 578 1
412 578 1
432 578 1
256 579 1
297 579 1
302 579 1
373 579 1
409 579 1
429 579 1
253 580 1
298 580 1
303 580 1
374 580 1
410 580 1
430 580 1
258 581 1
291 581 1
308 581 1
379 581 1
415 581 1
423 581 1
259 582 1
292 582 1
305 582 1
380 582 1
416 582 1
424 582 1
260 583 1
289 583 1
306 583 1
377 583 1
413 583 1
421 583 1
257 584 1
290 584 1
307 584 1
378 584 1
414 584 1
422 584 1
262 585 1
295 585 1
312 585 1
383 585 1
419 585 1
427 585 1
263 586 1
296 586 1
309 586 1
384 586 1
420 586 1
428 586 1
264 587 1
293 587 1
310 587 1
381 587 1
417 587 1
425 587 1
261 588 1
294 588 1
311 588 1
382 588 1
418 588 1
426 588 1
266 589 1
311 589 1
316 589 1
387 589 1
407 589 1
423 589 1
267 590 1
312 590 1
313 590 1
388 590 1
408 590 1
424 590 1
268 591 1
309 591 1
314 591 1
385 591 1
405 591 1
421 591 1
265 592 1
310 592 1
315 592 1
386 592 1
406 592 1
422 592 1
270 593 1
303 593 1
320 593 1
391 593 1
399 593 1
427 593 1
271 594 1
304 594 1
317 594 1
392 594 1
400 594 1
428 594 1
272 595 1
301 595 1
318 595 1
389 595 1
397 595 1
425 595 1
269 596 1
302 596 1
319 596 1
390 596 1
398 596 1
426 596 1
274 597 1
307 597 1
324 597 1
395 597 1
403 597 1
431 597 1
275 598 1
308 598 1
321 598 1
396 598 1
404 598 1
432 598 1
276 599 1
305 599 1
322 599 1
393 599 1
401 599 1
429 599 1
273 600 1
306 600 1
323 600 1
394 600 1
402 600 1
430 600 1
278 601 1
292 601 1
323 601 1
363 601 1
399 601 1
419 601 1
279 602 1
289 602 1
324 602 1
364 602 1
400 602 1
420 602 1
280 603 1
290 603 1
321 603 1
361 603 1
397 603 1
417 603 1
277 604 1
291 604 1
322 604 1
362 604 1
398 604 1
418 604 1
282 605 1
296 605 1
315 605 1
367 605 1
403 605 1
411 605 1
283 606 1
293 606 1
316 606 1
368 606 1
404 606 1
412 606 1
284 607 1
294 607 1
313 607 1
365 607 1
401 607 1
409 607 1
281 608 1
295 608 1
314 608 1
366 608 1
402 608 1
410 608 1
286 609 1
300 609 1
319 609 1
371 609 1
407 609 1
415 609 1
287 610 1
297 610 1
320 610 1
372 610 1
408 610 1
416 610 1
288 611 1
298 611 1
317 611 1
369 611 1
405 611 1
413 611 1
285 612 1
299 612 1
318 612 1
370 612 1
406 612 1
414 612 1
227 613 1
232 613 1
290 613 1
339 613 1
359 613 1
411 613 1
228 614 1
229 614 1
291 614 1
340 614 1
360 614 1
412 614 1
225 615 1
230 615 1
292 615 1
337 615 1
357 615 1
409 615 1
226 616 1
231 616 1
289 616 1
338 616 1
358 616 1
410 616 1
219 617 1
236 617 1
294 617 1
343 617 1
351 617 1
415 617 1
220 618 1
233 618 1
295 618 1
344 618 1
352 618 1
416 618 1
217 619 1
234 619 1
296 619 1
341 619 1
349 619 1
413 619 1
218 620 1
235 620 1
293 620 1
342 620 1
350 620 1
414 620 1
223 621 1
240 621 1
298 621 1
347 621 1
355 621 1
419 621 1
224 622 1
237 622 1
299 622 1
348 622 1
356 622 1
420 622 1
221 623 1
238 623 1
300 623 1
345 623 1
353 623 1
417 623 1
222 624 1
239 624 1
297 624 1
346 624 1
354 624 1
418 624 1
239 625 1
244 625 1
302 625 1
335 625 1
351 625 1
423 625 1
240 626 1
241 626 1
303 626 1
336 626 1
352 626 1
424 626 1
237 627 1
242 627 1
304 627 1
333 627 1
349 627 1
421 627 1
238 628 1
243 628 1
301 628 1
334 628 1
350 628 1
422 628 1
231 629 1
248 629 1
306 629 1
327 629 1
355 629 1
427 629 1
232 630 1
245 630 1
307 630 1
328 630 1
356 630 1
428 630 1
229 631 1
246 631 1
308 631 1
325 631 1
353 631 1
425 631 1
230 632 1
247 632 1
305 632 1
326 632 1
354 632 1
426 632 1
235 633 1
252 633 1
310 633 1
331 633 1
359 633 1
431 633 1
236 634 1
249 634 1
311 634 1
332 634 1
360 634 1
432 634 1
233 635 1
250 635 1
312 635 1
329 635 1
357 635 1
429 635 1
234 636 1
251 636 1
309 636 1
330 636 1
358 636 1
430 636 1
220 637 1
251 637 1
314 637 1
327 637 1
347 637 1
399 637 1
217 638 1
252 638 1
315 638 1
328 638 1
348 638 1
400 638 1
218 639 1
249 639 1
316 639 1
325 639 1
345 639 1
397 639 1
219 640 1
250 640 1
313 640 1
326 640 1
346 640 1
398 640 1
224 641 1
243 641 1
318 641 1
331 641 1
339 641 1
403 641 1
221 642 1
244 642 1
319 642 1
332 642 1
340 642 1
404 642 1
222 643 1
241 643 1
320 643 1
329 643 1
337 643 1
401 643 1
223 644 1
242 644 1
317 644 1
330 644 1
338 644 1
402 644 1
228 645 1
247 645 1
322 645 1
335 645 1
343 645 1
407 645 1
225 646 1
248 646 1
323 646 1
336 646 1
344 646 1
408 646 1
226 647 1
245 647 1
324 647 1
333 647 1
341 647 1
405 647 1
227 648 1
246 648 1
321 648 1
334 648 1
342 648 1
406 648 1
