%%MatrixMarket matrix coordinate integer general
% Binary matrix; one-based indices; arithmetic over GF(2)
280 560 2240
1 1 1
9 1 1
57 1 1
60 1 1
2 2 1
10 2 1
58 2 1
61 2 1
3 3 1
11 3 1
59 3 1
62 3 1
4 4 1
12 4 1
60 4 1
63 4 1
5 5 1
13 5 1
61 5 1
64 5 1
6 6 1
14 6 1
62 6 1
65 6 1
7 7 1
15 7 1
63 7 1
66 7 1
8 8 1
16 8 1
64 8 1
67 8 1
9 9 1
17 9 1
65 9 1
68 9 1
10 10 1
18 10 1
66 10 1
69 10 1
11 11 1
19 11 1
67 11 1
70 11 1
12 12 1
20 12 1
68 12 1
71 12 1
13 13 1
21 13 1
69 13 1
72 13 1
14 14 1
22 14 1
70 14 1
73 14 1
15 15 1
23 15 1
71 15 1
74 15 1
16 16 1
24 16 1
72 16 1
75 16 1
17 17 1
25 17 1
73 17 1
76 17 1
18 18 1
26 18 1
74 18 1
77 18 1
19 19 1
27 19 1
75 19 1
78 19 1
20 20 1
28 20 1
76 20 1
79 20 1
21 21 1
29 21 1
77 21 1
80 21 1
22 22 1
30 22 1
78 22 1
81 22 1
23 23 1
31 23 1
79 23 1
82 23 1
24 24 1
32 24 1
80 24 1
83 24 1
25 25 1
33 25 1
81 25 1
84 25 1
26 26 1
34 26 1
82 26 1
85 26 1
27 27 1
35 27 1
83 27 1
86 27 1
28 28 1
36 28 1
84 28 1
87 28 1
29 29 1
37 29 1
85 29 1
88 29 1
30 30 1
38 30 1
86 30 1
89 30 1
31 31 1
39 31 1
87 31 1
90 31 1
32 32 1
40 32 1
88 32 1
91 32 1
33 33 1
41 33 1
89 33 1
92 33 1
34 34 1
42 34 1
90 34 1
93 34 1
35 35 1
43 35 1
91 35 1
94 35 1
36 36 1
44 36 1
92 36 1
95 36 1
37 37 1
45 37 1
93 37 1
96 37 1
38 38 1
46 38 1
94 38 1
97 38 1
39 39 1
47 39 1
95 39 1
98 39 1
40 40 1
48 40 1
96 40 1
99 40 1
41 41 1
49 41 1
97 41 1
100 41 1
42 42 1
50 42 1
98 42 1
101 42 1
43 43 1
51 43 1
99 43 1
102 43 1
44 44 1
52 44 1
100 44 1
103 44 1
45 45 1
53 45 1
101 45 1
104 45 1
46 46 1
54 46 1
102 46 1
105 46 1
47 47 1
55 47 1
103 47 1
106 47 1
48 48 1
56 48 1
104 48 1
107 48 1
1 49 1
49 49 1
105 49 1
108 49 1
2 50 1
50 50 1
106 50 1
109 50 1
3 51 1
51 51 1
107 51 1
110 51 1
4 52 1
52 52 1
108 52 1
111 52 1
5 53 1
53 53 1
109 53 1
112 53 1
6 54 1
54 54 1
57 54 1
110 54 1
7 55 1
55 55 1
58 55 1
111 55 1
8 56 1
56 56 1
59 56 1
112 56 1
1 57 1
11 57 1
113 57 1
116 57 1
2 58 1
12 58 1
114 58 1
117 58 1
3 59 1
13 59 1
115 59 1
118 59 1
4 60 1
14 60 1
116 60 1
119 60 1
5 61 1
15 61 1
117 61 1
120 61 1
6 62 1
16 62 1
118 62 1
121 62 1
7 63 1
17 63 1
119 63 1
122 63 1
8 64 1
18 64 1
120 64 1
123 64 1
9 65 1
19 65 1
121 65 1
124 65 1
10 66 1
20 66 1
122 66 1
125 66 1
11 67 1
21 67 1
123 67 1
126 67 1
12 68 1
22 68 1
124 68 1
127 68 1
13 69 1
23 69 1
125 69 1
128 69 1
14 70 1
24 70 1
126 70 1
129 70 1
15 71 1
25 71 1
127 71 1
130 71 1
16 72 1
26 72 1
128 72 1
131 72 1
17 73 1
27 73 1
129 73 1
132 73 1
18 74 1
28 74 1
130 74 1
133 74 1
19 75 1
29 75 1
131 75 1
134 75 1
20 76 1
30 76 1
132 76 1
135 76 1
21 77 1
31 77 1
133 77 1
136 77 1
22 78 1
32 78 1
134 78 1
137 78 1
23 79 1
33 79 1
135 79 1
138 79 1
24 80 1
34 80 1
136 80 1
139 80 1
25 81 1
35 81 1
137 81 1
140 81 1
26 82 1
36 82 1
138 82 1
141 82 1
27 83 1
37 83 1
139 83 1
142 83 1
28 84 1
38 84 1
140 84 1
143 84 1
29 85 1
39 85 1
141 85 1
144 85 1
30 86 1
40 86 1
142 86 1
145 86 1
31 87 1
41 87 1
143 87 1
146 87 1
32 88 1
42 88 1
144 88 1
147 88 1
33 89 1
43 89 1
145 89 1
148 89 1
34 90 1
44 90 1
146 90 1
149 90 1
35 91 1
45 91 1
147 91 1
150 91 1
36 92 1
46 92 1
148 92 1
151 92 1
37 93 1
47 93 1
149 93 1
152 93 1
38 94 1
48 94 1
150 94 1
153 94 1
39 95 1
49 95 1
151 95 1
154 95 1
40 96 1
50 96 1
152 96 1
155 96 1
41 97 1
51 97 1
153 97 1
156 97 1
42 98 1
52 98 1
154 98 1
157 98 1
43 99 1
53 99 1
155 99 1
158 99 1
44 100 1
54 100 1
156 100 1
159 100 1
45 101 1
55 101 1
157 101 1
160 101 1
46 102 1
56 102 1
158 102 1
161 102 1
1 103 1
47 103 1
159 103 1
162 103 1
2 104 1
48 104 1
160 104 1
163 104 1
3 105 1
49 105 1
161 105 1
164 105 1
4 106 1
50 106 1
162 106 1
165 106 1
5 107 1
51 107 1
163 107 1
166 107 1
6 108 1
52 108 1
164 108 1
167 108 1
7 109 1
53 109 1
165 109 1
168 109 1
8 110 1
54 110 1
113 110 1
166 110 1
9 111 1
55 111 1
114 111 1
167 111 1
10 112 1
56 112 1
115 112 1
168 112 1
57 113 1
67 113 1
113 113 1
121 113 1
58 114 1
68 114 1
114 114 1
122 114 1
59 115 1
69 115 1
115 115 1
123 115 1
60 116 1
70 116 1
116 116 1
124 116 1
61 117 1
71 117 1
117 117 1
125 117 1
62 118 1
72 118 1
118 118 1
126 118 1
63 119 1
73 119 1
119 119 1
127 119 1
64 120 1
74 120 1
120 120 1
128 120 1
65 121 1
75 121 1
121 121 1
129 121 1
66 122 1
76 122 1
122 122 1
130 122 1
67 123 1
77 123 1
123 123 1
131 123 1
68 124 1
78 124 1
124 124 1
132 124 1
69 125 1
79 125 1
125 125 1
133 125 1
70 126 1
80 126 1
126 126 1
134 126 1
71 127 1
81 127 1
127 127 1
135 127 1
72 128 1
82 128 1
128 128 1
136 128 1
73 129 1
83 129 1
129 129 1
137 129 1
74 130 1
84 130 1
130 130 1
138 130 1
75 131 1
85 131 1
131 131 1
139 131 1
76 132 1
86 132 1
132 132 1
140 132 1
77 133 1
87 133 1
133 133 1
141 133 1
78 134 1
88 134 1
134 134 1
142 134 1
79 135 1
89 135 1
135 135 1
143 135 1
80 136 1
90 136 1
136 136 1
144 136 1
81 137 1
91 137 1
137 137 1
145 137 1
82 138 1
92 138 1
138 138 1
146 138 1
83 139 1
93 139 1
139 139 1
147 139 1
84 140 1
94 140 1
140 140 1
148 140 1
85 141 1
95 141 1
141 141 1
149 141 1
86 142 1
96 142 1
142 142 1
150 142 1
87 143 1
97 143 1
143 143 1
151 143 1
88 144 1
98 144 1
144 144 1
152 144 1
89 145 1
99 145 1
145 145 1
153 145 1
90 146 1
100 146 1
146 146 1
154 146 1
91 147 1
101 147 1
147 147 1
155 147 1
92 148 1
102 148 1
148 148 1
156 148 1
93 149 1
103 149 1
149 149 1
157 149 1
94 150 1
104 150 1
150 150 1
158 150 1
95 151 1
105 151 1
151 151 1
159 151 1
96 152 1
106 152 1
152 152 1
160 152 1
97 153 1
107 153 1
153 153 1
161 153 1
98 154 1
108 154 1
154 154 1
162 154 1
99 155 1
109 155 1
155 155 1
163 155 1
100 156 1
110 156 1
156 156 1
164 156 1
101 157 1
111 157 1
157 157 1
165 157 1
102 158 1
112 158 1
158 158 1
166 158 1
57 159 1
103 159 1
159 159 1
167 159 1
58 160 1
104 160 1
160 160 1
168 160 1
59 161 1
105 161 1
113 161 1
161 161 1
60 162 1
106 162 1
114 162 1
162 162 1
61 163 1
107 163 1
115 163 1
163 163 1
62 164 1
108 164 1
116 164 1
164 164 1
63 165 1
109 165 1
117 165 1
165 165 1
64 166 1
110 166 1
118 166 1
166 166 1
65 167 1
111 167 1
119 167 1
167 167 1
66 168 1
112 168 1
120 168 1
168 168 1
1 169 1
22 169 1
169 169 1
172 169 1
2 170 1
23 170 1
170 170 1
173 170 1
3 171 1
24 171 1
171 171 1
174 171 1
4 172 1
25 172 1
172 172 1
175 172 1
5 173 1
26 173 1
173 173 1
176 173 1
6 174 1
27 174 1
174 174 1
177 174 1
7 175 1
28 175 1
175 175 1
178 175 1
8 176 1
29 176 1
176 176 1
179 176 1
9 177 1
30 177 1
177 177 1
180 177 1
10 178 1
31 178 1
178 178 1
181 178 1
11 179 1
32 179 1
179 179 1
182 179 1
12 180 1
33 180 1
180 180 1
183 180 1
13 181 1
34 181 1
181 181 1
184 181 1
14 182 1
35 182 1
182 182 1
185 182 1
15 183 1
36 183 1
183 183 1
186 183 1
16 184 1
37 184 1
184 184 1
187 184 1
17 185 1
38 185 1
185 185 1
188 185 1
18 186 1
39 186 1
186 186 1
189 186 1
19 187 1
40 187 1
187 187 1
190 187 1
20 188 1
41 188 1
188 188 1
191 188 1
21 189 1
42 189 1
189 189 1
192 189 1
22 190 1
43 190 1
190 190 1
193 190 1
23 191 1
44 191 1
191 191 1
194 191 1
24 192 1
45 192 1
192 192 1
195 192 1
25 193 1
46 193 1
193 193 1
196 193 1
26 194 1
47 194 1
194 194 1
197 194 1
27 195 1
48 195 1
195 195 1
198 195 1
28 196 1
49 196 1
196 196 1
199 196 1
29 197 1
50 197 1
197 197 1
200 197 1
30 198 1
51 198 1
198 198 1
201 198 1
31 199 1
52 199 1
199 199 1
202 199 1
32 200 1
53 200 1
200 200 1
203 200 1
33 201 1
54 201 1
201 201 1
204 201 1
34 202 1
55 202 1
202 202 1
205 202 1
35 203 1
56 203 1
203 203 1
206 203 1
1 204 1
36 204 1
204 204 1
207 204 1
2 205 1
37 205 1
205 205 1
208 205 1
3 206 1
38 206 1
206 206 1
209 206 1
4 207 1
39 207 1
207 207 1
210 207 1
5 208 1
40 208 1
208 208 1
211 208 1
6 209 1
41 209 1
209 209 1
212 209 1
7 210 1
42 210 1
210 210 1
213 210 1
8 211 1
43 211 1
211 211 1
214 211 1
9 212 1
44 212 1
212 212 1
215 212 1
10 213 1
45 213 1
213 213 1
216 213 1
11 214 1
46 214 1
214 214 1
217 214 1
12 215 1
47 215 1
215 215 1
218 215 1
13 216 1
48 216 1
216 216 1
219 216 1
14 217 1
49 217 1
217 217 1
220 217 1
15 218 1
50 218 1
218 218 1
221 218 1
16 219 1
51 219 1
219 219 1
222 219 1
17 220 1
52 220 1
220 220 1
223 220 1
18 221 1
53 221 1
221 221 1
224 221 1
19 222 1
54 222 1
169 222 1
222 222 1
20 223 1
55 223 1
170 223 1
223 223 1
21 224 1
56 224 1
171 224 1
224 224 1
57 225 1
78 225 1
169 225 1
177 225 1
58 226 1
79 226 1
170 226 1
178 226 1
59 227 1
80 227 1
171 227 1
179 227 1
60 228 1
81 228 1
172 228 1
180 228 1
61 229 1
82 229 1
173 229 1
181 229 1
62 230 1
83 230 1
174 230 1
182 230 1
63 231 1
84 231 1
175 231 1
183 231 1
64 232 1
85 232 1
176 232 1
184 232 1
65 233 1
86 233 1
177 233 1
185 233 1
66 234 1
87 234 1
178 234 1
186 234 1
67 235 1
88 235 1
179 235 1
187 235 1
68 236 1
89 236 1
180 236 1
188 236 1
69 237 1
90 237 1
181 237 1
189 237 1
70 238 1
91 238 1
182 238 1
190 238 1
71 239 1
92 239 1
183 239 1
191 239 1
72 240 1
93 240 1
184 240 1
192 240 1
73 241 1
94 241 1
185 241 1
193 241 1
74 242 1
95 242 1
186 242 1
194 242 1
75 243 1
96 243 1
187 243 1
195 243 1
76 244 1
97 244 1
188 244 1
196 244 1
77 245 1
98 245 1
189 245 1
197 245 1
78 246 1
99 246 1
190 246 1
198 246 1
79 247 1
100 247 1
191 247 1
199 247 1
80 248 1
101 248 1
192 248 1
200 248 1
81 249 1
102 249 1
193 249 1
201 249 1
82 250 1
103 250 1
194 250 1
202 250 1
83 251 1
104 251 1
195 251 1
203 251 1
84 252 1
105 252 1
196 252 1
204 252 1
85 253 1
106 253 1
197 253 1
205 253 1
86 254 1
107 254 1
198 254 1
206 254 1
87 255 1
108 255 1
199 255 1
207 255 1
88 256 1
109 256 1
200 256 1
208 256 1
89 257 1
110 257 1
201 257 1
209 257 1
90 258 1
111 258 1
202 258 1
210 258 1
91 259 1
112 259 1
203 259 1
211 259 1
57 260 1
92 260 1
204 260 1
212 260 1
58 261 1
93 261 1
205 261 1
213 261 1
59 262 1
94 262 1
206 262 1
214 262 1
60 263 1
95 263 1
207 263 1
215 263 1
61 264 1
96 264 1
208 264 1
216 264 1
62 265 1
97 265 1
209 265 1
217 265 1
63 266 1
98 266 1
210 266 1
218 266 1
64 267 1
99 267 1
211 267 1
219 267 1
65 268 1
100 268 1
212 268 1
220 268 1
66 269 1
101 269 1
213 269 1
221 269 1
67 270 1
102 270 1
214 270 1
222 270 1
68 271 1
103 271 1
215 271 1
223 271 1
69 272 1
104 272 1
216 272 1
224 272 1
70 273 1
105 273 1
169 273 1
217 273 1
71 274 1
106 274 1
170 274 1
218 274 1
72 275 1
107 275 1
171 275 1
219 275 1
73 276 1
108 276 1
172 276 1
220 276 1
74 277 1
109 277 1
173 277 1
221 277 1
75 278 1
110 278 1
174 278 1
222 278 1
76 279 1
111 279 1
175 279 1
223 279 1
77 280 1
112 280 1
176 280 1
224 280 1
113 281 1
134 281 1
169 281 1
179 281 1
114 282 1
135 282 1
170 282 1
180 282 1
115 283 1
136 283 1
171 283 1
181 283 1
116 284 1
137 284 1
172 284 1
182 284 1
117 285 1
138 285 1
173 285 1
183 285 1
118 286 1
139 286 1
174 286 1
184 286 1
119 287 1
140 287 1
175 287 1
185 287 1
120 288 1
141 288 1
176 288 1
186 288 1
121 289 1
142 289 1
177 289 1
187 289 1
122 290 1
143 290 1
178 290 1
188 290 1
123 291 1
144 291 1
179 291 1
189 291 1
124 292 1
145 292 1
180 292 1
190 292 1
125 293 1
146 293 1
181 293 1
191 293 1
126 294 1
147 294 1
182 294 1
192 294 1
127 295 1
148 295 1
183 295 1
193 295 1
128 296 1
149 296 1
184 296 1
194 296 1
129 297 1
150 297 1
185 297 1
195 297 1
130 298 1
151 298 1
186 298 1
196 298 1
131 299 1
152 299 1
187 299 1
197 299 1
132 300 1
153 300 1
188 300 1
198 300 1
133 301 1
154 301 1
189 301 1
199 301 1
134 302 1
155 302 1
190 302 1
200 302 1
135 303 1
156 303 1
191 303 1
201 303 1
136 304 1
157 304 1
192 304 1
202 304 1
137 305 1
158 305 1
193 305 1
203 305 1
138 306 1
159 306 1
194 306 1
204 306 1
139 307 1
160 307 1
195 307 1
205 307 1
140 308 1
161 308 1
196 308 1
206 308 1
141 309 1
162 309 1
197 309 1
207 309 1
142 310 1
163 310 1
198 310 1
208 310 1
143 311 1
164 311 1
199 311 1
209 311 1
144 312 1
165 312 1
200 312 1
210 312 1
145 313 1
166 313 1
201 313 1
211 313 1
146 314 1
167 314 1
202 314 1
212 314 1
147 315 1
168 315 1
203 315 1
213 315 1
113 316 1
148 316 1
204 316 1
214 316 1
114 317 1
149 317 1
205 317 1
215 317 1
115 318 1
150 318 1
206 318 1
216 318 1
116 319 1
151 319 1
207 319 1
217 319 1
117 320 1
152 320 1
208 320 1
218 320 1
118 321 1
153 321 1
209 321 1
219 321 1
119 322 1
154 322 1
210 322 1
220 322 1
120 323 1
155 323 1
211 323 1
221 323 1
121 324 1
156 324 1
212 324 1
222 324 1
122 325 1
157 325 1
213 325 1
223 325 1
123 326 1
158 326 1
214 326 1
224 326 1
124 327 1
159 327 1
169 327 1
215 327 1
125 328 1
160 328 1
170 328 1
216 328 1
126 329 1
161 329 1
171 329 1
217 329 1
127 330 1
162 330 1
172 330 1
218 330 1
128 331 1
163 331 1
173 331 1
219 331 1
129 332 1
164 332 1
174 332 1
220 332 1
130 333 1
165 333 1
175 333 1
221 333 1
131 334 1
166 334 1
176 334 1
222 334 1
132 335 1
167 335 1
177 335 1
223 335 1
133 336 1
168 336 1
178 336 1
224 336 1
1 337 1
27 337 1
225 337 1
228 337 1
2 338 1
28 338 1
226 338 1
229 338 1
3 339 1
29 339 1
227 339 1
230 339 1
4 340 1
30 340 1
228 340 1
231 340 1
5 341 1
31 341 1
229 341 1
232 341 1
6 342 1
32 342 1
230 342 1
233 342 1
7 343 1
33 343 1
231 343 1
234 343 1
8 344 1
34 344 1
232 344 1
235 344 1
9 345 1
35 345 1
233 345 1
236 345 1
10 346 1
36 346 1
234 346 1
237 346 1
11 347 1
37 347 1
235 347 1
238 347 1
12 348 1
38 348 1
236 348 1
239 348 1
13 349 1
39 349 1
237 349 1
240 349 1
14 350 1
40 350 1
238 350 1
241 350 1
15 351 1
41 351 1
239 351 1
242 351 1
16 352 1
42 352 1
240 352 1
243 352 1
17 353 1
43 353 1
241 353 1
244 353 1
18 354 1
44 354 1
242 354 1
245 354 1
19 355 1
45 355 1
243 355 1
246 355 1
20 356 1
46 356 1
244 356 1
247 356 1
21 357 1
47 357 1
245 357 1
248 357 1
22 358 1
48 358 1
246 358 1
249 358 1
23 359 1
49 359 1
247 359 1
250 359 1
24 360 1
50 360 1
248 360 1
251 360 1
25 361 1
51 361 1
249 361 1
252 361 1
26 362 1
52 362 1
250 362 1
253 362 1
27 363 1
53 363 1
251 363 1
254 363 1
28 364 1
54 364 1
252 364 1
255 364 1
29 365 1
55 365 1
253 365 1
256 365 1
30 366 1
56 366 1
254 366 1
257 366 1
1 367 1
31 367 1
255 367 1
258 367 1
2 368 1
32 368 1
256 368 1
259 368 1
3 369 1
33 369 1
257 369 1
260 369 1
4 370 1
34 370 1
258 370 1
261 370 1
5 371 1
35 371 1
259 371 1
262 371 1
6 372 1
36 372 1
260 372 1
263 372 1
7 373 1
37 373 1
261 373 1
264 373 1
8 374 1
38 374 1
262 374 1
265 374 1
9 375 1
39 375 1
263 375 1
266 375 1
10 376 1
40 376 1
264 376 1
267 376 1
11 377 1
41 377 1
265 377 1
268 377 1
12 378 1
42 378 1
266 378 1
269 378 1
13 379 1
43 379 1
267 379 1
270 379 1
14 380 1
44 380 1
268 380 1
271 380 1
15 381 1
45 381 1
269 381 1
272 381 1
16 382 1
46 382 1
270 382 1
273 382 1
17 383 1
47 383 1
271 383 1
274 383 1
18 384 1
48 384 1
272 384 1
275 384 1
19 385 1
49 385 1
273 385 1
276 385 1
20 386 1
50 386 1
274 386 1
277 386 1
21 387 1
51 387 1
275 387 1
278 387 1
22 388 1
52 388 1
276 388 1
279 388 1
23 389 1
53 389 1
277 389 1
280 389 1
24 390 1
54 390 1
225 390 1
278 390 1
25 391 1
55 391 1
226 391 1
279 391 1
26 392 1
56 392 1
227 392 1
280 392 1
57 393 1
83 393 1
225 393 1
233 393 1
58 394 1
84 394 1
226 394 1
234 394 1
59 395 1
85 395 1
227 395 1
235 395 1
60 396 1
86 396 1
228 396 1
236 396 1
61 397 1
87 397 1
229 397 1
237 397 1
62 398 1
88 398 1
230 398 1
238 398 1
63 399 1
89 399 1
231 399 1
239 399 1
64 400 1
90 400 1
232 400 1
240 400 1
65 401 1
91 401 1
233 401 1
241 401 1
66 402 1
92 402 1
234 402 1
242 402 1
67 403 1
93 403 1
235 403 1
243 403 1
68 404 1
94 404 1
236 404 1
244 404 1
69 405 1
95 405 1
237 405 1
245 405 1
70 406 1
96 406 1
238 406 1
246 406 1
71 407 1
97 407 1
239 407 1
247 407 1
72 408 1
98 408 1
240 408 1
248 408 1
73 409 1
99 409 1
241 409 1
249 409 1
74 410 1
100 410 1
242 410 1
250 410 1
75 411 1
101 411 1
243 411 1
251 411 1
76 412 1
102 412 1
244 412 1
252 412 1
77 413 1
103 413 1
245 413 1
253 413 1
78 414 1
104 414 1
246 414 1
254 414 1
79 415 1
105 415 1
247 415 1
255 415 1
80 416 1
106 416 1
248 416 1
256 416 1
81 417 1
107 417 1
249 417 1
257 417 1
82 418 1
108 418 1
250 418 1
258 418 1
83 419 1
109 419 1
251 419 1
259 419 1
84 420 1
110 420 1
252 420 1
260 420 1
85 421 1
111 421 1
253 421 1
261 421 1
86 422 1
112 422 1
254 422 1
262 422 1
57 423 1
87 423 1
255 423 1
263 423 1
58 424 1
88 424 1
256 424 1
264 424 1
59 425 1
89 425 1
257 425 1
265 425 1
60 426 1
90 426 1
258 426 1
266 426 1
61 427 1
91 427 1
259 427 1
267 427 1
62 428 1
92 428 1
260 428 1
268 428 1
63 429 1
93 429 1
261 429 1
269 429 1
64 430 1
94 430 1
262 430 1
270 430 1
65 431 1
95 431 1
263 431 1
271 431 1
66 432 1
96 432 1
264 432 1
272 432 1
67 433 1
97 433 1
265 433 1
273 433 1
68 434 1
98 434 1
266 434 1
274 434 1
69 435 1
99 435 1
267 435 1
275 435 1
70 436 1
100 436 1
268 436 1
276 436 1
71 437 1
101 437 1
269 437 1
277 437 1
72 438 1
102 438 1
270 438 1
278 438 1
73 439 1
103 439 1
271 439 1
279 439 1
74 440 1
104 440 1
272 440 1
280 440 1
75 441 1
105 441 1
225 441 1
273 441 1
76 442 1
106 442 1
226 442 1
274 442 1
77 443 1
107 443 1
227 443 1
275 443 1
78 444 1
108 444 1
228 444 1
276 444 1
79 445 1
109 445 1
229 445 1
277 445 1
80 446 1
110 446 1
230 446 1
278 446 1
81 447 1
111 447 1
231 447 1
279 447 1
82 448 1
112 448 1
232 448 1
280 448 1
113 449 1
139 449 1
225 449 1
235 449 1
114 450 1
140 450 1
226 450 1
236 450 1
115 451 1
141 451 1
227 451 1
237 451 1
116 452 1
142 452 1
228 452 1
238 452 1
117 453 1
143 453 1
229 453 1
239 453 1
118 454 1
144 454 1
230 454 1
240 454 1
119 455 1
145 455 1
231 455 1
241 455 1
120 456 1
146 456 1
232 456 1
242 456 1
121 457 1
147 457 1
233 457 1
243 457 1
122 458 1
148 458 1
234 458 1
244 458 1
123 459 1
149 459 1
235 459 1
245 459 1
124 460 1
150 460 1
236 460 1
246 460 1
125 461 1
151 461 1
237 461 1
247 461 1
126 462 1
152 462 1
238 462 1
248 462 1
127 463 1
153 463 1
239 463 1
249 463 1
128 464 1
154 464 1
240 464 1
250 464 1
129 465 1
155 465 1
241 465 1
251 465 1
130 466 1
156 466 1
242 466 1
252 466 1
131 467 1
157 467 1
243 467 1
253 467 1
132 468 1
158 468 1
244 468 1
254 468 1
133 469 1
159 469 1
245 469 1
255 469 1
134 470 1
160 470 1
246 470 1
256 470 1
135 471 1
161 471 1
247 471 1
257 471 1
136 472 1
162 472 1
248 472 1
258 472 1
137 473 1
163 473 1
249 473 1
259 473 1
138 474 1
164 474 1
250 474 1
260 474 1
139 475 1
165 475 1
251 475 1
261 475 1
140 476 1
166 476 1
252 476 1
262 476 1
141 477 1
167 477 1
253 477 1
263 477 1
142 478 1
168 478 1
254 478 1
264 478 1
113 479 1
143 479 1
255 479 1
265 479 1
114 480 1
144 480 1
256 480 1
266 480 1
115 481 1
145 481 1
257 481 1
267 481 1
116 482 1
146 482 1
258 482 1
268 482 1
117 483 1
147 483 1
259 483 1
269 483 1
118 484 1
148 484 1
260 484 1
270 484 1
119 485 1
149 485 1
261 485 1
271 485 1
120 486 1
150 486 1
262 486 1
272 486 1
121 487 1
151 487 1
263 487 1
273 487 1
122 488 1
152 488 1
264 488 1
274 488 1
123 489 1
153 489 1
265 489 1
275 489 1
124 490 1
154 490 1
266 490 1
276 490 1
125 491 1
155 491 1
267 491 1
277 491 1
126 492 1
156 492 1
268 492 1
278 492 1
127 493 1
157 493 1
269 493 1
279 493 1
128 494 1
158 494 1
270 494 1
280 494 1
129 495 1
159 495 1
225 495 1
271 495 1
130 496 1
160 496 1
226 496 1
272 496 1
131 497 1
161 497 1
227 497 1
273 497 1
132 498 1
162 498 1
228 498 1
274 498 1
133 499 1
163 499 1
229 499 1
275 499 1
134 500 1
164 500 1
230 500 1
276 500 1
135 501 1
165 501 1
231 501 1
277 501 1
136 502 1
166 502 1
232 502 1
278 502 1
137 503 1
167 503 1
233 503 1
279 503 1
138 504 1
168 504 1
234 504 1
280 504 1
169 505 1
195 505 1
225 505 1
246 505 1
170 506 1
196 506 1
226 506 1
247 506 1
171 507 1
197 507 1
227 507 1
248 507 1
172 508 1
198 508 1
228 508 1
249 508 1
173 509 1
199 509 1
229 509 1
250 509 1
174 510 1
200 510 1
230 510 1
251 510 1
175 511 1
201 511 1
231 511 1
252 511 1
176 512 1
202 512 1
232 512 1
253 512 1
177 513 1
203 513 1
233 513 1
254 513 1
178 514 1
204 514 1
234 514 1
255 514 1
179 515 1
205 515 1
235 515 1
256 515 1
180 516 1
206 516 1
236 516 1
257 516 1
181 517 1
207 517 1
237 517 1
258 517 1
182 518 1
208 518 1
238 518 1
259 518 1
183 519 1
209 519 1
239 519 1
260 519 1
184 520 1
210 520 1
240 520 1
261 520 1
185 521 1
211 521 1
241 521 1
262 521 1
186 522 1
212 522 1
242 522 1
263 522 1
187 523 1
213 523 1
243 523 1
264 523 1
188 524 1
214 524 1
244 524 1
265 524 1
189 525 1
215 525 1
245 525 1
266 525 1
190 526 1
216 526 1
246 526 1
267 526 1
191 527 1
217 527 1
247 527 1
268 527 1
192 528 1
218 528 1
248 528 1
269 528 1
193 529 1
219 529 1
249 529 1
270 529 1
194 530 1
220 530 1
250 530 1
271 530 1
195 531 1
221 531 1
251 531 1
272 531 1
196 532 1
222 532 1
252 532 1
273 532 1
197 533 1
223 533 1
253 533 1
274 533 1
198 534 1
224 534 1
254 534 1
275 534 1
169 535 1
199 535 1
255 535 1
276 535 1
170 536 1
200 536 1
256 536 1
277 536 1
171 537 1
201 537 1
257 537 1
278 537 1
172 538 1
202 538 1
258 538 1
279 538 1
173 539 1
203 539 1
259 539 1
280 539 1
174 540 1
204 540 1
225 540 1
260 540 1
175 541 1
205 541 1
226 541 1
261 541 1
176 542 1
206 542 1
227 542 1
262 542 1
177 543 1
207 543 1
228 543 1
263 543 1
178 544 1
208 544 1
229 544 1
264 544 1
179 545 1
209 545 1
230 545 1
265 545 1
180 546 1
210 546 1
231 546 1
266 546 1
181 547 1
211 547 1
232 547 1
267 547 1
182 548 1
212 548 1
233 548 1
268 548 1
183 549 1
213 549 1
234 549 1
269 549 1
184 550 1
214 550 1
235 550 1
270 550 1
185 551 1
215 551 1
236 551 1
271 551 1
186 552 1
216 552 1
237 552 1
272 552 1
187 553 1
217 553 1
238 553 1
273 553 1
188 554 1
218 554 1
239 554 1
274 554 1
189 555 1
219 555 1
240 555 1
275 555 1
190 556 1
220 556 1
241 556 1
276 556 1
191 557 1
221 557 1
242 557 1
277 557 1
192 558 1
222 558 1
243 558 1
278 558 1
193 559 1
223 559 1
244 559 1
279 559 1
194 560 1
224 560 1
245 560 1
280 560 1
