%%MatrixMarket matrix coordinate integer general
% Binary matrix; one-based indices; arithmetic over GF(2)
95 190 760
1 1 1
9 1 1
20 1 1
22 1 1
2 2 1
10 2 1
21 2 1
23 2 1
3 3 1
11 3 1
22 3 1
24 3 1
4 4 1
12 4 1
23 4 1
25 4 1
5 5 1
13 5 1
24 5 1
26 5 1
6 6 1
14 6 1
25 6 1
27 6 1
7 7 1
15 7 1
26 7 1
28 7 1
8 8 1
16 8 1
27 8 1
29 8 1
9 9 1
17 9 1
28 9 1
30 9 1
10 10 1
18 10 1
29 10 1
31 10 1
11 11 1
19 11 1
30 11 1
32 11 1
1 12 1
12 12 1
31 12 1
33 12 1
2 13 1
13 13 1
32 13 1
34 13 1
3 14 1
14 14 1
33 14 1
35 14 1
4 15 1
15 15 1
34 15 1
36 15 1
5 16 1
16 16 1
35 16 1
37 16 1
6 17 1
17 17 1
36 17 1
38 17 1
7 18 1
18 18 1
20 18 1
37 18 1
8 19 1
19 19 1
21 19 1
38 19 1
1 20 1
15 20 1
39 20 1
41 20 1
2 21 1
16 21 1
40 21 1
42 21 1
3 22 1
17 22 1
41 22 1
43 22 1
4 23 1
18 23 1
42 23 1
44 23 1
5 24 1
19 24 1
43 24 1
45 24 1
1 25 1
6 25 1
44 25 1
46 25 1
2 26 1
7 26 1
45 26 1
47 26 1
3 27 1
8 27 1
46 27 1
48 27 1
4 28 1
9 28 1
47 28 1
49 28 1
5 29 1
10 29 1
48 29 1
50 29 1
6 30 1
11 30 1
49 30 1
51 30 1
7 31 1
12 31 1
50 31 1
52 31 1
8 32 1
13 32 1
51 32 1
53 32 1
9 33 1
14 33 1
52 33 1
54 33 1
10 34 1
15 34 1
53 34 1
55 34 1
11 35 1
16 35 1
54 35 1
56 35 1
12 36 1
17 36 1
55 36 1
57 36 1
13 37 1
18 37 1
39 37 1
56 37 1
14 38 1
19 38 1
40 38 1
57 38 1
20 39 1
34 39 1
39 39 1
47 39 1
21 40 1
35 40 1
40 40 1
48 40 1
22 41 1
36 41 1
41 41 1
49 41 1
23 42 1
37 42 1
42 42 1
50 42 1
24 43 1
38 43 1
43 43 1
51 43 1
20 44 1
25 44 1
44 44 1
52 44 1
21 45 1
26 45 1
45 45 1
53 45 1
22 46 1
27 46 1
46 46 1
54 46 1
23 47 1
28 47 1
47 47 1
55 47 1
24 48 1
29 48 1
48 48 1
56 48 1
25 49 1
30 49 1
49 49 1
57 49 1
26 50 1
31 50 1
39 50 1
50 50 1
27 51 1
32 51 1
40 51 1
51 51 1
28 52 1
33 52 1
41 52 1
52 52 1
29 53 1
34 53 1
42 53 1
53 53 1
30 54 1
35 54 1
43 54 1
54 54 1
31 55 1
36 55 1
44 55 1
55 55 1
32 56 1
37 56 1
45 56 1
56 56 1
33 57 1
38 57 1
46 57 1
57 57 1
1 58 1
16 58 1
58 58 1
60 58 1
2 59 1
17 59 1
59 59 1
61 59 1
3 60 1
18 60 1
60 60 1
62 60 1
4 61 1
19 61 1
61 61 1
63 61 1
1 62 1
5 62 1
62 62 1
64 62 1
2 63 1
6 63 1
63 63 1
65 63 1
3 64 1
7 64 1
64 64 1
66 64 1
4 65 1
8 65 1
65 65 1
67 65 1
5 66 1
9 66 1
66 66 1
68 66 1
6 67 1
10 67 1
67 67 1
69 67 1
7 68 1
11 68 1
68 68 1
70 68 1
8 69 1
12 69 1
69 69 1
71 69 1
9 70 1
13 70 1
70 70 1
72 70 1
10 71 1
14 71 1
71 71 1
73 71 1
11 72 1
15 72 1
72 72 1
74 72 1
12 73 1
16 73 1
73 73 1
75 73 1
13 74 1
17 74 1
74 74 1
76 74 1
14 75 1
18 75 1
58 75 1
75 75 1
15 76 1
19 76 1
59 76 1
76 76 1
20 77 1
35 77 1
58 77 1
66 77 1
21 78 1
36 78 1
59 78 1
67 78 1
22 79 1
37 79 1
60 79 1
68 79 1
23 80 1
38 80 1
61 80 1
69 80 1
20 81 1
24 81 1
62 81 1
70 81 1
21 82 1
25 82 1
63 82 1
71 82 1
22 83 1
26 83 1
64 83 1
72 83 1
23 84 1
27 84 1
65 84 1
73 84 1
24 85 1
28 85 1
66 85 1
74 85 1
25 86 1
29 86 1
67 86 1
75 86 1
26 87 1
30 87 1
68 87 1
76 87 1
27 88 1
31 88 1
58 88 1
69 88 1
28 89 1
32 89 1
59 89 1
70 89 1
29 90 1
33 90 1
60 90 1
71 90 1
30 91 1
34 91 1
61 91 1
72 91 1
31 92 1
35 92 1
62 92 1
73 92 1
32 93 1
36 93 1
63 93 1
74 93 1
33 94 1
37 94 1
64 94 1
75 94 1
34 95 1
38 95 1
65 95 1
76 95 1
39 96 1
54 96 1
58 96 1
72 96 1
40 97 1
55 97 1
59 97 1
73 97 1
41 98 1
56 98 1
60 98 1
74 98 1
42 99 1
57 99 1
61 99 1
75 99 1
39 100 1
43 100 1
62 100 1
76 100 1
40 101 1
44 101 1
58 101 1
63 101 1
41 102 1
45 102 1
59 102 1
64 102 1
42 103 1
46 103 1
60 103 1
65 103 1
43 104 1
47 104 1
61 104 1
66 104 1
44 105 1
48 105 1
62 105 1
67 105 1
45 106 1
49 106 1
63 106 1
68 106 1
46 107 1
50 107 1
64 107 1
69 107 1
47 108 1
51 108 1
65 108 1
70 108 1
48 109 1
52 109 1
66 109 1
71 109 1
49 110 1
53 110 1
67 110 1
72 110 1
50 111 1
54 111 1
68 111 1
73 111 1
51 112 1
55 112 1
69 112 1
74 112 1
52 113 1
56 113 1
70 113 1
75 113 1
53 114 1
57 114 1
71 114 1
76 114 1
1 115 1
19 115 1
77 115 1
79 115 1
1 116 1
2 116 1
78 116 1
80 116 1
2 117 1
3 117 1
79 117 1
81 117 1
3 118 1
4 118 1
80 118 1
82 118 1
4 119 1
5 119 1
81 119 1
83 119 1
5 120 1
6 120 1
82 120 1
84 120 1
6 121 1
7 121 1
83 121 1
85 121 1
7 122 1
8 122 1
84 122 1
86 122 1
8 123 1
9 123 1
85 123 1
87 123 1
9 124 1
10 124 1
86 124 1
88 124 1
10 125 1
11 125 1
87 125 1
89 125 1
11 126 1
12 126 1
88 126 1
90 126 1
12 127 1
13 127 1
89 127 1
91 127 1
13 128 1
14 128 1
90 128 1
92 128 1
14 129 1
15 129 1
91 129 1
93 129 1
15 130 1
16 130 1
92 130 1
94 130 1
16 131 1
17 131 1
93 131 1
95 131 1
17 132 1
18 132 1
77 132 1
94 132 1
18 133 1
19 133 1
78 133 1
95 133 1
20 134 1
38 134 1
77 134 1
85 134 1
20 135 1
21 135 1
78 135 1
86 135 1
21 136 1
22 136 1
79 136 1
87 136 1
22 137 1
23 137 1
80 137 1
88 137 1
23 138 1
24 138 1
81 138 1
89 138 1
24 139 1
25 139 1
82 139 1
90 139 1
25 140 1
26 140 1
83 140 1
91 140 1
26 141 1
27 141 1
84 141 1
92 141 1
27 142 1
28 142 1
85 142 1
93 142 1
28 143 1
29 143 1
86 143 1
94 143 1
29 144 1
30 144 1
87 144 1
95 144 1
30 145 1
31 145 1
77 145 1
88 145 1
31 146 1
32 146 1
78 146 1
89 146 1
32 147 1
33 147 1
79 147 1
90 147 1
33 148 1
34 148 1
80 148 1
91 148 1
34 149 1
35 149 1
81 149 1
92 149 1
35 150 1
36 150 1
82 150 1
93 150 1
36 151 1
37 151 1
83 151 1
94 151 1
37 152 1
38 152 1
84 152 1
95 152 1
39 153 1
57 153 1
77 153 1
91 153 1
39 154 1
40 154 1
78 154 1
92 154 1
40 155 1
41 155 1
79 155 1
93 155 1
41 156 1
42 156 1
80 156 1
94 156 1
42 157 1
43 157 1
81 157 1
95 157 1
43 158 1
44 158 1
77 158 1
82 158 1
44 159 1
45 159 1
78 159 1
83 159 1
45 160 1
46 160 1
79 160 1
84 160 1
46 161 1
47 161 1
80 161 1
85 161 1
47 162 1
48 162 1
81 162 1
86 162 1
48 163 1
49 163 1
82 163 1
87 163 1
49 164 1
50 164 1
83 164 1
88 164 1
50 165 1
51 165 1
84 165 1
89 165 1
51 166 1
52 166 1
85 166 1
90 166 1
52 167 1
53 167 1
86 167 1
91 167 1
53 168 1
54 168 1
87 168 1
92 168 1
54 169 1
55 169 1
88 169 1
93 169 1
55 170 1
56 170 1
89 170 1
94 170 1
56 171 1
57 171 1
90 171 1
95 171 1
58 172 1
76 172 1
77 172 1
92 172 1
58 173 1
59 173 1
78 173 1
93 173 1
59 174 1
60 174 1
79 174 1
94 174 1
60 175 1
61 175 1
80 175 1
95 175 1
61 176 1
62 176 1
77 176 1
81 176 1
62 177 1
63 177 1
78 177 1
82 177 1
63 178 1
64 178 1
79 178 1
83 178 1
64 179 1
65 179 1
80 179 1
84 179 1
65 180 1
66 180 1
81 180 1
85 180 1
66 181 1
67 181 1
82 181 1
86 181 1
67 182 1
68 182 1
83 182 1
87 182 1
68 183 1
69 183 1
84 183 1
88 183 1
69 184 1
70 184 1
85 184 1
89 184 1
70 185 1
71 185 1
86 185 1
90 185 1
71 186 1
72 186 1
87 186 1
91 186 1
72 187 1
73 187 1
88 187 1
92 187 1
73 188 1
74 188 1
89 188 1
93 188 1
74 189 1
75 189 1
90 189 1
94 189 1
75 190 1
76 190 1
91 190 1
95 190 1
