%%MatrixMarket matrix coordinate integer general
% Binary matrix; one-based indices; arithmetic over GF(2)
400 600 2400
40 1 1
41 1 1
107 1 1
124 1 1
36 2 1
42 2 1
108 2 1
125 2 1
37 3 1
43 3 1
109 3 1
121 3 1
38 4 1
44 4 1
110 4 1
122 4 1
39 5 1
45 5 1
106 5 1
123 5 1
45 6 1
46 6 1
104 6 1
112 6 1
41 7 1
47 7 1
105 7 1
113 7 1
42 8 1
48 8 1
101 8 1
114 8 1
43 9 1
49 9 1
102 9 1
115 9 1
44 10 1
50 10 1
103 10 1
111 10 1
26 11 1
50 11 1
109 11 1
117 11 1
27 12 1
46 12 1
110 12 1
118 12 1
28 13 1
47 13 1
106 13 1
119 13 1
29 14 1
48 14 1
107 14 1
120 14 1
30 15 1
49 15 1
108 15 1
116 15 1
30 16 1
31 16 1
114 16 1
122 16 1
26 17 1
32 17 1
115 17 1
123 17 1
27 18 1
33 18 1
111 18 1
124 18 1
28 19 1
34 19 1
112 19 1
125 19 1
29 20 1
35 20 1
113 20 1
121 20 1
35 21 1
36 21 1
102 21 1
119 21 1
31 22 1
37 22 1
103 22 1
120 22 1
32 23 1
38 23 1
104 23 1
116 23 1
33 24 1
39 24 1
105 24 1
117 24 1
34 25 1
40 25 1
101 25 1
118 25 1
15 26 1
16 26 1
132 26 1
149 26 1
11 27 1
17 27 1
133 27 1
150 27 1
12 28 1
18 28 1
134 28 1
146 28 1
13 29 1
19 29 1
135 29 1
147 29 1
14 30 1
20 30 1
131 30 1
148 30 1
20 31 1
21 31 1
129 31 1
137 31 1
16 32 1
22 32 1
130 32 1
138 32 1
17 33 1
23 33 1
126 33 1
139 33 1
18 34 1
24 34 1
127 34 1
140 34 1
19 35 1
25 35 1
128 35 1
136 35 1
1 36 1
25 36 1
134 36 1
142 36 1
2 37 1
21 37 1
135 37 1
143 37 1
3 38 1
22 38 1
131 38 1
144 38 1
4 39 1
23 39 1
132 39 1
145 39 1
5 40 1
24 40 1
133 40 1
141 40 1
5 41 1
6 41 1
139 41 1
147 41 1
1 42 1
7 42 1
140 42 1
148 42 1
2 43 1
8 43 1
136 43 1
149 43 1
3 44 1
9 44 1
137 44 1
150 44 1
4 45 1
10 45 1
138 45 1
146 45 1
10 46 1
11 46 1
127 46 1
144 46 1
6 47 1
12 47 1
128 47 1
145 47 1
7 48 1
13 48 1
129 48 1
141 48 1
8 49 1
14 49 1
130 49 1
142 49 1
9 50 1
15 50 1
126 50 1
143 50 1
90 51 1
91 51 1
157 51 1
174 51 1
86 52 1
92 52 1
158 52 1
175 52 1
87 53 1
93 53 1
159 53 1
171 53 1
88 54 1
94 54 1
160 54 1
172 54 1
89 55 1
95 55 1
156 55 1
173 55 1
95 56 1
96 56 1
154 56 1
162 56 1
91 57 1
97 57 1
155 57 1
163 57 1
92 58 1
98 58 1
151 58 1
164 58 1
93 59 1
99 59 1
152 59 1
165 59 1
94 60 1
100 60 1
153 60 1
161 60 1
76 61 1
100 61 1
159 61 1
167 61 1
77 62 1
96 62 1
160 62 1
168 62 1
78 63 1
97 63 1
156 63 1
169 63 1
79 64 1
98 64 1
157 64 1
170 64 1
80 65 1
99 65 1
158 65 1
166 65 1
80 66 1
81 66 1
164 66 1
172 66 1
76 67 1
82 67 1
165 67 1
173 67 1
77 68 1
83 68 1
161 68 1
174 68 1
78 69 1
84 69 1
162 69 1
175 69 1
79 70 1
85 70 1
163 70 1
171 70 1
85 71 1
86 71 1
152 71 1
169 71 1
81 72 1
87 72 1
153 72 1
170 72 1
82 73 1
88 73 1
154 73 1
166 73 1
83 74 1
89 74 1
155 74 1
167 74 1
84 75 1
90 75 1
151 75 1
168 75 1
65 76 1
66 76 1
182 76 1
199 76 1
61 77 1
67 77 1
183 77 1
200 77 1
62 78 1
68 78 1
184 78 1
196 78 1
63 79 1
69 79 1
185 79 1
197 79 1
64 80 1
70 80 1
181 80 1
198 80 1
70 81 1
71 81 1
179 81 1
187 81 1
66 82 1
72 82 1
180 82 1
188 82 1
67 83 1
73 83 1
176 83 1
189 83 1
68 84 1
74 84 1
177 84 1
190 84 1
69 85 1
75 85 1
178 85 1
186 85 1
51 86 1
75 86 1
184 86 1
192 86 1
52 87 1
71 87 1
185 87 1
193 87 1
53 88 1
72 88 1
181 88 1
194 88 1
54 89 1
73 89 1
182 89 1
195 89 1
55 90 1
74 90 1
183 90 1
191 90 1
55 91 1
56 91 1
189 91 1
197 91 1
51 92 1
57 92 1
190 92 1
198 92 1
52 93 1
58 93 1
186 93 1
199 93 1
53 94 1
59 94 1
187 94 1
200 94 1
54 95 1
60 95 1
188 95 1
196 95 1
60 96 1
61 96 1
177 96 1
194 96 1
56 97 1
62 97 1
178 97 1
195 97 1
57 98 1
63 98 1
179 98 1
191 98 1
58 99 1
64 99 1
180 99 1
192 99 1
59 100 1
65 100 1
176 100 1
193 100 1
66 101 1
70 101 1
207 101 1
224 101 1
66 102 1
67 102 1
208 102 1
225 102 1
67 103 1
68 103 1
209 103 1
221 103 1
68 104 1
69 104 1
210 104 1
222 104 1
69 105 1
70 105 1
206 105 1
223 105 1
71 106 1
75 106 1
204 106 1
212 106 1
71 107 1
72 107 1
205 107 1
213 107 1
72 108 1
73 108 1
201 108 1
214 108 1
73 109 1
74 109 1
202 109 1
215 109 1
74 110 1
75 110 1
203 110 1
211 110 1
51 111 1
55 111 1
209 111 1
217 111 1
51 112 1
52 112 1
210 112 1
218 112 1
52 113 1
53 113 1
206 113 1
219 113 1
53 114 1
54 114 1
207 114 1
220 114 1
54 115 1
55 115 1
208 115 1
216 115 1
56 116 1
60 116 1
214 116 1
222 116 1
56 117 1
57 117 1
215 117 1
223 117 1
57 118 1
58 118 1
211 118 1
224 118 1
58 119 1
59 119 1
212 119 1
225 119 1
59 120 1
60 120 1
213 120 1
221 120 1
61 121 1
65 121 1
202 121 1
219 121 1
61 122 1
62 122 1
203 122 1
220 122 1
62 123 1
63 123 1
204 123 1
216 123 1
63 124 1
64 124 1
205 124 1
217 124 1
64 125 1
65 125 1
201 125 1
218 125 1
91 126 1
95 126 1
232 126 1
249 126 1
91 127 1
92 127 1
233 127 1
250 127 1
92 128 1
93 128 1
234 128 1
246 128 1
93 129 1
94 129 1
235 129 1
247 129 1
94 130 1
95 130 1
231 130 1
248 130 1
96 131 1
100 131 1
229 131 1
237 131 1
96 132 1
97 132 1
230 132 1
238 132 1
97 133 1
98 133 1
226 133 1
239 133 1
98 134 1
99 134 1
227 134 1
240 134 1
99 135 1
100 135 1
228 135 1
236 135 1
76 136 1
80 136 1
234 136 1
242 136 1
76 137 1
77 137 1
235 137 1
243 137 1
77 138 1
78 138 1
231 138 1
244 138 1
78 139 1
79 139 1
232 139 1
245 139 1
79 140 1
80 140 1
233 140 1
241 140 1
81 141 1
85 141 1
239 141 1
247 141 1
81 142 1
82 142 1
240 142 1
248 142 1
82 143 1
83 143 1
236 143 1
249 143 1
83 144 1
84 144 1
237 144 1
250 144 1
84 145 1
85 145 1
238 145 1
246 145 1
86 146 1
90 146 1
227 146 1
244 146 1
86 147 1
87 147 1
228 147 1
245 147 1
87 148 1
88 148 1
229 148 1
241 148 1
88 149 1
89 149 1
230 149 1
242 149 1
89 150 1
90 150 1
226 150 1
243 150 1
16 151 1
20 151 1
257 151 1
274 151 1
16 152 1
17 152 1
258 152 1
275 152 1
17 153 1
18 153 1
259 153 1
271 153 1
18 154 1
19 154 1
260 154 1
272 154 1
19 155 1
20 155 1
256 155 1
273 155 1
21 156 1
25 156 1
254 156 1
262 156 1
21 157 1
22 157 1
255 157 1
263 157 1
22 158 1
23 158 1
251 158 1
264 158 1
23 159 1
24 159 1
252 159 1
265 159 1
24 160 1
25 160 1
253 160 1
261 160 1
1 161 1
5 161 1
259 161 1
267 161 1
1 162 1
2 162 1
260 162 1
268 162 1
2 163 1
3 163 1
256 163 1
269 163 1
3 164 1
4 164 1
257 164 1
270 164 1
4 165 1
5 165 1
258 165 1
266 165 1
6 166 1
10 166 1
264 166 1
272 166 1
6 167 1
7 167 1
265 167 1
273 167 1
7 168 1
8 168 1
261 168 1
274 168 1
8 169 1
9 169 1
262 169 1
275 169 1
9 170 1
10 170 1
263 170 1
271 170 1
11 171 1
15 171 1
252 171 1
269 171 1
11 172 1
12 172 1
253 172 1
270 172 1
12 173 1
13 173 1
254 173 1
266 173 1
13 174 1
14 174 1
255 174 1
267 174 1
14 175 1
15 175 1
251 175 1
268 175 1
41 176 1
45 176 1
282 176 1
299 176 1
41 177 1
42 177 1
283 177 1
300 177 1
42 178 1
43 178 1
284 178 1
296 178 1
43 179 1
44 179 1
285 179 1
297 179 1
44 180 1
45 180 1
281 180 1
298 180 1
46 181 1
50 181 1
279 181 1
287 181 1
46 182 1
47 182 1
280 182 1
288 182 1
47 183 1
48 183 1
276 183 1
289 183 1
48 184 1
49 184 1
277 184 1
290 184 1
49 185 1
50 185 1
278 185 1
286 185 1
26 186 1
30 186 1
284 186 1
292 186 1
26 187 1
27 187 1
285 187 1
293 187 1
27 188 1
28 188 1
281 188 1
294 188 1
28 189 1
29 189 1
282 189 1
295 189 1
29 190 1
30 190 1
283 190 1
291 190 1
31 191 1
35 191 1
289 191 1
297 191 1
31 192 1
32 192 1
290 192 1
298 192 1
32 193 1
33 193 1
286 193 1
299 193 1
33 194 1
34 194 1
287 194 1
300 194 1
34 195 1
35 195 1
288 195 1
296 195 1
36 196 1
40 196 1
277 196 1
294 196 1
36 197 1
37 197 1
278 197 1
295 197 1
37 198 1
38 198 1
279 198 1
291 198 1
38 199 1
39 199 1
280 199 1
292 199 1
39 200 1
40 200 1
276 200 1
293 200 1
7 201 1
18 201 1
307 201 1
324 201 1
8 202 1
19 202 1
308 202 1
325 202 1
9 203 1
20 203 1
309 203 1
321 203 1
10 204 1
16 204 1
310 204 1
322 204 1
6 205 1
17 205 1
306 205 1
323 205 1
12 206 1
23 206 1
304 206 1
312 206 1
13 207 1
24 207 1
305 207 1
313 207 1
14 208 1
25 208 1
301 208 1
314 208 1
15 209 1
21 209 1
302 209 1
315 209 1
11 210 1
22 210 1
303 210 1
311 210 1
3 211 1
17 211 1
309 211 1
317 211 1
4 212 1
18 212 1
310 212 1
318 212 1
5 213 1
19 213 1
306 213 1
319 213 1
1 214 1
20 214 1
307 214 1
320 214 1
2 215 1
16 215 1
308 215 1
316 215 1
8 216 1
22 216 1
314 216 1
322 216 1
9 217 1
23 217 1
315 217 1
323 217 1
10 218 1
24 218 1
311 218 1
324 218 1
6 219 1
25 219 1
312 219 1
325 219 1
7 220 1
21 220 1
313 220 1
321 220 1
2 221 1
13 221 1
302 221 1
319 221 1
3 222 1
14 222 1
303 222 1
320 222 1
4 223 1
15 223 1
304 223 1
316 223 1
5 224 1
11 224 1
305 224 1
317 224 1
1 225 1
12 225 1
301 225 1
318 225 1
32 226 1
43 226 1
332 226 1
349 226 1
33 227 1
44 227 1
333 227 1
350 227 1
34 228 1
45 228 1
334 228 1
346 228 1
35 229 1
41 229 1
335 229 1
347 229 1
31 230 1
42 230 1
331 230 1
348 230 1
37 231 1
48 231 1
329 231 1
337 231 1
38 232 1
49 232 1
330 232 1
338 232 1
39 233 1
50 233 1
326 233 1
339 233 1
40 234 1
46 234 1
327 234 1
340 234 1
36 235 1
47 235 1
328 235 1
336 235 1
28 236 1
42 236 1
334 236 1
342 236 1
29 237 1
43 237 1
335 237 1
343 237 1
30 238 1
44 238 1
331 238 1
344 238 1
26 239 1
45 239 1
332 239 1
345 239 1
27 240 1
41 240 1
333 240 1
341 240 1
33 241 1
47 241 1
339 241 1
347 241 1
34 242 1
48 242 1
340 242 1
348 242 1
35 243 1
49 243 1
336 243 1
349 243 1
31 244 1
50 244 1
337 244 1
350 244 1
32 245 1
46 245 1
338 245 1
346 245 1
27 246 1
38 246 1
327 246 1
344 246 1
28 247 1
39 247 1
328 247 1
345 247 1
29 248 1
40 248 1
329 248 1
341 248 1
30 249 1
36 249 1
330 249 1
342 249 1
26 250 1
37 250 1
326 250 1
343 250 1
57 251 1
68 251 1
357 251 1
374 251 1
58 252 1
69 252 1
358 252 1
375 252 1
59 253 1
70 253 1
359 253 1
371 253 1
60 254 1
66 254 1
360 254 1
372 254 1
56 255 1
67 255 1
356 255 1
373 255 1
62 256 1
73 256 1
354 256 1
362 256 1
63 257 1
74 257 1
355 257 1
363 257 1
64 258 1
75 258 1
351 258 1
364 258 1
65 259 1
71 259 1
352 259 1
365 259 1
61 260 1
72 260 1
353 260 1
361 260 1
53 261 1
67 261 1
359 261 1
367 261 1
54 262 1
68 262 1
360 262 1
368 262 1
55 263 1
69 263 1
356 263 1
369 263 1
51 264 1
70 264 1
357 264 1
370 264 1
52 265 1
66 265 1
358 265 1
366 265 1
58 266 1
72 266 1
364 266 1
372 266 1
59 267 1
73 267 1
365 267 1
373 267 1
60 268 1
74 268 1
361 268 1
374 268 1
56 269 1
75 269 1
362 269 1
375 269 1
57 270 1
71 270 1
363 270 1
371 270 1
52 271 1
63 271 1
352 271 1
369 271 1
53 272 1
64 272 1
353 272 1
370 272 1
54 273 1
65 273 1
354 273 1
366 273 1
55 274 1
61 274 1
355 274 1
367 274 1
51 275 1
62 275 1
351 275 1
368 275 1
82 276 1
93 276 1
382 276 1
399 276 1
83 277 1
94 277 1
383 277 1
400 277 1
84 278 1
95 278 1
384 278 1
396 278 1
85 279 1
91 279 1
385 279 1
397 279 1
81 280 1
92 280 1
381 280 1
398 280 1
87 281 1
98 281 1
379 281 1
387 281 1
88 282 1
99 282 1
380 282 1
388 282 1
89 283 1
100 283 1
376 283 1
389 283 1
90 284 1
96 284 1
377 284 1
390 284 1
86 285 1
97 285 1
378 285 1
386 285 1
78 286 1
92 286 1
384 286 1
392 286 1
79 287 1
93 287 1
385 287 1
393 287 1
80 288 1
94 288 1
381 288 1
394 288 1
76 289 1
95 289 1
382 289 1
395 289 1
77 290 1
91 290 1
383 290 1
391 290 1
83 291 1
97 291 1
389 291 1
397 291 1
84 292 1
98 292 1
390 292 1
398 292 1
85 293 1
99 293 1
386 293 1
399 293 1
81 294 1
100 294 1
387 294 1
400 294 1
82 295 1
96 295 1
388 295 1
396 295 1
77 296 1
88 296 1
377 296 1
394 296 1
78 297 1
89 297 1
378 297 1
395 297 1
79 298 1
90 298 1
379 298 1
391 298 1
80 299 1
86 299 1
380 299 1
392 299 1
76 300 1
87 300 1
376 300 1
393 300 1
166 301 1
170 301 1
240 301 1
241 301 1
166 302 1
167 302 1
236 302 1
242 302 1
167 303 1
168 303 1
237 303 1
243 303 1
168 304 1
169 304 1
238 304 1
244 304 1
169 305 1
170 305 1
239 305 1
245 305 1
171 306 1
175 306 1
245 306 1
246 306 1
171 307 1
172 307 1
241 307 1
247 307 1
172 308 1
173 308 1
242 308 1
248 308 1
173 309 1
174 309 1
243 309 1
249 309 1
174 310 1
175 310 1
244 310 1
250 310 1
151 311 1
155 311 1
226 311 1
250 311 1
151 312 1
152 312 1
227 312 1
246 312 1
152 313 1
153 313 1
228 313 1
247 313 1
153 314 1
154 314 1
229 314 1
248 314 1
154 315 1
155 315 1
230 315 1
249 315 1
156 316 1
160 316 1
230 316 1
231 316 1
156 317 1
157 317 1
226 317 1
232 317 1
157 318 1
158 318 1
227 318 1
233 318 1
158 319 1
159 319 1
228 319 1
234 319 1
159 320 1
160 320 1
229 320 1
235 320 1
161 321 1
165 321 1
235 321 1
236 321 1
161 322 1
162 322 1
231 322 1
237 322 1
162 323 1
163 323 1
232 323 1
238 323 1
163 324 1
164 324 1
233 324 1
239 324 1
164 325 1
165 325 1
234 325 1
240 325 1
191 326 1
195 326 1
215 326 1
216 326 1
191 327 1
192 327 1
211 327 1
217 327 1
192 328 1
193 328 1
212 328 1
218 328 1
193 329 1
194 329 1
213 329 1
219 329 1
194 330 1
195 330 1
214 330 1
220 330 1
196 331 1
200 331 1
220 331 1
221 331 1
196 332 1
197 332 1
216 332 1
222 332 1
197 333 1
198 333 1
217 333 1
223 333 1
198 334 1
199 334 1
218 334 1
224 334 1
199 335 1
200 335 1
219 335 1
225 335 1
176 336 1
180 336 1
201 336 1
225 336 1
176 337 1
177 337 1
202 337 1
221 337 1
177 338 1
178 338 1
203 338 1
222 338 1
178 339 1
179 339 1
204 339 1
223 339 1
179 340 1
180 340 1
205 340 1
224 340 1
181 341 1
185 341 1
205 341 1
206 341 1
181 342 1
182 342 1
201 342 1
207 342 1
182 343 1
183 343 1
202 343 1
208 343 1
183 344 1
184 344 1
203 344 1
209 344 1
184 345 1
185 345 1
204 345 1
210 345 1
186 346 1
190 346 1
210 346 1
211 346 1
186 347 1
187 347 1
206 347 1
212 347 1
187 348 1
188 348 1
207 348 1
213 348 1
188 349 1
189 349 1
208 349 1
214 349 1
189 350 1
190 350 1
209 350 1
215 350 1
116 351 1
120 351 1
290 351 1
291 351 1
116 352 1
117 352 1
286 352 1
292 352 1
117 353 1
118 353 1
287 353 1
293 353 1
118 354 1
119 354 1
288 354 1
294 354 1
119 355 1
120 355 1
289 355 1
295 355 1
121 356 1
125 356 1
295 356 1
296 356 1
121 357 1
122 357 1
291 357 1
297 357 1
122 358 1
123 358 1
292 358 1
298 358 1
123 359 1
124 359 1
293 359 1
299 359 1
124 360 1
125 360 1
294 360 1
300 360 1
101 361 1
105 361 1
276 361 1
300 361 1
101 362 1
102 362 1
277 362 1
296 362 1
102 363 1
103 363 1
278 363 1
297 363 1
103 364 1
104 364 1
279 364 1
298 364 1
104 365 1
105 365 1
280 365 1
299 365 1
106 366 1
110 366 1
280 366 1
281 366 1
106 367 1
107 367 1
276 367 1
282 367 1
107 368 1
108 368 1
277 368 1
283 368 1
108 369 1
109 369 1
278 369 1
284 369 1
109 370 1
110 370 1
279 370 1
285 370 1
111 371 1
115 371 1
285 371 1
286 371 1
111 372 1
112 372 1
281 372 1
287 372 1
112 373 1
113 373 1
282 373 1
288 373 1
113 374 1
114 374 1
283 374 1
289 374 1
114 375 1
115 375 1
284 375 1
290 375 1
141 376 1
145 376 1
265 376 1
266 376 1
141 377 1
142 377 1
261 377 1
267 377 1
142 378 1
143 378 1
262 378 1
268 378 1
143 379 1
144 379 1
263 379 1
269 379 1
144 380 1
145 380 1
264 380 1
270 380 1
146 381 1
150 381 1
270 381 1
271 381 1
146 382 1
147 382 1
266 382 1
272 382 1
147 383 1
148 383 1
267 383 1
273 383 1
148 384 1
149 384 1
268 384 1
274 384 1
149 385 1
150 385 1
269 385 1
275 385 1
126 386 1
130 386 1
251 386 1
275 386 1
126 387 1
127 387 1
252 387 1
271 387 1
127 388 1
128 388 1
253 388 1
272 388 1
128 389 1
129 389 1
254 389 1
273 389 1
129 390 1
130 390 1
255 390 1
274 390 1
131 391 1
135 391 1
255 391 1
256 391 1
131 392 1
132 392 1
251 392 1
257 392 1
132 393 1
133 393 1
252 393 1
258 393 1
133 394 1
134 394 1
253 394 1
259 394 1
134 395 1
135 395 1
254 395 1
260 395 1
136 396 1
140 396 1
260 396 1
261 396 1
136 397 1
137 397 1
256 397 1
262 397 1
137 398 1
138 398 1
257 398 1
263 398 1
138 399 1
139 399 1
258 399 1
264 399 1
139 400 1
140 400 1
259 400 1
265 400 1
107 401 1
118 401 1
340 401 1
341 401 1
108 402 1
119 402 1
336 402 1
342 402 1
109 403 1
120 403 1
337 403 1
343 403 1
110 404 1
116 404 1
338 404 1
344 404 1
106 405 1
117 405 1
339 405 1
345 405 1
112 406 1
123 406 1
345 406 1
346 406 1
113 407 1
124 407 1
341 407 1
347 407 1
114 408 1
125 408 1
342 408 1
348 408 1
115 409 1
121 409 1
343 409 1
349 409 1
111 410 1
122 410 1
344 410 1
350 410 1
103 411 1
117 411 1
326 411 1
350 411 1
104 412 1
118 412 1
327 412 1
346 412 1
105 413 1
119 413 1
328 413 1
347 413 1
101 414 1
120 414 1
329 414 1
348 414 1
102 415 1
116 415 1
330 415 1
349 415 1
108 416 1
122 416 1
330 416 1
331 416 1
109 417 1
123 417 1
326 417 1
332 417 1
110 418 1
124 418 1
327 418 1
333 418 1
106 419 1
125 419 1
328 419 1
334 419 1
107 420 1
121 420 1
329 420 1
335 420 1
102 421 1
113 421 1
335 421 1
336 421 1
103 422 1
114 422 1
331 422 1
337 422 1
104 423 1
115 423 1
332 423 1
338 423 1
105 424 1
111 424 1
333 424 1
339 424 1
101 425 1
112 425 1
334 425 1
340 425 1
132 426 1
143 426 1
315 426 1
316 426 1
133 427 1
144 427 1
311 427 1
317 427 1
134 428 1
145 428 1
312 428 1
318 428 1
135 429 1
141 429 1
313 429 1
319 429 1
131 430 1
142 430 1
314 430 1
320 430 1
137 431 1
148 431 1
320 431 1
321 431 1
138 432 1
149 432 1
316 432 1
322 432 1
139 433 1
150 433 1
317 433 1
323 433 1
140 434 1
146 434 1
318 434 1
324 434 1
136 435 1
147 435 1
319 435 1
325 435 1
128 436 1
142 436 1
301 436 1
325 436 1
129 437 1
143 437 1
302 437 1
321 437 1
130 438 1
144 438 1
303 438 1
322 438 1
126 439 1
145 439 1
304 439 1
323 439 1
127 440 1
141 440 1
305 440 1
324 440 1
133 441 1
147 441 1
305 441 1
306 441 1
134 442 1
148 442 1
301 442 1
307 442 1
135 443 1
149 443 1
302 443 1
308 443 1
131 444 1
150 444 1
303 444 1
309 444 1
132 445 1
146 445 1
304 445 1
310 445 1
127 446 1
138 446 1
310 446 1
311 446 1
128 447 1
139 447 1
306 447 1
312 447 1
129 448 1
140 448 1
307 448 1
313 448 1
130 449 1
136 449 1
308 449 1
314 449 1
126 450 1
137 450 1
309 450 1
315 450 1
157 451 1
168 451 1
390 451 1
391 451 1
158 452 1
169 452 1
386 452 1
392 452 1
159 453 1
170 453 1
387 453 1
393 453 1
160 454 1
166 454 1
388 454 1
394 454 1
156 455 1
167 455 1
389 455 1
395 455 1
162 456 1
173 456 1
395 456 1
396 456 1
163 457 1
174 457 1
391 457 1
397 457 1
164 458 1
175 458 1
392 458 1
398 458 1
165 459 1
171 459 1
393 459 1
399 459 1
161 460 1
172 460 1
394 460 1
400 460 1
153 461 1
167 461 1
376 461 1
400 461 1
154 462 1
168 462 1
377 462 1
396 462 1
155 463 1
169 463 1
378 463 1
397 463 1
151 464 1
170 464 1
379 464 1
398 464 1
152 465 1
166 465 1
380 465 1
399 465 1
158 466 1
172 466 1
380 466 1
381 466 1
159 467 1
173 467 1
376 467 1
382 467 1
160 468 1
174 468 1
377 468 1
383 468 1
156 469 1
175 469 1
378 469 1
384 469 1
157 470 1
171 470 1
379 470 1
385 470 1
152 471 1
163 471 1
385 471 1
386 471 1
153 472 1
164 472 1
381 472 1
387 472 1
154 473 1
165 473 1
382 473 1
388 473 1
155 474 1
161 474 1
383 474 1
389 474 1
151 475 1
162 475 1
384 475 1
390 475 1
182 476 1
193 476 1
365 476 1
366 476 1
183 477 1
194 477 1
361 477 1
367 477 1
184 478 1
195 478 1
362 478 1
368 478 1
185 479 1
191 479 1
363 479 1
369 479 1
181 480 1
192 480 1
364 480 1
370 480 1
187 481 1
198 481 1
370 481 1
371 481 1
188 482 1
199 482 1
366 482 1
372 482 1
189 483 1
200 483 1
367 483 1
373 483 1
190 484 1
196 484 1
368 484 1
374 484 1
186 485 1
197 485 1
369 485 1
375 485 1
178 486 1
192 486 1
351 486 1
375 486 1
179 487 1
193 487 1
352 487 1
371 487 1
180 488 1
194 488 1
353 488 1
372 488 1
176 489 1
195 489 1
354 489 1
373 489 1
177 490 1
191 490 1
355 490 1
374 490 1
183 491 1
197 491 1
355 491 1
356 491 1
184 492 1
198 492 1
351 492 1
357 492 1
185 493 1
199 493 1
352 493 1
358 493 1
181 494 1
200 494 1
353 494 1
359 494 1
182 495 1
196 495 1
354 495 1
360 495 1
177 496 1
188 496 1
360 496 1
361 496 1
178 497 1
189 497 1
356 497 1
362 497 1
179 498 1
190 498 1
357 498 1
363 498 1
180 499 1
186 499 1
358 499 1
364 499 1
176 500 1
187 500 1
359 500 1
365 500 1
207 501 1
218 501 1
366 501 1
370 501 1
208 502 1
219 502 1
366 502 1
367 502 1
209 503 1
220 503 1
367 503 1
368 503 1
210 504 1
216 504 1
368 504 1
369 504 1
206 505 1
217 505 1
369 505 1
370 505 1
212 506 1
223 506 1
371 506 1
375 506 1
213 507 1
224 507 1
371 507 1
372 507 1
214 508 1
225 508 1
372 508 1
373 508 1
215 509 1
221 509 1
373 509 1
374 509 1
211 510 1
222 510 1
374 510 1
375 510 1
203 511 1
217 511 1
351 511 1
355 511 1
204 512 1
218 512 1
351 512 1
352 512 1
205 513 1
219 513 1
352 513 1
353 513 1
201 514 1
220 514 1
353 514 1
354 514 1
202 515 1
216 515 1
354 515 1
355 515 1
208 516 1
222 516 1
356 516 1
360 516 1
209 517 1
223 517 1
356 517 1
357 517 1
210 518 1
224 518 1
357 518 1
358 518 1
206 519 1
225 519 1
358 519 1
359 519 1
207 520 1
221 520 1
359 520 1
360 520 1
202 521 1
213 521 1
361 521 1
365 521 1
203 522 1
214 522 1
361 522 1
362 522 1
204 523 1
215 523 1
362 523 1
363 523 1
205 524 1
211 524 1
363 524 1
364 524 1
201 525 1
212 525 1
364 525 1
365 525 1
232 526 1
243 526 1
391 526 1
395 526 1
233 527 1
244 527 1
391 527 1
392 527 1
234 528 1
245 528 1
392 528 1
393 528 1
235 529 1
241 529 1
393 529 1
394 529 1
231 530 1
242 530 1
394 530 1
395 530 1
237 531 1
248 531 1
396 531 1
400 531 1
238 532 1
249 532 1
396 532 1
397 532 1
239 533 1
250 533 1
397 533 1
398 533 1
240 534 1
246 534 1
398 534 1
399 534 1
236 535 1
247 535 1
399 535 1
400 535 1
228 536 1
242 536 1
376 536 1
380 536 1
229 537 1
243 537 1
376 537 1
377 537 1
230 538 1
244 538 1
377 538 1
378 538 1
226 539 1
245 539 1
378 539 1
379 539 1
227 540 1
241 540 1
379 540 1
380 540 1
233 541 1
247 541 1
381 541 1
385 541 1
234 542 1
248 542 1
381 542 1
382 542 1
235 543 1
249 543 1
382 543 1
383 543 1
231 544 1
250 544 1
383 544 1
384 544 1
232 545 1
246 545 1
384 545 1
385 545 1
227 546 1
238 546 1
386 546 1
390 546 1
228 547 1
239 547 1
386 547 1
387 547 1
229 548 1
240 548 1
387 548 1
388 548 1
230 549 1
236 549 1
388 549 1
389 549 1
226 550 1
237 550 1
389 550 1
390 550 1
257 551 1
268 551 1
316 551 1
320 551 1
258 552 1
269 552 1
316 552 1
317 552 1
259 553 1
270 553 1
317 553 1
318 553 1
260 554 1
266 554 1
318 554 1
319 554 1
256 555 1
267 555 1
319 555 1
320 555 1
262 556 1
273 556 1
321 556 1
325 556 1
263 557 1
274 557 1
321 557 1
322 557 1
264 558 1
275 558 1
322 558 1
323 558 1
265 559 1
271 559 1
323 559 1
324 559 1
261 560 1
272 560 1
324 560 1
325 560 1
253 561 1
267 561 1
301 561 1
305 561 1
254 562 1
268 562 1
301 562 1
302 562 1
255 563 1
269 563 1
302 563 1
303 563 1
251 564 1
270 564 1
303 564 1
304 564 1
252 565 1
266 565 1
304 565 1
305 565 1
258 566 1
272 566 1
306 566 1
310 566 1
259 567 1
273 567 1
306 567 1
307 567 1
260 568 1
274 568 1
307 568 1
308 568 1
256 569 1
275 569 1
308 569 1
309 569 1
257 570 1
271 570 1
309 570 1
310 570 1
252 571 1
263 571 1
311 571 1
315 571 1
253 572 1
264 572 1
311 572 1
312 572 1
254 573 1
265 573 1
312 573 1
313 573 1
255 574 1
261 574 1
313 574 1
314 574 1
251 575 1
262 575 1
314 575 1
315 575 1
282 576 1
293 576 1
341 576 1
345 576 1
283 577 1
294 577 1
341 577 1
342 577 1
284 578 1
295 578 1
342 578 1
343 578 1
285 579 1
291 579 1
343 579 1
344 579 1
281 580 1
292 580 1
344 580 1
345 580 1
287 581 1
298 581 1
346 581 1
350 581 1
288 582 1
299 582 1
346 582 1
347 582 1
289 583 1
300 583 1
347 583 1
348 583 1
290 584 1
296 584 1
348 584 1
349 584 1
286 585 1
297 585 1
349 585 1
350 585 1
278 586 1
292 586 1
326 586 1
330 586 1
279 587 1
293 587 1
326 587 1
327 587 1
280 588 1
294 588 1
327 588 1
328 588 1
276 589 1
295 589 1
328 589 1
329 589 1
277 590 1
291 590 1
329 590 1
330 590 1
283 591 1
297 591 1
331 591 1
335 591 1
284 592 1
298 592 1
331 592 1
332 592 1
285 593 1
299 593 1
332 593 1
333 593 1
281 594 1
300 594 1
333 594 1
334 594 1
282 595 1
296 595 1
334 595 1
335 595 1
277 596 1
288 596 1
336 596 1
340 596 1
278 597 1
289 597 1
336 597 1
337 597 1
279 598 1
290 598 1
337 598 1
338 598 1
280 599 1
286 599 1
338 599 1
339 599 1
276 600 1
287 600 1
339 600 1
340 600 1
