%%MatrixMarket matrix coordinate integer general
% Binary matrix; one-based indices; arithmetic over GF(2)
192 288 1728
6 1 1
30 1 1
40 1 1
54 1 1
79 1 1
88 1 1
4 2 1
28 2 1
41 2 1
52 2 1
80 2 1
89 2 1
5 3 1
29 3 1
42 3 1
53 3 1
81 3 1
90 3 1
3 4 1
27 4 1
37 4 1
51 4 1
82 4 1
85 4 1
1 5 1
25 5 1
38 5 1
49 5 1
83 5 1
86 5 1
2 6 1
26 6 1
39 6 1
50 6 1
84 6 1
87 6 1
12 7 1
36 7 1
46 7 1
60 7 1
73 7 1
94 7 1
10 8 1
34 8 1
47 8 1
58 8 1
74 8 1
95 8 1
11 9 1
35 9 1
48 9 1
59 9 1
75 9 1
96 9 1
9 10 1
33 10 1
43 10 1
57 10 1
76 10 1
91 10 1
7 11 1
31 11 1
44 11 1
55 11 1
77 11 1
92 11 1
8 12 1
32 12 1
45 12 1
56 12 1
78 12 1
93 12 1
4 13 1
18 13 1
42 13 1
52 13 1
66 13 1
91 13 1
5 14 1
16 14 1
40 14 1
53 14 1
64 14 1
92 14 1
6 15 1
17 15 1
41 15 1
54 15 1
65 15 1
93 15 1
1 16 1
15 16 1
39 16 1
49 16 1
63 16 1
94 16 1
2 17 1
13 17 1
37 17 1
50 17 1
61 17 1
95 17 1
3 18 1
14 18 1
38 18 1
51 18 1
62 18 1
96 18 1
10 19 1
24 19 1
48 19 1
58 19 1
72 19 1
85 19 1
11 20 1
22 20 1
46 20 1
59 20 1
70 20 1
86 20 1
12 21 1
23 21 1
47 21 1
60 21 1
71 21 1
87 21 1
7 22 1
21 22 1
45 22 1
55 22 1
69 22 1
88 22 1
8 23 1
19 23 1
43 23 1
56 23 1
67 23 1
89 23 1
9 24 1
20 24 1
44 24 1
57 24 1
68 24 1
90 24 1
6 25 1
16 25 1
30 25 1
55 25 1
64 25 1
78 25 1
4 26 1
17 26 1
28 26 1
56 26 1
65 26 1
76 26 1
5 27 1
18 27 1
29 27 1
57 27 1
66 27 1
77 27 1
3 28 1
13 28 1
27 28 1
58 28 1
61 28 1
75 28 1
1 29 1
14 29 1
25 29 1
59 29 1
62 29 1
73 29 1
2 30 1
15 30 1
26 30 1
60 30 1
63 30 1
74 30 1
12 31 1
22 31 1
36 31 1
49 31 1
70 31 1
84 31 1
10 32 1
23 32 1
34 32 1
50 32 1
71 32 1
82 32 1
11 33 1
24 33 1
35 33 1
51 33 1
72 33 1
83 33 1
9 34 1
19 34 1
33 34 1
52 34 1
67 34 1
81 34 1
7 35 1
20 35 1
31 35 1
53 35 1
68 35 1
79 35 1
8 36 1
21 36 1
32 36 1
54 36 1
69 36 1
80 36 1
18 37 1
28 37 1
42 37 1
67 37 1
76 37 1
90 37 1
16 38 1
29 38 1
40 38 1
68 38 1
77 38 1
88 38 1
17 39 1
30 39 1
41 39 1
69 39 1
78 39 1
89 39 1
15 40 1
25 40 1
39 40 1
70 40 1
73 40 1
87 40 1
13 41 1
26 41 1
37 41 1
71 41 1
74 41 1
85 41 1
14 42 1
27 42 1
38 42 1
72 42 1
75 42 1
86 42 1
24 43 1
34 43 1
48 43 1
61 43 1
82 43 1
96 43 1
22 44 1
35 44 1
46 44 1
62 44 1
83 44 1
94 44 1
23 45 1
36 45 1
47 45 1
63 45 1
84 45 1
95 45 1
21 46 1
31 46 1
45 46 1
64 46 1
79 46 1
93 46 1
19 47 1
32 47 1
43 47 1
65 47 1
80 47 1
91 47 1
20 48 1
33 48 1
44 48 1
66 48 1
81 48 1
92 48 1
10 49 1
30 49 1
37 49 1
102 49 1
127 49 1
136 49 1
11 50 1
28 50 1
38 50 1
100 50 1
128 50 1
137 50 1
12 51 1
29 51 1
39 51 1
101 51 1
129 51 1
138 51 1
7 52 1
27 52 1
40 52 1
99 52 1
130 52 1
133 52 1
8 53 1
25 53 1
41 53 1
97 53 1
131 53 1
134 53 1
9 54 1
26 54 1
42 54 1
98 54 1
132 54 1
135 54 1
4 55 1
36 55 1
43 55 1
108 55 1
121 55 1
142 55 1
5 56 1
34 56 1
44 56 1
106 56 1
122 56 1
143 56 1
6 57 1
35 57 1
45 57 1
107 57 1
123 57 1
144 57 1
1 58 1
33 58 1
46 58 1
105 58 1
124 58 1
139 58 1
2 59 1
31 59 1
47 59 1
103 59 1
125 59 1
140 59 1
3 60 1
32 60 1
48 60 1
104 60 1
126 60 1
141 60 1
1 61 1
22 61 1
42 61 1
100 61 1
114 61 1
139 61 1
2 62 1
23 62 1
40 62 1
101 62 1
112 62 1
140 62 1
3 63 1
24 63 1
41 63 1
102 63 1
113 63 1
141 63 1
4 64 1
19 64 1
39 64 1
97 64 1
111 64 1
142 64 1
5 65 1
20 65 1
37 65 1
98 65 1
109 65 1
143 65 1
6 66 1
21 66 1
38 66 1
99 66 1
110 66 1
144 66 1
7 67 1
16 67 1
48 67 1
106 67 1
120 67 1
133 67 1
8 68 1
17 68 1
46 68 1
107 68 1
118 68 1
134 68 1
9 69 1
18 69 1
47 69 1
108 69 1
119 69 1
135 69 1
10 70 1
13 70 1
45 70 1
103 70 1
117 70 1
136 70 1
11 71 1
14 71 1
43 71 1
104 71 1
115 71 1
137 71 1
12 72 1
15 72 1
44 72 1
105 72 1
116 72 1
138 72 1
6 73 1
13 73 1
34 73 1
103 73 1
112 73 1
126 73 1
4 74 1
14 74 1
35 74 1
104 74 1
113 74 1
124 74 1
5 75 1
15 75 1
36 75 1
105 75 1
114 75 1
125 75 1
3 76 1
16 76 1
31 76 1
106 76 1
109 76 1
123 76 1
1 77 1
17 77 1
32 77 1
107 77 1
110 77 1
121 77 1
2 78 1
18 78 1
33 78 1
108 78 1
111 78 1
122 78 1
12 79 1
19 79 1
28 79 1
97 79 1
118 79 1
132 79 1
10 80 1
20 80 1
29 80 1
98 80 1
119 80 1
130 80 1
11 81 1
21 81 1
30 81 1
99 81 1
120 81 1
131 81 1
9 82 1
22 82 1
25 82 1
100 82 1
115 82 1
129 82 1
7 83 1
23 83 1
26 83 1
101 83 1
116 83 1
127 83 1
8 84 1
24 84 1
27 84 1
102 84 1
117 84 1
128 84 1
18 85 1
25 85 1
46 85 1
115 85 1
124 85 1
138 85 1
16 86 1
26 86 1
47 86 1
116 86 1
125 86 1
136 86 1
17 87 1
27 87 1
48 87 1
117 87 1
126 87 1
137 87 1
15 88 1
28 88 1
43 88 1
118 88 1
121 88 1
135 88 1
13 89 1
29 89 1
44 89 1
119 89 1
122 89 1
133 89 1
14 90 1
30 90 1
45 90 1
120 90 1
123 90 1
134 90 1
24 91 1
31 91 1
40 91 1
109 91 1
130 91 1
144 91 1
22 92 1
32 92 1
41 92 1
110 92 1
131 92 1
142 92 1
23 93 1
33 93 1
42 93 1
111 93 1
132 93 1
143 93 1
21 94 1
34 94 1
37 94 1
112 94 1
127 94 1
141 94 1
19 95 1
35 95 1
38 95 1
113 95 1
128 95 1
139 95 1
20 96 1
36 96 1
39 96 1
114 96 1
129 96 1
140 96 1
58 97 1
78 97 1
85 97 1
102 97 1
126 97 1
136 97 1
59 98 1
76 98 1
86 98 1
100 98 1
124 98 1
137 98 1
60 99 1
77 99 1
87 99 1
101 99 1
125 99 1
138 99 1
55 100 1
75 100 1
88 100 1
99 100 1
123 100 1
133 100 1
56 101 1
73 101 1
89 101 1
97 101 1
121 101 1
134 101 1
57 102 1
74 102 1
90 102 1
98 102 1
122 102 1
135 102 1
52 103 1
84 103 1
91 103 1
108 103 1
132 103 1
142 103 1
53 104 1
82 104 1
92 104 1
106 104 1
130 104 1
143 104 1
54 105 1
83 105 1
93 105 1
107 105 1
131 105 1
144 105 1
49 106 1
81 106 1
94 106 1
105 106 1
129 106 1
139 106 1
50 107 1
79 107 1
95 107 1
103 107 1
127 107 1
140 107 1
51 108 1
80 108 1
96 108 1
104 108 1
128 108 1
141 108 1
49 109 1
70 109 1
90 109 1
100 109 1
114 109 1
138 109 1
50 110 1
71 110 1
88 110 1
101 110 1
112 110 1
136 110 1
51 111 1
72 111 1
89 111 1
102 111 1
113 111 1
137 111 1
52 112 1
67 112 1
87 112 1
97 112 1
111 112 1
135 112 1
53 113 1
68 113 1
85 113 1
98 113 1
109 113 1
133 113 1
54 114 1
69 114 1
86 114 1
99 114 1
110 114 1
134 114 1
55 115 1
64 115 1
96 115 1
106 115 1
120 115 1
144 115 1
56 116 1
65 116 1
94 116 1
107 116 1
118 116 1
142 116 1
57 117 1
66 117 1
95 117 1
108 117 1
119 117 1
143 117 1
58 118 1
61 118 1
93 118 1
103 118 1
117 118 1
141 118 1
59 119 1
62 119 1
91 119 1
104 119 1
115 119 1
139 119 1
60 120 1
63 120 1
92 120 1
105 120 1
116 120 1
140 120 1
54 121 1
61 121 1
82 121 1
102 121 1
112 121 1
126 121 1
52 122 1
62 122 1
83 122 1
100 122 1
113 122 1
124 122 1
53 123 1
63 123 1
84 123 1
101 123 1
114 123 1
125 123 1
51 124 1
64 124 1
79 124 1
99 124 1
109 124 1
123 124 1
49 125 1
65 125 1
80 125 1
97 125 1
110 125 1
121 125 1
50 126 1
66 126 1
81 126 1
98 126 1
111 126 1
122 126 1
60 127 1
67 127 1
76 127 1
108 127 1
118 127 1
132 127 1
58 128 1
68 128 1
77 128 1
106 128 1
119 128 1
130 128 1
59 129 1
69 129 1
78 129 1
107 129 1
120 129 1
131 129 1
57 130 1
70 130 1
73 130 1
105 130 1
115 130 1
129 130 1
55 131 1
71 131 1
74 131 1
103 131 1
116 131 1
127 131 1
56 132 1
72 132 1
75 132 1
104 132 1
117 132 1
128 132 1
66 133 1
73 133 1
94 133 1
114 133 1
124 133 1
138 133 1
64 134 1
74 134 1
95 134 1
112 134 1
125 134 1
136 134 1
65 135 1
75 135 1
96 135 1
113 135 1
126 135 1
137 135 1
63 136 1
76 136 1
91 136 1
111 136 1
121 136 1
135 136 1
61 137 1
77 137 1
92 137 1
109 137 1
122 137 1
133 137 1
62 138 1
78 138 1
93 138 1
110 138 1
123 138 1
134 138 1
72 139 1
79 139 1
88 139 1
120 139 1
130 139 1
144 139 1
70 140 1
80 140 1
89 140 1
118 140 1
131 140 1
142 140 1
71 141 1
81 141 1
90 141 1
119 141 1
132 141 1
143 141 1
69 142 1
82 142 1
85 142 1
117 142 1
127 142 1
141 142 1
67 143 1
83 143 1
86 143 1
115 143 1
128 143 1
139 143 1
68 144 1
84 144 1
87 144 1
116 144 1
129 144 1
140 144 1
1 145 1
30 145 1
48 145 1
150 145 1
175 145 1
184 145 1
2 146 1
28 146 1
46 146 1
148 146 1
176 146 1
185 146 1
3 147 1
29 147 1
47 147 1
149 147 1
177 147 1
186 147 1
4 148 1
27 148 1
45 148 1
147 148 1
178 148 1
181 148 1
5 149 1
25 149 1
43 149 1
145 149 1
179 149 1
182 149 1
6 150 1
26 150 1
44 150 1
146 150 1
180 150 1
183 150 1
7 151 1
36 151 1
42 151 1
156 151 1
169 151 1
190 151 1
8 152 1
34 152 1
40 152 1
154 152 1
170 152 1
191 152 1
9 153 1
35 153 1
41 153 1
155 153 1
171 153 1
192 153 1
10 154 1
33 154 1
39 154 1
153 154 1
172 154 1
187 154 1
11 155 1
31 155 1
37 155 1
151 155 1
173 155 1
188 155 1
12 156 1
32 156 1
38 156 1
152 156 1
174 156 1
189 156 1
12 157 1
13 157 1
42 157 1
148 157 1
162 157 1
187 157 1
10 158 1
14 158 1
40 158 1
149 158 1
160 158 1
188 158 1
11 159 1
15 159 1
41 159 1
150 159 1
161 159 1
189 159 1
9 160 1
16 160 1
39 160 1
145 160 1
159 160 1
190 160 1
7 161 1
17 161 1
37 161 1
146 161 1
157 161 1
191 161 1
8 162 1
18 162 1
38 162 1
147 162 1
158 162 1
192 162 1
6 163 1
19 163 1
48 163 1
154 163 1
168 163 1
181 163 1
4 164 1
20 164 1
46 164 1
155 164 1
166 164 1
182 164 1
5 165 1
21 165 1
47 165 1
156 165 1
167 165 1
183 165 1
3 166 1
22 166 1
45 166 1
151 166 1
165 166 1
184 166 1
1 167 1
23 167 1
43 167 1
152 167 1
163 167 1
185 167 1
2 168 1
24 168 1
44 168 1
153 168 1
164 168 1
186 168 1
6 169 1
24 169 1
25 169 1
151 169 1
160 169 1
174 169 1
4 170 1
22 170 1
26 170 1
152 170 1
161 170 1
172 170 1
5 171 1
23 171 1
27 171 1
153 171 1
162 171 1
173 171 1
3 172 1
21 172 1
28 172 1
154 172 1
157 172 1
171 172 1
1 173 1
19 173 1
29 173 1
155 173 1
158 173 1
169 173 1
2 174 1
20 174 1
30 174 1
156 174 1
159 174 1
170 174 1
12 175 1
18 175 1
31 175 1
145 175 1
166 175 1
180 175 1
10 176 1
16 176 1
32 176 1
146 176 1
167 176 1
178 176 1
11 177 1
17 177 1
33 177 1
147 177 1
168 177 1
179 177 1
9 178 1
15 178 1
34 178 1
148 178 1
163 178 1
177 178 1
7 179 1
13 179 1
35 179 1
149 179 1
164 179 1
175 179 1
8 180 1
14 180 1
36 180 1
150 180 1
165 180 1
176 180 1
18 181 1
36 181 1
37 181 1
163 181 1
172 181 1
186 181 1
16 182 1
34 182 1
38 182 1
164 182 1
173 182 1
184 182 1
17 183 1
35 183 1
39 183 1
165 183 1
174 183 1
185 183 1
15 184 1
33 184 1
40 184 1
166 184 1
169 184 1
183 184 1
13 185 1
31 185 1
41 185 1
167 185 1
170 185 1
181 185 1
14 186 1
32 186 1
42 186 1
168 186 1
171 186 1
182 186 1
24 187 1
30 187 1
43 187 1
157 187 1
178 187 1
192 187 1
22 188 1
28 188 1
44 188 1
158 188 1
179 188 1
190 188 1
23 189 1
29 189 1
45 189 1
159 189 1
180 189 1
191 189 1
21 190 1
27 190 1
46 190 1
160 190 1
175 190 1
189 190 1
19 191 1
25 191 1
47 191 1
161 191 1
176 191 1
187 191 1
20 192 1
26 192 1
48 192 1
162 192 1
177 192 1
188 192 1
49 193 1
78 193 1
96 193 1
150 193 1
174 193 1
184 193 1
50 194 1
76 194 1
94 194 1
148 194 1
172 194 1
185 194 1
51 195 1
77 195 1
95 195 1
149 195 1
173 195 1
186 195 1
52 196 1
75 196 1
93 196 1
147 196 1
171 196 1
181 196 1
53 197 1
73 197 1
91 197 1
145 197 1
169 197 1
182 197 1
54 198 1
74 198 1
92 198 1
146 198 1
170 198 1
183 198 1
55 199 1
84 199 1
90 199 1
156 199 1
180 199 1
190 199 1
56 200 1
82 200 1
88 200 1
154 200 1
178 200 1
191 200 1
57 201 1
83 201 1
89 201 1
155 201 1
179 201 1
192 201 1
58 202 1
81 202 1
87 202 1
153 202 1
177 202 1
187 202 1
59 203 1
79 203 1
85 203 1
151 203 1
175 203 1
188 203 1
60 204 1
80 204 1
86 204 1
152 204 1
176 204 1
189 204 1
60 205 1
61 205 1
90 205 1
148 205 1
162 205 1
186 205 1
58 206 1
62 206 1
88 206 1
149 206 1
160 206 1
184 206 1
59 207 1
63 207 1
89 207 1
150 207 1
161 207 1
185 207 1
57 208 1
64 208 1
87 208 1
145 208 1
159 208 1
183 208 1
55 209 1
65 209 1
85 209 1
146 209 1
157 209 1
181 209 1
56 210 1
66 210 1
86 210 1
147 210 1
158 210 1
182 210 1
54 211 1
67 211 1
96 211 1
154 211 1
168 211 1
192 211 1
52 212 1
68 212 1
94 212 1
155 212 1
166 212 1
190 212 1
53 213 1
69 213 1
95 213 1
156 213 1
167 213 1
191 213 1
51 214 1
70 214 1
93 214 1
151 214 1
165 214 1
189 214 1
49 215 1
71 215 1
91 215 1
152 215 1
163 215 1
187 215 1
50 216 1
72 216 1
92 216 1
153 216 1
164 216 1
188 216 1
54 217 1
72 217 1
73 217 1
150 217 1
160 217 1
174 217 1
52 218 1
70 218 1
74 218 1
148 218 1
161 218 1
172 218 1
53 219 1
71 219 1
75 219 1
149 219 1
162 219 1
173 219 1
51 220 1
69 220 1
76 220 1
147 220 1
157 220 1
171 220 1
49 221 1
67 221 1
77 221 1
145 221 1
158 221 1
169 221 1
50 222 1
68 222 1
78 222 1
146 222 1
159 222 1
170 222 1
60 223 1
66 223 1
79 223 1
156 223 1
166 223 1
180 223 1
58 224 1
64 224 1
80 224 1
154 224 1
167 224 1
178 224 1
59 225 1
65 225 1
81 225 1
155 225 1
168 225 1
179 225 1
57 226 1
63 226 1
82 226 1
153 226 1
163 226 1
177 226 1
55 227 1
61 227 1
83 227 1
151 227 1
164 227 1
175 227 1
56 228 1
62 228 1
84 228 1
152 228 1
165 228 1
176 228 1
66 229 1
84 229 1
85 229 1
162 229 1
172 229 1
186 229 1
64 230 1
82 230 1
86 230 1
160 230 1
173 230 1
184 230 1
65 231 1
83 231 1
87 231 1
161 231 1
174 231 1
185 231 1
63 232 1
81 232 1
88 232 1
159 232 1
169 232 1
183 232 1
61 233 1
79 233 1
89 233 1
157 233 1
170 233 1
181 233 1
62 234 1
80 234 1
90 234 1
158 234 1
171 234 1
182 234 1
72 235 1
78 235 1
91 235 1
168 235 1
178 235 1
192 235 1
70 236 1
76 236 1
92 236 1
166 236 1
179 236 1
190 236 1
71 237 1
77 237 1
93 237 1
167 237 1
180 237 1
191 237 1
69 238 1
75 238 1
94 238 1
165 238 1
175 238 1
189 238 1
67 239 1
73 239 1
95 239 1
163 239 1
176 239 1
187 239 1
68 240 1
74 240 1
96 240 1
164 240 1
177 240 1
188 240 1
97 241 1
126 241 1
144 241 1
154 241 1
174 241 1
181 241 1
98 242 1
124 242 1
142 242 1
155 242 1
172 242 1
182 242 1
99 243 1
125 243 1
143 243 1
156 243 1
173 243 1
183 243 1
100 244 1
123 244 1
141 244 1
151 244 1
171 244 1
184 244 1
101 245 1
121 245 1
139 245 1
152 245 1
169 245 1
185 245 1
102 246 1
122 246 1
140 246 1
153 246 1
170 246 1
186 246 1
103 247 1
132 247 1
138 247 1
148 247 1
180 247 1
187 247 1
104 248 1
130 248 1
136 248 1
149 248 1
178 248 1
188 248 1
105 249 1
131 249 1
137 249 1
150 249 1
179 249 1
189 249 1
106 250 1
129 250 1
135 250 1
145 250 1
177 250 1
190 250 1
107 251 1
127 251 1
133 251 1
146 251 1
175 251 1
191 251 1
108 252 1
128 252 1
134 252 1
147 252 1
176 252 1
192 252 1
108 253 1
109 253 1
138 253 1
145 253 1
166 253 1
186 253 1
106 254 1
110 254 1
136 254 1
146 254 1
167 254 1
184 254 1
107 255 1
111 255 1
137 255 1
147 255 1
168 255 1
185 255 1
105 256 1
112 256 1
135 256 1
148 256 1
163 256 1
183 256 1
103 257 1
113 257 1
133 257 1
149 257 1
164 257 1
181 257 1
104 258 1
114 258 1
134 258 1
150 258 1
165 258 1
182 258 1
102 259 1
115 259 1
144 259 1
151 259 1
160 259 1
192 259 1
100 260 1
116 260 1
142 260 1
152 260 1
161 260 1
190 260 1
101 261 1
117 261 1
143 261 1
153 261 1
162 261 1
191 261 1
99 262 1
118 262 1
141 262 1
154 262 1
157 262 1
189 262 1
97 263 1
119 263 1
139 263 1
155 263 1
158 263 1
187 263 1
98 264 1
120 264 1
140 264 1
156 264 1
159 264 1
188 264 1
102 265 1
120 265 1
121 265 1
150 265 1
157 265 1
178 265 1
100 266 1
118 266 1
122 266 1
148 266 1
158 266 1
179 266 1
101 267 1
119 267 1
123 267 1
149 267 1
159 267 1
180 267 1
99 268 1
117 268 1
124 268 1
147 268 1
160 268 1
175 268 1
97 269 1
115 269 1
125 269 1
145 269 1
161 269 1
176 269 1
98 270 1
116 270 1
126 270 1
146 270 1
162 270 1
177 270 1
108 271 1
114 271 1
127 271 1
156 271 1
163 271 1
172 271 1
106 272 1
112 272 1
128 272 1
154 272 1
164 272 1
173 272 1
107 273 1
113 273 1
129 273 1
155 273 1
165 273 1
174 273 1
105 274 1
111 274 1
130 274 1
153 274 1
166 274 1
169 274 1
103 275 1
109 275 1
131 275 1
151 275 1
167 275 1
170 275 1
104 276 1
110 276 1
132 276 1
152 276 1
168 276 1
171 276 1
114 277 1
132 277 1
133 277 1
162 277 1
169 277 1
190 277 1
112 278 1
130 278 1
134 278 1
160 278 1
170 278 1
191 278 1
113 279 1
131 279 1
135 279 1
161 279 1
171 279 1
192 279 1
111 280 1
129 280 1
136 280 1
159 280 1
172 280 1
187 280 1
109 281 1
127 281 1
137 281 1
157 281 1
173 281 1
188 281 1
110 282 1
128 282 1
138 282 1
158 282 1
174 282 1
189 282 1
120 283 1
126 283 1
139 283 1
168 283 1
175 283 1
184 283 1
118 284 1
124 284 1
140 284 1
166 284 1
176 284 1
185 284 1
119 285 1
125 285 1
141 285 1
167 285 1
177 285 1
186 285 1
117 286 1
123 286 1
142 286 1
165 286 1
178 286 1
181 286 1
115 287 1
121 287 1
143 287 1
163 287 1
179 287 1
182 287 1
116 288 1
122 288 1
144 288 1
164 288 1
180 288 1
183 288 1
