%%MatrixMarket matrix coordinate integer general
% Binary matrix; one-based indices; arithmetic over GF(2)
1624 2030 16240
1 1 1
16 1 1
30 1 1
42 1 1
59 1 1
68 1 1
88 1 1
89 1 1
2 2 1
17 2 1
31 2 1
43 2 1
60 2 1
69 2 1
89 2 1
90 2 1
3 3 1
18 3 1
32 3 1
44 3 1
61 3 1
70 3 1
90 3 1
91 3 1
4 4 1
19 4 1
33 4 1
45 4 1
62 4 1
71 4 1
91 4 1
92 4 1
5 5 1
20 5 1
34 5 1
46 5 1
63 5 1
72 5 1
92 5 1
93 5 1
6 6 1
21 6 1
35 6 1
47 6 1
64 6 1
73 6 1
93 6 1
94 6 1
7 7 1
22 7 1
36 7 1
48 7 1
65 7 1
74 7 1
94 7 1
95 7 1
8 8 1
23 8 1
37 8 1
49 8 1
66 8 1
75 8 1
95 8 1
96 8 1
9 9 1
24 9 1
38 9 1
50 9 1
67 9 1
76 9 1
96 9 1
97 9 1
10 10 1
25 10 1
39 10 1
51 10 1
68 10 1
77 10 1
97 10 1
98 10 1
11 11 1
26 11 1
40 11 1
52 11 1
69 11 1
78 11 1
98 11 1
99 11 1
12 12 1
27 12 1
41 12 1
53 12 1
70 12 1
79 12 1
99 12 1
100 12 1
13 13 1
28 13 1
42 13 1
54 13 1
71 13 1
80 13 1
100 13 1
101 13 1
14 14 1
29 14 1
43 14 1
55 14 1
72 14 1
81 14 1
101 14 1
102 14 1
1 15 1
15 15 1
44 15 1
56 15 1
73 15 1
82 15 1
102 15 1
103 15 1
2 16 1
16 16 1
45 16 1
57 16 1
74 16 1
83 16 1
103 16 1
104 16 1
3 17 1
17 17 1
46 17 1
58 17 1
75 17 1
84 17 1
104 17 1
105 17 1
4 18 1
18 18 1
30 18 1
47 18 1
76 18 1
85 18 1
105 18 1
106 18 1
5 19 1
19 19 1
31 19 1
48 19 1
77 19 1
86 19 1
106 19 1
107 19 1
6 20 1
20 20 1
32 20 1
49 20 1
78 20 1
87 20 1
107 20 1
108 20 1
7 21 1
21 21 1
33 21 1
50 21 1
59 21 1
79 21 1
108 21 1
109 21 1
8 22 1
22 22 1
34 22 1
51 22 1
60 22 1
80 22 1
109 22 1
110 22 1
9 23 1
23 23 1
35 23 1
52 23 1
61 23 1
81 23 1
110 23 1
111 23 1
10 24 1
24 24 1
36 24 1
53 24 1
62 24 1
82 24 1
111 24 1
112 24 1
11 25 1
25 25 1
37 25 1
54 25 1
63 25 1
83 25 1
112 25 1
113 25 1
12 26 1
26 26 1
38 26 1
55 26 1
64 26 1
84 26 1
113 26 1
114 26 1
13 27 1
27 27 1
39 27 1
56 27 1
65 27 1
85 27 1
114 27 1
115 27 1
14 28 1
28 28 1
40 28 1
57 28 1
66 28 1
86 28 1
115 28 1
116 28 1
15 29 1
29 29 1
41 29 1
58 29 1
67 29 1
87 29 1
88 29 1
116 29 1
1 30 1
17 30 1
117 30 1
129 30 1
146 30 1
155 30 1
175 30 1
176 30 1
2 31 1
18 31 1
118 31 1
130 31 1
147 31 1
156 31 1
176 31 1
177 31 1
3 32 1
19 32 1
119 32 1
131 32 1
148 32 1
157 32 1
177 32 1
178 32 1
4 33 1
20 33 1
120 33 1
132 33 1
149 33 1
158 33 1
178 33 1
179 33 1
5 34 1
21 34 1
121 34 1
133 34 1
150 34 1
159 34 1
179 34 1
180 34 1
6 35 1
22 35 1
122 35 1
134 35 1
151 35 1
160 35 1
180 35 1
181 35 1
7 36 1
23 36 1
123 36 1
135 36 1
152 36 1
161 36 1
181 36 1
182 36 1
8 37 1
24 37 1
124 37 1
136 37 1
153 37 1
162 37 1
182 37 1
183 37 1
9 38 1
25 38 1
125 38 1
137 38 1
154 38 1
163 38 1
183 38 1
184 38 1
10 39 1
26 39 1
126 39 1
138 39 1
155 39 1
164 39 1
184 39 1
185 39 1
11 40 1
27 40 1
127 40 1
139 40 1
156 40 1
165 40 1
185 40 1
186 40 1
12 41 1
28 41 1
128 41 1
140 41 1
157 41 1
166 41 1
186 41 1
187 41 1
13 42 1
29 42 1
129 42 1
141 42 1
158 42 1
167 42 1
187 42 1
188 42 1
1 43 1
14 43 1
130 43 1
142 43 1
159 43 1
168 43 1
188 43 1
189 43 1
2 44 1
15 44 1
131 44 1
143 44 1
160 44 1
169 44 1
189 44 1
190 44 1
3 45 1
16 45 1
132 45 1
144 45 1
161 45 1
170 45 1
190 45 1
191 45 1
4 46 1
17 46 1
133 46 1
145 46 1
162 46 1
171 46 1
191 46 1
192 46 1
5 47 1
18 47 1
117 47 1
134 47 1
163 47 1
172 47 1
192 47 1
193 47 1
6 48 1
19 48 1
118 48 1
135 48 1
164 48 1
173 48 1
193 48 1
194 48 1
7 49 1
20 49 1
119 49 1
136 49 1
165 49 1
174 49 1
194 49 1
195 49 1
8 50 1
21 50 1
120 50 1
137 50 1
146 50 1
166 50 1
195 50 1
196 50 1
9 51 1
22 51 1
121 51 1
138 51 1
147 51 1
167 51 1
196 51 1
197 51 1
10 52 1
23 52 1
122 52 1
139 52 1
148 52 1
168 52 1
197 52 1
198 52 1
11 53 1
24 53 1
123 53 1
140 53 1
149 53 1
169 53 1
198 53 1
199 53 1
12 54 1
25 54 1
124 54 1
141 54 1
150 54 1
170 54 1
199 54 1
200 54 1
13 55 1
26 55 1
125 55 1
142 55 1
151 55 1
171 55 1
200 55 1
201 55 1
14 56 1
27 56 1
126 56 1
143 56 1
152 56 1
172 56 1
201 56 1
202 56 1
15 57 1
28 57 1
127 57 1
144 57 1
153 57 1
173 57 1
202 57 1
203 57 1
16 58 1
29 58 1
128 58 1
145 58 1
154 58 1
174 58 1
175 58 1
203 58 1
30 59 1
46 59 1
117 59 1
132 59 1
204 59 1
213 59 1
233 59 1
234 59 1
31 60 1
47 60 1
118 60 1
133 60 1
205 60 1
214 60 1
234 60 1
235 60 1
32 61 1
48 61 1
119 61 1
134 61 1
206 61 1
215 61 1
235 61 1
236 61 1
33 62 1
49 62 1
120 62 1
135 62 1
207 62 1
216 62 1
236 62 1
237 62 1
34 63 1
50 63 1
121 63 1
136 63 1
208 63 1
217 63 1
237 63 1
238 63 1
35 64 1
51 64 1
122 64 1
137 64 1
209 64 1
218 64 1
238 64 1
239 64 1
36 65 1
52 65 1
123 65 1
138 65 1
210 65 1
219 65 1
239 65 1
240 65 1
37 66 1
53 66 1
124 66 1
139 66 1
211 66 1
220 66 1
240 66 1
241 66 1
38 67 1
54 67 1
125 67 1
140 67 1
212 67 1
221 67 1
241 67 1
242 67 1
39 68 1
55 68 1
126 68 1
141 68 1
213 68 1
222 68 1
242 68 1
243 68 1
40 69 1
56 69 1
127 69 1
142 69 1
214 69 1
223 69 1
243 69 1
244 69 1
41 70 1
57 70 1
128 70 1
143 70 1
215 70 1
224 70 1
244 70 1
245 70 1
42 71 1
58 71 1
129 71 1
144 71 1
216 71 1
225 71 1
245 71 1
246 71 1
30 72 1
43 72 1
130 72 1
145 72 1
217 72 1
226 72 1
246 72 1
247 72 1
31 73 1
44 73 1
117 73 1
131 73 1
218 73 1
227 73 1
247 73 1
248 73 1
32 74 1
45 74 1
118 74 1
132 74 1
219 74 1
228 74 1
248 74 1
249 74 1
33 75 1
46 75 1
119 75 1
133 75 1
220 75 1
229 75 1
249 75 1
250 75 1
34 76 1
47 76 1
120 76 1
134 76 1
221 76 1
230 76 1
250 76 1
251 76 1
35 77 1
48 77 1
121 77 1
135 77 1
222 77 1
231 77 1
251 77 1
252 77 1
36 78 1
49 78 1
122 78 1
136 78 1
223 78 1
232 78 1
252 78 1
253 78 1
37 79 1
50 79 1
123 79 1
137 79 1
204 79 1
224 79 1
253 79 1
254 79 1
38 80 1
51 80 1
124 80 1
138 80 1
205 80 1
225 80 1
254 80 1
255 80 1
39 81 1
52 81 1
125 81 1
139 81 1
206 81 1
226 81 1
255 81 1
256 81 1
40 82 1
53 82 1
126 82 1
140 82 1
207 82 1
227 82 1
256 82 1
257 82 1
41 83 1
54 83 1
127 83 1
141 83 1
208 83 1
228 83 1
257 83 1
258 83 1
42 84 1
55 84 1
128 84 1
142 84 1
209 84 1
229 84 1
258 84 1
259 84 1
43 85 1
56 85 1
129 85 1
143 85 1
210 85 1
230 85 1
259 85 1
260 85 1
44 86 1
57 86 1
130 86 1
144 86 1
211 86 1
231 86 1
260 86 1
261 86 1
45 87 1
58 87 1
131 87 1
145 87 1
212 87 1
232 87 1
233 87 1
261 87 1
59 88 1
75 88 1
146 88 1
161 88 1
204 88 1
216 88 1
262 88 1
263 88 1
60 89 1
76 89 1
147 89 1
162 89 1
205 89 1
217 89 1
263 89 1
264 89 1
61 90 1
77 90 1
148 90 1
163 90 1
206 90 1
218 90 1
264 90 1
265 90 1
62 91 1
78 91 1
149 91 1
164 91 1
207 91 1
219 91 1
265 91 1
266 91 1
63 92 1
79 92 1
150 92 1
165 92 1
208 92 1
220 92 1
266 92 1
267 92 1
64 93 1
80 93 1
151 93 1
166 93 1
209 93 1
221 93 1
267 93 1
268 93 1
65 94 1
81 94 1
152 94 1
167 94 1
210 94 1
222 94 1
268 94 1
269 94 1
66 95 1
82 95 1
153 95 1
168 95 1
211 95 1
223 95 1
269 95 1
270 95 1
67 96 1
83 96 1
154 96 1
169 96 1
212 96 1
224 96 1
270 96 1
271 96 1
68 97 1
84 97 1
155 97 1
170 97 1
213 97 1
225 97 1
271 97 1
272 97 1
69 98 1
85 98 1
156 98 1
171 98 1
214 98 1
226 98 1
272 98 1
273 98 1
70 99 1
86 99 1
157 99 1
172 99 1
215 99 1
227 99 1
273 99 1
274 99 1
71 100 1
87 100 1
158 100 1
173 100 1
216 100 1
228 100 1
274 100 1
275 100 1
59 101 1
72 101 1
159 101 1
174 101 1
217 101 1
229 101 1
275 101 1
276 101 1
60 102 1
73 102 1
146 102 1
160 102 1
218 102 1
230 102 1
276 102 1
277 102 1
61 103 1
74 103 1
147 103 1
161 103 1
219 103 1
231 103 1
277 103 1
278 103 1
62 104 1
75 104 1
148 104 1
162 104 1
220 104 1
232 104 1
278 104 1
279 104 1
63 105 1
76 105 1
149 105 1
163 105 1
204 105 1
221 105 1
279 105 1
280 105 1
64 106 1
77 106 1
150 106 1
164 106 1
205 106 1
222 106 1
280 106 1
281 106 1
65 107 1
78 107 1
151 107 1
165 107 1
206 107 1
223 107 1
281 107 1
282 107 1
66 108 1
79 108 1
152 108 1
166 108 1
207 108 1
224 108 1
282 108 1
283 108 1
67 109 1
80 109 1
153 109 1
167 109 1
208 109 1
225 109 1
283 109 1
284 109 1
68 110 1
81 110 1
154 110 1
168 110 1
209 110 1
226 110 1
284 110 1
285 110 1
69 111 1
82 111 1
155 111 1
169 111 1
210 111 1
227 111 1
285 111 1
286 111 1
70 112 1
83 112 1
156 112 1
170 112 1
211 112 1
228 112 1
286 112 1
287 112 1
71 113 1
84 113 1
157 113 1
171 113 1
212 113 1
229 113 1
287 113 1
288 113 1
72 114 1
85 114 1
158 114 1
172 114 1
213 114 1
230 114 1
288 114 1
289 114 1
73 115 1
86 115 1
159 115 1
173 115 1
214 115 1
231 115 1
289 115 1
290 115 1
74 116 1
87 116 1
160 116 1
174 116 1
215 116 1
232 116 1
262 116 1
290 116 1
88 117 1
104 117 1
175 117 1
190 117 1
233 117 1
245 117 1
262 117 1
271 117 1
89 118 1
105 118 1
176 118 1
191 118 1
234 118 1
246 118 1
263 118 1
272 118 1
90 119 1
106 119 1
177 119 1
192 119 1
235 119 1
247 119 1
264 119 1
273 119 1
91 120 1
107 120 1
178 120 1
193 120 1
236 120 1
248 120 1
265 120 1
274 120 1
92 121 1
108 121 1
179 121 1
194 121 1
237 121 1
249 121 1
266 121 1
275 121 1
93 122 1
109 122 1
180 122 1
195 122 1
238 122 1
250 122 1
267 122 1
276 122 1
94 123 1
110 123 1
181 123 1
196 123 1
239 123 1
251 123 1
268 123 1
277 123 1
95 124 1
111 124 1
182 124 1
197 124 1
240 124 1
252 124 1
269 124 1
278 124 1
96 125 1
112 125 1
183 125 1
198 125 1
241 125 1
253 125 1
270 125 1
279 125 1
97 126 1
113 126 1
184 126 1
199 126 1
242 126 1
254 126 1
271 126 1
280 126 1
98 127 1
114 127 1
185 127 1
200 127 1
243 127 1
255 127 1
272 127 1
281 127 1
99 128 1
115 128 1
186 128 1
201 128 1
244 128 1
256 128 1
273 128 1
282 128 1
100 129 1
116 129 1
187 129 1
202 129 1
245 129 1
257 129 1
274 129 1
283 129 1
88 130 1
101 130 1
188 130 1
203 130 1
246 130 1
258 130 1
275 130 1
284 130 1
89 131 1
102 131 1
175 131 1
189 131 1
247 131 1
259 131 1
276 131 1
285 131 1
90 132 1
103 132 1
176 132 1
190 132 1
248 132 1
260 132 1
277 132 1
286 132 1
91 133 1
104 133 1
177 133 1
191 133 1
249 133 1
261 133 1
278 133 1
287 133 1
92 134 1
105 134 1
178 134 1
192 134 1
233 134 1
250 134 1
279 134 1
288 134 1
93 135 1
106 135 1
179 135 1
193 135 1
234 135 1
251 135 1
280 135 1
289 135 1
94 136 1
107 136 1
180 136 1
194 136 1
235 136 1
252 136 1
281 136 1
290 136 1
95 137 1
108 137 1
181 137 1
195 137 1
236 137 1
253 137 1
262 137 1
282 137 1
96 138 1
109 138 1
182 138 1
196 138 1
237 138 1
254 138 1
263 138 1
283 138 1
97 139 1
110 139 1
183 139 1
197 139 1
238 139 1
255 139 1
264 139 1
284 139 1
98 140 1
111 140 1
184 140 1
198 140 1
239 140 1
256 140 1
265 140 1
285 140 1
99 141 1
112 141 1
185 141 1
199 141 1
240 141 1
257 141 1
266 141 1
286 141 1
100 142 1
113 142 1
186 142 1
200 142 1
241 142 1
258 142 1
267 142 1
287 142 1
101 143 1
114 143 1
187 143 1
201 143 1
242 143 1
259 143 1
268 143 1
288 143 1
102 144 1
115 144 1
188 144 1
202 144 1
243 144 1
260 144 1
269 144 1
289 144 1
103 145 1
116 145 1
189 145 1
203 145 1
244 145 1
261 145 1
270 145 1
290 145 1
1 146 1
19 146 1
291 146 1
303 146 1
320 146 1
329 146 1
349 146 1
350 146 1
2 147 1
20 147 1
292 147 1
304 147 1
321 147 1
330 147 1
350 147 1
351 147 1
3 148 1
21 148 1
293 148 1
305 148 1
322 148 1
331 148 1
351 148 1
352 148 1
4 149 1
22 149 1
294 149 1
306 149 1
323 149 1
332 149 1
352 149 1
353 149 1
5 150 1
23 150 1
295 150 1
307 150 1
324 150 1
333 150 1
353 150 1
354 150 1
6 151 1
24 151 1
296 151 1
308 151 1
325 151 1
334 151 1
354 151 1
355 151 1
7 152 1
25 152 1
297 152 1
309 152 1
326 152 1
335 152 1
355 152 1
356 152 1
8 153 1
26 153 1
298 153 1
310 153 1
327 153 1
336 153 1
356 153 1
357 153 1
9 154 1
27 154 1
299 154 1
311 154 1
328 154 1
337 154 1
357 154 1
358 154 1
10 155 1
28 155 1
300 155 1
312 155 1
329 155 1
338 155 1
358 155 1
359 155 1
11 156 1
29 156 1
301 156 1
313 156 1
330 156 1
339 156 1
359 156 1
360 156 1
1 157 1
12 157 1
302 157 1
314 157 1
331 157 1
340 157 1
360 157 1
361 157 1
2 158 1
13 158 1
303 158 1
315 158 1
332 158 1
341 158 1
361 158 1
362 158 1
3 159 1
14 159 1
304 159 1
316 159 1
333 159 1
342 159 1
362 159 1
363 159 1
4 160 1
15 160 1
305 160 1
317 160 1
334 160 1
343 160 1
363 160 1
364 160 1
5 161 1
16 161 1
306 161 1
318 161 1
335 161 1
344 161 1
364 161 1
365 161 1
6 162 1
17 162 1
307 162 1
319 162 1
336 162 1
345 162 1
365 162 1
366 162 1
7 163 1
18 163 1
291 163 1
308 163 1
337 163 1
346 163 1
366 163 1
367 163 1
8 164 1
19 164 1
292 164 1
309 164 1
338 164 1
347 164 1
367 164 1
368 164 1
9 165 1
20 165 1
293 165 1
310 165 1
339 165 1
348 165 1
368 165 1
369 165 1
10 166 1
21 166 1
294 166 1
311 166 1
320 166 1
340 166 1
369 166 1
370 166 1
11 167 1
22 167 1
295 167 1
312 167 1
321 167 1
341 167 1
370 167 1
371 167 1
12 168 1
23 168 1
296 168 1
313 168 1
322 168 1
342 168 1
371 168 1
372 168 1
13 169 1
24 169 1
297 169 1
314 169 1
323 169 1
343 169 1
372 169 1
373 169 1
14 170 1
25 170 1
298 170 1
315 170 1
324 170 1
344 170 1
373 170 1
374 170 1
15 171 1
26 171 1
299 171 1
316 171 1
325 171 1
345 171 1
374 171 1
375 171 1
16 172 1
27 172 1
300 172 1
317 172 1
326 172 1
346 172 1
375 172 1
376 172 1
17 173 1
28 173 1
301 173 1
318 173 1
327 173 1
347 173 1
376 173 1
377 173 1
18 174 1
29 174 1
302 174 1
319 174 1
328 174 1
348 174 1
349 174 1
377 174 1
30 175 1
48 175 1
291 175 1
306 175 1
378 175 1
387 175 1
407 175 1
408 175 1
31 176 1
49 176 1
292 176 1
307 176 1
379 176 1
388 176 1
408 176 1
409 176 1
32 177 1
50 177 1
293 177 1
308 177 1
380 177 1
389 177 1
409 177 1
410 177 1
33 178 1
51 178 1
294 178 1
309 178 1
381 178 1
390 178 1
410 178 1
411 178 1
34 179 1
52 179 1
295 179 1
310 179 1
382 179 1
391 179 1
411 179 1
412 179 1
35 180 1
53 180 1
296 180 1
311 180 1
383 180 1
392 180 1
412 180 1
413 180 1
36 181 1
54 181 1
297 181 1
312 181 1
384 181 1
393 181 1
413 181 1
414 181 1
37 182 1
55 182 1
298 182 1
313 182 1
385 182 1
394 182 1
414 182 1
415 182 1
38 183 1
56 183 1
299 183 1
314 183 1
386 183 1
395 183 1
415 183 1
416 183 1
39 184 1
57 184 1
300 184 1
315 184 1
387 184 1
396 184 1
416 184 1
417 184 1
40 185 1
58 185 1
301 185 1
316 185 1
388 185 1
397 185 1
417 185 1
418 185 1
30 186 1
41 186 1
302 186 1
317 186 1
389 186 1
398 186 1
418 186 1
419 186 1
31 187 1
42 187 1
303 187 1
318 187 1
390 187 1
399 187 1
419 187 1
420 187 1
32 188 1
43 188 1
304 188 1
319 188 1
391 188 1
400 188 1
420 188 1
421 188 1
33 189 1
44 189 1
291 189 1
305 189 1
392 189 1
401 189 1
421 189 1
422 189 1
34 190 1
45 190 1
292 190 1
306 190 1
393 190 1
402 190 1
422 190 1
423 190 1
35 191 1
46 191 1
293 191 1
307 191 1
394 191 1
403 191 1
423 191 1
424 191 1
36 192 1
47 192 1
294 192 1
308 192 1
395 192 1
404 192 1
424 192 1
425 192 1
37 193 1
48 193 1
295 193 1
309 193 1
396 193 1
405 193 1
425 193 1
426 193 1
38 194 1
49 194 1
296 194 1
310 194 1
397 194 1
406 194 1
426 194 1
427 194 1
39 195 1
50 195 1
297 195 1
311 195 1
378 195 1
398 195 1
427 195 1
428 195 1
40 196 1
51 196 1
298 196 1
312 196 1
379 196 1
399 196 1
428 196 1
429 196 1
41 197 1
52 197 1
299 197 1
313 197 1
380 197 1
400 197 1
429 197 1
430 197 1
42 198 1
53 198 1
300 198 1
314 198 1
381 198 1
401 198 1
430 198 1
431 198 1
43 199 1
54 199 1
301 199 1
315 199 1
382 199 1
402 199 1
431 199 1
432 199 1
44 200 1
55 200 1
302 200 1
316 200 1
383 200 1
403 200 1
432 200 1
433 200 1
45 201 1
56 201 1
303 201 1
317 201 1
384 201 1
404 201 1
433 201 1
434 201 1
46 202 1
57 202 1
304 202 1
318 202 1
385 202 1
405 202 1
434 202 1
435 202 1
47 203 1
58 203 1
305 203 1
319 203 1
386 203 1
406 203 1
407 203 1
435 203 1
59 204 1
77 204 1
320 204 1
335 204 1
378 204 1
390 204 1
436 204 1
437 204 1
60 205 1
78 205 1
321 205 1
336 205 1
379 205 1
391 205 1
437 205 1
438 205 1
61 206 1
79 206 1
322 206 1
337 206 1
380 206 1
392 206 1
438 206 1
439 206 1
62 207 1
80 207 1
323 207 1
338 207 1
381 207 1
393 207 1
439 207 1
440 207 1
63 208 1
81 208 1
324 208 1
339 208 1
382 208 1
394 208 1
440 208 1
441 208 1
64 209 1
82 209 1
325 209 1
340 209 1
383 209 1
395 209 1
441 209 1
442 209 1
65 210 1
83 210 1
326 210 1
341 210 1
384 210 1
396 210 1
442 210 1
443 210 1
66 211 1
84 211 1
327 211 1
342 211 1
385 211 1
397 211 1
443 211 1
444 211 1
67 212 1
85 212 1
328 212 1
343 212 1
386 212 1
398 212 1
444 212 1
445 212 1
68 213 1
86 213 1
329 213 1
344 213 1
387 213 1
399 213 1
445 213 1
446 213 1
69 214 1
87 214 1
330 214 1
345 214 1
388 214 1
400 214 1
446 214 1
447 214 1
59 215 1
70 215 1
331 215 1
346 215 1
389 215 1
401 215 1
447 215 1
448 215 1
60 216 1
71 216 1
332 216 1
347 216 1
390 216 1
402 216 1
448 216 1
449 216 1
61 217 1
72 217 1
333 217 1
348 217 1
391 217 1
403 217 1
449 217 1
450 217 1
62 218 1
73 218 1
320 218 1
334 218 1
392 218 1
404 218 1
450 218 1
451 218 1
63 219 1
74 219 1
321 219 1
335 219 1
393 219 1
405 219 1
451 219 1
452 219 1
64 220 1
75 220 1
322 220 1
336 220 1
394 220 1
406 220 1
452 220 1
453 220 1
65 221 1
76 221 1
323 221 1
337 221 1
378 221 1
395 221 1
453 221 1
454 221 1
66 222 1
77 222 1
324 222 1
338 222 1
379 222 1
396 222 1
454 222 1
455 222 1
67 223 1
78 223 1
325 223 1
339 223 1
380 223 1
397 223 1
455 223 1
456 223 1
68 224 1
79 224 1
326 224 1
340 224 1
381 224 1
398 224 1
456 224 1
457 224 1
69 225 1
80 225 1
327 225 1
341 225 1
382 225 1
399 225 1
457 225 1
458 225 1
70 226 1
81 226 1
328 226 1
342 226 1
383 226 1
400 226 1
458 226 1
459 226 1
71 227 1
82 227 1
329 227 1
343 227 1
384 227 1
401 227 1
459 227 1
460 227 1
72 228 1
83 228 1
330 228 1
344 228 1
385 228 1
402 228 1
460 228 1
461 228 1
73 229 1
84 229 1
331 229 1
345 229 1
386 229 1
403 229 1
461 229 1
462 229 1
74 230 1
85 230 1
332 230 1
346 230 1
387 230 1
404 230 1
462 230 1
463 230 1
75 231 1
86 231 1
333 231 1
347 231 1
388 231 1
405 231 1
463 231 1
464 231 1
76 232 1
87 232 1
334 232 1
348 232 1
389 232 1
406 232 1
436 232 1
464 232 1
88 233 1
106 233 1
349 233 1
364 233 1
407 233 1
419 233 1
436 233 1
445 233 1
89 234 1
107 234 1
350 234 1
365 234 1
408 234 1
420 234 1
437 234 1
446 234 1
90 235 1
108 235 1
351 235 1
366 235 1
409 235 1
421 235 1
438 235 1
447 235 1
91 236 1
109 236 1
352 236 1
367 236 1
410 236 1
422 236 1
439 236 1
448 236 1
92 237 1
110 237 1
353 237 1
368 237 1
411 237 1
423 237 1
440 237 1
449 237 1
93 238 1
111 238 1
354 238 1
369 238 1
412 238 1
424 238 1
441 238 1
450 238 1
94 239 1
112 239 1
355 239 1
370 239 1
413 239 1
425 239 1
442 239 1
451 239 1
95 240 1
113 240 1
356 240 1
371 240 1
414 240 1
426 240 1
443 240 1
452 240 1
96 241 1
114 241 1
357 241 1
372 241 1
415 241 1
427 241 1
444 241 1
453 241 1
97 242 1
115 242 1
358 242 1
373 242 1
416 242 1
428 242 1
445 242 1
454 242 1
98 243 1
116 243 1
359 243 1
374 243 1
417 243 1
429 243 1
446 243 1
455 243 1
88 244 1
99 244 1
360 244 1
375 244 1
418 244 1
430 244 1
447 244 1
456 244 1
89 245 1
100 245 1
361 245 1
376 245 1
419 245 1
431 245 1
448 245 1
457 245 1
90 246 1
101 246 1
362 246 1
377 246 1
420 246 1
432 246 1
449 246 1
458 246 1
91 247 1
102 247 1
349 247 1
363 247 1
421 247 1
433 247 1
450 247 1
459 247 1
92 248 1
103 248 1
350 248 1
364 248 1
422 248 1
434 248 1
451 248 1
460 248 1
93 249 1
104 249 1
351 249 1
365 249 1
423 249 1
435 249 1
452 249 1
461 249 1
94 250 1
105 250 1
352 250 1
366 250 1
407 250 1
424 250 1
453 250 1
462 250 1
95 251 1
106 251 1
353 251 1
367 251 1
408 251 1
425 251 1
454 251 1
463 251 1
96 252 1
107 252 1
354 252 1
368 252 1
409 252 1
426 252 1
455 252 1
464 252 1
97 253 1
108 253 1
355 253 1
369 253 1
410 253 1
427 253 1
436 253 1
456 253 1
98 254 1
109 254 1
356 254 1
370 254 1
411 254 1
428 254 1
437 254 1
457 254 1
99 255 1
110 255 1
357 255 1
371 255 1
412 255 1
429 255 1
438 255 1
458 255 1
100 256 1
111 256 1
358 256 1
372 256 1
413 256 1
430 256 1
439 256 1
459 256 1
101 257 1
112 257 1
359 257 1
373 257 1
414 257 1
431 257 1
440 257 1
460 257 1
102 258 1
113 258 1
360 258 1
374 258 1
415 258 1
432 258 1
441 258 1
461 258 1
103 259 1
114 259 1
361 259 1
375 259 1
416 259 1
433 259 1
442 259 1
462 259 1
104 260 1
115 260 1
362 260 1
376 260 1
417 260 1
434 260 1
443 260 1
463 260 1
105 261 1
116 261 1
363 261 1
377 261 1
418 261 1
435 261 1
444 261 1
464 261 1
117 262 1
135 262 1
291 262 1
307 262 1
465 262 1
474 262 1
494 262 1
495 262 1
118 263 1
136 263 1
292 263 1
308 263 1
466 263 1
475 263 1
495 263 1
496 263 1
119 264 1
137 264 1
293 264 1
309 264 1
467 264 1
476 264 1
496 264 1
497 264 1
120 265 1
138 265 1
294 265 1
310 265 1
468 265 1
477 265 1
497 265 1
498 265 1
121 266 1
139 266 1
295 266 1
311 266 1
469 266 1
478 266 1
498 266 1
499 266 1
122 267 1
140 267 1
296 267 1
312 267 1
470 267 1
479 267 1
499 267 1
500 267 1
123 268 1
141 268 1
297 268 1
313 268 1
471 268 1
480 268 1
500 268 1
501 268 1
124 269 1
142 269 1
298 269 1
314 269 1
472 269 1
481 269 1
501 269 1
502 269 1
125 270 1
143 270 1
299 270 1
315 270 1
473 270 1
482 270 1
502 270 1
503 270 1
126 271 1
144 271 1
300 271 1
316 271 1
474 271 1
483 271 1
503 271 1
504 271 1
127 272 1
145 272 1
301 272 1
317 272 1
475 272 1
484 272 1
504 272 1
505 272 1
117 273 1
128 273 1
302 273 1
318 273 1
476 273 1
485 273 1
505 273 1
506 273 1
118 274 1
129 274 1
303 274 1
319 274 1
477 274 1
486 274 1
506 274 1
507 274 1
119 275 1
130 275 1
291 275 1
304 275 1
478 275 1
487 275 1
507 275 1
508 275 1
120 276 1
131 276 1
292 276 1
305 276 1
479 276 1
488 276 1
508 276 1
509 276 1
121 277 1
132 277 1
293 277 1
306 277 1
480 277 1
489 277 1
509 277 1
510 277 1
122 278 1
133 278 1
294 278 1
307 278 1
481 278 1
490 278 1
510 278 1
511 278 1
123 279 1
134 279 1
295 279 1
308 279 1
482 279 1
491 279 1
511 279 1
512 279 1
124 280 1
135 280 1
296 280 1
309 280 1
483 280 1
492 280 1
512 280 1
513 280 1
125 281 1
136 281 1
297 281 1
310 281 1
484 281 1
493 281 1
513 281 1
514 281 1
126 282 1
137 282 1
298 282 1
311 282 1
465 282 1
485 282 1
514 282 1
515 282 1
127 283 1
138 283 1
299 283 1
312 283 1
466 283 1
486 283 1
515 283 1
516 283 1
128 284 1
139 284 1
300 284 1
313 284 1
467 284 1
487 284 1
516 284 1
517 284 1
129 285 1
140 285 1
301 285 1
314 285 1
468 285 1
488 285 1
517 285 1
518 285 1
130 286 1
141 286 1
302 286 1
315 286 1
469 286 1
489 286 1
518 286 1
519 286 1
131 287 1
142 287 1
303 287 1
316 287 1
470 287 1
490 287 1
519 287 1
520 287 1
132 288 1
143 288 1
304 288 1
317 288 1
471 288 1
491 288 1
520 288 1
521 288 1
133 289 1
144 289 1
305 289 1
318 289 1
472 289 1
492 289 1
521 289 1
522 289 1
134 290 1
145 290 1
306 290 1
319 290 1
473 290 1
493 290 1
494 290 1
522 290 1
146 291 1
164 291 1
320 291 1
336 291 1
465 291 1
477 291 1
523 291 1
524 291 1
147 292 1
165 292 1
321 292 1
337 292 1
466 292 1
478 292 1
524 292 1
525 292 1
148 293 1
166 293 1
322 293 1
338 293 1
467 293 1
479 293 1
525 293 1
526 293 1
149 294 1
167 294 1
323 294 1
339 294 1
468 294 1
480 294 1
526 294 1
527 294 1
150 295 1
168 295 1
324 295 1
340 295 1
469 295 1
481 295 1
527 295 1
528 295 1
151 296 1
169 296 1
325 296 1
341 296 1
470 296 1
482 296 1
528 296 1
529 296 1
152 297 1
170 297 1
326 297 1
342 297 1
471 297 1
483 297 1
529 297 1
530 297 1
153 298 1
171 298 1
327 298 1
343 298 1
472 298 1
484 298 1
530 298 1
531 298 1
154 299 1
172 299 1
328 299 1
344 299 1
473 299 1
485 299 1
531 299 1
532 299 1
155 300 1
173 300 1
329 300 1
345 300 1
474 300 1
486 300 1
532 300 1
533 300 1
156 301 1
174 301 1
330 301 1
346 301 1
475 301 1
487 301 1
533 301 1
534 301 1
146 302 1
157 302 1
331 302 1
347 302 1
476 302 1
488 302 1
534 302 1
535 302 1
147 303 1
158 303 1
332 303 1
348 303 1
477 303 1
489 303 1
535 303 1
536 303 1
148 304 1
159 304 1
320 304 1
333 304 1
478 304 1
490 304 1
536 304 1
537 304 1
149 305 1
160 305 1
321 305 1
334 305 1
479 305 1
491 305 1
537 305 1
538 305 1
150 306 1
161 306 1
322 306 1
335 306 1
480 306 1
492 306 1
538 306 1
539 306 1
151 307 1
162 307 1
323 307 1
336 307 1
481 307 1
493 307 1
539 307 1
540 307 1
152 308 1
163 308 1
324 308 1
337 308 1
465 308 1
482 308 1
540 308 1
541 308 1
153 309 1
164 309 1
325 309 1
338 309 1
466 309 1
483 309 1
541 309 1
542 309 1
154 310 1
165 310 1
326 310 1
339 310 1
467 310 1
484 310 1
542 310 1
543 310 1
155 311 1
166 311 1
327 311 1
340 311 1
468 311 1
485 311 1
543 311 1
544 311 1
156 312 1
167 312 1
328 312 1
341 312 1
469 312 1
486 312 1
544 312 1
545 312 1
157 313 1
168 313 1
329 313 1
342 313 1
470 313 1
487 313 1
545 313 1
546 313 1
158 314 1
169 314 1
330 314 1
343 314 1
471 314 1
488 314 1
546 314 1
547 314 1
159 315 1
170 315 1
331 315 1
344 315 1
472 315 1
489 315 1
547 315 1
548 315 1
160 316 1
171 316 1
332 316 1
345 316 1
473 316 1
490 316 1
548 316 1
549 316 1
161 317 1
172 317 1
333 317 1
346 317 1
474 317 1
491 317 1
549 317 1
550 317 1
162 318 1
173 318 1
334 318 1
347 318 1
475 318 1
492 318 1
550 318 1
551 318 1
163 319 1
174 319 1
335 319 1
348 319 1
476 319 1
493 319 1
523 319 1
551 319 1
175 320 1
193 320 1
349 320 1
365 320 1
494 320 1
506 320 1
523 320 1
532 320 1
176 321 1
194 321 1
350 321 1
366 321 1
495 321 1
507 321 1
524 321 1
533 321 1
177 322 1
195 322 1
351 322 1
367 322 1
496 322 1
508 322 1
525 322 1
534 322 1
178 323 1
196 323 1
352 323 1
368 323 1
497 323 1
509 323 1
526 323 1
535 323 1
179 324 1
197 324 1
353 324 1
369 324 1
498 324 1
510 324 1
527 324 1
536 324 1
180 325 1
198 325 1
354 325 1
370 325 1
499 325 1
511 325 1
528 325 1
537 325 1
181 326 1
199 326 1
355 326 1
371 326 1
500 326 1
512 326 1
529 326 1
538 326 1
182 327 1
200 327 1
356 327 1
372 327 1
501 327 1
513 327 1
530 327 1
539 327 1
183 328 1
201 328 1
357 328 1
373 328 1
502 328 1
514 328 1
531 328 1
540 328 1
184 329 1
202 329 1
358 329 1
374 329 1
503 329 1
515 329 1
532 329 1
541 329 1
185 330 1
203 330 1
359 330 1
375 330 1
504 330 1
516 330 1
533 330 1
542 330 1
175 331 1
186 331 1
360 331 1
376 331 1
505 331 1
517 331 1
534 331 1
543 331 1
176 332 1
187 332 1
361 332 1
377 332 1
506 332 1
518 332 1
535 332 1
544 332 1
177 333 1
188 333 1
349 333 1
362 333 1
507 333 1
519 333 1
536 333 1
545 333 1
178 334 1
189 334 1
350 334 1
363 334 1
508 334 1
520 334 1
537 334 1
546 334 1
179 335 1
190 335 1
351 335 1
364 335 1
509 335 1
521 335 1
538 335 1
547 335 1
180 336 1
191 336 1
352 336 1
365 336 1
510 336 1
522 336 1
539 336 1
548 336 1
181 337 1
192 337 1
353 337 1
366 337 1
494 337 1
511 337 1
540 337 1
549 337 1
182 338 1
193 338 1
354 338 1
367 338 1
495 338 1
512 338 1
541 338 1
550 338 1
183 339 1
194 339 1
355 339 1
368 339 1
496 339 1
513 339 1
542 339 1
551 339 1
184 340 1
195 340 1
356 340 1
369 340 1
497 340 1
514 340 1
523 340 1
543 340 1
185 341 1
196 341 1
357 341 1
370 341 1
498 341 1
515 341 1
524 341 1
544 341 1
186 342 1
197 342 1
358 342 1
371 342 1
499 342 1
516 342 1
525 342 1
545 342 1
187 343 1
198 343 1
359 343 1
372 343 1
500 343 1
517 343 1
526 343 1
546 343 1
188 344 1
199 344 1
360 344 1
373 344 1
501 344 1
518 344 1
527 344 1
547 344 1
189 345 1
200 345 1
361 345 1
374 345 1
502 345 1
519 345 1
528 345 1
548 345 1
190 346 1
201 346 1
362 346 1
375 346 1
503 346 1
520 346 1
529 346 1
549 346 1
191 347 1
202 347 1
363 347 1
376 347 1
504 347 1
521 347 1
530 347 1
550 347 1
192 348 1
203 348 1
364 348 1
377 348 1
505 348 1
522 348 1
531 348 1
551 348 1
204 349 1
222 349 1
378 349 1
394 349 1
465 349 1
480 349 1
552 349 1
553 349 1
205 350 1
223 350 1
379 350 1
395 350 1
466 350 1
481 350 1
553 350 1
554 350 1
206 351 1
224 351 1
380 351 1
396 351 1
467 351 1
482 351 1
554 351 1
555 351 1
207 352 1
225 352 1
381 352 1
397 352 1
468 352 1
483 352 1
555 352 1
556 352 1
208 353 1
226 353 1
382 353 1
398 353 1
469 353 1
484 353 1
556 353 1
557 353 1
209 354 1
227 354 1
383 354 1
399 354 1
470 354 1
485 354 1
557 354 1
558 354 1
210 355 1
228 355 1
384 355 1
400 355 1
471 355 1
486 355 1
558 355 1
559 355 1
211 356 1
229 356 1
385 356 1
401 356 1
472 356 1
487 356 1
559 356 1
560 356 1
212 357 1
230 357 1
386 357 1
402 357 1
473 357 1
488 357 1
560 357 1
561 357 1
213 358 1
231 358 1
387 358 1
403 358 1
474 358 1
489 358 1
561 358 1
562 358 1
214 359 1
232 359 1
388 359 1
404 359 1
475 359 1
490 359 1
562 359 1
563 359 1
204 360 1
215 360 1
389 360 1
405 360 1
476 360 1
491 360 1
563 360 1
564 360 1
205 361 1
216 361 1
390 361 1
406 361 1
477 361 1
492 361 1
564 361 1
565 361 1
206 362 1
217 362 1
378 362 1
391 362 1
478 362 1
493 362 1
565 362 1
566 362 1
207 363 1
218 363 1
379 363 1
392 363 1
465 363 1
479 363 1
566 363 1
567 363 1
208 364 1
219 364 1
380 364 1
393 364 1
466 364 1
480 364 1
567 364 1
568 364 1
209 365 1
220 365 1
381 365 1
394 365 1
467 365 1
481 365 1
568 365 1
569 365 1
210 366 1
221 366 1
382 366 1
395 366 1
468 366 1
482 366 1
569 366 1
570 366 1
211 367 1
222 367 1
383 367 1
396 367 1
469 367 1
483 367 1
570 367 1
571 367 1
212 368 1
223 368 1
384 368 1
397 368 1
470 368 1
484 368 1
571 368 1
572 368 1
213 369 1
224 369 1
385 369 1
398 369 1
471 369 1
485 369 1
572 369 1
573 369 1
214 370 1
225 370 1
386 370 1
399 370 1
472 370 1
486 370 1
573 370 1
574 370 1
215 371 1
226 371 1
387 371 1
400 371 1
473 371 1
487 371 1
574 371 1
575 371 1
216 372 1
227 372 1
388 372 1
401 372 1
474 372 1
488 372 1
575 372 1
576 372 1
217 373 1
228 373 1
389 373 1
402 373 1
475 373 1
489 373 1
576 373 1
577 373 1
218 374 1
229 374 1
390 374 1
403 374 1
476 374 1
490 374 1
577 374 1
578 374 1
219 375 1
230 375 1
391 375 1
404 375 1
477 375 1
491 375 1
578 375 1
579 375 1
220 376 1
231 376 1
392 376 1
405 376 1
478 376 1
492 376 1
579 376 1
580 376 1
221 377 1
232 377 1
393 377 1
406 377 1
479 377 1
493 377 1
552 377 1
580 377 1
233 378 1
251 378 1
407 378 1
423 378 1
494 378 1
509 378 1
552 378 1
561 378 1
234 379 1
252 379 1
408 379 1
424 379 1
495 379 1
510 379 1
553 379 1
562 379 1
235 380 1
253 380 1
409 380 1
425 380 1
496 380 1
511 380 1
554 380 1
563 380 1
236 381 1
254 381 1
410 381 1
426 381 1
497 381 1
512 381 1
555 381 1
564 381 1
237 382 1
255 382 1
411 382 1
427 382 1
498 382 1
513 382 1
556 382 1
565 382 1
238 383 1
256 383 1
412 383 1
428 383 1
499 383 1
514 383 1
557 383 1
566 383 1
239 384 1
257 384 1
413 384 1
429 384 1
500 384 1
515 384 1
558 384 1
567 384 1
240 385 1
258 385 1
414 385 1
430 385 1
501 385 1
516 385 1
559 385 1
568 385 1
241 386 1
259 386 1
415 386 1
431 386 1
502 386 1
517 386 1
560 386 1
569 386 1
242 387 1
260 387 1
416 387 1
432 387 1
503 387 1
518 387 1
561 387 1
570 387 1
243 388 1
261 388 1
417 388 1
433 388 1
504 388 1
519 388 1
562 388 1
571 388 1
233 389 1
244 389 1
418 389 1
434 389 1
505 389 1
520 389 1
563 389 1
572 389 1
234 390 1
245 390 1
419 390 1
435 390 1
506 390 1
521 390 1
564 390 1
573 390 1
235 391 1
246 391 1
407 391 1
420 391 1
507 391 1
522 391 1
565 391 1
574 391 1
236 392 1
247 392 1
408 392 1
421 392 1
494 392 1
508 392 1
566 392 1
575 392 1
237 393 1
248 393 1
409 393 1
422 393 1
495 393 1
509 393 1
567 393 1
576 393 1
238 394 1
249 394 1
410 394 1
423 394 1
496 394 1
510 394 1
568 394 1
577 394 1
239 395 1
250 395 1
411 395 1
424 395 1
497 395 1
511 395 1
569 395 1
578 395 1
240 396 1
251 396 1
412 396 1
425 396 1
498 396 1
512 396 1
570 396 1
579 396 1
241 397 1
252 397 1
413 397 1
426 397 1
499 397 1
513 397 1
571 397 1
580 397 1
242 398 1
253 398 1
414 398 1
427 398 1
500 398 1
514 398 1
552 398 1
572 398 1
243 399 1
254 399 1
415 399 1
428 399 1
501 399 1
515 399 1
553 399 1
573 399 1
244 400 1
255 400 1
416 400 1
429 400 1
502 400 1
516 400 1
554 400 1
574 400 1
245 401 1
256 401 1
417 401 1
430 401 1
503 401 1
517 401 1
555 401 1
575 401 1
246 402 1
257 402 1
418 402 1
431 402 1
504 402 1
518 402 1
556 402 1
576 402 1
247 403 1
258 403 1
419 403 1
432 403 1
505 403 1
519 403 1
557 403 1
577 403 1
248 404 1
259 404 1
420 404 1
433 404 1
506 404 1
520 404 1
558 404 1
578 404 1
249 405 1
260 405 1
421 405 1
434 405 1
507 405 1
521 405 1
559 405 1
579 405 1
250 406 1
261 406 1
422 406 1
435 406 1
508 406 1
522 406 1
560 406 1
580 406 1
262 407 1
280 407 1
436 407 1
452 407 1
523 407 1
538 407 1
552 407 1
564 407 1
263 408 1
281 408 1
437 408 1
453 408 1
524 408 1
539 408 1
553 408 1
565 408 1
264 409 1
282 409 1
438 409 1
454 409 1
525 409 1
540 409 1
554 409 1
566 409 1
265 410 1
283 410 1
439 410 1
455 410 1
526 410 1
541 410 1
555 410 1
567 410 1
266 411 1
284 411 1
440 411 1
456 411 1
527 411 1
542 411 1
556 411 1
568 411 1
267 412 1
285 412 1
441 412 1
457 412 1
528 412 1
543 412 1
557 412 1
569 412 1
268 413 1
286 413 1
442 413 1
458 413 1
529 413 1
544 413 1
558 413 1
570 413 1
269 414 1
287 414 1
443 414 1
459 414 1
530 414 1
545 414 1
559 414 1
571 414 1
270 415 1
288 415 1
444 415 1
460 415 1
531 415 1
546 415 1
560 415 1
572 415 1
271 416 1
289 416 1
445 416 1
461 416 1
532 416 1
547 416 1
561 416 1
573 416 1
272 417 1
290 417 1
446 417 1
462 417 1
533 417 1
548 417 1
562 417 1
574 417 1
262 418 1
273 418 1
447 418 1
463 418 1
534 418 1
549 418 1
563 418 1
575 418 1
263 419 1
274 419 1
448 419 1
464 419 1
535 419 1
550 419 1
564 419 1
576 419 1
264 420 1
275 420 1
436 420 1
449 420 1
536 420 1
551 420 1
565 420 1
577 420 1
265 421 1
276 421 1
437 421 1
450 421 1
523 421 1
537 421 1
566 421 1
578 421 1
266 422 1
277 422 1
438 422 1
451 422 1
524 422 1
538 422 1
567 422 1
579 422 1
267 423 1
278 423 1
439 423 1
452 423 1
525 423 1
539 423 1
568 423 1
580 423 1
268 424 1
279 424 1
440 424 1
453 424 1
526 424 1
540 424 1
552 424 1
569 424 1
269 425 1
280 425 1
441 425 1
454 425 1
527 425 1
541 425 1
553 425 1
570 425 1
270 426 1
281 426 1
442 426 1
455 426 1
528 426 1
542 426 1
554 426 1
571 426 1
271 427 1
282 427 1
443 427 1
456 427 1
529 427 1
543 427 1
555 427 1
572 427 1
272 428 1
283 428 1
444 428 1
457 428 1
530 428 1
544 428 1
556 428 1
573 428 1
273 429 1
284 429 1
445 429 1
458 429 1
531 429 1
545 429 1
557 429 1
574 429 1
274 430 1
285 430 1
446 430 1
459 430 1
532 430 1
546 430 1
558 430 1
575 430 1
275 431 1
286 431 1
447 431 1
460 431 1
533 431 1
547 431 1
559 431 1
576 431 1
276 432 1
287 432 1
448 432 1
461 432 1
534 432 1
548 432 1
560 432 1
577 432 1
277 433 1
288 433 1
449 433 1
462 433 1
535 433 1
549 433 1
561 433 1
578 433 1
278 434 1
289 434 1
450 434 1
463 434 1
536 434 1
550 434 1
562 434 1
579 434 1
279 435 1
290 435 1
451 435 1
464 435 1
537 435 1
551 435 1
563 435 1
580 435 1
1 436 1
23 436 1
581 436 1
593 436 1
610 436 1
619 436 1
639 436 1
640 436 1
2 437 1
24 437 1
582 437 1
594 437 1
611 437 1
620 437 1
640 437 1
641 437 1
3 438 1
25 438 1
583 438 1
595 438 1
612 438 1
621 438 1
641 438 1
642 438 1
4 439 1
26 439 1
584 439 1
596 439 1
613 439 1
622 439 1
642 439 1
643 439 1
5 440 1
27 440 1
585 440 1
597 440 1
614 440 1
623 440 1
643 440 1
644 440 1
6 441 1
28 441 1
586 441 1
598 441 1
615 441 1
624 441 1
644 441 1
645 441 1
7 442 1
29 442 1
587 442 1
599 442 1
616 442 1
625 442 1
645 442 1
646 442 1
1 443 1
8 443 1
588 443 1
600 443 1
617 443 1
626 443 1
646 443 1
647 443 1
2 444 1
9 444 1
589 444 1
601 444 1
618 444 1
627 444 1
647 444 1
648 444 1
3 445 1
10 445 1
590 445 1
602 445 1
619 445 1
628 445 1
648 445 1
649 445 1
4 446 1
11 446 1
591 446 1
603 446 1
620 446 1
629 446 1
649 446 1
650 446 1
5 447 1
12 447 1
592 447 1
604 447 1
621 447 1
630 447 1
650 447 1
651 447 1
6 448 1
13 448 1
593 448 1
605 448 1
622 448 1
631 448 1
651 448 1
652 448 1
7 449 1
14 449 1
594 449 1
606 449 1
623 449 1
632 449 1
652 449 1
653 449 1
8 450 1
15 450 1
595 450 1
607 450 1
624 450 1
633 450 1
653 450 1
654 450 1
9 451 1
16 451 1
596 451 1
608 451 1
625 451 1
634 451 1
654 451 1
655 451 1
10 452 1
17 452 1
597 452 1
609 452 1
626 452 1
635 452 1
655 452 1
656 452 1
11 453 1
18 453 1
581 453 1
598 453 1
627 453 1
636 453 1
656 453 1
657 453 1
12 454 1
19 454 1
582 454 1
599 454 1
628 454 1
637 454 1
657 454 1
658 454 1
13 455 1
20 455 1
583 455 1
600 455 1
629 455 1
638 455 1
658 455 1
659 455 1
14 456 1
21 456 1
584 456 1
601 456 1
610 456 1
630 456 1
659 456 1
660 456 1
15 457 1
22 457 1
585 457 1
602 457 1
611 457 1
631 457 1
660 457 1
661 457 1
16 458 1
23 458 1
586 458 1
603 458 1
612 458 1
632 458 1
661 458 1
662 458 1
17 459 1
24 459 1
587 459 1
604 459 1
613 459 1
633 459 1
662 459 1
663 459 1
18 460 1
25 460 1
588 460 1
605 460 1
614 460 1
634 460 1
663 460 1
664 460 1
19 461 1
26 461 1
589 461 1
606 461 1
615 461 1
635 461 1
664 461 1
665 461 1
20 462 1
27 462 1
590 462 1
607 462 1
616 462 1
636 462 1
665 462 1
666 462 1
21 463 1
28 463 1
591 463 1
608 463 1
617 463 1
637 463 1
666 463 1
667 463 1
22 464 1
29 464 1
592 464 1
609 464 1
618 464 1
638 464 1
639 464 1
667 464 1
30 465 1
52 465 1
581 465 1
596 465 1
668 465 1
677 465 1
697 465 1
698 465 1
31 466 1
53 466 1
582 466 1
597 466 1
669 466 1
678 466 1
698 466 1
699 466 1
32 467 1
54 467 1
583 467 1
598 467 1
670 467 1
679 467 1
699 467 1
700 467 1
33 468 1
55 468 1
584 468 1
599 468 1
671 468 1
680 468 1
700 468 1
701 468 1
34 469 1
56 469 1
585 469 1
600 469 1
672 469 1
681 469 1
701 469 1
702 469 1
35 470 1
57 470 1
586 470 1
601 470 1
673 470 1
682 470 1
702 470 1
703 470 1
36 471 1
58 471 1
587 471 1
602 471 1
674 471 1
683 471 1
703 471 1
704 471 1
30 472 1
37 472 1
588 472 1
603 472 1
675 472 1
684 472 1
704 472 1
705 472 1
31 473 1
38 473 1
589 473 1
604 473 1
676 473 1
685 473 1
705 473 1
706 473 1
32 474 1
39 474 1
590 474 1
605 474 1
677 474 1
686 474 1
706 474 1
707 474 1
33 475 1
40 475 1
591 475 1
606 475 1
678 475 1
687 475 1
707 475 1
708 475 1
34 476 1
41 476 1
592 476 1
607 476 1
679 476 1
688 476 1
708 476 1
709 476 1
35 477 1
42 477 1
593 477 1
608 477 1
680 477 1
689 477 1
709 477 1
710 477 1
36 478 1
43 478 1
594 478 1
609 478 1
681 478 1
690 478 1
710 478 1
711 478 1
37 479 1
44 479 1
581 479 1
595 479 1
682 479 1
691 479 1
711 479 1
712 479 1
38 480 1
45 480 1
582 480 1
596 480 1
683 480 1
692 480 1
712 480 1
713 480 1
39 481 1
46 481 1
583 481 1
597 481 1
684 481 1
693 481 1
713 481 1
714 481 1
40 482 1
47 482 1
584 482 1
598 482 1
685 482 1
694 482 1
714 482 1
715 482 1
41 483 1
48 483 1
585 483 1
599 483 1
686 483 1
695 483 1
715 483 1
716 483 1
42 484 1
49 484 1
586 484 1
600 484 1
687 484 1
696 484 1
716 484 1
717 484 1
43 485 1
50 485 1
587 485 1
601 485 1
668 485 1
688 485 1
717 485 1
718 485 1
44 486 1
51 486 1
588 486 1
602 486 1
669 486 1
689 486 1
718 486 1
719 486 1
45 487 1
52 487 1
589 487 1
603 487 1
670 487 1
690 487 1
719 487 1
720 487 1
46 488 1
53 488 1
590 488 1
604 488 1
671 488 1
691 488 1
720 488 1
721 488 1
47 489 1
54 489 1
591 489 1
605 489 1
672 489 1
692 489 1
721 489 1
722 489 1
48 490 1
55 490 1
592 490 1
606 490 1
673 490 1
693 490 1
722 490 1
723 490 1
49 491 1
56 491 1
593 491 1
607 491 1
674 491 1
694 491 1
723 491 1
724 491 1
50 492 1
57 492 1
594 492 1
608 492 1
675 492 1
695 492 1
724 492 1
725 492 1
51 493 1
58 493 1
595 493 1
609 493 1
676 493 1
696 493 1
697 493 1
725 493 1
59 494 1
81 494 1
610 494 1
625 494 1
668 494 1
680 494 1
726 494 1
727 494 1
60 495 1
82 495 1
611 495 1
626 495 1
669 495 1
681 495 1
727 495 1
728 495 1
61 496 1
83 496 1
612 496 1
627 496 1
670 496 1
682 496 1
728 496 1
729 496 1
62 497 1
84 497 1
613 497 1
628 497 1
671 497 1
683 497 1
729 497 1
730 497 1
63 498 1
85 498 1
614 498 1
629 498 1
672 498 1
684 498 1
730 498 1
731 498 1
64 499 1
86 499 1
615 499 1
630 499 1
673 499 1
685 499 1
731 499 1
732 499 1
65 500 1
87 500 1
616 500 1
631 500 1
674 500 1
686 500 1
732 500 1
733 500 1
59 501 1
66 501 1
617 501 1
632 501 1
675 501 1
687 501 1
733 501 1
734 501 1
60 502 1
67 502 1
618 502 1
633 502 1
676 502 1
688 502 1
734 502 1
735 502 1
61 503 1
68 503 1
619 503 1
634 503 1
677 503 1
689 503 1
735 503 1
736 503 1
62 504 1
69 504 1
620 504 1
635 504 1
678 504 1
690 504 1
736 504 1
737 504 1
63 505 1
70 505 1
621 505 1
636 505 1
679 505 1
691 505 1
737 505 1
738 505 1
64 506 1
71 506 1
622 506 1
637 506 1
680 506 1
692 506 1
738 506 1
739 506 1
65 507 1
72 507 1
623 507 1
638 507 1
681 507 1
693 507 1
739 507 1
740 507 1
66 508 1
73 508 1
610 508 1
624 508 1
682 508 1
694 508 1
740 508 1
741 508 1
67 509 1
74 509 1
611 509 1
625 509 1
683 509 1
695 509 1
741 509 1
742 509 1
68 510 1
75 510 1
612 510 1
626 510 1
684 510 1
696 510 1
742 510 1
743 510 1
69 511 1
76 511 1
613 511 1
627 511 1
668 511 1
685 511 1
743 511 1
744 511 1
70 512 1
77 512 1
614 512 1
628 512 1
669 512 1
686 512 1
744 512 1
745 512 1
71 513 1
78 513 1
615 513 1
629 513 1
670 513 1
687 513 1
745 513 1
746 513 1
72 514 1
79 514 1
616 514 1
630 514 1
671 514 1
688 514 1
746 514 1
747 514 1
73 515 1
80 515 1
617 515 1
631 515 1
672 515 1
689 515 1
747 515 1
748 515 1
74 516 1
81 516 1
618 516 1
632 516 1
673 516 1
690 516 1
748 516 1
749 516 1
75 517 1
82 517 1
619 517 1
633 517 1
674 517 1
691 517 1
749 517 1
750 517 1
76 518 1
83 518 1
620 518 1
634 518 1
675 518 1
692 518 1
750 518 1
751 518 1
77 519 1
84 519 1
621 519 1
635 519 1
676 519 1
693 519 1
751 519 1
752 519 1
78 520 1
85 520 1
622 520 1
636 520 1
677 520 1
694 520 1
752 520 1
753 520 1
79 521 1
86 521 1
623 521 1
637 521 1
678 521 1
695 521 1
753 521 1
754 521 1
80 522 1
87 522 1
624 522 1
638 522 1
679 522 1
696 522 1
726 522 1
754 522 1
88 523 1
110 523 1
639 523 1
654 523 1
697 523 1
709 523 1
726 523 1
735 523 1
89 524 1
111 524 1
640 524 1
655 524 1
698 524 1
710 524 1
727 524 1
736 524 1
90 525 1
112 525 1
641 525 1
656 525 1
699 525 1
711 525 1
728 525 1
737 525 1
91 526 1
113 526 1
642 526 1
657 526 1
700 526 1
712 526 1
729 526 1
738 526 1
92 527 1
114 527 1
643 527 1
658 527 1
701 527 1
713 527 1
730 527 1
739 527 1
93 528 1
115 528 1
644 528 1
659 528 1
702 528 1
714 528 1
731 528 1
740 528 1
94 529 1
116 529 1
645 529 1
660 529 1
703 529 1
715 529 1
732 529 1
741 529 1
88 530 1
95 530 1
646 530 1
661 530 1
704 530 1
716 530 1
733 530 1
742 530 1
89 531 1
96 531 1
647 531 1
662 531 1
705 531 1
717 531 1
734 531 1
743 531 1
90 532 1
97 532 1
648 532 1
663 532 1
706 532 1
718 532 1
735 532 1
744 532 1
91 533 1
98 533 1
649 533 1
664 533 1
707 533 1
719 533 1
736 533 1
745 533 1
92 534 1
99 534 1
650 534 1
665 534 1
708 534 1
720 534 1
737 534 1
746 534 1
93 535 1
100 535 1
651 535 1
666 535 1
709 535 1
721 535 1
738 535 1
747 535 1
94 536 1
101 536 1
652 536 1
667 536 1
710 536 1
722 536 1
739 536 1
748 536 1
95 537 1
102 537 1
639 537 1
653 537 1
711 537 1
723 537 1
740 537 1
749 537 1
96 538 1
103 538 1
640 538 1
654 538 1
712 538 1
724 538 1
741 538 1
750 538 1
97 539 1
104 539 1
641 539 1
655 539 1
713 539 1
725 539 1
742 539 1
751 539 1
98 540 1
105 540 1
642 540 1
656 540 1
697 540 1
714 540 1
743 540 1
752 540 1
99 541 1
106 541 1
643 541 1
657 541 1
698 541 1
715 541 1
744 541 1
753 541 1
100 542 1
107 542 1
644 542 1
658 542 1
699 542 1
716 542 1
745 542 1
754 542 1
101 543 1
108 543 1
645 543 1
659 543 1
700 543 1
717 543 1
726 543 1
746 543 1
102 544 1
109 544 1
646 544 1
660 544 1
701 544 1
718 544 1
727 544 1
747 544 1
103 545 1
110 545 1
647 545 1
661 545 1
702 545 1
719 545 1
728 545 1
748 545 1
104 546 1
111 546 1
648 546 1
662 546 1
703 546 1
720 546 1
729 546 1
749 546 1
105 547 1
112 547 1
649 547 1
663 547 1
704 547 1
721 547 1
730 547 1
750 547 1
106 548 1
113 548 1
650 548 1
664 548 1
705 548 1
722 548 1
731 548 1
751 548 1
107 549 1
114 549 1
651 549 1
665 549 1
706 549 1
723 549 1
732 549 1
752 549 1
108 550 1
115 550 1
652 550 1
666 550 1
707 550 1
724 550 1
733 550 1
753 550 1
109 551 1
116 551 1
653 551 1
667 551 1
708 551 1
725 551 1
734 551 1
754 551 1
117 552 1
139 552 1
581 552 1
597 552 1
755 552 1
764 552 1
784 552 1
785 552 1
118 553 1
140 553 1
582 553 1
598 553 1
756 553 1
765 553 1
785 553 1
786 553 1
119 554 1
141 554 1
583 554 1
599 554 1
757 554 1
766 554 1
786 554 1
787 554 1
120 555 1
142 555 1
584 555 1
600 555 1
758 555 1
767 555 1
787 555 1
788 555 1
121 556 1
143 556 1
585 556 1
601 556 1
759 556 1
768 556 1
788 556 1
789 556 1
122 557 1
144 557 1
586 557 1
602 557 1
760 557 1
769 557 1
789 557 1
790 557 1
123 558 1
145 558 1
587 558 1
603 558 1
761 558 1
770 558 1
790 558 1
791 558 1
117 559 1
124 559 1
588 559 1
604 559 1
762 559 1
771 559 1
791 559 1
792 559 1
118 560 1
125 560 1
589 560 1
605 560 1
763 560 1
772 560 1
792 560 1
793 560 1
119 561 1
126 561 1
590 561 1
606 561 1
764 561 1
773 561 1
793 561 1
794 561 1
120 562 1
127 562 1
591 562 1
607 562 1
765 562 1
774 562 1
794 562 1
795 562 1
121 563 1
128 563 1
592 563 1
608 563 1
766 563 1
775 563 1
795 563 1
796 563 1
122 564 1
129 564 1
593 564 1
609 564 1
767 564 1
776 564 1
796 564 1
797 564 1
123 565 1
130 565 1
581 565 1
594 565 1
768 565 1
777 565 1
797 565 1
798 565 1
124 566 1
131 566 1
582 566 1
595 566 1
769 566 1
778 566 1
798 566 1
799 566 1
125 567 1
132 567 1
583 567 1
596 567 1
770 567 1
779 567 1
799 567 1
800 567 1
126 568 1
133 568 1
584 568 1
597 568 1
771 568 1
780 568 1
800 568 1
801 568 1
127 569 1
134 569 1
585 569 1
598 569 1
772 569 1
781 569 1
801 569 1
802 569 1
128 570 1
135 570 1
586 570 1
599 570 1
773 570 1
782 570 1
802 570 1
803 570 1
129 571 1
136 571 1
587 571 1
600 571 1
774 571 1
783 571 1
803 571 1
804 571 1
130 572 1
137 572 1
588 572 1
601 572 1
755 572 1
775 572 1
804 572 1
805 572 1
131 573 1
138 573 1
589 573 1
602 573 1
756 573 1
776 573 1
805 573 1
806 573 1
132 574 1
139 574 1
590 574 1
603 574 1
757 574 1
777 574 1
806 574 1
807 574 1
133 575 1
140 575 1
591 575 1
604 575 1
758 575 1
778 575 1
807 575 1
808 575 1
134 576 1
141 576 1
592 576 1
605 576 1
759 576 1
779 576 1
808 576 1
809 576 1
135 577 1
142 577 1
593 577 1
606 577 1
760 577 1
780 577 1
809 577 1
810 577 1
136 578 1
143 578 1
594 578 1
607 578 1
761 578 1
781 578 1
810 578 1
811 578 1
137 579 1
144 579 1
595 579 1
608 579 1
762 579 1
782 579 1
811 579 1
812 579 1
138 580 1
145 580 1
596 580 1
609 580 1
763 580 1
783 580 1
784 580 1
812 580 1
146 581 1
168 581 1
610 581 1
626 581 1
755 581 1
767 581 1
813 581 1
814 581 1
147 582 1
169 582 1
611 582 1
627 582 1
756 582 1
768 582 1
814 582 1
815 582 1
148 583 1
170 583 1
612 583 1
628 583 1
757 583 1
769 583 1
815 583 1
816 583 1
149 584 1
171 584 1
613 584 1
629 584 1
758 584 1
770 584 1
816 584 1
817 584 1
150 585 1
172 585 1
614 585 1
630 585 1
759 585 1
771 585 1
817 585 1
818 585 1
151 586 1
173 586 1
615 586 1
631 586 1
760 586 1
772 586 1
818 586 1
819 586 1
152 587 1
174 587 1
616 587 1
632 587 1
761 587 1
773 587 1
819 587 1
820 587 1
146 588 1
153 588 1
617 588 1
633 588 1
762 588 1
774 588 1
820 588 1
821 588 1
147 589 1
154 589 1
618 589 1
634 589 1
763 589 1
775 589 1
821 589 1
822 589 1
148 590 1
155 590 1
619 590 1
635 590 1
764 590 1
776 590 1
822 590 1
823 590 1
149 591 1
156 591 1
620 591 1
636 591 1
765 591 1
777 591 1
823 591 1
824 591 1
150 592 1
157 592 1
621 592 1
637 592 1
766 592 1
778 592 1
824 592 1
825 592 1
151 593 1
158 593 1
622 593 1
638 593 1
767 593 1
779 593 1
825 593 1
826 593 1
152 594 1
159 594 1
610 594 1
623 594 1
768 594 1
780 594 1
826 594 1
827 594 1
153 595 1
160 595 1
611 595 1
624 595 1
769 595 1
781 595 1
827 595 1
828 595 1
154 596 1
161 596 1
612 596 1
625 596 1
770 596 1
782 596 1
828 596 1
829 596 1
155 597 1
162 597 1
613 597 1
626 597 1
771 597 1
783 597 1
829 597 1
830 597 1
156 598 1
163 598 1
614 598 1
627 598 1
755 598 1
772 598 1
830 598 1
831 598 1
157 599 1
164 599 1
615 599 1
628 599 1
756 599 1
773 599 1
831 599 1
832 599 1
158 600 1
165 600 1
616 600 1
629 600 1
757 600 1
774 600 1
832 600 1
833 600 1
159 601 1
166 601 1
617 601 1
630 601 1
758 601 1
775 601 1
833 601 1
834 601 1
160 602 1
167 602 1
618 602 1
631 602 1
759 602 1
776 602 1
834 602 1
835 602 1
161 603 1
168 603 1
619 603 1
632 603 1
760 603 1
777 603 1
835 603 1
836 603 1
162 604 1
169 604 1
620 604 1
633 604 1
761 604 1
778 604 1
836 604 1
837 604 1
163 605 1
170 605 1
621 605 1
634 605 1
762 605 1
779 605 1
837 605 1
838 605 1
164 606 1
171 606 1
622 606 1
635 606 1
763 606 1
780 606 1
838 606 1
839 606 1
165 607 1
172 607 1
623 607 1
636 607 1
764 607 1
781 607 1
839 607 1
840 607 1
166 608 1
173 608 1
624 608 1
637 608 1
765 608 1
782 608 1
840 608 1
841 608 1
167 609 1
174 609 1
625 609 1
638 609 1
766 609 1
783 609 1
813 609 1
841 609 1
175 610 1
197 610 1
639 610 1
655 610 1
784 610 1
796 610 1
813 610 1
822 610 1
176 611 1
198 611 1
640 611 1
656 611 1
785 611 1
797 611 1
814 611 1
823 611 1
177 612 1
199 612 1
641 612 1
657 612 1
786 612 1
798 612 1
815 612 1
824 612 1
178 613 1
200 613 1
642 613 1
658 613 1
787 613 1
799 613 1
816 613 1
825 613 1
179 614 1
201 614 1
643 614 1
659 614 1
788 614 1
800 614 1
817 614 1
826 614 1
180 615 1
202 615 1
644 615 1
660 615 1
789 615 1
801 615 1
818 615 1
827 615 1
181 616 1
203 616 1
645 616 1
661 616 1
790 616 1
802 616 1
819 616 1
828 616 1
175 617 1
182 617 1
646 617 1
662 617 1
791 617 1
803 617 1
820 617 1
829 617 1
176 618 1
183 618 1
647 618 1
663 618 1
792 618 1
804 618 1
821 618 1
830 618 1
177 619 1
184 619 1
648 619 1
664 619 1
793 619 1
805 619 1
822 619 1
831 619 1
178 620 1
185 620 1
649 620 1
665 620 1
794 620 1
806 620 1
823 620 1
832 620 1
179 621 1
186 621 1
650 621 1
666 621 1
795 621 1
807 621 1
824 621 1
833 621 1
180 622 1
187 622 1
651 622 1
667 622 1
796 622 1
808 622 1
825 622 1
834 622 1
181 623 1
188 623 1
639 623 1
652 623 1
797 623 1
809 623 1
826 623 1
835 623 1
182 624 1
189 624 1
640 624 1
653 624 1
798 624 1
810 624 1
827 624 1
836 624 1
183 625 1
190 625 1
641 625 1
654 625 1
799 625 1
811 625 1
828 625 1
837 625 1
184 626 1
191 626 1
642 626 1
655 626 1
800 626 1
812 626 1
829 626 1
838 626 1
185 627 1
192 627 1
643 627 1
656 627 1
784 627 1
801 627 1
830 627 1
839 627 1
186 628 1
193 628 1
644 628 1
657 628 1
785 628 1
802 628 1
831 628 1
840 628 1
187 629 1
194 629 1
645 629 1
658 629 1
786 629 1
803 629 1
832 629 1
841 629 1
188 630 1
195 630 1
646 630 1
659 630 1
787 630 1
804 630 1
813 630 1
833 630 1
189 631 1
196 631 1
647 631 1
660 631 1
788 631 1
805 631 1
814 631 1
834 631 1
190 632 1
197 632 1
648 632 1
661 632 1
789 632 1
806 632 1
815 632 1
835 632 1
191 633 1
198 633 1
649 633 1
662 633 1
790 633 1
807 633 1
816 633 1
836 633 1
192 634 1
199 634 1
650 634 1
663 634 1
791 634 1
808 634 1
817 634 1
837 634 1
193 635 1
200 635 1
651 635 1
664 635 1
792 635 1
809 635 1
818 635 1
838 635 1
194 636 1
201 636 1
652 636 1
665 636 1
793 636 1
810 636 1
819 636 1
839 636 1
195 637 1
202 637 1
653 637 1
666 637 1
794 637 1
811 637 1
820 637 1
840 637 1
196 638 1
203 638 1
654 638 1
667 638 1
795 638 1
812 638 1
821 638 1
841 638 1
204 639 1
226 639 1
668 639 1
684 639 1
755 639 1
770 639 1
842 639 1
843 639 1
205 640 1
227 640 1
669 640 1
685 640 1
756 640 1
771 640 1
843 640 1
844 640 1
206 641 1
228 641 1
670 641 1
686 641 1
757 641 1
772 641 1
844 641 1
845 641 1
207 642 1
229 642 1
671 642 1
687 642 1
758 642 1
773 642 1
845 642 1
846 642 1
208 643 1
230 643 1
672 643 1
688 643 1
759 643 1
774 643 1
846 643 1
847 643 1
209 644 1
231 644 1
673 644 1
689 644 1
760 644 1
775 644 1
847 644 1
848 644 1
210 645 1
232 645 1
674 645 1
690 645 1
761 645 1
776 645 1
848 645 1
849 645 1
204 646 1
211 646 1
675 646 1
691 646 1
762 646 1
777 646 1
849 646 1
850 646 1
205 647 1
212 647 1
676 647 1
692 647 1
763 647 1
778 647 1
850 647 1
851 647 1
206 648 1
213 648 1
677 648 1
693 648 1
764 648 1
779 648 1
851 648 1
852 648 1
207 649 1
214 649 1
678 649 1
694 649 1
765 649 1
780 649 1
852 649 1
853 649 1
208 650 1
215 650 1
679 650 1
695 650 1
766 650 1
781 650 1
853 650 1
854 650 1
209 651 1
216 651 1
680 651 1
696 651 1
767 651 1
782 651 1
854 651 1
855 651 1
210 652 1
217 652 1
668 652 1
681 652 1
768 652 1
783 652 1
855 652 1
856 652 1
211 653 1
218 653 1
669 653 1
682 653 1
755 653 1
769 653 1
856 653 1
857 653 1
212 654 1
219 654 1
670 654 1
683 654 1
756 654 1
770 654 1
857 654 1
858 654 1
213 655 1
220 655 1
671 655 1
684 655 1
757 655 1
771 655 1
858 655 1
859 655 1
214 656 1
221 656 1
672 656 1
685 656 1
758 656 1
772 656 1
859 656 1
860 656 1
215 657 1
222 657 1
673 657 1
686 657 1
759 657 1
773 657 1
860 657 1
861 657 1
216 658 1
223 658 1
674 658 1
687 658 1
760 658 1
774 658 1
861 658 1
862 658 1
217 659 1
224 659 1
675 659 1
688 659 1
761 659 1
775 659 1
862 659 1
863 659 1
218 660 1
225 660 1
676 660 1
689 660 1
762 660 1
776 660 1
863 660 1
864 660 1
219 661 1
226 661 1
677 661 1
690 661 1
763 661 1
777 661 1
864 661 1
865 661 1
220 662 1
227 662 1
678 662 1
691 662 1
764 662 1
778 662 1
865 662 1
866 662 1
221 663 1
228 663 1
679 663 1
692 663 1
765 663 1
779 663 1
866 663 1
867 663 1
222 664 1
229 664 1
680 664 1
693 664 1
766 664 1
780 664 1
867 664 1
868 664 1
223 665 1
230 665 1
681 665 1
694 665 1
767 665 1
781 665 1
868 665 1
869 665 1
224 666 1
231 666 1
682 666 1
695 666 1
768 666 1
782 666 1
869 666 1
870 666 1
225 667 1
232 667 1
683 667 1
696 667 1
769 667 1
783 667 1
842 667 1
870 667 1
233 668 1
255 668 1
697 668 1
713 668 1
784 668 1
799 668 1
842 668 1
851 668 1
234 669 1
256 669 1
698 669 1
714 669 1
785 669 1
800 669 1
843 669 1
852 669 1
235 670 1
257 670 1
699 670 1
715 670 1
786 670 1
801 670 1
844 670 1
853 670 1
236 671 1
258 671 1
700 671 1
716 671 1
787 671 1
802 671 1
845 671 1
854 671 1
237 672 1
259 672 1
701 672 1
717 672 1
788 672 1
803 672 1
846 672 1
855 672 1
238 673 1
260 673 1
702 673 1
718 673 1
789 673 1
804 673 1
847 673 1
856 673 1
239 674 1
261 674 1
703 674 1
719 674 1
790 674 1
805 674 1
848 674 1
857 674 1
233 675 1
240 675 1
704 675 1
720 675 1
791 675 1
806 675 1
849 675 1
858 675 1
234 676 1
241 676 1
705 676 1
721 676 1
792 676 1
807 676 1
850 676 1
859 676 1
235 677 1
242 677 1
706 677 1
722 677 1
793 677 1
808 677 1
851 677 1
860 677 1
236 678 1
243 678 1
707 678 1
723 678 1
794 678 1
809 678 1
852 678 1
861 678 1
237 679 1
244 679 1
708 679 1
724 679 1
795 679 1
810 679 1
853 679 1
862 679 1
238 680 1
245 680 1
709 680 1
725 680 1
796 680 1
811 680 1
854 680 1
863 680 1
239 681 1
246 681 1
697 681 1
710 681 1
797 681 1
812 681 1
855 681 1
864 681 1
240 682 1
247 682 1
698 682 1
711 682 1
784 682 1
798 682 1
856 682 1
865 682 1
241 683 1
248 683 1
699 683 1
712 683 1
785 683 1
799 683 1
857 683 1
866 683 1
242 684 1
249 684 1
700 684 1
713 684 1
786 684 1
800 684 1
858 684 1
867 684 1
243 685 1
250 685 1
701 685 1
714 685 1
787 685 1
801 685 1
859 685 1
868 685 1
244 686 1
251 686 1
702 686 1
715 686 1
788 686 1
802 686 1
860 686 1
869 686 1
245 687 1
252 687 1
703 687 1
716 687 1
789 687 1
803 687 1
861 687 1
870 687 1
246 688 1
253 688 1
704 688 1
717 688 1
790 688 1
804 688 1
842 688 1
862 688 1
247 689 1
254 689 1
705 689 1
718 689 1
791 689 1
805 689 1
843 689 1
863 689 1
248 690 1
255 690 1
706 690 1
719 690 1
792 690 1
806 690 1
844 690 1
864 690 1
249 691 1
256 691 1
707 691 1
720 691 1
793 691 1
807 691 1
845 691 1
865 691 1
250 692 1
257 692 1
708 692 1
721 692 1
794 692 1
808 692 1
846 692 1
866 692 1
251 693 1
258 693 1
709 693 1
722 693 1
795 693 1
809 693 1
847 693 1
867 693 1
252 694 1
259 694 1
710 694 1
723 694 1
796 694 1
810 694 1
848 694 1
868 694 1
253 695 1
260 695 1
711 695 1
724 695 1
797 695 1
811 695 1
849 695 1
869 695 1
254 696 1
261 696 1
712 696 1
725 696 1
798 696 1
812 696 1
850 696 1
870 696 1
262 697 1
284 697 1
726 697 1
742 697 1
813 697 1
828 697 1
842 697 1
854 697 1
263 698 1
285 698 1
727 698 1
743 698 1
814 698 1
829 698 1
843 698 1
855 698 1
264 699 1
286 699 1
728 699 1
744 699 1
815 699 1
830 699 1
844 699 1
856 699 1
265 700 1
287 700 1
729 700 1
745 700 1
816 700 1
831 700 1
845 700 1
857 700 1
266 701 1
288 701 1
730 701 1
746 701 1
817 701 1
832 701 1
846 701 1
858 701 1
267 702 1
289 702 1
731 702 1
747 702 1
818 702 1
833 702 1
847 702 1
859 702 1
268 703 1
290 703 1
732 703 1
748 703 1
819 703 1
834 703 1
848 703 1
860 703 1
262 704 1
269 704 1
733 704 1
749 704 1
820 704 1
835 704 1
849 704 1
861 704 1
263 705 1
270 705 1
734 705 1
750 705 1
821 705 1
836 705 1
850 705 1
862 705 1
264 706 1
271 706 1
735 706 1
751 706 1
822 706 1
837 706 1
851 706 1
863 706 1
265 707 1
272 707 1
736 707 1
752 707 1
823 707 1
838 707 1
852 707 1
864 707 1
266 708 1
273 708 1
737 708 1
753 708 1
824 708 1
839 708 1
853 708 1
865 708 1
267 709 1
274 709 1
738 709 1
754 709 1
825 709 1
840 709 1
854 709 1
866 709 1
268 710 1
275 710 1
726 710 1
739 710 1
826 710 1
841 710 1
855 710 1
867 710 1
269 711 1
276 711 1
727 711 1
740 711 1
813 711 1
827 711 1
856 711 1
868 711 1
270 712 1
277 712 1
728 712 1
741 712 1
814 712 1
828 712 1
857 712 1
869 712 1
271 713 1
278 713 1
729 713 1
742 713 1
815 713 1
829 713 1
858 713 1
870 713 1
272 714 1
279 714 1
730 714 1
743 714 1
816 714 1
830 714 1
842 714 1
859 714 1
273 715 1
280 715 1
731 715 1
744 715 1
817 715 1
831 715 1
843 715 1
860 715 1
274 716 1
281 716 1
732 716 1
745 716 1
818 716 1
832 716 1
844 716 1
861 716 1
275 717 1
282 717 1
733 717 1
746 717 1
819 717 1
833 717 1
845 717 1
862 717 1
276 718 1
283 718 1
734 718 1
747 718 1
820 718 1
834 718 1
846 718 1
863 718 1
277 719 1
284 719 1
735 719 1
748 719 1
821 719 1
835 719 1
847 719 1
864 719 1
278 720 1
285 720 1
736 720 1
749 720 1
822 720 1
836 720 1
848 720 1
865 720 1
279 721 1
286 721 1
737 721 1
750 721 1
823 721 1
837 721 1
849 721 1
866 721 1
280 722 1
287 722 1
738 722 1
751 722 1
824 722 1
838 722 1
850 722 1
867 722 1
281 723 1
288 723 1
739 723 1
752 723 1
825 723 1
839 723 1
851 723 1
868 723 1
282 724 1
289 724 1
740 724 1
753 724 1
826 724 1
840 724 1
852 724 1
869 724 1
283 725 1
290 725 1
741 725 1
754 725 1
827 725 1
841 725 1
853 725 1
870 725 1
291 726 1
313 726 1
581 726 1
599 726 1
871 726 1
880 726 1
900 726 1
901 726 1
292 727 1
314 727 1
582 727 1
600 727 1
872 727 1
881 727 1
901 727 1
902 727 1
293 728 1
315 728 1
583 728 1
601 728 1
873 728 1
882 728 1
902 728 1
903 728 1
294 729 1
316 729 1
584 729 1
602 729 1
874 729 1
883 729 1
903 729 1
904 729 1
295 730 1
317 730 1
585 730 1
603 730 1
875 730 1
884 730 1
904 730 1
905 730 1
296 731 1
318 731 1
586 731 1
604 731 1
876 731 1
885 731 1
905 731 1
906 731 1
297 732 1
319 732 1
587 732 1
605 732 1
877 732 1
886 732 1
906 732 1
907 732 1
291 733 1
298 733 1
588 733 1
606 733 1
878 733 1
887 733 1
907 733 1
908 733 1
292 734 1
299 734 1
589 734 1
607 734 1
879 734 1
888 734 1
908 734 1
909 734 1
293 735 1
300 735 1
590 735 1
608 735 1
880 735 1
889 735 1
909 735 1
910 735 1
294 736 1
301 736 1
591 736 1
609 736 1
881 736 1
890 736 1
910 736 1
911 736 1
295 737 1
302 737 1
581 737 1
592 737 1
882 737 1
891 737 1
911 737 1
912 737 1
296 738 1
303 738 1
582 738 1
593 738 1
883 738 1
892 738 1
912 738 1
913 738 1
297 739 1
304 739 1
583 739 1
594 739 1
884 739 1
893 739 1
913 739 1
914 739 1
298 740 1
305 740 1
584 740 1
595 740 1
885 740 1
894 740 1
914 740 1
915 740 1
299 741 1
306 741 1
585 741 1
596 741 1
886 741 1
895 741 1
915 741 1
916 741 1
300 742 1
307 742 1
586 742 1
597 742 1
887 742 1
896 742 1
916 742 1
917 742 1
301 743 1
308 743 1
587 743 1
598 743 1
888 743 1
897 743 1
917 743 1
918 743 1
302 744 1
309 744 1
588 744 1
599 744 1
889 744 1
898 744 1
918 744 1
919 744 1
303 745 1
310 745 1
589 745 1
600 745 1
890 745 1
899 745 1
919 745 1
920 745 1
304 746 1
311 746 1
590 746 1
601 746 1
871 746 1
891 746 1
920 746 1
921 746 1
305 747 1
312 747 1
591 747 1
602 747 1
872 747 1
892 747 1
921 747 1
922 747 1
306 748 1
313 748 1
592 748 1
603 748 1
873 748 1
893 748 1
922 748 1
923 748 1
307 749 1
314 749 1
593 749 1
604 749 1
874 749 1
894 749 1
923 749 1
924 749 1
308 750 1
315 750 1
594 750 1
605 750 1
875 750 1
895 750 1
924 750 1
925 750 1
309 751 1
316 751 1
595 751 1
606 751 1
876 751 1
896 751 1
925 751 1
926 751 1
310 752 1
317 752 1
596 752 1
607 752 1
877 752 1
897 752 1
926 752 1
927 752 1
311 753 1
318 753 1
597 753 1
608 753 1
878 753 1
898 753 1
927 753 1
928 753 1
312 754 1
319 754 1
598 754 1
609 754 1
879 754 1
899 754 1
900 754 1
928 754 1
320 755 1
342 755 1
610 755 1
628 755 1
871 755 1
883 755 1
929 755 1
930 755 1
321 756 1
343 756 1
611 756 1
629 756 1
872 756 1
884 756 1
930 756 1
931 756 1
322 757 1
344 757 1
612 757 1
630 757 1
873 757 1
885 757 1
931 757 1
932 757 1
323 758 1
345 758 1
613 758 1
631 758 1
874 758 1
886 758 1
932 758 1
933 758 1
324 759 1
346 759 1
614 759 1
632 759 1
875 759 1
887 759 1
933 759 1
934 759 1
325 760 1
347 760 1
615 760 1
633 760 1
876 760 1
888 760 1
934 760 1
935 760 1
326 761 1
348 761 1
616 761 1
634 761 1
877 761 1
889 761 1
935 761 1
936 761 1
320 762 1
327 762 1
617 762 1
635 762 1
878 762 1
890 762 1
936 762 1
937 762 1
321 763 1
328 763 1
618 763 1
636 763 1
879 763 1
891 763 1
937 763 1
938 763 1
322 764 1
329 764 1
619 764 1
637 764 1
880 764 1
892 764 1
938 764 1
939 764 1
323 765 1
330 765 1
620 765 1
638 765 1
881 765 1
893 765 1
939 765 1
940 765 1
324 766 1
331 766 1
610 766 1
621 766 1
882 766 1
894 766 1
940 766 1
941 766 1
325 767 1
332 767 1
611 767 1
622 767 1
883 767 1
895 767 1
941 767 1
942 767 1
326 768 1
333 768 1
612 768 1
623 768 1
884 768 1
896 768 1
942 768 1
943 768 1
327 769 1
334 769 1
613 769 1
624 769 1
885 769 1
897 769 1
943 769 1
944 769 1
328 770 1
335 770 1
614 770 1
625 770 1
886 770 1
898 770 1
944 770 1
945 770 1
329 771 1
336 771 1
615 771 1
626 771 1
887 771 1
899 771 1
945 771 1
946 771 1
330 772 1
337 772 1
616 772 1
627 772 1
871 772 1
888 772 1
946 772 1
947 772 1
331 773 1
338 773 1
617 773 1
628 773 1
872 773 1
889 773 1
947 773 1
948 773 1
332 774 1
339 774 1
618 774 1
629 774 1
873 774 1
890 774 1
948 774 1
949 774 1
333 775 1
340 775 1
619 775 1
630 775 1
874 775 1
891 775 1
949 775 1
950 775 1
334 776 1
341 776 1
620 776 1
631 776 1
875 776 1
892 776 1
950 776 1
951 776 1
335 777 1
342 777 1
621 777 1
632 777 1
876 777 1
893 777 1
951 777 1
952 777 1
336 778 1
343 778 1
622 778 1
633 778 1
877 778 1
894 778 1
952 778 1
953 778 1
337 779 1
344 779 1
623 779 1
634 779 1
878 779 1
895 779 1
953 779 1
954 779 1
338 780 1
345 780 1
624 780 1
635 780 1
879 780 1
896 780 1
954 780 1
955 780 1
339 781 1
346 781 1
625 781 1
636 781 1
880 781 1
897 781 1
955 781 1
956 781 1
340 782 1
347 782 1
626 782 1
637 782 1
881 782 1
898 782 1
956 782 1
957 782 1
341 783 1
348 783 1
627 783 1
638 783 1
882 783 1
899 783 1
929 783 1
957 783 1
349 784 1
371 784 1
639 784 1
657 784 1
900 784 1
912 784 1
929 784 1
938 784 1
350 785 1
372 785 1
640 785 1
658 785 1
901 785 1
913 785 1
930 785 1
939 785 1
351 786 1
373 786 1
641 786 1
659 786 1
902 786 1
914 786 1
931 786 1
940 786 1
352 787 1
374 787 1
642 787 1
660 787 1
903 787 1
915 787 1
932 787 1
941 787 1
353 788 1
375 788 1
643 788 1
661 788 1
904 788 1
916 788 1
933 788 1
942 788 1
354 789 1
376 789 1
644 789 1
662 789 1
905 789 1
917 789 1
934 789 1
943 789 1
355 790 1
377 790 1
645 790 1
663 790 1
906 790 1
918 790 1
935 790 1
944 790 1
349 791 1
356 791 1
646 791 1
664 791 1
907 791 1
919 791 1
936 791 1
945 791 1
350 792 1
357 792 1
647 792 1
665 792 1
908 792 1
920 792 1
937 792 1
946 792 1
351 793 1
358 793 1
648 793 1
666 793 1
909 793 1
921 793 1
938 793 1
947 793 1
352 794 1
359 794 1
649 794 1
667 794 1
910 794 1
922 794 1
939 794 1
948 794 1
353 795 1
360 795 1
639 795 1
650 795 1
911 795 1
923 795 1
940 795 1
949 795 1
354 796 1
361 796 1
640 796 1
651 796 1
912 796 1
924 796 1
941 796 1
950 796 1
355 797 1
362 797 1
641 797 1
652 797 1
913 797 1
925 797 1
942 797 1
951 797 1
356 798 1
363 798 1
642 798 1
653 798 1
914 798 1
926 798 1
943 798 1
952 798 1
357 799 1
364 799 1
643 799 1
654 799 1
915 799 1
927 799 1
944 799 1
953 799 1
358 800 1
365 800 1
644 800 1
655 800 1
916 800 1
928 800 1
945 800 1
954 800 1
359 801 1
366 801 1
645 801 1
656 801 1
900 801 1
917 801 1
946 801 1
955 801 1
360 802 1
367 802 1
646 802 1
657 802 1
901 802 1
918 802 1
947 802 1
956 802 1
361 803 1
368 803 1
647 803 1
658 803 1
902 803 1
919 803 1
948 803 1
957 803 1
362 804 1
369 804 1
648 804 1
659 804 1
903 804 1
920 804 1
929 804 1
949 804 1
363 805 1
370 805 1
649 805 1
660 805 1
904 805 1
921 805 1
930 805 1
950 805 1
364 806 1
371 806 1
650 806 1
661 806 1
905 806 1
922 806 1
931 806 1
951 806 1
365 807 1
372 807 1
651 807 1
662 807 1
906 807 1
923 807 1
932 807 1
952 807 1
366 808 1
373 808 1
652 808 1
663 808 1
907 808 1
924 808 1
933 808 1
953 808 1
367 809 1
374 809 1
653 809 1
664 809 1
908 809 1
925 809 1
934 809 1
954 809 1
368 810 1
375 810 1
654 810 1
665 810 1
909 810 1
926 810 1
935 810 1
955 810 1
369 811 1
376 811 1
655 811 1
666 811 1
910 811 1
927 811 1
936 811 1
956 811 1
370 812 1
377 812 1
656 812 1
667 812 1
911 812 1
928 812 1
937 812 1
957 812 1
378 813 1
400 813 1
668 813 1
686 813 1
871 813 1
886 813 1
958 813 1
959 813 1
379 814 1
401 814 1
669 814 1
687 814 1
872 814 1
887 814 1
959 814 1
960 814 1
380 815 1
402 815 1
670 815 1
688 815 1
873 815 1
888 815 1
960 815 1
961 815 1
381 816 1
403 816 1
671 816 1
689 816 1
874 816 1
889 816 1
961 816 1
962 816 1
382 817 1
404 817 1
672 817 1
690 817 1
875 817 1
890 817 1
962 817 1
963 817 1
383 818 1
405 818 1
673 818 1
691 818 1
876 818 1
891 818 1
963 818 1
964 818 1
384 819 1
406 819 1
674 819 1
692 819 1
877 819 1
892 819 1
964 819 1
965 819 1
378 820 1
385 820 1
675 820 1
693 820 1
878 820 1
893 820 1
965 820 1
966 820 1
379 821 1
386 821 1
676 821 1
694 821 1
879 821 1
894 821 1
966 821 1
967 821 1
380 822 1
387 822 1
677 822 1
695 822 1
880 822 1
895 822 1
967 822 1
968 822 1
381 823 1
388 823 1
678 823 1
696 823 1
881 823 1
896 823 1
968 823 1
969 823 1
382 824 1
389 824 1
668 824 1
679 824 1
882 824 1
897 824 1
969 824 1
970 824 1
383 825 1
390 825 1
669 825 1
680 825 1
883 825 1
898 825 1
970 825 1
971 825 1
384 826 1
391 826 1
670 826 1
681 826 1
884 826 1
899 826 1
971 826 1
972 826 1
385 827 1
392 827 1
671 827 1
682 827 1
871 827 1
885 827 1
972 827 1
973 827 1
386 828 1
393 828 1
672 828 1
683 828 1
872 828 1
886 828 1
973 828 1
974 828 1
387 829 1
394 829 1
673 829 1
684 829 1
873 829 1
887 829 1
974 829 1
975 829 1
388 830 1
395 830 1
674 830 1
685 830 1
874 830 1
888 830 1
975 830 1
976 830 1
389 831 1
396 831 1
675 831 1
686 831 1
875 831 1
889 831 1
976 831 1
977 831 1
390 832 1
397 832 1
676 832 1
687 832 1
876 832 1
890 832 1
977 832 1
978 832 1
391 833 1
398 833 1
677 833 1
688 833 1
877 833 1
891 833 1
978 833 1
979 833 1
392 834 1
399 834 1
678 834 1
689 834 1
878 834 1
892 834 1
979 834 1
980 834 1
393 835 1
400 835 1
679 835 1
690 835 1
879 835 1
893 835 1
980 835 1
981 835 1
394 836 1
401 836 1
680 836 1
691 836 1
880 836 1
894 836 1
981 836 1
982 836 1
395 837 1
402 837 1
681 837 1
692 837 1
881 837 1
895 837 1
982 837 1
983 837 1
396 838 1
403 838 1
682 838 1
693 838 1
882 838 1
896 838 1
983 838 1
984 838 1
397 839 1
404 839 1
683 839 1
694 839 1
883 839 1
897 839 1
984 839 1
985 839 1
398 840 1
405 840 1
684 840 1
695 840 1
884 840 1
898 840 1
985 840 1
986 840 1
399 841 1
406 841 1
685 841 1
696 841 1
885 841 1
899 841 1
958 841 1
986 841 1
407 842 1
429 842 1
697 842 1
715 842 1
900 842 1
915 842 1
958 842 1
967 842 1
408 843 1
430 843 1
698 843 1
716 843 1
901 843 1
916 843 1
959 843 1
968 843 1
409 844 1
431 844 1
699 844 1
717 844 1
902 844 1
917 844 1
960 844 1
969 844 1
410 845 1
432 845 1
700 845 1
718 845 1
903 845 1
918 845 1
961 845 1
970 845 1
411 846 1
433 846 1
701 846 1
719 846 1
904 846 1
919 846 1
962 846 1
971 846 1
412 847 1
434 847 1
702 847 1
720 847 1
905 847 1
920 847 1
963 847 1
972 847 1
413 848 1
435 848 1
703 848 1
721 848 1
906 848 1
921 848 1
964 848 1
973 848 1
407 849 1
414 849 1
704 849 1
722 849 1
907 849 1
922 849 1
965 849 1
974 849 1
408 850 1
415 850 1
705 850 1
723 850 1
908 850 1
923 850 1
966 850 1
975 850 1
409 851 1
416 851 1
706 851 1
724 851 1
909 851 1
924 851 1
967 851 1
976 851 1
410 852 1
417 852 1
707 852 1
725 852 1
910 852 1
925 852 1
968 852 1
977 852 1
411 853 1
418 853 1
697 853 1
708 853 1
911 853 1
926 853 1
969 853 1
978 853 1
412 854 1
419 854 1
698 854 1
709 854 1
912 854 1
927 854 1
970 854 1
979 854 1
413 855 1
420 855 1
699 855 1
710 855 1
913 855 1
928 855 1
971 855 1
980 855 1
414 856 1
421 856 1
700 856 1
711 856 1
900 856 1
914 856 1
972 856 1
981 856 1
415 857 1
422 857 1
701 857 1
712 857 1
901 857 1
915 857 1
973 857 1
982 857 1
416 858 1
423 858 1
702 858 1
713 858 1
902 858 1
916 858 1
974 858 1
983 858 1
417 859 1
424 859 1
703 859 1
714 859 1
903 859 1
917 859 1
975 859 1
984 859 1
418 860 1
425 860 1
704 860 1
715 860 1
904 860 1
918 860 1
976 860 1
985 860 1
419 861 1
426 861 1
705 861 1
716 861 1
905 861 1
919 861 1
977 861 1
986 861 1
420 862 1
427 862 1
706 862 1
717 862 1
906 862 1
920 862 1
958 862 1
978 862 1
421 863 1
428 863 1
707 863 1
718 863 1
907 863 1
921 863 1
959 863 1
979 863 1
422 864 1
429 864 1
708 864 1
719 864 1
908 864 1
922 864 1
960 864 1
980 864 1
423 865 1
430 865 1
709 865 1
720 865 1
909 865 1
923 865 1
961 865 1
981 865 1
424 866 1
431 866 1
710 866 1
721 866 1
910 866 1
924 866 1
962 866 1
982 866 1
425 867 1
432 867 1
711 867 1
722 867 1
911 867 1
925 867 1
963 867 1
983 867 1
426 868 1
433 868 1
712 868 1
723 868 1
912 868 1
926 868 1
964 868 1
984 868 1
427 869 1
434 869 1
713 869 1
724 869 1
913 869 1
927 869 1
965 869 1
985 869 1
428 870 1
435 870 1
714 870 1
725 870 1
914 870 1
928 870 1
966 870 1
986 870 1
436 871 1
458 871 1
726 871 1
744 871 1
929 871 1
944 871 1
958 871 1
970 871 1
437 872 1
459 872 1
727 872 1
745 872 1
930 872 1
945 872 1
959 872 1
971 872 1
438 873 1
460 873 1
728 873 1
746 873 1
931 873 1
946 873 1
960 873 1
972 873 1
439 874 1
461 874 1
729 874 1
747 874 1
932 874 1
947 874 1
961 874 1
973 874 1
440 875 1
462 875 1
730 875 1
748 875 1
933 875 1
948 875 1
962 875 1
974 875 1
441 876 1
463 876 1
731 876 1
749 876 1
934 876 1
949 876 1
963 876 1
975 876 1
442 877 1
464 877 1
732 877 1
750 877 1
935 877 1
950 877 1
964 877 1
976 877 1
436 878 1
443 878 1
733 878 1
751 878 1
936 878 1
951 878 1
965 878 1
977 878 1
437 879 1
444 879 1
734 879 1
752 879 1
937 879 1
952 879 1
966 879 1
978 879 1
438 880 1
445 880 1
735 880 1
753 880 1
938 880 1
953 880 1
967 880 1
979 880 1
439 881 1
446 881 1
736 881 1
754 881 1
939 881 1
954 881 1
968 881 1
980 881 1
440 882 1
447 882 1
726 882 1
737 882 1
940 882 1
955 882 1
969 882 1
981 882 1
441 883 1
448 883 1
727 883 1
738 883 1
941 883 1
956 883 1
970 883 1
982 883 1
442 884 1
449 884 1
728 884 1
739 884 1
942 884 1
957 884 1
971 884 1
983 884 1
443 885 1
450 885 1
729 885 1
740 885 1
929 885 1
943 885 1
972 885 1
984 885 1
444 886 1
451 886 1
730 886 1
741 886 1
930 886 1
944 886 1
973 886 1
985 886 1
445 887 1
452 887 1
731 887 1
742 887 1
931 887 1
945 887 1
974 887 1
986 887 1
446 888 1
453 888 1
732 888 1
743 888 1
932 888 1
946 888 1
958 888 1
975 888 1
447 889 1
454 889 1
733 889 1
744 889 1
933 889 1
947 889 1
959 889 1
976 889 1
448 890 1
455 890 1
734 890 1
745 890 1
934 890 1
948 890 1
960 890 1
977 890 1
449 891 1
456 891 1
735 891 1
746 891 1
935 891 1
949 891 1
961 891 1
978 891 1
450 892 1
457 892 1
736 892 1
747 892 1
936 892 1
950 892 1
962 892 1
979 892 1
451 893 1
458 893 1
737 893 1
748 893 1
937 893 1
951 893 1
963 893 1
980 893 1
452 894 1
459 894 1
738 894 1
749 894 1
938 894 1
952 894 1
964 894 1
981 894 1
453 895 1
460 895 1
739 895 1
750 895 1
939 895 1
953 895 1
965 895 1
982 895 1
454 896 1
461 896 1
740 896 1
751 896 1
940 896 1
954 896 1
966 896 1
983 896 1
455 897 1
462 897 1
741 897 1
752 897 1
941 897 1
955 897 1
967 897 1
984 897 1
456 898 1
463 898 1
742 898 1
753 898 1
942 898 1
956 898 1
968 898 1
985 898 1
457 899 1
464 899 1
743 899 1
754 899 1
943 899 1
957 899 1
969 899 1
986 899 1
465 900 1
487 900 1
755 900 1
773 900 1
871 900 1
887 900 1
987 900 1
988 900 1
466 901 1
488 901 1
756 901 1
774 901 1
872 901 1
888 901 1
988 901 1
989 901 1
467 902 1
489 902 1
757 902 1
775 902 1
873 902 1
889 902 1
989 902 1
990 902 1
468 903 1
490 903 1
758 903 1
776 903 1
874 903 1
890 903 1
990 903 1
991 903 1
469 904 1
491 904 1
759 904 1
777 904 1
875 904 1
891 904 1
991 904 1
992 904 1
470 905 1
492 905 1
760 905 1
778 905 1
876 905 1
892 905 1
992 905 1
993 905 1
471 906 1
493 906 1
761 906 1
779 906 1
877 906 1
893 906 1
993 906 1
994 906 1
465 907 1
472 907 1
762 907 1
780 907 1
878 907 1
894 907 1
994 907 1
995 907 1
466 908 1
473 908 1
763 908 1
781 908 1
879 908 1
895 908 1
995 908 1
996 908 1
467 909 1
474 909 1
764 909 1
782 909 1
880 909 1
896 909 1
996 909 1
997 909 1
468 910 1
475 910 1
765 910 1
783 910 1
881 910 1
897 910 1
997 910 1
998 910 1
469 911 1
476 911 1
755 911 1
766 911 1
882 911 1
898 911 1
998 911 1
999 911 1
470 912 1
477 912 1
756 912 1
767 912 1
883 912 1
899 912 1
999 912 1
1000 912 1
471 913 1
478 913 1
757 913 1
768 913 1
871 913 1
884 913 1
1000 913 1
1001 913 1
472 914 1
479 914 1
758 914 1
769 914 1
872 914 1
885 914 1
1001 914 1
1002 914 1
473 915 1
480 915 1
759 915 1
770 915 1
873 915 1
886 915 1
1002 915 1
1003 915 1
474 916 1
481 916 1
760 916 1
771 916 1
874 916 1
887 916 1
1003 916 1
1004 916 1
475 917 1
482 917 1
761 917 1
772 917 1
875 917 1
888 917 1
1004 917 1
1005 917 1
476 918 1
483 918 1
762 918 1
773 918 1
876 918 1
889 918 1
1005 918 1
1006 918 1
477 919 1
484 919 1
763 919 1
774 919 1
877 919 1
890 919 1
1006 919 1
1007 919 1
478 920 1
485 920 1
764 920 1
775 920 1
878 920 1
891 920 1
1007 920 1
1008 920 1
479 921 1
486 921 1
765 921 1
776 921 1
879 921 1
892 921 1
1008 921 1
1009 921 1
480 922 1
487 922 1
766 922 1
777 922 1
880 922 1
893 922 1
1009 922 1
1010 922 1
481 923 1
488 923 1
767 923 1
778 923 1
881 923 1
894 923 1
1010 923 1
1011 923 1
482 924 1
489 924 1
768 924 1
779 924 1
882 924 1
895 924 1
1011 924 1
1012 924 1
483 925 1
490 925 1
769 925 1
780 925 1
883 925 1
896 925 1
1012 925 1
1013 925 1
484 926 1
491 926 1
770 926 1
781 926 1
884 926 1
897 926 1
1013 926 1
1014 926 1
485 927 1
492 927 1
771 927 1
782 927 1
885 927 1
898 927 1
1014 927 1
1015 927 1
486 928 1
493 928 1
772 928 1
783 928 1
886 928 1
899 928 1
987 928 1
1015 928 1
494 929 1
516 929 1
784 929 1
802 929 1
900 929 1
916 929 1
987 929 1
996 929 1
495 930 1
517 930 1
785 930 1
803 930 1
901 930 1
917 930 1
988 930 1
997 930 1
496 931 1
518 931 1
786 931 1
804 931 1
902 931 1
918 931 1
989 931 1
998 931 1
497 932 1
519 932 1
787 932 1
805 932 1
903 932 1
919 932 1
990 932 1
999 932 1
498 933 1
520 933 1
788 933 1
806 933 1
904 933 1
920 933 1
991 933 1
1000 933 1
499 934 1
521 934 1
789 934 1
807 934 1
905 934 1
921 934 1
992 934 1
1001 934 1
500 935 1
522 935 1
790 935 1
808 935 1
906 935 1
922 935 1
993 935 1
1002 935 1
494 936 1
501 936 1
791 936 1
809 936 1
907 936 1
923 936 1
994 936 1
1003 936 1
495 937 1
502 937 1
792 937 1
810 937 1
908 937 1
924 937 1
995 937 1
1004 937 1
496 938 1
503 938 1
793 938 1
811 938 1
909 938 1
925 938 1
996 938 1
1005 938 1
497 939 1
504 939 1
794 939 1
812 939 1
910 939 1
926 939 1
997 939 1
1006 939 1
498 940 1
505 940 1
784 940 1
795 940 1
911 940 1
927 940 1
998 940 1
1007 940 1
499 941 1
506 941 1
785 941 1
796 941 1
912 941 1
928 941 1
999 941 1
1008 941 1
500 942 1
507 942 1
786 942 1
797 942 1
900 942 1
913 942 1
1000 942 1
1009 942 1
501 943 1
508 943 1
787 943 1
798 943 1
901 943 1
914 943 1
1001 943 1
1010 943 1
502 944 1
509 944 1
788 944 1
799 944 1
902 944 1
915 944 1
1002 944 1
1011 944 1
503 945 1
510 945 1
789 945 1
800 945 1
903 945 1
916 945 1
1003 945 1
1012 945 1
504 946 1
511 946 1
790 946 1
801 946 1
904 946 1
917 946 1
1004 946 1
1013 946 1
505 947 1
512 947 1
791 947 1
802 947 1
905 947 1
918 947 1
1005 947 1
1014 947 1
506 948 1
513 948 1
792 948 1
803 948 1
906 948 1
919 948 1
1006 948 1
1015 948 1
507 949 1
514 949 1
793 949 1
804 949 1
907 949 1
920 949 1
987 949 1
1007 949 1
508 950 1
515 950 1
794 950 1
805 950 1
908 950 1
921 950 1
988 950 1
1008 950 1
509 951 1
516 951 1
795 951 1
806 951 1
909 951 1
922 951 1
989 951 1
1009 951 1
510 952 1
517 952 1
796 952 1
807 952 1
910 952 1
923 952 1
990 952 1
1010 952 1
511 953 1
518 953 1
797 953 1
808 953 1
911 953 1
924 953 1
991 953 1
1011 953 1
512 954 1
519 954 1
798 954 1
809 954 1
912 954 1
925 954 1
992 954 1
1012 954 1
513 955 1
520 955 1
799 955 1
810 955 1
913 955 1
926 955 1
993 955 1
1013 955 1
514 956 1
521 956 1
800 956 1
811 956 1
914 956 1
927 956 1
994 956 1
1014 956 1
515 957 1
522 957 1
801 957 1
812 957 1
915 957 1
928 957 1
995 957 1
1015 957 1
523 958 1
545 958 1
813 958 1
831 958 1
929 958 1
945 958 1
987 958 1
999 958 1
524 959 1
546 959 1
814 959 1
832 959 1
930 959 1
946 959 1
988 959 1
1000 959 1
525 960 1
547 960 1
815 960 1
833 960 1
931 960 1
947 960 1
989 960 1
1001 960 1
526 961 1
548 961 1
816 961 1
834 961 1
932 961 1
948 961 1
990 961 1
1002 961 1
527 962 1
549 962 1
817 962 1
835 962 1
933 962 1
949 962 1
991 962 1
1003 962 1
528 963 1
550 963 1
818 963 1
836 963 1
934 963 1
950 963 1
992 963 1
1004 963 1
529 964 1
551 964 1
819 964 1
837 964 1
935 964 1
951 964 1
993 964 1
1005 964 1
523 965 1
530 965 1
820 965 1
838 965 1
936 965 1
952 965 1
994 965 1
1006 965 1
524 966 1
531 966 1
821 966 1
839 966 1
937 966 1
953 966 1
995 966 1
1007 966 1
525 967 1
532 967 1
822 967 1
840 967 1
938 967 1
954 967 1
996 967 1
1008 967 1
526 968 1
533 968 1
823 968 1
841 968 1
939 968 1
955 968 1
997 968 1
1009 968 1
527 969 1
534 969 1
813 969 1
824 969 1
940 969 1
956 969 1
998 969 1
1010 969 1
528 970 1
535 970 1
814 970 1
825 970 1
941 970 1
957 970 1
999 970 1
1011 970 1
529 971 1
536 971 1
815 971 1
826 971 1
929 971 1
942 971 1
1000 971 1
1012 971 1
530 972 1
537 972 1
816 972 1
827 972 1
930 972 1
943 972 1
1001 972 1
1013 972 1
531 973 1
538 973 1
817 973 1
828 973 1
931 973 1
944 973 1
1002 973 1
1014 973 1
532 974 1
539 974 1
818 974 1
829 974 1
932 974 1
945 974 1
1003 974 1
1015 974 1
533 975 1
540 975 1
819 975 1
830 975 1
933 975 1
946 975 1
987 975 1
1004 975 1
534 976 1
541 976 1
820 976 1
831 976 1
934 976 1
947 976 1
988 976 1
1005 976 1
535 977 1
542 977 1
821 977 1
832 977 1
935 977 1
948 977 1
989 977 1
1006 977 1
536 978 1
543 978 1
822 978 1
833 978 1
936 978 1
949 978 1
990 978 1
1007 978 1
537 979 1
544 979 1
823 979 1
834 979 1
937 979 1
950 979 1
991 979 1
1008 979 1
538 980 1
545 980 1
824 980 1
835 980 1
938 980 1
951 980 1
992 980 1
1009 980 1
539 981 1
546 981 1
825 981 1
836 981 1
939 981 1
952 981 1
993 981 1
1010 981 1
540 982 1
547 982 1
826 982 1
837 982 1
940 982 1
953 982 1
994 982 1
1011 982 1
541 983 1
548 983 1
827 983 1
838 983 1
941 983 1
954 983 1
995 983 1
1012 983 1
542 984 1
549 984 1
828 984 1
839 984 1
942 984 1
955 984 1
996 984 1
1013 984 1
543 985 1
550 985 1
829 985 1
840 985 1
943 985 1
956 985 1
997 985 1
1014 985 1
544 986 1
551 986 1
830 986 1
841 986 1
944 986 1
957 986 1
998 986 1
1015 986 1
552 987 1
574 987 1
842 987 1
860 987 1
958 987 1
974 987 1
987 987 1
1002 987 1
553 988 1
575 988 1
843 988 1
861 988 1
959 988 1
975 988 1
988 988 1
1003 988 1
554 989 1
576 989 1
844 989 1
862 989 1
960 989 1
976 989 1
989 989 1
1004 989 1
555 990 1
577 990 1
845 990 1
863 990 1
961 990 1
977 990 1
990 990 1
1005 990 1
556 991 1
578 991 1
846 991 1
864 991 1
962 991 1
978 991 1
991 991 1
1006 991 1
557 992 1
579 992 1
847 992 1
865 992 1
963 992 1
979 992 1
992 992 1
1007 992 1
558 993 1
580 993 1
848 993 1
866 993 1
964 993 1
980 993 1
993 993 1
1008 993 1
552 994 1
559 994 1
849 994 1
867 994 1
965 994 1
981 994 1
994 994 1
1009 994 1
553 995 1
560 995 1
850 995 1
868 995 1
966 995 1
982 995 1
995 995 1
1010 995 1
554 996 1
561 996 1
851 996 1
869 996 1
967 996 1
983 996 1
996 996 1
1011 996 1
555 997 1
562 997 1
852 997 1
870 997 1
968 997 1
984 997 1
997 997 1
1012 997 1
556 998 1
563 998 1
842 998 1
853 998 1
969 998 1
985 998 1
998 998 1
1013 998 1
557 999 1
564 999 1
843 999 1
854 999 1
970 999 1
986 999 1
999 999 1
1014 999 1
558 1000 1
565 1000 1
844 1000 1
855 1000 1
958 1000 1
971 1000 1
1000 1000 1
1015 1000 1
559 1001 1
566 1001 1
845 1001 1
856 1001 1
959 1001 1
972 1001 1
987 1001 1
1001 1001 1
560 1002 1
567 1002 1
846 1002 1
857 1002 1
960 1002 1
973 1002 1
988 1002 1
1002 1002 1
561 1003 1
568 1003 1
847 1003 1
858 1003 1
961 1003 1
974 1003 1
989 1003 1
1003 1003 1
562 1004 1
569 1004 1
848 1004 1
859 1004 1
962 1004 1
975 1004 1
990 1004 1
1004 1004 1
563 1005 1
570 1005 1
849 1005 1
860 1005 1
963 1005 1
976 1005 1
991 1005 1
1005 1005 1
564 1006 1
571 1006 1
850 1006 1
861 1006 1
964 1006 1
977 1006 1
992 1006 1
1006 1006 1
565 1007 1
572 1007 1
851 1007 1
862 1007 1
965 1007 1
978 1007 1
993 1007 1
1007 1007 1
566 1008 1
573 1008 1
852 1008 1
863 1008 1
966 1008 1
979 1008 1
994 1008 1
1008 1008 1
567 1009 1
574 1009 1
853 1009 1
864 1009 1
967 1009 1
980 1009 1
995 1009 1
1009 1009 1
568 1010 1
575 1010 1
854 1010 1
865 1010 1
968 1010 1
981 1010 1
996 1010 1
1010 1010 1
569 1011 1
576 1011 1
855 1011 1
866 1011 1
969 1011 1
982 1011 1
997 1011 1
1011 1011 1
570 1012 1
577 1012 1
856 1012 1
867 1012 1
970 1012 1
983 1012 1
998 1012 1
1012 1012 1
571 1013 1
578 1013 1
857 1013 1
868 1013 1
971 1013 1
984 1013 1
999 1013 1
1013 1013 1
572 1014 1
579 1014 1
858 1014 1
869 1014 1
972 1014 1
985 1014 1
1000 1014 1
1014 1014 1
573 1015 1
580 1015 1
859 1015 1
870 1015 1
973 1015 1
986 1015 1
1001 1015 1
1015 1015 1
1 1016 1
26 1016 1
1016 1016 1
1028 1016 1
1045 1016 1
1054 1016 1
1074 1016 1
1075 1016 1
2 1017 1
27 1017 1
1017 1017 1
1029 1017 1
1046 1017 1
1055 1017 1
1075 1017 1
1076 1017 1
3 1018 1
28 1018 1
1018 1018 1
1030 1018 1
1047 1018 1
1056 1018 1
1076 1018 1
1077 1018 1
4 1019 1
29 1019 1
1019 1019 1
1031 1019 1
1048 1019 1
1057 1019 1
1077 1019 1
1078 1019 1
1 1020 1
5 1020 1
1020 1020 1
1032 1020 1
1049 1020 1
1058 1020 1
1078 1020 1
1079 1020 1
2 1021 1
6 1021 1
1021 1021 1
1033 1021 1
1050 1021 1
1059 1021 1
1079 1021 1
1080 1021 1
3 1022 1
7 1022 1
1022 1022 1
1034 1022 1
1051 1022 1
1060 1022 1
1080 1022 1
1081 1022 1
4 1023 1
8 1023 1
1023 1023 1
1035 1023 1
1052 1023 1
1061 1023 1
1081 1023 1
1082 1023 1
5 1024 1
9 1024 1
1024 1024 1
1036 1024 1
1053 1024 1
1062 1024 1
1082 1024 1
1083 1024 1
6 1025 1
10 1025 1
1025 1025 1
1037 1025 1
1054 1025 1
1063 1025 1
1083 1025 1
1084 1025 1
7 1026 1
11 1026 1
1026 1026 1
1038 1026 1
1055 1026 1
1064 1026 1
1084 1026 1
1085 1026 1
8 1027 1
12 1027 1
1027 1027 1
1039 1027 1
1056 1027 1
1065 1027 1
1085 1027 1
1086 1027 1
9 1028 1
13 1028 1
1028 1028 1
1040 1028 1
1057 1028 1
1066 1028 1
1086 1028 1
1087 1028 1
10 1029 1
14 1029 1
1029 1029 1
1041 1029 1
1058 1029 1
1067 1029 1
1087 1029 1
1088 1029 1
11 1030 1
15 1030 1
1030 1030 1
1042 1030 1
1059 1030 1
1068 1030 1
1088 1030 1
1089 1030 1
12 1031 1
16 1031 1
1031 1031 1
1043 1031 1
1060 1031 1
1069 1031 1
1089 1031 1
1090 1031 1
13 1032 1
17 1032 1
1032 1032 1
1044 1032 1
1061 1032 1
1070 1032 1
1090 1032 1
1091 1032 1
14 1033 1
18 1033 1
1016 1033 1
1033 1033 1
1062 1033 1
1071 1033 1
1091 1033 1
1092 1033 1
15 1034 1
19 1034 1
1017 1034 1
1034 1034 1
1063 1034 1
1072 1034 1
1092 1034 1
1093 1034 1
16 1035 1
20 1035 1
1018 1035 1
1035 1035 1
1064 1035 1
1073 1035 1
1093 1035 1
1094 1035 1
17 1036 1
21 1036 1
1019 1036 1
1036 1036 1
1045 1036 1
1065 1036 1
1094 1036 1
1095 1036 1
18 1037 1
22 1037 1
1020 1037 1
1037 1037 1
1046 1037 1
1066 1037 1
1095 1037 1
1096 1037 1
19 1038 1
23 1038 1
1021 1038 1
1038 1038 1
1047 1038 1
1067 1038 1
1096 1038 1
1097 1038 1
20 1039 1
24 1039 1
1022 1039 1
1039 1039 1
1048 1039 1
1068 1039 1
1097 1039 1
1098 1039 1
21 1040 1
25 1040 1
1023 1040 1
1040 1040 1
1049 1040 1
1069 1040 1
1098 1040 1
1099 1040 1
22 1041 1
26 1041 1
1024 1041 1
1041 1041 1
1050 1041 1
1070 1041 1
1099 1041 1
1100 1041 1
23 1042 1
27 1042 1
1025 1042 1
1042 1042 1
1051 1042 1
1071 1042 1
1100 1042 1
1101 1042 1
24 1043 1
28 1043 1
1026 1043 1
1043 1043 1
1052 1043 1
1072 1043 1
1101 1043 1
1102 1043 1
25 1044 1
29 1044 1
1027 1044 1
1044 1044 1
1053 1044 1
1073 1044 1
1074 1044 1
1102 1044 1
30 1045 1
55 1045 1
1016 1045 1
1031 1045 1
1103 1045 1
1112 1045 1
1132 1045 1
1133 1045 1
31 1046 1
56 1046 1
1017 1046 1
1032 1046 1
1104 1046 1
1113 1046 1
1133 1046 1
1134 1046 1
32 1047 1
57 1047 1
1018 1047 1
1033 1047 1
1105 1047 1
1114 1047 1
1134 1047 1
1135 1047 1
33 1048 1
58 1048 1
1019 1048 1
1034 1048 1
1106 1048 1
1115 1048 1
1135 1048 1
1136 1048 1
30 1049 1
34 1049 1
1020 1049 1
1035 1049 1
1107 1049 1
1116 1049 1
1136 1049 1
1137 1049 1
31 1050 1
35 1050 1
1021 1050 1
1036 1050 1
1108 1050 1
1117 1050 1
1137 1050 1
1138 1050 1
32 1051 1
36 1051 1
1022 1051 1
1037 1051 1
1109 1051 1
1118 1051 1
1138 1051 1
1139 1051 1
33 1052 1
37 1052 1
1023 1052 1
1038 1052 1
1110 1052 1
1119 1052 1
1139 1052 1
1140 1052 1
34 1053 1
38 1053 1
1024 1053 1
1039 1053 1
1111 1053 1
1120 1053 1
1140 1053 1
1141 1053 1
35 1054 1
39 1054 1
1025 1054 1
1040 1054 1
1112 1054 1
1121 1054 1
1141 1054 1
1142 1054 1
36 1055 1
40 1055 1
1026 1055 1
1041 1055 1
1113 1055 1
1122 1055 1
1142 1055 1
1143 1055 1
37 1056 1
41 1056 1
1027 1056 1
1042 1056 1
1114 1056 1
1123 1056 1
1143 1056 1
1144 1056 1
38 1057 1
42 1057 1
1028 1057 1
1043 1057 1
1115 1057 1
1124 1057 1
1144 1057 1
1145 1057 1
39 1058 1
43 1058 1
1029 1058 1
1044 1058 1
1116 1058 1
1125 1058 1
1145 1058 1
1146 1058 1
40 1059 1
44 1059 1
1016 1059 1
1030 1059 1
1117 1059 1
1126 1059 1
1146 1059 1
1147 1059 1
41 1060 1
45 1060 1
1017 1060 1
1031 1060 1
1118 1060 1
1127 1060 1
1147 1060 1
1148 1060 1
42 1061 1
46 1061 1
1018 1061 1
1032 1061 1
1119 1061 1
1128 1061 1
1148 1061 1
1149 1061 1
43 1062 1
47 1062 1
1019 1062 1
1033 1062 1
1120 1062 1
1129 1062 1
1149 1062 1
1150 1062 1
44 1063 1
48 1063 1
1020 1063 1
1034 1063 1
1121 1063 1
1130 1063 1
1150 1063 1
1151 1063 1
45 1064 1
49 1064 1
1021 1064 1
1035 1064 1
1122 1064 1
1131 1064 1
1151 1064 1
1152 1064 1
46 1065 1
50 1065 1
1022 1065 1
1036 1065 1
1103 1065 1
1123 1065 1
1152 1065 1
1153 1065 1
47 1066 1
51 1066 1
1023 1066 1
1037 1066 1
1104 1066 1
1124 1066 1
1153 1066 1
1154 1066 1
48 1067 1
52 1067 1
1024 1067 1
1038 1067 1
1105 1067 1
1125 1067 1
1154 1067 1
1155 1067 1
49 1068 1
53 1068 1
1025 1068 1
1039 1068 1
1106 1068 1
1126 1068 1
1155 1068 1
1156 1068 1
50 1069 1
54 1069 1
1026 1069 1
1040 1069 1
1107 1069 1
1127 1069 1
1156 1069 1
1157 1069 1
51 1070 1
55 1070 1
1027 1070 1
1041 1070 1
1108 1070 1
1128 1070 1
1157 1070 1
1158 1070 1
52 1071 1
56 1071 1
1028 1071 1
1042 1071 1
1109 1071 1
1129 1071 1
1158 1071 1
1159 1071 1
53 1072 1
57 1072 1
1029 1072 1
1043 1072 1
1110 1072 1
1130 1072 1
1159 1072 1
1160 1072 1
54 1073 1
58 1073 1
1030 1073 1
1044 1073 1
1111 1073 1
1131 1073 1
1132 1073 1
1160 1073 1
59 1074 1
84 1074 1
1045 1074 1
1060 1074 1
1103 1074 1
1115 1074 1
1161 1074 1
1162 1074 1
60 1075 1
85 1075 1
1046 1075 1
1061 1075 1
1104 1075 1
1116 1075 1
1162 1075 1
1163 1075 1
61 1076 1
86 1076 1
1047 1076 1
1062 1076 1
1105 1076 1
1117 1076 1
1163 1076 1
1164 1076 1
62 1077 1
87 1077 1
1048 1077 1
1063 1077 1
1106 1077 1
1118 1077 1
1164 1077 1
1165 1077 1
59 1078 1
63 1078 1
1049 1078 1
1064 1078 1
1107 1078 1
1119 1078 1
1165 1078 1
1166 1078 1
60 1079 1
64 1079 1
1050 1079 1
1065 1079 1
1108 1079 1
1120 1079 1
1166 1079 1
1167 1079 1
61 1080 1
65 1080 1
1051 1080 1
1066 1080 1
1109 1080 1
1121 1080 1
1167 1080 1
1168 1080 1
62 1081 1
66 1081 1
1052 1081 1
1067 1081 1
1110 1081 1
1122 1081 1
1168 1081 1
1169 1081 1
63 1082 1
67 1082 1
1053 1082 1
1068 1082 1
1111 1082 1
1123 1082 1
1169 1082 1
1170 1082 1
64 1083 1
68 1083 1
1054 1083 1
1069 1083 1
1112 1083 1
1124 1083 1
1170 1083 1
1171 1083 1
65 1084 1
69 1084 1
1055 1084 1
1070 1084 1
1113 1084 1
1125 1084 1
1171 1084 1
1172 1084 1
66 1085 1
70 1085 1
1056 1085 1
1071 1085 1
1114 1085 1
1126 1085 1
1172 1085 1
1173 1085 1
67 1086 1
71 1086 1
1057 1086 1
1072 1086 1
1115 1086 1
1127 1086 1
1173 1086 1
1174 1086 1
68 1087 1
72 1087 1
1058 1087 1
1073 1087 1
1116 1087 1
1128 1087 1
1174 1087 1
1175 1087 1
69 1088 1
73 1088 1
1045 1088 1
1059 1088 1
1117 1088 1
1129 1088 1
1175 1088 1
1176 1088 1
70 1089 1
74 1089 1
1046 1089 1
1060 1089 1
1118 1089 1
1130 1089 1
1176 1089 1
1177 1089 1
71 1090 1
75 1090 1
1047 1090 1
1061 1090 1
1119 1090 1
1131 1090 1
1177 1090 1
1178 1090 1
72 1091 1
76 1091 1
1048 1091 1
1062 1091 1
1103 1091 1
1120 1091 1
1178 1091 1
1179 1091 1
73 1092 1
77 1092 1
1049 1092 1
1063 1092 1
1104 1092 1
1121 1092 1
1179 1092 1
1180 1092 1
74 1093 1
78 1093 1
1050 1093 1
1064 1093 1
1105 1093 1
1122 1093 1
1180 1093 1
1181 1093 1
75 1094 1
79 1094 1
1051 1094 1
1065 1094 1
1106 1094 1
1123 1094 1
1181 1094 1
1182 1094 1
76 1095 1
80 1095 1
1052 1095 1
1066 1095 1
1107 1095 1
1124 1095 1
1182 1095 1
1183 1095 1
77 1096 1
81 1096 1
1053 1096 1
1067 1096 1
1108 1096 1
1125 1096 1
1183 1096 1
1184 1096 1
78 1097 1
82 1097 1
1054 1097 1
1068 1097 1
1109 1097 1
1126 1097 1
1184 1097 1
1185 1097 1
79 1098 1
83 1098 1
1055 1098 1
1069 1098 1
1110 1098 1
1127 1098 1
1185 1098 1
1186 1098 1
80 1099 1
84 1099 1
1056 1099 1
1070 1099 1
1111 1099 1
1128 1099 1
1186 1099 1
1187 1099 1
81 1100 1
85 1100 1
1057 1100 1
1071 1100 1
1112 1100 1
1129 1100 1
1187 1100 1
1188 1100 1
82 1101 1
86 1101 1
1058 1101 1
1072 1101 1
1113 1101 1
1130 1101 1
1188 1101 1
1189 1101 1
83 1102 1
87 1102 1
1059 1102 1
1073 1102 1
1114 1102 1
1131 1102 1
1161 1102 1
1189 1102 1
88 1103 1
113 1103 1
1074 1103 1
1089 1103 1
1132 1103 1
1144 1103 1
1161 1103 1
1170 1103 1
89 1104 1
114 1104 1
1075 1104 1
1090 1104 1
1133 1104 1
1145 1104 1
1162 1104 1
1171 1104 1
90 1105 1
115 1105 1
1076 1105 1
1091 1105 1
1134 1105 1
1146 1105 1
1163 1105 1
1172 1105 1
91 1106 1
116 1106 1
1077 1106 1
1092 1106 1
1135 1106 1
1147 1106 1
1164 1106 1
1173 1106 1
88 1107 1
92 1107 1
1078 1107 1
1093 1107 1
1136 1107 1
1148 1107 1
1165 1107 1
1174 1107 1
89 1108 1
93 1108 1
1079 1108 1
1094 1108 1
1137 1108 1
1149 1108 1
1166 1108 1
1175 1108 1
90 1109 1
94 1109 1
1080 1109 1
1095 1109 1
1138 1109 1
1150 1109 1
1167 1109 1
1176 1109 1
91 1110 1
95 1110 1
1081 1110 1
1096 1110 1
1139 1110 1
1151 1110 1
1168 1110 1
1177 1110 1
92 1111 1
96 1111 1
1082 1111 1
1097 1111 1
1140 1111 1
1152 1111 1
1169 1111 1
1178 1111 1
93 1112 1
97 1112 1
1083 1112 1
1098 1112 1
1141 1112 1
1153 1112 1
1170 1112 1
1179 1112 1
94 1113 1
98 1113 1
1084 1113 1
1099 1113 1
1142 1113 1
1154 1113 1
1171 1113 1
1180 1113 1
95 1114 1
99 1114 1
1085 1114 1
1100 1114 1
1143 1114 1
1155 1114 1
1172 1114 1
1181 1114 1
96 1115 1
100 1115 1
1086 1115 1
1101 1115 1
1144 1115 1
1156 1115 1
1173 1115 1
1182 1115 1
97 1116 1
101 1116 1
1087 1116 1
1102 1116 1
1145 1116 1
1157 1116 1
1174 1116 1
1183 1116 1
98 1117 1
102 1117 1
1074 1117 1
1088 1117 1
1146 1117 1
1158 1117 1
1175 1117 1
1184 1117 1
99 1118 1
103 1118 1
1075 1118 1
1089 1118 1
1147 1118 1
1159 1118 1
1176 1118 1
1185 1118 1
100 1119 1
104 1119 1
1076 1119 1
1090 1119 1
1148 1119 1
1160 1119 1
1177 1119 1
1186 1119 1
101 1120 1
105 1120 1
1077 1120 1
1091 1120 1
1132 1120 1
1149 1120 1
1178 1120 1
1187 1120 1
102 1121 1
106 1121 1
1078 1121 1
1092 1121 1
1133 1121 1
1150 1121 1
1179 1121 1
1188 1121 1
103 1122 1
107 1122 1
1079 1122 1
1093 1122 1
1134 1122 1
1151 1122 1
1180 1122 1
1189 1122 1
104 1123 1
108 1123 1
1080 1123 1
1094 1123 1
1135 1123 1
1152 1123 1
1161 1123 1
1181 1123 1
105 1124 1
109 1124 1
1081 1124 1
1095 1124 1
1136 1124 1
1153 1124 1
1162 1124 1
1182 1124 1
106 1125 1
110 1125 1
1082 1125 1
1096 1125 1
1137 1125 1
1154 1125 1
1163 1125 1
1183 1125 1
107 1126 1
111 1126 1
1083 1126 1
1097 1126 1
1138 1126 1
1155 1126 1
1164 1126 1
1184 1126 1
108 1127 1
112 1127 1
1084 1127 1
1098 1127 1
1139 1127 1
1156 1127 1
1165 1127 1
1185 1127 1
109 1128 1
113 1128 1
1085 1128 1
1099 1128 1
1140 1128 1
1157 1128 1
1166 1128 1
1186 1128 1
110 1129 1
114 1129 1
1086 1129 1
1100 1129 1
1141 1129 1
1158 1129 1
1167 1129 1
1187 1129 1
111 1130 1
115 1130 1
1087 1130 1
1101 1130 1
1142 1130 1
1159 1130 1
1168 1130 1
1188 1130 1
112 1131 1
116 1131 1
1088 1131 1
1102 1131 1
1143 1131 1
1160 1131 1
1169 1131 1
1189 1131 1
117 1132 1
142 1132 1
1016 1132 1
1032 1132 1
1190 1132 1
1199 1132 1
1219 1132 1
1220 1132 1
118 1133 1
143 1133 1
1017 1133 1
1033 1133 1
1191 1133 1
1200 1133 1
1220 1133 1
1221 1133 1
119 1134 1
144 1134 1
1018 1134 1
1034 1134 1
1192 1134 1
1201 1134 1
1221 1134 1
1222 1134 1
120 1135 1
145 1135 1
1019 1135 1
1035 1135 1
1193 1135 1
1202 1135 1
1222 1135 1
1223 1135 1
117 1136 1
121 1136 1
1020 1136 1
1036 1136 1
1194 1136 1
1203 1136 1
1223 1136 1
1224 1136 1
118 1137 1
122 1137 1
1021 1137 1
1037 1137 1
1195 1137 1
1204 1137 1
1224 1137 1
1225 1137 1
119 1138 1
123 1138 1
1022 1138 1
1038 1138 1
1196 1138 1
1205 1138 1
1225 1138 1
1226 1138 1
120 1139 1
124 1139 1
1023 1139 1
1039 1139 1
1197 1139 1
1206 1139 1
1226 1139 1
1227 1139 1
121 1140 1
125 1140 1
1024 1140 1
1040 1140 1
1198 1140 1
1207 1140 1
1227 1140 1
1228 1140 1
122 1141 1
126 1141 1
1025 1141 1
1041 1141 1
1199 1141 1
1208 1141 1
1228 1141 1
1229 1141 1
123 1142 1
127 1142 1
1026 1142 1
1042 1142 1
1200 1142 1
1209 1142 1
1229 1142 1
1230 1142 1
124 1143 1
128 1143 1
1027 1143 1
1043 1143 1
1201 1143 1
1210 1143 1
1230 1143 1
1231 1143 1
125 1144 1
129 1144 1
1028 1144 1
1044 1144 1
1202 1144 1
1211 1144 1
1231 1144 1
1232 1144 1
126 1145 1
130 1145 1
1016 1145 1
1029 1145 1
1203 1145 1
1212 1145 1
1232 1145 1
1233 1145 1
127 1146 1
131 1146 1
1017 1146 1
1030 1146 1
1204 1146 1
1213 1146 1
1233 1146 1
1234 1146 1
128 1147 1
132 1147 1
1018 1147 1
1031 1147 1
1205 1147 1
1214 1147 1
1234 1147 1
1235 1147 1
129 1148 1
133 1148 1
1019 1148 1
1032 1148 1
1206 1148 1
1215 1148 1
1235 1148 1
1236 1148 1
130 1149 1
134 1149 1
1020 1149 1
1033 1149 1
1207 1149 1
1216 1149 1
1236 1149 1
1237 1149 1
131 1150 1
135 1150 1
1021 1150 1
1034 1150 1
1208 1150 1
1217 1150 1
1237 1150 1
1238 1150 1
132 1151 1
136 1151 1
1022 1151 1
1035 1151 1
1209 1151 1
1218 1151 1
1238 1151 1
1239 1151 1
133 1152 1
137 1152 1
1023 1152 1
1036 1152 1
1190 1152 1
1210 1152 1
1239 1152 1
1240 1152 1
134 1153 1
138 1153 1
1024 1153 1
1037 1153 1
1191 1153 1
1211 1153 1
1240 1153 1
1241 1153 1
135 1154 1
139 1154 1
1025 1154 1
1038 1154 1
1192 1154 1
1212 1154 1
1241 1154 1
1242 1154 1
136 1155 1
140 1155 1
1026 1155 1
1039 1155 1
1193 1155 1
1213 1155 1
1242 1155 1
1243 1155 1
137 1156 1
141 1156 1
1027 1156 1
1040 1156 1
1194 1156 1
1214 1156 1
1243 1156 1
1244 1156 1
138 1157 1
142 1157 1
1028 1157 1
1041 1157 1
1195 1157 1
1215 1157 1
1244 1157 1
1245 1157 1
139 1158 1
143 1158 1
1029 1158 1
1042 1158 1
1196 1158 1
1216 1158 1
1245 1158 1
1246 1158 1
140 1159 1
144 1159 1
1030 1159 1
1043 1159 1
1197 1159 1
1217 1159 1
1246 1159 1
1247 1159 1
141 1160 1
145 1160 1
1031 1160 1
1044 1160 1
1198 1160 1
1218 1160 1
1219 1160 1
1247 1160 1
146 1161 1
171 1161 1
1045 1161 1
1061 1161 1
1190 1161 1
1202 1161 1
1248 1161 1
1249 1161 1
147 1162 1
172 1162 1
1046 1162 1
1062 1162 1
1191 1162 1
1203 1162 1
1249 1162 1
1250 1162 1
148 1163 1
173 1163 1
1047 1163 1
1063 1163 1
1192 1163 1
1204 1163 1
1250 1163 1
1251 1163 1
149 1164 1
174 1164 1
1048 1164 1
1064 1164 1
1193 1164 1
1205 1164 1
1251 1164 1
1252 1164 1
146 1165 1
150 1165 1
1049 1165 1
1065 1165 1
1194 1165 1
1206 1165 1
1252 1165 1
1253 1165 1
147 1166 1
151 1166 1
1050 1166 1
1066 1166 1
1195 1166 1
1207 1166 1
1253 1166 1
1254 1166 1
148 1167 1
152 1167 1
1051 1167 1
1067 1167 1
1196 1167 1
1208 1167 1
1254 1167 1
1255 1167 1
149 1168 1
153 1168 1
1052 1168 1
1068 1168 1
1197 1168 1
1209 1168 1
1255 1168 1
1256 1168 1
150 1169 1
154 1169 1
1053 1169 1
1069 1169 1
1198 1169 1
1210 1169 1
1256 1169 1
1257 1169 1
151 1170 1
155 1170 1
1054 1170 1
1070 1170 1
1199 1170 1
1211 1170 1
1257 1170 1
1258 1170 1
152 1171 1
156 1171 1
1055 1171 1
1071 1171 1
1200 1171 1
1212 1171 1
1258 1171 1
1259 1171 1
153 1172 1
157 1172 1
1056 1172 1
1072 1172 1
1201 1172 1
1213 1172 1
1259 1172 1
1260 1172 1
154 1173 1
158 1173 1
1057 1173 1
1073 1173 1
1202 1173 1
1214 1173 1
1260 1173 1
1261 1173 1
155 1174 1
159 1174 1
1045 1174 1
1058 1174 1
1203 1174 1
1215 1174 1
1261 1174 1
1262 1174 1
156 1175 1
160 1175 1
1046 1175 1
1059 1175 1
1204 1175 1
1216 1175 1
1262 1175 1
1263 1175 1
157 1176 1
161 1176 1
1047 1176 1
1060 1176 1
1205 1176 1
1217 1176 1
1263 1176 1
1264 1176 1
158 1177 1
162 1177 1
1048 1177 1
1061 1177 1
1206 1177 1
1218 1177 1
1264 1177 1
1265 1177 1
159 1178 1
163 1178 1
1049 1178 1
1062 1178 1
1190 1178 1
1207 1178 1
1265 1178 1
1266 1178 1
160 1179 1
164 1179 1
1050 1179 1
1063 1179 1
1191 1179 1
1208 1179 1
1266 1179 1
1267 1179 1
161 1180 1
165 1180 1
1051 1180 1
1064 1180 1
1192 1180 1
1209 1180 1
1267 1180 1
1268 1180 1
162 1181 1
166 1181 1
1052 1181 1
1065 1181 1
1193 1181 1
1210 1181 1
1268 1181 1
1269 1181 1
163 1182 1
167 1182 1
1053 1182 1
1066 1182 1
1194 1182 1
1211 1182 1
1269 1182 1
1270 1182 1
164 1183 1
168 1183 1
1054 1183 1
1067 1183 1
1195 1183 1
1212 1183 1
1270 1183 1
1271 1183 1
165 1184 1
169 1184 1
1055 1184 1
1068 1184 1
1196 1184 1
1213 1184 1
1271 1184 1
1272 1184 1
166 1185 1
170 1185 1
1056 1185 1
1069 1185 1
1197 1185 1
1214 1185 1
1272 1185 1
1273 1185 1
167 1186 1
171 1186 1
1057 1186 1
1070 1186 1
1198 1186 1
1215 1186 1
1273 1186 1
1274 1186 1
168 1187 1
172 1187 1
1058 1187 1
1071 1187 1
1199 1187 1
1216 1187 1
1274 1187 1
1275 1187 1
169 1188 1
173 1188 1
1059 1188 1
1072 1188 1
1200 1188 1
1217 1188 1
1275 1188 1
1276 1188 1
170 1189 1
174 1189 1
1060 1189 1
1073 1189 1
1201 1189 1
1218 1189 1
1248 1189 1
1276 1189 1
175 1190 1
200 1190 1
1074 1190 1
1090 1190 1
1219 1190 1
1231 1190 1
1248 1190 1
1257 1190 1
176 1191 1
201 1191 1
1075 1191 1
1091 1191 1
1220 1191 1
1232 1191 1
1249 1191 1
1258 1191 1
177 1192 1
202 1192 1
1076 1192 1
1092 1192 1
1221 1192 1
1233 1192 1
1250 1192 1
1259 1192 1
178 1193 1
203 1193 1
1077 1193 1
1093 1193 1
1222 1193 1
1234 1193 1
1251 1193 1
1260 1193 1
175 1194 1
179 1194 1
1078 1194 1
1094 1194 1
1223 1194 1
1235 1194 1
1252 1194 1
1261 1194 1
176 1195 1
180 1195 1
1079 1195 1
1095 1195 1
1224 1195 1
1236 1195 1
1253 1195 1
1262 1195 1
177 1196 1
181 1196 1
1080 1196 1
1096 1196 1
1225 1196 1
1237 1196 1
1254 1196 1
1263 1196 1
178 1197 1
182 1197 1
1081 1197 1
1097 1197 1
1226 1197 1
1238 1197 1
1255 1197 1
1264 1197 1
179 1198 1
183 1198 1
1082 1198 1
1098 1198 1
1227 1198 1
1239 1198 1
1256 1198 1
1265 1198 1
180 1199 1
184 1199 1
1083 1199 1
1099 1199 1
1228 1199 1
1240 1199 1
1257 1199 1
1266 1199 1
181 1200 1
185 1200 1
1084 1200 1
1100 1200 1
1229 1200 1
1241 1200 1
1258 1200 1
1267 1200 1
182 1201 1
186 1201 1
1085 1201 1
1101 1201 1
1230 1201 1
1242 1201 1
1259 1201 1
1268 1201 1
183 1202 1
187 1202 1
1086 1202 1
1102 1202 1
1231 1202 1
1243 1202 1
1260 1202 1
1269 1202 1
184 1203 1
188 1203 1
1074 1203 1
1087 1203 1
1232 1203 1
1244 1203 1
1261 1203 1
1270 1203 1
185 1204 1
189 1204 1
1075 1204 1
1088 1204 1
1233 1204 1
1245 1204 1
1262 1204 1
1271 1204 1
186 1205 1
190 1205 1
1076 1205 1
1089 1205 1
1234 1205 1
1246 1205 1
1263 1205 1
1272 1205 1
187 1206 1
191 1206 1
1077 1206 1
1090 1206 1
1235 1206 1
1247 1206 1
1264 1206 1
1273 1206 1
188 1207 1
192 1207 1
1078 1207 1
1091 1207 1
1219 1207 1
1236 1207 1
1265 1207 1
1274 1207 1
189 1208 1
193 1208 1
1079 1208 1
1092 1208 1
1220 1208 1
1237 1208 1
1266 1208 1
1275 1208 1
190 1209 1
194 1209 1
1080 1209 1
1093 1209 1
1221 1209 1
1238 1209 1
1267 1209 1
1276 1209 1
191 1210 1
195 1210 1
1081 1210 1
1094 1210 1
1222 1210 1
1239 1210 1
1248 1210 1
1268 1210 1
192 1211 1
196 1211 1
1082 1211 1
1095 1211 1
1223 1211 1
1240 1211 1
1249 1211 1
1269 1211 1
193 1212 1
197 1212 1
1083 1212 1
1096 1212 1
1224 1212 1
1241 1212 1
1250 1212 1
1270 1212 1
194 1213 1
198 1213 1
1084 1213 1
1097 1213 1
1225 1213 1
1242 1213 1
1251 1213 1
1271 1213 1
195 1214 1
199 1214 1
1085 1214 1
1098 1214 1
1226 1214 1
1243 1214 1
1252 1214 1
1272 1214 1
196 1215 1
200 1215 1
1086 1215 1
1099 1215 1
1227 1215 1
1244 1215 1
1253 1215 1
1273 1215 1
197 1216 1
201 1216 1
1087 1216 1
1100 1216 1
1228 1216 1
1245 1216 1
1254 1216 1
1274 1216 1
198 1217 1
202 1217 1
1088 1217 1
1101 1217 1
1229 1217 1
1246 1217 1
1255 1217 1
1275 1217 1
199 1218 1
203 1218 1
1089 1218 1
1102 1218 1
1230 1218 1
1247 1218 1
1256 1218 1
1276 1218 1
204 1219 1
229 1219 1
1103 1219 1
1119 1219 1
1190 1219 1
1205 1219 1
1277 1219 1
1278 1219 1
205 1220 1
230 1220 1
1104 1220 1
1120 1220 1
1191 1220 1
1206 1220 1
1278 1220 1
1279 1220 1
206 1221 1
231 1221 1
1105 1221 1
1121 1221 1
1192 1221 1
1207 1221 1
1279 1221 1
1280 1221 1
207 1222 1
232 1222 1
1106 1222 1
1122 1222 1
1193 1222 1
1208 1222 1
1280 1222 1
1281 1222 1
204 1223 1
208 1223 1
1107 1223 1
1123 1223 1
1194 1223 1
1209 1223 1
1281 1223 1
1282 1223 1
205 1224 1
209 1224 1
1108 1224 1
1124 1224 1
1195 1224 1
1210 1224 1
1282 1224 1
1283 1224 1
206 1225 1
210 1225 1
1109 1225 1
1125 1225 1
1196 1225 1
1211 1225 1
1283 1225 1
1284 1225 1
207 1226 1
211 1226 1
1110 1226 1
1126 1226 1
1197 1226 1
1212 1226 1
1284 1226 1
1285 1226 1
208 1227 1
212 1227 1
1111 1227 1
1127 1227 1
1198 1227 1
1213 1227 1
1285 1227 1
1286 1227 1
209 1228 1
213 1228 1
1112 1228 1
1128 1228 1
1199 1228 1
1214 1228 1
1286 1228 1
1287 1228 1
210 1229 1
214 1229 1
1113 1229 1
1129 1229 1
1200 1229 1
1215 1229 1
1287 1229 1
1288 1229 1
211 1230 1
215 1230 1
1114 1230 1
1130 1230 1
1201 1230 1
1216 1230 1
1288 1230 1
1289 1230 1
212 1231 1
216 1231 1
1115 1231 1
1131 1231 1
1202 1231 1
1217 1231 1
1289 1231 1
1290 1231 1
213 1232 1
217 1232 1
1103 1232 1
1116 1232 1
1203 1232 1
1218 1232 1
1290 1232 1
1291 1232 1
214 1233 1
218 1233 1
1104 1233 1
1117 1233 1
1190 1233 1
1204 1233 1
1291 1233 1
1292 1233 1
215 1234 1
219 1234 1
1105 1234 1
1118 1234 1
1191 1234 1
1205 1234 1
1292 1234 1
1293 1234 1
216 1235 1
220 1235 1
1106 1235 1
1119 1235 1
1192 1235 1
1206 1235 1
1293 1235 1
1294 1235 1
217 1236 1
221 1236 1
1107 1236 1
1120 1236 1
1193 1236 1
1207 1236 1
1294 1236 1
1295 1236 1
218 1237 1
222 1237 1
1108 1237 1
1121 1237 1
1194 1237 1
1208 1237 1
1295 1237 1
1296 1237 1
219 1238 1
223 1238 1
1109 1238 1
1122 1238 1
1195 1238 1
1209 1238 1
1296 1238 1
1297 1238 1
220 1239 1
224 1239 1
1110 1239 1
1123 1239 1
1196 1239 1
1210 1239 1
1297 1239 1
1298 1239 1
221 1240 1
225 1240 1
1111 1240 1
1124 1240 1
1197 1240 1
1211 1240 1
1298 1240 1
1299 1240 1
222 1241 1
226 1241 1
1112 1241 1
1125 1241 1
1198 1241 1
1212 1241 1
1299 1241 1
1300 1241 1
223 1242 1
227 1242 1
1113 1242 1
1126 1242 1
1199 1242 1
1213 1242 1
1300 1242 1
1301 1242 1
224 1243 1
228 1243 1
1114 1243 1
1127 1243 1
1200 1243 1
1214 1243 1
1301 1243 1
1302 1243 1
225 1244 1
229 1244 1
1115 1244 1
1128 1244 1
1201 1244 1
1215 1244 1
1302 1244 1
1303 1244 1
226 1245 1
230 1245 1
1116 1245 1
1129 1245 1
1202 1245 1
1216 1245 1
1303 1245 1
1304 1245 1
227 1246 1
231 1246 1
1117 1246 1
1130 1246 1
1203 1246 1
1217 1246 1
1304 1246 1
1305 1246 1
228 1247 1
232 1247 1
1118 1247 1
1131 1247 1
1204 1247 1
1218 1247 1
1277 1247 1
1305 1247 1
233 1248 1
258 1248 1
1132 1248 1
1148 1248 1
1219 1248 1
1234 1248 1
1277 1248 1
1286 1248 1
234 1249 1
259 1249 1
1133 1249 1
1149 1249 1
1220 1249 1
1235 1249 1
1278 1249 1
1287 1249 1
235 1250 1
260 1250 1
1134 1250 1
1150 1250 1
1221 1250 1
1236 1250 1
1279 1250 1
1288 1250 1
236 1251 1
261 1251 1
1135 1251 1
1151 1251 1
1222 1251 1
1237 1251 1
1280 1251 1
1289 1251 1
233 1252 1
237 1252 1
1136 1252 1
1152 1252 1
1223 1252 1
1238 1252 1
1281 1252 1
1290 1252 1
234 1253 1
238 1253 1
1137 1253 1
1153 1253 1
1224 1253 1
1239 1253 1
1282 1253 1
1291 1253 1
235 1254 1
239 1254 1
1138 1254 1
1154 1254 1
1225 1254 1
1240 1254 1
1283 1254 1
1292 1254 1
236 1255 1
240 1255 1
1139 1255 1
1155 1255 1
1226 1255 1
1241 1255 1
1284 1255 1
1293 1255 1
237 1256 1
241 1256 1
1140 1256 1
1156 1256 1
1227 1256 1
1242 1256 1
1285 1256 1
1294 1256 1
238 1257 1
242 1257 1
1141 1257 1
1157 1257 1
1228 1257 1
1243 1257 1
1286 1257 1
1295 1257 1
239 1258 1
243 1258 1
1142 1258 1
1158 1258 1
1229 1258 1
1244 1258 1
1287 1258 1
1296 1258 1
240 1259 1
244 1259 1
1143 1259 1
1159 1259 1
1230 1259 1
1245 1259 1
1288 1259 1
1297 1259 1
241 1260 1
245 1260 1
1144 1260 1
1160 1260 1
1231 1260 1
1246 1260 1
1289 1260 1
1298 1260 1
242 1261 1
246 1261 1
1132 1261 1
1145 1261 1
1232 1261 1
1247 1261 1
1290 1261 1
1299 1261 1
243 1262 1
247 1262 1
1133 1262 1
1146 1262 1
1219 1262 1
1233 1262 1
1291 1262 1
1300 1262 1
244 1263 1
248 1263 1
1134 1263 1
1147 1263 1
1220 1263 1
1234 1263 1
1292 1263 1
1301 1263 1
245 1264 1
249 1264 1
1135 1264 1
1148 1264 1
1221 1264 1
1235 1264 1
1293 1264 1
1302 1264 1
246 1265 1
250 1265 1
1136 1265 1
1149 1265 1
1222 1265 1
1236 1265 1
1294 1265 1
1303 1265 1
247 1266 1
251 1266 1
1137 1266 1
1150 1266 1
1223 1266 1
1237 1266 1
1295 1266 1
1304 1266 1
248 1267 1
252 1267 1
1138 1267 1
1151 1267 1
1224 1267 1
1238 1267 1
1296 1267 1
1305 1267 1
249 1268 1
253 1268 1
1139 1268 1
1152 1268 1
1225 1268 1
1239 1268 1
1277 1268 1
1297 1268 1
250 1269 1
254 1269 1
1140 1269 1
1153 1269 1
1226 1269 1
1240 1269 1
1278 1269 1
1298 1269 1
251 1270 1
255 1270 1
1141 1270 1
1154 1270 1
1227 1270 1
1241 1270 1
1279 1270 1
1299 1270 1
252 1271 1
256 1271 1
1142 1271 1
1155 1271 1
1228 1271 1
1242 1271 1
1280 1271 1
1300 1271 1
253 1272 1
257 1272 1
1143 1272 1
1156 1272 1
1229 1272 1
1243 1272 1
1281 1272 1
1301 1272 1
254 1273 1
258 1273 1
1144 1273 1
1157 1273 1
1230 1273 1
1244 1273 1
1282 1273 1
1302 1273 1
255 1274 1
259 1274 1
1145 1274 1
1158 1274 1
1231 1274 1
1245 1274 1
1283 1274 1
1303 1274 1
256 1275 1
260 1275 1
1146 1275 1
1159 1275 1
1232 1275 1
1246 1275 1
1284 1275 1
1304 1275 1
257 1276 1
261 1276 1
1147 1276 1
1160 1276 1
1233 1276 1
1247 1276 1
1285 1276 1
1305 1276 1
262 1277 1
287 1277 1
1161 1277 1
1177 1277 1
1248 1277 1
1263 1277 1
1277 1277 1
1289 1277 1
263 1278 1
288 1278 1
1162 1278 1
1178 1278 1
1249 1278 1
1264 1278 1
1278 1278 1
1290 1278 1
264 1279 1
289 1279 1
1163 1279 1
1179 1279 1
1250 1279 1
1265 1279 1
1279 1279 1
1291 1279 1
265 1280 1
290 1280 1
1164 1280 1
1180 1280 1
1251 1280 1
1266 1280 1
1280 1280 1
1292 1280 1
262 1281 1
266 1281 1
1165 1281 1
1181 1281 1
1252 1281 1
1267 1281 1
1281 1281 1
1293 1281 1
263 1282 1
267 1282 1
1166 1282 1
1182 1282 1
1253 1282 1
1268 1282 1
1282 1282 1
1294 1282 1
264 1283 1
268 1283 1
1167 1283 1
1183 1283 1
1254 1283 1
1269 1283 1
1283 1283 1
1295 1283 1
265 1284 1
269 1284 1
1168 1284 1
1184 1284 1
1255 1284 1
1270 1284 1
1284 1284 1
1296 1284 1
266 1285 1
270 1285 1
1169 1285 1
1185 1285 1
1256 1285 1
1271 1285 1
1285 1285 1
1297 1285 1
267 1286 1
271 1286 1
1170 1286 1
1186 1286 1
1257 1286 1
1272 1286 1
1286 1286 1
1298 1286 1
268 1287 1
272 1287 1
1171 1287 1
1187 1287 1
1258 1287 1
1273 1287 1
1287 1287 1
1299 1287 1
269 1288 1
273 1288 1
1172 1288 1
1188 1288 1
1259 1288 1
1274 1288 1
1288 1288 1
1300 1288 1
270 1289 1
274 1289 1
1173 1289 1
1189 1289 1
1260 1289 1
1275 1289 1
1289 1289 1
1301 1289 1
271 1290 1
275 1290 1
1161 1290 1
1174 1290 1
1261 1290 1
1276 1290 1
1290 1290 1
1302 1290 1
272 1291 1
276 1291 1
1162 1291 1
1175 1291 1
1248 1291 1
1262 1291 1
1291 1291 1
1303 1291 1
273 1292 1
277 1292 1
1163 1292 1
1176 1292 1
1249 1292 1
1263 1292 1
1292 1292 1
1304 1292 1
274 1293 1
278 1293 1
1164 1293 1
1177 1293 1
1250 1293 1
1264 1293 1
1293 1293 1
1305 1293 1
275 1294 1
279 1294 1
1165 1294 1
1178 1294 1
1251 1294 1
1265 1294 1
1277 1294 1
1294 1294 1
276 1295 1
280 1295 1
1166 1295 1
1179 1295 1
1252 1295 1
1266 1295 1
1278 1295 1
1295 1295 1
277 1296 1
281 1296 1
1167 1296 1
1180 1296 1
1253 1296 1
1267 1296 1
1279 1296 1
1296 1296 1
278 1297 1
282 1297 1
1168 1297 1
1181 1297 1
1254 1297 1
1268 1297 1
1280 1297 1
1297 1297 1
279 1298 1
283 1298 1
1169 1298 1
1182 1298 1
1255 1298 1
1269 1298 1
1281 1298 1
1298 1298 1
280 1299 1
284 1299 1
1170 1299 1
1183 1299 1
1256 1299 1
1270 1299 1
1282 1299 1
1299 1299 1
281 1300 1
285 1300 1
1171 1300 1
1184 1300 1
1257 1300 1
1271 1300 1
1283 1300 1
1300 1300 1
282 1301 1
286 1301 1
1172 1301 1
1185 1301 1
1258 1301 1
1272 1301 1
1284 1301 1
1301 1301 1
283 1302 1
287 1302 1
1173 1302 1
1186 1302 1
1259 1302 1
1273 1302 1
1285 1302 1
1302 1302 1
284 1303 1
288 1303 1
1174 1303 1
1187 1303 1
1260 1303 1
1274 1303 1
1286 1303 1
1303 1303 1
285 1304 1
289 1304 1
1175 1304 1
1188 1304 1
1261 1304 1
1275 1304 1
1287 1304 1
1304 1304 1
286 1305 1
290 1305 1
1176 1305 1
1189 1305 1
1262 1305 1
1276 1305 1
1288 1305 1
1305 1305 1
291 1306 1
316 1306 1
1016 1306 1
1034 1306 1
1306 1306 1
1315 1306 1
1335 1306 1
1336 1306 1
292 1307 1
317 1307 1
1017 1307 1
1035 1307 1
1307 1307 1
1316 1307 1
1336 1307 1
1337 1307 1
293 1308 1
318 1308 1
1018 1308 1
1036 1308 1
1308 1308 1
1317 1308 1
1337 1308 1
1338 1308 1
294 1309 1
319 1309 1
1019 1309 1
1037 1309 1
1309 1309 1
1318 1309 1
1338 1309 1
1339 1309 1
291 1310 1
295 1310 1
1020 1310 1
1038 1310 1
1310 1310 1
1319 1310 1
1339 1310 1
1340 1310 1
292 1311 1
296 1311 1
1021 1311 1
1039 1311 1
1311 1311 1
1320 1311 1
1340 1311 1
1341 1311 1
293 1312 1
297 1312 1
1022 1312 1
1040 1312 1
1312 1312 1
1321 1312 1
1341 1312 1
1342 1312 1
294 1313 1
298 1313 1
1023 1313 1
1041 1313 1
1313 1313 1
1322 1313 1
1342 1313 1
1343 1313 1
295 1314 1
299 1314 1
1024 1314 1
1042 1314 1
1314 1314 1
1323 1314 1
1343 1314 1
1344 1314 1
296 1315 1
300 1315 1
1025 1315 1
1043 1315 1
1315 1315 1
1324 1315 1
1344 1315 1
1345 1315 1
297 1316 1
301 1316 1
1026 1316 1
1044 1316 1
1316 1316 1
1325 1316 1
1345 1316 1
1346 1316 1
298 1317 1
302 1317 1
1016 1317 1
1027 1317 1
1317 1317 1
1326 1317 1
1346 1317 1
1347 1317 1
299 1318 1
303 1318 1
1017 1318 1
1028 1318 1
1318 1318 1
1327 1318 1
1347 1318 1
1348 1318 1
300 1319 1
304 1319 1
1018 1319 1
1029 1319 1
1319 1319 1
1328 1319 1
1348 1319 1
1349 1319 1
301 1320 1
305 1320 1
1019 1320 1
1030 1320 1
1320 1320 1
1329 1320 1
1349 1320 1
1350 1320 1
302 1321 1
306 1321 1
1020 1321 1
1031 1321 1
1321 1321 1
1330 1321 1
1350 1321 1
1351 1321 1
303 1322 1
307 1322 1
1021 1322 1
1032 1322 1
1322 1322 1
1331 1322 1
1351 1322 1
1352 1322 1
304 1323 1
308 1323 1
1022 1323 1
1033 1323 1
1323 1323 1
1332 1323 1
1352 1323 1
1353 1323 1
305 1324 1
309 1324 1
1023 1324 1
1034 1324 1
1324 1324 1
1333 1324 1
1353 1324 1
1354 1324 1
306 1325 1
310 1325 1
1024 1325 1
1035 1325 1
1325 1325 1
1334 1325 1
1354 1325 1
1355 1325 1
307 1326 1
311 1326 1
1025 1326 1
1036 1326 1
1306 1326 1
1326 1326 1
1355 1326 1
1356 1326 1
308 1327 1
312 1327 1
1026 1327 1
1037 1327 1
1307 1327 1
1327 1327 1
1356 1327 1
1357 1327 1
309 1328 1
313 1328 1
1027 1328 1
1038 1328 1
1308 1328 1
1328 1328 1
1357 1328 1
1358 1328 1
310 1329 1
314 1329 1
1028 1329 1
1039 1329 1
1309 1329 1
1329 1329 1
1358 1329 1
1359 1329 1
311 1330 1
315 1330 1
1029 1330 1
1040 1330 1
1310 1330 1
1330 1330 1
1359 1330 1
1360 1330 1
312 1331 1
316 1331 1
1030 1331 1
1041 1331 1
1311 1331 1
1331 1331 1
1360 1331 1
1361 1331 1
313 1332 1
317 1332 1
1031 1332 1
1042 1332 1
1312 1332 1
1332 1332 1
1361 1332 1
1362 1332 1
314 1333 1
318 1333 1
1032 1333 1
1043 1333 1
1313 1333 1
1333 1333 1
1362 1333 1
1363 1333 1
315 1334 1
319 1334 1
1033 1334 1
1044 1334 1
1314 1334 1
1334 1334 1
1335 1334 1
1363 1334 1
320 1335 1
345 1335 1
1045 1335 1
1063 1335 1
1306 1335 1
1318 1335 1
1364 1335 1
1365 1335 1
321 1336 1
346 1336 1
1046 1336 1
1064 1336 1
1307 1336 1
1319 1336 1
1365 1336 1
1366 1336 1
322 1337 1
347 1337 1
1047 1337 1
1065 1337 1
1308 1337 1
1320 1337 1
1366 1337 1
1367 1337 1
323 1338 1
348 1338 1
1048 1338 1
1066 1338 1
1309 1338 1
1321 1338 1
1367 1338 1
1368 1338 1
320 1339 1
324 1339 1
1049 1339 1
1067 1339 1
1310 1339 1
1322 1339 1
1368 1339 1
1369 1339 1
321 1340 1
325 1340 1
1050 1340 1
1068 1340 1
1311 1340 1
1323 1340 1
1369 1340 1
1370 1340 1
322 1341 1
326 1341 1
1051 1341 1
1069 1341 1
1312 1341 1
1324 1341 1
1370 1341 1
1371 1341 1
323 1342 1
327 1342 1
1052 1342 1
1070 1342 1
1313 1342 1
1325 1342 1
1371 1342 1
1372 1342 1
324 1343 1
328 1343 1
1053 1343 1
1071 1343 1
1314 1343 1
1326 1343 1
1372 1343 1
1373 1343 1
325 1344 1
329 1344 1
1054 1344 1
1072 1344 1
1315 1344 1
1327 1344 1
1373 1344 1
1374 1344 1
326 1345 1
330 1345 1
1055 1345 1
1073 1345 1
1316 1345 1
1328 1345 1
1374 1345 1
1375 1345 1
327 1346 1
331 1346 1
1045 1346 1
1056 1346 1
1317 1346 1
1329 1346 1
1375 1346 1
1376 1346 1
328 1347 1
332 1347 1
1046 1347 1
1057 1347 1
1318 1347 1
1330 1347 1
1376 1347 1
1377 1347 1
329 1348 1
333 1348 1
1047 1348 1
1058 1348 1
1319 1348 1
1331 1348 1
1377 1348 1
1378 1348 1
330 1349 1
334 1349 1
1048 1349 1
1059 1349 1
1320 1349 1
1332 1349 1
1378 1349 1
1379 1349 1
331 1350 1
335 1350 1
1049 1350 1
1060 1350 1
1321 1350 1
1333 1350 1
1379 1350 1
1380 1350 1
332 1351 1
336 1351 1
1050 1351 1
1061 1351 1
1322 1351 1
1334 1351 1
1380 1351 1
1381 1351 1
333 1352 1
337 1352 1
1051 1352 1
1062 1352 1
1306 1352 1
1323 1352 1
1381 1352 1
1382 1352 1
334 1353 1
338 1353 1
1052 1353 1
1063 1353 1
1307 1353 1
1324 1353 1
1382 1353 1
1383 1353 1
335 1354 1
339 1354 1
1053 1354 1
1064 1354 1
1308 1354 1
1325 1354 1
1383 1354 1
1384 1354 1
336 1355 1
340 1355 1
1054 1355 1
1065 1355 1
1309 1355 1
1326 1355 1
1384 1355 1
1385 1355 1
337 1356 1
341 1356 1
1055 1356 1
1066 1356 1
1310 1356 1
1327 1356 1
1385 1356 1
1386 1356 1
338 1357 1
342 1357 1
1056 1357 1
1067 1357 1
1311 1357 1
1328 1357 1
1386 1357 1
1387 1357 1
339 1358 1
343 1358 1
1057 1358 1
1068 1358 1
1312 1358 1
1329 1358 1
1387 1358 1
1388 1358 1
340 1359 1
344 1359 1
1058 1359 1
1069 1359 1
1313 1359 1
1330 1359 1
1388 1359 1
1389 1359 1
341 1360 1
345 1360 1
1059 1360 1
1070 1360 1
1314 1360 1
1331 1360 1
1389 1360 1
1390 1360 1
342 1361 1
346 1361 1
1060 1361 1
1071 1361 1
1315 1361 1
1332 1361 1
1390 1361 1
1391 1361 1
343 1362 1
347 1362 1
1061 1362 1
1072 1362 1
1316 1362 1
1333 1362 1
1391 1362 1
1392 1362 1
344 1363 1
348 1363 1
1062 1363 1
1073 1363 1
1317 1363 1
1334 1363 1
1364 1363 1
1392 1363 1
349 1364 1
374 1364 1
1074 1364 1
1092 1364 1
1335 1364 1
1347 1364 1
1364 1364 1
1373 1364 1
350 1365 1
375 1365 1
1075 1365 1
1093 1365 1
1336 1365 1
1348 1365 1
1365 1365 1
1374 1365 1
351 1366 1
376 1366 1
1076 1366 1
1094 1366 1
1337 1366 1
1349 1366 1
1366 1366 1
1375 1366 1
352 1367 1
377 1367 1
1077 1367 1
1095 1367 1
1338 1367 1
1350 1367 1
1367 1367 1
1376 1367 1
349 1368 1
353 1368 1
1078 1368 1
1096 1368 1
1339 1368 1
1351 1368 1
1368 1368 1
1377 1368 1
350 1369 1
354 1369 1
1079 1369 1
1097 1369 1
1340 1369 1
1352 1369 1
1369 1369 1
1378 1369 1
351 1370 1
355 1370 1
1080 1370 1
1098 1370 1
1341 1370 1
1353 1370 1
1370 1370 1
1379 1370 1
352 1371 1
356 1371 1
1081 1371 1
1099 1371 1
1342 1371 1
1354 1371 1
1371 1371 1
1380 1371 1
353 1372 1
357 1372 1
1082 1372 1
1100 1372 1
1343 1372 1
1355 1372 1
1372 1372 1
1381 1372 1
354 1373 1
358 1373 1
1083 1373 1
1101 1373 1
1344 1373 1
1356 1373 1
1373 1373 1
1382 1373 1
355 1374 1
359 1374 1
1084 1374 1
1102 1374 1
1345 1374 1
1357 1374 1
1374 1374 1
1383 1374 1
356 1375 1
360 1375 1
1074 1375 1
1085 1375 1
1346 1375 1
1358 1375 1
1375 1375 1
1384 1375 1
357 1376 1
361 1376 1
1075 1376 1
1086 1376 1
1347 1376 1
1359 1376 1
1376 1376 1
1385 1376 1
358 1377 1
362 1377 1
1076 1377 1
1087 1377 1
1348 1377 1
1360 1377 1
1377 1377 1
1386 1377 1
359 1378 1
363 1378 1
1077 1378 1
1088 1378 1
1349 1378 1
1361 1378 1
1378 1378 1
1387 1378 1
360 1379 1
364 1379 1
1078 1379 1
1089 1379 1
1350 1379 1
1362 1379 1
1379 1379 1
1388 1379 1
361 1380 1
365 1380 1
1079 1380 1
1090 1380 1
1351 1380 1
1363 1380 1
1380 1380 1
1389 1380 1
362 1381 1
366 1381 1
1080 1381 1
1091 1381 1
1335 1381 1
1352 1381 1
1381 1381 1
1390 1381 1
363 1382 1
367 1382 1
1081 1382 1
1092 1382 1
1336 1382 1
1353 1382 1
1382 1382 1
1391 1382 1
364 1383 1
368 1383 1
1082 1383 1
1093 1383 1
1337 1383 1
1354 1383 1
1383 1383 1
1392 1383 1
365 1384 1
369 1384 1
1083 1384 1
1094 1384 1
1338 1384 1
1355 1384 1
1364 1384 1
1384 1384 1
366 1385 1
370 1385 1
1084 1385 1
1095 1385 1
1339 1385 1
1356 1385 1
1365 1385 1
1385 1385 1
367 1386 1
371 1386 1
1085 1386 1
1096 1386 1
1340 1386 1
1357 1386 1
1366 1386 1
1386 1386 1
368 1387 1
372 1387 1
1086 1387 1
1097 1387 1
1341 1387 1
1358 1387 1
1367 1387 1
1387 1387 1
369 1388 1
373 1388 1
1087 1388 1
1098 1388 1
1342 1388 1
1359 1388 1
1368 1388 1
1388 1388 1
370 1389 1
374 1389 1
1088 1389 1
1099 1389 1
1343 1389 1
1360 1389 1
1369 1389 1
1389 1389 1
371 1390 1
375 1390 1
1089 1390 1
1100 1390 1
1344 1390 1
1361 1390 1
1370 1390 1
1390 1390 1
372 1391 1
376 1391 1
1090 1391 1
1101 1391 1
1345 1391 1
1362 1391 1
1371 1391 1
1391 1391 1
373 1392 1
377 1392 1
1091 1392 1
1102 1392 1
1346 1392 1
1363 1392 1
1372 1392 1
1392 1392 1
378 1393 1
403 1393 1
1103 1393 1
1121 1393 1
1306 1393 1
1321 1393 1
1393 1393 1
1394 1393 1
379 1394 1
404 1394 1
1104 1394 1
1122 1394 1
1307 1394 1
1322 1394 1
1394 1394 1
1395 1394 1
380 1395 1
405 1395 1
1105 1395 1
1123 1395 1
1308 1395 1
1323 1395 1
1395 1395 1
1396 1395 1
381 1396 1
406 1396 1
1106 1396 1
1124 1396 1
1309 1396 1
1324 1396 1
1396 1396 1
1397 1396 1
378 1397 1
382 1397 1
1107 1397 1
1125 1397 1
1310 1397 1
1325 1397 1
1397 1397 1
1398 1397 1
379 1398 1
383 1398 1
1108 1398 1
1126 1398 1
1311 1398 1
1326 1398 1
1398 1398 1
1399 1398 1
380 1399 1
384 1399 1
1109 1399 1
1127 1399 1
1312 1399 1
1327 1399 1
1399 1399 1
1400 1399 1
381 1400 1
385 1400 1
1110 1400 1
1128 1400 1
1313 1400 1
1328 1400 1
1400 1400 1
1401 1400 1
382 1401 1
386 1401 1
1111 1401 1
1129 1401 1
1314 1401 1
1329 1401 1
1401 1401 1
1402 1401 1
383 1402 1
387 1402 1
1112 1402 1
1130 1402 1
1315 1402 1
1330 1402 1
1402 1402 1
1403 1402 1
384 1403 1
388 1403 1
1113 1403 1
1131 1403 1
1316 1403 1
1331 1403 1
1403 1403 1
1404 1403 1
385 1404 1
389 1404 1
1103 1404 1
1114 1404 1
1317 1404 1
1332 1404 1
1404 1404 1
1405 1404 1
386 1405 1
390 1405 1
1104 1405 1
1115 1405 1
1318 1405 1
1333 1405 1
1405 1405 1
1406 1405 1
387 1406 1
391 1406 1
1105 1406 1
1116 1406 1
1319 1406 1
1334 1406 1
1406 1406 1
1407 1406 1
388 1407 1
392 1407 1
1106 1407 1
1117 1407 1
1306 1407 1
1320 1407 1
1407 1407 1
1408 1407 1
389 1408 1
393 1408 1
1107 1408 1
1118 1408 1
1307 1408 1
1321 1408 1
1408 1408 1
1409 1408 1
390 1409 1
394 1409 1
1108 1409 1
1119 1409 1
1308 1409 1
1322 1409 1
1409 1409 1
1410 1409 1
391 1410 1
395 1410 1
1109 1410 1
1120 1410 1
1309 1410 1
1323 1410 1
1410 1410 1
1411 1410 1
392 1411 1
396 1411 1
1110 1411 1
1121 1411 1
1310 1411 1
1324 1411 1
1411 1411 1
1412 1411 1
393 1412 1
397 1412 1
1111 1412 1
1122 1412 1
1311 1412 1
1325 1412 1
1412 1412 1
1413 1412 1
394 1413 1
398 1413 1
1112 1413 1
1123 1413 1
1312 1413 1
1326 1413 1
1413 1413 1
1414 1413 1
395 1414 1
399 1414 1
1113 1414 1
1124 1414 1
1313 1414 1
1327 1414 1
1414 1414 1
1415 1414 1
396 1415 1
400 1415 1
1114 1415 1
1125 1415 1
1314 1415 1
1328 1415 1
1415 1415 1
1416 1415 1
397 1416 1
401 1416 1
1115 1416 1
1126 1416 1
1315 1416 1
1329 1416 1
1416 1416 1
1417 1416 1
398 1417 1
402 1417 1
1116 1417 1
1127 1417 1
1316 1417 1
1330 1417 1
1417 1417 1
1418 1417 1
399 1418 1
403 1418 1
1117 1418 1
1128 1418 1
1317 1418 1
1331 1418 1
1418 1418 1
1419 1418 1
400 1419 1
404 1419 1
1118 1419 1
1129 1419 1
1318 1419 1
1332 1419 1
1419 1419 1
1420 1419 1
401 1420 1
405 1420 1
1119 1420 1
1130 1420 1
1319 1420 1
1333 1420 1
1420 1420 1
1421 1420 1
402 1421 1
406 1421 1
1120 1421 1
1131 1421 1
1320 1421 1
1334 1421 1
1393 1421 1
1421 1421 1
407 1422 1
432 1422 1
1132 1422 1
1150 1422 1
1335 1422 1
1350 1422 1
1393 1422 1
1402 1422 1
408 1423 1
433 1423 1
1133 1423 1
1151 1423 1
1336 1423 1
1351 1423 1
1394 1423 1
1403 1423 1
409 1424 1
434 1424 1
1134 1424 1
1152 1424 1
1337 1424 1
1352 1424 1
1395 1424 1
1404 1424 1
410 1425 1
435 1425 1
1135 1425 1
1153 1425 1
1338 1425 1
1353 1425 1
1396 1425 1
1405 1425 1
407 1426 1
411 1426 1
1136 1426 1
1154 1426 1
1339 1426 1
1354 1426 1
1397 1426 1
1406 1426 1
408 1427 1
412 1427 1
1137 1427 1
1155 1427 1
1340 1427 1
1355 1427 1
1398 1427 1
1407 1427 1
409 1428 1
413 1428 1
1138 1428 1
1156 1428 1
1341 1428 1
1356 1428 1
1399 1428 1
1408 1428 1
410 1429 1
414 1429 1
1139 1429 1
1157 1429 1
1342 1429 1
1357 1429 1
1400 1429 1
1409 1429 1
411 1430 1
415 1430 1
1140 1430 1
1158 1430 1
1343 1430 1
1358 1430 1
1401 1430 1
1410 1430 1
412 1431 1
416 1431 1
1141 1431 1
1159 1431 1
1344 1431 1
1359 1431 1
1402 1431 1
1411 1431 1
413 1432 1
417 1432 1
1142 1432 1
1160 1432 1
1345 1432 1
1360 1432 1
1403 1432 1
1412 1432 1
414 1433 1
418 1433 1
1132 1433 1
1143 1433 1
1346 1433 1
1361 1433 1
1404 1433 1
1413 1433 1
415 1434 1
419 1434 1
1133 1434 1
1144 1434 1
1347 1434 1
1362 1434 1
1405 1434 1
1414 1434 1
416 1435 1
420 1435 1
1134 1435 1
1145 1435 1
1348 1435 1
1363 1435 1
1406 1435 1
1415 1435 1
417 1436 1
421 1436 1
1135 1436 1
1146 1436 1
1335 1436 1
1349 1436 1
1407 1436 1
1416 1436 1
418 1437 1
422 1437 1
1136 1437 1
1147 1437 1
1336 1437 1
1350 1437 1
1408 1437 1
1417 1437 1
419 1438 1
423 1438 1
1137 1438 1
1148 1438 1
1337 1438 1
1351 1438 1
1409 1438 1
1418 1438 1
420 1439 1
424 1439 1
1138 1439 1
1149 1439 1
1338 1439 1
1352 1439 1
1410 1439 1
1419 1439 1
421 1440 1
425 1440 1
1139 1440 1
1150 1440 1
1339 1440 1
1353 1440 1
1411 1440 1
1420 1440 1
422 1441 1
426 1441 1
1140 1441 1
1151 1441 1
1340 1441 1
1354 1441 1
1412 1441 1
1421 1441 1
423 1442 1
427 1442 1
1141 1442 1
1152 1442 1
1341 1442 1
1355 1442 1
1393 1442 1
1413 1442 1
424 1443 1
428 1443 1
1142 1443 1
1153 1443 1
1342 1443 1
1356 1443 1
1394 1443 1
1414 1443 1
425 1444 1
429 1444 1
1143 1444 1
1154 1444 1
1343 1444 1
1357 1444 1
1395 1444 1
1415 1444 1
426 1445 1
430 1445 1
1144 1445 1
1155 1445 1
1344 1445 1
1358 1445 1
1396 1445 1
1416 1445 1
427 1446 1
431 1446 1
1145 1446 1
1156 1446 1
1345 1446 1
1359 1446 1
1397 1446 1
1417 1446 1
428 1447 1
432 1447 1
1146 1447 1
1157 1447 1
1346 1447 1
1360 1447 1
1398 1447 1
1418 1447 1
429 1448 1
433 1448 1
1147 1448 1
1158 1448 1
1347 1448 1
1361 1448 1
1399 1448 1
1419 1448 1
430 1449 1
434 1449 1
1148 1449 1
1159 1449 1
1348 1449 1
1362 1449 1
1400 1449 1
1420 1449 1
431 1450 1
435 1450 1
1149 1450 1
1160 1450 1
1349 1450 1
1363 1450 1
1401 1450 1
1421 1450 1
436 1451 1
461 1451 1
1161 1451 1
1179 1451 1
1364 1451 1
1379 1451 1
1393 1451 1
1405 1451 1
437 1452 1
462 1452 1
1162 1452 1
1180 1452 1
1365 1452 1
1380 1452 1
1394 1452 1
1406 1452 1
438 1453 1
463 1453 1
1163 1453 1
1181 1453 1
1366 1453 1
1381 1453 1
1395 1453 1
1407 1453 1
439 1454 1
464 1454 1
1164 1454 1
1182 1454 1
1367 1454 1
1382 1454 1
1396 1454 1
1408 1454 1
436 1455 1
440 1455 1
1165 1455 1
1183 1455 1
1368 1455 1
1383 1455 1
1397 1455 1
1409 1455 1
437 1456 1
441 1456 1
1166 1456 1
1184 1456 1
1369 1456 1
1384 1456 1
1398 1456 1
1410 1456 1
438 1457 1
442 1457 1
1167 1457 1
1185 1457 1
1370 1457 1
1385 1457 1
1399 1457 1
1411 1457 1
439 1458 1
443 1458 1
1168 1458 1
1186 1458 1
1371 1458 1
1386 1458 1
1400 1458 1
1412 1458 1
440 1459 1
444 1459 1
1169 1459 1
1187 1459 1
1372 1459 1
1387 1459 1
1401 1459 1
1413 1459 1
441 1460 1
445 1460 1
1170 1460 1
1188 1460 1
1373 1460 1
1388 1460 1
1402 1460 1
1414 1460 1
442 1461 1
446 1461 1
1171 1461 1
1189 1461 1
1374 1461 1
1389 1461 1
1403 1461 1
1415 1461 1
443 1462 1
447 1462 1
1161 1462 1
1172 1462 1
1375 1462 1
1390 1462 1
1404 1462 1
1416 1462 1
444 1463 1
448 1463 1
1162 1463 1
1173 1463 1
1376 1463 1
1391 1463 1
1405 1463 1
1417 1463 1
445 1464 1
449 1464 1
1163 1464 1
1174 1464 1
1377 1464 1
1392 1464 1
1406 1464 1
1418 1464 1
446 1465 1
450 1465 1
1164 1465 1
1175 1465 1
1364 1465 1
1378 1465 1
1407 1465 1
1419 1465 1
447 1466 1
451 1466 1
1165 1466 1
1176 1466 1
1365 1466 1
1379 1466 1
1408 1466 1
1420 1466 1
448 1467 1
452 1467 1
1166 1467 1
1177 1467 1
1366 1467 1
1380 1467 1
1409 1467 1
1421 1467 1
449 1468 1
453 1468 1
1167 1468 1
1178 1468 1
1367 1468 1
1381 1468 1
1393 1468 1
1410 1468 1
450 1469 1
454 1469 1
1168 1469 1
1179 1469 1
1368 1469 1
1382 1469 1
1394 1469 1
1411 1469 1
451 1470 1
455 1470 1
1169 1470 1
1180 1470 1
1369 1470 1
1383 1470 1
1395 1470 1
1412 1470 1
452 1471 1
456 1471 1
1170 1471 1
1181 1471 1
1370 1471 1
1384 1471 1
1396 1471 1
1413 1471 1
453 1472 1
457 1472 1
1171 1472 1
1182 1472 1
1371 1472 1
1385 1472 1
1397 1472 1
1414 1472 1
454 1473 1
458 1473 1
1172 1473 1
1183 1473 1
1372 1473 1
1386 1473 1
1398 1473 1
1415 1473 1
455 1474 1
459 1474 1
1173 1474 1
1184 1474 1
1373 1474 1
1387 1474 1
1399 1474 1
1416 1474 1
456 1475 1
460 1475 1
1174 1475 1
1185 1475 1
1374 1475 1
1388 1475 1
1400 1475 1
1417 1475 1
457 1476 1
461 1476 1
1175 1476 1
1186 1476 1
1375 1476 1
1389 1476 1
1401 1476 1
1418 1476 1
458 1477 1
462 1477 1
1176 1477 1
1187 1477 1
1376 1477 1
1390 1477 1
1402 1477 1
1419 1477 1
459 1478 1
463 1478 1
1177 1478 1
1188 1478 1
1377 1478 1
1391 1478 1
1403 1478 1
1420 1478 1
460 1479 1
464 1479 1
1178 1479 1
1189 1479 1
1378 1479 1
1392 1479 1
1404 1479 1
1421 1479 1
465 1480 1
490 1480 1
1190 1480 1
1208 1480 1
1306 1480 1
1322 1480 1
1422 1480 1
1423 1480 1
466 1481 1
491 1481 1
1191 1481 1
1209 1481 1
1307 1481 1
1323 1481 1
1423 1481 1
1424 1481 1
467 1482 1
492 1482 1
1192 1482 1
1210 1482 1
1308 1482 1
1324 1482 1
1424 1482 1
1425 1482 1
468 1483 1
493 1483 1
1193 1483 1
1211 1483 1
1309 1483 1
1325 1483 1
1425 1483 1
1426 1483 1
465 1484 1
469 1484 1
1194 1484 1
1212 1484 1
1310 1484 1
1326 1484 1
1426 1484 1
1427 1484 1
466 1485 1
470 1485 1
1195 1485 1
1213 1485 1
1311 1485 1
1327 1485 1
1427 1485 1
1428 1485 1
467 1486 1
471 1486 1
1196 1486 1
1214 1486 1
1312 1486 1
1328 1486 1
1428 1486 1
1429 1486 1
468 1487 1
472 1487 1
1197 1487 1
1215 1487 1
1313 1487 1
1329 1487 1
1429 1487 1
1430 1487 1
469 1488 1
473 1488 1
1198 1488 1
1216 1488 1
1314 1488 1
1330 1488 1
1430 1488 1
1431 1488 1
470 1489 1
474 1489 1
1199 1489 1
1217 1489 1
1315 1489 1
1331 1489 1
1431 1489 1
1432 1489 1
471 1490 1
475 1490 1
1200 1490 1
1218 1490 1
1316 1490 1
1332 1490 1
1432 1490 1
1433 1490 1
472 1491 1
476 1491 1
1190 1491 1
1201 1491 1
1317 1491 1
1333 1491 1
1433 1491 1
1434 1491 1
473 1492 1
477 1492 1
1191 1492 1
1202 1492 1
1318 1492 1
1334 1492 1
1434 1492 1
1435 1492 1
474 1493 1
478 1493 1
1192 1493 1
1203 1493 1
1306 1493 1
1319 1493 1
1435 1493 1
1436 1493 1
475 1494 1
479 1494 1
1193 1494 1
1204 1494 1
1307 1494 1
1320 1494 1
1436 1494 1
1437 1494 1
476 1495 1
480 1495 1
1194 1495 1
1205 1495 1
1308 1495 1
1321 1495 1
1437 1495 1
1438 1495 1
477 1496 1
481 1496 1
1195 1496 1
1206 1496 1
1309 1496 1
1322 1496 1
1438 1496 1
1439 1496 1
478 1497 1
482 1497 1
1196 1497 1
1207 1497 1
1310 1497 1
1323 1497 1
1439 1497 1
1440 1497 1
479 1498 1
483 1498 1
1197 1498 1
1208 1498 1
1311 1498 1
1324 1498 1
1440 1498 1
1441 1498 1
480 1499 1
484 1499 1
1198 1499 1
1209 1499 1
1312 1499 1
1325 1499 1
1441 1499 1
1442 1499 1
481 1500 1
485 1500 1
1199 1500 1
1210 1500 1
1313 1500 1
1326 1500 1
1442 1500 1
1443 1500 1
482 1501 1
486 1501 1
1200 1501 1
1211 1501 1
1314 1501 1
1327 1501 1
1443 1501 1
1444 1501 1
483 1502 1
487 1502 1
1201 1502 1
1212 1502 1
1315 1502 1
1328 1502 1
1444 1502 1
1445 1502 1
484 1503 1
488 1503 1
1202 1503 1
1213 1503 1
1316 1503 1
1329 1503 1
1445 1503 1
1446 1503 1
485 1504 1
489 1504 1
1203 1504 1
1214 1504 1
1317 1504 1
1330 1504 1
1446 1504 1
1447 1504 1
486 1505 1
490 1505 1
1204 1505 1
1215 1505 1
1318 1505 1
1331 1505 1
1447 1505 1
1448 1505 1
487 1506 1
491 1506 1
1205 1506 1
1216 1506 1
1319 1506 1
1332 1506 1
1448 1506 1
1449 1506 1
488 1507 1
492 1507 1
1206 1507 1
1217 1507 1
1320 1507 1
1333 1507 1
1449 1507 1
1450 1507 1
489 1508 1
493 1508 1
1207 1508 1
1218 1508 1
1321 1508 1
1334 1508 1
1422 1508 1
1450 1508 1
494 1509 1
519 1509 1
1219 1509 1
1237 1509 1
1335 1509 1
1351 1509 1
1422 1509 1
1431 1509 1
495 1510 1
520 1510 1
1220 1510 1
1238 1510 1
1336 1510 1
1352 1510 1
1423 1510 1
1432 1510 1
496 1511 1
521 1511 1
1221 1511 1
1239 1511 1
1337 1511 1
1353 1511 1
1424 1511 1
1433 1511 1
497 1512 1
522 1512 1
1222 1512 1
1240 1512 1
1338 1512 1
1354 1512 1
1425 1512 1
1434 1512 1
494 1513 1
498 1513 1
1223 1513 1
1241 1513 1
1339 1513 1
1355 1513 1
1426 1513 1
1435 1513 1
495 1514 1
499 1514 1
1224 1514 1
1242 1514 1
1340 1514 1
1356 1514 1
1427 1514 1
1436 1514 1
496 1515 1
500 1515 1
1225 1515 1
1243 1515 1
1341 1515 1
1357 1515 1
1428 1515 1
1437 1515 1
497 1516 1
501 1516 1
1226 1516 1
1244 1516 1
1342 1516 1
1358 1516 1
1429 1516 1
1438 1516 1
498 1517 1
502 1517 1
1227 1517 1
1245 1517 1
1343 1517 1
1359 1517 1
1430 1517 1
1439 1517 1
499 1518 1
503 1518 1
1228 1518 1
1246 1518 1
1344 1518 1
1360 1518 1
1431 1518 1
1440 1518 1
500 1519 1
504 1519 1
1229 1519 1
1247 1519 1
1345 1519 1
1361 1519 1
1432 1519 1
1441 1519 1
501 1520 1
505 1520 1
1219 1520 1
1230 1520 1
1346 1520 1
1362 1520 1
1433 1520 1
1442 1520 1
502 1521 1
506 1521 1
1220 1521 1
1231 1521 1
1347 1521 1
1363 1521 1
1434 1521 1
1443 1521 1
503 1522 1
507 1522 1
1221 1522 1
1232 1522 1
1335 1522 1
1348 1522 1
1435 1522 1
1444 1522 1
504 1523 1
508 1523 1
1222 1523 1
1233 1523 1
1336 1523 1
1349 1523 1
1436 1523 1
1445 1523 1
505 1524 1
509 1524 1
1223 1524 1
1234 1524 1
1337 1524 1
1350 1524 1
1437 1524 1
1446 1524 1
506 1525 1
510 1525 1
1224 1525 1
1235 1525 1
1338 1525 1
1351 1525 1
1438 1525 1
1447 1525 1
507 1526 1
511 1526 1
1225 1526 1
1236 1526 1
1339 1526 1
1352 1526 1
1439 1526 1
1448 1526 1
508 1527 1
512 1527 1
1226 1527 1
1237 1527 1
1340 1527 1
1353 1527 1
1440 1527 1
1449 1527 1
509 1528 1
513 1528 1
1227 1528 1
1238 1528 1
1341 1528 1
1354 1528 1
1441 1528 1
1450 1528 1
510 1529 1
514 1529 1
1228 1529 1
1239 1529 1
1342 1529 1
1355 1529 1
1422 1529 1
1442 1529 1
511 1530 1
515 1530 1
1229 1530 1
1240 1530 1
1343 1530 1
1356 1530 1
1423 1530 1
1443 1530 1
512 1531 1
516 1531 1
1230 1531 1
1241 1531 1
1344 1531 1
1357 1531 1
1424 1531 1
1444 1531 1
513 1532 1
517 1532 1
1231 1532 1
1242 1532 1
1345 1532 1
1358 1532 1
1425 1532 1
1445 1532 1
514 1533 1
518 1533 1
1232 1533 1
1243 1533 1
1346 1533 1
1359 1533 1
1426 1533 1
1446 1533 1
515 1534 1
519 1534 1
1233 1534 1
1244 1534 1
1347 1534 1
1360 1534 1
1427 1534 1
1447 1534 1
516 1535 1
520 1535 1
1234 1535 1
1245 1535 1
1348 1535 1
1361 1535 1
1428 1535 1
1448 1535 1
517 1536 1
521 1536 1
1235 1536 1
1246 1536 1
1349 1536 1
1362 1536 1
1429 1536 1
1449 1536 1
518 1537 1
522 1537 1
1236 1537 1
1247 1537 1
1350 1537 1
1363 1537 1
1430 1537 1
1450 1537 1
523 1538 1
548 1538 1
1248 1538 1
1266 1538 1
1364 1538 1
1380 1538 1
1422 1538 1
1434 1538 1
524 1539 1
549 1539 1
1249 1539 1
1267 1539 1
1365 1539 1
1381 1539 1
1423 1539 1
1435 1539 1
525 1540 1
550 1540 1
1250 1540 1
1268 1540 1
1366 1540 1
1382 1540 1
1424 1540 1
1436 1540 1
526 1541 1
551 1541 1
1251 1541 1
1269 1541 1
1367 1541 1
1383 1541 1
1425 1541 1
1437 1541 1
523 1542 1
527 1542 1
1252 1542 1
1270 1542 1
1368 1542 1
1384 1542 1
1426 1542 1
1438 1542 1
524 1543 1
528 1543 1
1253 1543 1
1271 1543 1
1369 1543 1
1385 1543 1
1427 1543 1
1439 1543 1
525 1544 1
529 1544 1
1254 1544 1
1272 1544 1
1370 1544 1
1386 1544 1
1428 1544 1
1440 1544 1
526 1545 1
530 1545 1
1255 1545 1
1273 1545 1
1371 1545 1
1387 1545 1
1429 1545 1
1441 1545 1
527 1546 1
531 1546 1
1256 1546 1
1274 1546 1
1372 1546 1
1388 1546 1
1430 1546 1
1442 1546 1
528 1547 1
532 1547 1
1257 1547 1
1275 1547 1
1373 1547 1
1389 1547 1
1431 1547 1
1443 1547 1
529 1548 1
533 1548 1
1258 1548 1
1276 1548 1
1374 1548 1
1390 1548 1
1432 1548 1
1444 1548 1
530 1549 1
534 1549 1
1248 1549 1
1259 1549 1
1375 1549 1
1391 1549 1
1433 1549 1
1445 1549 1
531 1550 1
535 1550 1
1249 1550 1
1260 1550 1
1376 1550 1
1392 1550 1
1434 1550 1
1446 1550 1
532 1551 1
536 1551 1
1250 1551 1
1261 1551 1
1364 1551 1
1377 1551 1
1435 1551 1
1447 1551 1
533 1552 1
537 1552 1
1251 1552 1
1262 1552 1
1365 1552 1
1378 1552 1
1436 1552 1
1448 1552 1
534 1553 1
538 1553 1
1252 1553 1
1263 1553 1
1366 1553 1
1379 1553 1
1437 1553 1
1449 1553 1
535 1554 1
539 1554 1
1253 1554 1
1264 1554 1
1367 1554 1
1380 1554 1
1438 1554 1
1450 1554 1
536 1555 1
540 1555 1
1254 1555 1
1265 1555 1
1368 1555 1
1381 1555 1
1422 1555 1
1439 1555 1
537 1556 1
541 1556 1
1255 1556 1
1266 1556 1
1369 1556 1
1382 1556 1
1423 1556 1
1440 1556 1
538 1557 1
542 1557 1
1256 1557 1
1267 1557 1
1370 1557 1
1383 1557 1
1424 1557 1
1441 1557 1
539 1558 1
543 1558 1
1257 1558 1
1268 1558 1
1371 1558 1
1384 1558 1
1425 1558 1
1442 1558 1
540 1559 1
544 1559 1
1258 1559 1
1269 1559 1
1372 1559 1
1385 1559 1
1426 1559 1
1443 1559 1
541 1560 1
545 1560 1
1259 1560 1
1270 1560 1
1373 1560 1
1386 1560 1
1427 1560 1
1444 1560 1
542 1561 1
546 1561 1
1260 1561 1
1271 1561 1
1374 1561 1
1387 1561 1
1428 1561 1
1445 1561 1
543 1562 1
547 1562 1
1261 1562 1
1272 1562 1
1375 1562 1
1388 1562 1
1429 1562 1
1446 1562 1
544 1563 1
548 1563 1
1262 1563 1
1273 1563 1
1376 1563 1
1389 1563 1
1430 1563 1
1447 1563 1
545 1564 1
549 1564 1
1263 1564 1
1274 1564 1
1377 1564 1
1390 1564 1
1431 1564 1
1448 1564 1
546 1565 1
550 1565 1
1264 1565 1
1275 1565 1
1378 1565 1
1391 1565 1
1432 1565 1
1449 1565 1
547 1566 1
551 1566 1
1265 1566 1
1276 1566 1
1379 1566 1
1392 1566 1
1433 1566 1
1450 1566 1
552 1567 1
577 1567 1
1277 1567 1
1295 1567 1
1393 1567 1
1409 1567 1
1422 1567 1
1437 1567 1
553 1568 1
578 1568 1
1278 1568 1
1296 1568 1
1394 1568 1
1410 1568 1
1423 1568 1
1438 1568 1
554 1569 1
579 1569 1
1279 1569 1
1297 1569 1
1395 1569 1
1411 1569 1
1424 1569 1
1439 1569 1
555 1570 1
580 1570 1
1280 1570 1
1298 1570 1
1396 1570 1
1412 1570 1
1425 1570 1
1440 1570 1
552 1571 1
556 1571 1
1281 1571 1
1299 1571 1
1397 1571 1
1413 1571 1
1426 1571 1
1441 1571 1
553 1572 1
557 1572 1
1282 1572 1
1300 1572 1
1398 1572 1
1414 1572 1
1427 1572 1
1442 1572 1
554 1573 1
558 1573 1
1283 1573 1
1301 1573 1
1399 1573 1
1415 1573 1
1428 1573 1
1443 1573 1
555 1574 1
559 1574 1
1284 1574 1
1302 1574 1
1400 1574 1
1416 1574 1
1429 1574 1
1444 1574 1
556 1575 1
560 1575 1
1285 1575 1
1303 1575 1
1401 1575 1
1417 1575 1
1430 1575 1
1445 1575 1
557 1576 1
561 1576 1
1286 1576 1
1304 1576 1
1402 1576 1
1418 1576 1
1431 1576 1
1446 1576 1
558 1577 1
562 1577 1
1287 1577 1
1305 1577 1
1403 1577 1
1419 1577 1
1432 1577 1
1447 1577 1
559 1578 1
563 1578 1
1277 1578 1
1288 1578 1
1404 1578 1
1420 1578 1
1433 1578 1
1448 1578 1
560 1579 1
564 1579 1
1278 1579 1
1289 1579 1
1405 1579 1
1421 1579 1
1434 1579 1
1449 1579 1
561 1580 1
565 1580 1
1279 1580 1
1290 1580 1
1393 1580 1
1406 1580 1
1435 1580 1
1450 1580 1
562 1581 1
566 1581 1
1280 1581 1
1291 1581 1
1394 1581 1
1407 1581 1
1422 1581 1
1436 1581 1
563 1582 1
567 1582 1
1281 1582 1
1292 1582 1
1395 1582 1
1408 1582 1
1423 1582 1
1437 1582 1
564 1583 1
568 1583 1
1282 1583 1
1293 1583 1
1396 1583 1
1409 1583 1
1424 1583 1
1438 1583 1
565 1584 1
569 1584 1
1283 1584 1
1294 1584 1
1397 1584 1
1410 1584 1
1425 1584 1
1439 1584 1
566 1585 1
570 1585 1
1284 1585 1
1295 1585 1
1398 1585 1
1411 1585 1
1426 1585 1
1440 1585 1
567 1586 1
571 1586 1
1285 1586 1
1296 1586 1
1399 1586 1
1412 1586 1
1427 1586 1
1441 1586 1
568 1587 1
572 1587 1
1286 1587 1
1297 1587 1
1400 1587 1
1413 1587 1
1428 1587 1
1442 1587 1
569 1588 1
573 1588 1
1287 1588 1
1298 1588 1
1401 1588 1
1414 1588 1
1429 1588 1
1443 1588 1
570 1589 1
574 1589 1
1288 1589 1
1299 1589 1
1402 1589 1
1415 1589 1
1430 1589 1
1444 1589 1
571 1590 1
575 1590 1
1289 1590 1
1300 1590 1
1403 1590 1
1416 1590 1
1431 1590 1
1445 1590 1
572 1591 1
576 1591 1
1290 1591 1
1301 1591 1
1404 1591 1
1417 1591 1
1432 1591 1
1446 1591 1
573 1592 1
577 1592 1
1291 1592 1
1302 1592 1
1405 1592 1
1418 1592 1
1433 1592 1
1447 1592 1
574 1593 1
578 1593 1
1292 1593 1
1303 1593 1
1406 1593 1
1419 1593 1
1434 1593 1
1448 1593 1
575 1594 1
579 1594 1
1293 1594 1
1304 1594 1
1407 1594 1
1420 1594 1
1435 1594 1
1449 1594 1
576 1595 1
580 1595 1
1294 1595 1
1305 1595 1
1408 1595 1
1421 1595 1
1436 1595 1
1450 1595 1
581 1596 1
606 1596 1
1016 1596 1
1038 1596 1
1451 1596 1
1460 1596 1
1480 1596 1
1481 1596 1
582 1597 1
607 1597 1
1017 1597 1
1039 1597 1
1452 1597 1
1461 1597 1
1481 1597 1
1482 1597 1
583 1598 1
608 1598 1
1018 1598 1
1040 1598 1
1453 1598 1
1462 1598 1
1482 1598 1
1483 1598 1
584 1599 1
609 1599 1
1019 1599 1
1041 1599 1
1454 1599 1
1463 1599 1
1483 1599 1
1484 1599 1
581 1600 1
585 1600 1
1020 1600 1
1042 1600 1
1455 1600 1
1464 1600 1
1484 1600 1
1485 1600 1
582 1601 1
586 1601 1
1021 1601 1
1043 1601 1
1456 1601 1
1465 1601 1
1485 1601 1
1486 1601 1
583 1602 1
587 1602 1
1022 1602 1
1044 1602 1
1457 1602 1
1466 1602 1
1486 1602 1
1487 1602 1
584 1603 1
588 1603 1
1016 1603 1
1023 1603 1
1458 1603 1
1467 1603 1
1487 1603 1
1488 1603 1
585 1604 1
589 1604 1
1017 1604 1
1024 1604 1
1459 1604 1
1468 1604 1
1488 1604 1
1489 1604 1
586 1605 1
590 1605 1
1018 1605 1
1025 1605 1
1460 1605 1
1469 1605 1
1489 1605 1
1490 1605 1
587 1606 1
591 1606 1
1019 1606 1
1026 1606 1
1461 1606 1
1470 1606 1
1490 1606 1
1491 1606 1
588 1607 1
592 1607 1
1020 1607 1
1027 1607 1
1462 1607 1
1471 1607 1
1491 1607 1
1492 1607 1
589 1608 1
593 1608 1
1021 1608 1
1028 1608 1
1463 1608 1
1472 1608 1
1492 1608 1
1493 1608 1
590 1609 1
594 1609 1
1022 1609 1
1029 1609 1
1464 1609 1
1473 1609 1
1493 1609 1
1494 1609 1
591 1610 1
595 1610 1
1023 1610 1
1030 1610 1
1465 1610 1
1474 1610 1
1494 1610 1
1495 1610 1
592 1611 1
596 1611 1
1024 1611 1
1031 1611 1
1466 1611 1
1475 1611 1
1495 1611 1
1496 1611 1
593 1612 1
597 1612 1
1025 1612 1
1032 1612 1
1467 1612 1
1476 1612 1
1496 1612 1
1497 1612 1
594 1613 1
598 1613 1
1026 1613 1
1033 1613 1
1468 1613 1
1477 1613 1
1497 1613 1
1498 1613 1
595 1614 1
599 1614 1
1027 1614 1
1034 1614 1
1469 1614 1
1478 1614 1
1498 1614 1
1499 1614 1
596 1615 1
600 1615 1
1028 1615 1
1035 1615 1
1470 1615 1
1479 1615 1
1499 1615 1
1500 1615 1
597 1616 1
601 1616 1
1029 1616 1
1036 1616 1
1451 1616 1
1471 1616 1
1500 1616 1
1501 1616 1
598 1617 1
602 1617 1
1030 1617 1
1037 1617 1
1452 1617 1
1472 1617 1
1501 1617 1
1502 1617 1
599 1618 1
603 1618 1
1031 1618 1
1038 1618 1
1453 1618 1
1473 1618 1
1502 1618 1
1503 1618 1
600 1619 1
604 1619 1
1032 1619 1
1039 1619 1
1454 1619 1
1474 1619 1
1503 1619 1
1504 1619 1
601 1620 1
605 1620 1
1033 1620 1
1040 1620 1
1455 1620 1
1475 1620 1
1504 1620 1
1505 1620 1
602 1621 1
606 1621 1
1034 1621 1
1041 1621 1
1456 1621 1
1476 1621 1
1505 1621 1
1506 1621 1
603 1622 1
607 1622 1
1035 1622 1
1042 1622 1
1457 1622 1
1477 1622 1
1506 1622 1
1507 1622 1
604 1623 1
608 1623 1
1036 1623 1
1043 1623 1
1458 1623 1
1478 1623 1
1507 1623 1
1508 1623 1
605 1624 1
609 1624 1
1037 1624 1
1044 1624 1
1459 1624 1
1479 1624 1
1480 1624 1
1508 1624 1
610 1625 1
635 1625 1
1045 1625 1
1067 1625 1
1451 1625 1
1463 1625 1
1509 1625 1
1510 1625 1
611 1626 1
636 1626 1
1046 1626 1
1068 1626 1
1452 1626 1
1464 1626 1
1510 1626 1
1511 1626 1
612 1627 1
637 1627 1
1047 1627 1
1069 1627 1
1453 1627 1
1465 1627 1
1511 1627 1
1512 1627 1
613 1628 1
638 1628 1
1048 1628 1
1070 1628 1
1454 1628 1
1466 1628 1
1512 1628 1
1513 1628 1
610 1629 1
614 1629 1
1049 1629 1
1071 1629 1
1455 1629 1
1467 1629 1
1513 1629 1
1514 1629 1
611 1630 1
615 1630 1
1050 1630 1
1072 1630 1
1456 1630 1
1468 1630 1
1514 1630 1
1515 1630 1
612 1631 1
616 1631 1
1051 1631 1
1073 1631 1
1457 1631 1
1469 1631 1
1515 1631 1
1516 1631 1
613 1632 1
617 1632 1
1045 1632 1
1052 1632 1
1458 1632 1
1470 1632 1
1516 1632 1
1517 1632 1
614 1633 1
618 1633 1
1046 1633 1
1053 1633 1
1459 1633 1
1471 1633 1
1517 1633 1
1518 1633 1
615 1634 1
619 1634 1
1047 1634 1
1054 1634 1
1460 1634 1
1472 1634 1
1518 1634 1
1519 1634 1
616 1635 1
620 1635 1
1048 1635 1
1055 1635 1
1461 1635 1
1473 1635 1
1519 1635 1
1520 1635 1
617 1636 1
621 1636 1
1049 1636 1
1056 1636 1
1462 1636 1
1474 1636 1
1520 1636 1
1521 1636 1
618 1637 1
622 1637 1
1050 1637 1
1057 1637 1
1463 1637 1
1475 1637 1
1521 1637 1
1522 1637 1
619 1638 1
623 1638 1
1051 1638 1
1058 1638 1
1464 1638 1
1476 1638 1
1522 1638 1
1523 1638 1
620 1639 1
624 1639 1
1052 1639 1
1059 1639 1
1465 1639 1
1477 1639 1
1523 1639 1
1524 1639 1
621 1640 1
625 1640 1
1053 1640 1
1060 1640 1
1466 1640 1
1478 1640 1
1524 1640 1
1525 1640 1
622 1641 1
626 1641 1
1054 1641 1
1061 1641 1
1467 1641 1
1479 1641 1
1525 1641 1
1526 1641 1
623 1642 1
627 1642 1
1055 1642 1
1062 1642 1
1451 1642 1
1468 1642 1
1526 1642 1
1527 1642 1
624 1643 1
628 1643 1
1056 1643 1
1063 1643 1
1452 1643 1
1469 1643 1
1527 1643 1
1528 1643 1
625 1644 1
629 1644 1
1057 1644 1
1064 1644 1
1453 1644 1
1470 1644 1
1528 1644 1
1529 1644 1
626 1645 1
630 1645 1
1058 1645 1
1065 1645 1
1454 1645 1
1471 1645 1
1529 1645 1
1530 1645 1
627 1646 1
631 1646 1
1059 1646 1
1066 1646 1
1455 1646 1
1472 1646 1
1530 1646 1
1531 1646 1
628 1647 1
632 1647 1
1060 1647 1
1067 1647 1
1456 1647 1
1473 1647 1
1531 1647 1
1532 1647 1
629 1648 1
633 1648 1
1061 1648 1
1068 1648 1
1457 1648 1
1474 1648 1
1532 1648 1
1533 1648 1
630 1649 1
634 1649 1
1062 1649 1
1069 1649 1
1458 1649 1
1475 1649 1
1533 1649 1
1534 1649 1
631 1650 1
635 1650 1
1063 1650 1
1070 1650 1
1459 1650 1
1476 1650 1
1534 1650 1
1535 1650 1
632 1651 1
636 1651 1
1064 1651 1
1071 1651 1
1460 1651 1
1477 1651 1
1535 1651 1
1536 1651 1
633 1652 1
637 1652 1
1065 1652 1
1072 1652 1
1461 1652 1
1478 1652 1
1536 1652 1
1537 1652 1
634 1653 1
638 1653 1
1066 1653 1
1073 1653 1
1462 1653 1
1479 1653 1
1509 1653 1
1537 1653 1
639 1654 1
664 1654 1
1074 1654 1
1096 1654 1
1480 1654 1
1492 1654 1
1509 1654 1
1518 1654 1
640 1655 1
665 1655 1
1075 1655 1
1097 1655 1
1481 1655 1
1493 1655 1
1510 1655 1
1519 1655 1
641 1656 1
666 1656 1
1076 1656 1
1098 1656 1
1482 1656 1
1494 1656 1
1511 1656 1
1520 1656 1
642 1657 1
667 1657 1
1077 1657 1
1099 1657 1
1483 1657 1
1495 1657 1
1512 1657 1
1521 1657 1
639 1658 1
643 1658 1
1078 1658 1
1100 1658 1
1484 1658 1
1496 1658 1
1513 1658 1
1522 1658 1
640 1659 1
644 1659 1
1079 1659 1
1101 1659 1
1485 1659 1
1497 1659 1
1514 1659 1
1523 1659 1
641 1660 1
645 1660 1
1080 1660 1
1102 1660 1
1486 1660 1
1498 1660 1
1515 1660 1
1524 1660 1
642 1661 1
646 1661 1
1074 1661 1
1081 1661 1
1487 1661 1
1499 1661 1
1516 1661 1
1525 1661 1
643 1662 1
647 1662 1
1075 1662 1
1082 1662 1
1488 1662 1
1500 1662 1
1517 1662 1
1526 1662 1
644 1663 1
648 1663 1
1076 1663 1
1083 1663 1
1489 1663 1
1501 1663 1
1518 1663 1
1527 1663 1
645 1664 1
649 1664 1
1077 1664 1
1084 1664 1
1490 1664 1
1502 1664 1
1519 1664 1
1528 1664 1
646 1665 1
650 1665 1
1078 1665 1
1085 1665 1
1491 1665 1
1503 1665 1
1520 1665 1
1529 1665 1
647 1666 1
651 1666 1
1079 1666 1
1086 1666 1
1492 1666 1
1504 1666 1
1521 1666 1
1530 1666 1
648 1667 1
652 1667 1
1080 1667 1
1087 1667 1
1493 1667 1
1505 1667 1
1522 1667 1
1531 1667 1
649 1668 1
653 1668 1
1081 1668 1
1088 1668 1
1494 1668 1
1506 1668 1
1523 1668 1
1532 1668 1
650 1669 1
654 1669 1
1082 1669 1
1089 1669 1
1495 1669 1
1507 1669 1
1524 1669 1
1533 1669 1
651 1670 1
655 1670 1
1083 1670 1
1090 1670 1
1496 1670 1
1508 1670 1
1525 1670 1
1534 1670 1
652 1671 1
656 1671 1
1084 1671 1
1091 1671 1
1480 1671 1
1497 1671 1
1526 1671 1
1535 1671 1
653 1672 1
657 1672 1
1085 1672 1
1092 1672 1
1481 1672 1
1498 1672 1
1527 1672 1
1536 1672 1
654 1673 1
658 1673 1
1086 1673 1
1093 1673 1
1482 1673 1
1499 1673 1
1528 1673 1
1537 1673 1
655 1674 1
659 1674 1
1087 1674 1
1094 1674 1
1483 1674 1
1500 1674 1
1509 1674 1
1529 1674 1
656 1675 1
660 1675 1
1088 1675 1
1095 1675 1
1484 1675 1
1501 1675 1
1510 1675 1
1530 1675 1
657 1676 1
661 1676 1
1089 1676 1
1096 1676 1
1485 1676 1
1502 1676 1
1511 1676 1
1531 1676 1
658 1677 1
662 1677 1
1090 1677 1
1097 1677 1
1486 1677 1
1503 1677 1
1512 1677 1
1532 1677 1
659 1678 1
663 1678 1
1091 1678 1
1098 1678 1
1487 1678 1
1504 1678 1
1513 1678 1
1533 1678 1
660 1679 1
664 1679 1
1092 1679 1
1099 1679 1
1488 1679 1
1505 1679 1
1514 1679 1
1534 1679 1
661 1680 1
665 1680 1
1093 1680 1
1100 1680 1
1489 1680 1
1506 1680 1
1515 1680 1
1535 1680 1
662 1681 1
666 1681 1
1094 1681 1
1101 1681 1
1490 1681 1
1507 1681 1
1516 1681 1
1536 1681 1
663 1682 1
667 1682 1
1095 1682 1
1102 1682 1
1491 1682 1
1508 1682 1
1517 1682 1
1537 1682 1
668 1683 1
693 1683 1
1103 1683 1
1125 1683 1
1451 1683 1
1466 1683 1
1538 1683 1
1539 1683 1
669 1684 1
694 1684 1
1104 1684 1
1126 1684 1
1452 1684 1
1467 1684 1
1539 1684 1
1540 1684 1
670 1685 1
695 1685 1
1105 1685 1
1127 1685 1
1453 1685 1
1468 1685 1
1540 1685 1
1541 1685 1
671 1686 1
696 1686 1
1106 1686 1
1128 1686 1
1454 1686 1
1469 1686 1
1541 1686 1
1542 1686 1
668 1687 1
672 1687 1
1107 1687 1
1129 1687 1
1455 1687 1
1470 1687 1
1542 1687 1
1543 1687 1
669 1688 1
673 1688 1
1108 1688 1
1130 1688 1
1456 1688 1
1471 1688 1
1543 1688 1
1544 1688 1
670 1689 1
674 1689 1
1109 1689 1
1131 1689 1
1457 1689 1
1472 1689 1
1544 1689 1
1545 1689 1
671 1690 1
675 1690 1
1103 1690 1
1110 1690 1
1458 1690 1
1473 1690 1
1545 1690 1
1546 1690 1
672 1691 1
676 1691 1
1104 1691 1
1111 1691 1
1459 1691 1
1474 1691 1
1546 1691 1
1547 1691 1
673 1692 1
677 1692 1
1105 1692 1
1112 1692 1
1460 1692 1
1475 1692 1
1547 1692 1
1548 1692 1
674 1693 1
678 1693 1
1106 1693 1
1113 1693 1
1461 1693 1
1476 1693 1
1548 1693 1
1549 1693 1
675 1694 1
679 1694 1
1107 1694 1
1114 1694 1
1462 1694 1
1477 1694 1
1549 1694 1
1550 1694 1
676 1695 1
680 1695 1
1108 1695 1
1115 1695 1
1463 1695 1
1478 1695 1
1550 1695 1
1551 1695 1
677 1696 1
681 1696 1
1109 1696 1
1116 1696 1
1464 1696 1
1479 1696 1
1551 1696 1
1552 1696 1
678 1697 1
682 1697 1
1110 1697 1
1117 1697 1
1451 1697 1
1465 1697 1
1552 1697 1
1553 1697 1
679 1698 1
683 1698 1
1111 1698 1
1118 1698 1
1452 1698 1
1466 1698 1
1553 1698 1
1554 1698 1
680 1699 1
684 1699 1
1112 1699 1
1119 1699 1
1453 1699 1
1467 1699 1
1554 1699 1
1555 1699 1
681 1700 1
685 1700 1
1113 1700 1
1120 1700 1
1454 1700 1
1468 1700 1
1555 1700 1
1556 1700 1
682 1701 1
686 1701 1
1114 1701 1
1121 1701 1
1455 1701 1
1469 1701 1
1556 1701 1
1557 1701 1
683 1702 1
687 1702 1
1115 1702 1
1122 1702 1
1456 1702 1
1470 1702 1
1557 1702 1
1558 1702 1
684 1703 1
688 1703 1
1116 1703 1
1123 1703 1
1457 1703 1
1471 1703 1
1558 1703 1
1559 1703 1
685 1704 1
689 1704 1
1117 1704 1
1124 1704 1
1458 1704 1
1472 1704 1
1559 1704 1
1560 1704 1
686 1705 1
690 1705 1
1118 1705 1
1125 1705 1
1459 1705 1
1473 1705 1
1560 1705 1
1561 1705 1
687 1706 1
691 1706 1
1119 1706 1
1126 1706 1
1460 1706 1
1474 1706 1
1561 1706 1
1562 1706 1
688 1707 1
692 1707 1
1120 1707 1
1127 1707 1
1461 1707 1
1475 1707 1
1562 1707 1
1563 1707 1
689 1708 1
693 1708 1
1121 1708 1
1128 1708 1
1462 1708 1
1476 1708 1
1563 1708 1
1564 1708 1
690 1709 1
694 1709 1
1122 1709 1
1129 1709 1
1463 1709 1
1477 1709 1
1564 1709 1
1565 1709 1
691 1710 1
695 1710 1
1123 1710 1
1130 1710 1
1464 1710 1
1478 1710 1
1565 1710 1
1566 1710 1
692 1711 1
696 1711 1
1124 1711 1
1131 1711 1
1465 1711 1
1479 1711 1
1538 1711 1
1566 1711 1
697 1712 1
722 1712 1
1132 1712 1
1154 1712 1
1480 1712 1
1495 1712 1
1538 1712 1
1547 1712 1
698 1713 1
723 1713 1
1133 1713 1
1155 1713 1
1481 1713 1
1496 1713 1
1539 1713 1
1548 1713 1
699 1714 1
724 1714 1
1134 1714 1
1156 1714 1
1482 1714 1
1497 1714 1
1540 1714 1
1549 1714 1
700 1715 1
725 1715 1
1135 1715 1
1157 1715 1
1483 1715 1
1498 1715 1
1541 1715 1
1550 1715 1
697 1716 1
701 1716 1
1136 1716 1
1158 1716 1
1484 1716 1
1499 1716 1
1542 1716 1
1551 1716 1
698 1717 1
702 1717 1
1137 1717 1
1159 1717 1
1485 1717 1
1500 1717 1
1543 1717 1
1552 1717 1
699 1718 1
703 1718 1
1138 1718 1
1160 1718 1
1486 1718 1
1501 1718 1
1544 1718 1
1553 1718 1
700 1719 1
704 1719 1
1132 1719 1
1139 1719 1
1487 1719 1
1502 1719 1
1545 1719 1
1554 1719 1
701 1720 1
705 1720 1
1133 1720 1
1140 1720 1
1488 1720 1
1503 1720 1
1546 1720 1
1555 1720 1
702 1721 1
706 1721 1
1134 1721 1
1141 1721 1
1489 1721 1
1504 1721 1
1547 1721 1
1556 1721 1
703 1722 1
707 1722 1
1135 1722 1
1142 1722 1
1490 1722 1
1505 1722 1
1548 1722 1
1557 1722 1
704 1723 1
708 1723 1
1136 1723 1
1143 1723 1
1491 1723 1
1506 1723 1
1549 1723 1
1558 1723 1
705 1724 1
709 1724 1
1137 1724 1
1144 1724 1
1492 1724 1
1507 1724 1
1550 1724 1
1559 1724 1
706 1725 1
710 1725 1
1138 1725 1
1145 1725 1
1493 1725 1
1508 1725 1
1551 1725 1
1560 1725 1
707 1726 1
711 1726 1
1139 1726 1
1146 1726 1
1480 1726 1
1494 1726 1
1552 1726 1
1561 1726 1
708 1727 1
712 1727 1
1140 1727 1
1147 1727 1
1481 1727 1
1495 1727 1
1553 1727 1
1562 1727 1
709 1728 1
713 1728 1
1141 1728 1
1148 1728 1
1482 1728 1
1496 1728 1
1554 1728 1
1563 1728 1
710 1729 1
714 1729 1
1142 1729 1
1149 1729 1
1483 1729 1
1497 1729 1
1555 1729 1
1564 1729 1
711 1730 1
715 1730 1
1143 1730 1
1150 1730 1
1484 1730 1
1498 1730 1
1556 1730 1
1565 1730 1
712 1731 1
716 1731 1
1144 1731 1
1151 1731 1
1485 1731 1
1499 1731 1
1557 1731 1
1566 1731 1
713 1732 1
717 1732 1
1145 1732 1
1152 1732 1
1486 1732 1
1500 1732 1
1538 1732 1
1558 1732 1
714 1733 1
718 1733 1
1146 1733 1
1153 1733 1
1487 1733 1
1501 1733 1
1539 1733 1
1559 1733 1
715 1734 1
719 1734 1
1147 1734 1
1154 1734 1
1488 1734 1
1502 1734 1
1540 1734 1
1560 1734 1
716 1735 1
720 1735 1
1148 1735 1
1155 1735 1
1489 1735 1
1503 1735 1
1541 1735 1
1561 1735 1
717 1736 1
721 1736 1
1149 1736 1
1156 1736 1
1490 1736 1
1504 1736 1
1542 1736 1
1562 1736 1
718 1737 1
722 1737 1
1150 1737 1
1157 1737 1
1491 1737 1
1505 1737 1
1543 1737 1
1563 1737 1
719 1738 1
723 1738 1
1151 1738 1
1158 1738 1
1492 1738 1
1506 1738 1
1544 1738 1
1564 1738 1
720 1739 1
724 1739 1
1152 1739 1
1159 1739 1
1493 1739 1
1507 1739 1
1545 1739 1
1565 1739 1
721 1740 1
725 1740 1
1153 1740 1
1160 1740 1
1494 1740 1
1508 1740 1
1546 1740 1
1566 1740 1
726 1741 1
751 1741 1
1161 1741 1
1183 1741 1
1509 1741 1
1524 1741 1
1538 1741 1
1550 1741 1
727 1742 1
752 1742 1
1162 1742 1
1184 1742 1
1510 1742 1
1525 1742 1
1539 1742 1
1551 1742 1
728 1743 1
753 1743 1
1163 1743 1
1185 1743 1
1511 1743 1
1526 1743 1
1540 1743 1
1552 1743 1
729 1744 1
754 1744 1
1164 1744 1
1186 1744 1
1512 1744 1
1527 1744 1
1541 1744 1
1553 1744 1
726 1745 1
730 1745 1
1165 1745 1
1187 1745 1
1513 1745 1
1528 1745 1
1542 1745 1
1554 1745 1
727 1746 1
731 1746 1
1166 1746 1
1188 1746 1
1514 1746 1
1529 1746 1
1543 1746 1
1555 1746 1
728 1747 1
732 1747 1
1167 1747 1
1189 1747 1
1515 1747 1
1530 1747 1
1544 1747 1
1556 1747 1
729 1748 1
733 1748 1
1161 1748 1
1168 1748 1
1516 1748 1
1531 1748 1
1545 1748 1
1557 1748 1
730 1749 1
734 1749 1
1162 1749 1
1169 1749 1
1517 1749 1
1532 1749 1
1546 1749 1
1558 1749 1
731 1750 1
735 1750 1
1163 1750 1
1170 1750 1
1518 1750 1
1533 1750 1
1547 1750 1
1559 1750 1
732 1751 1
736 1751 1
1164 1751 1
1171 1751 1
1519 1751 1
1534 1751 1
1548 1751 1
1560 1751 1
733 1752 1
737 1752 1
1165 1752 1
1172 1752 1
1520 1752 1
1535 1752 1
1549 1752 1
1561 1752 1
734 1753 1
738 1753 1
1166 1753 1
1173 1753 1
1521 1753 1
1536 1753 1
1550 1753 1
1562 1753 1
735 1754 1
739 1754 1
1167 1754 1
1174 1754 1
1522 1754 1
1537 1754 1
1551 1754 1
1563 1754 1
736 1755 1
740 1755 1
1168 1755 1
1175 1755 1
1509 1755 1
1523 1755 1
1552 1755 1
1564 1755 1
737 1756 1
741 1756 1
1169 1756 1
1176 1756 1
1510 1756 1
1524 1756 1
1553 1756 1
1565 1756 1
738 1757 1
742 1757 1
1170 1757 1
1177 1757 1
1511 1757 1
1525 1757 1
1554 1757 1
1566 1757 1
739 1758 1
743 1758 1
1171 1758 1
1178 1758 1
1512 1758 1
1526 1758 1
1538 1758 1
1555 1758 1
740 1759 1
744 1759 1
1172 1759 1
1179 1759 1
1513 1759 1
1527 1759 1
1539 1759 1
1556 1759 1
741 1760 1
745 1760 1
1173 1760 1
1180 1760 1
1514 1760 1
1528 1760 1
1540 1760 1
1557 1760 1
742 1761 1
746 1761 1
1174 1761 1
1181 1761 1
1515 1761 1
1529 1761 1
1541 1761 1
1558 1761 1
743 1762 1
747 1762 1
1175 1762 1
1182 1762 1
1516 1762 1
1530 1762 1
1542 1762 1
1559 1762 1
744 1763 1
748 1763 1
1176 1763 1
1183 1763 1
1517 1763 1
1531 1763 1
1543 1763 1
1560 1763 1
745 1764 1
749 1764 1
1177 1764 1
1184 1764 1
1518 1764 1
1532 1764 1
1544 1764 1
1561 1764 1
746 1765 1
750 1765 1
1178 1765 1
1185 1765 1
1519 1765 1
1533 1765 1
1545 1765 1
1562 1765 1
747 1766 1
751 1766 1
1179 1766 1
1186 1766 1
1520 1766 1
1534 1766 1
1546 1766 1
1563 1766 1
748 1767 1
752 1767 1
1180 1767 1
1187 1767 1
1521 1767 1
1535 1767 1
1547 1767 1
1564 1767 1
749 1768 1
753 1768 1
1181 1768 1
1188 1768 1
1522 1768 1
1536 1768 1
1548 1768 1
1565 1768 1
750 1769 1
754 1769 1
1182 1769 1
1189 1769 1
1523 1769 1
1537 1769 1
1549 1769 1
1566 1769 1
755 1770 1
780 1770 1
1190 1770 1
1212 1770 1
1451 1770 1
1467 1770 1
1567 1770 1
1568 1770 1
756 1771 1
781 1771 1
1191 1771 1
1213 1771 1
1452 1771 1
1468 1771 1
1568 1771 1
1569 1771 1
757 1772 1
782 1772 1
1192 1772 1
1214 1772 1
1453 1772 1
1469 1772 1
1569 1772 1
1570 1772 1
758 1773 1
783 1773 1
1193 1773 1
1215 1773 1
1454 1773 1
1470 1773 1
1570 1773 1
1571 1773 1
755 1774 1
759 1774 1
1194 1774 1
1216 1774 1
1455 1774 1
1471 1774 1
1571 1774 1
1572 1774 1
756 1775 1
760 1775 1
1195 1775 1
1217 1775 1
1456 1775 1
1472 1775 1
1572 1775 1
1573 1775 1
757 1776 1
761 1776 1
1196 1776 1
1218 1776 1
1457 1776 1
1473 1776 1
1573 1776 1
1574 1776 1
758 1777 1
762 1777 1
1190 1777 1
1197 1777 1
1458 1777 1
1474 1777 1
1574 1777 1
1575 1777 1
759 1778 1
763 1778 1
1191 1778 1
1198 1778 1
1459 1778 1
1475 1778 1
1575 1778 1
1576 1778 1
760 1779 1
764 1779 1
1192 1779 1
1199 1779 1
1460 1779 1
1476 1779 1
1576 1779 1
1577 1779 1
761 1780 1
765 1780 1
1193 1780 1
1200 1780 1
1461 1780 1
1477 1780 1
1577 1780 1
1578 1780 1
762 1781 1
766 1781 1
1194 1781 1
1201 1781 1
1462 1781 1
1478 1781 1
1578 1781 1
1579 1781 1
763 1782 1
767 1782 1
1195 1782 1
1202 1782 1
1463 1782 1
1479 1782 1
1579 1782 1
1580 1782 1
764 1783 1
768 1783 1
1196 1783 1
1203 1783 1
1451 1783 1
1464 1783 1
1580 1783 1
1581 1783 1
765 1784 1
769 1784 1
1197 1784 1
1204 1784 1
1452 1784 1
1465 1784 1
1581 1784 1
1582 1784 1
766 1785 1
770 1785 1
1198 1785 1
1205 1785 1
1453 1785 1
1466 1785 1
1582 1785 1
1583 1785 1
767 1786 1
771 1786 1
1199 1786 1
1206 1786 1
1454 1786 1
1467 1786 1
1583 1786 1
1584 1786 1
768 1787 1
772 1787 1
1200 1787 1
1207 1787 1
1455 1787 1
1468 1787 1
1584 1787 1
1585 1787 1
769 1788 1
773 1788 1
1201 1788 1
1208 1788 1
1456 1788 1
1469 1788 1
1585 1788 1
1586 1788 1
770 1789 1
774 1789 1
1202 1789 1
1209 1789 1
1457 1789 1
1470 1789 1
1586 1789 1
1587 1789 1
771 1790 1
775 1790 1
1203 1790 1
1210 1790 1
1458 1790 1
1471 1790 1
1587 1790 1
1588 1790 1
772 1791 1
776 1791 1
1204 1791 1
1211 1791 1
1459 1791 1
1472 1791 1
1588 1791 1
1589 1791 1
773 1792 1
777 1792 1
1205 1792 1
1212 1792 1
1460 1792 1
1473 1792 1
1589 1792 1
1590 1792 1
774 1793 1
778 1793 1
1206 1793 1
1213 1793 1
1461 1793 1
1474 1793 1
1590 1793 1
1591 1793 1
775 1794 1
779 1794 1
1207 1794 1
1214 1794 1
1462 1794 1
1475 1794 1
1591 1794 1
1592 1794 1
776 1795 1
780 1795 1
1208 1795 1
1215 1795 1
1463 1795 1
1476 1795 1
1592 1795 1
1593 1795 1
777 1796 1
781 1796 1
1209 1796 1
1216 1796 1
1464 1796 1
1477 1796 1
1593 1796 1
1594 1796 1
778 1797 1
782 1797 1
1210 1797 1
1217 1797 1
1465 1797 1
1478 1797 1
1594 1797 1
1595 1797 1
779 1798 1
783 1798 1
1211 1798 1
1218 1798 1
1466 1798 1
1479 1798 1
1567 1798 1
1595 1798 1
784 1799 1
809 1799 1
1219 1799 1
1241 1799 1
1480 1799 1
1496 1799 1
1567 1799 1
1576 1799 1
785 1800 1
810 1800 1
1220 1800 1
1242 1800 1
1481 1800 1
1497 1800 1
1568 1800 1
1577 1800 1
786 1801 1
811 1801 1
1221 1801 1
1243 1801 1
1482 1801 1
1498 1801 1
1569 1801 1
1578 1801 1
787 1802 1
812 1802 1
1222 1802 1
1244 1802 1
1483 1802 1
1499 1802 1
1570 1802 1
1579 1802 1
784 1803 1
788 1803 1
1223 1803 1
1245 1803 1
1484 1803 1
1500 1803 1
1571 1803 1
1580 1803 1
785 1804 1
789 1804 1
1224 1804 1
1246 1804 1
1485 1804 1
1501 1804 1
1572 1804 1
1581 1804 1
786 1805 1
790 1805 1
1225 1805 1
1247 1805 1
1486 1805 1
1502 1805 1
1573 1805 1
1582 1805 1
787 1806 1
791 1806 1
1219 1806 1
1226 1806 1
1487 1806 1
1503 1806 1
1574 1806 1
1583 1806 1
788 1807 1
792 1807 1
1220 1807 1
1227 1807 1
1488 1807 1
1504 1807 1
1575 1807 1
1584 1807 1
789 1808 1
793 1808 1
1221 1808 1
1228 1808 1
1489 1808 1
1505 1808 1
1576 1808 1
1585 1808 1
790 1809 1
794 1809 1
1222 1809 1
1229 1809 1
1490 1809 1
1506 1809 1
1577 1809 1
1586 1809 1
791 1810 1
795 1810 1
1223 1810 1
1230 1810 1
1491 1810 1
1507 1810 1
1578 1810 1
1587 1810 1
792 1811 1
796 1811 1
1224 1811 1
1231 1811 1
1492 1811 1
1508 1811 1
1579 1811 1
1588 1811 1
793 1812 1
797 1812 1
1225 1812 1
1232 1812 1
1480 1812 1
1493 1812 1
1580 1812 1
1589 1812 1
794 1813 1
798 1813 1
1226 1813 1
1233 1813 1
1481 1813 1
1494 1813 1
1581 1813 1
1590 1813 1
795 1814 1
799 1814 1
1227 1814 1
1234 1814 1
1482 1814 1
1495 1814 1
1582 1814 1
1591 1814 1
796 1815 1
800 1815 1
1228 1815 1
1235 1815 1
1483 1815 1
1496 1815 1
1583 1815 1
1592 1815 1
797 1816 1
801 1816 1
1229 1816 1
1236 1816 1
1484 1816 1
1497 1816 1
1584 1816 1
1593 1816 1
798 1817 1
802 1817 1
1230 1817 1
1237 1817 1
1485 1817 1
1498 1817 1
1585 1817 1
1594 1817 1
799 1818 1
803 1818 1
1231 1818 1
1238 1818 1
1486 1818 1
1499 1818 1
1586 1818 1
1595 1818 1
800 1819 1
804 1819 1
1232 1819 1
1239 1819 1
1487 1819 1
1500 1819 1
1567 1819 1
1587 1819 1
801 1820 1
805 1820 1
1233 1820 1
1240 1820 1
1488 1820 1
1501 1820 1
1568 1820 1
1588 1820 1
802 1821 1
806 1821 1
1234 1821 1
1241 1821 1
1489 1821 1
1502 1821 1
1569 1821 1
1589 1821 1
803 1822 1
807 1822 1
1235 1822 1
1242 1822 1
1490 1822 1
1503 1822 1
1570 1822 1
1590 1822 1
804 1823 1
808 1823 1
1236 1823 1
1243 1823 1
1491 1823 1
1504 1823 1
1571 1823 1
1591 1823 1
805 1824 1
809 1824 1
1237 1824 1
1244 1824 1
1492 1824 1
1505 1824 1
1572 1824 1
1592 1824 1
806 1825 1
810 1825 1
1238 1825 1
1245 1825 1
1493 1825 1
1506 1825 1
1573 1825 1
1593 1825 1
807 1826 1
811 1826 1
1239 1826 1
1246 1826 1
1494 1826 1
1507 1826 1
1574 1826 1
1594 1826 1
808 1827 1
812 1827 1
1240 1827 1
1247 1827 1
1495 1827 1
1508 1827 1
1575 1827 1
1595 1827 1
813 1828 1
838 1828 1
1248 1828 1
1270 1828 1
1509 1828 1
1525 1828 1
1567 1828 1
1579 1828 1
814 1829 1
839 1829 1
1249 1829 1
1271 1829 1
1510 1829 1
1526 1829 1
1568 1829 1
1580 1829 1
815 1830 1
840 1830 1
1250 1830 1
1272 1830 1
1511 1830 1
1527 1830 1
1569 1830 1
1581 1830 1
816 1831 1
841 1831 1
1251 1831 1
1273 1831 1
1512 1831 1
1528 1831 1
1570 1831 1
1582 1831 1
813 1832 1
817 1832 1
1252 1832 1
1274 1832 1
1513 1832 1
1529 1832 1
1571 1832 1
1583 1832 1
814 1833 1
818 1833 1
1253 1833 1
1275 1833 1
1514 1833 1
1530 1833 1
1572 1833 1
1584 1833 1
815 1834 1
819 1834 1
1254 1834 1
1276 1834 1
1515 1834 1
1531 1834 1
1573 1834 1
1585 1834 1
816 1835 1
820 1835 1
1248 1835 1
1255 1835 1
1516 1835 1
1532 1835 1
1574 1835 1
1586 1835 1
817 1836 1
821 1836 1
1249 1836 1
1256 1836 1
1517 1836 1
1533 1836 1
1575 1836 1
1587 1836 1
818 1837 1
822 1837 1
1250 1837 1
1257 1837 1
1518 1837 1
1534 1837 1
1576 1837 1
1588 1837 1
819 1838 1
823 1838 1
1251 1838 1
1258 1838 1
1519 1838 1
1535 1838 1
1577 1838 1
1589 1838 1
820 1839 1
824 1839 1
1252 1839 1
1259 1839 1
1520 1839 1
1536 1839 1
1578 1839 1
1590 1839 1
821 1840 1
825 1840 1
1253 1840 1
1260 1840 1
1521 1840 1
1537 1840 1
1579 1840 1
1591 1840 1
822 1841 1
826 1841 1
1254 1841 1
1261 1841 1
1509 1841 1
1522 1841 1
1580 1841 1
1592 1841 1
823 1842 1
827 1842 1
1255 1842 1
1262 1842 1
1510 1842 1
1523 1842 1
1581 1842 1
1593 1842 1
824 1843 1
828 1843 1
1256 1843 1
1263 1843 1
1511 1843 1
1524 1843 1
1582 1843 1
1594 1843 1
825 1844 1
829 1844 1
1257 1844 1
1264 1844 1
1512 1844 1
1525 1844 1
1583 1844 1
1595 1844 1
826 1845 1
830 1845 1
1258 1845 1
1265 1845 1
1513 1845 1
1526 1845 1
1567 1845 1
1584 1845 1
827 1846 1
831 1846 1
1259 1846 1
1266 1846 1
1514 1846 1
1527 1846 1
1568 1846 1
1585 1846 1
828 1847 1
832 1847 1
1260 1847 1
1267 1847 1
1515 1847 1
1528 1847 1
1569 1847 1
1586 1847 1
829 1848 1
833 1848 1
1261 1848 1
1268 1848 1
1516 1848 1
1529 1848 1
1570 1848 1
1587 1848 1
830 1849 1
834 1849 1
1262 1849 1
1269 1849 1
1517 1849 1
1530 1849 1
1571 1849 1
1588 1849 1
831 1850 1
835 1850 1
1263 1850 1
1270 1850 1
1518 1850 1
1531 1850 1
1572 1850 1
1589 1850 1
832 1851 1
836 1851 1
1264 1851 1
1271 1851 1
1519 1851 1
1532 1851 1
1573 1851 1
1590 1851 1
833 1852 1
837 1852 1
1265 1852 1
1272 1852 1
1520 1852 1
1533 1852 1
1574 1852 1
1591 1852 1
834 1853 1
838 1853 1
1266 1853 1
1273 1853 1
1521 1853 1
1534 1853 1
1575 1853 1
1592 1853 1
835 1854 1
839 1854 1
1267 1854 1
1274 1854 1
1522 1854 1
1535 1854 1
1576 1854 1
1593 1854 1
836 1855 1
840 1855 1
1268 1855 1
1275 1855 1
1523 1855 1
1536 1855 1
1577 1855 1
1594 1855 1
837 1856 1
841 1856 1
1269 1856 1
1276 1856 1
1524 1856 1
1537 1856 1
1578 1856 1
1595 1856 1
842 1857 1
867 1857 1
1277 1857 1
1299 1857 1
1538 1857 1
1554 1857 1
1567 1857 1
1582 1857 1
843 1858 1
868 1858 1
1278 1858 1
1300 1858 1
1539 1858 1
1555 1858 1
1568 1858 1
1583 1858 1
844 1859 1
869 1859 1
1279 1859 1
1301 1859 1
1540 1859 1
1556 1859 1
1569 1859 1
1584 1859 1
845 1860 1
870 1860 1
1280 1860 1
1302 1860 1
1541 1860 1
1557 1860 1
1570 1860 1
1585 1860 1
842 1861 1
846 1861 1
1281 1861 1
1303 1861 1
1542 1861 1
1558 1861 1
1571 1861 1
1586 1861 1
843 1862 1
847 1862 1
1282 1862 1
1304 1862 1
1543 1862 1
1559 1862 1
1572 1862 1
1587 1862 1
844 1863 1
848 1863 1
1283 1863 1
1305 1863 1
1544 1863 1
1560 1863 1
1573 1863 1
1588 1863 1
845 1864 1
849 1864 1
1277 1864 1
1284 1864 1
1545 1864 1
1561 1864 1
1574 1864 1
1589 1864 1
846 1865 1
850 1865 1
1278 1865 1
1285 1865 1
1546 1865 1
1562 1865 1
1575 1865 1
1590 1865 1
847 1866 1
851 1866 1
1279 1866 1
1286 1866 1
1547 1866 1
1563 1866 1
1576 1866 1
1591 1866 1
848 1867 1
852 1867 1
1280 1867 1
1287 1867 1
1548 1867 1
1564 1867 1
1577 1867 1
1592 1867 1
849 1868 1
853 1868 1
1281 1868 1
1288 1868 1
1549 1868 1
1565 1868 1
1578 1868 1
1593 1868 1
850 1869 1
854 1869 1
1282 1869 1
1289 1869 1
1550 1869 1
1566 1869 1
1579 1869 1
1594 1869 1
851 1870 1
855 1870 1
1283 1870 1
1290 1870 1
1538 1870 1
1551 1870 1
1580 1870 1
1595 1870 1
852 1871 1
856 1871 1
1284 1871 1
1291 1871 1
1539 1871 1
1552 1871 1
1567 1871 1
1581 1871 1
853 1872 1
857 1872 1
1285 1872 1
1292 1872 1
1540 1872 1
1553 1872 1
1568 1872 1
1582 1872 1
854 1873 1
858 1873 1
1286 1873 1
1293 1873 1
1541 1873 1
1554 1873 1
1569 1873 1
1583 1873 1
855 1874 1
859 1874 1
1287 1874 1
1294 1874 1
1542 1874 1
1555 1874 1
1570 1874 1
1584 1874 1
856 1875 1
860 1875 1
1288 1875 1
1295 1875 1
1543 1875 1
1556 1875 1
1571 1875 1
1585 1875 1
857 1876 1
861 1876 1
1289 1876 1
1296 1876 1
1544 1876 1
1557 1876 1
1572 1876 1
1586 1876 1
858 1877 1
862 1877 1
1290 1877 1
1297 1877 1
1545 1877 1
1558 1877 1
1573 1877 1
1587 1877 1
859 1878 1
863 1878 1
1291 1878 1
1298 1878 1
1546 1878 1
1559 1878 1
1574 1878 1
1588 1878 1
860 1879 1
864 1879 1
1292 1879 1
1299 1879 1
1547 1879 1
1560 1879 1
1575 1879 1
1589 1879 1
861 1880 1
865 1880 1
1293 1880 1
1300 1880 1
1548 1880 1
1561 1880 1
1576 1880 1
1590 1880 1
862 1881 1
866 1881 1
1294 1881 1
1301 1881 1
1549 1881 1
1562 1881 1
1577 1881 1
1591 1881 1
863 1882 1
867 1882 1
1295 1882 1
1302 1882 1
1550 1882 1
1563 1882 1
1578 1882 1
1592 1882 1
864 1883 1
868 1883 1
1296 1883 1
1303 1883 1
1551 1883 1
1564 1883 1
1579 1883 1
1593 1883 1
865 1884 1
869 1884 1
1297 1884 1
1304 1884 1
1552 1884 1
1565 1884 1
1580 1884 1
1594 1884 1
866 1885 1
870 1885 1
1298 1885 1
1305 1885 1
1553 1885 1
1566 1885 1
1581 1885 1
1595 1885 1
871 1886 1
896 1886 1
1306 1886 1
1328 1886 1
1451 1886 1
1469 1886 1
1596 1886 1
1597 1886 1
872 1887 1
897 1887 1
1307 1887 1
1329 1887 1
1452 1887 1
1470 1887 1
1597 1887 1
1598 1887 1
873 1888 1
898 1888 1
1308 1888 1
1330 1888 1
1453 1888 1
1471 1888 1
1598 1888 1
1599 1888 1
874 1889 1
899 1889 1
1309 1889 1
1331 1889 1
1454 1889 1
1472 1889 1
1599 1889 1
1600 1889 1
871 1890 1
875 1890 1
1310 1890 1
1332 1890 1
1455 1890 1
1473 1890 1
1600 1890 1
1601 1890 1
872 1891 1
876 1891 1
1311 1891 1
1333 1891 1
1456 1891 1
1474 1891 1
1601 1891 1
1602 1891 1
873 1892 1
877 1892 1
1312 1892 1
1334 1892 1
1457 1892 1
1475 1892 1
1602 1892 1
1603 1892 1
874 1893 1
878 1893 1
1306 1893 1
1313 1893 1
1458 1893 1
1476 1893 1
1603 1893 1
1604 1893 1
875 1894 1
879 1894 1
1307 1894 1
1314 1894 1
1459 1894 1
1477 1894 1
1604 1894 1
1605 1894 1
876 1895 1
880 1895 1
1308 1895 1
1315 1895 1
1460 1895 1
1478 1895 1
1605 1895 1
1606 1895 1
877 1896 1
881 1896 1
1309 1896 1
1316 1896 1
1461 1896 1
1479 1896 1
1606 1896 1
1607 1896 1
878 1897 1
882 1897 1
1310 1897 1
1317 1897 1
1451 1897 1
1462 1897 1
1607 1897 1
1608 1897 1
879 1898 1
883 1898 1
1311 1898 1
1318 1898 1
1452 1898 1
1463 1898 1
1608 1898 1
1609 1898 1
880 1899 1
884 1899 1
1312 1899 1
1319 1899 1
1453 1899 1
1464 1899 1
1609 1899 1
1610 1899 1
881 1900 1
885 1900 1
1313 1900 1
1320 1900 1
1454 1900 1
1465 1900 1
1610 1900 1
1611 1900 1
882 1901 1
886 1901 1
1314 1901 1
1321 1901 1
1455 1901 1
1466 1901 1
1611 1901 1
1612 1901 1
883 1902 1
887 1902 1
1315 1902 1
1322 1902 1
1456 1902 1
1467 1902 1
1612 1902 1
1613 1902 1
884 1903 1
888 1903 1
1316 1903 1
1323 1903 1
1457 1903 1
1468 1903 1
1613 1903 1
1614 1903 1
885 1904 1
889 1904 1
1317 1904 1
1324 1904 1
1458 1904 1
1469 1904 1
1614 1904 1
1615 1904 1
886 1905 1
890 1905 1
1318 1905 1
1325 1905 1
1459 1905 1
1470 1905 1
1615 1905 1
1616 1905 1
887 1906 1
891 1906 1
1319 1906 1
1326 1906 1
1460 1906 1
1471 1906 1
1616 1906 1
1617 1906 1
888 1907 1
892 1907 1
1320 1907 1
1327 1907 1
1461 1907 1
1472 1907 1
1617 1907 1
1618 1907 1
889 1908 1
893 1908 1
1321 1908 1
1328 1908 1
1462 1908 1
1473 1908 1
1618 1908 1
1619 1908 1
890 1909 1
894 1909 1
1322 1909 1
1329 1909 1
1463 1909 1
1474 1909 1
1619 1909 1
1620 1909 1
891 1910 1
895 1910 1
1323 1910 1
1330 1910 1
1464 1910 1
1475 1910 1
1620 1910 1
1621 1910 1
892 1911 1
896 1911 1
1324 1911 1
1331 1911 1
1465 1911 1
1476 1911 1
1621 1911 1
1622 1911 1
893 1912 1
897 1912 1
1325 1912 1
1332 1912 1
1466 1912 1
1477 1912 1
1622 1912 1
1623 1912 1
894 1913 1
898 1913 1
1326 1913 1
1333 1913 1
1467 1913 1
1478 1913 1
1623 1913 1
1624 1913 1
895 1914 1
899 1914 1
1327 1914 1
1334 1914 1
1468 1914 1
1479 1914 1
1596 1914 1
1624 1914 1
900 1915 1
925 1915 1
1335 1915 1
1357 1915 1
1480 1915 1
1498 1915 1
1596 1915 1
1605 1915 1
901 1916 1
926 1916 1
1336 1916 1
1358 1916 1
1481 1916 1
1499 1916 1
1597 1916 1
1606 1916 1
902 1917 1
927 1917 1
1337 1917 1
1359 1917 1
1482 1917 1
1500 1917 1
1598 1917 1
1607 1917 1
903 1918 1
928 1918 1
1338 1918 1
1360 1918 1
1483 1918 1
1501 1918 1
1599 1918 1
1608 1918 1
900 1919 1
904 1919 1
1339 1919 1
1361 1919 1
1484 1919 1
1502 1919 1
1600 1919 1
1609 1919 1
901 1920 1
905 1920 1
1340 1920 1
1362 1920 1
1485 1920 1
1503 1920 1
1601 1920 1
1610 1920 1
902 1921 1
906 1921 1
1341 1921 1
1363 1921 1
1486 1921 1
1504 1921 1
1602 1921 1
1611 1921 1
903 1922 1
907 1922 1
1335 1922 1
1342 1922 1
1487 1922 1
1505 1922 1
1603 1922 1
1612 1922 1
904 1923 1
908 1923 1
1336 1923 1
1343 1923 1
1488 1923 1
1506 1923 1
1604 1923 1
1613 1923 1
905 1924 1
909 1924 1
1337 1924 1
1344 1924 1
1489 1924 1
1507 1924 1
1605 1924 1
1614 1924 1
906 1925 1
910 1925 1
1338 1925 1
1345 1925 1
1490 1925 1
1508 1925 1
1606 1925 1
1615 1925 1
907 1926 1
911 1926 1
1339 1926 1
1346 1926 1
1480 1926 1
1491 1926 1
1607 1926 1
1616 1926 1
908 1927 1
912 1927 1
1340 1927 1
1347 1927 1
1481 1927 1
1492 1927 1
1608 1927 1
1617 1927 1
909 1928 1
913 1928 1
1341 1928 1
1348 1928 1
1482 1928 1
1493 1928 1
1609 1928 1
1618 1928 1
910 1929 1
914 1929 1
1342 1929 1
1349 1929 1
1483 1929 1
1494 1929 1
1610 1929 1
1619 1929 1
911 1930 1
915 1930 1
1343 1930 1
1350 1930 1
1484 1930 1
1495 1930 1
1611 1930 1
1620 1930 1
912 1931 1
916 1931 1
1344 1931 1
1351 1931 1
1485 1931 1
1496 1931 1
1612 1931 1
1621 1931 1
913 1932 1
917 1932 1
1345 1932 1
1352 1932 1
1486 1932 1
1497 1932 1
1613 1932 1
1622 1932 1
914 1933 1
918 1933 1
1346 1933 1
1353 1933 1
1487 1933 1
1498 1933 1
1614 1933 1
1623 1933 1
915 1934 1
919 1934 1
1347 1934 1
1354 1934 1
1488 1934 1
1499 1934 1
1615 1934 1
1624 1934 1
916 1935 1
920 1935 1
1348 1935 1
1355 1935 1
1489 1935 1
1500 1935 1
1596 1935 1
1616 1935 1
917 1936 1
921 1936 1
1349 1936 1
1356 1936 1
1490 1936 1
1501 1936 1
1597 1936 1
1617 1936 1
918 1937 1
922 1937 1
1350 1937 1
1357 1937 1
1491 1937 1
1502 1937 1
1598 1937 1
1618 1937 1
919 1938 1
923 1938 1
1351 1938 1
1358 1938 1
1492 1938 1
1503 1938 1
1599 1938 1
1619 1938 1
920 1939 1
924 1939 1
1352 1939 1
1359 1939 1
1493 1939 1
1504 1939 1
1600 1939 1
1620 1939 1
921 1940 1
925 1940 1
1353 1940 1
1360 1940 1
1494 1940 1
1505 1940 1
1601 1940 1
1621 1940 1
922 1941 1
926 1941 1
1354 1941 1
1361 1941 1
1495 1941 1
1506 1941 1
1602 1941 1
1622 1941 1
923 1942 1
927 1942 1
1355 1942 1
1362 1942 1
1496 1942 1
1507 1942 1
1603 1942 1
1623 1942 1
924 1943 1
928 1943 1
1356 1943 1
1363 1943 1
1497 1943 1
1508 1943 1
1604 1943 1
1624 1943 1
929 1944 1
954 1944 1
1364 1944 1
1386 1944 1
1509 1944 1
1527 1944 1
1596 1944 1
1608 1944 1
930 1945 1
955 1945 1
1365 1945 1
1387 1945 1
1510 1945 1
1528 1945 1
1597 1945 1
1609 1945 1
931 1946 1
956 1946 1
1366 1946 1
1388 1946 1
1511 1946 1
1529 1946 1
1598 1946 1
1610 1946 1
932 1947 1
957 1947 1
1367 1947 1
1389 1947 1
1512 1947 1
1530 1947 1
1599 1947 1
1611 1947 1
929 1948 1
933 1948 1
1368 1948 1
1390 1948 1
1513 1948 1
1531 1948 1
1600 1948 1
1612 1948 1
930 1949 1
934 1949 1
1369 1949 1
1391 1949 1
1514 1949 1
1532 1949 1
1601 1949 1
1613 1949 1
931 1950 1
935 1950 1
1370 1950 1
1392 1950 1
1515 1950 1
1533 1950 1
1602 1950 1
1614 1950 1
932 1951 1
936 1951 1
1364 1951 1
1371 1951 1
1516 1951 1
1534 1951 1
1603 1951 1
1615 1951 1
933 1952 1
937 1952 1
1365 1952 1
1372 1952 1
1517 1952 1
1535 1952 1
1604 1952 1
1616 1952 1
934 1953 1
938 1953 1
1366 1953 1
1373 1953 1
1518 1953 1
1536 1953 1
1605 1953 1
1617 1953 1
935 1954 1
939 1954 1
1367 1954 1
1374 1954 1
1519 1954 1
1537 1954 1
1606 1954 1
1618 1954 1
936 1955 1
940 1955 1
1368 1955 1
1375 1955 1
1509 1955 1
1520 1955 1
1607 1955 1
1619 1955 1
937 1956 1
941 1956 1
1369 1956 1
1376 1956 1
1510 1956 1
1521 1956 1
1608 1956 1
1620 1956 1
938 1957 1
942 1957 1
1370 1957 1
1377 1957 1
1511 1957 1
1522 1957 1
1609 1957 1
1621 1957 1
939 1958 1
943 1958 1
1371 1958 1
1378 1958 1
1512 1958 1
1523 1958 1
1610 1958 1
1622 1958 1
940 1959 1
944 1959 1
1372 1959 1
1379 1959 1
1513 1959 1
1524 1959 1
1611 1959 1
1623 1959 1
941 1960 1
945 1960 1
1373 1960 1
1380 1960 1
1514 1960 1
1525 1960 1
1612 1960 1
1624 1960 1
942 1961 1
946 1961 1
1374 1961 1
1381 1961 1
1515 1961 1
1526 1961 1
1596 1961 1
1613 1961 1
943 1962 1
947 1962 1
1375 1962 1
1382 1962 1
1516 1962 1
1527 1962 1
1597 1962 1
1614 1962 1
944 1963 1
948 1963 1
1376 1963 1
1383 1963 1
1517 1963 1
1528 1963 1
1598 1963 1
1615 1963 1
945 1964 1
949 1964 1
1377 1964 1
1384 1964 1
1518 1964 1
1529 1964 1
1599 1964 1
1616 1964 1
946 1965 1
950 1965 1
1378 1965 1
1385 1965 1
1519 1965 1
1530 1965 1
1600 1965 1
1617 1965 1
947 1966 1
951 1966 1
1379 1966 1
1386 1966 1
1520 1966 1
1531 1966 1
1601 1966 1
1618 1966 1
948 1967 1
952 1967 1
1380 1967 1
1387 1967 1
1521 1967 1
1532 1967 1
1602 1967 1
1619 1967 1
949 1968 1
953 1968 1
1381 1968 1
1388 1968 1
1522 1968 1
1533 1968 1
1603 1968 1
1620 1968 1
950 1969 1
954 1969 1
1382 1969 1
1389 1969 1
1523 1969 1
1534 1969 1
1604 1969 1
1621 1969 1
951 1970 1
955 1970 1
1383 1970 1
1390 1970 1
1524 1970 1
1535 1970 1
1605 1970 1
1622 1970 1
952 1971 1
956 1971 1
1384 1971 1
1391 1971 1
1525 1971 1
1536 1971 1
1606 1971 1
1623 1971 1
953 1972 1
957 1972 1
1385 1972 1
1392 1972 1
1526 1972 1
1537 1972 1
1607 1972 1
1624 1972 1
958 1973 1
983 1973 1
1393 1973 1
1415 1973 1
1538 1973 1
1556 1973 1
1596 1973 1
1611 1973 1
959 1974 1
984 1974 1
1394 1974 1
1416 1974 1
1539 1974 1
1557 1974 1
1597 1974 1
1612 1974 1
960 1975 1
985 1975 1
1395 1975 1
1417 1975 1
1540 1975 1
1558 1975 1
1598 1975 1
1613 1975 1
961 1976 1
986 1976 1
1396 1976 1
1418 1976 1
1541 1976 1
1559 1976 1
1599 1976 1
1614 1976 1
958 1977 1
962 1977 1
1397 1977 1
1419 1977 1
1542 1977 1
1560 1977 1
1600 1977 1
1615 1977 1
959 1978 1
963 1978 1
1398 1978 1
1420 1978 1
1543 1978 1
1561 1978 1
1601 1978 1
1616 1978 1
960 1979 1
964 1979 1
1399 1979 1
1421 1979 1
1544 1979 1
1562 1979 1
1602 1979 1
1617 1979 1
961 1980 1
965 1980 1
1393 1980 1
1400 1980 1
1545 1980 1
1563 1980 1
1603 1980 1
1618 1980 1
962 1981 1
966 1981 1
1394 1981 1
1401 1981 1
1546 1981 1
1564 1981 1
1604 1981 1
1619 1981 1
963 1982 1
967 1982 1
1395 1982 1
1402 1982 1
1547 1982 1
1565 1982 1
1605 1982 1
1620 1982 1
964 1983 1
968 1983 1
1396 1983 1
1403 1983 1
1548 1983 1
1566 1983 1
1606 1983 1
1621 1983 1
965 1984 1
969 1984 1
1397 1984 1
1404 1984 1
1538 1984 1
1549 1984 1
1607 1984 1
1622 1984 1
966 1985 1
970 1985 1
1398 1985 1
1405 1985 1
1539 1985 1
1550 1985 1
1608 1985 1
1623 1985 1
967 1986 1
971 1986 1
1399 1986 1
1406 1986 1
1540 1986 1
1551 1986 1
1609 1986 1
1624 1986 1
968 1987 1
972 1987 1
1400 1987 1
1407 1987 1
1541 1987 1
1552 1987 1
1596 1987 1
1610 1987 1
969 1988 1
973 1988 1
1401 1988 1
1408 1988 1
1542 1988 1
1553 1988 1
1597 1988 1
1611 1988 1
970 1989 1
974 1989 1
1402 1989 1
1409 1989 1
1543 1989 1
1554 1989 1
1598 1989 1
1612 1989 1
971 1990 1
975 1990 1
1403 1990 1
1410 1990 1
1544 1990 1
1555 1990 1
1599 1990 1
1613 1990 1
972 1991 1
976 1991 1
1404 1991 1
1411 1991 1
1545 1991 1
1556 1991 1
1600 1991 1
1614 1991 1
973 1992 1
977 1992 1
1405 1992 1
1412 1992 1
1546 1992 1
1557 1992 1
1601 1992 1
1615 1992 1
974 1993 1
978 1993 1
1406 1993 1
1413 1993 1
1547 1993 1
1558 1993 1
1602 1993 1
1616 1993 1
975 1994 1
979 1994 1
1407 1994 1
1414 1994 1
1548 1994 1
1559 1994 1
1603 1994 1
1617 1994 1
976 1995 1
980 1995 1
1408 1995 1
1415 1995 1
1549 1995 1
1560 1995 1
1604 1995 1
1618 1995 1
977 1996 1
981 1996 1
1409 1996 1
1416 1996 1
1550 1996 1
1561 1996 1
1605 1996 1
1619 1996 1
978 1997 1
982 1997 1
1410 1997 1
1417 1997 1
1551 1997 1
1562 1997 1
1606 1997 1
1620 1997 1
979 1998 1
983 1998 1
1411 1998 1
1418 1998 1
1552 1998 1
1563 1998 1
1607 1998 1
1621 1998 1
980 1999 1
984 1999 1
1412 1999 1
1419 1999 1
1553 1999 1
1564 1999 1
1608 1999 1
1622 1999 1
981 2000 1
985 2000 1
1413 2000 1
1420 2000 1
1554 2000 1
1565 2000 1
1609 2000 1
1623 2000 1
982 2001 1
986 2001 1
1414 2001 1
1421 2001 1
1555 2001 1
1566 2001 1
1610 2001 1
1624 2001 1
987 2002 1
1012 2002 1
1422 2002 1
1444 2002 1
1567 2002 1
1585 2002 1
1596 2002 1
1612 2002 1
988 2003 1
1013 2003 1
1423 2003 1
1445 2003 1
1568 2003 1
1586 2003 1
1597 2003 1
1613 2003 1
989 2004 1
1014 2004 1
1424 2004 1
1446 2004 1
1569 2004 1
1587 2004 1
1598 2004 1
1614 2004 1
990 2005 1
1015 2005 1
1425 2005 1
1447 2005 1
1570 2005 1
1588 2005 1
1599 2005 1
1615 2005 1
987 2006 1
991 2006 1
1426 2006 1
1448 2006 1
1571 2006 1
1589 2006 1
1600 2006 1
1616 2006 1
988 2007 1
992 2007 1
1427 2007 1
1449 2007 1
1572 2007 1
1590 2007 1
1601 2007 1
1617 2007 1
989 2008 1
993 2008 1
1428 2008 1
1450 2008 1
1573 2008 1
1591 2008 1
1602 2008 1
1618 2008 1
990 2009 1
994 2009 1
1422 2009 1
1429 2009 1
1574 2009 1
1592 2009 1
1603 2009 1
1619 2009 1
991 2010 1
995 2010 1
1423 2010 1
1430 2010 1
1575 2010 1
1593 2010 1
1604 2010 1
1620 2010 1
992 2011 1
996 2011 1
1424 2011 1
1431 2011 1
1576 2011 1
1594 2011 1
1605 2011 1
1621 2011 1
993 2012 1
997 2012 1
1425 2012 1
1432 2012 1
1577 2012 1
1595 2012 1
1606 2012 1
1622 2012 1
994 2013 1
998 2013 1
1426 2013 1
1433 2013 1
1567 2013 1
1578 2013 1
1607 2013 1
1623 2013 1
995 2014 1
999 2014 1
1427 2014 1
1434 2014 1
1568 2014 1
1579 2014 1
1608 2014 1
1624 2014 1
996 2015 1
1000 2015 1
1428 2015 1
1435 2015 1
1569 2015 1
1580 2015 1
1596 2015 1
1609 2015 1
997 2016 1
1001 2016 1
1429 2016 1
1436 2016 1
1570 2016 1
1581 2016 1
1597 2016 1
1610 2016 1
998 2017 1
1002 2017 1
1430 2017 1
1437 2017 1
1571 2017 1
1582 2017 1
1598 2017 1
1611 2017 1
999 2018 1
1003 2018 1
1431 2018 1
1438 2018 1
1572 2018 1
1583 2018 1
1599 2018 1
1612 2018 1
1000 2019 1
1004 2019 1
1432 2019 1
1439 2019 1
1573 2019 1
1584 2019 1
1600 2019 1
1613 2019 1
1001 2020 1
1005 2020 1
1433 2020 1
1440 2020 1
1574 2020 1
1585 2020 1
1601 2020 1
1614 2020 1
1002 2021 1
1006 2021 1
1434 2021 1
1441 2021 1
1575 2021 1
1586 2021 1
1602 2021 1
1615 2021 1
1003 2022 1
1007 2022 1
1435 2022 1
1442 2022 1
1576 2022 1
1587 2022 1
1603 2022 1
1616 2022 1
1004 2023 1
1008 2023 1
1436 2023 1
1443 2023 1
1577 2023 1
1588 2023 1
1604 2023 1
1617 2023 1
1005 2024 1
1009 2024 1
1437 2024 1
1444 2024 1
1578 2024 1
1589 2024 1
1605 2024 1
1618 2024 1
1006 2025 1
1010 2025 1
1438 2025 1
1445 2025 1
1579 2025 1
1590 2025 1
1606 2025 1
1619 2025 1
1007 2026 1
1011 2026 1
1439 2026 1
1446 2026 1
1580 2026 1
1591 2026 1
1607 2026 1
1620 2026 1
1008 2027 1
1012 2027 1
1440 2027 1
1447 2027 1
1581 2027 1
1592 2027 1
1608 2027 1
1621 2027 1
1009 2028 1
1013 2028 1
1441 2028 1
1448 2028 1
1582 2028 1
1593 2028 1
1609 2028 1
1622 2028 1
1010 2029 1
1014 2029 1
1442 2029 1
1449 2029 1
1583 2029 1
1594 2029 1
1610 2029 1
1623 2029 1
1011 2030 1
1015 2030 1
1443 2030 1
1450 2030 1
1584 2030 1
1595 2030 1
1611 2030 1
1624 2030 1
