%%MatrixMarket matrix coordinate integer general
% Binary matrix; one-based indices; arithmetic over GF(2)
1624 2030 16240
1 1 1
14 1 1
30 1 1
41 1 1
175 1 1
182 1 1
610 1 1
614 1 1
2 2 1
15 2 1
31 2 1
42 2 1
176 2 1
183 2 1
611 2 1
615 2 1
3 3 1
16 3 1
32 3 1
43 3 1
177 3 1
184 3 1
612 3 1
616 3 1
4 4 1
17 4 1
33 4 1
44 4 1
178 4 1
185 4 1
613 4 1
617 4 1
5 5 1
18 5 1
34 5 1
45 5 1
179 5 1
186 5 1
614 5 1
618 5 1
6 6 1
19 6 1
35 6 1
46 6 1
180 6 1
187 6 1
615 6 1
619 6 1
7 7 1
20 7 1
36 7 1
47 7 1
181 7 1
188 7 1
616 7 1
620 7 1
8 8 1
21 8 1
37 8 1
48 8 1
182 8 1
189 8 1
617 8 1
621 8 1
9 9 1
22 9 1
38 9 1
49 9 1
183 9 1
190 9 1
618 9 1
622 9 1
10 10 1
23 10 1
39 10 1
50 10 1
184 10 1
191 10 1
619 10 1
623 10 1
11 11 1
24 11 1
40 11 1
51 11 1
185 11 1
192 11 1
620 11 1
624 11 1
12 12 1
25 12 1
41 12 1
52 12 1
186 12 1
193 12 1
621 12 1
625 12 1
13 13 1
26 13 1
42 13 1
53 13 1
187 13 1
194 13 1
622 13 1
626 13 1
14 14 1
27 14 1
43 14 1
54 14 1
188 14 1
195 14 1
623 14 1
627 14 1
15 15 1
28 15 1
44 15 1
55 15 1
189 15 1
196 15 1
624 15 1
628 15 1
16 16 1
29 16 1
45 16 1
56 16 1
190 16 1
197 16 1
625 16 1
629 16 1
1 17 1
17 17 1
46 17 1
57 17 1
191 17 1
198 17 1
626 17 1
630 17 1
2 18 1
18 18 1
47 18 1
58 18 1
192 18 1
199 18 1
627 18 1
631 18 1
3 19 1
19 19 1
30 19 1
48 19 1
193 19 1
200 19 1
628 19 1
632 19 1
4 20 1
20 20 1
31 20 1
49 20 1
194 20 1
201 20 1
629 20 1
633 20 1
5 21 1
21 21 1
32 21 1
50 21 1
195 21 1
202 21 1
630 21 1
634 21 1
6 22 1
22 22 1
33 22 1
51 22 1
196 22 1
203 22 1
631 22 1
635 22 1
7 23 1
23 23 1
34 23 1
52 23 1
175 23 1
197 23 1
632 23 1
636 23 1
8 24 1
24 24 1
35 24 1
53 24 1
176 24 1
198 24 1
633 24 1
637 24 1
9 25 1
25 25 1
36 25 1
54 25 1
177 25 1
199 25 1
634 25 1
638 25 1
10 26 1
26 26 1
37 26 1
55 26 1
178 26 1
200 26 1
610 26 1
635 26 1
11 27 1
27 27 1
38 27 1
56 27 1
179 27 1
201 27 1
611 27 1
636 27 1
12 28 1
28 28 1
39 28 1
57 28 1
180 28 1
202 28 1
612 28 1
637 28 1
13 29 1
29 29 1
40 29 1
58 29 1
181 29 1
203 29 1
613 29 1
638 29 1
1 30 1
15 30 1
59 30 1
70 30 1
204 30 1
211 30 1
639 30 1
643 30 1
2 31 1
16 31 1
60 31 1
71 31 1
205 31 1
212 31 1
640 31 1
644 31 1
3 32 1
17 32 1
61 32 1
72 32 1
206 32 1
213 32 1
641 32 1
645 32 1
4 33 1
18 33 1
62 33 1
73 33 1
207 33 1
214 33 1
642 33 1
646 33 1
5 34 1
19 34 1
63 34 1
74 34 1
208 34 1
215 34 1
643 34 1
647 34 1
6 35 1
20 35 1
64 35 1
75 35 1
209 35 1
216 35 1
644 35 1
648 35 1
7 36 1
21 36 1
65 36 1
76 36 1
210 36 1
217 36 1
645 36 1
649 36 1
8 37 1
22 37 1
66 37 1
77 37 1
211 37 1
218 37 1
646 37 1
650 37 1
9 38 1
23 38 1
67 38 1
78 38 1
212 38 1
219 38 1
647 38 1
651 38 1
10 39 1
24 39 1
68 39 1
79 39 1
213 39 1
220 39 1
648 39 1
652 39 1
11 40 1
25 40 1
69 40 1
80 40 1
214 40 1
221 40 1
649 40 1
653 40 1
12 41 1
26 41 1
70 41 1
81 41 1
215 41 1
222 41 1
650 41 1
654 41 1
13 42 1
27 42 1
71 42 1
82 42 1
216 42 1
223 42 1
651 42 1
655 42 1
14 43 1
28 43 1
72 43 1
83 43 1
217 43 1
224 43 1
652 43 1
656 43 1
15 44 1
29 44 1
73 44 1
84 44 1
218 44 1
225 44 1
653 44 1
657 44 1
1 45 1
16 45 1
74 45 1
85 45 1
219 45 1
226 45 1
654 45 1
658 45 1
2 46 1
17 46 1
75 46 1
86 46 1
220 46 1
227 46 1
655 46 1
659 46 1
3 47 1
18 47 1
76 47 1
87 47 1
221 47 1
228 47 1
656 47 1
660 47 1
4 48 1
19 48 1
59 48 1
77 48 1
222 48 1
229 48 1
657 48 1
661 48 1
5 49 1
20 49 1
60 49 1
78 49 1
223 49 1
230 49 1
658 49 1
662 49 1
6 50 1
21 50 1
61 50 1
79 50 1
224 50 1
231 50 1
659 50 1
663 50 1
7 51 1
22 51 1
62 51 1
80 51 1
225 51 1
232 51 1
660 51 1
664 51 1
8 52 1
23 52 1
63 52 1
81 52 1
204 52 1
226 52 1
661 52 1
665 52 1
9 53 1
24 53 1
64 53 1
82 53 1
205 53 1
227 53 1
662 53 1
666 53 1
10 54 1
25 54 1
65 54 1
83 54 1
206 54 1
228 54 1
663 54 1
667 54 1
11 55 1
26 55 1
66 55 1
84 55 1
207 55 1
229 55 1
639 55 1
664 55 1
12 56 1
27 56 1
67 56 1
85 56 1
208 56 1
230 56 1
640 56 1
665 56 1
13 57 1
28 57 1
68 57 1
86 57 1
209 57 1
231 57 1
641 57 1
666 57 1
14 58 1
29 58 1
69 58 1
87 58 1
210 58 1
232 58 1
642 58 1
667 58 1
1 59 1
18 59 1
88 59 1
99 59 1
233 59 1
240 59 1
668 59 1
672 59 1
2 60 1
19 60 1
89 60 1
100 60 1
234 60 1
241 60 1
669 60 1
673 60 1
3 61 1
20 61 1
90 61 1
101 61 1
235 61 1
242 61 1
670 61 1
674 61 1
4 62 1
21 62 1
91 62 1
102 62 1
236 62 1
243 62 1
671 62 1
675 62 1
5 63 1
22 63 1
92 63 1
103 63 1
237 63 1
244 63 1
672 63 1
676 63 1
6 64 1
23 64 1
93 64 1
104 64 1
238 64 1
245 64 1
673 64 1
677 64 1
7 65 1
24 65 1
94 65 1
105 65 1
239 65 1
246 65 1
674 65 1
678 65 1
8 66 1
25 66 1
95 66 1
106 66 1
240 66 1
247 66 1
675 66 1
679 66 1
9 67 1
26 67 1
96 67 1
107 67 1
241 67 1
248 67 1
676 67 1
680 67 1
10 68 1
27 68 1
97 68 1
108 68 1
242 68 1
249 68 1
677 68 1
681 68 1
11 69 1
28 69 1
98 69 1
109 69 1
243 69 1
250 69 1
678 69 1
682 69 1
12 70 1
29 70 1
99 70 1
110 70 1
244 70 1
251 70 1
679 70 1
683 70 1
1 71 1
13 71 1
100 71 1
111 71 1
245 71 1
252 71 1
680 71 1
684 71 1
2 72 1
14 72 1
101 72 1
112 72 1
246 72 1
253 72 1
681 72 1
685 72 1
3 73 1
15 73 1
102 73 1
113 73 1
247 73 1
254 73 1
682 73 1
686 73 1
4 74 1
16 74 1
103 74 1
114 74 1
248 74 1
255 74 1
683 74 1
687 74 1
5 75 1
17 75 1
104 75 1
115 75 1
249 75 1
256 75 1
684 75 1
688 75 1
6 76 1
18 76 1
105 76 1
116 76 1
250 76 1
257 76 1
685 76 1
689 76 1
7 77 1
19 77 1
88 77 1
106 77 1
251 77 1
258 77 1
686 77 1
690 77 1
8 78 1
20 78 1
89 78 1
107 78 1
252 78 1
259 78 1
687 78 1
691 78 1
9 79 1
21 79 1
90 79 1
108 79 1
253 79 1
260 79 1
688 79 1
692 79 1
10 80 1
22 80 1
91 80 1
109 80 1
254 80 1
261 80 1
689 80 1
693 80 1
11 81 1
23 81 1
92 81 1
110 81 1
233 81 1
255 81 1
690 81 1
694 81 1
12 82 1
24 82 1
93 82 1
111 82 1
234 82 1
256 82 1
691 82 1
695 82 1
13 83 1
25 83 1
94 83 1
112 83 1
235 83 1
257 83 1
692 83 1
696 83 1
14 84 1
26 84 1
95 84 1
113 84 1
236 84 1
258 84 1
668 84 1
693 84 1
15 85 1
27 85 1
96 85 1
114 85 1
237 85 1
259 85 1
669 85 1
694 85 1
16 86 1
28 86 1
97 86 1
115 86 1
238 86 1
260 86 1
670 86 1
695 86 1
17 87 1
29 87 1
98 87 1
116 87 1
239 87 1
261 87 1
671 87 1
696 87 1
1 88 1
21 88 1
117 88 1
128 88 1
262 88 1
269 88 1
697 88 1
701 88 1
2 89 1
22 89 1
118 89 1
129 89 1
263 89 1
270 89 1
698 89 1
702 89 1
3 90 1
23 90 1
119 90 1
130 90 1
264 90 1
271 90 1
699 90 1
703 90 1
4 91 1
24 91 1
120 91 1
131 91 1
265 91 1
272 91 1
700 91 1
704 91 1
5 92 1
25 92 1
121 92 1
132 92 1
266 92 1
273 92 1
701 92 1
705 92 1
6 93 1
26 93 1
122 93 1
133 93 1
267 93 1
274 93 1
702 93 1
706 93 1
7 94 1
27 94 1
123 94 1
134 94 1
268 94 1
275 94 1
703 94 1
707 94 1
8 95 1
28 95 1
124 95 1
135 95 1
269 95 1
276 95 1
704 95 1
708 95 1
9 96 1
29 96 1
125 96 1
136 96 1
270 96 1
277 96 1
705 96 1
709 96 1
1 97 1
10 97 1
126 97 1
137 97 1
271 97 1
278 97 1
706 97 1
710 97 1
2 98 1
11 98 1
127 98 1
138 98 1
272 98 1
279 98 1
707 98 1
711 98 1
3 99 1
12 99 1
128 99 1
139 99 1
273 99 1
280 99 1
708 99 1
712 99 1
4 100 1
13 100 1
129 100 1
140 100 1
274 100 1
281 100 1
709 100 1
713 100 1
5 101 1
14 101 1
130 101 1
141 101 1
275 101 1
282 101 1
710 101 1
714 101 1
6 102 1
15 102 1
131 102 1
142 102 1
276 102 1
283 102 1
711 102 1
715 102 1
7 103 1
16 103 1
132 103 1
143 103 1
277 103 1
284 103 1
712 103 1
716 103 1
8 104 1
17 104 1
133 104 1
144 104 1
278 104 1
285 104 1
713 104 1
717 104 1
9 105 1
18 105 1
134 105 1
145 105 1
279 105 1
286 105 1
714 105 1
718 105 1
10 106 1
19 106 1
117 106 1
135 106 1
280 106 1
287 106 1
715 106 1
719 106 1
11 107 1
20 107 1
118 107 1
136 107 1
281 107 1
288 107 1
716 107 1
720 107 1
12 108 1
21 108 1
119 108 1
137 108 1
282 108 1
289 108 1
717 108 1
721 108 1
13 109 1
22 109 1
120 109 1
138 109 1
283 109 1
290 109 1
718 109 1
722 109 1
14 110 1
23 110 1
121 110 1
139 110 1
262 110 1
284 110 1
719 110 1
723 110 1
15 111 1
24 111 1
122 111 1
140 111 1
263 111 1
285 111 1
720 111 1
724 111 1
16 112 1
25 112 1
123 112 1
141 112 1
264 112 1
286 112 1
721 112 1
725 112 1
17 113 1
26 113 1
124 113 1
142 113 1
265 113 1
287 113 1
697 113 1
722 113 1
18 114 1
27 114 1
125 114 1
143 114 1
266 114 1
288 114 1
698 114 1
723 114 1
19 115 1
28 115 1
126 115 1
144 115 1
267 115 1
289 115 1
699 115 1
724 115 1
20 116 1
29 116 1
127 116 1
145 116 1
268 116 1
290 116 1
700 116 1
725 116 1
1 117 1
29 117 1
146 117 1
157 117 1
291 117 1
298 117 1
726 117 1
730 117 1
1 118 1
2 118 1
147 118 1
158 118 1
292 118 1
299 118 1
727 118 1
731 118 1
2 119 1
3 119 1
148 119 1
159 119 1
293 119 1
300 119 1
728 119 1
732 119 1
3 120 1
4 120 1
149 120 1
160 120 1
294 120 1
301 120 1
729 120 1
733 120 1
4 121 1
5 121 1
150 121 1
161 121 1
295 121 1
302 121 1
730 121 1
734 121 1
5 122 1
6 122 1
151 122 1
162 122 1
296 122 1
303 122 1
731 122 1
735 122 1
6 123 1
7 123 1
152 123 1
163 123 1
297 123 1
304 123 1
732 123 1
736 123 1
7 124 1
8 124 1
153 124 1
164 124 1
298 124 1
305 124 1
733 124 1
737 124 1
8 125 1
9 125 1
154 125 1
165 125 1
299 125 1
306 125 1
734 125 1
738 125 1
9 126 1
10 126 1
155 126 1
166 126 1
300 126 1
307 126 1
735 126 1
739 126 1
10 127 1
11 127 1
156 127 1
167 127 1
301 127 1
308 127 1
736 127 1
740 127 1
11 128 1
12 128 1
157 128 1
168 128 1
302 128 1
309 128 1
737 128 1
741 128 1
12 129 1
13 129 1
158 129 1
169 129 1
303 129 1
310 129 1
738 129 1
742 129 1
13 130 1
14 130 1
159 130 1
170 130 1
304 130 1
311 130 1
739 130 1
743 130 1
14 131 1
15 131 1
160 131 1
171 131 1
305 131 1
312 131 1
740 131 1
744 131 1
15 132 1
16 132 1
161 132 1
172 132 1
306 132 1
313 132 1
741 132 1
745 132 1
16 133 1
17 133 1
162 133 1
173 133 1
307 133 1
314 133 1
742 133 1
746 133 1
17 134 1
18 134 1
163 134 1
174 134 1
308 134 1
315 134 1
743 134 1
747 134 1
18 135 1
19 135 1
146 135 1
164 135 1
309 135 1
316 135 1
744 135 1
748 135 1
19 136 1
20 136 1
147 136 1
165 136 1
310 136 1
317 136 1
745 136 1
749 136 1
20 137 1
21 137 1
148 137 1
166 137 1
311 137 1
318 137 1
746 137 1
750 137 1
21 138 1
22 138 1
149 138 1
167 138 1
312 138 1
319 138 1
747 138 1
751 138 1
22 139 1
23 139 1
150 139 1
168 139 1
291 139 1
313 139 1
748 139 1
752 139 1
23 140 1
24 140 1
151 140 1
169 140 1
292 140 1
314 140 1
749 140 1
753 140 1
24 141 1
25 141 1
152 141 1
170 141 1
293 141 1
315 141 1
750 141 1
754 141 1
25 142 1
26 142 1
153 142 1
171 142 1
294 142 1
316 142 1
726 142 1
751 142 1
26 143 1
27 143 1
154 143 1
172 143 1
295 143 1
317 143 1
727 143 1
752 143 1
27 144 1
28 144 1
155 144 1
173 144 1
296 144 1
318 144 1
728 144 1
753 144 1
28 145 1
29 145 1
156 145 1
174 145 1
297 145 1
319 145 1
729 145 1
754 145 1
30 146 1
44 146 1
59 146 1
72 146 1
320 146 1
327 146 1
755 146 1
759 146 1
31 147 1
45 147 1
60 147 1
73 147 1
321 147 1
328 147 1
756 147 1
760 147 1
32 148 1
46 148 1
61 148 1
74 148 1
322 148 1
329 148 1
757 148 1
761 148 1
33 149 1
47 149 1
62 149 1
75 149 1
323 149 1
330 149 1
758 149 1
762 149 1
34 150 1
48 150 1
63 150 1
76 150 1
324 150 1
331 150 1
759 150 1
763 150 1
35 151 1
49 151 1
64 151 1
77 151 1
325 151 1
332 151 1
760 151 1
764 151 1
36 152 1
50 152 1
65 152 1
78 152 1
326 152 1
333 152 1
761 152 1
765 152 1
37 153 1
51 153 1
66 153 1
79 153 1
327 153 1
334 153 1
762 153 1
766 153 1
38 154 1
52 154 1
67 154 1
80 154 1
328 154 1
335 154 1
763 154 1
767 154 1
39 155 1
53 155 1
68 155 1
81 155 1
329 155 1
336 155 1
764 155 1
768 155 1
40 156 1
54 156 1
69 156 1
82 156 1
330 156 1
337 156 1
765 156 1
769 156 1
41 157 1
55 157 1
70 157 1
83 157 1
331 157 1
338 157 1
766 157 1
770 157 1
42 158 1
56 158 1
71 158 1
84 158 1
332 158 1
339 158 1
767 158 1
771 158 1
43 159 1
57 159 1
72 159 1
85 159 1
333 159 1
340 159 1
768 159 1
772 159 1
44 160 1
58 160 1
73 160 1
86 160 1
334 160 1
341 160 1
769 160 1
773 160 1
30 161 1
45 161 1
74 161 1
87 161 1
335 161 1
342 161 1
770 161 1
774 161 1
31 162 1
46 162 1
59 162 1
75 162 1
336 162 1
343 162 1
771 162 1
775 162 1
32 163 1
47 163 1
60 163 1
76 163 1
337 163 1
344 163 1
772 163 1
776 163 1
33 164 1
48 164 1
61 164 1
77 164 1
338 164 1
345 164 1
773 164 1
777 164 1
34 165 1
49 165 1
62 165 1
78 165 1
339 165 1
346 165 1
774 165 1
778 165 1
35 166 1
50 166 1
63 166 1
79 166 1
340 166 1
347 166 1
775 166 1
779 166 1
36 167 1
51 167 1
64 167 1
80 167 1
341 167 1
348 167 1
776 167 1
780 167 1
37 168 1
52 168 1
65 168 1
81 168 1
320 168 1
342 168 1
777 168 1
781 168 1
38 169 1
53 169 1
66 169 1
82 169 1
321 169 1
343 169 1
778 169 1
782 169 1
39 170 1
54 170 1
67 170 1
83 170 1
322 170 1
344 170 1
779 170 1
783 170 1
40 171 1
55 171 1
68 171 1
84 171 1
323 171 1
345 171 1
755 171 1
780 171 1
41 172 1
56 172 1
69 172 1
85 172 1
324 172 1
346 172 1
756 172 1
781 172 1
42 173 1
57 173 1
70 173 1
86 173 1
325 173 1
347 173 1
757 173 1
782 173 1
43 174 1
58 174 1
71 174 1
87 174 1
326 174 1
348 174 1
758 174 1
783 174 1
30 175 1
47 175 1
88 175 1
101 175 1
349 175 1
356 175 1
784 175 1
788 175 1
31 176 1
48 176 1
89 176 1
102 176 1
350 176 1
357 176 1
785 176 1
789 176 1
32 177 1
49 177 1
90 177 1
103 177 1
351 177 1
358 177 1
786 177 1
790 177 1
33 178 1
50 178 1
91 178 1
104 178 1
352 178 1
359 178 1
787 178 1
791 178 1
34 179 1
51 179 1
92 179 1
105 179 1
353 179 1
360 179 1
788 179 1
792 179 1
35 180 1
52 180 1
93 180 1
106 180 1
354 180 1
361 180 1
789 180 1
793 180 1
36 181 1
53 181 1
94 181 1
107 181 1
355 181 1
362 181 1
790 181 1
794 181 1
37 182 1
54 182 1
95 182 1
108 182 1
356 182 1
363 182 1
791 182 1
795 182 1
38 183 1
55 183 1
96 183 1
109 183 1
357 183 1
364 183 1
792 183 1
796 183 1
39 184 1
56 184 1
97 184 1
110 184 1
358 184 1
365 184 1
793 184 1
797 184 1
40 185 1
57 185 1
98 185 1
111 185 1
359 185 1
366 185 1
794 185 1
798 185 1
41 186 1
58 186 1
99 186 1
112 186 1
360 186 1
367 186 1
795 186 1
799 186 1
30 187 1
42 187 1
100 187 1
113 187 1
361 187 1
368 187 1
796 187 1
800 187 1
31 188 1
43 188 1
101 188 1
114 188 1
362 188 1
369 188 1
797 188 1
801 188 1
32 189 1
44 189 1
102 189 1
115 189 1
363 189 1
370 189 1
798 189 1
802 189 1
33 190 1
45 190 1
103 190 1
116 190 1
364 190 1
371 190 1
799 190 1
803 190 1
34 191 1
46 191 1
88 191 1
104 191 1
365 191 1
372 191 1
800 191 1
804 191 1
35 192 1
47 192 1
89 192 1
105 192 1
366 192 1
373 192 1
801 192 1
805 192 1
36 193 1
48 193 1
90 193 1
106 193 1
367 193 1
374 193 1
802 193 1
806 193 1
37 194 1
49 194 1
91 194 1
107 194 1
368 194 1
375 194 1
803 194 1
807 194 1
38 195 1
50 195 1
92 195 1
108 195 1
369 195 1
376 195 1
804 195 1
808 195 1
39 196 1
51 196 1
93 196 1
109 196 1
370 196 1
377 196 1
805 196 1
809 196 1
40 197 1
52 197 1
94 197 1
110 197 1
349 197 1
371 197 1
806 197 1
810 197 1
41 198 1
53 198 1
95 198 1
111 198 1
350 198 1
372 198 1
807 198 1
811 198 1
42 199 1
54 199 1
96 199 1
112 199 1
351 199 1
373 199 1
808 199 1
812 199 1
43 200 1
55 200 1
97 200 1
113 200 1
352 200 1
374 200 1
784 200 1
809 200 1
44 201 1
56 201 1
98 201 1
114 201 1
353 201 1
375 201 1
785 201 1
810 201 1
45 202 1
57 202 1
99 202 1
115 202 1
354 202 1
376 202 1
786 202 1
811 202 1
46 203 1
58 203 1
100 203 1
116 203 1
355 203 1
377 203 1
787 203 1
812 203 1
30 204 1
50 204 1
117 204 1
130 204 1
378 204 1
385 204 1
813 204 1
817 204 1
31 205 1
51 205 1
118 205 1
131 205 1
379 205 1
386 205 1
814 205 1
818 205 1
32 206 1
52 206 1
119 206 1
132 206 1
380 206 1
387 206 1
815 206 1
819 206 1
33 207 1
53 207 1
120 207 1
133 207 1
381 207 1
388 207 1
816 207 1
820 207 1
34 208 1
54 208 1
121 208 1
134 208 1
382 208 1
389 208 1
817 208 1
821 208 1
35 209 1
55 209 1
122 209 1
135 209 1
383 209 1
390 209 1
818 209 1
822 209 1
36 210 1
56 210 1
123 210 1
136 210 1
384 210 1
391 210 1
819 210 1
823 210 1
37 211 1
57 211 1
124 211 1
137 211 1
385 211 1
392 211 1
820 211 1
824 211 1
38 212 1
58 212 1
125 212 1
138 212 1
386 212 1
393 212 1
821 212 1
825 212 1
30 213 1
39 213 1
126 213 1
139 213 1
387 213 1
394 213 1
822 213 1
826 213 1
31 214 1
40 214 1
127 214 1
140 214 1
388 214 1
395 214 1
823 214 1
827 214 1
32 215 1
41 215 1
128 215 1
141 215 1
389 215 1
396 215 1
824 215 1
828 215 1
33 216 1
42 216 1
129 216 1
142 216 1
390 216 1
397 216 1
825 216 1
829 216 1
34 217 1
43 217 1
130 217 1
143 217 1
391 217 1
398 217 1
826 217 1
830 217 1
35 218 1
44 218 1
131 218 1
144 218 1
392 218 1
399 218 1
827 218 1
831 218 1
36 219 1
45 219 1
132 219 1
145 219 1
393 219 1
400 219 1
828 219 1
832 219 1
37 220 1
46 220 1
117 220 1
133 220 1
394 220 1
401 220 1
829 220 1
833 220 1
38 221 1
47 221 1
118 221 1
134 221 1
395 221 1
402 221 1
830 221 1
834 221 1
39 222 1
48 222 1
119 222 1
135 222 1
396 222 1
403 222 1
831 222 1
835 222 1
40 223 1
49 223 1
120 223 1
136 223 1
397 223 1
404 223 1
832 223 1
836 223 1
41 224 1
50 224 1
121 224 1
137 224 1
398 224 1
405 224 1
833 224 1
837 224 1
42 225 1
51 225 1
122 225 1
138 225 1
399 225 1
406 225 1
834 225 1
838 225 1
43 226 1
52 226 1
123 226 1
139 226 1
378 226 1
400 226 1
835 226 1
839 226 1
44 227 1
53 227 1
124 227 1
140 227 1
379 227 1
401 227 1
836 227 1
840 227 1
45 228 1
54 228 1
125 228 1
141 228 1
380 228 1
402 228 1
837 228 1
841 228 1
46 229 1
55 229 1
126 229 1
142 229 1
381 229 1
403 229 1
813 229 1
838 229 1
47 230 1
56 230 1
127 230 1
143 230 1
382 230 1
404 230 1
814 230 1
839 230 1
48 231 1
57 231 1
128 231 1
144 231 1
383 231 1
405 231 1
815 231 1
840 231 1
49 232 1
58 232 1
129 232 1
145 232 1
384 232 1
406 232 1
816 232 1
841 232 1
30 233 1
58 233 1
146 233 1
159 233 1
407 233 1
414 233 1
842 233 1
846 233 1
30 234 1
31 234 1
147 234 1
160 234 1
408 234 1
415 234 1
843 234 1
847 234 1
31 235 1
32 235 1
148 235 1
161 235 1
409 235 1
416 235 1
844 235 1
848 235 1
32 236 1
33 236 1
149 236 1
162 236 1
410 236 1
417 236 1
845 236 1
849 236 1
33 237 1
34 237 1
150 237 1
163 237 1
411 237 1
418 237 1
846 237 1
850 237 1
34 238 1
35 238 1
151 238 1
164 238 1
412 238 1
419 238 1
847 238 1
851 238 1
35 239 1
36 239 1
152 239 1
165 239 1
413 239 1
420 239 1
848 239 1
852 239 1
36 240 1
37 240 1
153 240 1
166 240 1
414 240 1
421 240 1
849 240 1
853 240 1
37 241 1
38 241 1
154 241 1
167 241 1
415 241 1
422 241 1
850 241 1
854 241 1
38 242 1
39 242 1
155 242 1
168 242 1
416 242 1
423 242 1
851 242 1
855 242 1
39 243 1
40 243 1
156 243 1
169 243 1
417 243 1
424 243 1
852 243 1
856 243 1
40 244 1
41 244 1
157 244 1
170 244 1
418 244 1
425 244 1
853 244 1
857 244 1
41 245 1
42 245 1
158 245 1
171 245 1
419 245 1
426 245 1
854 245 1
858 245 1
42 246 1
43 246 1
159 246 1
172 246 1
420 246 1
427 246 1
855 246 1
859 246 1
43 247 1
44 247 1
160 247 1
173 247 1
421 247 1
428 247 1
856 247 1
860 247 1
44 248 1
45 248 1
161 248 1
174 248 1
422 248 1
429 248 1
857 248 1
861 248 1
45 249 1
46 249 1
146 249 1
162 249 1
423 249 1
430 249 1
858 249 1
862 249 1
46 250 1
47 250 1
147 250 1
163 250 1
424 250 1
431 250 1
859 250 1
863 250 1
47 251 1
48 251 1
148 251 1
164 251 1
425 251 1
432 251 1
860 251 1
864 251 1
48 252 1
49 252 1
149 252 1
165 252 1
426 252 1
433 252 1
861 252 1
865 252 1
49 253 1
50 253 1
150 253 1
166 253 1
427 253 1
434 253 1
862 253 1
866 253 1
50 254 1
51 254 1
151 254 1
167 254 1
428 254 1
435 254 1
863 254 1
867 254 1
51 255 1
52 255 1
152 255 1
168 255 1
407 255 1
429 255 1
864 255 1
868 255 1
52 256 1
53 256 1
153 256 1
169 256 1
408 256 1
430 256 1
865 256 1
869 256 1
53 257 1
54 257 1
154 257 1
170 257 1
409 257 1
431 257 1
866 257 1
870 257 1
54 258 1
55 258 1
155 258 1
171 258 1
410 258 1
432 258 1
842 258 1
867 258 1
55 259 1
56 259 1
156 259 1
172 259 1
411 259 1
433 259 1
843 259 1
868 259 1
56 260 1
57 260 1
157 260 1
173 260 1
412 260 1
434 260 1
844 260 1
869 260 1
57 261 1
58 261 1
158 261 1
174 261 1
413 261 1
435 261 1
845 261 1
870 261 1
59 262 1
76 262 1
88 262 1
102 262 1
436 262 1
443 262 1
871 262 1
875 262 1
60 263 1
77 263 1
89 263 1
103 263 1
437 263 1
444 263 1
872 263 1
876 263 1
61 264 1
78 264 1
90 264 1
104 264 1
438 264 1
445 264 1
873 264 1
877 264 1
62 265 1
79 265 1
91 265 1
105 265 1
439 265 1
446 265 1
874 265 1
878 265 1
63 266 1
80 266 1
92 266 1
106 266 1
440 266 1
447 266 1
875 266 1
879 266 1
64 267 1
81 267 1
93 267 1
107 267 1
441 267 1
448 267 1
876 267 1
880 267 1
65 268 1
82 268 1
94 268 1
108 268 1
442 268 1
449 268 1
877 268 1
881 268 1
66 269 1
83 269 1
95 269 1
109 269 1
443 269 1
450 269 1
878 269 1
882 269 1
67 270 1
84 270 1
96 270 1
110 270 1
444 270 1
451 270 1
879 270 1
883 270 1
68 271 1
85 271 1
97 271 1
111 271 1
445 271 1
452 271 1
880 271 1
884 271 1
69 272 1
86 272 1
98 272 1
112 272 1
446 272 1
453 272 1
881 272 1
885 272 1
70 273 1
87 273 1
99 273 1
113 273 1
447 273 1
454 273 1
882 273 1
886 273 1
59 274 1
71 274 1
100 274 1
114 274 1
448 274 1
455 274 1
883 274 1
887 274 1
60 275 1
72 275 1
101 275 1
115 275 1
449 275 1
456 275 1
884 275 1
888 275 1
61 276 1
73 276 1
102 276 1
116 276 1
450 276 1
457 276 1
885 276 1
889 276 1
62 277 1
74 277 1
88 277 1
103 277 1
451 277 1
458 277 1
886 277 1
890 277 1
63 278 1
75 278 1
89 278 1
104 278 1
452 278 1
459 278 1
887 278 1
891 278 1
64 279 1
76 279 1
90 279 1
105 279 1
453 279 1
460 279 1
888 279 1
892 279 1
65 280 1
77 280 1
91 280 1
106 280 1
454 280 1
461 280 1
889 280 1
893 280 1
66 281 1
78 281 1
92 281 1
107 281 1
455 281 1
462 281 1
890 281 1
894 281 1
67 282 1
79 282 1
93 282 1
108 282 1
456 282 1
463 282 1
891 282 1
895 282 1
68 283 1
80 283 1
94 283 1
109 283 1
457 283 1
464 283 1
892 283 1
896 283 1
69 284 1
81 284 1
95 284 1
110 284 1
436 284 1
458 284 1
893 284 1
897 284 1
70 285 1
82 285 1
96 285 1
111 285 1
437 285 1
459 285 1
894 285 1
898 285 1
71 286 1
83 286 1
97 286 1
112 286 1
438 286 1
460 286 1
895 286 1
899 286 1
72 287 1
84 287 1
98 287 1
113 287 1
439 287 1
461 287 1
871 287 1
896 287 1
73 288 1
85 288 1
99 288 1
114 288 1
440 288 1
462 288 1
872 288 1
897 288 1
74 289 1
86 289 1
100 289 1
115 289 1
441 289 1
463 289 1
873 289 1
898 289 1
75 290 1
87 290 1
101 290 1
116 290 1
442 290 1
464 290 1
874 290 1
899 290 1
59 291 1
79 291 1
117 291 1
131 291 1
465 291 1
472 291 1
900 291 1
904 291 1
60 292 1
80 292 1
118 292 1
132 292 1
466 292 1
473 292 1
901 292 1
905 292 1
61 293 1
81 293 1
119 293 1
133 293 1
467 293 1
474 293 1
902 293 1
906 293 1
62 294 1
82 294 1
120 294 1
134 294 1
468 294 1
475 294 1
903 294 1
907 294 1
63 295 1
83 295 1
121 295 1
135 295 1
469 295 1
476 295 1
904 295 1
908 295 1
64 296 1
84 296 1
122 296 1
136 296 1
470 296 1
477 296 1
905 296 1
909 296 1
65 297 1
85 297 1
123 297 1
137 297 1
471 297 1
478 297 1
906 297 1
910 297 1
66 298 1
86 298 1
124 298 1
138 298 1
472 298 1
479 298 1
907 298 1
911 298 1
67 299 1
87 299 1
125 299 1
139 299 1
473 299 1
480 299 1
908 299 1
912 299 1
59 300 1
68 300 1
126 300 1
140 300 1
474 300 1
481 300 1
909 300 1
913 300 1
60 301 1
69 301 1
127 301 1
141 301 1
475 301 1
482 301 1
910 301 1
914 301 1
61 302 1
70 302 1
128 302 1
142 302 1
476 302 1
483 302 1
911 302 1
915 302 1
62 303 1
71 303 1
129 303 1
143 303 1
477 303 1
484 303 1
912 303 1
916 303 1
63 304 1
72 304 1
130 304 1
144 304 1
478 304 1
485 304 1
913 304 1
917 304 1
64 305 1
73 305 1
131 305 1
145 305 1
479 305 1
486 305 1
914 305 1
918 305 1
65 306 1
74 306 1
117 306 1
132 306 1
480 306 1
487 306 1
915 306 1
919 306 1
66 307 1
75 307 1
118 307 1
133 307 1
481 307 1
488 307 1
916 307 1
920 307 1
67 308 1
76 308 1
119 308 1
134 308 1
482 308 1
489 308 1
917 308 1
921 308 1
68 309 1
77 309 1
120 309 1
135 309 1
483 309 1
490 309 1
918 309 1
922 309 1
69 310 1
78 310 1
121 310 1
136 310 1
484 310 1
491 310 1
919 310 1
923 310 1
70 311 1
79 311 1
122 311 1
137 311 1
485 311 1
492 311 1
920 311 1
924 311 1
71 312 1
80 312 1
123 312 1
138 312 1
486 312 1
493 312 1
921 312 1
925 312 1
72 313 1
81 313 1
124 313 1
139 313 1
465 313 1
487 313 1
922 313 1
926 313 1
73 314 1
82 314 1
125 314 1
140 314 1
466 314 1
488 314 1
923 314 1
927 314 1
74 315 1
83 315 1
126 315 1
141 315 1
467 315 1
489 315 1
924 315 1
928 315 1
75 316 1
84 316 1
127 316 1
142 316 1
468 316 1
490 316 1
900 316 1
925 316 1
76 317 1
85 317 1
128 317 1
143 317 1
469 317 1
491 317 1
901 317 1
926 317 1
77 318 1
86 318 1
129 318 1
144 318 1
470 318 1
492 318 1
902 318 1
927 318 1
78 319 1
87 319 1
130 319 1
145 319 1
471 319 1
493 319 1
903 319 1
928 319 1
59 320 1
87 320 1
146 320 1
160 320 1
494 320 1
501 320 1
929 320 1
933 320 1
59 321 1
60 321 1
147 321 1
161 321 1
495 321 1
502 321 1
930 321 1
934 321 1
60 322 1
61 322 1
148 322 1
162 322 1
496 322 1
503 322 1
931 322 1
935 322 1
61 323 1
62 323 1
149 323 1
163 323 1
497 323 1
504 323 1
932 323 1
936 323 1
62 324 1
63 324 1
150 324 1
164 324 1
498 324 1
505 324 1
933 324 1
937 324 1
63 325 1
64 325 1
151 325 1
165 325 1
499 325 1
506 325 1
934 325 1
938 325 1
64 326 1
65 326 1
152 326 1
166 326 1
500 326 1
507 326 1
935 326 1
939 326 1
65 327 1
66 327 1
153 327 1
167 327 1
501 327 1
508 327 1
936 327 1
940 327 1
66 328 1
67 328 1
154 328 1
168 328 1
502 328 1
509 328 1
937 328 1
941 328 1
67 329 1
68 329 1
155 329 1
169 329 1
503 329 1
510 329 1
938 329 1
942 329 1
68 330 1
69 330 1
156 330 1
170 330 1
504 330 1
511 330 1
939 330 1
943 330 1
69 331 1
70 331 1
157 331 1
171 331 1
505 331 1
512 331 1
940 331 1
944 331 1
70 332 1
71 332 1
158 332 1
172 332 1
506 332 1
513 332 1
941 332 1
945 332 1
71 333 1
72 333 1
159 333 1
173 333 1
507 333 1
514 333 1
942 333 1
946 333 1
72 334 1
73 334 1
160 334 1
174 334 1
508 334 1
515 334 1
943 334 1
947 334 1
73 335 1
74 335 1
146 335 1
161 335 1
509 335 1
516 335 1
944 335 1
948 335 1
74 336 1
75 336 1
147 336 1
162 336 1
510 336 1
517 336 1
945 336 1
949 336 1
75 337 1
76 337 1
148 337 1
163 337 1
511 337 1
518 337 1
946 337 1
950 337 1
76 338 1
77 338 1
149 338 1
164 338 1
512 338 1
519 338 1
947 338 1
951 338 1
77 339 1
78 339 1
150 339 1
165 339 1
513 339 1
520 339 1
948 339 1
952 339 1
78 340 1
79 340 1
151 340 1
166 340 1
514 340 1
521 340 1
949 340 1
953 340 1
79 341 1
80 341 1
152 341 1
167 341 1
515 341 1
522 341 1
950 341 1
954 341 1
80 342 1
81 342 1
153 342 1
168 342 1
494 342 1
516 342 1
951 342 1
955 342 1
81 343 1
82 343 1
154 343 1
169 343 1
495 343 1
517 343 1
952 343 1
956 343 1
82 344 1
83 344 1
155 344 1
170 344 1
496 344 1
518 344 1
953 344 1
957 344 1
83 345 1
84 345 1
156 345 1
171 345 1
497 345 1
519 345 1
929 345 1
954 345 1
84 346 1
85 346 1
157 346 1
172 346 1
498 346 1
520 346 1
930 346 1
955 346 1
85 347 1
86 347 1
158 347 1
173 347 1
499 347 1
521 347 1
931 347 1
956 347 1
86 348 1
87 348 1
159 348 1
174 348 1
500 348 1
522 348 1
932 348 1
957 348 1
88 349 1
108 349 1
117 349 1
134 349 1
523 349 1
530 349 1
958 349 1
962 349 1
89 350 1
109 350 1
118 350 1
135 350 1
524 350 1
531 350 1
959 350 1
963 350 1
90 351 1
110 351 1
119 351 1
136 351 1
525 351 1
532 351 1
960 351 1
964 351 1
91 352 1
111 352 1
120 352 1
137 352 1
526 352 1
533 352 1
961 352 1
965 352 1
92 353 1
112 353 1
121 353 1
138 353 1
527 353 1
534 353 1
962 353 1
966 353 1
93 354 1
113 354 1
122 354 1
139 354 1
528 354 1
535 354 1
963 354 1
967 354 1
94 355 1
114 355 1
123 355 1
140 355 1
529 355 1
536 355 1
964 355 1
968 355 1
95 356 1
115 356 1
124 356 1
141 356 1
530 356 1
537 356 1
965 356 1
969 356 1
96 357 1
116 357 1
125 357 1
142 357 1
531 357 1
538 357 1
966 357 1
970 357 1
88 358 1
97 358 1
126 358 1
143 358 1
532 358 1
539 358 1
967 358 1
971 358 1
89 359 1
98 359 1
127 359 1
144 359 1
533 359 1
540 359 1
968 359 1
972 359 1
90 360 1
99 360 1
128 360 1
145 360 1
534 360 1
541 360 1
969 360 1
973 360 1
91 361 1
100 361 1
117 361 1
129 361 1
535 361 1
542 361 1
970 361 1
974 361 1
92 362 1
101 362 1
118 362 1
130 362 1
536 362 1
543 362 1
971 362 1
975 362 1
93 363 1
102 363 1
119 363 1
131 363 1
537 363 1
544 363 1
972 363 1
976 363 1
94 364 1
103 364 1
120 364 1
132 364 1
538 364 1
545 364 1
973 364 1
977 364 1
95 365 1
104 365 1
121 365 1
133 365 1
539 365 1
546 365 1
974 365 1
978 365 1
96 366 1
105 366 1
122 366 1
134 366 1
540 366 1
547 366 1
975 366 1
979 366 1
97 367 1
106 367 1
123 367 1
135 367 1
541 367 1
548 367 1
976 367 1
980 367 1
98 368 1
107 368 1
124 368 1
136 368 1
542 368 1
549 368 1
977 368 1
981 368 1
99 369 1
108 369 1
125 369 1
137 369 1
543 369 1
550 369 1
978 369 1
982 369 1
100 370 1
109 370 1
126 370 1
138 370 1
544 370 1
551 370 1
979 370 1
983 370 1
101 371 1
110 371 1
127 371 1
139 371 1
523 371 1
545 371 1
980 371 1
984 371 1
102 372 1
111 372 1
128 372 1
140 372 1
524 372 1
546 372 1
981 372 1
985 372 1
103 373 1
112 373 1
129 373 1
141 373 1
525 373 1
547 373 1
982 373 1
986 373 1
104 374 1
113 374 1
130 374 1
142 374 1
526 374 1
548 374 1
958 374 1
983 374 1
105 375 1
114 375 1
131 375 1
143 375 1
527 375 1
549 375 1
959 375 1
984 375 1
106 376 1
115 376 1
132 376 1
144 376 1
528 376 1
550 376 1
960 376 1
985 376 1
107 377 1
116 377 1
133 377 1
145 377 1
529 377 1
551 377 1
961 377 1
986 377 1
88 378 1
116 378 1
146 378 1
163 378 1
552 378 1
559 378 1
987 378 1
991 378 1
88 379 1
89 379 1
147 379 1
164 379 1
553 379 1
560 379 1
988 379 1
992 379 1
89 380 1
90 380 1
148 380 1
165 380 1
554 380 1
561 380 1
989 380 1
993 380 1
90 381 1
91 381 1
149 381 1
166 381 1
555 381 1
562 381 1
990 381 1
994 381 1
91 382 1
92 382 1
150 382 1
167 382 1
556 382 1
563 382 1
991 382 1
995 382 1
92 383 1
93 383 1
151 383 1
168 383 1
557 383 1
564 383 1
992 383 1
996 383 1
93 384 1
94 384 1
152 384 1
169 384 1
558 384 1
565 384 1
993 384 1
997 384 1
94 385 1
95 385 1
153 385 1
170 385 1
559 385 1
566 385 1
994 385 1
998 385 1
95 386 1
96 386 1
154 386 1
171 386 1
560 386 1
567 386 1
995 386 1
999 386 1
96 387 1
97 387 1
155 387 1
172 387 1
561 387 1
568 387 1
996 387 1
1000 387 1
97 388 1
98 388 1
156 388 1
173 388 1
562 388 1
569 388 1
997 388 1
1001 388 1
98 389 1
99 389 1
157 389 1
174 389 1
563 389 1
570 389 1
998 389 1
1002 389 1
99 390 1
100 390 1
146 390 1
158 390 1
564 390 1
571 390 1
999 390 1
1003 390 1
100 391 1
101 391 1
147 391 1
159 391 1
565 391 1
572 391 1
1000 391 1
1004 391 1
101 392 1
102 392 1
148 392 1
160 392 1
566 392 1
573 392 1
1001 392 1
1005 392 1
102 393 1
103 393 1
149 393 1
161 393 1
567 393 1
574 393 1
1002 393 1
1006 393 1
103 394 1
104 394 1
150 394 1
162 394 1
568 394 1
575 394 1
1003 394 1
1007 394 1
104 395 1
105 395 1
151 395 1
163 395 1
569 395 1
576 395 1
1004 395 1
1008 395 1
105 396 1
106 396 1
152 396 1
164 396 1
570 396 1
577 396 1
1005 396 1
1009 396 1
106 397 1
107 397 1
153 397 1
165 397 1
571 397 1
578 397 1
1006 397 1
1010 397 1
107 398 1
108 398 1
154 398 1
166 398 1
572 398 1
579 398 1
1007 398 1
1011 398 1
108 399 1
109 399 1
155 399 1
167 399 1
573 399 1
580 399 1
1008 399 1
1012 399 1
109 400 1
110 400 1
156 400 1
168 400 1
552 400 1
574 400 1
1009 400 1
1013 400 1
110 401 1
111 401 1
157 401 1
169 401 1
553 401 1
575 401 1
1010 401 1
1014 401 1
111 402 1
112 402 1
158 402 1
170 402 1
554 402 1
576 402 1
1011 402 1
1015 402 1
112 403 1
113 403 1
159 403 1
171 403 1
555 403 1
577 403 1
987 403 1
1012 403 1
113 404 1
114 404 1
160 404 1
172 404 1
556 404 1
578 404 1
988 404 1
1013 404 1
114 405 1
115 405 1
161 405 1
173 405 1
557 405 1
579 405 1
989 405 1
1014 405 1
115 406 1
116 406 1
162 406 1
174 406 1
558 406 1
580 406 1
990 406 1
1015 406 1
117 407 1
145 407 1
146 407 1
166 407 1
581 407 1
588 407 1
1016 407 1
1020 407 1
117 408 1
118 408 1
147 408 1
167 408 1
582 408 1
589 408 1
1017 408 1
1021 408 1
118 409 1
119 409 1
148 409 1
168 409 1
583 409 1
590 409 1
1018 409 1
1022 409 1
119 410 1
120 410 1
149 410 1
169 410 1
584 410 1
591 410 1
1019 410 1
1023 410 1
120 411 1
121 411 1
150 411 1
170 411 1
585 411 1
592 411 1
1020 411 1
1024 411 1
121 412 1
122 412 1
151 412 1
171 412 1
586 412 1
593 412 1
1021 412 1
1025 412 1
122 413 1
123 413 1
152 413 1
172 413 1
587 413 1
594 413 1
1022 413 1
1026 413 1
123 414 1
124 414 1
153 414 1
173 414 1
588 414 1
595 414 1
1023 414 1
1027 414 1
124 415 1
125 415 1
154 415 1
174 415 1
589 415 1
596 415 1
1024 415 1
1028 415 1
125 416 1
126 416 1
146 416 1
155 416 1
590 416 1
597 416 1
1025 416 1
1029 416 1
126 417 1
127 417 1
147 417 1
156 417 1
591 417 1
598 417 1
1026 417 1
1030 417 1
127 418 1
128 418 1
148 418 1
157 418 1
592 418 1
599 418 1
1027 418 1
1031 418 1
128 419 1
129 419 1
149 419 1
158 419 1
593 419 1
600 419 1
1028 419 1
1032 419 1
129 420 1
130 420 1
150 420 1
159 420 1
594 420 1
601 420 1
1029 420 1
1033 420 1
130 421 1
131 421 1
151 421 1
160 421 1
595 421 1
602 421 1
1030 421 1
1034 421 1
131 422 1
132 422 1
152 422 1
161 422 1
596 422 1
603 422 1
1031 422 1
1035 422 1
132 423 1
133 423 1
153 423 1
162 423 1
597 423 1
604 423 1
1032 423 1
1036 423 1
133 424 1
134 424 1
154 424 1
163 424 1
598 424 1
605 424 1
1033 424 1
1037 424 1
134 425 1
135 425 1
155 425 1
164 425 1
599 425 1
606 425 1
1034 425 1
1038 425 1
135 426 1
136 426 1
156 426 1
165 426 1
600 426 1
607 426 1
1035 426 1
1039 426 1
136 427 1
137 427 1
157 427 1
166 427 1
601 427 1
608 427 1
1036 427 1
1040 427 1
137 428 1
138 428 1
158 428 1
167 428 1
602 428 1
609 428 1
1037 428 1
1041 428 1
138 429 1
139 429 1
159 429 1
168 429 1
581 429 1
603 429 1
1038 429 1
1042 429 1
139 430 1
140 430 1
160 430 1
169 430 1
582 430 1
604 430 1
1039 430 1
1043 430 1
140 431 1
141 431 1
161 431 1
170 431 1
583 431 1
605 431 1
1040 431 1
1044 431 1
141 432 1
142 432 1
162 432 1
171 432 1
584 432 1
606 432 1
1016 432 1
1041 432 1
142 433 1
143 433 1
163 433 1
172 433 1
585 433 1
607 433 1
1017 433 1
1042 433 1
143 434 1
144 434 1
164 434 1
173 434 1
586 434 1
608 434 1
1018 434 1
1043 434 1
144 435 1
145 435 1
165 435 1
174 435 1
587 435 1
609 435 1
1019 435 1
1044 435 1
175 436 1
189 436 1
204 436 1
217 436 1
320 436 1
331 436 1
1045 436 1
1049 436 1
176 437 1
190 437 1
205 437 1
218 437 1
321 437 1
332 437 1
1046 437 1
1050 437 1
177 438 1
191 438 1
206 438 1
219 438 1
322 438 1
333 438 1
1047 438 1
1051 438 1
178 439 1
192 439 1
207 439 1
220 439 1
323 439 1
334 439 1
1048 439 1
1052 439 1
179 440 1
193 440 1
208 440 1
221 440 1
324 440 1
335 440 1
1049 440 1
1053 440 1
180 441 1
194 441 1
209 441 1
222 441 1
325 441 1
336 441 1
1050 441 1
1054 441 1
181 442 1
195 442 1
210 442 1
223 442 1
326 442 1
337 442 1
1051 442 1
1055 442 1
182 443 1
196 443 1
211 443 1
224 443 1
327 443 1
338 443 1
1052 443 1
1056 443 1
183 444 1
197 444 1
212 444 1
225 444 1
328 444 1
339 444 1
1053 444 1
1057 444 1
184 445 1
198 445 1
213 445 1
226 445 1
329 445 1
340 445 1
1054 445 1
1058 445 1
185 446 1
199 446 1
214 446 1
227 446 1
330 446 1
341 446 1
1055 446 1
1059 446 1
186 447 1
200 447 1
215 447 1
228 447 1
331 447 1
342 447 1
1056 447 1
1060 447 1
187 448 1
201 448 1
216 448 1
229 448 1
332 448 1
343 448 1
1057 448 1
1061 448 1
188 449 1
202 449 1
217 449 1
230 449 1
333 449 1
344 449 1
1058 449 1
1062 449 1
189 450 1
203 450 1
218 450 1
231 450 1
334 450 1
345 450 1
1059 450 1
1063 450 1
175 451 1
190 451 1
219 451 1
232 451 1
335 451 1
346 451 1
1060 451 1
1064 451 1
176 452 1
191 452 1
204 452 1
220 452 1
336 452 1
347 452 1
1061 452 1
1065 452 1
177 453 1
192 453 1
205 453 1
221 453 1
337 453 1
348 453 1
1062 453 1
1066 453 1
178 454 1
193 454 1
206 454 1
222 454 1
320 454 1
338 454 1
1063 454 1
1067 454 1
179 455 1
194 455 1
207 455 1
223 455 1
321 455 1
339 455 1
1064 455 1
1068 455 1
180 456 1
195 456 1
208 456 1
224 456 1
322 456 1
340 456 1
1065 456 1
1069 456 1
181 457 1
196 457 1
209 457 1
225 457 1
323 457 1
341 457 1
1066 457 1
1070 457 1
182 458 1
197 458 1
210 458 1
226 458 1
324 458 1
342 458 1
1067 458 1
1071 458 1
183 459 1
198 459 1
211 459 1
227 459 1
325 459 1
343 459 1
1068 459 1
1072 459 1
184 460 1
199 460 1
212 460 1
228 460 1
326 460 1
344 460 1
1069 460 1
1073 460 1
185 461 1
200 461 1
213 461 1
229 461 1
327 461 1
345 461 1
1045 461 1
1070 461 1
186 462 1
201 462 1
214 462 1
230 462 1
328 462 1
346 462 1
1046 462 1
1071 462 1
187 463 1
202 463 1
215 463 1
231 463 1
329 463 1
347 463 1
1047 463 1
1072 463 1
188 464 1
203 464 1
216 464 1
232 464 1
330 464 1
348 464 1
1048 464 1
1073 464 1
175 465 1
192 465 1
233 465 1
246 465 1
349 465 1
360 465 1
1074 465 1
1078 465 1
176 466 1
193 466 1
234 466 1
247 466 1
350 466 1
361 466 1
1075 466 1
1079 466 1
177 467 1
194 467 1
235 467 1
248 467 1
351 467 1
362 467 1
1076 467 1
1080 467 1
178 468 1
195 468 1
236 468 1
249 468 1
352 468 1
363 468 1
1077 468 1
1081 468 1
179 469 1
196 469 1
237 469 1
250 469 1
353 469 1
364 469 1
1078 469 1
1082 469 1
180 470 1
197 470 1
238 470 1
251 470 1
354 470 1
365 470 1
1079 470 1
1083 470 1
181 471 1
198 471 1
239 471 1
252 471 1
355 471 1
366 471 1
1080 471 1
1084 471 1
182 472 1
199 472 1
240 472 1
253 472 1
356 472 1
367 472 1
1081 472 1
1085 472 1
183 473 1
200 473 1
241 473 1
254 473 1
357 473 1
368 473 1
1082 473 1
1086 473 1
184 474 1
201 474 1
242 474 1
255 474 1
358 474 1
369 474 1
1083 474 1
1087 474 1
185 475 1
202 475 1
243 475 1
256 475 1
359 475 1
370 475 1
1084 475 1
1088 475 1
186 476 1
203 476 1
244 476 1
257 476 1
360 476 1
371 476 1
1085 476 1
1089 476 1
175 477 1
187 477 1
245 477 1
258 477 1
361 477 1
372 477 1
1086 477 1
1090 477 1
176 478 1
188 478 1
246 478 1
259 478 1
362 478 1
373 478 1
1087 478 1
1091 478 1
177 479 1
189 479 1
247 479 1
260 479 1
363 479 1
374 479 1
1088 479 1
1092 479 1
178 480 1
190 480 1
248 480 1
261 480 1
364 480 1
375 480 1
1089 480 1
1093 480 1
179 481 1
191 481 1
233 481 1
249 481 1
365 481 1
376 481 1
1090 481 1
1094 481 1
180 482 1
192 482 1
234 482 1
250 482 1
366 482 1
377 482 1
1091 482 1
1095 482 1
181 483 1
193 483 1
235 483 1
251 483 1
349 483 1
367 483 1
1092 483 1
1096 483 1
182 484 1
194 484 1
236 484 1
252 484 1
350 484 1
368 484 1
1093 484 1
1097 484 1
183 485 1
195 485 1
237 485 1
253 485 1
351 485 1
369 485 1
1094 485 1
1098 485 1
184 486 1
196 486 1
238 486 1
254 486 1
352 486 1
370 486 1
1095 486 1
1099 486 1
185 487 1
197 487 1
239 487 1
255 487 1
353 487 1
371 487 1
1096 487 1
1100 487 1
186 488 1
198 488 1
240 488 1
256 488 1
354 488 1
372 488 1
1097 488 1
1101 488 1
187 489 1
199 489 1
241 489 1
257 489 1
355 489 1
373 489 1
1098 489 1
1102 489 1
188 490 1
200 490 1
242 490 1
258 490 1
356 490 1
374 490 1
1074 490 1
1099 490 1
189 491 1
201 491 1
243 491 1
259 491 1
357 491 1
375 491 1
1075 491 1
1100 491 1
190 492 1
202 492 1
244 492 1
260 492 1
358 492 1
376 492 1
1076 492 1
1101 492 1
191 493 1
203 493 1
245 493 1
261 493 1
359 493 1
377 493 1
1077 493 1
1102 493 1
175 494 1
195 494 1
262 494 1
275 494 1
378 494 1
389 494 1
1103 494 1
1107 494 1
176 495 1
196 495 1
263 495 1
276 495 1
379 495 1
390 495 1
1104 495 1
1108 495 1
177 496 1
197 496 1
264 496 1
277 496 1
380 496 1
391 496 1
1105 496 1
1109 496 1
178 497 1
198 497 1
265 497 1
278 497 1
381 497 1
392 497 1
1106 497 1
1110 497 1
179 498 1
199 498 1
266 498 1
279 498 1
382 498 1
393 498 1
1107 498 1
1111 498 1
180 499 1
200 499 1
267 499 1
280 499 1
383 499 1
394 499 1
1108 499 1
1112 499 1
181 500 1
201 500 1
268 500 1
281 500 1
384 500 1
395 500 1
1109 500 1
1113 500 1
182 501 1
202 501 1
269 501 1
282 501 1
385 501 1
396 501 1
1110 501 1
1114 501 1
183 502 1
203 502 1
270 502 1
283 502 1
386 502 1
397 502 1
1111 502 1
1115 502 1
175 503 1
184 503 1
271 503 1
284 503 1
387 503 1
398 503 1
1112 503 1
1116 503 1
176 504 1
185 504 1
272 504 1
285 504 1
388 504 1
399 504 1
1113 504 1
1117 504 1
177 505 1
186 505 1
273 505 1
286 505 1
389 505 1
400 505 1
1114 505 1
1118 505 1
178 506 1
187 506 1
274 506 1
287 506 1
390 506 1
401 506 1
1115 506 1
1119 506 1
179 507 1
188 507 1
275 507 1
288 507 1
391 507 1
402 507 1
1116 507 1
1120 507 1
180 508 1
189 508 1
276 508 1
289 508 1
392 508 1
403 508 1
1117 508 1
1121 508 1
181 509 1
190 509 1
277 509 1
290 509 1
393 509 1
404 509 1
1118 509 1
1122 509 1
182 510 1
191 510 1
262 510 1
278 510 1
394 510 1
405 510 1
1119 510 1
1123 510 1
183 511 1
192 511 1
263 511 1
279 511 1
395 511 1
406 511 1
1120 511 1
1124 511 1
184 512 1
193 512 1
264 512 1
280 512 1
378 512 1
396 512 1
1121 512 1
1125 512 1
185 513 1
194 513 1
265 513 1
281 513 1
379 513 1
397 513 1
1122 513 1
1126 513 1
186 514 1
195 514 1
266 514 1
282 514 1
380 514 1
398 514 1
1123 514 1
1127 514 1
187 515 1
196 515 1
267 515 1
283 515 1
381 515 1
399 515 1
1124 515 1
1128 515 1
188 516 1
197 516 1
268 516 1
284 516 1
382 516 1
400 516 1
1125 516 1
1129 516 1
189 517 1
198 517 1
269 517 1
285 517 1
383 517 1
401 517 1
1126 517 1
1130 517 1
190 518 1
199 518 1
270 518 1
286 518 1
384 518 1
402 518 1
1127 518 1
1131 518 1
191 519 1
200 519 1
271 519 1
287 519 1
385 519 1
403 519 1
1103 519 1
1128 519 1
192 520 1
201 520 1
272 520 1
288 520 1
386 520 1
404 520 1
1104 520 1
1129 520 1
193 521 1
202 521 1
273 521 1
289 521 1
387 521 1
405 521 1
1105 521 1
1130 521 1
194 522 1
203 522 1
274 522 1
290 522 1
388 522 1
406 522 1
1106 522 1
1131 522 1
175 523 1
203 523 1
291 523 1
304 523 1
407 523 1
418 523 1
1132 523 1
1136 523 1
175 524 1
176 524 1
292 524 1
305 524 1
408 524 1
419 524 1
1133 524 1
1137 524 1
176 525 1
177 525 1
293 525 1
306 525 1
409 525 1
420 525 1
1134 525 1
1138 525 1
177 526 1
178 526 1
294 526 1
307 526 1
410 526 1
421 526 1
1135 526 1
1139 526 1
178 527 1
179 527 1
295 527 1
308 527 1
411 527 1
422 527 1
1136 527 1
1140 527 1
179 528 1
180 528 1
296 528 1
309 528 1
412 528 1
423 528 1
1137 528 1
1141 528 1
180 529 1
181 529 1
297 529 1
310 529 1
413 529 1
424 529 1
1138 529 1
1142 529 1
181 530 1
182 530 1
298 530 1
311 530 1
414 530 1
425 530 1
1139 530 1
1143 530 1
182 531 1
183 531 1
299 531 1
312 531 1
415 531 1
426 531 1
1140 531 1
1144 531 1
183 532 1
184 532 1
300 532 1
313 532 1
416 532 1
427 532 1
1141 532 1
1145 532 1
184 533 1
185 533 1
301 533 1
314 533 1
417 533 1
428 533 1
1142 533 1
1146 533 1
185 534 1
186 534 1
302 534 1
315 534 1
418 534 1
429 534 1
1143 534 1
1147 534 1
186 535 1
187 535 1
303 535 1
316 535 1
419 535 1
430 535 1
1144 535 1
1148 535 1
187 536 1
188 536 1
304 536 1
317 536 1
420 536 1
431 536 1
1145 536 1
1149 536 1
188 537 1
189 537 1
305 537 1
318 537 1
421 537 1
432 537 1
1146 537 1
1150 537 1
189 538 1
190 538 1
306 538 1
319 538 1
422 538 1
433 538 1
1147 538 1
1151 538 1
190 539 1
191 539 1
291 539 1
307 539 1
423 539 1
434 539 1
1148 539 1
1152 539 1
191 540 1
192 540 1
292 540 1
308 540 1
424 540 1
435 540 1
1149 540 1
1153 540 1
192 541 1
193 541 1
293 541 1
309 541 1
407 541 1
425 541 1
1150 541 1
1154 541 1
193 542 1
194 542 1
294 542 1
310 542 1
408 542 1
426 542 1
1151 542 1
1155 542 1
194 543 1
195 543 1
295 543 1
311 543 1
409 543 1
427 543 1
1152 543 1
1156 543 1
195 544 1
196 544 1
296 544 1
312 544 1
410 544 1
428 544 1
1153 544 1
1157 544 1
196 545 1
197 545 1
297 545 1
313 545 1
411 545 1
429 545 1
1154 545 1
1158 545 1
197 546 1
198 546 1
298 546 1
314 546 1
412 546 1
430 546 1
1155 546 1
1159 546 1
198 547 1
199 547 1
299 547 1
315 547 1
413 547 1
431 547 1
1156 547 1
1160 547 1
199 548 1
200 548 1
300 548 1
316 548 1
414 548 1
432 548 1
1132 548 1
1157 548 1
200 549 1
201 549 1
301 549 1
317 549 1
415 549 1
433 549 1
1133 549 1
1158 549 1
201 550 1
202 550 1
302 550 1
318 550 1
416 550 1
434 550 1
1134 550 1
1159 550 1
202 551 1
203 551 1
303 551 1
319 551 1
417 551 1
435 551 1
1135 551 1
1160 551 1
204 552 1
221 552 1
233 552 1
247 552 1
436 552 1
447 552 1
1161 552 1
1165 552 1
205 553 1
222 553 1
234 553 1
248 553 1
437 553 1
448 553 1
1162 553 1
1166 553 1
206 554 1
223 554 1
235 554 1
249 554 1
438 554 1
449 554 1
1163 554 1
1167 554 1
207 555 1
224 555 1
236 555 1
250 555 1
439 555 1
450 555 1
1164 555 1
1168 555 1
208 556 1
225 556 1
237 556 1
251 556 1
440 556 1
451 556 1
1165 556 1
1169 556 1
209 557 1
226 557 1
238 557 1
252 557 1
441 557 1
452 557 1
1166 557 1
1170 557 1
210 558 1
227 558 1
239 558 1
253 558 1
442 558 1
453 558 1
1167 558 1
1171 558 1
211 559 1
228 559 1
240 559 1
254 559 1
443 559 1
454 559 1
1168 559 1
1172 559 1
212 560 1
229 560 1
241 560 1
255 560 1
444 560 1
455 560 1
1169 560 1
1173 560 1
213 561 1
230 561 1
242 561 1
256 561 1
445 561 1
456 561 1
1170 561 1
1174 561 1
214 562 1
231 562 1
243 562 1
257 562 1
446 562 1
457 562 1
1171 562 1
1175 562 1
215 563 1
232 563 1
244 563 1
258 563 1
447 563 1
458 563 1
1172 563 1
1176 563 1
204 564 1
216 564 1
245 564 1
259 564 1
448 564 1
459 564 1
1173 564 1
1177 564 1
205 565 1
217 565 1
246 565 1
260 565 1
449 565 1
460 565 1
1174 565 1
1178 565 1
206 566 1
218 566 1
247 566 1
261 566 1
450 566 1
461 566 1
1175 566 1
1179 566 1
207 567 1
219 567 1
233 567 1
248 567 1
451 567 1
462 567 1
1176 567 1
1180 567 1
208 568 1
220 568 1
234 568 1
249 568 1
452 568 1
463 568 1
1177 568 1
1181 568 1
209 569 1
221 569 1
235 569 1
250 569 1
453 569 1
464 569 1
1178 569 1
1182 569 1
210 570 1
222 570 1
236 570 1
251 570 1
436 570 1
454 570 1
1179 570 1
1183 570 1
211 571 1
223 571 1
237 571 1
252 571 1
437 571 1
455 571 1
1180 571 1
1184 571 1
212 572 1
224 572 1
238 572 1
253 572 1
438 572 1
456 572 1
1181 572 1
1185 572 1
213 573 1
225 573 1
239 573 1
254 573 1
439 573 1
457 573 1
1182 573 1
1186 573 1
214 574 1
226 574 1
240 574 1
255 574 1
440 574 1
458 574 1
1183 574 1
1187 574 1
215 575 1
227 575 1
241 575 1
256 575 1
441 575 1
459 575 1
1184 575 1
1188 575 1
216 576 1
228 576 1
242 576 1
257 576 1
442 576 1
460 576 1
1185 576 1
1189 576 1
217 577 1
229 577 1
243 577 1
258 577 1
443 577 1
461 577 1
1161 577 1
1186 577 1
218 578 1
230 578 1
244 578 1
259 578 1
444 578 1
462 578 1
1162 578 1
1187 578 1
219 579 1
231 579 1
245 579 1
260 579 1
445 579 1
463 579 1
1163 579 1
1188 579 1
220 580 1
232 580 1
246 580 1
261 580 1
446 580 1
464 580 1
1164 580 1
1189 580 1
204 581 1
224 581 1
262 581 1
276 581 1
465 581 1
476 581 1
1190 581 1
1194 581 1
205 582 1
225 582 1
263 582 1
277 582 1
466 582 1
477 582 1
1191 582 1
1195 582 1
206 583 1
226 583 1
264 583 1
278 583 1
467 583 1
478 583 1
1192 583 1
1196 583 1
207 584 1
227 584 1
265 584 1
279 584 1
468 584 1
479 584 1
1193 584 1
1197 584 1
208 585 1
228 585 1
266 585 1
280 585 1
469 585 1
480 585 1
1194 585 1
1198 585 1
209 586 1
229 586 1
267 586 1
281 586 1
470 586 1
481 586 1
1195 586 1
1199 586 1
210 587 1
230 587 1
268 587 1
282 587 1
471 587 1
482 587 1
1196 587 1
1200 587 1
211 588 1
231 588 1
269 588 1
283 588 1
472 588 1
483 588 1
1197 588 1
1201 588 1
212 589 1
232 589 1
270 589 1
284 589 1
473 589 1
484 589 1
1198 589 1
1202 589 1
204 590 1
213 590 1
271 590 1
285 590 1
474 590 1
485 590 1
1199 590 1
1203 590 1
205 591 1
214 591 1
272 591 1
286 591 1
475 591 1
486 591 1
1200 591 1
1204 591 1
206 592 1
215 592 1
273 592 1
287 592 1
476 592 1
487 592 1
1201 592 1
1205 592 1
207 593 1
216 593 1
274 593 1
288 593 1
477 593 1
488 593 1
1202 593 1
1206 593 1
208 594 1
217 594 1
275 594 1
289 594 1
478 594 1
489 594 1
1203 594 1
1207 594 1
209 595 1
218 595 1
276 595 1
290 595 1
479 595 1
490 595 1
1204 595 1
1208 595 1
210 596 1
219 596 1
262 596 1
277 596 1
480 596 1
491 596 1
1205 596 1
1209 596 1
211 597 1
220 597 1
263 597 1
278 597 1
481 597 1
492 597 1
1206 597 1
1210 597 1
212 598 1
221 598 1
264 598 1
279 598 1
482 598 1
493 598 1
1207 598 1
1211 598 1
213 599 1
222 599 1
265 599 1
280 599 1
465 599 1
483 599 1
1208 599 1
1212 599 1
214 600 1
223 600 1
266 600 1
281 600 1
466 600 1
484 600 1
1209 600 1
1213 600 1
215 601 1
224 601 1
267 601 1
282 601 1
467 601 1
485 601 1
1210 601 1
1214 601 1
216 602 1
225 602 1
268 602 1
283 602 1
468 602 1
486 602 1
1211 602 1
1215 602 1
217 603 1
226 603 1
269 603 1
284 603 1
469 603 1
487 603 1
1212 603 1
1216 603 1
218 604 1
227 604 1
270 604 1
285 604 1
470 604 1
488 604 1
1213 604 1
1217 604 1
219 605 1
228 605 1
271 605 1
286 605 1
471 605 1
489 605 1
1214 605 1
1218 605 1
220 606 1
229 606 1
272 606 1
287 606 1
472 606 1
490 606 1
1190 606 1
1215 606 1
221 607 1
230 607 1
273 607 1
288 607 1
473 607 1
491 607 1
1191 607 1
1216 607 1
222 608 1
231 608 1
274 608 1
289 608 1
474 608 1
492 608 1
1192 608 1
1217 608 1
223 609 1
232 609 1
275 609 1
290 609 1
475 609 1
493 609 1
1193 609 1
1218 609 1
204 610 1
232 610 1
291 610 1
305 610 1
494 610 1
505 610 1
1219 610 1
1223 610 1
204 611 1
205 611 1
292 611 1
306 611 1
495 611 1
506 611 1
1220 611 1
1224 611 1
205 612 1
206 612 1
293 612 1
307 612 1
496 612 1
507 612 1
1221 612 1
1225 612 1
206 613 1
207 613 1
294 613 1
308 613 1
497 613 1
508 613 1
1222 613 1
1226 613 1
207 614 1
208 614 1
295 614 1
309 614 1
498 614 1
509 614 1
1223 614 1
1227 614 1
208 615 1
209 615 1
296 615 1
310 615 1
499 615 1
510 615 1
1224 615 1
1228 615 1
209 616 1
210 616 1
297 616 1
311 616 1
500 616 1
511 616 1
1225 616 1
1229 616 1
210 617 1
211 617 1
298 617 1
312 617 1
501 617 1
512 617 1
1226 617 1
1230 617 1
211 618 1
212 618 1
299 618 1
313 618 1
502 618 1
513 618 1
1227 618 1
1231 618 1
212 619 1
213 619 1
300 619 1
314 619 1
503 619 1
514 619 1
1228 619 1
1232 619 1
213 620 1
214 620 1
301 620 1
315 620 1
504 620 1
515 620 1
1229 620 1
1233 620 1
214 621 1
215 621 1
302 621 1
316 621 1
505 621 1
516 621 1
1230 621 1
1234 621 1
215 622 1
216 622 1
303 622 1
317 622 1
506 622 1
517 622 1
1231 622 1
1235 622 1
216 623 1
217 623 1
304 623 1
318 623 1
507 623 1
518 623 1
1232 623 1
1236 623 1
217 624 1
218 624 1
305 624 1
319 624 1
508 624 1
519 624 1
1233 624 1
1237 624 1
218 625 1
219 625 1
291 625 1
306 625 1
509 625 1
520 625 1
1234 625 1
1238 625 1
219 626 1
220 626 1
292 626 1
307 626 1
510 626 1
521 626 1
1235 626 1
1239 626 1
220 627 1
221 627 1
293 627 1
308 627 1
511 627 1
522 627 1
1236 627 1
1240 627 1
221 628 1
222 628 1
294 628 1
309 628 1
494 628 1
512 628 1
1237 628 1
1241 628 1
222 629 1
223 629 1
295 629 1
310 629 1
495 629 1
513 629 1
1238 629 1
1242 629 1
223 630 1
224 630 1
296 630 1
311 630 1
496 630 1
514 630 1
1239 630 1
1243 630 1
224 631 1
225 631 1
297 631 1
312 631 1
497 631 1
515 631 1
1240 631 1
1244 631 1
225 632 1
226 632 1
298 632 1
313 632 1
498 632 1
516 632 1
1241 632 1
1245 632 1
226 633 1
227 633 1
299 633 1
314 633 1
499 633 1
517 633 1
1242 633 1
1246 633 1
227 634 1
228 634 1
300 634 1
315 634 1
500 634 1
518 634 1
1243 634 1
1247 634 1
228 635 1
229 635 1
301 635 1
316 635 1
501 635 1
519 635 1
1219 635 1
1244 635 1
229 636 1
230 636 1
302 636 1
317 636 1
502 636 1
520 636 1
1220 636 1
1245 636 1
230 637 1
231 637 1
303 637 1
318 637 1
503 637 1
521 637 1
1221 637 1
1246 637 1
231 638 1
232 638 1
304 638 1
319 638 1
504 638 1
522 638 1
1222 638 1
1247 638 1
233 639 1
253 639 1
262 639 1
279 639 1
523 639 1
534 639 1
1248 639 1
1252 639 1
234 640 1
254 640 1
263 640 1
280 640 1
524 640 1
535 640 1
1249 640 1
1253 640 1
235 641 1
255 641 1
264 641 1
281 641 1
525 641 1
536 641 1
1250 641 1
1254 641 1
236 642 1
256 642 1
265 642 1
282 642 1
526 642 1
537 642 1
1251 642 1
1255 642 1
237 643 1
257 643 1
266 643 1
283 643 1
527 643 1
538 643 1
1252 643 1
1256 643 1
238 644 1
258 644 1
267 644 1
284 644 1
528 644 1
539 644 1
1253 644 1
1257 644 1
239 645 1
259 645 1
268 645 1
285 645 1
529 645 1
540 645 1
1254 645 1
1258 645 1
240 646 1
260 646 1
269 646 1
286 646 1
530 646 1
541 646 1
1255 646 1
1259 646 1
241 647 1
261 647 1
270 647 1
287 647 1
531 647 1
542 647 1
1256 647 1
1260 647 1
233 648 1
242 648 1
271 648 1
288 648 1
532 648 1
543 648 1
1257 648 1
1261 648 1
234 649 1
243 649 1
272 649 1
289 649 1
533 649 1
544 649 1
1258 649 1
1262 649 1
235 650 1
244 650 1
273 650 1
290 650 1
534 650 1
545 650 1
1259 650 1
1263 650 1
236 651 1
245 651 1
262 651 1
274 651 1
535 651 1
546 651 1
1260 651 1
1264 651 1
237 652 1
246 652 1
263 652 1
275 652 1
536 652 1
547 652 1
1261 652 1
1265 652 1
238 653 1
247 653 1
264 653 1
276 653 1
537 653 1
548 653 1
1262 653 1
1266 653 1
239 654 1
248 654 1
265 654 1
277 654 1
538 654 1
549 654 1
1263 654 1
1267 654 1
240 655 1
249 655 1
266 655 1
278 655 1
539 655 1
550 655 1
1264 655 1
1268 655 1
241 656 1
250 656 1
267 656 1
279 656 1
540 656 1
551 656 1
1265 656 1
1269 656 1
242 657 1
251 657 1
268 657 1
280 657 1
523 657 1
541 657 1
1266 657 1
1270 657 1
243 658 1
252 658 1
269 658 1
281 658 1
524 658 1
542 658 1
1267 658 1
1271 658 1
244 659 1
253 659 1
270 659 1
282 659 1
525 659 1
543 659 1
1268 659 1
1272 659 1
245 660 1
254 660 1
271 660 1
283 660 1
526 660 1
544 660 1
1269 660 1
1273 660 1
246 661 1
255 661 1
272 661 1
284 661 1
527 661 1
545 661 1
1270 661 1
1274 661 1
247 662 1
256 662 1
273 662 1
285 662 1
528 662 1
546 662 1
1271 662 1
1275 662 1
248 663 1
257 663 1
274 663 1
286 663 1
529 663 1
547 663 1
1272 663 1
1276 663 1
249 664 1
258 664 1
275 664 1
287 664 1
530 664 1
548 664 1
1248 664 1
1273 664 1
250 665 1
259 665 1
276 665 1
288 665 1
531 665 1
549 665 1
1249 665 1
1274 665 1
251 666 1
260 666 1
277 666 1
289 666 1
532 666 1
550 666 1
1250 666 1
1275 666 1
252 667 1
261 667 1
278 667 1
290 667 1
533 667 1
551 667 1
1251 667 1
1276 667 1
233 668 1
261 668 1
291 668 1
308 668 1
552 668 1
563 668 1
1277 668 1
1281 668 1
233 669 1
234 669 1
292 669 1
309 669 1
553 669 1
564 669 1
1278 669 1
1282 669 1
234 670 1
235 670 1
293 670 1
310 670 1
554 670 1
565 670 1
1279 670 1
1283 670 1
235 671 1
236 671 1
294 671 1
311 671 1
555 671 1
566 671 1
1280 671 1
1284 671 1
236 672 1
237 672 1
295 672 1
312 672 1
556 672 1
567 672 1
1281 672 1
1285 672 1
237 673 1
238 673 1
296 673 1
313 673 1
557 673 1
568 673 1
1282 673 1
1286 673 1
238 674 1
239 674 1
297 674 1
314 674 1
558 674 1
569 674 1
1283 674 1
1287 674 1
239 675 1
240 675 1
298 675 1
315 675 1
559 675 1
570 675 1
1284 675 1
1288 675 1
240 676 1
241 676 1
299 676 1
316 676 1
560 676 1
571 676 1
1285 676 1
1289 676 1
241 677 1
242 677 1
300 677 1
317 677 1
561 677 1
572 677 1
1286 677 1
1290 677 1
242 678 1
243 678 1
301 678 1
318 678 1
562 678 1
573 678 1
1287 678 1
1291 678 1
243 679 1
244 679 1
302 679 1
319 679 1
563 679 1
574 679 1
1288 679 1
1292 679 1
244 680 1
245 680 1
291 680 1
303 680 1
564 680 1
575 680 1
1289 680 1
1293 680 1
245 681 1
246 681 1
292 681 1
304 681 1
565 681 1
576 681 1
1290 681 1
1294 681 1
246 682 1
247 682 1
293 682 1
305 682 1
566 682 1
577 682 1
1291 682 1
1295 682 1
247 683 1
248 683 1
294 683 1
306 683 1
567 683 1
578 683 1
1292 683 1
1296 683 1
248 684 1
249 684 1
295 684 1
307 684 1
568 684 1
579 684 1
1293 684 1
1297 684 1
249 685 1
250 685 1
296 685 1
308 685 1
569 685 1
580 685 1
1294 685 1
1298 685 1
250 686 1
251 686 1
297 686 1
309 686 1
552 686 1
570 686 1
1295 686 1
1299 686 1
251 687 1
252 687 1
298 687 1
310 687 1
553 687 1
571 687 1
1296 687 1
1300 687 1
252 688 1
253 688 1
299 688 1
311 688 1
554 688 1
572 688 1
1297 688 1
1301 688 1
253 689 1
254 689 1
300 689 1
312 689 1
555 689 1
573 689 1
1298 689 1
1302 689 1
254 690 1
255 690 1
301 690 1
313 690 1
556 690 1
574 690 1
1299 690 1
1303 690 1
255 691 1
256 691 1
302 691 1
314 691 1
557 691 1
575 691 1
1300 691 1
1304 691 1
256 692 1
257 692 1
303 692 1
315 692 1
558 692 1
576 692 1
1301 692 1
1305 692 1
257 693 1
258 693 1
304 693 1
316 693 1
559 693 1
577 693 1
1277 693 1
1302 693 1
258 694 1
259 694 1
305 694 1
317 694 1
560 694 1
578 694 1
1278 694 1
1303 694 1
259 695 1
260 695 1
306 695 1
318 695 1
561 695 1
579 695 1
1279 695 1
1304 695 1
260 696 1
261 696 1
307 696 1
319 696 1
562 696 1
580 696 1
1280 696 1
1305 696 1
262 697 1
290 697 1
291 697 1
311 697 1
581 697 1
592 697 1
1306 697 1
1310 697 1
262 698 1
263 698 1
292 698 1
312 698 1
582 698 1
593 698 1
1307 698 1
1311 698 1
263 699 1
264 699 1
293 699 1
313 699 1
583 699 1
594 699 1
1308 699 1
1312 699 1
264 700 1
265 700 1
294 700 1
314 700 1
584 700 1
595 700 1
1309 700 1
1313 700 1
265 701 1
266 701 1
295 701 1
315 701 1
585 701 1
596 701 1
1310 701 1
1314 701 1
266 702 1
267 702 1
296 702 1
316 702 1
586 702 1
597 702 1
1311 702 1
1315 702 1
267 703 1
268 703 1
297 703 1
317 703 1
587 703 1
598 703 1
1312 703 1
1316 703 1
268 704 1
269 704 1
298 704 1
318 704 1
588 704 1
599 704 1
1313 704 1
1317 704 1
269 705 1
270 705 1
299 705 1
319 705 1
589 705 1
600 705 1
1314 705 1
1318 705 1
270 706 1
271 706 1
291 706 1
300 706 1
590 706 1
601 706 1
1315 706 1
1319 706 1
271 707 1
272 707 1
292 707 1
301 707 1
591 707 1
602 707 1
1316 707 1
1320 707 1
272 708 1
273 708 1
293 708 1
302 708 1
592 708 1
603 708 1
1317 708 1
1321 708 1
273 709 1
274 709 1
294 709 1
303 709 1
593 709 1
604 709 1
1318 709 1
1322 709 1
274 710 1
275 710 1
295 710 1
304 710 1
594 710 1
605 710 1
1319 710 1
1323 710 1
275 711 1
276 711 1
296 711 1
305 711 1
595 711 1
606 711 1
1320 711 1
1324 711 1
276 712 1
277 712 1
297 712 1
306 712 1
596 712 1
607 712 1
1321 712 1
1325 712 1
277 713 1
278 713 1
298 713 1
307 713 1
597 713 1
608 713 1
1322 713 1
1326 713 1
278 714 1
279 714 1
299 714 1
308 714 1
598 714 1
609 714 1
1323 714 1
1327 714 1
279 715 1
280 715 1
300 715 1
309 715 1
581 715 1
599 715 1
1324 715 1
1328 715 1
280 716 1
281 716 1
301 716 1
310 716 1
582 716 1
600 716 1
1325 716 1
1329 716 1
281 717 1
282 717 1
302 717 1
311 717 1
583 717 1
601 717 1
1326 717 1
1330 717 1
282 718 1
283 718 1
303 718 1
312 718 1
584 718 1
602 718 1
1327 718 1
1331 718 1
283 719 1
284 719 1
304 719 1
313 719 1
585 719 1
603 719 1
1328 719 1
1332 719 1
284 720 1
285 720 1
305 720 1
314 720 1
586 720 1
604 720 1
1329 720 1
1333 720 1
285 721 1
286 721 1
306 721 1
315 721 1
587 721 1
605 721 1
1330 721 1
1334 721 1
286 722 1
287 722 1
307 722 1
316 722 1
588 722 1
606 722 1
1306 722 1
1331 722 1
287 723 1
288 723 1
308 723 1
317 723 1
589 723 1
607 723 1
1307 723 1
1332 723 1
288 724 1
289 724 1
309 724 1
318 724 1
590 724 1
608 724 1
1308 724 1
1333 724 1
289 725 1
290 725 1
310 725 1
319 725 1
591 725 1
609 725 1
1309 725 1
1334 725 1
320 726 1
337 726 1
349 726 1
363 726 1
436 726 1
449 726 1
1335 726 1
1339 726 1
321 727 1
338 727 1
350 727 1
364 727 1
437 727 1
450 727 1
1336 727 1
1340 727 1
322 728 1
339 728 1
351 728 1
365 728 1
438 728 1
451 728 1
1337 728 1
1341 728 1
323 729 1
340 729 1
352 729 1
366 729 1
439 729 1
452 729 1
1338 729 1
1342 729 1
324 730 1
341 730 1
353 730 1
367 730 1
440 730 1
453 730 1
1339 730 1
1343 730 1
325 731 1
342 731 1
354 731 1
368 731 1
441 731 1
454 731 1
1340 731 1
1344 731 1
326 732 1
343 732 1
355 732 1
369 732 1
442 732 1
455 732 1
1341 732 1
1345 732 1
327 733 1
344 733 1
356 733 1
370 733 1
443 733 1
456 733 1
1342 733 1
1346 733 1
328 734 1
345 734 1
357 734 1
371 734 1
444 734 1
457 734 1
1343 734 1
1347 734 1
329 735 1
346 735 1
358 735 1
372 735 1
445 735 1
458 735 1
1344 735 1
1348 735 1
330 736 1
347 736 1
359 736 1
373 736 1
446 736 1
459 736 1
1345 736 1
1349 736 1
331 737 1
348 737 1
360 737 1
374 737 1
447 737 1
460 737 1
1346 737 1
1350 737 1
320 738 1
332 738 1
361 738 1
375 738 1
448 738 1
461 738 1
1347 738 1
1351 738 1
321 739 1
333 739 1
362 739 1
376 739 1
449 739 1
462 739 1
1348 739 1
1352 739 1
322 740 1
334 740 1
363 740 1
377 740 1
450 740 1
463 740 1
1349 740 1
1353 740 1
323 741 1
335 741 1
349 741 1
364 741 1
451 741 1
464 741 1
1350 741 1
1354 741 1
324 742 1
336 742 1
350 742 1
365 742 1
436 742 1
452 742 1
1351 742 1
1355 742 1
325 743 1
337 743 1
351 743 1
366 743 1
437 743 1
453 743 1
1352 743 1
1356 743 1
326 744 1
338 744 1
352 744 1
367 744 1
438 744 1
454 744 1
1353 744 1
1357 744 1
327 745 1
339 745 1
353 745 1
368 745 1
439 745 1
455 745 1
1354 745 1
1358 745 1
328 746 1
340 746 1
354 746 1
369 746 1
440 746 1
456 746 1
1355 746 1
1359 746 1
329 747 1
341 747 1
355 747 1
370 747 1
441 747 1
457 747 1
1356 747 1
1360 747 1
330 748 1
342 748 1
356 748 1
371 748 1
442 748 1
458 748 1
1357 748 1
1361 748 1
331 749 1
343 749 1
357 749 1
372 749 1
443 749 1
459 749 1
1358 749 1
1362 749 1
332 750 1
344 750 1
358 750 1
373 750 1
444 750 1
460 750 1
1359 750 1
1363 750 1
333 751 1
345 751 1
359 751 1
374 751 1
445 751 1
461 751 1
1335 751 1
1360 751 1
334 752 1
346 752 1
360 752 1
375 752 1
446 752 1
462 752 1
1336 752 1
1361 752 1
335 753 1
347 753 1
361 753 1
376 753 1
447 753 1
463 753 1
1337 753 1
1362 753 1
336 754 1
348 754 1
362 754 1
377 754 1
448 754 1
464 754 1
1338 754 1
1363 754 1
320 755 1
340 755 1
378 755 1
392 755 1
465 755 1
478 755 1
1364 755 1
1368 755 1
321 756 1
341 756 1
379 756 1
393 756 1
466 756 1
479 756 1
1365 756 1
1369 756 1
322 757 1
342 757 1
380 757 1
394 757 1
467 757 1
480 757 1
1366 757 1
1370 757 1
323 758 1
343 758 1
381 758 1
395 758 1
468 758 1
481 758 1
1367 758 1
1371 758 1
324 759 1
344 759 1
382 759 1
396 759 1
469 759 1
482 759 1
1368 759 1
1372 759 1
325 760 1
345 760 1
383 760 1
397 760 1
470 760 1
483 760 1
1369 760 1
1373 760 1
326 761 1
346 761 1
384 761 1
398 761 1
471 761 1
484 761 1
1370 761 1
1374 761 1
327 762 1
347 762 1
385 762 1
399 762 1
472 762 1
485 762 1
1371 762 1
1375 762 1
328 763 1
348 763 1
386 763 1
400 763 1
473 763 1
486 763 1
1372 763 1
1376 763 1
320 764 1
329 764 1
387 764 1
401 764 1
474 764 1
487 764 1
1373 764 1
1377 764 1
321 765 1
330 765 1
388 765 1
402 765 1
475 765 1
488 765 1
1374 765 1
1378 765 1
322 766 1
331 766 1
389 766 1
403 766 1
476 766 1
489 766 1
1375 766 1
1379 766 1
323 767 1
332 767 1
390 767 1
404 767 1
477 767 1
490 767 1
1376 767 1
1380 767 1
324 768 1
333 768 1
391 768 1
405 768 1
478 768 1
491 768 1
1377 768 1
1381 768 1
325 769 1
334 769 1
392 769 1
406 769 1
479 769 1
492 769 1
1378 769 1
1382 769 1
326 770 1
335 770 1
378 770 1
393 770 1
480 770 1
493 770 1
1379 770 1
1383 770 1
327 771 1
336 771 1
379 771 1
394 771 1
465 771 1
481 771 1
1380 771 1
1384 771 1
328 772 1
337 772 1
380 772 1
395 772 1
466 772 1
482 772 1
1381 772 1
1385 772 1
329 773 1
338 773 1
381 773 1
396 773 1
467 773 1
483 773 1
1382 773 1
1386 773 1
330 774 1
339 774 1
382 774 1
397 774 1
468 774 1
484 774 1
1383 774 1
1387 774 1
331 775 1
340 775 1
383 775 1
398 775 1
469 775 1
485 775 1
1384 775 1
1388 775 1
332 776 1
341 776 1
384 776 1
399 776 1
470 776 1
486 776 1
1385 776 1
1389 776 1
333 777 1
342 777 1
385 777 1
400 777 1
471 777 1
487 777 1
1386 777 1
1390 777 1
334 778 1
343 778 1
386 778 1
401 778 1
472 778 1
488 778 1
1387 778 1
1391 778 1
335 779 1
344 779 1
387 779 1
402 779 1
473 779 1
489 779 1
1388 779 1
1392 779 1
336 780 1
345 780 1
388 780 1
403 780 1
474 780 1
490 780 1
1364 780 1
1389 780 1
337 781 1
346 781 1
389 781 1
404 781 1
475 781 1
491 781 1
1365 781 1
1390 781 1
338 782 1
347 782 1
390 782 1
405 782 1
476 782 1
492 782 1
1366 782 1
1391 782 1
339 783 1
348 783 1
391 783 1
406 783 1
477 783 1
493 783 1
1367 783 1
1392 783 1
320 784 1
348 784 1
407 784 1
421 784 1
494 784 1
507 784 1
1393 784 1
1397 784 1
320 785 1
321 785 1
408 785 1
422 785 1
495 785 1
508 785 1
1394 785 1
1398 785 1
321 786 1
322 786 1
409 786 1
423 786 1
496 786 1
509 786 1
1395 786 1
1399 786 1
322 787 1
323 787 1
410 787 1
424 787 1
497 787 1
510 787 1
1396 787 1
1400 787 1
323 788 1
324 788 1
411 788 1
425 788 1
498 788 1
511 788 1
1397 788 1
1401 788 1
324 789 1
325 789 1
412 789 1
426 789 1
499 789 1
512 789 1
1398 789 1
1402 789 1
325 790 1
326 790 1
413 790 1
427 790 1
500 790 1
513 790 1
1399 790 1
1403 790 1
326 791 1
327 791 1
414 791 1
428 791 1
501 791 1
514 791 1
1400 791 1
1404 791 1
327 792 1
328 792 1
415 792 1
429 792 1
502 792 1
515 792 1
1401 792 1
1405 792 1
328 793 1
329 793 1
416 793 1
430 793 1
503 793 1
516 793 1
1402 793 1
1406 793 1
329 794 1
330 794 1
417 794 1
431 794 1
504 794 1
517 794 1
1403 794 1
1407 794 1
330 795 1
331 795 1
418 795 1
432 795 1
505 795 1
518 795 1
1404 795 1
1408 795 1
331 796 1
332 796 1
419 796 1
433 796 1
506 796 1
519 796 1
1405 796 1
1409 796 1
332 797 1
333 797 1
420 797 1
434 797 1
507 797 1
520 797 1
1406 797 1
1410 797 1
333 798 1
334 798 1
421 798 1
435 798 1
508 798 1
521 798 1
1407 798 1
1411 798 1
334 799 1
335 799 1
407 799 1
422 799 1
509 799 1
522 799 1
1408 799 1
1412 799 1
335 800 1
336 800 1
408 800 1
423 800 1
494 800 1
510 800 1
1409 800 1
1413 800 1
336 801 1
337 801 1
409 801 1
424 801 1
495 801 1
511 801 1
1410 801 1
1414 801 1
337 802 1
338 802 1
410 802 1
425 802 1
496 802 1
512 802 1
1411 802 1
1415 802 1
338 803 1
339 803 1
411 803 1
426 803 1
497 803 1
513 803 1
1412 803 1
1416 803 1
339 804 1
340 804 1
412 804 1
427 804 1
498 804 1
514 804 1
1413 804 1
1417 804 1
340 805 1
341 805 1
413 805 1
428 805 1
499 805 1
515 805 1
1414 805 1
1418 805 1
341 806 1
342 806 1
414 806 1
429 806 1
500 806 1
516 806 1
1415 806 1
1419 806 1
342 807 1
343 807 1
415 807 1
430 807 1
501 807 1
517 807 1
1416 807 1
1420 807 1
343 808 1
344 808 1
416 808 1
431 808 1
502 808 1
518 808 1
1417 808 1
1421 808 1
344 809 1
345 809 1
417 809 1
432 809 1
503 809 1
519 809 1
1393 809 1
1418 809 1
345 810 1
346 810 1
418 810 1
433 810 1
504 810 1
520 810 1
1394 810 1
1419 810 1
346 811 1
347 811 1
419 811 1
434 811 1
505 811 1
521 811 1
1395 811 1
1420 811 1
347 812 1
348 812 1
420 812 1
435 812 1
506 812 1
522 812 1
1396 812 1
1421 812 1
349 813 1
369 813 1
378 813 1
395 813 1
523 813 1
536 813 1
1422 813 1
1426 813 1
350 814 1
370 814 1
379 814 1
396 814 1
524 814 1
537 814 1
1423 814 1
1427 814 1
351 815 1
371 815 1
380 815 1
397 815 1
525 815 1
538 815 1
1424 815 1
1428 815 1
352 816 1
372 816 1
381 816 1
398 816 1
526 816 1
539 816 1
1425 816 1
1429 816 1
353 817 1
373 817 1
382 817 1
399 817 1
527 817 1
540 817 1
1426 817 1
1430 817 1
354 818 1
374 818 1
383 818 1
400 818 1
528 818 1
541 818 1
1427 818 1
1431 818 1
355 819 1
375 819 1
384 819 1
401 819 1
529 819 1
542 819 1
1428 819 1
1432 819 1
356 820 1
376 820 1
385 820 1
402 820 1
530 820 1
543 820 1
1429 820 1
1433 820 1
357 821 1
377 821 1
386 821 1
403 821 1
531 821 1
544 821 1
1430 821 1
1434 821 1
349 822 1
358 822 1
387 822 1
404 822 1
532 822 1
545 822 1
1431 822 1
1435 822 1
350 823 1
359 823 1
388 823 1
405 823 1
533 823 1
546 823 1
1432 823 1
1436 823 1
351 824 1
360 824 1
389 824 1
406 824 1
534 824 1
547 824 1
1433 824 1
1437 824 1
352 825 1
361 825 1
378 825 1
390 825 1
535 825 1
548 825 1
1434 825 1
1438 825 1
353 826 1
362 826 1
379 826 1
391 826 1
536 826 1
549 826 1
1435 826 1
1439 826 1
354 827 1
363 827 1
380 827 1
392 827 1
537 827 1
550 827 1
1436 827 1
1440 827 1
355 828 1
364 828 1
381 828 1
393 828 1
538 828 1
551 828 1
1437 828 1
1441 828 1
356 829 1
365 829 1
382 829 1
394 829 1
523 829 1
539 829 1
1438 829 1
1442 829 1
357 830 1
366 830 1
383 830 1
395 830 1
524 830 1
540 830 1
1439 830 1
1443 830 1
358 831 1
367 831 1
384 831 1
396 831 1
525 831 1
541 831 1
1440 831 1
1444 831 1
359 832 1
368 832 1
385 832 1
397 832 1
526 832 1
542 832 1
1441 832 1
1445 832 1
360 833 1
369 833 1
386 833 1
398 833 1
527 833 1
543 833 1
1442 833 1
1446 833 1
361 834 1
370 834 1
387 834 1
399 834 1
528 834 1
544 834 1
1443 834 1
1447 834 1
362 835 1
371 835 1
388 835 1
400 835 1
529 835 1
545 835 1
1444 835 1
1448 835 1
363 836 1
372 836 1
389 836 1
401 836 1
530 836 1
546 836 1
1445 836 1
1449 836 1
364 837 1
373 837 1
390 837 1
402 837 1
531 837 1
547 837 1
1446 837 1
1450 837 1
365 838 1
374 838 1
391 838 1
403 838 1
532 838 1
548 838 1
1422 838 1
1447 838 1
366 839 1
375 839 1
392 839 1
404 839 1
533 839 1
549 839 1
1423 839 1
1448 839 1
367 840 1
376 840 1
393 840 1
405 840 1
534 840 1
550 840 1
1424 840 1
1449 840 1
368 841 1
377 841 1
394 841 1
406 841 1
535 841 1
551 841 1
1425 841 1
1450 841 1
349 842 1
377 842 1
407 842 1
424 842 1
552 842 1
565 842 1
1451 842 1
1455 842 1
349 843 1
350 843 1
408 843 1
425 843 1
553 843 1
566 843 1
1452 843 1
1456 843 1
350 844 1
351 844 1
409 844 1
426 844 1
554 844 1
567 844 1
1453 844 1
1457 844 1
351 845 1
352 845 1
410 845 1
427 845 1
555 845 1
568 845 1
1454 845 1
1458 845 1
352 846 1
353 846 1
411 846 1
428 846 1
556 846 1
569 846 1
1455 846 1
1459 846 1
353 847 1
354 847 1
412 847 1
429 847 1
557 847 1
570 847 1
1456 847 1
1460 847 1
354 848 1
355 848 1
413 848 1
430 848 1
558 848 1
571 848 1
1457 848 1
1461 848 1
355 849 1
356 849 1
414 849 1
431 849 1
559 849 1
572 849 1
1458 849 1
1462 849 1
356 850 1
357 850 1
415 850 1
432 850 1
560 850 1
573 850 1
1459 850 1
1463 850 1
357 851 1
358 851 1
416 851 1
433 851 1
561 851 1
574 851 1
1460 851 1
1464 851 1
358 852 1
359 852 1
417 852 1
434 852 1
562 852 1
575 852 1
1461 852 1
1465 852 1
359 853 1
360 853 1
418 853 1
435 853 1
563 853 1
576 853 1
1462 853 1
1466 853 1
360 854 1
361 854 1
407 854 1
419 854 1
564 854 1
577 854 1
1463 854 1
1467 854 1
361 855 1
362 855 1
408 855 1
420 855 1
565 855 1
578 855 1
1464 855 1
1468 855 1
362 856 1
363 856 1
409 856 1
421 856 1
566 856 1
579 856 1
1465 856 1
1469 856 1
363 857 1
364 857 1
410 857 1
422 857 1
567 857 1
580 857 1
1466 857 1
1470 857 1
364 858 1
365 858 1
411 858 1
423 858 1
552 858 1
568 858 1
1467 858 1
1471 858 1
365 859 1
366 859 1
412 859 1
424 859 1
553 859 1
569 859 1
1468 859 1
1472 859 1
366 860 1
367 860 1
413 860 1
425 860 1
554 860 1
570 860 1
1469 860 1
1473 860 1
367 861 1
368 861 1
414 861 1
426 861 1
555 861 1
571 861 1
1470 861 1
1474 861 1
368 862 1
369 862 1
415 862 1
427 862 1
556 862 1
572 862 1
1471 862 1
1475 862 1
369 863 1
370 863 1
416 863 1
428 863 1
557 863 1
573 863 1
1472 863 1
1476 863 1
370 864 1
371 864 1
417 864 1
429 864 1
558 864 1
574 864 1
1473 864 1
1477 864 1
371 865 1
372 865 1
418 865 1
430 865 1
559 865 1
575 865 1
1474 865 1
1478 865 1
372 866 1
373 866 1
419 866 1
431 866 1
560 866 1
576 866 1
1475 866 1
1479 866 1
373 867 1
374 867 1
420 867 1
432 867 1
561 867 1
577 867 1
1451 867 1
1476 867 1
374 868 1
375 868 1
421 868 1
433 868 1
562 868 1
578 868 1
1452 868 1
1477 868 1
375 869 1
376 869 1
422 869 1
434 869 1
563 869 1
579 869 1
1453 869 1
1478 869 1
376 870 1
377 870 1
423 870 1
435 870 1
564 870 1
580 870 1
1454 870 1
1479 870 1
378 871 1
406 871 1
407 871 1
427 871 1
581 871 1
594 871 1
1480 871 1
1484 871 1
378 872 1
379 872 1
408 872 1
428 872 1
582 872 1
595 872 1
1481 872 1
1485 872 1
379 873 1
380 873 1
409 873 1
429 873 1
583 873 1
596 873 1
1482 873 1
1486 873 1
380 874 1
381 874 1
410 874 1
430 874 1
584 874 1
597 874 1
1483 874 1
1487 874 1
381 875 1
382 875 1
411 875 1
431 875 1
585 875 1
598 875 1
1484 875 1
1488 875 1
382 876 1
383 876 1
412 876 1
432 876 1
586 876 1
599 876 1
1485 876 1
1489 876 1
383 877 1
384 877 1
413 877 1
433 877 1
587 877 1
600 877 1
1486 877 1
1490 877 1
384 878 1
385 878 1
414 878 1
434 878 1
588 878 1
601 878 1
1487 878 1
1491 878 1
385 879 1
386 879 1
415 879 1
435 879 1
589 879 1
602 879 1
1488 879 1
1492 879 1
386 880 1
387 880 1
407 880 1
416 880 1
590 880 1
603 880 1
1489 880 1
1493 880 1
387 881 1
388 881 1
408 881 1
417 881 1
591 881 1
604 881 1
1490 881 1
1494 881 1
388 882 1
389 882 1
409 882 1
418 882 1
592 882 1
605 882 1
1491 882 1
1495 882 1
389 883 1
390 883 1
410 883 1
419 883 1
593 883 1
606 883 1
1492 883 1
1496 883 1
390 884 1
391 884 1
411 884 1
420 884 1
594 884 1
607 884 1
1493 884 1
1497 884 1
391 885 1
392 885 1
412 885 1
421 885 1
595 885 1
608 885 1
1494 885 1
1498 885 1
392 886 1
393 886 1
413 886 1
422 886 1
596 886 1
609 886 1
1495 886 1
1499 886 1
393 887 1
394 887 1
414 887 1
423 887 1
581 887 1
597 887 1
1496 887 1
1500 887 1
394 888 1
395 888 1
415 888 1
424 888 1
582 888 1
598 888 1
1497 888 1
1501 888 1
395 889 1
396 889 1
416 889 1
425 889 1
583 889 1
599 889 1
1498 889 1
1502 889 1
396 890 1
397 890 1
417 890 1
426 890 1
584 890 1
600 890 1
1499 890 1
1503 890 1
397 891 1
398 891 1
418 891 1
427 891 1
585 891 1
601 891 1
1500 891 1
1504 891 1
398 892 1
399 892 1
419 892 1
428 892 1
586 892 1
602 892 1
1501 892 1
1505 892 1
399 893 1
400 893 1
420 893 1
429 893 1
587 893 1
603 893 1
1502 893 1
1506 893 1
400 894 1
401 894 1
421 894 1
430 894 1
588 894 1
604 894 1
1503 894 1
1507 894 1
401 895 1
402 895 1
422 895 1
431 895 1
589 895 1
605 895 1
1504 895 1
1508 895 1
402 896 1
403 896 1
423 896 1
432 896 1
590 896 1
606 896 1
1480 896 1
1505 896 1
403 897 1
404 897 1
424 897 1
433 897 1
591 897 1
607 897 1
1481 897 1
1506 897 1
404 898 1
405 898 1
425 898 1
434 898 1
592 898 1
608 898 1
1482 898 1
1507 898 1
405 899 1
406 899 1
426 899 1
435 899 1
593 899 1
609 899 1
1483 899 1
1508 899 1
436 900 1
456 900 1
465 900 1
482 900 1
523 900 1
537 900 1
1509 900 1
1513 900 1
437 901 1
457 901 1
466 901 1
483 901 1
524 901 1
538 901 1
1510 901 1
1514 901 1
438 902 1
458 902 1
467 902 1
484 902 1
525 902 1
539 902 1
1511 902 1
1515 902 1
439 903 1
459 903 1
468 903 1
485 903 1
526 903 1
540 903 1
1512 903 1
1516 903 1
440 904 1
460 904 1
469 904 1
486 904 1
527 904 1
541 904 1
1513 904 1
1517 904 1
441 905 1
461 905 1
470 905 1
487 905 1
528 905 1
542 905 1
1514 905 1
1518 905 1
442 906 1
462 906 1
471 906 1
488 906 1
529 906 1
543 906 1
1515 906 1
1519 906 1
443 907 1
463 907 1
472 907 1
489 907 1
530 907 1
544 907 1
1516 907 1
1520 907 1
444 908 1
464 908 1
473 908 1
490 908 1
531 908 1
545 908 1
1517 908 1
1521 908 1
436 909 1
445 909 1
474 909 1
491 909 1
532 909 1
546 909 1
1518 909 1
1522 909 1
437 910 1
446 910 1
475 910 1
492 910 1
533 910 1
547 910 1
1519 910 1
1523 910 1
438 911 1
447 911 1
476 911 1
493 911 1
534 911 1
548 911 1
1520 911 1
1524 911 1
439 912 1
448 912 1
465 912 1
477 912 1
535 912 1
549 912 1
1521 912 1
1525 912 1
440 913 1
449 913 1
466 913 1
478 913 1
536 913 1
550 913 1
1522 913 1
1526 913 1
441 914 1
450 914 1
467 914 1
479 914 1
537 914 1
551 914 1
1523 914 1
1527 914 1
442 915 1
451 915 1
468 915 1
480 915 1
523 915 1
538 915 1
1524 915 1
1528 915 1
443 916 1
452 916 1
469 916 1
481 916 1
524 916 1
539 916 1
1525 916 1
1529 916 1
444 917 1
453 917 1
470 917 1
482 917 1
525 917 1
540 917 1
1526 917 1
1530 917 1
445 918 1
454 918 1
471 918 1
483 918 1
526 918 1
541 918 1
1527 918 1
1531 918 1
446 919 1
455 919 1
472 919 1
484 919 1
527 919 1
542 919 1
1528 919 1
1532 919 1
447 920 1
456 920 1
473 920 1
485 920 1
528 920 1
543 920 1
1529 920 1
1533 920 1
448 921 1
457 921 1
474 921 1
486 921 1
529 921 1
544 921 1
1530 921 1
1534 921 1
449 922 1
458 922 1
475 922 1
487 922 1
530 922 1
545 922 1
1531 922 1
1535 922 1
450 923 1
459 923 1
476 923 1
488 923 1
531 923 1
546 923 1
1532 923 1
1536 923 1
451 924 1
460 924 1
477 924 1
489 924 1
532 924 1
547 924 1
1533 924 1
1537 924 1
452 925 1
461 925 1
478 925 1
490 925 1
533 925 1
548 925 1
1509 925 1
1534 925 1
453 926 1
462 926 1
479 926 1
491 926 1
534 926 1
549 926 1
1510 926 1
1535 926 1
454 927 1
463 927 1
480 927 1
492 927 1
535 927 1
550 927 1
1511 927 1
1536 927 1
455 928 1
464 928 1
481 928 1
493 928 1
536 928 1
551 928 1
1512 928 1
1537 928 1
436 929 1
464 929 1
494 929 1
511 929 1
552 929 1
566 929 1
1538 929 1
1542 929 1
436 930 1
437 930 1
495 930 1
512 930 1
553 930 1
567 930 1
1539 930 1
1543 930 1
437 931 1
438 931 1
496 931 1
513 931 1
554 931 1
568 931 1
1540 931 1
1544 931 1
438 932 1
439 932 1
497 932 1
514 932 1
555 932 1
569 932 1
1541 932 1
1545 932 1
439 933 1
440 933 1
498 933 1
515 933 1
556 933 1
570 933 1
1542 933 1
1546 933 1
440 934 1
441 934 1
499 934 1
516 934 1
557 934 1
571 934 1
1543 934 1
1547 934 1
441 935 1
442 935 1
500 935 1
517 935 1
558 935 1
572 935 1
1544 935 1
1548 935 1
442 936 1
443 936 1
501 936 1
518 936 1
559 936 1
573 936 1
1545 936 1
1549 936 1
443 937 1
444 937 1
502 937 1
519 937 1
560 937 1
574 937 1
1546 937 1
1550 937 1
444 938 1
445 938 1
503 938 1
520 938 1
561 938 1
575 938 1
1547 938 1
1551 938 1
445 939 1
446 939 1
504 939 1
521 939 1
562 939 1
576 939 1
1548 939 1
1552 939 1
446 940 1
447 940 1
505 940 1
522 940 1
563 940 1
577 940 1
1549 940 1
1553 940 1
447 941 1
448 941 1
494 941 1
506 941 1
564 941 1
578 941 1
1550 941 1
1554 941 1
448 942 1
449 942 1
495 942 1
507 942 1
565 942 1
579 942 1
1551 942 1
1555 942 1
449 943 1
450 943 1
496 943 1
508 943 1
566 943 1
580 943 1
1552 943 1
1556 943 1
450 944 1
451 944 1
497 944 1
509 944 1
552 944 1
567 944 1
1553 944 1
1557 944 1
451 945 1
452 945 1
498 945 1
510 945 1
553 945 1
568 945 1
1554 945 1
1558 945 1
452 946 1
453 946 1
499 946 1
511 946 1
554 946 1
569 946 1
1555 946 1
1559 946 1
453 947 1
454 947 1
500 947 1
512 947 1
555 947 1
570 947 1
1556 947 1
1560 947 1
454 948 1
455 948 1
501 948 1
513 948 1
556 948 1
571 948 1
1557 948 1
1561 948 1
455 949 1
456 949 1
502 949 1
514 949 1
557 949 1
572 949 1
1558 949 1
1562 949 1
456 950 1
457 950 1
503 950 1
515 950 1
558 950 1
573 950 1
1559 950 1
1563 950 1
457 951 1
458 951 1
504 951 1
516 951 1
559 951 1
574 951 1
1560 951 1
1564 951 1
458 952 1
459 952 1
505 952 1
517 952 1
560 952 1
575 952 1
1561 952 1
1565 952 1
459 953 1
460 953 1
506 953 1
518 953 1
561 953 1
576 953 1
1562 953 1
1566 953 1
460 954 1
461 954 1
507 954 1
519 954 1
562 954 1
577 954 1
1538 954 1
1563 954 1
461 955 1
462 955 1
508 955 1
520 955 1
563 955 1
578 955 1
1539 955 1
1564 955 1
462 956 1
463 956 1
509 956 1
521 956 1
564 956 1
579 956 1
1540 956 1
1565 956 1
463 957 1
464 957 1
510 957 1
522 957 1
565 957 1
580 957 1
1541 957 1
1566 957 1
465 958 1
493 958 1
494 958 1
514 958 1
581 958 1
595 958 1
1567 958 1
1571 958 1
465 959 1
466 959 1
495 959 1
515 959 1
582 959 1
596 959 1
1568 959 1
1572 959 1
466 960 1
467 960 1
496 960 1
516 960 1
583 960 1
597 960 1
1569 960 1
1573 960 1
467 961 1
468 961 1
497 961 1
517 961 1
584 961 1
598 961 1
1570 961 1
1574 961 1
468 962 1
469 962 1
498 962 1
518 962 1
585 962 1
599 962 1
1571 962 1
1575 962 1
469 963 1
470 963 1
499 963 1
519 963 1
586 963 1
600 963 1
1572 963 1
1576 963 1
470 964 1
471 964 1
500 964 1
520 964 1
587 964 1
601 964 1
1573 964 1
1577 964 1
471 965 1
472 965 1
501 965 1
521 965 1
588 965 1
602 965 1
1574 965 1
1578 965 1
472 966 1
473 966 1
502 966 1
522 966 1
589 966 1
603 966 1
1575 966 1
1579 966 1
473 967 1
474 967 1
494 967 1
503 967 1
590 967 1
604 967 1
1576 967 1
1580 967 1
474 968 1
475 968 1
495 968 1
504 968 1
591 968 1
605 968 1
1577 968 1
1581 968 1
475 969 1
476 969 1
496 969 1
505 969 1
592 969 1
606 969 1
1578 969 1
1582 969 1
476 970 1
477 970 1
497 970 1
506 970 1
593 970 1
607 970 1
1579 970 1
1583 970 1
477 971 1
478 971 1
498 971 1
507 971 1
594 971 1
608 971 1
1580 971 1
1584 971 1
478 972 1
479 972 1
499 972 1
508 972 1
595 972 1
609 972 1
1581 972 1
1585 972 1
479 973 1
480 973 1
500 973 1
509 973 1
581 973 1
596 973 1
1582 973 1
1586 973 1
480 974 1
481 974 1
501 974 1
510 974 1
582 974 1
597 974 1
1583 974 1
1587 974 1
481 975 1
482 975 1
502 975 1
511 975 1
583 975 1
598 975 1
1584 975 1
1588 975 1
482 976 1
483 976 1
503 976 1
512 976 1
584 976 1
599 976 1
1585 976 1
1589 976 1
483 977 1
484 977 1
504 977 1
513 977 1
585 977 1
600 977 1
1586 977 1
1590 977 1
484 978 1
485 978 1
505 978 1
514 978 1
586 978 1
601 978 1
1587 978 1
1591 978 1
485 979 1
486 979 1
506 979 1
515 979 1
587 979 1
602 979 1
1588 979 1
1592 979 1
486 980 1
487 980 1
507 980 1
516 980 1
588 980 1
603 980 1
1589 980 1
1593 980 1
487 981 1
488 981 1
508 981 1
517 981 1
589 981 1
604 981 1
1590 981 1
1594 981 1
488 982 1
489 982 1
509 982 1
518 982 1
590 982 1
605 982 1
1591 982 1
1595 982 1
489 983 1
490 983 1
510 983 1
519 983 1
591 983 1
606 983 1
1567 983 1
1592 983 1
490 984 1
491 984 1
511 984 1
520 984 1
592 984 1
607 984 1
1568 984 1
1593 984 1
491 985 1
492 985 1
512 985 1
521 985 1
593 985 1
608 985 1
1569 985 1
1594 985 1
492 986 1
493 986 1
513 986 1
522 986 1
594 986 1
609 986 1
1570 986 1
1595 986 1
523 987 1
551 987 1
552 987 1
572 987 1
581 987 1
598 987 1
1596 987 1
1600 987 1
523 988 1
524 988 1
553 988 1
573 988 1
582 988 1
599 988 1
1597 988 1
1601 988 1
524 989 1
525 989 1
554 989 1
574 989 1
583 989 1
600 989 1
1598 989 1
1602 989 1
525 990 1
526 990 1
555 990 1
575 990 1
584 990 1
601 990 1
1599 990 1
1603 990 1
526 991 1
527 991 1
556 991 1
576 991 1
585 991 1
602 991 1
1600 991 1
1604 991 1
527 992 1
528 992 1
557 992 1
577 992 1
586 992 1
603 992 1
1601 992 1
1605 992 1
528 993 1
529 993 1
558 993 1
578 993 1
587 993 1
604 993 1
1602 993 1
1606 993 1
529 994 1
530 994 1
559 994 1
579 994 1
588 994 1
605 994 1
1603 994 1
1607 994 1
530 995 1
531 995 1
560 995 1
580 995 1
589 995 1
606 995 1
1604 995 1
1608 995 1
531 996 1
532 996 1
552 996 1
561 996 1
590 996 1
607 996 1
1605 996 1
1609 996 1
532 997 1
533 997 1
553 997 1
562 997 1
591 997 1
608 997 1
1606 997 1
1610 997 1
533 998 1
534 998 1
554 998 1
563 998 1
592 998 1
609 998 1
1607 998 1
1611 998 1
534 999 1
535 999 1
555 999 1
564 999 1
581 999 1
593 999 1
1608 999 1
1612 999 1
535 1000 1
536 1000 1
556 1000 1
565 1000 1
582 1000 1
594 1000 1
1609 1000 1
1613 1000 1
536 1001 1
537 1001 1
557 1001 1
566 1001 1
583 1001 1
595 1001 1
1610 1001 1
1614 1001 1
537 1002 1
538 1002 1
558 1002 1
567 1002 1
584 1002 1
596 1002 1
1611 1002 1
1615 1002 1
538 1003 1
539 1003 1
559 1003 1
568 1003 1
585 1003 1
597 1003 1
1612 1003 1
1616 1003 1
539 1004 1
540 1004 1
560 1004 1
569 1004 1
586 1004 1
598 1004 1
1613 1004 1
1617 1004 1
540 1005 1
541 1005 1
561 1005 1
570 1005 1
587 1005 1
599 1005 1
1614 1005 1
1618 1005 1
541 1006 1
542 1006 1
562 1006 1
571 1006 1
588 1006 1
600 1006 1
1615 1006 1
1619 1006 1
542 1007 1
543 1007 1
563 1007 1
572 1007 1
589 1007 1
601 1007 1
1616 1007 1
1620 1007 1
543 1008 1
544 1008 1
564 1008 1
573 1008 1
590 1008 1
602 1008 1
1617 1008 1
1621 1008 1
544 1009 1
545 1009 1
565 1009 1
574 1009 1
591 1009 1
603 1009 1
1618 1009 1
1622 1009 1
545 1010 1
546 1010 1
566 1010 1
575 1010 1
592 1010 1
604 1010 1
1619 1010 1
1623 1010 1
546 1011 1
547 1011 1
567 1011 1
576 1011 1
593 1011 1
605 1011 1
1620 1011 1
1624 1011 1
547 1012 1
548 1012 1
568 1012 1
577 1012 1
594 1012 1
606 1012 1
1596 1012 1
1621 1012 1
548 1013 1
549 1013 1
569 1013 1
578 1013 1
595 1013 1
607 1013 1
1597 1013 1
1622 1013 1
549 1014 1
550 1014 1
570 1014 1
579 1014 1
596 1014 1
608 1014 1
1598 1014 1
1623 1014 1
550 1015 1
551 1015 1
571 1015 1
580 1015 1
597 1015 1
609 1015 1
1599 1015 1
1624 1015 1
610 1016 1
624 1016 1
639 1016 1
652 1016 1
755 1016 1
766 1016 1
1045 1016 1
1052 1016 1
611 1017 1
625 1017 1
640 1017 1
653 1017 1
756 1017 1
767 1017 1
1046 1017 1
1053 1017 1
612 1018 1
626 1018 1
641 1018 1
654 1018 1
757 1018 1
768 1018 1
1047 1018 1
1054 1018 1
613 1019 1
627 1019 1
642 1019 1
655 1019 1
758 1019 1
769 1019 1
1048 1019 1
1055 1019 1
614 1020 1
628 1020 1
643 1020 1
656 1020 1
759 1020 1
770 1020 1
1049 1020 1
1056 1020 1
615 1021 1
629 1021 1
644 1021 1
657 1021 1
760 1021 1
771 1021 1
1050 1021 1
1057 1021 1
616 1022 1
630 1022 1
645 1022 1
658 1022 1
761 1022 1
772 1022 1
1051 1022 1
1058 1022 1
617 1023 1
631 1023 1
646 1023 1
659 1023 1
762 1023 1
773 1023 1
1052 1023 1
1059 1023 1
618 1024 1
632 1024 1
647 1024 1
660 1024 1
763 1024 1
774 1024 1
1053 1024 1
1060 1024 1
619 1025 1
633 1025 1
648 1025 1
661 1025 1
764 1025 1
775 1025 1
1054 1025 1
1061 1025 1
620 1026 1
634 1026 1
649 1026 1
662 1026 1
765 1026 1
776 1026 1
1055 1026 1
1062 1026 1
621 1027 1
635 1027 1
650 1027 1
663 1027 1
766 1027 1
777 1027 1
1056 1027 1
1063 1027 1
622 1028 1
636 1028 1
651 1028 1
664 1028 1
767 1028 1
778 1028 1
1057 1028 1
1064 1028 1
623 1029 1
637 1029 1
652 1029 1
665 1029 1
768 1029 1
779 1029 1
1058 1029 1
1065 1029 1
624 1030 1
638 1030 1
653 1030 1
666 1030 1
769 1030 1
780 1030 1
1059 1030 1
1066 1030 1
610 1031 1
625 1031 1
654 1031 1
667 1031 1
770 1031 1
781 1031 1
1060 1031 1
1067 1031 1
611 1032 1
626 1032 1
639 1032 1
655 1032 1
771 1032 1
782 1032 1
1061 1032 1
1068 1032 1
612 1033 1
627 1033 1
640 1033 1
656 1033 1
772 1033 1
783 1033 1
1062 1033 1
1069 1033 1
613 1034 1
628 1034 1
641 1034 1
657 1034 1
755 1034 1
773 1034 1
1063 1034 1
1070 1034 1
614 1035 1
629 1035 1
642 1035 1
658 1035 1
756 1035 1
774 1035 1
1064 1035 1
1071 1035 1
615 1036 1
630 1036 1
643 1036 1
659 1036 1
757 1036 1
775 1036 1
1065 1036 1
1072 1036 1
616 1037 1
631 1037 1
644 1037 1
660 1037 1
758 1037 1
776 1037 1
1066 1037 1
1073 1037 1
617 1038 1
632 1038 1
645 1038 1
661 1038 1
759 1038 1
777 1038 1
1045 1038 1
1067 1038 1
618 1039 1
633 1039 1
646 1039 1
662 1039 1
760 1039 1
778 1039 1
1046 1039 1
1068 1039 1
619 1040 1
634 1040 1
647 1040 1
663 1040 1
761 1040 1
779 1040 1
1047 1040 1
1069 1040 1
620 1041 1
635 1041 1
648 1041 1
664 1041 1
762 1041 1
780 1041 1
1048 1041 1
1070 1041 1
621 1042 1
636 1042 1
649 1042 1
665 1042 1
763 1042 1
781 1042 1
1049 1042 1
1071 1042 1
622 1043 1
637 1043 1
650 1043 1
666 1043 1
764 1043 1
782 1043 1
1050 1043 1
1072 1043 1
623 1044 1
638 1044 1
651 1044 1
667 1044 1
765 1044 1
783 1044 1
1051 1044 1
1073 1044 1
610 1045 1
627 1045 1
668 1045 1
681 1045 1
784 1045 1
795 1045 1
1074 1045 1
1081 1045 1
611 1046 1
628 1046 1
669 1046 1
682 1046 1
785 1046 1
796 1046 1
1075 1046 1
1082 1046 1
612 1047 1
629 1047 1
670 1047 1
683 1047 1
786 1047 1
797 1047 1
1076 1047 1
1083 1047 1
613 1048 1
630 1048 1
671 1048 1
684 1048 1
787 1048 1
798 1048 1
1077 1048 1
1084 1048 1
614 1049 1
631 1049 1
672 1049 1
685 1049 1
788 1049 1
799 1049 1
1078 1049 1
1085 1049 1
615 1050 1
632 1050 1
673 1050 1
686 1050 1
789 1050 1
800 1050 1
1079 1050 1
1086 1050 1
616 1051 1
633 1051 1
674 1051 1
687 1051 1
790 1051 1
801 1051 1
1080 1051 1
1087 1051 1
617 1052 1
634 1052 1
675 1052 1
688 1052 1
791 1052 1
802 1052 1
1081 1052 1
1088 1052 1
618 1053 1
635 1053 1
676 1053 1
689 1053 1
792 1053 1
803 1053 1
1082 1053 1
1089 1053 1
619 1054 1
636 1054 1
677 1054 1
690 1054 1
793 1054 1
804 1054 1
1083 1054 1
1090 1054 1
620 1055 1
637 1055 1
678 1055 1
691 1055 1
794 1055 1
805 1055 1
1084 1055 1
1091 1055 1
621 1056 1
638 1056 1
679 1056 1
692 1056 1
795 1056 1
806 1056 1
1085 1056 1
1092 1056 1
610 1057 1
622 1057 1
680 1057 1
693 1057 1
796 1057 1
807 1057 1
1086 1057 1
1093 1057 1
611 1058 1
623 1058 1
681 1058 1
694 1058 1
797 1058 1
808 1058 1
1087 1058 1
1094 1058 1
612 1059 1
624 1059 1
682 1059 1
695 1059 1
798 1059 1
809 1059 1
1088 1059 1
1095 1059 1
613 1060 1
625 1060 1
683 1060 1
696 1060 1
799 1060 1
810 1060 1
1089 1060 1
1096 1060 1
614 1061 1
626 1061 1
668 1061 1
684 1061 1
800 1061 1
811 1061 1
1090 1061 1
1097 1061 1
615 1062 1
627 1062 1
669 1062 1
685 1062 1
801 1062 1
812 1062 1
1091 1062 1
1098 1062 1
616 1063 1
628 1063 1
670 1063 1
686 1063 1
784 1063 1
802 1063 1
1092 1063 1
1099 1063 1
617 1064 1
629 1064 1
671 1064 1
687 1064 1
785 1064 1
803 1064 1
1093 1064 1
1100 1064 1
618 1065 1
630 1065 1
672 1065 1
688 1065 1
786 1065 1
804 1065 1
1094 1065 1
1101 1065 1
619 1066 1
631 1066 1
673 1066 1
689 1066 1
787 1066 1
805 1066 1
1095 1066 1
1102 1066 1
620 1067 1
632 1067 1
674 1067 1
690 1067 1
788 1067 1
806 1067 1
1074 1067 1
1096 1067 1
621 1068 1
633 1068 1
675 1068 1
691 1068 1
789 1068 1
807 1068 1
1075 1068 1
1097 1068 1
622 1069 1
634 1069 1
676 1069 1
692 1069 1
790 1069 1
808 1069 1
1076 1069 1
1098 1069 1
623 1070 1
635 1070 1
677 1070 1
693 1070 1
791 1070 1
809 1070 1
1077 1070 1
1099 1070 1
624 1071 1
636 1071 1
678 1071 1
694 1071 1
792 1071 1
810 1071 1
1078 1071 1
1100 1071 1
625 1072 1
637 1072 1
679 1072 1
695 1072 1
793 1072 1
811 1072 1
1079 1072 1
1101 1072 1
626 1073 1
638 1073 1
680 1073 1
696 1073 1
794 1073 1
812 1073 1
1080 1073 1
1102 1073 1
610 1074 1
630 1074 1
697 1074 1
710 1074 1
813 1074 1
824 1074 1
1103 1074 1
1110 1074 1
611 1075 1
631 1075 1
698 1075 1
711 1075 1
814 1075 1
825 1075 1
1104 1075 1
1111 1075 1
612 1076 1
632 1076 1
699 1076 1
712 1076 1
815 1076 1
826 1076 1
1105 1076 1
1112 1076 1
613 1077 1
633 1077 1
700 1077 1
713 1077 1
816 1077 1
827 1077 1
1106 1077 1
1113 1077 1
614 1078 1
634 1078 1
701 1078 1
714 1078 1
817 1078 1
828 1078 1
1107 1078 1
1114 1078 1
615 1079 1
635 1079 1
702 1079 1
715 1079 1
818 1079 1
829 1079 1
1108 1079 1
1115 1079 1
616 1080 1
636 1080 1
703 1080 1
716 1080 1
819 1080 1
830 1080 1
1109 1080 1
1116 1080 1
617 1081 1
637 1081 1
704 1081 1
717 1081 1
820 1081 1
831 1081 1
1110 1081 1
1117 1081 1
618 1082 1
638 1082 1
705 1082 1
718 1082 1
821 1082 1
832 1082 1
1111 1082 1
1118 1082 1
610 1083 1
619 1083 1
706 1083 1
719 1083 1
822 1083 1
833 1083 1
1112 1083 1
1119 1083 1
611 1084 1
620 1084 1
707 1084 1
720 1084 1
823 1084 1
834 1084 1
1113 1084 1
1120 1084 1
612 1085 1
621 1085 1
708 1085 1
721 1085 1
824 1085 1
835 1085 1
1114 1085 1
1121 1085 1
613 1086 1
622 1086 1
709 1086 1
722 1086 1
825 1086 1
836 1086 1
1115 1086 1
1122 1086 1
614 1087 1
623 1087 1
710 1087 1
723 1087 1
826 1087 1
837 1087 1
1116 1087 1
1123 1087 1
615 1088 1
624 1088 1
711 1088 1
724 1088 1
827 1088 1
838 1088 1
1117 1088 1
1124 1088 1
616 1089 1
625 1089 1
712 1089 1
725 1089 1
828 1089 1
839 1089 1
1118 1089 1
1125 1089 1
617 1090 1
626 1090 1
697 1090 1
713 1090 1
829 1090 1
840 1090 1
1119 1090 1
1126 1090 1
618 1091 1
627 1091 1
698 1091 1
714 1091 1
830 1091 1
841 1091 1
1120 1091 1
1127 1091 1
619 1092 1
628 1092 1
699 1092 1
715 1092 1
813 1092 1
831 1092 1
1121 1092 1
1128 1092 1
620 1093 1
629 1093 1
700 1093 1
716 1093 1
814 1093 1
832 1093 1
1122 1093 1
1129 1093 1
621 1094 1
630 1094 1
701 1094 1
717 1094 1
815 1094 1
833 1094 1
1123 1094 1
1130 1094 1
622 1095 1
631 1095 1
702 1095 1
718 1095 1
816 1095 1
834 1095 1
1124 1095 1
1131 1095 1
623 1096 1
632 1096 1
703 1096 1
719 1096 1
817 1096 1
835 1096 1
1103 1096 1
1125 1096 1
624 1097 1
633 1097 1
704 1097 1
720 1097 1
818 1097 1
836 1097 1
1104 1097 1
1126 1097 1
625 1098 1
634 1098 1
705 1098 1
721 1098 1
819 1098 1
837 1098 1
1105 1098 1
1127 1098 1
626 1099 1
635 1099 1
706 1099 1
722 1099 1
820 1099 1
838 1099 1
1106 1099 1
1128 1099 1
627 1100 1
636 1100 1
707 1100 1
723 1100 1
821 1100 1
839 1100 1
1107 1100 1
1129 1100 1
628 1101 1
637 1101 1
708 1101 1
724 1101 1
822 1101 1
840 1101 1
1108 1101 1
1130 1101 1
629 1102 1
638 1102 1
709 1102 1
725 1102 1
823 1102 1
841 1102 1
1109 1102 1
1131 1102 1
610 1103 1
638 1103 1
726 1103 1
739 1103 1
842 1103 1
853 1103 1
1132 1103 1
1139 1103 1
610 1104 1
611 1104 1
727 1104 1
740 1104 1
843 1104 1
854 1104 1
1133 1104 1
1140 1104 1
611 1105 1
612 1105 1
728 1105 1
741 1105 1
844 1105 1
855 1105 1
1134 1105 1
1141 1105 1
612 1106 1
613 1106 1
729 1106 1
742 1106 1
845 1106 1
856 1106 1
1135 1106 1
1142 1106 1
613 1107 1
614 1107 1
730 1107 1
743 1107 1
846 1107 1
857 1107 1
1136 1107 1
1143 1107 1
614 1108 1
615 1108 1
731 1108 1
744 1108 1
847 1108 1
858 1108 1
1137 1108 1
1144 1108 1
615 1109 1
616 1109 1
732 1109 1
745 1109 1
848 1109 1
859 1109 1
1138 1109 1
1145 1109 1
616 1110 1
617 1110 1
733 1110 1
746 1110 1
849 1110 1
860 1110 1
1139 1110 1
1146 1110 1
617 1111 1
618 1111 1
734 1111 1
747 1111 1
850 1111 1
861 1111 1
1140 1111 1
1147 1111 1
618 1112 1
619 1112 1
735 1112 1
748 1112 1
851 1112 1
862 1112 1
1141 1112 1
1148 1112 1
619 1113 1
620 1113 1
736 1113 1
749 1113 1
852 1113 1
863 1113 1
1142 1113 1
1149 1113 1
620 1114 1
621 1114 1
737 1114 1
750 1114 1
853 1114 1
864 1114 1
1143 1114 1
1150 1114 1
621 1115 1
622 1115 1
738 1115 1
751 1115 1
854 1115 1
865 1115 1
1144 1115 1
1151 1115 1
622 1116 1
623 1116 1
739 1116 1
752 1116 1
855 1116 1
866 1116 1
1145 1116 1
1152 1116 1
623 1117 1
624 1117 1
740 1117 1
753 1117 1
856 1117 1
867 1117 1
1146 1117 1
1153 1117 1
624 1118 1
625 1118 1
741 1118 1
754 1118 1
857 1118 1
868 1118 1
1147 1118 1
1154 1118 1
625 1119 1
626 1119 1
726 1119 1
742 1119 1
858 1119 1
869 1119 1
1148 1119 1
1155 1119 1
626 1120 1
627 1120 1
727 1120 1
743 1120 1
859 1120 1
870 1120 1
1149 1120 1
1156 1120 1
627 1121 1
628 1121 1
728 1121 1
744 1121 1
842 1121 1
860 1121 1
1150 1121 1
1157 1121 1
628 1122 1
629 1122 1
729 1122 1
745 1122 1
843 1122 1
861 1122 1
1151 1122 1
1158 1122 1
629 1123 1
630 1123 1
730 1123 1
746 1123 1
844 1123 1
862 1123 1
1152 1123 1
1159 1123 1
630 1124 1
631 1124 1
731 1124 1
747 1124 1
845 1124 1
863 1124 1
1153 1124 1
1160 1124 1
631 1125 1
632 1125 1
732 1125 1
748 1125 1
846 1125 1
864 1125 1
1132 1125 1
1154 1125 1
632 1126 1
633 1126 1
733 1126 1
749 1126 1
847 1126 1
865 1126 1
1133 1126 1
1155 1126 1
633 1127 1
634 1127 1
734 1127 1
750 1127 1
848 1127 1
866 1127 1
1134 1127 1
1156 1127 1
634 1128 1
635 1128 1
735 1128 1
751 1128 1
849 1128 1
867 1128 1
1135 1128 1
1157 1128 1
635 1129 1
636 1129 1
736 1129 1
752 1129 1
850 1129 1
868 1129 1
1136 1129 1
1158 1129 1
636 1130 1
637 1130 1
737 1130 1
753 1130 1
851 1130 1
869 1130 1
1137 1130 1
1159 1130 1
637 1131 1
638 1131 1
738 1131 1
754 1131 1
852 1131 1
870 1131 1
1138 1131 1
1160 1131 1
639 1132 1
656 1132 1
668 1132 1
682 1132 1
871 1132 1
882 1132 1
1161 1132 1
1168 1132 1
640 1133 1
657 1133 1
669 1133 1
683 1133 1
872 1133 1
883 1133 1
1162 1133 1
1169 1133 1
641 1134 1
658 1134 1
670 1134 1
684 1134 1
873 1134 1
884 1134 1
1163 1134 1
1170 1134 1
642 1135 1
659 1135 1
671 1135 1
685 1135 1
874 1135 1
885 1135 1
1164 1135 1
1171 1135 1
643 1136 1
660 1136 1
672 1136 1
686 1136 1
875 1136 1
886 1136 1
1165 1136 1
1172 1136 1
644 1137 1
661 1137 1
673 1137 1
687 1137 1
876 1137 1
887 1137 1
1166 1137 1
1173 1137 1
645 1138 1
662 1138 1
674 1138 1
688 1138 1
877 1138 1
888 1138 1
1167 1138 1
1174 1138 1
646 1139 1
663 1139 1
675 1139 1
689 1139 1
878 1139 1
889 1139 1
1168 1139 1
1175 1139 1
647 1140 1
664 1140 1
676 1140 1
690 1140 1
879 1140 1
890 1140 1
1169 1140 1
1176 1140 1
648 1141 1
665 1141 1
677 1141 1
691 1141 1
880 1141 1
891 1141 1
1170 1141 1
1177 1141 1
649 1142 1
666 1142 1
678 1142 1
692 1142 1
881 1142 1
892 1142 1
1171 1142 1
1178 1142 1
650 1143 1
667 1143 1
679 1143 1
693 1143 1
882 1143 1
893 1143 1
1172 1143 1
1179 1143 1
639 1144 1
651 1144 1
680 1144 1
694 1144 1
883 1144 1
894 1144 1
1173 1144 1
1180 1144 1
640 1145 1
652 1145 1
681 1145 1
695 1145 1
884 1145 1
895 1145 1
1174 1145 1
1181 1145 1
641 1146 1
653 1146 1
682 1146 1
696 1146 1
885 1146 1
896 1146 1
1175 1146 1
1182 1146 1
642 1147 1
654 1147 1
668 1147 1
683 1147 1
886 1147 1
897 1147 1
1176 1147 1
1183 1147 1
643 1148 1
655 1148 1
669 1148 1
684 1148 1
887 1148 1
898 1148 1
1177 1148 1
1184 1148 1
644 1149 1
656 1149 1
670 1149 1
685 1149 1
888 1149 1
899 1149 1
1178 1149 1
1185 1149 1
645 1150 1
657 1150 1
671 1150 1
686 1150 1
871 1150 1
889 1150 1
1179 1150 1
1186 1150 1
646 1151 1
658 1151 1
672 1151 1
687 1151 1
872 1151 1
890 1151 1
1180 1151 1
1187 1151 1
647 1152 1
659 1152 1
673 1152 1
688 1152 1
873 1152 1
891 1152 1
1181 1152 1
1188 1152 1
648 1153 1
660 1153 1
674 1153 1
689 1153 1
874 1153 1
892 1153 1
1182 1153 1
1189 1153 1
649 1154 1
661 1154 1
675 1154 1
690 1154 1
875 1154 1
893 1154 1
1161 1154 1
1183 1154 1
650 1155 1
662 1155 1
676 1155 1
691 1155 1
876 1155 1
894 1155 1
1162 1155 1
1184 1155 1
651 1156 1
663 1156 1
677 1156 1
692 1156 1
877 1156 1
895 1156 1
1163 1156 1
1185 1156 1
652 1157 1
664 1157 1
678 1157 1
693 1157 1
878 1157 1
896 1157 1
1164 1157 1
1186 1157 1
653 1158 1
665 1158 1
679 1158 1
694 1158 1
879 1158 1
897 1158 1
1165 1158 1
1187 1158 1
654 1159 1
666 1159 1
680 1159 1
695 1159 1
880 1159 1
898 1159 1
1166 1159 1
1188 1159 1
655 1160 1
667 1160 1
681 1160 1
696 1160 1
881 1160 1
899 1160 1
1167 1160 1
1189 1160 1
639 1161 1
659 1161 1
697 1161 1
711 1161 1
900 1161 1
911 1161 1
1190 1161 1
1197 1161 1
640 1162 1
660 1162 1
698 1162 1
712 1162 1
901 1162 1
912 1162 1
1191 1162 1
1198 1162 1
641 1163 1
661 1163 1
699 1163 1
713 1163 1
902 1163 1
913 1163 1
1192 1163 1
1199 1163 1
642 1164 1
662 1164 1
700 1164 1
714 1164 1
903 1164 1
914 1164 1
1193 1164 1
1200 1164 1
643 1165 1
663 1165 1
701 1165 1
715 1165 1
904 1165 1
915 1165 1
1194 1165 1
1201 1165 1
644 1166 1
664 1166 1
702 1166 1
716 1166 1
905 1166 1
916 1166 1
1195 1166 1
1202 1166 1
645 1167 1
665 1167 1
703 1167 1
717 1167 1
906 1167 1
917 1167 1
1196 1167 1
1203 1167 1
646 1168 1
666 1168 1
704 1168 1
718 1168 1
907 1168 1
918 1168 1
1197 1168 1
1204 1168 1
647 1169 1
667 1169 1
705 1169 1
719 1169 1
908 1169 1
919 1169 1
1198 1169 1
1205 1169 1
639 1170 1
648 1170 1
706 1170 1
720 1170 1
909 1170 1
920 1170 1
1199 1170 1
1206 1170 1
640 1171 1
649 1171 1
707 1171 1
721 1171 1
910 1171 1
921 1171 1
1200 1171 1
1207 1171 1
641 1172 1
650 1172 1
708 1172 1
722 1172 1
911 1172 1
922 1172 1
1201 1172 1
1208 1172 1
642 1173 1
651 1173 1
709 1173 1
723 1173 1
912 1173 1
923 1173 1
1202 1173 1
1209 1173 1
643 1174 1
652 1174 1
710 1174 1
724 1174 1
913 1174 1
924 1174 1
1203 1174 1
1210 1174 1
644 1175 1
653 1175 1
711 1175 1
725 1175 1
914 1175 1
925 1175 1
1204 1175 1
1211 1175 1
645 1176 1
654 1176 1
697 1176 1
712 1176 1
915 1176 1
926 1176 1
1205 1176 1
1212 1176 1
646 1177 1
655 1177 1
698 1177 1
713 1177 1
916 1177 1
927 1177 1
1206 1177 1
1213 1177 1
647 1178 1
656 1178 1
699 1178 1
714 1178 1
917 1178 1
928 1178 1
1207 1178 1
1214 1178 1
648 1179 1
657 1179 1
700 1179 1
715 1179 1
900 1179 1
918 1179 1
1208 1179 1
1215 1179 1
649 1180 1
658 1180 1
701 1180 1
716 1180 1
901 1180 1
919 1180 1
1209 1180 1
1216 1180 1
650 1181 1
659 1181 1
702 1181 1
717 1181 1
902 1181 1
920 1181 1
1210 1181 1
1217 1181 1
651 1182 1
660 1182 1
703 1182 1
718 1182 1
903 1182 1
921 1182 1
1211 1182 1
1218 1182 1
652 1183 1
661 1183 1
704 1183 1
719 1183 1
904 1183 1
922 1183 1
1190 1183 1
1212 1183 1
653 1184 1
662 1184 1
705 1184 1
720 1184 1
905 1184 1
923 1184 1
1191 1184 1
1213 1184 1
654 1185 1
663 1185 1
706 1185 1
721 1185 1
906 1185 1
924 1185 1
1192 1185 1
1214 1185 1
655 1186 1
664 1186 1
707 1186 1
722 1186 1
907 1186 1
925 1186 1
1193 1186 1
1215 1186 1
656 1187 1
665 1187 1
708 1187 1
723 1187 1
908 1187 1
926 1187 1
1194 1187 1
1216 1187 1
657 1188 1
666 1188 1
709 1188 1
724 1188 1
909 1188 1
927 1188 1
1195 1188 1
1217 1188 1
658 1189 1
667 1189 1
710 1189 1
725 1189 1
910 1189 1
928 1189 1
1196 1189 1
1218 1189 1
639 1190 1
667 1190 1
726 1190 1
740 1190 1
929 1190 1
940 1190 1
1219 1190 1
1226 1190 1
639 1191 1
640 1191 1
727 1191 1
741 1191 1
930 1191 1
941 1191 1
1220 1191 1
1227 1191 1
640 1192 1
641 1192 1
728 1192 1
742 1192 1
931 1192 1
942 1192 1
1221 1192 1
1228 1192 1
641 1193 1
642 1193 1
729 1193 1
743 1193 1
932 1193 1
943 1193 1
1222 1193 1
1229 1193 1
642 1194 1
643 1194 1
730 1194 1
744 1194 1
933 1194 1
944 1194 1
1223 1194 1
1230 1194 1
643 1195 1
644 1195 1
731 1195 1
745 1195 1
934 1195 1
945 1195 1
1224 1195 1
1231 1195 1
644 1196 1
645 1196 1
732 1196 1
746 1196 1
935 1196 1
946 1196 1
1225 1196 1
1232 1196 1
645 1197 1
646 1197 1
733 1197 1
747 1197 1
936 1197 1
947 1197 1
1226 1197 1
1233 1197 1
646 1198 1
647 1198 1
734 1198 1
748 1198 1
937 1198 1
948 1198 1
1227 1198 1
1234 1198 1
647 1199 1
648 1199 1
735 1199 1
749 1199 1
938 1199 1
949 1199 1
1228 1199 1
1235 1199 1
648 1200 1
649 1200 1
736 1200 1
750 1200 1
939 1200 1
950 1200 1
1229 1200 1
1236 1200 1
649 1201 1
650 1201 1
737 1201 1
751 1201 1
940 1201 1
951 1201 1
1230 1201 1
1237 1201 1
650 1202 1
651 1202 1
738 1202 1
752 1202 1
941 1202 1
952 1202 1
1231 1202 1
1238 1202 1
651 1203 1
652 1203 1
739 1203 1
753 1203 1
942 1203 1
953 1203 1
1232 1203 1
1239 1203 1
652 1204 1
653 1204 1
740 1204 1
754 1204 1
943 1204 1
954 1204 1
1233 1204 1
1240 1204 1
653 1205 1
654 1205 1
726 1205 1
741 1205 1
944 1205 1
955 1205 1
1234 1205 1
1241 1205 1
654 1206 1
655 1206 1
727 1206 1
742 1206 1
945 1206 1
956 1206 1
1235 1206 1
1242 1206 1
655 1207 1
656 1207 1
728 1207 1
743 1207 1
946 1207 1
957 1207 1
1236 1207 1
1243 1207 1
656 1208 1
657 1208 1
729 1208 1
744 1208 1
929 1208 1
947 1208 1
1237 1208 1
1244 1208 1
657 1209 1
658 1209 1
730 1209 1
745 1209 1
930 1209 1
948 1209 1
1238 1209 1
1245 1209 1
658 1210 1
659 1210 1
731 1210 1
746 1210 1
931 1210 1
949 1210 1
1239 1210 1
1246 1210 1
659 1211 1
660 1211 1
732 1211 1
747 1211 1
932 1211 1
950 1211 1
1240 1211 1
1247 1211 1
660 1212 1
661 1212 1
733 1212 1
748 1212 1
933 1212 1
951 1212 1
1219 1212 1
1241 1212 1
661 1213 1
662 1213 1
734 1213 1
749 1213 1
934 1213 1
952 1213 1
1220 1213 1
1242 1213 1
662 1214 1
663 1214 1
735 1214 1
750 1214 1
935 1214 1
953 1214 1
1221 1214 1
1243 1214 1
663 1215 1
664 1215 1
736 1215 1
751 1215 1
936 1215 1
954 1215 1
1222 1215 1
1244 1215 1
664 1216 1
665 1216 1
737 1216 1
752 1216 1
937 1216 1
955 1216 1
1223 1216 1
1245 1216 1
665 1217 1
666 1217 1
738 1217 1
753 1217 1
938 1217 1
956 1217 1
1224 1217 1
1246 1217 1
666 1218 1
667 1218 1
739 1218 1
754 1218 1
939 1218 1
957 1218 1
1225 1218 1
1247 1218 1
668 1219 1
688 1219 1
697 1219 1
714 1219 1
958 1219 1
969 1219 1
1248 1219 1
1255 1219 1
669 1220 1
689 1220 1
698 1220 1
715 1220 1
959 1220 1
970 1220 1
1249 1220 1
1256 1220 1
670 1221 1
690 1221 1
699 1221 1
716 1221 1
960 1221 1
971 1221 1
1250 1221 1
1257 1221 1
671 1222 1
691 1222 1
700 1222 1
717 1222 1
961 1222 1
972 1222 1
1251 1222 1
1258 1222 1
672 1223 1
692 1223 1
701 1223 1
718 1223 1
962 1223 1
973 1223 1
1252 1223 1
1259 1223 1
673 1224 1
693 1224 1
702 1224 1
719 1224 1
963 1224 1
974 1224 1
1253 1224 1
1260 1224 1
674 1225 1
694 1225 1
703 1225 1
720 1225 1
964 1225 1
975 1225 1
1254 1225 1
1261 1225 1
675 1226 1
695 1226 1
704 1226 1
721 1226 1
965 1226 1
976 1226 1
1255 1226 1
1262 1226 1
676 1227 1
696 1227 1
705 1227 1
722 1227 1
966 1227 1
977 1227 1
1256 1227 1
1263 1227 1
668 1228 1
677 1228 1
706 1228 1
723 1228 1
967 1228 1
978 1228 1
1257 1228 1
1264 1228 1
669 1229 1
678 1229 1
707 1229 1
724 1229 1
968 1229 1
979 1229 1
1258 1229 1
1265 1229 1
670 1230 1
679 1230 1
708 1230 1
725 1230 1
969 1230 1
980 1230 1
1259 1230 1
1266 1230 1
671 1231 1
680 1231 1
697 1231 1
709 1231 1
970 1231 1
981 1231 1
1260 1231 1
1267 1231 1
672 1232 1
681 1232 1
698 1232 1
710 1232 1
971 1232 1
982 1232 1
1261 1232 1
1268 1232 1
673 1233 1
682 1233 1
699 1233 1
711 1233 1
972 1233 1
983 1233 1
1262 1233 1
1269 1233 1
674 1234 1
683 1234 1
700 1234 1
712 1234 1
973 1234 1
984 1234 1
1263 1234 1
1270 1234 1
675 1235 1
684 1235 1
701 1235 1
713 1235 1
974 1235 1
985 1235 1
1264 1235 1
1271 1235 1
676 1236 1
685 1236 1
702 1236 1
714 1236 1
975 1236 1
986 1236 1
1265 1236 1
1272 1236 1
677 1237 1
686 1237 1
703 1237 1
715 1237 1
958 1237 1
976 1237 1
1266 1237 1
1273 1237 1
678 1238 1
687 1238 1
704 1238 1
716 1238 1
959 1238 1
977 1238 1
1267 1238 1
1274 1238 1
679 1239 1
688 1239 1
705 1239 1
717 1239 1
960 1239 1
978 1239 1
1268 1239 1
1275 1239 1
680 1240 1
689 1240 1
706 1240 1
718 1240 1
961 1240 1
979 1240 1
1269 1240 1
1276 1240 1
681 1241 1
690 1241 1
707 1241 1
719 1241 1
962 1241 1
980 1241 1
1248 1241 1
1270 1241 1
682 1242 1
691 1242 1
708 1242 1
720 1242 1
963 1242 1
981 1242 1
1249 1242 1
1271 1242 1
683 1243 1
692 1243 1
709 1243 1
721 1243 1
964 1243 1
982 1243 1
1250 1243 1
1272 1243 1
684 1244 1
693 1244 1
710 1244 1
722 1244 1
965 1244 1
983 1244 1
1251 1244 1
1273 1244 1
685 1245 1
694 1245 1
711 1245 1
723 1245 1
966 1245 1
984 1245 1
1252 1245 1
1274 1245 1
686 1246 1
695 1246 1
712 1246 1
724 1246 1
967 1246 1
985 1246 1
1253 1246 1
1275 1246 1
687 1247 1
696 1247 1
713 1247 1
725 1247 1
968 1247 1
986 1247 1
1254 1247 1
1276 1247 1
668 1248 1
696 1248 1
726 1248 1
743 1248 1
987 1248 1
998 1248 1
1277 1248 1
1284 1248 1
668 1249 1
669 1249 1
727 1249 1
744 1249 1
988 1249 1
999 1249 1
1278 1249 1
1285 1249 1
669 1250 1
670 1250 1
728 1250 1
745 1250 1
989 1250 1
1000 1250 1
1279 1250 1
1286 1250 1
670 1251 1
671 1251 1
729 1251 1
746 1251 1
990 1251 1
1001 1251 1
1280 1251 1
1287 1251 1
671 1252 1
672 1252 1
730 1252 1
747 1252 1
991 1252 1
1002 1252 1
1281 1252 1
1288 1252 1
672 1253 1
673 1253 1
731 1253 1
748 1253 1
992 1253 1
1003 1253 1
1282 1253 1
1289 1253 1
673 1254 1
674 1254 1
732 1254 1
749 1254 1
993 1254 1
1004 1254 1
1283 1254 1
1290 1254 1
674 1255 1
675 1255 1
733 1255 1
750 1255 1
994 1255 1
1005 1255 1
1284 1255 1
1291 1255 1
675 1256 1
676 1256 1
734 1256 1
751 1256 1
995 1256 1
1006 1256 1
1285 1256 1
1292 1256 1
676 1257 1
677 1257 1
735 1257 1
752 1257 1
996 1257 1
1007 1257 1
1286 1257 1
1293 1257 1
677 1258 1
678 1258 1
736 1258 1
753 1258 1
997 1258 1
1008 1258 1
1287 1258 1
1294 1258 1
678 1259 1
679 1259 1
737 1259 1
754 1259 1
998 1259 1
1009 1259 1
1288 1259 1
1295 1259 1
679 1260 1
680 1260 1
726 1260 1
738 1260 1
999 1260 1
1010 1260 1
1289 1260 1
1296 1260 1
680 1261 1
681 1261 1
727 1261 1
739 1261 1
1000 1261 1
1011 1261 1
1290 1261 1
1297 1261 1
681 1262 1
682 1262 1
728 1262 1
740 1262 1
1001 1262 1
1012 1262 1
1291 1262 1
1298 1262 1
682 1263 1
683 1263 1
729 1263 1
741 1263 1
1002 1263 1
1013 1263 1
1292 1263 1
1299 1263 1
683 1264 1
684 1264 1
730 1264 1
742 1264 1
1003 1264 1
1014 1264 1
1293 1264 1
1300 1264 1
684 1265 1
685 1265 1
731 1265 1
743 1265 1
1004 1265 1
1015 1265 1
1294 1265 1
1301 1265 1
685 1266 1
686 1266 1
732 1266 1
744 1266 1
987 1266 1
1005 1266 1
1295 1266 1
1302 1266 1
686 1267 1
687 1267 1
733 1267 1
745 1267 1
988 1267 1
1006 1267 1
1296 1267 1
1303 1267 1
687 1268 1
688 1268 1
734 1268 1
746 1268 1
989 1268 1
1007 1268 1
1297 1268 1
1304 1268 1
688 1269 1
689 1269 1
735 1269 1
747 1269 1
990 1269 1
1008 1269 1
1298 1269 1
1305 1269 1
689 1270 1
690 1270 1
736 1270 1
748 1270 1
991 1270 1
1009 1270 1
1277 1270 1
1299 1270 1
690 1271 1
691 1271 1
737 1271 1
749 1271 1
992 1271 1
1010 1271 1
1278 1271 1
1300 1271 1
691 1272 1
692 1272 1
738 1272 1
750 1272 1
993 1272 1
1011 1272 1
1279 1272 1
1301 1272 1
692 1273 1
693 1273 1
739 1273 1
751 1273 1
994 1273 1
1012 1273 1
1280 1273 1
1302 1273 1
693 1274 1
694 1274 1
740 1274 1
752 1274 1
995 1274 1
1013 1274 1
1281 1274 1
1303 1274 1
694 1275 1
695 1275 1
741 1275 1
753 1275 1
996 1275 1
1014 1275 1
1282 1275 1
1304 1275 1
695 1276 1
696 1276 1
742 1276 1
754 1276 1
997 1276 1
1015 1276 1
1283 1276 1
1305 1276 1
697 1277 1
725 1277 1
726 1277 1
746 1277 1
1016 1277 1
1027 1277 1
1306 1277 1
1313 1277 1
697 1278 1
698 1278 1
727 1278 1
747 1278 1
1017 1278 1
1028 1278 1
1307 1278 1
1314 1278 1
698 1279 1
699 1279 1
728 1279 1
748 1279 1
1018 1279 1
1029 1279 1
1308 1279 1
1315 1279 1
699 1280 1
700 1280 1
729 1280 1
749 1280 1
1019 1280 1
1030 1280 1
1309 1280 1
1316 1280 1
700 1281 1
701 1281 1
730 1281 1
750 1281 1
1020 1281 1
1031 1281 1
1310 1281 1
1317 1281 1
701 1282 1
702 1282 1
731 1282 1
751 1282 1
1021 1282 1
1032 1282 1
1311 1282 1
1318 1282 1
702 1283 1
703 1283 1
732 1283 1
752 1283 1
1022 1283 1
1033 1283 1
1312 1283 1
1319 1283 1
703 1284 1
704 1284 1
733 1284 1
753 1284 1
1023 1284 1
1034 1284 1
1313 1284 1
1320 1284 1
704 1285 1
705 1285 1
734 1285 1
754 1285 1
1024 1285 1
1035 1285 1
1314 1285 1
1321 1285 1
705 1286 1
706 1286 1
726 1286 1
735 1286 1
1025 1286 1
1036 1286 1
1315 1286 1
1322 1286 1
706 1287 1
707 1287 1
727 1287 1
736 1287 1
1026 1287 1
1037 1287 1
1316 1287 1
1323 1287 1
707 1288 1
708 1288 1
728 1288 1
737 1288 1
1027 1288 1
1038 1288 1
1317 1288 1
1324 1288 1
708 1289 1
709 1289 1
729 1289 1
738 1289 1
1028 1289 1
1039 1289 1
1318 1289 1
1325 1289 1
709 1290 1
710 1290 1
730 1290 1
739 1290 1
1029 1290 1
1040 1290 1
1319 1290 1
1326 1290 1
710 1291 1
711 1291 1
731 1291 1
740 1291 1
1030 1291 1
1041 1291 1
1320 1291 1
1327 1291 1
711 1292 1
712 1292 1
732 1292 1
741 1292 1
1031 1292 1
1042 1292 1
1321 1292 1
1328 1292 1
712 1293 1
713 1293 1
733 1293 1
742 1293 1
1032 1293 1
1043 1293 1
1322 1293 1
1329 1293 1
713 1294 1
714 1294 1
734 1294 1
743 1294 1
1033 1294 1
1044 1294 1
1323 1294 1
1330 1294 1
714 1295 1
715 1295 1
735 1295 1
744 1295 1
1016 1295 1
1034 1295 1
1324 1295 1
1331 1295 1
715 1296 1
716 1296 1
736 1296 1
745 1296 1
1017 1296 1
1035 1296 1
1325 1296 1
1332 1296 1
716 1297 1
717 1297 1
737 1297 1
746 1297 1
1018 1297 1
1036 1297 1
1326 1297 1
1333 1297 1
717 1298 1
718 1298 1
738 1298 1
747 1298 1
1019 1298 1
1037 1298 1
1327 1298 1
1334 1298 1
718 1299 1
719 1299 1
739 1299 1
748 1299 1
1020 1299 1
1038 1299 1
1306 1299 1
1328 1299 1
719 1300 1
720 1300 1
740 1300 1
749 1300 1
1021 1300 1
1039 1300 1
1307 1300 1
1329 1300 1
720 1301 1
721 1301 1
741 1301 1
750 1301 1
1022 1301 1
1040 1301 1
1308 1301 1
1330 1301 1
721 1302 1
722 1302 1
742 1302 1
751 1302 1
1023 1302 1
1041 1302 1
1309 1302 1
1331 1302 1
722 1303 1
723 1303 1
743 1303 1
752 1303 1
1024 1303 1
1042 1303 1
1310 1303 1
1332 1303 1
723 1304 1
724 1304 1
744 1304 1
753 1304 1
1025 1304 1
1043 1304 1
1311 1304 1
1333 1304 1
724 1305 1
725 1305 1
745 1305 1
754 1305 1
1026 1305 1
1044 1305 1
1312 1305 1
1334 1305 1
755 1306 1
772 1306 1
784 1306 1
798 1306 1
871 1306 1
884 1306 1
1335 1306 1
1342 1306 1
756 1307 1
773 1307 1
785 1307 1
799 1307 1
872 1307 1
885 1307 1
1336 1307 1
1343 1307 1
757 1308 1
774 1308 1
786 1308 1
800 1308 1
873 1308 1
886 1308 1
1337 1308 1
1344 1308 1
758 1309 1
775 1309 1
787 1309 1
801 1309 1
874 1309 1
887 1309 1
1338 1309 1
1345 1309 1
759 1310 1
776 1310 1
788 1310 1
802 1310 1
875 1310 1
888 1310 1
1339 1310 1
1346 1310 1
760 1311 1
777 1311 1
789 1311 1
803 1311 1
876 1311 1
889 1311 1
1340 1311 1
1347 1311 1
761 1312 1
778 1312 1
790 1312 1
804 1312 1
877 1312 1
890 1312 1
1341 1312 1
1348 1312 1
762 1313 1
779 1313 1
791 1313 1
805 1313 1
878 1313 1
891 1313 1
1342 1313 1
1349 1313 1
763 1314 1
780 1314 1
792 1314 1
806 1314 1
879 1314 1
892 1314 1
1343 1314 1
1350 1314 1
764 1315 1
781 1315 1
793 1315 1
807 1315 1
880 1315 1
893 1315 1
1344 1315 1
1351 1315 1
765 1316 1
782 1316 1
794 1316 1
808 1316 1
881 1316 1
894 1316 1
1345 1316 1
1352 1316 1
766 1317 1
783 1317 1
795 1317 1
809 1317 1
882 1317 1
895 1317 1
1346 1317 1
1353 1317 1
755 1318 1
767 1318 1
796 1318 1
810 1318 1
883 1318 1
896 1318 1
1347 1318 1
1354 1318 1
756 1319 1
768 1319 1
797 1319 1
811 1319 1
884 1319 1
897 1319 1
1348 1319 1
1355 1319 1
757 1320 1
769 1320 1
798 1320 1
812 1320 1
885 1320 1
898 1320 1
1349 1320 1
1356 1320 1
758 1321 1
770 1321 1
784 1321 1
799 1321 1
886 1321 1
899 1321 1
1350 1321 1
1357 1321 1
759 1322 1
771 1322 1
785 1322 1
800 1322 1
871 1322 1
887 1322 1
1351 1322 1
1358 1322 1
760 1323 1
772 1323 1
786 1323 1
801 1323 1
872 1323 1
888 1323 1
1352 1323 1
1359 1323 1
761 1324 1
773 1324 1
787 1324 1
802 1324 1
873 1324 1
889 1324 1
1353 1324 1
1360 1324 1
762 1325 1
774 1325 1
788 1325 1
803 1325 1
874 1325 1
890 1325 1
1354 1325 1
1361 1325 1
763 1326 1
775 1326 1
789 1326 1
804 1326 1
875 1326 1
891 1326 1
1355 1326 1
1362 1326 1
764 1327 1
776 1327 1
790 1327 1
805 1327 1
876 1327 1
892 1327 1
1356 1327 1
1363 1327 1
765 1328 1
777 1328 1
791 1328 1
806 1328 1
877 1328 1
893 1328 1
1335 1328 1
1357 1328 1
766 1329 1
778 1329 1
792 1329 1
807 1329 1
878 1329 1
894 1329 1
1336 1329 1
1358 1329 1
767 1330 1
779 1330 1
793 1330 1
808 1330 1
879 1330 1
895 1330 1
1337 1330 1
1359 1330 1
768 1331 1
780 1331 1
794 1331 1
809 1331 1
880 1331 1
896 1331 1
1338 1331 1
1360 1331 1
769 1332 1
781 1332 1
795 1332 1
810 1332 1
881 1332 1
897 1332 1
1339 1332 1
1361 1332 1
770 1333 1
782 1333 1
796 1333 1
811 1333 1
882 1333 1
898 1333 1
1340 1333 1
1362 1333 1
771 1334 1
783 1334 1
797 1334 1
812 1334 1
883 1334 1
899 1334 1
1341 1334 1
1363 1334 1
755 1335 1
775 1335 1
813 1335 1
827 1335 1
900 1335 1
913 1335 1
1364 1335 1
1371 1335 1
756 1336 1
776 1336 1
814 1336 1
828 1336 1
901 1336 1
914 1336 1
1365 1336 1
1372 1336 1
757 1337 1
777 1337 1
815 1337 1
829 1337 1
902 1337 1
915 1337 1
1366 1337 1
1373 1337 1
758 1338 1
778 1338 1
816 1338 1
830 1338 1
903 1338 1
916 1338 1
1367 1338 1
1374 1338 1
759 1339 1
779 1339 1
817 1339 1
831 1339 1
904 1339 1
917 1339 1
1368 1339 1
1375 1339 1
760 1340 1
780 1340 1
818 1340 1
832 1340 1
905 1340 1
918 1340 1
1369 1340 1
1376 1340 1
761 1341 1
781 1341 1
819 1341 1
833 1341 1
906 1341 1
919 1341 1
1370 1341 1
1377 1341 1
762 1342 1
782 1342 1
820 1342 1
834 1342 1
907 1342 1
920 1342 1
1371 1342 1
1378 1342 1
763 1343 1
783 1343 1
821 1343 1
835 1343 1
908 1343 1
921 1343 1
1372 1343 1
1379 1343 1
755 1344 1
764 1344 1
822 1344 1
836 1344 1
909 1344 1
922 1344 1
1373 1344 1
1380 1344 1
756 1345 1
765 1345 1
823 1345 1
837 1345 1
910 1345 1
923 1345 1
1374 1345 1
1381 1345 1
757 1346 1
766 1346 1
824 1346 1
838 1346 1
911 1346 1
924 1346 1
1375 1346 1
1382 1346 1
758 1347 1
767 1347 1
825 1347 1
839 1347 1
912 1347 1
925 1347 1
1376 1347 1
1383 1347 1
759 1348 1
768 1348 1
826 1348 1
840 1348 1
913 1348 1
926 1348 1
1377 1348 1
1384 1348 1
760 1349 1
769 1349 1
827 1349 1
841 1349 1
914 1349 1
927 1349 1
1378 1349 1
1385 1349 1
761 1350 1
770 1350 1
813 1350 1
828 1350 1
915 1350 1
928 1350 1
1379 1350 1
1386 1350 1
762 1351 1
771 1351 1
814 1351 1
829 1351 1
900 1351 1
916 1351 1
1380 1351 1
1387 1351 1
763 1352 1
772 1352 1
815 1352 1
830 1352 1
901 1352 1
917 1352 1
1381 1352 1
1388 1352 1
764 1353 1
773 1353 1
816 1353 1
831 1353 1
902 1353 1
918 1353 1
1382 1353 1
1389 1353 1
765 1354 1
774 1354 1
817 1354 1
832 1354 1
903 1354 1
919 1354 1
1383 1354 1
1390 1354 1
766 1355 1
775 1355 1
818 1355 1
833 1355 1
904 1355 1
920 1355 1
1384 1355 1
1391 1355 1
767 1356 1
776 1356 1
819 1356 1
834 1356 1
905 1356 1
921 1356 1
1385 1356 1
1392 1356 1
768 1357 1
777 1357 1
820 1357 1
835 1357 1
906 1357 1
922 1357 1
1364 1357 1
1386 1357 1
769 1358 1
778 1358 1
821 1358 1
836 1358 1
907 1358 1
923 1358 1
1365 1358 1
1387 1358 1
770 1359 1
779 1359 1
822 1359 1
837 1359 1
908 1359 1
924 1359 1
1366 1359 1
1388 1359 1
771 1360 1
780 1360 1
823 1360 1
838 1360 1
909 1360 1
925 1360 1
1367 1360 1
1389 1360 1
772 1361 1
781 1361 1
824 1361 1
839 1361 1
910 1361 1
926 1361 1
1368 1361 1
1390 1361 1
773 1362 1
782 1362 1
825 1362 1
840 1362 1
911 1362 1
927 1362 1
1369 1362 1
1391 1362 1
774 1363 1
783 1363 1
826 1363 1
841 1363 1
912 1363 1
928 1363 1
1370 1363 1
1392 1363 1
755 1364 1
783 1364 1
842 1364 1
856 1364 1
929 1364 1
942 1364 1
1393 1364 1
1400 1364 1
755 1365 1
756 1365 1
843 1365 1
857 1365 1
930 1365 1
943 1365 1
1394 1365 1
1401 1365 1
756 1366 1
757 1366 1
844 1366 1
858 1366 1
931 1366 1
944 1366 1
1395 1366 1
1402 1366 1
757 1367 1
758 1367 1
845 1367 1
859 1367 1
932 1367 1
945 1367 1
1396 1367 1
1403 1367 1
758 1368 1
759 1368 1
846 1368 1
860 1368 1
933 1368 1
946 1368 1
1397 1368 1
1404 1368 1
759 1369 1
760 1369 1
847 1369 1
861 1369 1
934 1369 1
947 1369 1
1398 1369 1
1405 1369 1
760 1370 1
761 1370 1
848 1370 1
862 1370 1
935 1370 1
948 1370 1
1399 1370 1
1406 1370 1
761 1371 1
762 1371 1
849 1371 1
863 1371 1
936 1371 1
949 1371 1
1400 1371 1
1407 1371 1
762 1372 1
763 1372 1
850 1372 1
864 1372 1
937 1372 1
950 1372 1
1401 1372 1
1408 1372 1
763 1373 1
764 1373 1
851 1373 1
865 1373 1
938 1373 1
951 1373 1
1402 1373 1
1409 1373 1
764 1374 1
765 1374 1
852 1374 1
866 1374 1
939 1374 1
952 1374 1
1403 1374 1
1410 1374 1
765 1375 1
766 1375 1
853 1375 1
867 1375 1
940 1375 1
953 1375 1
1404 1375 1
1411 1375 1
766 1376 1
767 1376 1
854 1376 1
868 1376 1
941 1376 1
954 1376 1
1405 1376 1
1412 1376 1
767 1377 1
768 1377 1
855 1377 1
869 1377 1
942 1377 1
955 1377 1
1406 1377 1
1413 1377 1
768 1378 1
769 1378 1
856 1378 1
870 1378 1
943 1378 1
956 1378 1
1407 1378 1
1414 1378 1
769 1379 1
770 1379 1
842 1379 1
857 1379 1
944 1379 1
957 1379 1
1408 1379 1
1415 1379 1
770 1380 1
771 1380 1
843 1380 1
858 1380 1
929 1380 1
945 1380 1
1409 1380 1
1416 1380 1
771 1381 1
772 1381 1
844 1381 1
859 1381 1
930 1381 1
946 1381 1
1410 1381 1
1417 1381 1
772 1382 1
773 1382 1
845 1382 1
860 1382 1
931 1382 1
947 1382 1
1411 1382 1
1418 1382 1
773 1383 1
774 1383 1
846 1383 1
861 1383 1
932 1383 1
948 1383 1
1412 1383 1
1419 1383 1
774 1384 1
775 1384 1
847 1384 1
862 1384 1
933 1384 1
949 1384 1
1413 1384 1
1420 1384 1
775 1385 1
776 1385 1
848 1385 1
863 1385 1
934 1385 1
950 1385 1
1414 1385 1
1421 1385 1
776 1386 1
777 1386 1
849 1386 1
864 1386 1
935 1386 1
951 1386 1
1393 1386 1
1415 1386 1
777 1387 1
778 1387 1
850 1387 1
865 1387 1
936 1387 1
952 1387 1
1394 1387 1
1416 1387 1
778 1388 1
779 1388 1
851 1388 1
866 1388 1
937 1388 1
953 1388 1
1395 1388 1
1417 1388 1
779 1389 1
780 1389 1
852 1389 1
867 1389 1
938 1389 1
954 1389 1
1396 1389 1
1418 1389 1
780 1390 1
781 1390 1
853 1390 1
868 1390 1
939 1390 1
955 1390 1
1397 1390 1
1419 1390 1
781 1391 1
782 1391 1
854 1391 1
869 1391 1
940 1391 1
956 1391 1
1398 1391 1
1420 1391 1
782 1392 1
783 1392 1
855 1392 1
870 1392 1
941 1392 1
957 1392 1
1399 1392 1
1421 1392 1
784 1393 1
804 1393 1
813 1393 1
830 1393 1
958 1393 1
971 1393 1
1422 1393 1
1429 1393 1
785 1394 1
805 1394 1
814 1394 1
831 1394 1
959 1394 1
972 1394 1
1423 1394 1
1430 1394 1
786 1395 1
806 1395 1
815 1395 1
832 1395 1
960 1395 1
973 1395 1
1424 1395 1
1431 1395 1
787 1396 1
807 1396 1
816 1396 1
833 1396 1
961 1396 1
974 1396 1
1425 1396 1
1432 1396 1
788 1397 1
808 1397 1
817 1397 1
834 1397 1
962 1397 1
975 1397 1
1426 1397 1
1433 1397 1
789 1398 1
809 1398 1
818 1398 1
835 1398 1
963 1398 1
976 1398 1
1427 1398 1
1434 1398 1
790 1399 1
810 1399 1
819 1399 1
836 1399 1
964 1399 1
977 1399 1
1428 1399 1
1435 1399 1
791 1400 1
811 1400 1
820 1400 1
837 1400 1
965 1400 1
978 1400 1
1429 1400 1
1436 1400 1
792 1401 1
812 1401 1
821 1401 1
838 1401 1
966 1401 1
979 1401 1
1430 1401 1
1437 1401 1
784 1402 1
793 1402 1
822 1402 1
839 1402 1
967 1402 1
980 1402 1
1431 1402 1
1438 1402 1
785 1403 1
794 1403 1
823 1403 1
840 1403 1
968 1403 1
981 1403 1
1432 1403 1
1439 1403 1
786 1404 1
795 1404 1
824 1404 1
841 1404 1
969 1404 1
982 1404 1
1433 1404 1
1440 1404 1
787 1405 1
796 1405 1
813 1405 1
825 1405 1
970 1405 1
983 1405 1
1434 1405 1
1441 1405 1
788 1406 1
797 1406 1
814 1406 1
826 1406 1
971 1406 1
984 1406 1
1435 1406 1
1442 1406 1
789 1407 1
798 1407 1
815 1407 1
827 1407 1
972 1407 1
985 1407 1
1436 1407 1
1443 1407 1
790 1408 1
799 1408 1
816 1408 1
828 1408 1
973 1408 1
986 1408 1
1437 1408 1
1444 1408 1
791 1409 1
800 1409 1
817 1409 1
829 1409 1
958 1409 1
974 1409 1
1438 1409 1
1445 1409 1
792 1410 1
801 1410 1
818 1410 1
830 1410 1
959 1410 1
975 1410 1
1439 1410 1
1446 1410 1
793 1411 1
802 1411 1
819 1411 1
831 1411 1
960 1411 1
976 1411 1
1440 1411 1
1447 1411 1
794 1412 1
803 1412 1
820 1412 1
832 1412 1
961 1412 1
977 1412 1
1441 1412 1
1448 1412 1
795 1413 1
804 1413 1
821 1413 1
833 1413 1
962 1413 1
978 1413 1
1442 1413 1
1449 1413 1
796 1414 1
805 1414 1
822 1414 1
834 1414 1
963 1414 1
979 1414 1
1443 1414 1
1450 1414 1
797 1415 1
806 1415 1
823 1415 1
835 1415 1
964 1415 1
980 1415 1
1422 1415 1
1444 1415 1
798 1416 1
807 1416 1
824 1416 1
836 1416 1
965 1416 1
981 1416 1
1423 1416 1
1445 1416 1
799 1417 1
808 1417 1
825 1417 1
837 1417 1
966 1417 1
982 1417 1
1424 1417 1
1446 1417 1
800 1418 1
809 1418 1
826 1418 1
838 1418 1
967 1418 1
983 1418 1
1425 1418 1
1447 1418 1
801 1419 1
810 1419 1
827 1419 1
839 1419 1
968 1419 1
984 1419 1
1426 1419 1
1448 1419 1
802 1420 1
811 1420 1
828 1420 1
840 1420 1
969 1420 1
985 1420 1
1427 1420 1
1449 1420 1
803 1421 1
812 1421 1
829 1421 1
841 1421 1
970 1421 1
986 1421 1
1428 1421 1
1450 1421 1
784 1422 1
812 1422 1
842 1422 1
859 1422 1
987 1422 1
1000 1422 1
1451 1422 1
1458 1422 1
784 1423 1
785 1423 1
843 1423 1
860 1423 1
988 1423 1
1001 1423 1
1452 1423 1
1459 1423 1
785 1424 1
786 1424 1
844 1424 1
861 1424 1
989 1424 1
1002 1424 1
1453 1424 1
1460 1424 1
786 1425 1
787 1425 1
845 1425 1
862 1425 1
990 1425 1
1003 1425 1
1454 1425 1
1461 1425 1
787 1426 1
788 1426 1
846 1426 1
863 1426 1
991 1426 1
1004 1426 1
1455 1426 1
1462 1426 1
788 1427 1
789 1427 1
847 1427 1
864 1427 1
992 1427 1
1005 1427 1
1456 1427 1
1463 1427 1
789 1428 1
790 1428 1
848 1428 1
865 1428 1
993 1428 1
1006 1428 1
1457 1428 1
1464 1428 1
790 1429 1
791 1429 1
849 1429 1
866 1429 1
994 1429 1
1007 1429 1
1458 1429 1
1465 1429 1
791 1430 1
792 1430 1
850 1430 1
867 1430 1
995 1430 1
1008 1430 1
1459 1430 1
1466 1430 1
792 1431 1
793 1431 1
851 1431 1
868 1431 1
996 1431 1
1009 1431 1
1460 1431 1
1467 1431 1
793 1432 1
794 1432 1
852 1432 1
869 1432 1
997 1432 1
1010 1432 1
1461 1432 1
1468 1432 1
794 1433 1
795 1433 1
853 1433 1
870 1433 1
998 1433 1
1011 1433 1
1462 1433 1
1469 1433 1
795 1434 1
796 1434 1
842 1434 1
854 1434 1
999 1434 1
1012 1434 1
1463 1434 1
1470 1434 1
796 1435 1
797 1435 1
843 1435 1
855 1435 1
1000 1435 1
1013 1435 1
1464 1435 1
1471 1435 1
797 1436 1
798 1436 1
844 1436 1
856 1436 1
1001 1436 1
1014 1436 1
1465 1436 1
1472 1436 1
798 1437 1
799 1437 1
845 1437 1
857 1437 1
1002 1437 1
1015 1437 1
1466 1437 1
1473 1437 1
799 1438 1
800 1438 1
846 1438 1
858 1438 1
987 1438 1
1003 1438 1
1467 1438 1
1474 1438 1
800 1439 1
801 1439 1
847 1439 1
859 1439 1
988 1439 1
1004 1439 1
1468 1439 1
1475 1439 1
801 1440 1
802 1440 1
848 1440 1
860 1440 1
989 1440 1
1005 1440 1
1469 1440 1
1476 1440 1
802 1441 1
803 1441 1
849 1441 1
861 1441 1
990 1441 1
1006 1441 1
1470 1441 1
1477 1441 1
803 1442 1
804 1442 1
850 1442 1
862 1442 1
991 1442 1
1007 1442 1
1471 1442 1
1478 1442 1
804 1443 1
805 1443 1
851 1443 1
863 1443 1
992 1443 1
1008 1443 1
1472 1443 1
1479 1443 1
805 1444 1
806 1444 1
852 1444 1
864 1444 1
993 1444 1
1009 1444 1
1451 1444 1
1473 1444 1
806 1445 1
807 1445 1
853 1445 1
865 1445 1
994 1445 1
1010 1445 1
1452 1445 1
1474 1445 1
807 1446 1
808 1446 1
854 1446 1
866 1446 1
995 1446 1
1011 1446 1
1453 1446 1
1475 1446 1
808 1447 1
809 1447 1
855 1447 1
867 1447 1
996 1447 1
1012 1447 1
1454 1447 1
1476 1447 1
809 1448 1
810 1448 1
856 1448 1
868 1448 1
997 1448 1
1013 1448 1
1455 1448 1
1477 1448 1
810 1449 1
811 1449 1
857 1449 1
869 1449 1
998 1449 1
1014 1449 1
1456 1449 1
1478 1449 1
811 1450 1
812 1450 1
858 1450 1
870 1450 1
999 1450 1
1015 1450 1
1457 1450 1
1479 1450 1
813 1451 1
841 1451 1
842 1451 1
862 1451 1
1016 1451 1
1029 1451 1
1480 1451 1
1487 1451 1
813 1452 1
814 1452 1
843 1452 1
863 1452 1
1017 1452 1
1030 1452 1
1481 1452 1
1488 1452 1
814 1453 1
815 1453 1
844 1453 1
864 1453 1
1018 1453 1
1031 1453 1
1482 1453 1
1489 1453 1
815 1454 1
816 1454 1
845 1454 1
865 1454 1
1019 1454 1
1032 1454 1
1483 1454 1
1490 1454 1
816 1455 1
817 1455 1
846 1455 1
866 1455 1
1020 1455 1
1033 1455 1
1484 1455 1
1491 1455 1
817 1456 1
818 1456 1
847 1456 1
867 1456 1
1021 1456 1
1034 1456 1
1485 1456 1
1492 1456 1
818 1457 1
819 1457 1
848 1457 1
868 1457 1
1022 1457 1
1035 1457 1
1486 1457 1
1493 1457 1
819 1458 1
820 1458 1
849 1458 1
869 1458 1
1023 1458 1
1036 1458 1
1487 1458 1
1494 1458 1
820 1459 1
821 1459 1
850 1459 1
870 1459 1
1024 1459 1
1037 1459 1
1488 1459 1
1495 1459 1
821 1460 1
822 1460 1
842 1460 1
851 1460 1
1025 1460 1
1038 1460 1
1489 1460 1
1496 1460 1
822 1461 1
823 1461 1
843 1461 1
852 1461 1
1026 1461 1
1039 1461 1
1490 1461 1
1497 1461 1
823 1462 1
824 1462 1
844 1462 1
853 1462 1
1027 1462 1
1040 1462 1
1491 1462 1
1498 1462 1
824 1463 1
825 1463 1
845 1463 1
854 1463 1
1028 1463 1
1041 1463 1
1492 1463 1
1499 1463 1
825 1464 1
826 1464 1
846 1464 1
855 1464 1
1029 1464 1
1042 1464 1
1493 1464 1
1500 1464 1
826 1465 1
827 1465 1
847 1465 1
856 1465 1
1030 1465 1
1043 1465 1
1494 1465 1
1501 1465 1
827 1466 1
828 1466 1
848 1466 1
857 1466 1
1031 1466 1
1044 1466 1
1495 1466 1
1502 1466 1
828 1467 1
829 1467 1
849 1467 1
858 1467 1
1016 1467 1
1032 1467 1
1496 1467 1
1503 1467 1
829 1468 1
830 1468 1
850 1468 1
859 1468 1
1017 1468 1
1033 1468 1
1497 1468 1
1504 1468 1
830 1469 1
831 1469 1
851 1469 1
860 1469 1
1018 1469 1
1034 1469 1
1498 1469 1
1505 1469 1
831 1470 1
832 1470 1
852 1470 1
861 1470 1
1019 1470 1
1035 1470 1
1499 1470 1
1506 1470 1
832 1471 1
833 1471 1
853 1471 1
862 1471 1
1020 1471 1
1036 1471 1
1500 1471 1
1507 1471 1
833 1472 1
834 1472 1
854 1472 1
863 1472 1
1021 1472 1
1037 1472 1
1501 1472 1
1508 1472 1
834 1473 1
835 1473 1
855 1473 1
864 1473 1
1022 1473 1
1038 1473 1
1480 1473 1
1502 1473 1
835 1474 1
836 1474 1
856 1474 1
865 1474 1
1023 1474 1
1039 1474 1
1481 1474 1
1503 1474 1
836 1475 1
837 1475 1
857 1475 1
866 1475 1
1024 1475 1
1040 1475 1
1482 1475 1
1504 1475 1
837 1476 1
838 1476 1
858 1476 1
867 1476 1
1025 1476 1
1041 1476 1
1483 1476 1
1505 1476 1
838 1477 1
839 1477 1
859 1477 1
868 1477 1
1026 1477 1
1042 1477 1
1484 1477 1
1506 1477 1
839 1478 1
840 1478 1
860 1478 1
869 1478 1
1027 1478 1
1043 1478 1
1485 1478 1
1507 1478 1
840 1479 1
841 1479 1
861 1479 1
870 1479 1
1028 1479 1
1044 1479 1
1486 1479 1
1508 1479 1
871 1480 1
891 1480 1
900 1480 1
917 1480 1
958 1480 1
972 1480 1
1509 1480 1
1516 1480 1
872 1481 1
892 1481 1
901 1481 1
918 1481 1
959 1481 1
973 1481 1
1510 1481 1
1517 1481 1
873 1482 1
893 1482 1
902 1482 1
919 1482 1
960 1482 1
974 1482 1
1511 1482 1
1518 1482 1
874 1483 1
894 1483 1
903 1483 1
920 1483 1
961 1483 1
975 1483 1
1512 1483 1
1519 1483 1
875 1484 1
895 1484 1
904 1484 1
921 1484 1
962 1484 1
976 1484 1
1513 1484 1
1520 1484 1
876 1485 1
896 1485 1
905 1485 1
922 1485 1
963 1485 1
977 1485 1
1514 1485 1
1521 1485 1
877 1486 1
897 1486 1
906 1486 1
923 1486 1
964 1486 1
978 1486 1
1515 1486 1
1522 1486 1
878 1487 1
898 1487 1
907 1487 1
924 1487 1
965 1487 1
979 1487 1
1516 1487 1
1523 1487 1
879 1488 1
899 1488 1
908 1488 1
925 1488 1
966 1488 1
980 1488 1
1517 1488 1
1524 1488 1
871 1489 1
880 1489 1
909 1489 1
926 1489 1
967 1489 1
981 1489 1
1518 1489 1
1525 1489 1
872 1490 1
881 1490 1
910 1490 1
927 1490 1
968 1490 1
982 1490 1
1519 1490 1
1526 1490 1
873 1491 1
882 1491 1
911 1491 1
928 1491 1
969 1491 1
983 1491 1
1520 1491 1
1527 1491 1
874 1492 1
883 1492 1
900 1492 1
912 1492 1
970 1492 1
984 1492 1
1521 1492 1
1528 1492 1
875 1493 1
884 1493 1
901 1493 1
913 1493 1
971 1493 1
985 1493 1
1522 1493 1
1529 1493 1
876 1494 1
885 1494 1
902 1494 1
914 1494 1
972 1494 1
986 1494 1
1523 1494 1
1530 1494 1
877 1495 1
886 1495 1
903 1495 1
915 1495 1
958 1495 1
973 1495 1
1524 1495 1
1531 1495 1
878 1496 1
887 1496 1
904 1496 1
916 1496 1
959 1496 1
974 1496 1
1525 1496 1
1532 1496 1
879 1497 1
888 1497 1
905 1497 1
917 1497 1
960 1497 1
975 1497 1
1526 1497 1
1533 1497 1
880 1498 1
889 1498 1
906 1498 1
918 1498 1
961 1498 1
976 1498 1
1527 1498 1
1534 1498 1
881 1499 1
890 1499 1
907 1499 1
919 1499 1
962 1499 1
977 1499 1
1528 1499 1
1535 1499 1
882 1500 1
891 1500 1
908 1500 1
920 1500 1
963 1500 1
978 1500 1
1529 1500 1
1536 1500 1
883 1501 1
892 1501 1
909 1501 1
921 1501 1
964 1501 1
979 1501 1
1530 1501 1
1537 1501 1
884 1502 1
893 1502 1
910 1502 1
922 1502 1
965 1502 1
980 1502 1
1509 1502 1
1531 1502 1
885 1503 1
894 1503 1
911 1503 1
923 1503 1
966 1503 1
981 1503 1
1510 1503 1
1532 1503 1
886 1504 1
895 1504 1
912 1504 1
924 1504 1
967 1504 1
982 1504 1
1511 1504 1
1533 1504 1
887 1505 1
896 1505 1
913 1505 1
925 1505 1
968 1505 1
983 1505 1
1512 1505 1
1534 1505 1
888 1506 1
897 1506 1
914 1506 1
926 1506 1
969 1506 1
984 1506 1
1513 1506 1
1535 1506 1
889 1507 1
898 1507 1
915 1507 1
927 1507 1
970 1507 1
985 1507 1
1514 1507 1
1536 1507 1
890 1508 1
899 1508 1
916 1508 1
928 1508 1
971 1508 1
986 1508 1
1515 1508 1
1537 1508 1
871 1509 1
899 1509 1
929 1509 1
946 1509 1
987 1509 1
1001 1509 1
1538 1509 1
1545 1509 1
871 1510 1
872 1510 1
930 1510 1
947 1510 1
988 1510 1
1002 1510 1
1539 1510 1
1546 1510 1
872 1511 1
873 1511 1
931 1511 1
948 1511 1
989 1511 1
1003 1511 1
1540 1511 1
1547 1511 1
873 1512 1
874 1512 1
932 1512 1
949 1512 1
990 1512 1
1004 1512 1
1541 1512 1
1548 1512 1
874 1513 1
875 1513 1
933 1513 1
950 1513 1
991 1513 1
1005 1513 1
1542 1513 1
1549 1513 1
875 1514 1
876 1514 1
934 1514 1
951 1514 1
992 1514 1
1006 1514 1
1543 1514 1
1550 1514 1
876 1515 1
877 1515 1
935 1515 1
952 1515 1
993 1515 1
1007 1515 1
1544 1515 1
1551 1515 1
877 1516 1
878 1516 1
936 1516 1
953 1516 1
994 1516 1
1008 1516 1
1545 1516 1
1552 1516 1
878 1517 1
879 1517 1
937 1517 1
954 1517 1
995 1517 1
1009 1517 1
1546 1517 1
1553 1517 1
879 1518 1
880 1518 1
938 1518 1
955 1518 1
996 1518 1
1010 1518 1
1547 1518 1
1554 1518 1
880 1519 1
881 1519 1
939 1519 1
956 1519 1
997 1519 1
1011 1519 1
1548 1519 1
1555 1519 1
881 1520 1
882 1520 1
940 1520 1
957 1520 1
998 1520 1
1012 1520 1
1549 1520 1
1556 1520 1
882 1521 1
883 1521 1
929 1521 1
941 1521 1
999 1521 1
1013 1521 1
1550 1521 1
1557 1521 1
883 1522 1
884 1522 1
930 1522 1
942 1522 1
1000 1522 1
1014 1522 1
1551 1522 1
1558 1522 1
884 1523 1
885 1523 1
931 1523 1
943 1523 1
1001 1523 1
1015 1523 1
1552 1523 1
1559 1523 1
885 1524 1
886 1524 1
932 1524 1
944 1524 1
987 1524 1
1002 1524 1
1553 1524 1
1560 1524 1
886 1525 1
887 1525 1
933 1525 1
945 1525 1
988 1525 1
1003 1525 1
1554 1525 1
1561 1525 1
887 1526 1
888 1526 1
934 1526 1
946 1526 1
989 1526 1
1004 1526 1
1555 1526 1
1562 1526 1
888 1527 1
889 1527 1
935 1527 1
947 1527 1
990 1527 1
1005 1527 1
1556 1527 1
1563 1527 1
889 1528 1
890 1528 1
936 1528 1
948 1528 1
991 1528 1
1006 1528 1
1557 1528 1
1564 1528 1
890 1529 1
891 1529 1
937 1529 1
949 1529 1
992 1529 1
1007 1529 1
1558 1529 1
1565 1529 1
891 1530 1
892 1530 1
938 1530 1
950 1530 1
993 1530 1
1008 1530 1
1559 1530 1
1566 1530 1
892 1531 1
893 1531 1
939 1531 1
951 1531 1
994 1531 1
1009 1531 1
1538 1531 1
1560 1531 1
893 1532 1
894 1532 1
940 1532 1
952 1532 1
995 1532 1
1010 1532 1
1539 1532 1
1561 1532 1
894 1533 1
895 1533 1
941 1533 1
953 1533 1
996 1533 1
1011 1533 1
1540 1533 1
1562 1533 1
895 1534 1
896 1534 1
942 1534 1
954 1534 1
997 1534 1
1012 1534 1
1541 1534 1
1563 1534 1
896 1535 1
897 1535 1
943 1535 1
955 1535 1
998 1535 1
1013 1535 1
1542 1535 1
1564 1535 1
897 1536 1
898 1536 1
944 1536 1
956 1536 1
999 1536 1
1014 1536 1
1543 1536 1
1565 1536 1
898 1537 1
899 1537 1
945 1537 1
957 1537 1
1000 1537 1
1015 1537 1
1544 1537 1
1566 1537 1
900 1538 1
928 1538 1
929 1538 1
949 1538 1
1016 1538 1
1030 1538 1
1567 1538 1
1574 1538 1
900 1539 1
901 1539 1
930 1539 1
950 1539 1
1017 1539 1
1031 1539 1
1568 1539 1
1575 1539 1
901 1540 1
902 1540 1
931 1540 1
951 1540 1
1018 1540 1
1032 1540 1
1569 1540 1
1576 1540 1
902 1541 1
903 1541 1
932 1541 1
952 1541 1
1019 1541 1
1033 1541 1
1570 1541 1
1577 1541 1
903 1542 1
904 1542 1
933 1542 1
953 1542 1
1020 1542 1
1034 1542 1
1571 1542 1
1578 1542 1
904 1543 1
905 1543 1
934 1543 1
954 1543 1
1021 1543 1
1035 1543 1
1572 1543 1
1579 1543 1
905 1544 1
906 1544 1
935 1544 1
955 1544 1
1022 1544 1
1036 1544 1
1573 1544 1
1580 1544 1
906 1545 1
907 1545 1
936 1545 1
956 1545 1
1023 1545 1
1037 1545 1
1574 1545 1
1581 1545 1
907 1546 1
908 1546 1
937 1546 1
957 1546 1
1024 1546 1
1038 1546 1
1575 1546 1
1582 1546 1
908 1547 1
909 1547 1
929 1547 1
938 1547 1
1025 1547 1
1039 1547 1
1576 1547 1
1583 1547 1
909 1548 1
910 1548 1
930 1548 1
939 1548 1
1026 1548 1
1040 1548 1
1577 1548 1
1584 1548 1
910 1549 1
911 1549 1
931 1549 1
940 1549 1
1027 1549 1
1041 1549 1
1578 1549 1
1585 1549 1
911 1550 1
912 1550 1
932 1550 1
941 1550 1
1028 1550 1
1042 1550 1
1579 1550 1
1586 1550 1
912 1551 1
913 1551 1
933 1551 1
942 1551 1
1029 1551 1
1043 1551 1
1580 1551 1
1587 1551 1
913 1552 1
914 1552 1
934 1552 1
943 1552 1
1030 1552 1
1044 1552 1
1581 1552 1
1588 1552 1
914 1553 1
915 1553 1
935 1553 1
944 1553 1
1016 1553 1
1031 1553 1
1582 1553 1
1589 1553 1
915 1554 1
916 1554 1
936 1554 1
945 1554 1
1017 1554 1
1032 1554 1
1583 1554 1
1590 1554 1
916 1555 1
917 1555 1
937 1555 1
946 1555 1
1018 1555 1
1033 1555 1
1584 1555 1
1591 1555 1
917 1556 1
918 1556 1
938 1556 1
947 1556 1
1019 1556 1
1034 1556 1
1585 1556 1
1592 1556 1
918 1557 1
919 1557 1
939 1557 1
948 1557 1
1020 1557 1
1035 1557 1
1586 1557 1
1593 1557 1
919 1558 1
920 1558 1
940 1558 1
949 1558 1
1021 1558 1
1036 1558 1
1587 1558 1
1594 1558 1
920 1559 1
921 1559 1
941 1559 1
950 1559 1
1022 1559 1
1037 1559 1
1588 1559 1
1595 1559 1
921 1560 1
922 1560 1
942 1560 1
951 1560 1
1023 1560 1
1038 1560 1
1567 1560 1
1589 1560 1
922 1561 1
923 1561 1
943 1561 1
952 1561 1
1024 1561 1
1039 1561 1
1568 1561 1
1590 1561 1
923 1562 1
924 1562 1
944 1562 1
953 1562 1
1025 1562 1
1040 1562 1
1569 1562 1
1591 1562 1
924 1563 1
925 1563 1
945 1563 1
954 1563 1
1026 1563 1
1041 1563 1
1570 1563 1
1592 1563 1
925 1564 1
926 1564 1
946 1564 1
955 1564 1
1027 1564 1
1042 1564 1
1571 1564 1
1593 1564 1
926 1565 1
927 1565 1
947 1565 1
956 1565 1
1028 1565 1
1043 1565 1
1572 1565 1
1594 1565 1
927 1566 1
928 1566 1
948 1566 1
957 1566 1
1029 1566 1
1044 1566 1
1573 1566 1
1595 1566 1
958 1567 1
986 1567 1
987 1567 1
1007 1567 1
1016 1567 1
1033 1567 1
1596 1567 1
1603 1567 1
958 1568 1
959 1568 1
988 1568 1
1008 1568 1
1017 1568 1
1034 1568 1
1597 1568 1
1604 1568 1
959 1569 1
960 1569 1
989 1569 1
1009 1569 1
1018 1569 1
1035 1569 1
1598 1569 1
1605 1569 1
960 1570 1
961 1570 1
990 1570 1
1010 1570 1
1019 1570 1
1036 1570 1
1599 1570 1
1606 1570 1
961 1571 1
962 1571 1
991 1571 1
1011 1571 1
1020 1571 1
1037 1571 1
1600 1571 1
1607 1571 1
962 1572 1
963 1572 1
992 1572 1
1012 1572 1
1021 1572 1
1038 1572 1
1601 1572 1
1608 1572 1
963 1573 1
964 1573 1
993 1573 1
1013 1573 1
1022 1573 1
1039 1573 1
1602 1573 1
1609 1573 1
964 1574 1
965 1574 1
994 1574 1
1014 1574 1
1023 1574 1
1040 1574 1
1603 1574 1
1610 1574 1
965 1575 1
966 1575 1
995 1575 1
1015 1575 1
1024 1575 1
1041 1575 1
1604 1575 1
1611 1575 1
966 1576 1
967 1576 1
987 1576 1
996 1576 1
1025 1576 1
1042 1576 1
1605 1576 1
1612 1576 1
967 1577 1
968 1577 1
988 1577 1
997 1577 1
1026 1577 1
1043 1577 1
1606 1577 1
1613 1577 1
968 1578 1
969 1578 1
989 1578 1
998 1578 1
1027 1578 1
1044 1578 1
1607 1578 1
1614 1578 1
969 1579 1
970 1579 1
990 1579 1
999 1579 1
1016 1579 1
1028 1579 1
1608 1579 1
1615 1579 1
970 1580 1
971 1580 1
991 1580 1
1000 1580 1
1017 1580 1
1029 1580 1
1609 1580 1
1616 1580 1
971 1581 1
972 1581 1
992 1581 1
1001 1581 1
1018 1581 1
1030 1581 1
1610 1581 1
1617 1581 1
972 1582 1
973 1582 1
993 1582 1
1002 1582 1
1019 1582 1
1031 1582 1
1611 1582 1
1618 1582 1
973 1583 1
974 1583 1
994 1583 1
1003 1583 1
1020 1583 1
1032 1583 1
1612 1583 1
1619 1583 1
974 1584 1
975 1584 1
995 1584 1
1004 1584 1
1021 1584 1
1033 1584 1
1613 1584 1
1620 1584 1
975 1585 1
976 1585 1
996 1585 1
1005 1585 1
1022 1585 1
1034 1585 1
1614 1585 1
1621 1585 1
976 1586 1
977 1586 1
997 1586 1
1006 1586 1
1023 1586 1
1035 1586 1
1615 1586 1
1622 1586 1
977 1587 1
978 1587 1
998 1587 1
1007 1587 1
1024 1587 1
1036 1587 1
1616 1587 1
1623 1587 1
978 1588 1
979 1588 1
999 1588 1
1008 1588 1
1025 1588 1
1037 1588 1
1617 1588 1
1624 1588 1
979 1589 1
980 1589 1
1000 1589 1
1009 1589 1
1026 1589 1
1038 1589 1
1596 1589 1
1618 1589 1
980 1590 1
981 1590 1
1001 1590 1
1010 1590 1
1027 1590 1
1039 1590 1
1597 1590 1
1619 1590 1
981 1591 1
982 1591 1
1002 1591 1
1011 1591 1
1028 1591 1
1040 1591 1
1598 1591 1
1620 1591 1
982 1592 1
983 1592 1
1003 1592 1
1012 1592 1
1029 1592 1
1041 1592 1
1599 1592 1
1621 1592 1
983 1593 1
984 1593 1
1004 1593 1
1013 1593 1
1030 1593 1
1042 1593 1
1600 1593 1
1622 1593 1
984 1594 1
985 1594 1
1005 1594 1
1014 1594 1
1031 1594 1
1043 1594 1
1601 1594 1
1623 1594 1
985 1595 1
986 1595 1
1006 1595 1
1015 1595 1
1032 1595 1
1044 1595 1
1602 1595 1
1624 1595 1
1045 1596 1
1062 1596 1
1074 1596 1
1088 1596 1
1161 1596 1
1174 1596 1
1335 1596 1
1346 1596 1
1046 1597 1
1063 1597 1
1075 1597 1
1089 1597 1
1162 1597 1
1175 1597 1
1336 1597 1
1347 1597 1
1047 1598 1
1064 1598 1
1076 1598 1
1090 1598 1
1163 1598 1
1176 1598 1
1337 1598 1
1348 1598 1
1048 1599 1
1065 1599 1
1077 1599 1
1091 1599 1
1164 1599 1
1177 1599 1
1338 1599 1
1349 1599 1
1049 1600 1
1066 1600 1
1078 1600 1
1092 1600 1
1165 1600 1
1178 1600 1
1339 1600 1
1350 1600 1
1050 1601 1
1067 1601 1
1079 1601 1
1093 1601 1
1166 1601 1
1179 1601 1
1340 1601 1
1351 1601 1
1051 1602 1
1068 1602 1
1080 1602 1
1094 1602 1
1167 1602 1
1180 1602 1
1341 1602 1
1352 1602 1
1052 1603 1
1069 1603 1
1081 1603 1
1095 1603 1
1168 1603 1
1181 1603 1
1342 1603 1
1353 1603 1
1053 1604 1
1070 1604 1
1082 1604 1
1096 1604 1
1169 1604 1
1182 1604 1
1343 1604 1
1354 1604 1
1054 1605 1
1071 1605 1
1083 1605 1
1097 1605 1
1170 1605 1
1183 1605 1
1344 1605 1
1355 1605 1
1055 1606 1
1072 1606 1
1084 1606 1
1098 1606 1
1171 1606 1
1184 1606 1
1345 1606 1
1356 1606 1
1056 1607 1
1073 1607 1
1085 1607 1
1099 1607 1
1172 1607 1
1185 1607 1
1346 1607 1
1357 1607 1
1045 1608 1
1057 1608 1
1086 1608 1
1100 1608 1
1173 1608 1
1186 1608 1
1347 1608 1
1358 1608 1
1046 1609 1
1058 1609 1
1087 1609 1
1101 1609 1
1174 1609 1
1187 1609 1
1348 1609 1
1359 1609 1
1047 1610 1
1059 1610 1
1088 1610 1
1102 1610 1
1175 1610 1
1188 1610 1
1349 1610 1
1360 1610 1
1048 1611 1
1060 1611 1
1074 1611 1
1089 1611 1
1176 1611 1
1189 1611 1
1350 1611 1
1361 1611 1
1049 1612 1
1061 1612 1
1075 1612 1
1090 1612 1
1161 1612 1
1177 1612 1
1351 1612 1
1362 1612 1
1050 1613 1
1062 1613 1
1076 1613 1
1091 1613 1
1162 1613 1
1178 1613 1
1352 1613 1
1363 1613 1
1051 1614 1
1063 1614 1
1077 1614 1
1092 1614 1
1163 1614 1
1179 1614 1
1335 1614 1
1353 1614 1
1052 1615 1
1064 1615 1
1078 1615 1
1093 1615 1
1164 1615 1
1180 1615 1
1336 1615 1
1354 1615 1
1053 1616 1
1065 1616 1
1079 1616 1
1094 1616 1
1165 1616 1
1181 1616 1
1337 1616 1
1355 1616 1
1054 1617 1
1066 1617 1
1080 1617 1
1095 1617 1
1166 1617 1
1182 1617 1
1338 1617 1
1356 1617 1
1055 1618 1
1067 1618 1
1081 1618 1
1096 1618 1
1167 1618 1
1183 1618 1
1339 1618 1
1357 1618 1
1056 1619 1
1068 1619 1
1082 1619 1
1097 1619 1
1168 1619 1
1184 1619 1
1340 1619 1
1358 1619 1
1057 1620 1
1069 1620 1
1083 1620 1
1098 1620 1
1169 1620 1
1185 1620 1
1341 1620 1
1359 1620 1
1058 1621 1
1070 1621 1
1084 1621 1
1099 1621 1
1170 1621 1
1186 1621 1
1342 1621 1
1360 1621 1
1059 1622 1
1071 1622 1
1085 1622 1
1100 1622 1
1171 1622 1
1187 1622 1
1343 1622 1
1361 1622 1
1060 1623 1
1072 1623 1
1086 1623 1
1101 1623 1
1172 1623 1
1188 1623 1
1344 1623 1
1362 1623 1
1061 1624 1
1073 1624 1
1087 1624 1
1102 1624 1
1173 1624 1
1189 1624 1
1345 1624 1
1363 1624 1
1045 1625 1
1065 1625 1
1103 1625 1
1117 1625 1
1190 1625 1
1203 1625 1
1364 1625 1
1375 1625 1
1046 1626 1
1066 1626 1
1104 1626 1
1118 1626 1
1191 1626 1
1204 1626 1
1365 1626 1
1376 1626 1
1047 1627 1
1067 1627 1
1105 1627 1
1119 1627 1
1192 1627 1
1205 1627 1
1366 1627 1
1377 1627 1
1048 1628 1
1068 1628 1
1106 1628 1
1120 1628 1
1193 1628 1
1206 1628 1
1367 1628 1
1378 1628 1
1049 1629 1
1069 1629 1
1107 1629 1
1121 1629 1
1194 1629 1
1207 1629 1
1368 1629 1
1379 1629 1
1050 1630 1
1070 1630 1
1108 1630 1
1122 1630 1
1195 1630 1
1208 1630 1
1369 1630 1
1380 1630 1
1051 1631 1
1071 1631 1
1109 1631 1
1123 1631 1
1196 1631 1
1209 1631 1
1370 1631 1
1381 1631 1
1052 1632 1
1072 1632 1
1110 1632 1
1124 1632 1
1197 1632 1
1210 1632 1
1371 1632 1
1382 1632 1
1053 1633 1
1073 1633 1
1111 1633 1
1125 1633 1
1198 1633 1
1211 1633 1
1372 1633 1
1383 1633 1
1045 1634 1
1054 1634 1
1112 1634 1
1126 1634 1
1199 1634 1
1212 1634 1
1373 1634 1
1384 1634 1
1046 1635 1
1055 1635 1
1113 1635 1
1127 1635 1
1200 1635 1
1213 1635 1
1374 1635 1
1385 1635 1
1047 1636 1
1056 1636 1
1114 1636 1
1128 1636 1
1201 1636 1
1214 1636 1
1375 1636 1
1386 1636 1
1048 1637 1
1057 1637 1
1115 1637 1
1129 1637 1
1202 1637 1
1215 1637 1
1376 1637 1
1387 1637 1
1049 1638 1
1058 1638 1
1116 1638 1
1130 1638 1
1203 1638 1
1216 1638 1
1377 1638 1
1388 1638 1
1050 1639 1
1059 1639 1
1117 1639 1
1131 1639 1
1204 1639 1
1217 1639 1
1378 1639 1
1389 1639 1
1051 1640 1
1060 1640 1
1103 1640 1
1118 1640 1
1205 1640 1
1218 1640 1
1379 1640 1
1390 1640 1
1052 1641 1
1061 1641 1
1104 1641 1
1119 1641 1
1190 1641 1
1206 1641 1
1380 1641 1
1391 1641 1
1053 1642 1
1062 1642 1
1105 1642 1
1120 1642 1
1191 1642 1
1207 1642 1
1381 1642 1
1392 1642 1
1054 1643 1
1063 1643 1
1106 1643 1
1121 1643 1
1192 1643 1
1208 1643 1
1364 1643 1
1382 1643 1
1055 1644 1
1064 1644 1
1107 1644 1
1122 1644 1
1193 1644 1
1209 1644 1
1365 1644 1
1383 1644 1
1056 1645 1
1065 1645 1
1108 1645 1
1123 1645 1
1194 1645 1
1210 1645 1
1366 1645 1
1384 1645 1
1057 1646 1
1066 1646 1
1109 1646 1
1124 1646 1
1195 1646 1
1211 1646 1
1367 1646 1
1385 1646 1
1058 1647 1
1067 1647 1
1110 1647 1
1125 1647 1
1196 1647 1
1212 1647 1
1368 1647 1
1386 1647 1
1059 1648 1
1068 1648 1
1111 1648 1
1126 1648 1
1197 1648 1
1213 1648 1
1369 1648 1
1387 1648 1
1060 1649 1
1069 1649 1
1112 1649 1
1127 1649 1
1198 1649 1
1214 1649 1
1370 1649 1
1388 1649 1
1061 1650 1
1070 1650 1
1113 1650 1
1128 1650 1
1199 1650 1
1215 1650 1
1371 1650 1
1389 1650 1
1062 1651 1
1071 1651 1
1114 1651 1
1129 1651 1
1200 1651 1
1216 1651 1
1372 1651 1
1390 1651 1
1063 1652 1
1072 1652 1
1115 1652 1
1130 1652 1
1201 1652 1
1217 1652 1
1373 1652 1
1391 1652 1
1064 1653 1
1073 1653 1
1116 1653 1
1131 1653 1
1202 1653 1
1218 1653 1
1374 1653 1
1392 1653 1
1045 1654 1
1073 1654 1
1132 1654 1
1146 1654 1
1219 1654 1
1232 1654 1
1393 1654 1
1404 1654 1
1045 1655 1
1046 1655 1
1133 1655 1
1147 1655 1
1220 1655 1
1233 1655 1
1394 1655 1
1405 1655 1
1046 1656 1
1047 1656 1
1134 1656 1
1148 1656 1
1221 1656 1
1234 1656 1
1395 1656 1
1406 1656 1
1047 1657 1
1048 1657 1
1135 1657 1
1149 1657 1
1222 1657 1
1235 1657 1
1396 1657 1
1407 1657 1
1048 1658 1
1049 1658 1
1136 1658 1
1150 1658 1
1223 1658 1
1236 1658 1
1397 1658 1
1408 1658 1
1049 1659 1
1050 1659 1
1137 1659 1
1151 1659 1
1224 1659 1
1237 1659 1
1398 1659 1
1409 1659 1
1050 1660 1
1051 1660 1
1138 1660 1
1152 1660 1
1225 1660 1
1238 1660 1
1399 1660 1
1410 1660 1
1051 1661 1
1052 1661 1
1139 1661 1
1153 1661 1
1226 1661 1
1239 1661 1
1400 1661 1
1411 1661 1
1052 1662 1
1053 1662 1
1140 1662 1
1154 1662 1
1227 1662 1
1240 1662 1
1401 1662 1
1412 1662 1
1053 1663 1
1054 1663 1
1141 1663 1
1155 1663 1
1228 1663 1
1241 1663 1
1402 1663 1
1413 1663 1
1054 1664 1
1055 1664 1
1142 1664 1
1156 1664 1
1229 1664 1
1242 1664 1
1403 1664 1
1414 1664 1
1055 1665 1
1056 1665 1
1143 1665 1
1157 1665 1
1230 1665 1
1243 1665 1
1404 1665 1
1415 1665 1
1056 1666 1
1057 1666 1
1144 1666 1
1158 1666 1
1231 1666 1
1244 1666 1
1405 1666 1
1416 1666 1
1057 1667 1
1058 1667 1
1145 1667 1
1159 1667 1
1232 1667 1
1245 1667 1
1406 1667 1
1417 1667 1
1058 1668 1
1059 1668 1
1146 1668 1
1160 1668 1
1233 1668 1
1246 1668 1
1407 1668 1
1418 1668 1
1059 1669 1
1060 1669 1
1132 1669 1
1147 1669 1
1234 1669 1
1247 1669 1
1408 1669 1
1419 1669 1
1060 1670 1
1061 1670 1
1133 1670 1
1148 1670 1
1219 1670 1
1235 1670 1
1409 1670 1
1420 1670 1
1061 1671 1
1062 1671 1
1134 1671 1
1149 1671 1
1220 1671 1
1236 1671 1
1410 1671 1
1421 1671 1
1062 1672 1
1063 1672 1
1135 1672 1
1150 1672 1
1221 1672 1
1237 1672 1
1393 1672 1
1411 1672 1
1063 1673 1
1064 1673 1
1136 1673 1
1151 1673 1
1222 1673 1
1238 1673 1
1394 1673 1
1412 1673 1
1064 1674 1
1065 1674 1
1137 1674 1
1152 1674 1
1223 1674 1
1239 1674 1
1395 1674 1
1413 1674 1
1065 1675 1
1066 1675 1
1138 1675 1
1153 1675 1
1224 1675 1
1240 1675 1
1396 1675 1
1414 1675 1
1066 1676 1
1067 1676 1
1139 1676 1
1154 1676 1
1225 1676 1
1241 1676 1
1397 1676 1
1415 1676 1
1067 1677 1
1068 1677 1
1140 1677 1
1155 1677 1
1226 1677 1
1242 1677 1
1398 1677 1
1416 1677 1
1068 1678 1
1069 1678 1
1141 1678 1
1156 1678 1
1227 1678 1
1243 1678 1
1399 1678 1
1417 1678 1
1069 1679 1
1070 1679 1
1142 1679 1
1157 1679 1
1228 1679 1
1244 1679 1
1400 1679 1
1418 1679 1
1070 1680 1
1071 1680 1
1143 1680 1
1158 1680 1
1229 1680 1
1245 1680 1
1401 1680 1
1419 1680 1
1071 1681 1
1072 1681 1
1144 1681 1
1159 1681 1
1230 1681 1
1246 1681 1
1402 1681 1
1420 1681 1
1072 1682 1
1073 1682 1
1145 1682 1
1160 1682 1
1231 1682 1
1247 1682 1
1403 1682 1
1421 1682 1
1074 1683 1
1094 1683 1
1103 1683 1
1120 1683 1
1248 1683 1
1261 1683 1
1422 1683 1
1433 1683 1
1075 1684 1
1095 1684 1
1104 1684 1
1121 1684 1
1249 1684 1
1262 1684 1
1423 1684 1
1434 1684 1
1076 1685 1
1096 1685 1
1105 1685 1
1122 1685 1
1250 1685 1
1263 1685 1
1424 1685 1
1435 1685 1
1077 1686 1
1097 1686 1
1106 1686 1
1123 1686 1
1251 1686 1
1264 1686 1
1425 1686 1
1436 1686 1
1078 1687 1
1098 1687 1
1107 1687 1
1124 1687 1
1252 1687 1
1265 1687 1
1426 1687 1
1437 1687 1
1079 1688 1
1099 1688 1
1108 1688 1
1125 1688 1
1253 1688 1
1266 1688 1
1427 1688 1
1438 1688 1
1080 1689 1
1100 1689 1
1109 1689 1
1126 1689 1
1254 1689 1
1267 1689 1
1428 1689 1
1439 1689 1
1081 1690 1
1101 1690 1
1110 1690 1
1127 1690 1
1255 1690 1
1268 1690 1
1429 1690 1
1440 1690 1
1082 1691 1
1102 1691 1
1111 1691 1
1128 1691 1
1256 1691 1
1269 1691 1
1430 1691 1
1441 1691 1
1074 1692 1
1083 1692 1
1112 1692 1
1129 1692 1
1257 1692 1
1270 1692 1
1431 1692 1
1442 1692 1
1075 1693 1
1084 1693 1
1113 1693 1
1130 1693 1
1258 1693 1
1271 1693 1
1432 1693 1
1443 1693 1
1076 1694 1
1085 1694 1
1114 1694 1
1131 1694 1
1259 1694 1
1272 1694 1
1433 1694 1
1444 1694 1
1077 1695 1
1086 1695 1
1103 1695 1
1115 1695 1
1260 1695 1
1273 1695 1
1434 1695 1
1445 1695 1
1078 1696 1
1087 1696 1
1104 1696 1
1116 1696 1
1261 1696 1
1274 1696 1
1435 1696 1
1446 1696 1
1079 1697 1
1088 1697 1
1105 1697 1
1117 1697 1
1262 1697 1
1275 1697 1
1436 1697 1
1447 1697 1
1080 1698 1
1089 1698 1
1106 1698 1
1118 1698 1
1263 1698 1
1276 1698 1
1437 1698 1
1448 1698 1
1081 1699 1
1090 1699 1
1107 1699 1
1119 1699 1
1248 1699 1
1264 1699 1
1438 1699 1
1449 1699 1
1082 1700 1
1091 1700 1
1108 1700 1
1120 1700 1
1249 1700 1
1265 1700 1
1439 1700 1
1450 1700 1
1083 1701 1
1092 1701 1
1109 1701 1
1121 1701 1
1250 1701 1
1266 1701 1
1422 1701 1
1440 1701 1
1084 1702 1
1093 1702 1
1110 1702 1
1122 1702 1
1251 1702 1
1267 1702 1
1423 1702 1
1441 1702 1
1085 1703 1
1094 1703 1
1111 1703 1
1123 1703 1
1252 1703 1
1268 1703 1
1424 1703 1
1442 1703 1
1086 1704 1
1095 1704 1
1112 1704 1
1124 1704 1
1253 1704 1
1269 1704 1
1425 1704 1
1443 1704 1
1087 1705 1
1096 1705 1
1113 1705 1
1125 1705 1
1254 1705 1
1270 1705 1
1426 1705 1
1444 1705 1
1088 1706 1
1097 1706 1
1114 1706 1
1126 1706 1
1255 1706 1
1271 1706 1
1427 1706 1
1445 1706 1
1089 1707 1
1098 1707 1
1115 1707 1
1127 1707 1
1256 1707 1
1272 1707 1
1428 1707 1
1446 1707 1
1090 1708 1
1099 1708 1
1116 1708 1
1128 1708 1
1257 1708 1
1273 1708 1
1429 1708 1
1447 1708 1
1091 1709 1
1100 1709 1
1117 1709 1
1129 1709 1
1258 1709 1
1274 1709 1
1430 1709 1
1448 1709 1
1092 1710 1
1101 1710 1
1118 1710 1
1130 1710 1
1259 1710 1
1275 1710 1
1431 1710 1
1449 1710 1
1093 1711 1
1102 1711 1
1119 1711 1
1131 1711 1
1260 1711 1
1276 1711 1
1432 1711 1
1450 1711 1
1074 1712 1
1102 1712 1
1132 1712 1
1149 1712 1
1277 1712 1
1290 1712 1
1451 1712 1
1462 1712 1
1074 1713 1
1075 1713 1
1133 1713 1
1150 1713 1
1278 1713 1
1291 1713 1
1452 1713 1
1463 1713 1
1075 1714 1
1076 1714 1
1134 1714 1
1151 1714 1
1279 1714 1
1292 1714 1
1453 1714 1
1464 1714 1
1076 1715 1
1077 1715 1
1135 1715 1
1152 1715 1
1280 1715 1
1293 1715 1
1454 1715 1
1465 1715 1
1077 1716 1
1078 1716 1
1136 1716 1
1153 1716 1
1281 1716 1
1294 1716 1
1455 1716 1
1466 1716 1
1078 1717 1
1079 1717 1
1137 1717 1
1154 1717 1
1282 1717 1
1295 1717 1
1456 1717 1
1467 1717 1
1079 1718 1
1080 1718 1
1138 1718 1
1155 1718 1
1283 1718 1
1296 1718 1
1457 1718 1
1468 1718 1
1080 1719 1
1081 1719 1
1139 1719 1
1156 1719 1
1284 1719 1
1297 1719 1
1458 1719 1
1469 1719 1
1081 1720 1
1082 1720 1
1140 1720 1
1157 1720 1
1285 1720 1
1298 1720 1
1459 1720 1
1470 1720 1
1082 1721 1
1083 1721 1
1141 1721 1
1158 1721 1
1286 1721 1
1299 1721 1
1460 1721 1
1471 1721 1
1083 1722 1
1084 1722 1
1142 1722 1
1159 1722 1
1287 1722 1
1300 1722 1
1461 1722 1
1472 1722 1
1084 1723 1
1085 1723 1
1143 1723 1
1160 1723 1
1288 1723 1
1301 1723 1
1462 1723 1
1473 1723 1
1085 1724 1
1086 1724 1
1132 1724 1
1144 1724 1
1289 1724 1
1302 1724 1
1463 1724 1
1474 1724 1
1086 1725 1
1087 1725 1
1133 1725 1
1145 1725 1
1290 1725 1
1303 1725 1
1464 1725 1
1475 1725 1
1087 1726 1
1088 1726 1
1134 1726 1
1146 1726 1
1291 1726 1
1304 1726 1
1465 1726 1
1476 1726 1
1088 1727 1
1089 1727 1
1135 1727 1
1147 1727 1
1292 1727 1
1305 1727 1
1466 1727 1
1477 1727 1
1089 1728 1
1090 1728 1
1136 1728 1
1148 1728 1
1277 1728 1
1293 1728 1
1467 1728 1
1478 1728 1
1090 1729 1
1091 1729 1
1137 1729 1
1149 1729 1
1278 1729 1
1294 1729 1
1468 1729 1
1479 1729 1
1091 1730 1
1092 1730 1
1138 1730 1
1150 1730 1
1279 1730 1
1295 1730 1
1451 1730 1
1469 1730 1
1092 1731 1
1093 1731 1
1139 1731 1
1151 1731 1
1280 1731 1
1296 1731 1
1452 1731 1
1470 1731 1
1093 1732 1
1094 1732 1
1140 1732 1
1152 1732 1
1281 1732 1
1297 1732 1
1453 1732 1
1471 1732 1
1094 1733 1
1095 1733 1
1141 1733 1
1153 1733 1
1282 1733 1
1298 1733 1
1454 1733 1
1472 1733 1
1095 1734 1
1096 1734 1
1142 1734 1
1154 1734 1
1283 1734 1
1299 1734 1
1455 1734 1
1473 1734 1
1096 1735 1
1097 1735 1
1143 1735 1
1155 1735 1
1284 1735 1
1300 1735 1
1456 1735 1
1474 1735 1
1097 1736 1
1098 1736 1
1144 1736 1
1156 1736 1
1285 1736 1
1301 1736 1
1457 1736 1
1475 1736 1
1098 1737 1
1099 1737 1
1145 1737 1
1157 1737 1
1286 1737 1
1302 1737 1
1458 1737 1
1476 1737 1
1099 1738 1
1100 1738 1
1146 1738 1
1158 1738 1
1287 1738 1
1303 1738 1
1459 1738 1
1477 1738 1
1100 1739 1
1101 1739 1
1147 1739 1
1159 1739 1
1288 1739 1
1304 1739 1
1460 1739 1
1478 1739 1
1101 1740 1
1102 1740 1
1148 1740 1
1160 1740 1
1289 1740 1
1305 1740 1
1461 1740 1
1479 1740 1
1103 1741 1
1131 1741 1
1132 1741 1
1152 1741 1
1306 1741 1
1319 1741 1
1480 1741 1
1491 1741 1
1103 1742 1
1104 1742 1
1133 1742 1
1153 1742 1
1307 1742 1
1320 1742 1
1481 1742 1
1492 1742 1
1104 1743 1
1105 1743 1
1134 1743 1
1154 1743 1
1308 1743 1
1321 1743 1
1482 1743 1
1493 1743 1
1105 1744 1
1106 1744 1
1135 1744 1
1155 1744 1
1309 1744 1
1322 1744 1
1483 1744 1
1494 1744 1
1106 1745 1
1107 1745 1
1136 1745 1
1156 1745 1
1310 1745 1
1323 1745 1
1484 1745 1
1495 1745 1
1107 1746 1
1108 1746 1
1137 1746 1
1157 1746 1
1311 1746 1
1324 1746 1
1485 1746 1
1496 1746 1
1108 1747 1
1109 1747 1
1138 1747 1
1158 1747 1
1312 1747 1
1325 1747 1
1486 1747 1
1497 1747 1
1109 1748 1
1110 1748 1
1139 1748 1
1159 1748 1
1313 1748 1
1326 1748 1
1487 1748 1
1498 1748 1
1110 1749 1
1111 1749 1
1140 1749 1
1160 1749 1
1314 1749 1
1327 1749 1
1488 1749 1
1499 1749 1
1111 1750 1
1112 1750 1
1132 1750 1
1141 1750 1
1315 1750 1
1328 1750 1
1489 1750 1
1500 1750 1
1112 1751 1
1113 1751 1
1133 1751 1
1142 1751 1
1316 1751 1
1329 1751 1
1490 1751 1
1501 1751 1
1113 1752 1
1114 1752 1
1134 1752 1
1143 1752 1
1317 1752 1
1330 1752 1
1491 1752 1
1502 1752 1
1114 1753 1
1115 1753 1
1135 1753 1
1144 1753 1
1318 1753 1
1331 1753 1
1492 1753 1
1503 1753 1
1115 1754 1
1116 1754 1
1136 1754 1
1145 1754 1
1319 1754 1
1332 1754 1
1493 1754 1
1504 1754 1
1116 1755 1
1117 1755 1
1137 1755 1
1146 1755 1
1320 1755 1
1333 1755 1
1494 1755 1
1505 1755 1
1117 1756 1
1118 1756 1
1138 1756 1
1147 1756 1
1321 1756 1
1334 1756 1
1495 1756 1
1506 1756 1
1118 1757 1
1119 1757 1
1139 1757 1
1148 1757 1
1306 1757 1
1322 1757 1
1496 1757 1
1507 1757 1
1119 1758 1
1120 1758 1
1140 1758 1
1149 1758 1
1307 1758 1
1323 1758 1
1497 1758 1
1508 1758 1
1120 1759 1
1121 1759 1
1141 1759 1
1150 1759 1
1308 1759 1
1324 1759 1
1480 1759 1
1498 1759 1
1121 1760 1
1122 1760 1
1142 1760 1
1151 1760 1
1309 1760 1
1325 1760 1
1481 1760 1
1499 1760 1
1122 1761 1
1123 1761 1
1143 1761 1
1152 1761 1
1310 1761 1
1326 1761 1
1482 1761 1
1500 1761 1
1123 1762 1
1124 1762 1
1144 1762 1
1153 1762 1
1311 1762 1
1327 1762 1
1483 1762 1
1501 1762 1
1124 1763 1
1125 1763 1
1145 1763 1
1154 1763 1
1312 1763 1
1328 1763 1
1484 1763 1
1502 1763 1
1125 1764 1
1126 1764 1
1146 1764 1
1155 1764 1
1313 1764 1
1329 1764 1
1485 1764 1
1503 1764 1
1126 1765 1
1127 1765 1
1147 1765 1
1156 1765 1
1314 1765 1
1330 1765 1
1486 1765 1
1504 1765 1
1127 1766 1
1128 1766 1
1148 1766 1
1157 1766 1
1315 1766 1
1331 1766 1
1487 1766 1
1505 1766 1
1128 1767 1
1129 1767 1
1149 1767 1
1158 1767 1
1316 1767 1
1332 1767 1
1488 1767 1
1506 1767 1
1129 1768 1
1130 1768 1
1150 1768 1
1159 1768 1
1317 1768 1
1333 1768 1
1489 1768 1
1507 1768 1
1130 1769 1
1131 1769 1
1151 1769 1
1160 1769 1
1318 1769 1
1334 1769 1
1490 1769 1
1508 1769 1
1161 1770 1
1181 1770 1
1190 1770 1
1207 1770 1
1248 1770 1
1262 1770 1
1509 1770 1
1520 1770 1
1162 1771 1
1182 1771 1
1191 1771 1
1208 1771 1
1249 1771 1
1263 1771 1
1510 1771 1
1521 1771 1
1163 1772 1
1183 1772 1
1192 1772 1
1209 1772 1
1250 1772 1
1264 1772 1
1511 1772 1
1522 1772 1
1164 1773 1
1184 1773 1
1193 1773 1
1210 1773 1
1251 1773 1
1265 1773 1
1512 1773 1
1523 1773 1
1165 1774 1
1185 1774 1
1194 1774 1
1211 1774 1
1252 1774 1
1266 1774 1
1513 1774 1
1524 1774 1
1166 1775 1
1186 1775 1
1195 1775 1
1212 1775 1
1253 1775 1
1267 1775 1
1514 1775 1
1525 1775 1
1167 1776 1
1187 1776 1
1196 1776 1
1213 1776 1
1254 1776 1
1268 1776 1
1515 1776 1
1526 1776 1
1168 1777 1
1188 1777 1
1197 1777 1
1214 1777 1
1255 1777 1
1269 1777 1
1516 1777 1
1527 1777 1
1169 1778 1
1189 1778 1
1198 1778 1
1215 1778 1
1256 1778 1
1270 1778 1
1517 1778 1
1528 1778 1
1161 1779 1
1170 1779 1
1199 1779 1
1216 1779 1
1257 1779 1
1271 1779 1
1518 1779 1
1529 1779 1
1162 1780 1
1171 1780 1
1200 1780 1
1217 1780 1
1258 1780 1
1272 1780 1
1519 1780 1
1530 1780 1
1163 1781 1
1172 1781 1
1201 1781 1
1218 1781 1
1259 1781 1
1273 1781 1
1520 1781 1
1531 1781 1
1164 1782 1
1173 1782 1
1190 1782 1
1202 1782 1
1260 1782 1
1274 1782 1
1521 1782 1
1532 1782 1
1165 1783 1
1174 1783 1
1191 1783 1
1203 1783 1
1261 1783 1
1275 1783 1
1522 1783 1
1533 1783 1
1166 1784 1
1175 1784 1
1192 1784 1
1204 1784 1
1262 1784 1
1276 1784 1
1523 1784 1
1534 1784 1
1167 1785 1
1176 1785 1
1193 1785 1
1205 1785 1
1248 1785 1
1263 1785 1
1524 1785 1
1535 1785 1
1168 1786 1
1177 1786 1
1194 1786 1
1206 1786 1
1249 1786 1
1264 1786 1
1525 1786 1
1536 1786 1
1169 1787 1
1178 1787 1
1195 1787 1
1207 1787 1
1250 1787 1
1265 1787 1
1526 1787 1
1537 1787 1
1170 1788 1
1179 1788 1
1196 1788 1
1208 1788 1
1251 1788 1
1266 1788 1
1509 1788 1
1527 1788 1
1171 1789 1
1180 1789 1
1197 1789 1
1209 1789 1
1252 1789 1
1267 1789 1
1510 1789 1
1528 1789 1
1172 1790 1
1181 1790 1
1198 1790 1
1210 1790 1
1253 1790 1
1268 1790 1
1511 1790 1
1529 1790 1
1173 1791 1
1182 1791 1
1199 1791 1
1211 1791 1
1254 1791 1
1269 1791 1
1512 1791 1
1530 1791 1
1174 1792 1
1183 1792 1
1200 1792 1
1212 1792 1
1255 1792 1
1270 1792 1
1513 1792 1
1531 1792 1
1175 1793 1
1184 1793 1
1201 1793 1
1213 1793 1
1256 1793 1
1271 1793 1
1514 1793 1
1532 1793 1
1176 1794 1
1185 1794 1
1202 1794 1
1214 1794 1
1257 1794 1
1272 1794 1
1515 1794 1
1533 1794 1
1177 1795 1
1186 1795 1
1203 1795 1
1215 1795 1
1258 1795 1
1273 1795 1
1516 1795 1
1534 1795 1
1178 1796 1
1187 1796 1
1204 1796 1
1216 1796 1
1259 1796 1
1274 1796 1
1517 1796 1
1535 1796 1
1179 1797 1
1188 1797 1
1205 1797 1
1217 1797 1
1260 1797 1
1275 1797 1
1518 1797 1
1536 1797 1
1180 1798 1
1189 1798 1
1206 1798 1
1218 1798 1
1261 1798 1
1276 1798 1
1519 1798 1
1537 1798 1
1161 1799 1
1189 1799 1
1219 1799 1
1236 1799 1
1277 1799 1
1291 1799 1
1538 1799 1
1549 1799 1
1161 1800 1
1162 1800 1
1220 1800 1
1237 1800 1
1278 1800 1
1292 1800 1
1539 1800 1
1550 1800 1
1162 1801 1
1163 1801 1
1221 1801 1
1238 1801 1
1279 1801 1
1293 1801 1
1540 1801 1
1551 1801 1
1163 1802 1
1164 1802 1
1222 1802 1
1239 1802 1
1280 1802 1
1294 1802 1
1541 1802 1
1552 1802 1
1164 1803 1
1165 1803 1
1223 1803 1
1240 1803 1
1281 1803 1
1295 1803 1
1542 1803 1
1553 1803 1
1165 1804 1
1166 1804 1
1224 1804 1
1241 1804 1
1282 1804 1
1296 1804 1
1543 1804 1
1554 1804 1
1166 1805 1
1167 1805 1
1225 1805 1
1242 1805 1
1283 1805 1
1297 1805 1
1544 1805 1
1555 1805 1
1167 1806 1
1168 1806 1
1226 1806 1
1243 1806 1
1284 1806 1
1298 1806 1
1545 1806 1
1556 1806 1
1168 1807 1
1169 1807 1
1227 1807 1
1244 1807 1
1285 1807 1
1299 1807 1
1546 1807 1
1557 1807 1
1169 1808 1
1170 1808 1
1228 1808 1
1245 1808 1
1286 1808 1
1300 1808 1
1547 1808 1
1558 1808 1
1170 1809 1
1171 1809 1
1229 1809 1
1246 1809 1
1287 1809 1
1301 1809 1
1548 1809 1
1559 1809 1
1171 1810 1
1172 1810 1
1230 1810 1
1247 1810 1
1288 1810 1
1302 1810 1
1549 1810 1
1560 1810 1
1172 1811 1
1173 1811 1
1219 1811 1
1231 1811 1
1289 1811 1
1303 1811 1
1550 1811 1
1561 1811 1
1173 1812 1
1174 1812 1
1220 1812 1
1232 1812 1
1290 1812 1
1304 1812 1
1551 1812 1
1562 1812 1
1174 1813 1
1175 1813 1
1221 1813 1
1233 1813 1
1291 1813 1
1305 1813 1
1552 1813 1
1563 1813 1
1175 1814 1
1176 1814 1
1222 1814 1
1234 1814 1
1277 1814 1
1292 1814 1
1553 1814 1
1564 1814 1
1176 1815 1
1177 1815 1
1223 1815 1
1235 1815 1
1278 1815 1
1293 1815 1
1554 1815 1
1565 1815 1
1177 1816 1
1178 1816 1
1224 1816 1
1236 1816 1
1279 1816 1
1294 1816 1
1555 1816 1
1566 1816 1
1178 1817 1
1179 1817 1
1225 1817 1
1237 1817 1
1280 1817 1
1295 1817 1
1538 1817 1
1556 1817 1
1179 1818 1
1180 1818 1
1226 1818 1
1238 1818 1
1281 1818 1
1296 1818 1
1539 1818 1
1557 1818 1
1180 1819 1
1181 1819 1
1227 1819 1
1239 1819 1
1282 1819 1
1297 1819 1
1540 1819 1
1558 1819 1
1181 1820 1
1182 1820 1
1228 1820 1
1240 1820 1
1283 1820 1
1298 1820 1
1541 1820 1
1559 1820 1
1182 1821 1
1183 1821 1
1229 1821 1
1241 1821 1
1284 1821 1
1299 1821 1
1542 1821 1
1560 1821 1
1183 1822 1
1184 1822 1
1230 1822 1
1242 1822 1
1285 1822 1
1300 1822 1
1543 1822 1
1561 1822 1
1184 1823 1
1185 1823 1
1231 1823 1
1243 1823 1
1286 1823 1
1301 1823 1
1544 1823 1
1562 1823 1
1185 1824 1
1186 1824 1
1232 1824 1
1244 1824 1
1287 1824 1
1302 1824 1
1545 1824 1
1563 1824 1
1186 1825 1
1187 1825 1
1233 1825 1
1245 1825 1
1288 1825 1
1303 1825 1
1546 1825 1
1564 1825 1
1187 1826 1
1188 1826 1
1234 1826 1
1246 1826 1
1289 1826 1
1304 1826 1
1547 1826 1
1565 1826 1
1188 1827 1
1189 1827 1
1235 1827 1
1247 1827 1
1290 1827 1
1305 1827 1
1548 1827 1
1566 1827 1
1190 1828 1
1218 1828 1
1219 1828 1
1239 1828 1
1306 1828 1
1320 1828 1
1567 1828 1
1578 1828 1
1190 1829 1
1191 1829 1
1220 1829 1
1240 1829 1
1307 1829 1
1321 1829 1
1568 1829 1
1579 1829 1
1191 1830 1
1192 1830 1
1221 1830 1
1241 1830 1
1308 1830 1
1322 1830 1
1569 1830 1
1580 1830 1
1192 1831 1
1193 1831 1
1222 1831 1
1242 1831 1
1309 1831 1
1323 1831 1
1570 1831 1
1581 1831 1
1193 1832 1
1194 1832 1
1223 1832 1
1243 1832 1
1310 1832 1
1324 1832 1
1571 1832 1
1582 1832 1
1194 1833 1
1195 1833 1
1224 1833 1
1244 1833 1
1311 1833 1
1325 1833 1
1572 1833 1
1583 1833 1
1195 1834 1
1196 1834 1
1225 1834 1
1245 1834 1
1312 1834 1
1326 1834 1
1573 1834 1
1584 1834 1
1196 1835 1
1197 1835 1
1226 1835 1
1246 1835 1
1313 1835 1
1327 1835 1
1574 1835 1
1585 1835 1
1197 1836 1
1198 1836 1
1227 1836 1
1247 1836 1
1314 1836 1
1328 1836 1
1575 1836 1
1586 1836 1
1198 1837 1
1199 1837 1
1219 1837 1
1228 1837 1
1315 1837 1
1329 1837 1
1576 1837 1
1587 1837 1
1199 1838 1
1200 1838 1
1220 1838 1
1229 1838 1
1316 1838 1
1330 1838 1
1577 1838 1
1588 1838 1
1200 1839 1
1201 1839 1
1221 1839 1
1230 1839 1
1317 1839 1
1331 1839 1
1578 1839 1
1589 1839 1
1201 1840 1
1202 1840 1
1222 1840 1
1231 1840 1
1318 1840 1
1332 1840 1
1579 1840 1
1590 1840 1
1202 1841 1
1203 1841 1
1223 1841 1
1232 1841 1
1319 1841 1
1333 1841 1
1580 1841 1
1591 1841 1
1203 1842 1
1204 1842 1
1224 1842 1
1233 1842 1
1320 1842 1
1334 1842 1
1581 1842 1
1592 1842 1
1204 1843 1
1205 1843 1
1225 1843 1
1234 1843 1
1306 1843 1
1321 1843 1
1582 1843 1
1593 1843 1
1205 1844 1
1206 1844 1
1226 1844 1
1235 1844 1
1307 1844 1
1322 1844 1
1583 1844 1
1594 1844 1
1206 1845 1
1207 1845 1
1227 1845 1
1236 1845 1
1308 1845 1
1323 1845 1
1584 1845 1
1595 1845 1
1207 1846 1
1208 1846 1
1228 1846 1
1237 1846 1
1309 1846 1
1324 1846 1
1567 1846 1
1585 1846 1
1208 1847 1
1209 1847 1
1229 1847 1
1238 1847 1
1310 1847 1
1325 1847 1
1568 1847 1
1586 1847 1
1209 1848 1
1210 1848 1
1230 1848 1
1239 1848 1
1311 1848 1
1326 1848 1
1569 1848 1
1587 1848 1
1210 1849 1
1211 1849 1
1231 1849 1
1240 1849 1
1312 1849 1
1327 1849 1
1570 1849 1
1588 1849 1
1211 1850 1
1212 1850 1
1232 1850 1
1241 1850 1
1313 1850 1
1328 1850 1
1571 1850 1
1589 1850 1
1212 1851 1
1213 1851 1
1233 1851 1
1242 1851 1
1314 1851 1
1329 1851 1
1572 1851 1
1590 1851 1
1213 1852 1
1214 1852 1
1234 1852 1
1243 1852 1
1315 1852 1
1330 1852 1
1573 1852 1
1591 1852 1
1214 1853 1
1215 1853 1
1235 1853 1
1244 1853 1
1316 1853 1
1331 1853 1
1574 1853 1
1592 1853 1
1215 1854 1
1216 1854 1
1236 1854 1
1245 1854 1
1317 1854 1
1332 1854 1
1575 1854 1
1593 1854 1
1216 1855 1
1217 1855 1
1237 1855 1
1246 1855 1
1318 1855 1
1333 1855 1
1576 1855 1
1594 1855 1
1217 1856 1
1218 1856 1
1238 1856 1
1247 1856 1
1319 1856 1
1334 1856 1
1577 1856 1
1595 1856 1
1248 1857 1
1276 1857 1
1277 1857 1
1297 1857 1
1306 1857 1
1323 1857 1
1596 1857 1
1607 1857 1
1248 1858 1
1249 1858 1
1278 1858 1
1298 1858 1
1307 1858 1
1324 1858 1
1597 1858 1
1608 1858 1
1249 1859 1
1250 1859 1
1279 1859 1
1299 1859 1
1308 1859 1
1325 1859 1
1598 1859 1
1609 1859 1
1250 1860 1
1251 1860 1
1280 1860 1
1300 1860 1
1309 1860 1
1326 1860 1
1599 1860 1
1610 1860 1
1251 1861 1
1252 1861 1
1281 1861 1
1301 1861 1
1310 1861 1
1327 1861 1
1600 1861 1
1611 1861 1
1252 1862 1
1253 1862 1
1282 1862 1
1302 1862 1
1311 1862 1
1328 1862 1
1601 1862 1
1612 1862 1
1253 1863 1
1254 1863 1
1283 1863 1
1303 1863 1
1312 1863 1
1329 1863 1
1602 1863 1
1613 1863 1
1254 1864 1
1255 1864 1
1284 1864 1
1304 1864 1
1313 1864 1
1330 1864 1
1603 1864 1
1614 1864 1
1255 1865 1
1256 1865 1
1285 1865 1
1305 1865 1
1314 1865 1
1331 1865 1
1604 1865 1
1615 1865 1
1256 1866 1
1257 1866 1
1277 1866 1
1286 1866 1
1315 1866 1
1332 1866 1
1605 1866 1
1616 1866 1
1257 1867 1
1258 1867 1
1278 1867 1
1287 1867 1
1316 1867 1
1333 1867 1
1606 1867 1
1617 1867 1
1258 1868 1
1259 1868 1
1279 1868 1
1288 1868 1
1317 1868 1
1334 1868 1
1607 1868 1
1618 1868 1
1259 1869 1
1260 1869 1
1280 1869 1
1289 1869 1
1306 1869 1
1318 1869 1
1608 1869 1
1619 1869 1
1260 1870 1
1261 1870 1
1281 1870 1
1290 1870 1
1307 1870 1
1319 1870 1
1609 1870 1
1620 1870 1
1261 1871 1
1262 1871 1
1282 1871 1
1291 1871 1
1308 1871 1
1320 1871 1
1610 1871 1
1621 1871 1
1262 1872 1
1263 1872 1
1283 1872 1
1292 1872 1
1309 1872 1
1321 1872 1
1611 1872 1
1622 1872 1
1263 1873 1
1264 1873 1
1284 1873 1
1293 1873 1
1310 1873 1
1322 1873 1
1612 1873 1
1623 1873 1
1264 1874 1
1265 1874 1
1285 1874 1
1294 1874 1
1311 1874 1
1323 1874 1
1613 1874 1
1624 1874 1
1265 1875 1
1266 1875 1
1286 1875 1
1295 1875 1
1312 1875 1
1324 1875 1
1596 1875 1
1614 1875 1
1266 1876 1
1267 1876 1
1287 1876 1
1296 1876 1
1313 1876 1
1325 1876 1
1597 1876 1
1615 1876 1
1267 1877 1
1268 1877 1
1288 1877 1
1297 1877 1
1314 1877 1
1326 1877 1
1598 1877 1
1616 1877 1
1268 1878 1
1269 1878 1
1289 1878 1
1298 1878 1
1315 1878 1
1327 1878 1
1599 1878 1
1617 1878 1
1269 1879 1
1270 1879 1
1290 1879 1
1299 1879 1
1316 1879 1
1328 1879 1
1600 1879 1
1618 1879 1
1270 1880 1
1271 1880 1
1291 1880 1
1300 1880 1
1317 1880 1
1329 1880 1
1601 1880 1
1619 1880 1
1271 1881 1
1272 1881 1
1292 1881 1
1301 1881 1
1318 1881 1
1330 1881 1
1602 1881 1
1620 1881 1
1272 1882 1
1273 1882 1
1293 1882 1
1302 1882 1
1319 1882 1
1331 1882 1
1603 1882 1
1621 1882 1
1273 1883 1
1274 1883 1
1294 1883 1
1303 1883 1
1320 1883 1
1332 1883 1
1604 1883 1
1622 1883 1
1274 1884 1
1275 1884 1
1295 1884 1
1304 1884 1
1321 1884 1
1333 1884 1
1605 1884 1
1623 1884 1
1275 1885 1
1276 1885 1
1296 1885 1
1305 1885 1
1322 1885 1
1334 1885 1
1606 1885 1
1624 1885 1
1335 1886 1
1355 1886 1
1364 1886 1
1381 1886 1
1422 1886 1
1436 1886 1
1509 1886 1
1522 1886 1
1336 1887 1
1356 1887 1
1365 1887 1
1382 1887 1
1423 1887 1
1437 1887 1
1510 1887 1
1523 1887 1
1337 1888 1
1357 1888 1
1366 1888 1
1383 1888 1
1424 1888 1
1438 1888 1
1511 1888 1
1524 1888 1
1338 1889 1
1358 1889 1
1367 1889 1
1384 1889 1
1425 1889 1
1439 1889 1
1512 1889 1
1525 1889 1
1339 1890 1
1359 1890 1
1368 1890 1
1385 1890 1
1426 1890 1
1440 1890 1
1513 1890 1
1526 1890 1
1340 1891 1
1360 1891 1
1369 1891 1
1386 1891 1
1427 1891 1
1441 1891 1
1514 1891 1
1527 1891 1
1341 1892 1
1361 1892 1
1370 1892 1
1387 1892 1
1428 1892 1
1442 1892 1
1515 1892 1
1528 1892 1
1342 1893 1
1362 1893 1
1371 1893 1
1388 1893 1
1429 1893 1
1443 1893 1
1516 1893 1
1529 1893 1
1343 1894 1
1363 1894 1
1372 1894 1
1389 1894 1
1430 1894 1
1444 1894 1
1517 1894 1
1530 1894 1
1335 1895 1
1344 1895 1
1373 1895 1
1390 1895 1
1431 1895 1
1445 1895 1
1518 1895 1
1531 1895 1
1336 1896 1
1345 1896 1
1374 1896 1
1391 1896 1
1432 1896 1
1446 1896 1
1519 1896 1
1532 1896 1
1337 1897 1
1346 1897 1
1375 1897 1
1392 1897 1
1433 1897 1
1447 1897 1
1520 1897 1
1533 1897 1
1338 1898 1
1347 1898 1
1364 1898 1
1376 1898 1
1434 1898 1
1448 1898 1
1521 1898 1
1534 1898 1
1339 1899 1
1348 1899 1
1365 1899 1
1377 1899 1
1435 1899 1
1449 1899 1
1522 1899 1
1535 1899 1
1340 1900 1
1349 1900 1
1366 1900 1
1378 1900 1
1436 1900 1
1450 1900 1
1523 1900 1
1536 1900 1
1341 1901 1
1350 1901 1
1367 1901 1
1379 1901 1
1422 1901 1
1437 1901 1
1524 1901 1
1537 1901 1
1342 1902 1
1351 1902 1
1368 1902 1
1380 1902 1
1423 1902 1
1438 1902 1
1509 1902 1
1525 1902 1
1343 1903 1
1352 1903 1
1369 1903 1
1381 1903 1
1424 1903 1
1439 1903 1
1510 1903 1
1526 1903 1
1344 1904 1
1353 1904 1
1370 1904 1
1382 1904 1
1425 1904 1
1440 1904 1
1511 1904 1
1527 1904 1
1345 1905 1
1354 1905 1
1371 1905 1
1383 1905 1
1426 1905 1
1441 1905 1
1512 1905 1
1528 1905 1
1346 1906 1
1355 1906 1
1372 1906 1
1384 1906 1
1427 1906 1
1442 1906 1
1513 1906 1
1529 1906 1
1347 1907 1
1356 1907 1
1373 1907 1
1385 1907 1
1428 1907 1
1443 1907 1
1514 1907 1
1530 1907 1
1348 1908 1
1357 1908 1
1374 1908 1
1386 1908 1
1429 1908 1
1444 1908 1
1515 1908 1
1531 1908 1
1349 1909 1
1358 1909 1
1375 1909 1
1387 1909 1
1430 1909 1
1445 1909 1
1516 1909 1
1532 1909 1
1350 1910 1
1359 1910 1
1376 1910 1
1388 1910 1
1431 1910 1
1446 1910 1
1517 1910 1
1533 1910 1
1351 1911 1
1360 1911 1
1377 1911 1
1389 1911 1
1432 1911 1
1447 1911 1
1518 1911 1
1534 1911 1
1352 1912 1
1361 1912 1
1378 1912 1
1390 1912 1
1433 1912 1
1448 1912 1
1519 1912 1
1535 1912 1
1353 1913 1
1362 1913 1
1379 1913 1
1391 1913 1
1434 1913 1
1449 1913 1
1520 1913 1
1536 1913 1
1354 1914 1
1363 1914 1
1380 1914 1
1392 1914 1
1435 1914 1
1450 1914 1
1521 1914 1
1537 1914 1
1335 1915 1
1363 1915 1
1393 1915 1
1410 1915 1
1451 1915 1
1465 1915 1
1538 1915 1
1551 1915 1
1335 1916 1
1336 1916 1
1394 1916 1
1411 1916 1
1452 1916 1
1466 1916 1
1539 1916 1
1552 1916 1
1336 1917 1
1337 1917 1
1395 1917 1
1412 1917 1
1453 1917 1
1467 1917 1
1540 1917 1
1553 1917 1
1337 1918 1
1338 1918 1
1396 1918 1
1413 1918 1
1454 1918 1
1468 1918 1
1541 1918 1
1554 1918 1
1338 1919 1
1339 1919 1
1397 1919 1
1414 1919 1
1455 1919 1
1469 1919 1
1542 1919 1
1555 1919 1
1339 1920 1
1340 1920 1
1398 1920 1
1415 1920 1
1456 1920 1
1470 1920 1
1543 1920 1
1556 1920 1
1340 1921 1
1341 1921 1
1399 1921 1
1416 1921 1
1457 1921 1
1471 1921 1
1544 1921 1
1557 1921 1
1341 1922 1
1342 1922 1
1400 1922 1
1417 1922 1
1458 1922 1
1472 1922 1
1545 1922 1
1558 1922 1
1342 1923 1
1343 1923 1
1401 1923 1
1418 1923 1
1459 1923 1
1473 1923 1
1546 1923 1
1559 1923 1
1343 1924 1
1344 1924 1
1402 1924 1
1419 1924 1
1460 1924 1
1474 1924 1
1547 1924 1
1560 1924 1
1344 1925 1
1345 1925 1
1403 1925 1
1420 1925 1
1461 1925 1
1475 1925 1
1548 1925 1
1561 1925 1
1345 1926 1
1346 1926 1
1404 1926 1
1421 1926 1
1462 1926 1
1476 1926 1
1549 1926 1
1562 1926 1
1346 1927 1
1347 1927 1
1393 1927 1
1405 1927 1
1463 1927 1
1477 1927 1
1550 1927 1
1563 1927 1
1347 1928 1
1348 1928 1
1394 1928 1
1406 1928 1
1464 1928 1
1478 1928 1
1551 1928 1
1564 1928 1
1348 1929 1
1349 1929 1
1395 1929 1
1407 1929 1
1465 1929 1
1479 1929 1
1552 1929 1
1565 1929 1
1349 1930 1
1350 1930 1
1396 1930 1
1408 1930 1
1451 1930 1
1466 1930 1
1553 1930 1
1566 1930 1
1350 1931 1
1351 1931 1
1397 1931 1
1409 1931 1
1452 1931 1
1467 1931 1
1538 1931 1
1554 1931 1
1351 1932 1
1352 1932 1
1398 1932 1
1410 1932 1
1453 1932 1
1468 1932 1
1539 1932 1
1555 1932 1
1352 1933 1
1353 1933 1
1399 1933 1
1411 1933 1
1454 1933 1
1469 1933 1
1540 1933 1
1556 1933 1
1353 1934 1
1354 1934 1
1400 1934 1
1412 1934 1
1455 1934 1
1470 1934 1
1541 1934 1
1557 1934 1
1354 1935 1
1355 1935 1
1401 1935 1
1413 1935 1
1456 1935 1
1471 1935 1
1542 1935 1
1558 1935 1
1355 1936 1
1356 1936 1
1402 1936 1
1414 1936 1
1457 1936 1
1472 1936 1
1543 1936 1
1559 1936 1
1356 1937 1
1357 1937 1
1403 1937 1
1415 1937 1
1458 1937 1
1473 1937 1
1544 1937 1
1560 1937 1
1357 1938 1
1358 1938 1
1404 1938 1
1416 1938 1
1459 1938 1
1474 1938 1
1545 1938 1
1561 1938 1
1358 1939 1
1359 1939 1
1405 1939 1
1417 1939 1
1460 1939 1
1475 1939 1
1546 1939 1
1562 1939 1
1359 1940 1
1360 1940 1
1406 1940 1
1418 1940 1
1461 1940 1
1476 1940 1
1547 1940 1
1563 1940 1
1360 1941 1
1361 1941 1
1407 1941 1
1419 1941 1
1462 1941 1
1477 1941 1
1548 1941 1
1564 1941 1
1361 1942 1
1362 1942 1
1408 1942 1
1420 1942 1
1463 1942 1
1478 1942 1
1549 1942 1
1565 1942 1
1362 1943 1
1363 1943 1
1409 1943 1
1421 1943 1
1464 1943 1
1479 1943 1
1550 1943 1
1566 1943 1
1364 1944 1
1392 1944 1
1393 1944 1
1413 1944 1
1480 1944 1
1494 1944 1
1567 1944 1
1580 1944 1
1364 1945 1
1365 1945 1
1394 1945 1
1414 1945 1
1481 1945 1
1495 1945 1
1568 1945 1
1581 1945 1
1365 1946 1
1366 1946 1
1395 1946 1
1415 1946 1
1482 1946 1
1496 1946 1
1569 1946 1
1582 1946 1
1366 1947 1
1367 1947 1
1396 1947 1
1416 1947 1
1483 1947 1
1497 1947 1
1570 1947 1
1583 1947 1
1367 1948 1
1368 1948 1
1397 1948 1
1417 1948 1
1484 1948 1
1498 1948 1
1571 1948 1
1584 1948 1
1368 1949 1
1369 1949 1
1398 1949 1
1418 1949 1
1485 1949 1
1499 1949 1
1572 1949 1
1585 1949 1
1369 1950 1
1370 1950 1
1399 1950 1
1419 1950 1
1486 1950 1
1500 1950 1
1573 1950 1
1586 1950 1
1370 1951 1
1371 1951 1
1400 1951 1
1420 1951 1
1487 1951 1
1501 1951 1
1574 1951 1
1587 1951 1
1371 1952 1
1372 1952 1
1401 1952 1
1421 1952 1
1488 1952 1
1502 1952 1
1575 1952 1
1588 1952 1
1372 1953 1
1373 1953 1
1393 1953 1
1402 1953 1
1489 1953 1
1503 1953 1
1576 1953 1
1589 1953 1
1373 1954 1
1374 1954 1
1394 1954 1
1403 1954 1
1490 1954 1
1504 1954 1
1577 1954 1
1590 1954 1
1374 1955 1
1375 1955 1
1395 1955 1
1404 1955 1
1491 1955 1
1505 1955 1
1578 1955 1
1591 1955 1
1375 1956 1
1376 1956 1
1396 1956 1
1405 1956 1
1492 1956 1
1506 1956 1
1579 1956 1
1592 1956 1
1376 1957 1
1377 1957 1
1397 1957 1
1406 1957 1
1493 1957 1
1507 1957 1
1580 1957 1
1593 1957 1
1377 1958 1
1378 1958 1
1398 1958 1
1407 1958 1
1494 1958 1
1508 1958 1
1581 1958 1
1594 1958 1
1378 1959 1
1379 1959 1
1399 1959 1
1408 1959 1
1480 1959 1
1495 1959 1
1582 1959 1
1595 1959 1
1379 1960 1
1380 1960 1
1400 1960 1
1409 1960 1
1481 1960 1
1496 1960 1
1567 1960 1
1583 1960 1
1380 1961 1
1381 1961 1
1401 1961 1
1410 1961 1
1482 1961 1
1497 1961 1
1568 1961 1
1584 1961 1
1381 1962 1
1382 1962 1
1402 1962 1
1411 1962 1
1483 1962 1
1498 1962 1
1569 1962 1
1585 1962 1
1382 1963 1
1383 1963 1
1403 1963 1
1412 1963 1
1484 1963 1
1499 1963 1
1570 1963 1
1586 1963 1
1383 1964 1
1384 1964 1
1404 1964 1
1413 1964 1
1485 1964 1
1500 1964 1
1571 1964 1
1587 1964 1
1384 1965 1
1385 1965 1
1405 1965 1
1414 1965 1
1486 1965 1
1501 1965 1
1572 1965 1
1588 1965 1
1385 1966 1
1386 1966 1
1406 1966 1
1415 1966 1
1487 1966 1
1502 1966 1
1573 1966 1
1589 1966 1
1386 1967 1
1387 1967 1
1407 1967 1
1416 1967 1
1488 1967 1
1503 1967 1
1574 1967 1
1590 1967 1
1387 1968 1
1388 1968 1
1408 1968 1
1417 1968 1
1489 1968 1
1504 1968 1
1575 1968 1
1591 1968 1
1388 1969 1
1389 1969 1
1409 1969 1
1418 1969 1
1490 1969 1
1505 1969 1
1576 1969 1
1592 1969 1
1389 1970 1
1390 1970 1
1410 1970 1
1419 1970 1
1491 1970 1
1506 1970 1
1577 1970 1
1593 1970 1
1390 1971 1
1391 1971 1
1411 1971 1
1420 1971 1
1492 1971 1
1507 1971 1
1578 1971 1
1594 1971 1
1391 1972 1
1392 1972 1
1412 1972 1
1421 1972 1
1493 1972 1
1508 1972 1
1579 1972 1
1595 1972 1
1422 1973 1
1450 1973 1
1451 1973 1
1471 1973 1
1480 1973 1
1497 1973 1
1596 1973 1
1609 1973 1
1422 1974 1
1423 1974 1
1452 1974 1
1472 1974 1
1481 1974 1
1498 1974 1
1597 1974 1
1610 1974 1
1423 1975 1
1424 1975 1
1453 1975 1
1473 1975 1
1482 1975 1
1499 1975 1
1598 1975 1
1611 1975 1
1424 1976 1
1425 1976 1
1454 1976 1
1474 1976 1
1483 1976 1
1500 1976 1
1599 1976 1
1612 1976 1
1425 1977 1
1426 1977 1
1455 1977 1
1475 1977 1
1484 1977 1
1501 1977 1
1600 1977 1
1613 1977 1
1426 1978 1
1427 1978 1
1456 1978 1
1476 1978 1
1485 1978 1
1502 1978 1
1601 1978 1
1614 1978 1
1427 1979 1
1428 1979 1
1457 1979 1
1477 1979 1
1486 1979 1
1503 1979 1
1602 1979 1
1615 1979 1
1428 1980 1
1429 1980 1
1458 1980 1
1478 1980 1
1487 1980 1
1504 1980 1
1603 1980 1
1616 1980 1
1429 1981 1
1430 1981 1
1459 1981 1
1479 1981 1
1488 1981 1
1505 1981 1
1604 1981 1
1617 1981 1
1430 1982 1
1431 1982 1
1451 1982 1
1460 1982 1
1489 1982 1
1506 1982 1
1605 1982 1
1618 1982 1
1431 1983 1
1432 1983 1
1452 1983 1
1461 1983 1
1490 1983 1
1507 1983 1
1606 1983 1
1619 1983 1
1432 1984 1
1433 1984 1
1453 1984 1
1462 1984 1
1491 1984 1
1508 1984 1
1607 1984 1
1620 1984 1
1433 1985 1
1434 1985 1
1454 1985 1
1463 1985 1
1480 1985 1
1492 1985 1
1608 1985 1
1621 1985 1
1434 1986 1
1435 1986 1
1455 1986 1
1464 1986 1
1481 1986 1
1493 1986 1
1609 1986 1
1622 1986 1
1435 1987 1
1436 1987 1
1456 1987 1
1465 1987 1
1482 1987 1
1494 1987 1
1610 1987 1
1623 1987 1
1436 1988 1
1437 1988 1
1457 1988 1
1466 1988 1
1483 1988 1
1495 1988 1
1611 1988 1
1624 1988 1
1437 1989 1
1438 1989 1
1458 1989 1
1467 1989 1
1484 1989 1
1496 1989 1
1596 1989 1
1612 1989 1
1438 1990 1
1439 1990 1
1459 1990 1
1468 1990 1
1485 1990 1
1497 1990 1
1597 1990 1
1613 1990 1
1439 1991 1
1440 1991 1
1460 1991 1
1469 1991 1
1486 1991 1
1498 1991 1
1598 1991 1
1614 1991 1
1440 1992 1
1441 1992 1
1461 1992 1
1470 1992 1
1487 1992 1
1499 1992 1
1599 1992 1
1615 1992 1
1441 1993 1
1442 1993 1
1462 1993 1
1471 1993 1
1488 1993 1
1500 1993 1
1600 1993 1
1616 1993 1
1442 1994 1
1443 1994 1
1463 1994 1
1472 1994 1
1489 1994 1
1501 1994 1
1601 1994 1
1617 1994 1
1443 1995 1
1444 1995 1
1464 1995 1
1473 1995 1
1490 1995 1
1502 1995 1
1602 1995 1
1618 1995 1
1444 1996 1
1445 1996 1
1465 1996 1
1474 1996 1
1491 1996 1
1503 1996 1
1603 1996 1
1619 1996 1
1445 1997 1
1446 1997 1
1466 1997 1
1475 1997 1
1492 1997 1
1504 1997 1
1604 1997 1
1620 1997 1
1446 1998 1
1447 1998 1
1467 1998 1
1476 1998 1
1493 1998 1
1505 1998 1
1605 1998 1
1621 1998 1
1447 1999 1
1448 1999 1
1468 1999 1
1477 1999 1
1494 1999 1
1506 1999 1
1606 1999 1
1622 1999 1
1448 2000 1
1449 2000 1
1469 2000 1
1478 2000 1
1495 2000 1
1507 2000 1
1607 2000 1
1623 2000 1
1449 2001 1
1450 2001 1
1470 2001 1
1479 2001 1
1496 2001 1
1508 2001 1
1608 2001 1
1624 2001 1
1509 2002 1
1537 2002 1
1538 2002 1
1558 2002 1
1567 2002 1
1584 2002 1
1596 2002 1
1610 2002 1
1509 2003 1
1510 2003 1
1539 2003 1
1559 2003 1
1568 2003 1
1585 2003 1
1597 2003 1
1611 2003 1
1510 2004 1
1511 2004 1
1540 2004 1
1560 2004 1
1569 2004 1
1586 2004 1
1598 2004 1
1612 2004 1
1511 2005 1
1512 2005 1
1541 2005 1
1561 2005 1
1570 2005 1
1587 2005 1
1599 2005 1
1613 2005 1
1512 2006 1
1513 2006 1
1542 2006 1
1562 2006 1
1571 2006 1
1588 2006 1
1600 2006 1
1614 2006 1
1513 2007 1
1514 2007 1
1543 2007 1
1563 2007 1
1572 2007 1
1589 2007 1
1601 2007 1
1615 2007 1
1514 2008 1
1515 2008 1
1544 2008 1
1564 2008 1
1573 2008 1
1590 2008 1
1602 2008 1
1616 2008 1
1515 2009 1
1516 2009 1
1545 2009 1
1565 2009 1
1574 2009 1
1591 2009 1
1603 2009 1
1617 2009 1
1516 2010 1
1517 2010 1
1546 2010 1
1566 2010 1
1575 2010 1
1592 2010 1
1604 2010 1
1618 2010 1
1517 2011 1
1518 2011 1
1538 2011 1
1547 2011 1
1576 2011 1
1593 2011 1
1605 2011 1
1619 2011 1
1518 2012 1
1519 2012 1
1539 2012 1
1548 2012 1
1577 2012 1
1594 2012 1
1606 2012 1
1620 2012 1
1519 2013 1
1520 2013 1
1540 2013 1
1549 2013 1
1578 2013 1
1595 2013 1
1607 2013 1
1621 2013 1
1520 2014 1
1521 2014 1
1541 2014 1
1550 2014 1
1567 2014 1
1579 2014 1
1608 2014 1
1622 2014 1
1521 2015 1
1522 2015 1
1542 2015 1
1551 2015 1
1568 2015 1
1580 2015 1
1609 2015 1
1623 2015 1
1522 2016 1
1523 2016 1
1543 2016 1
1552 2016 1
1569 2016 1
1581 2016 1
1610 2016 1
1624 2016 1
1523 2017 1
1524 2017 1
1544 2017 1
1553 2017 1
1570 2017 1
1582 2017 1
1596 2017 1
1611 2017 1
1524 2018 1
1525 2018 1
1545 2018 1
1554 2018 1
1571 2018 1
1583 2018 1
1597 2018 1
1612 2018 1
1525 2019 1
1526 2019 1
1546 2019 1
1555 2019 1
1572 2019 1
1584 2019 1
1598 2019 1
1613 2019 1
1526 2020 1
1527 2020 1
1547 2020 1
1556 2020 1
1573 2020 1
1585 2020 1
1599 2020 1
1614 2020 1
1527 2021 1
1528 2021 1
1548 2021 1
1557 2021 1
1574 2021 1
1586 2021 1
1600 2021 1
1615 2021 1
1528 2022 1
1529 2022 1
1549 2022 1
1558 2022 1
1575 2022 1
1587 2022 1
1601 2022 1
1616 2022 1
1529 2023 1
1530 2023 1
1550 2023 1
1559 2023 1
1576 2023 1
1588 2023 1
1602 2023 1
1617 2023 1
1530 2024 1
1531 2024 1
1551 2024 1
1560 2024 1
1577 2024 1
1589 2024 1
1603 2024 1
1618 2024 1
1531 2025 1
1532 2025 1
1552 2025 1
1561 2025 1
1578 2025 1
1590 2025 1
1604 2025 1
1619 2025 1
1532 2026 1
1533 2026 1
1553 2026 1
1562 2026 1
1579 2026 1
1591 2026 1
1605 2026 1
1620 2026 1
1533 2027 1
1534 2027 1
1554 2027 1
1563 2027 1
1580 2027 1
1592 2027 1
1606 2027 1
1621 2027 1
1534 2028 1
1535 2028 1
1555 2028 1
1564 2028 1
1581 2028 1
1593 2028 1
1607 2028 1
1622 2028 1
1535 2029 1
1536 2029 1
1556 2029 1
1565 2029 1
1582 2029 1
1594 2029 1
1608 2029 1
1623 2029 1
1536 2030 1
1537 2030 1
1557 2030 1
1566 2030 1
1583 2030 1
1595 2030 1
1609 2030 1
1624 2030 1
