%%MatrixMarket matrix coordinate integer general
% Binary matrix; one-based indices; arithmetic over GF(2)
230 230 1380
1 1 1
13 1 1
24 1 1
29 1 1
93 1 1
96 1 1
2 2 1
14 2 1
25 2 1
30 2 1
94 2 1
97 2 1
3 3 1
15 3 1
26 3 1
31 3 1
95 3 1
98 3 1
4 4 1
16 4 1
27 4 1
32 4 1
96 4 1
99 4 1
5 5 1
17 5 1
28 5 1
33 5 1
97 5 1
100 5 1
6 6 1
18 6 1
29 6 1
34 6 1
98 6 1
101 6 1
7 7 1
19 7 1
30 7 1
35 7 1
99 7 1
102 7 1
8 8 1
20 8 1
31 8 1
36 8 1
100 8 1
103 8 1
9 9 1
21 9 1
32 9 1
37 9 1
101 9 1
104 9 1
10 10 1
22 10 1
33 10 1
38 10 1
102 10 1
105 10 1
11 11 1
23 11 1
34 11 1
39 11 1
103 11 1
106 11 1
1 12 1
12 12 1
35 12 1
40 12 1
104 12 1
107 12 1
2 13 1
13 13 1
36 13 1
41 13 1
105 13 1
108 13 1
3 14 1
14 14 1
37 14 1
42 14 1
106 14 1
109 14 1
4 15 1
15 15 1
38 15 1
43 15 1
107 15 1
110 15 1
5 16 1
16 16 1
39 16 1
44 16 1
108 16 1
111 16 1
6 17 1
17 17 1
40 17 1
45 17 1
109 17 1
112 17 1
7 18 1
18 18 1
41 18 1
46 18 1
110 18 1
113 18 1
8 19 1
19 19 1
24 19 1
42 19 1
111 19 1
114 19 1
9 20 1
20 20 1
25 20 1
43 20 1
112 20 1
115 20 1
10 21 1
21 21 1
26 21 1
44 21 1
93 21 1
113 21 1
11 22 1
22 22 1
27 22 1
45 22 1
94 22 1
114 22 1
12 23 1
23 23 1
28 23 1
46 23 1
95 23 1
115 23 1
1 24 1
17 24 1
47 24 1
52 24 1
116 24 1
119 24 1
2 25 1
18 25 1
48 25 1
53 25 1
117 25 1
120 25 1
3 26 1
19 26 1
49 26 1
54 26 1
118 26 1
121 26 1
4 27 1
20 27 1
50 27 1
55 27 1
119 27 1
122 27 1
5 28 1
21 28 1
51 28 1
56 28 1
120 28 1
123 28 1
6 29 1
22 29 1
52 29 1
57 29 1
121 29 1
124 29 1
7 30 1
23 30 1
53 30 1
58 30 1
122 30 1
125 30 1
1 31 1
8 31 1
54 31 1
59 31 1
123 31 1
126 31 1
2 32 1
9 32 1
55 32 1
60 32 1
124 32 1
127 32 1
3 33 1
10 33 1
56 33 1
61 33 1
125 33 1
128 33 1
4 34 1
11 34 1
57 34 1
62 34 1
126 34 1
129 34 1
5 35 1
12 35 1
58 35 1
63 35 1
127 35 1
130 35 1
6 36 1
13 36 1
59 36 1
64 36 1
128 36 1
131 36 1
7 37 1
14 37 1
60 37 1
65 37 1
129 37 1
132 37 1
8 38 1
15 38 1
61 38 1
66 38 1
130 38 1
133 38 1
9 39 1
16 39 1
62 39 1
67 39 1
131 39 1
134 39 1
10 40 1
17 40 1
63 40 1
68 40 1
132 40 1
135 40 1
11 41 1
18 41 1
64 41 1
69 41 1
133 41 1
136 41 1
12 42 1
19 42 1
47 42 1
65 42 1
134 42 1
137 42 1
13 43 1
20 43 1
48 43 1
66 43 1
135 43 1
138 43 1
14 44 1
21 44 1
49 44 1
67 44 1
116 44 1
136 44 1
15 45 1
22 45 1
50 45 1
68 45 1
117 45 1
137 45 1
16 46 1
23 46 1
51 46 1
69 46 1
118 46 1
138 46 1
1 47 1
20 47 1
70 47 1
75 47 1
139 47 1
142 47 1
2 48 1
21 48 1
71 48 1
76 48 1
140 48 1
143 48 1
3 49 1
22 49 1
72 49 1
77 49 1
141 49 1
144 49 1
4 50 1
23 50 1
73 50 1
78 50 1
142 50 1
145 50 1
1 51 1
5 51 1
74 51 1
79 51 1
143 51 1
146 51 1
2 52 1
6 52 1
75 52 1
80 52 1
144 52 1
147 52 1
3 53 1
7 53 1
76 53 1
81 53 1
145 53 1
148 53 1
4 54 1
8 54 1
77 54 1
82 54 1
146 54 1
149 54 1
5 55 1
9 55 1
78 55 1
83 55 1
147 55 1
150 55 1
6 56 1
10 56 1
79 56 1
84 56 1
148 56 1
151 56 1
7 57 1
11 57 1
80 57 1
85 57 1
149 57 1
152 57 1
8 58 1
12 58 1
81 58 1
86 58 1
150 58 1
153 58 1
9 59 1
13 59 1
82 59 1
87 59 1
151 59 1
154 59 1
10 60 1
14 60 1
83 60 1
88 60 1
152 60 1
155 60 1
11 61 1
15 61 1
84 61 1
89 61 1
153 61 1
156 61 1
12 62 1
16 62 1
85 62 1
90 62 1
154 62 1
157 62 1
13 63 1
17 63 1
86 63 1
91 63 1
155 63 1
158 63 1
14 64 1
18 64 1
87 64 1
92 64 1
156 64 1
159 64 1
15 65 1
19 65 1
70 65 1
88 65 1
157 65 1
160 65 1
16 66 1
20 66 1
71 66 1
89 66 1
158 66 1
161 66 1
17 67 1
21 67 1
72 67 1
90 67 1
139 67 1
159 67 1
18 68 1
22 68 1
73 68 1
91 68 1
140 68 1
160 68 1
19 69 1
23 69 1
74 69 1
92 69 1
141 69 1
161 69 1
24 70 1
40 70 1
47 70 1
59 70 1
162 70 1
165 70 1
25 71 1
41 71 1
48 71 1
60 71 1
163 71 1
166 71 1
26 72 1
42 72 1
49 72 1
61 72 1
164 72 1
167 72 1
27 73 1
43 73 1
50 73 1
62 73 1
165 73 1
168 73 1
28 74 1
44 74 1
51 74 1
63 74 1
166 74 1
169 74 1
29 75 1
45 75 1
52 75 1
64 75 1
167 75 1
170 75 1
30 76 1
46 76 1
53 76 1
65 76 1
168 76 1
171 76 1
24 77 1
31 77 1
54 77 1
66 77 1
169 77 1
172 77 1
25 78 1
32 78 1
55 78 1
67 78 1
170 78 1
173 78 1
26 79 1
33 79 1
56 79 1
68 79 1
171 79 1
174 79 1
27 80 1
34 80 1
57 80 1
69 80 1
172 80 1
175 80 1
28 81 1
35 81 1
47 81 1
58 81 1
173 81 1
176 81 1
29 82 1
36 82 1
48 82 1
59 82 1
174 82 1
177 82 1
30 83 1
37 83 1
49 83 1
60 83 1
175 83 1
178 83 1
31 84 1
38 84 1
50 84 1
61 84 1
176 84 1
179 84 1
32 85 1
39 85 1
51 85 1
62 85 1
177 85 1
180 85 1
33 86 1
40 86 1
52 86 1
63 86 1
178 86 1
181 86 1
34 87 1
41 87 1
53 87 1
64 87 1
179 87 1
182 87 1
35 88 1
42 88 1
54 88 1
65 88 1
180 88 1
183 88 1
36 89 1
43 89 1
55 89 1
66 89 1
181 89 1
184 89 1
37 90 1
44 90 1
56 90 1
67 90 1
162 90 1
182 90 1
38 91 1
45 91 1
57 91 1
68 91 1
163 91 1
183 91 1
39 92 1
46 92 1
58 92 1
69 92 1
164 92 1
184 92 1
24 93 1
43 93 1
70 93 1
82 93 1
185 93 1
188 93 1
25 94 1
44 94 1
71 94 1
83 94 1
186 94 1
189 94 1
26 95 1
45 95 1
72 95 1
84 95 1
187 95 1
190 95 1
27 96 1
46 96 1
73 96 1
85 96 1
188 96 1
191 96 1
24 97 1
28 97 1
74 97 1
86 97 1
189 97 1
192 97 1
25 98 1
29 98 1
75 98 1
87 98 1
190 98 1
193 98 1
26 99 1
30 99 1
76 99 1
88 99 1
191 99 1
194 99 1
27 100 1
31 100 1
77 100 1
89 100 1
192 100 1
195 100 1
28 101 1
32 101 1
78 101 1
90 101 1
193 101 1
196 101 1
29 102 1
33 102 1
79 102 1
91 102 1
194 102 1
197 102 1
30 103 1
34 103 1
80 103 1
92 103 1
195 103 1
198 103 1
31 104 1
35 104 1
70 104 1
81 104 1
196 104 1
199 104 1
32 105 1
36 105 1
71 105 1
82 105 1
197 105 1
200 105 1
33 106 1
37 106 1
72 106 1
83 106 1
198 106 1
201 106 1
34 107 1
38 107 1
73 107 1
84 107 1
199 107 1
202 107 1
35 108 1
39 108 1
74 108 1
85 108 1
200 108 1
203 108 1
36 109 1
40 109 1
75 109 1
86 109 1
201 109 1
204 109 1
37 110 1
41 110 1
76 110 1
87 110 1
202 110 1
205 110 1
38 111 1
42 111 1
77 111 1
88 111 1
203 111 1
206 111 1
39 112 1
43 112 1
78 112 1
89 112 1
204 112 1
207 112 1
40 113 1
44 113 1
79 113 1
90 113 1
185 113 1
205 113 1
41 114 1
45 114 1
80 114 1
91 114 1
186 114 1
206 114 1
42 115 1
46 115 1
81 115 1
92 115 1
187 115 1
207 115 1
47 116 1
66 116 1
70 116 1
86 116 1
208 116 1
211 116 1
48 117 1
67 117 1
71 117 1
87 117 1
209 117 1
212 117 1
49 118 1
68 118 1
72 118 1
88 118 1
210 118 1
213 118 1
50 119 1
69 119 1
73 119 1
89 119 1
211 119 1
214 119 1
47 120 1
51 120 1
74 120 1
90 120 1
212 120 1
215 120 1
48 121 1
52 121 1
75 121 1
91 121 1
213 121 1
216 121 1
49 122 1
53 122 1
76 122 1
92 122 1
214 122 1
217 122 1
50 123 1
54 123 1
70 123 1
77 123 1
215 123 1
218 123 1
51 124 1
55 124 1
71 124 1
78 124 1
216 124 1
219 124 1
52 125 1
56 125 1
72 125 1
79 125 1
217 125 1
220 125 1
53 126 1
57 126 1
73 126 1
80 126 1
218 126 1
221 126 1
54 127 1
58 127 1
74 127 1
81 127 1
219 127 1
222 127 1
55 128 1
59 128 1
75 128 1
82 128 1
220 128 1
223 128 1
56 129 1
60 129 1
76 129 1
83 129 1
221 129 1
224 129 1
57 130 1
61 130 1
77 130 1
84 130 1
222 130 1
225 130 1
58 131 1
62 131 1
78 131 1
85 131 1
223 131 1
226 131 1
59 132 1
63 132 1
79 132 1
86 132 1
224 132 1
227 132 1
60 133 1
64 133 1
80 133 1
87 133 1
225 133 1
228 133 1
61 134 1
65 134 1
81 134 1
88 134 1
226 134 1
229 134 1
62 135 1
66 135 1
82 135 1
89 135 1
227 135 1
230 135 1
63 136 1
67 136 1
83 136 1
90 136 1
208 136 1
228 136 1
64 137 1
68 137 1
84 137 1
91 137 1
209 137 1
229 137 1
65 138 1
69 138 1
85 138 1
92 138 1
210 138 1
230 138 1
93 139 1
109 139 1
116 139 1
128 139 1
162 139 1
167 139 1
94 140 1
110 140 1
117 140 1
129 140 1
163 140 1
168 140 1
95 141 1
111 141 1
118 141 1
130 141 1
164 141 1
169 141 1
96 142 1
112 142 1
119 142 1
131 142 1
165 142 1
170 142 1
97 143 1
113 143 1
120 143 1
132 143 1
166 143 1
171 143 1
98 144 1
114 144 1
121 144 1
133 144 1
167 144 1
172 144 1
99 145 1
115 145 1
122 145 1
134 145 1
168 145 1
173 145 1
93 146 1
100 146 1
123 146 1
135 146 1
169 146 1
174 146 1
94 147 1
101 147 1
124 147 1
136 147 1
170 147 1
175 147 1
95 148 1
102 148 1
125 148 1
137 148 1
171 148 1
176 148 1
96 149 1
103 149 1
126 149 1
138 149 1
172 149 1
177 149 1
97 150 1
104 150 1
116 150 1
127 150 1
173 150 1
178 150 1
98 151 1
105 151 1
117 151 1
128 151 1
174 151 1
179 151 1
99 152 1
106 152 1
118 152 1
129 152 1
175 152 1
180 152 1
100 153 1
107 153 1
119 153 1
130 153 1
176 153 1
181 153 1
101 154 1
108 154 1
120 154 1
131 154 1
177 154 1
182 154 1
102 155 1
109 155 1
121 155 1
132 155 1
178 155 1
183 155 1
103 156 1
110 156 1
122 156 1
133 156 1
179 156 1
184 156 1
104 157 1
111 157 1
123 157 1
134 157 1
162 157 1
180 157 1
105 158 1
112 158 1
124 158 1
135 158 1
163 158 1
181 158 1
106 159 1
113 159 1
125 159 1
136 159 1
164 159 1
182 159 1
107 160 1
114 160 1
126 160 1
137 160 1
165 160 1
183 160 1
108 161 1
115 161 1
127 161 1
138 161 1
166 161 1
184 161 1
93 162 1
112 162 1
139 162 1
151 162 1
185 162 1
190 162 1
94 163 1
113 163 1
140 163 1
152 163 1
186 163 1
191 163 1
95 164 1
114 164 1
141 164 1
153 164 1
187 164 1
192 164 1
96 165 1
115 165 1
142 165 1
154 165 1
188 165 1
193 165 1
93 166 1
97 166 1
143 166 1
155 166 1
189 166 1
194 166 1
94 167 1
98 167 1
144 167 1
156 167 1
190 167 1
195 167 1
95 168 1
99 168 1
145 168 1
157 168 1
191 168 1
196 168 1
96 169 1
100 169 1
146 169 1
158 169 1
192 169 1
197 169 1
97 170 1
101 170 1
147 170 1
159 170 1
193 170 1
198 170 1
98 171 1
102 171 1
148 171 1
160 171 1
194 171 1
199 171 1
99 172 1
103 172 1
149 172 1
161 172 1
195 172 1
200 172 1
100 173 1
104 173 1
139 173 1
150 173 1
196 173 1
201 173 1
101 174 1
105 174 1
140 174 1
151 174 1
197 174 1
202 174 1
102 175 1
106 175 1
141 175 1
152 175 1
198 175 1
203 175 1
103 176 1
107 176 1
142 176 1
153 176 1
199 176 1
204 176 1
104 177 1
108 177 1
143 177 1
154 177 1
200 177 1
205 177 1
105 178 1
109 178 1
144 178 1
155 178 1
201 178 1
206 178 1
106 179 1
110 179 1
145 179 1
156 179 1
202 179 1
207 179 1
107 180 1
111 180 1
146 180 1
157 180 1
185 180 1
203 180 1
108 181 1
112 181 1
147 181 1
158 181 1
186 181 1
204 181 1
109 182 1
113 182 1
148 182 1
159 182 1
187 182 1
205 182 1
110 183 1
114 183 1
149 183 1
160 183 1
188 183 1
206 183 1
111 184 1
115 184 1
150 184 1
161 184 1
189 184 1
207 184 1
116 185 1
135 185 1
139 185 1
155 185 1
208 185 1
213 185 1
117 186 1
136 186 1
140 186 1
156 186 1
209 186 1
214 186 1
118 187 1
137 187 1
141 187 1
157 187 1
210 187 1
215 187 1
119 188 1
138 188 1
142 188 1
158 188 1
211 188 1
216 188 1
116 189 1
120 189 1
143 189 1
159 189 1
212 189 1
217 189 1
117 190 1
121 190 1
144 190 1
160 190 1
213 190 1
218 190 1
118 191 1
122 191 1
145 191 1
161 191 1
214 191 1
219 191 1
119 192 1
123 192 1
139 192 1
146 192 1
215 192 1
220 192 1
120 193 1
124 193 1
140 193 1
147 193 1
216 193 1
221 193 1
121 194 1
125 194 1
141 194 1
148 194 1
217 194 1
222 194 1
122 195 1
126 195 1
142 195 1
149 195 1
218 195 1
223 195 1
123 196 1
127 196 1
143 196 1
150 196 1
219 196 1
224 196 1
124 197 1
128 197 1
144 197 1
151 197 1
220 197 1
225 197 1
125 198 1
129 198 1
145 198 1
152 198 1
221 198 1
226 198 1
126 199 1
130 199 1
146 199 1
153 199 1
222 199 1
227 199 1
127 200 1
131 200 1
147 200 1
154 200 1
223 200 1
228 200 1
128 201 1
132 201 1
148 201 1
155 201 1
224 201 1
229 201 1
129 202 1
133 202 1
149 202 1
156 202 1
225 202 1
230 202 1
130 203 1
134 203 1
150 203 1
157 203 1
208 203 1
226 203 1
131 204 1
135 204 1
151 204 1
158 204 1
209 204 1
227 204 1
132 205 1
136 205 1
152 205 1
159 205 1
210 205 1
228 205 1
133 206 1
137 206 1
153 206 1
160 206 1
211 206 1
229 206 1
134 207 1
138 207 1
154 207 1
161 207 1
212 207 1
230 207 1
162 208 1
181 208 1
185 208 1
201 208 1
208 208 1
220 208 1
163 209 1
182 209 1
186 209 1
202 209 1
209 209 1
221 209 1
164 210 1
183 210 1
187 210 1
203 210 1
210 210 1
222 210 1
165 211 1
184 211 1
188 211 1
204 211 1
211 211 1
223 211 1
162 212 1
166 212 1
189 212 1
205 212 1
212 212 1
224 212 1
163 213 1
167 213 1
190 213 1
206 213 1
213 213 1
225 213 1
164 214 1
168 214 1
191 214 1
207 214 1
214 214 1
226 214 1
165 215 1
169 215 1
185 215 1
192 215 1
215 215 1
227 215 1
166 216 1
170 216 1
186 216 1
193 216 1
216 216 1
228 216 1
167 217 1
171 217 1
187 217 1
194 217 1
217 217 1
229 217 1
168 218 1
172 218 1
188 218 1
195 218 1
218 218 1
230 218 1
169 219 1
173 219 1
189 219 1
196 219 1
208 219 1
219 219 1
170 220 1
174 220 1
190 220 1
197 220 1
209 220 1
220 220 1
171 221 1
175 221 1
191 221 1
198 221 1
210 221 1
221 221 1
172 222 1
176 222 1
192 222 1
199 222 1
211 222 1
222 222 1
173 223 1
177 223 1
193 223 1
200 223 1
212 223 1
223 223 1
174 224 1
178 224 1
194 224 1
201 224 1
213 224 1
224 224 1
175 225 1
179 225 1
195 225 1
202 225 1
214 225 1
225 225 1
176 226 1
180 226 1
196 226 1
203 226 1
215 226 1
226 226 1
177 227 1
181 227 1
197 227 1
204 227 1
216 227 1
227 227 1
178 228 1
182 228 1
198 228 1
205 228 1
217 228 1
228 228 1
179 229 1
183 229 1
199 229 1
206 229 1
218 229 1
229 229 1
180 230 1
184 230 1
200 230 1
207 230 1
219 230 1
230 230 1
