%%MatrixMarket matrix coordinate integer general
% Binary matrix; one-based indices; arithmetic over GF(2)
1232 1540 12320
1 1 1
9 1 1
23 1 1
30 1 1
133 1 1
138 1 1
463 1 1
466 1 1
2 2 1
10 2 1
24 2 1
31 2 1
134 2 1
139 2 1
464 2 1
467 2 1
3 3 1
11 3 1
25 3 1
32 3 1
135 3 1
140 3 1
465 3 1
468 3 1
4 4 1
12 4 1
26 4 1
33 4 1
136 4 1
141 4 1
466 4 1
469 4 1
5 5 1
13 5 1
27 5 1
34 5 1
137 5 1
142 5 1
467 5 1
470 5 1
6 6 1
14 6 1
28 6 1
35 6 1
138 6 1
143 6 1
468 6 1
471 6 1
7 7 1
15 7 1
29 7 1
36 7 1
139 7 1
144 7 1
469 7 1
472 7 1
8 8 1
16 8 1
30 8 1
37 8 1
140 8 1
145 8 1
470 8 1
473 8 1
9 9 1
17 9 1
31 9 1
38 9 1
141 9 1
146 9 1
471 9 1
474 9 1
10 10 1
18 10 1
32 10 1
39 10 1
142 10 1
147 10 1
472 10 1
475 10 1
11 11 1
19 11 1
33 11 1
40 11 1
143 11 1
148 11 1
473 11 1
476 11 1
12 12 1
20 12 1
34 12 1
41 12 1
144 12 1
149 12 1
474 12 1
477 12 1
13 13 1
21 13 1
35 13 1
42 13 1
145 13 1
150 13 1
475 13 1
478 13 1
14 14 1
22 14 1
36 14 1
43 14 1
146 14 1
151 14 1
476 14 1
479 14 1
1 15 1
15 15 1
37 15 1
44 15 1
147 15 1
152 15 1
477 15 1
480 15 1
2 16 1
16 16 1
23 16 1
38 16 1
148 16 1
153 16 1
478 16 1
481 16 1
3 17 1
17 17 1
24 17 1
39 17 1
149 17 1
154 17 1
479 17 1
482 17 1
4 18 1
18 18 1
25 18 1
40 18 1
133 18 1
150 18 1
480 18 1
483 18 1
5 19 1
19 19 1
26 19 1
41 19 1
134 19 1
151 19 1
481 19 1
484 19 1
6 20 1
20 20 1
27 20 1
42 20 1
135 20 1
152 20 1
463 20 1
482 20 1
7 21 1
21 21 1
28 21 1
43 21 1
136 21 1
153 21 1
464 21 1
483 21 1
8 22 1
22 22 1
29 22 1
44 22 1
137 22 1
154 22 1
465 22 1
484 22 1
1 23 1
15 23 1
45 23 1
52 23 1
155 23 1
160 23 1
485 23 1
488 23 1
2 24 1
16 24 1
46 24 1
53 24 1
156 24 1
161 24 1
486 24 1
489 24 1
3 25 1
17 25 1
47 25 1
54 25 1
157 25 1
162 25 1
487 25 1
490 25 1
4 26 1
18 26 1
48 26 1
55 26 1
158 26 1
163 26 1
488 26 1
491 26 1
5 27 1
19 27 1
49 27 1
56 27 1
159 27 1
164 27 1
489 27 1
492 27 1
6 28 1
20 28 1
50 28 1
57 28 1
160 28 1
165 28 1
490 28 1
493 28 1
7 29 1
21 29 1
51 29 1
58 29 1
161 29 1
166 29 1
491 29 1
494 29 1
8 30 1
22 30 1
52 30 1
59 30 1
162 30 1
167 30 1
492 30 1
495 30 1
1 31 1
9 31 1
53 31 1
60 31 1
163 31 1
168 31 1
493 31 1
496 31 1
2 32 1
10 32 1
54 32 1
61 32 1
164 32 1
169 32 1
494 32 1
497 32 1
3 33 1
11 33 1
55 33 1
62 33 1
165 33 1
170 33 1
495 33 1
498 33 1
4 34 1
12 34 1
56 34 1
63 34 1
166 34 1
171 34 1
496 34 1
499 34 1
5 35 1
13 35 1
57 35 1
64 35 1
167 35 1
172 35 1
497 35 1
500 35 1
6 36 1
14 36 1
58 36 1
65 36 1
168 36 1
173 36 1
498 36 1
501 36 1
7 37 1
15 37 1
59 37 1
66 37 1
169 37 1
174 37 1
499 37 1
502 37 1
8 38 1
16 38 1
45 38 1
60 38 1
170 38 1
175 38 1
500 38 1
503 38 1
9 39 1
17 39 1
46 39 1
61 39 1
171 39 1
176 39 1
501 39 1
504 39 1
10 40 1
18 40 1
47 40 1
62 40 1
155 40 1
172 40 1
502 40 1
505 40 1
11 41 1
19 41 1
48 41 1
63 41 1
156 41 1
173 41 1
503 41 1
506 41 1
12 42 1
20 42 1
49 42 1
64 42 1
157 42 1
174 42 1
485 42 1
504 42 1
13 43 1
21 43 1
50 43 1
65 43 1
158 43 1
175 43 1
486 43 1
505 43 1
14 44 1
22 44 1
51 44 1
66 44 1
159 44 1
176 44 1
487 44 1
506 44 1
1 45 1
16 45 1
67 45 1
74 45 1
177 45 1
182 45 1
507 45 1
510 45 1
2 46 1
17 46 1
68 46 1
75 46 1
178 46 1
183 46 1
508 46 1
511 46 1
3 47 1
18 47 1
69 47 1
76 47 1
179 47 1
184 47 1
509 47 1
512 47 1
4 48 1
19 48 1
70 48 1
77 48 1
180 48 1
185 48 1
510 48 1
513 48 1
5 49 1
20 49 1
71 49 1
78 49 1
181 49 1
186 49 1
511 49 1
514 49 1
6 50 1
21 50 1
72 50 1
79 50 1
182 50 1
187 50 1
512 50 1
515 50 1
7 51 1
22 51 1
73 51 1
80 51 1
183 51 1
188 51 1
513 51 1
516 51 1
1 52 1
8 52 1
74 52 1
81 52 1
184 52 1
189 52 1
514 52 1
517 52 1
2 53 1
9 53 1
75 53 1
82 53 1
185 53 1
190 53 1
515 53 1
518 53 1
3 54 1
10 54 1
76 54 1
83 54 1
186 54 1
191 54 1
516 54 1
519 54 1
4 55 1
11 55 1
77 55 1
84 55 1
187 55 1
192 55 1
517 55 1
520 55 1
5 56 1
12 56 1
78 56 1
85 56 1
188 56 1
193 56 1
518 56 1
521 56 1
6 57 1
13 57 1
79 57 1
86 57 1
189 57 1
194 57 1
519 57 1
522 57 1
7 58 1
14 58 1
80 58 1
87 58 1
190 58 1
195 58 1
520 58 1
523 58 1
8 59 1
15 59 1
81 59 1
88 59 1
191 59 1
196 59 1
521 59 1
524 59 1
9 60 1
16 60 1
67 60 1
82 60 1
192 60 1
197 60 1
522 60 1
525 60 1
10 61 1
17 61 1
68 61 1
83 61 1
193 61 1
198 61 1
523 61 1
526 61 1
11 62 1
18 62 1
69 62 1
84 62 1
177 62 1
194 62 1
524 62 1
527 62 1
12 63 1
19 63 1
70 63 1
85 63 1
178 63 1
195 63 1
525 63 1
528 63 1
13 64 1
20 64 1
71 64 1
86 64 1
179 64 1
196 64 1
507 64 1
526 64 1
14 65 1
21 65 1
72 65 1
87 65 1
180 65 1
197 65 1
508 65 1
527 65 1
15 66 1
22 66 1
73 66 1
88 66 1
181 66 1
198 66 1
509 66 1
528 66 1
1 67 1
18 67 1
89 67 1
96 67 1
199 67 1
204 67 1
529 67 1
532 67 1
2 68 1
19 68 1
90 68 1
97 68 1
200 68 1
205 68 1
530 68 1
533 68 1
3 69 1
20 69 1
91 69 1
98 69 1
201 69 1
206 69 1
531 69 1
534 69 1
4 70 1
21 70 1
92 70 1
99 70 1
202 70 1
207 70 1
532 70 1
535 70 1
5 71 1
22 71 1
93 71 1
100 71 1
203 71 1
208 71 1
533 71 1
536 71 1
1 72 1
6 72 1
94 72 1
101 72 1
204 72 1
209 72 1
534 72 1
537 72 1
2 73 1
7 73 1
95 73 1
102 73 1
205 73 1
210 73 1
535 73 1
538 73 1
3 74 1
8 74 1
96 74 1
103 74 1
206 74 1
211 74 1
536 74 1
539 74 1
4 75 1
9 75 1
97 75 1
104 75 1
207 75 1
212 75 1
537 75 1
540 75 1
5 76 1
10 76 1
98 76 1
105 76 1
208 76 1
213 76 1
538 76 1
541 76 1
6 77 1
11 77 1
99 77 1
106 77 1
209 77 1
214 77 1
539 77 1
542 77 1
7 78 1
12 78 1
100 78 1
107 78 1
210 78 1
215 78 1
540 78 1
543 78 1
8 79 1
13 79 1
101 79 1
108 79 1
211 79 1
216 79 1
541 79 1
544 79 1
9 80 1
14 80 1
102 80 1
109 80 1
212 80 1
217 80 1
542 80 1
545 80 1
10 81 1
15 81 1
103 81 1
110 81 1
213 81 1
218 81 1
543 81 1
546 81 1
11 82 1
16 82 1
89 82 1
104 82 1
214 82 1
219 82 1
544 82 1
547 82 1
12 83 1
17 83 1
90 83 1
105 83 1
215 83 1
220 83 1
545 83 1
548 83 1
13 84 1
18 84 1
91 84 1
106 84 1
199 84 1
216 84 1
546 84 1
549 84 1
14 85 1
19 85 1
92 85 1
107 85 1
200 85 1
217 85 1
547 85 1
550 85 1
15 86 1
20 86 1
93 86 1
108 86 1
201 86 1
218 86 1
529 86 1
548 86 1
16 87 1
21 87 1
94 87 1
109 87 1
202 87 1
219 87 1
530 87 1
549 87 1
17 88 1
22 88 1
95 88 1
110 88 1
203 88 1
220 88 1
531 88 1
550 88 1
1 89 1
21 89 1
111 89 1
118 89 1
221 89 1
226 89 1
551 89 1
554 89 1
2 90 1
22 90 1
112 90 1
119 90 1
222 90 1
227 90 1
552 90 1
555 90 1
1 91 1
3 91 1
113 91 1
120 91 1
223 91 1
228 91 1
553 91 1
556 91 1
2 92 1
4 92 1
114 92 1
121 92 1
224 92 1
229 92 1
554 92 1
557 92 1
3 93 1
5 93 1
115 93 1
122 93 1
225 93 1
230 93 1
555 93 1
558 93 1
4 94 1
6 94 1
116 94 1
123 94 1
226 94 1
231 94 1
556 94 1
559 94 1
5 95 1
7 95 1
117 95 1
124 95 1
227 95 1
232 95 1
557 95 1
560 95 1
6 96 1
8 96 1
118 96 1
125 96 1
228 96 1
233 96 1
558 96 1
561 96 1
7 97 1
9 97 1
119 97 1
126 97 1
229 97 1
234 97 1
559 97 1
562 97 1
8 98 1
10 98 1
120 98 1
127 98 1
230 98 1
235 98 1
560 98 1
563 98 1
9 99 1
11 99 1
121 99 1
128 99 1
231 99 1
236 99 1
561 99 1
564 99 1
10 100 1
12 100 1
122 100 1
129 100 1
232 100 1
237 100 1
562 100 1
565 100 1
11 101 1
13 101 1
123 101 1
130 101 1
233 101 1
238 101 1
563 101 1
566 101 1
12 102 1
14 102 1
124 102 1
131 102 1
234 102 1
239 102 1
564 102 1
567 102 1
13 103 1
15 103 1
125 103 1
132 103 1
235 103 1
240 103 1
565 103 1
568 103 1
14 104 1
16 104 1
111 104 1
126 104 1
236 104 1
241 104 1
566 104 1
569 104 1
15 105 1
17 105 1
112 105 1
127 105 1
237 105 1
242 105 1
567 105 1
570 105 1
16 106 1
18 106 1
113 106 1
128 106 1
221 106 1
238 106 1
568 106 1
571 106 1
17 107 1
19 107 1
114 107 1
129 107 1
222 107 1
239 107 1
569 107 1
572 107 1
18 108 1
20 108 1
115 108 1
130 108 1
223 108 1
240 108 1
551 108 1
570 108 1
19 109 1
21 109 1
116 109 1
131 109 1
224 109 1
241 109 1
552 109 1
571 109 1
20 110 1
22 110 1
117 110 1
132 110 1
225 110 1
242 110 1
553 110 1
572 110 1
23 111 1
37 111 1
45 111 1
53 111 1
243 111 1
248 111 1
573 111 1
576 111 1
24 112 1
38 112 1
46 112 1
54 112 1
244 112 1
249 112 1
574 112 1
577 112 1
25 113 1
39 113 1
47 113 1
55 113 1
245 113 1
250 113 1
575 113 1
578 113 1
26 114 1
40 114 1
48 114 1
56 114 1
246 114 1
251 114 1
576 114 1
579 114 1
27 115 1
41 115 1
49 115 1
57 115 1
247 115 1
252 115 1
577 115 1
580 115 1
28 116 1
42 116 1
50 116 1
58 116 1
248 116 1
253 116 1
578 116 1
581 116 1
29 117 1
43 117 1
51 117 1
59 117 1
249 117 1
254 117 1
579 117 1
582 117 1
30 118 1
44 118 1
52 118 1
60 118 1
250 118 1
255 118 1
580 118 1
583 118 1
23 119 1
31 119 1
53 119 1
61 119 1
251 119 1
256 119 1
581 119 1
584 119 1
24 120 1
32 120 1
54 120 1
62 120 1
252 120 1
257 120 1
582 120 1
585 120 1
25 121 1
33 121 1
55 121 1
63 121 1
253 121 1
258 121 1
583 121 1
586 121 1
26 122 1
34 122 1
56 122 1
64 122 1
254 122 1
259 122 1
584 122 1
587 122 1
27 123 1
35 123 1
57 123 1
65 123 1
255 123 1
260 123 1
585 123 1
588 123 1
28 124 1
36 124 1
58 124 1
66 124 1
256 124 1
261 124 1
586 124 1
589 124 1
29 125 1
37 125 1
45 125 1
59 125 1
257 125 1
262 125 1
587 125 1
590 125 1
30 126 1
38 126 1
46 126 1
60 126 1
258 126 1
263 126 1
588 126 1
591 126 1
31 127 1
39 127 1
47 127 1
61 127 1
259 127 1
264 127 1
589 127 1
592 127 1
32 128 1
40 128 1
48 128 1
62 128 1
243 128 1
260 128 1
590 128 1
593 128 1
33 129 1
41 129 1
49 129 1
63 129 1
244 129 1
261 129 1
591 129 1
594 129 1
34 130 1
42 130 1
50 130 1
64 130 1
245 130 1
262 130 1
573 130 1
592 130 1
35 131 1
43 131 1
51 131 1
65 131 1
246 131 1
263 131 1
574 131 1
593 131 1
36 132 1
44 132 1
52 132 1
66 132 1
247 132 1
264 132 1
575 132 1
594 132 1
23 133 1
38 133 1
67 133 1
75 133 1
265 133 1
270 133 1
595 133 1
598 133 1
24 134 1
39 134 1
68 134 1
76 134 1
266 134 1
271 134 1
596 134 1
599 134 1
25 135 1
40 135 1
69 135 1
77 135 1
267 135 1
272 135 1
597 135 1
600 135 1
26 136 1
41 136 1
70 136 1
78 136 1
268 136 1
273 136 1
598 136 1
601 136 1
27 137 1
42 137 1
71 137 1
79 137 1
269 137 1
274 137 1
599 137 1
602 137 1
28 138 1
43 138 1
72 138 1
80 138 1
270 138 1
275 138 1
600 138 1
603 138 1
29 139 1
44 139 1
73 139 1
81 139 1
271 139 1
276 139 1
601 139 1
604 139 1
23 140 1
30 140 1
74 140 1
82 140 1
272 140 1
277 140 1
602 140 1
605 140 1
24 141 1
31 141 1
75 141 1
83 141 1
273 141 1
278 141 1
603 141 1
606 141 1
25 142 1
32 142 1
76 142 1
84 142 1
274 142 1
279 142 1
604 142 1
607 142 1
26 143 1
33 143 1
77 143 1
85 143 1
275 143 1
280 143 1
605 143 1
608 143 1
27 144 1
34 144 1
78 144 1
86 144 1
276 144 1
281 144 1
606 144 1
609 144 1
28 145 1
35 145 1
79 145 1
87 145 1
277 145 1
282 145 1
607 145 1
610 145 1
29 146 1
36 146 1
80 146 1
88 146 1
278 146 1
283 146 1
608 146 1
611 146 1
30 147 1
37 147 1
67 147 1
81 147 1
279 147 1
284 147 1
609 147 1
612 147 1
31 148 1
38 148 1
68 148 1
82 148 1
280 148 1
285 148 1
610 148 1
613 148 1
32 149 1
39 149 1
69 149 1
83 149 1
281 149 1
286 149 1
611 149 1
614 149 1
33 150 1
40 150 1
70 150 1
84 150 1
265 150 1
282 150 1
612 150 1
615 150 1
34 151 1
41 151 1
71 151 1
85 151 1
266 151 1
283 151 1
613 151 1
616 151 1
35 152 1
42 152 1
72 152 1
86 152 1
267 152 1
284 152 1
595 152 1
614 152 1
36 153 1
43 153 1
73 153 1
87 153 1
268 153 1
285 153 1
596 153 1
615 153 1
37 154 1
44 154 1
74 154 1
88 154 1
269 154 1
286 154 1
597 154 1
616 154 1
23 155 1
40 155 1
89 155 1
97 155 1
287 155 1
292 155 1
617 155 1
620 155 1
24 156 1
41 156 1
90 156 1
98 156 1
288 156 1
293 156 1
618 156 1
621 156 1
25 157 1
42 157 1
91 157 1
99 157 1
289 157 1
294 157 1
619 157 1
622 157 1
26 158 1
43 158 1
92 158 1
100 158 1
290 158 1
295 158 1
620 158 1
623 158 1
27 159 1
44 159 1
93 159 1
101 159 1
291 159 1
296 159 1
621 159 1
624 159 1
23 160 1
28 160 1
94 160 1
102 160 1
292 160 1
297 160 1
622 160 1
625 160 1
24 161 1
29 161 1
95 161 1
103 161 1
293 161 1
298 161 1
623 161 1
626 161 1
25 162 1
30 162 1
96 162 1
104 162 1
294 162 1
299 162 1
624 162 1
627 162 1
26 163 1
31 163 1
97 163 1
105 163 1
295 163 1
300 163 1
625 163 1
628 163 1
27 164 1
32 164 1
98 164 1
106 164 1
296 164 1
301 164 1
626 164 1
629 164 1
28 165 1
33 165 1
99 165 1
107 165 1
297 165 1
302 165 1
627 165 1
630 165 1
29 166 1
34 166 1
100 166 1
108 166 1
298 166 1
303 166 1
628 166 1
631 166 1
30 167 1
35 167 1
101 167 1
109 167 1
299 167 1
304 167 1
629 167 1
632 167 1
31 168 1
36 168 1
102 168 1
110 168 1
300 168 1
305 168 1
630 168 1
633 168 1
32 169 1
37 169 1
89 169 1
103 169 1
301 169 1
306 169 1
631 169 1
634 169 1
33 170 1
38 170 1
90 170 1
104 170 1
302 170 1
307 170 1
632 170 1
635 170 1
34 171 1
39 171 1
91 171 1
105 171 1
303 171 1
308 171 1
633 171 1
636 171 1
35 172 1
40 172 1
92 172 1
106 172 1
287 172 1
304 172 1
634 172 1
637 172 1
36 173 1
41 173 1
93 173 1
107 173 1
288 173 1
305 173 1
635 173 1
638 173 1
37 174 1
42 174 1
94 174 1
108 174 1
289 174 1
306 174 1
617 174 1
636 174 1
38 175 1
43 175 1
95 175 1
109 175 1
290 175 1
307 175 1
618 175 1
637 175 1
39 176 1
44 176 1
96 176 1
110 176 1
291 176 1
308 176 1
619 176 1
638 176 1
23 177 1
43 177 1
111 177 1
119 177 1
309 177 1
314 177 1
639 177 1
642 177 1
24 178 1
44 178 1
112 178 1
120 178 1
310 178 1
315 178 1
640 178 1
643 178 1
23 179 1
25 179 1
113 179 1
121 179 1
311 179 1
316 179 1
641 179 1
644 179 1
24 180 1
26 180 1
114 180 1
122 180 1
312 180 1
317 180 1
642 180 1
645 180 1
25 181 1
27 181 1
115 181 1
123 181 1
313 181 1
318 181 1
643 181 1
646 181 1
26 182 1
28 182 1
116 182 1
124 182 1
314 182 1
319 182 1
644 182 1
647 182 1
27 183 1
29 183 1
117 183 1
125 183 1
315 183 1
320 183 1
645 183 1
648 183 1
28 184 1
30 184 1
118 184 1
126 184 1
316 184 1
321 184 1
646 184 1
649 184 1
29 185 1
31 185 1
119 185 1
127 185 1
317 185 1
322 185 1
647 185 1
650 185 1
30 186 1
32 186 1
120 186 1
128 186 1
318 186 1
323 186 1
648 186 1
651 186 1
31 187 1
33 187 1
121 187 1
129 187 1
319 187 1
324 187 1
649 187 1
652 187 1
32 188 1
34 188 1
122 188 1
130 188 1
320 188 1
325 188 1
650 188 1
653 188 1
33 189 1
35 189 1
123 189 1
131 189 1
321 189 1
326 189 1
651 189 1
654 189 1
34 190 1
36 190 1
124 190 1
132 190 1
322 190 1
327 190 1
652 190 1
655 190 1
35 191 1
37 191 1
111 191 1
125 191 1
323 191 1
328 191 1
653 191 1
656 191 1
36 192 1
38 192 1
112 192 1
126 192 1
324 192 1
329 192 1
654 192 1
657 192 1
37 193 1
39 193 1
113 193 1
127 193 1
325 193 1
330 193 1
655 193 1
658 193 1
38 194 1
40 194 1
114 194 1
128 194 1
309 194 1
326 194 1
656 194 1
659 194 1
39 195 1
41 195 1
115 195 1
129 195 1
310 195 1
327 195 1
657 195 1
660 195 1
40 196 1
42 196 1
116 196 1
130 196 1
311 196 1
328 196 1
639 196 1
658 196 1
41 197 1
43 197 1
117 197 1
131 197 1
312 197 1
329 197 1
640 197 1
659 197 1
42 198 1
44 198 1
118 198 1
132 198 1
313 198 1
330 198 1
641 198 1
660 198 1
45 199 1
60 199 1
67 199 1
81 199 1
331 199 1
336 199 1
661 199 1
664 199 1
46 200 1
61 200 1
68 200 1
82 200 1
332 200 1
337 200 1
662 200 1
665 200 1
47 201 1
62 201 1
69 201 1
83 201 1
333 201 1
338 201 1
663 201 1
666 201 1
48 202 1
63 202 1
70 202 1
84 202 1
334 202 1
339 202 1
664 202 1
667 202 1
49 203 1
64 203 1
71 203 1
85 203 1
335 203 1
340 203 1
665 203 1
668 203 1
50 204 1
65 204 1
72 204 1
86 204 1
336 204 1
341 204 1
666 204 1
669 204 1
51 205 1
66 205 1
73 205 1
87 205 1
337 205 1
342 205 1
667 205 1
670 205 1
45 206 1
52 206 1
74 206 1
88 206 1
338 206 1
343 206 1
668 206 1
671 206 1
46 207 1
53 207 1
67 207 1
75 207 1
339 207 1
344 207 1
669 207 1
672 207 1
47 208 1
54 208 1
68 208 1
76 208 1
340 208 1
345 208 1
670 208 1
673 208 1
48 209 1
55 209 1
69 209 1
77 209 1
341 209 1
346 209 1
671 209 1
674 209 1
49 210 1
56 210 1
70 210 1
78 210 1
342 210 1
347 210 1
672 210 1
675 210 1
50 211 1
57 211 1
71 211 1
79 211 1
343 211 1
348 211 1
673 211 1
676 211 1
51 212 1
58 212 1
72 212 1
80 212 1
344 212 1
349 212 1
674 212 1
677 212 1
52 213 1
59 213 1
73 213 1
81 213 1
345 213 1
350 213 1
675 213 1
678 213 1
53 214 1
60 214 1
74 214 1
82 214 1
346 214 1
351 214 1
676 214 1
679 214 1
54 215 1
61 215 1
75 215 1
83 215 1
347 215 1
352 215 1
677 215 1
680 215 1
55 216 1
62 216 1
76 216 1
84 216 1
331 216 1
348 216 1
678 216 1
681 216 1
56 217 1
63 217 1
77 217 1
85 217 1
332 217 1
349 217 1
679 217 1
682 217 1
57 218 1
64 218 1
78 218 1
86 218 1
333 218 1
350 218 1
661 218 1
680 218 1
58 219 1
65 219 1
79 219 1
87 219 1
334 219 1
351 219 1
662 219 1
681 219 1
59 220 1
66 220 1
80 220 1
88 220 1
335 220 1
352 220 1
663 220 1
682 220 1
45 221 1
62 221 1
89 221 1
103 221 1
353 221 1
358 221 1
683 221 1
686 221 1
46 222 1
63 222 1
90 222 1
104 222 1
354 222 1
359 222 1
684 222 1
687 222 1
47 223 1
64 223 1
91 223 1
105 223 1
355 223 1
360 223 1
685 223 1
688 223 1
48 224 1
65 224 1
92 224 1
106 224 1
356 224 1
361 224 1
686 224 1
689 224 1
49 225 1
66 225 1
93 225 1
107 225 1
357 225 1
362 225 1
687 225 1
690 225 1
45 226 1
50 226 1
94 226 1
108 226 1
358 226 1
363 226 1
688 226 1
691 226 1
46 227 1
51 227 1
95 227 1
109 227 1
359 227 1
364 227 1
689 227 1
692 227 1
47 228 1
52 228 1
96 228 1
110 228 1
360 228 1
365 228 1
690 228 1
693 228 1
48 229 1
53 229 1
89 229 1
97 229 1
361 229 1
366 229 1
691 229 1
694 229 1
49 230 1
54 230 1
90 230 1
98 230 1
362 230 1
367 230 1
692 230 1
695 230 1
50 231 1
55 231 1
91 231 1
99 231 1
363 231 1
368 231 1
693 231 1
696 231 1
51 232 1
56 232 1
92 232 1
100 232 1
364 232 1
369 232 1
694 232 1
697 232 1
52 233 1
57 233 1
93 233 1
101 233 1
365 233 1
370 233 1
695 233 1
698 233 1
53 234 1
58 234 1
94 234 1
102 234 1
366 234 1
371 234 1
696 234 1
699 234 1
54 235 1
59 235 1
95 235 1
103 235 1
367 235 1
372 235 1
697 235 1
700 235 1
55 236 1
60 236 1
96 236 1
104 236 1
368 236 1
373 236 1
698 236 1
701 236 1
56 237 1
61 237 1
97 237 1
105 237 1
369 237 1
374 237 1
699 237 1
702 237 1
57 238 1
62 238 1
98 238 1
106 238 1
353 238 1
370 238 1
700 238 1
703 238 1
58 239 1
63 239 1
99 239 1
107 239 1
354 239 1
371 239 1
701 239 1
704 239 1
59 240 1
64 240 1
100 240 1
108 240 1
355 240 1
372 240 1
683 240 1
702 240 1
60 241 1
65 241 1
101 241 1
109 241 1
356 241 1
373 241 1
684 241 1
703 241 1
61 242 1
66 242 1
102 242 1
110 242 1
357 242 1
374 242 1
685 242 1
704 242 1
45 243 1
65 243 1
111 243 1
125 243 1
375 243 1
380 243 1
705 243 1
708 243 1
46 244 1
66 244 1
112 244 1
126 244 1
376 244 1
381 244 1
706 244 1
709 244 1
45 245 1
47 245 1
113 245 1
127 245 1
377 245 1
382 245 1
707 245 1
710 245 1
46 246 1
48 246 1
114 246 1
128 246 1
378 246 1
383 246 1
708 246 1
711 246 1
47 247 1
49 247 1
115 247 1
129 247 1
379 247 1
384 247 1
709 247 1
712 247 1
48 248 1
50 248 1
116 248 1
130 248 1
380 248 1
385 248 1
710 248 1
713 248 1
49 249 1
51 249 1
117 249 1
131 249 1
381 249 1
386 249 1
711 249 1
714 249 1
50 250 1
52 250 1
118 250 1
132 250 1
382 250 1
387 250 1
712 250 1
715 250 1
51 251 1
53 251 1
111 251 1
119 251 1
383 251 1
388 251 1
713 251 1
716 251 1
52 252 1
54 252 1
112 252 1
120 252 1
384 252 1
389 252 1
714 252 1
717 252 1
53 253 1
55 253 1
113 253 1
121 253 1
385 253 1
390 253 1
715 253 1
718 253 1
54 254 1
56 254 1
114 254 1
122 254 1
386 254 1
391 254 1
716 254 1
719 254 1
55 255 1
57 255 1
115 255 1
123 255 1
387 255 1
392 255 1
717 255 1
720 255 1
56 256 1
58 256 1
116 256 1
124 256 1
388 256 1
393 256 1
718 256 1
721 256 1
57 257 1
59 257 1
117 257 1
125 257 1
389 257 1
394 257 1
719 257 1
722 257 1
58 258 1
60 258 1
118 258 1
126 258 1
390 258 1
395 258 1
720 258 1
723 258 1
59 259 1
61 259 1
119 259 1
127 259 1
391 259 1
396 259 1
721 259 1
724 259 1
60 260 1
62 260 1
120 260 1
128 260 1
375 260 1
392 260 1
722 260 1
725 260 1
61 261 1
63 261 1
121 261 1
129 261 1
376 261 1
393 261 1
723 261 1
726 261 1
62 262 1
64 262 1
122 262 1
130 262 1
377 262 1
394 262 1
705 262 1
724 262 1
63 263 1
65 263 1
123 263 1
131 263 1
378 263 1
395 263 1
706 263 1
725 263 1
64 264 1
66 264 1
124 264 1
132 264 1
379 264 1
396 264 1
707 264 1
726 264 1
67 265 1
84 265 1
89 265 1
104 265 1
397 265 1
402 265 1
727 265 1
730 265 1
68 266 1
85 266 1
90 266 1
105 266 1
398 266 1
403 266 1
728 266 1
731 266 1
69 267 1
86 267 1
91 267 1
106 267 1
399 267 1
404 267 1
729 267 1
732 267 1
70 268 1
87 268 1
92 268 1
107 268 1
400 268 1
405 268 1
730 268 1
733 268 1
71 269 1
88 269 1
93 269 1
108 269 1
401 269 1
406 269 1
731 269 1
734 269 1
67 270 1
72 270 1
94 270 1
109 270 1
402 270 1
407 270 1
732 270 1
735 270 1
68 271 1
73 271 1
95 271 1
110 271 1
403 271 1
408 271 1
733 271 1
736 271 1
69 272 1
74 272 1
89 272 1
96 272 1
404 272 1
409 272 1
734 272 1
737 272 1
70 273 1
75 273 1
90 273 1
97 273 1
405 273 1
410 273 1
735 273 1
738 273 1
71 274 1
76 274 1
91 274 1
98 274 1
406 274 1
411 274 1
736 274 1
739 274 1
72 275 1
77 275 1
92 275 1
99 275 1
407 275 1
412 275 1
737 275 1
740 275 1
73 276 1
78 276 1
93 276 1
100 276 1
408 276 1
413 276 1
738 276 1
741 276 1
74 277 1
79 277 1
94 277 1
101 277 1
409 277 1
414 277 1
739 277 1
742 277 1
75 278 1
80 278 1
95 278 1
102 278 1
410 278 1
415 278 1
740 278 1
743 278 1
76 279 1
81 279 1
96 279 1
103 279 1
411 279 1
416 279 1
741 279 1
744 279 1
77 280 1
82 280 1
97 280 1
104 280 1
412 280 1
417 280 1
742 280 1
745 280 1
78 281 1
83 281 1
98 281 1
105 281 1
413 281 1
418 281 1
743 281 1
746 281 1
79 282 1
84 282 1
99 282 1
106 282 1
397 282 1
414 282 1
744 282 1
747 282 1
80 283 1
85 283 1
100 283 1
107 283 1
398 283 1
415 283 1
745 283 1
748 283 1
81 284 1
86 284 1
101 284 1
108 284 1
399 284 1
416 284 1
727 284 1
746 284 1
82 285 1
87 285 1
102 285 1
109 285 1
400 285 1
417 285 1
728 285 1
747 285 1
83 286 1
88 286 1
103 286 1
110 286 1
401 286 1
418 286 1
729 286 1
748 286 1
67 287 1
87 287 1
111 287 1
126 287 1
419 287 1
424 287 1
749 287 1
752 287 1
68 288 1
88 288 1
112 288 1
127 288 1
420 288 1
425 288 1
750 288 1
753 288 1
67 289 1
69 289 1
113 289 1
128 289 1
421 289 1
426 289 1
751 289 1
754 289 1
68 290 1
70 290 1
114 290 1
129 290 1
422 290 1
427 290 1
752 290 1
755 290 1
69 291 1
71 291 1
115 291 1
130 291 1
423 291 1
428 291 1
753 291 1
756 291 1
70 292 1
72 292 1
116 292 1
131 292 1
424 292 1
429 292 1
754 292 1
757 292 1
71 293 1
73 293 1
117 293 1
132 293 1
425 293 1
430 293 1
755 293 1
758 293 1
72 294 1
74 294 1
111 294 1
118 294 1
426 294 1
431 294 1
756 294 1
759 294 1
73 295 1
75 295 1
112 295 1
119 295 1
427 295 1
432 295 1
757 295 1
760 295 1
74 296 1
76 296 1
113 296 1
120 296 1
428 296 1
433 296 1
758 296 1
761 296 1
75 297 1
77 297 1
114 297 1
121 297 1
429 297 1
434 297 1
759 297 1
762 297 1
76 298 1
78 298 1
115 298 1
122 298 1
430 298 1
435 298 1
760 298 1
763 298 1
77 299 1
79 299 1
116 299 1
123 299 1
431 299 1
436 299 1
761 299 1
764 299 1
78 300 1
80 300 1
117 300 1
124 300 1
432 300 1
437 300 1
762 300 1
765 300 1
79 301 1
81 301 1
118 301 1
125 301 1
433 301 1
438 301 1
763 301 1
766 301 1
80 302 1
82 302 1
119 302 1
126 302 1
434 302 1
439 302 1
764 302 1
767 302 1
81 303 1
83 303 1
120 303 1
127 303 1
435 303 1
440 303 1
765 303 1
768 303 1
82 304 1
84 304 1
121 304 1
128 304 1
419 304 1
436 304 1
766 304 1
769 304 1
83 305 1
85 305 1
122 305 1
129 305 1
420 305 1
437 305 1
767 305 1
770 305 1
84 306 1
86 306 1
123 306 1
130 306 1
421 306 1
438 306 1
749 306 1
768 306 1
85 307 1
87 307 1
124 307 1
131 307 1
422 307 1
439 307 1
750 307 1
769 307 1
86 308 1
88 308 1
125 308 1
132 308 1
423 308 1
440 308 1
751 308 1
770 308 1
89 309 1
109 309 1
111 309 1
128 309 1
441 309 1
446 309 1
771 309 1
774 309 1
90 310 1
110 310 1
112 310 1
129 310 1
442 310 1
447 310 1
772 310 1
775 310 1
89 311 1
91 311 1
113 311 1
130 311 1
443 311 1
448 311 1
773 311 1
776 311 1
90 312 1
92 312 1
114 312 1
131 312 1
444 312 1
449 312 1
774 312 1
777 312 1
91 313 1
93 313 1
115 313 1
132 313 1
445 313 1
450 313 1
775 313 1
778 313 1
92 314 1
94 314 1
111 314 1
116 314 1
446 314 1
451 314 1
776 314 1
779 314 1
93 315 1
95 315 1
112 315 1
117 315 1
447 315 1
452 315 1
777 315 1
780 315 1
94 316 1
96 316 1
113 316 1
118 316 1
448 316 1
453 316 1
778 316 1
781 316 1
95 317 1
97 317 1
114 317 1
119 317 1
449 317 1
454 317 1
779 317 1
782 317 1
96 318 1
98 318 1
115 318 1
120 318 1
450 318 1
455 318 1
780 318 1
783 318 1
97 319 1
99 319 1
116 319 1
121 319 1
451 319 1
456 319 1
781 319 1
784 319 1
98 320 1
100 320 1
117 320 1
122 320 1
452 320 1
457 320 1
782 320 1
785 320 1
99 321 1
101 321 1
118 321 1
123 321 1
453 321 1
458 321 1
783 321 1
786 321 1
100 322 1
102 322 1
119 322 1
124 322 1
454 322 1
459 322 1
784 322 1
787 322 1
101 323 1
103 323 1
120 323 1
125 323 1
455 323 1
460 323 1
785 323 1
788 323 1
102 324 1
104 324 1
121 324 1
126 324 1
456 324 1
461 324 1
786 324 1
789 324 1
103 325 1
105 325 1
122 325 1
127 325 1
457 325 1
462 325 1
787 325 1
790 325 1
104 326 1
106 326 1
123 326 1
128 326 1
441 326 1
458 326 1
788 326 1
791 326 1
105 327 1
107 327 1
124 327 1
129 327 1
442 327 1
459 327 1
789 327 1
792 327 1
106 328 1
108 328 1
125 328 1
130 328 1
443 328 1
460 328 1
771 328 1
790 328 1
107 329 1
109 329 1
126 329 1
131 329 1
444 329 1
461 329 1
772 329 1
791 329 1
108 330 1
110 330 1
127 330 1
132 330 1
445 330 1
462 330 1
773 330 1
792 330 1
133 331 1
147 331 1
155 331 1
163 331 1
243 331 1
250 331 1
793 331 1
796 331 1
134 332 1
148 332 1
156 332 1
164 332 1
244 332 1
251 332 1
794 332 1
797 332 1
135 333 1
149 333 1
157 333 1
165 333 1
245 333 1
252 333 1
795 333 1
798 333 1
136 334 1
150 334 1
158 334 1
166 334 1
246 334 1
253 334 1
796 334 1
799 334 1
137 335 1
151 335 1
159 335 1
167 335 1
247 335 1
254 335 1
797 335 1
800 335 1
138 336 1
152 336 1
160 336 1
168 336 1
248 336 1
255 336 1
798 336 1
801 336 1
139 337 1
153 337 1
161 337 1
169 337 1
249 337 1
256 337 1
799 337 1
802 337 1
140 338 1
154 338 1
162 338 1
170 338 1
250 338 1
257 338 1
800 338 1
803 338 1
133 339 1
141 339 1
163 339 1
171 339 1
251 339 1
258 339 1
801 339 1
804 339 1
134 340 1
142 340 1
164 340 1
172 340 1
252 340 1
259 340 1
802 340 1
805 340 1
135 341 1
143 341 1
165 341 1
173 341 1
253 341 1
260 341 1
803 341 1
806 341 1
136 342 1
144 342 1
166 342 1
174 342 1
254 342 1
261 342 1
804 342 1
807 342 1
137 343 1
145 343 1
167 343 1
175 343 1
255 343 1
262 343 1
805 343 1
808 343 1
138 344 1
146 344 1
168 344 1
176 344 1
256 344 1
263 344 1
806 344 1
809 344 1
139 345 1
147 345 1
155 345 1
169 345 1
257 345 1
264 345 1
807 345 1
810 345 1
140 346 1
148 346 1
156 346 1
170 346 1
243 346 1
258 346 1
808 346 1
811 346 1
141 347 1
149 347 1
157 347 1
171 347 1
244 347 1
259 347 1
809 347 1
812 347 1
142 348 1
150 348 1
158 348 1
172 348 1
245 348 1
260 348 1
810 348 1
813 348 1
143 349 1
151 349 1
159 349 1
173 349 1
246 349 1
261 349 1
811 349 1
814 349 1
144 350 1
152 350 1
160 350 1
174 350 1
247 350 1
262 350 1
793 350 1
812 350 1
145 351 1
153 351 1
161 351 1
175 351 1
248 351 1
263 351 1
794 351 1
813 351 1
146 352 1
154 352 1
162 352 1
176 352 1
249 352 1
264 352 1
795 352 1
814 352 1
133 353 1
148 353 1
177 353 1
185 353 1
265 353 1
272 353 1
815 353 1
818 353 1
134 354 1
149 354 1
178 354 1
186 354 1
266 354 1
273 354 1
816 354 1
819 354 1
135 355 1
150 355 1
179 355 1
187 355 1
267 355 1
274 355 1
817 355 1
820 355 1
136 356 1
151 356 1
180 356 1
188 356 1
268 356 1
275 356 1
818 356 1
821 356 1
137 357 1
152 357 1
181 357 1
189 357 1
269 357 1
276 357 1
819 357 1
822 357 1
138 358 1
153 358 1
182 358 1
190 358 1
270 358 1
277 358 1
820 358 1
823 358 1
139 359 1
154 359 1
183 359 1
191 359 1
271 359 1
278 359 1
821 359 1
824 359 1
133 360 1
140 360 1
184 360 1
192 360 1
272 360 1
279 360 1
822 360 1
825 360 1
134 361 1
141 361 1
185 361 1
193 361 1
273 361 1
280 361 1
823 361 1
826 361 1
135 362 1
142 362 1
186 362 1
194 362 1
274 362 1
281 362 1
824 362 1
827 362 1
136 363 1
143 363 1
187 363 1
195 363 1
275 363 1
282 363 1
825 363 1
828 363 1
137 364 1
144 364 1
188 364 1
196 364 1
276 364 1
283 364 1
826 364 1
829 364 1
138 365 1
145 365 1
189 365 1
197 365 1
277 365 1
284 365 1
827 365 1
830 365 1
139 366 1
146 366 1
190 366 1
198 366 1
278 366 1
285 366 1
828 366 1
831 366 1
140 367 1
147 367 1
177 367 1
191 367 1
279 367 1
286 367 1
829 367 1
832 367 1
141 368 1
148 368 1
178 368 1
192 368 1
265 368 1
280 368 1
830 368 1
833 368 1
142 369 1
149 369 1
179 369 1
193 369 1
266 369 1
281 369 1
831 369 1
834 369 1
143 370 1
150 370 1
180 370 1
194 370 1
267 370 1
282 370 1
832 370 1
835 370 1
144 371 1
151 371 1
181 371 1
195 371 1
268 371 1
283 371 1
833 371 1
836 371 1
145 372 1
152 372 1
182 372 1
196 372 1
269 372 1
284 372 1
815 372 1
834 372 1
146 373 1
153 373 1
183 373 1
197 373 1
270 373 1
285 373 1
816 373 1
835 373 1
147 374 1
154 374 1
184 374 1
198 374 1
271 374 1
286 374 1
817 374 1
836 374 1
133 375 1
150 375 1
199 375 1
207 375 1
287 375 1
294 375 1
837 375 1
840 375 1
134 376 1
151 376 1
200 376 1
208 376 1
288 376 1
295 376 1
838 376 1
841 376 1
135 377 1
152 377 1
201 377 1
209 377 1
289 377 1
296 377 1
839 377 1
842 377 1
136 378 1
153 378 1
202 378 1
210 378 1
290 378 1
297 378 1
840 378 1
843 378 1
137 379 1
154 379 1
203 379 1
211 379 1
291 379 1
298 379 1
841 379 1
844 379 1
133 380 1
138 380 1
204 380 1
212 380 1
292 380 1
299 380 1
842 380 1
845 380 1
134 381 1
139 381 1
205 381 1
213 381 1
293 381 1
300 381 1
843 381 1
846 381 1
135 382 1
140 382 1
206 382 1
214 382 1
294 382 1
301 382 1
844 382 1
847 382 1
136 383 1
141 383 1
207 383 1
215 383 1
295 383 1
302 383 1
845 383 1
848 383 1
137 384 1
142 384 1
208 384 1
216 384 1
296 384 1
303 384 1
846 384 1
849 384 1
138 385 1
143 385 1
209 385 1
217 385 1
297 385 1
304 385 1
847 385 1
850 385 1
139 386 1
144 386 1
210 386 1
218 386 1
298 386 1
305 386 1
848 386 1
851 386 1
140 387 1
145 387 1
211 387 1
219 387 1
299 387 1
306 387 1
849 387 1
852 387 1
141 388 1
146 388 1
212 388 1
220 388 1
300 388 1
307 388 1
850 388 1
853 388 1
142 389 1
147 389 1
199 389 1
213 389 1
301 389 1
308 389 1
851 389 1
854 389 1
143 390 1
148 390 1
200 390 1
214 390 1
287 390 1
302 390 1
852 390 1
855 390 1
144 391 1
149 391 1
201 391 1
215 391 1
288 391 1
303 391 1
853 391 1
856 391 1
145 392 1
150 392 1
202 392 1
216 392 1
289 392 1
304 392 1
854 392 1
857 392 1
146 393 1
151 393 1
203 393 1
217 393 1
290 393 1
305 393 1
855 393 1
858 393 1
147 394 1
152 394 1
204 394 1
218 394 1
291 394 1
306 394 1
837 394 1
856 394 1
148 395 1
153 395 1
205 395 1
219 395 1
292 395 1
307 395 1
838 395 1
857 395 1
149 396 1
154 396 1
206 396 1
220 396 1
293 396 1
308 396 1
839 396 1
858 396 1
133 397 1
153 397 1
221 397 1
229 397 1
309 397 1
316 397 1
859 397 1
862 397 1
134 398 1
154 398 1
222 398 1
230 398 1
310 398 1
317 398 1
860 398 1
863 398 1
133 399 1
135 399 1
223 399 1
231 399 1
311 399 1
318 399 1
861 399 1
864 399 1
134 400 1
136 400 1
224 400 1
232 400 1
312 400 1
319 400 1
862 400 1
865 400 1
135 401 1
137 401 1
225 401 1
233 401 1
313 401 1
320 401 1
863 401 1
866 401 1
136 402 1
138 402 1
226 402 1
234 402 1
314 402 1
321 402 1
864 402 1
867 402 1
137 403 1
139 403 1
227 403 1
235 403 1
315 403 1
322 403 1
865 403 1
868 403 1
138 404 1
140 404 1
228 404 1
236 404 1
316 404 1
323 404 1
866 404 1
869 404 1
139 405 1
141 405 1
229 405 1
237 405 1
317 405 1
324 405 1
867 405 1
870 405 1
140 406 1
142 406 1
230 406 1
238 406 1
318 406 1
325 406 1
868 406 1
871 406 1
141 407 1
143 407 1
231 407 1
239 407 1
319 407 1
326 407 1
869 407 1
872 407 1
142 408 1
144 408 1
232 408 1
240 408 1
320 408 1
327 408 1
870 408 1
873 408 1
143 409 1
145 409 1
233 409 1
241 409 1
321 409 1
328 409 1
871 409 1
874 409 1
144 410 1
146 410 1
234 410 1
242 410 1
322 410 1
329 410 1
872 410 1
875 410 1
145 411 1
147 411 1
221 411 1
235 411 1
323 411 1
330 411 1
873 411 1
876 411 1
146 412 1
148 412 1
222 412 1
236 412 1
309 412 1
324 412 1
874 412 1
877 412 1
147 413 1
149 413 1
223 413 1
237 413 1
310 413 1
325 413 1
875 413 1
878 413 1
148 414 1
150 414 1
224 414 1
238 414 1
311 414 1
326 414 1
876 414 1
879 414 1
149 415 1
151 415 1
225 415 1
239 415 1
312 415 1
327 415 1
877 415 1
880 415 1
150 416 1
152 416 1
226 416 1
240 416 1
313 416 1
328 416 1
859 416 1
878 416 1
151 417 1
153 417 1
227 417 1
241 417 1
314 417 1
329 417 1
860 417 1
879 417 1
152 418 1
154 418 1
228 418 1
242 418 1
315 418 1
330 418 1
861 418 1
880 418 1
155 419 1
170 419 1
177 419 1
191 419 1
331 419 1
338 419 1
881 419 1
884 419 1
156 420 1
171 420 1
178 420 1
192 420 1
332 420 1
339 420 1
882 420 1
885 420 1
157 421 1
172 421 1
179 421 1
193 421 1
333 421 1
340 421 1
883 421 1
886 421 1
158 422 1
173 422 1
180 422 1
194 422 1
334 422 1
341 422 1
884 422 1
887 422 1
159 423 1
174 423 1
181 423 1
195 423 1
335 423 1
342 423 1
885 423 1
888 423 1
160 424 1
175 424 1
182 424 1
196 424 1
336 424 1
343 424 1
886 424 1
889 424 1
161 425 1
176 425 1
183 425 1
197 425 1
337 425 1
344 425 1
887 425 1
890 425 1
155 426 1
162 426 1
184 426 1
198 426 1
338 426 1
345 426 1
888 426 1
891 426 1
156 427 1
163 427 1
177 427 1
185 427 1
339 427 1
346 427 1
889 427 1
892 427 1
157 428 1
164 428 1
178 428 1
186 428 1
340 428 1
347 428 1
890 428 1
893 428 1
158 429 1
165 429 1
179 429 1
187 429 1
341 429 1
348 429 1
891 429 1
894 429 1
159 430 1
166 430 1
180 430 1
188 430 1
342 430 1
349 430 1
892 430 1
895 430 1
160 431 1
167 431 1
181 431 1
189 431 1
343 431 1
350 431 1
893 431 1
896 431 1
161 432 1
168 432 1
182 432 1
190 432 1
344 432 1
351 432 1
894 432 1
897 432 1
162 433 1
169 433 1
183 433 1
191 433 1
345 433 1
352 433 1
895 433 1
898 433 1
163 434 1
170 434 1
184 434 1
192 434 1
331 434 1
346 434 1
896 434 1
899 434 1
164 435 1
171 435 1
185 435 1
193 435 1
332 435 1
347 435 1
897 435 1
900 435 1
165 436 1
172 436 1
186 436 1
194 436 1
333 436 1
348 436 1
898 436 1
901 436 1
166 437 1
173 437 1
187 437 1
195 437 1
334 437 1
349 437 1
899 437 1
902 437 1
167 438 1
174 438 1
188 438 1
196 438 1
335 438 1
350 438 1
881 438 1
900 438 1
168 439 1
175 439 1
189 439 1
197 439 1
336 439 1
351 439 1
882 439 1
901 439 1
169 440 1
176 440 1
190 440 1
198 440 1
337 440 1
352 440 1
883 440 1
902 440 1
155 441 1
172 441 1
199 441 1
213 441 1
353 441 1
360 441 1
903 441 1
906 441 1
156 442 1
173 442 1
200 442 1
214 442 1
354 442 1
361 442 1
904 442 1
907 442 1
157 443 1
174 443 1
201 443 1
215 443 1
355 443 1
362 443 1
905 443 1
908 443 1
158 444 1
175 444 1
202 444 1
216 444 1
356 444 1
363 444 1
906 444 1
909 444 1
159 445 1
176 445 1
203 445 1
217 445 1
357 445 1
364 445 1
907 445 1
910 445 1
155 446 1
160 446 1
204 446 1
218 446 1
358 446 1
365 446 1
908 446 1
911 446 1
156 447 1
161 447 1
205 447 1
219 447 1
359 447 1
366 447 1
909 447 1
912 447 1
157 448 1
162 448 1
206 448 1
220 448 1
360 448 1
367 448 1
910 448 1
913 448 1
158 449 1
163 449 1
199 449 1
207 449 1
361 449 1
368 449 1
911 449 1
914 449 1
159 450 1
164 450 1
200 450 1
208 450 1
362 450 1
369 450 1
912 450 1
915 450 1
160 451 1
165 451 1
201 451 1
209 451 1
363 451 1
370 451 1
913 451 1
916 451 1
161 452 1
166 452 1
202 452 1
210 452 1
364 452 1
371 452 1
914 452 1
917 452 1
162 453 1
167 453 1
203 453 1
211 453 1
365 453 1
372 453 1
915 453 1
918 453 1
163 454 1
168 454 1
204 454 1
212 454 1
366 454 1
373 454 1
916 454 1
919 454 1
164 455 1
169 455 1
205 455 1
213 455 1
367 455 1
374 455 1
917 455 1
920 455 1
165 456 1
170 456 1
206 456 1
214 456 1
353 456 1
368 456 1
918 456 1
921 456 1
166 457 1
171 457 1
207 457 1
215 457 1
354 457 1
369 457 1
919 457 1
922 457 1
167 458 1
172 458 1
208 458 1
216 458 1
355 458 1
370 458 1
920 458 1
923 458 1
168 459 1
173 459 1
209 459 1
217 459 1
356 459 1
371 459 1
921 459 1
924 459 1
169 460 1
174 460 1
210 460 1
218 460 1
357 460 1
372 460 1
903 460 1
922 460 1
170 461 1
175 461 1
211 461 1
219 461 1
358 461 1
373 461 1
904 461 1
923 461 1
171 462 1
176 462 1
212 462 1
220 462 1
359 462 1
374 462 1
905 462 1
924 462 1
155 463 1
175 463 1
221 463 1
235 463 1
375 463 1
382 463 1
925 463 1
928 463 1
156 464 1
176 464 1
222 464 1
236 464 1
376 464 1
383 464 1
926 464 1
929 464 1
155 465 1
157 465 1
223 465 1
237 465 1
377 465 1
384 465 1
927 465 1
930 465 1
156 466 1
158 466 1
224 466 1
238 466 1
378 466 1
385 466 1
928 466 1
931 466 1
157 467 1
159 467 1
225 467 1
239 467 1
379 467 1
386 467 1
929 467 1
932 467 1
158 468 1
160 468 1
226 468 1
240 468 1
380 468 1
387 468 1
930 468 1
933 468 1
159 469 1
161 469 1
227 469 1
241 469 1
381 469 1
388 469 1
931 469 1
934 469 1
160 470 1
162 470 1
228 470 1
242 470 1
382 470 1
389 470 1
932 470 1
935 470 1
161 471 1
163 471 1
221 471 1
229 471 1
383 471 1
390 471 1
933 471 1
936 471 1
162 472 1
164 472 1
222 472 1
230 472 1
384 472 1
391 472 1
934 472 1
937 472 1
163 473 1
165 473 1
223 473 1
231 473 1
385 473 1
392 473 1
935 473 1
938 473 1
164 474 1
166 474 1
224 474 1
232 474 1
386 474 1
393 474 1
936 474 1
939 474 1
165 475 1
167 475 1
225 475 1
233 475 1
387 475 1
394 475 1
937 475 1
940 475 1
166 476 1
168 476 1
226 476 1
234 476 1
388 476 1
395 476 1
938 476 1
941 476 1
167 477 1
169 477 1
227 477 1
235 477 1
389 477 1
396 477 1
939 477 1
942 477 1
168 478 1
170 478 1
228 478 1
236 478 1
375 478 1
390 478 1
940 478 1
943 478 1
169 479 1
171 479 1
229 479 1
237 479 1
376 479 1
391 479 1
941 479 1
944 479 1
170 480 1
172 480 1
230 480 1
238 480 1
377 480 1
392 480 1
942 480 1
945 480 1
171 481 1
173 481 1
231 481 1
239 481 1
378 481 1
393 481 1
943 481 1
946 481 1
172 482 1
174 482 1
232 482 1
240 482 1
379 482 1
394 482 1
925 482 1
944 482 1
173 483 1
175 483 1
233 483 1
241 483 1
380 483 1
395 483 1
926 483 1
945 483 1
174 484 1
176 484 1
234 484 1
242 484 1
381 484 1
396 484 1
927 484 1
946 484 1
177 485 1
194 485 1
199 485 1
214 485 1
397 485 1
404 485 1
947 485 1
950 485 1
178 486 1
195 486 1
200 486 1
215 486 1
398 486 1
405 486 1
948 486 1
951 486 1
179 487 1
196 487 1
201 487 1
216 487 1
399 487 1
406 487 1
949 487 1
952 487 1
180 488 1
197 488 1
202 488 1
217 488 1
400 488 1
407 488 1
950 488 1
953 488 1
181 489 1
198 489 1
203 489 1
218 489 1
401 489 1
408 489 1
951 489 1
954 489 1
177 490 1
182 490 1
204 490 1
219 490 1
402 490 1
409 490 1
952 490 1
955 490 1
178 491 1
183 491 1
205 491 1
220 491 1
403 491 1
410 491 1
953 491 1
956 491 1
179 492 1
184 492 1
199 492 1
206 492 1
404 492 1
411 492 1
954 492 1
957 492 1
180 493 1
185 493 1
200 493 1
207 493 1
405 493 1
412 493 1
955 493 1
958 493 1
181 494 1
186 494 1
201 494 1
208 494 1
406 494 1
413 494 1
956 494 1
959 494 1
182 495 1
187 495 1
202 495 1
209 495 1
407 495 1
414 495 1
957 495 1
960 495 1
183 496 1
188 496 1
203 496 1
210 496 1
408 496 1
415 496 1
958 496 1
961 496 1
184 497 1
189 497 1
204 497 1
211 497 1
409 497 1
416 497 1
959 497 1
962 497 1
185 498 1
190 498 1
205 498 1
212 498 1
410 498 1
417 498 1
960 498 1
963 498 1
186 499 1
191 499 1
206 499 1
213 499 1
411 499 1
418 499 1
961 499 1
964 499 1
187 500 1
192 500 1
207 500 1
214 500 1
397 500 1
412 500 1
962 500 1
965 500 1
188 501 1
193 501 1
208 501 1
215 501 1
398 501 1
413 501 1
963 501 1
966 501 1
189 502 1
194 502 1
209 502 1
216 502 1
399 502 1
414 502 1
964 502 1
967 502 1
190 503 1
195 503 1
210 503 1
217 503 1
400 503 1
415 503 1
965 503 1
968 503 1
191 504 1
196 504 1
211 504 1
218 504 1
401 504 1
416 504 1
947 504 1
966 504 1
192 505 1
197 505 1
212 505 1
219 505 1
402 505 1
417 505 1
948 505 1
967 505 1
193 506 1
198 506 1
213 506 1
220 506 1
403 506 1
418 506 1
949 506 1
968 506 1
177 507 1
197 507 1
221 507 1
236 507 1
419 507 1
426 507 1
969 507 1
972 507 1
178 508 1
198 508 1
222 508 1
237 508 1
420 508 1
427 508 1
970 508 1
973 508 1
177 509 1
179 509 1
223 509 1
238 509 1
421 509 1
428 509 1
971 509 1
974 509 1
178 510 1
180 510 1
224 510 1
239 510 1
422 510 1
429 510 1
972 510 1
975 510 1
179 511 1
181 511 1
225 511 1
240 511 1
423 511 1
430 511 1
973 511 1
976 511 1
180 512 1
182 512 1
226 512 1
241 512 1
424 512 1
431 512 1
974 512 1
977 512 1
181 513 1
183 513 1
227 513 1
242 513 1
425 513 1
432 513 1
975 513 1
978 513 1
182 514 1
184 514 1
221 514 1
228 514 1
426 514 1
433 514 1
976 514 1
979 514 1
183 515 1
185 515 1
222 515 1
229 515 1
427 515 1
434 515 1
977 515 1
980 515 1
184 516 1
186 516 1
223 516 1
230 516 1
428 516 1
435 516 1
978 516 1
981 516 1
185 517 1
187 517 1
224 517 1
231 517 1
429 517 1
436 517 1
979 517 1
982 517 1
186 518 1
188 518 1
225 518 1
232 518 1
430 518 1
437 518 1
980 518 1
983 518 1
187 519 1
189 519 1
226 519 1
233 519 1
431 519 1
438 519 1
981 519 1
984 519 1
188 520 1
190 520 1
227 520 1
234 520 1
432 520 1
439 520 1
982 520 1
985 520 1
189 521 1
191 521 1
228 521 1
235 521 1
433 521 1
440 521 1
983 521 1
986 521 1
190 522 1
192 522 1
229 522 1
236 522 1
419 522 1
434 522 1
984 522 1
987 522 1
191 523 1
193 523 1
230 523 1
237 523 1
420 523 1
435 523 1
985 523 1
988 523 1
192 524 1
194 524 1
231 524 1
238 524 1
421 524 1
436 524 1
986 524 1
989 524 1
193 525 1
195 525 1
232 525 1
239 525 1
422 525 1
437 525 1
987 525 1
990 525 1
194 526 1
196 526 1
233 526 1
240 526 1
423 526 1
438 526 1
969 526 1
988 526 1
195 527 1
197 527 1
234 527 1
241 527 1
424 527 1
439 527 1
970 527 1
989 527 1
196 528 1
198 528 1
235 528 1
242 528 1
425 528 1
440 528 1
971 528 1
990 528 1
199 529 1
219 529 1
221 529 1
238 529 1
441 529 1
448 529 1
991 529 1
994 529 1
200 530 1
220 530 1
222 530 1
239 530 1
442 530 1
449 530 1
992 530 1
995 530 1
199 531 1
201 531 1
223 531 1
240 531 1
443 531 1
450 531 1
993 531 1
996 531 1
200 532 1
202 532 1
224 532 1
241 532 1
444 532 1
451 532 1
994 532 1
997 532 1
201 533 1
203 533 1
225 533 1
242 533 1
445 533 1
452 533 1
995 533 1
998 533 1
202 534 1
204 534 1
221 534 1
226 534 1
446 534 1
453 534 1
996 534 1
999 534 1
203 535 1
205 535 1
222 535 1
227 535 1
447 535 1
454 535 1
997 535 1
1000 535 1
204 536 1
206 536 1
223 536 1
228 536 1
448 536 1
455 536 1
998 536 1
1001 536 1
205 537 1
207 537 1
224 537 1
229 537 1
449 537 1
456 537 1
999 537 1
1002 537 1
206 538 1
208 538 1
225 538 1
230 538 1
450 538 1
457 538 1
1000 538 1
1003 538 1
207 539 1
209 539 1
226 539 1
231 539 1
451 539 1
458 539 1
1001 539 1
1004 539 1
208 540 1
210 540 1
227 540 1
232 540 1
452 540 1
459 540 1
1002 540 1
1005 540 1
209 541 1
211 541 1
228 541 1
233 541 1
453 541 1
460 541 1
1003 541 1
1006 541 1
210 542 1
212 542 1
229 542 1
234 542 1
454 542 1
461 542 1
1004 542 1
1007 542 1
211 543 1
213 543 1
230 543 1
235 543 1
455 543 1
462 543 1
1005 543 1
1008 543 1
212 544 1
214 544 1
231 544 1
236 544 1
441 544 1
456 544 1
1006 544 1
1009 544 1
213 545 1
215 545 1
232 545 1
237 545 1
442 545 1
457 545 1
1007 545 1
1010 545 1
214 546 1
216 546 1
233 546 1
238 546 1
443 546 1
458 546 1
1008 546 1
1011 546 1
215 547 1
217 547 1
234 547 1
239 547 1
444 547 1
459 547 1
1009 547 1
1012 547 1
216 548 1
218 548 1
235 548 1
240 548 1
445 548 1
460 548 1
991 548 1
1010 548 1
217 549 1
219 549 1
236 549 1
241 549 1
446 549 1
461 549 1
992 549 1
1011 549 1
218 550 1
220 550 1
237 550 1
242 550 1
447 550 1
462 550 1
993 550 1
1012 550 1
243 551 1
258 551 1
265 551 1
279 551 1
331 551 1
339 551 1
1013 551 1
1016 551 1
244 552 1
259 552 1
266 552 1
280 552 1
332 552 1
340 552 1
1014 552 1
1017 552 1
245 553 1
260 553 1
267 553 1
281 553 1
333 553 1
341 553 1
1015 553 1
1018 553 1
246 554 1
261 554 1
268 554 1
282 554 1
334 554 1
342 554 1
1016 554 1
1019 554 1
247 555 1
262 555 1
269 555 1
283 555 1
335 555 1
343 555 1
1017 555 1
1020 555 1
248 556 1
263 556 1
270 556 1
284 556 1
336 556 1
344 556 1
1018 556 1
1021 556 1
249 557 1
264 557 1
271 557 1
285 557 1
337 557 1
345 557 1
1019 557 1
1022 557 1
243 558 1
250 558 1
272 558 1
286 558 1
338 558 1
346 558 1
1020 558 1
1023 558 1
244 559 1
251 559 1
265 559 1
273 559 1
339 559 1
347 559 1
1021 559 1
1024 559 1
245 560 1
252 560 1
266 560 1
274 560 1
340 560 1
348 560 1
1022 560 1
1025 560 1
246 561 1
253 561 1
267 561 1
275 561 1
341 561 1
349 561 1
1023 561 1
1026 561 1
247 562 1
254 562 1
268 562 1
276 562 1
342 562 1
350 562 1
1024 562 1
1027 562 1
248 563 1
255 563 1
269 563 1
277 563 1
343 563 1
351 563 1
1025 563 1
1028 563 1
249 564 1
256 564 1
270 564 1
278 564 1
344 564 1
352 564 1
1026 564 1
1029 564 1
250 565 1
257 565 1
271 565 1
279 565 1
331 565 1
345 565 1
1027 565 1
1030 565 1
251 566 1
258 566 1
272 566 1
280 566 1
332 566 1
346 566 1
1028 566 1
1031 566 1
252 567 1
259 567 1
273 567 1
281 567 1
333 567 1
347 567 1
1029 567 1
1032 567 1
253 568 1
260 568 1
274 568 1
282 568 1
334 568 1
348 568 1
1030 568 1
1033 568 1
254 569 1
261 569 1
275 569 1
283 569 1
335 569 1
349 569 1
1031 569 1
1034 569 1
255 570 1
262 570 1
276 570 1
284 570 1
336 570 1
350 570 1
1013 570 1
1032 570 1
256 571 1
263 571 1
277 571 1
285 571 1
337 571 1
351 571 1
1014 571 1
1033 571 1
257 572 1
264 572 1
278 572 1
286 572 1
338 572 1
352 572 1
1015 572 1
1034 572 1
243 573 1
260 573 1
287 573 1
301 573 1
353 573 1
361 573 1
1035 573 1
1038 573 1
244 574 1
261 574 1
288 574 1
302 574 1
354 574 1
362 574 1
1036 574 1
1039 574 1
245 575 1
262 575 1
289 575 1
303 575 1
355 575 1
363 575 1
1037 575 1
1040 575 1
246 576 1
263 576 1
290 576 1
304 576 1
356 576 1
364 576 1
1038 576 1
1041 576 1
247 577 1
264 577 1
291 577 1
305 577 1
357 577 1
365 577 1
1039 577 1
1042 577 1
243 578 1
248 578 1
292 578 1
306 578 1
358 578 1
366 578 1
1040 578 1
1043 578 1
244 579 1
249 579 1
293 579 1
307 579 1
359 579 1
367 579 1
1041 579 1
1044 579 1
245 580 1
250 580 1
294 580 1
308 580 1
360 580 1
368 580 1
1042 580 1
1045 580 1
246 581 1
251 581 1
287 581 1
295 581 1
361 581 1
369 581 1
1043 581 1
1046 581 1
247 582 1
252 582 1
288 582 1
296 582 1
362 582 1
370 582 1
1044 582 1
1047 582 1
248 583 1
253 583 1
289 583 1
297 583 1
363 583 1
371 583 1
1045 583 1
1048 583 1
249 584 1
254 584 1
290 584 1
298 584 1
364 584 1
372 584 1
1046 584 1
1049 584 1
250 585 1
255 585 1
291 585 1
299 585 1
365 585 1
373 585 1
1047 585 1
1050 585 1
251 586 1
256 586 1
292 586 1
300 586 1
366 586 1
374 586 1
1048 586 1
1051 586 1
252 587 1
257 587 1
293 587 1
301 587 1
353 587 1
367 587 1
1049 587 1
1052 587 1
253 588 1
258 588 1
294 588 1
302 588 1
354 588 1
368 588 1
1050 588 1
1053 588 1
254 589 1
259 589 1
295 589 1
303 589 1
355 589 1
369 589 1
1051 589 1
1054 589 1
255 590 1
260 590 1
296 590 1
304 590 1
356 590 1
370 590 1
1052 590 1
1055 590 1
256 591 1
261 591 1
297 591 1
305 591 1
357 591 1
371 591 1
1053 591 1
1056 591 1
257 592 1
262 592 1
298 592 1
306 592 1
358 592 1
372 592 1
1035 592 1
1054 592 1
258 593 1
263 593 1
299 593 1
307 593 1
359 593 1
373 593 1
1036 593 1
1055 593 1
259 594 1
264 594 1
300 594 1
308 594 1
360 594 1
374 594 1
1037 594 1
1056 594 1
243 595 1
263 595 1
309 595 1
323 595 1
375 595 1
383 595 1
1057 595 1
1060 595 1
244 596 1
264 596 1
310 596 1
324 596 1
376 596 1
384 596 1
1058 596 1
1061 596 1
243 597 1
245 597 1
311 597 1
325 597 1
377 597 1
385 597 1
1059 597 1
1062 597 1
244 598 1
246 598 1
312 598 1
326 598 1
378 598 1
386 598 1
1060 598 1
1063 598 1
245 599 1
247 599 1
313 599 1
327 599 1
379 599 1
387 599 1
1061 599 1
1064 599 1
246 600 1
248 600 1
314 600 1
328 600 1
380 600 1
388 600 1
1062 600 1
1065 600 1
247 601 1
249 601 1
315 601 1
329 601 1
381 601 1
389 601 1
1063 601 1
1066 601 1
248 602 1
250 602 1
316 602 1
330 602 1
382 602 1
390 602 1
1064 602 1
1067 602 1
249 603 1
251 603 1
309 603 1
317 603 1
383 603 1
391 603 1
1065 603 1
1068 603 1
250 604 1
252 604 1
310 604 1
318 604 1
384 604 1
392 604 1
1066 604 1
1069 604 1
251 605 1
253 605 1
311 605 1
319 605 1
385 605 1
393 605 1
1067 605 1
1070 605 1
252 606 1
254 606 1
312 606 1
320 606 1
386 606 1
394 606 1
1068 606 1
1071 606 1
253 607 1
255 607 1
313 607 1
321 607 1
387 607 1
395 607 1
1069 607 1
1072 607 1
254 608 1
256 608 1
314 608 1
322 608 1
388 608 1
396 608 1
1070 608 1
1073 608 1
255 609 1
257 609 1
315 609 1
323 609 1
375 609 1
389 609 1
1071 609 1
1074 609 1
256 610 1
258 610 1
316 610 1
324 610 1
376 610 1
390 610 1
1072 610 1
1075 610 1
257 611 1
259 611 1
317 611 1
325 611 1
377 611 1
391 611 1
1073 611 1
1076 611 1
258 612 1
260 612 1
318 612 1
326 612 1
378 612 1
392 612 1
1074 612 1
1077 612 1
259 613 1
261 613 1
319 613 1
327 613 1
379 613 1
393 613 1
1075 613 1
1078 613 1
260 614 1
262 614 1
320 614 1
328 614 1
380 614 1
394 614 1
1057 614 1
1076 614 1
261 615 1
263 615 1
321 615 1
329 615 1
381 615 1
395 615 1
1058 615 1
1077 615 1
262 616 1
264 616 1
322 616 1
330 616 1
382 616 1
396 616 1
1059 616 1
1078 616 1
265 617 1
282 617 1
287 617 1
302 617 1
397 617 1
405 617 1
1079 617 1
1082 617 1
266 618 1
283 618 1
288 618 1
303 618 1
398 618 1
406 618 1
1080 618 1
1083 618 1
267 619 1
284 619 1
289 619 1
304 619 1
399 619 1
407 619 1
1081 619 1
1084 619 1
268 620 1
285 620 1
290 620 1
305 620 1
400 620 1
408 620 1
1082 620 1
1085 620 1
269 621 1
286 621 1
291 621 1
306 621 1
401 621 1
409 621 1
1083 621 1
1086 621 1
265 622 1
270 622 1
292 622 1
307 622 1
402 622 1
410 622 1
1084 622 1
1087 622 1
266 623 1
271 623 1
293 623 1
308 623 1
403 623 1
411 623 1
1085 623 1
1088 623 1
267 624 1
272 624 1
287 624 1
294 624 1
404 624 1
412 624 1
1086 624 1
1089 624 1
268 625 1
273 625 1
288 625 1
295 625 1
405 625 1
413 625 1
1087 625 1
1090 625 1
269 626 1
274 626 1
289 626 1
296 626 1
406 626 1
414 626 1
1088 626 1
1091 626 1
270 627 1
275 627 1
290 627 1
297 627 1
407 627 1
415 627 1
1089 627 1
1092 627 1
271 628 1
276 628 1
291 628 1
298 628 1
408 628 1
416 628 1
1090 628 1
1093 628 1
272 629 1
277 629 1
292 629 1
299 629 1
409 629 1
417 629 1
1091 629 1
1094 629 1
273 630 1
278 630 1
293 630 1
300 630 1
410 630 1
418 630 1
1092 630 1
1095 630 1
274 631 1
279 631 1
294 631 1
301 631 1
397 631 1
411 631 1
1093 631 1
1096 631 1
275 632 1
280 632 1
295 632 1
302 632 1
398 632 1
412 632 1
1094 632 1
1097 632 1
276 633 1
281 633 1
296 633 1
303 633 1
399 633 1
413 633 1
1095 633 1
1098 633 1
277 634 1
282 634 1
297 634 1
304 634 1
400 634 1
414 634 1
1096 634 1
1099 634 1
278 635 1
283 635 1
298 635 1
305 635 1
401 635 1
415 635 1
1097 635 1
1100 635 1
279 636 1
284 636 1
299 636 1
306 636 1
402 636 1
416 636 1
1079 636 1
1098 636 1
280 637 1
285 637 1
300 637 1
307 637 1
403 637 1
417 637 1
1080 637 1
1099 637 1
281 638 1
286 638 1
301 638 1
308 638 1
404 638 1
418 638 1
1081 638 1
1100 638 1
265 639 1
285 639 1
309 639 1
324 639 1
419 639 1
427 639 1
1101 639 1
1104 639 1
266 640 1
286 640 1
310 640 1
325 640 1
420 640 1
428 640 1
1102 640 1
1105 640 1
265 641 1
267 641 1
311 641 1
326 641 1
421 641 1
429 641 1
1103 641 1
1106 641 1
266 642 1
268 642 1
312 642 1
327 642 1
422 642 1
430 642 1
1104 642 1
1107 642 1
267 643 1
269 643 1
313 643 1
328 643 1
423 643 1
431 643 1
1105 643 1
1108 643 1
268 644 1
270 644 1
314 644 1
329 644 1
424 644 1
432 644 1
1106 644 1
1109 644 1
269 645 1
271 645 1
315 645 1
330 645 1
425 645 1
433 645 1
1107 645 1
1110 645 1
270 646 1
272 646 1
309 646 1
316 646 1
426 646 1
434 646 1
1108 646 1
1111 646 1
271 647 1
273 647 1
310 647 1
317 647 1
427 647 1
435 647 1
1109 647 1
1112 647 1
272 648 1
274 648 1
311 648 1
318 648 1
428 648 1
436 648 1
1110 648 1
1113 648 1
273 649 1
275 649 1
312 649 1
319 649 1
429 649 1
437 649 1
1111 649 1
1114 649 1
274 650 1
276 650 1
313 650 1
320 650 1
430 650 1
438 650 1
1112 650 1
1115 650 1
275 651 1
277 651 1
314 651 1
321 651 1
431 651 1
439 651 1
1113 651 1
1116 651 1
276 652 1
278 652 1
315 652 1
322 652 1
432 652 1
440 652 1
1114 652 1
1117 652 1
277 653 1
279 653 1
316 653 1
323 653 1
419 653 1
433 653 1
1115 653 1
1118 653 1
278 654 1
280 654 1
317 654 1
324 654 1
420 654 1
434 654 1
1116 654 1
1119 654 1
279 655 1
281 655 1
318 655 1
325 655 1
421 655 1
435 655 1
1117 655 1
1120 655 1
280 656 1
282 656 1
319 656 1
326 656 1
422 656 1
436 656 1
1118 656 1
1121 656 1
281 657 1
283 657 1
320 657 1
327 657 1
423 657 1
437 657 1
1119 657 1
1122 657 1
282 658 1
284 658 1
321 658 1
328 658 1
424 658 1
438 658 1
1101 658 1
1120 658 1
283 659 1
285 659 1
322 659 1
329 659 1
425 659 1
439 659 1
1102 659 1
1121 659 1
284 660 1
286 660 1
323 660 1
330 660 1
426 660 1
440 660 1
1103 660 1
1122 660 1
287 661 1
307 661 1
309 661 1
326 661 1
441 661 1
449 661 1
1123 661 1
1126 661 1
288 662 1
308 662 1
310 662 1
327 662 1
442 662 1
450 662 1
1124 662 1
1127 662 1
287 663 1
289 663 1
311 663 1
328 663 1
443 663 1
451 663 1
1125 663 1
1128 663 1
288 664 1
290 664 1
312 664 1
329 664 1
444 664 1
452 664 1
1126 664 1
1129 664 1
289 665 1
291 665 1
313 665 1
330 665 1
445 665 1
453 665 1
1127 665 1
1130 665 1
290 666 1
292 666 1
309 666 1
314 666 1
446 666 1
454 666 1
1128 666 1
1131 666 1
291 667 1
293 667 1
310 667 1
315 667 1
447 667 1
455 667 1
1129 667 1
1132 667 1
292 668 1
294 668 1
311 668 1
316 668 1
448 668 1
456 668 1
1130 668 1
1133 668 1
293 669 1
295 669 1
312 669 1
317 669 1
449 669 1
457 669 1
1131 669 1
1134 669 1
294 670 1
296 670 1
313 670 1
318 670 1
450 670 1
458 670 1
1132 670 1
1135 670 1
295 671 1
297 671 1
314 671 1
319 671 1
451 671 1
459 671 1
1133 671 1
1136 671 1
296 672 1
298 672 1
315 672 1
320 672 1
452 672 1
460 672 1
1134 672 1
1137 672 1
297 673 1
299 673 1
316 673 1
321 673 1
453 673 1
461 673 1
1135 673 1
1138 673 1
298 674 1
300 674 1
317 674 1
322 674 1
454 674 1
462 674 1
1136 674 1
1139 674 1
299 675 1
301 675 1
318 675 1
323 675 1
441 675 1
455 675 1
1137 675 1
1140 675 1
300 676 1
302 676 1
319 676 1
324 676 1
442 676 1
456 676 1
1138 676 1
1141 676 1
301 677 1
303 677 1
320 677 1
325 677 1
443 677 1
457 677 1
1139 677 1
1142 677 1
302 678 1
304 678 1
321 678 1
326 678 1
444 678 1
458 678 1
1140 678 1
1143 678 1
303 679 1
305 679 1
322 679 1
327 679 1
445 679 1
459 679 1
1141 679 1
1144 679 1
304 680 1
306 680 1
323 680 1
328 680 1
446 680 1
460 680 1
1123 680 1
1142 680 1
305 681 1
307 681 1
324 681 1
329 681 1
447 681 1
461 681 1
1124 681 1
1143 681 1
306 682 1
308 682 1
325 682 1
330 682 1
448 682 1
462 682 1
1125 682 1
1144 682 1
331 683 1
348 683 1
353 683 1
368 683 1
397 683 1
411 683 1
1145 683 1
1148 683 1
332 684 1
349 684 1
354 684 1
369 684 1
398 684 1
412 684 1
1146 684 1
1149 684 1
333 685 1
350 685 1
355 685 1
370 685 1
399 685 1
413 685 1
1147 685 1
1150 685 1
334 686 1
351 686 1
356 686 1
371 686 1
400 686 1
414 686 1
1148 686 1
1151 686 1
335 687 1
352 687 1
357 687 1
372 687 1
401 687 1
415 687 1
1149 687 1
1152 687 1
331 688 1
336 688 1
358 688 1
373 688 1
402 688 1
416 688 1
1150 688 1
1153 688 1
332 689 1
337 689 1
359 689 1
374 689 1
403 689 1
417 689 1
1151 689 1
1154 689 1
333 690 1
338 690 1
353 690 1
360 690 1
404 690 1
418 690 1
1152 690 1
1155 690 1
334 691 1
339 691 1
354 691 1
361 691 1
397 691 1
405 691 1
1153 691 1
1156 691 1
335 692 1
340 692 1
355 692 1
362 692 1
398 692 1
406 692 1
1154 692 1
1157 692 1
336 693 1
341 693 1
356 693 1
363 693 1
399 693 1
407 693 1
1155 693 1
1158 693 1
337 694 1
342 694 1
357 694 1
364 694 1
400 694 1
408 694 1
1156 694 1
1159 694 1
338 695 1
343 695 1
358 695 1
365 695 1
401 695 1
409 695 1
1157 695 1
1160 695 1
339 696 1
344 696 1
359 696 1
366 696 1
402 696 1
410 696 1
1158 696 1
1161 696 1
340 697 1
345 697 1
360 697 1
367 697 1
403 697 1
411 697 1
1159 697 1
1162 697 1
341 698 1
346 698 1
361 698 1
368 698 1
404 698 1
412 698 1
1160 698 1
1163 698 1
342 699 1
347 699 1
362 699 1
369 699 1
405 699 1
413 699 1
1161 699 1
1164 699 1
343 700 1
348 700 1
363 700 1
370 700 1
406 700 1
414 700 1
1162 700 1
1165 700 1
344 701 1
349 701 1
364 701 1
371 701 1
407 701 1
415 701 1
1163 701 1
1166 701 1
345 702 1
350 702 1
365 702 1
372 702 1
408 702 1
416 702 1
1145 702 1
1164 702 1
346 703 1
351 703 1
366 703 1
373 703 1
409 703 1
417 703 1
1146 703 1
1165 703 1
347 704 1
352 704 1
367 704 1
374 704 1
410 704 1
418 704 1
1147 704 1
1166 704 1
331 705 1
351 705 1
375 705 1
390 705 1
419 705 1
433 705 1
1167 705 1
1170 705 1
332 706 1
352 706 1
376 706 1
391 706 1
420 706 1
434 706 1
1168 706 1
1171 706 1
331 707 1
333 707 1
377 707 1
392 707 1
421 707 1
435 707 1
1169 707 1
1172 707 1
332 708 1
334 708 1
378 708 1
393 708 1
422 708 1
436 708 1
1170 708 1
1173 708 1
333 709 1
335 709 1
379 709 1
394 709 1
423 709 1
437 709 1
1171 709 1
1174 709 1
334 710 1
336 710 1
380 710 1
395 710 1
424 710 1
438 710 1
1172 710 1
1175 710 1
335 711 1
337 711 1
381 711 1
396 711 1
425 711 1
439 711 1
1173 711 1
1176 711 1
336 712 1
338 712 1
375 712 1
382 712 1
426 712 1
440 712 1
1174 712 1
1177 712 1
337 713 1
339 713 1
376 713 1
383 713 1
419 713 1
427 713 1
1175 713 1
1178 713 1
338 714 1
340 714 1
377 714 1
384 714 1
420 714 1
428 714 1
1176 714 1
1179 714 1
339 715 1
341 715 1
378 715 1
385 715 1
421 715 1
429 715 1
1177 715 1
1180 715 1
340 716 1
342 716 1
379 716 1
386 716 1
422 716 1
430 716 1
1178 716 1
1181 716 1
341 717 1
343 717 1
380 717 1
387 717 1
423 717 1
431 717 1
1179 717 1
1182 717 1
342 718 1
344 718 1
381 718 1
388 718 1
424 718 1
432 718 1
1180 718 1
1183 718 1
343 719 1
345 719 1
382 719 1
389 719 1
425 719 1
433 719 1
1181 719 1
1184 719 1
344 720 1
346 720 1
383 720 1
390 720 1
426 720 1
434 720 1
1182 720 1
1185 720 1
345 721 1
347 721 1
384 721 1
391 721 1
427 721 1
435 721 1
1183 721 1
1186 721 1
346 722 1
348 722 1
385 722 1
392 722 1
428 722 1
436 722 1
1184 722 1
1187 722 1
347 723 1
349 723 1
386 723 1
393 723 1
429 723 1
437 723 1
1185 723 1
1188 723 1
348 724 1
350 724 1
387 724 1
394 724 1
430 724 1
438 724 1
1167 724 1
1186 724 1
349 725 1
351 725 1
388 725 1
395 725 1
431 725 1
439 725 1
1168 725 1
1187 725 1
350 726 1
352 726 1
389 726 1
396 726 1
432 726 1
440 726 1
1169 726 1
1188 726 1
353 727 1
373 727 1
375 727 1
392 727 1
441 727 1
455 727 1
1189 727 1
1192 727 1
354 728 1
374 728 1
376 728 1
393 728 1
442 728 1
456 728 1
1190 728 1
1193 728 1
353 729 1
355 729 1
377 729 1
394 729 1
443 729 1
457 729 1
1191 729 1
1194 729 1
354 730 1
356 730 1
378 730 1
395 730 1
444 730 1
458 730 1
1192 730 1
1195 730 1
355 731 1
357 731 1
379 731 1
396 731 1
445 731 1
459 731 1
1193 731 1
1196 731 1
356 732 1
358 732 1
375 732 1
380 732 1
446 732 1
460 732 1
1194 732 1
1197 732 1
357 733 1
359 733 1
376 733 1
381 733 1
447 733 1
461 733 1
1195 733 1
1198 733 1
358 734 1
360 734 1
377 734 1
382 734 1
448 734 1
462 734 1
1196 734 1
1199 734 1
359 735 1
361 735 1
378 735 1
383 735 1
441 735 1
449 735 1
1197 735 1
1200 735 1
360 736 1
362 736 1
379 736 1
384 736 1
442 736 1
450 736 1
1198 736 1
1201 736 1
361 737 1
363 737 1
380 737 1
385 737 1
443 737 1
451 737 1
1199 737 1
1202 737 1
362 738 1
364 738 1
381 738 1
386 738 1
444 738 1
452 738 1
1200 738 1
1203 738 1
363 739 1
365 739 1
382 739 1
387 739 1
445 739 1
453 739 1
1201 739 1
1204 739 1
364 740 1
366 740 1
383 740 1
388 740 1
446 740 1
454 740 1
1202 740 1
1205 740 1
365 741 1
367 741 1
384 741 1
389 741 1
447 741 1
455 741 1
1203 741 1
1206 741 1
366 742 1
368 742 1
385 742 1
390 742 1
448 742 1
456 742 1
1204 742 1
1207 742 1
367 743 1
369 743 1
386 743 1
391 743 1
449 743 1
457 743 1
1205 743 1
1208 743 1
368 744 1
370 744 1
387 744 1
392 744 1
450 744 1
458 744 1
1206 744 1
1209 744 1
369 745 1
371 745 1
388 745 1
393 745 1
451 745 1
459 745 1
1207 745 1
1210 745 1
370 746 1
372 746 1
389 746 1
394 746 1
452 746 1
460 746 1
1189 746 1
1208 746 1
371 747 1
373 747 1
390 747 1
395 747 1
453 747 1
461 747 1
1190 747 1
1209 747 1
372 748 1
374 748 1
391 748 1
396 748 1
454 748 1
462 748 1
1191 748 1
1210 748 1
397 749 1
417 749 1
419 749 1
436 749 1
441 749 1
456 749 1
1211 749 1
1214 749 1
398 750 1
418 750 1
420 750 1
437 750 1
442 750 1
457 750 1
1212 750 1
1215 750 1
397 751 1
399 751 1
421 751 1
438 751 1
443 751 1
458 751 1
1213 751 1
1216 751 1
398 752 1
400 752 1
422 752 1
439 752 1
444 752 1
459 752 1
1214 752 1
1217 752 1
399 753 1
401 753 1
423 753 1
440 753 1
445 753 1
460 753 1
1215 753 1
1218 753 1
400 754 1
402 754 1
419 754 1
424 754 1
446 754 1
461 754 1
1216 754 1
1219 754 1
401 755 1
403 755 1
420 755 1
425 755 1
447 755 1
462 755 1
1217 755 1
1220 755 1
402 756 1
404 756 1
421 756 1
426 756 1
441 756 1
448 756 1
1218 756 1
1221 756 1
403 757 1
405 757 1
422 757 1
427 757 1
442 757 1
449 757 1
1219 757 1
1222 757 1
404 758 1
406 758 1
423 758 1
428 758 1
443 758 1
450 758 1
1220 758 1
1223 758 1
405 759 1
407 759 1
424 759 1
429 759 1
444 759 1
451 759 1
1221 759 1
1224 759 1
406 760 1
408 760 1
425 760 1
430 760 1
445 760 1
452 760 1
1222 760 1
1225 760 1
407 761 1
409 761 1
426 761 1
431 761 1
446 761 1
453 761 1
1223 761 1
1226 761 1
408 762 1
410 762 1
427 762 1
432 762 1
447 762 1
454 762 1
1224 762 1
1227 762 1
409 763 1
411 763 1
428 763 1
433 763 1
448 763 1
455 763 1
1225 763 1
1228 763 1
410 764 1
412 764 1
429 764 1
434 764 1
449 764 1
456 764 1
1226 764 1
1229 764 1
411 765 1
413 765 1
430 765 1
435 765 1
450 765 1
457 765 1
1227 765 1
1230 765 1
412 766 1
414 766 1
431 766 1
436 766 1
451 766 1
458 766 1
1228 766 1
1231 766 1
413 767 1
415 767 1
432 767 1
437 767 1
452 767 1
459 767 1
1229 767 1
1232 767 1
414 768 1
416 768 1
433 768 1
438 768 1
453 768 1
460 768 1
1211 768 1
1230 768 1
415 769 1
417 769 1
434 769 1
439 769 1
454 769 1
461 769 1
1212 769 1
1231 769 1
416 770 1
418 770 1
435 770 1
440 770 1
455 770 1
462 770 1
1213 770 1
1232 770 1
463 771 1
477 771 1
485 771 1
493 771 1
573 771 1
580 771 1
793 771 1
798 771 1
464 772 1
478 772 1
486 772 1
494 772 1
574 772 1
581 772 1
794 772 1
799 772 1
465 773 1
479 773 1
487 773 1
495 773 1
575 773 1
582 773 1
795 773 1
800 773 1
466 774 1
480 774 1
488 774 1
496 774 1
576 774 1
583 774 1
796 774 1
801 774 1
467 775 1
481 775 1
489 775 1
497 775 1
577 775 1
584 775 1
797 775 1
802 775 1
468 776 1
482 776 1
490 776 1
498 776 1
578 776 1
585 776 1
798 776 1
803 776 1
469 777 1
483 777 1
491 777 1
499 777 1
579 777 1
586 777 1
799 777 1
804 777 1
470 778 1
484 778 1
492 778 1
500 778 1
580 778 1
587 778 1
800 778 1
805 778 1
463 779 1
471 779 1
493 779 1
501 779 1
581 779 1
588 779 1
801 779 1
806 779 1
464 780 1
472 780 1
494 780 1
502 780 1
582 780 1
589 780 1
802 780 1
807 780 1
465 781 1
473 781 1
495 781 1
503 781 1
583 781 1
590 781 1
803 781 1
808 781 1
466 782 1
474 782 1
496 782 1
504 782 1
584 782 1
591 782 1
804 782 1
809 782 1
467 783 1
475 783 1
497 783 1
505 783 1
585 783 1
592 783 1
805 783 1
810 783 1
468 784 1
476 784 1
498 784 1
506 784 1
586 784 1
593 784 1
806 784 1
811 784 1
469 785 1
477 785 1
485 785 1
499 785 1
587 785 1
594 785 1
807 785 1
812 785 1
470 786 1
478 786 1
486 786 1
500 786 1
573 786 1
588 786 1
808 786 1
813 786 1
471 787 1
479 787 1
487 787 1
501 787 1
574 787 1
589 787 1
809 787 1
814 787 1
472 788 1
480 788 1
488 788 1
502 788 1
575 788 1
590 788 1
793 788 1
810 788 1
473 789 1
481 789 1
489 789 1
503 789 1
576 789 1
591 789 1
794 789 1
811 789 1
474 790 1
482 790 1
490 790 1
504 790 1
577 790 1
592 790 1
795 790 1
812 790 1
475 791 1
483 791 1
491 791 1
505 791 1
578 791 1
593 791 1
796 791 1
813 791 1
476 792 1
484 792 1
492 792 1
506 792 1
579 792 1
594 792 1
797 792 1
814 792 1
463 793 1
478 793 1
507 793 1
515 793 1
595 793 1
602 793 1
815 793 1
820 793 1
464 794 1
479 794 1
508 794 1
516 794 1
596 794 1
603 794 1
816 794 1
821 794 1
465 795 1
480 795 1
509 795 1
517 795 1
597 795 1
604 795 1
817 795 1
822 795 1
466 796 1
481 796 1
510 796 1
518 796 1
598 796 1
605 796 1
818 796 1
823 796 1
467 797 1
482 797 1
511 797 1
519 797 1
599 797 1
606 797 1
819 797 1
824 797 1
468 798 1
483 798 1
512 798 1
520 798 1
600 798 1
607 798 1
820 798 1
825 798 1
469 799 1
484 799 1
513 799 1
521 799 1
601 799 1
608 799 1
821 799 1
826 799 1
463 800 1
470 800 1
514 800 1
522 800 1
602 800 1
609 800 1
822 800 1
827 800 1
464 801 1
471 801 1
515 801 1
523 801 1
603 801 1
610 801 1
823 801 1
828 801 1
465 802 1
472 802 1
516 802 1
524 802 1
604 802 1
611 802 1
824 802 1
829 802 1
466 803 1
473 803 1
517 803 1
525 803 1
605 803 1
612 803 1
825 803 1
830 803 1
467 804 1
474 804 1
518 804 1
526 804 1
606 804 1
613 804 1
826 804 1
831 804 1
468 805 1
475 805 1
519 805 1
527 805 1
607 805 1
614 805 1
827 805 1
832 805 1
469 806 1
476 806 1
520 806 1
528 806 1
608 806 1
615 806 1
828 806 1
833 806 1
470 807 1
477 807 1
507 807 1
521 807 1
609 807 1
616 807 1
829 807 1
834 807 1
471 808 1
478 808 1
508 808 1
522 808 1
595 808 1
610 808 1
830 808 1
835 808 1
472 809 1
479 809 1
509 809 1
523 809 1
596 809 1
611 809 1
831 809 1
836 809 1
473 810 1
480 810 1
510 810 1
524 810 1
597 810 1
612 810 1
815 810 1
832 810 1
474 811 1
481 811 1
511 811 1
525 811 1
598 811 1
613 811 1
816 811 1
833 811 1
475 812 1
482 812 1
512 812 1
526 812 1
599 812 1
614 812 1
817 812 1
834 812 1
476 813 1
483 813 1
513 813 1
527 813 1
600 813 1
615 813 1
818 813 1
835 813 1
477 814 1
484 814 1
514 814 1
528 814 1
601 814 1
616 814 1
819 814 1
836 814 1
463 815 1
480 815 1
529 815 1
537 815 1
617 815 1
624 815 1
837 815 1
842 815 1
464 816 1
481 816 1
530 816 1
538 816 1
618 816 1
625 816 1
838 816 1
843 816 1
465 817 1
482 817 1
531 817 1
539 817 1
619 817 1
626 817 1
839 817 1
844 817 1
466 818 1
483 818 1
532 818 1
540 818 1
620 818 1
627 818 1
840 818 1
845 818 1
467 819 1
484 819 1
533 819 1
541 819 1
621 819 1
628 819 1
841 819 1
846 819 1
463 820 1
468 820 1
534 820 1
542 820 1
622 820 1
629 820 1
842 820 1
847 820 1
464 821 1
469 821 1
535 821 1
543 821 1
623 821 1
630 821 1
843 821 1
848 821 1
465 822 1
470 822 1
536 822 1
544 822 1
624 822 1
631 822 1
844 822 1
849 822 1
466 823 1
471 823 1
537 823 1
545 823 1
625 823 1
632 823 1
845 823 1
850 823 1
467 824 1
472 824 1
538 824 1
546 824 1
626 824 1
633 824 1
846 824 1
851 824 1
468 825 1
473 825 1
539 825 1
547 825 1
627 825 1
634 825 1
847 825 1
852 825 1
469 826 1
474 826 1
540 826 1
548 826 1
628 826 1
635 826 1
848 826 1
853 826 1
470 827 1
475 827 1
541 827 1
549 827 1
629 827 1
636 827 1
849 827 1
854 827 1
471 828 1
476 828 1
542 828 1
550 828 1
630 828 1
637 828 1
850 828 1
855 828 1
472 829 1
477 829 1
529 829 1
543 829 1
631 829 1
638 829 1
851 829 1
856 829 1
473 830 1
478 830 1
530 830 1
544 830 1
617 830 1
632 830 1
852 830 1
857 830 1
474 831 1
479 831 1
531 831 1
545 831 1
618 831 1
633 831 1
853 831 1
858 831 1
475 832 1
480 832 1
532 832 1
546 832 1
619 832 1
634 832 1
837 832 1
854 832 1
476 833 1
481 833 1
533 833 1
547 833 1
620 833 1
635 833 1
838 833 1
855 833 1
477 834 1
482 834 1
534 834 1
548 834 1
621 834 1
636 834 1
839 834 1
856 834 1
478 835 1
483 835 1
535 835 1
549 835 1
622 835 1
637 835 1
840 835 1
857 835 1
479 836 1
484 836 1
536 836 1
550 836 1
623 836 1
638 836 1
841 836 1
858 836 1
463 837 1
483 837 1
551 837 1
559 837 1
639 837 1
646 837 1
859 837 1
864 837 1
464 838 1
484 838 1
552 838 1
560 838 1
640 838 1
647 838 1
860 838 1
865 838 1
463 839 1
465 839 1
553 839 1
561 839 1
641 839 1
648 839 1
861 839 1
866 839 1
464 840 1
466 840 1
554 840 1
562 840 1
642 840 1
649 840 1
862 840 1
867 840 1
465 841 1
467 841 1
555 841 1
563 841 1
643 841 1
650 841 1
863 841 1
868 841 1
466 842 1
468 842 1
556 842 1
564 842 1
644 842 1
651 842 1
864 842 1
869 842 1
467 843 1
469 843 1
557 843 1
565 843 1
645 843 1
652 843 1
865 843 1
870 843 1
468 844 1
470 844 1
558 844 1
566 844 1
646 844 1
653 844 1
866 844 1
871 844 1
469 845 1
471 845 1
559 845 1
567 845 1
647 845 1
654 845 1
867 845 1
872 845 1
470 846 1
472 846 1
560 846 1
568 846 1
648 846 1
655 846 1
868 846 1
873 846 1
471 847 1
473 847 1
561 847 1
569 847 1
649 847 1
656 847 1
869 847 1
874 847 1
472 848 1
474 848 1
562 848 1
570 848 1
650 848 1
657 848 1
870 848 1
875 848 1
473 849 1
475 849 1
563 849 1
571 849 1
651 849 1
658 849 1
871 849 1
876 849 1
474 850 1
476 850 1
564 850 1
572 850 1
652 850 1
659 850 1
872 850 1
877 850 1
475 851 1
477 851 1
551 851 1
565 851 1
653 851 1
660 851 1
873 851 1
878 851 1
476 852 1
478 852 1
552 852 1
566 852 1
639 852 1
654 852 1
874 852 1
879 852 1
477 853 1
479 853 1
553 853 1
567 853 1
640 853 1
655 853 1
875 853 1
880 853 1
478 854 1
480 854 1
554 854 1
568 854 1
641 854 1
656 854 1
859 854 1
876 854 1
479 855 1
481 855 1
555 855 1
569 855 1
642 855 1
657 855 1
860 855 1
877 855 1
480 856 1
482 856 1
556 856 1
570 856 1
643 856 1
658 856 1
861 856 1
878 856 1
481 857 1
483 857 1
557 857 1
571 857 1
644 857 1
659 857 1
862 857 1
879 857 1
482 858 1
484 858 1
558 858 1
572 858 1
645 858 1
660 858 1
863 858 1
880 858 1
485 859 1
500 859 1
507 859 1
521 859 1
661 859 1
668 859 1
881 859 1
886 859 1
486 860 1
501 860 1
508 860 1
522 860 1
662 860 1
669 860 1
882 860 1
887 860 1
487 861 1
502 861 1
509 861 1
523 861 1
663 861 1
670 861 1
883 861 1
888 861 1
488 862 1
503 862 1
510 862 1
524 862 1
664 862 1
671 862 1
884 862 1
889 862 1
489 863 1
504 863 1
511 863 1
525 863 1
665 863 1
672 863 1
885 863 1
890 863 1
490 864 1
505 864 1
512 864 1
526 864 1
666 864 1
673 864 1
886 864 1
891 864 1
491 865 1
506 865 1
513 865 1
527 865 1
667 865 1
674 865 1
887 865 1
892 865 1
485 866 1
492 866 1
514 866 1
528 866 1
668 866 1
675 866 1
888 866 1
893 866 1
486 867 1
493 867 1
507 867 1
515 867 1
669 867 1
676 867 1
889 867 1
894 867 1
487 868 1
494 868 1
508 868 1
516 868 1
670 868 1
677 868 1
890 868 1
895 868 1
488 869 1
495 869 1
509 869 1
517 869 1
671 869 1
678 869 1
891 869 1
896 869 1
489 870 1
496 870 1
510 870 1
518 870 1
672 870 1
679 870 1
892 870 1
897 870 1
490 871 1
497 871 1
511 871 1
519 871 1
673 871 1
680 871 1
893 871 1
898 871 1
491 872 1
498 872 1
512 872 1
520 872 1
674 872 1
681 872 1
894 872 1
899 872 1
492 873 1
499 873 1
513 873 1
521 873 1
675 873 1
682 873 1
895 873 1
900 873 1
493 874 1
500 874 1
514 874 1
522 874 1
661 874 1
676 874 1
896 874 1
901 874 1
494 875 1
501 875 1
515 875 1
523 875 1
662 875 1
677 875 1
897 875 1
902 875 1
495 876 1
502 876 1
516 876 1
524 876 1
663 876 1
678 876 1
881 876 1
898 876 1
496 877 1
503 877 1
517 877 1
525 877 1
664 877 1
679 877 1
882 877 1
899 877 1
497 878 1
504 878 1
518 878 1
526 878 1
665 878 1
680 878 1
883 878 1
900 878 1
498 879 1
505 879 1
519 879 1
527 879 1
666 879 1
681 879 1
884 879 1
901 879 1
499 880 1
506 880 1
520 880 1
528 880 1
667 880 1
682 880 1
885 880 1
902 880 1
485 881 1
502 881 1
529 881 1
543 881 1
683 881 1
690 881 1
903 881 1
908 881 1
486 882 1
503 882 1
530 882 1
544 882 1
684 882 1
691 882 1
904 882 1
909 882 1
487 883 1
504 883 1
531 883 1
545 883 1
685 883 1
692 883 1
905 883 1
910 883 1
488 884 1
505 884 1
532 884 1
546 884 1
686 884 1
693 884 1
906 884 1
911 884 1
489 885 1
506 885 1
533 885 1
547 885 1
687 885 1
694 885 1
907 885 1
912 885 1
485 886 1
490 886 1
534 886 1
548 886 1
688 886 1
695 886 1
908 886 1
913 886 1
486 887 1
491 887 1
535 887 1
549 887 1
689 887 1
696 887 1
909 887 1
914 887 1
487 888 1
492 888 1
536 888 1
550 888 1
690 888 1
697 888 1
910 888 1
915 888 1
488 889 1
493 889 1
529 889 1
537 889 1
691 889 1
698 889 1
911 889 1
916 889 1
489 890 1
494 890 1
530 890 1
538 890 1
692 890 1
699 890 1
912 890 1
917 890 1
490 891 1
495 891 1
531 891 1
539 891 1
693 891 1
700 891 1
913 891 1
918 891 1
491 892 1
496 892 1
532 892 1
540 892 1
694 892 1
701 892 1
914 892 1
919 892 1
492 893 1
497 893 1
533 893 1
541 893 1
695 893 1
702 893 1
915 893 1
920 893 1
493 894 1
498 894 1
534 894 1
542 894 1
696 894 1
703 894 1
916 894 1
921 894 1
494 895 1
499 895 1
535 895 1
543 895 1
697 895 1
704 895 1
917 895 1
922 895 1
495 896 1
500 896 1
536 896 1
544 896 1
683 896 1
698 896 1
918 896 1
923 896 1
496 897 1
501 897 1
537 897 1
545 897 1
684 897 1
699 897 1
919 897 1
924 897 1
497 898 1
502 898 1
538 898 1
546 898 1
685 898 1
700 898 1
903 898 1
920 898 1
498 899 1
503 899 1
539 899 1
547 899 1
686 899 1
701 899 1
904 899 1
921 899 1
499 900 1
504 900 1
540 900 1
548 900 1
687 900 1
702 900 1
905 900 1
922 900 1
500 901 1
505 901 1
541 901 1
549 901 1
688 901 1
703 901 1
906 901 1
923 901 1
501 902 1
506 902 1
542 902 1
550 902 1
689 902 1
704 902 1
907 902 1
924 902 1
485 903 1
505 903 1
551 903 1
565 903 1
705 903 1
712 903 1
925 903 1
930 903 1
486 904 1
506 904 1
552 904 1
566 904 1
706 904 1
713 904 1
926 904 1
931 904 1
485 905 1
487 905 1
553 905 1
567 905 1
707 905 1
714 905 1
927 905 1
932 905 1
486 906 1
488 906 1
554 906 1
568 906 1
708 906 1
715 906 1
928 906 1
933 906 1
487 907 1
489 907 1
555 907 1
569 907 1
709 907 1
716 907 1
929 907 1
934 907 1
488 908 1
490 908 1
556 908 1
570 908 1
710 908 1
717 908 1
930 908 1
935 908 1
489 909 1
491 909 1
557 909 1
571 909 1
711 909 1
718 909 1
931 909 1
936 909 1
490 910 1
492 910 1
558 910 1
572 910 1
712 910 1
719 910 1
932 910 1
937 910 1
491 911 1
493 911 1
551 911 1
559 911 1
713 911 1
720 911 1
933 911 1
938 911 1
492 912 1
494 912 1
552 912 1
560 912 1
714 912 1
721 912 1
934 912 1
939 912 1
493 913 1
495 913 1
553 913 1
561 913 1
715 913 1
722 913 1
935 913 1
940 913 1
494 914 1
496 914 1
554 914 1
562 914 1
716 914 1
723 914 1
936 914 1
941 914 1
495 915 1
497 915 1
555 915 1
563 915 1
717 915 1
724 915 1
937 915 1
942 915 1
496 916 1
498 916 1
556 916 1
564 916 1
718 916 1
725 916 1
938 916 1
943 916 1
497 917 1
499 917 1
557 917 1
565 917 1
719 917 1
726 917 1
939 917 1
944 917 1
498 918 1
500 918 1
558 918 1
566 918 1
705 918 1
720 918 1
940 918 1
945 918 1
499 919 1
501 919 1
559 919 1
567 919 1
706 919 1
721 919 1
941 919 1
946 919 1
500 920 1
502 920 1
560 920 1
568 920 1
707 920 1
722 920 1
925 920 1
942 920 1
501 921 1
503 921 1
561 921 1
569 921 1
708 921 1
723 921 1
926 921 1
943 921 1
502 922 1
504 922 1
562 922 1
570 922 1
709 922 1
724 922 1
927 922 1
944 922 1
503 923 1
505 923 1
563 923 1
571 923 1
710 923 1
725 923 1
928 923 1
945 923 1
504 924 1
506 924 1
564 924 1
572 924 1
711 924 1
726 924 1
929 924 1
946 924 1
507 925 1
524 925 1
529 925 1
544 925 1
727 925 1
734 925 1
947 925 1
952 925 1
508 926 1
525 926 1
530 926 1
545 926 1
728 926 1
735 926 1
948 926 1
953 926 1
509 927 1
526 927 1
531 927 1
546 927 1
729 927 1
736 927 1
949 927 1
954 927 1
510 928 1
527 928 1
532 928 1
547 928 1
730 928 1
737 928 1
950 928 1
955 928 1
511 929 1
528 929 1
533 929 1
548 929 1
731 929 1
738 929 1
951 929 1
956 929 1
507 930 1
512 930 1
534 930 1
549 930 1
732 930 1
739 930 1
952 930 1
957 930 1
508 931 1
513 931 1
535 931 1
550 931 1
733 931 1
740 931 1
953 931 1
958 931 1
509 932 1
514 932 1
529 932 1
536 932 1
734 932 1
741 932 1
954 932 1
959 932 1
510 933 1
515 933 1
530 933 1
537 933 1
735 933 1
742 933 1
955 933 1
960 933 1
511 934 1
516 934 1
531 934 1
538 934 1
736 934 1
743 934 1
956 934 1
961 934 1
512 935 1
517 935 1
532 935 1
539 935 1
737 935 1
744 935 1
957 935 1
962 935 1
513 936 1
518 936 1
533 936 1
540 936 1
738 936 1
745 936 1
958 936 1
963 936 1
514 937 1
519 937 1
534 937 1
541 937 1
739 937 1
746 937 1
959 937 1
964 937 1
515 938 1
520 938 1
535 938 1
542 938 1
740 938 1
747 938 1
960 938 1
965 938 1
516 939 1
521 939 1
536 939 1
543 939 1
741 939 1
748 939 1
961 939 1
966 939 1
517 940 1
522 940 1
537 940 1
544 940 1
727 940 1
742 940 1
962 940 1
967 940 1
518 941 1
523 941 1
538 941 1
545 941 1
728 941 1
743 941 1
963 941 1
968 941 1
519 942 1
524 942 1
539 942 1
546 942 1
729 942 1
744 942 1
947 942 1
964 942 1
520 943 1
525 943 1
540 943 1
547 943 1
730 943 1
745 943 1
948 943 1
965 943 1
521 944 1
526 944 1
541 944 1
548 944 1
731 944 1
746 944 1
949 944 1
966 944 1
522 945 1
527 945 1
542 945 1
549 945 1
732 945 1
747 945 1
950 945 1
967 945 1
523 946 1
528 946 1
543 946 1
550 946 1
733 946 1
748 946 1
951 946 1
968 946 1
507 947 1
527 947 1
551 947 1
566 947 1
749 947 1
756 947 1
969 947 1
974 947 1
508 948 1
528 948 1
552 948 1
567 948 1
750 948 1
757 948 1
970 948 1
975 948 1
507 949 1
509 949 1
553 949 1
568 949 1
751 949 1
758 949 1
971 949 1
976 949 1
508 950 1
510 950 1
554 950 1
569 950 1
752 950 1
759 950 1
972 950 1
977 950 1
509 951 1
511 951 1
555 951 1
570 951 1
753 951 1
760 951 1
973 951 1
978 951 1
510 952 1
512 952 1
556 952 1
571 952 1
754 952 1
761 952 1
974 952 1
979 952 1
511 953 1
513 953 1
557 953 1
572 953 1
755 953 1
762 953 1
975 953 1
980 953 1
512 954 1
514 954 1
551 954 1
558 954 1
756 954 1
763 954 1
976 954 1
981 954 1
513 955 1
515 955 1
552 955 1
559 955 1
757 955 1
764 955 1
977 955 1
982 955 1
514 956 1
516 956 1
553 956 1
560 956 1
758 956 1
765 956 1
978 956 1
983 956 1
515 957 1
517 957 1
554 957 1
561 957 1
759 957 1
766 957 1
979 957 1
984 957 1
516 958 1
518 958 1
555 958 1
562 958 1
760 958 1
767 958 1
980 958 1
985 958 1
517 959 1
519 959 1
556 959 1
563 959 1
761 959 1
768 959 1
981 959 1
986 959 1
518 960 1
520 960 1
557 960 1
564 960 1
762 960 1
769 960 1
982 960 1
987 960 1
519 961 1
521 961 1
558 961 1
565 961 1
763 961 1
770 961 1
983 961 1
988 961 1
520 962 1
522 962 1
559 962 1
566 962 1
749 962 1
764 962 1
984 962 1
989 962 1
521 963 1
523 963 1
560 963 1
567 963 1
750 963 1
765 963 1
985 963 1
990 963 1
522 964 1
524 964 1
561 964 1
568 964 1
751 964 1
766 964 1
969 964 1
986 964 1
523 965 1
525 965 1
562 965 1
569 965 1
752 965 1
767 965 1
970 965 1
987 965 1
524 966 1
526 966 1
563 966 1
570 966 1
753 966 1
768 966 1
971 966 1
988 966 1
525 967 1
527 967 1
564 967 1
571 967 1
754 967 1
769 967 1
972 967 1
989 967 1
526 968 1
528 968 1
565 968 1
572 968 1
755 968 1
770 968 1
973 968 1
990 968 1
529 969 1
549 969 1
551 969 1
568 969 1
771 969 1
778 969 1
991 969 1
996 969 1
530 970 1
550 970 1
552 970 1
569 970 1
772 970 1
779 970 1
992 970 1
997 970 1
529 971 1
531 971 1
553 971 1
570 971 1
773 971 1
780 971 1
993 971 1
998 971 1
530 972 1
532 972 1
554 972 1
571 972 1
774 972 1
781 972 1
994 972 1
999 972 1
531 973 1
533 973 1
555 973 1
572 973 1
775 973 1
782 973 1
995 973 1
1000 973 1
532 974 1
534 974 1
551 974 1
556 974 1
776 974 1
783 974 1
996 974 1
1001 974 1
533 975 1
535 975 1
552 975 1
557 975 1
777 975 1
784 975 1
997 975 1
1002 975 1
534 976 1
536 976 1
553 976 1
558 976 1
778 976 1
785 976 1
998 976 1
1003 976 1
535 977 1
537 977 1
554 977 1
559 977 1
779 977 1
786 977 1
999 977 1
1004 977 1
536 978 1
538 978 1
555 978 1
560 978 1
780 978 1
787 978 1
1000 978 1
1005 978 1
537 979 1
539 979 1
556 979 1
561 979 1
781 979 1
788 979 1
1001 979 1
1006 979 1
538 980 1
540 980 1
557 980 1
562 980 1
782 980 1
789 980 1
1002 980 1
1007 980 1
539 981 1
541 981 1
558 981 1
563 981 1
783 981 1
790 981 1
1003 981 1
1008 981 1
540 982 1
542 982 1
559 982 1
564 982 1
784 982 1
791 982 1
1004 982 1
1009 982 1
541 983 1
543 983 1
560 983 1
565 983 1
785 983 1
792 983 1
1005 983 1
1010 983 1
542 984 1
544 984 1
561 984 1
566 984 1
771 984 1
786 984 1
1006 984 1
1011 984 1
543 985 1
545 985 1
562 985 1
567 985 1
772 985 1
787 985 1
1007 985 1
1012 985 1
544 986 1
546 986 1
563 986 1
568 986 1
773 986 1
788 986 1
991 986 1
1008 986 1
545 987 1
547 987 1
564 987 1
569 987 1
774 987 1
789 987 1
992 987 1
1009 987 1
546 988 1
548 988 1
565 988 1
570 988 1
775 988 1
790 988 1
993 988 1
1010 988 1
547 989 1
549 989 1
566 989 1
571 989 1
776 989 1
791 989 1
994 989 1
1011 989 1
548 990 1
550 990 1
567 990 1
572 990 1
777 990 1
792 990 1
995 990 1
1012 990 1
573 991 1
588 991 1
595 991 1
609 991 1
661 991 1
669 991 1
1013 991 1
1018 991 1
574 992 1
589 992 1
596 992 1
610 992 1
662 992 1
670 992 1
1014 992 1
1019 992 1
575 993 1
590 993 1
597 993 1
611 993 1
663 993 1
671 993 1
1015 993 1
1020 993 1
576 994 1
591 994 1
598 994 1
612 994 1
664 994 1
672 994 1
1016 994 1
1021 994 1
577 995 1
592 995 1
599 995 1
613 995 1
665 995 1
673 995 1
1017 995 1
1022 995 1
578 996 1
593 996 1
600 996 1
614 996 1
666 996 1
674 996 1
1018 996 1
1023 996 1
579 997 1
594 997 1
601 997 1
615 997 1
667 997 1
675 997 1
1019 997 1
1024 997 1
573 998 1
580 998 1
602 998 1
616 998 1
668 998 1
676 998 1
1020 998 1
1025 998 1
574 999 1
581 999 1
595 999 1
603 999 1
669 999 1
677 999 1
1021 999 1
1026 999 1
575 1000 1
582 1000 1
596 1000 1
604 1000 1
670 1000 1
678 1000 1
1022 1000 1
1027 1000 1
576 1001 1
583 1001 1
597 1001 1
605 1001 1
671 1001 1
679 1001 1
1023 1001 1
1028 1001 1
577 1002 1
584 1002 1
598 1002 1
606 1002 1
672 1002 1
680 1002 1
1024 1002 1
1029 1002 1
578 1003 1
585 1003 1
599 1003 1
607 1003 1
673 1003 1
681 1003 1
1025 1003 1
1030 1003 1
579 1004 1
586 1004 1
600 1004 1
608 1004 1
674 1004 1
682 1004 1
1026 1004 1
1031 1004 1
580 1005 1
587 1005 1
601 1005 1
609 1005 1
661 1005 1
675 1005 1
1027 1005 1
1032 1005 1
581 1006 1
588 1006 1
602 1006 1
610 1006 1
662 1006 1
676 1006 1
1028 1006 1
1033 1006 1
582 1007 1
589 1007 1
603 1007 1
611 1007 1
663 1007 1
677 1007 1
1029 1007 1
1034 1007 1
583 1008 1
590 1008 1
604 1008 1
612 1008 1
664 1008 1
678 1008 1
1013 1008 1
1030 1008 1
584 1009 1
591 1009 1
605 1009 1
613 1009 1
665 1009 1
679 1009 1
1014 1009 1
1031 1009 1
585 1010 1
592 1010 1
606 1010 1
614 1010 1
666 1010 1
680 1010 1
1015 1010 1
1032 1010 1
586 1011 1
593 1011 1
607 1011 1
615 1011 1
667 1011 1
681 1011 1
1016 1011 1
1033 1011 1
587 1012 1
594 1012 1
608 1012 1
616 1012 1
668 1012 1
682 1012 1
1017 1012 1
1034 1012 1
573 1013 1
590 1013 1
617 1013 1
631 1013 1
683 1013 1
691 1013 1
1035 1013 1
1040 1013 1
574 1014 1
591 1014 1
618 1014 1
632 1014 1
684 1014 1
692 1014 1
1036 1014 1
1041 1014 1
575 1015 1
592 1015 1
619 1015 1
633 1015 1
685 1015 1
693 1015 1
1037 1015 1
1042 1015 1
576 1016 1
593 1016 1
620 1016 1
634 1016 1
686 1016 1
694 1016 1
1038 1016 1
1043 1016 1
577 1017 1
594 1017 1
621 1017 1
635 1017 1
687 1017 1
695 1017 1
1039 1017 1
1044 1017 1
573 1018 1
578 1018 1
622 1018 1
636 1018 1
688 1018 1
696 1018 1
1040 1018 1
1045 1018 1
574 1019 1
579 1019 1
623 1019 1
637 1019 1
689 1019 1
697 1019 1
1041 1019 1
1046 1019 1
575 1020 1
580 1020 1
624 1020 1
638 1020 1
690 1020 1
698 1020 1
1042 1020 1
1047 1020 1
576 1021 1
581 1021 1
617 1021 1
625 1021 1
691 1021 1
699 1021 1
1043 1021 1
1048 1021 1
577 1022 1
582 1022 1
618 1022 1
626 1022 1
692 1022 1
700 1022 1
1044 1022 1
1049 1022 1
578 1023 1
583 1023 1
619 1023 1
627 1023 1
693 1023 1
701 1023 1
1045 1023 1
1050 1023 1
579 1024 1
584 1024 1
620 1024 1
628 1024 1
694 1024 1
702 1024 1
1046 1024 1
1051 1024 1
580 1025 1
585 1025 1
621 1025 1
629 1025 1
695 1025 1
703 1025 1
1047 1025 1
1052 1025 1
581 1026 1
586 1026 1
622 1026 1
630 1026 1
696 1026 1
704 1026 1
1048 1026 1
1053 1026 1
582 1027 1
587 1027 1
623 1027 1
631 1027 1
683 1027 1
697 1027 1
1049 1027 1
1054 1027 1
583 1028 1
588 1028 1
624 1028 1
632 1028 1
684 1028 1
698 1028 1
1050 1028 1
1055 1028 1
584 1029 1
589 1029 1
625 1029 1
633 1029 1
685 1029 1
699 1029 1
1051 1029 1
1056 1029 1
585 1030 1
590 1030 1
626 1030 1
634 1030 1
686 1030 1
700 1030 1
1035 1030 1
1052 1030 1
586 1031 1
591 1031 1
627 1031 1
635 1031 1
687 1031 1
701 1031 1
1036 1031 1
1053 1031 1
587 1032 1
592 1032 1
628 1032 1
636 1032 1
688 1032 1
702 1032 1
1037 1032 1
1054 1032 1
588 1033 1
593 1033 1
629 1033 1
637 1033 1
689 1033 1
703 1033 1
1038 1033 1
1055 1033 1
589 1034 1
594 1034 1
630 1034 1
638 1034 1
690 1034 1
704 1034 1
1039 1034 1
1056 1034 1
573 1035 1
593 1035 1
639 1035 1
653 1035 1
705 1035 1
713 1035 1
1057 1035 1
1062 1035 1
574 1036 1
594 1036 1
640 1036 1
654 1036 1
706 1036 1
714 1036 1
1058 1036 1
1063 1036 1
573 1037 1
575 1037 1
641 1037 1
655 1037 1
707 1037 1
715 1037 1
1059 1037 1
1064 1037 1
574 1038 1
576 1038 1
642 1038 1
656 1038 1
708 1038 1
716 1038 1
1060 1038 1
1065 1038 1
575 1039 1
577 1039 1
643 1039 1
657 1039 1
709 1039 1
717 1039 1
1061 1039 1
1066 1039 1
576 1040 1
578 1040 1
644 1040 1
658 1040 1
710 1040 1
718 1040 1
1062 1040 1
1067 1040 1
577 1041 1
579 1041 1
645 1041 1
659 1041 1
711 1041 1
719 1041 1
1063 1041 1
1068 1041 1
578 1042 1
580 1042 1
646 1042 1
660 1042 1
712 1042 1
720 1042 1
1064 1042 1
1069 1042 1
579 1043 1
581 1043 1
639 1043 1
647 1043 1
713 1043 1
721 1043 1
1065 1043 1
1070 1043 1
580 1044 1
582 1044 1
640 1044 1
648 1044 1
714 1044 1
722 1044 1
1066 1044 1
1071 1044 1
581 1045 1
583 1045 1
641 1045 1
649 1045 1
715 1045 1
723 1045 1
1067 1045 1
1072 1045 1
582 1046 1
584 1046 1
642 1046 1
650 1046 1
716 1046 1
724 1046 1
1068 1046 1
1073 1046 1
583 1047 1
585 1047 1
643 1047 1
651 1047 1
717 1047 1
725 1047 1
1069 1047 1
1074 1047 1
584 1048 1
586 1048 1
644 1048 1
652 1048 1
718 1048 1
726 1048 1
1070 1048 1
1075 1048 1
585 1049 1
587 1049 1
645 1049 1
653 1049 1
705 1049 1
719 1049 1
1071 1049 1
1076 1049 1
586 1050 1
588 1050 1
646 1050 1
654 1050 1
706 1050 1
720 1050 1
1072 1050 1
1077 1050 1
587 1051 1
589 1051 1
647 1051 1
655 1051 1
707 1051 1
721 1051 1
1073 1051 1
1078 1051 1
588 1052 1
590 1052 1
648 1052 1
656 1052 1
708 1052 1
722 1052 1
1057 1052 1
1074 1052 1
589 1053 1
591 1053 1
649 1053 1
657 1053 1
709 1053 1
723 1053 1
1058 1053 1
1075 1053 1
590 1054 1
592 1054 1
650 1054 1
658 1054 1
710 1054 1
724 1054 1
1059 1054 1
1076 1054 1
591 1055 1
593 1055 1
651 1055 1
659 1055 1
711 1055 1
725 1055 1
1060 1055 1
1077 1055 1
592 1056 1
594 1056 1
652 1056 1
660 1056 1
712 1056 1
726 1056 1
1061 1056 1
1078 1056 1
595 1057 1
612 1057 1
617 1057 1
632 1057 1
727 1057 1
735 1057 1
1079 1057 1
1084 1057 1
596 1058 1
613 1058 1
618 1058 1
633 1058 1
728 1058 1
736 1058 1
1080 1058 1
1085 1058 1
597 1059 1
614 1059 1
619 1059 1
634 1059 1
729 1059 1
737 1059 1
1081 1059 1
1086 1059 1
598 1060 1
615 1060 1
620 1060 1
635 1060 1
730 1060 1
738 1060 1
1082 1060 1
1087 1060 1
599 1061 1
616 1061 1
621 1061 1
636 1061 1
731 1061 1
739 1061 1
1083 1061 1
1088 1061 1
595 1062 1
600 1062 1
622 1062 1
637 1062 1
732 1062 1
740 1062 1
1084 1062 1
1089 1062 1
596 1063 1
601 1063 1
623 1063 1
638 1063 1
733 1063 1
741 1063 1
1085 1063 1
1090 1063 1
597 1064 1
602 1064 1
617 1064 1
624 1064 1
734 1064 1
742 1064 1
1086 1064 1
1091 1064 1
598 1065 1
603 1065 1
618 1065 1
625 1065 1
735 1065 1
743 1065 1
1087 1065 1
1092 1065 1
599 1066 1
604 1066 1
619 1066 1
626 1066 1
736 1066 1
744 1066 1
1088 1066 1
1093 1066 1
600 1067 1
605 1067 1
620 1067 1
627 1067 1
737 1067 1
745 1067 1
1089 1067 1
1094 1067 1
601 1068 1
606 1068 1
621 1068 1
628 1068 1
738 1068 1
746 1068 1
1090 1068 1
1095 1068 1
602 1069 1
607 1069 1
622 1069 1
629 1069 1
739 1069 1
747 1069 1
1091 1069 1
1096 1069 1
603 1070 1
608 1070 1
623 1070 1
630 1070 1
740 1070 1
748 1070 1
1092 1070 1
1097 1070 1
604 1071 1
609 1071 1
624 1071 1
631 1071 1
727 1071 1
741 1071 1
1093 1071 1
1098 1071 1
605 1072 1
610 1072 1
625 1072 1
632 1072 1
728 1072 1
742 1072 1
1094 1072 1
1099 1072 1
606 1073 1
611 1073 1
626 1073 1
633 1073 1
729 1073 1
743 1073 1
1095 1073 1
1100 1073 1
607 1074 1
612 1074 1
627 1074 1
634 1074 1
730 1074 1
744 1074 1
1079 1074 1
1096 1074 1
608 1075 1
613 1075 1
628 1075 1
635 1075 1
731 1075 1
745 1075 1
1080 1075 1
1097 1075 1
609 1076 1
614 1076 1
629 1076 1
636 1076 1
732 1076 1
746 1076 1
1081 1076 1
1098 1076 1
610 1077 1
615 1077 1
630 1077 1
637 1077 1
733 1077 1
747 1077 1
1082 1077 1
1099 1077 1
611 1078 1
616 1078 1
631 1078 1
638 1078 1
734 1078 1
748 1078 1
1083 1078 1
1100 1078 1
595 1079 1
615 1079 1
639 1079 1
654 1079 1
749 1079 1
757 1079 1
1101 1079 1
1106 1079 1
596 1080 1
616 1080 1
640 1080 1
655 1080 1
750 1080 1
758 1080 1
1102 1080 1
1107 1080 1
595 1081 1
597 1081 1
641 1081 1
656 1081 1
751 1081 1
759 1081 1
1103 1081 1
1108 1081 1
596 1082 1
598 1082 1
642 1082 1
657 1082 1
752 1082 1
760 1082 1
1104 1082 1
1109 1082 1
597 1083 1
599 1083 1
643 1083 1
658 1083 1
753 1083 1
761 1083 1
1105 1083 1
1110 1083 1
598 1084 1
600 1084 1
644 1084 1
659 1084 1
754 1084 1
762 1084 1
1106 1084 1
1111 1084 1
599 1085 1
601 1085 1
645 1085 1
660 1085 1
755 1085 1
763 1085 1
1107 1085 1
1112 1085 1
600 1086 1
602 1086 1
639 1086 1
646 1086 1
756 1086 1
764 1086 1
1108 1086 1
1113 1086 1
601 1087 1
603 1087 1
640 1087 1
647 1087 1
757 1087 1
765 1087 1
1109 1087 1
1114 1087 1
602 1088 1
604 1088 1
641 1088 1
648 1088 1
758 1088 1
766 1088 1
1110 1088 1
1115 1088 1
603 1089 1
605 1089 1
642 1089 1
649 1089 1
759 1089 1
767 1089 1
1111 1089 1
1116 1089 1
604 1090 1
606 1090 1
643 1090 1
650 1090 1
760 1090 1
768 1090 1
1112 1090 1
1117 1090 1
605 1091 1
607 1091 1
644 1091 1
651 1091 1
761 1091 1
769 1091 1
1113 1091 1
1118 1091 1
606 1092 1
608 1092 1
645 1092 1
652 1092 1
762 1092 1
770 1092 1
1114 1092 1
1119 1092 1
607 1093 1
609 1093 1
646 1093 1
653 1093 1
749 1093 1
763 1093 1
1115 1093 1
1120 1093 1
608 1094 1
610 1094 1
647 1094 1
654 1094 1
750 1094 1
764 1094 1
1116 1094 1
1121 1094 1
609 1095 1
611 1095 1
648 1095 1
655 1095 1
751 1095 1
765 1095 1
1117 1095 1
1122 1095 1
610 1096 1
612 1096 1
649 1096 1
656 1096 1
752 1096 1
766 1096 1
1101 1096 1
1118 1096 1
611 1097 1
613 1097 1
650 1097 1
657 1097 1
753 1097 1
767 1097 1
1102 1097 1
1119 1097 1
612 1098 1
614 1098 1
651 1098 1
658 1098 1
754 1098 1
768 1098 1
1103 1098 1
1120 1098 1
613 1099 1
615 1099 1
652 1099 1
659 1099 1
755 1099 1
769 1099 1
1104 1099 1
1121 1099 1
614 1100 1
616 1100 1
653 1100 1
660 1100 1
756 1100 1
770 1100 1
1105 1100 1
1122 1100 1
617 1101 1
637 1101 1
639 1101 1
656 1101 1
771 1101 1
779 1101 1
1123 1101 1
1128 1101 1
618 1102 1
638 1102 1
640 1102 1
657 1102 1
772 1102 1
780 1102 1
1124 1102 1
1129 1102 1
617 1103 1
619 1103 1
641 1103 1
658 1103 1
773 1103 1
781 1103 1
1125 1103 1
1130 1103 1
618 1104 1
620 1104 1
642 1104 1
659 1104 1
774 1104 1
782 1104 1
1126 1104 1
1131 1104 1
619 1105 1
621 1105 1
643 1105 1
660 1105 1
775 1105 1
783 1105 1
1127 1105 1
1132 1105 1
620 1106 1
622 1106 1
639 1106 1
644 1106 1
776 1106 1
784 1106 1
1128 1106 1
1133 1106 1
621 1107 1
623 1107 1
640 1107 1
645 1107 1
777 1107 1
785 1107 1
1129 1107 1
1134 1107 1
622 1108 1
624 1108 1
641 1108 1
646 1108 1
778 1108 1
786 1108 1
1130 1108 1
1135 1108 1
623 1109 1
625 1109 1
642 1109 1
647 1109 1
779 1109 1
787 1109 1
1131 1109 1
1136 1109 1
624 1110 1
626 1110 1
643 1110 1
648 1110 1
780 1110 1
788 1110 1
1132 1110 1
1137 1110 1
625 1111 1
627 1111 1
644 1111 1
649 1111 1
781 1111 1
789 1111 1
1133 1111 1
1138 1111 1
626 1112 1
628 1112 1
645 1112 1
650 1112 1
782 1112 1
790 1112 1
1134 1112 1
1139 1112 1
627 1113 1
629 1113 1
646 1113 1
651 1113 1
783 1113 1
791 1113 1
1135 1113 1
1140 1113 1
628 1114 1
630 1114 1
647 1114 1
652 1114 1
784 1114 1
792 1114 1
1136 1114 1
1141 1114 1
629 1115 1
631 1115 1
648 1115 1
653 1115 1
771 1115 1
785 1115 1
1137 1115 1
1142 1115 1
630 1116 1
632 1116 1
649 1116 1
654 1116 1
772 1116 1
786 1116 1
1138 1116 1
1143 1116 1
631 1117 1
633 1117 1
650 1117 1
655 1117 1
773 1117 1
787 1117 1
1139 1117 1
1144 1117 1
632 1118 1
634 1118 1
651 1118 1
656 1118 1
774 1118 1
788 1118 1
1123 1118 1
1140 1118 1
633 1119 1
635 1119 1
652 1119 1
657 1119 1
775 1119 1
789 1119 1
1124 1119 1
1141 1119 1
634 1120 1
636 1120 1
653 1120 1
658 1120 1
776 1120 1
790 1120 1
1125 1120 1
1142 1120 1
635 1121 1
637 1121 1
654 1121 1
659 1121 1
777 1121 1
791 1121 1
1126 1121 1
1143 1121 1
636 1122 1
638 1122 1
655 1122 1
660 1122 1
778 1122 1
792 1122 1
1127 1122 1
1144 1122 1
661 1123 1
678 1123 1
683 1123 1
698 1123 1
727 1123 1
741 1123 1
1145 1123 1
1150 1123 1
662 1124 1
679 1124 1
684 1124 1
699 1124 1
728 1124 1
742 1124 1
1146 1124 1
1151 1124 1
663 1125 1
680 1125 1
685 1125 1
700 1125 1
729 1125 1
743 1125 1
1147 1125 1
1152 1125 1
664 1126 1
681 1126 1
686 1126 1
701 1126 1
730 1126 1
744 1126 1
1148 1126 1
1153 1126 1
665 1127 1
682 1127 1
687 1127 1
702 1127 1
731 1127 1
745 1127 1
1149 1127 1
1154 1127 1
661 1128 1
666 1128 1
688 1128 1
703 1128 1
732 1128 1
746 1128 1
1150 1128 1
1155 1128 1
662 1129 1
667 1129 1
689 1129 1
704 1129 1
733 1129 1
747 1129 1
1151 1129 1
1156 1129 1
663 1130 1
668 1130 1
683 1130 1
690 1130 1
734 1130 1
748 1130 1
1152 1130 1
1157 1130 1
664 1131 1
669 1131 1
684 1131 1
691 1131 1
727 1131 1
735 1131 1
1153 1131 1
1158 1131 1
665 1132 1
670 1132 1
685 1132 1
692 1132 1
728 1132 1
736 1132 1
1154 1132 1
1159 1132 1
666 1133 1
671 1133 1
686 1133 1
693 1133 1
729 1133 1
737 1133 1
1155 1133 1
1160 1133 1
667 1134 1
672 1134 1
687 1134 1
694 1134 1
730 1134 1
738 1134 1
1156 1134 1
1161 1134 1
668 1135 1
673 1135 1
688 1135 1
695 1135 1
731 1135 1
739 1135 1
1157 1135 1
1162 1135 1
669 1136 1
674 1136 1
689 1136 1
696 1136 1
732 1136 1
740 1136 1
1158 1136 1
1163 1136 1
670 1137 1
675 1137 1
690 1137 1
697 1137 1
733 1137 1
741 1137 1
1159 1137 1
1164 1137 1
671 1138 1
676 1138 1
691 1138 1
698 1138 1
734 1138 1
742 1138 1
1160 1138 1
1165 1138 1
672 1139 1
677 1139 1
692 1139 1
699 1139 1
735 1139 1
743 1139 1
1161 1139 1
1166 1139 1
673 1140 1
678 1140 1
693 1140 1
700 1140 1
736 1140 1
744 1140 1
1145 1140 1
1162 1140 1
674 1141 1
679 1141 1
694 1141 1
701 1141 1
737 1141 1
745 1141 1
1146 1141 1
1163 1141 1
675 1142 1
680 1142 1
695 1142 1
702 1142 1
738 1142 1
746 1142 1
1147 1142 1
1164 1142 1
676 1143 1
681 1143 1
696 1143 1
703 1143 1
739 1143 1
747 1143 1
1148 1143 1
1165 1143 1
677 1144 1
682 1144 1
697 1144 1
704 1144 1
740 1144 1
748 1144 1
1149 1144 1
1166 1144 1
661 1145 1
681 1145 1
705 1145 1
720 1145 1
749 1145 1
763 1145 1
1167 1145 1
1172 1145 1
662 1146 1
682 1146 1
706 1146 1
721 1146 1
750 1146 1
764 1146 1
1168 1146 1
1173 1146 1
661 1147 1
663 1147 1
707 1147 1
722 1147 1
751 1147 1
765 1147 1
1169 1147 1
1174 1147 1
662 1148 1
664 1148 1
708 1148 1
723 1148 1
752 1148 1
766 1148 1
1170 1148 1
1175 1148 1
663 1149 1
665 1149 1
709 1149 1
724 1149 1
753 1149 1
767 1149 1
1171 1149 1
1176 1149 1
664 1150 1
666 1150 1
710 1150 1
725 1150 1
754 1150 1
768 1150 1
1172 1150 1
1177 1150 1
665 1151 1
667 1151 1
711 1151 1
726 1151 1
755 1151 1
769 1151 1
1173 1151 1
1178 1151 1
666 1152 1
668 1152 1
705 1152 1
712 1152 1
756 1152 1
770 1152 1
1174 1152 1
1179 1152 1
667 1153 1
669 1153 1
706 1153 1
713 1153 1
749 1153 1
757 1153 1
1175 1153 1
1180 1153 1
668 1154 1
670 1154 1
707 1154 1
714 1154 1
750 1154 1
758 1154 1
1176 1154 1
1181 1154 1
669 1155 1
671 1155 1
708 1155 1
715 1155 1
751 1155 1
759 1155 1
1177 1155 1
1182 1155 1
670 1156 1
672 1156 1
709 1156 1
716 1156 1
752 1156 1
760 1156 1
1178 1156 1
1183 1156 1
671 1157 1
673 1157 1
710 1157 1
717 1157 1
753 1157 1
761 1157 1
1179 1157 1
1184 1157 1
672 1158 1
674 1158 1
711 1158 1
718 1158 1
754 1158 1
762 1158 1
1180 1158 1
1185 1158 1
673 1159 1
675 1159 1
712 1159 1
719 1159 1
755 1159 1
763 1159 1
1181 1159 1
1186 1159 1
674 1160 1
676 1160 1
713 1160 1
720 1160 1
756 1160 1
764 1160 1
1182 1160 1
1187 1160 1
675 1161 1
677 1161 1
714 1161 1
721 1161 1
757 1161 1
765 1161 1
1183 1161 1
1188 1161 1
676 1162 1
678 1162 1
715 1162 1
722 1162 1
758 1162 1
766 1162 1
1167 1162 1
1184 1162 1
677 1163 1
679 1163 1
716 1163 1
723 1163 1
759 1163 1
767 1163 1
1168 1163 1
1185 1163 1
678 1164 1
680 1164 1
717 1164 1
724 1164 1
760 1164 1
768 1164 1
1169 1164 1
1186 1164 1
679 1165 1
681 1165 1
718 1165 1
725 1165 1
761 1165 1
769 1165 1
1170 1165 1
1187 1165 1
680 1166 1
682 1166 1
719 1166 1
726 1166 1
762 1166 1
770 1166 1
1171 1166 1
1188 1166 1
683 1167 1
703 1167 1
705 1167 1
722 1167 1
771 1167 1
785 1167 1
1189 1167 1
1194 1167 1
684 1168 1
704 1168 1
706 1168 1
723 1168 1
772 1168 1
786 1168 1
1190 1168 1
1195 1168 1
683 1169 1
685 1169 1
707 1169 1
724 1169 1
773 1169 1
787 1169 1
1191 1169 1
1196 1169 1
684 1170 1
686 1170 1
708 1170 1
725 1170 1
774 1170 1
788 1170 1
1192 1170 1
1197 1170 1
685 1171 1
687 1171 1
709 1171 1
726 1171 1
775 1171 1
789 1171 1
1193 1171 1
1198 1171 1
686 1172 1
688 1172 1
705 1172 1
710 1172 1
776 1172 1
790 1172 1
1194 1172 1
1199 1172 1
687 1173 1
689 1173 1
706 1173 1
711 1173 1
777 1173 1
791 1173 1
1195 1173 1
1200 1173 1
688 1174 1
690 1174 1
707 1174 1
712 1174 1
778 1174 1
792 1174 1
1196 1174 1
1201 1174 1
689 1175 1
691 1175 1
708 1175 1
713 1175 1
771 1175 1
779 1175 1
1197 1175 1
1202 1175 1
690 1176 1
692 1176 1
709 1176 1
714 1176 1
772 1176 1
780 1176 1
1198 1176 1
1203 1176 1
691 1177 1
693 1177 1
710 1177 1
715 1177 1
773 1177 1
781 1177 1
1199 1177 1
1204 1177 1
692 1178 1
694 1178 1
711 1178 1
716 1178 1
774 1178 1
782 1178 1
1200 1178 1
1205 1178 1
693 1179 1
695 1179 1
712 1179 1
717 1179 1
775 1179 1
783 1179 1
1201 1179 1
1206 1179 1
694 1180 1
696 1180 1
713 1180 1
718 1180 1
776 1180 1
784 1180 1
1202 1180 1
1207 1180 1
695 1181 1
697 1181 1
714 1181 1
719 1181 1
777 1181 1
785 1181 1
1203 1181 1
1208 1181 1
696 1182 1
698 1182 1
715 1182 1
720 1182 1
778 1182 1
786 1182 1
1204 1182 1
1209 1182 1
697 1183 1
699 1183 1
716 1183 1
721 1183 1
779 1183 1
787 1183 1
1205 1183 1
1210 1183 1
698 1184 1
700 1184 1
717 1184 1
722 1184 1
780 1184 1
788 1184 1
1189 1184 1
1206 1184 1
699 1185 1
701 1185 1
718 1185 1
723 1185 1
781 1185 1
789 1185 1
1190 1185 1
1207 1185 1
700 1186 1
702 1186 1
719 1186 1
724 1186 1
782 1186 1
790 1186 1
1191 1186 1
1208 1186 1
701 1187 1
703 1187 1
720 1187 1
725 1187 1
783 1187 1
791 1187 1
1192 1187 1
1209 1187 1
702 1188 1
704 1188 1
721 1188 1
726 1188 1
784 1188 1
792 1188 1
1193 1188 1
1210 1188 1
727 1189 1
747 1189 1
749 1189 1
766 1189 1
771 1189 1
786 1189 1
1211 1189 1
1216 1189 1
728 1190 1
748 1190 1
750 1190 1
767 1190 1
772 1190 1
787 1190 1
1212 1190 1
1217 1190 1
727 1191 1
729 1191 1
751 1191 1
768 1191 1
773 1191 1
788 1191 1
1213 1191 1
1218 1191 1
728 1192 1
730 1192 1
752 1192 1
769 1192 1
774 1192 1
789 1192 1
1214 1192 1
1219 1192 1
729 1193 1
731 1193 1
753 1193 1
770 1193 1
775 1193 1
790 1193 1
1215 1193 1
1220 1193 1
730 1194 1
732 1194 1
749 1194 1
754 1194 1
776 1194 1
791 1194 1
1216 1194 1
1221 1194 1
731 1195 1
733 1195 1
750 1195 1
755 1195 1
777 1195 1
792 1195 1
1217 1195 1
1222 1195 1
732 1196 1
734 1196 1
751 1196 1
756 1196 1
771 1196 1
778 1196 1
1218 1196 1
1223 1196 1
733 1197 1
735 1197 1
752 1197 1
757 1197 1
772 1197 1
779 1197 1
1219 1197 1
1224 1197 1
734 1198 1
736 1198 1
753 1198 1
758 1198 1
773 1198 1
780 1198 1
1220 1198 1
1225 1198 1
735 1199 1
737 1199 1
754 1199 1
759 1199 1
774 1199 1
781 1199 1
1221 1199 1
1226 1199 1
736 1200 1
738 1200 1
755 1200 1
760 1200 1
775 1200 1
782 1200 1
1222 1200 1
1227 1200 1
737 1201 1
739 1201 1
756 1201 1
761 1201 1
776 1201 1
783 1201 1
1223 1201 1
1228 1201 1
738 1202 1
740 1202 1
757 1202 1
762 1202 1
777 1202 1
784 1202 1
1224 1202 1
1229 1202 1
739 1203 1
741 1203 1
758 1203 1
763 1203 1
778 1203 1
785 1203 1
1225 1203 1
1230 1203 1
740 1204 1
742 1204 1
759 1204 1
764 1204 1
779 1204 1
786 1204 1
1226 1204 1
1231 1204 1
741 1205 1
743 1205 1
760 1205 1
765 1205 1
780 1205 1
787 1205 1
1227 1205 1
1232 1205 1
742 1206 1
744 1206 1
761 1206 1
766 1206 1
781 1206 1
788 1206 1
1211 1206 1
1228 1206 1
743 1207 1
745 1207 1
762 1207 1
767 1207 1
782 1207 1
789 1207 1
1212 1207 1
1229 1207 1
744 1208 1
746 1208 1
763 1208 1
768 1208 1
783 1208 1
790 1208 1
1213 1208 1
1230 1208 1
745 1209 1
747 1209 1
764 1209 1
769 1209 1
784 1209 1
791 1209 1
1214 1209 1
1231 1209 1
746 1210 1
748 1210 1
765 1210 1
770 1210 1
785 1210 1
792 1210 1
1215 1210 1
1232 1210 1
793 1211 1
808 1211 1
815 1211 1
829 1211 1
881 1211 1
889 1211 1
1013 1211 1
1020 1211 1
794 1212 1
809 1212 1
816 1212 1
830 1212 1
882 1212 1
890 1212 1
1014 1212 1
1021 1212 1
795 1213 1
810 1213 1
817 1213 1
831 1213 1
883 1213 1
891 1213 1
1015 1213 1
1022 1213 1
796 1214 1
811 1214 1
818 1214 1
832 1214 1
884 1214 1
892 1214 1
1016 1214 1
1023 1214 1
797 1215 1
812 1215 1
819 1215 1
833 1215 1
885 1215 1
893 1215 1
1017 1215 1
1024 1215 1
798 1216 1
813 1216 1
820 1216 1
834 1216 1
886 1216 1
894 1216 1
1018 1216 1
1025 1216 1
799 1217 1
814 1217 1
821 1217 1
835 1217 1
887 1217 1
895 1217 1
1019 1217 1
1026 1217 1
793 1218 1
800 1218 1
822 1218 1
836 1218 1
888 1218 1
896 1218 1
1020 1218 1
1027 1218 1
794 1219 1
801 1219 1
815 1219 1
823 1219 1
889 1219 1
897 1219 1
1021 1219 1
1028 1219 1
795 1220 1
802 1220 1
816 1220 1
824 1220 1
890 1220 1
898 1220 1
1022 1220 1
1029 1220 1
796 1221 1
803 1221 1
817 1221 1
825 1221 1
891 1221 1
899 1221 1
1023 1221 1
1030 1221 1
797 1222 1
804 1222 1
818 1222 1
826 1222 1
892 1222 1
900 1222 1
1024 1222 1
1031 1222 1
798 1223 1
805 1223 1
819 1223 1
827 1223 1
893 1223 1
901 1223 1
1025 1223 1
1032 1223 1
799 1224 1
806 1224 1
820 1224 1
828 1224 1
894 1224 1
902 1224 1
1026 1224 1
1033 1224 1
800 1225 1
807 1225 1
821 1225 1
829 1225 1
881 1225 1
895 1225 1
1027 1225 1
1034 1225 1
801 1226 1
808 1226 1
822 1226 1
830 1226 1
882 1226 1
896 1226 1
1013 1226 1
1028 1226 1
802 1227 1
809 1227 1
823 1227 1
831 1227 1
883 1227 1
897 1227 1
1014 1227 1
1029 1227 1
803 1228 1
810 1228 1
824 1228 1
832 1228 1
884 1228 1
898 1228 1
1015 1228 1
1030 1228 1
804 1229 1
811 1229 1
825 1229 1
833 1229 1
885 1229 1
899 1229 1
1016 1229 1
1031 1229 1
805 1230 1
812 1230 1
826 1230 1
834 1230 1
886 1230 1
900 1230 1
1017 1230 1
1032 1230 1
806 1231 1
813 1231 1
827 1231 1
835 1231 1
887 1231 1
901 1231 1
1018 1231 1
1033 1231 1
807 1232 1
814 1232 1
828 1232 1
836 1232 1
888 1232 1
902 1232 1
1019 1232 1
1034 1232 1
793 1233 1
810 1233 1
837 1233 1
851 1233 1
903 1233 1
911 1233 1
1035 1233 1
1042 1233 1
794 1234 1
811 1234 1
838 1234 1
852 1234 1
904 1234 1
912 1234 1
1036 1234 1
1043 1234 1
795 1235 1
812 1235 1
839 1235 1
853 1235 1
905 1235 1
913 1235 1
1037 1235 1
1044 1235 1
796 1236 1
813 1236 1
840 1236 1
854 1236 1
906 1236 1
914 1236 1
1038 1236 1
1045 1236 1
797 1237 1
814 1237 1
841 1237 1
855 1237 1
907 1237 1
915 1237 1
1039 1237 1
1046 1237 1
793 1238 1
798 1238 1
842 1238 1
856 1238 1
908 1238 1
916 1238 1
1040 1238 1
1047 1238 1
794 1239 1
799 1239 1
843 1239 1
857 1239 1
909 1239 1
917 1239 1
1041 1239 1
1048 1239 1
795 1240 1
800 1240 1
844 1240 1
858 1240 1
910 1240 1
918 1240 1
1042 1240 1
1049 1240 1
796 1241 1
801 1241 1
837 1241 1
845 1241 1
911 1241 1
919 1241 1
1043 1241 1
1050 1241 1
797 1242 1
802 1242 1
838 1242 1
846 1242 1
912 1242 1
920 1242 1
1044 1242 1
1051 1242 1
798 1243 1
803 1243 1
839 1243 1
847 1243 1
913 1243 1
921 1243 1
1045 1243 1
1052 1243 1
799 1244 1
804 1244 1
840 1244 1
848 1244 1
914 1244 1
922 1244 1
1046 1244 1
1053 1244 1
800 1245 1
805 1245 1
841 1245 1
849 1245 1
915 1245 1
923 1245 1
1047 1245 1
1054 1245 1
801 1246 1
806 1246 1
842 1246 1
850 1246 1
916 1246 1
924 1246 1
1048 1246 1
1055 1246 1
802 1247 1
807 1247 1
843 1247 1
851 1247 1
903 1247 1
917 1247 1
1049 1247 1
1056 1247 1
803 1248 1
808 1248 1
844 1248 1
852 1248 1
904 1248 1
918 1248 1
1035 1248 1
1050 1248 1
804 1249 1
809 1249 1
845 1249 1
853 1249 1
905 1249 1
919 1249 1
1036 1249 1
1051 1249 1
805 1250 1
810 1250 1
846 1250 1
854 1250 1
906 1250 1
920 1250 1
1037 1250 1
1052 1250 1
806 1251 1
811 1251 1
847 1251 1
855 1251 1
907 1251 1
921 1251 1
1038 1251 1
1053 1251 1
807 1252 1
812 1252 1
848 1252 1
856 1252 1
908 1252 1
922 1252 1
1039 1252 1
1054 1252 1
808 1253 1
813 1253 1
849 1253 1
857 1253 1
909 1253 1
923 1253 1
1040 1253 1
1055 1253 1
809 1254 1
814 1254 1
850 1254 1
858 1254 1
910 1254 1
924 1254 1
1041 1254 1
1056 1254 1
793 1255 1
813 1255 1
859 1255 1
873 1255 1
925 1255 1
933 1255 1
1057 1255 1
1064 1255 1
794 1256 1
814 1256 1
860 1256 1
874 1256 1
926 1256 1
934 1256 1
1058 1256 1
1065 1256 1
793 1257 1
795 1257 1
861 1257 1
875 1257 1
927 1257 1
935 1257 1
1059 1257 1
1066 1257 1
794 1258 1
796 1258 1
862 1258 1
876 1258 1
928 1258 1
936 1258 1
1060 1258 1
1067 1258 1
795 1259 1
797 1259 1
863 1259 1
877 1259 1
929 1259 1
937 1259 1
1061 1259 1
1068 1259 1
796 1260 1
798 1260 1
864 1260 1
878 1260 1
930 1260 1
938 1260 1
1062 1260 1
1069 1260 1
797 1261 1
799 1261 1
865 1261 1
879 1261 1
931 1261 1
939 1261 1
1063 1261 1
1070 1261 1
798 1262 1
800 1262 1
866 1262 1
880 1262 1
932 1262 1
940 1262 1
1064 1262 1
1071 1262 1
799 1263 1
801 1263 1
859 1263 1
867 1263 1
933 1263 1
941 1263 1
1065 1263 1
1072 1263 1
800 1264 1
802 1264 1
860 1264 1
868 1264 1
934 1264 1
942 1264 1
1066 1264 1
1073 1264 1
801 1265 1
803 1265 1
861 1265 1
869 1265 1
935 1265 1
943 1265 1
1067 1265 1
1074 1265 1
802 1266 1
804 1266 1
862 1266 1
870 1266 1
936 1266 1
944 1266 1
1068 1266 1
1075 1266 1
803 1267 1
805 1267 1
863 1267 1
871 1267 1
937 1267 1
945 1267 1
1069 1267 1
1076 1267 1
804 1268 1
806 1268 1
864 1268 1
872 1268 1
938 1268 1
946 1268 1
1070 1268 1
1077 1268 1
805 1269 1
807 1269 1
865 1269 1
873 1269 1
925 1269 1
939 1269 1
1071 1269 1
1078 1269 1
806 1270 1
808 1270 1
866 1270 1
874 1270 1
926 1270 1
940 1270 1
1057 1270 1
1072 1270 1
807 1271 1
809 1271 1
867 1271 1
875 1271 1
927 1271 1
941 1271 1
1058 1271 1
1073 1271 1
808 1272 1
810 1272 1
868 1272 1
876 1272 1
928 1272 1
942 1272 1
1059 1272 1
1074 1272 1
809 1273 1
811 1273 1
869 1273 1
877 1273 1
929 1273 1
943 1273 1
1060 1273 1
1075 1273 1
810 1274 1
812 1274 1
870 1274 1
878 1274 1
930 1274 1
944 1274 1
1061 1274 1
1076 1274 1
811 1275 1
813 1275 1
871 1275 1
879 1275 1
931 1275 1
945 1275 1
1062 1275 1
1077 1275 1
812 1276 1
814 1276 1
872 1276 1
880 1276 1
932 1276 1
946 1276 1
1063 1276 1
1078 1276 1
815 1277 1
832 1277 1
837 1277 1
852 1277 1
947 1277 1
955 1277 1
1079 1277 1
1086 1277 1
816 1278 1
833 1278 1
838 1278 1
853 1278 1
948 1278 1
956 1278 1
1080 1278 1
1087 1278 1
817 1279 1
834 1279 1
839 1279 1
854 1279 1
949 1279 1
957 1279 1
1081 1279 1
1088 1279 1
818 1280 1
835 1280 1
840 1280 1
855 1280 1
950 1280 1
958 1280 1
1082 1280 1
1089 1280 1
819 1281 1
836 1281 1
841 1281 1
856 1281 1
951 1281 1
959 1281 1
1083 1281 1
1090 1281 1
815 1282 1
820 1282 1
842 1282 1
857 1282 1
952 1282 1
960 1282 1
1084 1282 1
1091 1282 1
816 1283 1
821 1283 1
843 1283 1
858 1283 1
953 1283 1
961 1283 1
1085 1283 1
1092 1283 1
817 1284 1
822 1284 1
837 1284 1
844 1284 1
954 1284 1
962 1284 1
1086 1284 1
1093 1284 1
818 1285 1
823 1285 1
838 1285 1
845 1285 1
955 1285 1
963 1285 1
1087 1285 1
1094 1285 1
819 1286 1
824 1286 1
839 1286 1
846 1286 1
956 1286 1
964 1286 1
1088 1286 1
1095 1286 1
820 1287 1
825 1287 1
840 1287 1
847 1287 1
957 1287 1
965 1287 1
1089 1287 1
1096 1287 1
821 1288 1
826 1288 1
841 1288 1
848 1288 1
958 1288 1
966 1288 1
1090 1288 1
1097 1288 1
822 1289 1
827 1289 1
842 1289 1
849 1289 1
959 1289 1
967 1289 1
1091 1289 1
1098 1289 1
823 1290 1
828 1290 1
843 1290 1
850 1290 1
960 1290 1
968 1290 1
1092 1290 1
1099 1290 1
824 1291 1
829 1291 1
844 1291 1
851 1291 1
947 1291 1
961 1291 1
1093 1291 1
1100 1291 1
825 1292 1
830 1292 1
845 1292 1
852 1292 1
948 1292 1
962 1292 1
1079 1292 1
1094 1292 1
826 1293 1
831 1293 1
846 1293 1
853 1293 1
949 1293 1
963 1293 1
1080 1293 1
1095 1293 1
827 1294 1
832 1294 1
847 1294 1
854 1294 1
950 1294 1
964 1294 1
1081 1294 1
1096 1294 1
828 1295 1
833 1295 1
848 1295 1
855 1295 1
951 1295 1
965 1295 1
1082 1295 1
1097 1295 1
829 1296 1
834 1296 1
849 1296 1
856 1296 1
952 1296 1
966 1296 1
1083 1296 1
1098 1296 1
830 1297 1
835 1297 1
850 1297 1
857 1297 1
953 1297 1
967 1297 1
1084 1297 1
1099 1297 1
831 1298 1
836 1298 1
851 1298 1
858 1298 1
954 1298 1
968 1298 1
1085 1298 1
1100 1298 1
815 1299 1
835 1299 1
859 1299 1
874 1299 1
969 1299 1
977 1299 1
1101 1299 1
1108 1299 1
816 1300 1
836 1300 1
860 1300 1
875 1300 1
970 1300 1
978 1300 1
1102 1300 1
1109 1300 1
815 1301 1
817 1301 1
861 1301 1
876 1301 1
971 1301 1
979 1301 1
1103 1301 1
1110 1301 1
816 1302 1
818 1302 1
862 1302 1
877 1302 1
972 1302 1
980 1302 1
1104 1302 1
1111 1302 1
817 1303 1
819 1303 1
863 1303 1
878 1303 1
973 1303 1
981 1303 1
1105 1303 1
1112 1303 1
818 1304 1
820 1304 1
864 1304 1
879 1304 1
974 1304 1
982 1304 1
1106 1304 1
1113 1304 1
819 1305 1
821 1305 1
865 1305 1
880 1305 1
975 1305 1
983 1305 1
1107 1305 1
1114 1305 1
820 1306 1
822 1306 1
859 1306 1
866 1306 1
976 1306 1
984 1306 1
1108 1306 1
1115 1306 1
821 1307 1
823 1307 1
860 1307 1
867 1307 1
977 1307 1
985 1307 1
1109 1307 1
1116 1307 1
822 1308 1
824 1308 1
861 1308 1
868 1308 1
978 1308 1
986 1308 1
1110 1308 1
1117 1308 1
823 1309 1
825 1309 1
862 1309 1
869 1309 1
979 1309 1
987 1309 1
1111 1309 1
1118 1309 1
824 1310 1
826 1310 1
863 1310 1
870 1310 1
980 1310 1
988 1310 1
1112 1310 1
1119 1310 1
825 1311 1
827 1311 1
864 1311 1
871 1311 1
981 1311 1
989 1311 1
1113 1311 1
1120 1311 1
826 1312 1
828 1312 1
865 1312 1
872 1312 1
982 1312 1
990 1312 1
1114 1312 1
1121 1312 1
827 1313 1
829 1313 1
866 1313 1
873 1313 1
969 1313 1
983 1313 1
1115 1313 1
1122 1313 1
828 1314 1
830 1314 1
867 1314 1
874 1314 1
970 1314 1
984 1314 1
1101 1314 1
1116 1314 1
829 1315 1
831 1315 1
868 1315 1
875 1315 1
971 1315 1
985 1315 1
1102 1315 1
1117 1315 1
830 1316 1
832 1316 1
869 1316 1
876 1316 1
972 1316 1
986 1316 1
1103 1316 1
1118 1316 1
831 1317 1
833 1317 1
870 1317 1
877 1317 1
973 1317 1
987 1317 1
1104 1317 1
1119 1317 1
832 1318 1
834 1318 1
871 1318 1
878 1318 1
974 1318 1
988 1318 1
1105 1318 1
1120 1318 1
833 1319 1
835 1319 1
872 1319 1
879 1319 1
975 1319 1
989 1319 1
1106 1319 1
1121 1319 1
834 1320 1
836 1320 1
873 1320 1
880 1320 1
976 1320 1
990 1320 1
1107 1320 1
1122 1320 1
837 1321 1
857 1321 1
859 1321 1
876 1321 1
991 1321 1
999 1321 1
1123 1321 1
1130 1321 1
838 1322 1
858 1322 1
860 1322 1
877 1322 1
992 1322 1
1000 1322 1
1124 1322 1
1131 1322 1
837 1323 1
839 1323 1
861 1323 1
878 1323 1
993 1323 1
1001 1323 1
1125 1323 1
1132 1323 1
838 1324 1
840 1324 1
862 1324 1
879 1324 1
994 1324 1
1002 1324 1
1126 1324 1
1133 1324 1
839 1325 1
841 1325 1
863 1325 1
880 1325 1
995 1325 1
1003 1325 1
1127 1325 1
1134 1325 1
840 1326 1
842 1326 1
859 1326 1
864 1326 1
996 1326 1
1004 1326 1
1128 1326 1
1135 1326 1
841 1327 1
843 1327 1
860 1327 1
865 1327 1
997 1327 1
1005 1327 1
1129 1327 1
1136 1327 1
842 1328 1
844 1328 1
861 1328 1
866 1328 1
998 1328 1
1006 1328 1
1130 1328 1
1137 1328 1
843 1329 1
845 1329 1
862 1329 1
867 1329 1
999 1329 1
1007 1329 1
1131 1329 1
1138 1329 1
844 1330 1
846 1330 1
863 1330 1
868 1330 1
1000 1330 1
1008 1330 1
1132 1330 1
1139 1330 1
845 1331 1
847 1331 1
864 1331 1
869 1331 1
1001 1331 1
1009 1331 1
1133 1331 1
1140 1331 1
846 1332 1
848 1332 1
865 1332 1
870 1332 1
1002 1332 1
1010 1332 1
1134 1332 1
1141 1332 1
847 1333 1
849 1333 1
866 1333 1
871 1333 1
1003 1333 1
1011 1333 1
1135 1333 1
1142 1333 1
848 1334 1
850 1334 1
867 1334 1
872 1334 1
1004 1334 1
1012 1334 1
1136 1334 1
1143 1334 1
849 1335 1
851 1335 1
868 1335 1
873 1335 1
991 1335 1
1005 1335 1
1137 1335 1
1144 1335 1
850 1336 1
852 1336 1
869 1336 1
874 1336 1
992 1336 1
1006 1336 1
1123 1336 1
1138 1336 1
851 1337 1
853 1337 1
870 1337 1
875 1337 1
993 1337 1
1007 1337 1
1124 1337 1
1139 1337 1
852 1338 1
854 1338 1
871 1338 1
876 1338 1
994 1338 1
1008 1338 1
1125 1338 1
1140 1338 1
853 1339 1
855 1339 1
872 1339 1
877 1339 1
995 1339 1
1009 1339 1
1126 1339 1
1141 1339 1
854 1340 1
856 1340 1
873 1340 1
878 1340 1
996 1340 1
1010 1340 1
1127 1340 1
1142 1340 1
855 1341 1
857 1341 1
874 1341 1
879 1341 1
997 1341 1
1011 1341 1
1128 1341 1
1143 1341 1
856 1342 1
858 1342 1
875 1342 1
880 1342 1
998 1342 1
1012 1342 1
1129 1342 1
1144 1342 1
881 1343 1
898 1343 1
903 1343 1
918 1343 1
947 1343 1
961 1343 1
1145 1343 1
1152 1343 1
882 1344 1
899 1344 1
904 1344 1
919 1344 1
948 1344 1
962 1344 1
1146 1344 1
1153 1344 1
883 1345 1
900 1345 1
905 1345 1
920 1345 1
949 1345 1
963 1345 1
1147 1345 1
1154 1345 1
884 1346 1
901 1346 1
906 1346 1
921 1346 1
950 1346 1
964 1346 1
1148 1346 1
1155 1346 1
885 1347 1
902 1347 1
907 1347 1
922 1347 1
951 1347 1
965 1347 1
1149 1347 1
1156 1347 1
881 1348 1
886 1348 1
908 1348 1
923 1348 1
952 1348 1
966 1348 1
1150 1348 1
1157 1348 1
882 1349 1
887 1349 1
909 1349 1
924 1349 1
953 1349 1
967 1349 1
1151 1349 1
1158 1349 1
883 1350 1
888 1350 1
903 1350 1
910 1350 1
954 1350 1
968 1350 1
1152 1350 1
1159 1350 1
884 1351 1
889 1351 1
904 1351 1
911 1351 1
947 1351 1
955 1351 1
1153 1351 1
1160 1351 1
885 1352 1
890 1352 1
905 1352 1
912 1352 1
948 1352 1
956 1352 1
1154 1352 1
1161 1352 1
886 1353 1
891 1353 1
906 1353 1
913 1353 1
949 1353 1
957 1353 1
1155 1353 1
1162 1353 1
887 1354 1
892 1354 1
907 1354 1
914 1354 1
950 1354 1
958 1354 1
1156 1354 1
1163 1354 1
888 1355 1
893 1355 1
908 1355 1
915 1355 1
951 1355 1
959 1355 1
1157 1355 1
1164 1355 1
889 1356 1
894 1356 1
909 1356 1
916 1356 1
952 1356 1
960 1356 1
1158 1356 1
1165 1356 1
890 1357 1
895 1357 1
910 1357 1
917 1357 1
953 1357 1
961 1357 1
1159 1357 1
1166 1357 1
891 1358 1
896 1358 1
911 1358 1
918 1358 1
954 1358 1
962 1358 1
1145 1358 1
1160 1358 1
892 1359 1
897 1359 1
912 1359 1
919 1359 1
955 1359 1
963 1359 1
1146 1359 1
1161 1359 1
893 1360 1
898 1360 1
913 1360 1
920 1360 1
956 1360 1
964 1360 1
1147 1360 1
1162 1360 1
894 1361 1
899 1361 1
914 1361 1
921 1361 1
957 1361 1
965 1361 1
1148 1361 1
1163 1361 1
895 1362 1
900 1362 1
915 1362 1
922 1362 1
958 1362 1
966 1362 1
1149 1362 1
1164 1362 1
896 1363 1
901 1363 1
916 1363 1
923 1363 1
959 1363 1
967 1363 1
1150 1363 1
1165 1363 1
897 1364 1
902 1364 1
917 1364 1
924 1364 1
960 1364 1
968 1364 1
1151 1364 1
1166 1364 1
881 1365 1
901 1365 1
925 1365 1
940 1365 1
969 1365 1
983 1365 1
1167 1365 1
1174 1365 1
882 1366 1
902 1366 1
926 1366 1
941 1366 1
970 1366 1
984 1366 1
1168 1366 1
1175 1366 1
881 1367 1
883 1367 1
927 1367 1
942 1367 1
971 1367 1
985 1367 1
1169 1367 1
1176 1367 1
882 1368 1
884 1368 1
928 1368 1
943 1368 1
972 1368 1
986 1368 1
1170 1368 1
1177 1368 1
883 1369 1
885 1369 1
929 1369 1
944 1369 1
973 1369 1
987 1369 1
1171 1369 1
1178 1369 1
884 1370 1
886 1370 1
930 1370 1
945 1370 1
974 1370 1
988 1370 1
1172 1370 1
1179 1370 1
885 1371 1
887 1371 1
931 1371 1
946 1371 1
975 1371 1
989 1371 1
1173 1371 1
1180 1371 1
886 1372 1
888 1372 1
925 1372 1
932 1372 1
976 1372 1
990 1372 1
1174 1372 1
1181 1372 1
887 1373 1
889 1373 1
926 1373 1
933 1373 1
969 1373 1
977 1373 1
1175 1373 1
1182 1373 1
888 1374 1
890 1374 1
927 1374 1
934 1374 1
970 1374 1
978 1374 1
1176 1374 1
1183 1374 1
889 1375 1
891 1375 1
928 1375 1
935 1375 1
971 1375 1
979 1375 1
1177 1375 1
1184 1375 1
890 1376 1
892 1376 1
929 1376 1
936 1376 1
972 1376 1
980 1376 1
1178 1376 1
1185 1376 1
891 1377 1
893 1377 1
930 1377 1
937 1377 1
973 1377 1
981 1377 1
1179 1377 1
1186 1377 1
892 1378 1
894 1378 1
931 1378 1
938 1378 1
974 1378 1
982 1378 1
1180 1378 1
1187 1378 1
893 1379 1
895 1379 1
932 1379 1
939 1379 1
975 1379 1
983 1379 1
1181 1379 1
1188 1379 1
894 1380 1
896 1380 1
933 1380 1
940 1380 1
976 1380 1
984 1380 1
1167 1380 1
1182 1380 1
895 1381 1
897 1381 1
934 1381 1
941 1381 1
977 1381 1
985 1381 1
1168 1381 1
1183 1381 1
896 1382 1
898 1382 1
935 1382 1
942 1382 1
978 1382 1
986 1382 1
1169 1382 1
1184 1382 1
897 1383 1
899 1383 1
936 1383 1
943 1383 1
979 1383 1
987 1383 1
1170 1383 1
1185 1383 1
898 1384 1
900 1384 1
937 1384 1
944 1384 1
980 1384 1
988 1384 1
1171 1384 1
1186 1384 1
899 1385 1
901 1385 1
938 1385 1
945 1385 1
981 1385 1
989 1385 1
1172 1385 1
1187 1385 1
900 1386 1
902 1386 1
939 1386 1
946 1386 1
982 1386 1
990 1386 1
1173 1386 1
1188 1386 1
903 1387 1
923 1387 1
925 1387 1
942 1387 1
991 1387 1
1005 1387 1
1189 1387 1
1196 1387 1
904 1388 1
924 1388 1
926 1388 1
943 1388 1
992 1388 1
1006 1388 1
1190 1388 1
1197 1388 1
903 1389 1
905 1389 1
927 1389 1
944 1389 1
993 1389 1
1007 1389 1
1191 1389 1
1198 1389 1
904 1390 1
906 1390 1
928 1390 1
945 1390 1
994 1390 1
1008 1390 1
1192 1390 1
1199 1390 1
905 1391 1
907 1391 1
929 1391 1
946 1391 1
995 1391 1
1009 1391 1
1193 1391 1
1200 1391 1
906 1392 1
908 1392 1
925 1392 1
930 1392 1
996 1392 1
1010 1392 1
1194 1392 1
1201 1392 1
907 1393 1
909 1393 1
926 1393 1
931 1393 1
997 1393 1
1011 1393 1
1195 1393 1
1202 1393 1
908 1394 1
910 1394 1
927 1394 1
932 1394 1
998 1394 1
1012 1394 1
1196 1394 1
1203 1394 1
909 1395 1
911 1395 1
928 1395 1
933 1395 1
991 1395 1
999 1395 1
1197 1395 1
1204 1395 1
910 1396 1
912 1396 1
929 1396 1
934 1396 1
992 1396 1
1000 1396 1
1198 1396 1
1205 1396 1
911 1397 1
913 1397 1
930 1397 1
935 1397 1
993 1397 1
1001 1397 1
1199 1397 1
1206 1397 1
912 1398 1
914 1398 1
931 1398 1
936 1398 1
994 1398 1
1002 1398 1
1200 1398 1
1207 1398 1
913 1399 1
915 1399 1
932 1399 1
937 1399 1
995 1399 1
1003 1399 1
1201 1399 1
1208 1399 1
914 1400 1
916 1400 1
933 1400 1
938 1400 1
996 1400 1
1004 1400 1
1202 1400 1
1209 1400 1
915 1401 1
917 1401 1
934 1401 1
939 1401 1
997 1401 1
1005 1401 1
1203 1401 1
1210 1401 1
916 1402 1
918 1402 1
935 1402 1
940 1402 1
998 1402 1
1006 1402 1
1189 1402 1
1204 1402 1
917 1403 1
919 1403 1
936 1403 1
941 1403 1
999 1403 1
1007 1403 1
1190 1403 1
1205 1403 1
918 1404 1
920 1404 1
937 1404 1
942 1404 1
1000 1404 1
1008 1404 1
1191 1404 1
1206 1404 1
919 1405 1
921 1405 1
938 1405 1
943 1405 1
1001 1405 1
1009 1405 1
1192 1405 1
1207 1405 1
920 1406 1
922 1406 1
939 1406 1
944 1406 1
1002 1406 1
1010 1406 1
1193 1406 1
1208 1406 1
921 1407 1
923 1407 1
940 1407 1
945 1407 1
1003 1407 1
1011 1407 1
1194 1407 1
1209 1407 1
922 1408 1
924 1408 1
941 1408 1
946 1408 1
1004 1408 1
1012 1408 1
1195 1408 1
1210 1408 1
947 1409 1
967 1409 1
969 1409 1
986 1409 1
991 1409 1
1006 1409 1
1211 1409 1
1218 1409 1
948 1410 1
968 1410 1
970 1410 1
987 1410 1
992 1410 1
1007 1410 1
1212 1410 1
1219 1410 1
947 1411 1
949 1411 1
971 1411 1
988 1411 1
993 1411 1
1008 1411 1
1213 1411 1
1220 1411 1
948 1412 1
950 1412 1
972 1412 1
989 1412 1
994 1412 1
1009 1412 1
1214 1412 1
1221 1412 1
949 1413 1
951 1413 1
973 1413 1
990 1413 1
995 1413 1
1010 1413 1
1215 1413 1
1222 1413 1
950 1414 1
952 1414 1
969 1414 1
974 1414 1
996 1414 1
1011 1414 1
1216 1414 1
1223 1414 1
951 1415 1
953 1415 1
970 1415 1
975 1415 1
997 1415 1
1012 1415 1
1217 1415 1
1224 1415 1
952 1416 1
954 1416 1
971 1416 1
976 1416 1
991 1416 1
998 1416 1
1218 1416 1
1225 1416 1
953 1417 1
955 1417 1
972 1417 1
977 1417 1
992 1417 1
999 1417 1
1219 1417 1
1226 1417 1
954 1418 1
956 1418 1
973 1418 1
978 1418 1
993 1418 1
1000 1418 1
1220 1418 1
1227 1418 1
955 1419 1
957 1419 1
974 1419 1
979 1419 1
994 1419 1
1001 1419 1
1221 1419 1
1228 1419 1
956 1420 1
958 1420 1
975 1420 1
980 1420 1
995 1420 1
1002 1420 1
1222 1420 1
1229 1420 1
957 1421 1
959 1421 1
976 1421 1
981 1421 1
996 1421 1
1003 1421 1
1223 1421 1
1230 1421 1
958 1422 1
960 1422 1
977 1422 1
982 1422 1
997 1422 1
1004 1422 1
1224 1422 1
1231 1422 1
959 1423 1
961 1423 1
978 1423 1
983 1423 1
998 1423 1
1005 1423 1
1225 1423 1
1232 1423 1
960 1424 1
962 1424 1
979 1424 1
984 1424 1
999 1424 1
1006 1424 1
1211 1424 1
1226 1424 1
961 1425 1
963 1425 1
980 1425 1
985 1425 1
1000 1425 1
1007 1425 1
1212 1425 1
1227 1425 1
962 1426 1
964 1426 1
981 1426 1
986 1426 1
1001 1426 1
1008 1426 1
1213 1426 1
1228 1426 1
963 1427 1
965 1427 1
982 1427 1
987 1427 1
1002 1427 1
1009 1427 1
1214 1427 1
1229 1427 1
964 1428 1
966 1428 1
983 1428 1
988 1428 1
1003 1428 1
1010 1428 1
1215 1428 1
1230 1428 1
965 1429 1
967 1429 1
984 1429 1
989 1429 1
1004 1429 1
1011 1429 1
1216 1429 1
1231 1429 1
966 1430 1
968 1430 1
985 1430 1
990 1430 1
1005 1430 1
1012 1430 1
1217 1430 1
1232 1430 1
1013 1431 1
1030 1431 1
1035 1431 1
1050 1431 1
1079 1431 1
1093 1431 1
1145 1431 1
1153 1431 1
1014 1432 1
1031 1432 1
1036 1432 1
1051 1432 1
1080 1432 1
1094 1432 1
1146 1432 1
1154 1432 1
1015 1433 1
1032 1433 1
1037 1433 1
1052 1433 1
1081 1433 1
1095 1433 1
1147 1433 1
1155 1433 1
1016 1434 1
1033 1434 1
1038 1434 1
1053 1434 1
1082 1434 1
1096 1434 1
1148 1434 1
1156 1434 1
1017 1435 1
1034 1435 1
1039 1435 1
1054 1435 1
1083 1435 1
1097 1435 1
1149 1435 1
1157 1435 1
1013 1436 1
1018 1436 1
1040 1436 1
1055 1436 1
1084 1436 1
1098 1436 1
1150 1436 1
1158 1436 1
1014 1437 1
1019 1437 1
1041 1437 1
1056 1437 1
1085 1437 1
1099 1437 1
1151 1437 1
1159 1437 1
1015 1438 1
1020 1438 1
1035 1438 1
1042 1438 1
1086 1438 1
1100 1438 1
1152 1438 1
1160 1438 1
1016 1439 1
1021 1439 1
1036 1439 1
1043 1439 1
1079 1439 1
1087 1439 1
1153 1439 1
1161 1439 1
1017 1440 1
1022 1440 1
1037 1440 1
1044 1440 1
1080 1440 1
1088 1440 1
1154 1440 1
1162 1440 1
1018 1441 1
1023 1441 1
1038 1441 1
1045 1441 1
1081 1441 1
1089 1441 1
1155 1441 1
1163 1441 1
1019 1442 1
1024 1442 1
1039 1442 1
1046 1442 1
1082 1442 1
1090 1442 1
1156 1442 1
1164 1442 1
1020 1443 1
1025 1443 1
1040 1443 1
1047 1443 1
1083 1443 1
1091 1443 1
1157 1443 1
1165 1443 1
1021 1444 1
1026 1444 1
1041 1444 1
1048 1444 1
1084 1444 1
1092 1444 1
1158 1444 1
1166 1444 1
1022 1445 1
1027 1445 1
1042 1445 1
1049 1445 1
1085 1445 1
1093 1445 1
1145 1445 1
1159 1445 1
1023 1446 1
1028 1446 1
1043 1446 1
1050 1446 1
1086 1446 1
1094 1446 1
1146 1446 1
1160 1446 1
1024 1447 1
1029 1447 1
1044 1447 1
1051 1447 1
1087 1447 1
1095 1447 1
1147 1447 1
1161 1447 1
1025 1448 1
1030 1448 1
1045 1448 1
1052 1448 1
1088 1448 1
1096 1448 1
1148 1448 1
1162 1448 1
1026 1449 1
1031 1449 1
1046 1449 1
1053 1449 1
1089 1449 1
1097 1449 1
1149 1449 1
1163 1449 1
1027 1450 1
1032 1450 1
1047 1450 1
1054 1450 1
1090 1450 1
1098 1450 1
1150 1450 1
1164 1450 1
1028 1451 1
1033 1451 1
1048 1451 1
1055 1451 1
1091 1451 1
1099 1451 1
1151 1451 1
1165 1451 1
1029 1452 1
1034 1452 1
1049 1452 1
1056 1452 1
1092 1452 1
1100 1452 1
1152 1452 1
1166 1452 1
1013 1453 1
1033 1453 1
1057 1453 1
1072 1453 1
1101 1453 1
1115 1453 1
1167 1453 1
1175 1453 1
1014 1454 1
1034 1454 1
1058 1454 1
1073 1454 1
1102 1454 1
1116 1454 1
1168 1454 1
1176 1454 1
1013 1455 1
1015 1455 1
1059 1455 1
1074 1455 1
1103 1455 1
1117 1455 1
1169 1455 1
1177 1455 1
1014 1456 1
1016 1456 1
1060 1456 1
1075 1456 1
1104 1456 1
1118 1456 1
1170 1456 1
1178 1456 1
1015 1457 1
1017 1457 1
1061 1457 1
1076 1457 1
1105 1457 1
1119 1457 1
1171 1457 1
1179 1457 1
1016 1458 1
1018 1458 1
1062 1458 1
1077 1458 1
1106 1458 1
1120 1458 1
1172 1458 1
1180 1458 1
1017 1459 1
1019 1459 1
1063 1459 1
1078 1459 1
1107 1459 1
1121 1459 1
1173 1459 1
1181 1459 1
1018 1460 1
1020 1460 1
1057 1460 1
1064 1460 1
1108 1460 1
1122 1460 1
1174 1460 1
1182 1460 1
1019 1461 1
1021 1461 1
1058 1461 1
1065 1461 1
1101 1461 1
1109 1461 1
1175 1461 1
1183 1461 1
1020 1462 1
1022 1462 1
1059 1462 1
1066 1462 1
1102 1462 1
1110 1462 1
1176 1462 1
1184 1462 1
1021 1463 1
1023 1463 1
1060 1463 1
1067 1463 1
1103 1463 1
1111 1463 1
1177 1463 1
1185 1463 1
1022 1464 1
1024 1464 1
1061 1464 1
1068 1464 1
1104 1464 1
1112 1464 1
1178 1464 1
1186 1464 1
1023 1465 1
1025 1465 1
1062 1465 1
1069 1465 1
1105 1465 1
1113 1465 1
1179 1465 1
1187 1465 1
1024 1466 1
1026 1466 1
1063 1466 1
1070 1466 1
1106 1466 1
1114 1466 1
1180 1466 1
1188 1466 1
1025 1467 1
1027 1467 1
1064 1467 1
1071 1467 1
1107 1467 1
1115 1467 1
1167 1467 1
1181 1467 1
1026 1468 1
1028 1468 1
1065 1468 1
1072 1468 1
1108 1468 1
1116 1468 1
1168 1468 1
1182 1468 1
1027 1469 1
1029 1469 1
1066 1469 1
1073 1469 1
1109 1469 1
1117 1469 1
1169 1469 1
1183 1469 1
1028 1470 1
1030 1470 1
1067 1470 1
1074 1470 1
1110 1470 1
1118 1470 1
1170 1470 1
1184 1470 1
1029 1471 1
1031 1471 1
1068 1471 1
1075 1471 1
1111 1471 1
1119 1471 1
1171 1471 1
1185 1471 1
1030 1472 1
1032 1472 1
1069 1472 1
1076 1472 1
1112 1472 1
1120 1472 1
1172 1472 1
1186 1472 1
1031 1473 1
1033 1473 1
1070 1473 1
1077 1473 1
1113 1473 1
1121 1473 1
1173 1473 1
1187 1473 1
1032 1474 1
1034 1474 1
1071 1474 1
1078 1474 1
1114 1474 1
1122 1474 1
1174 1474 1
1188 1474 1
1035 1475 1
1055 1475 1
1057 1475 1
1074 1475 1
1123 1475 1
1137 1475 1
1189 1475 1
1197 1475 1
1036 1476 1
1056 1476 1
1058 1476 1
1075 1476 1
1124 1476 1
1138 1476 1
1190 1476 1
1198 1476 1
1035 1477 1
1037 1477 1
1059 1477 1
1076 1477 1
1125 1477 1
1139 1477 1
1191 1477 1
1199 1477 1
1036 1478 1
1038 1478 1
1060 1478 1
1077 1478 1
1126 1478 1
1140 1478 1
1192 1478 1
1200 1478 1
1037 1479 1
1039 1479 1
1061 1479 1
1078 1479 1
1127 1479 1
1141 1479 1
1193 1479 1
1201 1479 1
1038 1480 1
1040 1480 1
1057 1480 1
1062 1480 1
1128 1480 1
1142 1480 1
1194 1480 1
1202 1480 1
1039 1481 1
1041 1481 1
1058 1481 1
1063 1481 1
1129 1481 1
1143 1481 1
1195 1481 1
1203 1481 1
1040 1482 1
1042 1482 1
1059 1482 1
1064 1482 1
1130 1482 1
1144 1482 1
1196 1482 1
1204 1482 1
1041 1483 1
1043 1483 1
1060 1483 1
1065 1483 1
1123 1483 1
1131 1483 1
1197 1483 1
1205 1483 1
1042 1484 1
1044 1484 1
1061 1484 1
1066 1484 1
1124 1484 1
1132 1484 1
1198 1484 1
1206 1484 1
1043 1485 1
1045 1485 1
1062 1485 1
1067 1485 1
1125 1485 1
1133 1485 1
1199 1485 1
1207 1485 1
1044 1486 1
1046 1486 1
1063 1486 1
1068 1486 1
1126 1486 1
1134 1486 1
1200 1486 1
1208 1486 1
1045 1487 1
1047 1487 1
1064 1487 1
1069 1487 1
1127 1487 1
1135 1487 1
1201 1487 1
1209 1487 1
1046 1488 1
1048 1488 1
1065 1488 1
1070 1488 1
1128 1488 1
1136 1488 1
1202 1488 1
1210 1488 1
1047 1489 1
1049 1489 1
1066 1489 1
1071 1489 1
1129 1489 1
1137 1489 1
1189 1489 1
1203 1489 1
1048 1490 1
1050 1490 1
1067 1490 1
1072 1490 1
1130 1490 1
1138 1490 1
1190 1490 1
1204 1490 1
1049 1491 1
1051 1491 1
1068 1491 1
1073 1491 1
1131 1491 1
1139 1491 1
1191 1491 1
1205 1491 1
1050 1492 1
1052 1492 1
1069 1492 1
1074 1492 1
1132 1492 1
1140 1492 1
1192 1492 1
1206 1492 1
1051 1493 1
1053 1493 1
1070 1493 1
1075 1493 1
1133 1493 1
1141 1493 1
1193 1493 1
1207 1493 1
1052 1494 1
1054 1494 1
1071 1494 1
1076 1494 1
1134 1494 1
1142 1494 1
1194 1494 1
1208 1494 1
1053 1495 1
1055 1495 1
1072 1495 1
1077 1495 1
1135 1495 1
1143 1495 1
1195 1495 1
1209 1495 1
1054 1496 1
1056 1496 1
1073 1496 1
1078 1496 1
1136 1496 1
1144 1496 1
1196 1496 1
1210 1496 1
1079 1497 1
1099 1497 1
1101 1497 1
1118 1497 1
1123 1497 1
1138 1497 1
1211 1497 1
1219 1497 1
1080 1498 1
1100 1498 1
1102 1498 1
1119 1498 1
1124 1498 1
1139 1498 1
1212 1498 1
1220 1498 1
1079 1499 1
1081 1499 1
1103 1499 1
1120 1499 1
1125 1499 1
1140 1499 1
1213 1499 1
1221 1499 1
1080 1500 1
1082 1500 1
1104 1500 1
1121 1500 1
1126 1500 1
1141 1500 1
1214 1500 1
1222 1500 1
1081 1501 1
1083 1501 1
1105 1501 1
1122 1501 1
1127 1501 1
1142 1501 1
1215 1501 1
1223 1501 1
1082 1502 1
1084 1502 1
1101 1502 1
1106 1502 1
1128 1502 1
1143 1502 1
1216 1502 1
1224 1502 1
1083 1503 1
1085 1503 1
1102 1503 1
1107 1503 1
1129 1503 1
1144 1503 1
1217 1503 1
1225 1503 1
1084 1504 1
1086 1504 1
1103 1504 1
1108 1504 1
1123 1504 1
1130 1504 1
1218 1504 1
1226 1504 1
1085 1505 1
1087 1505 1
1104 1505 1
1109 1505 1
1124 1505 1
1131 1505 1
1219 1505 1
1227 1505 1
1086 1506 1
1088 1506 1
1105 1506 1
1110 1506 1
1125 1506 1
1132 1506 1
1220 1506 1
1228 1506 1
1087 1507 1
1089 1507 1
1106 1507 1
1111 1507 1
1126 1507 1
1133 1507 1
1221 1507 1
1229 1507 1
1088 1508 1
1090 1508 1
1107 1508 1
1112 1508 1
1127 1508 1
1134 1508 1
1222 1508 1
1230 1508 1
1089 1509 1
1091 1509 1
1108 1509 1
1113 1509 1
1128 1509 1
1135 1509 1
1223 1509 1
1231 1509 1
1090 1510 1
1092 1510 1
1109 1510 1
1114 1510 1
1129 1510 1
1136 1510 1
1224 1510 1
1232 1510 1
1091 1511 1
1093 1511 1
1110 1511 1
1115 1511 1
1130 1511 1
1137 1511 1
1211 1511 1
1225 1511 1
1092 1512 1
1094 1512 1
1111 1512 1
1116 1512 1
1131 1512 1
1138 1512 1
1212 1512 1
1226 1512 1
1093 1513 1
1095 1513 1
1112 1513 1
1117 1513 1
1132 1513 1
1139 1513 1
1213 1513 1
1227 1513 1
1094 1514 1
1096 1514 1
1113 1514 1
1118 1514 1
1133 1514 1
1140 1514 1
1214 1514 1
1228 1514 1
1095 1515 1
1097 1515 1
1114 1515 1
1119 1515 1
1134 1515 1
1141 1515 1
1215 1515 1
1229 1515 1
1096 1516 1
1098 1516 1
1115 1516 1
1120 1516 1
1135 1516 1
1142 1516 1
1216 1516 1
1230 1516 1
1097 1517 1
1099 1517 1
1116 1517 1
1121 1517 1
1136 1517 1
1143 1517 1
1217 1517 1
1231 1517 1
1098 1518 1
1100 1518 1
1117 1518 1
1122 1518 1
1137 1518 1
1144 1518 1
1218 1518 1
1232 1518 1
1145 1519 1
1165 1519 1
1167 1519 1
1184 1519 1
1189 1519 1
1204 1519 1
1211 1519 1
1225 1519 1
1146 1520 1
1166 1520 1
1168 1520 1
1185 1520 1
1190 1520 1
1205 1520 1
1212 1520 1
1226 1520 1
1145 1521 1
1147 1521 1
1169 1521 1
1186 1521 1
1191 1521 1
1206 1521 1
1213 1521 1
1227 1521 1
1146 1522 1
1148 1522 1
1170 1522 1
1187 1522 1
1192 1522 1
1207 1522 1
1214 1522 1
1228 1522 1
1147 1523 1
1149 1523 1
1171 1523 1
1188 1523 1
1193 1523 1
1208 1523 1
1215 1523 1
1229 1523 1
1148 1524 1
1150 1524 1
1167 1524 1
1172 1524 1
1194 1524 1
1209 1524 1
1216 1524 1
1230 1524 1
1149 1525 1
1151 1525 1
1168 1525 1
1173 1525 1
1195 1525 1
1210 1525 1
1217 1525 1
1231 1525 1
1150 1526 1
1152 1526 1
1169 1526 1
1174 1526 1
1189 1526 1
1196 1526 1
1218 1526 1
1232 1526 1
1151 1527 1
1153 1527 1
1170 1527 1
1175 1527 1
1190 1527 1
1197 1527 1
1211 1527 1
1219 1527 1
1152 1528 1
1154 1528 1
1171 1528 1
1176 1528 1
1191 1528 1
1198 1528 1
1212 1528 1
1220 1528 1
1153 1529 1
1155 1529 1
1172 1529 1
1177 1529 1
1192 1529 1
1199 1529 1
1213 1529 1
1221 1529 1
1154 1530 1
1156 1530 1
1173 1530 1
1178 1530 1
1193 1530 1
1200 1530 1
1214 1530 1
1222 1530 1
1155 1531 1
1157 1531 1
1174 1531 1
1179 1531 1
1194 1531 1
1201 1531 1
1215 1531 1
1223 1531 1
1156 1532 1
1158 1532 1
1175 1532 1
1180 1532 1
1195 1532 1
1202 1532 1
1216 1532 1
1224 1532 1
1157 1533 1
1159 1533 1
1176 1533 1
1181 1533 1
1196 1533 1
1203 1533 1
1217 1533 1
1225 1533 1
1158 1534 1
1160 1534 1
1177 1534 1
1182 1534 1
1197 1534 1
1204 1534 1
1218 1534 1
1226 1534 1
1159 1535 1
1161 1535 1
1178 1535 1
1183 1535 1
1198 1535 1
1205 1535 1
1219 1535 1
1227 1535 1
1160 1536 1
1162 1536 1
1179 1536 1
1184 1536 1
1199 1536 1
1206 1536 1
1220 1536 1
1228 1536 1
1161 1537 1
1163 1537 1
1180 1537 1
1185 1537 1
1200 1537 1
1207 1537 1
1221 1537 1
1229 1537 1
1162 1538 1
1164 1538 1
1181 1538 1
1186 1538 1
1201 1538 1
1208 1538 1
1222 1538 1
1230 1538 1
1163 1539 1
1165 1539 1
1182 1539 1
1187 1539 1
1202 1539 1
1209 1539 1
1223 1539 1
1231 1539 1
1164 1540 1
1166 1540 1
1183 1540 1
1188 1540 1
1203 1540 1
1210 1540 1
1224 1540 1
1232 1540 1
