%%MatrixMarket matrix coordinate integer general
% Binary matrix; one-based indices; arithmetic over GF(2)
135 270 1080
1 1 1
10 1 1
28 1 1
35 1 1
2 2 1
11 2 1
29 2 1
36 2 1
3 3 1
12 3 1
30 3 1
37 3 1
4 4 1
13 4 1
31 4 1
38 4 1
5 5 1
14 5 1
32 5 1
39 5 1
6 6 1
15 6 1
33 6 1
40 6 1
7 7 1
16 7 1
34 7 1
41 7 1
8 8 1
17 8 1
35 8 1
42 8 1
9 9 1
18 9 1
36 9 1
43 9 1
10 10 1
19 10 1
37 10 1
44 10 1
11 11 1
20 11 1
38 11 1
45 11 1
12 12 1
21 12 1
39 12 1
46 12 1
13 13 1
22 13 1
40 13 1
47 13 1
14 14 1
23 14 1
41 14 1
48 14 1
15 15 1
24 15 1
42 15 1
49 15 1
16 16 1
25 16 1
43 16 1
50 16 1
17 17 1
26 17 1
44 17 1
51 17 1
18 18 1
27 18 1
45 18 1
52 18 1
1 19 1
19 19 1
46 19 1
53 19 1
2 20 1
20 20 1
47 20 1
54 20 1
3 21 1
21 21 1
28 21 1
48 21 1
4 22 1
22 22 1
29 22 1
49 22 1
5 23 1
23 23 1
30 23 1
50 23 1
6 24 1
24 24 1
31 24 1
51 24 1
7 25 1
25 25 1
32 25 1
52 25 1
8 26 1
26 26 1
33 26 1
53 26 1
9 27 1
27 27 1
34 27 1
54 27 1
1 28 1
11 28 1
55 28 1
62 28 1
2 29 1
12 29 1
56 29 1
63 29 1
3 30 1
13 30 1
57 30 1
64 30 1
4 31 1
14 31 1
58 31 1
65 31 1
5 32 1
15 32 1
59 32 1
66 32 1
6 33 1
16 33 1
60 33 1
67 33 1
7 34 1
17 34 1
61 34 1
68 34 1
8 35 1
18 35 1
62 35 1
69 35 1
9 36 1
19 36 1
63 36 1
70 36 1
10 37 1
20 37 1
64 37 1
71 37 1
11 38 1
21 38 1
65 38 1
72 38 1
12 39 1
22 39 1
66 39 1
73 39 1
13 40 1
23 40 1
67 40 1
74 40 1
14 41 1
24 41 1
68 41 1
75 41 1
15 42 1
25 42 1
69 42 1
76 42 1
16 43 1
26 43 1
70 43 1
77 43 1
17 44 1
27 44 1
71 44 1
78 44 1
1 45 1
18 45 1
72 45 1
79 45 1
2 46 1
19 46 1
73 46 1
80 46 1
3 47 1
20 47 1
74 47 1
81 47 1
4 48 1
21 48 1
55 48 1
75 48 1
5 49 1
22 49 1
56 49 1
76 49 1
6 50 1
23 50 1
57 50 1
77 50 1
7 51 1
24 51 1
58 51 1
78 51 1
8 52 1
25 52 1
59 52 1
79 52 1
9 53 1
26 53 1
60 53 1
80 53 1
10 54 1
27 54 1
61 54 1
81 54 1
28 55 1
38 55 1
55 55 1
64 55 1
29 56 1
39 56 1
56 56 1
65 56 1
30 57 1
40 57 1
57 57 1
66 57 1
31 58 1
41 58 1
58 58 1
67 58 1
32 59 1
42 59 1
59 59 1
68 59 1
33 60 1
43 60 1
60 60 1
69 60 1
34 61 1
44 61 1
61 61 1
70 61 1
35 62 1
45 62 1
62 62 1
71 62 1
36 63 1
46 63 1
63 63 1
72 63 1
37 64 1
47 64 1
64 64 1
73 64 1
38 65 1
48 65 1
65 65 1
74 65 1
39 66 1
49 66 1
66 66 1
75 66 1
40 67 1
50 67 1
67 67 1
76 67 1
41 68 1
51 68 1
68 68 1
77 68 1
42 69 1
52 69 1
69 69 1
78 69 1
43 70 1
53 70 1
70 70 1
79 70 1
44 71 1
54 71 1
71 71 1
80 71 1
28 72 1
45 72 1
72 72 1
81 72 1
29 73 1
46 73 1
55 73 1
73 73 1
30 74 1
47 74 1
56 74 1
74 74 1
31 75 1
48 75 1
57 75 1
75 75 1
32 76 1
49 76 1
58 76 1
76 76 1
33 77 1
50 77 1
59 77 1
77 77 1
34 78 1
51 78 1
60 78 1
78 78 1
35 79 1
52 79 1
61 79 1
79 79 1
36 80 1
53 80 1
62 80 1
80 80 1
37 81 1
54 81 1
63 81 1
81 81 1
1 82 1
22 82 1
82 82 1
89 82 1
2 83 1
23 83 1
83 83 1
90 83 1
3 84 1
24 84 1
84 84 1
91 84 1
4 85 1
25 85 1
85 85 1
92 85 1
5 86 1
26 86 1
86 86 1
93 86 1
6 87 1
27 87 1
87 87 1
94 87 1
1 88 1
7 88 1
88 88 1
95 88 1
2 89 1
8 89 1
89 89 1
96 89 1
3 90 1
9 90 1
90 90 1
97 90 1
4 91 1
10 91 1
91 91 1
98 91 1
5 92 1
11 92 1
92 92 1
99 92 1
6 93 1
12 93 1
93 93 1
100 93 1
7 94 1
13 94 1
94 94 1
101 94 1
8 95 1
14 95 1
95 95 1
102 95 1
9 96 1
15 96 1
96 96 1
103 96 1
10 97 1
16 97 1
97 97 1
104 97 1
11 98 1
17 98 1
98 98 1
105 98 1
12 99 1
18 99 1
99 99 1
106 99 1
13 100 1
19 100 1
100 100 1
107 100 1
14 101 1
20 101 1
101 101 1
108 101 1
15 102 1
21 102 1
82 102 1
102 102 1
16 103 1
22 103 1
83 103 1
103 103 1
17 104 1
23 104 1
84 104 1
104 104 1
18 105 1
24 105 1
85 105 1
105 105 1
19 106 1
25 106 1
86 106 1
106 106 1
20 107 1
26 107 1
87 107 1
107 107 1
21 108 1
27 108 1
88 108 1
108 108 1
28 109 1
49 109 1
82 109 1
91 109 1
29 110 1
50 110 1
83 110 1
92 110 1
30 111 1
51 111 1
84 111 1
93 111 1
31 112 1
52 112 1
85 112 1
94 112 1
32 113 1
53 113 1
86 113 1
95 113 1
33 114 1
54 114 1
87 114 1
96 114 1
28 115 1
34 115 1
88 115 1
97 115 1
29 116 1
35 116 1
89 116 1
98 116 1
30 117 1
36 117 1
90 117 1
99 117 1
31 118 1
37 118 1
91 118 1
100 118 1
32 119 1
38 119 1
92 119 1
101 119 1
33 120 1
39 120 1
93 120 1
102 120 1
34 121 1
40 121 1
94 121 1
103 121 1
35 122 1
41 122 1
95 122 1
104 122 1
36 123 1
42 123 1
96 123 1
105 123 1
37 124 1
43 124 1
97 124 1
106 124 1
38 125 1
44 125 1
98 125 1
107 125 1
39 126 1
45 126 1
99 126 1
108 126 1
40 127 1
46 127 1
82 127 1
100 127 1
41 128 1
47 128 1
83 128 1
101 128 1
42 129 1
48 129 1
84 129 1
102 129 1
43 130 1
49 130 1
85 130 1
103 130 1
44 131 1
50 131 1
86 131 1
104 131 1
45 132 1
51 132 1
87 132 1
105 132 1
46 133 1
52 133 1
88 133 1
106 133 1
47 134 1
53 134 1
89 134 1
107 134 1
48 135 1
54 135 1
90 135 1
108 135 1
55 136 1
76 136 1
82 136 1
92 136 1
56 137 1
77 137 1
83 137 1
93 137 1
57 138 1
78 138 1
84 138 1
94 138 1
58 139 1
79 139 1
85 139 1
95 139 1
59 140 1
80 140 1
86 140 1
96 140 1
60 141 1
81 141 1
87 141 1
97 141 1
55 142 1
61 142 1
88 142 1
98 142 1
56 143 1
62 143 1
89 143 1
99 143 1
57 144 1
63 144 1
90 144 1
100 144 1
58 145 1
64 145 1
91 145 1
101 145 1
59 146 1
65 146 1
92 146 1
102 146 1
60 147 1
66 147 1
93 147 1
103 147 1
61 148 1
67 148 1
94 148 1
104 148 1
62 149 1
68 149 1
95 149 1
105 149 1
63 150 1
69 150 1
96 150 1
106 150 1
64 151 1
70 151 1
97 151 1
107 151 1
65 152 1
71 152 1
98 152 1
108 152 1
66 153 1
72 153 1
82 153 1
99 153 1
67 154 1
73 154 1
83 154 1
100 154 1
68 155 1
74 155 1
84 155 1
101 155 1
69 156 1
75 156 1
85 156 1
102 156 1
70 157 1
76 157 1
86 157 1
103 157 1
71 158 1
77 158 1
87 158 1
104 158 1
72 159 1
78 159 1
88 159 1
105 159 1
73 160 1
79 160 1
89 160 1
106 160 1
74 161 1
80 161 1
90 161 1
107 161 1
75 162 1
81 162 1
91 162 1
108 162 1
1 163 1
23 163 1
109 163 1
116 163 1
2 164 1
24 164 1
110 164 1
117 164 1
3 165 1
25 165 1
111 165 1
118 165 1
4 166 1
26 166 1
112 166 1
119 166 1
5 167 1
27 167 1
113 167 1
120 167 1
1 168 1
6 168 1
114 168 1
121 168 1
2 169 1
7 169 1
115 169 1
122 169 1
3 170 1
8 170 1
116 170 1
123 170 1
4 171 1
9 171 1
117 171 1
124 171 1
5 172 1
10 172 1
118 172 1
125 172 1
6 173 1
11 173 1
119 173 1
126 173 1
7 174 1
12 174 1
120 174 1
127 174 1
8 175 1
13 175 1
121 175 1
128 175 1
9 176 1
14 176 1
122 176 1
129 176 1
10 177 1
15 177 1
123 177 1
130 177 1
11 178 1
16 178 1
124 178 1
131 178 1
12 179 1
17 179 1
125 179 1
132 179 1
13 180 1
18 180 1
126 180 1
133 180 1
14 181 1
19 181 1
127 181 1
134 181 1
15 182 1
20 182 1
128 182 1
135 182 1
16 183 1
21 183 1
109 183 1
129 183 1
17 184 1
22 184 1
110 184 1
130 184 1
18 185 1
23 185 1
111 185 1
131 185 1
19 186 1
24 186 1
112 186 1
132 186 1
20 187 1
25 187 1
113 187 1
133 187 1
21 188 1
26 188 1
114 188 1
134 188 1
22 189 1
27 189 1
115 189 1
135 189 1
28 190 1
50 190 1
109 190 1
118 190 1
29 191 1
51 191 1
110 191 1
119 191 1
30 192 1
52 192 1
111 192 1
120 192 1
31 193 1
53 193 1
112 193 1
121 193 1
32 194 1
54 194 1
113 194 1
122 194 1
28 195 1
33 195 1
114 195 1
123 195 1
29 196 1
34 196 1
115 196 1
124 196 1
30 197 1
35 197 1
116 197 1
125 197 1
31 198 1
36 198 1
117 198 1
126 198 1
32 199 1
37 199 1
118 199 1
127 199 1
33 200 1
38 200 1
119 200 1
128 200 1
34 201 1
39 201 1
120 201 1
129 201 1
35 202 1
40 202 1
121 202 1
130 202 1
36 203 1
41 203 1
122 203 1
131 203 1
37 204 1
42 204 1
123 204 1
132 204 1
38 205 1
43 205 1
124 205 1
133 205 1
39 206 1
44 206 1
125 206 1
134 206 1
40 207 1
45 207 1
126 207 1
135 207 1
41 208 1
46 208 1
109 208 1
127 208 1
42 209 1
47 209 1
110 209 1
128 209 1
43 210 1
48 210 1
111 210 1
129 210 1
44 211 1
49 211 1
112 211 1
130 211 1
45 212 1
50 212 1
113 212 1
131 212 1
46 213 1
51 213 1
114 213 1
132 213 1
47 214 1
52 214 1
115 214 1
133 214 1
48 215 1
53 215 1
116 215 1
134 215 1
49 216 1
54 216 1
117 216 1
135 216 1
55 217 1
77 217 1
109 217 1
119 217 1
56 218 1
78 218 1
110 218 1
120 218 1
57 219 1
79 219 1
111 219 1
121 219 1
58 220 1
80 220 1
112 220 1
122 220 1
59 221 1
81 221 1
113 221 1
123 221 1
55 222 1
60 222 1
114 222 1
124 222 1
56 223 1
61 223 1
115 223 1
125 223 1
57 224 1
62 224 1
116 224 1
126 224 1
58 225 1
63 225 1
117 225 1
127 225 1
59 226 1
64 226 1
118 226 1
128 226 1
60 227 1
65 227 1
119 227 1
129 227 1
61 228 1
66 228 1
120 228 1
130 228 1
62 229 1
67 229 1
121 229 1
131 229 1
63 230 1
68 230 1
122 230 1
132 230 1
64 231 1
69 231 1
123 231 1
133 231 1
65 232 1
70 232 1
124 232 1
134 232 1
66 233 1
71 233 1
125 233 1
135 233 1
67 234 1
72 234 1
109 234 1
126 234 1
68 235 1
73 235 1
110 235 1
127 235 1
69 236 1
74 236 1
111 236 1
128 236 1
70 237 1
75 237 1
112 237 1
129 237 1
71 238 1
76 238 1
113 238 1
130 238 1
72 239 1
77 239 1
114 239 1
131 239 1
73 240 1
78 240 1
115 240 1
132 240 1
74 241 1
79 241 1
116 241 1
133 241 1
75 242 1
80 242 1
117 242 1
134 242 1
76 243 1
81 243 1
118 243 1
135 243 1
82 244 1
104 244 1
109 244 1
130 244 1
83 245 1
105 245 1
110 245 1
131 245 1
84 246 1
106 246 1
111 246 1
132 246 1
85 247 1
107 247 1
112 247 1
133 247 1
86 248 1
108 248 1
113 248 1
134 248 1
82 249 1
87 249 1
114 249 1
135 249 1
83 250 1
88 250 1
109 250 1
115 250 1
84 251 1
89 251 1
110 251 1
116 251 1
85 252 1
90 252 1
111 252 1
117 252 1
86 253 1
91 253 1
112 253 1
118 253 1
87 254 1
92 254 1
113 254 1
119 254 1
88 255 1
93 255 1
114 255 1
120 255 1
89 256 1
94 256 1
115 256 1
121 256 1
90 257 1
95 257 1
116 257 1
122 257 1
91 258 1
96 258 1
117 258 1
123 258 1
92 259 1
97 259 1
118 259 1
124 259 1
93 260 1
98 260 1
119 260 1
125 260 1
94 261 1
99 261 1
120 261 1
126 261 1
95 262 1
100 262 1
121 262 1
127 262 1
96 263 1
101 263 1
122 263 1
128 263 1
97 264 1
102 264 1
123 264 1
129 264 1
98 265 1
103 265 1
124 265 1
130 265 1
99 266 1
104 266 1
125 266 1
131 266 1
100 267 1
105 267 1
126 267 1
132 267 1
101 268 1
106 268 1
127 268 1
133 268 1
102 269 1
107 269 1
128 269 1
134 269 1
103 270 1
108 270 1
129 270 1
135 270 1
