%%MatrixMarket matrix coordinate integer general
% Binary matrix; one-based indices; arithmetic over GF(2)
870 1160 6960
1 1 1
34 1 1
59 1 1
69 1 1
117 1 1
123 1 1
2 2 1
35 2 1
60 2 1
70 2 1
118 2 1
124 2 1
3 3 1
36 3 1
61 3 1
71 3 1
119 3 1
125 3 1
4 4 1
37 4 1
62 4 1
72 4 1
120 4 1
126 4 1
5 5 1
38 5 1
63 5 1
73 5 1
121 5 1
127 5 1
6 6 1
39 6 1
64 6 1
74 6 1
122 6 1
128 6 1
7 7 1
40 7 1
65 7 1
75 7 1
123 7 1
129 7 1
8 8 1
41 8 1
66 8 1
76 8 1
124 8 1
130 8 1
9 9 1
42 9 1
67 9 1
77 9 1
125 9 1
131 9 1
10 10 1
43 10 1
68 10 1
78 10 1
126 10 1
132 10 1
11 11 1
44 11 1
69 11 1
79 11 1
127 11 1
133 11 1
12 12 1
45 12 1
70 12 1
80 12 1
128 12 1
134 12 1
13 13 1
46 13 1
71 13 1
81 13 1
129 13 1
135 13 1
14 14 1
47 14 1
72 14 1
82 14 1
130 14 1
136 14 1
15 15 1
48 15 1
73 15 1
83 15 1
131 15 1
137 15 1
16 16 1
49 16 1
74 16 1
84 16 1
132 16 1
138 16 1
17 17 1
50 17 1
75 17 1
85 17 1
133 17 1
139 17 1
18 18 1
51 18 1
76 18 1
86 18 1
134 18 1
140 18 1
19 19 1
52 19 1
77 19 1
87 19 1
135 19 1
141 19 1
20 20 1
53 20 1
78 20 1
88 20 1
136 20 1
142 20 1
21 21 1
54 21 1
79 21 1
89 21 1
137 21 1
143 21 1
22 22 1
55 22 1
80 22 1
90 22 1
138 22 1
144 22 1
23 23 1
56 23 1
81 23 1
91 23 1
139 23 1
145 23 1
24 24 1
57 24 1
82 24 1
92 24 1
140 24 1
146 24 1
25 25 1
58 25 1
83 25 1
93 25 1
141 25 1
147 25 1
1 26 1
26 26 1
84 26 1
94 26 1
142 26 1
148 26 1
2 27 1
27 27 1
85 27 1
95 27 1
143 27 1
149 27 1
3 28 1
28 28 1
86 28 1
96 28 1
144 28 1
150 28 1
4 29 1
29 29 1
87 29 1
97 29 1
145 29 1
151 29 1
5 30 1
30 30 1
88 30 1
98 30 1
146 30 1
152 30 1
6 31 1
31 31 1
89 31 1
99 31 1
147 31 1
153 31 1
7 32 1
32 32 1
90 32 1
100 32 1
148 32 1
154 32 1
8 33 1
33 33 1
91 33 1
101 33 1
149 33 1
155 33 1
9 34 1
34 34 1
92 34 1
102 34 1
150 34 1
156 34 1
10 35 1
35 35 1
93 35 1
103 35 1
151 35 1
157 35 1
11 36 1
36 36 1
94 36 1
104 36 1
152 36 1
158 36 1
12 37 1
37 37 1
95 37 1
105 37 1
153 37 1
159 37 1
13 38 1
38 38 1
96 38 1
106 38 1
154 38 1
160 38 1
14 39 1
39 39 1
97 39 1
107 39 1
155 39 1
161 39 1
15 40 1
40 40 1
98 40 1
108 40 1
156 40 1
162 40 1
16 41 1
41 41 1
99 41 1
109 41 1
157 41 1
163 41 1
17 42 1
42 42 1
100 42 1
110 42 1
158 42 1
164 42 1
18 43 1
43 43 1
101 43 1
111 43 1
159 43 1
165 43 1
19 44 1
44 44 1
102 44 1
112 44 1
160 44 1
166 44 1
20 45 1
45 45 1
103 45 1
113 45 1
161 45 1
167 45 1
21 46 1
46 46 1
104 46 1
114 46 1
162 46 1
168 46 1
22 47 1
47 47 1
105 47 1
115 47 1
163 47 1
169 47 1
23 48 1
48 48 1
106 48 1
116 48 1
164 48 1
170 48 1
24 49 1
49 49 1
59 49 1
107 49 1
165 49 1
171 49 1
25 50 1
50 50 1
60 50 1
108 50 1
166 50 1
172 50 1
26 51 1
51 51 1
61 51 1
109 51 1
167 51 1
173 51 1
27 52 1
52 52 1
62 52 1
110 52 1
168 52 1
174 52 1
28 53 1
53 53 1
63 53 1
111 53 1
117 53 1
169 53 1
29 54 1
54 54 1
64 54 1
112 54 1
118 54 1
170 54 1
30 55 1
55 55 1
65 55 1
113 55 1
119 55 1
171 55 1
31 56 1
56 56 1
66 56 1
114 56 1
120 56 1
172 56 1
32 57 1
57 57 1
67 57 1
115 57 1
121 57 1
173 57 1
33 58 1
58 58 1
68 58 1
116 58 1
122 58 1
174 58 1
1 59 1
42 59 1
175 59 1
185 59 1
233 59 1
239 59 1
2 60 1
43 60 1
176 60 1
186 60 1
234 60 1
240 60 1
3 61 1
44 61 1
177 61 1
187 61 1
235 61 1
241 61 1
4 62 1
45 62 1
178 62 1
188 62 1
236 62 1
242 62 1
5 63 1
46 63 1
179 63 1
189 63 1
237 63 1
243 63 1
6 64 1
47 64 1
180 64 1
190 64 1
238 64 1
244 64 1
7 65 1
48 65 1
181 65 1
191 65 1
239 65 1
245 65 1
8 66 1
49 66 1
182 66 1
192 66 1
240 66 1
246 66 1
9 67 1
50 67 1
183 67 1
193 67 1
241 67 1
247 67 1
10 68 1
51 68 1
184 68 1
194 68 1
242 68 1
248 68 1
11 69 1
52 69 1
185 69 1
195 69 1
243 69 1
249 69 1
12 70 1
53 70 1
186 70 1
196 70 1
244 70 1
250 70 1
13 71 1
54 71 1
187 71 1
197 71 1
245 71 1
251 71 1
14 72 1
55 72 1
188 72 1
198 72 1
246 72 1
252 72 1
15 73 1
56 73 1
189 73 1
199 73 1
247 73 1
253 73 1
16 74 1
57 74 1
190 74 1
200 74 1
248 74 1
254 74 1
17 75 1
58 75 1
191 75 1
201 75 1
249 75 1
255 75 1
1 76 1
18 76 1
192 76 1
202 76 1
250 76 1
256 76 1
2 77 1
19 77 1
193 77 1
203 77 1
251 77 1
257 77 1
3 78 1
20 78 1
194 78 1
204 78 1
252 78 1
258 78 1
4 79 1
21 79 1
195 79 1
205 79 1
253 79 1
259 79 1
5 80 1
22 80 1
196 80 1
206 80 1
254 80 1
260 80 1
6 81 1
23 81 1
197 81 1
207 81 1
255 81 1
261 81 1
7 82 1
24 82 1
198 82 1
208 82 1
256 82 1
262 82 1
8 83 1
25 83 1
199 83 1
209 83 1
257 83 1
263 83 1
9 84 1
26 84 1
200 84 1
210 84 1
258 84 1
264 84 1
10 85 1
27 85 1
201 85 1
211 85 1
259 85 1
265 85 1
11 86 1
28 86 1
202 86 1
212 86 1
260 86 1
266 86 1
12 87 1
29 87 1
203 87 1
213 87 1
261 87 1
267 87 1
13 88 1
30 88 1
204 88 1
214 88 1
262 88 1
268 88 1
14 89 1
31 89 1
205 89 1
215 89 1
263 89 1
269 89 1
15 90 1
32 90 1
206 90 1
216 90 1
264 90 1
270 90 1
16 91 1
33 91 1
207 91 1
217 91 1
265 91 1
271 91 1
17 92 1
34 92 1
208 92 1
218 92 1
266 92 1
272 92 1
18 93 1
35 93 1
209 93 1
219 93 1
267 93 1
273 93 1
19 94 1
36 94 1
210 94 1
220 94 1
268 94 1
274 94 1
20 95 1
37 95 1
211 95 1
221 95 1
269 95 1
275 95 1
21 96 1
38 96 1
212 96 1
222 96 1
270 96 1
276 96 1
22 97 1
39 97 1
213 97 1
223 97 1
271 97 1
277 97 1
23 98 1
40 98 1
214 98 1
224 98 1
272 98 1
278 98 1
24 99 1
41 99 1
215 99 1
225 99 1
273 99 1
279 99 1
25 100 1
42 100 1
216 100 1
226 100 1
274 100 1
280 100 1
26 101 1
43 101 1
217 101 1
227 101 1
275 101 1
281 101 1
27 102 1
44 102 1
218 102 1
228 102 1
276 102 1
282 102 1
28 103 1
45 103 1
219 103 1
229 103 1
277 103 1
283 103 1
29 104 1
46 104 1
220 104 1
230 104 1
278 104 1
284 104 1
30 105 1
47 105 1
221 105 1
231 105 1
279 105 1
285 105 1
31 106 1
48 106 1
222 106 1
232 106 1
280 106 1
286 106 1
32 107 1
49 107 1
175 107 1
223 107 1
281 107 1
287 107 1
33 108 1
50 108 1
176 108 1
224 108 1
282 108 1
288 108 1
34 109 1
51 109 1
177 109 1
225 109 1
283 109 1
289 109 1
35 110 1
52 110 1
178 110 1
226 110 1
284 110 1
290 110 1
36 111 1
53 111 1
179 111 1
227 111 1
233 111 1
285 111 1
37 112 1
54 112 1
180 112 1
228 112 1
234 112 1
286 112 1
38 113 1
55 113 1
181 113 1
229 113 1
235 113 1
287 113 1
39 114 1
56 114 1
182 114 1
230 114 1
236 114 1
288 114 1
40 115 1
57 115 1
183 115 1
231 115 1
237 115 1
289 115 1
41 116 1
58 116 1
184 116 1
232 116 1
238 116 1
290 116 1
59 117 1
100 117 1
175 117 1
208 117 1
291 117 1
297 117 1
60 118 1
101 118 1
176 118 1
209 118 1
292 118 1
298 118 1
61 119 1
102 119 1
177 119 1
210 119 1
293 119 1
299 119 1
62 120 1
103 120 1
178 120 1
211 120 1
294 120 1
300 120 1
63 121 1
104 121 1
179 121 1
212 121 1
295 121 1
301 121 1
64 122 1
105 122 1
180 122 1
213 122 1
296 122 1
302 122 1
65 123 1
106 123 1
181 123 1
214 123 1
297 123 1
303 123 1
66 124 1
107 124 1
182 124 1
215 124 1
298 124 1
304 124 1
67 125 1
108 125 1
183 125 1
216 125 1
299 125 1
305 125 1
68 126 1
109 126 1
184 126 1
217 126 1
300 126 1
306 126 1
69 127 1
110 127 1
185 127 1
218 127 1
301 127 1
307 127 1
70 128 1
111 128 1
186 128 1
219 128 1
302 128 1
308 128 1
71 129 1
112 129 1
187 129 1
220 129 1
303 129 1
309 129 1
72 130 1
113 130 1
188 130 1
221 130 1
304 130 1
310 130 1
73 131 1
114 131 1
189 131 1
222 131 1
305 131 1
311 131 1
74 132 1
115 132 1
190 132 1
223 132 1
306 132 1
312 132 1
75 133 1
116 133 1
191 133 1
224 133 1
307 133 1
313 133 1
59 134 1
76 134 1
192 134 1
225 134 1
308 134 1
314 134 1
60 135 1
77 135 1
193 135 1
226 135 1
309 135 1
315 135 1
61 136 1
78 136 1
194 136 1
227 136 1
310 136 1
316 136 1
62 137 1
79 137 1
195 137 1
228 137 1
311 137 1
317 137 1
63 138 1
80 138 1
196 138 1
229 138 1
312 138 1
318 138 1
64 139 1
81 139 1
197 139 1
230 139 1
313 139 1
319 139 1
65 140 1
82 140 1
198 140 1
231 140 1
314 140 1
320 140 1
66 141 1
83 141 1
199 141 1
232 141 1
315 141 1
321 141 1
67 142 1
84 142 1
175 142 1
200 142 1
316 142 1
322 142 1
68 143 1
85 143 1
176 143 1
201 143 1
317 143 1
323 143 1
69 144 1
86 144 1
177 144 1
202 144 1
318 144 1
324 144 1
70 145 1
87 145 1
178 145 1
203 145 1
319 145 1
325 145 1
71 146 1
88 146 1
179 146 1
204 146 1
320 146 1
326 146 1
72 147 1
89 147 1
180 147 1
205 147 1
321 147 1
327 147 1
73 148 1
90 148 1
181 148 1
206 148 1
322 148 1
328 148 1
74 149 1
91 149 1
182 149 1
207 149 1
323 149 1
329 149 1
75 150 1
92 150 1
183 150 1
208 150 1
324 150 1
330 150 1
76 151 1
93 151 1
184 151 1
209 151 1
325 151 1
331 151 1
77 152 1
94 152 1
185 152 1
210 152 1
326 152 1
332 152 1
78 153 1
95 153 1
186 153 1
211 153 1
327 153 1
333 153 1
79 154 1
96 154 1
187 154 1
212 154 1
328 154 1
334 154 1
80 155 1
97 155 1
188 155 1
213 155 1
329 155 1
335 155 1
81 156 1
98 156 1
189 156 1
214 156 1
330 156 1
336 156 1
82 157 1
99 157 1
190 157 1
215 157 1
331 157 1
337 157 1
83 158 1
100 158 1
191 158 1
216 158 1
332 158 1
338 158 1
84 159 1
101 159 1
192 159 1
217 159 1
333 159 1
339 159 1
85 160 1
102 160 1
193 160 1
218 160 1
334 160 1
340 160 1
86 161 1
103 161 1
194 161 1
219 161 1
335 161 1
341 161 1
87 162 1
104 162 1
195 162 1
220 162 1
336 162 1
342 162 1
88 163 1
105 163 1
196 163 1
221 163 1
337 163 1
343 163 1
89 164 1
106 164 1
197 164 1
222 164 1
338 164 1
344 164 1
90 165 1
107 165 1
198 165 1
223 165 1
339 165 1
345 165 1
91 166 1
108 166 1
199 166 1
224 166 1
340 166 1
346 166 1
92 167 1
109 167 1
200 167 1
225 167 1
341 167 1
347 167 1
93 168 1
110 168 1
201 168 1
226 168 1
342 168 1
348 168 1
94 169 1
111 169 1
202 169 1
227 169 1
291 169 1
343 169 1
95 170 1
112 170 1
203 170 1
228 170 1
292 170 1
344 170 1
96 171 1
113 171 1
204 171 1
229 171 1
293 171 1
345 171 1
97 172 1
114 172 1
205 172 1
230 172 1
294 172 1
346 172 1
98 173 1
115 173 1
206 173 1
231 173 1
295 173 1
347 173 1
99 174 1
116 174 1
207 174 1
232 174 1
296 174 1
348 174 1
117 175 1
158 175 1
233 175 1
266 175 1
291 175 1
301 175 1
118 176 1
159 176 1
234 176 1
267 176 1
292 176 1
302 176 1
119 177 1
160 177 1
235 177 1
268 177 1
293 177 1
303 177 1
120 178 1
161 178 1
236 178 1
269 178 1
294 178 1
304 178 1
121 179 1
162 179 1
237 179 1
270 179 1
295 179 1
305 179 1
122 180 1
163 180 1
238 180 1
271 180 1
296 180 1
306 180 1
123 181 1
164 181 1
239 181 1
272 181 1
297 181 1
307 181 1
124 182 1
165 182 1
240 182 1
273 182 1
298 182 1
308 182 1
125 183 1
166 183 1
241 183 1
274 183 1
299 183 1
309 183 1
126 184 1
167 184 1
242 184 1
275 184 1
300 184 1
310 184 1
127 185 1
168 185 1
243 185 1
276 185 1
301 185 1
311 185 1
128 186 1
169 186 1
244 186 1
277 186 1
302 186 1
312 186 1
129 187 1
170 187 1
245 187 1
278 187 1
303 187 1
313 187 1
130 188 1
171 188 1
246 188 1
279 188 1
304 188 1
314 188 1
131 189 1
172 189 1
247 189 1
280 189 1
305 189 1
315 189 1
132 190 1
173 190 1
248 190 1
281 190 1
306 190 1
316 190 1
133 191 1
174 191 1
249 191 1
282 191 1
307 191 1
317 191 1
117 192 1
134 192 1
250 192 1
283 192 1
308 192 1
318 192 1
118 193 1
135 193 1
251 193 1
284 193 1
309 193 1
319 193 1
119 194 1
136 194 1
252 194 1
285 194 1
310 194 1
320 194 1
120 195 1
137 195 1
253 195 1
286 195 1
311 195 1
321 195 1
121 196 1
138 196 1
254 196 1
287 196 1
312 196 1
322 196 1
122 197 1
139 197 1
255 197 1
288 197 1
313 197 1
323 197 1
123 198 1
140 198 1
256 198 1
289 198 1
314 198 1
324 198 1
124 199 1
141 199 1
257 199 1
290 199 1
315 199 1
325 199 1
125 200 1
142 200 1
233 200 1
258 200 1
316 200 1
326 200 1
126 201 1
143 201 1
234 201 1
259 201 1
317 201 1
327 201 1
127 202 1
144 202 1
235 202 1
260 202 1
318 202 1
328 202 1
128 203 1
145 203 1
236 203 1
261 203 1
319 203 1
329 203 1
129 204 1
146 204 1
237 204 1
262 204 1
320 204 1
330 204 1
130 205 1
147 205 1
238 205 1
263 205 1
321 205 1
331 205 1
131 206 1
148 206 1
239 206 1
264 206 1
322 206 1
332 206 1
132 207 1
149 207 1
240 207 1
265 207 1
323 207 1
333 207 1
133 208 1
150 208 1
241 208 1
266 208 1
324 208 1
334 208 1
134 209 1
151 209 1
242 209 1
267 209 1
325 209 1
335 209 1
135 210 1
152 210 1
243 210 1
268 210 1
326 210 1
336 210 1
136 211 1
153 211 1
244 211 1
269 211 1
327 211 1
337 211 1
137 212 1
154 212 1
245 212 1
270 212 1
328 212 1
338 212 1
138 213 1
155 213 1
246 213 1
271 213 1
329 213 1
339 213 1
139 214 1
156 214 1
247 214 1
272 214 1
330 214 1
340 214 1
140 215 1
157 215 1
248 215 1
273 215 1
331 215 1
341 215 1
141 216 1
158 216 1
249 216 1
274 216 1
332 216 1
342 216 1
142 217 1
159 217 1
250 217 1
275 217 1
333 217 1
343 217 1
143 218 1
160 218 1
251 218 1
276 218 1
334 218 1
344 218 1
144 219 1
161 219 1
252 219 1
277 219 1
335 219 1
345 219 1
145 220 1
162 220 1
253 220 1
278 220 1
336 220 1
346 220 1
146 221 1
163 221 1
254 221 1
279 221 1
337 221 1
347 221 1
147 222 1
164 222 1
255 222 1
280 222 1
338 222 1
348 222 1
148 223 1
165 223 1
256 223 1
281 223 1
291 223 1
339 223 1
149 224 1
166 224 1
257 224 1
282 224 1
292 224 1
340 224 1
150 225 1
167 225 1
258 225 1
283 225 1
293 225 1
341 225 1
151 226 1
168 226 1
259 226 1
284 226 1
294 226 1
342 226 1
152 227 1
169 227 1
260 227 1
285 227 1
295 227 1
343 227 1
153 228 1
170 228 1
261 228 1
286 228 1
296 228 1
344 228 1
154 229 1
171 229 1
262 229 1
287 229 1
297 229 1
345 229 1
155 230 1
172 230 1
263 230 1
288 230 1
298 230 1
346 230 1
156 231 1
173 231 1
264 231 1
289 231 1
299 231 1
347 231 1
157 232 1
174 232 1
265 232 1
290 232 1
300 232 1
348 232 1
1 233 1
48 233 1
349 233 1
359 233 1
407 233 1
413 233 1
2 234 1
49 234 1
350 234 1
360 234 1
408 234 1
414 234 1
3 235 1
50 235 1
351 235 1
361 235 1
409 235 1
415 235 1
4 236 1
51 236 1
352 236 1
362 236 1
410 236 1
416 236 1
5 237 1
52 237 1
353 237 1
363 237 1
411 237 1
417 237 1
6 238 1
53 238 1
354 238 1
364 238 1
412 238 1
418 238 1
7 239 1
54 239 1
355 239 1
365 239 1
413 239 1
419 239 1
8 240 1
55 240 1
356 240 1
366 240 1
414 240 1
420 240 1
9 241 1
56 241 1
357 241 1
367 241 1
415 241 1
421 241 1
10 242 1
57 242 1
358 242 1
368 242 1
416 242 1
422 242 1
11 243 1
58 243 1
359 243 1
369 243 1
417 243 1
423 243 1
1 244 1
12 244 1
360 244 1
370 244 1
418 244 1
424 244 1
2 245 1
13 245 1
361 245 1
371 245 1
419 245 1
425 245 1
3 246 1
14 246 1
362 246 1
372 246 1
420 246 1
426 246 1
4 247 1
15 247 1
363 247 1
373 247 1
421 247 1
427 247 1
5 248 1
16 248 1
364 248 1
374 248 1
422 248 1
428 248 1
6 249 1
17 249 1
365 249 1
375 249 1
423 249 1
429 249 1
7 250 1
18 250 1
366 250 1
376 250 1
424 250 1
430 250 1
8 251 1
19 251 1
367 251 1
377 251 1
425 251 1
431 251 1
9 252 1
20 252 1
368 252 1
378 252 1
426 252 1
432 252 1
10 253 1
21 253 1
369 253 1
379 253 1
427 253 1
433 253 1
11 254 1
22 254 1
370 254 1
380 254 1
428 254 1
434 254 1
12 255 1
23 255 1
371 255 1
381 255 1
429 255 1
435 255 1
13 256 1
24 256 1
372 256 1
382 256 1
430 256 1
436 256 1
14 257 1
25 257 1
373 257 1
383 257 1
431 257 1
437 257 1
15 258 1
26 258 1
374 258 1
384 258 1
432 258 1
438 258 1
16 259 1
27 259 1
375 259 1
385 259 1
433 259 1
439 259 1
17 260 1
28 260 1
376 260 1
386 260 1
434 260 1
440 260 1
18 261 1
29 261 1
377 261 1
387 261 1
435 261 1
441 261 1
19 262 1
30 262 1
378 262 1
388 262 1
436 262 1
442 262 1
20 263 1
31 263 1
379 263 1
389 263 1
437 263 1
443 263 1
21 264 1
32 264 1
380 264 1
390 264 1
438 264 1
444 264 1
22 265 1
33 265 1
381 265 1
391 265 1
439 265 1
445 265 1
23 266 1
34 266 1
382 266 1
392 266 1
440 266 1
446 266 1
24 267 1
35 267 1
383 267 1
393 267 1
441 267 1
447 267 1
25 268 1
36 268 1
384 268 1
394 268 1
442 268 1
448 268 1
26 269 1
37 269 1
385 269 1
395 269 1
443 269 1
449 269 1
27 270 1
38 270 1
386 270 1
396 270 1
444 270 1
450 270 1
28 271 1
39 271 1
387 271 1
397 271 1
445 271 1
451 271 1
29 272 1
40 272 1
388 272 1
398 272 1
446 272 1
452 272 1
30 273 1
41 273 1
389 273 1
399 273 1
447 273 1
453 273 1
31 274 1
42 274 1
390 274 1
400 274 1
448 274 1
454 274 1
32 275 1
43 275 1
391 275 1
401 275 1
449 275 1
455 275 1
33 276 1
44 276 1
392 276 1
402 276 1
450 276 1
456 276 1
34 277 1
45 277 1
393 277 1
403 277 1
451 277 1
457 277 1
35 278 1
46 278 1
394 278 1
404 278 1
452 278 1
458 278 1
36 279 1
47 279 1
395 279 1
405 279 1
453 279 1
459 279 1
37 280 1
48 280 1
396 280 1
406 280 1
454 280 1
460 280 1
38 281 1
49 281 1
349 281 1
397 281 1
455 281 1
461 281 1
39 282 1
50 282 1
350 282 1
398 282 1
456 282 1
462 282 1
40 283 1
51 283 1
351 283 1
399 283 1
457 283 1
463 283 1
41 284 1
52 284 1
352 284 1
400 284 1
458 284 1
464 284 1
42 285 1
53 285 1
353 285 1
401 285 1
407 285 1
459 285 1
43 286 1
54 286 1
354 286 1
402 286 1
408 286 1
460 286 1
44 287 1
55 287 1
355 287 1
403 287 1
409 287 1
461 287 1
45 288 1
56 288 1
356 288 1
404 288 1
410 288 1
462 288 1
46 289 1
57 289 1
357 289 1
405 289 1
411 289 1
463 289 1
47 290 1
58 290 1
358 290 1
406 290 1
412 290 1
464 290 1
59 291 1
106 291 1
349 291 1
382 291 1
465 291 1
471 291 1
60 292 1
107 292 1
350 292 1
383 292 1
466 292 1
472 292 1
61 293 1
108 293 1
351 293 1
384 293 1
467 293 1
473 293 1
62 294 1
109 294 1
352 294 1
385 294 1
468 294 1
474 294 1
63 295 1
110 295 1
353 295 1
386 295 1
469 295 1
475 295 1
64 296 1
111 296 1
354 296 1
387 296 1
470 296 1
476 296 1
65 297 1
112 297 1
355 297 1
388 297 1
471 297 1
477 297 1
66 298 1
113 298 1
356 298 1
389 298 1
472 298 1
478 298 1
67 299 1
114 299 1
357 299 1
390 299 1
473 299 1
479 299 1
68 300 1
115 300 1
358 300 1
391 300 1
474 300 1
480 300 1
69 301 1
116 301 1
359 301 1
392 301 1
475 301 1
481 301 1
59 302 1
70 302 1
360 302 1
393 302 1
476 302 1
482 302 1
60 303 1
71 303 1
361 303 1
394 303 1
477 303 1
483 303 1
61 304 1
72 304 1
362 304 1
395 304 1
478 304 1
484 304 1
62 305 1
73 305 1
363 305 1
396 305 1
479 305 1
485 305 1
63 306 1
74 306 1
364 306 1
397 306 1
480 306 1
486 306 1
64 307 1
75 307 1
365 307 1
398 307 1
481 307 1
487 307 1
65 308 1
76 308 1
366 308 1
399 308 1
482 308 1
488 308 1
66 309 1
77 309 1
367 309 1
400 309 1
483 309 1
489 309 1
67 310 1
78 310 1
368 310 1
401 310 1
484 310 1
490 310 1
68 311 1
79 311 1
369 311 1
402 311 1
485 311 1
491 311 1
69 312 1
80 312 1
370 312 1
403 312 1
486 312 1
492 312 1
70 313 1
81 313 1
371 313 1
404 313 1
487 313 1
493 313 1
71 314 1
82 314 1
372 314 1
405 314 1
488 314 1
494 314 1
72 315 1
83 315 1
373 315 1
406 315 1
489 315 1
495 315 1
73 316 1
84 316 1
349 316 1
374 316 1
490 316 1
496 316 1
74 317 1
85 317 1
350 317 1
375 317 1
491 317 1
497 317 1
75 318 1
86 318 1
351 318 1
376 318 1
492 318 1
498 318 1
76 319 1
87 319 1
352 319 1
377 319 1
493 319 1
499 319 1
77 320 1
88 320 1
353 320 1
378 320 1
494 320 1
500 320 1
78 321 1
89 321 1
354 321 1
379 321 1
495 321 1
501 321 1
79 322 1
90 322 1
355 322 1
380 322 1
496 322 1
502 322 1
80 323 1
91 323 1
356 323 1
381 323 1
497 323 1
503 323 1
81 324 1
92 324 1
357 324 1
382 324 1
498 324 1
504 324 1
82 325 1
93 325 1
358 325 1
383 325 1
499 325 1
505 325 1
83 326 1
94 326 1
359 326 1
384 326 1
500 326 1
506 326 1
84 327 1
95 327 1
360 327 1
385 327 1
501 327 1
507 327 1
85 328 1
96 328 1
361 328 1
386 328 1
502 328 1
508 328 1
86 329 1
97 329 1
362 329 1
387 329 1
503 329 1
509 329 1
87 330 1
98 330 1
363 330 1
388 330 1
504 330 1
510 330 1
88 331 1
99 331 1
364 331 1
389 331 1
505 331 1
511 331 1
89 332 1
100 332 1
365 332 1
390 332 1
506 332 1
512 332 1
90 333 1
101 333 1
366 333 1
391 333 1
507 333 1
513 333 1
91 334 1
102 334 1
367 334 1
392 334 1
508 334 1
514 334 1
92 335 1
103 335 1
368 335 1
393 335 1
509 335 1
515 335 1
93 336 1
104 336 1
369 336 1
394 336 1
510 336 1
516 336 1
94 337 1
105 337 1
370 337 1
395 337 1
511 337 1
517 337 1
95 338 1
106 338 1
371 338 1
396 338 1
512 338 1
518 338 1
96 339 1
107 339 1
372 339 1
397 339 1
513 339 1
519 339 1
97 340 1
108 340 1
373 340 1
398 340 1
514 340 1
520 340 1
98 341 1
109 341 1
374 341 1
399 341 1
515 341 1
521 341 1
99 342 1
110 342 1
375 342 1
400 342 1
516 342 1
522 342 1
100 343 1
111 343 1
376 343 1
401 343 1
465 343 1
517 343 1
101 344 1
112 344 1
377 344 1
402 344 1
466 344 1
518 344 1
102 345 1
113 345 1
378 345 1
403 345 1
467 345 1
519 345 1
103 346 1
114 346 1
379 346 1
404 346 1
468 346 1
520 346 1
104 347 1
115 347 1
380 347 1
405 347 1
469 347 1
521 347 1
105 348 1
116 348 1
381 348 1
406 348 1
470 348 1
522 348 1
117 349 1
164 349 1
407 349 1
440 349 1
465 349 1
475 349 1
118 350 1
165 350 1
408 350 1
441 350 1
466 350 1
476 350 1
119 351 1
166 351 1
409 351 1
442 351 1
467 351 1
477 351 1
120 352 1
167 352 1
410 352 1
443 352 1
468 352 1
478 352 1
121 353 1
168 353 1
411 353 1
444 353 1
469 353 1
479 353 1
122 354 1
169 354 1
412 354 1
445 354 1
470 354 1
480 354 1
123 355 1
170 355 1
413 355 1
446 355 1
471 355 1
481 355 1
124 356 1
171 356 1
414 356 1
447 356 1
472 356 1
482 356 1
125 357 1
172 357 1
415 357 1
448 357 1
473 357 1
483 357 1
126 358 1
173 358 1
416 358 1
449 358 1
474 358 1
484 358 1
127 359 1
174 359 1
417 359 1
450 359 1
475 359 1
485 359 1
117 360 1
128 360 1
418 360 1
451 360 1
476 360 1
486 360 1
118 361 1
129 361 1
419 361 1
452 361 1
477 361 1
487 361 1
119 362 1
130 362 1
420 362 1
453 362 1
478 362 1
488 362 1
120 363 1
131 363 1
421 363 1
454 363 1
479 363 1
489 363 1
121 364 1
132 364 1
422 364 1
455 364 1
480 364 1
490 364 1
122 365 1
133 365 1
423 365 1
456 365 1
481 365 1
491 365 1
123 366 1
134 366 1
424 366 1
457 366 1
482 366 1
492 366 1
124 367 1
135 367 1
425 367 1
458 367 1
483 367 1
493 367 1
125 368 1
136 368 1
426 368 1
459 368 1
484 368 1
494 368 1
126 369 1
137 369 1
427 369 1
460 369 1
485 369 1
495 369 1
127 370 1
138 370 1
428 370 1
461 370 1
486 370 1
496 370 1
128 371 1
139 371 1
429 371 1
462 371 1
487 371 1
497 371 1
129 372 1
140 372 1
430 372 1
463 372 1
488 372 1
498 372 1
130 373 1
141 373 1
431 373 1
464 373 1
489 373 1
499 373 1
131 374 1
142 374 1
407 374 1
432 374 1
490 374 1
500 374 1
132 375 1
143 375 1
408 375 1
433 375 1
491 375 1
501 375 1
133 376 1
144 376 1
409 376 1
434 376 1
492 376 1
502 376 1
134 377 1
145 377 1
410 377 1
435 377 1
493 377 1
503 377 1
135 378 1
146 378 1
411 378 1
436 378 1
494 378 1
504 378 1
136 379 1
147 379 1
412 379 1
437 379 1
495 379 1
505 379 1
137 380 1
148 380 1
413 380 1
438 380 1
496 380 1
506 380 1
138 381 1
149 381 1
414 381 1
439 381 1
497 381 1
507 381 1
139 382 1
150 382 1
415 382 1
440 382 1
498 382 1
508 382 1
140 383 1
151 383 1
416 383 1
441 383 1
499 383 1
509 383 1
141 384 1
152 384 1
417 384 1
442 384 1
500 384 1
510 384 1
142 385 1
153 385 1
418 385 1
443 385 1
501 385 1
511 385 1
143 386 1
154 386 1
419 386 1
444 386 1
502 386 1
512 386 1
144 387 1
155 387 1
420 387 1
445 387 1
503 387 1
513 387 1
145 388 1
156 388 1
421 388 1
446 388 1
504 388 1
514 388 1
146 389 1
157 389 1
422 389 1
447 389 1
505 389 1
515 389 1
147 390 1
158 390 1
423 390 1
448 390 1
506 390 1
516 390 1
148 391 1
159 391 1
424 391 1
449 391 1
507 391 1
517 391 1
149 392 1
160 392 1
425 392 1
450 392 1
508 392 1
518 392 1
150 393 1
161 393 1
426 393 1
451 393 1
509 393 1
519 393 1
151 394 1
162 394 1
427 394 1
452 394 1
510 394 1
520 394 1
152 395 1
163 395 1
428 395 1
453 395 1
511 395 1
521 395 1
153 396 1
164 396 1
429 396 1
454 396 1
512 396 1
522 396 1
154 397 1
165 397 1
430 397 1
455 397 1
465 397 1
513 397 1
155 398 1
166 398 1
431 398 1
456 398 1
466 398 1
514 398 1
156 399 1
167 399 1
432 399 1
457 399 1
467 399 1
515 399 1
157 400 1
168 400 1
433 400 1
458 400 1
468 400 1
516 400 1
158 401 1
169 401 1
434 401 1
459 401 1
469 401 1
517 401 1
159 402 1
170 402 1
435 402 1
460 402 1
470 402 1
518 402 1
160 403 1
171 403 1
436 403 1
461 403 1
471 403 1
519 403 1
161 404 1
172 404 1
437 404 1
462 404 1
472 404 1
520 404 1
162 405 1
173 405 1
438 405 1
463 405 1
473 405 1
521 405 1
163 406 1
174 406 1
439 406 1
464 406 1
474 406 1
522 406 1
175 407 1
222 407 1
349 407 1
390 407 1
523 407 1
529 407 1
176 408 1
223 408 1
350 408 1
391 408 1
524 408 1
530 408 1
177 409 1
224 409 1
351 409 1
392 409 1
525 409 1
531 409 1
178 410 1
225 410 1
352 410 1
393 410 1
526 410 1
532 410 1
179 411 1
226 411 1
353 411 1
394 411 1
527 411 1
533 411 1
180 412 1
227 412 1
354 412 1
395 412 1
528 412 1
534 412 1
181 413 1
228 413 1
355 413 1
396 413 1
529 413 1
535 413 1
182 414 1
229 414 1
356 414 1
397 414 1
530 414 1
536 414 1
183 415 1
230 415 1
357 415 1
398 415 1
531 415 1
537 415 1
184 416 1
231 416 1
358 416 1
399 416 1
532 416 1
538 416 1
185 417 1
232 417 1
359 417 1
400 417 1
533 417 1
539 417 1
175 418 1
186 418 1
360 418 1
401 418 1
534 418 1
540 418 1
176 419 1
187 419 1
361 419 1
402 419 1
535 419 1
541 419 1
177 420 1
188 420 1
362 420 1
403 420 1
536 420 1
542 420 1
178 421 1
189 421 1
363 421 1
404 421 1
537 421 1
543 421 1
179 422 1
190 422 1
364 422 1
405 422 1
538 422 1
544 422 1
180 423 1
191 423 1
365 423 1
406 423 1
539 423 1
545 423 1
181 424 1
192 424 1
349 424 1
366 424 1
540 424 1
546 424 1
182 425 1
193 425 1
350 425 1
367 425 1
541 425 1
547 425 1
183 426 1
194 426 1
351 426 1
368 426 1
542 426 1
548 426 1
184 427 1
195 427 1
352 427 1
369 427 1
543 427 1
549 427 1
185 428 1
196 428 1
353 428 1
370 428 1
544 428 1
550 428 1
186 429 1
197 429 1
354 429 1
371 429 1
545 429 1
551 429 1
187 430 1
198 430 1
355 430 1
372 430 1
546 430 1
552 430 1
188 431 1
199 431 1
356 431 1
373 431 1
547 431 1
553 431 1
189 432 1
200 432 1
357 432 1
374 432 1
548 432 1
554 432 1
190 433 1
201 433 1
358 433 1
375 433 1
549 433 1
555 433 1
191 434 1
202 434 1
359 434 1
376 434 1
550 434 1
556 434 1
192 435 1
203 435 1
360 435 1
377 435 1
551 435 1
557 435 1
193 436 1
204 436 1
361 436 1
378 436 1
552 436 1
558 436 1
194 437 1
205 437 1
362 437 1
379 437 1
553 437 1
559 437 1
195 438 1
206 438 1
363 438 1
380 438 1
554 438 1
560 438 1
196 439 1
207 439 1
364 439 1
381 439 1
555 439 1
561 439 1
197 440 1
208 440 1
365 440 1
382 440 1
556 440 1
562 440 1
198 441 1
209 441 1
366 441 1
383 441 1
557 441 1
563 441 1
199 442 1
210 442 1
367 442 1
384 442 1
558 442 1
564 442 1
200 443 1
211 443 1
368 443 1
385 443 1
559 443 1
565 443 1
201 444 1
212 444 1
369 444 1
386 444 1
560 444 1
566 444 1
202 445 1
213 445 1
370 445 1
387 445 1
561 445 1
567 445 1
203 446 1
214 446 1
371 446 1
388 446 1
562 446 1
568 446 1
204 447 1
215 447 1
372 447 1
389 447 1
563 447 1
569 447 1
205 448 1
216 448 1
373 448 1
390 448 1
564 448 1
570 448 1
206 449 1
217 449 1
374 449 1
391 449 1
565 449 1
571 449 1
207 450 1
218 450 1
375 450 1
392 450 1
566 450 1
572 450 1
208 451 1
219 451 1
376 451 1
393 451 1
567 451 1
573 451 1
209 452 1
220 452 1
377 452 1
394 452 1
568 452 1
574 452 1
210 453 1
221 453 1
378 453 1
395 453 1
569 453 1
575 453 1
211 454 1
222 454 1
379 454 1
396 454 1
570 454 1
576 454 1
212 455 1
223 455 1
380 455 1
397 455 1
571 455 1
577 455 1
213 456 1
224 456 1
381 456 1
398 456 1
572 456 1
578 456 1
214 457 1
225 457 1
382 457 1
399 457 1
573 457 1
579 457 1
215 458 1
226 458 1
383 458 1
400 458 1
574 458 1
580 458 1
216 459 1
227 459 1
384 459 1
401 459 1
523 459 1
575 459 1
217 460 1
228 460 1
385 460 1
402 460 1
524 460 1
576 460 1
218 461 1
229 461 1
386 461 1
403 461 1
525 461 1
577 461 1
219 462 1
230 462 1
387 462 1
404 462 1
526 462 1
578 462 1
220 463 1
231 463 1
388 463 1
405 463 1
527 463 1
579 463 1
221 464 1
232 464 1
389 464 1
406 464 1
528 464 1
580 464 1
233 465 1
280 465 1
407 465 1
448 465 1
523 465 1
533 465 1
234 466 1
281 466 1
408 466 1
449 466 1
524 466 1
534 466 1
235 467 1
282 467 1
409 467 1
450 467 1
525 467 1
535 467 1
236 468 1
283 468 1
410 468 1
451 468 1
526 468 1
536 468 1
237 469 1
284 469 1
411 469 1
452 469 1
527 469 1
537 469 1
238 470 1
285 470 1
412 470 1
453 470 1
528 470 1
538 470 1
239 471 1
286 471 1
413 471 1
454 471 1
529 471 1
539 471 1
240 472 1
287 472 1
414 472 1
455 472 1
530 472 1
540 472 1
241 473 1
288 473 1
415 473 1
456 473 1
531 473 1
541 473 1
242 474 1
289 474 1
416 474 1
457 474 1
532 474 1
542 474 1
243 475 1
290 475 1
417 475 1
458 475 1
533 475 1
543 475 1
233 476 1
244 476 1
418 476 1
459 476 1
534 476 1
544 476 1
234 477 1
245 477 1
419 477 1
460 477 1
535 477 1
545 477 1
235 478 1
246 478 1
420 478 1
461 478 1
536 478 1
546 478 1
236 479 1
247 479 1
421 479 1
462 479 1
537 479 1
547 479 1
237 480 1
248 480 1
422 480 1
463 480 1
538 480 1
548 480 1
238 481 1
249 481 1
423 481 1
464 481 1
539 481 1
549 481 1
239 482 1
250 482 1
407 482 1
424 482 1
540 482 1
550 482 1
240 483 1
251 483 1
408 483 1
425 483 1
541 483 1
551 483 1
241 484 1
252 484 1
409 484 1
426 484 1
542 484 1
552 484 1
242 485 1
253 485 1
410 485 1
427 485 1
543 485 1
553 485 1
243 486 1
254 486 1
411 486 1
428 486 1
544 486 1
554 486 1
244 487 1
255 487 1
412 487 1
429 487 1
545 487 1
555 487 1
245 488 1
256 488 1
413 488 1
430 488 1
546 488 1
556 488 1
246 489 1
257 489 1
414 489 1
431 489 1
547 489 1
557 489 1
247 490 1
258 490 1
415 490 1
432 490 1
548 490 1
558 490 1
248 491 1
259 491 1
416 491 1
433 491 1
549 491 1
559 491 1
249 492 1
260 492 1
417 492 1
434 492 1
550 492 1
560 492 1
250 493 1
261 493 1
418 493 1
435 493 1
551 493 1
561 493 1
251 494 1
262 494 1
419 494 1
436 494 1
552 494 1
562 494 1
252 495 1
263 495 1
420 495 1
437 495 1
553 495 1
563 495 1
253 496 1
264 496 1
421 496 1
438 496 1
554 496 1
564 496 1
254 497 1
265 497 1
422 497 1
439 497 1
555 497 1
565 497 1
255 498 1
266 498 1
423 498 1
440 498 1
556 498 1
566 498 1
256 499 1
267 499 1
424 499 1
441 499 1
557 499 1
567 499 1
257 500 1
268 500 1
425 500 1
442 500 1
558 500 1
568 500 1
258 501 1
269 501 1
426 501 1
443 501 1
559 501 1
569 501 1
259 502 1
270 502 1
427 502 1
444 502 1
560 502 1
570 502 1
260 503 1
271 503 1
428 503 1
445 503 1
561 503 1
571 503 1
261 504 1
272 504 1
429 504 1
446 504 1
562 504 1
572 504 1
262 505 1
273 505 1
430 505 1
447 505 1
563 505 1
573 505 1
263 506 1
274 506 1
431 506 1
448 506 1
564 506 1
574 506 1
264 507 1
275 507 1
432 507 1
449 507 1
565 507 1
575 507 1
265 508 1
276 508 1
433 508 1
450 508 1
566 508 1
576 508 1
266 509 1
277 509 1
434 509 1
451 509 1
567 509 1
577 509 1
267 510 1
278 510 1
435 510 1
452 510 1
568 510 1
578 510 1
268 511 1
279 511 1
436 511 1
453 511 1
569 511 1
579 511 1
269 512 1
280 512 1
437 512 1
454 512 1
570 512 1
580 512 1
270 513 1
281 513 1
438 513 1
455 513 1
523 513 1
571 513 1
271 514 1
282 514 1
439 514 1
456 514 1
524 514 1
572 514 1
272 515 1
283 515 1
440 515 1
457 515 1
525 515 1
573 515 1
273 516 1
284 516 1
441 516 1
458 516 1
526 516 1
574 516 1
274 517 1
285 517 1
442 517 1
459 517 1
527 517 1
575 517 1
275 518 1
286 518 1
443 518 1
460 518 1
528 518 1
576 518 1
276 519 1
287 519 1
444 519 1
461 519 1
529 519 1
577 519 1
277 520 1
288 520 1
445 520 1
462 520 1
530 520 1
578 520 1
278 521 1
289 521 1
446 521 1
463 521 1
531 521 1
579 521 1
279 522 1
290 522 1
447 522 1
464 522 1
532 522 1
580 522 1
291 523 1
338 523 1
465 523 1
506 523 1
523 523 1
556 523 1
292 524 1
339 524 1
466 524 1
507 524 1
524 524 1
557 524 1
293 525 1
340 525 1
467 525 1
508 525 1
525 525 1
558 525 1
294 526 1
341 526 1
468 526 1
509 526 1
526 526 1
559 526 1
295 527 1
342 527 1
469 527 1
510 527 1
527 527 1
560 527 1
296 528 1
343 528 1
470 528 1
511 528 1
528 528 1
561 528 1
297 529 1
344 529 1
471 529 1
512 529 1
529 529 1
562 529 1
298 530 1
345 530 1
472 530 1
513 530 1
530 530 1
563 530 1
299 531 1
346 531 1
473 531 1
514 531 1
531 531 1
564 531 1
300 532 1
347 532 1
474 532 1
515 532 1
532 532 1
565 532 1
301 533 1
348 533 1
475 533 1
516 533 1
533 533 1
566 533 1
291 534 1
302 534 1
476 534 1
517 534 1
534 534 1
567 534 1
292 535 1
303 535 1
477 535 1
518 535 1
535 535 1
568 535 1
293 536 1
304 536 1
478 536 1
519 536 1
536 536 1
569 536 1
294 537 1
305 537 1
479 537 1
520 537 1
537 537 1
570 537 1
295 538 1
306 538 1
480 538 1
521 538 1
538 538 1
571 538 1
296 539 1
307 539 1
481 539 1
522 539 1
539 539 1
572 539 1
297 540 1
308 540 1
465 540 1
482 540 1
540 540 1
573 540 1
298 541 1
309 541 1
466 541 1
483 541 1
541 541 1
574 541 1
299 542 1
310 542 1
467 542 1
484 542 1
542 542 1
575 542 1
300 543 1
311 543 1
468 543 1
485 543 1
543 543 1
576 543 1
301 544 1
312 544 1
469 544 1
486 544 1
544 544 1
577 544 1
302 545 1
313 545 1
470 545 1
487 545 1
545 545 1
578 545 1
303 546 1
314 546 1
471 546 1
488 546 1
546 546 1
579 546 1
304 547 1
315 547 1
472 547 1
489 547 1
547 547 1
580 547 1
305 548 1
316 548 1
473 548 1
490 548 1
523 548 1
548 548 1
306 549 1
317 549 1
474 549 1
491 549 1
524 549 1
549 549 1
307 550 1
318 550 1
475 550 1
492 550 1
525 550 1
550 550 1
308 551 1
319 551 1
476 551 1
493 551 1
526 551 1
551 551 1
309 552 1
320 552 1
477 552 1
494 552 1
527 552 1
552 552 1
310 553 1
321 553 1
478 553 1
495 553 1
528 553 1
553 553 1
311 554 1
322 554 1
479 554 1
496 554 1
529 554 1
554 554 1
312 555 1
323 555 1
480 555 1
497 555 1
530 555 1
555 555 1
313 556 1
324 556 1
481 556 1
498 556 1
531 556 1
556 556 1
314 557 1
325 557 1
482 557 1
499 557 1
532 557 1
557 557 1
315 558 1
326 558 1
483 558 1
500 558 1
533 558 1
558 558 1
316 559 1
327 559 1
484 559 1
501 559 1
534 559 1
559 559 1
317 560 1
328 560 1
485 560 1
502 560 1
535 560 1
560 560 1
318 561 1
329 561 1
486 561 1
503 561 1
536 561 1
561 561 1
319 562 1
330 562 1
487 562 1
504 562 1
537 562 1
562 562 1
320 563 1
331 563 1
488 563 1
505 563 1
538 563 1
563 563 1
321 564 1
332 564 1
489 564 1
506 564 1
539 564 1
564 564 1
322 565 1
333 565 1
490 565 1
507 565 1
540 565 1
565 565 1
323 566 1
334 566 1
491 566 1
508 566 1
541 566 1
566 566 1
324 567 1
335 567 1
492 567 1
509 567 1
542 567 1
567 567 1
325 568 1
336 568 1
493 568 1
510 568 1
543 568 1
568 568 1
326 569 1
337 569 1
494 569 1
511 569 1
544 569 1
569 569 1
327 570 1
338 570 1
495 570 1
512 570 1
545 570 1
570 570 1
328 571 1
339 571 1
496 571 1
513 571 1
546 571 1
571 571 1
329 572 1
340 572 1
497 572 1
514 572 1
547 572 1
572 572 1
330 573 1
341 573 1
498 573 1
515 573 1
548 573 1
573 573 1
331 574 1
342 574 1
499 574 1
516 574 1
549 574 1
574 574 1
332 575 1
343 575 1
500 575 1
517 575 1
550 575 1
575 575 1
333 576 1
344 576 1
501 576 1
518 576 1
551 576 1
576 576 1
334 577 1
345 577 1
502 577 1
519 577 1
552 577 1
577 577 1
335 578 1
346 578 1
503 578 1
520 578 1
553 578 1
578 578 1
336 579 1
347 579 1
504 579 1
521 579 1
554 579 1
579 579 1
337 580 1
348 580 1
505 580 1
522 580 1
555 580 1
580 580 1
1 581 1
55 581 1
581 581 1
591 581 1
639 581 1
645 581 1
2 582 1
56 582 1
582 582 1
592 582 1
640 582 1
646 582 1
3 583 1
57 583 1
583 583 1
593 583 1
641 583 1
647 583 1
4 584 1
58 584 1
584 584 1
594 584 1
642 584 1
648 584 1
1 585 1
5 585 1
585 585 1
595 585 1
643 585 1
649 585 1
2 586 1
6 586 1
586 586 1
596 586 1
644 586 1
650 586 1
3 587 1
7 587 1
587 587 1
597 587 1
645 587 1
651 587 1
4 588 1
8 588 1
588 588 1
598 588 1
646 588 1
652 588 1
5 589 1
9 589 1
589 589 1
599 589 1
647 589 1
653 589 1
6 590 1
10 590 1
590 590 1
600 590 1
648 590 1
654 590 1
7 591 1
11 591 1
591 591 1
601 591 1
649 591 1
655 591 1
8 592 1
12 592 1
592 592 1
602 592 1
650 592 1
656 592 1
9 593 1
13 593 1
593 593 1
603 593 1
651 593 1
657 593 1
10 594 1
14 594 1
594 594 1
604 594 1
652 594 1
658 594 1
11 595 1
15 595 1
595 595 1
605 595 1
653 595 1
659 595 1
12 596 1
16 596 1
596 596 1
606 596 1
654 596 1
660 596 1
13 597 1
17 597 1
597 597 1
607 597 1
655 597 1
661 597 1
14 598 1
18 598 1
598 598 1
608 598 1
656 598 1
662 598 1
15 599 1
19 599 1
599 599 1
609 599 1
657 599 1
663 599 1
16 600 1
20 600 1
600 600 1
610 600 1
658 600 1
664 600 1
17 601 1
21 601 1
601 601 1
611 601 1
659 601 1
665 601 1
18 602 1
22 602 1
602 602 1
612 602 1
660 602 1
666 602 1
19 603 1
23 603 1
603 603 1
613 603 1
661 603 1
667 603 1
20 604 1
24 604 1
604 604 1
614 604 1
662 604 1
668 604 1
21 605 1
25 605 1
605 605 1
615 605 1
663 605 1
669 605 1
22 606 1
26 606 1
606 606 1
616 606 1
664 606 1
670 606 1
23 607 1
27 607 1
607 607 1
617 607 1
665 607 1
671 607 1
24 608 1
28 608 1
608 608 1
618 608 1
666 608 1
672 608 1
25 609 1
29 609 1
609 609 1
619 609 1
667 609 1
673 609 1
26 610 1
30 610 1
610 610 1
620 610 1
668 610 1
674 610 1
27 611 1
31 611 1
611 611 1
621 611 1
669 611 1
675 611 1
28 612 1
32 612 1
612 612 1
622 612 1
670 612 1
676 612 1
29 613 1
33 613 1
613 613 1
623 613 1
671 613 1
677 613 1
30 614 1
34 614 1
614 614 1
624 614 1
672 614 1
678 614 1
31 615 1
35 615 1
615 615 1
625 615 1
673 615 1
679 615 1
32 616 1
36 616 1
616 616 1
626 616 1
674 616 1
680 616 1
33 617 1
37 617 1
617 617 1
627 617 1
675 617 1
681 617 1
34 618 1
38 618 1
618 618 1
628 618 1
676 618 1
682 618 1
35 619 1
39 619 1
619 619 1
629 619 1
677 619 1
683 619 1
36 620 1
40 620 1
620 620 1
630 620 1
678 620 1
684 620 1
37 621 1
41 621 1
621 621 1
631 621 1
679 621 1
685 621 1
38 622 1
42 622 1
622 622 1
632 622 1
680 622 1
686 622 1
39 623 1
43 623 1
623 623 1
633 623 1
681 623 1
687 623 1
40 624 1
44 624 1
624 624 1
634 624 1
682 624 1
688 624 1
41 625 1
45 625 1
625 625 1
635 625 1
683 625 1
689 625 1
42 626 1
46 626 1
626 626 1
636 626 1
684 626 1
690 626 1
43 627 1
47 627 1
627 627 1
637 627 1
685 627 1
691 627 1
44 628 1
48 628 1
628 628 1
638 628 1
686 628 1
692 628 1
45 629 1
49 629 1
581 629 1
629 629 1
687 629 1
693 629 1
46 630 1
50 630 1
582 630 1
630 630 1
688 630 1
694 630 1
47 631 1
51 631 1
583 631 1
631 631 1
689 631 1
695 631 1
48 632 1
52 632 1
584 632 1
632 632 1
690 632 1
696 632 1
49 633 1
53 633 1
585 633 1
633 633 1
639 633 1
691 633 1
50 634 1
54 634 1
586 634 1
634 634 1
640 634 1
692 634 1
51 635 1
55 635 1
587 635 1
635 635 1
641 635 1
693 635 1
52 636 1
56 636 1
588 636 1
636 636 1
642 636 1
694 636 1
53 637 1
57 637 1
589 637 1
637 637 1
643 637 1
695 637 1
54 638 1
58 638 1
590 638 1
638 638 1
644 638 1
696 638 1
59 639 1
113 639 1
581 639 1
614 639 1
697 639 1
703 639 1
60 640 1
114 640 1
582 640 1
615 640 1
698 640 1
704 640 1
61 641 1
115 641 1
583 641 1
616 641 1
699 641 1
705 641 1
62 642 1
116 642 1
584 642 1
617 642 1
700 642 1
706 642 1
59 643 1
63 643 1
585 643 1
618 643 1
701 643 1
707 643 1
60 644 1
64 644 1
586 644 1
619 644 1
702 644 1
708 644 1
61 645 1
65 645 1
587 645 1
620 645 1
703 645 1
709 645 1
62 646 1
66 646 1
588 646 1
621 646 1
704 646 1
710 646 1
63 647 1
67 647 1
589 647 1
622 647 1
705 647 1
711 647 1
64 648 1
68 648 1
590 648 1
623 648 1
706 648 1
712 648 1
65 649 1
69 649 1
591 649 1
624 649 1
707 649 1
713 649 1
66 650 1
70 650 1
592 650 1
625 650 1
708 650 1
714 650 1
67 651 1
71 651 1
593 651 1
626 651 1
709 651 1
715 651 1
68 652 1
72 652 1
594 652 1
627 652 1
710 652 1
716 652 1
69 653 1
73 653 1
595 653 1
628 653 1
711 653 1
717 653 1
70 654 1
74 654 1
596 654 1
629 654 1
712 654 1
718 654 1
71 655 1
75 655 1
597 655 1
630 655 1
713 655 1
719 655 1
72 656 1
76 656 1
598 656 1
631 656 1
714 656 1
720 656 1
73 657 1
77 657 1
599 657 1
632 657 1
715 657 1
721 657 1
74 658 1
78 658 1
600 658 1
633 658 1
716 658 1
722 658 1
75 659 1
79 659 1
601 659 1
634 659 1
717 659 1
723 659 1
76 660 1
80 660 1
602 660 1
635 660 1
718 660 1
724 660 1
77 661 1
81 661 1
603 661 1
636 661 1
719 661 1
725 661 1
78 662 1
82 662 1
604 662 1
637 662 1
720 662 1
726 662 1
79 663 1
83 663 1
605 663 1
638 663 1
721 663 1
727 663 1
80 664 1
84 664 1
581 664 1
606 664 1
722 664 1
728 664 1
81 665 1
85 665 1
582 665 1
607 665 1
723 665 1
729 665 1
82 666 1
86 666 1
583 666 1
608 666 1
724 666 1
730 666 1
83 667 1
87 667 1
584 667 1
609 667 1
725 667 1
731 667 1
84 668 1
88 668 1
585 668 1
610 668 1
726 668 1
732 668 1
85 669 1
89 669 1
586 669 1
611 669 1
727 669 1
733 669 1
86 670 1
90 670 1
587 670 1
612 670 1
728 670 1
734 670 1
87 671 1
91 671 1
588 671 1
613 671 1
729 671 1
735 671 1
88 672 1
92 672 1
589 672 1
614 672 1
730 672 1
736 672 1
89 673 1
93 673 1
590 673 1
615 673 1
731 673 1
737 673 1
90 674 1
94 674 1
591 674 1
616 674 1
732 674 1
738 674 1
91 675 1
95 675 1
592 675 1
617 675 1
733 675 1
739 675 1
92 676 1
96 676 1
593 676 1
618 676 1
734 676 1
740 676 1
93 677 1
97 677 1
594 677 1
619 677 1
735 677 1
741 677 1
94 678 1
98 678 1
595 678 1
620 678 1
736 678 1
742 678 1
95 679 1
99 679 1
596 679 1
621 679 1
737 679 1
743 679 1
96 680 1
100 680 1
597 680 1
622 680 1
738 680 1
744 680 1
97 681 1
101 681 1
598 681 1
623 681 1
739 681 1
745 681 1
98 682 1
102 682 1
599 682 1
624 682 1
740 682 1
746 682 1
99 683 1
103 683 1
600 683 1
625 683 1
741 683 1
747 683 1
100 684 1
104 684 1
601 684 1
626 684 1
742 684 1
748 684 1
101 685 1
105 685 1
602 685 1
627 685 1
743 685 1
749 685 1
102 686 1
106 686 1
603 686 1
628 686 1
744 686 1
750 686 1
103 687 1
107 687 1
604 687 1
629 687 1
745 687 1
751 687 1
104 688 1
108 688 1
605 688 1
630 688 1
746 688 1
752 688 1
105 689 1
109 689 1
606 689 1
631 689 1
747 689 1
753 689 1
106 690 1
110 690 1
607 690 1
632 690 1
748 690 1
754 690 1
107 691 1
111 691 1
608 691 1
633 691 1
697 691 1
749 691 1
108 692 1
112 692 1
609 692 1
634 692 1
698 692 1
750 692 1
109 693 1
113 693 1
610 693 1
635 693 1
699 693 1
751 693 1
110 694 1
114 694 1
611 694 1
636 694 1
700 694 1
752 694 1
111 695 1
115 695 1
612 695 1
637 695 1
701 695 1
753 695 1
112 696 1
116 696 1
613 696 1
638 696 1
702 696 1
754 696 1
117 697 1
171 697 1
639 697 1
672 697 1
697 697 1
707 697 1
118 698 1
172 698 1
640 698 1
673 698 1
698 698 1
708 698 1
119 699 1
173 699 1
641 699 1
674 699 1
699 699 1
709 699 1
120 700 1
174 700 1
642 700 1
675 700 1
700 700 1
710 700 1
117 701 1
121 701 1
643 701 1
676 701 1
701 701 1
711 701 1
118 702 1
122 702 1
644 702 1
677 702 1
702 702 1
712 702 1
119 703 1
123 703 1
645 703 1
678 703 1
703 703 1
713 703 1
120 704 1
124 704 1
646 704 1
679 704 1
704 704 1
714 704 1
121 705 1
125 705 1
647 705 1
680 705 1
705 705 1
715 705 1
122 706 1
126 706 1
648 706 1
681 706 1
706 706 1
716 706 1
123 707 1
127 707 1
649 707 1
682 707 1
707 707 1
717 707 1
124 708 1
128 708 1
650 708 1
683 708 1
708 708 1
718 708 1
125 709 1
129 709 1
651 709 1
684 709 1
709 709 1
719 709 1
126 710 1
130 710 1
652 710 1
685 710 1
710 710 1
720 710 1
127 711 1
131 711 1
653 711 1
686 711 1
711 711 1
721 711 1
128 712 1
132 712 1
654 712 1
687 712 1
712 712 1
722 712 1
129 713 1
133 713 1
655 713 1
688 713 1
713 713 1
723 713 1
130 714 1
134 714 1
656 714 1
689 714 1
714 714 1
724 714 1
131 715 1
135 715 1
657 715 1
690 715 1
715 715 1
725 715 1
132 716 1
136 716 1
658 716 1
691 716 1
716 716 1
726 716 1
133 717 1
137 717 1
659 717 1
692 717 1
717 717 1
727 717 1
134 718 1
138 718 1
660 718 1
693 718 1
718 718 1
728 718 1
135 719 1
139 719 1
661 719 1
694 719 1
719 719 1
729 719 1
136 720 1
140 720 1
662 720 1
695 720 1
720 720 1
730 720 1
137 721 1
141 721 1
663 721 1
696 721 1
721 721 1
731 721 1
138 722 1
142 722 1
639 722 1
664 722 1
722 722 1
732 722 1
139 723 1
143 723 1
640 723 1
665 723 1
723 723 1
733 723 1
140 724 1
144 724 1
641 724 1
666 724 1
724 724 1
734 724 1
141 725 1
145 725 1
642 725 1
667 725 1
725 725 1
735 725 1
142 726 1
146 726 1
643 726 1
668 726 1
726 726 1
736 726 1
143 727 1
147 727 1
644 727 1
669 727 1
727 727 1
737 727 1
144 728 1
148 728 1
645 728 1
670 728 1
728 728 1
738 728 1
145 729 1
149 729 1
646 729 1
671 729 1
729 729 1
739 729 1
146 730 1
150 730 1
647 730 1
672 730 1
730 730 1
740 730 1
147 731 1
151 731 1
648 731 1
673 731 1
731 731 1
741 731 1
148 732 1
152 732 1
649 732 1
674 732 1
732 732 1
742 732 1
149 733 1
153 733 1
650 733 1
675 733 1
733 733 1
743 733 1
150 734 1
154 734 1
651 734 1
676 734 1
734 734 1
744 734 1
151 735 1
155 735 1
652 735 1
677 735 1
735 735 1
745 735 1
152 736 1
156 736 1
653 736 1
678 736 1
736 736 1
746 736 1
153 737 1
157 737 1
654 737 1
679 737 1
737 737 1
747 737 1
154 738 1
158 738 1
655 738 1
680 738 1
738 738 1
748 738 1
155 739 1
159 739 1
656 739 1
681 739 1
739 739 1
749 739 1
156 740 1
160 740 1
657 740 1
682 740 1
740 740 1
750 740 1
157 741 1
161 741 1
658 741 1
683 741 1
741 741 1
751 741 1
158 742 1
162 742 1
659 742 1
684 742 1
742 742 1
752 742 1
159 743 1
163 743 1
660 743 1
685 743 1
743 743 1
753 743 1
160 744 1
164 744 1
661 744 1
686 744 1
744 744 1
754 744 1
161 745 1
165 745 1
662 745 1
687 745 1
697 745 1
745 745 1
162 746 1
166 746 1
663 746 1
688 746 1
698 746 1
746 746 1
163 747 1
167 747 1
664 747 1
689 747 1
699 747 1
747 747 1
164 748 1
168 748 1
665 748 1
690 748 1
700 748 1
748 748 1
165 749 1
169 749 1
666 749 1
691 749 1
701 749 1
749 749 1
166 750 1
170 750 1
667 750 1
692 750 1
702 750 1
750 750 1
167 751 1
171 751 1
668 751 1
693 751 1
703 751 1
751 751 1
168 752 1
172 752 1
669 752 1
694 752 1
704 752 1
752 752 1
169 753 1
173 753 1
670 753 1
695 753 1
705 753 1
753 753 1
170 754 1
174 754 1
671 754 1
696 754 1
706 754 1
754 754 1
175 755 1
229 755 1
581 755 1
622 755 1
755 755 1
761 755 1
176 756 1
230 756 1
582 756 1
623 756 1
756 756 1
762 756 1
177 757 1
231 757 1
583 757 1
624 757 1
757 757 1
763 757 1
178 758 1
232 758 1
584 758 1
625 758 1
758 758 1
764 758 1
175 759 1
179 759 1
585 759 1
626 759 1
759 759 1
765 759 1
176 760 1
180 760 1
586 760 1
627 760 1
760 760 1
766 760 1
177 761 1
181 761 1
587 761 1
628 761 1
761 761 1
767 761 1
178 762 1
182 762 1
588 762 1
629 762 1
762 762 1
768 762 1
179 763 1
183 763 1
589 763 1
630 763 1
763 763 1
769 763 1
180 764 1
184 764 1
590 764 1
631 764 1
764 764 1
770 764 1
181 765 1
185 765 1
591 765 1
632 765 1
765 765 1
771 765 1
182 766 1
186 766 1
592 766 1
633 766 1
766 766 1
772 766 1
183 767 1
187 767 1
593 767 1
634 767 1
767 767 1
773 767 1
184 768 1
188 768 1
594 768 1
635 768 1
768 768 1
774 768 1
185 769 1
189 769 1
595 769 1
636 769 1
769 769 1
775 769 1
186 770 1
190 770 1
596 770 1
637 770 1
770 770 1
776 770 1
187 771 1
191 771 1
597 771 1
638 771 1
771 771 1
777 771 1
188 772 1
192 772 1
581 772 1
598 772 1
772 772 1
778 772 1
189 773 1
193 773 1
582 773 1
599 773 1
773 773 1
779 773 1
190 774 1
194 774 1
583 774 1
600 774 1
774 774 1
780 774 1
191 775 1
195 775 1
584 775 1
601 775 1
775 775 1
781 775 1
192 776 1
196 776 1
585 776 1
602 776 1
776 776 1
782 776 1
193 777 1
197 777 1
586 777 1
603 777 1
777 777 1
783 777 1
194 778 1
198 778 1
587 778 1
604 778 1
778 778 1
784 778 1
195 779 1
199 779 1
588 779 1
605 779 1
779 779 1
785 779 1
196 780 1
200 780 1
589 780 1
606 780 1
780 780 1
786 780 1
197 781 1
201 781 1
590 781 1
607 781 1
781 781 1
787 781 1
198 782 1
202 782 1
591 782 1
608 782 1
782 782 1
788 782 1
199 783 1
203 783 1
592 783 1
609 783 1
783 783 1
789 783 1
200 784 1
204 784 1
593 784 1
610 784 1
784 784 1
790 784 1
201 785 1
205 785 1
594 785 1
611 785 1
785 785 1
791 785 1
202 786 1
206 786 1
595 786 1
612 786 1
786 786 1
792 786 1
203 787 1
207 787 1
596 787 1
613 787 1
787 787 1
793 787 1
204 788 1
208 788 1
597 788 1
614 788 1
788 788 1
794 788 1
205 789 1
209 789 1
598 789 1
615 789 1
789 789 1
795 789 1
206 790 1
210 790 1
599 790 1
616 790 1
790 790 1
796 790 1
207 791 1
211 791 1
600 791 1
617 791 1
791 791 1
797 791 1
208 792 1
212 792 1
601 792 1
618 792 1
792 792 1
798 792 1
209 793 1
213 793 1
602 793 1
619 793 1
793 793 1
799 793 1
210 794 1
214 794 1
603 794 1
620 794 1
794 794 1
800 794 1
211 795 1
215 795 1
604 795 1
621 795 1
795 795 1
801 795 1
212 796 1
216 796 1
605 796 1
622 796 1
796 796 1
802 796 1
213 797 1
217 797 1
606 797 1
623 797 1
797 797 1
803 797 1
214 798 1
218 798 1
607 798 1
624 798 1
798 798 1
804 798 1
215 799 1
219 799 1
608 799 1
625 799 1
799 799 1
805 799 1
216 800 1
220 800 1
609 800 1
626 800 1
800 800 1
806 800 1
217 801 1
221 801 1
610 801 1
627 801 1
801 801 1
807 801 1
218 802 1
222 802 1
611 802 1
628 802 1
802 802 1
808 802 1
219 803 1
223 803 1
612 803 1
629 803 1
803 803 1
809 803 1
220 804 1
224 804 1
613 804 1
630 804 1
804 804 1
810 804 1
221 805 1
225 805 1
614 805 1
631 805 1
805 805 1
811 805 1
222 806 1
226 806 1
615 806 1
632 806 1
806 806 1
812 806 1
223 807 1
227 807 1
616 807 1
633 807 1
755 807 1
807 807 1
224 808 1
228 808 1
617 808 1
634 808 1
756 808 1
808 808 1
225 809 1
229 809 1
618 809 1
635 809 1
757 809 1
809 809 1
226 810 1
230 810 1
619 810 1
636 810 1
758 810 1
810 810 1
227 811 1
231 811 1
620 811 1
637 811 1
759 811 1
811 811 1
228 812 1
232 812 1
621 812 1
638 812 1
760 812 1
812 812 1
233 813 1
287 813 1
639 813 1
680 813 1
755 813 1
765 813 1
234 814 1
288 814 1
640 814 1
681 814 1
756 814 1
766 814 1
235 815 1
289 815 1
641 815 1
682 815 1
757 815 1
767 815 1
236 816 1
290 816 1
642 816 1
683 816 1
758 816 1
768 816 1
233 817 1
237 817 1
643 817 1
684 817 1
759 817 1
769 817 1
234 818 1
238 818 1
644 818 1
685 818 1
760 818 1
770 818 1
235 819 1
239 819 1
645 819 1
686 819 1
761 819 1
771 819 1
236 820 1
240 820 1
646 820 1
687 820 1
762 820 1
772 820 1
237 821 1
241 821 1
647 821 1
688 821 1
763 821 1
773 821 1
238 822 1
242 822 1
648 822 1
689 822 1
764 822 1
774 822 1
239 823 1
243 823 1
649 823 1
690 823 1
765 823 1
775 823 1
240 824 1
244 824 1
650 824 1
691 824 1
766 824 1
776 824 1
241 825 1
245 825 1
651 825 1
692 825 1
767 825 1
777 825 1
242 826 1
246 826 1
652 826 1
693 826 1
768 826 1
778 826 1
243 827 1
247 827 1
653 827 1
694 827 1
769 827 1
779 827 1
244 828 1
248 828 1
654 828 1
695 828 1
770 828 1
780 828 1
245 829 1
249 829 1
655 829 1
696 829 1
771 829 1
781 829 1
246 830 1
250 830 1
639 830 1
656 830 1
772 830 1
782 830 1
247 831 1
251 831 1
640 831 1
657 831 1
773 831 1
783 831 1
248 832 1
252 832 1
641 832 1
658 832 1
774 832 1
784 832 1
249 833 1
253 833 1
642 833 1
659 833 1
775 833 1
785 833 1
250 834 1
254 834 1
643 834 1
660 834 1
776 834 1
786 834 1
251 835 1
255 835 1
644 835 1
661 835 1
777 835 1
787 835 1
252 836 1
256 836 1
645 836 1
662 836 1
778 836 1
788 836 1
253 837 1
257 837 1
646 837 1
663 837 1
779 837 1
789 837 1
254 838 1
258 838 1
647 838 1
664 838 1
780 838 1
790 838 1
255 839 1
259 839 1
648 839 1
665 839 1
781 839 1
791 839 1
256 840 1
260 840 1
649 840 1
666 840 1
782 840 1
792 840 1
257 841 1
261 841 1
650 841 1
667 841 1
783 841 1
793 841 1
258 842 1
262 842 1
651 842 1
668 842 1
784 842 1
794 842 1
259 843 1
263 843 1
652 843 1
669 843 1
785 843 1
795 843 1
260 844 1
264 844 1
653 844 1
670 844 1
786 844 1
796 844 1
261 845 1
265 845 1
654 845 1
671 845 1
787 845 1
797 845 1
262 846 1
266 846 1
655 846 1
672 846 1
788 846 1
798 846 1
263 847 1
267 847 1
656 847 1
673 847 1
789 847 1
799 847 1
264 848 1
268 848 1
657 848 1
674 848 1
790 848 1
800 848 1
265 849 1
269 849 1
658 849 1
675 849 1
791 849 1
801 849 1
266 850 1
270 850 1
659 850 1
676 850 1
792 850 1
802 850 1
267 851 1
271 851 1
660 851 1
677 851 1
793 851 1
803 851 1
268 852 1
272 852 1
661 852 1
678 852 1
794 852 1
804 852 1
269 853 1
273 853 1
662 853 1
679 853 1
795 853 1
805 853 1
270 854 1
274 854 1
663 854 1
680 854 1
796 854 1
806 854 1
271 855 1
275 855 1
664 855 1
681 855 1
797 855 1
807 855 1
272 856 1
276 856 1
665 856 1
682 856 1
798 856 1
808 856 1
273 857 1
277 857 1
666 857 1
683 857 1
799 857 1
809 857 1
274 858 1
278 858 1
667 858 1
684 858 1
800 858 1
810 858 1
275 859 1
279 859 1
668 859 1
685 859 1
801 859 1
811 859 1
276 860 1
280 860 1
669 860 1
686 860 1
802 860 1
812 860 1
277 861 1
281 861 1
670 861 1
687 861 1
755 861 1
803 861 1
278 862 1
282 862 1
671 862 1
688 862 1
756 862 1
804 862 1
279 863 1
283 863 1
672 863 1
689 863 1
757 863 1
805 863 1
280 864 1
284 864 1
673 864 1
690 864 1
758 864 1
806 864 1
281 865 1
285 865 1
674 865 1
691 865 1
759 865 1
807 865 1
282 866 1
286 866 1
675 866 1
692 866 1
760 866 1
808 866 1
283 867 1
287 867 1
676 867 1
693 867 1
761 867 1
809 867 1
284 868 1
288 868 1
677 868 1
694 868 1
762 868 1
810 868 1
285 869 1
289 869 1
678 869 1
695 869 1
763 869 1
811 869 1
286 870 1
290 870 1
679 870 1
696 870 1
764 870 1
812 870 1
291 871 1
345 871 1
697 871 1
738 871 1
755 871 1
788 871 1
292 872 1
346 872 1
698 872 1
739 872 1
756 872 1
789 872 1
293 873 1
347 873 1
699 873 1
740 873 1
757 873 1
790 873 1
294 874 1
348 874 1
700 874 1
741 874 1
758 874 1
791 874 1
291 875 1
295 875 1
701 875 1
742 875 1
759 875 1
792 875 1
292 876 1
296 876 1
702 876 1
743 876 1
760 876 1
793 876 1
293 877 1
297 877 1
703 877 1
744 877 1
761 877 1
794 877 1
294 878 1
298 878 1
704 878 1
745 878 1
762 878 1
795 878 1
295 879 1
299 879 1
705 879 1
746 879 1
763 879 1
796 879 1
296 880 1
300 880 1
706 880 1
747 880 1
764 880 1
797 880 1
297 881 1
301 881 1
707 881 1
748 881 1
765 881 1
798 881 1
298 882 1
302 882 1
708 882 1
749 882 1
766 882 1
799 882 1
299 883 1
303 883 1
709 883 1
750 883 1
767 883 1
800 883 1
300 884 1
304 884 1
710 884 1
751 884 1
768 884 1
801 884 1
301 885 1
305 885 1
711 885 1
752 885 1
769 885 1
802 885 1
302 886 1
306 886 1
712 886 1
753 886 1
770 886 1
803 886 1
303 887 1
307 887 1
713 887 1
754 887 1
771 887 1
804 887 1
304 888 1
308 888 1
697 888 1
714 888 1
772 888 1
805 888 1
305 889 1
309 889 1
698 889 1
715 889 1
773 889 1
806 889 1
306 890 1
310 890 1
699 890 1
716 890 1
774 890 1
807 890 1
307 891 1
311 891 1
700 891 1
717 891 1
775 891 1
808 891 1
308 892 1
312 892 1
701 892 1
718 892 1
776 892 1
809 892 1
309 893 1
313 893 1
702 893 1
719 893 1
777 893 1
810 893 1
310 894 1
314 894 1
703 894 1
720 894 1
778 894 1
811 894 1
311 895 1
315 895 1
704 895 1
721 895 1
779 895 1
812 895 1
312 896 1
316 896 1
705 896 1
722 896 1
755 896 1
780 896 1
313 897 1
317 897 1
706 897 1
723 897 1
756 897 1
781 897 1
314 898 1
318 898 1
707 898 1
724 898 1
757 898 1
782 898 1
315 899 1
319 899 1
708 899 1
725 899 1
758 899 1
783 899 1
316 900 1
320 900 1
709 900 1
726 900 1
759 900 1
784 900 1
317 901 1
321 901 1
710 901 1
727 901 1
760 901 1
785 901 1
318 902 1
322 902 1
711 902 1
728 902 1
761 902 1
786 902 1
319 903 1
323 903 1
712 903 1
729 903 1
762 903 1
787 903 1
320 904 1
324 904 1
713 904 1
730 904 1
763 904 1
788 904 1
321 905 1
325 905 1
714 905 1
731 905 1
764 905 1
789 905 1
322 906 1
326 906 1
715 906 1
732 906 1
765 906 1
790 906 1
323 907 1
327 907 1
716 907 1
733 907 1
766 907 1
791 907 1
324 908 1
328 908 1
717 908 1
734 908 1
767 908 1
792 908 1
325 909 1
329 909 1
718 909 1
735 909 1
768 909 1
793 909 1
326 910 1
330 910 1
719 910 1
736 910 1
769 910 1
794 910 1
327 911 1
331 911 1
720 911 1
737 911 1
770 911 1
795 911 1
328 912 1
332 912 1
721 912 1
738 912 1
771 912 1
796 912 1
329 913 1
333 913 1
722 913 1
739 913 1
772 913 1
797 913 1
330 914 1
334 914 1
723 914 1
740 914 1
773 914 1
798 914 1
331 915 1
335 915 1
724 915 1
741 915 1
774 915 1
799 915 1
332 916 1
336 916 1
725 916 1
742 916 1
775 916 1
800 916 1
333 917 1
337 917 1
726 917 1
743 917 1
776 917 1
801 917 1
334 918 1
338 918 1
727 918 1
744 918 1
777 918 1
802 918 1
335 919 1
339 919 1
728 919 1
745 919 1
778 919 1
803 919 1
336 920 1
340 920 1
729 920 1
746 920 1
779 920 1
804 920 1
337 921 1
341 921 1
730 921 1
747 921 1
780 921 1
805 921 1
338 922 1
342 922 1
731 922 1
748 922 1
781 922 1
806 922 1
339 923 1
343 923 1
732 923 1
749 923 1
782 923 1
807 923 1
340 924 1
344 924 1
733 924 1
750 924 1
783 924 1
808 924 1
341 925 1
345 925 1
734 925 1
751 925 1
784 925 1
809 925 1
342 926 1
346 926 1
735 926 1
752 926 1
785 926 1
810 926 1
343 927 1
347 927 1
736 927 1
753 927 1
786 927 1
811 927 1
344 928 1
348 928 1
737 928 1
754 928 1
787 928 1
812 928 1
349 929 1
403 929 1
581 929 1
628 929 1
813 929 1
819 929 1
350 930 1
404 930 1
582 930 1
629 930 1
814 930 1
820 930 1
351 931 1
405 931 1
583 931 1
630 931 1
815 931 1
821 931 1
352 932 1
406 932 1
584 932 1
631 932 1
816 932 1
822 932 1
349 933 1
353 933 1
585 933 1
632 933 1
817 933 1
823 933 1
350 934 1
354 934 1
586 934 1
633 934 1
818 934 1
824 934 1
351 935 1
355 935 1
587 935 1
634 935 1
819 935 1
825 935 1
352 936 1
356 936 1
588 936 1
635 936 1
820 936 1
826 936 1
353 937 1
357 937 1
589 937 1
636 937 1
821 937 1
827 937 1
354 938 1
358 938 1
590 938 1
637 938 1
822 938 1
828 938 1
355 939 1
359 939 1
591 939 1
638 939 1
823 939 1
829 939 1
356 940 1
360 940 1
581 940 1
592 940 1
824 940 1
830 940 1
357 941 1
361 941 1
582 941 1
593 941 1
825 941 1
831 941 1
358 942 1
362 942 1
583 942 1
594 942 1
826 942 1
832 942 1
359 943 1
363 943 1
584 943 1
595 943 1
827 943 1
833 943 1
360 944 1
364 944 1
585 944 1
596 944 1
828 944 1
834 944 1
361 945 1
365 945 1
586 945 1
597 945 1
829 945 1
835 945 1
362 946 1
366 946 1
587 946 1
598 946 1
830 946 1
836 946 1
363 947 1
367 947 1
588 947 1
599 947 1
831 947 1
837 947 1
364 948 1
368 948 1
589 948 1
600 948 1
832 948 1
838 948 1
365 949 1
369 949 1
590 949 1
601 949 1
833 949 1
839 949 1
366 950 1
370 950 1
591 950 1
602 950 1
834 950 1
840 950 1
367 951 1
371 951 1
592 951 1
603 951 1
835 951 1
841 951 1
368 952 1
372 952 1
593 952 1
604 952 1
836 952 1
842 952 1
369 953 1
373 953 1
594 953 1
605 953 1
837 953 1
843 953 1
370 954 1
374 954 1
595 954 1
606 954 1
838 954 1
844 954 1
371 955 1
375 955 1
596 955 1
607 955 1
839 955 1
845 955 1
372 956 1
376 956 1
597 956 1
608 956 1
840 956 1
846 956 1
373 957 1
377 957 1
598 957 1
609 957 1
841 957 1
847 957 1
374 958 1
378 958 1
599 958 1
610 958 1
842 958 1
848 958 1
375 959 1
379 959 1
600 959 1
611 959 1
843 959 1
849 959 1
376 960 1
380 960 1
601 960 1
612 960 1
844 960 1
850 960 1
377 961 1
381 961 1
602 961 1
613 961 1
845 961 1
851 961 1
378 962 1
382 962 1
603 962 1
614 962 1
846 962 1
852 962 1
379 963 1
383 963 1
604 963 1
615 963 1
847 963 1
853 963 1
380 964 1
384 964 1
605 964 1
616 964 1
848 964 1
854 964 1
381 965 1
385 965 1
606 965 1
617 965 1
849 965 1
855 965 1
382 966 1
386 966 1
607 966 1
618 966 1
850 966 1
856 966 1
383 967 1
387 967 1
608 967 1
619 967 1
851 967 1
857 967 1
384 968 1
388 968 1
609 968 1
620 968 1
852 968 1
858 968 1
385 969 1
389 969 1
610 969 1
621 969 1
853 969 1
859 969 1
386 970 1
390 970 1
611 970 1
622 970 1
854 970 1
860 970 1
387 971 1
391 971 1
612 971 1
623 971 1
855 971 1
861 971 1
388 972 1
392 972 1
613 972 1
624 972 1
856 972 1
862 972 1
389 973 1
393 973 1
614 973 1
625 973 1
857 973 1
863 973 1
390 974 1
394 974 1
615 974 1
626 974 1
858 974 1
864 974 1
391 975 1
395 975 1
616 975 1
627 975 1
859 975 1
865 975 1
392 976 1
396 976 1
617 976 1
628 976 1
860 976 1
866 976 1
393 977 1
397 977 1
618 977 1
629 977 1
861 977 1
867 977 1
394 978 1
398 978 1
619 978 1
630 978 1
862 978 1
868 978 1
395 979 1
399 979 1
620 979 1
631 979 1
863 979 1
869 979 1
396 980 1
400 980 1
621 980 1
632 980 1
864 980 1
870 980 1
397 981 1
401 981 1
622 981 1
633 981 1
813 981 1
865 981 1
398 982 1
402 982 1
623 982 1
634 982 1
814 982 1
866 982 1
399 983 1
403 983 1
624 983 1
635 983 1
815 983 1
867 983 1
400 984 1
404 984 1
625 984 1
636 984 1
816 984 1
868 984 1
401 985 1
405 985 1
626 985 1
637 985 1
817 985 1
869 985 1
402 986 1
406 986 1
627 986 1
638 986 1
818 986 1
870 986 1
407 987 1
461 987 1
639 987 1
686 987 1
813 987 1
823 987 1
408 988 1
462 988 1
640 988 1
687 988 1
814 988 1
824 988 1
409 989 1
463 989 1
641 989 1
688 989 1
815 989 1
825 989 1
410 990 1
464 990 1
642 990 1
689 990 1
816 990 1
826 990 1
407 991 1
411 991 1
643 991 1
690 991 1
817 991 1
827 991 1
408 992 1
412 992 1
644 992 1
691 992 1
818 992 1
828 992 1
409 993 1
413 993 1
645 993 1
692 993 1
819 993 1
829 993 1
410 994 1
414 994 1
646 994 1
693 994 1
820 994 1
830 994 1
411 995 1
415 995 1
647 995 1
694 995 1
821 995 1
831 995 1
412 996 1
416 996 1
648 996 1
695 996 1
822 996 1
832 996 1
413 997 1
417 997 1
649 997 1
696 997 1
823 997 1
833 997 1
414 998 1
418 998 1
639 998 1
650 998 1
824 998 1
834 998 1
415 999 1
419 999 1
640 999 1
651 999 1
825 999 1
835 999 1
416 1000 1
420 1000 1
641 1000 1
652 1000 1
826 1000 1
836 1000 1
417 1001 1
421 1001 1
642 1001 1
653 1001 1
827 1001 1
837 1001 1
418 1002 1
422 1002 1
643 1002 1
654 1002 1
828 1002 1
838 1002 1
419 1003 1
423 1003 1
644 1003 1
655 1003 1
829 1003 1
839 1003 1
420 1004 1
424 1004 1
645 1004 1
656 1004 1
830 1004 1
840 1004 1
421 1005 1
425 1005 1
646 1005 1
657 1005 1
831 1005 1
841 1005 1
422 1006 1
426 1006 1
647 1006 1
658 1006 1
832 1006 1
842 1006 1
423 1007 1
427 1007 1
648 1007 1
659 1007 1
833 1007 1
843 1007 1
424 1008 1
428 1008 1
649 1008 1
660 1008 1
834 1008 1
844 1008 1
425 1009 1
429 1009 1
650 1009 1
661 1009 1
835 1009 1
845 1009 1
426 1010 1
430 1010 1
651 1010 1
662 1010 1
836 1010 1
846 1010 1
427 1011 1
431 1011 1
652 1011 1
663 1011 1
837 1011 1
847 1011 1
428 1012 1
432 1012 1
653 1012 1
664 1012 1
838 1012 1
848 1012 1
429 1013 1
433 1013 1
654 1013 1
665 1013 1
839 1013 1
849 1013 1
430 1014 1
434 1014 1
655 1014 1
666 1014 1
840 1014 1
850 1014 1
431 1015 1
435 1015 1
656 1015 1
667 1015 1
841 1015 1
851 1015 1
432 1016 1
436 1016 1
657 1016 1
668 1016 1
842 1016 1
852 1016 1
433 1017 1
437 1017 1
658 1017 1
669 1017 1
843 1017 1
853 1017 1
434 1018 1
438 1018 1
659 1018 1
670 1018 1
844 1018 1
854 1018 1
435 1019 1
439 1019 1
660 1019 1
671 1019 1
845 1019 1
855 1019 1
436 1020 1
440 1020 1
661 1020 1
672 1020 1
846 1020 1
856 1020 1
437 1021 1
441 1021 1
662 1021 1
673 1021 1
847 1021 1
857 1021 1
438 1022 1
442 1022 1
663 1022 1
674 1022 1
848 1022 1
858 1022 1
439 1023 1
443 1023 1
664 1023 1
675 1023 1
849 1023 1
859 1023 1
440 1024 1
444 1024 1
665 1024 1
676 1024 1
850 1024 1
860 1024 1
441 1025 1
445 1025 1
666 1025 1
677 1025 1
851 1025 1
861 1025 1
442 1026 1
446 1026 1
667 1026 1
678 1026 1
852 1026 1
862 1026 1
443 1027 1
447 1027 1
668 1027 1
679 1027 1
853 1027 1
863 1027 1
444 1028 1
448 1028 1
669 1028 1
680 1028 1
854 1028 1
864 1028 1
445 1029 1
449 1029 1
670 1029 1
681 1029 1
855 1029 1
865 1029 1
446 1030 1
450 1030 1
671 1030 1
682 1030 1
856 1030 1
866 1030 1
447 1031 1
451 1031 1
672 1031 1
683 1031 1
857 1031 1
867 1031 1
448 1032 1
452 1032 1
673 1032 1
684 1032 1
858 1032 1
868 1032 1
449 1033 1
453 1033 1
674 1033 1
685 1033 1
859 1033 1
869 1033 1
450 1034 1
454 1034 1
675 1034 1
686 1034 1
860 1034 1
870 1034 1
451 1035 1
455 1035 1
676 1035 1
687 1035 1
813 1035 1
861 1035 1
452 1036 1
456 1036 1
677 1036 1
688 1036 1
814 1036 1
862 1036 1
453 1037 1
457 1037 1
678 1037 1
689 1037 1
815 1037 1
863 1037 1
454 1038 1
458 1038 1
679 1038 1
690 1038 1
816 1038 1
864 1038 1
455 1039 1
459 1039 1
680 1039 1
691 1039 1
817 1039 1
865 1039 1
456 1040 1
460 1040 1
681 1040 1
692 1040 1
818 1040 1
866 1040 1
457 1041 1
461 1041 1
682 1041 1
693 1041 1
819 1041 1
867 1041 1
458 1042 1
462 1042 1
683 1042 1
694 1042 1
820 1042 1
868 1042 1
459 1043 1
463 1043 1
684 1043 1
695 1043 1
821 1043 1
869 1043 1
460 1044 1
464 1044 1
685 1044 1
696 1044 1
822 1044 1
870 1044 1
465 1045 1
519 1045 1
697 1045 1
744 1045 1
813 1045 1
846 1045 1
466 1046 1
520 1046 1
698 1046 1
745 1046 1
814 1046 1
847 1046 1
467 1047 1
521 1047 1
699 1047 1
746 1047 1
815 1047 1
848 1047 1
468 1048 1
522 1048 1
700 1048 1
747 1048 1
816 1048 1
849 1048 1
465 1049 1
469 1049 1
701 1049 1
748 1049 1
817 1049 1
850 1049 1
466 1050 1
470 1050 1
702 1050 1
749 1050 1
818 1050 1
851 1050 1
467 1051 1
471 1051 1
703 1051 1
750 1051 1
819 1051 1
852 1051 1
468 1052 1
472 1052 1
704 1052 1
751 1052 1
820 1052 1
853 1052 1
469 1053 1
473 1053 1
705 1053 1
752 1053 1
821 1053 1
854 1053 1
470 1054 1
474 1054 1
706 1054 1
753 1054 1
822 1054 1
855 1054 1
471 1055 1
475 1055 1
707 1055 1
754 1055 1
823 1055 1
856 1055 1
472 1056 1
476 1056 1
697 1056 1
708 1056 1
824 1056 1
857 1056 1
473 1057 1
477 1057 1
698 1057 1
709 1057 1
825 1057 1
858 1057 1
474 1058 1
478 1058 1
699 1058 1
710 1058 1
826 1058 1
859 1058 1
475 1059 1
479 1059 1
700 1059 1
711 1059 1
827 1059 1
860 1059 1
476 1060 1
480 1060 1
701 1060 1
712 1060 1
828 1060 1
861 1060 1
477 1061 1
481 1061 1
702 1061 1
713 1061 1
829 1061 1
862 1061 1
478 1062 1
482 1062 1
703 1062 1
714 1062 1
830 1062 1
863 1062 1
479 1063 1
483 1063 1
704 1063 1
715 1063 1
831 1063 1
864 1063 1
480 1064 1
484 1064 1
705 1064 1
716 1064 1
832 1064 1
865 1064 1
481 1065 1
485 1065 1
706 1065 1
717 1065 1
833 1065 1
866 1065 1
482 1066 1
486 1066 1
707 1066 1
718 1066 1
834 1066 1
867 1066 1
483 1067 1
487 1067 1
708 1067 1
719 1067 1
835 1067 1
868 1067 1
484 1068 1
488 1068 1
709 1068 1
720 1068 1
836 1068 1
869 1068 1
485 1069 1
489 1069 1
710 1069 1
721 1069 1
837 1069 1
870 1069 1
486 1070 1
490 1070 1
711 1070 1
722 1070 1
813 1070 1
838 1070 1
487 1071 1
491 1071 1
712 1071 1
723 1071 1
814 1071 1
839 1071 1
488 1072 1
492 1072 1
713 1072 1
724 1072 1
815 1072 1
840 1072 1
489 1073 1
493 1073 1
714 1073 1
725 1073 1
816 1073 1
841 1073 1
490 1074 1
494 1074 1
715 1074 1
726 1074 1
817 1074 1
842 1074 1
491 1075 1
495 1075 1
716 1075 1
727 1075 1
818 1075 1
843 1075 1
492 1076 1
496 1076 1
717 1076 1
728 1076 1
819 1076 1
844 1076 1
493 1077 1
497 1077 1
718 1077 1
729 1077 1
820 1077 1
845 1077 1
494 1078 1
498 1078 1
719 1078 1
730 1078 1
821 1078 1
846 1078 1
495 1079 1
499 1079 1
720 1079 1
731 1079 1
822 1079 1
847 1079 1
496 1080 1
500 1080 1
721 1080 1
732 1080 1
823 1080 1
848 1080 1
497 1081 1
501 1081 1
722 1081 1
733 1081 1
824 1081 1
849 1081 1
498 1082 1
502 1082 1
723 1082 1
734 1082 1
825 1082 1
850 1082 1
499 1083 1
503 1083 1
724 1083 1
735 1083 1
826 1083 1
851 1083 1
500 1084 1
504 1084 1
725 1084 1
736 1084 1
827 1084 1
852 1084 1
501 1085 1
505 1085 1
726 1085 1
737 1085 1
828 1085 1
853 1085 1
502 1086 1
506 1086 1
727 1086 1
738 1086 1
829 1086 1
854 1086 1
503 1087 1
507 1087 1
728 1087 1
739 1087 1
830 1087 1
855 1087 1
504 1088 1
508 1088 1
729 1088 1
740 1088 1
831 1088 1
856 1088 1
505 1089 1
509 1089 1
730 1089 1
741 1089 1
832 1089 1
857 1089 1
506 1090 1
510 1090 1
731 1090 1
742 1090 1
833 1090 1
858 1090 1
507 1091 1
511 1091 1
732 1091 1
743 1091 1
834 1091 1
859 1091 1
508 1092 1
512 1092 1
733 1092 1
744 1092 1
835 1092 1
860 1092 1
509 1093 1
513 1093 1
734 1093 1
745 1093 1
836 1093 1
861 1093 1
510 1094 1
514 1094 1
735 1094 1
746 1094 1
837 1094 1
862 1094 1
511 1095 1
515 1095 1
736 1095 1
747 1095 1
838 1095 1
863 1095 1
512 1096 1
516 1096 1
737 1096 1
748 1096 1
839 1096 1
864 1096 1
513 1097 1
517 1097 1
738 1097 1
749 1097 1
840 1097 1
865 1097 1
514 1098 1
518 1098 1
739 1098 1
750 1098 1
841 1098 1
866 1098 1
515 1099 1
519 1099 1
740 1099 1
751 1099 1
842 1099 1
867 1099 1
516 1100 1
520 1100 1
741 1100 1
752 1100 1
843 1100 1
868 1100 1
517 1101 1
521 1101 1
742 1101 1
753 1101 1
844 1101 1
869 1101 1
518 1102 1
522 1102 1
743 1102 1
754 1102 1
845 1102 1
870 1102 1
523 1103 1
577 1103 1
755 1103 1
802 1103 1
813 1103 1
854 1103 1
524 1104 1
578 1104 1
756 1104 1
803 1104 1
814 1104 1
855 1104 1
525 1105 1
579 1105 1
757 1105 1
804 1105 1
815 1105 1
856 1105 1
526 1106 1
580 1106 1
758 1106 1
805 1106 1
816 1106 1
857 1106 1
523 1107 1
527 1107 1
759 1107 1
806 1107 1
817 1107 1
858 1107 1
524 1108 1
528 1108 1
760 1108 1
807 1108 1
818 1108 1
859 1108 1
525 1109 1
529 1109 1
761 1109 1
808 1109 1
819 1109 1
860 1109 1
526 1110 1
530 1110 1
762 1110 1
809 1110 1
820 1110 1
861 1110 1
527 1111 1
531 1111 1
763 1111 1
810 1111 1
821 1111 1
862 1111 1
528 1112 1
532 1112 1
764 1112 1
811 1112 1
822 1112 1
863 1112 1
529 1113 1
533 1113 1
765 1113 1
812 1113 1
823 1113 1
864 1113 1
530 1114 1
534 1114 1
755 1114 1
766 1114 1
824 1114 1
865 1114 1
531 1115 1
535 1115 1
756 1115 1
767 1115 1
825 1115 1
866 1115 1
532 1116 1
536 1116 1
757 1116 1
768 1116 1
826 1116 1
867 1116 1
533 1117 1
537 1117 1
758 1117 1
769 1117 1
827 1117 1
868 1117 1
534 1118 1
538 1118 1
759 1118 1
770 1118 1
828 1118 1
869 1118 1
535 1119 1
539 1119 1
760 1119 1
771 1119 1
829 1119 1
870 1119 1
536 1120 1
540 1120 1
761 1120 1
772 1120 1
813 1120 1
830 1120 1
537 1121 1
541 1121 1
762 1121 1
773 1121 1
814 1121 1
831 1121 1
538 1122 1
542 1122 1
763 1122 1
774 1122 1
815 1122 1
832 1122 1
539 1123 1
543 1123 1
764 1123 1
775 1123 1
816 1123 1
833 1123 1
540 1124 1
544 1124 1
765 1124 1
776 1124 1
817 1124 1
834 1124 1
541 1125 1
545 1125 1
766 1125 1
777 1125 1
818 1125 1
835 1125 1
542 1126 1
546 1126 1
767 1126 1
778 1126 1
819 1126 1
836 1126 1
543 1127 1
547 1127 1
768 1127 1
779 1127 1
820 1127 1
837 1127 1
544 1128 1
548 1128 1
769 1128 1
780 1128 1
821 1128 1
838 1128 1
545 1129 1
549 1129 1
770 1129 1
781 1129 1
822 1129 1
839 1129 1
546 1130 1
550 1130 1
771 1130 1
782 1130 1
823 1130 1
840 1130 1
547 1131 1
551 1131 1
772 1131 1
783 1131 1
824 1131 1
841 1131 1
548 1132 1
552 1132 1
773 1132 1
784 1132 1
825 1132 1
842 1132 1
549 1133 1
553 1133 1
774 1133 1
785 1133 1
826 1133 1
843 1133 1
550 1134 1
554 1134 1
775 1134 1
786 1134 1
827 1134 1
844 1134 1
551 1135 1
555 1135 1
776 1135 1
787 1135 1
828 1135 1
845 1135 1
552 1136 1
556 1136 1
777 1136 1
788 1136 1
829 1136 1
846 1136 1
553 1137 1
557 1137 1
778 1137 1
789 1137 1
830 1137 1
847 1137 1
554 1138 1
558 1138 1
779 1138 1
790 1138 1
831 1138 1
848 1138 1
555 1139 1
559 1139 1
780 1139 1
791 1139 1
832 1139 1
849 1139 1
556 1140 1
560 1140 1
781 1140 1
792 1140 1
833 1140 1
850 1140 1
557 1141 1
561 1141 1
782 1141 1
793 1141 1
834 1141 1
851 1141 1
558 1142 1
562 1142 1
783 1142 1
794 1142 1
835 1142 1
852 1142 1
559 1143 1
563 1143 1
784 1143 1
795 1143 1
836 1143 1
853 1143 1
560 1144 1
564 1144 1
785 1144 1
796 1144 1
837 1144 1
854 1144 1
561 1145 1
565 1145 1
786 1145 1
797 1145 1
838 1145 1
855 1145 1
562 1146 1
566 1146 1
787 1146 1
798 1146 1
839 1146 1
856 1146 1
563 1147 1
567 1147 1
788 1147 1
799 1147 1
840 1147 1
857 1147 1
564 1148 1
568 1148 1
789 1148 1
800 1148 1
841 1148 1
858 1148 1
565 1149 1
569 1149 1
790 1149 1
801 1149 1
842 1149 1
859 1149 1
566 1150 1
570 1150 1
791 1150 1
802 1150 1
843 1150 1
860 1150 1
567 1151 1
571 1151 1
792 1151 1
803 1151 1
844 1151 1
861 1151 1
568 1152 1
572 1152 1
793 1152 1
804 1152 1
845 1152 1
862 1152 1
569 1153 1
573 1153 1
794 1153 1
805 1153 1
846 1153 1
863 1153 1
570 1154 1
574 1154 1
795 1154 1
806 1154 1
847 1154 1
864 1154 1
571 1155 1
575 1155 1
796 1155 1
807 1155 1
848 1155 1
865 1155 1
572 1156 1
576 1156 1
797 1156 1
808 1156 1
849 1156 1
866 1156 1
573 1157 1
577 1157 1
798 1157 1
809 1157 1
850 1157 1
867 1157 1
574 1158 1
578 1158 1
799 1158 1
810 1158 1
851 1158 1
868 1158 1
575 1159 1
579 1159 1
800 1159 1
811 1159 1
852 1159 1
869 1159 1
576 1160 1
580 1160 1
801 1160 1
812 1160 1
853 1160 1
870 1160 1
