%%MatrixMarket matrix coordinate integer general
% Binary matrix; one-based indices; arithmetic over GF(2)
1064 1330 10640
1 1 1
7 1 1
20 1 1
25 1 1
39 1 1
43 1 1
58 1 1
60 1 1
2 2 1
8 2 1
21 2 1
26 2 1
40 2 1
44 2 1
59 2 1
61 2 1
3 3 1
9 3 1
22 3 1
27 3 1
41 3 1
45 3 1
60 3 1
62 3 1
4 4 1
10 4 1
23 4 1
28 4 1
42 4 1
46 4 1
61 4 1
63 4 1
5 5 1
11 5 1
24 5 1
29 5 1
43 5 1
47 5 1
62 5 1
64 5 1
6 6 1
12 6 1
25 6 1
30 6 1
44 6 1
48 6 1
63 6 1
65 6 1
7 7 1
13 7 1
26 7 1
31 7 1
45 7 1
49 7 1
64 7 1
66 7 1
8 8 1
14 8 1
27 8 1
32 8 1
46 8 1
50 8 1
65 8 1
67 8 1
9 9 1
15 9 1
28 9 1
33 9 1
47 9 1
51 9 1
66 9 1
68 9 1
10 10 1
16 10 1
29 10 1
34 10 1
48 10 1
52 10 1
67 10 1
69 10 1
11 11 1
17 11 1
30 11 1
35 11 1
49 11 1
53 11 1
68 11 1
70 11 1
12 12 1
18 12 1
31 12 1
36 12 1
50 12 1
54 12 1
69 12 1
71 12 1
13 13 1
19 13 1
32 13 1
37 13 1
51 13 1
55 13 1
70 13 1
72 13 1
1 14 1
14 14 1
33 14 1
38 14 1
52 14 1
56 14 1
71 14 1
73 14 1
2 15 1
15 15 1
20 15 1
34 15 1
53 15 1
57 15 1
72 15 1
74 15 1
3 16 1
16 16 1
21 16 1
35 16 1
39 16 1
54 16 1
73 16 1
75 16 1
4 17 1
17 17 1
22 17 1
36 17 1
40 17 1
55 17 1
74 17 1
76 17 1
5 18 1
18 18 1
23 18 1
37 18 1
41 18 1
56 18 1
58 18 1
75 18 1
6 19 1
19 19 1
24 19 1
38 19 1
42 19 1
57 19 1
59 19 1
76 19 1
1 20 1
10 20 1
77 20 1
82 20 1
96 20 1
100 20 1
115 20 1
117 20 1
2 21 1
11 21 1
78 21 1
83 21 1
97 21 1
101 21 1
116 21 1
118 21 1
3 22 1
12 22 1
79 22 1
84 22 1
98 22 1
102 22 1
117 22 1
119 22 1
4 23 1
13 23 1
80 23 1
85 23 1
99 23 1
103 23 1
118 23 1
120 23 1
5 24 1
14 24 1
81 24 1
86 24 1
100 24 1
104 24 1
119 24 1
121 24 1
6 25 1
15 25 1
82 25 1
87 25 1
101 25 1
105 25 1
120 25 1
122 25 1
7 26 1
16 26 1
83 26 1
88 26 1
102 26 1
106 26 1
121 26 1
123 26 1
8 27 1
17 27 1
84 27 1
89 27 1
103 27 1
107 27 1
122 27 1
124 27 1
9 28 1
18 28 1
85 28 1
90 28 1
104 28 1
108 28 1
123 28 1
125 28 1
10 29 1
19 29 1
86 29 1
91 29 1
105 29 1
109 29 1
124 29 1
126 29 1
1 30 1
11 30 1
87 30 1
92 30 1
106 30 1
110 30 1
125 30 1
127 30 1
2 31 1
12 31 1
88 31 1
93 31 1
107 31 1
111 31 1
126 31 1
128 31 1
3 32 1
13 32 1
89 32 1
94 32 1
108 32 1
112 32 1
127 32 1
129 32 1
4 33 1
14 33 1
90 33 1
95 33 1
109 33 1
113 33 1
128 33 1
130 33 1
5 34 1
15 34 1
77 34 1
91 34 1
110 34 1
114 34 1
129 34 1
131 34 1
6 35 1
16 35 1
78 35 1
92 35 1
96 35 1
111 35 1
130 35 1
132 35 1
7 36 1
17 36 1
79 36 1
93 36 1
97 36 1
112 36 1
131 36 1
133 36 1
8 37 1
18 37 1
80 37 1
94 37 1
98 37 1
113 37 1
115 37 1
132 37 1
9 38 1
19 38 1
81 38 1
95 38 1
99 38 1
114 38 1
116 38 1
133 38 1
20 39 1
29 39 1
77 39 1
83 39 1
134 39 1
138 39 1
153 39 1
155 39 1
21 40 1
30 40 1
78 40 1
84 40 1
135 40 1
139 40 1
154 40 1
156 40 1
22 41 1
31 41 1
79 41 1
85 41 1
136 41 1
140 41 1
155 41 1
157 41 1
23 42 1
32 42 1
80 42 1
86 42 1
137 42 1
141 42 1
156 42 1
158 42 1
24 43 1
33 43 1
81 43 1
87 43 1
138 43 1
142 43 1
157 43 1
159 43 1
25 44 1
34 44 1
82 44 1
88 44 1
139 44 1
143 44 1
158 44 1
160 44 1
26 45 1
35 45 1
83 45 1
89 45 1
140 45 1
144 45 1
159 45 1
161 45 1
27 46 1
36 46 1
84 46 1
90 46 1
141 46 1
145 46 1
160 46 1
162 46 1
28 47 1
37 47 1
85 47 1
91 47 1
142 47 1
146 47 1
161 47 1
163 47 1
29 48 1
38 48 1
86 48 1
92 48 1
143 48 1
147 48 1
162 48 1
164 48 1
20 49 1
30 49 1
87 49 1
93 49 1
144 49 1
148 49 1
163 49 1
165 49 1
21 50 1
31 50 1
88 50 1
94 50 1
145 50 1
149 50 1
164 50 1
166 50 1
22 51 1
32 51 1
89 51 1
95 51 1
146 51 1
150 51 1
165 51 1
167 51 1
23 52 1
33 52 1
77 52 1
90 52 1
147 52 1
151 52 1
166 52 1
168 52 1
24 53 1
34 53 1
78 53 1
91 53 1
148 53 1
152 53 1
167 53 1
169 53 1
25 54 1
35 54 1
79 54 1
92 54 1
134 54 1
149 54 1
168 54 1
170 54 1
26 55 1
36 55 1
80 55 1
93 55 1
135 55 1
150 55 1
169 55 1
171 55 1
27 56 1
37 56 1
81 56 1
94 56 1
136 56 1
151 56 1
153 56 1
170 56 1
28 57 1
38 57 1
82 57 1
95 57 1
137 57 1
152 57 1
154 57 1
171 57 1
39 58 1
48 58 1
96 58 1
102 58 1
134 58 1
139 58 1
172 58 1
174 58 1
40 59 1
49 59 1
97 59 1
103 59 1
135 59 1
140 59 1
173 59 1
175 59 1
41 60 1
50 60 1
98 60 1
104 60 1
136 60 1
141 60 1
174 60 1
176 60 1
42 61 1
51 61 1
99 61 1
105 61 1
137 61 1
142 61 1
175 61 1
177 61 1
43 62 1
52 62 1
100 62 1
106 62 1
138 62 1
143 62 1
176 62 1
178 62 1
44 63 1
53 63 1
101 63 1
107 63 1
139 63 1
144 63 1
177 63 1
179 63 1
45 64 1
54 64 1
102 64 1
108 64 1
140 64 1
145 64 1
178 64 1
180 64 1
46 65 1
55 65 1
103 65 1
109 65 1
141 65 1
146 65 1
179 65 1
181 65 1
47 66 1
56 66 1
104 66 1
110 66 1
142 66 1
147 66 1
180 66 1
182 66 1
48 67 1
57 67 1
105 67 1
111 67 1
143 67 1
148 67 1
181 67 1
183 67 1
39 68 1
49 68 1
106 68 1
112 68 1
144 68 1
149 68 1
182 68 1
184 68 1
40 69 1
50 69 1
107 69 1
113 69 1
145 69 1
150 69 1
183 69 1
185 69 1
41 70 1
51 70 1
108 70 1
114 70 1
146 70 1
151 70 1
184 70 1
186 70 1
42 71 1
52 71 1
96 71 1
109 71 1
147 71 1
152 71 1
185 71 1
187 71 1
43 72 1
53 72 1
97 72 1
110 72 1
134 72 1
148 72 1
186 72 1
188 72 1
44 73 1
54 73 1
98 73 1
111 73 1
135 73 1
149 73 1
187 73 1
189 73 1
45 74 1
55 74 1
99 74 1
112 74 1
136 74 1
150 74 1
188 74 1
190 74 1
46 75 1
56 75 1
100 75 1
113 75 1
137 75 1
151 75 1
172 75 1
189 75 1
47 76 1
57 76 1
101 76 1
114 76 1
138 76 1
152 76 1
173 76 1
190 76 1
58 77 1
67 77 1
115 77 1
121 77 1
153 77 1
158 77 1
172 77 1
176 77 1
59 78 1
68 78 1
116 78 1
122 78 1
154 78 1
159 78 1
173 78 1
177 78 1
60 79 1
69 79 1
117 79 1
123 79 1
155 79 1
160 79 1
174 79 1
178 79 1
61 80 1
70 80 1
118 80 1
124 80 1
156 80 1
161 80 1
175 80 1
179 80 1
62 81 1
71 81 1
119 81 1
125 81 1
157 81 1
162 81 1
176 81 1
180 81 1
63 82 1
72 82 1
120 82 1
126 82 1
158 82 1
163 82 1
177 82 1
181 82 1
64 83 1
73 83 1
121 83 1
127 83 1
159 83 1
164 83 1
178 83 1
182 83 1
65 84 1
74 84 1
122 84 1
128 84 1
160 84 1
165 84 1
179 84 1
183 84 1
66 85 1
75 85 1
123 85 1
129 85 1
161 85 1
166 85 1
180 85 1
184 85 1
67 86 1
76 86 1
124 86 1
130 86 1
162 86 1
167 86 1
181 86 1
185 86 1
58 87 1
68 87 1
125 87 1
131 87 1
163 87 1
168 87 1
182 87 1
186 87 1
59 88 1
69 88 1
126 88 1
132 88 1
164 88 1
169 88 1
183 88 1
187 88 1
60 89 1
70 89 1
127 89 1
133 89 1
165 89 1
170 89 1
184 89 1
188 89 1
61 90 1
71 90 1
115 90 1
128 90 1
166 90 1
171 90 1
185 90 1
189 90 1
62 91 1
72 91 1
116 91 1
129 91 1
153 91 1
167 91 1
186 91 1
190 91 1
63 92 1
73 92 1
117 92 1
130 92 1
154 92 1
168 92 1
172 92 1
187 92 1
64 93 1
74 93 1
118 93 1
131 93 1
155 93 1
169 93 1
173 93 1
188 93 1
65 94 1
75 94 1
119 94 1
132 94 1
156 94 1
170 94 1
174 94 1
189 94 1
66 95 1
76 95 1
120 95 1
133 95 1
157 95 1
171 95 1
175 95 1
190 95 1
1 96 1
12 96 1
191 96 1
196 96 1
210 96 1
214 96 1
229 96 1
231 96 1
2 97 1
13 97 1
192 97 1
197 97 1
211 97 1
215 97 1
230 97 1
232 97 1
3 98 1
14 98 1
193 98 1
198 98 1
212 98 1
216 98 1
231 98 1
233 98 1
4 99 1
15 99 1
194 99 1
199 99 1
213 99 1
217 99 1
232 99 1
234 99 1
5 100 1
16 100 1
195 100 1
200 100 1
214 100 1
218 100 1
233 100 1
235 100 1
6 101 1
17 101 1
196 101 1
201 101 1
215 101 1
219 101 1
234 101 1
236 101 1
7 102 1
18 102 1
197 102 1
202 102 1
216 102 1
220 102 1
235 102 1
237 102 1
8 103 1
19 103 1
198 103 1
203 103 1
217 103 1
221 103 1
236 103 1
238 103 1
1 104 1
9 104 1
199 104 1
204 104 1
218 104 1
222 104 1
237 104 1
239 104 1
2 105 1
10 105 1
200 105 1
205 105 1
219 105 1
223 105 1
238 105 1
240 105 1
3 106 1
11 106 1
201 106 1
206 106 1
220 106 1
224 106 1
239 106 1
241 106 1
4 107 1
12 107 1
202 107 1
207 107 1
221 107 1
225 107 1
240 107 1
242 107 1
5 108 1
13 108 1
203 108 1
208 108 1
222 108 1
226 108 1
241 108 1
243 108 1
6 109 1
14 109 1
204 109 1
209 109 1
223 109 1
227 109 1
242 109 1
244 109 1
7 110 1
15 110 1
191 110 1
205 110 1
224 110 1
228 110 1
243 110 1
245 110 1
8 111 1
16 111 1
192 111 1
206 111 1
210 111 1
225 111 1
244 111 1
246 111 1
9 112 1
17 112 1
193 112 1
207 112 1
211 112 1
226 112 1
245 112 1
247 112 1
10 113 1
18 113 1
194 113 1
208 113 1
212 113 1
227 113 1
229 113 1
246 113 1
11 114 1
19 114 1
195 114 1
209 114 1
213 114 1
228 114 1
230 114 1
247 114 1
20 115 1
31 115 1
191 115 1
197 115 1
248 115 1
252 115 1
267 115 1
269 115 1
21 116 1
32 116 1
192 116 1
198 116 1
249 116 1
253 116 1
268 116 1
270 116 1
22 117 1
33 117 1
193 117 1
199 117 1
250 117 1
254 117 1
269 117 1
271 117 1
23 118 1
34 118 1
194 118 1
200 118 1
251 118 1
255 118 1
270 118 1
272 118 1
24 119 1
35 119 1
195 119 1
201 119 1
252 119 1
256 119 1
271 119 1
273 119 1
25 120 1
36 120 1
196 120 1
202 120 1
253 120 1
257 120 1
272 120 1
274 120 1
26 121 1
37 121 1
197 121 1
203 121 1
254 121 1
258 121 1
273 121 1
275 121 1
27 122 1
38 122 1
198 122 1
204 122 1
255 122 1
259 122 1
274 122 1
276 122 1
20 123 1
28 123 1
199 123 1
205 123 1
256 123 1
260 123 1
275 123 1
277 123 1
21 124 1
29 124 1
200 124 1
206 124 1
257 124 1
261 124 1
276 124 1
278 124 1
22 125 1
30 125 1
201 125 1
207 125 1
258 125 1
262 125 1
277 125 1
279 125 1
23 126 1
31 126 1
202 126 1
208 126 1
259 126 1
263 126 1
278 126 1
280 126 1
24 127 1
32 127 1
203 127 1
209 127 1
260 127 1
264 127 1
279 127 1
281 127 1
25 128 1
33 128 1
191 128 1
204 128 1
261 128 1
265 128 1
280 128 1
282 128 1
26 129 1
34 129 1
192 129 1
205 129 1
262 129 1
266 129 1
281 129 1
283 129 1
27 130 1
35 130 1
193 130 1
206 130 1
248 130 1
263 130 1
282 130 1
284 130 1
28 131 1
36 131 1
194 131 1
207 131 1
249 131 1
264 131 1
283 131 1
285 131 1
29 132 1
37 132 1
195 132 1
208 132 1
250 132 1
265 132 1
267 132 1
284 132 1
30 133 1
38 133 1
196 133 1
209 133 1
251 133 1
266 133 1
268 133 1
285 133 1
39 134 1
50 134 1
210 134 1
216 134 1
248 134 1
253 134 1
286 134 1
288 134 1
40 135 1
51 135 1
211 135 1
217 135 1
249 135 1
254 135 1
287 135 1
289 135 1
41 136 1
52 136 1
212 136 1
218 136 1
250 136 1
255 136 1
288 136 1
290 136 1
42 137 1
53 137 1
213 137 1
219 137 1
251 137 1
256 137 1
289 137 1
291 137 1
43 138 1
54 138 1
214 138 1
220 138 1
252 138 1
257 138 1
290 138 1
292 138 1
44 139 1
55 139 1
215 139 1
221 139 1
253 139 1
258 139 1
291 139 1
293 139 1
45 140 1
56 140 1
216 140 1
222 140 1
254 140 1
259 140 1
292 140 1
294 140 1
46 141 1
57 141 1
217 141 1
223 141 1
255 141 1
260 141 1
293 141 1
295 141 1
39 142 1
47 142 1
218 142 1
224 142 1
256 142 1
261 142 1
294 142 1
296 142 1
40 143 1
48 143 1
219 143 1
225 143 1
257 143 1
262 143 1
295 143 1
297 143 1
41 144 1
49 144 1
220 144 1
226 144 1
258 144 1
263 144 1
296 144 1
298 144 1
42 145 1
50 145 1
221 145 1
227 145 1
259 145 1
264 145 1
297 145 1
299 145 1
43 146 1
51 146 1
222 146 1
228 146 1
260 146 1
265 146 1
298 146 1
300 146 1
44 147 1
52 147 1
210 147 1
223 147 1
261 147 1
266 147 1
299 147 1
301 147 1
45 148 1
53 148 1
211 148 1
224 148 1
248 148 1
262 148 1
300 148 1
302 148 1
46 149 1
54 149 1
212 149 1
225 149 1
249 149 1
263 149 1
301 149 1
303 149 1
47 150 1
55 150 1
213 150 1
226 150 1
250 150 1
264 150 1
302 150 1
304 150 1
48 151 1
56 151 1
214 151 1
227 151 1
251 151 1
265 151 1
286 151 1
303 151 1
49 152 1
57 152 1
215 152 1
228 152 1
252 152 1
266 152 1
287 152 1
304 152 1
58 153 1
69 153 1
229 153 1
235 153 1
267 153 1
272 153 1
286 153 1
290 153 1
59 154 1
70 154 1
230 154 1
236 154 1
268 154 1
273 154 1
287 154 1
291 154 1
60 155 1
71 155 1
231 155 1
237 155 1
269 155 1
274 155 1
288 155 1
292 155 1
61 156 1
72 156 1
232 156 1
238 156 1
270 156 1
275 156 1
289 156 1
293 156 1
62 157 1
73 157 1
233 157 1
239 157 1
271 157 1
276 157 1
290 157 1
294 157 1
63 158 1
74 158 1
234 158 1
240 158 1
272 158 1
277 158 1
291 158 1
295 158 1
64 159 1
75 159 1
235 159 1
241 159 1
273 159 1
278 159 1
292 159 1
296 159 1
65 160 1
76 160 1
236 160 1
242 160 1
274 160 1
279 160 1
293 160 1
297 160 1
58 161 1
66 161 1
237 161 1
243 161 1
275 161 1
280 161 1
294 161 1
298 161 1
59 162 1
67 162 1
238 162 1
244 162 1
276 162 1
281 162 1
295 162 1
299 162 1
60 163 1
68 163 1
239 163 1
245 163 1
277 163 1
282 163 1
296 163 1
300 163 1
61 164 1
69 164 1
240 164 1
246 164 1
278 164 1
283 164 1
297 164 1
301 164 1
62 165 1
70 165 1
241 165 1
247 165 1
279 165 1
284 165 1
298 165 1
302 165 1
63 166 1
71 166 1
229 166 1
242 166 1
280 166 1
285 166 1
299 166 1
303 166 1
64 167 1
72 167 1
230 167 1
243 167 1
267 167 1
281 167 1
300 167 1
304 167 1
65 168 1
73 168 1
231 168 1
244 168 1
268 168 1
282 168 1
286 168 1
301 168 1
66 169 1
74 169 1
232 169 1
245 169 1
269 169 1
283 169 1
287 169 1
302 169 1
67 170 1
75 170 1
233 170 1
246 170 1
270 170 1
284 170 1
288 170 1
303 170 1
68 171 1
76 171 1
234 171 1
247 171 1
271 171 1
285 171 1
289 171 1
304 171 1
77 172 1
88 172 1
191 172 1
200 172 1
305 172 1
309 172 1
324 172 1
326 172 1
78 173 1
89 173 1
192 173 1
201 173 1
306 173 1
310 173 1
325 173 1
327 173 1
79 174 1
90 174 1
193 174 1
202 174 1
307 174 1
311 174 1
326 174 1
328 174 1
80 175 1
91 175 1
194 175 1
203 175 1
308 175 1
312 175 1
327 175 1
329 175 1
81 176 1
92 176 1
195 176 1
204 176 1
309 176 1
313 176 1
328 176 1
330 176 1
82 177 1
93 177 1
196 177 1
205 177 1
310 177 1
314 177 1
329 177 1
331 177 1
83 178 1
94 178 1
197 178 1
206 178 1
311 178 1
315 178 1
330 178 1
332 178 1
84 179 1
95 179 1
198 179 1
207 179 1
312 179 1
316 179 1
331 179 1
333 179 1
77 180 1
85 180 1
199 180 1
208 180 1
313 180 1
317 180 1
332 180 1
334 180 1
78 181 1
86 181 1
200 181 1
209 181 1
314 181 1
318 181 1
333 181 1
335 181 1
79 182 1
87 182 1
191 182 1
201 182 1
315 182 1
319 182 1
334 182 1
336 182 1
80 183 1
88 183 1
192 183 1
202 183 1
316 183 1
320 183 1
335 183 1
337 183 1
81 184 1
89 184 1
193 184 1
203 184 1
317 184 1
321 184 1
336 184 1
338 184 1
82 185 1
90 185 1
194 185 1
204 185 1
318 185 1
322 185 1
337 185 1
339 185 1
83 186 1
91 186 1
195 186 1
205 186 1
319 186 1
323 186 1
338 186 1
340 186 1
84 187 1
92 187 1
196 187 1
206 187 1
305 187 1
320 187 1
339 187 1
341 187 1
85 188 1
93 188 1
197 188 1
207 188 1
306 188 1
321 188 1
340 188 1
342 188 1
86 189 1
94 189 1
198 189 1
208 189 1
307 189 1
322 189 1
324 189 1
341 189 1
87 190 1
95 190 1
199 190 1
209 190 1
308 190 1
323 190 1
325 190 1
342 190 1
96 191 1
107 191 1
210 191 1
219 191 1
305 191 1
310 191 1
343 191 1
345 191 1
97 192 1
108 192 1
211 192 1
220 192 1
306 192 1
311 192 1
344 192 1
346 192 1
98 193 1
109 193 1
212 193 1
221 193 1
307 193 1
312 193 1
345 193 1
347 193 1
99 194 1
110 194 1
213 194 1
222 194 1
308 194 1
313 194 1
346 194 1
348 194 1
100 195 1
111 195 1
214 195 1
223 195 1
309 195 1
314 195 1
347 195 1
349 195 1
101 196 1
112 196 1
215 196 1
224 196 1
310 196 1
315 196 1
348 196 1
350 196 1
102 197 1
113 197 1
216 197 1
225 197 1
311 197 1
316 197 1
349 197 1
351 197 1
103 198 1
114 198 1
217 198 1
226 198 1
312 198 1
317 198 1
350 198 1
352 198 1
96 199 1
104 199 1
218 199 1
227 199 1
313 199 1
318 199 1
351 199 1
353 199 1
97 200 1
105 200 1
219 200 1
228 200 1
314 200 1
319 200 1
352 200 1
354 200 1
98 201 1
106 201 1
210 201 1
220 201 1
315 201 1
320 201 1
353 201 1
355 201 1
99 202 1
107 202 1
211 202 1
221 202 1
316 202 1
321 202 1
354 202 1
356 202 1
100 203 1
108 203 1
212 203 1
222 203 1
317 203 1
322 203 1
355 203 1
357 203 1
101 204 1
109 204 1
213 204 1
223 204 1
318 204 1
323 204 1
356 204 1
358 204 1
102 205 1
110 205 1
214 205 1
224 205 1
305 205 1
319 205 1
357 205 1
359 205 1
103 206 1
111 206 1
215 206 1
225 206 1
306 206 1
320 206 1
358 206 1
360 206 1
104 207 1
112 207 1
216 207 1
226 207 1
307 207 1
321 207 1
359 207 1
361 207 1
105 208 1
113 208 1
217 208 1
227 208 1
308 208 1
322 208 1
343 208 1
360 208 1
106 209 1
114 209 1
218 209 1
228 209 1
309 209 1
323 209 1
344 209 1
361 209 1
115 210 1
126 210 1
229 210 1
238 210 1
324 210 1
329 210 1
343 210 1
347 210 1
116 211 1
127 211 1
230 211 1
239 211 1
325 211 1
330 211 1
344 211 1
348 211 1
117 212 1
128 212 1
231 212 1
240 212 1
326 212 1
331 212 1
345 212 1
349 212 1
118 213 1
129 213 1
232 213 1
241 213 1
327 213 1
332 213 1
346 213 1
350 213 1
119 214 1
130 214 1
233 214 1
242 214 1
328 214 1
333 214 1
347 214 1
351 214 1
120 215 1
131 215 1
234 215 1
243 215 1
329 215 1
334 215 1
348 215 1
352 215 1
121 216 1
132 216 1
235 216 1
244 216 1
330 216 1
335 216 1
349 216 1
353 216 1
122 217 1
133 217 1
236 217 1
245 217 1
331 217 1
336 217 1
350 217 1
354 217 1
115 218 1
123 218 1
237 218 1
246 218 1
332 218 1
337 218 1
351 218 1
355 218 1
116 219 1
124 219 1
238 219 1
247 219 1
333 219 1
338 219 1
352 219 1
356 219 1
117 220 1
125 220 1
229 220 1
239 220 1
334 220 1
339 220 1
353 220 1
357 220 1
118 221 1
126 221 1
230 221 1
240 221 1
335 221 1
340 221 1
354 221 1
358 221 1
119 222 1
127 222 1
231 222 1
241 222 1
336 222 1
341 222 1
355 222 1
359 222 1
120 223 1
128 223 1
232 223 1
242 223 1
337 223 1
342 223 1
356 223 1
360 223 1
121 224 1
129 224 1
233 224 1
243 224 1
324 224 1
338 224 1
357 224 1
361 224 1
122 225 1
130 225 1
234 225 1
244 225 1
325 225 1
339 225 1
343 225 1
358 225 1
123 226 1
131 226 1
235 226 1
245 226 1
326 226 1
340 226 1
344 226 1
359 226 1
124 227 1
132 227 1
236 227 1
246 227 1
327 227 1
341 227 1
345 227 1
360 227 1
125 228 1
133 228 1
237 228 1
247 228 1
328 228 1
342 228 1
346 228 1
361 228 1
134 229 1
145 229 1
248 229 1
257 229 1
305 229 1
311 229 1
362 229 1
364 229 1
135 230 1
146 230 1
249 230 1
258 230 1
306 230 1
312 230 1
363 230 1
365 230 1
136 231 1
147 231 1
250 231 1
259 231 1
307 231 1
313 231 1
364 231 1
366 231 1
137 232 1
148 232 1
251 232 1
260 232 1
308 232 1
314 232 1
365 232 1
367 232 1
138 233 1
149 233 1
252 233 1
261 233 1
309 233 1
315 233 1
366 233 1
368 233 1
139 234 1
150 234 1
253 234 1
262 234 1
310 234 1
316 234 1
367 234 1
369 234 1
140 235 1
151 235 1
254 235 1
263 235 1
311 235 1
317 235 1
368 235 1
370 235 1
141 236 1
152 236 1
255 236 1
264 236 1
312 236 1
318 236 1
369 236 1
371 236 1
134 237 1
142 237 1
256 237 1
265 237 1
313 237 1
319 237 1
370 237 1
372 237 1
135 238 1
143 238 1
257 238 1
266 238 1
314 238 1
320 238 1
371 238 1
373 238 1
136 239 1
144 239 1
248 239 1
258 239 1
315 239 1
321 239 1
372 239 1
374 239 1
137 240 1
145 240 1
249 240 1
259 240 1
316 240 1
322 240 1
373 240 1
375 240 1
138 241 1
146 241 1
250 241 1
260 241 1
317 241 1
323 241 1
374 241 1
376 241 1
139 242 1
147 242 1
251 242 1
261 242 1
305 242 1
318 242 1
375 242 1
377 242 1
140 243 1
148 243 1
252 243 1
262 243 1
306 243 1
319 243 1
376 243 1
378 243 1
141 244 1
149 244 1
253 244 1
263 244 1
307 244 1
320 244 1
377 244 1
379 244 1
142 245 1
150 245 1
254 245 1
264 245 1
308 245 1
321 245 1
378 245 1
380 245 1
143 246 1
151 246 1
255 246 1
265 246 1
309 246 1
322 246 1
362 246 1
379 246 1
144 247 1
152 247 1
256 247 1
266 247 1
310 247 1
323 247 1
363 247 1
380 247 1
153 248 1
164 248 1
267 248 1
276 248 1
324 248 1
330 248 1
362 248 1
366 248 1
154 249 1
165 249 1
268 249 1
277 249 1
325 249 1
331 249 1
363 249 1
367 249 1
155 250 1
166 250 1
269 250 1
278 250 1
326 250 1
332 250 1
364 250 1
368 250 1
156 251 1
167 251 1
270 251 1
279 251 1
327 251 1
333 251 1
365 251 1
369 251 1
157 252 1
168 252 1
271 252 1
280 252 1
328 252 1
334 252 1
366 252 1
370 252 1
158 253 1
169 253 1
272 253 1
281 253 1
329 253 1
335 253 1
367 253 1
371 253 1
159 254 1
170 254 1
273 254 1
282 254 1
330 254 1
336 254 1
368 254 1
372 254 1
160 255 1
171 255 1
274 255 1
283 255 1
331 255 1
337 255 1
369 255 1
373 255 1
153 256 1
161 256 1
275 256 1
284 256 1
332 256 1
338 256 1
370 256 1
374 256 1
154 257 1
162 257 1
276 257 1
285 257 1
333 257 1
339 257 1
371 257 1
375 257 1
155 258 1
163 258 1
267 258 1
277 258 1
334 258 1
340 258 1
372 258 1
376 258 1
156 259 1
164 259 1
268 259 1
278 259 1
335 259 1
341 259 1
373 259 1
377 259 1
157 260 1
165 260 1
269 260 1
279 260 1
336 260 1
342 260 1
374 260 1
378 260 1
158 261 1
166 261 1
270 261 1
280 261 1
324 261 1
337 261 1
375 261 1
379 261 1
159 262 1
167 262 1
271 262 1
281 262 1
325 262 1
338 262 1
376 262 1
380 262 1
160 263 1
168 263 1
272 263 1
282 263 1
326 263 1
339 263 1
362 263 1
377 263 1
161 264 1
169 264 1
273 264 1
283 264 1
327 264 1
340 264 1
363 264 1
378 264 1
162 265 1
170 265 1
274 265 1
284 265 1
328 265 1
341 265 1
364 265 1
379 265 1
163 266 1
171 266 1
275 266 1
285 266 1
329 266 1
342 266 1
365 266 1
380 266 1
172 267 1
183 267 1
286 267 1
295 267 1
343 267 1
349 267 1
362 267 1
367 267 1
173 268 1
184 268 1
287 268 1
296 268 1
344 268 1
350 268 1
363 268 1
368 268 1
174 269 1
185 269 1
288 269 1
297 269 1
345 269 1
351 269 1
364 269 1
369 269 1
175 270 1
186 270 1
289 270 1
298 270 1
346 270 1
352 270 1
365 270 1
370 270 1
176 271 1
187 271 1
290 271 1
299 271 1
347 271 1
353 271 1
366 271 1
371 271 1
177 272 1
188 272 1
291 272 1
300 272 1
348 272 1
354 272 1
367 272 1
372 272 1
178 273 1
189 273 1
292 273 1
301 273 1
349 273 1
355 273 1
368 273 1
373 273 1
179 274 1
190 274 1
293 274 1
302 274 1
350 274 1
356 274 1
369 274 1
374 274 1
172 275 1
180 275 1
294 275 1
303 275 1
351 275 1
357 275 1
370 275 1
375 275 1
173 276 1
181 276 1
295 276 1
304 276 1
352 276 1
358 276 1
371 276 1
376 276 1
174 277 1
182 277 1
286 277 1
296 277 1
353 277 1
359 277 1
372 277 1
377 277 1
175 278 1
183 278 1
287 278 1
297 278 1
354 278 1
360 278 1
373 278 1
378 278 1
176 279 1
184 279 1
288 279 1
298 279 1
355 279 1
361 279 1
374 279 1
379 279 1
177 280 1
185 280 1
289 280 1
299 280 1
343 280 1
356 280 1
375 280 1
380 280 1
178 281 1
186 281 1
290 281 1
300 281 1
344 281 1
357 281 1
362 281 1
376 281 1
179 282 1
187 282 1
291 282 1
301 282 1
345 282 1
358 282 1
363 282 1
377 282 1
180 283 1
188 283 1
292 283 1
302 283 1
346 283 1
359 283 1
364 283 1
378 283 1
181 284 1
189 284 1
293 284 1
303 284 1
347 284 1
360 284 1
365 284 1
379 284 1
182 285 1
190 285 1
294 285 1
304 285 1
348 285 1
361 285 1
366 285 1
380 285 1
1 286 1
14 286 1
381 286 1
386 286 1
400 286 1
404 286 1
419 286 1
421 286 1
2 287 1
15 287 1
382 287 1
387 287 1
401 287 1
405 287 1
420 287 1
422 287 1
3 288 1
16 288 1
383 288 1
388 288 1
402 288 1
406 288 1
421 288 1
423 288 1
4 289 1
17 289 1
384 289 1
389 289 1
403 289 1
407 289 1
422 289 1
424 289 1
5 290 1
18 290 1
385 290 1
390 290 1
404 290 1
408 290 1
423 290 1
425 290 1
6 291 1
19 291 1
386 291 1
391 291 1
405 291 1
409 291 1
424 291 1
426 291 1
1 292 1
7 292 1
387 292 1
392 292 1
406 292 1
410 292 1
425 292 1
427 292 1
2 293 1
8 293 1
388 293 1
393 293 1
407 293 1
411 293 1
426 293 1
428 293 1
3 294 1
9 294 1
389 294 1
394 294 1
408 294 1
412 294 1
427 294 1
429 294 1
4 295 1
10 295 1
390 295 1
395 295 1
409 295 1
413 295 1
428 295 1
430 295 1
5 296 1
11 296 1
391 296 1
396 296 1
410 296 1
414 296 1
429 296 1
431 296 1
6 297 1
12 297 1
392 297 1
397 297 1
411 297 1
415 297 1
430 297 1
432 297 1
7 298 1
13 298 1
393 298 1
398 298 1
412 298 1
416 298 1
431 298 1
433 298 1
8 299 1
14 299 1
394 299 1
399 299 1
413 299 1
417 299 1
432 299 1
434 299 1
9 300 1
15 300 1
381 300 1
395 300 1
414 300 1
418 300 1
433 300 1
435 300 1
10 301 1
16 301 1
382 301 1
396 301 1
400 301 1
415 301 1
434 301 1
436 301 1
11 302 1
17 302 1
383 302 1
397 302 1
401 302 1
416 302 1
435 302 1
437 302 1
12 303 1
18 303 1
384 303 1
398 303 1
402 303 1
417 303 1
419 303 1
436 303 1
13 304 1
19 304 1
385 304 1
399 304 1
403 304 1
418 304 1
420 304 1
437 304 1
20 305 1
33 305 1
381 305 1
387 305 1
438 305 1
442 305 1
457 305 1
459 305 1
21 306 1
34 306 1
382 306 1
388 306 1
439 306 1
443 306 1
458 306 1
460 306 1
22 307 1
35 307 1
383 307 1
389 307 1
440 307 1
444 307 1
459 307 1
461 307 1
23 308 1
36 308 1
384 308 1
390 308 1
441 308 1
445 308 1
460 308 1
462 308 1
24 309 1
37 309 1
385 309 1
391 309 1
442 309 1
446 309 1
461 309 1
463 309 1
25 310 1
38 310 1
386 310 1
392 310 1
443 310 1
447 310 1
462 310 1
464 310 1
20 311 1
26 311 1
387 311 1
393 311 1
444 311 1
448 311 1
463 311 1
465 311 1
21 312 1
27 312 1
388 312 1
394 312 1
445 312 1
449 312 1
464 312 1
466 312 1
22 313 1
28 313 1
389 313 1
395 313 1
446 313 1
450 313 1
465 313 1
467 313 1
23 314 1
29 314 1
390 314 1
396 314 1
447 314 1
451 314 1
466 314 1
468 314 1
24 315 1
30 315 1
391 315 1
397 315 1
448 315 1
452 315 1
467 315 1
469 315 1
25 316 1
31 316 1
392 316 1
398 316 1
449 316 1
453 316 1
468 316 1
470 316 1
26 317 1
32 317 1
393 317 1
399 317 1
450 317 1
454 317 1
469 317 1
471 317 1
27 318 1
33 318 1
381 318 1
394 318 1
451 318 1
455 318 1
470 318 1
472 318 1
28 319 1
34 319 1
382 319 1
395 319 1
452 319 1
456 319 1
471 319 1
473 319 1
29 320 1
35 320 1
383 320 1
396 320 1
438 320 1
453 320 1
472 320 1
474 320 1
30 321 1
36 321 1
384 321 1
397 321 1
439 321 1
454 321 1
473 321 1
475 321 1
31 322 1
37 322 1
385 322 1
398 322 1
440 322 1
455 322 1
457 322 1
474 322 1
32 323 1
38 323 1
386 323 1
399 323 1
441 323 1
456 323 1
458 323 1
475 323 1
39 324 1
52 324 1
400 324 1
406 324 1
438 324 1
443 324 1
476 324 1
478 324 1
40 325 1
53 325 1
401 325 1
407 325 1
439 325 1
444 325 1
477 325 1
479 325 1
41 326 1
54 326 1
402 326 1
408 326 1
440 326 1
445 326 1
478 326 1
480 326 1
42 327 1
55 327 1
403 327 1
409 327 1
441 327 1
446 327 1
479 327 1
481 327 1
43 328 1
56 328 1
404 328 1
410 328 1
442 328 1
447 328 1
480 328 1
482 328 1
44 329 1
57 329 1
405 329 1
411 329 1
443 329 1
448 329 1
481 329 1
483 329 1
39 330 1
45 330 1
406 330 1
412 330 1
444 330 1
449 330 1
482 330 1
484 330 1
40 331 1
46 331 1
407 331 1
413 331 1
445 331 1
450 331 1
483 331 1
485 331 1
41 332 1
47 332 1
408 332 1
414 332 1
446 332 1
451 332 1
484 332 1
486 332 1
42 333 1
48 333 1
409 333 1
415 333 1
447 333 1
452 333 1
485 333 1
487 333 1
43 334 1
49 334 1
410 334 1
416 334 1
448 334 1
453 334 1
486 334 1
488 334 1
44 335 1
50 335 1
411 335 1
417 335 1
449 335 1
454 335 1
487 335 1
489 335 1
45 336 1
51 336 1
412 336 1
418 336 1
450 336 1
455 336 1
488 336 1
490 336 1
46 337 1
52 337 1
400 337 1
413 337 1
451 337 1
456 337 1
489 337 1
491 337 1
47 338 1
53 338 1
401 338 1
414 338 1
438 338 1
452 338 1
490 338 1
492 338 1
48 339 1
54 339 1
402 339 1
415 339 1
439 339 1
453 339 1
491 339 1
493 339 1
49 340 1
55 340 1
403 340 1
416 340 1
440 340 1
454 340 1
492 340 1
494 340 1
50 341 1
56 341 1
404 341 1
417 341 1
441 341 1
455 341 1
476 341 1
493 341 1
51 342 1
57 342 1
405 342 1
418 342 1
442 342 1
456 342 1
477 342 1
494 342 1
58 343 1
71 343 1
419 343 1
425 343 1
457 343 1
462 343 1
476 343 1
480 343 1
59 344 1
72 344 1
420 344 1
426 344 1
458 344 1
463 344 1
477 344 1
481 344 1
60 345 1
73 345 1
421 345 1
427 345 1
459 345 1
464 345 1
478 345 1
482 345 1
61 346 1
74 346 1
422 346 1
428 346 1
460 346 1
465 346 1
479 346 1
483 346 1
62 347 1
75 347 1
423 347 1
429 347 1
461 347 1
466 347 1
480 347 1
484 347 1
63 348 1
76 348 1
424 348 1
430 348 1
462 348 1
467 348 1
481 348 1
485 348 1
58 349 1
64 349 1
425 349 1
431 349 1
463 349 1
468 349 1
482 349 1
486 349 1
59 350 1
65 350 1
426 350 1
432 350 1
464 350 1
469 350 1
483 350 1
487 350 1
60 351 1
66 351 1
427 351 1
433 351 1
465 351 1
470 351 1
484 351 1
488 351 1
61 352 1
67 352 1
428 352 1
434 352 1
466 352 1
471 352 1
485 352 1
489 352 1
62 353 1
68 353 1
429 353 1
435 353 1
467 353 1
472 353 1
486 353 1
490 353 1
63 354 1
69 354 1
430 354 1
436 354 1
468 354 1
473 354 1
487 354 1
491 354 1
64 355 1
70 355 1
431 355 1
437 355 1
469 355 1
474 355 1
488 355 1
492 355 1
65 356 1
71 356 1
419 356 1
432 356 1
470 356 1
475 356 1
489 356 1
493 356 1
66 357 1
72 357 1
420 357 1
433 357 1
457 357 1
471 357 1
490 357 1
494 357 1
67 358 1
73 358 1
421 358 1
434 358 1
458 358 1
472 358 1
476 358 1
491 358 1
68 359 1
74 359 1
422 359 1
435 359 1
459 359 1
473 359 1
477 359 1
492 359 1
69 360 1
75 360 1
423 360 1
436 360 1
460 360 1
474 360 1
478 360 1
493 360 1
70 361 1
76 361 1
424 361 1
437 361 1
461 361 1
475 361 1
479 361 1
494 361 1
77 362 1
90 362 1
381 362 1
390 362 1
495 362 1
499 362 1
514 362 1
516 362 1
78 363 1
91 363 1
382 363 1
391 363 1
496 363 1
500 363 1
515 363 1
517 363 1
79 364 1
92 364 1
383 364 1
392 364 1
497 364 1
501 364 1
516 364 1
518 364 1
80 365 1
93 365 1
384 365 1
393 365 1
498 365 1
502 365 1
517 365 1
519 365 1
81 366 1
94 366 1
385 366 1
394 366 1
499 366 1
503 366 1
518 366 1
520 366 1
82 367 1
95 367 1
386 367 1
395 367 1
500 367 1
504 367 1
519 367 1
521 367 1
77 368 1
83 368 1
387 368 1
396 368 1
501 368 1
505 368 1
520 368 1
522 368 1
78 369 1
84 369 1
388 369 1
397 369 1
502 369 1
506 369 1
521 369 1
523 369 1
79 370 1
85 370 1
389 370 1
398 370 1
503 370 1
507 370 1
522 370 1
524 370 1
80 371 1
86 371 1
390 371 1
399 371 1
504 371 1
508 371 1
523 371 1
525 371 1
81 372 1
87 372 1
381 372 1
391 372 1
505 372 1
509 372 1
524 372 1
526 372 1
82 373 1
88 373 1
382 373 1
392 373 1
506 373 1
510 373 1
525 373 1
527 373 1
83 374 1
89 374 1
383 374 1
393 374 1
507 374 1
511 374 1
526 374 1
528 374 1
84 375 1
90 375 1
384 375 1
394 375 1
508 375 1
512 375 1
527 375 1
529 375 1
85 376 1
91 376 1
385 376 1
395 376 1
509 376 1
513 376 1
528 376 1
530 376 1
86 377 1
92 377 1
386 377 1
396 377 1
495 377 1
510 377 1
529 377 1
531 377 1
87 378 1
93 378 1
387 378 1
397 378 1
496 378 1
511 378 1
530 378 1
532 378 1
88 379 1
94 379 1
388 379 1
398 379 1
497 379 1
512 379 1
514 379 1
531 379 1
89 380 1
95 380 1
389 380 1
399 380 1
498 380 1
513 380 1
515 380 1
532 380 1
96 381 1
109 381 1
400 381 1
409 381 1
495 381 1
500 381 1
533 381 1
535 381 1
97 382 1
110 382 1
401 382 1
410 382 1
496 382 1
501 382 1
534 382 1
536 382 1
98 383 1
111 383 1
402 383 1
411 383 1
497 383 1
502 383 1
535 383 1
537 383 1
99 384 1
112 384 1
403 384 1
412 384 1
498 384 1
503 384 1
536 384 1
538 384 1
100 385 1
113 385 1
404 385 1
413 385 1
499 385 1
504 385 1
537 385 1
539 385 1
101 386 1
114 386 1
405 386 1
414 386 1
500 386 1
505 386 1
538 386 1
540 386 1
96 387 1
102 387 1
406 387 1
415 387 1
501 387 1
506 387 1
539 387 1
541 387 1
97 388 1
103 388 1
407 388 1
416 388 1
502 388 1
507 388 1
540 388 1
542 388 1
98 389 1
104 389 1
408 389 1
417 389 1
503 389 1
508 389 1
541 389 1
543 389 1
99 390 1
105 390 1
409 390 1
418 390 1
504 390 1
509 390 1
542 390 1
544 390 1
100 391 1
106 391 1
400 391 1
410 391 1
505 391 1
510 391 1
543 391 1
545 391 1
101 392 1
107 392 1
401 392 1
411 392 1
506 392 1
511 392 1
544 392 1
546 392 1
102 393 1
108 393 1
402 393 1
412 393 1
507 393 1
512 393 1
545 393 1
547 393 1
103 394 1
109 394 1
403 394 1
413 394 1
508 394 1
513 394 1
546 394 1
548 394 1
104 395 1
110 395 1
404 395 1
414 395 1
495 395 1
509 395 1
547 395 1
549 395 1
105 396 1
111 396 1
405 396 1
415 396 1
496 396 1
510 396 1
548 396 1
550 396 1
106 397 1
112 397 1
406 397 1
416 397 1
497 397 1
511 397 1
549 397 1
551 397 1
107 398 1
113 398 1
407 398 1
417 398 1
498 398 1
512 398 1
533 398 1
550 398 1
108 399 1
114 399 1
408 399 1
418 399 1
499 399 1
513 399 1
534 399 1
551 399 1
115 400 1
128 400 1
419 400 1
428 400 1
514 400 1
519 400 1
533 400 1
537 400 1
116 401 1
129 401 1
420 401 1
429 401 1
515 401 1
520 401 1
534 401 1
538 401 1
117 402 1
130 402 1
421 402 1
430 402 1
516 402 1
521 402 1
535 402 1
539 402 1
118 403 1
131 403 1
422 403 1
431 403 1
517 403 1
522 403 1
536 403 1
540 403 1
119 404 1
132 404 1
423 404 1
432 404 1
518 404 1
523 404 1
537 404 1
541 404 1
120 405 1
133 405 1
424 405 1
433 405 1
519 405 1
524 405 1
538 405 1
542 405 1
115 406 1
121 406 1
425 406 1
434 406 1
520 406 1
525 406 1
539 406 1
543 406 1
116 407 1
122 407 1
426 407 1
435 407 1
521 407 1
526 407 1
540 407 1
544 407 1
117 408 1
123 408 1
427 408 1
436 408 1
522 408 1
527 408 1
541 408 1
545 408 1
118 409 1
124 409 1
428 409 1
437 409 1
523 409 1
528 409 1
542 409 1
546 409 1
119 410 1
125 410 1
419 410 1
429 410 1
524 410 1
529 410 1
543 410 1
547 410 1
120 411 1
126 411 1
420 411 1
430 411 1
525 411 1
530 411 1
544 411 1
548 411 1
121 412 1
127 412 1
421 412 1
431 412 1
526 412 1
531 412 1
545 412 1
549 412 1
122 413 1
128 413 1
422 413 1
432 413 1
527 413 1
532 413 1
546 413 1
550 413 1
123 414 1
129 414 1
423 414 1
433 414 1
514 414 1
528 414 1
547 414 1
551 414 1
124 415 1
130 415 1
424 415 1
434 415 1
515 415 1
529 415 1
533 415 1
548 415 1
125 416 1
131 416 1
425 416 1
435 416 1
516 416 1
530 416 1
534 416 1
549 416 1
126 417 1
132 417 1
426 417 1
436 417 1
517 417 1
531 417 1
535 417 1
550 417 1
127 418 1
133 418 1
427 418 1
437 418 1
518 418 1
532 418 1
536 418 1
551 418 1
134 419 1
147 419 1
438 419 1
447 419 1
495 419 1
501 419 1
552 419 1
554 419 1
135 420 1
148 420 1
439 420 1
448 420 1
496 420 1
502 420 1
553 420 1
555 420 1
136 421 1
149 421 1
440 421 1
449 421 1
497 421 1
503 421 1
554 421 1
556 421 1
137 422 1
150 422 1
441 422 1
450 422 1
498 422 1
504 422 1
555 422 1
557 422 1
138 423 1
151 423 1
442 423 1
451 423 1
499 423 1
505 423 1
556 423 1
558 423 1
139 424 1
152 424 1
443 424 1
452 424 1
500 424 1
506 424 1
557 424 1
559 424 1
134 425 1
140 425 1
444 425 1
453 425 1
501 425 1
507 425 1
558 425 1
560 425 1
135 426 1
141 426 1
445 426 1
454 426 1
502 426 1
508 426 1
559 426 1
561 426 1
136 427 1
142 427 1
446 427 1
455 427 1
503 427 1
509 427 1
560 427 1
562 427 1
137 428 1
143 428 1
447 428 1
456 428 1
504 428 1
510 428 1
561 428 1
563 428 1
138 429 1
144 429 1
438 429 1
448 429 1
505 429 1
511 429 1
562 429 1
564 429 1
139 430 1
145 430 1
439 430 1
449 430 1
506 430 1
512 430 1
563 430 1
565 430 1
140 431 1
146 431 1
440 431 1
450 431 1
507 431 1
513 431 1
564 431 1
566 431 1
141 432 1
147 432 1
441 432 1
451 432 1
495 432 1
508 432 1
565 432 1
567 432 1
142 433 1
148 433 1
442 433 1
452 433 1
496 433 1
509 433 1
566 433 1
568 433 1
143 434 1
149 434 1
443 434 1
453 434 1
497 434 1
510 434 1
567 434 1
569 434 1
144 435 1
150 435 1
444 435 1
454 435 1
498 435 1
511 435 1
568 435 1
570 435 1
145 436 1
151 436 1
445 436 1
455 436 1
499 436 1
512 436 1
552 436 1
569 436 1
146 437 1
152 437 1
446 437 1
456 437 1
500 437 1
513 437 1
553 437 1
570 437 1
153 438 1
166 438 1
457 438 1
466 438 1
514 438 1
520 438 1
552 438 1
556 438 1
154 439 1
167 439 1
458 439 1
467 439 1
515 439 1
521 439 1
553 439 1
557 439 1
155 440 1
168 440 1
459 440 1
468 440 1
516 440 1
522 440 1
554 440 1
558 440 1
156 441 1
169 441 1
460 441 1
469 441 1
517 441 1
523 441 1
555 441 1
559 441 1
157 442 1
170 442 1
461 442 1
470 442 1
518 442 1
524 442 1
556 442 1
560 442 1
158 443 1
171 443 1
462 443 1
471 443 1
519 443 1
525 443 1
557 443 1
561 443 1
153 444 1
159 444 1
463 444 1
472 444 1
520 444 1
526 444 1
558 444 1
562 444 1
154 445 1
160 445 1
464 445 1
473 445 1
521 445 1
527 445 1
559 445 1
563 445 1
155 446 1
161 446 1
465 446 1
474 446 1
522 446 1
528 446 1
560 446 1
564 446 1
156 447 1
162 447 1
466 447 1
475 447 1
523 447 1
529 447 1
561 447 1
565 447 1
157 448 1
163 448 1
457 448 1
467 448 1
524 448 1
530 448 1
562 448 1
566 448 1
158 449 1
164 449 1
458 449 1
468 449 1
525 449 1
531 449 1
563 449 1
567 449 1
159 450 1
165 450 1
459 450 1
469 450 1
526 450 1
532 450 1
564 450 1
568 450 1
160 451 1
166 451 1
460 451 1
470 451 1
514 451 1
527 451 1
565 451 1
569 451 1
161 452 1
167 452 1
461 452 1
471 452 1
515 452 1
528 452 1
566 452 1
570 452 1
162 453 1
168 453 1
462 453 1
472 453 1
516 453 1
529 453 1
552 453 1
567 453 1
163 454 1
169 454 1
463 454 1
473 454 1
517 454 1
530 454 1
553 454 1
568 454 1
164 455 1
170 455 1
464 455 1
474 455 1
518 455 1
531 455 1
554 455 1
569 455 1
165 456 1
171 456 1
465 456 1
475 456 1
519 456 1
532 456 1
555 456 1
570 456 1
172 457 1
185 457 1
476 457 1
485 457 1
533 457 1
539 457 1
552 457 1
557 457 1
173 458 1
186 458 1
477 458 1
486 458 1
534 458 1
540 458 1
553 458 1
558 458 1
174 459 1
187 459 1
478 459 1
487 459 1
535 459 1
541 459 1
554 459 1
559 459 1
175 460 1
188 460 1
479 460 1
488 460 1
536 460 1
542 460 1
555 460 1
560 460 1
176 461 1
189 461 1
480 461 1
489 461 1
537 461 1
543 461 1
556 461 1
561 461 1
177 462 1
190 462 1
481 462 1
490 462 1
538 462 1
544 462 1
557 462 1
562 462 1
172 463 1
178 463 1
482 463 1
491 463 1
539 463 1
545 463 1
558 463 1
563 463 1
173 464 1
179 464 1
483 464 1
492 464 1
540 464 1
546 464 1
559 464 1
564 464 1
174 465 1
180 465 1
484 465 1
493 465 1
541 465 1
547 465 1
560 465 1
565 465 1
175 466 1
181 466 1
485 466 1
494 466 1
542 466 1
548 466 1
561 466 1
566 466 1
176 467 1
182 467 1
476 467 1
486 467 1
543 467 1
549 467 1
562 467 1
567 467 1
177 468 1
183 468 1
477 468 1
487 468 1
544 468 1
550 468 1
563 468 1
568 468 1
178 469 1
184 469 1
478 469 1
488 469 1
545 469 1
551 469 1
564 469 1
569 469 1
179 470 1
185 470 1
479 470 1
489 470 1
533 470 1
546 470 1
565 470 1
570 470 1
180 471 1
186 471 1
480 471 1
490 471 1
534 471 1
547 471 1
552 471 1
566 471 1
181 472 1
187 472 1
481 472 1
491 472 1
535 472 1
548 472 1
553 472 1
567 472 1
182 473 1
188 473 1
482 473 1
492 473 1
536 473 1
549 473 1
554 473 1
568 473 1
183 474 1
189 474 1
483 474 1
493 474 1
537 474 1
550 474 1
555 474 1
569 474 1
184 475 1
190 475 1
484 475 1
494 475 1
538 475 1
551 475 1
556 475 1
570 475 1
191 476 1
204 476 1
381 476 1
392 476 1
571 476 1
575 476 1
590 476 1
592 476 1
192 477 1
205 477 1
382 477 1
393 477 1
572 477 1
576 477 1
591 477 1
593 477 1
193 478 1
206 478 1
383 478 1
394 478 1
573 478 1
577 478 1
592 478 1
594 478 1
194 479 1
207 479 1
384 479 1
395 479 1
574 479 1
578 479 1
593 479 1
595 479 1
195 480 1
208 480 1
385 480 1
396 480 1
575 480 1
579 480 1
594 480 1
596 480 1
196 481 1
209 481 1
386 481 1
397 481 1
576 481 1
580 481 1
595 481 1
597 481 1
191 482 1
197 482 1
387 482 1
398 482 1
577 482 1
581 482 1
596 482 1
598 482 1
192 483 1
198 483 1
388 483 1
399 483 1
578 483 1
582 483 1
597 483 1
599 483 1
193 484 1
199 484 1
381 484 1
389 484 1
579 484 1
583 484 1
598 484 1
600 484 1
194 485 1
200 485 1
382 485 1
390 485 1
580 485 1
584 485 1
599 485 1
601 485 1
195 486 1
201 486 1
383 486 1
391 486 1
581 486 1
585 486 1
600 486 1
602 486 1
196 487 1
202 487 1
384 487 1
392 487 1
582 487 1
586 487 1
601 487 1
603 487 1
197 488 1
203 488 1
385 488 1
393 488 1
583 488 1
587 488 1
602 488 1
604 488 1
198 489 1
204 489 1
386 489 1
394 489 1
584 489 1
588 489 1
603 489 1
605 489 1
199 490 1
205 490 1
387 490 1
395 490 1
585 490 1
589 490 1
604 490 1
606 490 1
200 491 1
206 491 1
388 491 1
396 491 1
571 491 1
586 491 1
605 491 1
607 491 1
201 492 1
207 492 1
389 492 1
397 492 1
572 492 1
587 492 1
606 492 1
608 492 1
202 493 1
208 493 1
390 493 1
398 493 1
573 493 1
588 493 1
590 493 1
607 493 1
203 494 1
209 494 1
391 494 1
399 494 1
574 494 1
589 494 1
591 494 1
608 494 1
210 495 1
223 495 1
400 495 1
411 495 1
571 495 1
576 495 1
609 495 1
611 495 1
211 496 1
224 496 1
401 496 1
412 496 1
572 496 1
577 496 1
610 496 1
612 496 1
212 497 1
225 497 1
402 497 1
413 497 1
573 497 1
578 497 1
611 497 1
613 497 1
213 498 1
226 498 1
403 498 1
414 498 1
574 498 1
579 498 1
612 498 1
614 498 1
214 499 1
227 499 1
404 499 1
415 499 1
575 499 1
580 499 1
613 499 1
615 499 1
215 500 1
228 500 1
405 500 1
416 500 1
576 500 1
581 500 1
614 500 1
616 500 1
210 501 1
216 501 1
406 501 1
417 501 1
577 501 1
582 501 1
615 501 1
617 501 1
211 502 1
217 502 1
407 502 1
418 502 1
578 502 1
583 502 1
616 502 1
618 502 1
212 503 1
218 503 1
400 503 1
408 503 1
579 503 1
584 503 1
617 503 1
619 503 1
213 504 1
219 504 1
401 504 1
409 504 1
580 504 1
585 504 1
618 504 1
620 504 1
214 505 1
220 505 1
402 505 1
410 505 1
581 505 1
586 505 1
619 505 1
621 505 1
215 506 1
221 506 1
403 506 1
411 506 1
582 506 1
587 506 1
620 506 1
622 506 1
216 507 1
222 507 1
404 507 1
412 507 1
583 507 1
588 507 1
621 507 1
623 507 1
217 508 1
223 508 1
405 508 1
413 508 1
584 508 1
589 508 1
622 508 1
624 508 1
218 509 1
224 509 1
406 509 1
414 509 1
571 509 1
585 509 1
623 509 1
625 509 1
219 510 1
225 510 1
407 510 1
415 510 1
572 510 1
586 510 1
624 510 1
626 510 1
220 511 1
226 511 1
408 511 1
416 511 1
573 511 1
587 511 1
625 511 1
627 511 1
221 512 1
227 512 1
409 512 1
417 512 1
574 512 1
588 512 1
609 512 1
626 512 1
222 513 1
228 513 1
410 513 1
418 513 1
575 513 1
589 513 1
610 513 1
627 513 1
229 514 1
242 514 1
419 514 1
430 514 1
590 514 1
595 514 1
609 514 1
613 514 1
230 515 1
243 515 1
420 515 1
431 515 1
591 515 1
596 515 1
610 515 1
614 515 1
231 516 1
244 516 1
421 516 1
432 516 1
592 516 1
597 516 1
611 516 1
615 516 1
232 517 1
245 517 1
422 517 1
433 517 1
593 517 1
598 517 1
612 517 1
616 517 1
233 518 1
246 518 1
423 518 1
434 518 1
594 518 1
599 518 1
613 518 1
617 518 1
234 519 1
247 519 1
424 519 1
435 519 1
595 519 1
600 519 1
614 519 1
618 519 1
229 520 1
235 520 1
425 520 1
436 520 1
596 520 1
601 520 1
615 520 1
619 520 1
230 521 1
236 521 1
426 521 1
437 521 1
597 521 1
602 521 1
616 521 1
620 521 1
231 522 1
237 522 1
419 522 1
427 522 1
598 522 1
603 522 1
617 522 1
621 522 1
232 523 1
238 523 1
420 523 1
428 523 1
599 523 1
604 523 1
618 523 1
622 523 1
233 524 1
239 524 1
421 524 1
429 524 1
600 524 1
605 524 1
619 524 1
623 524 1
234 525 1
240 525 1
422 525 1
430 525 1
601 525 1
606 525 1
620 525 1
624 525 1
235 526 1
241 526 1
423 526 1
431 526 1
602 526 1
607 526 1
621 526 1
625 526 1
236 527 1
242 527 1
424 527 1
432 527 1
603 527 1
608 527 1
622 527 1
626 527 1
237 528 1
243 528 1
425 528 1
433 528 1
590 528 1
604 528 1
623 528 1
627 528 1
238 529 1
244 529 1
426 529 1
434 529 1
591 529 1
605 529 1
609 529 1
624 529 1
239 530 1
245 530 1
427 530 1
435 530 1
592 530 1
606 530 1
610 530 1
625 530 1
240 531 1
246 531 1
428 531 1
436 531 1
593 531 1
607 531 1
611 531 1
626 531 1
241 532 1
247 532 1
429 532 1
437 532 1
594 532 1
608 532 1
612 532 1
627 532 1
248 533 1
261 533 1
438 533 1
449 533 1
571 533 1
577 533 1
628 533 1
630 533 1
249 534 1
262 534 1
439 534 1
450 534 1
572 534 1
578 534 1
629 534 1
631 534 1
250 535 1
263 535 1
440 535 1
451 535 1
573 535 1
579 535 1
630 535 1
632 535 1
251 536 1
264 536 1
441 536 1
452 536 1
574 536 1
580 536 1
631 536 1
633 536 1
252 537 1
265 537 1
442 537 1
453 537 1
575 537 1
581 537 1
632 537 1
634 537 1
253 538 1
266 538 1
443 538 1
454 538 1
576 538 1
582 538 1
633 538 1
635 538 1
248 539 1
254 539 1
444 539 1
455 539 1
577 539 1
583 539 1
634 539 1
636 539 1
249 540 1
255 540 1
445 540 1
456 540 1
578 540 1
584 540 1
635 540 1
637 540 1
250 541 1
256 541 1
438 541 1
446 541 1
579 541 1
585 541 1
636 541 1
638 541 1
251 542 1
257 542 1
439 542 1
447 542 1
580 542 1
586 542 1
637 542 1
639 542 1
252 543 1
258 543 1
440 543 1
448 543 1
581 543 1
587 543 1
638 543 1
640 543 1
253 544 1
259 544 1
441 544 1
449 544 1
582 544 1
588 544 1
639 544 1
641 544 1
254 545 1
260 545 1
442 545 1
450 545 1
583 545 1
589 545 1
640 545 1
642 545 1
255 546 1
261 546 1
443 546 1
451 546 1
571 546 1
584 546 1
641 546 1
643 546 1
256 547 1
262 547 1
444 547 1
452 547 1
572 547 1
585 547 1
642 547 1
644 547 1
257 548 1
263 548 1
445 548 1
453 548 1
573 548 1
586 548 1
643 548 1
645 548 1
258 549 1
264 549 1
446 549 1
454 549 1
574 549 1
587 549 1
644 549 1
646 549 1
259 550 1
265 550 1
447 550 1
455 550 1
575 550 1
588 550 1
628 550 1
645 550 1
260 551 1
266 551 1
448 551 1
456 551 1
576 551 1
589 551 1
629 551 1
646 551 1
267 552 1
280 552 1
457 552 1
468 552 1
590 552 1
596 552 1
628 552 1
632 552 1
268 553 1
281 553 1
458 553 1
469 553 1
591 553 1
597 553 1
629 553 1
633 553 1
269 554 1
282 554 1
459 554 1
470 554 1
592 554 1
598 554 1
630 554 1
634 554 1
270 555 1
283 555 1
460 555 1
471 555 1
593 555 1
599 555 1
631 555 1
635 555 1
271 556 1
284 556 1
461 556 1
472 556 1
594 556 1
600 556 1
632 556 1
636 556 1
272 557 1
285 557 1
462 557 1
473 557 1
595 557 1
601 557 1
633 557 1
637 557 1
267 558 1
273 558 1
463 558 1
474 558 1
596 558 1
602 558 1
634 558 1
638 558 1
268 559 1
274 559 1
464 559 1
475 559 1
597 559 1
603 559 1
635 559 1
639 559 1
269 560 1
275 560 1
457 560 1
465 560 1
598 560 1
604 560 1
636 560 1
640 560 1
270 561 1
276 561 1
458 561 1
466 561 1
599 561 1
605 561 1
637 561 1
641 561 1
271 562 1
277 562 1
459 562 1
467 562 1
600 562 1
606 562 1
638 562 1
642 562 1
272 563 1
278 563 1
460 563 1
468 563 1
601 563 1
607 563 1
639 563 1
643 563 1
273 564 1
279 564 1
461 564 1
469 564 1
602 564 1
608 564 1
640 564 1
644 564 1
274 565 1
280 565 1
462 565 1
470 565 1
590 565 1
603 565 1
641 565 1
645 565 1
275 566 1
281 566 1
463 566 1
471 566 1
591 566 1
604 566 1
642 566 1
646 566 1
276 567 1
282 567 1
464 567 1
472 567 1
592 567 1
605 567 1
628 567 1
643 567 1
277 568 1
283 568 1
465 568 1
473 568 1
593 568 1
606 568 1
629 568 1
644 568 1
278 569 1
284 569 1
466 569 1
474 569 1
594 569 1
607 569 1
630 569 1
645 569 1
279 570 1
285 570 1
467 570 1
475 570 1
595 570 1
608 570 1
631 570 1
646 570 1
286 571 1
299 571 1
476 571 1
487 571 1
609 571 1
615 571 1
628 571 1
633 571 1
287 572 1
300 572 1
477 572 1
488 572 1
610 572 1
616 572 1
629 572 1
634 572 1
288 573 1
301 573 1
478 573 1
489 573 1
611 573 1
617 573 1
630 573 1
635 573 1
289 574 1
302 574 1
479 574 1
490 574 1
612 574 1
618 574 1
631 574 1
636 574 1
290 575 1
303 575 1
480 575 1
491 575 1
613 575 1
619 575 1
632 575 1
637 575 1
291 576 1
304 576 1
481 576 1
492 576 1
614 576 1
620 576 1
633 576 1
638 576 1
286 577 1
292 577 1
482 577 1
493 577 1
615 577 1
621 577 1
634 577 1
639 577 1
287 578 1
293 578 1
483 578 1
494 578 1
616 578 1
622 578 1
635 578 1
640 578 1
288 579 1
294 579 1
476 579 1
484 579 1
617 579 1
623 579 1
636 579 1
641 579 1
289 580 1
295 580 1
477 580 1
485 580 1
618 580 1
624 580 1
637 580 1
642 580 1
290 581 1
296 581 1
478 581 1
486 581 1
619 581 1
625 581 1
638 581 1
643 581 1
291 582 1
297 582 1
479 582 1
487 582 1
620 582 1
626 582 1
639 582 1
644 582 1
292 583 1
298 583 1
480 583 1
488 583 1
621 583 1
627 583 1
640 583 1
645 583 1
293 584 1
299 584 1
481 584 1
489 584 1
609 584 1
622 584 1
641 584 1
646 584 1
294 585 1
300 585 1
482 585 1
490 585 1
610 585 1
623 585 1
628 585 1
642 585 1
295 586 1
301 586 1
483 586 1
491 586 1
611 586 1
624 586 1
629 586 1
643 586 1
296 587 1
302 587 1
484 587 1
492 587 1
612 587 1
625 587 1
630 587 1
644 587 1
297 588 1
303 588 1
485 588 1
493 588 1
613 588 1
626 588 1
631 588 1
645 588 1
298 589 1
304 589 1
486 589 1
494 589 1
614 589 1
627 589 1
632 589 1
646 589 1
305 590 1
318 590 1
495 590 1
506 590 1
571 590 1
580 590 1
647 590 1
649 590 1
306 591 1
319 591 1
496 591 1
507 591 1
572 591 1
581 591 1
648 591 1
650 591 1
307 592 1
320 592 1
497 592 1
508 592 1
573 592 1
582 592 1
649 592 1
651 592 1
308 593 1
321 593 1
498 593 1
509 593 1
574 593 1
583 593 1
650 593 1
652 593 1
309 594 1
322 594 1
499 594 1
510 594 1
575 594 1
584 594 1
651 594 1
653 594 1
310 595 1
323 595 1
500 595 1
511 595 1
576 595 1
585 595 1
652 595 1
654 595 1
305 596 1
311 596 1
501 596 1
512 596 1
577 596 1
586 596 1
653 596 1
655 596 1
306 597 1
312 597 1
502 597 1
513 597 1
578 597 1
587 597 1
654 597 1
656 597 1
307 598 1
313 598 1
495 598 1
503 598 1
579 598 1
588 598 1
655 598 1
657 598 1
308 599 1
314 599 1
496 599 1
504 599 1
580 599 1
589 599 1
656 599 1
658 599 1
309 600 1
315 600 1
497 600 1
505 600 1
571 600 1
581 600 1
657 600 1
659 600 1
310 601 1
316 601 1
498 601 1
506 601 1
572 601 1
582 601 1
658 601 1
660 601 1
311 602 1
317 602 1
499 602 1
507 602 1
573 602 1
583 602 1
659 602 1
661 602 1
312 603 1
318 603 1
500 603 1
508 603 1
574 603 1
584 603 1
660 603 1
662 603 1
313 604 1
319 604 1
501 604 1
509 604 1
575 604 1
585 604 1
661 604 1
663 604 1
314 605 1
320 605 1
502 605 1
510 605 1
576 605 1
586 605 1
662 605 1
664 605 1
315 606 1
321 606 1
503 606 1
511 606 1
577 606 1
587 606 1
663 606 1
665 606 1
316 607 1
322 607 1
504 607 1
512 607 1
578 607 1
588 607 1
647 607 1
664 607 1
317 608 1
323 608 1
505 608 1
513 608 1
579 608 1
589 608 1
648 608 1
665 608 1
324 609 1
337 609 1
514 609 1
525 609 1
590 609 1
599 609 1
647 609 1
651 609 1
325 610 1
338 610 1
515 610 1
526 610 1
591 610 1
600 610 1
648 610 1
652 610 1
326 611 1
339 611 1
516 611 1
527 611 1
592 611 1
601 611 1
649 611 1
653 611 1
327 612 1
340 612 1
517 612 1
528 612 1
593 612 1
602 612 1
650 612 1
654 612 1
328 613 1
341 613 1
518 613 1
529 613 1
594 613 1
603 613 1
651 613 1
655 613 1
329 614 1
342 614 1
519 614 1
530 614 1
595 614 1
604 614 1
652 614 1
656 614 1
324 615 1
330 615 1
520 615 1
531 615 1
596 615 1
605 615 1
653 615 1
657 615 1
325 616 1
331 616 1
521 616 1
532 616 1
597 616 1
606 616 1
654 616 1
658 616 1
326 617 1
332 617 1
514 617 1
522 617 1
598 617 1
607 617 1
655 617 1
659 617 1
327 618 1
333 618 1
515 618 1
523 618 1
599 618 1
608 618 1
656 618 1
660 618 1
328 619 1
334 619 1
516 619 1
524 619 1
590 619 1
600 619 1
657 619 1
661 619 1
329 620 1
335 620 1
517 620 1
525 620 1
591 620 1
601 620 1
658 620 1
662 620 1
330 621 1
336 621 1
518 621 1
526 621 1
592 621 1
602 621 1
659 621 1
663 621 1
331 622 1
337 622 1
519 622 1
527 622 1
593 622 1
603 622 1
660 622 1
664 622 1
332 623 1
338 623 1
520 623 1
528 623 1
594 623 1
604 623 1
661 623 1
665 623 1
333 624 1
339 624 1
521 624 1
529 624 1
595 624 1
605 624 1
647 624 1
662 624 1
334 625 1
340 625 1
522 625 1
530 625 1
596 625 1
606 625 1
648 625 1
663 625 1
335 626 1
341 626 1
523 626 1
531 626 1
597 626 1
607 626 1
649 626 1
664 626 1
336 627 1
342 627 1
524 627 1
532 627 1
598 627 1
608 627 1
650 627 1
665 627 1
343 628 1
356 628 1
533 628 1
544 628 1
609 628 1
618 628 1
647 628 1
652 628 1
344 629 1
357 629 1
534 629 1
545 629 1
610 629 1
619 629 1
648 629 1
653 629 1
345 630 1
358 630 1
535 630 1
546 630 1
611 630 1
620 630 1
649 630 1
654 630 1
346 631 1
359 631 1
536 631 1
547 631 1
612 631 1
621 631 1
650 631 1
655 631 1
347 632 1
360 632 1
537 632 1
548 632 1
613 632 1
622 632 1
651 632 1
656 632 1
348 633 1
361 633 1
538 633 1
549 633 1
614 633 1
623 633 1
652 633 1
657 633 1
343 634 1
349 634 1
539 634 1
550 634 1
615 634 1
624 634 1
653 634 1
658 634 1
344 635 1
350 635 1
540 635 1
551 635 1
616 635 1
625 635 1
654 635 1
659 635 1
345 636 1
351 636 1
533 636 1
541 636 1
617 636 1
626 636 1
655 636 1
660 636 1
346 637 1
352 637 1
534 637 1
542 637 1
618 637 1
627 637 1
656 637 1
661 637 1
347 638 1
353 638 1
535 638 1
543 638 1
609 638 1
619 638 1
657 638 1
662 638 1
348 639 1
354 639 1
536 639 1
544 639 1
610 639 1
620 639 1
658 639 1
663 639 1
349 640 1
355 640 1
537 640 1
545 640 1
611 640 1
621 640 1
659 640 1
664 640 1
350 641 1
356 641 1
538 641 1
546 641 1
612 641 1
622 641 1
660 641 1
665 641 1
351 642 1
357 642 1
539 642 1
547 642 1
613 642 1
623 642 1
647 642 1
661 642 1
352 643 1
358 643 1
540 643 1
548 643 1
614 643 1
624 643 1
648 643 1
662 643 1
353 644 1
359 644 1
541 644 1
549 644 1
615 644 1
625 644 1
649 644 1
663 644 1
354 645 1
360 645 1
542 645 1
550 645 1
616 645 1
626 645 1
650 645 1
664 645 1
355 646 1
361 646 1
543 646 1
551 646 1
617 646 1
627 646 1
651 646 1
665 646 1
362 647 1
375 647 1
552 647 1
563 647 1
628 647 1
637 647 1
647 647 1
653 647 1
363 648 1
376 648 1
553 648 1
564 648 1
629 648 1
638 648 1
648 648 1
654 648 1
364 649 1
377 649 1
554 649 1
565 649 1
630 649 1
639 649 1
649 649 1
655 649 1
365 650 1
378 650 1
555 650 1
566 650 1
631 650 1
640 650 1
650 650 1
656 650 1
366 651 1
379 651 1
556 651 1
567 651 1
632 651 1
641 651 1
651 651 1
657 651 1
367 652 1
380 652 1
557 652 1
568 652 1
633 652 1
642 652 1
652 652 1
658 652 1
362 653 1
368 653 1
558 653 1
569 653 1
634 653 1
643 653 1
653 653 1
659 653 1
363 654 1
369 654 1
559 654 1
570 654 1
635 654 1
644 654 1
654 654 1
660 654 1
364 655 1
370 655 1
552 655 1
560 655 1
636 655 1
645 655 1
655 655 1
661 655 1
365 656 1
371 656 1
553 656 1
561 656 1
637 656 1
646 656 1
656 656 1
662 656 1
366 657 1
372 657 1
554 657 1
562 657 1
628 657 1
638 657 1
657 657 1
663 657 1
367 658 1
373 658 1
555 658 1
563 658 1
629 658 1
639 658 1
658 658 1
664 658 1
368 659 1
374 659 1
556 659 1
564 659 1
630 659 1
640 659 1
659 659 1
665 659 1
369 660 1
375 660 1
557 660 1
565 660 1
631 660 1
641 660 1
647 660 1
660 660 1
370 661 1
376 661 1
558 661 1
566 661 1
632 661 1
642 661 1
648 661 1
661 661 1
371 662 1
377 662 1
559 662 1
567 662 1
633 662 1
643 662 1
649 662 1
662 662 1
372 663 1
378 663 1
560 663 1
568 663 1
634 663 1
644 663 1
650 663 1
663 663 1
373 664 1
379 664 1
561 664 1
569 664 1
635 664 1
645 664 1
651 664 1
664 664 1
374 665 1
380 665 1
562 665 1
570 665 1
636 665 1
646 665 1
652 665 1
665 665 1
1 666 1
17 666 1
666 666 1
671 666 1
685 666 1
689 666 1
704 666 1
706 666 1
2 667 1
18 667 1
667 667 1
672 667 1
686 667 1
690 667 1
705 667 1
707 667 1
3 668 1
19 668 1
668 668 1
673 668 1
687 668 1
691 668 1
706 668 1
708 668 1
1 669 1
4 669 1
669 669 1
674 669 1
688 669 1
692 669 1
707 669 1
709 669 1
2 670 1
5 670 1
670 670 1
675 670 1
689 670 1
693 670 1
708 670 1
710 670 1
3 671 1
6 671 1
671 671 1
676 671 1
690 671 1
694 671 1
709 671 1
711 671 1
4 672 1
7 672 1
672 672 1
677 672 1
691 672 1
695 672 1
710 672 1
712 672 1
5 673 1
8 673 1
673 673 1
678 673 1
692 673 1
696 673 1
711 673 1
713 673 1
6 674 1
9 674 1
674 674 1
679 674 1
693 674 1
697 674 1
712 674 1
714 674 1
7 675 1
10 675 1
675 675 1
680 675 1
694 675 1
698 675 1
713 675 1
715 675 1
8 676 1
11 676 1
676 676 1
681 676 1
695 676 1
699 676 1
714 676 1
716 676 1
9 677 1
12 677 1
677 677 1
682 677 1
696 677 1
700 677 1
715 677 1
717 677 1
10 678 1
13 678 1
678 678 1
683 678 1
697 678 1
701 678 1
716 678 1
718 678 1
11 679 1
14 679 1
679 679 1
684 679 1
698 679 1
702 679 1
717 679 1
719 679 1
12 680 1
15 680 1
666 680 1
680 680 1
699 680 1
703 680 1
718 680 1
720 680 1
13 681 1
16 681 1
667 681 1
681 681 1
685 681 1
700 681 1
719 681 1
721 681 1
14 682 1
17 682 1
668 682 1
682 682 1
686 682 1
701 682 1
720 682 1
722 682 1
15 683 1
18 683 1
669 683 1
683 683 1
687 683 1
702 683 1
704 683 1
721 683 1
16 684 1
19 684 1
670 684 1
684 684 1
688 684 1
703 684 1
705 684 1
722 684 1
20 685 1
36 685 1
666 685 1
672 685 1
723 685 1
727 685 1
742 685 1
744 685 1
21 686 1
37 686 1
667 686 1
673 686 1
724 686 1
728 686 1
743 686 1
745 686 1
22 687 1
38 687 1
668 687 1
674 687 1
725 687 1
729 687 1
744 687 1
746 687 1
20 688 1
23 688 1
669 688 1
675 688 1
726 688 1
730 688 1
745 688 1
747 688 1
21 689 1
24 689 1
670 689 1
676 689 1
727 689 1
731 689 1
746 689 1
748 689 1
22 690 1
25 690 1
671 690 1
677 690 1
728 690 1
732 690 1
747 690 1
749 690 1
23 691 1
26 691 1
672 691 1
678 691 1
729 691 1
733 691 1
748 691 1
750 691 1
24 692 1
27 692 1
673 692 1
679 692 1
730 692 1
734 692 1
749 692 1
751 692 1
25 693 1
28 693 1
674 693 1
680 693 1
731 693 1
735 693 1
750 693 1
752 693 1
26 694 1
29 694 1
675 694 1
681 694 1
732 694 1
736 694 1
751 694 1
753 694 1
27 695 1
30 695 1
676 695 1
682 695 1
733 695 1
737 695 1
752 695 1
754 695 1
28 696 1
31 696 1
677 696 1
683 696 1
734 696 1
738 696 1
753 696 1
755 696 1
29 697 1
32 697 1
678 697 1
684 697 1
735 697 1
739 697 1
754 697 1
756 697 1
30 698 1
33 698 1
666 698 1
679 698 1
736 698 1
740 698 1
755 698 1
757 698 1
31 699 1
34 699 1
667 699 1
680 699 1
737 699 1
741 699 1
756 699 1
758 699 1
32 700 1
35 700 1
668 700 1
681 700 1
723 700 1
738 700 1
757 700 1
759 700 1
33 701 1
36 701 1
669 701 1
682 701 1
724 701 1
739 701 1
758 701 1
760 701 1
34 702 1
37 702 1
670 702 1
683 702 1
725 702 1
740 702 1
742 702 1
759 702 1
35 703 1
38 703 1
671 703 1
684 703 1
726 703 1
741 703 1
743 703 1
760 703 1
39 704 1
55 704 1
685 704 1
691 704 1
723 704 1
728 704 1
761 704 1
763 704 1
40 705 1
56 705 1
686 705 1
692 705 1
724 705 1
729 705 1
762 705 1
764 705 1
41 706 1
57 706 1
687 706 1
693 706 1
725 706 1
730 706 1
763 706 1
765 706 1
39 707 1
42 707 1
688 707 1
694 707 1
726 707 1
731 707 1
764 707 1
766 707 1
40 708 1
43 708 1
689 708 1
695 708 1
727 708 1
732 708 1
765 708 1
767 708 1
41 709 1
44 709 1
690 709 1
696 709 1
728 709 1
733 709 1
766 709 1
768 709 1
42 710 1
45 710 1
691 710 1
697 710 1
729 710 1
734 710 1
767 710 1
769 710 1
43 711 1
46 711 1
692 711 1
698 711 1
730 711 1
735 711 1
768 711 1
770 711 1
44 712 1
47 712 1
693 712 1
699 712 1
731 712 1
736 712 1
769 712 1
771 712 1
45 713 1
48 713 1
694 713 1
700 713 1
732 713 1
737 713 1
770 713 1
772 713 1
46 714 1
49 714 1
695 714 1
701 714 1
733 714 1
738 714 1
771 714 1
773 714 1
47 715 1
50 715 1
696 715 1
702 715 1
734 715 1
739 715 1
772 715 1
774 715 1
48 716 1
51 716 1
697 716 1
703 716 1
735 716 1
740 716 1
773 716 1
775 716 1
49 717 1
52 717 1
685 717 1
698 717 1
736 717 1
741 717 1
774 717 1
776 717 1
50 718 1
53 718 1
686 718 1
699 718 1
723 718 1
737 718 1
775 718 1
777 718 1
51 719 1
54 719 1
687 719 1
700 719 1
724 719 1
738 719 1
776 719 1
778 719 1
52 720 1
55 720 1
688 720 1
701 720 1
725 720 1
739 720 1
777 720 1
779 720 1
53 721 1
56 721 1
689 721 1
702 721 1
726 721 1
740 721 1
761 721 1
778 721 1
54 722 1
57 722 1
690 722 1
703 722 1
727 722 1
741 722 1
762 722 1
779 722 1
58 723 1
74 723 1
704 723 1
710 723 1
742 723 1
747 723 1
761 723 1
765 723 1
59 724 1
75 724 1
705 724 1
711 724 1
743 724 1
748 724 1
762 724 1
766 724 1
60 725 1
76 725 1
706 725 1
712 725 1
744 725 1
749 725 1
763 725 1
767 725 1
58 726 1
61 726 1
707 726 1
713 726 1
745 726 1
750 726 1
764 726 1
768 726 1
59 727 1
62 727 1
708 727 1
714 727 1
746 727 1
751 727 1
765 727 1
769 727 1
60 728 1
63 728 1
709 728 1
715 728 1
747 728 1
752 728 1
766 728 1
770 728 1
61 729 1
64 729 1
710 729 1
716 729 1
748 729 1
753 729 1
767 729 1
771 729 1
62 730 1
65 730 1
711 730 1
717 730 1
749 730 1
754 730 1
768 730 1
772 730 1
63 731 1
66 731 1
712 731 1
718 731 1
750 731 1
755 731 1
769 731 1
773 731 1
64 732 1
67 732 1
713 732 1
719 732 1
751 732 1
756 732 1
770 732 1
774 732 1
65 733 1
68 733 1
714 733 1
720 733 1
752 733 1
757 733 1
771 733 1
775 733 1
66 734 1
69 734 1
715 734 1
721 734 1
753 734 1
758 734 1
772 734 1
776 734 1
67 735 1
70 735 1
716 735 1
722 735 1
754 735 1
759 735 1
773 735 1
777 735 1
68 736 1
71 736 1
704 736 1
717 736 1
755 736 1
760 736 1
774 736 1
778 736 1
69 737 1
72 737 1
705 737 1
718 737 1
742 737 1
756 737 1
775 737 1
779 737 1
70 738 1
73 738 1
706 738 1
719 738 1
743 738 1
757 738 1
761 738 1
776 738 1
71 739 1
74 739 1
707 739 1
720 739 1
744 739 1
758 739 1
762 739 1
777 739 1
72 740 1
75 740 1
708 740 1
721 740 1
745 740 1
759 740 1
763 740 1
778 740 1
73 741 1
76 741 1
709 741 1
722 741 1
746 741 1
760 741 1
764 741 1
779 741 1
77 742 1
93 742 1
666 742 1
675 742 1
780 742 1
784 742 1
799 742 1
801 742 1
78 743 1
94 743 1
667 743 1
676 743 1
781 743 1
785 743 1
800 743 1
802 743 1
79 744 1
95 744 1
668 744 1
677 744 1
782 744 1
786 744 1
801 744 1
803 744 1
77 745 1
80 745 1
669 745 1
678 745 1
783 745 1
787 745 1
802 745 1
804 745 1
78 746 1
81 746 1
670 746 1
679 746 1
784 746 1
788 746 1
803 746 1
805 746 1
79 747 1
82 747 1
671 747 1
680 747 1
785 747 1
789 747 1
804 747 1
806 747 1
80 748 1
83 748 1
672 748 1
681 748 1
786 748 1
790 748 1
805 748 1
807 748 1
81 749 1
84 749 1
673 749 1
682 749 1
787 749 1
791 749 1
806 749 1
808 749 1
82 750 1
85 750 1
674 750 1
683 750 1
788 750 1
792 750 1
807 750 1
809 750 1
83 751 1
86 751 1
675 751 1
684 751 1
789 751 1
793 751 1
808 751 1
810 751 1
84 752 1
87 752 1
666 752 1
676 752 1
790 752 1
794 752 1
809 752 1
811 752 1
85 753 1
88 753 1
667 753 1
677 753 1
791 753 1
795 753 1
810 753 1
812 753 1
86 754 1
89 754 1
668 754 1
678 754 1
792 754 1
796 754 1
811 754 1
813 754 1
87 755 1
90 755 1
669 755 1
679 755 1
793 755 1
797 755 1
812 755 1
814 755 1
88 756 1
91 756 1
670 756 1
680 756 1
794 756 1
798 756 1
813 756 1
815 756 1
89 757 1
92 757 1
671 757 1
681 757 1
780 757 1
795 757 1
814 757 1
816 757 1
90 758 1
93 758 1
672 758 1
682 758 1
781 758 1
796 758 1
815 758 1
817 758 1
91 759 1
94 759 1
673 759 1
683 759 1
782 759 1
797 759 1
799 759 1
816 759 1
92 760 1
95 760 1
674 760 1
684 760 1
783 760 1
798 760 1
800 760 1
817 760 1
96 761 1
112 761 1
685 761 1
694 761 1
780 761 1
785 761 1
818 761 1
820 761 1
97 762 1
113 762 1
686 762 1
695 762 1
781 762 1
786 762 1
819 762 1
821 762 1
98 763 1
114 763 1
687 763 1
696 763 1
782 763 1
787 763 1
820 763 1
822 763 1
96 764 1
99 764 1
688 764 1
697 764 1
783 764 1
788 764 1
821 764 1
823 764 1
97 765 1
100 765 1
689 765 1
698 765 1
784 765 1
789 765 1
822 765 1
824 765 1
98 766 1
101 766 1
690 766 1
699 766 1
785 766 1
790 766 1
823 766 1
825 766 1
99 767 1
102 767 1
691 767 1
700 767 1
786 767 1
791 767 1
824 767 1
826 767 1
100 768 1
103 768 1
692 768 1
701 768 1
787 768 1
792 768 1
825 768 1
827 768 1
101 769 1
104 769 1
693 769 1
702 769 1
788 769 1
793 769 1
826 769 1
828 769 1
102 770 1
105 770 1
694 770 1
703 770 1
789 770 1
794 770 1
827 770 1
829 770 1
103 771 1
106 771 1
685 771 1
695 771 1
790 771 1
795 771 1
828 771 1
830 771 1
104 772 1
107 772 1
686 772 1
696 772 1
791 772 1
796 772 1
829 772 1
831 772 1
105 773 1
108 773 1
687 773 1
697 773 1
792 773 1
797 773 1
830 773 1
832 773 1
106 774 1
109 774 1
688 774 1
698 774 1
793 774 1
798 774 1
831 774 1
833 774 1
107 775 1
110 775 1
689 775 1
699 775 1
780 775 1
794 775 1
832 775 1
834 775 1
108 776 1
111 776 1
690 776 1
700 776 1
781 776 1
795 776 1
833 776 1
835 776 1
109 777 1
112 777 1
691 777 1
701 777 1
782 777 1
796 777 1
834 777 1
836 777 1
110 778 1
113 778 1
692 778 1
702 778 1
783 778 1
797 778 1
818 778 1
835 778 1
111 779 1
114 779 1
693 779 1
703 779 1
784 779 1
798 779 1
819 779 1
836 779 1
115 780 1
131 780 1
704 780 1
713 780 1
799 780 1
804 780 1
818 780 1
822 780 1
116 781 1
132 781 1
705 781 1
714 781 1
800 781 1
805 781 1
819 781 1
823 781 1
117 782 1
133 782 1
706 782 1
715 782 1
801 782 1
806 782 1
820 782 1
824 782 1
115 783 1
118 783 1
707 783 1
716 783 1
802 783 1
807 783 1
821 783 1
825 783 1
116 784 1
119 784 1
708 784 1
717 784 1
803 784 1
808 784 1
822 784 1
826 784 1
117 785 1
120 785 1
709 785 1
718 785 1
804 785 1
809 785 1
823 785 1
827 785 1
118 786 1
121 786 1
710 786 1
719 786 1
805 786 1
810 786 1
824 786 1
828 786 1
119 787 1
122 787 1
711 787 1
720 787 1
806 787 1
811 787 1
825 787 1
829 787 1
120 788 1
123 788 1
712 788 1
721 788 1
807 788 1
812 788 1
826 788 1
830 788 1
121 789 1
124 789 1
713 789 1
722 789 1
808 789 1
813 789 1
827 789 1
831 789 1
122 790 1
125 790 1
704 790 1
714 790 1
809 790 1
814 790 1
828 790 1
832 790 1
123 791 1
126 791 1
705 791 1
715 791 1
810 791 1
815 791 1
829 791 1
833 791 1
124 792 1
127 792 1
706 792 1
716 792 1
811 792 1
816 792 1
830 792 1
834 792 1
125 793 1
128 793 1
707 793 1
717 793 1
812 793 1
817 793 1
831 793 1
835 793 1
126 794 1
129 794 1
708 794 1
718 794 1
799 794 1
813 794 1
832 794 1
836 794 1
127 795 1
130 795 1
709 795 1
719 795 1
800 795 1
814 795 1
818 795 1
833 795 1
128 796 1
131 796 1
710 796 1
720 796 1
801 796 1
815 796 1
819 796 1
834 796 1
129 797 1
132 797 1
711 797 1
721 797 1
802 797 1
816 797 1
820 797 1
835 797 1
130 798 1
133 798 1
712 798 1
722 798 1
803 798 1
817 798 1
821 798 1
836 798 1
134 799 1
150 799 1
723 799 1
732 799 1
780 799 1
786 799 1
837 799 1
839 799 1
135 800 1
151 800 1
724 800 1
733 800 1
781 800 1
787 800 1
838 800 1
840 800 1
136 801 1
152 801 1
725 801 1
734 801 1
782 801 1
788 801 1
839 801 1
841 801 1
134 802 1
137 802 1
726 802 1
735 802 1
783 802 1
789 802 1
840 802 1
842 802 1
135 803 1
138 803 1
727 803 1
736 803 1
784 803 1
790 803 1
841 803 1
843 803 1
136 804 1
139 804 1
728 804 1
737 804 1
785 804 1
791 804 1
842 804 1
844 804 1
137 805 1
140 805 1
729 805 1
738 805 1
786 805 1
792 805 1
843 805 1
845 805 1
138 806 1
141 806 1
730 806 1
739 806 1
787 806 1
793 806 1
844 806 1
846 806 1
139 807 1
142 807 1
731 807 1
740 807 1
788 807 1
794 807 1
845 807 1
847 807 1
140 808 1
143 808 1
732 808 1
741 808 1
789 808 1
795 808 1
846 808 1
848 808 1
141 809 1
144 809 1
723 809 1
733 809 1
790 809 1
796 809 1
847 809 1
849 809 1
142 810 1
145 810 1
724 810 1
734 810 1
791 810 1
797 810 1
848 810 1
850 810 1
143 811 1
146 811 1
725 811 1
735 811 1
792 811 1
798 811 1
849 811 1
851 811 1
144 812 1
147 812 1
726 812 1
736 812 1
780 812 1
793 812 1
850 812 1
852 812 1
145 813 1
148 813 1
727 813 1
737 813 1
781 813 1
794 813 1
851 813 1
853 813 1
146 814 1
149 814 1
728 814 1
738 814 1
782 814 1
795 814 1
852 814 1
854 814 1
147 815 1
150 815 1
729 815 1
739 815 1
783 815 1
796 815 1
853 815 1
855 815 1
148 816 1
151 816 1
730 816 1
740 816 1
784 816 1
797 816 1
837 816 1
854 816 1
149 817 1
152 817 1
731 817 1
741 817 1
785 817 1
798 817 1
838 817 1
855 817 1
153 818 1
169 818 1
742 818 1
751 818 1
799 818 1
805 818 1
837 818 1
841 818 1
154 819 1
170 819 1
743 819 1
752 819 1
800 819 1
806 819 1
838 819 1
842 819 1
155 820 1
171 820 1
744 820 1
753 820 1
801 820 1
807 820 1
839 820 1
843 820 1
153 821 1
156 821 1
745 821 1
754 821 1
802 821 1
808 821 1
840 821 1
844 821 1
154 822 1
157 822 1
746 822 1
755 822 1
803 822 1
809 822 1
841 822 1
845 822 1
155 823 1
158 823 1
747 823 1
756 823 1
804 823 1
810 823 1
842 823 1
846 823 1
156 824 1
159 824 1
748 824 1
757 824 1
805 824 1
811 824 1
843 824 1
847 824 1
157 825 1
160 825 1
749 825 1
758 825 1
806 825 1
812 825 1
844 825 1
848 825 1
158 826 1
161 826 1
750 826 1
759 826 1
807 826 1
813 826 1
845 826 1
849 826 1
159 827 1
162 827 1
751 827 1
760 827 1
808 827 1
814 827 1
846 827 1
850 827 1
160 828 1
163 828 1
742 828 1
752 828 1
809 828 1
815 828 1
847 828 1
851 828 1
161 829 1
164 829 1
743 829 1
753 829 1
810 829 1
816 829 1
848 829 1
852 829 1
162 830 1
165 830 1
744 830 1
754 830 1
811 830 1
817 830 1
849 830 1
853 830 1
163 831 1
166 831 1
745 831 1
755 831 1
799 831 1
812 831 1
850 831 1
854 831 1
164 832 1
167 832 1
746 832 1
756 832 1
800 832 1
813 832 1
851 832 1
855 832 1
165 833 1
168 833 1
747 833 1
757 833 1
801 833 1
814 833 1
837 833 1
852 833 1
166 834 1
169 834 1
748 834 1
758 834 1
802 834 1
815 834 1
838 834 1
853 834 1
167 835 1
170 835 1
749 835 1
759 835 1
803 835 1
816 835 1
839 835 1
854 835 1
168 836 1
171 836 1
750 836 1
760 836 1
804 836 1
817 836 1
840 836 1
855 836 1
172 837 1
188 837 1
761 837 1
770 837 1
818 837 1
824 837 1
837 837 1
842 837 1
173 838 1
189 838 1
762 838 1
771 838 1
819 838 1
825 838 1
838 838 1
843 838 1
174 839 1
190 839 1
763 839 1
772 839 1
820 839 1
826 839 1
839 839 1
844 839 1
172 840 1
175 840 1
764 840 1
773 840 1
821 840 1
827 840 1
840 840 1
845 840 1
173 841 1
176 841 1
765 841 1
774 841 1
822 841 1
828 841 1
841 841 1
846 841 1
174 842 1
177 842 1
766 842 1
775 842 1
823 842 1
829 842 1
842 842 1
847 842 1
175 843 1
178 843 1
767 843 1
776 843 1
824 843 1
830 843 1
843 843 1
848 843 1
176 844 1
179 844 1
768 844 1
777 844 1
825 844 1
831 844 1
844 844 1
849 844 1
177 845 1
180 845 1
769 845 1
778 845 1
826 845 1
832 845 1
845 845 1
850 845 1
178 846 1
181 846 1
770 846 1
779 846 1
827 846 1
833 846 1
846 846 1
851 846 1
179 847 1
182 847 1
761 847 1
771 847 1
828 847 1
834 847 1
847 847 1
852 847 1
180 848 1
183 848 1
762 848 1
772 848 1
829 848 1
835 848 1
848 848 1
853 848 1
181 849 1
184 849 1
763 849 1
773 849 1
830 849 1
836 849 1
849 849 1
854 849 1
182 850 1
185 850 1
764 850 1
774 850 1
818 850 1
831 850 1
850 850 1
855 850 1
183 851 1
186 851 1
765 851 1
775 851 1
819 851 1
832 851 1
837 851 1
851 851 1
184 852 1
187 852 1
766 852 1
776 852 1
820 852 1
833 852 1
838 852 1
852 852 1
185 853 1
188 853 1
767 853 1
777 853 1
821 853 1
834 853 1
839 853 1
853 853 1
186 854 1
189 854 1
768 854 1
778 854 1
822 854 1
835 854 1
840 854 1
854 854 1
187 855 1
190 855 1
769 855 1
779 855 1
823 855 1
836 855 1
841 855 1
855 855 1
191 856 1
207 856 1
666 856 1
677 856 1
856 856 1
860 856 1
875 856 1
877 856 1
192 857 1
208 857 1
667 857 1
678 857 1
857 857 1
861 857 1
876 857 1
878 857 1
193 858 1
209 858 1
668 858 1
679 858 1
858 858 1
862 858 1
877 858 1
879 858 1
191 859 1
194 859 1
669 859 1
680 859 1
859 859 1
863 859 1
878 859 1
880 859 1
192 860 1
195 860 1
670 860 1
681 860 1
860 860 1
864 860 1
879 860 1
881 860 1
193 861 1
196 861 1
671 861 1
682 861 1
861 861 1
865 861 1
880 861 1
882 861 1
194 862 1
197 862 1
672 862 1
683 862 1
862 862 1
866 862 1
881 862 1
883 862 1
195 863 1
198 863 1
673 863 1
684 863 1
863 863 1
867 863 1
882 863 1
884 863 1
196 864 1
199 864 1
666 864 1
674 864 1
864 864 1
868 864 1
883 864 1
885 864 1
197 865 1
200 865 1
667 865 1
675 865 1
865 865 1
869 865 1
884 865 1
886 865 1
198 866 1
201 866 1
668 866 1
676 866 1
866 866 1
870 866 1
885 866 1
887 866 1
199 867 1
202 867 1
669 867 1
677 867 1
867 867 1
871 867 1
886 867 1
888 867 1
200 868 1
203 868 1
670 868 1
678 868 1
868 868 1
872 868 1
887 868 1
889 868 1
201 869 1
204 869 1
671 869 1
679 869 1
869 869 1
873 869 1
888 869 1
890 869 1
202 870 1
205 870 1
672 870 1
680 870 1
870 870 1
874 870 1
889 870 1
891 870 1
203 871 1
206 871 1
673 871 1
681 871 1
856 871 1
871 871 1
890 871 1
892 871 1
204 872 1
207 872 1
674 872 1
682 872 1
857 872 1
872 872 1
891 872 1
893 872 1
205 873 1
208 873 1
675 873 1
683 873 1
858 873 1
873 873 1
875 873 1
892 873 1
206 874 1
209 874 1
676 874 1
684 874 1
859 874 1
874 874 1
876 874 1
893 874 1
210 875 1
226 875 1
685 875 1
696 875 1
856 875 1
861 875 1
894 875 1
896 875 1
211 876 1
227 876 1
686 876 1
697 876 1
857 876 1
862 876 1
895 876 1
897 876 1
212 877 1
228 877 1
687 877 1
698 877 1
858 877 1
863 877 1
896 877 1
898 877 1
210 878 1
213 878 1
688 878 1
699 878 1
859 878 1
864 878 1
897 878 1
899 878 1
211 879 1
214 879 1
689 879 1
700 879 1
860 879 1
865 879 1
898 879 1
900 879 1
212 880 1
215 880 1
690 880 1
701 880 1
861 880 1
866 880 1
899 880 1
901 880 1
213 881 1
216 881 1
691 881 1
702 881 1
862 881 1
867 881 1
900 881 1
902 881 1
214 882 1
217 882 1
692 882 1
703 882 1
863 882 1
868 882 1
901 882 1
903 882 1
215 883 1
218 883 1
685 883 1
693 883 1
864 883 1
869 883 1
902 883 1
904 883 1
216 884 1
219 884 1
686 884 1
694 884 1
865 884 1
870 884 1
903 884 1
905 884 1
217 885 1
220 885 1
687 885 1
695 885 1
866 885 1
871 885 1
904 885 1
906 885 1
218 886 1
221 886 1
688 886 1
696 886 1
867 886 1
872 886 1
905 886 1
907 886 1
219 887 1
222 887 1
689 887 1
697 887 1
868 887 1
873 887 1
906 887 1
908 887 1
220 888 1
223 888 1
690 888 1
698 888 1
869 888 1
874 888 1
907 888 1
909 888 1
221 889 1
224 889 1
691 889 1
699 889 1
856 889 1
870 889 1
908 889 1
910 889 1
222 890 1
225 890 1
692 890 1
700 890 1
857 890 1
871 890 1
909 890 1
911 890 1
223 891 1
226 891 1
693 891 1
701 891 1
858 891 1
872 891 1
910 891 1
912 891 1
224 892 1
227 892 1
694 892 1
702 892 1
859 892 1
873 892 1
894 892 1
911 892 1
225 893 1
228 893 1
695 893 1
703 893 1
860 893 1
874 893 1
895 893 1
912 893 1
229 894 1
245 894 1
704 894 1
715 894 1
875 894 1
880 894 1
894 894 1
898 894 1
230 895 1
246 895 1
705 895 1
716 895 1
876 895 1
881 895 1
895 895 1
899 895 1
231 896 1
247 896 1
706 896 1
717 896 1
877 896 1
882 896 1
896 896 1
900 896 1
229 897 1
232 897 1
707 897 1
718 897 1
878 897 1
883 897 1
897 897 1
901 897 1
230 898 1
233 898 1
708 898 1
719 898 1
879 898 1
884 898 1
898 898 1
902 898 1
231 899 1
234 899 1
709 899 1
720 899 1
880 899 1
885 899 1
899 899 1
903 899 1
232 900 1
235 900 1
710 900 1
721 900 1
881 900 1
886 900 1
900 900 1
904 900 1
233 901 1
236 901 1
711 901 1
722 901 1
882 901 1
887 901 1
901 901 1
905 901 1
234 902 1
237 902 1
704 902 1
712 902 1
883 902 1
888 902 1
902 902 1
906 902 1
235 903 1
238 903 1
705 903 1
713 903 1
884 903 1
889 903 1
903 903 1
907 903 1
236 904 1
239 904 1
706 904 1
714 904 1
885 904 1
890 904 1
904 904 1
908 904 1
237 905 1
240 905 1
707 905 1
715 905 1
886 905 1
891 905 1
905 905 1
909 905 1
238 906 1
241 906 1
708 906 1
716 906 1
887 906 1
892 906 1
906 906 1
910 906 1
239 907 1
242 907 1
709 907 1
717 907 1
888 907 1
893 907 1
907 907 1
911 907 1
240 908 1
243 908 1
710 908 1
718 908 1
875 908 1
889 908 1
908 908 1
912 908 1
241 909 1
244 909 1
711 909 1
719 909 1
876 909 1
890 909 1
894 909 1
909 909 1
242 910 1
245 910 1
712 910 1
720 910 1
877 910 1
891 910 1
895 910 1
910 910 1
243 911 1
246 911 1
713 911 1
721 911 1
878 911 1
892 911 1
896 911 1
911 911 1
244 912 1
247 912 1
714 912 1
722 912 1
879 912 1
893 912 1
897 912 1
912 912 1
248 913 1
264 913 1
723 913 1
734 913 1
856 913 1
862 913 1
913 913 1
915 913 1
249 914 1
265 914 1
724 914 1
735 914 1
857 914 1
863 914 1
914 914 1
916 914 1
250 915 1
266 915 1
725 915 1
736 915 1
858 915 1
864 915 1
915 915 1
917 915 1
248 916 1
251 916 1
726 916 1
737 916 1
859 916 1
865 916 1
916 916 1
918 916 1
249 917 1
252 917 1
727 917 1
738 917 1
860 917 1
866 917 1
917 917 1
919 917 1
250 918 1
253 918 1
728 918 1
739 918 1
861 918 1
867 918 1
918 918 1
920 918 1
251 919 1
254 919 1
729 919 1
740 919 1
862 919 1
868 919 1
919 919 1
921 919 1
252 920 1
255 920 1
730 920 1
741 920 1
863 920 1
869 920 1
920 920 1
922 920 1
253 921 1
256 921 1
723 921 1
731 921 1
864 921 1
870 921 1
921 921 1
923 921 1
254 922 1
257 922 1
724 922 1
732 922 1
865 922 1
871 922 1
922 922 1
924 922 1
255 923 1
258 923 1
725 923 1
733 923 1
866 923 1
872 923 1
923 923 1
925 923 1
256 924 1
259 924 1
726 924 1
734 924 1
867 924 1
873 924 1
924 924 1
926 924 1
257 925 1
260 925 1
727 925 1
735 925 1
868 925 1
874 925 1
925 925 1
927 925 1
258 926 1
261 926 1
728 926 1
736 926 1
856 926 1
869 926 1
926 926 1
928 926 1
259 927 1
262 927 1
729 927 1
737 927 1
857 927 1
870 927 1
927 927 1
929 927 1
260 928 1
263 928 1
730 928 1
738 928 1
858 928 1
871 928 1
928 928 1
930 928 1
261 929 1
264 929 1
731 929 1
739 929 1
859 929 1
872 929 1
929 929 1
931 929 1
262 930 1
265 930 1
732 930 1
740 930 1
860 930 1
873 930 1
913 930 1
930 930 1
263 931 1
266 931 1
733 931 1
741 931 1
861 931 1
874 931 1
914 931 1
931 931 1
267 932 1
283 932 1
742 932 1
753 932 1
875 932 1
881 932 1
913 932 1
917 932 1
268 933 1
284 933 1
743 933 1
754 933 1
876 933 1
882 933 1
914 933 1
918 933 1
269 934 1
285 934 1
744 934 1
755 934 1
877 934 1
883 934 1
915 934 1
919 934 1
267 935 1
270 935 1
745 935 1
756 935 1
878 935 1
884 935 1
916 935 1
920 935 1
268 936 1
271 936 1
746 936 1
757 936 1
879 936 1
885 936 1
917 936 1
921 936 1
269 937 1
272 937 1
747 937 1
758 937 1
880 937 1
886 937 1
918 937 1
922 937 1
270 938 1
273 938 1
748 938 1
759 938 1
881 938 1
887 938 1
919 938 1
923 938 1
271 939 1
274 939 1
749 939 1
760 939 1
882 939 1
888 939 1
920 939 1
924 939 1
272 940 1
275 940 1
742 940 1
750 940 1
883 940 1
889 940 1
921 940 1
925 940 1
273 941 1
276 941 1
743 941 1
751 941 1
884 941 1
890 941 1
922 941 1
926 941 1
274 942 1
277 942 1
744 942 1
752 942 1
885 942 1
891 942 1
923 942 1
927 942 1
275 943 1
278 943 1
745 943 1
753 943 1
886 943 1
892 943 1
924 943 1
928 943 1
276 944 1
279 944 1
746 944 1
754 944 1
887 944 1
893 944 1
925 944 1
929 944 1
277 945 1
280 945 1
747 945 1
755 945 1
875 945 1
888 945 1
926 945 1
930 945 1
278 946 1
281 946 1
748 946 1
756 946 1
876 946 1
889 946 1
927 946 1
931 946 1
279 947 1
282 947 1
749 947 1
757 947 1
877 947 1
890 947 1
913 947 1
928 947 1
280 948 1
283 948 1
750 948 1
758 948 1
878 948 1
891 948 1
914 948 1
929 948 1
281 949 1
284 949 1
751 949 1
759 949 1
879 949 1
892 949 1
915 949 1
930 949 1
282 950 1
285 950 1
752 950 1
760 950 1
880 950 1
893 950 1
916 950 1
931 950 1
286 951 1
302 951 1
761 951 1
772 951 1
894 951 1
900 951 1
913 951 1
918 951 1
287 952 1
303 952 1
762 952 1
773 952 1
895 952 1
901 952 1
914 952 1
919 952 1
288 953 1
304 953 1
763 953 1
774 953 1
896 953 1
902 953 1
915 953 1
920 953 1
286 954 1
289 954 1
764 954 1
775 954 1
897 954 1
903 954 1
916 954 1
921 954 1
287 955 1
290 955 1
765 955 1
776 955 1
898 955 1
904 955 1
917 955 1
922 955 1
288 956 1
291 956 1
766 956 1
777 956 1
899 956 1
905 956 1
918 956 1
923 956 1
289 957 1
292 957 1
767 957 1
778 957 1
900 957 1
906 957 1
919 957 1
924 957 1
290 958 1
293 958 1
768 958 1
779 958 1
901 958 1
907 958 1
920 958 1
925 958 1
291 959 1
294 959 1
761 959 1
769 959 1
902 959 1
908 959 1
921 959 1
926 959 1
292 960 1
295 960 1
762 960 1
770 960 1
903 960 1
909 960 1
922 960 1
927 960 1
293 961 1
296 961 1
763 961 1
771 961 1
904 961 1
910 961 1
923 961 1
928 961 1
294 962 1
297 962 1
764 962 1
772 962 1
905 962 1
911 962 1
924 962 1
929 962 1
295 963 1
298 963 1
765 963 1
773 963 1
906 963 1
912 963 1
925 963 1
930 963 1
296 964 1
299 964 1
766 964 1
774 964 1
894 964 1
907 964 1
926 964 1
931 964 1
297 965 1
300 965 1
767 965 1
775 965 1
895 965 1
908 965 1
913 965 1
927 965 1
298 966 1
301 966 1
768 966 1
776 966 1
896 966 1
909 966 1
914 966 1
928 966 1
299 967 1
302 967 1
769 967 1
777 967 1
897 967 1
910 967 1
915 967 1
929 967 1
300 968 1
303 968 1
770 968 1
778 968 1
898 968 1
911 968 1
916 968 1
930 968 1
301 969 1
304 969 1
771 969 1
779 969 1
899 969 1
912 969 1
917 969 1
931 969 1
305 970 1
321 970 1
780 970 1
791 970 1
856 970 1
865 970 1
932 970 1
934 970 1
306 971 1
322 971 1
781 971 1
792 971 1
857 971 1
866 971 1
933 971 1
935 971 1
307 972 1
323 972 1
782 972 1
793 972 1
858 972 1
867 972 1
934 972 1
936 972 1
305 973 1
308 973 1
783 973 1
794 973 1
859 973 1
868 973 1
935 973 1
937 973 1
306 974 1
309 974 1
784 974 1
795 974 1
860 974 1
869 974 1
936 974 1
938 974 1
307 975 1
310 975 1
785 975 1
796 975 1
861 975 1
870 975 1
937 975 1
939 975 1
308 976 1
311 976 1
786 976 1
797 976 1
862 976 1
871 976 1
938 976 1
940 976 1
309 977 1
312 977 1
787 977 1
798 977 1
863 977 1
872 977 1
939 977 1
941 977 1
310 978 1
313 978 1
780 978 1
788 978 1
864 978 1
873 978 1
940 978 1
942 978 1
311 979 1
314 979 1
781 979 1
789 979 1
865 979 1
874 979 1
941 979 1
943 979 1
312 980 1
315 980 1
782 980 1
790 980 1
856 980 1
866 980 1
942 980 1
944 980 1
313 981 1
316 981 1
783 981 1
791 981 1
857 981 1
867 981 1
943 981 1
945 981 1
314 982 1
317 982 1
784 982 1
792 982 1
858 982 1
868 982 1
944 982 1
946 982 1
315 983 1
318 983 1
785 983 1
793 983 1
859 983 1
869 983 1
945 983 1
947 983 1
316 984 1
319 984 1
786 984 1
794 984 1
860 984 1
870 984 1
946 984 1
948 984 1
317 985 1
320 985 1
787 985 1
795 985 1
861 985 1
871 985 1
947 985 1
949 985 1
318 986 1
321 986 1
788 986 1
796 986 1
862 986 1
872 986 1
948 986 1
950 986 1
319 987 1
322 987 1
789 987 1
797 987 1
863 987 1
873 987 1
932 987 1
949 987 1
320 988 1
323 988 1
790 988 1
798 988 1
864 988 1
874 988 1
933 988 1
950 988 1
324 989 1
340 989 1
799 989 1
810 989 1
875 989 1
884 989 1
932 989 1
936 989 1
325 990 1
341 990 1
800 990 1
811 990 1
876 990 1
885 990 1
933 990 1
937 990 1
326 991 1
342 991 1
801 991 1
812 991 1
877 991 1
886 991 1
934 991 1
938 991 1
324 992 1
327 992 1
802 992 1
813 992 1
878 992 1
887 992 1
935 992 1
939 992 1
325 993 1
328 993 1
803 993 1
814 993 1
879 993 1
888 993 1
936 993 1
940 993 1
326 994 1
329 994 1
804 994 1
815 994 1
880 994 1
889 994 1
937 994 1
941 994 1
327 995 1
330 995 1
805 995 1
816 995 1
881 995 1
890 995 1
938 995 1
942 995 1
328 996 1
331 996 1
806 996 1
817 996 1
882 996 1
891 996 1
939 996 1
943 996 1
329 997 1
332 997 1
799 997 1
807 997 1
883 997 1
892 997 1
940 997 1
944 997 1
330 998 1
333 998 1
800 998 1
808 998 1
884 998 1
893 998 1
941 998 1
945 998 1
331 999 1
334 999 1
801 999 1
809 999 1
875 999 1
885 999 1
942 999 1
946 999 1
332 1000 1
335 1000 1
802 1000 1
810 1000 1
876 1000 1
886 1000 1
943 1000 1
947 1000 1
333 1001 1
336 1001 1
803 1001 1
811 1001 1
877 1001 1
887 1001 1
944 1001 1
948 1001 1
334 1002 1
337 1002 1
804 1002 1
812 1002 1
878 1002 1
888 1002 1
945 1002 1
949 1002 1
335 1003 1
338 1003 1
805 1003 1
813 1003 1
879 1003 1
889 1003 1
946 1003 1
950 1003 1
336 1004 1
339 1004 1
806 1004 1
814 1004 1
880 1004 1
890 1004 1
932 1004 1
947 1004 1
337 1005 1
340 1005 1
807 1005 1
815 1005 1
881 1005 1
891 1005 1
933 1005 1
948 1005 1
338 1006 1
341 1006 1
808 1006 1
816 1006 1
882 1006 1
892 1006 1
934 1006 1
949 1006 1
339 1007 1
342 1007 1
809 1007 1
817 1007 1
883 1007 1
893 1007 1
935 1007 1
950 1007 1
343 1008 1
359 1008 1
818 1008 1
829 1008 1
894 1008 1
903 1008 1
932 1008 1
937 1008 1
344 1009 1
360 1009 1
819 1009 1
830 1009 1
895 1009 1
904 1009 1
933 1009 1
938 1009 1
345 1010 1
361 1010 1
820 1010 1
831 1010 1
896 1010 1
905 1010 1
934 1010 1
939 1010 1
343 1011 1
346 1011 1
821 1011 1
832 1011 1
897 1011 1
906 1011 1
935 1011 1
940 1011 1
344 1012 1
347 1012 1
822 1012 1
833 1012 1
898 1012 1
907 1012 1
936 1012 1
941 1012 1
345 1013 1
348 1013 1
823 1013 1
834 1013 1
899 1013 1
908 1013 1
937 1013 1
942 1013 1
346 1014 1
349 1014 1
824 1014 1
835 1014 1
900 1014 1
909 1014 1
938 1014 1
943 1014 1
347 1015 1
350 1015 1
825 1015 1
836 1015 1
901 1015 1
910 1015 1
939 1015 1
944 1015 1
348 1016 1
351 1016 1
818 1016 1
826 1016 1
902 1016 1
911 1016 1
940 1016 1
945 1016 1
349 1017 1
352 1017 1
819 1017 1
827 1017 1
903 1017 1
912 1017 1
941 1017 1
946 1017 1
350 1018 1
353 1018 1
820 1018 1
828 1018 1
894 1018 1
904 1018 1
942 1018 1
947 1018 1
351 1019 1
354 1019 1
821 1019 1
829 1019 1
895 1019 1
905 1019 1
943 1019 1
948 1019 1
352 1020 1
355 1020 1
822 1020 1
830 1020 1
896 1020 1
906 1020 1
944 1020 1
949 1020 1
353 1021 1
356 1021 1
823 1021 1
831 1021 1
897 1021 1
907 1021 1
945 1021 1
950 1021 1
354 1022 1
357 1022 1
824 1022 1
832 1022 1
898 1022 1
908 1022 1
932 1022 1
946 1022 1
355 1023 1
358 1023 1
825 1023 1
833 1023 1
899 1023 1
909 1023 1
933 1023 1
947 1023 1
356 1024 1
359 1024 1
826 1024 1
834 1024 1
900 1024 1
910 1024 1
934 1024 1
948 1024 1
357 1025 1
360 1025 1
827 1025 1
835 1025 1
901 1025 1
911 1025 1
935 1025 1
949 1025 1
358 1026 1
361 1026 1
828 1026 1
836 1026 1
902 1026 1
912 1026 1
936 1026 1
950 1026 1
362 1027 1
378 1027 1
837 1027 1
848 1027 1
913 1027 1
922 1027 1
932 1027 1
938 1027 1
363 1028 1
379 1028 1
838 1028 1
849 1028 1
914 1028 1
923 1028 1
933 1028 1
939 1028 1
364 1029 1
380 1029 1
839 1029 1
850 1029 1
915 1029 1
924 1029 1
934 1029 1
940 1029 1
362 1030 1
365 1030 1
840 1030 1
851 1030 1
916 1030 1
925 1030 1
935 1030 1
941 1030 1
363 1031 1
366 1031 1
841 1031 1
852 1031 1
917 1031 1
926 1031 1
936 1031 1
942 1031 1
364 1032 1
367 1032 1
842 1032 1
853 1032 1
918 1032 1
927 1032 1
937 1032 1
943 1032 1
365 1033 1
368 1033 1
843 1033 1
854 1033 1
919 1033 1
928 1033 1
938 1033 1
944 1033 1
366 1034 1
369 1034 1
844 1034 1
855 1034 1
920 1034 1
929 1034 1
939 1034 1
945 1034 1
367 1035 1
370 1035 1
837 1035 1
845 1035 1
921 1035 1
930 1035 1
940 1035 1
946 1035 1
368 1036 1
371 1036 1
838 1036 1
846 1036 1
922 1036 1
931 1036 1
941 1036 1
947 1036 1
369 1037 1
372 1037 1
839 1037 1
847 1037 1
913 1037 1
923 1037 1
942 1037 1
948 1037 1
370 1038 1
373 1038 1
840 1038 1
848 1038 1
914 1038 1
924 1038 1
943 1038 1
949 1038 1
371 1039 1
374 1039 1
841 1039 1
849 1039 1
915 1039 1
925 1039 1
944 1039 1
950 1039 1
372 1040 1
375 1040 1
842 1040 1
850 1040 1
916 1040 1
926 1040 1
932 1040 1
945 1040 1
373 1041 1
376 1041 1
843 1041 1
851 1041 1
917 1041 1
927 1041 1
933 1041 1
946 1041 1
374 1042 1
377 1042 1
844 1042 1
852 1042 1
918 1042 1
928 1042 1
934 1042 1
947 1042 1
375 1043 1
378 1043 1
845 1043 1
853 1043 1
919 1043 1
929 1043 1
935 1043 1
948 1043 1
376 1044 1
379 1044 1
846 1044 1
854 1044 1
920 1044 1
930 1044 1
936 1044 1
949 1044 1
377 1045 1
380 1045 1
847 1045 1
855 1045 1
921 1045 1
931 1045 1
937 1045 1
950 1045 1
381 1046 1
397 1046 1
666 1046 1
679 1046 1
951 1046 1
955 1046 1
970 1046 1
972 1046 1
382 1047 1
398 1047 1
667 1047 1
680 1047 1
952 1047 1
956 1047 1
971 1047 1
973 1047 1
383 1048 1
399 1048 1
668 1048 1
681 1048 1
953 1048 1
957 1048 1
972 1048 1
974 1048 1
381 1049 1
384 1049 1
669 1049 1
682 1049 1
954 1049 1
958 1049 1
973 1049 1
975 1049 1
382 1050 1
385 1050 1
670 1050 1
683 1050 1
955 1050 1
959 1050 1
974 1050 1
976 1050 1
383 1051 1
386 1051 1
671 1051 1
684 1051 1
956 1051 1
960 1051 1
975 1051 1
977 1051 1
384 1052 1
387 1052 1
666 1052 1
672 1052 1
957 1052 1
961 1052 1
976 1052 1
978 1052 1
385 1053 1
388 1053 1
667 1053 1
673 1053 1
958 1053 1
962 1053 1
977 1053 1
979 1053 1
386 1054 1
389 1054 1
668 1054 1
674 1054 1
959 1054 1
963 1054 1
978 1054 1
980 1054 1
387 1055 1
390 1055 1
669 1055 1
675 1055 1
960 1055 1
964 1055 1
979 1055 1
981 1055 1
388 1056 1
391 1056 1
670 1056 1
676 1056 1
961 1056 1
965 1056 1
980 1056 1
982 1056 1
389 1057 1
392 1057 1
671 1057 1
677 1057 1
962 1057 1
966 1057 1
981 1057 1
983 1057 1
390 1058 1
393 1058 1
672 1058 1
678 1058 1
963 1058 1
967 1058 1
982 1058 1
984 1058 1
391 1059 1
394 1059 1
673 1059 1
679 1059 1
964 1059 1
968 1059 1
983 1059 1
985 1059 1
392 1060 1
395 1060 1
674 1060 1
680 1060 1
965 1060 1
969 1060 1
984 1060 1
986 1060 1
393 1061 1
396 1061 1
675 1061 1
681 1061 1
951 1061 1
966 1061 1
985 1061 1
987 1061 1
394 1062 1
397 1062 1
676 1062 1
682 1062 1
952 1062 1
967 1062 1
986 1062 1
988 1062 1
395 1063 1
398 1063 1
677 1063 1
683 1063 1
953 1063 1
968 1063 1
970 1063 1
987 1063 1
396 1064 1
399 1064 1
678 1064 1
684 1064 1
954 1064 1
969 1064 1
971 1064 1
988 1064 1
400 1065 1
416 1065 1
685 1065 1
698 1065 1
951 1065 1
956 1065 1
989 1065 1
991 1065 1
401 1066 1
417 1066 1
686 1066 1
699 1066 1
952 1066 1
957 1066 1
990 1066 1
992 1066 1
402 1067 1
418 1067 1
687 1067 1
700 1067 1
953 1067 1
958 1067 1
991 1067 1
993 1067 1
400 1068 1
403 1068 1
688 1068 1
701 1068 1
954 1068 1
959 1068 1
992 1068 1
994 1068 1
401 1069 1
404 1069 1
689 1069 1
702 1069 1
955 1069 1
960 1069 1
993 1069 1
995 1069 1
402 1070 1
405 1070 1
690 1070 1
703 1070 1
956 1070 1
961 1070 1
994 1070 1
996 1070 1
403 1071 1
406 1071 1
685 1071 1
691 1071 1
957 1071 1
962 1071 1
995 1071 1
997 1071 1
404 1072 1
407 1072 1
686 1072 1
692 1072 1
958 1072 1
963 1072 1
996 1072 1
998 1072 1
405 1073 1
408 1073 1
687 1073 1
693 1073 1
959 1073 1
964 1073 1
997 1073 1
999 1073 1
406 1074 1
409 1074 1
688 1074 1
694 1074 1
960 1074 1
965 1074 1
998 1074 1
1000 1074 1
407 1075 1
410 1075 1
689 1075 1
695 1075 1
961 1075 1
966 1075 1
999 1075 1
1001 1075 1
408 1076 1
411 1076 1
690 1076 1
696 1076 1
962 1076 1
967 1076 1
1000 1076 1
1002 1076 1
409 1077 1
412 1077 1
691 1077 1
697 1077 1
963 1077 1
968 1077 1
1001 1077 1
1003 1077 1
410 1078 1
413 1078 1
692 1078 1
698 1078 1
964 1078 1
969 1078 1
1002 1078 1
1004 1078 1
411 1079 1
414 1079 1
693 1079 1
699 1079 1
951 1079 1
965 1079 1
1003 1079 1
1005 1079 1
412 1080 1
415 1080 1
694 1080 1
700 1080 1
952 1080 1
966 1080 1
1004 1080 1
1006 1080 1
413 1081 1
416 1081 1
695 1081 1
701 1081 1
953 1081 1
967 1081 1
1005 1081 1
1007 1081 1
414 1082 1
417 1082 1
696 1082 1
702 1082 1
954 1082 1
968 1082 1
989 1082 1
1006 1082 1
415 1083 1
418 1083 1
697 1083 1
703 1083 1
955 1083 1
969 1083 1
990 1083 1
1007 1083 1
419 1084 1
435 1084 1
704 1084 1
717 1084 1
970 1084 1
975 1084 1
989 1084 1
993 1084 1
420 1085 1
436 1085 1
705 1085 1
718 1085 1
971 1085 1
976 1085 1
990 1085 1
994 1085 1
421 1086 1
437 1086 1
706 1086 1
719 1086 1
972 1086 1
977 1086 1
991 1086 1
995 1086 1
419 1087 1
422 1087 1
707 1087 1
720 1087 1
973 1087 1
978 1087 1
992 1087 1
996 1087 1
420 1088 1
423 1088 1
708 1088 1
721 1088 1
974 1088 1
979 1088 1
993 1088 1
997 1088 1
421 1089 1
424 1089 1
709 1089 1
722 1089 1
975 1089 1
980 1089 1
994 1089 1
998 1089 1
422 1090 1
425 1090 1
704 1090 1
710 1090 1
976 1090 1
981 1090 1
995 1090 1
999 1090 1
423 1091 1
426 1091 1
705 1091 1
711 1091 1
977 1091 1
982 1091 1
996 1091 1
1000 1091 1
424 1092 1
427 1092 1
706 1092 1
712 1092 1
978 1092 1
983 1092 1
997 1092 1
1001 1092 1
425 1093 1
428 1093 1
707 1093 1
713 1093 1
979 1093 1
984 1093 1
998 1093 1
1002 1093 1
426 1094 1
429 1094 1
708 1094 1
714 1094 1
980 1094 1
985 1094 1
999 1094 1
1003 1094 1
427 1095 1
430 1095 1
709 1095 1
715 1095 1
981 1095 1
986 1095 1
1000 1095 1
1004 1095 1
428 1096 1
431 1096 1
710 1096 1
716 1096 1
982 1096 1
987 1096 1
1001 1096 1
1005 1096 1
429 1097 1
432 1097 1
711 1097 1
717 1097 1
983 1097 1
988 1097 1
1002 1097 1
1006 1097 1
430 1098 1
433 1098 1
712 1098 1
718 1098 1
970 1098 1
984 1098 1
1003 1098 1
1007 1098 1
431 1099 1
434 1099 1
713 1099 1
719 1099 1
971 1099 1
985 1099 1
989 1099 1
1004 1099 1
432 1100 1
435 1100 1
714 1100 1
720 1100 1
972 1100 1
986 1100 1
990 1100 1
1005 1100 1
433 1101 1
436 1101 1
715 1101 1
721 1101 1
973 1101 1
987 1101 1
991 1101 1
1006 1101 1
434 1102 1
437 1102 1
716 1102 1
722 1102 1
974 1102 1
988 1102 1
992 1102 1
1007 1102 1
438 1103 1
454 1103 1
723 1103 1
736 1103 1
951 1103 1
957 1103 1
1008 1103 1
1010 1103 1
439 1104 1
455 1104 1
724 1104 1
737 1104 1
952 1104 1
958 1104 1
1009 1104 1
1011 1104 1
440 1105 1
456 1105 1
725 1105 1
738 1105 1
953 1105 1
959 1105 1
1010 1105 1
1012 1105 1
438 1106 1
441 1106 1
726 1106 1
739 1106 1
954 1106 1
960 1106 1
1011 1106 1
1013 1106 1
439 1107 1
442 1107 1
727 1107 1
740 1107 1
955 1107 1
961 1107 1
1012 1107 1
1014 1107 1
440 1108 1
443 1108 1
728 1108 1
741 1108 1
956 1108 1
962 1108 1
1013 1108 1
1015 1108 1
441 1109 1
444 1109 1
723 1109 1
729 1109 1
957 1109 1
963 1109 1
1014 1109 1
1016 1109 1
442 1110 1
445 1110 1
724 1110 1
730 1110 1
958 1110 1
964 1110 1
1015 1110 1
1017 1110 1
443 1111 1
446 1111 1
725 1111 1
731 1111 1
959 1111 1
965 1111 1
1016 1111 1
1018 1111 1
444 1112 1
447 1112 1
726 1112 1
732 1112 1
960 1112 1
966 1112 1
1017 1112 1
1019 1112 1
445 1113 1
448 1113 1
727 1113 1
733 1113 1
961 1113 1
967 1113 1
1018 1113 1
1020 1113 1
446 1114 1
449 1114 1
728 1114 1
734 1114 1
962 1114 1
968 1114 1
1019 1114 1
1021 1114 1
447 1115 1
450 1115 1
729 1115 1
735 1115 1
963 1115 1
969 1115 1
1020 1115 1
1022 1115 1
448 1116 1
451 1116 1
730 1116 1
736 1116 1
951 1116 1
964 1116 1
1021 1116 1
1023 1116 1
449 1117 1
452 1117 1
731 1117 1
737 1117 1
952 1117 1
965 1117 1
1022 1117 1
1024 1117 1
450 1118 1
453 1118 1
732 1118 1
738 1118 1
953 1118 1
966 1118 1
1023 1118 1
1025 1118 1
451 1119 1
454 1119 1
733 1119 1
739 1119 1
954 1119 1
967 1119 1
1024 1119 1
1026 1119 1
452 1120 1
455 1120 1
734 1120 1
740 1120 1
955 1120 1
968 1120 1
1008 1120 1
1025 1120 1
453 1121 1
456 1121 1
735 1121 1
741 1121 1
956 1121 1
969 1121 1
1009 1121 1
1026 1121 1
457 1122 1
473 1122 1
742 1122 1
755 1122 1
970 1122 1
976 1122 1
1008 1122 1
1012 1122 1
458 1123 1
474 1123 1
743 1123 1
756 1123 1
971 1123 1
977 1123 1
1009 1123 1
1013 1123 1
459 1124 1
475 1124 1
744 1124 1
757 1124 1
972 1124 1
978 1124 1
1010 1124 1
1014 1124 1
457 1125 1
460 1125 1
745 1125 1
758 1125 1
973 1125 1
979 1125 1
1011 1125 1
1015 1125 1
458 1126 1
461 1126 1
746 1126 1
759 1126 1
974 1126 1
980 1126 1
1012 1126 1
1016 1126 1
459 1127 1
462 1127 1
747 1127 1
760 1127 1
975 1127 1
981 1127 1
1013 1127 1
1017 1127 1
460 1128 1
463 1128 1
742 1128 1
748 1128 1
976 1128 1
982 1128 1
1014 1128 1
1018 1128 1
461 1129 1
464 1129 1
743 1129 1
749 1129 1
977 1129 1
983 1129 1
1015 1129 1
1019 1129 1
462 1130 1
465 1130 1
744 1130 1
750 1130 1
978 1130 1
984 1130 1
1016 1130 1
1020 1130 1
463 1131 1
466 1131 1
745 1131 1
751 1131 1
979 1131 1
985 1131 1
1017 1131 1
1021 1131 1
464 1132 1
467 1132 1
746 1132 1
752 1132 1
980 1132 1
986 1132 1
1018 1132 1
1022 1132 1
465 1133 1
468 1133 1
747 1133 1
753 1133 1
981 1133 1
987 1133 1
1019 1133 1
1023 1133 1
466 1134 1
469 1134 1
748 1134 1
754 1134 1
982 1134 1
988 1134 1
1020 1134 1
1024 1134 1
467 1135 1
470 1135 1
749 1135 1
755 1135 1
970 1135 1
983 1135 1
1021 1135 1
1025 1135 1
468 1136 1
471 1136 1
750 1136 1
756 1136 1
971 1136 1
984 1136 1
1022 1136 1
1026 1136 1
469 1137 1
472 1137 1
751 1137 1
757 1137 1
972 1137 1
985 1137 1
1008 1137 1
1023 1137 1
470 1138 1
473 1138 1
752 1138 1
758 1138 1
973 1138 1
986 1138 1
1009 1138 1
1024 1138 1
471 1139 1
474 1139 1
753 1139 1
759 1139 1
974 1139 1
987 1139 1
1010 1139 1
1025 1139 1
472 1140 1
475 1140 1
754 1140 1
760 1140 1
975 1140 1
988 1140 1
1011 1140 1
1026 1140 1
476 1141 1
492 1141 1
761 1141 1
774 1141 1
989 1141 1
995 1141 1
1008 1141 1
1013 1141 1
477 1142 1
493 1142 1
762 1142 1
775 1142 1
990 1142 1
996 1142 1
1009 1142 1
1014 1142 1
478 1143 1
494 1143 1
763 1143 1
776 1143 1
991 1143 1
997 1143 1
1010 1143 1
1015 1143 1
476 1144 1
479 1144 1
764 1144 1
777 1144 1
992 1144 1
998 1144 1
1011 1144 1
1016 1144 1
477 1145 1
480 1145 1
765 1145 1
778 1145 1
993 1145 1
999 1145 1
1012 1145 1
1017 1145 1
478 1146 1
481 1146 1
766 1146 1
779 1146 1
994 1146 1
1000 1146 1
1013 1146 1
1018 1146 1
479 1147 1
482 1147 1
761 1147 1
767 1147 1
995 1147 1
1001 1147 1
1014 1147 1
1019 1147 1
480 1148 1
483 1148 1
762 1148 1
768 1148 1
996 1148 1
1002 1148 1
1015 1148 1
1020 1148 1
481 1149 1
484 1149 1
763 1149 1
769 1149 1
997 1149 1
1003 1149 1
1016 1149 1
1021 1149 1
482 1150 1
485 1150 1
764 1150 1
770 1150 1
998 1150 1
1004 1150 1
1017 1150 1
1022 1150 1
483 1151 1
486 1151 1
765 1151 1
771 1151 1
999 1151 1
1005 1151 1
1018 1151 1
1023 1151 1
484 1152 1
487 1152 1
766 1152 1
772 1152 1
1000 1152 1
1006 1152 1
1019 1152 1
1024 1152 1
485 1153 1
488 1153 1
767 1153 1
773 1153 1
1001 1153 1
1007 1153 1
1020 1153 1
1025 1153 1
486 1154 1
489 1154 1
768 1154 1
774 1154 1
989 1154 1
1002 1154 1
1021 1154 1
1026 1154 1
487 1155 1
490 1155 1
769 1155 1
775 1155 1
990 1155 1
1003 1155 1
1008 1155 1
1022 1155 1
488 1156 1
491 1156 1
770 1156 1
776 1156 1
991 1156 1
1004 1156 1
1009 1156 1
1023 1156 1
489 1157 1
492 1157 1
771 1157 1
777 1157 1
992 1157 1
1005 1157 1
1010 1157 1
1024 1157 1
490 1158 1
493 1158 1
772 1158 1
778 1158 1
993 1158 1
1006 1158 1
1011 1158 1
1025 1158 1
491 1159 1
494 1159 1
773 1159 1
779 1159 1
994 1159 1
1007 1159 1
1012 1159 1
1026 1159 1
495 1160 1
511 1160 1
780 1160 1
793 1160 1
951 1160 1
960 1160 1
1027 1160 1
1029 1160 1
496 1161 1
512 1161 1
781 1161 1
794 1161 1
952 1161 1
961 1161 1
1028 1161 1
1030 1161 1
497 1162 1
513 1162 1
782 1162 1
795 1162 1
953 1162 1
962 1162 1
1029 1162 1
1031 1162 1
495 1163 1
498 1163 1
783 1163 1
796 1163 1
954 1163 1
963 1163 1
1030 1163 1
1032 1163 1
496 1164 1
499 1164 1
784 1164 1
797 1164 1
955 1164 1
964 1164 1
1031 1164 1
1033 1164 1
497 1165 1
500 1165 1
785 1165 1
798 1165 1
956 1165 1
965 1165 1
1032 1165 1
1034 1165 1
498 1166 1
501 1166 1
780 1166 1
786 1166 1
957 1166 1
966 1166 1
1033 1166 1
1035 1166 1
499 1167 1
502 1167 1
781 1167 1
787 1167 1
958 1167 1
967 1167 1
1034 1167 1
1036 1167 1
500 1168 1
503 1168 1
782 1168 1
788 1168 1
959 1168 1
968 1168 1
1035 1168 1
1037 1168 1
501 1169 1
504 1169 1
783 1169 1
789 1169 1
960 1169 1
969 1169 1
1036 1169 1
1038 1169 1
502 1170 1
505 1170 1
784 1170 1
790 1170 1
951 1170 1
961 1170 1
1037 1170 1
1039 1170 1
503 1171 1
506 1171 1
785 1171 1
791 1171 1
952 1171 1
962 1171 1
1038 1171 1
1040 1171 1
504 1172 1
507 1172 1
786 1172 1
792 1172 1
953 1172 1
963 1172 1
1039 1172 1
1041 1172 1
505 1173 1
508 1173 1
787 1173 1
793 1173 1
954 1173 1
964 1173 1
1040 1173 1
1042 1173 1
506 1174 1
509 1174 1
788 1174 1
794 1174 1
955 1174 1
965 1174 1
1041 1174 1
1043 1174 1
507 1175 1
510 1175 1
789 1175 1
795 1175 1
956 1175 1
966 1175 1
1042 1175 1
1044 1175 1
508 1176 1
511 1176 1
790 1176 1
796 1176 1
957 1176 1
967 1176 1
1043 1176 1
1045 1176 1
509 1177 1
512 1177 1
791 1177 1
797 1177 1
958 1177 1
968 1177 1
1027 1177 1
1044 1177 1
510 1178 1
513 1178 1
792 1178 1
798 1178 1
959 1178 1
969 1178 1
1028 1178 1
1045 1178 1
514 1179 1
530 1179 1
799 1179 1
812 1179 1
970 1179 1
979 1179 1
1027 1179 1
1031 1179 1
515 1180 1
531 1180 1
800 1180 1
813 1180 1
971 1180 1
980 1180 1
1028 1180 1
1032 1180 1
516 1181 1
532 1181 1
801 1181 1
814 1181 1
972 1181 1
981 1181 1
1029 1181 1
1033 1181 1
514 1182 1
517 1182 1
802 1182 1
815 1182 1
973 1182 1
982 1182 1
1030 1182 1
1034 1182 1
515 1183 1
518 1183 1
803 1183 1
816 1183 1
974 1183 1
983 1183 1
1031 1183 1
1035 1183 1
516 1184 1
519 1184 1
804 1184 1
817 1184 1
975 1184 1
984 1184 1
1032 1184 1
1036 1184 1
517 1185 1
520 1185 1
799 1185 1
805 1185 1
976 1185 1
985 1185 1
1033 1185 1
1037 1185 1
518 1186 1
521 1186 1
800 1186 1
806 1186 1
977 1186 1
986 1186 1
1034 1186 1
1038 1186 1
519 1187 1
522 1187 1
801 1187 1
807 1187 1
978 1187 1
987 1187 1
1035 1187 1
1039 1187 1
520 1188 1
523 1188 1
802 1188 1
808 1188 1
979 1188 1
988 1188 1
1036 1188 1
1040 1188 1
521 1189 1
524 1189 1
803 1189 1
809 1189 1
970 1189 1
980 1189 1
1037 1189 1
1041 1189 1
522 1190 1
525 1190 1
804 1190 1
810 1190 1
971 1190 1
981 1190 1
1038 1190 1
1042 1190 1
523 1191 1
526 1191 1
805 1191 1
811 1191 1
972 1191 1
982 1191 1
1039 1191 1
1043 1191 1
524 1192 1
527 1192 1
806 1192 1
812 1192 1
973 1192 1
983 1192 1
1040 1192 1
1044 1192 1
525 1193 1
528 1193 1
807 1193 1
813 1193 1
974 1193 1
984 1193 1
1041 1193 1
1045 1193 1
526 1194 1
529 1194 1
808 1194 1
814 1194 1
975 1194 1
985 1194 1
1027 1194 1
1042 1194 1
527 1195 1
530 1195 1
809 1195 1
815 1195 1
976 1195 1
986 1195 1
1028 1195 1
1043 1195 1
528 1196 1
531 1196 1
810 1196 1
816 1196 1
977 1196 1
987 1196 1
1029 1196 1
1044 1196 1
529 1197 1
532 1197 1
811 1197 1
817 1197 1
978 1197 1
988 1197 1
1030 1197 1
1045 1197 1
533 1198 1
549 1198 1
818 1198 1
831 1198 1
989 1198 1
998 1198 1
1027 1198 1
1032 1198 1
534 1199 1
550 1199 1
819 1199 1
832 1199 1
990 1199 1
999 1199 1
1028 1199 1
1033 1199 1
535 1200 1
551 1200 1
820 1200 1
833 1200 1
991 1200 1
1000 1200 1
1029 1200 1
1034 1200 1
533 1201 1
536 1201 1
821 1201 1
834 1201 1
992 1201 1
1001 1201 1
1030 1201 1
1035 1201 1
534 1202 1
537 1202 1
822 1202 1
835 1202 1
993 1202 1
1002 1202 1
1031 1202 1
1036 1202 1
535 1203 1
538 1203 1
823 1203 1
836 1203 1
994 1203 1
1003 1203 1
1032 1203 1
1037 1203 1
536 1204 1
539 1204 1
818 1204 1
824 1204 1
995 1204 1
1004 1204 1
1033 1204 1
1038 1204 1
537 1205 1
540 1205 1
819 1205 1
825 1205 1
996 1205 1
1005 1205 1
1034 1205 1
1039 1205 1
538 1206 1
541 1206 1
820 1206 1
826 1206 1
997 1206 1
1006 1206 1
1035 1206 1
1040 1206 1
539 1207 1
542 1207 1
821 1207 1
827 1207 1
998 1207 1
1007 1207 1
1036 1207 1
1041 1207 1
540 1208 1
543 1208 1
822 1208 1
828 1208 1
989 1208 1
999 1208 1
1037 1208 1
1042 1208 1
541 1209 1
544 1209 1
823 1209 1
829 1209 1
990 1209 1
1000 1209 1
1038 1209 1
1043 1209 1
542 1210 1
545 1210 1
824 1210 1
830 1210 1
991 1210 1
1001 1210 1
1039 1210 1
1044 1210 1
543 1211 1
546 1211 1
825 1211 1
831 1211 1
992 1211 1
1002 1211 1
1040 1211 1
1045 1211 1
544 1212 1
547 1212 1
826 1212 1
832 1212 1
993 1212 1
1003 1212 1
1027 1212 1
1041 1212 1
545 1213 1
548 1213 1
827 1213 1
833 1213 1
994 1213 1
1004 1213 1
1028 1213 1
1042 1213 1
546 1214 1
549 1214 1
828 1214 1
834 1214 1
995 1214 1
1005 1214 1
1029 1214 1
1043 1214 1
547 1215 1
550 1215 1
829 1215 1
835 1215 1
996 1215 1
1006 1215 1
1030 1215 1
1044 1215 1
548 1216 1
551 1216 1
830 1216 1
836 1216 1
997 1216 1
1007 1216 1
1031 1216 1
1045 1216 1
552 1217 1
568 1217 1
837 1217 1
850 1217 1
1008 1217 1
1017 1217 1
1027 1217 1
1033 1217 1
553 1218 1
569 1218 1
838 1218 1
851 1218 1
1009 1218 1
1018 1218 1
1028 1218 1
1034 1218 1
554 1219 1
570 1219 1
839 1219 1
852 1219 1
1010 1219 1
1019 1219 1
1029 1219 1
1035 1219 1
552 1220 1
555 1220 1
840 1220 1
853 1220 1
1011 1220 1
1020 1220 1
1030 1220 1
1036 1220 1
553 1221 1
556 1221 1
841 1221 1
854 1221 1
1012 1221 1
1021 1221 1
1031 1221 1
1037 1221 1
554 1222 1
557 1222 1
842 1222 1
855 1222 1
1013 1222 1
1022 1222 1
1032 1222 1
1038 1222 1
555 1223 1
558 1223 1
837 1223 1
843 1223 1
1014 1223 1
1023 1223 1
1033 1223 1
1039 1223 1
556 1224 1
559 1224 1
838 1224 1
844 1224 1
1015 1224 1
1024 1224 1
1034 1224 1
1040 1224 1
557 1225 1
560 1225 1
839 1225 1
845 1225 1
1016 1225 1
1025 1225 1
1035 1225 1
1041 1225 1
558 1226 1
561 1226 1
840 1226 1
846 1226 1
1017 1226 1
1026 1226 1
1036 1226 1
1042 1226 1
559 1227 1
562 1227 1
841 1227 1
847 1227 1
1008 1227 1
1018 1227 1
1037 1227 1
1043 1227 1
560 1228 1
563 1228 1
842 1228 1
848 1228 1
1009 1228 1
1019 1228 1
1038 1228 1
1044 1228 1
561 1229 1
564 1229 1
843 1229 1
849 1229 1
1010 1229 1
1020 1229 1
1039 1229 1
1045 1229 1
562 1230 1
565 1230 1
844 1230 1
850 1230 1
1011 1230 1
1021 1230 1
1027 1230 1
1040 1230 1
563 1231 1
566 1231 1
845 1231 1
851 1231 1
1012 1231 1
1022 1231 1
1028 1231 1
1041 1231 1
564 1232 1
567 1232 1
846 1232 1
852 1232 1
1013 1232 1
1023 1232 1
1029 1232 1
1042 1232 1
565 1233 1
568 1233 1
847 1233 1
853 1233 1
1014 1233 1
1024 1233 1
1030 1233 1
1043 1233 1
566 1234 1
569 1234 1
848 1234 1
854 1234 1
1015 1234 1
1025 1234 1
1031 1234 1
1044 1234 1
567 1235 1
570 1235 1
849 1235 1
855 1235 1
1016 1235 1
1026 1235 1
1032 1235 1
1045 1235 1
571 1236 1
587 1236 1
856 1236 1
869 1236 1
951 1236 1
962 1236 1
1046 1236 1
1048 1236 1
572 1237 1
588 1237 1
857 1237 1
870 1237 1
952 1237 1
963 1237 1
1047 1237 1
1049 1237 1
573 1238 1
589 1238 1
858 1238 1
871 1238 1
953 1238 1
964 1238 1
1048 1238 1
1050 1238 1
571 1239 1
574 1239 1
859 1239 1
872 1239 1
954 1239 1
965 1239 1
1049 1239 1
1051 1239 1
572 1240 1
575 1240 1
860 1240 1
873 1240 1
955 1240 1
966 1240 1
1050 1240 1
1052 1240 1
573 1241 1
576 1241 1
861 1241 1
874 1241 1
956 1241 1
967 1241 1
1051 1241 1
1053 1241 1
574 1242 1
577 1242 1
856 1242 1
862 1242 1
957 1242 1
968 1242 1
1052 1242 1
1054 1242 1
575 1243 1
578 1243 1
857 1243 1
863 1243 1
958 1243 1
969 1243 1
1053 1243 1
1055 1243 1
576 1244 1
579 1244 1
858 1244 1
864 1244 1
951 1244 1
959 1244 1
1054 1244 1
1056 1244 1
577 1245 1
580 1245 1
859 1245 1
865 1245 1
952 1245 1
960 1245 1
1055 1245 1
1057 1245 1
578 1246 1
581 1246 1
860 1246 1
866 1246 1
953 1246 1
961 1246 1
1056 1246 1
1058 1246 1
579 1247 1
582 1247 1
861 1247 1
867 1247 1
954 1247 1
962 1247 1
1057 1247 1
1059 1247 1
580 1248 1
583 1248 1
862 1248 1
868 1248 1
955 1248 1
963 1248 1
1058 1248 1
1060 1248 1
581 1249 1
584 1249 1
863 1249 1
869 1249 1
956 1249 1
964 1249 1
1059 1249 1
1061 1249 1
582 1250 1
585 1250 1
864 1250 1
870 1250 1
957 1250 1
965 1250 1
1060 1250 1
1062 1250 1
583 1251 1
586 1251 1
865 1251 1
871 1251 1
958 1251 1
966 1251 1
1061 1251 1
1063 1251 1
584 1252 1
587 1252 1
866 1252 1
872 1252 1
959 1252 1
967 1252 1
1062 1252 1
1064 1252 1
585 1253 1
588 1253 1
867 1253 1
873 1253 1
960 1253 1
968 1253 1
1046 1253 1
1063 1253 1
586 1254 1
589 1254 1
868 1254 1
874 1254 1
961 1254 1
969 1254 1
1047 1254 1
1064 1254 1
590 1255 1
606 1255 1
875 1255 1
888 1255 1
970 1255 1
981 1255 1
1046 1255 1
1050 1255 1
591 1256 1
607 1256 1
876 1256 1
889 1256 1
971 1256 1
982 1256 1
1047 1256 1
1051 1256 1
592 1257 1
608 1257 1
877 1257 1
890 1257 1
972 1257 1
983 1257 1
1048 1257 1
1052 1257 1
590 1258 1
593 1258 1
878 1258 1
891 1258 1
973 1258 1
984 1258 1
1049 1258 1
1053 1258 1
591 1259 1
594 1259 1
879 1259 1
892 1259 1
974 1259 1
985 1259 1
1050 1259 1
1054 1259 1
592 1260 1
595 1260 1
880 1260 1
893 1260 1
975 1260 1
986 1260 1
1051 1260 1
1055 1260 1
593 1261 1
596 1261 1
875 1261 1
881 1261 1
976 1261 1
987 1261 1
1052 1261 1
1056 1261 1
594 1262 1
597 1262 1
876 1262 1
882 1262 1
977 1262 1
988 1262 1
1053 1262 1
1057 1262 1
595 1263 1
598 1263 1
877 1263 1
883 1263 1
970 1263 1
978 1263 1
1054 1263 1
1058 1263 1
596 1264 1
599 1264 1
878 1264 1
884 1264 1
971 1264 1
979 1264 1
1055 1264 1
1059 1264 1
597 1265 1
600 1265 1
879 1265 1
885 1265 1
972 1265 1
980 1265 1
1056 1265 1
1060 1265 1
598 1266 1
601 1266 1
880 1266 1
886 1266 1
973 1266 1
981 1266 1
1057 1266 1
1061 1266 1
599 1267 1
602 1267 1
881 1267 1
887 1267 1
974 1267 1
982 1267 1
1058 1267 1
1062 1267 1
600 1268 1
603 1268 1
882 1268 1
888 1268 1
975 1268 1
983 1268 1
1059 1268 1
1063 1268 1
601 1269 1
604 1269 1
883 1269 1
889 1269 1
976 1269 1
984 1269 1
1060 1269 1
1064 1269 1
602 1270 1
605 1270 1
884 1270 1
890 1270 1
977 1270 1
985 1270 1
1046 1270 1
1061 1270 1
603 1271 1
606 1271 1
885 1271 1
891 1271 1
978 1271 1
986 1271 1
1047 1271 1
1062 1271 1
604 1272 1
607 1272 1
886 1272 1
892 1272 1
979 1272 1
987 1272 1
1048 1272 1
1063 1272 1
605 1273 1
608 1273 1
887 1273 1
893 1273 1
980 1273 1
988 1273 1
1049 1273 1
1064 1273 1
609 1274 1
625 1274 1
894 1274 1
907 1274 1
989 1274 1
1000 1274 1
1046 1274 1
1051 1274 1
610 1275 1
626 1275 1
895 1275 1
908 1275 1
990 1275 1
1001 1275 1
1047 1275 1
1052 1275 1
611 1276 1
627 1276 1
896 1276 1
909 1276 1
991 1276 1
1002 1276 1
1048 1276 1
1053 1276 1
609 1277 1
612 1277 1
897 1277 1
910 1277 1
992 1277 1
1003 1277 1
1049 1277 1
1054 1277 1
610 1278 1
613 1278 1
898 1278 1
911 1278 1
993 1278 1
1004 1278 1
1050 1278 1
1055 1278 1
611 1279 1
614 1279 1
899 1279 1
912 1279 1
994 1279 1
1005 1279 1
1051 1279 1
1056 1279 1
612 1280 1
615 1280 1
894 1280 1
900 1280 1
995 1280 1
1006 1280 1
1052 1280 1
1057 1280 1
613 1281 1
616 1281 1
895 1281 1
901 1281 1
996 1281 1
1007 1281 1
1053 1281 1
1058 1281 1
614 1282 1
617 1282 1
896 1282 1
902 1282 1
989 1282 1
997 1282 1
1054 1282 1
1059 1282 1
615 1283 1
618 1283 1
897 1283 1
903 1283 1
990 1283 1
998 1283 1
1055 1283 1
1060 1283 1
616 1284 1
619 1284 1
898 1284 1
904 1284 1
991 1284 1
999 1284 1
1056 1284 1
1061 1284 1
617 1285 1
620 1285 1
899 1285 1
905 1285 1
992 1285 1
1000 1285 1
1057 1285 1
1062 1285 1
618 1286 1
621 1286 1
900 1286 1
906 1286 1
993 1286 1
1001 1286 1
1058 1286 1
1063 1286 1
619 1287 1
622 1287 1
901 1287 1
907 1287 1
994 1287 1
1002 1287 1
1059 1287 1
1064 1287 1
620 1288 1
623 1288 1
902 1288 1
908 1288 1
995 1288 1
1003 1288 1
1046 1288 1
1060 1288 1
621 1289 1
624 1289 1
903 1289 1
909 1289 1
996 1289 1
1004 1289 1
1047 1289 1
1061 1289 1
622 1290 1
625 1290 1
904 1290 1
910 1290 1
997 1290 1
1005 1290 1
1048 1290 1
1062 1290 1
623 1291 1
626 1291 1
905 1291 1
911 1291 1
998 1291 1
1006 1291 1
1049 1291 1
1063 1291 1
624 1292 1
627 1292 1
906 1292 1
912 1292 1
999 1292 1
1007 1292 1
1050 1292 1
1064 1292 1
628 1293 1
644 1293 1
913 1293 1
926 1293 1
1008 1293 1
1019 1293 1
1046 1293 1
1052 1293 1
629 1294 1
645 1294 1
914 1294 1
927 1294 1
1009 1294 1
1020 1294 1
1047 1294 1
1053 1294 1
630 1295 1
646 1295 1
915 1295 1
928 1295 1
1010 1295 1
1021 1295 1
1048 1295 1
1054 1295 1
628 1296 1
631 1296 1
916 1296 1
929 1296 1
1011 1296 1
1022 1296 1
1049 1296 1
1055 1296 1
629 1297 1
632 1297 1
917 1297 1
930 1297 1
1012 1297 1
1023 1297 1
1050 1297 1
1056 1297 1
630 1298 1
633 1298 1
918 1298 1
931 1298 1
1013 1298 1
1024 1298 1
1051 1298 1
1057 1298 1
631 1299 1
634 1299 1
913 1299 1
919 1299 1
1014 1299 1
1025 1299 1
1052 1299 1
1058 1299 1
632 1300 1
635 1300 1
914 1300 1
920 1300 1
1015 1300 1
1026 1300 1
1053 1300 1
1059 1300 1
633 1301 1
636 1301 1
915 1301 1
921 1301 1
1008 1301 1
1016 1301 1
1054 1301 1
1060 1301 1
634 1302 1
637 1302 1
916 1302 1
922 1302 1
1009 1302 1
1017 1302 1
1055 1302 1
1061 1302 1
635 1303 1
638 1303 1
917 1303 1
923 1303 1
1010 1303 1
1018 1303 1
1056 1303 1
1062 1303 1
636 1304 1
639 1304 1
918 1304 1
924 1304 1
1011 1304 1
1019 1304 1
1057 1304 1
1063 1304 1
637 1305 1
640 1305 1
919 1305 1
925 1305 1
1012 1305 1
1020 1305 1
1058 1305 1
1064 1305 1
638 1306 1
641 1306 1
920 1306 1
926 1306 1
1013 1306 1
1021 1306 1
1046 1306 1
1059 1306 1
639 1307 1
642 1307 1
921 1307 1
927 1307 1
1014 1307 1
1022 1307 1
1047 1307 1
1060 1307 1
640 1308 1
643 1308 1
922 1308 1
928 1308 1
1015 1308 1
1023 1308 1
1048 1308 1
1061 1308 1
641 1309 1
644 1309 1
923 1309 1
929 1309 1
1016 1309 1
1024 1309 1
1049 1309 1
1062 1309 1
642 1310 1
645 1310 1
924 1310 1
930 1310 1
1017 1310 1
1025 1310 1
1050 1310 1
1063 1310 1
643 1311 1
646 1311 1
925 1311 1
931 1311 1
1018 1311 1
1026 1311 1
1051 1311 1
1064 1311 1
647 1312 1
663 1312 1
932 1312 1
945 1312 1
1027 1312 1
1038 1312 1
1046 1312 1
1055 1312 1
648 1313 1
664 1313 1
933 1313 1
946 1313 1
1028 1313 1
1039 1313 1
1047 1313 1
1056 1313 1
649 1314 1
665 1314 1
934 1314 1
947 1314 1
1029 1314 1
1040 1314 1
1048 1314 1
1057 1314 1
647 1315 1
650 1315 1
935 1315 1
948 1315 1
1030 1315 1
1041 1315 1
1049 1315 1
1058 1315 1
648 1316 1
651 1316 1
936 1316 1
949 1316 1
1031 1316 1
1042 1316 1
1050 1316 1
1059 1316 1
649 1317 1
652 1317 1
937 1317 1
950 1317 1
1032 1317 1
1043 1317 1
1051 1317 1
1060 1317 1
650 1318 1
653 1318 1
932 1318 1
938 1318 1
1033 1318 1
1044 1318 1
1052 1318 1
1061 1318 1
651 1319 1
654 1319 1
933 1319 1
939 1319 1
1034 1319 1
1045 1319 1
1053 1319 1
1062 1319 1
652 1320 1
655 1320 1
934 1320 1
940 1320 1
1027 1320 1
1035 1320 1
1054 1320 1
1063 1320 1
653 1321 1
656 1321 1
935 1321 1
941 1321 1
1028 1321 1
1036 1321 1
1055 1321 1
1064 1321 1
654 1322 1
657 1322 1
936 1322 1
942 1322 1
1029 1322 1
1037 1322 1
1046 1322 1
1056 1322 1
655 1323 1
658 1323 1
937 1323 1
943 1323 1
1030 1323 1
1038 1323 1
1047 1323 1
1057 1323 1
656 1324 1
659 1324 1
938 1324 1
944 1324 1
1031 1324 1
1039 1324 1
1048 1324 1
1058 1324 1
657 1325 1
660 1325 1
939 1325 1
945 1325 1
1032 1325 1
1040 1325 1
1049 1325 1
1059 1325 1
658 1326 1
661 1326 1
940 1326 1
946 1326 1
1033 1326 1
1041 1326 1
1050 1326 1
1060 1326 1
659 1327 1
662 1327 1
941 1327 1
947 1327 1
1034 1327 1
1042 1327 1
1051 1327 1
1061 1327 1
660 1328 1
663 1328 1
942 1328 1
948 1328 1
1035 1328 1
1043 1328 1
1052 1328 1
1062 1328 1
661 1329 1
664 1329 1
943 1329 1
949 1329 1
1036 1329 1
1044 1329 1
1053 1329 1
1063 1329 1
662 1330 1
665 1330 1
944 1330 1
950 1330 1
1037 1330 1
1045 1330 1
1054 1330 1
1064 1330 1
