%%MatrixMarket matrix coordinate integer general
% Binary matrix; one-based indices; arithmetic over GF(2)
1064 1330 10640
1 1 1
11 1 1
20 1 1
28 1 1
115 1 1
121 1 1
400 1 1
403 1 1
2 2 1
12 2 1
21 2 1
29 2 1
116 2 1
122 2 1
401 2 1
404 2 1
3 3 1
13 3 1
22 3 1
30 3 1
117 3 1
123 3 1
402 3 1
405 3 1
4 4 1
14 4 1
23 4 1
31 4 1
118 4 1
124 4 1
403 4 1
406 4 1
5 5 1
15 5 1
24 5 1
32 5 1
119 5 1
125 5 1
404 5 1
407 5 1
6 6 1
16 6 1
25 6 1
33 6 1
120 6 1
126 6 1
405 6 1
408 6 1
7 7 1
17 7 1
26 7 1
34 7 1
121 7 1
127 7 1
406 7 1
409 7 1
8 8 1
18 8 1
27 8 1
35 8 1
122 8 1
128 8 1
407 8 1
410 8 1
9 9 1
19 9 1
28 9 1
36 9 1
123 9 1
129 9 1
408 9 1
411 9 1
1 10 1
10 10 1
29 10 1
37 10 1
124 10 1
130 10 1
409 10 1
412 10 1
2 11 1
11 11 1
30 11 1
38 11 1
125 11 1
131 11 1
410 11 1
413 11 1
3 12 1
12 12 1
20 12 1
31 12 1
126 12 1
132 12 1
411 12 1
414 12 1
4 13 1
13 13 1
21 13 1
32 13 1
127 13 1
133 13 1
412 13 1
415 13 1
5 14 1
14 14 1
22 14 1
33 14 1
115 14 1
128 14 1
413 14 1
416 14 1
6 15 1
15 15 1
23 15 1
34 15 1
116 15 1
129 15 1
414 15 1
417 15 1
7 16 1
16 16 1
24 16 1
35 16 1
117 16 1
130 16 1
415 16 1
418 16 1
8 17 1
17 17 1
25 17 1
36 17 1
118 17 1
131 17 1
400 17 1
416 17 1
9 18 1
18 18 1
26 18 1
37 18 1
119 18 1
132 18 1
401 18 1
417 18 1
10 19 1
19 19 1
27 19 1
38 19 1
120 19 1
133 19 1
402 19 1
418 19 1
1 20 1
14 20 1
39 20 1
47 20 1
134 20 1
140 20 1
419 20 1
422 20 1
2 21 1
15 21 1
40 21 1
48 21 1
135 21 1
141 21 1
420 21 1
423 21 1
3 22 1
16 22 1
41 22 1
49 22 1
136 22 1
142 22 1
421 22 1
424 22 1
4 23 1
17 23 1
42 23 1
50 23 1
137 23 1
143 23 1
422 23 1
425 23 1
5 24 1
18 24 1
43 24 1
51 24 1
138 24 1
144 24 1
423 24 1
426 24 1
6 25 1
19 25 1
44 25 1
52 25 1
139 25 1
145 25 1
424 25 1
427 25 1
1 26 1
7 26 1
45 26 1
53 26 1
140 26 1
146 26 1
425 26 1
428 26 1
2 27 1
8 27 1
46 27 1
54 27 1
141 27 1
147 27 1
426 27 1
429 27 1
3 28 1
9 28 1
47 28 1
55 28 1
142 28 1
148 28 1
427 28 1
430 28 1
4 29 1
10 29 1
48 29 1
56 29 1
143 29 1
149 29 1
428 29 1
431 29 1
5 30 1
11 30 1
49 30 1
57 30 1
144 30 1
150 30 1
429 30 1
432 30 1
6 31 1
12 31 1
39 31 1
50 31 1
145 31 1
151 31 1
430 31 1
433 31 1
7 32 1
13 32 1
40 32 1
51 32 1
146 32 1
152 32 1
431 32 1
434 32 1
8 33 1
14 33 1
41 33 1
52 33 1
134 33 1
147 33 1
432 33 1
435 33 1
9 34 1
15 34 1
42 34 1
53 34 1
135 34 1
148 34 1
433 34 1
436 34 1
10 35 1
16 35 1
43 35 1
54 35 1
136 35 1
149 35 1
434 35 1
437 35 1
11 36 1
17 36 1
44 36 1
55 36 1
137 36 1
150 36 1
419 36 1
435 36 1
12 37 1
18 37 1
45 37 1
56 37 1
138 37 1
151 37 1
420 37 1
436 37 1
13 38 1
19 38 1
46 38 1
57 38 1
139 38 1
152 38 1
421 38 1
437 38 1
1 39 1
15 39 1
58 39 1
66 39 1
153 39 1
159 39 1
438 39 1
441 39 1
2 40 1
16 40 1
59 40 1
67 40 1
154 40 1
160 40 1
439 40 1
442 40 1
3 41 1
17 41 1
60 41 1
68 41 1
155 41 1
161 41 1
440 41 1
443 41 1
4 42 1
18 42 1
61 42 1
69 42 1
156 42 1
162 42 1
441 42 1
444 42 1
5 43 1
19 43 1
62 43 1
70 43 1
157 43 1
163 43 1
442 43 1
445 43 1
1 44 1
6 44 1
63 44 1
71 44 1
158 44 1
164 44 1
443 44 1
446 44 1
2 45 1
7 45 1
64 45 1
72 45 1
159 45 1
165 45 1
444 45 1
447 45 1
3 46 1
8 46 1
65 46 1
73 46 1
160 46 1
166 46 1
445 46 1
448 46 1
4 47 1
9 47 1
66 47 1
74 47 1
161 47 1
167 47 1
446 47 1
449 47 1
5 48 1
10 48 1
67 48 1
75 48 1
162 48 1
168 48 1
447 48 1
450 48 1
6 49 1
11 49 1
68 49 1
76 49 1
163 49 1
169 49 1
448 49 1
451 49 1
7 50 1
12 50 1
58 50 1
69 50 1
164 50 1
170 50 1
449 50 1
452 50 1
8 51 1
13 51 1
59 51 1
70 51 1
165 51 1
171 51 1
450 51 1
453 51 1
9 52 1
14 52 1
60 52 1
71 52 1
153 52 1
166 52 1
451 52 1
454 52 1
10 53 1
15 53 1
61 53 1
72 53 1
154 53 1
167 53 1
452 53 1
455 53 1
11 54 1
16 54 1
62 54 1
73 54 1
155 54 1
168 54 1
453 54 1
456 54 1
12 55 1
17 55 1
63 55 1
74 55 1
156 55 1
169 55 1
438 55 1
454 55 1
13 56 1
18 56 1
64 56 1
75 56 1
157 56 1
170 56 1
439 56 1
455 56 1
14 57 1
19 57 1
65 57 1
76 57 1
158 57 1
171 57 1
440 57 1
456 57 1
1 58 1
16 58 1
77 58 1
85 58 1
172 58 1
178 58 1
457 58 1
460 58 1
2 59 1
17 59 1
78 59 1
86 59 1
173 59 1
179 59 1
458 59 1
461 59 1
3 60 1
18 60 1
79 60 1
87 60 1
174 60 1
180 60 1
459 60 1
462 60 1
4 61 1
19 61 1
80 61 1
88 61 1
175 61 1
181 61 1
460 61 1
463 61 1
1 62 1
5 62 1
81 62 1
89 62 1
176 62 1
182 62 1
461 62 1
464 62 1
2 63 1
6 63 1
82 63 1
90 63 1
177 63 1
183 63 1
462 63 1
465 63 1
3 64 1
7 64 1
83 64 1
91 64 1
178 64 1
184 64 1
463 64 1
466 64 1
4 65 1
8 65 1
84 65 1
92 65 1
179 65 1
185 65 1
464 65 1
467 65 1
5 66 1
9 66 1
85 66 1
93 66 1
180 66 1
186 66 1
465 66 1
468 66 1
6 67 1
10 67 1
86 67 1
94 67 1
181 67 1
187 67 1
466 67 1
469 67 1
7 68 1
11 68 1
87 68 1
95 68 1
182 68 1
188 68 1
467 68 1
470 68 1
8 69 1
12 69 1
77 69 1
88 69 1
183 69 1
189 69 1
468 69 1
471 69 1
9 70 1
13 70 1
78 70 1
89 70 1
184 70 1
190 70 1
469 70 1
472 70 1
10 71 1
14 71 1
79 71 1
90 71 1
172 71 1
185 71 1
470 71 1
473 71 1
11 72 1
15 72 1
80 72 1
91 72 1
173 72 1
186 72 1
471 72 1
474 72 1
12 73 1
16 73 1
81 73 1
92 73 1
174 73 1
187 73 1
472 73 1
475 73 1
13 74 1
17 74 1
82 74 1
93 74 1
175 74 1
188 74 1
457 74 1
473 74 1
14 75 1
18 75 1
83 75 1
94 75 1
176 75 1
189 75 1
458 75 1
474 75 1
15 76 1
19 76 1
84 76 1
95 76 1
177 76 1
190 76 1
459 76 1
475 76 1
1 77 1
18 77 1
96 77 1
104 77 1
191 77 1
197 77 1
476 77 1
479 77 1
2 78 1
19 78 1
97 78 1
105 78 1
192 78 1
198 78 1
477 78 1
480 78 1
1 79 1
3 79 1
98 79 1
106 79 1
193 79 1
199 79 1
478 79 1
481 79 1
2 80 1
4 80 1
99 80 1
107 80 1
194 80 1
200 80 1
479 80 1
482 80 1
3 81 1
5 81 1
100 81 1
108 81 1
195 81 1
201 81 1
480 81 1
483 81 1
4 82 1
6 82 1
101 82 1
109 82 1
196 82 1
202 82 1
481 82 1
484 82 1
5 83 1
7 83 1
102 83 1
110 83 1
197 83 1
203 83 1
482 83 1
485 83 1
6 84 1
8 84 1
103 84 1
111 84 1
198 84 1
204 84 1
483 84 1
486 84 1
7 85 1
9 85 1
104 85 1
112 85 1
199 85 1
205 85 1
484 85 1
487 85 1
8 86 1
10 86 1
105 86 1
113 86 1
200 86 1
206 86 1
485 86 1
488 86 1
9 87 1
11 87 1
106 87 1
114 87 1
201 87 1
207 87 1
486 87 1
489 87 1
10 88 1
12 88 1
96 88 1
107 88 1
202 88 1
208 88 1
487 88 1
490 88 1
11 89 1
13 89 1
97 89 1
108 89 1
203 89 1
209 89 1
488 89 1
491 89 1
12 90 1
14 90 1
98 90 1
109 90 1
191 90 1
204 90 1
489 90 1
492 90 1
13 91 1
15 91 1
99 91 1
110 91 1
192 91 1
205 91 1
490 91 1
493 91 1
14 92 1
16 92 1
100 92 1
111 92 1
193 92 1
206 92 1
491 92 1
494 92 1
15 93 1
17 93 1
101 93 1
112 93 1
194 93 1
207 93 1
476 93 1
492 93 1
16 94 1
18 94 1
102 94 1
113 94 1
195 94 1
208 94 1
477 94 1
493 94 1
17 95 1
19 95 1
103 95 1
114 95 1
196 95 1
209 95 1
478 95 1
494 95 1
20 96 1
33 96 1
39 96 1
49 96 1
210 96 1
216 96 1
495 96 1
498 96 1
21 97 1
34 97 1
40 97 1
50 97 1
211 97 1
217 97 1
496 97 1
499 97 1
22 98 1
35 98 1
41 98 1
51 98 1
212 98 1
218 98 1
497 98 1
500 98 1
23 99 1
36 99 1
42 99 1
52 99 1
213 99 1
219 99 1
498 99 1
501 99 1
24 100 1
37 100 1
43 100 1
53 100 1
214 100 1
220 100 1
499 100 1
502 100 1
25 101 1
38 101 1
44 101 1
54 101 1
215 101 1
221 101 1
500 101 1
503 101 1
20 102 1
26 102 1
45 102 1
55 102 1
216 102 1
222 102 1
501 102 1
504 102 1
21 103 1
27 103 1
46 103 1
56 103 1
217 103 1
223 103 1
502 103 1
505 103 1
22 104 1
28 104 1
47 104 1
57 104 1
218 104 1
224 104 1
503 104 1
506 104 1
23 105 1
29 105 1
39 105 1
48 105 1
219 105 1
225 105 1
504 105 1
507 105 1
24 106 1
30 106 1
40 106 1
49 106 1
220 106 1
226 106 1
505 106 1
508 106 1
25 107 1
31 107 1
41 107 1
50 107 1
221 107 1
227 107 1
506 107 1
509 107 1
26 108 1
32 108 1
42 108 1
51 108 1
222 108 1
228 108 1
507 108 1
510 108 1
27 109 1
33 109 1
43 109 1
52 109 1
210 109 1
223 109 1
508 109 1
511 109 1
28 110 1
34 110 1
44 110 1
53 110 1
211 110 1
224 110 1
509 110 1
512 110 1
29 111 1
35 111 1
45 111 1
54 111 1
212 111 1
225 111 1
510 111 1
513 111 1
30 112 1
36 112 1
46 112 1
55 112 1
213 112 1
226 112 1
495 112 1
511 112 1
31 113 1
37 113 1
47 113 1
56 113 1
214 113 1
227 113 1
496 113 1
512 113 1
32 114 1
38 114 1
48 114 1
57 114 1
215 114 1
228 114 1
497 114 1
513 114 1
20 115 1
34 115 1
58 115 1
68 115 1
229 115 1
235 115 1
514 115 1
517 115 1
21 116 1
35 116 1
59 116 1
69 116 1
230 116 1
236 116 1
515 116 1
518 116 1
22 117 1
36 117 1
60 117 1
70 117 1
231 117 1
237 117 1
516 117 1
519 117 1
23 118 1
37 118 1
61 118 1
71 118 1
232 118 1
238 118 1
517 118 1
520 118 1
24 119 1
38 119 1
62 119 1
72 119 1
233 119 1
239 119 1
518 119 1
521 119 1
20 120 1
25 120 1
63 120 1
73 120 1
234 120 1
240 120 1
519 120 1
522 120 1
21 121 1
26 121 1
64 121 1
74 121 1
235 121 1
241 121 1
520 121 1
523 121 1
22 122 1
27 122 1
65 122 1
75 122 1
236 122 1
242 122 1
521 122 1
524 122 1
23 123 1
28 123 1
66 123 1
76 123 1
237 123 1
243 123 1
522 123 1
525 123 1
24 124 1
29 124 1
58 124 1
67 124 1
238 124 1
244 124 1
523 124 1
526 124 1
25 125 1
30 125 1
59 125 1
68 125 1
239 125 1
245 125 1
524 125 1
527 125 1
26 126 1
31 126 1
60 126 1
69 126 1
240 126 1
246 126 1
525 126 1
528 126 1
27 127 1
32 127 1
61 127 1
70 127 1
241 127 1
247 127 1
526 127 1
529 127 1
28 128 1
33 128 1
62 128 1
71 128 1
229 128 1
242 128 1
527 128 1
530 128 1
29 129 1
34 129 1
63 129 1
72 129 1
230 129 1
243 129 1
528 129 1
531 129 1
30 130 1
35 130 1
64 130 1
73 130 1
231 130 1
244 130 1
529 130 1
532 130 1
31 131 1
36 131 1
65 131 1
74 131 1
232 131 1
245 131 1
514 131 1
530 131 1
32 132 1
37 132 1
66 132 1
75 132 1
233 132 1
246 132 1
515 132 1
531 132 1
33 133 1
38 133 1
67 133 1
76 133 1
234 133 1
247 133 1
516 133 1
532 133 1
20 134 1
35 134 1
77 134 1
87 134 1
248 134 1
254 134 1
533 134 1
536 134 1
21 135 1
36 135 1
78 135 1
88 135 1
249 135 1
255 135 1
534 135 1
537 135 1
22 136 1
37 136 1
79 136 1
89 136 1
250 136 1
256 136 1
535 136 1
538 136 1
23 137 1
38 137 1
80 137 1
90 137 1
251 137 1
257 137 1
536 137 1
539 137 1
20 138 1
24 138 1
81 138 1
91 138 1
252 138 1
258 138 1
537 138 1
540 138 1
21 139 1
25 139 1
82 139 1
92 139 1
253 139 1
259 139 1
538 139 1
541 139 1
22 140 1
26 140 1
83 140 1
93 140 1
254 140 1
260 140 1
539 140 1
542 140 1
23 141 1
27 141 1
84 141 1
94 141 1
255 141 1
261 141 1
540 141 1
543 141 1
24 142 1
28 142 1
85 142 1
95 142 1
256 142 1
262 142 1
541 142 1
544 142 1
25 143 1
29 143 1
77 143 1
86 143 1
257 143 1
263 143 1
542 143 1
545 143 1
26 144 1
30 144 1
78 144 1
87 144 1
258 144 1
264 144 1
543 144 1
546 144 1
27 145 1
31 145 1
79 145 1
88 145 1
259 145 1
265 145 1
544 145 1
547 145 1
28 146 1
32 146 1
80 146 1
89 146 1
260 146 1
266 146 1
545 146 1
548 146 1
29 147 1
33 147 1
81 147 1
90 147 1
248 147 1
261 147 1
546 147 1
549 147 1
30 148 1
34 148 1
82 148 1
91 148 1
249 148 1
262 148 1
547 148 1
550 148 1
31 149 1
35 149 1
83 149 1
92 149 1
250 149 1
263 149 1
548 149 1
551 149 1
32 150 1
36 150 1
84 150 1
93 150 1
251 150 1
264 150 1
533 150 1
549 150 1
33 151 1
37 151 1
85 151 1
94 151 1
252 151 1
265 151 1
534 151 1
550 151 1
34 152 1
38 152 1
86 152 1
95 152 1
253 152 1
266 152 1
535 152 1
551 152 1
20 153 1
37 153 1
96 153 1
106 153 1
267 153 1
273 153 1
552 153 1
555 153 1
21 154 1
38 154 1
97 154 1
107 154 1
268 154 1
274 154 1
553 154 1
556 154 1
20 155 1
22 155 1
98 155 1
108 155 1
269 155 1
275 155 1
554 155 1
557 155 1
21 156 1
23 156 1
99 156 1
109 156 1
270 156 1
276 156 1
555 156 1
558 156 1
22 157 1
24 157 1
100 157 1
110 157 1
271 157 1
277 157 1
556 157 1
559 157 1
23 158 1
25 158 1
101 158 1
111 158 1
272 158 1
278 158 1
557 158 1
560 158 1
24 159 1
26 159 1
102 159 1
112 159 1
273 159 1
279 159 1
558 159 1
561 159 1
25 160 1
27 160 1
103 160 1
113 160 1
274 160 1
280 160 1
559 160 1
562 160 1
26 161 1
28 161 1
104 161 1
114 161 1
275 161 1
281 161 1
560 161 1
563 161 1
27 162 1
29 162 1
96 162 1
105 162 1
276 162 1
282 162 1
561 162 1
564 162 1
28 163 1
30 163 1
97 163 1
106 163 1
277 163 1
283 163 1
562 163 1
565 163 1
29 164 1
31 164 1
98 164 1
107 164 1
278 164 1
284 164 1
563 164 1
566 164 1
30 165 1
32 165 1
99 165 1
108 165 1
279 165 1
285 165 1
564 165 1
567 165 1
31 166 1
33 166 1
100 166 1
109 166 1
267 166 1
280 166 1
565 166 1
568 166 1
32 167 1
34 167 1
101 167 1
110 167 1
268 167 1
281 167 1
566 167 1
569 167 1
33 168 1
35 168 1
102 168 1
111 168 1
269 168 1
282 168 1
567 168 1
570 168 1
34 169 1
36 169 1
103 169 1
112 169 1
270 169 1
283 169 1
552 169 1
568 169 1
35 170 1
37 170 1
104 170 1
113 170 1
271 170 1
284 170 1
553 170 1
569 170 1
36 171 1
38 171 1
105 171 1
114 171 1
272 171 1
285 171 1
554 171 1
570 171 1
39 172 1
53 172 1
58 172 1
71 172 1
286 172 1
292 172 1
571 172 1
574 172 1
40 173 1
54 173 1
59 173 1
72 173 1
287 173 1
293 173 1
572 173 1
575 173 1
41 174 1
55 174 1
60 174 1
73 174 1
288 174 1
294 174 1
573 174 1
576 174 1
42 175 1
56 175 1
61 175 1
74 175 1
289 175 1
295 175 1
574 175 1
577 175 1
43 176 1
57 176 1
62 176 1
75 176 1
290 176 1
296 176 1
575 176 1
578 176 1
39 177 1
44 177 1
63 177 1
76 177 1
291 177 1
297 177 1
576 177 1
579 177 1
40 178 1
45 178 1
58 178 1
64 178 1
292 178 1
298 178 1
577 178 1
580 178 1
41 179 1
46 179 1
59 179 1
65 179 1
293 179 1
299 179 1
578 179 1
581 179 1
42 180 1
47 180 1
60 180 1
66 180 1
294 180 1
300 180 1
579 180 1
582 180 1
43 181 1
48 181 1
61 181 1
67 181 1
295 181 1
301 181 1
580 181 1
583 181 1
44 182 1
49 182 1
62 182 1
68 182 1
296 182 1
302 182 1
581 182 1
584 182 1
45 183 1
50 183 1
63 183 1
69 183 1
297 183 1
303 183 1
582 183 1
585 183 1
46 184 1
51 184 1
64 184 1
70 184 1
298 184 1
304 184 1
583 184 1
586 184 1
47 185 1
52 185 1
65 185 1
71 185 1
286 185 1
299 185 1
584 185 1
587 185 1
48 186 1
53 186 1
66 186 1
72 186 1
287 186 1
300 186 1
585 186 1
588 186 1
49 187 1
54 187 1
67 187 1
73 187 1
288 187 1
301 187 1
586 187 1
589 187 1
50 188 1
55 188 1
68 188 1
74 188 1
289 188 1
302 188 1
571 188 1
587 188 1
51 189 1
56 189 1
69 189 1
75 189 1
290 189 1
303 189 1
572 189 1
588 189 1
52 190 1
57 190 1
70 190 1
76 190 1
291 190 1
304 190 1
573 190 1
589 190 1
39 191 1
54 191 1
77 191 1
90 191 1
305 191 1
311 191 1
590 191 1
593 191 1
40 192 1
55 192 1
78 192 1
91 192 1
306 192 1
312 192 1
591 192 1
594 192 1
41 193 1
56 193 1
79 193 1
92 193 1
307 193 1
313 193 1
592 193 1
595 193 1
42 194 1
57 194 1
80 194 1
93 194 1
308 194 1
314 194 1
593 194 1
596 194 1
39 195 1
43 195 1
81 195 1
94 195 1
309 195 1
315 195 1
594 195 1
597 195 1
40 196 1
44 196 1
82 196 1
95 196 1
310 196 1
316 196 1
595 196 1
598 196 1
41 197 1
45 197 1
77 197 1
83 197 1
311 197 1
317 197 1
596 197 1
599 197 1
42 198 1
46 198 1
78 198 1
84 198 1
312 198 1
318 198 1
597 198 1
600 198 1
43 199 1
47 199 1
79 199 1
85 199 1
313 199 1
319 199 1
598 199 1
601 199 1
44 200 1
48 200 1
80 200 1
86 200 1
314 200 1
320 200 1
599 200 1
602 200 1
45 201 1
49 201 1
81 201 1
87 201 1
315 201 1
321 201 1
600 201 1
603 201 1
46 202 1
50 202 1
82 202 1
88 202 1
316 202 1
322 202 1
601 202 1
604 202 1
47 203 1
51 203 1
83 203 1
89 203 1
317 203 1
323 203 1
602 203 1
605 203 1
48 204 1
52 204 1
84 204 1
90 204 1
305 204 1
318 204 1
603 204 1
606 204 1
49 205 1
53 205 1
85 205 1
91 205 1
306 205 1
319 205 1
604 205 1
607 205 1
50 206 1
54 206 1
86 206 1
92 206 1
307 206 1
320 206 1
605 206 1
608 206 1
51 207 1
55 207 1
87 207 1
93 207 1
308 207 1
321 207 1
590 207 1
606 207 1
52 208 1
56 208 1
88 208 1
94 208 1
309 208 1
322 208 1
591 208 1
607 208 1
53 209 1
57 209 1
89 209 1
95 209 1
310 209 1
323 209 1
592 209 1
608 209 1
39 210 1
56 210 1
96 210 1
109 210 1
324 210 1
330 210 1
609 210 1
612 210 1
40 211 1
57 211 1
97 211 1
110 211 1
325 211 1
331 211 1
610 211 1
613 211 1
39 212 1
41 212 1
98 212 1
111 212 1
326 212 1
332 212 1
611 212 1
614 212 1
40 213 1
42 213 1
99 213 1
112 213 1
327 213 1
333 213 1
612 213 1
615 213 1
41 214 1
43 214 1
100 214 1
113 214 1
328 214 1
334 214 1
613 214 1
616 214 1
42 215 1
44 215 1
101 215 1
114 215 1
329 215 1
335 215 1
614 215 1
617 215 1
43 216 1
45 216 1
96 216 1
102 216 1
330 216 1
336 216 1
615 216 1
618 216 1
44 217 1
46 217 1
97 217 1
103 217 1
331 217 1
337 217 1
616 217 1
619 217 1
45 218 1
47 218 1
98 218 1
104 218 1
332 218 1
338 218 1
617 218 1
620 218 1
46 219 1
48 219 1
99 219 1
105 219 1
333 219 1
339 219 1
618 219 1
621 219 1
47 220 1
49 220 1
100 220 1
106 220 1
334 220 1
340 220 1
619 220 1
622 220 1
48 221 1
50 221 1
101 221 1
107 221 1
335 221 1
341 221 1
620 221 1
623 221 1
49 222 1
51 222 1
102 222 1
108 222 1
336 222 1
342 222 1
621 222 1
624 222 1
50 223 1
52 223 1
103 223 1
109 223 1
324 223 1
337 223 1
622 223 1
625 223 1
51 224 1
53 224 1
104 224 1
110 224 1
325 224 1
338 224 1
623 224 1
626 224 1
52 225 1
54 225 1
105 225 1
111 225 1
326 225 1
339 225 1
624 225 1
627 225 1
53 226 1
55 226 1
106 226 1
112 226 1
327 226 1
340 226 1
609 226 1
625 226 1
54 227 1
56 227 1
107 227 1
113 227 1
328 227 1
341 227 1
610 227 1
626 227 1
55 228 1
57 228 1
108 228 1
114 228 1
329 228 1
342 228 1
611 228 1
627 228 1
58 229 1
73 229 1
77 229 1
91 229 1
343 229 1
349 229 1
628 229 1
631 229 1
59 230 1
74 230 1
78 230 1
92 230 1
344 230 1
350 230 1
629 230 1
632 230 1
60 231 1
75 231 1
79 231 1
93 231 1
345 231 1
351 231 1
630 231 1
633 231 1
61 232 1
76 232 1
80 232 1
94 232 1
346 232 1
352 232 1
631 232 1
634 232 1
58 233 1
62 233 1
81 233 1
95 233 1
347 233 1
353 233 1
632 233 1
635 233 1
59 234 1
63 234 1
77 234 1
82 234 1
348 234 1
354 234 1
633 234 1
636 234 1
60 235 1
64 235 1
78 235 1
83 235 1
349 235 1
355 235 1
634 235 1
637 235 1
61 236 1
65 236 1
79 236 1
84 236 1
350 236 1
356 236 1
635 236 1
638 236 1
62 237 1
66 237 1
80 237 1
85 237 1
351 237 1
357 237 1
636 237 1
639 237 1
63 238 1
67 238 1
81 238 1
86 238 1
352 238 1
358 238 1
637 238 1
640 238 1
64 239 1
68 239 1
82 239 1
87 239 1
353 239 1
359 239 1
638 239 1
641 239 1
65 240 1
69 240 1
83 240 1
88 240 1
354 240 1
360 240 1
639 240 1
642 240 1
66 241 1
70 241 1
84 241 1
89 241 1
355 241 1
361 241 1
640 241 1
643 241 1
67 242 1
71 242 1
85 242 1
90 242 1
343 242 1
356 242 1
641 242 1
644 242 1
68 243 1
72 243 1
86 243 1
91 243 1
344 243 1
357 243 1
642 243 1
645 243 1
69 244 1
73 244 1
87 244 1
92 244 1
345 244 1
358 244 1
643 244 1
646 244 1
70 245 1
74 245 1
88 245 1
93 245 1
346 245 1
359 245 1
628 245 1
644 245 1
71 246 1
75 246 1
89 246 1
94 246 1
347 246 1
360 246 1
629 246 1
645 246 1
72 247 1
76 247 1
90 247 1
95 247 1
348 247 1
361 247 1
630 247 1
646 247 1
58 248 1
75 248 1
96 248 1
110 248 1
362 248 1
368 248 1
647 248 1
650 248 1
59 249 1
76 249 1
97 249 1
111 249 1
363 249 1
369 249 1
648 249 1
651 249 1
58 250 1
60 250 1
98 250 1
112 250 1
364 250 1
370 250 1
649 250 1
652 250 1
59 251 1
61 251 1
99 251 1
113 251 1
365 251 1
371 251 1
650 251 1
653 251 1
60 252 1
62 252 1
100 252 1
114 252 1
366 252 1
372 252 1
651 252 1
654 252 1
61 253 1
63 253 1
96 253 1
101 253 1
367 253 1
373 253 1
652 253 1
655 253 1
62 254 1
64 254 1
97 254 1
102 254 1
368 254 1
374 254 1
653 254 1
656 254 1
63 255 1
65 255 1
98 255 1
103 255 1
369 255 1
375 255 1
654 255 1
657 255 1
64 256 1
66 256 1
99 256 1
104 256 1
370 256 1
376 256 1
655 256 1
658 256 1
65 257 1
67 257 1
100 257 1
105 257 1
371 257 1
377 257 1
656 257 1
659 257 1
66 258 1
68 258 1
101 258 1
106 258 1
372 258 1
378 258 1
657 258 1
660 258 1
67 259 1
69 259 1
102 259 1
107 259 1
373 259 1
379 259 1
658 259 1
661 259 1
68 260 1
70 260 1
103 260 1
108 260 1
374 260 1
380 260 1
659 260 1
662 260 1
69 261 1
71 261 1
104 261 1
109 261 1
362 261 1
375 261 1
660 261 1
663 261 1
70 262 1
72 262 1
105 262 1
110 262 1
363 262 1
376 262 1
661 262 1
664 262 1
71 263 1
73 263 1
106 263 1
111 263 1
364 263 1
377 263 1
662 263 1
665 263 1
72 264 1
74 264 1
107 264 1
112 264 1
365 264 1
378 264 1
647 264 1
663 264 1
73 265 1
75 265 1
108 265 1
113 265 1
366 265 1
379 265 1
648 265 1
664 265 1
74 266 1
76 266 1
109 266 1
114 266 1
367 266 1
380 266 1
649 266 1
665 266 1
77 267 1
94 267 1
96 267 1
111 267 1
381 267 1
387 267 1
666 267 1
669 267 1
78 268 1
95 268 1
97 268 1
112 268 1
382 268 1
388 268 1
667 268 1
670 268 1
77 269 1
79 269 1
98 269 1
113 269 1
383 269 1
389 269 1
668 269 1
671 269 1
78 270 1
80 270 1
99 270 1
114 270 1
384 270 1
390 270 1
669 270 1
672 270 1
79 271 1
81 271 1
96 271 1
100 271 1
385 271 1
391 271 1
670 271 1
673 271 1
80 272 1
82 272 1
97 272 1
101 272 1
386 272 1
392 272 1
671 272 1
674 272 1
81 273 1
83 273 1
98 273 1
102 273 1
387 273 1
393 273 1
672 273 1
675 273 1
82 274 1
84 274 1
99 274 1
103 274 1
388 274 1
394 274 1
673 274 1
676 274 1
83 275 1
85 275 1
100 275 1
104 275 1
389 275 1
395 275 1
674 275 1
677 275 1
84 276 1
86 276 1
101 276 1
105 276 1
390 276 1
396 276 1
675 276 1
678 276 1
85 277 1
87 277 1
102 277 1
106 277 1
391 277 1
397 277 1
676 277 1
679 277 1
86 278 1
88 278 1
103 278 1
107 278 1
392 278 1
398 278 1
677 278 1
680 278 1
87 279 1
89 279 1
104 279 1
108 279 1
393 279 1
399 279 1
678 279 1
681 279 1
88 280 1
90 280 1
105 280 1
109 280 1
381 280 1
394 280 1
679 280 1
682 280 1
89 281 1
91 281 1
106 281 1
110 281 1
382 281 1
395 281 1
680 281 1
683 281 1
90 282 1
92 282 1
107 282 1
111 282 1
383 282 1
396 282 1
681 282 1
684 282 1
91 283 1
93 283 1
108 283 1
112 283 1
384 283 1
397 283 1
666 283 1
682 283 1
92 284 1
94 284 1
109 284 1
113 284 1
385 284 1
398 284 1
667 284 1
683 284 1
93 285 1
95 285 1
110 285 1
114 285 1
386 285 1
399 285 1
668 285 1
684 285 1
115 286 1
128 286 1
134 286 1
144 286 1
210 286 1
218 286 1
685 286 1
688 286 1
116 287 1
129 287 1
135 287 1
145 287 1
211 287 1
219 287 1
686 287 1
689 287 1
117 288 1
130 288 1
136 288 1
146 288 1
212 288 1
220 288 1
687 288 1
690 288 1
118 289 1
131 289 1
137 289 1
147 289 1
213 289 1
221 289 1
688 289 1
691 289 1
119 290 1
132 290 1
138 290 1
148 290 1
214 290 1
222 290 1
689 290 1
692 290 1
120 291 1
133 291 1
139 291 1
149 291 1
215 291 1
223 291 1
690 291 1
693 291 1
115 292 1
121 292 1
140 292 1
150 292 1
216 292 1
224 292 1
691 292 1
694 292 1
116 293 1
122 293 1
141 293 1
151 293 1
217 293 1
225 293 1
692 293 1
695 293 1
117 294 1
123 294 1
142 294 1
152 294 1
218 294 1
226 294 1
693 294 1
696 294 1
118 295 1
124 295 1
134 295 1
143 295 1
219 295 1
227 295 1
694 295 1
697 295 1
119 296 1
125 296 1
135 296 1
144 296 1
220 296 1
228 296 1
695 296 1
698 296 1
120 297 1
126 297 1
136 297 1
145 297 1
210 297 1
221 297 1
696 297 1
699 297 1
121 298 1
127 298 1
137 298 1
146 298 1
211 298 1
222 298 1
697 298 1
700 298 1
122 299 1
128 299 1
138 299 1
147 299 1
212 299 1
223 299 1
698 299 1
701 299 1
123 300 1
129 300 1
139 300 1
148 300 1
213 300 1
224 300 1
699 300 1
702 300 1
124 301 1
130 301 1
140 301 1
149 301 1
214 301 1
225 301 1
700 301 1
703 301 1
125 302 1
131 302 1
141 302 1
150 302 1
215 302 1
226 302 1
685 302 1
701 302 1
126 303 1
132 303 1
142 303 1
151 303 1
216 303 1
227 303 1
686 303 1
702 303 1
127 304 1
133 304 1
143 304 1
152 304 1
217 304 1
228 304 1
687 304 1
703 304 1
115 305 1
129 305 1
153 305 1
163 305 1
229 305 1
237 305 1
704 305 1
707 305 1
116 306 1
130 306 1
154 306 1
164 306 1
230 306 1
238 306 1
705 306 1
708 306 1
117 307 1
131 307 1
155 307 1
165 307 1
231 307 1
239 307 1
706 307 1
709 307 1
118 308 1
132 308 1
156 308 1
166 308 1
232 308 1
240 308 1
707 308 1
710 308 1
119 309 1
133 309 1
157 309 1
167 309 1
233 309 1
241 309 1
708 309 1
711 309 1
115 310 1
120 310 1
158 310 1
168 310 1
234 310 1
242 310 1
709 310 1
712 310 1
116 311 1
121 311 1
159 311 1
169 311 1
235 311 1
243 311 1
710 311 1
713 311 1
117 312 1
122 312 1
160 312 1
170 312 1
236 312 1
244 312 1
711 312 1
714 312 1
118 313 1
123 313 1
161 313 1
171 313 1
237 313 1
245 313 1
712 313 1
715 313 1
119 314 1
124 314 1
153 314 1
162 314 1
238 314 1
246 314 1
713 314 1
716 314 1
120 315 1
125 315 1
154 315 1
163 315 1
239 315 1
247 315 1
714 315 1
717 315 1
121 316 1
126 316 1
155 316 1
164 316 1
229 316 1
240 316 1
715 316 1
718 316 1
122 317 1
127 317 1
156 317 1
165 317 1
230 317 1
241 317 1
716 317 1
719 317 1
123 318 1
128 318 1
157 318 1
166 318 1
231 318 1
242 318 1
717 318 1
720 318 1
124 319 1
129 319 1
158 319 1
167 319 1
232 319 1
243 319 1
718 319 1
721 319 1
125 320 1
130 320 1
159 320 1
168 320 1
233 320 1
244 320 1
719 320 1
722 320 1
126 321 1
131 321 1
160 321 1
169 321 1
234 321 1
245 321 1
704 321 1
720 321 1
127 322 1
132 322 1
161 322 1
170 322 1
235 322 1
246 322 1
705 322 1
721 322 1
128 323 1
133 323 1
162 323 1
171 323 1
236 323 1
247 323 1
706 323 1
722 323 1
115 324 1
130 324 1
172 324 1
182 324 1
248 324 1
256 324 1
723 324 1
726 324 1
116 325 1
131 325 1
173 325 1
183 325 1
249 325 1
257 325 1
724 325 1
727 325 1
117 326 1
132 326 1
174 326 1
184 326 1
250 326 1
258 326 1
725 326 1
728 326 1
118 327 1
133 327 1
175 327 1
185 327 1
251 327 1
259 327 1
726 327 1
729 327 1
115 328 1
119 328 1
176 328 1
186 328 1
252 328 1
260 328 1
727 328 1
730 328 1
116 329 1
120 329 1
177 329 1
187 329 1
253 329 1
261 329 1
728 329 1
731 329 1
117 330 1
121 330 1
178 330 1
188 330 1
254 330 1
262 330 1
729 330 1
732 330 1
118 331 1
122 331 1
179 331 1
189 331 1
255 331 1
263 331 1
730 331 1
733 331 1
119 332 1
123 332 1
180 332 1
190 332 1
256 332 1
264 332 1
731 332 1
734 332 1
120 333 1
124 333 1
172 333 1
181 333 1
257 333 1
265 333 1
732 333 1
735 333 1
121 334 1
125 334 1
173 334 1
182 334 1
258 334 1
266 334 1
733 334 1
736 334 1
122 335 1
126 335 1
174 335 1
183 335 1
248 335 1
259 335 1
734 335 1
737 335 1
123 336 1
127 336 1
175 336 1
184 336 1
249 336 1
260 336 1
735 336 1
738 336 1
124 337 1
128 337 1
176 337 1
185 337 1
250 337 1
261 337 1
736 337 1
739 337 1
125 338 1
129 338 1
177 338 1
186 338 1
251 338 1
262 338 1
737 338 1
740 338 1
126 339 1
130 339 1
178 339 1
187 339 1
252 339 1
263 339 1
738 339 1
741 339 1
127 340 1
131 340 1
179 340 1
188 340 1
253 340 1
264 340 1
723 340 1
739 340 1
128 341 1
132 341 1
180 341 1
189 341 1
254 341 1
265 341 1
724 341 1
740 341 1
129 342 1
133 342 1
181 342 1
190 342 1
255 342 1
266 342 1
725 342 1
741 342 1
115 343 1
132 343 1
191 343 1
201 343 1
267 343 1
275 343 1
742 343 1
745 343 1
116 344 1
133 344 1
192 344 1
202 344 1
268 344 1
276 344 1
743 344 1
746 344 1
115 345 1
117 345 1
193 345 1
203 345 1
269 345 1
277 345 1
744 345 1
747 345 1
116 346 1
118 346 1
194 346 1
204 346 1
270 346 1
278 346 1
745 346 1
748 346 1
117 347 1
119 347 1
195 347 1
205 347 1
271 347 1
279 347 1
746 347 1
749 347 1
118 348 1
120 348 1
196 348 1
206 348 1
272 348 1
280 348 1
747 348 1
750 348 1
119 349 1
121 349 1
197 349 1
207 349 1
273 349 1
281 349 1
748 349 1
751 349 1
120 350 1
122 350 1
198 350 1
208 350 1
274 350 1
282 350 1
749 350 1
752 350 1
121 351 1
123 351 1
199 351 1
209 351 1
275 351 1
283 351 1
750 351 1
753 351 1
122 352 1
124 352 1
191 352 1
200 352 1
276 352 1
284 352 1
751 352 1
754 352 1
123 353 1
125 353 1
192 353 1
201 353 1
277 353 1
285 353 1
752 353 1
755 353 1
124 354 1
126 354 1
193 354 1
202 354 1
267 354 1
278 354 1
753 354 1
756 354 1
125 355 1
127 355 1
194 355 1
203 355 1
268 355 1
279 355 1
754 355 1
757 355 1
126 356 1
128 356 1
195 356 1
204 356 1
269 356 1
280 356 1
755 356 1
758 356 1
127 357 1
129 357 1
196 357 1
205 357 1
270 357 1
281 357 1
756 357 1
759 357 1
128 358 1
130 358 1
197 358 1
206 358 1
271 358 1
282 358 1
757 358 1
760 358 1
129 359 1
131 359 1
198 359 1
207 359 1
272 359 1
283 359 1
742 359 1
758 359 1
130 360 1
132 360 1
199 360 1
208 360 1
273 360 1
284 360 1
743 360 1
759 360 1
131 361 1
133 361 1
200 361 1
209 361 1
274 361 1
285 361 1
744 361 1
760 361 1
134 362 1
148 362 1
153 362 1
166 362 1
286 362 1
294 362 1
761 362 1
764 362 1
135 363 1
149 363 1
154 363 1
167 363 1
287 363 1
295 363 1
762 363 1
765 363 1
136 364 1
150 364 1
155 364 1
168 364 1
288 364 1
296 364 1
763 364 1
766 364 1
137 365 1
151 365 1
156 365 1
169 365 1
289 365 1
297 365 1
764 365 1
767 365 1
138 366 1
152 366 1
157 366 1
170 366 1
290 366 1
298 366 1
765 366 1
768 366 1
134 367 1
139 367 1
158 367 1
171 367 1
291 367 1
299 367 1
766 367 1
769 367 1
135 368 1
140 368 1
153 368 1
159 368 1
292 368 1
300 368 1
767 368 1
770 368 1
136 369 1
141 369 1
154 369 1
160 369 1
293 369 1
301 369 1
768 369 1
771 369 1
137 370 1
142 370 1
155 370 1
161 370 1
294 370 1
302 370 1
769 370 1
772 370 1
138 371 1
143 371 1
156 371 1
162 371 1
295 371 1
303 371 1
770 371 1
773 371 1
139 372 1
144 372 1
157 372 1
163 372 1
296 372 1
304 372 1
771 372 1
774 372 1
140 373 1
145 373 1
158 373 1
164 373 1
286 373 1
297 373 1
772 373 1
775 373 1
141 374 1
146 374 1
159 374 1
165 374 1
287 374 1
298 374 1
773 374 1
776 374 1
142 375 1
147 375 1
160 375 1
166 375 1
288 375 1
299 375 1
774 375 1
777 375 1
143 376 1
148 376 1
161 376 1
167 376 1
289 376 1
300 376 1
775 376 1
778 376 1
144 377 1
149 377 1
162 377 1
168 377 1
290 377 1
301 377 1
776 377 1
779 377 1
145 378 1
150 378 1
163 378 1
169 378 1
291 378 1
302 378 1
761 378 1
777 378 1
146 379 1
151 379 1
164 379 1
170 379 1
292 379 1
303 379 1
762 379 1
778 379 1
147 380 1
152 380 1
165 380 1
171 380 1
293 380 1
304 380 1
763 380 1
779 380 1
134 381 1
149 381 1
172 381 1
185 381 1
305 381 1
313 381 1
780 381 1
783 381 1
135 382 1
150 382 1
173 382 1
186 382 1
306 382 1
314 382 1
781 382 1
784 382 1
136 383 1
151 383 1
174 383 1
187 383 1
307 383 1
315 383 1
782 383 1
785 383 1
137 384 1
152 384 1
175 384 1
188 384 1
308 384 1
316 384 1
783 384 1
786 384 1
134 385 1
138 385 1
176 385 1
189 385 1
309 385 1
317 385 1
784 385 1
787 385 1
135 386 1
139 386 1
177 386 1
190 386 1
310 386 1
318 386 1
785 386 1
788 386 1
136 387 1
140 387 1
172 387 1
178 387 1
311 387 1
319 387 1
786 387 1
789 387 1
137 388 1
141 388 1
173 388 1
179 388 1
312 388 1
320 388 1
787 388 1
790 388 1
138 389 1
142 389 1
174 389 1
180 389 1
313 389 1
321 389 1
788 389 1
791 389 1
139 390 1
143 390 1
175 390 1
181 390 1
314 390 1
322 390 1
789 390 1
792 390 1
140 391 1
144 391 1
176 391 1
182 391 1
315 391 1
323 391 1
790 391 1
793 391 1
141 392 1
145 392 1
177 392 1
183 392 1
305 392 1
316 392 1
791 392 1
794 392 1
142 393 1
146 393 1
178 393 1
184 393 1
306 393 1
317 393 1
792 393 1
795 393 1
143 394 1
147 394 1
179 394 1
185 394 1
307 394 1
318 394 1
793 394 1
796 394 1
144 395 1
148 395 1
180 395 1
186 395 1
308 395 1
319 395 1
794 395 1
797 395 1
145 396 1
149 396 1
181 396 1
187 396 1
309 396 1
320 396 1
795 396 1
798 396 1
146 397 1
150 397 1
182 397 1
188 397 1
310 397 1
321 397 1
780 397 1
796 397 1
147 398 1
151 398 1
183 398 1
189 398 1
311 398 1
322 398 1
781 398 1
797 398 1
148 399 1
152 399 1
184 399 1
190 399 1
312 399 1
323 399 1
782 399 1
798 399 1
134 400 1
151 400 1
191 400 1
204 400 1
324 400 1
332 400 1
799 400 1
802 400 1
135 401 1
152 401 1
192 401 1
205 401 1
325 401 1
333 401 1
800 401 1
803 401 1
134 402 1
136 402 1
193 402 1
206 402 1
326 402 1
334 402 1
801 402 1
804 402 1
135 403 1
137 403 1
194 403 1
207 403 1
327 403 1
335 403 1
802 403 1
805 403 1
136 404 1
138 404 1
195 404 1
208 404 1
328 404 1
336 404 1
803 404 1
806 404 1
137 405 1
139 405 1
196 405 1
209 405 1
329 405 1
337 405 1
804 405 1
807 405 1
138 406 1
140 406 1
191 406 1
197 406 1
330 406 1
338 406 1
805 406 1
808 406 1
139 407 1
141 407 1
192 407 1
198 407 1
331 407 1
339 407 1
806 407 1
809 407 1
140 408 1
142 408 1
193 408 1
199 408 1
332 408 1
340 408 1
807 408 1
810 408 1
141 409 1
143 409 1
194 409 1
200 409 1
333 409 1
341 409 1
808 409 1
811 409 1
142 410 1
144 410 1
195 410 1
201 410 1
334 410 1
342 410 1
809 410 1
812 410 1
143 411 1
145 411 1
196 411 1
202 411 1
324 411 1
335 411 1
810 411 1
813 411 1
144 412 1
146 412 1
197 412 1
203 412 1
325 412 1
336 412 1
811 412 1
814 412 1
145 413 1
147 413 1
198 413 1
204 413 1
326 413 1
337 413 1
812 413 1
815 413 1
146 414 1
148 414 1
199 414 1
205 414 1
327 414 1
338 414 1
813 414 1
816 414 1
147 415 1
149 415 1
200 415 1
206 415 1
328 415 1
339 415 1
814 415 1
817 415 1
148 416 1
150 416 1
201 416 1
207 416 1
329 416 1
340 416 1
799 416 1
815 416 1
149 417 1
151 417 1
202 417 1
208 417 1
330 417 1
341 417 1
800 417 1
816 417 1
150 418 1
152 418 1
203 418 1
209 418 1
331 418 1
342 418 1
801 418 1
817 418 1
153 419 1
168 419 1
172 419 1
186 419 1
343 419 1
351 419 1
818 419 1
821 419 1
154 420 1
169 420 1
173 420 1
187 420 1
344 420 1
352 420 1
819 420 1
822 420 1
155 421 1
170 421 1
174 421 1
188 421 1
345 421 1
353 421 1
820 421 1
823 421 1
156 422 1
171 422 1
175 422 1
189 422 1
346 422 1
354 422 1
821 422 1
824 422 1
153 423 1
157 423 1
176 423 1
190 423 1
347 423 1
355 423 1
822 423 1
825 423 1
154 424 1
158 424 1
172 424 1
177 424 1
348 424 1
356 424 1
823 424 1
826 424 1
155 425 1
159 425 1
173 425 1
178 425 1
349 425 1
357 425 1
824 425 1
827 425 1
156 426 1
160 426 1
174 426 1
179 426 1
350 426 1
358 426 1
825 426 1
828 426 1
157 427 1
161 427 1
175 427 1
180 427 1
351 427 1
359 427 1
826 427 1
829 427 1
158 428 1
162 428 1
176 428 1
181 428 1
352 428 1
360 428 1
827 428 1
830 428 1
159 429 1
163 429 1
177 429 1
182 429 1
353 429 1
361 429 1
828 429 1
831 429 1
160 430 1
164 430 1
178 430 1
183 430 1
343 430 1
354 430 1
829 430 1
832 430 1
161 431 1
165 431 1
179 431 1
184 431 1
344 431 1
355 431 1
830 431 1
833 431 1
162 432 1
166 432 1
180 432 1
185 432 1
345 432 1
356 432 1
831 432 1
834 432 1
163 433 1
167 433 1
181 433 1
186 433 1
346 433 1
357 433 1
832 433 1
835 433 1
164 434 1
168 434 1
182 434 1
187 434 1
347 434 1
358 434 1
833 434 1
836 434 1
165 435 1
169 435 1
183 435 1
188 435 1
348 435 1
359 435 1
818 435 1
834 435 1
166 436 1
170 436 1
184 436 1
189 436 1
349 436 1
360 436 1
819 436 1
835 436 1
167 437 1
171 437 1
185 437 1
190 437 1
350 437 1
361 437 1
820 437 1
836 437 1
153 438 1
170 438 1
191 438 1
205 438 1
362 438 1
370 438 1
837 438 1
840 438 1
154 439 1
171 439 1
192 439 1
206 439 1
363 439 1
371 439 1
838 439 1
841 439 1
153 440 1
155 440 1
193 440 1
207 440 1
364 440 1
372 440 1
839 440 1
842 440 1
154 441 1
156 441 1
194 441 1
208 441 1
365 441 1
373 441 1
840 441 1
843 441 1
155 442 1
157 442 1
195 442 1
209 442 1
366 442 1
374 442 1
841 442 1
844 442 1
156 443 1
158 443 1
191 443 1
196 443 1
367 443 1
375 443 1
842 443 1
845 443 1
157 444 1
159 444 1
192 444 1
197 444 1
368 444 1
376 444 1
843 444 1
846 444 1
158 445 1
160 445 1
193 445 1
198 445 1
369 445 1
377 445 1
844 445 1
847 445 1
159 446 1
161 446 1
194 446 1
199 446 1
370 446 1
378 446 1
845 446 1
848 446 1
160 447 1
162 447 1
195 447 1
200 447 1
371 447 1
379 447 1
846 447 1
849 447 1
161 448 1
163 448 1
196 448 1
201 448 1
372 448 1
380 448 1
847 448 1
850 448 1
162 449 1
164 449 1
197 449 1
202 449 1
362 449 1
373 449 1
848 449 1
851 449 1
163 450 1
165 450 1
198 450 1
203 450 1
363 450 1
374 450 1
849 450 1
852 450 1
164 451 1
166 451 1
199 451 1
204 451 1
364 451 1
375 451 1
850 451 1
853 451 1
165 452 1
167 452 1
200 452 1
205 452 1
365 452 1
376 452 1
851 452 1
854 452 1
166 453 1
168 453 1
201 453 1
206 453 1
366 453 1
377 453 1
852 453 1
855 453 1
167 454 1
169 454 1
202 454 1
207 454 1
367 454 1
378 454 1
837 454 1
853 454 1
168 455 1
170 455 1
203 455 1
208 455 1
368 455 1
379 455 1
838 455 1
854 455 1
169 456 1
171 456 1
204 456 1
209 456 1
369 456 1
380 456 1
839 456 1
855 456 1
172 457 1
189 457 1
191 457 1
206 457 1
381 457 1
389 457 1
856 457 1
859 457 1
173 458 1
190 458 1
192 458 1
207 458 1
382 458 1
390 458 1
857 458 1
860 458 1
172 459 1
174 459 1
193 459 1
208 459 1
383 459 1
391 459 1
858 459 1
861 459 1
173 460 1
175 460 1
194 460 1
209 460 1
384 460 1
392 460 1
859 460 1
862 460 1
174 461 1
176 461 1
191 461 1
195 461 1
385 461 1
393 461 1
860 461 1
863 461 1
175 462 1
177 462 1
192 462 1
196 462 1
386 462 1
394 462 1
861 462 1
864 462 1
176 463 1
178 463 1
193 463 1
197 463 1
387 463 1
395 463 1
862 463 1
865 463 1
177 464 1
179 464 1
194 464 1
198 464 1
388 464 1
396 464 1
863 464 1
866 464 1
178 465 1
180 465 1
195 465 1
199 465 1
389 465 1
397 465 1
864 465 1
867 465 1
179 466 1
181 466 1
196 466 1
200 466 1
390 466 1
398 466 1
865 466 1
868 466 1
180 467 1
182 467 1
197 467 1
201 467 1
391 467 1
399 467 1
866 467 1
869 467 1
181 468 1
183 468 1
198 468 1
202 468 1
381 468 1
392 468 1
867 468 1
870 468 1
182 469 1
184 469 1
199 469 1
203 469 1
382 469 1
393 469 1
868 469 1
871 469 1
183 470 1
185 470 1
200 470 1
204 470 1
383 470 1
394 470 1
869 470 1
872 470 1
184 471 1
186 471 1
201 471 1
205 471 1
384 471 1
395 471 1
870 471 1
873 471 1
185 472 1
187 472 1
202 472 1
206 472 1
385 472 1
396 472 1
871 472 1
874 472 1
186 473 1
188 473 1
203 473 1
207 473 1
386 473 1
397 473 1
856 473 1
872 473 1
187 474 1
189 474 1
204 474 1
208 474 1
387 474 1
398 474 1
857 474 1
873 474 1
188 475 1
190 475 1
205 475 1
209 475 1
388 475 1
399 475 1
858 475 1
874 475 1
210 476 1
224 476 1
229 476 1
242 476 1
286 476 1
296 476 1
875 476 1
878 476 1
211 477 1
225 477 1
230 477 1
243 477 1
287 477 1
297 477 1
876 477 1
879 477 1
212 478 1
226 478 1
231 478 1
244 478 1
288 478 1
298 478 1
877 478 1
880 478 1
213 479 1
227 479 1
232 479 1
245 479 1
289 479 1
299 479 1
878 479 1
881 479 1
214 480 1
228 480 1
233 480 1
246 480 1
290 480 1
300 480 1
879 480 1
882 480 1
210 481 1
215 481 1
234 481 1
247 481 1
291 481 1
301 481 1
880 481 1
883 481 1
211 482 1
216 482 1
229 482 1
235 482 1
292 482 1
302 482 1
881 482 1
884 482 1
212 483 1
217 483 1
230 483 1
236 483 1
293 483 1
303 483 1
882 483 1
885 483 1
213 484 1
218 484 1
231 484 1
237 484 1
294 484 1
304 484 1
883 484 1
886 484 1
214 485 1
219 485 1
232 485 1
238 485 1
286 485 1
295 485 1
884 485 1
887 485 1
215 486 1
220 486 1
233 486 1
239 486 1
287 486 1
296 486 1
885 486 1
888 486 1
216 487 1
221 487 1
234 487 1
240 487 1
288 487 1
297 487 1
886 487 1
889 487 1
217 488 1
222 488 1
235 488 1
241 488 1
289 488 1
298 488 1
887 488 1
890 488 1
218 489 1
223 489 1
236 489 1
242 489 1
290 489 1
299 489 1
888 489 1
891 489 1
219 490 1
224 490 1
237 490 1
243 490 1
291 490 1
300 490 1
889 490 1
892 490 1
220 491 1
225 491 1
238 491 1
244 491 1
292 491 1
301 491 1
890 491 1
893 491 1
221 492 1
226 492 1
239 492 1
245 492 1
293 492 1
302 492 1
875 492 1
891 492 1
222 493 1
227 493 1
240 493 1
246 493 1
294 493 1
303 493 1
876 493 1
892 493 1
223 494 1
228 494 1
241 494 1
247 494 1
295 494 1
304 494 1
877 494 1
893 494 1
210 495 1
225 495 1
248 495 1
261 495 1
305 495 1
315 495 1
894 495 1
897 495 1
211 496 1
226 496 1
249 496 1
262 496 1
306 496 1
316 496 1
895 496 1
898 496 1
212 497 1
227 497 1
250 497 1
263 497 1
307 497 1
317 497 1
896 497 1
899 497 1
213 498 1
228 498 1
251 498 1
264 498 1
308 498 1
318 498 1
897 498 1
900 498 1
210 499 1
214 499 1
252 499 1
265 499 1
309 499 1
319 499 1
898 499 1
901 499 1
211 500 1
215 500 1
253 500 1
266 500 1
310 500 1
320 500 1
899 500 1
902 500 1
212 501 1
216 501 1
248 501 1
254 501 1
311 501 1
321 501 1
900 501 1
903 501 1
213 502 1
217 502 1
249 502 1
255 502 1
312 502 1
322 502 1
901 502 1
904 502 1
214 503 1
218 503 1
250 503 1
256 503 1
313 503 1
323 503 1
902 503 1
905 503 1
215 504 1
219 504 1
251 504 1
257 504 1
305 504 1
314 504 1
903 504 1
906 504 1
216 505 1
220 505 1
252 505 1
258 505 1
306 505 1
315 505 1
904 505 1
907 505 1
217 506 1
221 506 1
253 506 1
259 506 1
307 506 1
316 506 1
905 506 1
908 506 1
218 507 1
222 507 1
254 507 1
260 507 1
308 507 1
317 507 1
906 507 1
909 507 1
219 508 1
223 508 1
255 508 1
261 508 1
309 508 1
318 508 1
907 508 1
910 508 1
220 509 1
224 509 1
256 509 1
262 509 1
310 509 1
319 509 1
908 509 1
911 509 1
221 510 1
225 510 1
257 510 1
263 510 1
311 510 1
320 510 1
909 510 1
912 510 1
222 511 1
226 511 1
258 511 1
264 511 1
312 511 1
321 511 1
894 511 1
910 511 1
223 512 1
227 512 1
259 512 1
265 512 1
313 512 1
322 512 1
895 512 1
911 512 1
224 513 1
228 513 1
260 513 1
266 513 1
314 513 1
323 513 1
896 513 1
912 513 1
210 514 1
227 514 1
267 514 1
280 514 1
324 514 1
334 514 1
913 514 1
916 514 1
211 515 1
228 515 1
268 515 1
281 515 1
325 515 1
335 515 1
914 515 1
917 515 1
210 516 1
212 516 1
269 516 1
282 516 1
326 516 1
336 516 1
915 516 1
918 516 1
211 517 1
213 517 1
270 517 1
283 517 1
327 517 1
337 517 1
916 517 1
919 517 1
212 518 1
214 518 1
271 518 1
284 518 1
328 518 1
338 518 1
917 518 1
920 518 1
213 519 1
215 519 1
272 519 1
285 519 1
329 519 1
339 519 1
918 519 1
921 519 1
214 520 1
216 520 1
267 520 1
273 520 1
330 520 1
340 520 1
919 520 1
922 520 1
215 521 1
217 521 1
268 521 1
274 521 1
331 521 1
341 521 1
920 521 1
923 521 1
216 522 1
218 522 1
269 522 1
275 522 1
332 522 1
342 522 1
921 522 1
924 522 1
217 523 1
219 523 1
270 523 1
276 523 1
324 523 1
333 523 1
922 523 1
925 523 1
218 524 1
220 524 1
271 524 1
277 524 1
325 524 1
334 524 1
923 524 1
926 524 1
219 525 1
221 525 1
272 525 1
278 525 1
326 525 1
335 525 1
924 525 1
927 525 1
220 526 1
222 526 1
273 526 1
279 526 1
327 526 1
336 526 1
925 526 1
928 526 1
221 527 1
223 527 1
274 527 1
280 527 1
328 527 1
337 527 1
926 527 1
929 527 1
222 528 1
224 528 1
275 528 1
281 528 1
329 528 1
338 528 1
927 528 1
930 528 1
223 529 1
225 529 1
276 529 1
282 529 1
330 529 1
339 529 1
928 529 1
931 529 1
224 530 1
226 530 1
277 530 1
283 530 1
331 530 1
340 530 1
913 530 1
929 530 1
225 531 1
227 531 1
278 531 1
284 531 1
332 531 1
341 531 1
914 531 1
930 531 1
226 532 1
228 532 1
279 532 1
285 532 1
333 532 1
342 532 1
915 532 1
931 532 1
229 533 1
244 533 1
248 533 1
262 533 1
343 533 1
353 533 1
932 533 1
935 533 1
230 534 1
245 534 1
249 534 1
263 534 1
344 534 1
354 534 1
933 534 1
936 534 1
231 535 1
246 535 1
250 535 1
264 535 1
345 535 1
355 535 1
934 535 1
937 535 1
232 536 1
247 536 1
251 536 1
265 536 1
346 536 1
356 536 1
935 536 1
938 536 1
229 537 1
233 537 1
252 537 1
266 537 1
347 537 1
357 537 1
936 537 1
939 537 1
230 538 1
234 538 1
248 538 1
253 538 1
348 538 1
358 538 1
937 538 1
940 538 1
231 539 1
235 539 1
249 539 1
254 539 1
349 539 1
359 539 1
938 539 1
941 539 1
232 540 1
236 540 1
250 540 1
255 540 1
350 540 1
360 540 1
939 540 1
942 540 1
233 541 1
237 541 1
251 541 1
256 541 1
351 541 1
361 541 1
940 541 1
943 541 1
234 542 1
238 542 1
252 542 1
257 542 1
343 542 1
352 542 1
941 542 1
944 542 1
235 543 1
239 543 1
253 543 1
258 543 1
344 543 1
353 543 1
942 543 1
945 543 1
236 544 1
240 544 1
254 544 1
259 544 1
345 544 1
354 544 1
943 544 1
946 544 1
237 545 1
241 545 1
255 545 1
260 545 1
346 545 1
355 545 1
944 545 1
947 545 1
238 546 1
242 546 1
256 546 1
261 546 1
347 546 1
356 546 1
945 546 1
948 546 1
239 547 1
243 547 1
257 547 1
262 547 1
348 547 1
357 547 1
946 547 1
949 547 1
240 548 1
244 548 1
258 548 1
263 548 1
349 548 1
358 548 1
947 548 1
950 548 1
241 549 1
245 549 1
259 549 1
264 549 1
350 549 1
359 549 1
932 549 1
948 549 1
242 550 1
246 550 1
260 550 1
265 550 1
351 550 1
360 550 1
933 550 1
949 550 1
243 551 1
247 551 1
261 551 1
266 551 1
352 551 1
361 551 1
934 551 1
950 551 1
229 552 1
246 552 1
267 552 1
281 552 1
362 552 1
372 552 1
951 552 1
954 552 1
230 553 1
247 553 1
268 553 1
282 553 1
363 553 1
373 553 1
952 553 1
955 553 1
229 554 1
231 554 1
269 554 1
283 554 1
364 554 1
374 554 1
953 554 1
956 554 1
230 555 1
232 555 1
270 555 1
284 555 1
365 555 1
375 555 1
954 555 1
957 555 1
231 556 1
233 556 1
271 556 1
285 556 1
366 556 1
376 556 1
955 556 1
958 556 1
232 557 1
234 557 1
267 557 1
272 557 1
367 557 1
377 557 1
956 557 1
959 557 1
233 558 1
235 558 1
268 558 1
273 558 1
368 558 1
378 558 1
957 558 1
960 558 1
234 559 1
236 559 1
269 559 1
274 559 1
369 559 1
379 559 1
958 559 1
961 559 1
235 560 1
237 560 1
270 560 1
275 560 1
370 560 1
380 560 1
959 560 1
962 560 1
236 561 1
238 561 1
271 561 1
276 561 1
362 561 1
371 561 1
960 561 1
963 561 1
237 562 1
239 562 1
272 562 1
277 562 1
363 562 1
372 562 1
961 562 1
964 562 1
238 563 1
240 563 1
273 563 1
278 563 1
364 563 1
373 563 1
962 563 1
965 563 1
239 564 1
241 564 1
274 564 1
279 564 1
365 564 1
374 564 1
963 564 1
966 564 1
240 565 1
242 565 1
275 565 1
280 565 1
366 565 1
375 565 1
964 565 1
967 565 1
241 566 1
243 566 1
276 566 1
281 566 1
367 566 1
376 566 1
965 566 1
968 566 1
242 567 1
244 567 1
277 567 1
282 567 1
368 567 1
377 567 1
966 567 1
969 567 1
243 568 1
245 568 1
278 568 1
283 568 1
369 568 1
378 568 1
951 568 1
967 568 1
244 569 1
246 569 1
279 569 1
284 569 1
370 569 1
379 569 1
952 569 1
968 569 1
245 570 1
247 570 1
280 570 1
285 570 1
371 570 1
380 570 1
953 570 1
969 570 1
248 571 1
265 571 1
267 571 1
282 571 1
381 571 1
391 571 1
970 571 1
973 571 1
249 572 1
266 572 1
268 572 1
283 572 1
382 572 1
392 572 1
971 572 1
974 572 1
248 573 1
250 573 1
269 573 1
284 573 1
383 573 1
393 573 1
972 573 1
975 573 1
249 574 1
251 574 1
270 574 1
285 574 1
384 574 1
394 574 1
973 574 1
976 574 1
250 575 1
252 575 1
267 575 1
271 575 1
385 575 1
395 575 1
974 575 1
977 575 1
251 576 1
253 576 1
268 576 1
272 576 1
386 576 1
396 576 1
975 576 1
978 576 1
252 577 1
254 577 1
269 577 1
273 577 1
387 577 1
397 577 1
976 577 1
979 577 1
253 578 1
255 578 1
270 578 1
274 578 1
388 578 1
398 578 1
977 578 1
980 578 1
254 579 1
256 579 1
271 579 1
275 579 1
389 579 1
399 579 1
978 579 1
981 579 1
255 580 1
257 580 1
272 580 1
276 580 1
381 580 1
390 580 1
979 580 1
982 580 1
256 581 1
258 581 1
273 581 1
277 581 1
382 581 1
391 581 1
980 581 1
983 581 1
257 582 1
259 582 1
274 582 1
278 582 1
383 582 1
392 582 1
981 582 1
984 582 1
258 583 1
260 583 1
275 583 1
279 583 1
384 583 1
393 583 1
982 583 1
985 583 1
259 584 1
261 584 1
276 584 1
280 584 1
385 584 1
394 584 1
983 584 1
986 584 1
260 585 1
262 585 1
277 585 1
281 585 1
386 585 1
395 585 1
984 585 1
987 585 1
261 586 1
263 586 1
278 586 1
282 586 1
387 586 1
396 586 1
985 586 1
988 586 1
262 587 1
264 587 1
279 587 1
283 587 1
388 587 1
397 587 1
970 587 1
986 587 1
263 588 1
265 588 1
280 588 1
284 588 1
389 588 1
398 588 1
971 588 1
987 588 1
264 589 1
266 589 1
281 589 1
285 589 1
390 589 1
399 589 1
972 589 1
988 589 1
286 590 1
301 590 1
305 590 1
319 590 1
343 590 1
356 590 1
989 590 1
992 590 1
287 591 1
302 591 1
306 591 1
320 591 1
344 591 1
357 591 1
990 591 1
993 591 1
288 592 1
303 592 1
307 592 1
321 592 1
345 592 1
358 592 1
991 592 1
994 592 1
289 593 1
304 593 1
308 593 1
322 593 1
346 593 1
359 593 1
992 593 1
995 593 1
286 594 1
290 594 1
309 594 1
323 594 1
347 594 1
360 594 1
993 594 1
996 594 1
287 595 1
291 595 1
305 595 1
310 595 1
348 595 1
361 595 1
994 595 1
997 595 1
288 596 1
292 596 1
306 596 1
311 596 1
343 596 1
349 596 1
995 596 1
998 596 1
289 597 1
293 597 1
307 597 1
312 597 1
344 597 1
350 597 1
996 597 1
999 597 1
290 598 1
294 598 1
308 598 1
313 598 1
345 598 1
351 598 1
997 598 1
1000 598 1
291 599 1
295 599 1
309 599 1
314 599 1
346 599 1
352 599 1
998 599 1
1001 599 1
292 600 1
296 600 1
310 600 1
315 600 1
347 600 1
353 600 1
999 600 1
1002 600 1
293 601 1
297 601 1
311 601 1
316 601 1
348 601 1
354 601 1
1000 601 1
1003 601 1
294 602 1
298 602 1
312 602 1
317 602 1
349 602 1
355 602 1
1001 602 1
1004 602 1
295 603 1
299 603 1
313 603 1
318 603 1
350 603 1
356 603 1
1002 603 1
1005 603 1
296 604 1
300 604 1
314 604 1
319 604 1
351 604 1
357 604 1
1003 604 1
1006 604 1
297 605 1
301 605 1
315 605 1
320 605 1
352 605 1
358 605 1
1004 605 1
1007 605 1
298 606 1
302 606 1
316 606 1
321 606 1
353 606 1
359 606 1
989 606 1
1005 606 1
299 607 1
303 607 1
317 607 1
322 607 1
354 607 1
360 607 1
990 607 1
1006 607 1
300 608 1
304 608 1
318 608 1
323 608 1
355 608 1
361 608 1
991 608 1
1007 608 1
286 609 1
303 609 1
324 609 1
338 609 1
362 609 1
375 609 1
1008 609 1
1011 609 1
287 610 1
304 610 1
325 610 1
339 610 1
363 610 1
376 610 1
1009 610 1
1012 610 1
286 611 1
288 611 1
326 611 1
340 611 1
364 611 1
377 611 1
1010 611 1
1013 611 1
287 612 1
289 612 1
327 612 1
341 612 1
365 612 1
378 612 1
1011 612 1
1014 612 1
288 613 1
290 613 1
328 613 1
342 613 1
366 613 1
379 613 1
1012 613 1
1015 613 1
289 614 1
291 614 1
324 614 1
329 614 1
367 614 1
380 614 1
1013 614 1
1016 614 1
290 615 1
292 615 1
325 615 1
330 615 1
362 615 1
368 615 1
1014 615 1
1017 615 1
291 616 1
293 616 1
326 616 1
331 616 1
363 616 1
369 616 1
1015 616 1
1018 616 1
292 617 1
294 617 1
327 617 1
332 617 1
364 617 1
370 617 1
1016 617 1
1019 617 1
293 618 1
295 618 1
328 618 1
333 618 1
365 618 1
371 618 1
1017 618 1
1020 618 1
294 619 1
296 619 1
329 619 1
334 619 1
366 619 1
372 619 1
1018 619 1
1021 619 1
295 620 1
297 620 1
330 620 1
335 620 1
367 620 1
373 620 1
1019 620 1
1022 620 1
296 621 1
298 621 1
331 621 1
336 621 1
368 621 1
374 621 1
1020 621 1
1023 621 1
297 622 1
299 622 1
332 622 1
337 622 1
369 622 1
375 622 1
1021 622 1
1024 622 1
298 623 1
300 623 1
333 623 1
338 623 1
370 623 1
376 623 1
1022 623 1
1025 623 1
299 624 1
301 624 1
334 624 1
339 624 1
371 624 1
377 624 1
1023 624 1
1026 624 1
300 625 1
302 625 1
335 625 1
340 625 1
372 625 1
378 625 1
1008 625 1
1024 625 1
301 626 1
303 626 1
336 626 1
341 626 1
373 626 1
379 626 1
1009 626 1
1025 626 1
302 627 1
304 627 1
337 627 1
342 627 1
374 627 1
380 627 1
1010 627 1
1026 627 1
305 628 1
322 628 1
324 628 1
339 628 1
381 628 1
394 628 1
1027 628 1
1030 628 1
306 629 1
323 629 1
325 629 1
340 629 1
382 629 1
395 629 1
1028 629 1
1031 629 1
305 630 1
307 630 1
326 630 1
341 630 1
383 630 1
396 630 1
1029 630 1
1032 630 1
306 631 1
308 631 1
327 631 1
342 631 1
384 631 1
397 631 1
1030 631 1
1033 631 1
307 632 1
309 632 1
324 632 1
328 632 1
385 632 1
398 632 1
1031 632 1
1034 632 1
308 633 1
310 633 1
325 633 1
329 633 1
386 633 1
399 633 1
1032 633 1
1035 633 1
309 634 1
311 634 1
326 634 1
330 634 1
381 634 1
387 634 1
1033 634 1
1036 634 1
310 635 1
312 635 1
327 635 1
331 635 1
382 635 1
388 635 1
1034 635 1
1037 635 1
311 636 1
313 636 1
328 636 1
332 636 1
383 636 1
389 636 1
1035 636 1
1038 636 1
312 637 1
314 637 1
329 637 1
333 637 1
384 637 1
390 637 1
1036 637 1
1039 637 1
313 638 1
315 638 1
330 638 1
334 638 1
385 638 1
391 638 1
1037 638 1
1040 638 1
314 639 1
316 639 1
331 639 1
335 639 1
386 639 1
392 639 1
1038 639 1
1041 639 1
315 640 1
317 640 1
332 640 1
336 640 1
387 640 1
393 640 1
1039 640 1
1042 640 1
316 641 1
318 641 1
333 641 1
337 641 1
388 641 1
394 641 1
1040 641 1
1043 641 1
317 642 1
319 642 1
334 642 1
338 642 1
389 642 1
395 642 1
1041 642 1
1044 642 1
318 643 1
320 643 1
335 643 1
339 643 1
390 643 1
396 643 1
1042 643 1
1045 643 1
319 644 1
321 644 1
336 644 1
340 644 1
391 644 1
397 644 1
1027 644 1
1043 644 1
320 645 1
322 645 1
337 645 1
341 645 1
392 645 1
398 645 1
1028 645 1
1044 645 1
321 646 1
323 646 1
338 646 1
342 646 1
393 646 1
399 646 1
1029 646 1
1045 646 1
343 647 1
360 647 1
362 647 1
377 647 1
381 647 1
395 647 1
1046 647 1
1049 647 1
344 648 1
361 648 1
363 648 1
378 648 1
382 648 1
396 648 1
1047 648 1
1050 648 1
343 649 1
345 649 1
364 649 1
379 649 1
383 649 1
397 649 1
1048 649 1
1051 649 1
344 650 1
346 650 1
365 650 1
380 650 1
384 650 1
398 650 1
1049 650 1
1052 650 1
345 651 1
347 651 1
362 651 1
366 651 1
385 651 1
399 651 1
1050 651 1
1053 651 1
346 652 1
348 652 1
363 652 1
367 652 1
381 652 1
386 652 1
1051 652 1
1054 652 1
347 653 1
349 653 1
364 653 1
368 653 1
382 653 1
387 653 1
1052 653 1
1055 653 1
348 654 1
350 654 1
365 654 1
369 654 1
383 654 1
388 654 1
1053 654 1
1056 654 1
349 655 1
351 655 1
366 655 1
370 655 1
384 655 1
389 655 1
1054 655 1
1057 655 1
350 656 1
352 656 1
367 656 1
371 656 1
385 656 1
390 656 1
1055 656 1
1058 656 1
351 657 1
353 657 1
368 657 1
372 657 1
386 657 1
391 657 1
1056 657 1
1059 657 1
352 658 1
354 658 1
369 658 1
373 658 1
387 658 1
392 658 1
1057 658 1
1060 658 1
353 659 1
355 659 1
370 659 1
374 659 1
388 659 1
393 659 1
1058 659 1
1061 659 1
354 660 1
356 660 1
371 660 1
375 660 1
389 660 1
394 660 1
1059 660 1
1062 660 1
355 661 1
357 661 1
372 661 1
376 661 1
390 661 1
395 661 1
1060 661 1
1063 661 1
356 662 1
358 662 1
373 662 1
377 662 1
391 662 1
396 662 1
1061 662 1
1064 662 1
357 663 1
359 663 1
374 663 1
378 663 1
392 663 1
397 663 1
1046 663 1
1062 663 1
358 664 1
360 664 1
375 664 1
379 664 1
393 664 1
398 664 1
1047 664 1
1063 664 1
359 665 1
361 665 1
376 665 1
380 665 1
394 665 1
399 665 1
1048 665 1
1064 665 1
400 666 1
413 666 1
419 666 1
429 666 1
495 666 1
503 666 1
685 666 1
691 666 1
401 667 1
414 667 1
420 667 1
430 667 1
496 667 1
504 667 1
686 667 1
692 667 1
402 668 1
415 668 1
421 668 1
431 668 1
497 668 1
505 668 1
687 668 1
693 668 1
403 669 1
416 669 1
422 669 1
432 669 1
498 669 1
506 669 1
688 669 1
694 669 1
404 670 1
417 670 1
423 670 1
433 670 1
499 670 1
507 670 1
689 670 1
695 670 1
405 671 1
418 671 1
424 671 1
434 671 1
500 671 1
508 671 1
690 671 1
696 671 1
400 672 1
406 672 1
425 672 1
435 672 1
501 672 1
509 672 1
691 672 1
697 672 1
401 673 1
407 673 1
426 673 1
436 673 1
502 673 1
510 673 1
692 673 1
698 673 1
402 674 1
408 674 1
427 674 1
437 674 1
503 674 1
511 674 1
693 674 1
699 674 1
403 675 1
409 675 1
419 675 1
428 675 1
504 675 1
512 675 1
694 675 1
700 675 1
404 676 1
410 676 1
420 676 1
429 676 1
505 676 1
513 676 1
695 676 1
701 676 1
405 677 1
411 677 1
421 677 1
430 677 1
495 677 1
506 677 1
696 677 1
702 677 1
406 678 1
412 678 1
422 678 1
431 678 1
496 678 1
507 678 1
697 678 1
703 678 1
407 679 1
413 679 1
423 679 1
432 679 1
497 679 1
508 679 1
685 679 1
698 679 1
408 680 1
414 680 1
424 680 1
433 680 1
498 680 1
509 680 1
686 680 1
699 680 1
409 681 1
415 681 1
425 681 1
434 681 1
499 681 1
510 681 1
687 681 1
700 681 1
410 682 1
416 682 1
426 682 1
435 682 1
500 682 1
511 682 1
688 682 1
701 682 1
411 683 1
417 683 1
427 683 1
436 683 1
501 683 1
512 683 1
689 683 1
702 683 1
412 684 1
418 684 1
428 684 1
437 684 1
502 684 1
513 684 1
690 684 1
703 684 1
400 685 1
414 685 1
438 685 1
448 685 1
514 685 1
522 685 1
704 685 1
710 685 1
401 686 1
415 686 1
439 686 1
449 686 1
515 686 1
523 686 1
705 686 1
711 686 1
402 687 1
416 687 1
440 687 1
450 687 1
516 687 1
524 687 1
706 687 1
712 687 1
403 688 1
417 688 1
441 688 1
451 688 1
517 688 1
525 688 1
707 688 1
713 688 1
404 689 1
418 689 1
442 689 1
452 689 1
518 689 1
526 689 1
708 689 1
714 689 1
400 690 1
405 690 1
443 690 1
453 690 1
519 690 1
527 690 1
709 690 1
715 690 1
401 691 1
406 691 1
444 691 1
454 691 1
520 691 1
528 691 1
710 691 1
716 691 1
402 692 1
407 692 1
445 692 1
455 692 1
521 692 1
529 692 1
711 692 1
717 692 1
403 693 1
408 693 1
446 693 1
456 693 1
522 693 1
530 693 1
712 693 1
718 693 1
404 694 1
409 694 1
438 694 1
447 694 1
523 694 1
531 694 1
713 694 1
719 694 1
405 695 1
410 695 1
439 695 1
448 695 1
524 695 1
532 695 1
714 695 1
720 695 1
406 696 1
411 696 1
440 696 1
449 696 1
514 696 1
525 696 1
715 696 1
721 696 1
407 697 1
412 697 1
441 697 1
450 697 1
515 697 1
526 697 1
716 697 1
722 697 1
408 698 1
413 698 1
442 698 1
451 698 1
516 698 1
527 698 1
704 698 1
717 698 1
409 699 1
414 699 1
443 699 1
452 699 1
517 699 1
528 699 1
705 699 1
718 699 1
410 700 1
415 700 1
444 700 1
453 700 1
518 700 1
529 700 1
706 700 1
719 700 1
411 701 1
416 701 1
445 701 1
454 701 1
519 701 1
530 701 1
707 701 1
720 701 1
412 702 1
417 702 1
446 702 1
455 702 1
520 702 1
531 702 1
708 702 1
721 702 1
413 703 1
418 703 1
447 703 1
456 703 1
521 703 1
532 703 1
709 703 1
722 703 1
400 704 1
415 704 1
457 704 1
467 704 1
533 704 1
541 704 1
723 704 1
729 704 1
401 705 1
416 705 1
458 705 1
468 705 1
534 705 1
542 705 1
724 705 1
730 705 1
402 706 1
417 706 1
459 706 1
469 706 1
535 706 1
543 706 1
725 706 1
731 706 1
403 707 1
418 707 1
460 707 1
470 707 1
536 707 1
544 707 1
726 707 1
732 707 1
400 708 1
404 708 1
461 708 1
471 708 1
537 708 1
545 708 1
727 708 1
733 708 1
401 709 1
405 709 1
462 709 1
472 709 1
538 709 1
546 709 1
728 709 1
734 709 1
402 710 1
406 710 1
463 710 1
473 710 1
539 710 1
547 710 1
729 710 1
735 710 1
403 711 1
407 711 1
464 711 1
474 711 1
540 711 1
548 711 1
730 711 1
736 711 1
404 712 1
408 712 1
465 712 1
475 712 1
541 712 1
549 712 1
731 712 1
737 712 1
405 713 1
409 713 1
457 713 1
466 713 1
542 713 1
550 713 1
732 713 1
738 713 1
406 714 1
410 714 1
458 714 1
467 714 1
543 714 1
551 714 1
733 714 1
739 714 1
407 715 1
411 715 1
459 715 1
468 715 1
533 715 1
544 715 1
734 715 1
740 715 1
408 716 1
412 716 1
460 716 1
469 716 1
534 716 1
545 716 1
735 716 1
741 716 1
409 717 1
413 717 1
461 717 1
470 717 1
535 717 1
546 717 1
723 717 1
736 717 1
410 718 1
414 718 1
462 718 1
471 718 1
536 718 1
547 718 1
724 718 1
737 718 1
411 719 1
415 719 1
463 719 1
472 719 1
537 719 1
548 719 1
725 719 1
738 719 1
412 720 1
416 720 1
464 720 1
473 720 1
538 720 1
549 720 1
726 720 1
739 720 1
413 721 1
417 721 1
465 721 1
474 721 1
539 721 1
550 721 1
727 721 1
740 721 1
414 722 1
418 722 1
466 722 1
475 722 1
540 722 1
551 722 1
728 722 1
741 722 1
400 723 1
417 723 1
476 723 1
486 723 1
552 723 1
560 723 1
742 723 1
748 723 1
401 724 1
418 724 1
477 724 1
487 724 1
553 724 1
561 724 1
743 724 1
749 724 1
400 725 1
402 725 1
478 725 1
488 725 1
554 725 1
562 725 1
744 725 1
750 725 1
401 726 1
403 726 1
479 726 1
489 726 1
555 726 1
563 726 1
745 726 1
751 726 1
402 727 1
404 727 1
480 727 1
490 727 1
556 727 1
564 727 1
746 727 1
752 727 1
403 728 1
405 728 1
481 728 1
491 728 1
557 728 1
565 728 1
747 728 1
753 728 1
404 729 1
406 729 1
482 729 1
492 729 1
558 729 1
566 729 1
748 729 1
754 729 1
405 730 1
407 730 1
483 730 1
493 730 1
559 730 1
567 730 1
749 730 1
755 730 1
406 731 1
408 731 1
484 731 1
494 731 1
560 731 1
568 731 1
750 731 1
756 731 1
407 732 1
409 732 1
476 732 1
485 732 1
561 732 1
569 732 1
751 732 1
757 732 1
408 733 1
410 733 1
477 733 1
486 733 1
562 733 1
570 733 1
752 733 1
758 733 1
409 734 1
411 734 1
478 734 1
487 734 1
552 734 1
563 734 1
753 734 1
759 734 1
410 735 1
412 735 1
479 735 1
488 735 1
553 735 1
564 735 1
754 735 1
760 735 1
411 736 1
413 736 1
480 736 1
489 736 1
554 736 1
565 736 1
742 736 1
755 736 1
412 737 1
414 737 1
481 737 1
490 737 1
555 737 1
566 737 1
743 737 1
756 737 1
413 738 1
415 738 1
482 738 1
491 738 1
556 738 1
567 738 1
744 738 1
757 738 1
414 739 1
416 739 1
483 739 1
492 739 1
557 739 1
568 739 1
745 739 1
758 739 1
415 740 1
417 740 1
484 740 1
493 740 1
558 740 1
569 740 1
746 740 1
759 740 1
416 741 1
418 741 1
485 741 1
494 741 1
559 741 1
570 741 1
747 741 1
760 741 1
419 742 1
433 742 1
438 742 1
451 742 1
571 742 1
579 742 1
761 742 1
767 742 1
420 743 1
434 743 1
439 743 1
452 743 1
572 743 1
580 743 1
762 743 1
768 743 1
421 744 1
435 744 1
440 744 1
453 744 1
573 744 1
581 744 1
763 744 1
769 744 1
422 745 1
436 745 1
441 745 1
454 745 1
574 745 1
582 745 1
764 745 1
770 745 1
423 746 1
437 746 1
442 746 1
455 746 1
575 746 1
583 746 1
765 746 1
771 746 1
419 747 1
424 747 1
443 747 1
456 747 1
576 747 1
584 747 1
766 747 1
772 747 1
420 748 1
425 748 1
438 748 1
444 748 1
577 748 1
585 748 1
767 748 1
773 748 1
421 749 1
426 749 1
439 749 1
445 749 1
578 749 1
586 749 1
768 749 1
774 749 1
422 750 1
427 750 1
440 750 1
446 750 1
579 750 1
587 750 1
769 750 1
775 750 1
423 751 1
428 751 1
441 751 1
447 751 1
580 751 1
588 751 1
770 751 1
776 751 1
424 752 1
429 752 1
442 752 1
448 752 1
581 752 1
589 752 1
771 752 1
777 752 1
425 753 1
430 753 1
443 753 1
449 753 1
571 753 1
582 753 1
772 753 1
778 753 1
426 754 1
431 754 1
444 754 1
450 754 1
572 754 1
583 754 1
773 754 1
779 754 1
427 755 1
432 755 1
445 755 1
451 755 1
573 755 1
584 755 1
761 755 1
774 755 1
428 756 1
433 756 1
446 756 1
452 756 1
574 756 1
585 756 1
762 756 1
775 756 1
429 757 1
434 757 1
447 757 1
453 757 1
575 757 1
586 757 1
763 757 1
776 757 1
430 758 1
435 758 1
448 758 1
454 758 1
576 758 1
587 758 1
764 758 1
777 758 1
431 759 1
436 759 1
449 759 1
455 759 1
577 759 1
588 759 1
765 759 1
778 759 1
432 760 1
437 760 1
450 760 1
456 760 1
578 760 1
589 760 1
766 760 1
779 760 1
419 761 1
434 761 1
457 761 1
470 761 1
590 761 1
598 761 1
780 761 1
786 761 1
420 762 1
435 762 1
458 762 1
471 762 1
591 762 1
599 762 1
781 762 1
787 762 1
421 763 1
436 763 1
459 763 1
472 763 1
592 763 1
600 763 1
782 763 1
788 763 1
422 764 1
437 764 1
460 764 1
473 764 1
593 764 1
601 764 1
783 764 1
789 764 1
419 765 1
423 765 1
461 765 1
474 765 1
594 765 1
602 765 1
784 765 1
790 765 1
420 766 1
424 766 1
462 766 1
475 766 1
595 766 1
603 766 1
785 766 1
791 766 1
421 767 1
425 767 1
457 767 1
463 767 1
596 767 1
604 767 1
786 767 1
792 767 1
422 768 1
426 768 1
458 768 1
464 768 1
597 768 1
605 768 1
787 768 1
793 768 1
423 769 1
427 769 1
459 769 1
465 769 1
598 769 1
606 769 1
788 769 1
794 769 1
424 770 1
428 770 1
460 770 1
466 770 1
599 770 1
607 770 1
789 770 1
795 770 1
425 771 1
429 771 1
461 771 1
467 771 1
600 771 1
608 771 1
790 771 1
796 771 1
426 772 1
430 772 1
462 772 1
468 772 1
590 772 1
601 772 1
791 772 1
797 772 1
427 773 1
431 773 1
463 773 1
469 773 1
591 773 1
602 773 1
792 773 1
798 773 1
428 774 1
432 774 1
464 774 1
470 774 1
592 774 1
603 774 1
780 774 1
793 774 1
429 775 1
433 775 1
465 775 1
471 775 1
593 775 1
604 775 1
781 775 1
794 775 1
430 776 1
434 776 1
466 776 1
472 776 1
594 776 1
605 776 1
782 776 1
795 776 1
431 777 1
435 777 1
467 777 1
473 777 1
595 777 1
606 777 1
783 777 1
796 777 1
432 778 1
436 778 1
468 778 1
474 778 1
596 778 1
607 778 1
784 778 1
797 778 1
433 779 1
437 779 1
469 779 1
475 779 1
597 779 1
608 779 1
785 779 1
798 779 1
419 780 1
436 780 1
476 780 1
489 780 1
609 780 1
617 780 1
799 780 1
805 780 1
420 781 1
437 781 1
477 781 1
490 781 1
610 781 1
618 781 1
800 781 1
806 781 1
419 782 1
421 782 1
478 782 1
491 782 1
611 782 1
619 782 1
801 782 1
807 782 1
420 783 1
422 783 1
479 783 1
492 783 1
612 783 1
620 783 1
802 783 1
808 783 1
421 784 1
423 784 1
480 784 1
493 784 1
613 784 1
621 784 1
803 784 1
809 784 1
422 785 1
424 785 1
481 785 1
494 785 1
614 785 1
622 785 1
804 785 1
810 785 1
423 786 1
425 786 1
476 786 1
482 786 1
615 786 1
623 786 1
805 786 1
811 786 1
424 787 1
426 787 1
477 787 1
483 787 1
616 787 1
624 787 1
806 787 1
812 787 1
425 788 1
427 788 1
478 788 1
484 788 1
617 788 1
625 788 1
807 788 1
813 788 1
426 789 1
428 789 1
479 789 1
485 789 1
618 789 1
626 789 1
808 789 1
814 789 1
427 790 1
429 790 1
480 790 1
486 790 1
619 790 1
627 790 1
809 790 1
815 790 1
428 791 1
430 791 1
481 791 1
487 791 1
609 791 1
620 791 1
810 791 1
816 791 1
429 792 1
431 792 1
482 792 1
488 792 1
610 792 1
621 792 1
811 792 1
817 792 1
430 793 1
432 793 1
483 793 1
489 793 1
611 793 1
622 793 1
799 793 1
812 793 1
431 794 1
433 794 1
484 794 1
490 794 1
612 794 1
623 794 1
800 794 1
813 794 1
432 795 1
434 795 1
485 795 1
491 795 1
613 795 1
624 795 1
801 795 1
814 795 1
433 796 1
435 796 1
486 796 1
492 796 1
614 796 1
625 796 1
802 796 1
815 796 1
434 797 1
436 797 1
487 797 1
493 797 1
615 797 1
626 797 1
803 797 1
816 797 1
435 798 1
437 798 1
488 798 1
494 798 1
616 798 1
627 798 1
804 798 1
817 798 1
438 799 1
453 799 1
457 799 1
471 799 1
628 799 1
636 799 1
818 799 1
824 799 1
439 800 1
454 800 1
458 800 1
472 800 1
629 800 1
637 800 1
819 800 1
825 800 1
440 801 1
455 801 1
459 801 1
473 801 1
630 801 1
638 801 1
820 801 1
826 801 1
441 802 1
456 802 1
460 802 1
474 802 1
631 802 1
639 802 1
821 802 1
827 802 1
438 803 1
442 803 1
461 803 1
475 803 1
632 803 1
640 803 1
822 803 1
828 803 1
439 804 1
443 804 1
457 804 1
462 804 1
633 804 1
641 804 1
823 804 1
829 804 1
440 805 1
444 805 1
458 805 1
463 805 1
634 805 1
642 805 1
824 805 1
830 805 1
441 806 1
445 806 1
459 806 1
464 806 1
635 806 1
643 806 1
825 806 1
831 806 1
442 807 1
446 807 1
460 807 1
465 807 1
636 807 1
644 807 1
826 807 1
832 807 1
443 808 1
447 808 1
461 808 1
466 808 1
637 808 1
645 808 1
827 808 1
833 808 1
444 809 1
448 809 1
462 809 1
467 809 1
638 809 1
646 809 1
828 809 1
834 809 1
445 810 1
449 810 1
463 810 1
468 810 1
628 810 1
639 810 1
829 810 1
835 810 1
446 811 1
450 811 1
464 811 1
469 811 1
629 811 1
640 811 1
830 811 1
836 811 1
447 812 1
451 812 1
465 812 1
470 812 1
630 812 1
641 812 1
818 812 1
831 812 1
448 813 1
452 813 1
466 813 1
471 813 1
631 813 1
642 813 1
819 813 1
832 813 1
449 814 1
453 814 1
467 814 1
472 814 1
632 814 1
643 814 1
820 814 1
833 814 1
450 815 1
454 815 1
468 815 1
473 815 1
633 815 1
644 815 1
821 815 1
834 815 1
451 816 1
455 816 1
469 816 1
474 816 1
634 816 1
645 816 1
822 816 1
835 816 1
452 817 1
456 817 1
470 817 1
475 817 1
635 817 1
646 817 1
823 817 1
836 817 1
438 818 1
455 818 1
476 818 1
490 818 1
647 818 1
655 818 1
837 818 1
843 818 1
439 819 1
456 819 1
477 819 1
491 819 1
648 819 1
656 819 1
838 819 1
844 819 1
438 820 1
440 820 1
478 820 1
492 820 1
649 820 1
657 820 1
839 820 1
845 820 1
439 821 1
441 821 1
479 821 1
493 821 1
650 821 1
658 821 1
840 821 1
846 821 1
440 822 1
442 822 1
480 822 1
494 822 1
651 822 1
659 822 1
841 822 1
847 822 1
441 823 1
443 823 1
476 823 1
481 823 1
652 823 1
660 823 1
842 823 1
848 823 1
442 824 1
444 824 1
477 824 1
482 824 1
653 824 1
661 824 1
843 824 1
849 824 1
443 825 1
445 825 1
478 825 1
483 825 1
654 825 1
662 825 1
844 825 1
850 825 1
444 826 1
446 826 1
479 826 1
484 826 1
655 826 1
663 826 1
845 826 1
851 826 1
445 827 1
447 827 1
480 827 1
485 827 1
656 827 1
664 827 1
846 827 1
852 827 1
446 828 1
448 828 1
481 828 1
486 828 1
657 828 1
665 828 1
847 828 1
853 828 1
447 829 1
449 829 1
482 829 1
487 829 1
647 829 1
658 829 1
848 829 1
854 829 1
448 830 1
450 830 1
483 830 1
488 830 1
648 830 1
659 830 1
849 830 1
855 830 1
449 831 1
451 831 1
484 831 1
489 831 1
649 831 1
660 831 1
837 831 1
850 831 1
450 832 1
452 832 1
485 832 1
490 832 1
650 832 1
661 832 1
838 832 1
851 832 1
451 833 1
453 833 1
486 833 1
491 833 1
651 833 1
662 833 1
839 833 1
852 833 1
452 834 1
454 834 1
487 834 1
492 834 1
652 834 1
663 834 1
840 834 1
853 834 1
453 835 1
455 835 1
488 835 1
493 835 1
653 835 1
664 835 1
841 835 1
854 835 1
454 836 1
456 836 1
489 836 1
494 836 1
654 836 1
665 836 1
842 836 1
855 836 1
457 837 1
474 837 1
476 837 1
491 837 1
666 837 1
674 837 1
856 837 1
862 837 1
458 838 1
475 838 1
477 838 1
492 838 1
667 838 1
675 838 1
857 838 1
863 838 1
457 839 1
459 839 1
478 839 1
493 839 1
668 839 1
676 839 1
858 839 1
864 839 1
458 840 1
460 840 1
479 840 1
494 840 1
669 840 1
677 840 1
859 840 1
865 840 1
459 841 1
461 841 1
476 841 1
480 841 1
670 841 1
678 841 1
860 841 1
866 841 1
460 842 1
462 842 1
477 842 1
481 842 1
671 842 1
679 842 1
861 842 1
867 842 1
461 843 1
463 843 1
478 843 1
482 843 1
672 843 1
680 843 1
862 843 1
868 843 1
462 844 1
464 844 1
479 844 1
483 844 1
673 844 1
681 844 1
863 844 1
869 844 1
463 845 1
465 845 1
480 845 1
484 845 1
674 845 1
682 845 1
864 845 1
870 845 1
464 846 1
466 846 1
481 846 1
485 846 1
675 846 1
683 846 1
865 846 1
871 846 1
465 847 1
467 847 1
482 847 1
486 847 1
676 847 1
684 847 1
866 847 1
872 847 1
466 848 1
468 848 1
483 848 1
487 848 1
666 848 1
677 848 1
867 848 1
873 848 1
467 849 1
469 849 1
484 849 1
488 849 1
667 849 1
678 849 1
868 849 1
874 849 1
468 850 1
470 850 1
485 850 1
489 850 1
668 850 1
679 850 1
856 850 1
869 850 1
469 851 1
471 851 1
486 851 1
490 851 1
669 851 1
680 851 1
857 851 1
870 851 1
470 852 1
472 852 1
487 852 1
491 852 1
670 852 1
681 852 1
858 852 1
871 852 1
471 853 1
473 853 1
488 853 1
492 853 1
671 853 1
682 853 1
859 853 1
872 853 1
472 854 1
474 854 1
489 854 1
493 854 1
672 854 1
683 854 1
860 854 1
873 854 1
473 855 1
475 855 1
490 855 1
494 855 1
673 855 1
684 855 1
861 855 1
874 855 1
495 856 1
509 856 1
514 856 1
527 856 1
571 856 1
581 856 1
875 856 1
881 856 1
496 857 1
510 857 1
515 857 1
528 857 1
572 857 1
582 857 1
876 857 1
882 857 1
497 858 1
511 858 1
516 858 1
529 858 1
573 858 1
583 858 1
877 858 1
883 858 1
498 859 1
512 859 1
517 859 1
530 859 1
574 859 1
584 859 1
878 859 1
884 859 1
499 860 1
513 860 1
518 860 1
531 860 1
575 860 1
585 860 1
879 860 1
885 860 1
495 861 1
500 861 1
519 861 1
532 861 1
576 861 1
586 861 1
880 861 1
886 861 1
496 862 1
501 862 1
514 862 1
520 862 1
577 862 1
587 862 1
881 862 1
887 862 1
497 863 1
502 863 1
515 863 1
521 863 1
578 863 1
588 863 1
882 863 1
888 863 1
498 864 1
503 864 1
516 864 1
522 864 1
579 864 1
589 864 1
883 864 1
889 864 1
499 865 1
504 865 1
517 865 1
523 865 1
571 865 1
580 865 1
884 865 1
890 865 1
500 866 1
505 866 1
518 866 1
524 866 1
572 866 1
581 866 1
885 866 1
891 866 1
501 867 1
506 867 1
519 867 1
525 867 1
573 867 1
582 867 1
886 867 1
892 867 1
502 868 1
507 868 1
520 868 1
526 868 1
574 868 1
583 868 1
887 868 1
893 868 1
503 869 1
508 869 1
521 869 1
527 869 1
575 869 1
584 869 1
875 869 1
888 869 1
504 870 1
509 870 1
522 870 1
528 870 1
576 870 1
585 870 1
876 870 1
889 870 1
505 871 1
510 871 1
523 871 1
529 871 1
577 871 1
586 871 1
877 871 1
890 871 1
506 872 1
511 872 1
524 872 1
530 872 1
578 872 1
587 872 1
878 872 1
891 872 1
507 873 1
512 873 1
525 873 1
531 873 1
579 873 1
588 873 1
879 873 1
892 873 1
508 874 1
513 874 1
526 874 1
532 874 1
580 874 1
589 874 1
880 874 1
893 874 1
495 875 1
510 875 1
533 875 1
546 875 1
590 875 1
600 875 1
894 875 1
900 875 1
496 876 1
511 876 1
534 876 1
547 876 1
591 876 1
601 876 1
895 876 1
901 876 1
497 877 1
512 877 1
535 877 1
548 877 1
592 877 1
602 877 1
896 877 1
902 877 1
498 878 1
513 878 1
536 878 1
549 878 1
593 878 1
603 878 1
897 878 1
903 878 1
495 879 1
499 879 1
537 879 1
550 879 1
594 879 1
604 879 1
898 879 1
904 879 1
496 880 1
500 880 1
538 880 1
551 880 1
595 880 1
605 880 1
899 880 1
905 880 1
497 881 1
501 881 1
533 881 1
539 881 1
596 881 1
606 881 1
900 881 1
906 881 1
498 882 1
502 882 1
534 882 1
540 882 1
597 882 1
607 882 1
901 882 1
907 882 1
499 883 1
503 883 1
535 883 1
541 883 1
598 883 1
608 883 1
902 883 1
908 883 1
500 884 1
504 884 1
536 884 1
542 884 1
590 884 1
599 884 1
903 884 1
909 884 1
501 885 1
505 885 1
537 885 1
543 885 1
591 885 1
600 885 1
904 885 1
910 885 1
502 886 1
506 886 1
538 886 1
544 886 1
592 886 1
601 886 1
905 886 1
911 886 1
503 887 1
507 887 1
539 887 1
545 887 1
593 887 1
602 887 1
906 887 1
912 887 1
504 888 1
508 888 1
540 888 1
546 888 1
594 888 1
603 888 1
894 888 1
907 888 1
505 889 1
509 889 1
541 889 1
547 889 1
595 889 1
604 889 1
895 889 1
908 889 1
506 890 1
510 890 1
542 890 1
548 890 1
596 890 1
605 890 1
896 890 1
909 890 1
507 891 1
511 891 1
543 891 1
549 891 1
597 891 1
606 891 1
897 891 1
910 891 1
508 892 1
512 892 1
544 892 1
550 892 1
598 892 1
607 892 1
898 892 1
911 892 1
509 893 1
513 893 1
545 893 1
551 893 1
599 893 1
608 893 1
899 893 1
912 893 1
495 894 1
512 894 1
552 894 1
565 894 1
609 894 1
619 894 1
913 894 1
919 894 1
496 895 1
513 895 1
553 895 1
566 895 1
610 895 1
620 895 1
914 895 1
920 895 1
495 896 1
497 896 1
554 896 1
567 896 1
611 896 1
621 896 1
915 896 1
921 896 1
496 897 1
498 897 1
555 897 1
568 897 1
612 897 1
622 897 1
916 897 1
922 897 1
497 898 1
499 898 1
556 898 1
569 898 1
613 898 1
623 898 1
917 898 1
923 898 1
498 899 1
500 899 1
557 899 1
570 899 1
614 899 1
624 899 1
918 899 1
924 899 1
499 900 1
501 900 1
552 900 1
558 900 1
615 900 1
625 900 1
919 900 1
925 900 1
500 901 1
502 901 1
553 901 1
559 901 1
616 901 1
626 901 1
920 901 1
926 901 1
501 902 1
503 902 1
554 902 1
560 902 1
617 902 1
627 902 1
921 902 1
927 902 1
502 903 1
504 903 1
555 903 1
561 903 1
609 903 1
618 903 1
922 903 1
928 903 1
503 904 1
505 904 1
556 904 1
562 904 1
610 904 1
619 904 1
923 904 1
929 904 1
504 905 1
506 905 1
557 905 1
563 905 1
611 905 1
620 905 1
924 905 1
930 905 1
505 906 1
507 906 1
558 906 1
564 906 1
612 906 1
621 906 1
925 906 1
931 906 1
506 907 1
508 907 1
559 907 1
565 907 1
613 907 1
622 907 1
913 907 1
926 907 1
507 908 1
509 908 1
560 908 1
566 908 1
614 908 1
623 908 1
914 908 1
927 908 1
508 909 1
510 909 1
561 909 1
567 909 1
615 909 1
624 909 1
915 909 1
928 909 1
509 910 1
511 910 1
562 910 1
568 910 1
616 910 1
625 910 1
916 910 1
929 910 1
510 911 1
512 911 1
563 911 1
569 911 1
617 911 1
626 911 1
917 911 1
930 911 1
511 912 1
513 912 1
564 912 1
570 912 1
618 912 1
627 912 1
918 912 1
931 912 1
514 913 1
529 913 1
533 913 1
547 913 1
628 913 1
638 913 1
932 913 1
938 913 1
515 914 1
530 914 1
534 914 1
548 914 1
629 914 1
639 914 1
933 914 1
939 914 1
516 915 1
531 915 1
535 915 1
549 915 1
630 915 1
640 915 1
934 915 1
940 915 1
517 916 1
532 916 1
536 916 1
550 916 1
631 916 1
641 916 1
935 916 1
941 916 1
514 917 1
518 917 1
537 917 1
551 917 1
632 917 1
642 917 1
936 917 1
942 917 1
515 918 1
519 918 1
533 918 1
538 918 1
633 918 1
643 918 1
937 918 1
943 918 1
516 919 1
520 919 1
534 919 1
539 919 1
634 919 1
644 919 1
938 919 1
944 919 1
517 920 1
521 920 1
535 920 1
540 920 1
635 920 1
645 920 1
939 920 1
945 920 1
518 921 1
522 921 1
536 921 1
541 921 1
636 921 1
646 921 1
940 921 1
946 921 1
519 922 1
523 922 1
537 922 1
542 922 1
628 922 1
637 922 1
941 922 1
947 922 1
520 923 1
524 923 1
538 923 1
543 923 1
629 923 1
638 923 1
942 923 1
948 923 1
521 924 1
525 924 1
539 924 1
544 924 1
630 924 1
639 924 1
943 924 1
949 924 1
522 925 1
526 925 1
540 925 1
545 925 1
631 925 1
640 925 1
944 925 1
950 925 1
523 926 1
527 926 1
541 926 1
546 926 1
632 926 1
641 926 1
932 926 1
945 926 1
524 927 1
528 927 1
542 927 1
547 927 1
633 927 1
642 927 1
933 927 1
946 927 1
525 928 1
529 928 1
543 928 1
548 928 1
634 928 1
643 928 1
934 928 1
947 928 1
526 929 1
530 929 1
544 929 1
549 929 1
635 929 1
644 929 1
935 929 1
948 929 1
527 930 1
531 930 1
545 930 1
550 930 1
636 930 1
645 930 1
936 930 1
949 930 1
528 931 1
532 931 1
546 931 1
551 931 1
637 931 1
646 931 1
937 931 1
950 931 1
514 932 1
531 932 1
552 932 1
566 932 1
647 932 1
657 932 1
951 932 1
957 932 1
515 933 1
532 933 1
553 933 1
567 933 1
648 933 1
658 933 1
952 933 1
958 933 1
514 934 1
516 934 1
554 934 1
568 934 1
649 934 1
659 934 1
953 934 1
959 934 1
515 935 1
517 935 1
555 935 1
569 935 1
650 935 1
660 935 1
954 935 1
960 935 1
516 936 1
518 936 1
556 936 1
570 936 1
651 936 1
661 936 1
955 936 1
961 936 1
517 937 1
519 937 1
552 937 1
557 937 1
652 937 1
662 937 1
956 937 1
962 937 1
518 938 1
520 938 1
553 938 1
558 938 1
653 938 1
663 938 1
957 938 1
963 938 1
519 939 1
521 939 1
554 939 1
559 939 1
654 939 1
664 939 1
958 939 1
964 939 1
520 940 1
522 940 1
555 940 1
560 940 1
655 940 1
665 940 1
959 940 1
965 940 1
521 941 1
523 941 1
556 941 1
561 941 1
647 941 1
656 941 1
960 941 1
966 941 1
522 942 1
524 942 1
557 942 1
562 942 1
648 942 1
657 942 1
961 942 1
967 942 1
523 943 1
525 943 1
558 943 1
563 943 1
649 943 1
658 943 1
962 943 1
968 943 1
524 944 1
526 944 1
559 944 1
564 944 1
650 944 1
659 944 1
963 944 1
969 944 1
525 945 1
527 945 1
560 945 1
565 945 1
651 945 1
660 945 1
951 945 1
964 945 1
526 946 1
528 946 1
561 946 1
566 946 1
652 946 1
661 946 1
952 946 1
965 946 1
527 947 1
529 947 1
562 947 1
567 947 1
653 947 1
662 947 1
953 947 1
966 947 1
528 948 1
530 948 1
563 948 1
568 948 1
654 948 1
663 948 1
954 948 1
967 948 1
529 949 1
531 949 1
564 949 1
569 949 1
655 949 1
664 949 1
955 949 1
968 949 1
530 950 1
532 950 1
565 950 1
570 950 1
656 950 1
665 950 1
956 950 1
969 950 1
533 951 1
550 951 1
552 951 1
567 951 1
666 951 1
676 951 1
970 951 1
976 951 1
534 952 1
551 952 1
553 952 1
568 952 1
667 952 1
677 952 1
971 952 1
977 952 1
533 953 1
535 953 1
554 953 1
569 953 1
668 953 1
678 953 1
972 953 1
978 953 1
534 954 1
536 954 1
555 954 1
570 954 1
669 954 1
679 954 1
973 954 1
979 954 1
535 955 1
537 955 1
552 955 1
556 955 1
670 955 1
680 955 1
974 955 1
980 955 1
536 956 1
538 956 1
553 956 1
557 956 1
671 956 1
681 956 1
975 956 1
981 956 1
537 957 1
539 957 1
554 957 1
558 957 1
672 957 1
682 957 1
976 957 1
982 957 1
538 958 1
540 958 1
555 958 1
559 958 1
673 958 1
683 958 1
977 958 1
983 958 1
539 959 1
541 959 1
556 959 1
560 959 1
674 959 1
684 959 1
978 959 1
984 959 1
540 960 1
542 960 1
557 960 1
561 960 1
666 960 1
675 960 1
979 960 1
985 960 1
541 961 1
543 961 1
558 961 1
562 961 1
667 961 1
676 961 1
980 961 1
986 961 1
542 962 1
544 962 1
559 962 1
563 962 1
668 962 1
677 962 1
981 962 1
987 962 1
543 963 1
545 963 1
560 963 1
564 963 1
669 963 1
678 963 1
982 963 1
988 963 1
544 964 1
546 964 1
561 964 1
565 964 1
670 964 1
679 964 1
970 964 1
983 964 1
545 965 1
547 965 1
562 965 1
566 965 1
671 965 1
680 965 1
971 965 1
984 965 1
546 966 1
548 966 1
563 966 1
567 966 1
672 966 1
681 966 1
972 966 1
985 966 1
547 967 1
549 967 1
564 967 1
568 967 1
673 967 1
682 967 1
973 967 1
986 967 1
548 968 1
550 968 1
565 968 1
569 968 1
674 968 1
683 968 1
974 968 1
987 968 1
549 969 1
551 969 1
566 969 1
570 969 1
675 969 1
684 969 1
975 969 1
988 969 1
571 970 1
586 970 1
590 970 1
604 970 1
628 970 1
641 970 1
989 970 1
995 970 1
572 971 1
587 971 1
591 971 1
605 971 1
629 971 1
642 971 1
990 971 1
996 971 1
573 972 1
588 972 1
592 972 1
606 972 1
630 972 1
643 972 1
991 972 1
997 972 1
574 973 1
589 973 1
593 973 1
607 973 1
631 973 1
644 973 1
992 973 1
998 973 1
571 974 1
575 974 1
594 974 1
608 974 1
632 974 1
645 974 1
993 974 1
999 974 1
572 975 1
576 975 1
590 975 1
595 975 1
633 975 1
646 975 1
994 975 1
1000 975 1
573 976 1
577 976 1
591 976 1
596 976 1
628 976 1
634 976 1
995 976 1
1001 976 1
574 977 1
578 977 1
592 977 1
597 977 1
629 977 1
635 977 1
996 977 1
1002 977 1
575 978 1
579 978 1
593 978 1
598 978 1
630 978 1
636 978 1
997 978 1
1003 978 1
576 979 1
580 979 1
594 979 1
599 979 1
631 979 1
637 979 1
998 979 1
1004 979 1
577 980 1
581 980 1
595 980 1
600 980 1
632 980 1
638 980 1
999 980 1
1005 980 1
578 981 1
582 981 1
596 981 1
601 981 1
633 981 1
639 981 1
1000 981 1
1006 981 1
579 982 1
583 982 1
597 982 1
602 982 1
634 982 1
640 982 1
1001 982 1
1007 982 1
580 983 1
584 983 1
598 983 1
603 983 1
635 983 1
641 983 1
989 983 1
1002 983 1
581 984 1
585 984 1
599 984 1
604 984 1
636 984 1
642 984 1
990 984 1
1003 984 1
582 985 1
586 985 1
600 985 1
605 985 1
637 985 1
643 985 1
991 985 1
1004 985 1
583 986 1
587 986 1
601 986 1
606 986 1
638 986 1
644 986 1
992 986 1
1005 986 1
584 987 1
588 987 1
602 987 1
607 987 1
639 987 1
645 987 1
993 987 1
1006 987 1
585 988 1
589 988 1
603 988 1
608 988 1
640 988 1
646 988 1
994 988 1
1007 988 1
571 989 1
588 989 1
609 989 1
623 989 1
647 989 1
660 989 1
1008 989 1
1014 989 1
572 990 1
589 990 1
610 990 1
624 990 1
648 990 1
661 990 1
1009 990 1
1015 990 1
571 991 1
573 991 1
611 991 1
625 991 1
649 991 1
662 991 1
1010 991 1
1016 991 1
572 992 1
574 992 1
612 992 1
626 992 1
650 992 1
663 992 1
1011 992 1
1017 992 1
573 993 1
575 993 1
613 993 1
627 993 1
651 993 1
664 993 1
1012 993 1
1018 993 1
574 994 1
576 994 1
609 994 1
614 994 1
652 994 1
665 994 1
1013 994 1
1019 994 1
575 995 1
577 995 1
610 995 1
615 995 1
647 995 1
653 995 1
1014 995 1
1020 995 1
576 996 1
578 996 1
611 996 1
616 996 1
648 996 1
654 996 1
1015 996 1
1021 996 1
577 997 1
579 997 1
612 997 1
617 997 1
649 997 1
655 997 1
1016 997 1
1022 997 1
578 998 1
580 998 1
613 998 1
618 998 1
650 998 1
656 998 1
1017 998 1
1023 998 1
579 999 1
581 999 1
614 999 1
619 999 1
651 999 1
657 999 1
1018 999 1
1024 999 1
580 1000 1
582 1000 1
615 1000 1
620 1000 1
652 1000 1
658 1000 1
1019 1000 1
1025 1000 1
581 1001 1
583 1001 1
616 1001 1
621 1001 1
653 1001 1
659 1001 1
1020 1001 1
1026 1001 1
582 1002 1
584 1002 1
617 1002 1
622 1002 1
654 1002 1
660 1002 1
1008 1002 1
1021 1002 1
583 1003 1
585 1003 1
618 1003 1
623 1003 1
655 1003 1
661 1003 1
1009 1003 1
1022 1003 1
584 1004 1
586 1004 1
619 1004 1
624 1004 1
656 1004 1
662 1004 1
1010 1004 1
1023 1004 1
585 1005 1
587 1005 1
620 1005 1
625 1005 1
657 1005 1
663 1005 1
1011 1005 1
1024 1005 1
586 1006 1
588 1006 1
621 1006 1
626 1006 1
658 1006 1
664 1006 1
1012 1006 1
1025 1006 1
587 1007 1
589 1007 1
622 1007 1
627 1007 1
659 1007 1
665 1007 1
1013 1007 1
1026 1007 1
590 1008 1
607 1008 1
609 1008 1
624 1008 1
666 1008 1
679 1008 1
1027 1008 1
1033 1008 1
591 1009 1
608 1009 1
610 1009 1
625 1009 1
667 1009 1
680 1009 1
1028 1009 1
1034 1009 1
590 1010 1
592 1010 1
611 1010 1
626 1010 1
668 1010 1
681 1010 1
1029 1010 1
1035 1010 1
591 1011 1
593 1011 1
612 1011 1
627 1011 1
669 1011 1
682 1011 1
1030 1011 1
1036 1011 1
592 1012 1
594 1012 1
609 1012 1
613 1012 1
670 1012 1
683 1012 1
1031 1012 1
1037 1012 1
593 1013 1
595 1013 1
610 1013 1
614 1013 1
671 1013 1
684 1013 1
1032 1013 1
1038 1013 1
594 1014 1
596 1014 1
611 1014 1
615 1014 1
666 1014 1
672 1014 1
1033 1014 1
1039 1014 1
595 1015 1
597 1015 1
612 1015 1
616 1015 1
667 1015 1
673 1015 1
1034 1015 1
1040 1015 1
596 1016 1
598 1016 1
613 1016 1
617 1016 1
668 1016 1
674 1016 1
1035 1016 1
1041 1016 1
597 1017 1
599 1017 1
614 1017 1
618 1017 1
669 1017 1
675 1017 1
1036 1017 1
1042 1017 1
598 1018 1
600 1018 1
615 1018 1
619 1018 1
670 1018 1
676 1018 1
1037 1018 1
1043 1018 1
599 1019 1
601 1019 1
616 1019 1
620 1019 1
671 1019 1
677 1019 1
1038 1019 1
1044 1019 1
600 1020 1
602 1020 1
617 1020 1
621 1020 1
672 1020 1
678 1020 1
1039 1020 1
1045 1020 1
601 1021 1
603 1021 1
618 1021 1
622 1021 1
673 1021 1
679 1021 1
1027 1021 1
1040 1021 1
602 1022 1
604 1022 1
619 1022 1
623 1022 1
674 1022 1
680 1022 1
1028 1022 1
1041 1022 1
603 1023 1
605 1023 1
620 1023 1
624 1023 1
675 1023 1
681 1023 1
1029 1023 1
1042 1023 1
604 1024 1
606 1024 1
621 1024 1
625 1024 1
676 1024 1
682 1024 1
1030 1024 1
1043 1024 1
605 1025 1
607 1025 1
622 1025 1
626 1025 1
677 1025 1
683 1025 1
1031 1025 1
1044 1025 1
606 1026 1
608 1026 1
623 1026 1
627 1026 1
678 1026 1
684 1026 1
1032 1026 1
1045 1026 1
628 1027 1
645 1027 1
647 1027 1
662 1027 1
666 1027 1
680 1027 1
1046 1027 1
1052 1027 1
629 1028 1
646 1028 1
648 1028 1
663 1028 1
667 1028 1
681 1028 1
1047 1028 1
1053 1028 1
628 1029 1
630 1029 1
649 1029 1
664 1029 1
668 1029 1
682 1029 1
1048 1029 1
1054 1029 1
629 1030 1
631 1030 1
650 1030 1
665 1030 1
669 1030 1
683 1030 1
1049 1030 1
1055 1030 1
630 1031 1
632 1031 1
647 1031 1
651 1031 1
670 1031 1
684 1031 1
1050 1031 1
1056 1031 1
631 1032 1
633 1032 1
648 1032 1
652 1032 1
666 1032 1
671 1032 1
1051 1032 1
1057 1032 1
632 1033 1
634 1033 1
649 1033 1
653 1033 1
667 1033 1
672 1033 1
1052 1033 1
1058 1033 1
633 1034 1
635 1034 1
650 1034 1
654 1034 1
668 1034 1
673 1034 1
1053 1034 1
1059 1034 1
634 1035 1
636 1035 1
651 1035 1
655 1035 1
669 1035 1
674 1035 1
1054 1035 1
1060 1035 1
635 1036 1
637 1036 1
652 1036 1
656 1036 1
670 1036 1
675 1036 1
1055 1036 1
1061 1036 1
636 1037 1
638 1037 1
653 1037 1
657 1037 1
671 1037 1
676 1037 1
1056 1037 1
1062 1037 1
637 1038 1
639 1038 1
654 1038 1
658 1038 1
672 1038 1
677 1038 1
1057 1038 1
1063 1038 1
638 1039 1
640 1039 1
655 1039 1
659 1039 1
673 1039 1
678 1039 1
1058 1039 1
1064 1039 1
639 1040 1
641 1040 1
656 1040 1
660 1040 1
674 1040 1
679 1040 1
1046 1040 1
1059 1040 1
640 1041 1
642 1041 1
657 1041 1
661 1041 1
675 1041 1
680 1041 1
1047 1041 1
1060 1041 1
641 1042 1
643 1042 1
658 1042 1
662 1042 1
676 1042 1
681 1042 1
1048 1042 1
1061 1042 1
642 1043 1
644 1043 1
659 1043 1
663 1043 1
677 1043 1
682 1043 1
1049 1043 1
1062 1043 1
643 1044 1
645 1044 1
660 1044 1
664 1044 1
678 1044 1
683 1044 1
1050 1044 1
1063 1044 1
644 1045 1
646 1045 1
661 1045 1
665 1045 1
679 1045 1
684 1045 1
1051 1045 1
1064 1045 1
685 1046 1
699 1046 1
704 1046 1
717 1046 1
761 1046 1
771 1046 1
875 1046 1
883 1046 1
686 1047 1
700 1047 1
705 1047 1
718 1047 1
762 1047 1
772 1047 1
876 1047 1
884 1047 1
687 1048 1
701 1048 1
706 1048 1
719 1048 1
763 1048 1
773 1048 1
877 1048 1
885 1048 1
688 1049 1
702 1049 1
707 1049 1
720 1049 1
764 1049 1
774 1049 1
878 1049 1
886 1049 1
689 1050 1
703 1050 1
708 1050 1
721 1050 1
765 1050 1
775 1050 1
879 1050 1
887 1050 1
685 1051 1
690 1051 1
709 1051 1
722 1051 1
766 1051 1
776 1051 1
880 1051 1
888 1051 1
686 1052 1
691 1052 1
704 1052 1
710 1052 1
767 1052 1
777 1052 1
881 1052 1
889 1052 1
687 1053 1
692 1053 1
705 1053 1
711 1053 1
768 1053 1
778 1053 1
882 1053 1
890 1053 1
688 1054 1
693 1054 1
706 1054 1
712 1054 1
769 1054 1
779 1054 1
883 1054 1
891 1054 1
689 1055 1
694 1055 1
707 1055 1
713 1055 1
761 1055 1
770 1055 1
884 1055 1
892 1055 1
690 1056 1
695 1056 1
708 1056 1
714 1056 1
762 1056 1
771 1056 1
885 1056 1
893 1056 1
691 1057 1
696 1057 1
709 1057 1
715 1057 1
763 1057 1
772 1057 1
875 1057 1
886 1057 1
692 1058 1
697 1058 1
710 1058 1
716 1058 1
764 1058 1
773 1058 1
876 1058 1
887 1058 1
693 1059 1
698 1059 1
711 1059 1
717 1059 1
765 1059 1
774 1059 1
877 1059 1
888 1059 1
694 1060 1
699 1060 1
712 1060 1
718 1060 1
766 1060 1
775 1060 1
878 1060 1
889 1060 1
695 1061 1
700 1061 1
713 1061 1
719 1061 1
767 1061 1
776 1061 1
879 1061 1
890 1061 1
696 1062 1
701 1062 1
714 1062 1
720 1062 1
768 1062 1
777 1062 1
880 1062 1
891 1062 1
697 1063 1
702 1063 1
715 1063 1
721 1063 1
769 1063 1
778 1063 1
881 1063 1
892 1063 1
698 1064 1
703 1064 1
716 1064 1
722 1064 1
770 1064 1
779 1064 1
882 1064 1
893 1064 1
685 1065 1
700 1065 1
723 1065 1
736 1065 1
780 1065 1
790 1065 1
894 1065 1
902 1065 1
686 1066 1
701 1066 1
724 1066 1
737 1066 1
781 1066 1
791 1066 1
895 1066 1
903 1066 1
687 1067 1
702 1067 1
725 1067 1
738 1067 1
782 1067 1
792 1067 1
896 1067 1
904 1067 1
688 1068 1
703 1068 1
726 1068 1
739 1068 1
783 1068 1
793 1068 1
897 1068 1
905 1068 1
685 1069 1
689 1069 1
727 1069 1
740 1069 1
784 1069 1
794 1069 1
898 1069 1
906 1069 1
686 1070 1
690 1070 1
728 1070 1
741 1070 1
785 1070 1
795 1070 1
899 1070 1
907 1070 1
687 1071 1
691 1071 1
723 1071 1
729 1071 1
786 1071 1
796 1071 1
900 1071 1
908 1071 1
688 1072 1
692 1072 1
724 1072 1
730 1072 1
787 1072 1
797 1072 1
901 1072 1
909 1072 1
689 1073 1
693 1073 1
725 1073 1
731 1073 1
788 1073 1
798 1073 1
902 1073 1
910 1073 1
690 1074 1
694 1074 1
726 1074 1
732 1074 1
780 1074 1
789 1074 1
903 1074 1
911 1074 1
691 1075 1
695 1075 1
727 1075 1
733 1075 1
781 1075 1
790 1075 1
904 1075 1
912 1075 1
692 1076 1
696 1076 1
728 1076 1
734 1076 1
782 1076 1
791 1076 1
894 1076 1
905 1076 1
693 1077 1
697 1077 1
729 1077 1
735 1077 1
783 1077 1
792 1077 1
895 1077 1
906 1077 1
694 1078 1
698 1078 1
730 1078 1
736 1078 1
784 1078 1
793 1078 1
896 1078 1
907 1078 1
695 1079 1
699 1079 1
731 1079 1
737 1079 1
785 1079 1
794 1079 1
897 1079 1
908 1079 1
696 1080 1
700 1080 1
732 1080 1
738 1080 1
786 1080 1
795 1080 1
898 1080 1
909 1080 1
697 1081 1
701 1081 1
733 1081 1
739 1081 1
787 1081 1
796 1081 1
899 1081 1
910 1081 1
698 1082 1
702 1082 1
734 1082 1
740 1082 1
788 1082 1
797 1082 1
900 1082 1
911 1082 1
699 1083 1
703 1083 1
735 1083 1
741 1083 1
789 1083 1
798 1083 1
901 1083 1
912 1083 1
685 1084 1
702 1084 1
742 1084 1
755 1084 1
799 1084 1
809 1084 1
913 1084 1
921 1084 1
686 1085 1
703 1085 1
743 1085 1
756 1085 1
800 1085 1
810 1085 1
914 1085 1
922 1085 1
685 1086 1
687 1086 1
744 1086 1
757 1086 1
801 1086 1
811 1086 1
915 1086 1
923 1086 1
686 1087 1
688 1087 1
745 1087 1
758 1087 1
802 1087 1
812 1087 1
916 1087 1
924 1087 1
687 1088 1
689 1088 1
746 1088 1
759 1088 1
803 1088 1
813 1088 1
917 1088 1
925 1088 1
688 1089 1
690 1089 1
747 1089 1
760 1089 1
804 1089 1
814 1089 1
918 1089 1
926 1089 1
689 1090 1
691 1090 1
742 1090 1
748 1090 1
805 1090 1
815 1090 1
919 1090 1
927 1090 1
690 1091 1
692 1091 1
743 1091 1
749 1091 1
806 1091 1
816 1091 1
920 1091 1
928 1091 1
691 1092 1
693 1092 1
744 1092 1
750 1092 1
807 1092 1
817 1092 1
921 1092 1
929 1092 1
692 1093 1
694 1093 1
745 1093 1
751 1093 1
799 1093 1
808 1093 1
922 1093 1
930 1093 1
693 1094 1
695 1094 1
746 1094 1
752 1094 1
800 1094 1
809 1094 1
923 1094 1
931 1094 1
694 1095 1
696 1095 1
747 1095 1
753 1095 1
801 1095 1
810 1095 1
913 1095 1
924 1095 1
695 1096 1
697 1096 1
748 1096 1
754 1096 1
802 1096 1
811 1096 1
914 1096 1
925 1096 1
696 1097 1
698 1097 1
749 1097 1
755 1097 1
803 1097 1
812 1097 1
915 1097 1
926 1097 1
697 1098 1
699 1098 1
750 1098 1
756 1098 1
804 1098 1
813 1098 1
916 1098 1
927 1098 1
698 1099 1
700 1099 1
751 1099 1
757 1099 1
805 1099 1
814 1099 1
917 1099 1
928 1099 1
699 1100 1
701 1100 1
752 1100 1
758 1100 1
806 1100 1
815 1100 1
918 1100 1
929 1100 1
700 1101 1
702 1101 1
753 1101 1
759 1101 1
807 1101 1
816 1101 1
919 1101 1
930 1101 1
701 1102 1
703 1102 1
754 1102 1
760 1102 1
808 1102 1
817 1102 1
920 1102 1
931 1102 1
704 1103 1
719 1103 1
723 1103 1
737 1103 1
818 1103 1
828 1103 1
932 1103 1
940 1103 1
705 1104 1
720 1104 1
724 1104 1
738 1104 1
819 1104 1
829 1104 1
933 1104 1
941 1104 1
706 1105 1
721 1105 1
725 1105 1
739 1105 1
820 1105 1
830 1105 1
934 1105 1
942 1105 1
707 1106 1
722 1106 1
726 1106 1
740 1106 1
821 1106 1
831 1106 1
935 1106 1
943 1106 1
704 1107 1
708 1107 1
727 1107 1
741 1107 1
822 1107 1
832 1107 1
936 1107 1
944 1107 1
705 1108 1
709 1108 1
723 1108 1
728 1108 1
823 1108 1
833 1108 1
937 1108 1
945 1108 1
706 1109 1
710 1109 1
724 1109 1
729 1109 1
824 1109 1
834 1109 1
938 1109 1
946 1109 1
707 1110 1
711 1110 1
725 1110 1
730 1110 1
825 1110 1
835 1110 1
939 1110 1
947 1110 1
708 1111 1
712 1111 1
726 1111 1
731 1111 1
826 1111 1
836 1111 1
940 1111 1
948 1111 1
709 1112 1
713 1112 1
727 1112 1
732 1112 1
818 1112 1
827 1112 1
941 1112 1
949 1112 1
710 1113 1
714 1113 1
728 1113 1
733 1113 1
819 1113 1
828 1113 1
942 1113 1
950 1113 1
711 1114 1
715 1114 1
729 1114 1
734 1114 1
820 1114 1
829 1114 1
932 1114 1
943 1114 1
712 1115 1
716 1115 1
730 1115 1
735 1115 1
821 1115 1
830 1115 1
933 1115 1
944 1115 1
713 1116 1
717 1116 1
731 1116 1
736 1116 1
822 1116 1
831 1116 1
934 1116 1
945 1116 1
714 1117 1
718 1117 1
732 1117 1
737 1117 1
823 1117 1
832 1117 1
935 1117 1
946 1117 1
715 1118 1
719 1118 1
733 1118 1
738 1118 1
824 1118 1
833 1118 1
936 1118 1
947 1118 1
716 1119 1
720 1119 1
734 1119 1
739 1119 1
825 1119 1
834 1119 1
937 1119 1
948 1119 1
717 1120 1
721 1120 1
735 1120 1
740 1120 1
826 1120 1
835 1120 1
938 1120 1
949 1120 1
718 1121 1
722 1121 1
736 1121 1
741 1121 1
827 1121 1
836 1121 1
939 1121 1
950 1121 1
704 1122 1
721 1122 1
742 1122 1
756 1122 1
837 1122 1
847 1122 1
951 1122 1
959 1122 1
705 1123 1
722 1123 1
743 1123 1
757 1123 1
838 1123 1
848 1123 1
952 1123 1
960 1123 1
704 1124 1
706 1124 1
744 1124 1
758 1124 1
839 1124 1
849 1124 1
953 1124 1
961 1124 1
705 1125 1
707 1125 1
745 1125 1
759 1125 1
840 1125 1
850 1125 1
954 1125 1
962 1125 1
706 1126 1
708 1126 1
746 1126 1
760 1126 1
841 1126 1
851 1126 1
955 1126 1
963 1126 1
707 1127 1
709 1127 1
742 1127 1
747 1127 1
842 1127 1
852 1127 1
956 1127 1
964 1127 1
708 1128 1
710 1128 1
743 1128 1
748 1128 1
843 1128 1
853 1128 1
957 1128 1
965 1128 1
709 1129 1
711 1129 1
744 1129 1
749 1129 1
844 1129 1
854 1129 1
958 1129 1
966 1129 1
710 1130 1
712 1130 1
745 1130 1
750 1130 1
845 1130 1
855 1130 1
959 1130 1
967 1130 1
711 1131 1
713 1131 1
746 1131 1
751 1131 1
837 1131 1
846 1131 1
960 1131 1
968 1131 1
712 1132 1
714 1132 1
747 1132 1
752 1132 1
838 1132 1
847 1132 1
961 1132 1
969 1132 1
713 1133 1
715 1133 1
748 1133 1
753 1133 1
839 1133 1
848 1133 1
951 1133 1
962 1133 1
714 1134 1
716 1134 1
749 1134 1
754 1134 1
840 1134 1
849 1134 1
952 1134 1
963 1134 1
715 1135 1
717 1135 1
750 1135 1
755 1135 1
841 1135 1
850 1135 1
953 1135 1
964 1135 1
716 1136 1
718 1136 1
751 1136 1
756 1136 1
842 1136 1
851 1136 1
954 1136 1
965 1136 1
717 1137 1
719 1137 1
752 1137 1
757 1137 1
843 1137 1
852 1137 1
955 1137 1
966 1137 1
718 1138 1
720 1138 1
753 1138 1
758 1138 1
844 1138 1
853 1138 1
956 1138 1
967 1138 1
719 1139 1
721 1139 1
754 1139 1
759 1139 1
845 1139 1
854 1139 1
957 1139 1
968 1139 1
720 1140 1
722 1140 1
755 1140 1
760 1140 1
846 1140 1
855 1140 1
958 1140 1
969 1140 1
723 1141 1
740 1141 1
742 1141 1
757 1141 1
856 1141 1
866 1141 1
970 1141 1
978 1141 1
724 1142 1
741 1142 1
743 1142 1
758 1142 1
857 1142 1
867 1142 1
971 1142 1
979 1142 1
723 1143 1
725 1143 1
744 1143 1
759 1143 1
858 1143 1
868 1143 1
972 1143 1
980 1143 1
724 1144 1
726 1144 1
745 1144 1
760 1144 1
859 1144 1
869 1144 1
973 1144 1
981 1144 1
725 1145 1
727 1145 1
742 1145 1
746 1145 1
860 1145 1
870 1145 1
974 1145 1
982 1145 1
726 1146 1
728 1146 1
743 1146 1
747 1146 1
861 1146 1
871 1146 1
975 1146 1
983 1146 1
727 1147 1
729 1147 1
744 1147 1
748 1147 1
862 1147 1
872 1147 1
976 1147 1
984 1147 1
728 1148 1
730 1148 1
745 1148 1
749 1148 1
863 1148 1
873 1148 1
977 1148 1
985 1148 1
729 1149 1
731 1149 1
746 1149 1
750 1149 1
864 1149 1
874 1149 1
978 1149 1
986 1149 1
730 1150 1
732 1150 1
747 1150 1
751 1150 1
856 1150 1
865 1150 1
979 1150 1
987 1150 1
731 1151 1
733 1151 1
748 1151 1
752 1151 1
857 1151 1
866 1151 1
980 1151 1
988 1151 1
732 1152 1
734 1152 1
749 1152 1
753 1152 1
858 1152 1
867 1152 1
970 1152 1
981 1152 1
733 1153 1
735 1153 1
750 1153 1
754 1153 1
859 1153 1
868 1153 1
971 1153 1
982 1153 1
734 1154 1
736 1154 1
751 1154 1
755 1154 1
860 1154 1
869 1154 1
972 1154 1
983 1154 1
735 1155 1
737 1155 1
752 1155 1
756 1155 1
861 1155 1
870 1155 1
973 1155 1
984 1155 1
736 1156 1
738 1156 1
753 1156 1
757 1156 1
862 1156 1
871 1156 1
974 1156 1
985 1156 1
737 1157 1
739 1157 1
754 1157 1
758 1157 1
863 1157 1
872 1157 1
975 1157 1
986 1157 1
738 1158 1
740 1158 1
755 1158 1
759 1158 1
864 1158 1
873 1158 1
976 1158 1
987 1158 1
739 1159 1
741 1159 1
756 1159 1
760 1159 1
865 1159 1
874 1159 1
977 1159 1
988 1159 1
761 1160 1
776 1160 1
780 1160 1
794 1160 1
818 1160 1
831 1160 1
989 1160 1
997 1160 1
762 1161 1
777 1161 1
781 1161 1
795 1161 1
819 1161 1
832 1161 1
990 1161 1
998 1161 1
763 1162 1
778 1162 1
782 1162 1
796 1162 1
820 1162 1
833 1162 1
991 1162 1
999 1162 1
764 1163 1
779 1163 1
783 1163 1
797 1163 1
821 1163 1
834 1163 1
992 1163 1
1000 1163 1
761 1164 1
765 1164 1
784 1164 1
798 1164 1
822 1164 1
835 1164 1
993 1164 1
1001 1164 1
762 1165 1
766 1165 1
780 1165 1
785 1165 1
823 1165 1
836 1165 1
994 1165 1
1002 1165 1
763 1166 1
767 1166 1
781 1166 1
786 1166 1
818 1166 1
824 1166 1
995 1166 1
1003 1166 1
764 1167 1
768 1167 1
782 1167 1
787 1167 1
819 1167 1
825 1167 1
996 1167 1
1004 1167 1
765 1168 1
769 1168 1
783 1168 1
788 1168 1
820 1168 1
826 1168 1
997 1168 1
1005 1168 1
766 1169 1
770 1169 1
784 1169 1
789 1169 1
821 1169 1
827 1169 1
998 1169 1
1006 1169 1
767 1170 1
771 1170 1
785 1170 1
790 1170 1
822 1170 1
828 1170 1
999 1170 1
1007 1170 1
768 1171 1
772 1171 1
786 1171 1
791 1171 1
823 1171 1
829 1171 1
989 1171 1
1000 1171 1
769 1172 1
773 1172 1
787 1172 1
792 1172 1
824 1172 1
830 1172 1
990 1172 1
1001 1172 1
770 1173 1
774 1173 1
788 1173 1
793 1173 1
825 1173 1
831 1173 1
991 1173 1
1002 1173 1
771 1174 1
775 1174 1
789 1174 1
794 1174 1
826 1174 1
832 1174 1
992 1174 1
1003 1174 1
772 1175 1
776 1175 1
790 1175 1
795 1175 1
827 1175 1
833 1175 1
993 1175 1
1004 1175 1
773 1176 1
777 1176 1
791 1176 1
796 1176 1
828 1176 1
834 1176 1
994 1176 1
1005 1176 1
774 1177 1
778 1177 1
792 1177 1
797 1177 1
829 1177 1
835 1177 1
995 1177 1
1006 1177 1
775 1178 1
779 1178 1
793 1178 1
798 1178 1
830 1178 1
836 1178 1
996 1178 1
1007 1178 1
761 1179 1
778 1179 1
799 1179 1
813 1179 1
837 1179 1
850 1179 1
1008 1179 1
1016 1179 1
762 1180 1
779 1180 1
800 1180 1
814 1180 1
838 1180 1
851 1180 1
1009 1180 1
1017 1180 1
761 1181 1
763 1181 1
801 1181 1
815 1181 1
839 1181 1
852 1181 1
1010 1181 1
1018 1181 1
762 1182 1
764 1182 1
802 1182 1
816 1182 1
840 1182 1
853 1182 1
1011 1182 1
1019 1182 1
763 1183 1
765 1183 1
803 1183 1
817 1183 1
841 1183 1
854 1183 1
1012 1183 1
1020 1183 1
764 1184 1
766 1184 1
799 1184 1
804 1184 1
842 1184 1
855 1184 1
1013 1184 1
1021 1184 1
765 1185 1
767 1185 1
800 1185 1
805 1185 1
837 1185 1
843 1185 1
1014 1185 1
1022 1185 1
766 1186 1
768 1186 1
801 1186 1
806 1186 1
838 1186 1
844 1186 1
1015 1186 1
1023 1186 1
767 1187 1
769 1187 1
802 1187 1
807 1187 1
839 1187 1
845 1187 1
1016 1187 1
1024 1187 1
768 1188 1
770 1188 1
803 1188 1
808 1188 1
840 1188 1
846 1188 1
1017 1188 1
1025 1188 1
769 1189 1
771 1189 1
804 1189 1
809 1189 1
841 1189 1
847 1189 1
1018 1189 1
1026 1189 1
770 1190 1
772 1190 1
805 1190 1
810 1190 1
842 1190 1
848 1190 1
1008 1190 1
1019 1190 1
771 1191 1
773 1191 1
806 1191 1
811 1191 1
843 1191 1
849 1191 1
1009 1191 1
1020 1191 1
772 1192 1
774 1192 1
807 1192 1
812 1192 1
844 1192 1
850 1192 1
1010 1192 1
1021 1192 1
773 1193 1
775 1193 1
808 1193 1
813 1193 1
845 1193 1
851 1193 1
1011 1193 1
1022 1193 1
774 1194 1
776 1194 1
809 1194 1
814 1194 1
846 1194 1
852 1194 1
1012 1194 1
1023 1194 1
775 1195 1
777 1195 1
810 1195 1
815 1195 1
847 1195 1
853 1195 1
1013 1195 1
1024 1195 1
776 1196 1
778 1196 1
811 1196 1
816 1196 1
848 1196 1
854 1196 1
1014 1196 1
1025 1196 1
777 1197 1
779 1197 1
812 1197 1
817 1197 1
849 1197 1
855 1197 1
1015 1197 1
1026 1197 1
780 1198 1
797 1198 1
799 1198 1
814 1198 1
856 1198 1
869 1198 1
1027 1198 1
1035 1198 1
781 1199 1
798 1199 1
800 1199 1
815 1199 1
857 1199 1
870 1199 1
1028 1199 1
1036 1199 1
780 1200 1
782 1200 1
801 1200 1
816 1200 1
858 1200 1
871 1200 1
1029 1200 1
1037 1200 1
781 1201 1
783 1201 1
802 1201 1
817 1201 1
859 1201 1
872 1201 1
1030 1201 1
1038 1201 1
782 1202 1
784 1202 1
799 1202 1
803 1202 1
860 1202 1
873 1202 1
1031 1202 1
1039 1202 1
783 1203 1
785 1203 1
800 1203 1
804 1203 1
861 1203 1
874 1203 1
1032 1203 1
1040 1203 1
784 1204 1
786 1204 1
801 1204 1
805 1204 1
856 1204 1
862 1204 1
1033 1204 1
1041 1204 1
785 1205 1
787 1205 1
802 1205 1
806 1205 1
857 1205 1
863 1205 1
1034 1205 1
1042 1205 1
786 1206 1
788 1206 1
803 1206 1
807 1206 1
858 1206 1
864 1206 1
1035 1206 1
1043 1206 1
787 1207 1
789 1207 1
804 1207 1
808 1207 1
859 1207 1
865 1207 1
1036 1207 1
1044 1207 1
788 1208 1
790 1208 1
805 1208 1
809 1208 1
860 1208 1
866 1208 1
1037 1208 1
1045 1208 1
789 1209 1
791 1209 1
806 1209 1
810 1209 1
861 1209 1
867 1209 1
1027 1209 1
1038 1209 1
790 1210 1
792 1210 1
807 1210 1
811 1210 1
862 1210 1
868 1210 1
1028 1210 1
1039 1210 1
791 1211 1
793 1211 1
808 1211 1
812 1211 1
863 1211 1
869 1211 1
1029 1211 1
1040 1211 1
792 1212 1
794 1212 1
809 1212 1
813 1212 1
864 1212 1
870 1212 1
1030 1212 1
1041 1212 1
793 1213 1
795 1213 1
810 1213 1
814 1213 1
865 1213 1
871 1213 1
1031 1213 1
1042 1213 1
794 1214 1
796 1214 1
811 1214 1
815 1214 1
866 1214 1
872 1214 1
1032 1214 1
1043 1214 1
795 1215 1
797 1215 1
812 1215 1
816 1215 1
867 1215 1
873 1215 1
1033 1215 1
1044 1215 1
796 1216 1
798 1216 1
813 1216 1
817 1216 1
868 1216 1
874 1216 1
1034 1216 1
1045 1216 1
818 1217 1
835 1217 1
837 1217 1
852 1217 1
856 1217 1
870 1217 1
1046 1217 1
1054 1217 1
819 1218 1
836 1218 1
838 1218 1
853 1218 1
857 1218 1
871 1218 1
1047 1218 1
1055 1218 1
818 1219 1
820 1219 1
839 1219 1
854 1219 1
858 1219 1
872 1219 1
1048 1219 1
1056 1219 1
819 1220 1
821 1220 1
840 1220 1
855 1220 1
859 1220 1
873 1220 1
1049 1220 1
1057 1220 1
820 1221 1
822 1221 1
837 1221 1
841 1221 1
860 1221 1
874 1221 1
1050 1221 1
1058 1221 1
821 1222 1
823 1222 1
838 1222 1
842 1222 1
856 1222 1
861 1222 1
1051 1222 1
1059 1222 1
822 1223 1
824 1223 1
839 1223 1
843 1223 1
857 1223 1
862 1223 1
1052 1223 1
1060 1223 1
823 1224 1
825 1224 1
840 1224 1
844 1224 1
858 1224 1
863 1224 1
1053 1224 1
1061 1224 1
824 1225 1
826 1225 1
841 1225 1
845 1225 1
859 1225 1
864 1225 1
1054 1225 1
1062 1225 1
825 1226 1
827 1226 1
842 1226 1
846 1226 1
860 1226 1
865 1226 1
1055 1226 1
1063 1226 1
826 1227 1
828 1227 1
843 1227 1
847 1227 1
861 1227 1
866 1227 1
1056 1227 1
1064 1227 1
827 1228 1
829 1228 1
844 1228 1
848 1228 1
862 1228 1
867 1228 1
1046 1228 1
1057 1228 1
828 1229 1
830 1229 1
845 1229 1
849 1229 1
863 1229 1
868 1229 1
1047 1229 1
1058 1229 1
829 1230 1
831 1230 1
846 1230 1
850 1230 1
864 1230 1
869 1230 1
1048 1230 1
1059 1230 1
830 1231 1
832 1231 1
847 1231 1
851 1231 1
865 1231 1
870 1231 1
1049 1231 1
1060 1231 1
831 1232 1
833 1232 1
848 1232 1
852 1232 1
866 1232 1
871 1232 1
1050 1232 1
1061 1232 1
832 1233 1
834 1233 1
849 1233 1
853 1233 1
867 1233 1
872 1233 1
1051 1233 1
1062 1233 1
833 1234 1
835 1234 1
850 1234 1
854 1234 1
868 1234 1
873 1234 1
1052 1234 1
1063 1234 1
834 1235 1
836 1235 1
851 1235 1
855 1235 1
869 1235 1
874 1235 1
1053 1235 1
1064 1235 1
875 1236 1
890 1236 1
894 1236 1
908 1236 1
932 1236 1
945 1236 1
989 1236 1
999 1236 1
876 1237 1
891 1237 1
895 1237 1
909 1237 1
933 1237 1
946 1237 1
990 1237 1
1000 1237 1
877 1238 1
892 1238 1
896 1238 1
910 1238 1
934 1238 1
947 1238 1
991 1238 1
1001 1238 1
878 1239 1
893 1239 1
897 1239 1
911 1239 1
935 1239 1
948 1239 1
992 1239 1
1002 1239 1
875 1240 1
879 1240 1
898 1240 1
912 1240 1
936 1240 1
949 1240 1
993 1240 1
1003 1240 1
876 1241 1
880 1241 1
894 1241 1
899 1241 1
937 1241 1
950 1241 1
994 1241 1
1004 1241 1
877 1242 1
881 1242 1
895 1242 1
900 1242 1
932 1242 1
938 1242 1
995 1242 1
1005 1242 1
878 1243 1
882 1243 1
896 1243 1
901 1243 1
933 1243 1
939 1243 1
996 1243 1
1006 1243 1
879 1244 1
883 1244 1
897 1244 1
902 1244 1
934 1244 1
940 1244 1
997 1244 1
1007 1244 1
880 1245 1
884 1245 1
898 1245 1
903 1245 1
935 1245 1
941 1245 1
989 1245 1
998 1245 1
881 1246 1
885 1246 1
899 1246 1
904 1246 1
936 1246 1
942 1246 1
990 1246 1
999 1246 1
882 1247 1
886 1247 1
900 1247 1
905 1247 1
937 1247 1
943 1247 1
991 1247 1
1000 1247 1
883 1248 1
887 1248 1
901 1248 1
906 1248 1
938 1248 1
944 1248 1
992 1248 1
1001 1248 1
884 1249 1
888 1249 1
902 1249 1
907 1249 1
939 1249 1
945 1249 1
993 1249 1
1002 1249 1
885 1250 1
889 1250 1
903 1250 1
908 1250 1
940 1250 1
946 1250 1
994 1250 1
1003 1250 1
886 1251 1
890 1251 1
904 1251 1
909 1251 1
941 1251 1
947 1251 1
995 1251 1
1004 1251 1
887 1252 1
891 1252 1
905 1252 1
910 1252 1
942 1252 1
948 1252 1
996 1252 1
1005 1252 1
888 1253 1
892 1253 1
906 1253 1
911 1253 1
943 1253 1
949 1253 1
997 1253 1
1006 1253 1
889 1254 1
893 1254 1
907 1254 1
912 1254 1
944 1254 1
950 1254 1
998 1254 1
1007 1254 1
875 1255 1
892 1255 1
913 1255 1
927 1255 1
951 1255 1
964 1255 1
1008 1255 1
1018 1255 1
876 1256 1
893 1256 1
914 1256 1
928 1256 1
952 1256 1
965 1256 1
1009 1256 1
1019 1256 1
875 1257 1
877 1257 1
915 1257 1
929 1257 1
953 1257 1
966 1257 1
1010 1257 1
1020 1257 1
876 1258 1
878 1258 1
916 1258 1
930 1258 1
954 1258 1
967 1258 1
1011 1258 1
1021 1258 1
877 1259 1
879 1259 1
917 1259 1
931 1259 1
955 1259 1
968 1259 1
1012 1259 1
1022 1259 1
878 1260 1
880 1260 1
913 1260 1
918 1260 1
956 1260 1
969 1260 1
1013 1260 1
1023 1260 1
879 1261 1
881 1261 1
914 1261 1
919 1261 1
951 1261 1
957 1261 1
1014 1261 1
1024 1261 1
880 1262 1
882 1262 1
915 1262 1
920 1262 1
952 1262 1
958 1262 1
1015 1262 1
1025 1262 1
881 1263 1
883 1263 1
916 1263 1
921 1263 1
953 1263 1
959 1263 1
1016 1263 1
1026 1263 1
882 1264 1
884 1264 1
917 1264 1
922 1264 1
954 1264 1
960 1264 1
1008 1264 1
1017 1264 1
883 1265 1
885 1265 1
918 1265 1
923 1265 1
955 1265 1
961 1265 1
1009 1265 1
1018 1265 1
884 1266 1
886 1266 1
919 1266 1
924 1266 1
956 1266 1
962 1266 1
1010 1266 1
1019 1266 1
885 1267 1
887 1267 1
920 1267 1
925 1267 1
957 1267 1
963 1267 1
1011 1267 1
1020 1267 1
886 1268 1
888 1268 1
921 1268 1
926 1268 1
958 1268 1
964 1268 1
1012 1268 1
1021 1268 1
887 1269 1
889 1269 1
922 1269 1
927 1269 1
959 1269 1
965 1269 1
1013 1269 1
1022 1269 1
888 1270 1
890 1270 1
923 1270 1
928 1270 1
960 1270 1
966 1270 1
1014 1270 1
1023 1270 1
889 1271 1
891 1271 1
924 1271 1
929 1271 1
961 1271 1
967 1271 1
1015 1271 1
1024 1271 1
890 1272 1
892 1272 1
925 1272 1
930 1272 1
962 1272 1
968 1272 1
1016 1272 1
1025 1272 1
891 1273 1
893 1273 1
926 1273 1
931 1273 1
963 1273 1
969 1273 1
1017 1273 1
1026 1273 1
894 1274 1
911 1274 1
913 1274 1
928 1274 1
970 1274 1
983 1274 1
1027 1274 1
1037 1274 1
895 1275 1
912 1275 1
914 1275 1
929 1275 1
971 1275 1
984 1275 1
1028 1275 1
1038 1275 1
894 1276 1
896 1276 1
915 1276 1
930 1276 1
972 1276 1
985 1276 1
1029 1276 1
1039 1276 1
895 1277 1
897 1277 1
916 1277 1
931 1277 1
973 1277 1
986 1277 1
1030 1277 1
1040 1277 1
896 1278 1
898 1278 1
913 1278 1
917 1278 1
974 1278 1
987 1278 1
1031 1278 1
1041 1278 1
897 1279 1
899 1279 1
914 1279 1
918 1279 1
975 1279 1
988 1279 1
1032 1279 1
1042 1279 1
898 1280 1
900 1280 1
915 1280 1
919 1280 1
970 1280 1
976 1280 1
1033 1280 1
1043 1280 1
899 1281 1
901 1281 1
916 1281 1
920 1281 1
971 1281 1
977 1281 1
1034 1281 1
1044 1281 1
900 1282 1
902 1282 1
917 1282 1
921 1282 1
972 1282 1
978 1282 1
1035 1282 1
1045 1282 1
901 1283 1
903 1283 1
918 1283 1
922 1283 1
973 1283 1
979 1283 1
1027 1283 1
1036 1283 1
902 1284 1
904 1284 1
919 1284 1
923 1284 1
974 1284 1
980 1284 1
1028 1284 1
1037 1284 1
903 1285 1
905 1285 1
920 1285 1
924 1285 1
975 1285 1
981 1285 1
1029 1285 1
1038 1285 1
904 1286 1
906 1286 1
921 1286 1
925 1286 1
976 1286 1
982 1286 1
1030 1286 1
1039 1286 1
905 1287 1
907 1287 1
922 1287 1
926 1287 1
977 1287 1
983 1287 1
1031 1287 1
1040 1287 1
906 1288 1
908 1288 1
923 1288 1
927 1288 1
978 1288 1
984 1288 1
1032 1288 1
1041 1288 1
907 1289 1
909 1289 1
924 1289 1
928 1289 1
979 1289 1
985 1289 1
1033 1289 1
1042 1289 1
908 1290 1
910 1290 1
925 1290 1
929 1290 1
980 1290 1
986 1290 1
1034 1290 1
1043 1290 1
909 1291 1
911 1291 1
926 1291 1
930 1291 1
981 1291 1
987 1291 1
1035 1291 1
1044 1291 1
910 1292 1
912 1292 1
927 1292 1
931 1292 1
982 1292 1
988 1292 1
1036 1292 1
1045 1292 1
932 1293 1
949 1293 1
951 1293 1
966 1293 1
970 1293 1
984 1293 1
1046 1293 1
1056 1293 1
933 1294 1
950 1294 1
952 1294 1
967 1294 1
971 1294 1
985 1294 1
1047 1294 1
1057 1294 1
932 1295 1
934 1295 1
953 1295 1
968 1295 1
972 1295 1
986 1295 1
1048 1295 1
1058 1295 1
933 1296 1
935 1296 1
954 1296 1
969 1296 1
973 1296 1
987 1296 1
1049 1296 1
1059 1296 1
934 1297 1
936 1297 1
951 1297 1
955 1297 1
974 1297 1
988 1297 1
1050 1297 1
1060 1297 1
935 1298 1
937 1298 1
952 1298 1
956 1298 1
970 1298 1
975 1298 1
1051 1298 1
1061 1298 1
936 1299 1
938 1299 1
953 1299 1
957 1299 1
971 1299 1
976 1299 1
1052 1299 1
1062 1299 1
937 1300 1
939 1300 1
954 1300 1
958 1300 1
972 1300 1
977 1300 1
1053 1300 1
1063 1300 1
938 1301 1
940 1301 1
955 1301 1
959 1301 1
973 1301 1
978 1301 1
1054 1301 1
1064 1301 1
939 1302 1
941 1302 1
956 1302 1
960 1302 1
974 1302 1
979 1302 1
1046 1302 1
1055 1302 1
940 1303 1
942 1303 1
957 1303 1
961 1303 1
975 1303 1
980 1303 1
1047 1303 1
1056 1303 1
941 1304 1
943 1304 1
958 1304 1
962 1304 1
976 1304 1
981 1304 1
1048 1304 1
1057 1304 1
942 1305 1
944 1305 1
959 1305 1
963 1305 1
977 1305 1
982 1305 1
1049 1305 1
1058 1305 1
943 1306 1
945 1306 1
960 1306 1
964 1306 1
978 1306 1
983 1306 1
1050 1306 1
1059 1306 1
944 1307 1
946 1307 1
961 1307 1
965 1307 1
979 1307 1
984 1307 1
1051 1307 1
1060 1307 1
945 1308 1
947 1308 1
962 1308 1
966 1308 1
980 1308 1
985 1308 1
1052 1308 1
1061 1308 1
946 1309 1
948 1309 1
963 1309 1
967 1309 1
981 1309 1
986 1309 1
1053 1309 1
1062 1309 1
947 1310 1
949 1310 1
964 1310 1
968 1310 1
982 1310 1
987 1310 1
1054 1310 1
1063 1310 1
948 1311 1
950 1311 1
965 1311 1
969 1311 1
983 1311 1
988 1311 1
1055 1311 1
1064 1311 1
989 1312 1
1006 1312 1
1008 1312 1
1023 1312 1
1027 1312 1
1041 1312 1
1046 1312 1
1059 1312 1
990 1313 1
1007 1313 1
1009 1313 1
1024 1313 1
1028 1313 1
1042 1313 1
1047 1313 1
1060 1313 1
989 1314 1
991 1314 1
1010 1314 1
1025 1314 1
1029 1314 1
1043 1314 1
1048 1314 1
1061 1314 1
990 1315 1
992 1315 1
1011 1315 1
1026 1315 1
1030 1315 1
1044 1315 1
1049 1315 1
1062 1315 1
991 1316 1
993 1316 1
1008 1316 1
1012 1316 1
1031 1316 1
1045 1316 1
1050 1316 1
1063 1316 1
992 1317 1
994 1317 1
1009 1317 1
1013 1317 1
1027 1317 1
1032 1317 1
1051 1317 1
1064 1317 1
993 1318 1
995 1318 1
1010 1318 1
1014 1318 1
1028 1318 1
1033 1318 1
1046 1318 1
1052 1318 1
994 1319 1
996 1319 1
1011 1319 1
1015 1319 1
1029 1319 1
1034 1319 1
1047 1319 1
1053 1319 1
995 1320 1
997 1320 1
1012 1320 1
1016 1320 1
1030 1320 1
1035 1320 1
1048 1320 1
1054 1320 1
996 1321 1
998 1321 1
1013 1321 1
1017 1321 1
1031 1321 1
1036 1321 1
1049 1321 1
1055 1321 1
997 1322 1
999 1322 1
1014 1322 1
1018 1322 1
1032 1322 1
1037 1322 1
1050 1322 1
1056 1322 1
998 1323 1
1000 1323 1
1015 1323 1
1019 1323 1
1033 1323 1
1038 1323 1
1051 1323 1
1057 1323 1
999 1324 1
1001 1324 1
1016 1324 1
1020 1324 1
1034 1324 1
1039 1324 1
1052 1324 1
1058 1324 1
1000 1325 1
1002 1325 1
1017 1325 1
1021 1325 1
1035 1325 1
1040 1325 1
1053 1325 1
1059 1325 1
1001 1326 1
1003 1326 1
1018 1326 1
1022 1326 1
1036 1326 1
1041 1326 1
1054 1326 1
1060 1326 1
1002 1327 1
1004 1327 1
1019 1327 1
1023 1327 1
1037 1327 1
1042 1327 1
1055 1327 1
1061 1327 1
1003 1328 1
1005 1328 1
1020 1328 1
1024 1328 1
1038 1328 1
1043 1328 1
1056 1328 1
1062 1328 1
1004 1329 1
1006 1329 1
1021 1329 1
1025 1329 1
1039 1329 1
1044 1329 1
1057 1329 1
1063 1329 1
1005 1330 1
1007 1330 1
1022 1330 1
1026 1330 1
1040 1330 1
1045 1330 1
1058 1330 1
1064 1330 1
