%%MatrixMarket matrix coordinate integer general
% Binary matrix; one-based indices; arithmetic over GF(2)
490 490 3920
1 1 1
9 1 1
15 1 1
22 1 1
71 1 1
74 1 1
211 1 1
212 1 1
2 2 1
10 2 1
16 2 1
23 2 1
72 2 1
75 2 1
212 2 1
213 2 1
3 3 1
11 3 1
17 3 1
24 3 1
73 3 1
76 3 1
213 3 1
214 3 1
4 4 1
12 4 1
18 4 1
25 4 1
74 4 1
77 4 1
214 4 1
215 4 1
5 5 1
13 5 1
19 5 1
26 5 1
75 5 1
78 5 1
215 5 1
216 5 1
6 6 1
14 6 1
20 6 1
27 6 1
76 6 1
79 6 1
216 6 1
217 6 1
1 7 1
7 7 1
21 7 1
28 7 1
77 7 1
80 7 1
217 7 1
218 7 1
2 8 1
8 8 1
15 8 1
22 8 1
78 8 1
81 8 1
218 8 1
219 8 1
3 9 1
9 9 1
16 9 1
23 9 1
79 9 1
82 9 1
219 9 1
220 9 1
4 10 1
10 10 1
17 10 1
24 10 1
80 10 1
83 10 1
220 10 1
221 10 1
5 11 1
11 11 1
18 11 1
25 11 1
81 11 1
84 11 1
221 11 1
222 11 1
6 12 1
12 12 1
19 12 1
26 12 1
71 12 1
82 12 1
222 12 1
223 12 1
7 13 1
13 13 1
20 13 1
27 13 1
72 13 1
83 13 1
223 13 1
224 13 1
8 14 1
14 14 1
21 14 1
28 14 1
73 14 1
84 14 1
211 14 1
224 14 1
1 15 1
10 15 1
29 15 1
36 15 1
85 15 1
88 15 1
225 15 1
226 15 1
2 16 1
11 16 1
30 16 1
37 16 1
86 16 1
89 16 1
226 16 1
227 16 1
3 17 1
12 17 1
31 17 1
38 17 1
87 17 1
90 17 1
227 17 1
228 17 1
4 18 1
13 18 1
32 18 1
39 18 1
88 18 1
91 18 1
228 18 1
229 18 1
5 19 1
14 19 1
33 19 1
40 19 1
89 19 1
92 19 1
229 19 1
230 19 1
1 20 1
6 20 1
34 20 1
41 20 1
90 20 1
93 20 1
230 20 1
231 20 1
2 21 1
7 21 1
35 21 1
42 21 1
91 21 1
94 21 1
231 21 1
232 21 1
3 22 1
8 22 1
29 22 1
36 22 1
92 22 1
95 22 1
232 22 1
233 22 1
4 23 1
9 23 1
30 23 1
37 23 1
93 23 1
96 23 1
233 23 1
234 23 1
5 24 1
10 24 1
31 24 1
38 24 1
94 24 1
97 24 1
234 24 1
235 24 1
6 25 1
11 25 1
32 25 1
39 25 1
95 25 1
98 25 1
235 25 1
236 25 1
7 26 1
12 26 1
33 26 1
40 26 1
85 26 1
96 26 1
236 26 1
237 26 1
8 27 1
13 27 1
34 27 1
41 27 1
86 27 1
97 27 1
237 27 1
238 27 1
9 28 1
14 28 1
35 28 1
42 28 1
87 28 1
98 28 1
225 28 1
238 28 1
1 29 1
12 29 1
43 29 1
50 29 1
99 29 1
102 29 1
239 29 1
240 29 1
2 30 1
13 30 1
44 30 1
51 30 1
100 30 1
103 30 1
240 30 1
241 30 1
3 31 1
14 31 1
45 31 1
52 31 1
101 31 1
104 31 1
241 31 1
242 31 1
1 32 1
4 32 1
46 32 1
53 32 1
102 32 1
105 32 1
242 32 1
243 32 1
2 33 1
5 33 1
47 33 1
54 33 1
103 33 1
106 33 1
243 33 1
244 33 1
3 34 1
6 34 1
48 34 1
55 34 1
104 34 1
107 34 1
244 34 1
245 34 1
4 35 1
7 35 1
49 35 1
56 35 1
105 35 1
108 35 1
245 35 1
246 35 1
5 36 1
8 36 1
43 36 1
50 36 1
106 36 1
109 36 1
246 36 1
247 36 1
6 37 1
9 37 1
44 37 1
51 37 1
107 37 1
110 37 1
247 37 1
248 37 1
7 38 1
10 38 1
45 38 1
52 38 1
108 38 1
111 38 1
248 38 1
249 38 1
8 39 1
11 39 1
46 39 1
53 39 1
109 39 1
112 39 1
249 39 1
250 39 1
9 40 1
12 40 1
47 40 1
54 40 1
99 40 1
110 40 1
250 40 1
251 40 1
10 41 1
13 41 1
48 41 1
55 41 1
100 41 1
111 41 1
251 41 1
252 41 1
11 42 1
14 42 1
49 42 1
56 42 1
101 42 1
112 42 1
239 42 1
252 42 1
1 43 1
13 43 1
57 43 1
64 43 1
113 43 1
116 43 1
253 43 1
254 43 1
2 44 1
14 44 1
58 44 1
65 44 1
114 44 1
117 44 1
254 44 1
255 44 1
1 45 1
3 45 1
59 45 1
66 45 1
115 45 1
118 45 1
255 45 1
256 45 1
2 46 1
4 46 1
60 46 1
67 46 1
116 46 1
119 46 1
256 46 1
257 46 1
3 47 1
5 47 1
61 47 1
68 47 1
117 47 1
120 47 1
257 47 1
258 47 1
4 48 1
6 48 1
62 48 1
69 48 1
118 48 1
121 48 1
258 48 1
259 48 1
5 49 1
7 49 1
63 49 1
70 49 1
119 49 1
122 49 1
259 49 1
260 49 1
6 50 1
8 50 1
57 50 1
64 50 1
120 50 1
123 50 1
260 50 1
261 50 1
7 51 1
9 51 1
58 51 1
65 51 1
121 51 1
124 51 1
261 51 1
262 51 1
8 52 1
10 52 1
59 52 1
66 52 1
122 52 1
125 52 1
262 52 1
263 52 1
9 53 1
11 53 1
60 53 1
67 53 1
123 53 1
126 53 1
263 53 1
264 53 1
10 54 1
12 54 1
61 54 1
68 54 1
113 54 1
124 54 1
264 54 1
265 54 1
11 55 1
13 55 1
62 55 1
69 55 1
114 55 1
125 55 1
265 55 1
266 55 1
12 56 1
14 56 1
63 56 1
70 56 1
115 56 1
126 56 1
253 56 1
266 56 1
15 57 1
24 57 1
29 57 1
37 57 1
127 57 1
130 57 1
267 57 1
268 57 1
16 58 1
25 58 1
30 58 1
38 58 1
128 58 1
131 58 1
268 58 1
269 58 1
17 59 1
26 59 1
31 59 1
39 59 1
129 59 1
132 59 1
269 59 1
270 59 1
18 60 1
27 60 1
32 60 1
40 60 1
130 60 1
133 60 1
270 60 1
271 60 1
19 61 1
28 61 1
33 61 1
41 61 1
131 61 1
134 61 1
271 61 1
272 61 1
15 62 1
20 62 1
34 62 1
42 62 1
132 62 1
135 62 1
272 62 1
273 62 1
16 63 1
21 63 1
29 63 1
35 63 1
133 63 1
136 63 1
273 63 1
274 63 1
17 64 1
22 64 1
30 64 1
36 64 1
134 64 1
137 64 1
274 64 1
275 64 1
18 65 1
23 65 1
31 65 1
37 65 1
135 65 1
138 65 1
275 65 1
276 65 1
19 66 1
24 66 1
32 66 1
38 66 1
136 66 1
139 66 1
276 66 1
277 66 1
20 67 1
25 67 1
33 67 1
39 67 1
137 67 1
140 67 1
277 67 1
278 67 1
21 68 1
26 68 1
34 68 1
40 68 1
127 68 1
138 68 1
278 68 1
279 68 1
22 69 1
27 69 1
35 69 1
41 69 1
128 69 1
139 69 1
279 69 1
280 69 1
23 70 1
28 70 1
36 70 1
42 70 1
129 70 1
140 70 1
267 70 1
280 70 1
15 71 1
26 71 1
43 71 1
51 71 1
141 71 1
144 71 1
281 71 1
282 71 1
16 72 1
27 72 1
44 72 1
52 72 1
142 72 1
145 72 1
282 72 1
283 72 1
17 73 1
28 73 1
45 73 1
53 73 1
143 73 1
146 73 1
283 73 1
284 73 1
15 74 1
18 74 1
46 74 1
54 74 1
144 74 1
147 74 1
284 74 1
285 74 1
16 75 1
19 75 1
47 75 1
55 75 1
145 75 1
148 75 1
285 75 1
286 75 1
17 76 1
20 76 1
48 76 1
56 76 1
146 76 1
149 76 1
286 76 1
287 76 1
18 77 1
21 77 1
43 77 1
49 77 1
147 77 1
150 77 1
287 77 1
288 77 1
19 78 1
22 78 1
44 78 1
50 78 1
148 78 1
151 78 1
288 78 1
289 78 1
20 79 1
23 79 1
45 79 1
51 79 1
149 79 1
152 79 1
289 79 1
290 79 1
21 80 1
24 80 1
46 80 1
52 80 1
150 80 1
153 80 1
290 80 1
291 80 1
22 81 1
25 81 1
47 81 1
53 81 1
151 81 1
154 81 1
291 81 1
292 81 1
23 82 1
26 82 1
48 82 1
54 82 1
141 82 1
152 82 1
292 82 1
293 82 1
24 83 1
27 83 1
49 83 1
55 83 1
142 83 1
153 83 1
293 83 1
294 83 1
25 84 1
28 84 1
50 84 1
56 84 1
143 84 1
154 84 1
281 84 1
294 84 1
15 85 1
27 85 1
57 85 1
65 85 1
155 85 1
158 85 1
295 85 1
296 85 1
16 86 1
28 86 1
58 86 1
66 86 1
156 86 1
159 86 1
296 86 1
297 86 1
15 87 1
17 87 1
59 87 1
67 87 1
157 87 1
160 87 1
297 87 1
298 87 1
16 88 1
18 88 1
60 88 1
68 88 1
158 88 1
161 88 1
298 88 1
299 88 1
17 89 1
19 89 1
61 89 1
69 89 1
159 89 1
162 89 1
299 89 1
300 89 1
18 90 1
20 90 1
62 90 1
70 90 1
160 90 1
163 90 1
300 90 1
301 90 1
19 91 1
21 91 1
57 91 1
63 91 1
161 91 1
164 91 1
301 91 1
302 91 1
20 92 1
22 92 1
58 92 1
64 92 1
162 92 1
165 92 1
302 92 1
303 92 1
21 93 1
23 93 1
59 93 1
65 93 1
163 93 1
166 93 1
303 93 1
304 93 1
22 94 1
24 94 1
60 94 1
66 94 1
164 94 1
167 94 1
304 94 1
305 94 1
23 95 1
25 95 1
61 95 1
67 95 1
165 95 1
168 95 1
305 95 1
306 95 1
24 96 1
26 96 1
62 96 1
68 96 1
155 96 1
166 96 1
306 96 1
307 96 1
25 97 1
27 97 1
63 97 1
69 97 1
156 97 1
167 97 1
307 97 1
308 97 1
26 98 1
28 98 1
64 98 1
70 98 1
157 98 1
168 98 1
295 98 1
308 98 1
29 99 1
40 99 1
43 99 1
52 99 1
169 99 1
172 99 1
309 99 1
310 99 1
30 100 1
41 100 1
44 100 1
53 100 1
170 100 1
173 100 1
310 100 1
311 100 1
31 101 1
42 101 1
45 101 1
54 101 1
171 101 1
174 101 1
311 101 1
312 101 1
29 102 1
32 102 1
46 102 1
55 102 1
172 102 1
175 102 1
312 102 1
313 102 1
30 103 1
33 103 1
47 103 1
56 103 1
173 103 1
176 103 1
313 103 1
314 103 1
31 104 1
34 104 1
43 104 1
48 104 1
174 104 1
177 104 1
314 104 1
315 104 1
32 105 1
35 105 1
44 105 1
49 105 1
175 105 1
178 105 1
315 105 1
316 105 1
33 106 1
36 106 1
45 106 1
50 106 1
176 106 1
179 106 1
316 106 1
317 106 1
34 107 1
37 107 1
46 107 1
51 107 1
177 107 1
180 107 1
317 107 1
318 107 1
35 108 1
38 108 1
47 108 1
52 108 1
178 108 1
181 108 1
318 108 1
319 108 1
36 109 1
39 109 1
48 109 1
53 109 1
179 109 1
182 109 1
319 109 1
320 109 1
37 110 1
40 110 1
49 110 1
54 110 1
169 110 1
180 110 1
320 110 1
321 110 1
38 111 1
41 111 1
50 111 1
55 111 1
170 111 1
181 111 1
321 111 1
322 111 1
39 112 1
42 112 1
51 112 1
56 112 1
171 112 1
182 112 1
309 112 1
322 112 1
29 113 1
41 113 1
57 113 1
66 113 1
183 113 1
186 113 1
323 113 1
324 113 1
30 114 1
42 114 1
58 114 1
67 114 1
184 114 1
187 114 1
324 114 1
325 114 1
29 115 1
31 115 1
59 115 1
68 115 1
185 115 1
188 115 1
325 115 1
326 115 1
30 116 1
32 116 1
60 116 1
69 116 1
186 116 1
189 116 1
326 116 1
327 116 1
31 117 1
33 117 1
61 117 1
70 117 1
187 117 1
190 117 1
327 117 1
328 117 1
32 118 1
34 118 1
57 118 1
62 118 1
188 118 1
191 118 1
328 118 1
329 118 1
33 119 1
35 119 1
58 119 1
63 119 1
189 119 1
192 119 1
329 119 1
330 119 1
34 120 1
36 120 1
59 120 1
64 120 1
190 120 1
193 120 1
330 120 1
331 120 1
35 121 1
37 121 1
60 121 1
65 121 1
191 121 1
194 121 1
331 121 1
332 121 1
36 122 1
38 122 1
61 122 1
66 122 1
192 122 1
195 122 1
332 122 1
333 122 1
37 123 1
39 123 1
62 123 1
67 123 1
193 123 1
196 123 1
333 123 1
334 123 1
38 124 1
40 124 1
63 124 1
68 124 1
183 124 1
194 124 1
334 124 1
335 124 1
39 125 1
41 125 1
64 125 1
69 125 1
184 125 1
195 125 1
335 125 1
336 125 1
40 126 1
42 126 1
65 126 1
70 126 1
185 126 1
196 126 1
323 126 1
336 126 1
43 127 1
55 127 1
57 127 1
68 127 1
197 127 1
200 127 1
337 127 1
338 127 1
44 128 1
56 128 1
58 128 1
69 128 1
198 128 1
201 128 1
338 128 1
339 128 1
43 129 1
45 129 1
59 129 1
70 129 1
199 129 1
202 129 1
339 129 1
340 129 1
44 130 1
46 130 1
57 130 1
60 130 1
200 130 1
203 130 1
340 130 1
341 130 1
45 131 1
47 131 1
58 131 1
61 131 1
201 131 1
204 131 1
341 131 1
342 131 1
46 132 1
48 132 1
59 132 1
62 132 1
202 132 1
205 132 1
342 132 1
343 132 1
47 133 1
49 133 1
60 133 1
63 133 1
203 133 1
206 133 1
343 133 1
344 133 1
48 134 1
50 134 1
61 134 1
64 134 1
204 134 1
207 134 1
344 134 1
345 134 1
49 135 1
51 135 1
62 135 1
65 135 1
205 135 1
208 135 1
345 135 1
346 135 1
50 136 1
52 136 1
63 136 1
66 136 1
206 136 1
209 136 1
346 136 1
347 136 1
51 137 1
53 137 1
64 137 1
67 137 1
207 137 1
210 137 1
347 137 1
348 137 1
52 138 1
54 138 1
65 138 1
68 138 1
197 138 1
208 138 1
348 138 1
349 138 1
53 139 1
55 139 1
66 139 1
69 139 1
198 139 1
209 139 1
349 139 1
350 139 1
54 140 1
56 140 1
67 140 1
70 140 1
199 140 1
210 140 1
337 140 1
350 140 1
71 141 1
80 141 1
85 141 1
93 141 1
127 141 1
134 141 1
351 141 1
352 141 1
72 142 1
81 142 1
86 142 1
94 142 1
128 142 1
135 142 1
352 142 1
353 142 1
73 143 1
82 143 1
87 143 1
95 143 1
129 143 1
136 143 1
353 143 1
354 143 1
74 144 1
83 144 1
88 144 1
96 144 1
130 144 1
137 144 1
354 144 1
355 144 1
75 145 1
84 145 1
89 145 1
97 145 1
131 145 1
138 145 1
355 145 1
356 145 1
71 146 1
76 146 1
90 146 1
98 146 1
132 146 1
139 146 1
356 146 1
357 146 1
72 147 1
77 147 1
85 147 1
91 147 1
133 147 1
140 147 1
357 147 1
358 147 1
73 148 1
78 148 1
86 148 1
92 148 1
127 148 1
134 148 1
358 148 1
359 148 1
74 149 1
79 149 1
87 149 1
93 149 1
128 149 1
135 149 1
359 149 1
360 149 1
75 150 1
80 150 1
88 150 1
94 150 1
129 150 1
136 150 1
360 150 1
361 150 1
76 151 1
81 151 1
89 151 1
95 151 1
130 151 1
137 151 1
361 151 1
362 151 1
77 152 1
82 152 1
90 152 1
96 152 1
131 152 1
138 152 1
362 152 1
363 152 1
78 153 1
83 153 1
91 153 1
97 153 1
132 153 1
139 153 1
363 153 1
364 153 1
79 154 1
84 154 1
92 154 1
98 154 1
133 154 1
140 154 1
351 154 1
364 154 1
71 155 1
82 155 1
99 155 1
107 155 1
141 155 1
148 155 1
365 155 1
366 155 1
72 156 1
83 156 1
100 156 1
108 156 1
142 156 1
149 156 1
366 156 1
367 156 1
73 157 1
84 157 1
101 157 1
109 157 1
143 157 1
150 157 1
367 157 1
368 157 1
71 158 1
74 158 1
102 158 1
110 158 1
144 158 1
151 158 1
368 158 1
369 158 1
72 159 1
75 159 1
103 159 1
111 159 1
145 159 1
152 159 1
369 159 1
370 159 1
73 160 1
76 160 1
104 160 1
112 160 1
146 160 1
153 160 1
370 160 1
371 160 1
74 161 1
77 161 1
99 161 1
105 161 1
147 161 1
154 161 1
371 161 1
372 161 1
75 162 1
78 162 1
100 162 1
106 162 1
141 162 1
148 162 1
372 162 1
373 162 1
76 163 1
79 163 1
101 163 1
107 163 1
142 163 1
149 163 1
373 163 1
374 163 1
77 164 1
80 164 1
102 164 1
108 164 1
143 164 1
150 164 1
374 164 1
375 164 1
78 165 1
81 165 1
103 165 1
109 165 1
144 165 1
151 165 1
375 165 1
376 165 1
79 166 1
82 166 1
104 166 1
110 166 1
145 166 1
152 166 1
376 166 1
377 166 1
80 167 1
83 167 1
105 167 1
111 167 1
146 167 1
153 167 1
377 167 1
378 167 1
81 168 1
84 168 1
106 168 1
112 168 1
147 168 1
154 168 1
365 168 1
378 168 1
71 169 1
83 169 1
113 169 1
121 169 1
155 169 1
162 169 1
379 169 1
380 169 1
72 170 1
84 170 1
114 170 1
122 170 1
156 170 1
163 170 1
380 170 1
381 170 1
71 171 1
73 171 1
115 171 1
123 171 1
157 171 1
164 171 1
381 171 1
382 171 1
72 172 1
74 172 1
116 172 1
124 172 1
158 172 1
165 172 1
382 172 1
383 172 1
73 173 1
75 173 1
117 173 1
125 173 1
159 173 1
166 173 1
383 173 1
384 173 1
74 174 1
76 174 1
118 174 1
126 174 1
160 174 1
167 174 1
384 174 1
385 174 1
75 175 1
77 175 1
113 175 1
119 175 1
161 175 1
168 175 1
385 175 1
386 175 1
76 176 1
78 176 1
114 176 1
120 176 1
155 176 1
162 176 1
386 176 1
387 176 1
77 177 1
79 177 1
115 177 1
121 177 1
156 177 1
163 177 1
387 177 1
388 177 1
78 178 1
80 178 1
116 178 1
122 178 1
157 178 1
164 178 1
388 178 1
389 178 1
79 179 1
81 179 1
117 179 1
123 179 1
158 179 1
165 179 1
389 179 1
390 179 1
80 180 1
82 180 1
118 180 1
124 180 1
159 180 1
166 180 1
390 180 1
391 180 1
81 181 1
83 181 1
119 181 1
125 181 1
160 181 1
167 181 1
391 181 1
392 181 1
82 182 1
84 182 1
120 182 1
126 182 1
161 182 1
168 182 1
379 182 1
392 182 1
85 183 1
96 183 1
99 183 1
108 183 1
169 183 1
176 183 1
393 183 1
394 183 1
86 184 1
97 184 1
100 184 1
109 184 1
170 184 1
177 184 1
394 184 1
395 184 1
87 185 1
98 185 1
101 185 1
110 185 1
171 185 1
178 185 1
395 185 1
396 185 1
85 186 1
88 186 1
102 186 1
111 186 1
172 186 1
179 186 1
396 186 1
397 186 1
86 187 1
89 187 1
103 187 1
112 187 1
173 187 1
180 187 1
397 187 1
398 187 1
87 188 1
90 188 1
99 188 1
104 188 1
174 188 1
181 188 1
398 188 1
399 188 1
88 189 1
91 189 1
100 189 1
105 189 1
175 189 1
182 189 1
399 189 1
400 189 1
89 190 1
92 190 1
101 190 1
106 190 1
169 190 1
176 190 1
400 190 1
401 190 1
90 191 1
93 191 1
102 191 1
107 191 1
170 191 1
177 191 1
401 191 1
402 191 1
91 192 1
94 192 1
103 192 1
108 192 1
171 192 1
178 192 1
402 192 1
403 192 1
92 193 1
95 193 1
104 193 1
109 193 1
172 193 1
179 193 1
403 193 1
404 193 1
93 194 1
96 194 1
105 194 1
110 194 1
173 194 1
180 194 1
404 194 1
405 194 1
94 195 1
97 195 1
106 195 1
111 195 1
174 195 1
181 195 1
405 195 1
406 195 1
95 196 1
98 196 1
107 196 1
112 196 1
175 196 1
182 196 1
393 196 1
406 196 1
85 197 1
97 197 1
113 197 1
122 197 1
183 197 1
190 197 1
407 197 1
408 197 1
86 198 1
98 198 1
114 198 1
123 198 1
184 198 1
191 198 1
408 198 1
409 198 1
85 199 1
87 199 1
115 199 1
124 199 1
185 199 1
192 199 1
409 199 1
410 199 1
86 200 1
88 200 1
116 200 1
125 200 1
186 200 1
193 200 1
410 200 1
411 200 1
87 201 1
89 201 1
117 201 1
126 201 1
187 201 1
194 201 1
411 201 1
412 201 1
88 202 1
90 202 1
113 202 1
118 202 1
188 202 1
195 202 1
412 202 1
413 202 1
89 203 1
91 203 1
114 203 1
119 203 1
189 203 1
196 203 1
413 203 1
414 203 1
90 204 1
92 204 1
115 204 1
120 204 1
183 204 1
190 204 1
414 204 1
415 204 1
91 205 1
93 205 1
116 205 1
121 205 1
184 205 1
191 205 1
415 205 1
416 205 1
92 206 1
94 206 1
117 206 1
122 206 1
185 206 1
192 206 1
416 206 1
417 206 1
93 207 1
95 207 1
118 207 1
123 207 1
186 207 1
193 207 1
417 207 1
418 207 1
94 208 1
96 208 1
119 208 1
124 208 1
187 208 1
194 208 1
418 208 1
419 208 1
95 209 1
97 209 1
120 209 1
125 209 1
188 209 1
195 209 1
419 209 1
420 209 1
96 210 1
98 210 1
121 210 1
126 210 1
189 210 1
196 210 1
407 210 1
420 210 1
99 211 1
111 211 1
113 211 1
124 211 1
197 211 1
204 211 1
421 211 1
422 211 1
100 212 1
112 212 1
114 212 1
125 212 1
198 212 1
205 212 1
422 212 1
423 212 1
99 213 1
101 213 1
115 213 1
126 213 1
199 213 1
206 213 1
423 213 1
424 213 1
100 214 1
102 214 1
113 214 1
116 214 1
200 214 1
207 214 1
424 214 1
425 214 1
101 215 1
103 215 1
114 215 1
117 215 1
201 215 1
208 215 1
425 215 1
426 215 1
102 216 1
104 216 1
115 216 1
118 216 1
202 216 1
209 216 1
426 216 1
427 216 1
103 217 1
105 217 1
116 217 1
119 217 1
203 217 1
210 217 1
427 217 1
428 217 1
104 218 1
106 218 1
117 218 1
120 218 1
197 218 1
204 218 1
428 218 1
429 218 1
105 219 1
107 219 1
118 219 1
121 219 1
198 219 1
205 219 1
429 219 1
430 219 1
106 220 1
108 220 1
119 220 1
122 220 1
199 220 1
206 220 1
430 220 1
431 220 1
107 221 1
109 221 1
120 221 1
123 221 1
200 221 1
207 221 1
431 221 1
432 221 1
108 222 1
110 222 1
121 222 1
124 222 1
201 222 1
208 222 1
432 222 1
433 222 1
109 223 1
111 223 1
122 223 1
125 223 1
202 223 1
209 223 1
433 223 1
434 223 1
110 224 1
112 224 1
123 224 1
126 224 1
203 224 1
210 224 1
421 224 1
434 224 1
127 225 1
138 225 1
141 225 1
150 225 1
169 225 1
177 225 1
435 225 1
436 225 1
128 226 1
139 226 1
142 226 1
151 226 1
170 226 1
178 226 1
436 226 1
437 226 1
129 227 1
140 227 1
143 227 1
152 227 1
171 227 1
179 227 1
437 227 1
438 227 1
127 228 1
130 228 1
144 228 1
153 228 1
172 228 1
180 228 1
438 228 1
439 228 1
128 229 1
131 229 1
145 229 1
154 229 1
173 229 1
181 229 1
439 229 1
440 229 1
129 230 1
132 230 1
141 230 1
146 230 1
174 230 1
182 230 1
440 230 1
441 230 1
130 231 1
133 231 1
142 231 1
147 231 1
169 231 1
175 231 1
441 231 1
442 231 1
131 232 1
134 232 1
143 232 1
148 232 1
170 232 1
176 232 1
442 232 1
443 232 1
132 233 1
135 233 1
144 233 1
149 233 1
171 233 1
177 233 1
443 233 1
444 233 1
133 234 1
136 234 1
145 234 1
150 234 1
172 234 1
178 234 1
444 234 1
445 234 1
134 235 1
137 235 1
146 235 1
151 235 1
173 235 1
179 235 1
445 235 1
446 235 1
135 236 1
138 236 1
147 236 1
152 236 1
174 236 1
180 236 1
446 236 1
447 236 1
136 237 1
139 237 1
148 237 1
153 237 1
175 237 1
181 237 1
447 237 1
448 237 1
137 238 1
140 238 1
149 238 1
154 238 1
176 238 1
182 238 1
435 238 1
448 238 1
127 239 1
139 239 1
155 239 1
164 239 1
183 239 1
191 239 1
449 239 1
450 239 1
128 240 1
140 240 1
156 240 1
165 240 1
184 240 1
192 240 1
450 240 1
451 240 1
127 241 1
129 241 1
157 241 1
166 241 1
185 241 1
193 241 1
451 241 1
452 241 1
128 242 1
130 242 1
158 242 1
167 242 1
186 242 1
194 242 1
452 242 1
453 242 1
129 243 1
131 243 1
159 243 1
168 243 1
187 243 1
195 243 1
453 243 1
454 243 1
130 244 1
132 244 1
155 244 1
160 244 1
188 244 1
196 244 1
454 244 1
455 244 1
131 245 1
133 245 1
156 245 1
161 245 1
183 245 1
189 245 1
455 245 1
456 245 1
132 246 1
134 246 1
157 246 1
162 246 1
184 246 1
190 246 1
456 246 1
457 246 1
133 247 1
135 247 1
158 247 1
163 247 1
185 247 1
191 247 1
457 247 1
458 247 1
134 248 1
136 248 1
159 248 1
164 248 1
186 248 1
192 248 1
458 248 1
459 248 1
135 249 1
137 249 1
160 249 1
165 249 1
187 249 1
193 249 1
459 249 1
460 249 1
136 250 1
138 250 1
161 250 1
166 250 1
188 250 1
194 250 1
460 250 1
461 250 1
137 251 1
139 251 1
162 251 1
167 251 1
189 251 1
195 251 1
461 251 1
462 251 1
138 252 1
140 252 1
163 252 1
168 252 1
190 252 1
196 252 1
449 252 1
462 252 1
141 253 1
153 253 1
155 253 1
166 253 1
197 253 1
205 253 1
463 253 1
464 253 1
142 254 1
154 254 1
156 254 1
167 254 1
198 254 1
206 254 1
464 254 1
465 254 1
141 255 1
143 255 1
157 255 1
168 255 1
199 255 1
207 255 1
465 255 1
466 255 1
142 256 1
144 256 1
155 256 1
158 256 1
200 256 1
208 256 1
466 256 1
467 256 1
143 257 1
145 257 1
156 257 1
159 257 1
201 257 1
209 257 1
467 257 1
468 257 1
144 258 1
146 258 1
157 258 1
160 258 1
202 258 1
210 258 1
468 258 1
469 258 1
145 259 1
147 259 1
158 259 1
161 259 1
197 259 1
203 259 1
469 259 1
470 259 1
146 260 1
148 260 1
159 260 1
162 260 1
198 260 1
204 260 1
470 260 1
471 260 1
147 261 1
149 261 1
160 261 1
163 261 1
199 261 1
205 261 1
471 261 1
472 261 1
148 262 1
150 262 1
161 262 1
164 262 1
200 262 1
206 262 1
472 262 1
473 262 1
149 263 1
151 263 1
162 263 1
165 263 1
201 263 1
207 263 1
473 263 1
474 263 1
150 264 1
152 264 1
163 264 1
166 264 1
202 264 1
208 264 1
474 264 1
475 264 1
151 265 1
153 265 1
164 265 1
167 265 1
203 265 1
209 265 1
475 265 1
476 265 1
152 266 1
154 266 1
165 266 1
168 266 1
204 266 1
210 266 1
463 266 1
476 266 1
169 267 1
181 267 1
183 267 1
194 267 1
197 267 1
206 267 1
477 267 1
478 267 1
170 268 1
182 268 1
184 268 1
195 268 1
198 268 1
207 268 1
478 268 1
479 268 1
169 269 1
171 269 1
185 269 1
196 269 1
199 269 1
208 269 1
479 269 1
480 269 1
170 270 1
172 270 1
183 270 1
186 270 1
200 270 1
209 270 1
480 270 1
481 270 1
171 271 1
173 271 1
184 271 1
187 271 1
201 271 1
210 271 1
481 271 1
482 271 1
172 272 1
174 272 1
185 272 1
188 272 1
197 272 1
202 272 1
482 272 1
483 272 1
173 273 1
175 273 1
186 273 1
189 273 1
198 273 1
203 273 1
483 273 1
484 273 1
174 274 1
176 274 1
187 274 1
190 274 1
199 274 1
204 274 1
484 274 1
485 274 1
175 275 1
177 275 1
188 275 1
191 275 1
200 275 1
205 275 1
485 275 1
486 275 1
176 276 1
178 276 1
189 276 1
192 276 1
201 276 1
206 276 1
486 276 1
487 276 1
177 277 1
179 277 1
190 277 1
193 277 1
202 277 1
207 277 1
487 277 1
488 277 1
178 278 1
180 278 1
191 278 1
194 278 1
203 278 1
208 278 1
488 278 1
489 278 1
179 279 1
181 279 1
192 279 1
195 279 1
204 279 1
209 279 1
489 279 1
490 279 1
180 280 1
182 280 1
193 280 1
196 280 1
205 280 1
210 280 1
477 280 1
490 280 1
211 281 1
220 281 1
225 281 1
233 281 1
267 281 1
274 281 1
351 281 1
354 281 1
212 282 1
221 282 1
226 282 1
234 282 1
268 282 1
275 282 1
352 282 1
355 282 1
213 283 1
222 283 1
227 283 1
235 283 1
269 283 1
276 283 1
353 283 1
356 283 1
214 284 1
223 284 1
228 284 1
236 284 1
270 284 1
277 284 1
354 284 1
357 284 1
215 285 1
224 285 1
229 285 1
237 285 1
271 285 1
278 285 1
355 285 1
358 285 1
211 286 1
216 286 1
230 286 1
238 286 1
272 286 1
279 286 1
356 286 1
359 286 1
212 287 1
217 287 1
225 287 1
231 287 1
273 287 1
280 287 1
357 287 1
360 287 1
213 288 1
218 288 1
226 288 1
232 288 1
267 288 1
274 288 1
358 288 1
361 288 1
214 289 1
219 289 1
227 289 1
233 289 1
268 289 1
275 289 1
359 289 1
362 289 1
215 290 1
220 290 1
228 290 1
234 290 1
269 290 1
276 290 1
360 290 1
363 290 1
216 291 1
221 291 1
229 291 1
235 291 1
270 291 1
277 291 1
361 291 1
364 291 1
217 292 1
222 292 1
230 292 1
236 292 1
271 292 1
278 292 1
351 292 1
362 292 1
218 293 1
223 293 1
231 293 1
237 293 1
272 293 1
279 293 1
352 293 1
363 293 1
219 294 1
224 294 1
232 294 1
238 294 1
273 294 1
280 294 1
353 294 1
364 294 1
211 295 1
222 295 1
239 295 1
247 295 1
281 295 1
288 295 1
365 295 1
368 295 1
212 296 1
223 296 1
240 296 1
248 296 1
282 296 1
289 296 1
366 296 1
369 296 1
213 297 1
224 297 1
241 297 1
249 297 1
283 297 1
290 297 1
367 297 1
370 297 1
211 298 1
214 298 1
242 298 1
250 298 1
284 298 1
291 298 1
368 298 1
371 298 1
212 299 1
215 299 1
243 299 1
251 299 1
285 299 1
292 299 1
369 299 1
372 299 1
213 300 1
216 300 1
244 300 1
252 300 1
286 300 1
293 300 1
370 300 1
373 300 1
214 301 1
217 301 1
239 301 1
245 301 1
287 301 1
294 301 1
371 301 1
374 301 1
215 302 1
218 302 1
240 302 1
246 302 1
281 302 1
288 302 1
372 302 1
375 302 1
216 303 1
219 303 1
241 303 1
247 303 1
282 303 1
289 303 1
373 303 1
376 303 1
217 304 1
220 304 1
242 304 1
248 304 1
283 304 1
290 304 1
374 304 1
377 304 1
218 305 1
221 305 1
243 305 1
249 305 1
284 305 1
291 305 1
375 305 1
378 305 1
219 306 1
222 306 1
244 306 1
250 306 1
285 306 1
292 306 1
365 306 1
376 306 1
220 307 1
223 307 1
245 307 1
251 307 1
286 307 1
293 307 1
366 307 1
377 307 1
221 308 1
224 308 1
246 308 1
252 308 1
287 308 1
294 308 1
367 308 1
378 308 1
211 309 1
223 309 1
253 309 1
261 309 1
295 309 1
302 309 1
379 309 1
382 309 1
212 310 1
224 310 1
254 310 1
262 310 1
296 310 1
303 310 1
380 310 1
383 310 1
211 311 1
213 311 1
255 311 1
263 311 1
297 311 1
304 311 1
381 311 1
384 311 1
212 312 1
214 312 1
256 312 1
264 312 1
298 312 1
305 312 1
382 312 1
385 312 1
213 313 1
215 313 1
257 313 1
265 313 1
299 313 1
306 313 1
383 313 1
386 313 1
214 314 1
216 314 1
258 314 1
266 314 1
300 314 1
307 314 1
384 314 1
387 314 1
215 315 1
217 315 1
253 315 1
259 315 1
301 315 1
308 315 1
385 315 1
388 315 1
216 316 1
218 316 1
254 316 1
260 316 1
295 316 1
302 316 1
386 316 1
389 316 1
217 317 1
219 317 1
255 317 1
261 317 1
296 317 1
303 317 1
387 317 1
390 317 1
218 318 1
220 318 1
256 318 1
262 318 1
297 318 1
304 318 1
388 318 1
391 318 1
219 319 1
221 319 1
257 319 1
263 319 1
298 319 1
305 319 1
389 319 1
392 319 1
220 320 1
222 320 1
258 320 1
264 320 1
299 320 1
306 320 1
379 320 1
390 320 1
221 321 1
223 321 1
259 321 1
265 321 1
300 321 1
307 321 1
380 321 1
391 321 1
222 322 1
224 322 1
260 322 1
266 322 1
301 322 1
308 322 1
381 322 1
392 322 1
225 323 1
236 323 1
239 323 1
248 323 1
309 323 1
316 323 1
393 323 1
396 323 1
226 324 1
237 324 1
240 324 1
249 324 1
310 324 1
317 324 1
394 324 1
397 324 1
227 325 1
238 325 1
241 325 1
250 325 1
311 325 1
318 325 1
395 325 1
398 325 1
225 326 1
228 326 1
242 326 1
251 326 1
312 326 1
319 326 1
396 326 1
399 326 1
226 327 1
229 327 1
243 327 1
252 327 1
313 327 1
320 327 1
397 327 1
400 327 1
227 328 1
230 328 1
239 328 1
244 328 1
314 328 1
321 328 1
398 328 1
401 328 1
228 329 1
231 329 1
240 329 1
245 329 1
315 329 1
322 329 1
399 329 1
402 329 1
229 330 1
232 330 1
241 330 1
246 330 1
309 330 1
316 330 1
400 330 1
403 330 1
230 331 1
233 331 1
242 331 1
247 331 1
310 331 1
317 331 1
401 331 1
404 331 1
231 332 1
234 332 1
243 332 1
248 332 1
311 332 1
318 332 1
402 332 1
405 332 1
232 333 1
235 333 1
244 333 1
249 333 1
312 333 1
319 333 1
403 333 1
406 333 1
233 334 1
236 334 1
245 334 1
250 334 1
313 334 1
320 334 1
393 334 1
404 334 1
234 335 1
237 335 1
246 335 1
251 335 1
314 335 1
321 335 1
394 335 1
405 335 1
235 336 1
238 336 1
247 336 1
252 336 1
315 336 1
322 336 1
395 336 1
406 336 1
225 337 1
237 337 1
253 337 1
262 337 1
323 337 1
330 337 1
407 337 1
410 337 1
226 338 1
238 338 1
254 338 1
263 338 1
324 338 1
331 338 1
408 338 1
411 338 1
225 339 1
227 339 1
255 339 1
264 339 1
325 339 1
332 339 1
409 339 1
412 339 1
226 340 1
228 340 1
256 340 1
265 340 1
326 340 1
333 340 1
410 340 1
413 340 1
227 341 1
229 341 1
257 341 1
266 341 1
327 341 1
334 341 1
411 341 1
414 341 1
228 342 1
230 342 1
253 342 1
258 342 1
328 342 1
335 342 1
412 342 1
415 342 1
229 343 1
231 343 1
254 343 1
259 343 1
329 343 1
336 343 1
413 343 1
416 343 1
230 344 1
232 344 1
255 344 1
260 344 1
323 344 1
330 344 1
414 344 1
417 344 1
231 345 1
233 345 1
256 345 1
261 345 1
324 345 1
331 345 1
415 345 1
418 345 1
232 346 1
234 346 1
257 346 1
262 346 1
325 346 1
332 346 1
416 346 1
419 346 1
233 347 1
235 347 1
258 347 1
263 347 1
326 347 1
333 347 1
417 347 1
420 347 1
234 348 1
236 348 1
259 348 1
264 348 1
327 348 1
334 348 1
407 348 1
418 348 1
235 349 1
237 349 1
260 349 1
265 349 1
328 349 1
335 349 1
408 349 1
419 349 1
236 350 1
238 350 1
261 350 1
266 350 1
329 350 1
336 350 1
409 350 1
420 350 1
239 351 1
251 351 1
253 351 1
264 351 1
337 351 1
344 351 1
421 351 1
424 351 1
240 352 1
252 352 1
254 352 1
265 352 1
338 352 1
345 352 1
422 352 1
425 352 1
239 353 1
241 353 1
255 353 1
266 353 1
339 353 1
346 353 1
423 353 1
426 353 1
240 354 1
242 354 1
253 354 1
256 354 1
340 354 1
347 354 1
424 354 1
427 354 1
241 355 1
243 355 1
254 355 1
257 355 1
341 355 1
348 355 1
425 355 1
428 355 1
242 356 1
244 356 1
255 356 1
258 356 1
342 356 1
349 356 1
426 356 1
429 356 1
243 357 1
245 357 1
256 357 1
259 357 1
343 357 1
350 357 1
427 357 1
430 357 1
244 358 1
246 358 1
257 358 1
260 358 1
337 358 1
344 358 1
428 358 1
431 358 1
245 359 1
247 359 1
258 359 1
261 359 1
338 359 1
345 359 1
429 359 1
432 359 1
246 360 1
248 360 1
259 360 1
262 360 1
339 360 1
346 360 1
430 360 1
433 360 1
247 361 1
249 361 1
260 361 1
263 361 1
340 361 1
347 361 1
431 361 1
434 361 1
248 362 1
250 362 1
261 362 1
264 362 1
341 362 1
348 362 1
421 362 1
432 362 1
249 363 1
251 363 1
262 363 1
265 363 1
342 363 1
349 363 1
422 363 1
433 363 1
250 364 1
252 364 1
263 364 1
266 364 1
343 364 1
350 364 1
423 364 1
434 364 1
267 365 1
278 365 1
281 365 1
290 365 1
309 365 1
317 365 1
435 365 1
438 365 1
268 366 1
279 366 1
282 366 1
291 366 1
310 366 1
318 366 1
436 366 1
439 366 1
269 367 1
280 367 1
283 367 1
292 367 1
311 367 1
319 367 1
437 367 1
440 367 1
267 368 1
270 368 1
284 368 1
293 368 1
312 368 1
320 368 1
438 368 1
441 368 1
268 369 1
271 369 1
285 369 1
294 369 1
313 369 1
321 369 1
439 369 1
442 369 1
269 370 1
272 370 1
281 370 1
286 370 1
314 370 1
322 370 1
440 370 1
443 370 1
270 371 1
273 371 1
282 371 1
287 371 1
309 371 1
315 371 1
441 371 1
444 371 1
271 372 1
274 372 1
283 372 1
288 372 1
310 372 1
316 372 1
442 372 1
445 372 1
272 373 1
275 373 1
284 373 1
289 373 1
311 373 1
317 373 1
443 373 1
446 373 1
273 374 1
276 374 1
285 374 1
290 374 1
312 374 1
318 374 1
444 374 1
447 374 1
274 375 1
277 375 1
286 375 1
291 375 1
313 375 1
319 375 1
445 375 1
448 375 1
275 376 1
278 376 1
287 376 1
292 376 1
314 376 1
320 376 1
435 376 1
446 376 1
276 377 1
279 377 1
288 377 1
293 377 1
315 377 1
321 377 1
436 377 1
447 377 1
277 378 1
280 378 1
289 378 1
294 378 1
316 378 1
322 378 1
437 378 1
448 378 1
267 379 1
279 379 1
295 379 1
304 379 1
323 379 1
331 379 1
449 379 1
452 379 1
268 380 1
280 380 1
296 380 1
305 380 1
324 380 1
332 380 1
450 380 1
453 380 1
267 381 1
269 381 1
297 381 1
306 381 1
325 381 1
333 381 1
451 381 1
454 381 1
268 382 1
270 382 1
298 382 1
307 382 1
326 382 1
334 382 1
452 382 1
455 382 1
269 383 1
271 383 1
299 383 1
308 383 1
327 383 1
335 383 1
453 383 1
456 383 1
270 384 1
272 384 1
295 384 1
300 384 1
328 384 1
336 384 1
454 384 1
457 384 1
271 385 1
273 385 1
296 385 1
301 385 1
323 385 1
329 385 1
455 385 1
458 385 1
272 386 1
274 386 1
297 386 1
302 386 1
324 386 1
330 386 1
456 386 1
459 386 1
273 387 1
275 387 1
298 387 1
303 387 1
325 387 1
331 387 1
457 387 1
460 387 1
274 388 1
276 388 1
299 388 1
304 388 1
326 388 1
332 388 1
458 388 1
461 388 1
275 389 1
277 389 1
300 389 1
305 389 1
327 389 1
333 389 1
459 389 1
462 389 1
276 390 1
278 390 1
301 390 1
306 390 1
328 390 1
334 390 1
449 390 1
460 390 1
277 391 1
279 391 1
302 391 1
307 391 1
329 391 1
335 391 1
450 391 1
461 391 1
278 392 1
280 392 1
303 392 1
308 392 1
330 392 1
336 392 1
451 392 1
462 392 1
281 393 1
293 393 1
295 393 1
306 393 1
337 393 1
345 393 1
463 393 1
466 393 1
282 394 1
294 394 1
296 394 1
307 394 1
338 394 1
346 394 1
464 394 1
467 394 1
281 395 1
283 395 1
297 395 1
308 395 1
339 395 1
347 395 1
465 395 1
468 395 1
282 396 1
284 396 1
295 396 1
298 396 1
340 396 1
348 396 1
466 396 1
469 396 1
283 397 1
285 397 1
296 397 1
299 397 1
341 397 1
349 397 1
467 397 1
470 397 1
284 398 1
286 398 1
297 398 1
300 398 1
342 398 1
350 398 1
468 398 1
471 398 1
285 399 1
287 399 1
298 399 1
301 399 1
337 399 1
343 399 1
469 399 1
472 399 1
286 400 1
288 400 1
299 400 1
302 400 1
338 400 1
344 400 1
470 400 1
473 400 1
287 401 1
289 401 1
300 401 1
303 401 1
339 401 1
345 401 1
471 401 1
474 401 1
288 402 1
290 402 1
301 402 1
304 402 1
340 402 1
346 402 1
472 402 1
475 402 1
289 403 1
291 403 1
302 403 1
305 403 1
341 403 1
347 403 1
473 403 1
476 403 1
290 404 1
292 404 1
303 404 1
306 404 1
342 404 1
348 404 1
463 404 1
474 404 1
291 405 1
293 405 1
304 405 1
307 405 1
343 405 1
349 405 1
464 405 1
475 405 1
292 406 1
294 406 1
305 406 1
308 406 1
344 406 1
350 406 1
465 406 1
476 406 1
309 407 1
321 407 1
323 407 1
334 407 1
337 407 1
346 407 1
477 407 1
480 407 1
310 408 1
322 408 1
324 408 1
335 408 1
338 408 1
347 408 1
478 408 1
481 408 1
309 409 1
311 409 1
325 409 1
336 409 1
339 409 1
348 409 1
479 409 1
482 409 1
310 410 1
312 410 1
323 410 1
326 410 1
340 410 1
349 410 1
480 410 1
483 410 1
311 411 1
313 411 1
324 411 1
327 411 1
341 411 1
350 411 1
481 411 1
484 411 1
312 412 1
314 412 1
325 412 1
328 412 1
337 412 1
342 412 1
482 412 1
485 412 1
313 413 1
315 413 1
326 413 1
329 413 1
338 413 1
343 413 1
483 413 1
486 413 1
314 414 1
316 414 1
327 414 1
330 414 1
339 414 1
344 414 1
484 414 1
487 414 1
315 415 1
317 415 1
328 415 1
331 415 1
340 415 1
345 415 1
485 415 1
488 415 1
316 416 1
318 416 1
329 416 1
332 416 1
341 416 1
346 416 1
486 416 1
489 416 1
317 417 1
319 417 1
330 417 1
333 417 1
342 417 1
347 417 1
487 417 1
490 417 1
318 418 1
320 418 1
331 418 1
334 418 1
343 418 1
348 418 1
477 418 1
488 418 1
319 419 1
321 419 1
332 419 1
335 419 1
344 419 1
349 419 1
478 419 1
489 419 1
320 420 1
322 420 1
333 420 1
336 420 1
345 420 1
350 420 1
479 420 1
490 420 1
351 421 1
362 421 1
365 421 1
374 421 1
393 421 1
401 421 1
435 421 1
442 421 1
352 422 1
363 422 1
366 422 1
375 422 1
394 422 1
402 422 1
436 422 1
443 422 1
353 423 1
364 423 1
367 423 1
376 423 1
395 423 1
403 423 1
437 423 1
444 423 1
351 424 1
354 424 1
368 424 1
377 424 1
396 424 1
404 424 1
438 424 1
445 424 1
352 425 1
355 425 1
369 425 1
378 425 1
397 425 1
405 425 1
439 425 1
446 425 1
353 426 1
356 426 1
365 426 1
370 426 1
398 426 1
406 426 1
440 426 1
447 426 1
354 427 1
357 427 1
366 427 1
371 427 1
393 427 1
399 427 1
441 427 1
448 427 1
355 428 1
358 428 1
367 428 1
372 428 1
394 428 1
400 428 1
435 428 1
442 428 1
356 429 1
359 429 1
368 429 1
373 429 1
395 429 1
401 429 1
436 429 1
443 429 1
357 430 1
360 430 1
369 430 1
374 430 1
396 430 1
402 430 1
437 430 1
444 430 1
358 431 1
361 431 1
370 431 1
375 431 1
397 431 1
403 431 1
438 431 1
445 431 1
359 432 1
362 432 1
371 432 1
376 432 1
398 432 1
404 432 1
439 432 1
446 432 1
360 433 1
363 433 1
372 433 1
377 433 1
399 433 1
405 433 1
440 433 1
447 433 1
361 434 1
364 434 1
373 434 1
378 434 1
400 434 1
406 434 1
441 434 1
448 434 1
351 435 1
363 435 1
379 435 1
388 435 1
407 435 1
415 435 1
449 435 1
456 435 1
352 436 1
364 436 1
380 436 1
389 436 1
408 436 1
416 436 1
450 436 1
457 436 1
351 437 1
353 437 1
381 437 1
390 437 1
409 437 1
417 437 1
451 437 1
458 437 1
352 438 1
354 438 1
382 438 1
391 438 1
410 438 1
418 438 1
452 438 1
459 438 1
353 439 1
355 439 1
383 439 1
392 439 1
411 439 1
419 439 1
453 439 1
460 439 1
354 440 1
356 440 1
379 440 1
384 440 1
412 440 1
420 440 1
454 440 1
461 440 1
355 441 1
357 441 1
380 441 1
385 441 1
407 441 1
413 441 1
455 441 1
462 441 1
356 442 1
358 442 1
381 442 1
386 442 1
408 442 1
414 442 1
449 442 1
456 442 1
357 443 1
359 443 1
382 443 1
387 443 1
409 443 1
415 443 1
450 443 1
457 443 1
358 444 1
360 444 1
383 444 1
388 444 1
410 444 1
416 444 1
451 444 1
458 444 1
359 445 1
361 445 1
384 445 1
389 445 1
411 445 1
417 445 1
452 445 1
459 445 1
360 446 1
362 446 1
385 446 1
390 446 1
412 446 1
418 446 1
453 446 1
460 446 1
361 447 1
363 447 1
386 447 1
391 447 1
413 447 1
419 447 1
454 447 1
461 447 1
362 448 1
364 448 1
387 448 1
392 448 1
414 448 1
420 448 1
455 448 1
462 448 1
365 449 1
377 449 1
379 449 1
390 449 1
421 449 1
429 449 1
463 449 1
470 449 1
366 450 1
378 450 1
380 450 1
391 450 1
422 450 1
430 450 1
464 450 1
471 450 1
365 451 1
367 451 1
381 451 1
392 451 1
423 451 1
431 451 1
465 451 1
472 451 1
366 452 1
368 452 1
379 452 1
382 452 1
424 452 1
432 452 1
466 452 1
473 452 1
367 453 1
369 453 1
380 453 1
383 453 1
425 453 1
433 453 1
467 453 1
474 453 1
368 454 1
370 454 1
381 454 1
384 454 1
426 454 1
434 454 1
468 454 1
475 454 1
369 455 1
371 455 1
382 455 1
385 455 1
421 455 1
427 455 1
469 455 1
476 455 1
370 456 1
372 456 1
383 456 1
386 456 1
422 456 1
428 456 1
463 456 1
470 456 1
371 457 1
373 457 1
384 457 1
387 457 1
423 457 1
429 457 1
464 457 1
471 457 1
372 458 1
374 458 1
385 458 1
388 458 1
424 458 1
430 458 1
465 458 1
472 458 1
373 459 1
375 459 1
386 459 1
389 459 1
425 459 1
431 459 1
466 459 1
473 459 1
374 460 1
376 460 1
387 460 1
390 460 1
426 460 1
432 460 1
467 460 1
474 460 1
375 461 1
377 461 1
388 461 1
391 461 1
427 461 1
433 461 1
468 461 1
475 461 1
376 462 1
378 462 1
389 462 1
392 462 1
428 462 1
434 462 1
469 462 1
476 462 1
393 463 1
405 463 1
407 463 1
418 463 1
421 463 1
430 463 1
477 463 1
484 463 1
394 464 1
406 464 1
408 464 1
419 464 1
422 464 1
431 464 1
478 464 1
485 464 1
393 465 1
395 465 1
409 465 1
420 465 1
423 465 1
432 465 1
479 465 1
486 465 1
394 466 1
396 466 1
407 466 1
410 466 1
424 466 1
433 466 1
480 466 1
487 466 1
395 467 1
397 467 1
408 467 1
411 467 1
425 467 1
434 467 1
481 467 1
488 467 1
396 468 1
398 468 1
409 468 1
412 468 1
421 468 1
426 468 1
482 468 1
489 468 1
397 469 1
399 469 1
410 469 1
413 469 1
422 469 1
427 469 1
483 469 1
490 469 1
398 470 1
400 470 1
411 470 1
414 470 1
423 470 1
428 470 1
477 470 1
484 470 1
399 471 1
401 471 1
412 471 1
415 471 1
424 471 1
429 471 1
478 471 1
485 471 1
400 472 1
402 472 1
413 472 1
416 472 1
425 472 1
430 472 1
479 472 1
486 472 1
401 473 1
403 473 1
414 473 1
417 473 1
426 473 1
431 473 1
480 473 1
487 473 1
402 474 1
404 474 1
415 474 1
418 474 1
427 474 1
432 474 1
481 474 1
488 474 1
403 475 1
405 475 1
416 475 1
419 475 1
428 475 1
433 475 1
482 475 1
489 475 1
404 476 1
406 476 1
417 476 1
420 476 1
429 476 1
434 476 1
483 476 1
490 476 1
435 477 1
447 477 1
449 477 1
460 477 1
463 477 1
472 477 1
477 477 1
485 477 1
436 478 1
448 478 1
450 478 1
461 478 1
464 478 1
473 478 1
478 478 1
486 478 1
435 479 1
437 479 1
451 479 1
462 479 1
465 479 1
474 479 1
479 479 1
487 479 1
436 480 1
438 480 1
449 480 1
452 480 1
466 480 1
475 480 1
480 480 1
488 480 1
437 481 1
439 481 1
450 481 1
453 481 1
467 481 1
476 481 1
481 481 1
489 481 1
438 482 1
440 482 1
451 482 1
454 482 1
463 482 1
468 482 1
482 482 1
490 482 1
439 483 1
441 483 1
452 483 1
455 483 1
464 483 1
469 483 1
477 483 1
483 483 1
440 484 1
442 484 1
453 484 1
456 484 1
465 484 1
470 484 1
478 484 1
484 484 1
441 485 1
443 485 1
454 485 1
457 485 1
466 485 1
471 485 1
479 485 1
485 485 1
442 486 1
444 486 1
455 486 1
458 486 1
467 486 1
472 486 1
480 486 1
486 486 1
443 487 1
445 487 1
456 487 1
459 487 1
468 487 1
473 487 1
481 487 1
487 487 1
444 488 1
446 488 1
457 488 1
460 488 1
469 488 1
474 488 1
482 488 1
488 488 1
445 489 1
447 489 1
458 489 1
461 489 1
470 489 1
475 489 1
483 489 1
489 489 1
446 490 1
448 490 1
459 490 1
462 490 1
471 490 1
476 490 1
484 490 1
490 490 1
