%%MatrixMarket matrix coordinate integer general
% Binary matrix; one-based indices; arithmetic over GF(2)
168 280 1680
1 1 1
4 1 1
9 1 1
11 1 1
17 1 1
18 1 1
2 2 1
5 2 1
10 2 1
12 2 1
18 2 1
19 2 1
3 3 1
6 3 1
11 3 1
13 3 1
19 3 1
20 3 1
4 4 1
7 4 1
12 4 1
14 4 1
20 4 1
21 4 1
5 5 1
8 5 1
13 5 1
15 5 1
21 5 1
22 5 1
1 6 1
6 6 1
14 6 1
16 6 1
22 6 1
23 6 1
2 7 1
7 7 1
9 7 1
15 7 1
23 7 1
24 7 1
3 8 1
8 8 1
10 8 1
16 8 1
17 8 1
24 8 1
1 9 1
5 9 1
25 9 1
27 9 1
33 9 1
34 9 1
2 10 1
6 10 1
26 10 1
28 10 1
34 10 1
35 10 1
3 11 1
7 11 1
27 11 1
29 11 1
35 11 1
36 11 1
4 12 1
8 12 1
28 12 1
30 12 1
36 12 1
37 12 1
1 13 1
5 13 1
29 13 1
31 13 1
37 13 1
38 13 1
2 14 1
6 14 1
30 14 1
32 14 1
38 14 1
39 14 1
3 15 1
7 15 1
25 15 1
31 15 1
39 15 1
40 15 1
4 16 1
8 16 1
26 16 1
32 16 1
33 16 1
40 16 1
9 17 1
13 17 1
25 17 1
28 17 1
41 17 1
42 17 1
10 18 1
14 18 1
26 18 1
29 18 1
42 18 1
43 18 1
11 19 1
15 19 1
27 19 1
30 19 1
43 19 1
44 19 1
12 20 1
16 20 1
28 20 1
31 20 1
44 20 1
45 20 1
9 21 1
13 21 1
29 21 1
32 21 1
45 21 1
46 21 1
10 22 1
14 22 1
25 22 1
30 22 1
46 22 1
47 22 1
11 23 1
15 23 1
26 23 1
31 23 1
47 23 1
48 23 1
12 24 1
16 24 1
27 24 1
32 24 1
41 24 1
48 24 1
17 25 1
21 25 1
33 25 1
36 25 1
41 25 1
43 25 1
18 26 1
22 26 1
34 26 1
37 26 1
42 26 1
44 26 1
19 27 1
23 27 1
35 27 1
38 27 1
43 27 1
45 27 1
20 28 1
24 28 1
36 28 1
39 28 1
44 28 1
46 28 1
17 29 1
21 29 1
37 29 1
40 29 1
45 29 1
47 29 1
18 30 1
22 30 1
33 30 1
38 30 1
46 30 1
48 30 1
19 31 1
23 31 1
34 31 1
39 31 1
41 31 1
47 31 1
20 32 1
24 32 1
35 32 1
40 32 1
42 32 1
48 32 1
1 33 1
6 33 1
49 33 1
51 33 1
57 33 1
58 33 1
2 34 1
7 34 1
50 34 1
52 34 1
58 34 1
59 34 1
3 35 1
8 35 1
51 35 1
53 35 1
59 35 1
60 35 1
1 36 1
4 36 1
52 36 1
54 36 1
60 36 1
61 36 1
2 37 1
5 37 1
53 37 1
55 37 1
61 37 1
62 37 1
3 38 1
6 38 1
54 38 1
56 38 1
62 38 1
63 38 1
4 39 1
7 39 1
49 39 1
55 39 1
63 39 1
64 39 1
5 40 1
8 40 1
50 40 1
56 40 1
57 40 1
64 40 1
9 41 1
14 41 1
49 41 1
52 41 1
65 41 1
66 41 1
10 42 1
15 42 1
50 42 1
53 42 1
66 42 1
67 42 1
11 43 1
16 43 1
51 43 1
54 43 1
67 43 1
68 43 1
9 44 1
12 44 1
52 44 1
55 44 1
68 44 1
69 44 1
10 45 1
13 45 1
53 45 1
56 45 1
69 45 1
70 45 1
11 46 1
14 46 1
49 46 1
54 46 1
70 46 1
71 46 1
12 47 1
15 47 1
50 47 1
55 47 1
71 47 1
72 47 1
13 48 1
16 48 1
51 48 1
56 48 1
65 48 1
72 48 1
17 49 1
22 49 1
57 49 1
60 49 1
65 49 1
67 49 1
18 50 1
23 50 1
58 50 1
61 50 1
66 50 1
68 50 1
19 51 1
24 51 1
59 51 1
62 51 1
67 51 1
69 51 1
17 52 1
20 52 1
60 52 1
63 52 1
68 52 1
70 52 1
18 53 1
21 53 1
61 53 1
64 53 1
69 53 1
71 53 1
19 54 1
22 54 1
57 54 1
62 54 1
70 54 1
72 54 1
20 55 1
23 55 1
58 55 1
63 55 1
65 55 1
71 55 1
21 56 1
24 56 1
59 56 1
64 56 1
66 56 1
72 56 1
25 57 1
30 57 1
49 57 1
53 57 1
73 57 1
74 57 1
26 58 1
31 58 1
50 58 1
54 58 1
74 58 1
75 58 1
27 59 1
32 59 1
51 59 1
55 59 1
75 59 1
76 59 1
25 60 1
28 60 1
52 60 1
56 60 1
76 60 1
77 60 1
26 61 1
29 61 1
49 61 1
53 61 1
77 61 1
78 61 1
27 62 1
30 62 1
50 62 1
54 62 1
78 62 1
79 62 1
28 63 1
31 63 1
51 63 1
55 63 1
79 63 1
80 63 1
29 64 1
32 64 1
52 64 1
56 64 1
73 64 1
80 64 1
33 65 1
38 65 1
57 65 1
61 65 1
73 65 1
75 65 1
34 66 1
39 66 1
58 66 1
62 66 1
74 66 1
76 66 1
35 67 1
40 67 1
59 67 1
63 67 1
75 67 1
77 67 1
33 68 1
36 68 1
60 68 1
64 68 1
76 68 1
78 68 1
34 69 1
37 69 1
57 69 1
61 69 1
77 69 1
79 69 1
35 70 1
38 70 1
58 70 1
62 70 1
78 70 1
80 70 1
36 71 1
39 71 1
59 71 1
63 71 1
73 71 1
79 71 1
37 72 1
40 72 1
60 72 1
64 72 1
74 72 1
80 72 1
41 73 1
46 73 1
65 73 1
69 73 1
73 73 1
76 73 1
42 74 1
47 74 1
66 74 1
70 74 1
74 74 1
77 74 1
43 75 1
48 75 1
67 75 1
71 75 1
75 75 1
78 75 1
41 76 1
44 76 1
68 76 1
72 76 1
76 76 1
79 76 1
42 77 1
45 77 1
65 77 1
69 77 1
77 77 1
80 77 1
43 78 1
46 78 1
66 78 1
70 78 1
73 78 1
78 78 1
44 79 1
47 79 1
67 79 1
71 79 1
74 79 1
79 79 1
45 80 1
48 80 1
68 80 1
72 80 1
75 80 1
80 80 1
1 81 1
7 81 1
81 81 1
83 81 1
89 81 1
90 81 1
2 82 1
8 82 1
82 82 1
84 82 1
90 82 1
91 82 1
1 83 1
3 83 1
83 83 1
85 83 1
91 83 1
92 83 1
2 84 1
4 84 1
84 84 1
86 84 1
92 84 1
93 84 1
3 85 1
5 85 1
85 85 1
87 85 1
93 85 1
94 85 1
4 86 1
6 86 1
86 86 1
88 86 1
94 86 1
95 86 1
5 87 1
7 87 1
81 87 1
87 87 1
95 87 1
96 87 1
6 88 1
8 88 1
82 88 1
88 88 1
89 88 1
96 88 1
9 89 1
15 89 1
81 89 1
84 89 1
97 89 1
98 89 1
10 90 1
16 90 1
82 90 1
85 90 1
98 90 1
99 90 1
9 91 1
11 91 1
83 91 1
86 91 1
99 91 1
100 91 1
10 92 1
12 92 1
84 92 1
87 92 1
100 92 1
101 92 1
11 93 1
13 93 1
85 93 1
88 93 1
101 93 1
102 93 1
12 94 1
14 94 1
81 94 1
86 94 1
102 94 1
103 94 1
13 95 1
15 95 1
82 95 1
87 95 1
103 95 1
104 95 1
14 96 1
16 96 1
83 96 1
88 96 1
97 96 1
104 96 1
17 97 1
23 97 1
89 97 1
92 97 1
97 97 1
99 97 1
18 98 1
24 98 1
90 98 1
93 98 1
98 98 1
100 98 1
17 99 1
19 99 1
91 99 1
94 99 1
99 99 1
101 99 1
18 100 1
20 100 1
92 100 1
95 100 1
100 100 1
102 100 1
19 101 1
21 101 1
93 101 1
96 101 1
101 101 1
103 101 1
20 102 1
22 102 1
89 102 1
94 102 1
102 102 1
104 102 1
21 103 1
23 103 1
90 103 1
95 103 1
97 103 1
103 103 1
22 104 1
24 104 1
91 104 1
96 104 1
98 104 1
104 104 1
25 105 1
31 105 1
81 105 1
85 105 1
105 105 1
106 105 1
26 106 1
32 106 1
82 106 1
86 106 1
106 106 1
107 106 1
25 107 1
27 107 1
83 107 1
87 107 1
107 107 1
108 107 1
26 108 1
28 108 1
84 108 1
88 108 1
108 108 1
109 108 1
27 109 1
29 109 1
81 109 1
85 109 1
109 109 1
110 109 1
28 110 1
30 110 1
82 110 1
86 110 1
110 110 1
111 110 1
29 111 1
31 111 1
83 111 1
87 111 1
111 111 1
112 111 1
30 112 1
32 112 1
84 112 1
88 112 1
105 112 1
112 112 1
33 113 1
39 113 1
89 113 1
93 113 1
105 113 1
107 113 1
34 114 1
40 114 1
90 114 1
94 114 1
106 114 1
108 114 1
33 115 1
35 115 1
91 115 1
95 115 1
107 115 1
109 115 1
34 116 1
36 116 1
92 116 1
96 116 1
108 116 1
110 116 1
35 117 1
37 117 1
89 117 1
93 117 1
109 117 1
111 117 1
36 118 1
38 118 1
90 118 1
94 118 1
110 118 1
112 118 1
37 119 1
39 119 1
91 119 1
95 119 1
105 119 1
111 119 1
38 120 1
40 120 1
92 120 1
96 120 1
106 120 1
112 120 1
41 121 1
47 121 1
97 121 1
101 121 1
105 121 1
108 121 1
42 122 1
48 122 1
98 122 1
102 122 1
106 122 1
109 122 1
41 123 1
43 123 1
99 123 1
103 123 1
107 123 1
110 123 1
42 124 1
44 124 1
100 124 1
104 124 1
108 124 1
111 124 1
43 125 1
45 125 1
97 125 1
101 125 1
109 125 1
112 125 1
44 126 1
46 126 1
98 126 1
102 126 1
105 126 1
110 126 1
45 127 1
47 127 1
99 127 1
103 127 1
106 127 1
111 127 1
46 128 1
48 128 1
100 128 1
104 128 1
107 128 1
112 128 1
49 129 1
55 129 1
81 129 1
86 129 1
113 129 1
114 129 1
50 130 1
56 130 1
82 130 1
87 130 1
114 130 1
115 130 1
49 131 1
51 131 1
83 131 1
88 131 1
115 131 1
116 131 1
50 132 1
52 132 1
81 132 1
84 132 1
116 132 1
117 132 1
51 133 1
53 133 1
82 133 1
85 133 1
117 133 1
118 133 1
52 134 1
54 134 1
83 134 1
86 134 1
118 134 1
119 134 1
53 135 1
55 135 1
84 135 1
87 135 1
119 135 1
120 135 1
54 136 1
56 136 1
85 136 1
88 136 1
113 136 1
120 136 1
57 137 1
63 137 1
89 137 1
94 137 1
113 137 1
115 137 1
58 138 1
64 138 1
90 138 1
95 138 1
114 138 1
116 138 1
57 139 1
59 139 1
91 139 1
96 139 1
115 139 1
117 139 1
58 140 1
60 140 1
89 140 1
92 140 1
116 140 1
118 140 1
59 141 1
61 141 1
90 141 1
93 141 1
117 141 1
119 141 1
60 142 1
62 142 1
91 142 1
94 142 1
118 142 1
120 142 1
61 143 1
63 143 1
92 143 1
95 143 1
113 143 1
119 143 1
62 144 1
64 144 1
93 144 1
96 144 1
114 144 1
120 144 1
65 145 1
71 145 1
97 145 1
102 145 1
113 145 1
116 145 1
66 146 1
72 146 1
98 146 1
103 146 1
114 146 1
117 146 1
65 147 1
67 147 1
99 147 1
104 147 1
115 147 1
118 147 1
66 148 1
68 148 1
97 148 1
100 148 1
116 148 1
119 148 1
67 149 1
69 149 1
98 149 1
101 149 1
117 149 1
120 149 1
68 150 1
70 150 1
99 150 1
102 150 1
113 150 1
118 150 1
69 151 1
71 151 1
100 151 1
103 151 1
114 151 1
119 151 1
70 152 1
72 152 1
101 152 1
104 152 1
115 152 1
120 152 1
73 153 1
79 153 1
105 153 1
110 153 1
113 153 1
117 153 1
74 154 1
80 154 1
106 154 1
111 154 1
114 154 1
118 154 1
73 155 1
75 155 1
107 155 1
112 155 1
115 155 1
119 155 1
74 156 1
76 156 1
105 156 1
108 156 1
116 156 1
120 156 1
75 157 1
77 157 1
106 157 1
109 157 1
113 157 1
117 157 1
76 158 1
78 158 1
107 158 1
110 158 1
114 158 1
118 158 1
77 159 1
79 159 1
108 159 1
111 159 1
115 159 1
119 159 1
78 160 1
80 160 1
109 160 1
112 160 1
116 160 1
120 160 1
1 161 1
8 161 1
121 161 1
123 161 1
129 161 1
130 161 1
1 162 1
2 162 1
122 162 1
124 162 1
130 162 1
131 162 1
2 163 1
3 163 1
123 163 1
125 163 1
131 163 1
132 163 1
3 164 1
4 164 1
124 164 1
126 164 1
132 164 1
133 164 1
4 165 1
5 165 1
125 165 1
127 165 1
133 165 1
134 165 1
5 166 1
6 166 1
126 166 1
128 166 1
134 166 1
135 166 1
6 167 1
7 167 1
121 167 1
127 167 1
135 167 1
136 167 1
7 168 1
8 168 1
122 168 1
128 168 1
129 168 1
136 168 1
9 169 1
16 169 1
121 169 1
124 169 1
137 169 1
138 169 1
9 170 1
10 170 1
122 170 1
125 170 1
138 170 1
139 170 1
10 171 1
11 171 1
123 171 1
126 171 1
139 171 1
140 171 1
11 172 1
12 172 1
124 172 1
127 172 1
140 172 1
141 172 1
12 173 1
13 173 1
125 173 1
128 173 1
141 173 1
142 173 1
13 174 1
14 174 1
121 174 1
126 174 1
142 174 1
143 174 1
14 175 1
15 175 1
122 175 1
127 175 1
143 175 1
144 175 1
15 176 1
16 176 1
123 176 1
128 176 1
137 176 1
144 176 1
17 177 1
24 177 1
129 177 1
132 177 1
137 177 1
139 177 1
17 178 1
18 178 1
130 178 1
133 178 1
138 178 1
140 178 1
18 179 1
19 179 1
131 179 1
134 179 1
139 179 1
141 179 1
19 180 1
20 180 1
132 180 1
135 180 1
140 180 1
142 180 1
20 181 1
21 181 1
133 181 1
136 181 1
141 181 1
143 181 1
21 182 1
22 182 1
129 182 1
134 182 1
142 182 1
144 182 1
22 183 1
23 183 1
130 183 1
135 183 1
137 183 1
143 183 1
23 184 1
24 184 1
131 184 1
136 184 1
138 184 1
144 184 1
25 185 1
32 185 1
121 185 1
125 185 1
145 185 1
146 185 1
25 186 1
26 186 1
122 186 1
126 186 1
146 186 1
147 186 1
26 187 1
27 187 1
123 187 1
127 187 1
147 187 1
148 187 1
27 188 1
28 188 1
124 188 1
128 188 1
148 188 1
149 188 1
28 189 1
29 189 1
121 189 1
125 189 1
149 189 1
150 189 1
29 190 1
30 190 1
122 190 1
126 190 1
150 190 1
151 190 1
30 191 1
31 191 1
123 191 1
127 191 1
151 191 1
152 191 1
31 192 1
32 192 1
124 192 1
128 192 1
145 192 1
152 192 1
33 193 1
40 193 1
129 193 1
133 193 1
145 193 1
147 193 1
33 194 1
34 194 1
130 194 1
134 194 1
146 194 1
148 194 1
34 195 1
35 195 1
131 195 1
135 195 1
147 195 1
149 195 1
35 196 1
36 196 1
132 196 1
136 196 1
148 196 1
150 196 1
36 197 1
37 197 1
129 197 1
133 197 1
149 197 1
151 197 1
37 198 1
38 198 1
130 198 1
134 198 1
150 198 1
152 198 1
38 199 1
39 199 1
131 199 1
135 199 1
145 199 1
151 199 1
39 200 1
40 200 1
132 200 1
136 200 1
146 200 1
152 200 1
41 201 1
48 201 1
137 201 1
141 201 1
145 201 1
148 201 1
41 202 1
42 202 1
138 202 1
142 202 1
146 202 1
149 202 1
42 203 1
43 203 1
139 203 1
143 203 1
147 203 1
150 203 1
43 204 1
44 204 1
140 204 1
144 204 1
148 204 1
151 204 1
44 205 1
45 205 1
137 205 1
141 205 1
149 205 1
152 205 1
45 206 1
46 206 1
138 206 1
142 206 1
145 206 1
150 206 1
46 207 1
47 207 1
139 207 1
143 207 1
146 207 1
151 207 1
47 208 1
48 208 1
140 208 1
144 208 1
147 208 1
152 208 1
49 209 1
56 209 1
121 209 1
126 209 1
153 209 1
154 209 1
49 210 1
50 210 1
122 210 1
127 210 1
154 210 1
155 210 1
50 211 1
51 211 1
123 211 1
128 211 1
155 211 1
156 211 1
51 212 1
52 212 1
121 212 1
124 212 1
156 212 1
157 212 1
52 213 1
53 213 1
122 213 1
125 213 1
157 213 1
158 213 1
53 214 1
54 214 1
123 214 1
126 214 1
158 214 1
159 214 1
54 215 1
55 215 1
124 215 1
127 215 1
159 215 1
160 215 1
55 216 1
56 216 1
125 216 1
128 216 1
153 216 1
160 216 1
57 217 1
64 217 1
129 217 1
134 217 1
153 217 1
155 217 1
57 218 1
58 218 1
130 218 1
135 218 1
154 218 1
156 218 1
58 219 1
59 219 1
131 219 1
136 219 1
155 219 1
157 219 1
59 220 1
60 220 1
129 220 1
132 220 1
156 220 1
158 220 1
60 221 1
61 221 1
130 221 1
133 221 1
157 221 1
159 221 1
61 222 1
62 222 1
131 222 1
134 222 1
158 222 1
160 222 1
62 223 1
63 223 1
132 223 1
135 223 1
153 223 1
159 223 1
63 224 1
64 224 1
133 224 1
136 224 1
154 224 1
160 224 1
65 225 1
72 225 1
137 225 1
142 225 1
153 225 1
156 225 1
65 226 1
66 226 1
138 226 1
143 226 1
154 226 1
157 226 1
66 227 1
67 227 1
139 227 1
144 227 1
155 227 1
158 227 1
67 228 1
68 228 1
137 228 1
140 228 1
156 228 1
159 228 1
68 229 1
69 229 1
138 229 1
141 229 1
157 229 1
160 229 1
69 230 1
70 230 1
139 230 1
142 230 1
153 230 1
158 230 1
70 231 1
71 231 1
140 231 1
143 231 1
154 231 1
159 231 1
71 232 1
72 232 1
141 232 1
144 232 1
155 232 1
160 232 1
73 233 1
80 233 1
145 233 1
150 233 1
153 233 1
157 233 1
73 234 1
74 234 1
146 234 1
151 234 1
154 234 1
158 234 1
74 235 1
75 235 1
147 235 1
152 235 1
155 235 1
159 235 1
75 236 1
76 236 1
145 236 1
148 236 1
156 236 1
160 236 1
76 237 1
77 237 1
146 237 1
149 237 1
153 237 1
157 237 1
77 238 1
78 238 1
147 238 1
150 238 1
154 238 1
158 238 1
78 239 1
79 239 1
148 239 1
151 239 1
155 239 1
159 239 1
79 240 1
80 240 1
149 240 1
152 240 1
156 240 1
160 240 1
81 241 1
88 241 1
121 241 1
127 241 1
161 241 1
162 241 1
81 242 1
82 242 1
122 242 1
128 242 1
162 242 1
163 242 1
82 243 1
83 243 1
121 243 1
123 243 1
163 243 1
164 243 1
83 244 1
84 244 1
122 244 1
124 244 1
164 244 1
165 244 1
84 245 1
85 245 1
123 245 1
125 245 1
165 245 1
166 245 1
85 246 1
86 246 1
124 246 1
126 246 1
166 246 1
167 246 1
86 247 1
87 247 1
125 247 1
127 247 1
167 247 1
168 247 1
87 248 1
88 248 1
126 248 1
128 248 1
161 248 1
168 248 1
89 249 1
96 249 1
129 249 1
135 249 1
161 249 1
163 249 1
89 250 1
90 250 1
130 250 1
136 250 1
162 250 1
164 250 1
90 251 1
91 251 1
129 251 1
131 251 1
163 251 1
165 251 1
91 252 1
92 252 1
130 252 1
132 252 1
164 252 1
166 252 1
92 253 1
93 253 1
131 253 1
133 253 1
165 253 1
167 253 1
93 254 1
94 254 1
132 254 1
134 254 1
166 254 1
168 254 1
94 255 1
95 255 1
133 255 1
135 255 1
161 255 1
167 255 1
95 256 1
96 256 1
134 256 1
136 256 1
162 256 1
168 256 1
97 257 1
104 257 1
137 257 1
143 257 1
161 257 1
164 257 1
97 258 1
98 258 1
138 258 1
144 258 1
162 258 1
165 258 1
98 259 1
99 259 1
137 259 1
139 259 1
163 259 1
166 259 1
99 260 1
100 260 1
138 260 1
140 260 1
164 260 1
167 260 1
100 261 1
101 261 1
139 261 1
141 261 1
165 261 1
168 261 1
101 262 1
102 262 1
140 262 1
142 262 1
161 262 1
166 262 1
102 263 1
103 263 1
141 263 1
143 263 1
162 263 1
167 263 1
103 264 1
104 264 1
142 264 1
144 264 1
163 264 1
168 264 1
105 265 1
112 265 1
145 265 1
151 265 1
161 265 1
165 265 1
105 266 1
106 266 1
146 266 1
152 266 1
162 266 1
166 266 1
106 267 1
107 267 1
145 267 1
147 267 1
163 267 1
167 267 1
107 268 1
108 268 1
146 268 1
148 268 1
164 268 1
168 268 1
108 269 1
109 269 1
147 269 1
149 269 1
161 269 1
165 269 1
109 270 1
110 270 1
148 270 1
150 270 1
162 270 1
166 270 1
110 271 1
111 271 1
149 271 1
151 271 1
163 271 1
167 271 1
111 272 1
112 272 1
150 272 1
152 272 1
164 272 1
168 272 1
113 273 1
120 273 1
153 273 1
159 273 1
161 273 1
166 273 1
113 274 1
114 274 1
154 274 1
160 274 1
162 274 1
167 274 1
114 275 1
115 275 1
153 275 1
155 275 1
163 275 1
168 275 1
115 276 1
116 276 1
154 276 1
156 276 1
161 276 1
164 276 1
116 277 1
117 277 1
155 277 1
157 277 1
162 277 1
165 277 1
117 278 1
118 278 1
156 278 1
158 278 1
163 278 1
166 278 1
118 279 1
119 279 1
157 279 1
159 279 1
164 279 1
167 279 1
119 280 1
120 280 1
158 280 1
160 280 1
165 280 1
168 280 1
