%%MatrixMarket matrix coordinate integer general
% Binary matrix; one-based indices; arithmetic over GF(2)
280 280 2240
1 1 1
5 1 1
9 1 1
12 1 1
41 1 1
43 1 1
121 1 1
122 1 1
2 2 1
6 2 1
10 2 1
13 2 1
42 2 1
44 2 1
122 2 1
123 2 1
3 3 1
7 3 1
11 3 1
14 3 1
43 3 1
45 3 1
123 3 1
124 3 1
4 4 1
8 4 1
12 4 1
15 4 1
44 4 1
46 4 1
124 4 1
125 4 1
1 5 1
5 5 1
13 5 1
16 5 1
45 5 1
47 5 1
125 5 1
126 5 1
2 6 1
6 6 1
9 6 1
14 6 1
46 6 1
48 6 1
126 6 1
127 6 1
3 7 1
7 7 1
10 7 1
15 7 1
41 7 1
47 7 1
127 7 1
128 7 1
4 8 1
8 8 1
11 8 1
16 8 1
42 8 1
48 8 1
121 8 1
128 8 1
1 9 1
6 9 1
17 9 1
20 9 1
49 9 1
51 9 1
129 9 1
130 9 1
2 10 1
7 10 1
18 10 1
21 10 1
50 10 1
52 10 1
130 10 1
131 10 1
3 11 1
8 11 1
19 11 1
22 11 1
51 11 1
53 11 1
131 11 1
132 11 1
1 12 1
4 12 1
20 12 1
23 12 1
52 12 1
54 12 1
132 12 1
133 12 1
2 13 1
5 13 1
21 13 1
24 13 1
53 13 1
55 13 1
133 13 1
134 13 1
3 14 1
6 14 1
17 14 1
22 14 1
54 14 1
56 14 1
134 14 1
135 14 1
4 15 1
7 15 1
18 15 1
23 15 1
49 15 1
55 15 1
135 15 1
136 15 1
5 16 1
8 16 1
19 16 1
24 16 1
50 16 1
56 16 1
129 16 1
136 16 1
1 17 1
7 17 1
25 17 1
28 17 1
57 17 1
59 17 1
137 17 1
138 17 1
2 18 1
8 18 1
26 18 1
29 18 1
58 18 1
60 18 1
138 18 1
139 18 1
1 19 1
3 19 1
27 19 1
30 19 1
59 19 1
61 19 1
139 19 1
140 19 1
2 20 1
4 20 1
28 20 1
31 20 1
60 20 1
62 20 1
140 20 1
141 20 1
3 21 1
5 21 1
29 21 1
32 21 1
61 21 1
63 21 1
141 21 1
142 21 1
4 22 1
6 22 1
25 22 1
30 22 1
62 22 1
64 22 1
142 22 1
143 22 1
5 23 1
7 23 1
26 23 1
31 23 1
57 23 1
63 23 1
143 23 1
144 23 1
6 24 1
8 24 1
27 24 1
32 24 1
58 24 1
64 24 1
137 24 1
144 24 1
1 25 1
8 25 1
33 25 1
36 25 1
65 25 1
67 25 1
145 25 1
146 25 1
1 26 1
2 26 1
34 26 1
37 26 1
66 26 1
68 26 1
146 26 1
147 26 1
2 27 1
3 27 1
35 27 1
38 27 1
67 27 1
69 27 1
147 27 1
148 27 1
3 28 1
4 28 1
36 28 1
39 28 1
68 28 1
70 28 1
148 28 1
149 28 1
4 29 1
5 29 1
37 29 1
40 29 1
69 29 1
71 29 1
149 29 1
150 29 1
5 30 1
6 30 1
33 30 1
38 30 1
70 30 1
72 30 1
150 30 1
151 30 1
6 31 1
7 31 1
34 31 1
39 31 1
65 31 1
71 31 1
151 31 1
152 31 1
7 32 1
8 32 1
35 32 1
40 32 1
66 32 1
72 32 1
145 32 1
152 32 1
9 33 1
14 33 1
17 33 1
21 33 1
73 33 1
75 33 1
153 33 1
154 33 1
10 34 1
15 34 1
18 34 1
22 34 1
74 34 1
76 34 1
154 34 1
155 34 1
11 35 1
16 35 1
19 35 1
23 35 1
75 35 1
77 35 1
155 35 1
156 35 1
9 36 1
12 36 1
20 36 1
24 36 1
76 36 1
78 36 1
156 36 1
157 36 1
10 37 1
13 37 1
17 37 1
21 37 1
77 37 1
79 37 1
157 37 1
158 37 1
11 38 1
14 38 1
18 38 1
22 38 1
78 38 1
80 38 1
158 38 1
159 38 1
12 39 1
15 39 1
19 39 1
23 39 1
73 39 1
79 39 1
159 39 1
160 39 1
13 40 1
16 40 1
20 40 1
24 40 1
74 40 1
80 40 1
153 40 1
160 40 1
9 41 1
15 41 1
25 41 1
29 41 1
81 41 1
83 41 1
161 41 1
162 41 1
10 42 1
16 42 1
26 42 1
30 42 1
82 42 1
84 42 1
162 42 1
163 42 1
9 43 1
11 43 1
27 43 1
31 43 1
83 43 1
85 43 1
163 43 1
164 43 1
10 44 1
12 44 1
28 44 1
32 44 1
84 44 1
86 44 1
164 44 1
165 44 1
11 45 1
13 45 1
25 45 1
29 45 1
85 45 1
87 45 1
165 45 1
166 45 1
12 46 1
14 46 1
26 46 1
30 46 1
86 46 1
88 46 1
166 46 1
167 46 1
13 47 1
15 47 1
27 47 1
31 47 1
81 47 1
87 47 1
167 47 1
168 47 1
14 48 1
16 48 1
28 48 1
32 48 1
82 48 1
88 48 1
161 48 1
168 48 1
9 49 1
16 49 1
33 49 1
37 49 1
89 49 1
91 49 1
169 49 1
170 49 1
9 50 1
10 50 1
34 50 1
38 50 1
90 50 1
92 50 1
170 50 1
171 50 1
10 51 1
11 51 1
35 51 1
39 51 1
91 51 1
93 51 1
171 51 1
172 51 1
11 52 1
12 52 1
36 52 1
40 52 1
92 52 1
94 52 1
172 52 1
173 52 1
12 53 1
13 53 1
33 53 1
37 53 1
93 53 1
95 53 1
173 53 1
174 53 1
13 54 1
14 54 1
34 54 1
38 54 1
94 54 1
96 54 1
174 54 1
175 54 1
14 55 1
15 55 1
35 55 1
39 55 1
89 55 1
95 55 1
175 55 1
176 55 1
15 56 1
16 56 1
36 56 1
40 56 1
90 56 1
96 56 1
169 56 1
176 56 1
17 57 1
23 57 1
25 57 1
30 57 1
97 57 1
99 57 1
177 57 1
178 57 1
18 58 1
24 58 1
26 58 1
31 58 1
98 58 1
100 58 1
178 58 1
179 58 1
17 59 1
19 59 1
27 59 1
32 59 1
99 59 1
101 59 1
179 59 1
180 59 1
18 60 1
20 60 1
25 60 1
28 60 1
100 60 1
102 60 1
180 60 1
181 60 1
19 61 1
21 61 1
26 61 1
29 61 1
101 61 1
103 61 1
181 61 1
182 61 1
20 62 1
22 62 1
27 62 1
30 62 1
102 62 1
104 62 1
182 62 1
183 62 1
21 63 1
23 63 1
28 63 1
31 63 1
97 63 1
103 63 1
183 63 1
184 63 1
22 64 1
24 64 1
29 64 1
32 64 1
98 64 1
104 64 1
177 64 1
184 64 1
17 65 1
24 65 1
33 65 1
38 65 1
105 65 1
107 65 1
185 65 1
186 65 1
17 66 1
18 66 1
34 66 1
39 66 1
106 66 1
108 66 1
186 66 1
187 66 1
18 67 1
19 67 1
35 67 1
40 67 1
107 67 1
109 67 1
187 67 1
188 67 1
19 68 1
20 68 1
33 68 1
36 68 1
108 68 1
110 68 1
188 68 1
189 68 1
20 69 1
21 69 1
34 69 1
37 69 1
109 69 1
111 69 1
189 69 1
190 69 1
21 70 1
22 70 1
35 70 1
38 70 1
110 70 1
112 70 1
190 70 1
191 70 1
22 71 1
23 71 1
36 71 1
39 71 1
105 71 1
111 71 1
191 71 1
192 71 1
23 72 1
24 72 1
37 72 1
40 72 1
106 72 1
112 72 1
185 72 1
192 72 1
25 73 1
32 73 1
33 73 1
39 73 1
113 73 1
115 73 1
193 73 1
194 73 1
25 74 1
26 74 1
34 74 1
40 74 1
114 74 1
116 74 1
194 74 1
195 74 1
26 75 1
27 75 1
33 75 1
35 75 1
115 75 1
117 75 1
195 75 1
196 75 1
27 76 1
28 76 1
34 76 1
36 76 1
116 76 1
118 76 1
196 76 1
197 76 1
28 77 1
29 77 1
35 77 1
37 77 1
117 77 1
119 77 1
197 77 1
198 77 1
29 78 1
30 78 1
36 78 1
38 78 1
118 78 1
120 78 1
198 78 1
199 78 1
30 79 1
31 79 1
37 79 1
39 79 1
113 79 1
119 79 1
199 79 1
200 79 1
31 80 1
32 80 1
38 80 1
40 80 1
114 80 1
120 80 1
193 80 1
200 80 1
41 81 1
46 81 1
49 81 1
53 81 1
73 81 1
76 81 1
201 81 1
202 81 1
42 82 1
47 82 1
50 82 1
54 82 1
74 82 1
77 82 1
202 82 1
203 82 1
43 83 1
48 83 1
51 83 1
55 83 1
75 83 1
78 83 1
203 83 1
204 83 1
41 84 1
44 84 1
52 84 1
56 84 1
76 84 1
79 84 1
204 84 1
205 84 1
42 85 1
45 85 1
49 85 1
53 85 1
77 85 1
80 85 1
205 85 1
206 85 1
43 86 1
46 86 1
50 86 1
54 86 1
73 86 1
78 86 1
206 86 1
207 86 1
44 87 1
47 87 1
51 87 1
55 87 1
74 87 1
79 87 1
207 87 1
208 87 1
45 88 1
48 88 1
52 88 1
56 88 1
75 88 1
80 88 1
201 88 1
208 88 1
41 89 1
47 89 1
57 89 1
61 89 1
81 89 1
84 89 1
209 89 1
210 89 1
42 90 1
48 90 1
58 90 1
62 90 1
82 90 1
85 90 1
210 90 1
211 90 1
41 91 1
43 91 1
59 91 1
63 91 1
83 91 1
86 91 1
211 91 1
212 91 1
42 92 1
44 92 1
60 92 1
64 92 1
84 92 1
87 92 1
212 92 1
213 92 1
43 93 1
45 93 1
57 93 1
61 93 1
85 93 1
88 93 1
213 93 1
214 93 1
44 94 1
46 94 1
58 94 1
62 94 1
81 94 1
86 94 1
214 94 1
215 94 1
45 95 1
47 95 1
59 95 1
63 95 1
82 95 1
87 95 1
215 95 1
216 95 1
46 96 1
48 96 1
60 96 1
64 96 1
83 96 1
88 96 1
209 96 1
216 96 1
41 97 1
48 97 1
65 97 1
69 97 1
89 97 1
92 97 1
217 97 1
218 97 1
41 98 1
42 98 1
66 98 1
70 98 1
90 98 1
93 98 1
218 98 1
219 98 1
42 99 1
43 99 1
67 99 1
71 99 1
91 99 1
94 99 1
219 99 1
220 99 1
43 100 1
44 100 1
68 100 1
72 100 1
92 100 1
95 100 1
220 100 1
221 100 1
44 101 1
45 101 1
65 101 1
69 101 1
93 101 1
96 101 1
221 101 1
222 101 1
45 102 1
46 102 1
66 102 1
70 102 1
89 102 1
94 102 1
222 102 1
223 102 1
46 103 1
47 103 1
67 103 1
71 103 1
90 103 1
95 103 1
223 103 1
224 103 1
47 104 1
48 104 1
68 104 1
72 104 1
91 104 1
96 104 1
217 104 1
224 104 1
49 105 1
55 105 1
57 105 1
62 105 1
97 105 1
100 105 1
225 105 1
226 105 1
50 106 1
56 106 1
58 106 1
63 106 1
98 106 1
101 106 1
226 106 1
227 106 1
49 107 1
51 107 1
59 107 1
64 107 1
99 107 1
102 107 1
227 107 1
228 107 1
50 108 1
52 108 1
57 108 1
60 108 1
100 108 1
103 108 1
228 108 1
229 108 1
51 109 1
53 109 1
58 109 1
61 109 1
101 109 1
104 109 1
229 109 1
230 109 1
52 110 1
54 110 1
59 110 1
62 110 1
97 110 1
102 110 1
230 110 1
231 110 1
53 111 1
55 111 1
60 111 1
63 111 1
98 111 1
103 111 1
231 111 1
232 111 1
54 112 1
56 112 1
61 112 1
64 112 1
99 112 1
104 112 1
225 112 1
232 112 1
49 113 1
56 113 1
65 113 1
70 113 1
105 113 1
108 113 1
233 113 1
234 113 1
49 114 1
50 114 1
66 114 1
71 114 1
106 114 1
109 114 1
234 114 1
235 114 1
50 115 1
51 115 1
67 115 1
72 115 1
107 115 1
110 115 1
235 115 1
236 115 1
51 116 1
52 116 1
65 116 1
68 116 1
108 116 1
111 116 1
236 116 1
237 116 1
52 117 1
53 117 1
66 117 1
69 117 1
109 117 1
112 117 1
237 117 1
238 117 1
53 118 1
54 118 1
67 118 1
70 118 1
105 118 1
110 118 1
238 118 1
239 118 1
54 119 1
55 119 1
68 119 1
71 119 1
106 119 1
111 119 1
239 119 1
240 119 1
55 120 1
56 120 1
69 120 1
72 120 1
107 120 1
112 120 1
233 120 1
240 120 1
57 121 1
64 121 1
65 121 1
71 121 1
113 121 1
116 121 1
241 121 1
242 121 1
57 122 1
58 122 1
66 122 1
72 122 1
114 122 1
117 122 1
242 122 1
243 122 1
58 123 1
59 123 1
65 123 1
67 123 1
115 123 1
118 123 1
243 123 1
244 123 1
59 124 1
60 124 1
66 124 1
68 124 1
116 124 1
119 124 1
244 124 1
245 124 1
60 125 1
61 125 1
67 125 1
69 125 1
117 125 1
120 125 1
245 125 1
246 125 1
61 126 1
62 126 1
68 126 1
70 126 1
113 126 1
118 126 1
246 126 1
247 126 1
62 127 1
63 127 1
69 127 1
71 127 1
114 127 1
119 127 1
247 127 1
248 127 1
63 128 1
64 128 1
70 128 1
72 128 1
115 128 1
120 128 1
241 128 1
248 128 1
73 129 1
79 129 1
81 129 1
86 129 1
97 129 1
101 129 1
249 129 1
250 129 1
74 130 1
80 130 1
82 130 1
87 130 1
98 130 1
102 130 1
250 130 1
251 130 1
73 131 1
75 131 1
83 131 1
88 131 1
99 131 1
103 131 1
251 131 1
252 131 1
74 132 1
76 132 1
81 132 1
84 132 1
100 132 1
104 132 1
252 132 1
253 132 1
75 133 1
77 133 1
82 133 1
85 133 1
97 133 1
101 133 1
253 133 1
254 133 1
76 134 1
78 134 1
83 134 1
86 134 1
98 134 1
102 134 1
254 134 1
255 134 1
77 135 1
79 135 1
84 135 1
87 135 1
99 135 1
103 135 1
255 135 1
256 135 1
78 136 1
80 136 1
85 136 1
88 136 1
100 136 1
104 136 1
249 136 1
256 136 1
73 137 1
80 137 1
89 137 1
94 137 1
105 137 1
109 137 1
257 137 1
258 137 1
73 138 1
74 138 1
90 138 1
95 138 1
106 138 1
110 138 1
258 138 1
259 138 1
74 139 1
75 139 1
91 139 1
96 139 1
107 139 1
111 139 1
259 139 1
260 139 1
75 140 1
76 140 1
89 140 1
92 140 1
108 140 1
112 140 1
260 140 1
261 140 1
76 141 1
77 141 1
90 141 1
93 141 1
105 141 1
109 141 1
261 141 1
262 141 1
77 142 1
78 142 1
91 142 1
94 142 1
106 142 1
110 142 1
262 142 1
263 142 1
78 143 1
79 143 1
92 143 1
95 143 1
107 143 1
111 143 1
263 143 1
264 143 1
79 144 1
80 144 1
93 144 1
96 144 1
108 144 1
112 144 1
257 144 1
264 144 1
81 145 1
88 145 1
89 145 1
95 145 1
113 145 1
117 145 1
265 145 1
266 145 1
81 146 1
82 146 1
90 146 1
96 146 1
114 146 1
118 146 1
266 146 1
267 146 1
82 147 1
83 147 1
89 147 1
91 147 1
115 147 1
119 147 1
267 147 1
268 147 1
83 148 1
84 148 1
90 148 1
92 148 1
116 148 1
120 148 1
268 148 1
269 148 1
84 149 1
85 149 1
91 149 1
93 149 1
113 149 1
117 149 1
269 149 1
270 149 1
85 150 1
86 150 1
92 150 1
94 150 1
114 150 1
118 150 1
270 150 1
271 150 1
86 151 1
87 151 1
93 151 1
95 151 1
115 151 1
119 151 1
271 151 1
272 151 1
87 152 1
88 152 1
94 152 1
96 152 1
116 152 1
120 152 1
265 152 1
272 152 1
97 153 1
104 153 1
105 153 1
111 153 1
113 153 1
118 153 1
273 153 1
274 153 1
97 154 1
98 154 1
106 154 1
112 154 1
114 154 1
119 154 1
274 154 1
275 154 1
98 155 1
99 155 1
105 155 1
107 155 1
115 155 1
120 155 1
275 155 1
276 155 1
99 156 1
100 156 1
106 156 1
108 156 1
113 156 1
116 156 1
276 156 1
277 156 1
100 157 1
101 157 1
107 157 1
109 157 1
114 157 1
117 157 1
277 157 1
278 157 1
101 158 1
102 158 1
108 158 1
110 158 1
115 158 1
118 158 1
278 158 1
279 158 1
102 159 1
103 159 1
109 159 1
111 159 1
116 159 1
119 159 1
279 159 1
280 159 1
103 160 1
104 160 1
110 160 1
112 160 1
117 160 1
120 160 1
273 160 1
280 160 1
121 161 1
126 161 1
129 161 1
133 161 1
153 161 1
156 161 1
201 161 1
203 161 1
122 162 1
127 162 1
130 162 1
134 162 1
154 162 1
157 162 1
202 162 1
204 162 1
123 163 1
128 163 1
131 163 1
135 163 1
155 163 1
158 163 1
203 163 1
205 163 1
121 164 1
124 164 1
132 164 1
136 164 1
156 164 1
159 164 1
204 164 1
206 164 1
122 165 1
125 165 1
129 165 1
133 165 1
157 165 1
160 165 1
205 165 1
207 165 1
123 166 1
126 166 1
130 166 1
134 166 1
153 166 1
158 166 1
206 166 1
208 166 1
124 167 1
127 167 1
131 167 1
135 167 1
154 167 1
159 167 1
201 167 1
207 167 1
125 168 1
128 168 1
132 168 1
136 168 1
155 168 1
160 168 1
202 168 1
208 168 1
121 169 1
127 169 1
137 169 1
141 169 1
161 169 1
164 169 1
209 169 1
211 169 1
122 170 1
128 170 1
138 170 1
142 170 1
162 170 1
165 170 1
210 170 1
212 170 1
121 171 1
123 171 1
139 171 1
143 171 1
163 171 1
166 171 1
211 171 1
213 171 1
122 172 1
124 172 1
140 172 1
144 172 1
164 172 1
167 172 1
212 172 1
214 172 1
123 173 1
125 173 1
137 173 1
141 173 1
165 173 1
168 173 1
213 173 1
215 173 1
124 174 1
126 174 1
138 174 1
142 174 1
161 174 1
166 174 1
214 174 1
216 174 1
125 175 1
127 175 1
139 175 1
143 175 1
162 175 1
167 175 1
209 175 1
215 175 1
126 176 1
128 176 1
140 176 1
144 176 1
163 176 1
168 176 1
210 176 1
216 176 1
121 177 1
128 177 1
145 177 1
149 177 1
169 177 1
172 177 1
217 177 1
219 177 1
121 178 1
122 178 1
146 178 1
150 178 1
170 178 1
173 178 1
218 178 1
220 178 1
122 179 1
123 179 1
147 179 1
151 179 1
171 179 1
174 179 1
219 179 1
221 179 1
123 180 1
124 180 1
148 180 1
152 180 1
172 180 1
175 180 1
220 180 1
222 180 1
124 181 1
125 181 1
145 181 1
149 181 1
173 181 1
176 181 1
221 181 1
223 181 1
125 182 1
126 182 1
146 182 1
150 182 1
169 182 1
174 182 1
222 182 1
224 182 1
126 183 1
127 183 1
147 183 1
151 183 1
170 183 1
175 183 1
217 183 1
223 183 1
127 184 1
128 184 1
148 184 1
152 184 1
171 184 1
176 184 1
218 184 1
224 184 1
129 185 1
135 185 1
137 185 1
142 185 1
177 185 1
180 185 1
225 185 1
227 185 1
130 186 1
136 186 1
138 186 1
143 186 1
178 186 1
181 186 1
226 186 1
228 186 1
129 187 1
131 187 1
139 187 1
144 187 1
179 187 1
182 187 1
227 187 1
229 187 1
130 188 1
132 188 1
137 188 1
140 188 1
180 188 1
183 188 1
228 188 1
230 188 1
131 189 1
133 189 1
138 189 1
141 189 1
181 189 1
184 189 1
229 189 1
231 189 1
132 190 1
134 190 1
139 190 1
142 190 1
177 190 1
182 190 1
230 190 1
232 190 1
133 191 1
135 191 1
140 191 1
143 191 1
178 191 1
183 191 1
225 191 1
231 191 1
134 192 1
136 192 1
141 192 1
144 192 1
179 192 1
184 192 1
226 192 1
232 192 1
129 193 1
136 193 1
145 193 1
150 193 1
185 193 1
188 193 1
233 193 1
235 193 1
129 194 1
130 194 1
146 194 1
151 194 1
186 194 1
189 194 1
234 194 1
236 194 1
130 195 1
131 195 1
147 195 1
152 195 1
187 195 1
190 195 1
235 195 1
237 195 1
131 196 1
132 196 1
145 196 1
148 196 1
188 196 1
191 196 1
236 196 1
238 196 1
132 197 1
133 197 1
146 197 1
149 197 1
189 197 1
192 197 1
237 197 1
239 197 1
133 198 1
134 198 1
147 198 1
150 198 1
185 198 1
190 198 1
238 198 1
240 198 1
134 199 1
135 199 1
148 199 1
151 199 1
186 199 1
191 199 1
233 199 1
239 199 1
135 200 1
136 200 1
149 200 1
152 200 1
187 200 1
192 200 1
234 200 1
240 200 1
137 201 1
144 201 1
145 201 1
151 201 1
193 201 1
196 201 1
241 201 1
243 201 1
137 202 1
138 202 1
146 202 1
152 202 1
194 202 1
197 202 1
242 202 1
244 202 1
138 203 1
139 203 1
145 203 1
147 203 1
195 203 1
198 203 1
243 203 1
245 203 1
139 204 1
140 204 1
146 204 1
148 204 1
196 204 1
199 204 1
244 204 1
246 204 1
140 205 1
141 205 1
147 205 1
149 205 1
197 205 1
200 205 1
245 205 1
247 205 1
141 206 1
142 206 1
148 206 1
150 206 1
193 206 1
198 206 1
246 206 1
248 206 1
142 207 1
143 207 1
149 207 1
151 207 1
194 207 1
199 207 1
241 207 1
247 207 1
143 208 1
144 208 1
150 208 1
152 208 1
195 208 1
200 208 1
242 208 1
248 208 1
153 209 1
159 209 1
161 209 1
166 209 1
177 209 1
181 209 1
249 209 1
251 209 1
154 210 1
160 210 1
162 210 1
167 210 1
178 210 1
182 210 1
250 210 1
252 210 1
153 211 1
155 211 1
163 211 1
168 211 1
179 211 1
183 211 1
251 211 1
253 211 1
154 212 1
156 212 1
161 212 1
164 212 1
180 212 1
184 212 1
252 212 1
254 212 1
155 213 1
157 213 1
162 213 1
165 213 1
177 213 1
181 213 1
253 213 1
255 213 1
156 214 1
158 214 1
163 214 1
166 214 1
178 214 1
182 214 1
254 214 1
256 214 1
157 215 1
159 215 1
164 215 1
167 215 1
179 215 1
183 215 1
249 215 1
255 215 1
158 216 1
160 216 1
165 216 1
168 216 1
180 216 1
184 216 1
250 216 1
256 216 1
153 217 1
160 217 1
169 217 1
174 217 1
185 217 1
189 217 1
257 217 1
259 217 1
153 218 1
154 218 1
170 218 1
175 218 1
186 218 1
190 218 1
258 218 1
260 218 1
154 219 1
155 219 1
171 219 1
176 219 1
187 219 1
191 219 1
259 219 1
261 219 1
155 220 1
156 220 1
169 220 1
172 220 1
188 220 1
192 220 1
260 220 1
262 220 1
156 221 1
157 221 1
170 221 1
173 221 1
185 221 1
189 221 1
261 221 1
263 221 1
157 222 1
158 222 1
171 222 1
174 222 1
186 222 1
190 222 1
262 222 1
264 222 1
158 223 1
159 223 1
172 223 1
175 223 1
187 223 1
191 223 1
257 223 1
263 223 1
159 224 1
160 224 1
173 224 1
176 224 1
188 224 1
192 224 1
258 224 1
264 224 1
161 225 1
168 225 1
169 225 1
175 225 1
193 225 1
197 225 1
265 225 1
267 225 1
161 226 1
162 226 1
170 226 1
176 226 1
194 226 1
198 226 1
266 226 1
268 226 1
162 227 1
163 227 1
169 227 1
171 227 1
195 227 1
199 227 1
267 227 1
269 227 1
163 228 1
164 228 1
170 228 1
172 228 1
196 228 1
200 228 1
268 228 1
270 228 1
164 229 1
165 229 1
171 229 1
173 229 1
193 229 1
197 229 1
269 229 1
271 229 1
165 230 1
166 230 1
172 230 1
174 230 1
194 230 1
198 230 1
270 230 1
272 230 1
166 231 1
167 231 1
173 231 1
175 231 1
195 231 1
199 231 1
265 231 1
271 231 1
167 232 1
168 232 1
174 232 1
176 232 1
196 232 1
200 232 1
266 232 1
272 232 1
177 233 1
184 233 1
185 233 1
191 233 1
193 233 1
198 233 1
273 233 1
275 233 1
177 234 1
178 234 1
186 234 1
192 234 1
194 234 1
199 234 1
274 234 1
276 234 1
178 235 1
179 235 1
185 235 1
187 235 1
195 235 1
200 235 1
275 235 1
277 235 1
179 236 1
180 236 1
186 236 1
188 236 1
193 236 1
196 236 1
276 236 1
278 236 1
180 237 1
181 237 1
187 237 1
189 237 1
194 237 1
197 237 1
277 237 1
279 237 1
181 238 1
182 238 1
188 238 1
190 238 1
195 238 1
198 238 1
278 238 1
280 238 1
182 239 1
183 239 1
189 239 1
191 239 1
196 239 1
199 239 1
273 239 1
279 239 1
183 240 1
184 240 1
190 240 1
192 240 1
197 240 1
200 240 1
274 240 1
280 240 1
201 241 1
207 241 1
209 241 1
214 241 1
225 241 1
229 241 1
249 241 1
252 241 1
202 242 1
208 242 1
210 242 1
215 242 1
226 242 1
230 242 1
250 242 1
253 242 1
201 243 1
203 243 1
211 243 1
216 243 1
227 243 1
231 243 1
251 243 1
254 243 1
202 244 1
204 244 1
209 244 1
212 244 1
228 244 1
232 244 1
252 244 1
255 244 1
203 245 1
205 245 1
210 245 1
213 245 1
225 245 1
229 245 1
253 245 1
256 245 1
204 246 1
206 246 1
211 246 1
214 246 1
226 246 1
230 246 1
249 246 1
254 246 1
205 247 1
207 247 1
212 247 1
215 247 1
227 247 1
231 247 1
250 247 1
255 247 1
206 248 1
208 248 1
213 248 1
216 248 1
228 248 1
232 248 1
251 248 1
256 248 1
201 249 1
208 249 1
217 249 1
222 249 1
233 249 1
237 249 1
257 249 1
260 249 1
201 250 1
202 250 1
218 250 1
223 250 1
234 250 1
238 250 1
258 250 1
261 250 1
202 251 1
203 251 1
219 251 1
224 251 1
235 251 1
239 251 1
259 251 1
262 251 1
203 252 1
204 252 1
217 252 1
220 252 1
236 252 1
240 252 1
260 252 1
263 252 1
204 253 1
205 253 1
218 253 1
221 253 1
233 253 1
237 253 1
261 253 1
264 253 1
205 254 1
206 254 1
219 254 1
222 254 1
234 254 1
238 254 1
257 254 1
262 254 1
206 255 1
207 255 1
220 255 1
223 255 1
235 255 1
239 255 1
258 255 1
263 255 1
207 256 1
208 256 1
221 256 1
224 256 1
236 256 1
240 256 1
259 256 1
264 256 1
209 257 1
216 257 1
217 257 1
223 257 1
241 257 1
245 257 1
265 257 1
268 257 1
209 258 1
210 258 1
218 258 1
224 258 1
242 258 1
246 258 1
266 258 1
269 258 1
210 259 1
211 259 1
217 259 1
219 259 1
243 259 1
247 259 1
267 259 1
270 259 1
211 260 1
212 260 1
218 260 1
220 260 1
244 260 1
248 260 1
268 260 1
271 260 1
212 261 1
213 261 1
219 261 1
221 261 1
241 261 1
245 261 1
269 261 1
272 261 1
213 262 1
214 262 1
220 262 1
222 262 1
242 262 1
246 262 1
265 262 1
270 262 1
214 263 1
215 263 1
221 263 1
223 263 1
243 263 1
247 263 1
266 263 1
271 263 1
215 264 1
216 264 1
222 264 1
224 264 1
244 264 1
248 264 1
267 264 1
272 264 1
225 265 1
232 265 1
233 265 1
239 265 1
241 265 1
246 265 1
273 265 1
276 265 1
225 266 1
226 266 1
234 266 1
240 266 1
242 266 1
247 266 1
274 266 1
277 266 1
226 267 1
227 267 1
233 267 1
235 267 1
243 267 1
248 267 1
275 267 1
278 267 1
227 268 1
228 268 1
234 268 1
236 268 1
241 268 1
244 268 1
276 268 1
279 268 1
228 269 1
229 269 1
235 269 1
237 269 1
242 269 1
245 269 1
277 269 1
280 269 1
229 270 1
230 270 1
236 270 1
238 270 1
243 270 1
246 270 1
273 270 1
278 270 1
230 271 1
231 271 1
237 271 1
239 271 1
244 271 1
247 271 1
274 271 1
279 271 1
231 272 1
232 272 1
238 272 1
240 272 1
245 272 1
248 272 1
275 272 1
280 272 1
249 273 1
256 273 1
257 273 1
263 273 1
265 273 1
270 273 1
273 273 1
277 273 1
249 274 1
250 274 1
258 274 1
264 274 1
266 274 1
271 274 1
274 274 1
278 274 1
250 275 1
251 275 1
257 275 1
259 275 1
267 275 1
272 275 1
275 275 1
279 275 1
251 276 1
252 276 1
258 276 1
260 276 1
265 276 1
268 276 1
276 276 1
280 276 1
252 277 1
253 277 1
259 277 1
261 277 1
266 277 1
269 277 1
273 277 1
277 277 1
253 278 1
254 278 1
260 278 1
262 278 1
267 278 1
270 278 1
274 278 1
278 278 1
254 279 1
255 279 1
261 279 1
263 279 1
268 279 1
271 279 1
275 279 1
279 279 1
255 280 1
256 280 1
262 280 1
264 280 1
269 280 1
272 280 1
276 280 1
280 280 1
