%%MatrixMarket matrix coordinate integer general
% Binary matrix; one-based indices; arithmetic over GF(2)
462 770 4620
1 1 1
9 1 1
23 1 1
29 1 1
45 1 1
48 1 1
2 2 1
10 2 1
24 2 1
30 2 1
46 2 1
49 2 1
3 3 1
11 3 1
25 3 1
31 3 1
47 3 1
50 3 1
4 4 1
12 4 1
26 4 1
32 4 1
48 4 1
51 4 1
5 5 1
13 5 1
27 5 1
33 5 1
49 5 1
52 5 1
6 6 1
14 6 1
28 6 1
34 6 1
50 6 1
53 6 1
7 7 1
15 7 1
29 7 1
35 7 1
51 7 1
54 7 1
8 8 1
16 8 1
30 8 1
36 8 1
52 8 1
55 8 1
9 9 1
17 9 1
31 9 1
37 9 1
53 9 1
56 9 1
10 10 1
18 10 1
32 10 1
38 10 1
54 10 1
57 10 1
11 11 1
19 11 1
33 11 1
39 11 1
55 11 1
58 11 1
12 12 1
20 12 1
34 12 1
40 12 1
56 12 1
59 12 1
13 13 1
21 13 1
35 13 1
41 13 1
57 13 1
60 13 1
14 14 1
22 14 1
36 14 1
42 14 1
58 14 1
61 14 1
1 15 1
15 15 1
37 15 1
43 15 1
59 15 1
62 15 1
2 16 1
16 16 1
38 16 1
44 16 1
60 16 1
63 16 1
3 17 1
17 17 1
23 17 1
39 17 1
61 17 1
64 17 1
4 18 1
18 18 1
24 18 1
40 18 1
62 18 1
65 18 1
5 19 1
19 19 1
25 19 1
41 19 1
63 19 1
66 19 1
6 20 1
20 20 1
26 20 1
42 20 1
45 20 1
64 20 1
7 21 1
21 21 1
27 21 1
43 21 1
46 21 1
65 21 1
8 22 1
22 22 1
28 22 1
44 22 1
47 22 1
66 22 1
1 23 1
11 23 1
67 23 1
73 23 1
89 23 1
92 23 1
2 24 1
12 24 1
68 24 1
74 24 1
90 24 1
93 24 1
3 25 1
13 25 1
69 25 1
75 25 1
91 25 1
94 25 1
4 26 1
14 26 1
70 26 1
76 26 1
92 26 1
95 26 1
5 27 1
15 27 1
71 27 1
77 27 1
93 27 1
96 27 1
6 28 1
16 28 1
72 28 1
78 28 1
94 28 1
97 28 1
7 29 1
17 29 1
73 29 1
79 29 1
95 29 1
98 29 1
8 30 1
18 30 1
74 30 1
80 30 1
96 30 1
99 30 1
9 31 1
19 31 1
75 31 1
81 31 1
97 31 1
100 31 1
10 32 1
20 32 1
76 32 1
82 32 1
98 32 1
101 32 1
11 33 1
21 33 1
77 33 1
83 33 1
99 33 1
102 33 1
12 34 1
22 34 1
78 34 1
84 34 1
100 34 1
103 34 1
1 35 1
13 35 1
79 35 1
85 35 1
101 35 1
104 35 1
2 36 1
14 36 1
80 36 1
86 36 1
102 36 1
105 36 1
3 37 1
15 37 1
81 37 1
87 37 1
103 37 1
106 37 1
4 38 1
16 38 1
82 38 1
88 38 1
104 38 1
107 38 1
5 39 1
17 39 1
67 39 1
83 39 1
105 39 1
108 39 1
6 40 1
18 40 1
68 40 1
84 40 1
106 40 1
109 40 1
7 41 1
19 41 1
69 41 1
85 41 1
107 41 1
110 41 1
8 42 1
20 42 1
70 42 1
86 42 1
89 42 1
108 42 1
9 43 1
21 43 1
71 43 1
87 43 1
90 43 1
109 43 1
10 44 1
22 44 1
72 44 1
88 44 1
91 44 1
110 44 1
23 45 1
33 45 1
67 45 1
75 45 1
111 45 1
114 45 1
24 46 1
34 46 1
68 46 1
76 46 1
112 46 1
115 46 1
25 47 1
35 47 1
69 47 1
77 47 1
113 47 1
116 47 1
26 48 1
36 48 1
70 48 1
78 48 1
114 48 1
117 48 1
27 49 1
37 49 1
71 49 1
79 49 1
115 49 1
118 49 1
28 50 1
38 50 1
72 50 1
80 50 1
116 50 1
119 50 1
29 51 1
39 51 1
73 51 1
81 51 1
117 51 1
120 51 1
30 52 1
40 52 1
74 52 1
82 52 1
118 52 1
121 52 1
31 53 1
41 53 1
75 53 1
83 53 1
119 53 1
122 53 1
32 54 1
42 54 1
76 54 1
84 54 1
120 54 1
123 54 1
33 55 1
43 55 1
77 55 1
85 55 1
121 55 1
124 55 1
34 56 1
44 56 1
78 56 1
86 56 1
122 56 1
125 56 1
23 57 1
35 57 1
79 57 1
87 57 1
123 57 1
126 57 1
24 58 1
36 58 1
80 58 1
88 58 1
124 58 1
127 58 1
25 59 1
37 59 1
67 59 1
81 59 1
125 59 1
128 59 1
26 60 1
38 60 1
68 60 1
82 60 1
126 60 1
129 60 1
27 61 1
39 61 1
69 61 1
83 61 1
127 61 1
130 61 1
28 62 1
40 62 1
70 62 1
84 62 1
128 62 1
131 62 1
29 63 1
41 63 1
71 63 1
85 63 1
129 63 1
132 63 1
30 64 1
42 64 1
72 64 1
86 64 1
111 64 1
130 64 1
31 65 1
43 65 1
73 65 1
87 65 1
112 65 1
131 65 1
32 66 1
44 66 1
74 66 1
88 66 1
113 66 1
132 66 1
45 67 1
55 67 1
89 67 1
97 67 1
111 67 1
117 67 1
46 68 1
56 68 1
90 68 1
98 68 1
112 68 1
118 68 1
47 69 1
57 69 1
91 69 1
99 69 1
113 69 1
119 69 1
48 70 1
58 70 1
92 70 1
100 70 1
114 70 1
120 70 1
49 71 1
59 71 1
93 71 1
101 71 1
115 71 1
121 71 1
50 72 1
60 72 1
94 72 1
102 72 1
116 72 1
122 72 1
51 73 1
61 73 1
95 73 1
103 73 1
117 73 1
123 73 1
52 74 1
62 74 1
96 74 1
104 74 1
118 74 1
124 74 1
53 75 1
63 75 1
97 75 1
105 75 1
119 75 1
125 75 1
54 76 1
64 76 1
98 76 1
106 76 1
120 76 1
126 76 1
55 77 1
65 77 1
99 77 1
107 77 1
121 77 1
127 77 1
56 78 1
66 78 1
100 78 1
108 78 1
122 78 1
128 78 1
45 79 1
57 79 1
101 79 1
109 79 1
123 79 1
129 79 1
46 80 1
58 80 1
102 80 1
110 80 1
124 80 1
130 80 1
47 81 1
59 81 1
89 81 1
103 81 1
125 81 1
131 81 1
48 82 1
60 82 1
90 82 1
104 82 1
126 82 1
132 82 1
49 83 1
61 83 1
91 83 1
105 83 1
111 83 1
127 83 1
50 84 1
62 84 1
92 84 1
106 84 1
112 84 1
128 84 1
51 85 1
63 85 1
93 85 1
107 85 1
113 85 1
129 85 1
52 86 1
64 86 1
94 86 1
108 86 1
114 86 1
130 86 1
53 87 1
65 87 1
95 87 1
109 87 1
115 87 1
131 87 1
54 88 1
66 88 1
96 88 1
110 88 1
116 88 1
132 88 1
1 89 1
16 89 1
133 89 1
139 89 1
155 89 1
158 89 1
2 90 1
17 90 1
134 90 1
140 90 1
156 90 1
159 90 1
3 91 1
18 91 1
135 91 1
141 91 1
157 91 1
160 91 1
4 92 1
19 92 1
136 92 1
142 92 1
158 92 1
161 92 1
5 93 1
20 93 1
137 93 1
143 93 1
159 93 1
162 93 1
6 94 1
21 94 1
138 94 1
144 94 1
160 94 1
163 94 1
7 95 1
22 95 1
139 95 1
145 95 1
161 95 1
164 95 1
1 96 1
8 96 1
140 96 1
146 96 1
162 96 1
165 96 1
2 97 1
9 97 1
141 97 1
147 97 1
163 97 1
166 97 1
3 98 1
10 98 1
142 98 1
148 98 1
164 98 1
167 98 1
4 99 1
11 99 1
143 99 1
149 99 1
165 99 1
168 99 1
5 100 1
12 100 1
144 100 1
150 100 1
166 100 1
169 100 1
6 101 1
13 101 1
145 101 1
151 101 1
167 101 1
170 101 1
7 102 1
14 102 1
146 102 1
152 102 1
168 102 1
171 102 1
8 103 1
15 103 1
147 103 1
153 103 1
169 103 1
172 103 1
9 104 1
16 104 1
148 104 1
154 104 1
170 104 1
173 104 1
10 105 1
17 105 1
133 105 1
149 105 1
171 105 1
174 105 1
11 106 1
18 106 1
134 106 1
150 106 1
172 106 1
175 106 1
12 107 1
19 107 1
135 107 1
151 107 1
173 107 1
176 107 1
13 108 1
20 108 1
136 108 1
152 108 1
155 108 1
174 108 1
14 109 1
21 109 1
137 109 1
153 109 1
156 109 1
175 109 1
15 110 1
22 110 1
138 110 1
154 110 1
157 110 1
176 110 1
23 111 1
38 111 1
133 111 1
141 111 1
177 111 1
180 111 1
24 112 1
39 112 1
134 112 1
142 112 1
178 112 1
181 112 1
25 113 1
40 113 1
135 113 1
143 113 1
179 113 1
182 113 1
26 114 1
41 114 1
136 114 1
144 114 1
180 114 1
183 114 1
27 115 1
42 115 1
137 115 1
145 115 1
181 115 1
184 115 1
28 116 1
43 116 1
138 116 1
146 116 1
182 116 1
185 116 1
29 117 1
44 117 1
139 117 1
147 117 1
183 117 1
186 117 1
23 118 1
30 118 1
140 118 1
148 118 1
184 118 1
187 118 1
24 119 1
31 119 1
141 119 1
149 119 1
185 119 1
188 119 1
25 120 1
32 120 1
142 120 1
150 120 1
186 120 1
189 120 1
26 121 1
33 121 1
143 121 1
151 121 1
187 121 1
190 121 1
27 122 1
34 122 1
144 122 1
152 122 1
188 122 1
191 122 1
28 123 1
35 123 1
145 123 1
153 123 1
189 123 1
192 123 1
29 124 1
36 124 1
146 124 1
154 124 1
190 124 1
193 124 1
30 125 1
37 125 1
133 125 1
147 125 1
191 125 1
194 125 1
31 126 1
38 126 1
134 126 1
148 126 1
192 126 1
195 126 1
32 127 1
39 127 1
135 127 1
149 127 1
193 127 1
196 127 1
33 128 1
40 128 1
136 128 1
150 128 1
194 128 1
197 128 1
34 129 1
41 129 1
137 129 1
151 129 1
195 129 1
198 129 1
35 130 1
42 130 1
138 130 1
152 130 1
177 130 1
196 130 1
36 131 1
43 131 1
139 131 1
153 131 1
178 131 1
197 131 1
37 132 1
44 132 1
140 132 1
154 132 1
179 132 1
198 132 1
45 133 1
60 133 1
155 133 1
163 133 1
177 133 1
183 133 1
46 134 1
61 134 1
156 134 1
164 134 1
178 134 1
184 134 1
47 135 1
62 135 1
157 135 1
165 135 1
179 135 1
185 135 1
48 136 1
63 136 1
158 136 1
166 136 1
180 136 1
186 136 1
49 137 1
64 137 1
159 137 1
167 137 1
181 137 1
187 137 1
50 138 1
65 138 1
160 138 1
168 138 1
182 138 1
188 138 1
51 139 1
66 139 1
161 139 1
169 139 1
183 139 1
189 139 1
45 140 1
52 140 1
162 140 1
170 140 1
184 140 1
190 140 1
46 141 1
53 141 1
163 141 1
171 141 1
185 141 1
191 141 1
47 142 1
54 142 1
164 142 1
172 142 1
186 142 1
192 142 1
48 143 1
55 143 1
165 143 1
173 143 1
187 143 1
193 143 1
49 144 1
56 144 1
166 144 1
174 144 1
188 144 1
194 144 1
50 145 1
57 145 1
167 145 1
175 145 1
189 145 1
195 145 1
51 146 1
58 146 1
168 146 1
176 146 1
190 146 1
196 146 1
52 147 1
59 147 1
155 147 1
169 147 1
191 147 1
197 147 1
53 148 1
60 148 1
156 148 1
170 148 1
192 148 1
198 148 1
54 149 1
61 149 1
157 149 1
171 149 1
177 149 1
193 149 1
55 150 1
62 150 1
158 150 1
172 150 1
178 150 1
194 150 1
56 151 1
63 151 1
159 151 1
173 151 1
179 151 1
195 151 1
57 152 1
64 152 1
160 152 1
174 152 1
180 152 1
196 152 1
58 153 1
65 153 1
161 153 1
175 153 1
181 153 1
197 153 1
59 154 1
66 154 1
162 154 1
176 154 1
182 154 1
198 154 1
67 155 1
82 155 1
133 155 1
143 155 1
199 155 1
202 155 1
68 156 1
83 156 1
134 156 1
144 156 1
200 156 1
203 156 1
69 157 1
84 157 1
135 157 1
145 157 1
201 157 1
204 157 1
70 158 1
85 158 1
136 158 1
146 158 1
202 158 1
205 158 1
71 159 1
86 159 1
137 159 1
147 159 1
203 159 1
206 159 1
72 160 1
87 160 1
138 160 1
148 160 1
204 160 1
207 160 1
73 161 1
88 161 1
139 161 1
149 161 1
205 161 1
208 161 1
67 162 1
74 162 1
140 162 1
150 162 1
206 162 1
209 162 1
68 163 1
75 163 1
141 163 1
151 163 1
207 163 1
210 163 1
69 164 1
76 164 1
142 164 1
152 164 1
208 164 1
211 164 1
70 165 1
77 165 1
143 165 1
153 165 1
209 165 1
212 165 1
71 166 1
78 166 1
144 166 1
154 166 1
210 166 1
213 166 1
72 167 1
79 167 1
133 167 1
145 167 1
211 167 1
214 167 1
73 168 1
80 168 1
134 168 1
146 168 1
212 168 1
215 168 1
74 169 1
81 169 1
135 169 1
147 169 1
213 169 1
216 169 1
75 170 1
82 170 1
136 170 1
148 170 1
214 170 1
217 170 1
76 171 1
83 171 1
137 171 1
149 171 1
215 171 1
218 171 1
77 172 1
84 172 1
138 172 1
150 172 1
216 172 1
219 172 1
78 173 1
85 173 1
139 173 1
151 173 1
217 173 1
220 173 1
79 174 1
86 174 1
140 174 1
152 174 1
199 174 1
218 174 1
80 175 1
87 175 1
141 175 1
153 175 1
200 175 1
219 175 1
81 176 1
88 176 1
142 176 1
154 176 1
201 176 1
220 176 1
89 177 1
104 177 1
155 177 1
165 177 1
199 177 1
205 177 1
90 178 1
105 178 1
156 178 1
166 178 1
200 178 1
206 178 1
91 179 1
106 179 1
157 179 1
167 179 1
201 179 1
207 179 1
92 180 1
107 180 1
158 180 1
168 180 1
202 180 1
208 180 1
93 181 1
108 181 1
159 181 1
169 181 1
203 181 1
209 181 1
94 182 1
109 182 1
160 182 1
170 182 1
204 182 1
210 182 1
95 183 1
110 183 1
161 183 1
171 183 1
205 183 1
211 183 1
89 184 1
96 184 1
162 184 1
172 184 1
206 184 1
212 184 1
90 185 1
97 185 1
163 185 1
173 185 1
207 185 1
213 185 1
91 186 1
98 186 1
164 186 1
174 186 1
208 186 1
214 186 1
92 187 1
99 187 1
165 187 1
175 187 1
209 187 1
215 187 1
93 188 1
100 188 1
166 188 1
176 188 1
210 188 1
216 188 1
94 189 1
101 189 1
155 189 1
167 189 1
211 189 1
217 189 1
95 190 1
102 190 1
156 190 1
168 190 1
212 190 1
218 190 1
96 191 1
103 191 1
157 191 1
169 191 1
213 191 1
219 191 1
97 192 1
104 192 1
158 192 1
170 192 1
214 192 1
220 192 1
98 193 1
105 193 1
159 193 1
171 193 1
199 193 1
215 193 1
99 194 1
106 194 1
160 194 1
172 194 1
200 194 1
216 194 1
100 195 1
107 195 1
161 195 1
173 195 1
201 195 1
217 195 1
101 196 1
108 196 1
162 196 1
174 196 1
202 196 1
218 196 1
102 197 1
109 197 1
163 197 1
175 197 1
203 197 1
219 197 1
103 198 1
110 198 1
164 198 1
176 198 1
204 198 1
220 198 1
111 199 1
126 199 1
177 199 1
187 199 1
199 199 1
207 199 1
112 200 1
127 200 1
178 200 1
188 200 1
200 200 1
208 200 1
113 201 1
128 201 1
179 201 1
189 201 1
201 201 1
209 201 1
114 202 1
129 202 1
180 202 1
190 202 1
202 202 1
210 202 1
115 203 1
130 203 1
181 203 1
191 203 1
203 203 1
211 203 1
116 204 1
131 204 1
182 204 1
192 204 1
204 204 1
212 204 1
117 205 1
132 205 1
183 205 1
193 205 1
205 205 1
213 205 1
111 206 1
118 206 1
184 206 1
194 206 1
206 206 1
214 206 1
112 207 1
119 207 1
185 207 1
195 207 1
207 207 1
215 207 1
113 208 1
120 208 1
186 208 1
196 208 1
208 208 1
216 208 1
114 209 1
121 209 1
187 209 1
197 209 1
209 209 1
217 209 1
115 210 1
122 210 1
188 210 1
198 210 1
210 210 1
218 210 1
116 211 1
123 211 1
177 211 1
189 211 1
211 211 1
219 211 1
117 212 1
124 212 1
178 212 1
190 212 1
212 212 1
220 212 1
118 213 1
125 213 1
179 213 1
191 213 1
199 213 1
213 213 1
119 214 1
126 214 1
180 214 1
192 214 1
200 214 1
214 214 1
120 215 1
127 215 1
181 215 1
193 215 1
201 215 1
215 215 1
121 216 1
128 216 1
182 216 1
194 216 1
202 216 1
216 216 1
122 217 1
129 217 1
183 217 1
195 217 1
203 217 1
217 217 1
123 218 1
130 218 1
184 218 1
196 218 1
204 218 1
218 218 1
124 219 1
131 219 1
185 219 1
197 219 1
205 219 1
219 219 1
125 220 1
132 220 1
186 220 1
198 220 1
206 220 1
220 220 1
1 221 1
18 221 1
221 221 1
227 221 1
243 221 1
246 221 1
2 222 1
19 222 1
222 222 1
228 222 1
244 222 1
247 222 1
3 223 1
20 223 1
223 223 1
229 223 1
245 223 1
248 223 1
4 224 1
21 224 1
224 224 1
230 224 1
246 224 1
249 224 1
5 225 1
22 225 1
225 225 1
231 225 1
247 225 1
250 225 1
1 226 1
6 226 1
226 226 1
232 226 1
248 226 1
251 226 1
2 227 1
7 227 1
227 227 1
233 227 1
249 227 1
252 227 1
3 228 1
8 228 1
228 228 1
234 228 1
250 228 1
253 228 1
4 229 1
9 229 1
229 229 1
235 229 1
251 229 1
254 229 1
5 230 1
10 230 1
230 230 1
236 230 1
252 230 1
255 230 1
6 231 1
11 231 1
231 231 1
237 231 1
253 231 1
256 231 1
7 232 1
12 232 1
232 232 1
238 232 1
254 232 1
257 232 1
8 233 1
13 233 1
233 233 1
239 233 1
255 233 1
258 233 1
9 234 1
14 234 1
234 234 1
240 234 1
256 234 1
259 234 1
10 235 1
15 235 1
235 235 1
241 235 1
257 235 1
260 235 1
11 236 1
16 236 1
236 236 1
242 236 1
258 236 1
261 236 1
12 237 1
17 237 1
221 237 1
237 237 1
259 237 1
262 237 1
13 238 1
18 238 1
222 238 1
238 238 1
260 238 1
263 238 1
14 239 1
19 239 1
223 239 1
239 239 1
261 239 1
264 239 1
15 240 1
20 240 1
224 240 1
240 240 1
243 240 1
262 240 1
16 241 1
21 241 1
225 241 1
241 241 1
244 241 1
263 241 1
17 242 1
22 242 1
226 242 1
242 242 1
245 242 1
264 242 1
23 243 1
40 243 1
221 243 1
229 243 1
265 243 1
268 243 1
24 244 1
41 244 1
222 244 1
230 244 1
266 244 1
269 244 1
25 245 1
42 245 1
223 245 1
231 245 1
267 245 1
270 245 1
26 246 1
43 246 1
224 246 1
232 246 1
268 246 1
271 246 1
27 247 1
44 247 1
225 247 1
233 247 1
269 247 1
272 247 1
23 248 1
28 248 1
226 248 1
234 248 1
270 248 1
273 248 1
24 249 1
29 249 1
227 249 1
235 249 1
271 249 1
274 249 1
25 250 1
30 250 1
228 250 1
236 250 1
272 250 1
275 250 1
26 251 1
31 251 1
229 251 1
237 251 1
273 251 1
276 251 1
27 252 1
32 252 1
230 252 1
238 252 1
274 252 1
277 252 1
28 253 1
33 253 1
231 253 1
239 253 1
275 253 1
278 253 1
29 254 1
34 254 1
232 254 1
240 254 1
276 254 1
279 254 1
30 255 1
35 255 1
233 255 1
241 255 1
277 255 1
280 255 1
31 256 1
36 256 1
234 256 1
242 256 1
278 256 1
281 256 1
32 257 1
37 257 1
221 257 1
235 257 1
279 257 1
282 257 1
33 258 1
38 258 1
222 258 1
236 258 1
280 258 1
283 258 1
34 259 1
39 259 1
223 259 1
237 259 1
281 259 1
284 259 1
35 260 1
40 260 1
224 260 1
238 260 1
282 260 1
285 260 1
36 261 1
41 261 1
225 261 1
239 261 1
283 261 1
286 261 1
37 262 1
42 262 1
226 262 1
240 262 1
265 262 1
284 262 1
38 263 1
43 263 1
227 263 1
241 263 1
266 263 1
285 263 1
39 264 1
44 264 1
228 264 1
242 264 1
267 264 1
286 264 1
45 265 1
62 265 1
243 265 1
251 265 1
265 265 1
271 265 1
46 266 1
63 266 1
244 266 1
252 266 1
266 266 1
272 266 1
47 267 1
64 267 1
245 267 1
253 267 1
267 267 1
273 267 1
48 268 1
65 268 1
246 268 1
254 268 1
268 268 1
274 268 1
49 269 1
66 269 1
247 269 1
255 269 1
269 269 1
275 269 1
45 270 1
50 270 1
248 270 1
256 270 1
270 270 1
276 270 1
46 271 1
51 271 1
249 271 1
257 271 1
271 271 1
277 271 1
47 272 1
52 272 1
250 272 1
258 272 1
272 272 1
278 272 1
48 273 1
53 273 1
251 273 1
259 273 1
273 273 1
279 273 1
49 274 1
54 274 1
252 274 1
260 274 1
274 274 1
280 274 1
50 275 1
55 275 1
253 275 1
261 275 1
275 275 1
281 275 1
51 276 1
56 276 1
254 276 1
262 276 1
276 276 1
282 276 1
52 277 1
57 277 1
255 277 1
263 277 1
277 277 1
283 277 1
53 278 1
58 278 1
256 278 1
264 278 1
278 278 1
284 278 1
54 279 1
59 279 1
243 279 1
257 279 1
279 279 1
285 279 1
55 280 1
60 280 1
244 280 1
258 280 1
280 280 1
286 280 1
56 281 1
61 281 1
245 281 1
259 281 1
265 281 1
281 281 1
57 282 1
62 282 1
246 282 1
260 282 1
266 282 1
282 282 1
58 283 1
63 283 1
247 283 1
261 283 1
267 283 1
283 283 1
59 284 1
64 284 1
248 284 1
262 284 1
268 284 1
284 284 1
60 285 1
65 285 1
249 285 1
263 285 1
269 285 1
285 285 1
61 286 1
66 286 1
250 286 1
264 286 1
270 286 1
286 286 1
67 287 1
84 287 1
221 287 1
231 287 1
287 287 1
290 287 1
68 288 1
85 288 1
222 288 1
232 288 1
288 288 1
291 288 1
69 289 1
86 289 1
223 289 1
233 289 1
289 289 1
292 289 1
70 290 1
87 290 1
224 290 1
234 290 1
290 290 1
293 290 1
71 291 1
88 291 1
225 291 1
235 291 1
291 291 1
294 291 1
67 292 1
72 292 1
226 292 1
236 292 1
292 292 1
295 292 1
68 293 1
73 293 1
227 293 1
237 293 1
293 293 1
296 293 1
69 294 1
74 294 1
228 294 1
238 294 1
294 294 1
297 294 1
70 295 1
75 295 1
229 295 1
239 295 1
295 295 1
298 295 1
71 296 1
76 296 1
230 296 1
240 296 1
296 296 1
299 296 1
72 297 1
77 297 1
231 297 1
241 297 1
297 297 1
300 297 1
73 298 1
78 298 1
232 298 1
242 298 1
298 298 1
301 298 1
74 299 1
79 299 1
221 299 1
233 299 1
299 299 1
302 299 1
75 300 1
80 300 1
222 300 1
234 300 1
300 300 1
303 300 1
76 301 1
81 301 1
223 301 1
235 301 1
301 301 1
304 301 1
77 302 1
82 302 1
224 302 1
236 302 1
302 302 1
305 302 1
78 303 1
83 303 1
225 303 1
237 303 1
303 303 1
306 303 1
79 304 1
84 304 1
226 304 1
238 304 1
304 304 1
307 304 1
80 305 1
85 305 1
227 305 1
239 305 1
305 305 1
308 305 1
81 306 1
86 306 1
228 306 1
240 306 1
287 306 1
306 306 1
82 307 1
87 307 1
229 307 1
241 307 1
288 307 1
307 307 1
83 308 1
88 308 1
230 308 1
242 308 1
289 308 1
308 308 1
89 309 1
106 309 1
243 309 1
253 309 1
287 309 1
293 309 1
90 310 1
107 310 1
244 310 1
254 310 1
288 310 1
294 310 1
91 311 1
108 311 1
245 311 1
255 311 1
289 311 1
295 311 1
92 312 1
109 312 1
246 312 1
256 312 1
290 312 1
296 312 1
93 313 1
110 313 1
247 313 1
257 313 1
291 313 1
297 313 1
89 314 1
94 314 1
248 314 1
258 314 1
292 314 1
298 314 1
90 315 1
95 315 1
249 315 1
259 315 1
293 315 1
299 315 1
91 316 1
96 316 1
250 316 1
260 316 1
294 316 1
300 316 1
92 317 1
97 317 1
251 317 1
261 317 1
295 317 1
301 317 1
93 318 1
98 318 1
252 318 1
262 318 1
296 318 1
302 318 1
94 319 1
99 319 1
253 319 1
263 319 1
297 319 1
303 319 1
95 320 1
100 320 1
254 320 1
264 320 1
298 320 1
304 320 1
96 321 1
101 321 1
243 321 1
255 321 1
299 321 1
305 321 1
97 322 1
102 322 1
244 322 1
256 322 1
300 322 1
306 322 1
98 323 1
103 323 1
245 323 1
257 323 1
301 323 1
307 323 1
99 324 1
104 324 1
246 324 1
258 324 1
302 324 1
308 324 1
100 325 1
105 325 1
247 325 1
259 325 1
287 325 1
303 325 1
101 326 1
106 326 1
248 326 1
260 326 1
288 326 1
304 326 1
102 327 1
107 327 1
249 327 1
261 327 1
289 327 1
305 327 1
103 328 1
108 328 1
250 328 1
262 328 1
290 328 1
306 328 1
104 329 1
109 329 1
251 329 1
263 329 1
291 329 1
307 329 1
105 330 1
110 330 1
252 330 1
264 330 1
292 330 1
308 330 1
111 331 1
128 331 1
265 331 1
275 331 1
287 331 1
295 331 1
112 332 1
129 332 1
266 332 1
276 332 1
288 332 1
296 332 1
113 333 1
130 333 1
267 333 1
277 333 1
289 333 1
297 333 1
114 334 1
131 334 1
268 334 1
278 334 1
290 334 1
298 334 1
115 335 1
132 335 1
269 335 1
279 335 1
291 335 1
299 335 1
111 336 1
116 336 1
270 336 1
280 336 1
292 336 1
300 336 1
112 337 1
117 337 1
271 337 1
281 337 1
293 337 1
301 337 1
113 338 1
118 338 1
272 338 1
282 338 1
294 338 1
302 338 1
114 339 1
119 339 1
273 339 1
283 339 1
295 339 1
303 339 1
115 340 1
120 340 1
274 340 1
284 340 1
296 340 1
304 340 1
116 341 1
121 341 1
275 341 1
285 341 1
297 341 1
305 341 1
117 342 1
122 342 1
276 342 1
286 342 1
298 342 1
306 342 1
118 343 1
123 343 1
265 343 1
277 343 1
299 343 1
307 343 1
119 344 1
124 344 1
266 344 1
278 344 1
300 344 1
308 344 1
120 345 1
125 345 1
267 345 1
279 345 1
287 345 1
301 345 1
121 346 1
126 346 1
268 346 1
280 346 1
288 346 1
302 346 1
122 347 1
127 347 1
269 347 1
281 347 1
289 347 1
303 347 1
123 348 1
128 348 1
270 348 1
282 348 1
290 348 1
304 348 1
124 349 1
129 349 1
271 349 1
283 349 1
291 349 1
305 349 1
125 350 1
130 350 1
272 350 1
284 350 1
292 350 1
306 350 1
126 351 1
131 351 1
273 351 1
285 351 1
293 351 1
307 351 1
127 352 1
132 352 1
274 352 1
286 352 1
294 352 1
308 352 1
133 353 1
150 353 1
221 353 1
236 353 1
309 353 1
312 353 1
134 354 1
151 354 1
222 354 1
237 354 1
310 354 1
313 354 1
135 355 1
152 355 1
223 355 1
238 355 1
311 355 1
314 355 1
136 356 1
153 356 1
224 356 1
239 356 1
312 356 1
315 356 1
137 357 1
154 357 1
225 357 1
240 357 1
313 357 1
316 357 1
133 358 1
138 358 1
226 358 1
241 358 1
314 358 1
317 358 1
134 359 1
139 359 1
227 359 1
242 359 1
315 359 1
318 359 1
135 360 1
140 360 1
221 360 1
228 360 1
316 360 1
319 360 1
136 361 1
141 361 1
222 361 1
229 361 1
317 361 1
320 361 1
137 362 1
142 362 1
223 362 1
230 362 1
318 362 1
321 362 1
138 363 1
143 363 1
224 363 1
231 363 1
319 363 1
322 363 1
139 364 1
144 364 1
225 364 1
232 364 1
320 364 1
323 364 1
140 365 1
145 365 1
226 365 1
233 365 1
321 365 1
324 365 1
141 366 1
146 366 1
227 366 1
234 366 1
322 366 1
325 366 1
142 367 1
147 367 1
228 367 1
235 367 1
323 367 1
326 367 1
143 368 1
148 368 1
229 368 1
236 368 1
324 368 1
327 368 1
144 369 1
149 369 1
230 369 1
237 369 1
325 369 1
328 369 1
145 370 1
150 370 1
231 370 1
238 370 1
326 370 1
329 370 1
146 371 1
151 371 1
232 371 1
239 371 1
327 371 1
330 371 1
147 372 1
152 372 1
233 372 1
240 372 1
309 372 1
328 372 1
148 373 1
153 373 1
234 373 1
241 373 1
310 373 1
329 373 1
149 374 1
154 374 1
235 374 1
242 374 1
311 374 1
330 374 1
155 375 1
172 375 1
243 375 1
258 375 1
309 375 1
315 375 1
156 376 1
173 376 1
244 376 1
259 376 1
310 376 1
316 376 1
157 377 1
174 377 1
245 377 1
260 377 1
311 377 1
317 377 1
158 378 1
175 378 1
246 378 1
261 378 1
312 378 1
318 378 1
159 379 1
176 379 1
247 379 1
262 379 1
313 379 1
319 379 1
155 380 1
160 380 1
248 380 1
263 380 1
314 380 1
320 380 1
156 381 1
161 381 1
249 381 1
264 381 1
315 381 1
321 381 1
157 382 1
162 382 1
243 382 1
250 382 1
316 382 1
322 382 1
158 383 1
163 383 1
244 383 1
251 383 1
317 383 1
323 383 1
159 384 1
164 384 1
245 384 1
252 384 1
318 384 1
324 384 1
160 385 1
165 385 1
246 385 1
253 385 1
319 385 1
325 385 1
161 386 1
166 386 1
247 386 1
254 386 1
320 386 1
326 386 1
162 387 1
167 387 1
248 387 1
255 387 1
321 387 1
327 387 1
163 388 1
168 388 1
249 388 1
256 388 1
322 388 1
328 388 1
164 389 1
169 389 1
250 389 1
257 389 1
323 389 1
329 389 1
165 390 1
170 390 1
251 390 1
258 390 1
324 390 1
330 390 1
166 391 1
171 391 1
252 391 1
259 391 1
309 391 1
325 391 1
167 392 1
172 392 1
253 392 1
260 392 1
310 392 1
326 392 1
168 393 1
173 393 1
254 393 1
261 393 1
311 393 1
327 393 1
169 394 1
174 394 1
255 394 1
262 394 1
312 394 1
328 394 1
170 395 1
175 395 1
256 395 1
263 395 1
313 395 1
329 395 1
171 396 1
176 396 1
257 396 1
264 396 1
314 396 1
330 396 1
177 397 1
194 397 1
265 397 1
280 397 1
309 397 1
317 397 1
178 398 1
195 398 1
266 398 1
281 398 1
310 398 1
318 398 1
179 399 1
196 399 1
267 399 1
282 399 1
311 399 1
319 399 1
180 400 1
197 400 1
268 400 1
283 400 1
312 400 1
320 400 1
181 401 1
198 401 1
269 401 1
284 401 1
313 401 1
321 401 1
177 402 1
182 402 1
270 402 1
285 402 1
314 402 1
322 402 1
178 403 1
183 403 1
271 403 1
286 403 1
315 403 1
323 403 1
179 404 1
184 404 1
265 404 1
272 404 1
316 404 1
324 404 1
180 405 1
185 405 1
266 405 1
273 405 1
317 405 1
325 405 1
181 406 1
186 406 1
267 406 1
274 406 1
318 406 1
326 406 1
182 407 1
187 407 1
268 407 1
275 407 1
319 407 1
327 407 1
183 408 1
188 408 1
269 408 1
276 408 1
320 408 1
328 408 1
184 409 1
189 409 1
270 409 1
277 409 1
321 409 1
329 409 1
185 410 1
190 410 1
271 410 1
278 410 1
322 410 1
330 410 1
186 411 1
191 411 1
272 411 1
279 411 1
309 411 1
323 411 1
187 412 1
192 412 1
273 412 1
280 412 1
310 412 1
324 412 1
188 413 1
193 413 1
274 413 1
281 413 1
311 413 1
325 413 1
189 414 1
194 414 1
275 414 1
282 414 1
312 414 1
326 414 1
190 415 1
195 415 1
276 415 1
283 415 1
313 415 1
327 415 1
191 416 1
196 416 1
277 416 1
284 416 1
314 416 1
328 416 1
192 417 1
197 417 1
278 417 1
285 417 1
315 417 1
329 417 1
193 418 1
198 418 1
279 418 1
286 418 1
316 418 1
330 418 1
199 419 1
216 419 1
287 419 1
302 419 1
309 419 1
319 419 1
200 420 1
217 420 1
288 420 1
303 420 1
310 420 1
320 420 1
201 421 1
218 421 1
289 421 1
304 421 1
311 421 1
321 421 1
202 422 1
219 422 1
290 422 1
305 422 1
312 422 1
322 422 1
203 423 1
220 423 1
291 423 1
306 423 1
313 423 1
323 423 1
199 424 1
204 424 1
292 424 1
307 424 1
314 424 1
324 424 1
200 425 1
205 425 1
293 425 1
308 425 1
315 425 1
325 425 1
201 426 1
206 426 1
287 426 1
294 426 1
316 426 1
326 426 1
202 427 1
207 427 1
288 427 1
295 427 1
317 427 1
327 427 1
203 428 1
208 428 1
289 428 1
296 428 1
318 428 1
328 428 1
204 429 1
209 429 1
290 429 1
297 429 1
319 429 1
329 429 1
205 430 1
210 430 1
291 430 1
298 430 1
320 430 1
330 430 1
206 431 1
211 431 1
292 431 1
299 431 1
309 431 1
321 431 1
207 432 1
212 432 1
293 432 1
300 432 1
310 432 1
322 432 1
208 433 1
213 433 1
294 433 1
301 433 1
311 433 1
323 433 1
209 434 1
214 434 1
295 434 1
302 434 1
312 434 1
324 434 1
210 435 1
215 435 1
296 435 1
303 435 1
313 435 1
325 435 1
211 436 1
216 436 1
297 436 1
304 436 1
314 436 1
326 436 1
212 437 1
217 437 1
298 437 1
305 437 1
315 437 1
327 437 1
213 438 1
218 438 1
299 438 1
306 438 1
316 438 1
328 438 1
214 439 1
219 439 1
300 439 1
307 439 1
317 439 1
329 439 1
215 440 1
220 440 1
301 440 1
308 440 1
318 440 1
330 440 1
1 441 1
22 441 1
331 441 1
337 441 1
353 441 1
356 441 1
1 442 1
2 442 1
332 442 1
338 442 1
354 442 1
357 442 1
2 443 1
3 443 1
333 443 1
339 443 1
355 443 1
358 443 1
3 444 1
4 444 1
334 444 1
340 444 1
356 444 1
359 444 1
4 445 1
5 445 1
335 445 1
341 445 1
357 445 1
360 445 1
5 446 1
6 446 1
336 446 1
342 446 1
358 446 1
361 446 1
6 447 1
7 447 1
337 447 1
343 447 1
359 447 1
362 447 1
7 448 1
8 448 1
338 448 1
344 448 1
360 448 1
363 448 1
8 449 1
9 449 1
339 449 1
345 449 1
361 449 1
364 449 1
9 450 1
10 450 1
340 450 1
346 450 1
362 450 1
365 450 1
10 451 1
11 451 1
341 451 1
347 451 1
363 451 1
366 451 1
11 452 1
12 452 1
342 452 1
348 452 1
364 452 1
367 452 1
12 453 1
13 453 1
343 453 1
349 453 1
365 453 1
368 453 1
13 454 1
14 454 1
344 454 1
350 454 1
366 454 1
369 454 1
14 455 1
15 455 1
345 455 1
351 455 1
367 455 1
370 455 1
15 456 1
16 456 1
346 456 1
352 456 1
368 456 1
371 456 1
16 457 1
17 457 1
331 457 1
347 457 1
369 457 1
372 457 1
17 458 1
18 458 1
332 458 1
348 458 1
370 458 1
373 458 1
18 459 1
19 459 1
333 459 1
349 459 1
371 459 1
374 459 1
19 460 1
20 460 1
334 460 1
350 460 1
353 460 1
372 460 1
20 461 1
21 461 1
335 461 1
351 461 1
354 461 1
373 461 1
21 462 1
22 462 1
336 462 1
352 462 1
355 462 1
374 462 1
23 463 1
44 463 1
331 463 1
339 463 1
375 463 1
378 463 1
23 464 1
24 464 1
332 464 1
340 464 1
376 464 1
379 464 1
24 465 1
25 465 1
333 465 1
341 465 1
377 465 1
380 465 1
25 466 1
26 466 1
334 466 1
342 466 1
378 466 1
381 466 1
26 467 1
27 467 1
335 467 1
343 467 1
379 467 1
382 467 1
27 468 1
28 468 1
336 468 1
344 468 1
380 468 1
383 468 1
28 469 1
29 469 1
337 469 1
345 469 1
381 469 1
384 469 1
29 470 1
30 470 1
338 470 1
346 470 1
382 470 1
385 470 1
30 471 1
31 471 1
339 471 1
347 471 1
383 471 1
386 471 1
31 472 1
32 472 1
340 472 1
348 472 1
384 472 1
387 472 1
32 473 1
33 473 1
341 473 1
349 473 1
385 473 1
388 473 1
33 474 1
34 474 1
342 474 1
350 474 1
386 474 1
389 474 1
34 475 1
35 475 1
343 475 1
351 475 1
387 475 1
390 475 1
35 476 1
36 476 1
344 476 1
352 476 1
388 476 1
391 476 1
36 477 1
37 477 1
331 477 1
345 477 1
389 477 1
392 477 1
37 478 1
38 478 1
332 478 1
346 478 1
390 478 1
393 478 1
38 479 1
39 479 1
333 479 1
347 479 1
391 479 1
394 479 1
39 480 1
40 480 1
334 480 1
348 480 1
392 480 1
395 480 1
40 481 1
41 481 1
335 481 1
349 481 1
393 481 1
396 481 1
41 482 1
42 482 1
336 482 1
350 482 1
375 482 1
394 482 1
42 483 1
43 483 1
337 483 1
351 483 1
376 483 1
395 483 1
43 484 1
44 484 1
338 484 1
352 484 1
377 484 1
396 484 1
45 485 1
66 485 1
353 485 1
361 485 1
375 485 1
381 485 1
45 486 1
46 486 1
354 486 1
362 486 1
376 486 1
382 486 1
46 487 1
47 487 1
355 487 1
363 487 1
377 487 1
383 487 1
47 488 1
48 488 1
356 488 1
364 488 1
378 488 1
384 488 1
48 489 1
49 489 1
357 489 1
365 489 1
379 489 1
385 489 1
49 490 1
50 490 1
358 490 1
366 490 1
380 490 1
386 490 1
50 491 1
51 491 1
359 491 1
367 491 1
381 491 1
387 491 1
51 492 1
52 492 1
360 492 1
368 492 1
382 492 1
388 492 1
52 493 1
53 493 1
361 493 1
369 493 1
383 493 1
389 493 1
53 494 1
54 494 1
362 494 1
370 494 1
384 494 1
390 494 1
54 495 1
55 495 1
363 495 1
371 495 1
385 495 1
391 495 1
55 496 1
56 496 1
364 496 1
372 496 1
386 496 1
392 496 1
56 497 1
57 497 1
365 497 1
373 497 1
387 497 1
393 497 1
57 498 1
58 498 1
366 498 1
374 498 1
388 498 1
394 498 1
58 499 1
59 499 1
353 499 1
367 499 1
389 499 1
395 499 1
59 500 1
60 500 1
354 500 1
368 500 1
390 500 1
396 500 1
60 501 1
61 501 1
355 501 1
369 501 1
375 501 1
391 501 1
61 502 1
62 502 1
356 502 1
370 502 1
376 502 1
392 502 1
62 503 1
63 503 1
357 503 1
371 503 1
377 503 1
393 503 1
63 504 1
64 504 1
358 504 1
372 504 1
378 504 1
394 504 1
64 505 1
65 505 1
359 505 1
373 505 1
379 505 1
395 505 1
65 506 1
66 506 1
360 506 1
374 506 1
380 506 1
396 506 1
67 507 1
88 507 1
331 507 1
341 507 1
397 507 1
400 507 1
67 508 1
68 508 1
332 508 1
342 508 1
398 508 1
401 508 1
68 509 1
69 509 1
333 509 1
343 509 1
399 509 1
402 509 1
69 510 1
70 510 1
334 510 1
344 510 1
400 510 1
403 510 1
70 511 1
71 511 1
335 511 1
345 511 1
401 511 1
404 511 1
71 512 1
72 512 1
336 512 1
346 512 1
402 512 1
405 512 1
72 513 1
73 513 1
337 513 1
347 513 1
403 513 1
406 513 1
73 514 1
74 514 1
338 514 1
348 514 1
404 514 1
407 514 1
74 515 1
75 515 1
339 515 1
349 515 1
405 515 1
408 515 1
75 516 1
76 516 1
340 516 1
350 516 1
406 516 1
409 516 1
76 517 1
77 517 1
341 517 1
351 517 1
407 517 1
410 517 1
77 518 1
78 518 1
342 518 1
352 518 1
408 518 1
411 518 1
78 519 1
79 519 1
331 519 1
343 519 1
409 519 1
412 519 1
79 520 1
80 520 1
332 520 1
344 520 1
410 520 1
413 520 1
80 521 1
81 521 1
333 521 1
345 521 1
411 521 1
414 521 1
81 522 1
82 522 1
334 522 1
346 522 1
412 522 1
415 522 1
82 523 1
83 523 1
335 523 1
347 523 1
413 523 1
416 523 1
83 524 1
84 524 1
336 524 1
348 524 1
414 524 1
417 524 1
84 525 1
85 525 1
337 525 1
349 525 1
415 525 1
418 525 1
85 526 1
86 526 1
338 526 1
350 526 1
397 526 1
416 526 1
86 527 1
87 527 1
339 527 1
351 527 1
398 527 1
417 527 1
87 528 1
88 528 1
340 528 1
352 528 1
399 528 1
418 528 1
89 529 1
110 529 1
353 529 1
363 529 1
397 529 1
403 529 1
89 530 1
90 530 1
354 530 1
364 530 1
398 530 1
404 530 1
90 531 1
91 531 1
355 531 1
365 531 1
399 531 1
405 531 1
91 532 1
92 532 1
356 532 1
366 532 1
400 532 1
406 532 1
92 533 1
93 533 1
357 533 1
367 533 1
401 533 1
407 533 1
93 534 1
94 534 1
358 534 1
368 534 1
402 534 1
408 534 1
94 535 1
95 535 1
359 535 1
369 535 1
403 535 1
409 535 1
95 536 1
96 536 1
360 536 1
370 536 1
404 536 1
410 536 1
96 537 1
97 537 1
361 537 1
371 537 1
405 537 1
411 537 1
97 538 1
98 538 1
362 538 1
372 538 1
406 538 1
412 538 1
98 539 1
99 539 1
363 539 1
373 539 1
407 539 1
413 539 1
99 540 1
100 540 1
364 540 1
374 540 1
408 540 1
414 540 1
100 541 1
101 541 1
353 541 1
365 541 1
409 541 1
415 541 1
101 542 1
102 542 1
354 542 1
366 542 1
410 542 1
416 542 1
102 543 1
103 543 1
355 543 1
367 543 1
411 543 1
417 543 1
103 544 1
104 544 1
356 544 1
368 544 1
412 544 1
418 544 1
104 545 1
105 545 1
357 545 1
369 545 1
397 545 1
413 545 1
105 546 1
106 546 1
358 546 1
370 546 1
398 546 1
414 546 1
106 547 1
107 547 1
359 547 1
371 547 1
399 547 1
415 547 1
107 548 1
108 548 1
360 548 1
372 548 1
400 548 1
416 548 1
108 549 1
109 549 1
361 549 1
373 549 1
401 549 1
417 549 1
109 550 1
110 550 1
362 550 1
374 550 1
402 550 1
418 550 1
111 551 1
132 551 1
375 551 1
385 551 1
397 551 1
405 551 1
111 552 1
112 552 1
376 552 1
386 552 1
398 552 1
406 552 1
112 553 1
113 553 1
377 553 1
387 553 1
399 553 1
407 553 1
113 554 1
114 554 1
378 554 1
388 554 1
400 554 1
408 554 1
114 555 1
115 555 1
379 555 1
389 555 1
401 555 1
409 555 1
115 556 1
116 556 1
380 556 1
390 556 1
402 556 1
410 556 1
116 557 1
117 557 1
381 557 1
391 557 1
403 557 1
411 557 1
117 558 1
118 558 1
382 558 1
392 558 1
404 558 1
412 558 1
118 559 1
119 559 1
383 559 1
393 559 1
405 559 1
413 559 1
119 560 1
120 560 1
384 560 1
394 560 1
406 560 1
414 560 1
120 561 1
121 561 1
385 561 1
395 561 1
407 561 1
415 561 1
121 562 1
122 562 1
386 562 1
396 562 1
408 562 1
416 562 1
122 563 1
123 563 1
375 563 1
387 563 1
409 563 1
417 563 1
123 564 1
124 564 1
376 564 1
388 564 1
410 564 1
418 564 1
124 565 1
125 565 1
377 565 1
389 565 1
397 565 1
411 565 1
125 566 1
126 566 1
378 566 1
390 566 1
398 566 1
412 566 1
126 567 1
127 567 1
379 567 1
391 567 1
399 567 1
413 567 1
127 568 1
128 568 1
380 568 1
392 568 1
400 568 1
414 568 1
128 569 1
129 569 1
381 569 1
393 569 1
401 569 1
415 569 1
129 570 1
130 570 1
382 570 1
394 570 1
402 570 1
416 570 1
130 571 1
131 571 1
383 571 1
395 571 1
403 571 1
417 571 1
131 572 1
132 572 1
384 572 1
396 572 1
404 572 1
418 572 1
133 573 1
154 573 1
331 573 1
346 573 1
419 573 1
422 573 1
133 574 1
134 574 1
332 574 1
347 574 1
420 574 1
423 574 1
134 575 1
135 575 1
333 575 1
348 575 1
421 575 1
424 575 1
135 576 1
136 576 1
334 576 1
349 576 1
422 576 1
425 576 1
136 577 1
137 577 1
335 577 1
350 577 1
423 577 1
426 577 1
137 578 1
138 578 1
336 578 1
351 578 1
424 578 1
427 578 1
138 579 1
139 579 1
337 579 1
352 579 1
425 579 1
428 579 1
139 580 1
140 580 1
331 580 1
338 580 1
426 580 1
429 580 1
140 581 1
141 581 1
332 581 1
339 581 1
427 581 1
430 581 1
141 582 1
142 582 1
333 582 1
340 582 1
428 582 1
431 582 1
142 583 1
143 583 1
334 583 1
341 583 1
429 583 1
432 583 1
143 584 1
144 584 1
335 584 1
342 584 1
430 584 1
433 584 1
144 585 1
145 585 1
336 585 1
343 585 1
431 585 1
434 585 1
145 586 1
146 586 1
337 586 1
344 586 1
432 586 1
435 586 1
146 587 1
147 587 1
338 587 1
345 587 1
433 587 1
436 587 1
147 588 1
148 588 1
339 588 1
346 588 1
434 588 1
437 588 1
148 589 1
149 589 1
340 589 1
347 589 1
435 589 1
438 589 1
149 590 1
150 590 1
341 590 1
348 590 1
436 590 1
439 590 1
150 591 1
151 591 1
342 591 1
349 591 1
437 591 1
440 591 1
151 592 1
152 592 1
343 592 1
350 592 1
419 592 1
438 592 1
152 593 1
153 593 1
344 593 1
351 593 1
420 593 1
439 593 1
153 594 1
154 594 1
345 594 1
352 594 1
421 594 1
440 594 1
155 595 1
176 595 1
353 595 1
368 595 1
419 595 1
425 595 1
155 596 1
156 596 1
354 596 1
369 596 1
420 596 1
426 596 1
156 597 1
157 597 1
355 597 1
370 597 1
421 597 1
427 597 1
157 598 1
158 598 1
356 598 1
371 598 1
422 598 1
428 598 1
158 599 1
159 599 1
357 599 1
372 599 1
423 599 1
429 599 1
159 600 1
160 600 1
358 600 1
373 600 1
424 600 1
430 600 1
160 601 1
161 601 1
359 601 1
374 601 1
425 601 1
431 601 1
161 602 1
162 602 1
353 602 1
360 602 1
426 602 1
432 602 1
162 603 1
163 603 1
354 603 1
361 603 1
427 603 1
433 603 1
163 604 1
164 604 1
355 604 1
362 604 1
428 604 1
434 604 1
164 605 1
165 605 1
356 605 1
363 605 1
429 605 1
435 605 1
165 606 1
166 606 1
357 606 1
364 606 1
430 606 1
436 606 1
166 607 1
167 607 1
358 607 1
365 607 1
431 607 1
437 607 1
167 608 1
168 608 1
359 608 1
366 608 1
432 608 1
438 608 1
168 609 1
169 609 1
360 609 1
367 609 1
433 609 1
439 609 1
169 610 1
170 610 1
361 610 1
368 610 1
434 610 1
440 610 1
170 611 1
171 611 1
362 611 1
369 611 1
419 611 1
435 611 1
171 612 1
172 612 1
363 612 1
370 612 1
420 612 1
436 612 1
172 613 1
173 613 1
364 613 1
371 613 1
421 613 1
437 613 1
173 614 1
174 614 1
365 614 1
372 614 1
422 614 1
438 614 1
174 615 1
175 615 1
366 615 1
373 615 1
423 615 1
439 615 1
175 616 1
176 616 1
367 616 1
374 616 1
424 616 1
440 616 1
177 617 1
198 617 1
375 617 1
390 617 1
419 617 1
427 617 1
177 618 1
178 618 1
376 618 1
391 618 1
420 618 1
428 618 1
178 619 1
179 619 1
377 619 1
392 619 1
421 619 1
429 619 1
179 620 1
180 620 1
378 620 1
393 620 1
422 620 1
430 620 1
180 621 1
181 621 1
379 621 1
394 621 1
423 621 1
431 621 1
181 622 1
182 622 1
380 622 1
395 622 1
424 622 1
432 622 1
182 623 1
183 623 1
381 623 1
396 623 1
425 623 1
433 623 1
183 624 1
184 624 1
375 624 1
382 624 1
426 624 1
434 624 1
184 625 1
185 625 1
376 625 1
383 625 1
427 625 1
435 625 1
185 626 1
186 626 1
377 626 1
384 626 1
428 626 1
436 626 1
186 627 1
187 627 1
378 627 1
385 627 1
429 627 1
437 627 1
187 628 1
188 628 1
379 628 1
386 628 1
430 628 1
438 628 1
188 629 1
189 629 1
380 629 1
387 629 1
431 629 1
439 629 1
189 630 1
190 630 1
381 630 1
388 630 1
432 630 1
440 630 1
190 631 1
191 631 1
382 631 1
389 631 1
419 631 1
433 631 1
191 632 1
192 632 1
383 632 1
390 632 1
420 632 1
434 632 1
192 633 1
193 633 1
384 633 1
391 633 1
421 633 1
435 633 1
193 634 1
194 634 1
385 634 1
392 634 1
422 634 1
436 634 1
194 635 1
195 635 1
386 635 1
393 635 1
423 635 1
437 635 1
195 636 1
196 636 1
387 636 1
394 636 1
424 636 1
438 636 1
196 637 1
197 637 1
388 637 1
395 637 1
425 637 1
439 637 1
197 638 1
198 638 1
389 638 1
396 638 1
426 638 1
440 638 1
199 639 1
220 639 1
397 639 1
412 639 1
419 639 1
429 639 1
199 640 1
200 640 1
398 640 1
413 640 1
420 640 1
430 640 1
200 641 1
201 641 1
399 641 1
414 641 1
421 641 1
431 641 1
201 642 1
202 642 1
400 642 1
415 642 1
422 642 1
432 642 1
202 643 1
203 643 1
401 643 1
416 643 1
423 643 1
433 643 1
203 644 1
204 644 1
402 644 1
417 644 1
424 644 1
434 644 1
204 645 1
205 645 1
403 645 1
418 645 1
425 645 1
435 645 1
205 646 1
206 646 1
397 646 1
404 646 1
426 646 1
436 646 1
206 647 1
207 647 1
398 647 1
405 647 1
427 647 1
437 647 1
207 648 1
208 648 1
399 648 1
406 648 1
428 648 1
438 648 1
208 649 1
209 649 1
400 649 1
407 649 1
429 649 1
439 649 1
209 650 1
210 650 1
401 650 1
408 650 1
430 650 1
440 650 1
210 651 1
211 651 1
402 651 1
409 651 1
419 651 1
431 651 1
211 652 1
212 652 1
403 652 1
410 652 1
420 652 1
432 652 1
212 653 1
213 653 1
404 653 1
411 653 1
421 653 1
433 653 1
213 654 1
214 654 1
405 654 1
412 654 1
422 654 1
434 654 1
214 655 1
215 655 1
406 655 1
413 655 1
423 655 1
435 655 1
215 656 1
216 656 1
407 656 1
414 656 1
424 656 1
436 656 1
216 657 1
217 657 1
408 657 1
415 657 1
425 657 1
437 657 1
217 658 1
218 658 1
409 658 1
416 658 1
426 658 1
438 658 1
218 659 1
219 659 1
410 659 1
417 659 1
427 659 1
439 659 1
219 660 1
220 660 1
411 660 1
418 660 1
428 660 1
440 660 1
221 661 1
242 661 1
331 661 1
348 661 1
441 661 1
444 661 1
221 662 1
222 662 1
332 662 1
349 662 1
442 662 1
445 662 1
222 663 1
223 663 1
333 663 1
350 663 1
443 663 1
446 663 1
223 664 1
224 664 1
334 664 1
351 664 1
444 664 1
447 664 1
224 665 1
225 665 1
335 665 1
352 665 1
445 665 1
448 665 1
225 666 1
226 666 1
331 666 1
336 666 1
446 666 1
449 666 1
226 667 1
227 667 1
332 667 1
337 667 1
447 667 1
450 667 1
227 668 1
228 668 1
333 668 1
338 668 1
448 668 1
451 668 1
228 669 1
229 669 1
334 669 1
339 669 1
449 669 1
452 669 1
229 670 1
230 670 1
335 670 1
340 670 1
450 670 1
453 670 1
230 671 1
231 671 1
336 671 1
341 671 1
451 671 1
454 671 1
231 672 1
232 672 1
337 672 1
342 672 1
452 672 1
455 672 1
232 673 1
233 673 1
338 673 1
343 673 1
453 673 1
456 673 1
233 674 1
234 674 1
339 674 1
344 674 1
454 674 1
457 674 1
234 675 1
235 675 1
340 675 1
345 675 1
455 675 1
458 675 1
235 676 1
236 676 1
341 676 1
346 676 1
456 676 1
459 676 1
236 677 1
237 677 1
342 677 1
347 677 1
457 677 1
460 677 1
237 678 1
238 678 1
343 678 1
348 678 1
458 678 1
461 678 1
238 679 1
239 679 1
344 679 1
349 679 1
459 679 1
462 679 1
239 680 1
240 680 1
345 680 1
350 680 1
441 680 1
460 680 1
240 681 1
241 681 1
346 681 1
351 681 1
442 681 1
461 681 1
241 682 1
242 682 1
347 682 1
352 682 1
443 682 1
462 682 1
243 683 1
264 683 1
353 683 1
370 683 1
441 683 1
447 683 1
243 684 1
244 684 1
354 684 1
371 684 1
442 684 1
448 684 1
244 685 1
245 685 1
355 685 1
372 685 1
443 685 1
449 685 1
245 686 1
246 686 1
356 686 1
373 686 1
444 686 1
450 686 1
246 687 1
247 687 1
357 687 1
374 687 1
445 687 1
451 687 1
247 688 1
248 688 1
353 688 1
358 688 1
446 688 1
452 688 1
248 689 1
249 689 1
354 689 1
359 689 1
447 689 1
453 689 1
249 690 1
250 690 1
355 690 1
360 690 1
448 690 1
454 690 1
250 691 1
251 691 1
356 691 1
361 691 1
449 691 1
455 691 1
251 692 1
252 692 1
357 692 1
362 692 1
450 692 1
456 692 1
252 693 1
253 693 1
358 693 1
363 693 1
451 693 1
457 693 1
253 694 1
254 694 1
359 694 1
364 694 1
452 694 1
458 694 1
254 695 1
255 695 1
360 695 1
365 695 1
453 695 1
459 695 1
255 696 1
256 696 1
361 696 1
366 696 1
454 696 1
460 696 1
256 697 1
257 697 1
362 697 1
367 697 1
455 697 1
461 697 1
257 698 1
258 698 1
363 698 1
368 698 1
456 698 1
462 698 1
258 699 1
259 699 1
364 699 1
369 699 1
441 699 1
457 699 1
259 700 1
260 700 1
365 700 1
370 700 1
442 700 1
458 700 1
260 701 1
261 701 1
366 701 1
371 701 1
443 701 1
459 701 1
261 702 1
262 702 1
367 702 1
372 702 1
444 702 1
460 702 1
262 703 1
263 703 1
368 703 1
373 703 1
445 703 1
461 703 1
263 704 1
264 704 1
369 704 1
374 704 1
446 704 1
462 704 1
265 705 1
286 705 1
375 705 1
392 705 1
441 705 1
449 705 1
265 706 1
266 706 1
376 706 1
393 706 1
442 706 1
450 706 1
266 707 1
267 707 1
377 707 1
394 707 1
443 707 1
451 707 1
267 708 1
268 708 1
378 708 1
395 708 1
444 708 1
452 708 1
268 709 1
269 709 1
379 709 1
396 709 1
445 709 1
453 709 1
269 710 1
270 710 1
375 710 1
380 710 1
446 710 1
454 710 1
270 711 1
271 711 1
376 711 1
381 711 1
447 711 1
455 711 1
271 712 1
272 712 1
377 712 1
382 712 1
448 712 1
456 712 1
272 713 1
273 713 1
378 713 1
383 713 1
449 713 1
457 713 1
273 714 1
274 714 1
379 714 1
384 714 1
450 714 1
458 714 1
274 715 1
275 715 1
380 715 1
385 715 1
451 715 1
459 715 1
275 716 1
276 716 1
381 716 1
386 716 1
452 716 1
460 716 1
276 717 1
277 717 1
382 717 1
387 717 1
453 717 1
461 717 1
277 718 1
278 718 1
383 718 1
388 718 1
454 718 1
462 718 1
278 719 1
279 719 1
384 719 1
389 719 1
441 719 1
455 719 1
279 720 1
280 720 1
385 720 1
390 720 1
442 720 1
456 720 1
280 721 1
281 721 1
386 721 1
391 721 1
443 721 1
457 721 1
281 722 1
282 722 1
387 722 1
392 722 1
444 722 1
458 722 1
282 723 1
283 723 1
388 723 1
393 723 1
445 723 1
459 723 1
283 724 1
284 724 1
389 724 1
394 724 1
446 724 1
460 724 1
284 725 1
285 725 1
390 725 1
395 725 1
447 725 1
461 725 1
285 726 1
286 726 1
391 726 1
396 726 1
448 726 1
462 726 1
287 727 1
308 727 1
397 727 1
414 727 1
441 727 1
451 727 1
287 728 1
288 728 1
398 728 1
415 728 1
442 728 1
452 728 1
288 729 1
289 729 1
399 729 1
416 729 1
443 729 1
453 729 1
289 730 1
290 730 1
400 730 1
417 730 1
444 730 1
454 730 1
290 731 1
291 731 1
401 731 1
418 731 1
445 731 1
455 731 1
291 732 1
292 732 1
397 732 1
402 732 1
446 732 1
456 732 1
292 733 1
293 733 1
398 733 1
403 733 1
447 733 1
457 733 1
293 734 1
294 734 1
399 734 1
404 734 1
448 734 1
458 734 1
294 735 1
295 735 1
400 735 1
405 735 1
449 735 1
459 735 1
295 736 1
296 736 1
401 736 1
406 736 1
450 736 1
460 736 1
296 737 1
297 737 1
402 737 1
407 737 1
451 737 1
461 737 1
297 738 1
298 738 1
403 738 1
408 738 1
452 738 1
462 738 1
298 739 1
299 739 1
404 739 1
409 739 1
441 739 1
453 739 1
299 740 1
300 740 1
405 740 1
410 740 1
442 740 1
454 740 1
300 741 1
301 741 1
406 741 1
411 741 1
443 741 1
455 741 1
301 742 1
302 742 1
407 742 1
412 742 1
444 742 1
456 742 1
302 743 1
303 743 1
408 743 1
413 743 1
445 743 1
457 743 1
303 744 1
304 744 1
409 744 1
414 744 1
446 744 1
458 744 1
304 745 1
305 745 1
410 745 1
415 745 1
447 745 1
459 745 1
305 746 1
306 746 1
411 746 1
416 746 1
448 746 1
460 746 1
306 747 1
307 747 1
412 747 1
417 747 1
449 747 1
461 747 1
307 748 1
308 748 1
413 748 1
418 748 1
450 748 1
462 748 1
309 749 1
330 749 1
419 749 1
436 749 1
441 749 1
456 749 1
309 750 1
310 750 1
420 750 1
437 750 1
442 750 1
457 750 1
310 751 1
311 751 1
421 751 1
438 751 1
443 751 1
458 751 1
311 752 1
312 752 1
422 752 1
439 752 1
444 752 1
459 752 1
312 753 1
313 753 1
423 753 1
440 753 1
445 753 1
460 753 1
313 754 1
314 754 1
419 754 1
424 754 1
446 754 1
461 754 1
314 755 1
315 755 1
420 755 1
425 755 1
447 755 1
462 755 1
315 756 1
316 756 1
421 756 1
426 756 1
441 756 1
448 756 1
316 757 1
317 757 1
422 757 1
427 757 1
442 757 1
449 757 1
317 758 1
318 758 1
423 758 1
428 758 1
443 758 1
450 758 1
318 759 1
319 759 1
424 759 1
429 759 1
444 759 1
451 759 1
319 760 1
320 760 1
425 760 1
430 760 1
445 760 1
452 760 1
320 761 1
321 761 1
426 761 1
431 761 1
446 761 1
453 761 1
321 762 1
322 762 1
427 762 1
432 762 1
447 762 1
454 762 1
322 763 1
323 763 1
428 763 1
433 763 1
448 763 1
455 763 1
323 764 1
324 764 1
429 764 1
434 764 1
449 764 1
456 764 1
324 765 1
325 765 1
430 765 1
435 765 1
450 765 1
457 765 1
325 766 1
326 766 1
431 766 1
436 766 1
451 766 1
458 766 1
326 767 1
327 767 1
432 767 1
437 767 1
452 767 1
459 767 1
327 768 1
328 768 1
433 768 1
438 768 1
453 768 1
460 768 1
328 769 1
329 769 1
434 769 1
439 769 1
454 769 1
461 769 1
329 770 1
330 770 1
435 770 1
440 770 1
455 770 1
462 770 1
