%%MatrixMarket matrix coordinate integer general
% Binary matrix; one-based indices; arithmetic over GF(2)
770 770 6160
1 1 1
13 1 1
23 1 1
30 1 1
111 1 1
116 1 1
331 1 1
332 1 1
2 2 1
14 2 1
24 2 1
31 2 1
112 2 1
117 2 1
332 2 1
333 2 1
3 3 1
15 3 1
25 3 1
32 3 1
113 3 1
118 3 1
333 3 1
334 3 1
4 4 1
16 4 1
26 4 1
33 4 1
114 4 1
119 4 1
334 4 1
335 4 1
5 5 1
17 5 1
27 5 1
34 5 1
115 5 1
120 5 1
335 5 1
336 5 1
6 6 1
18 6 1
28 6 1
35 6 1
116 6 1
121 6 1
336 6 1
337 6 1
7 7 1
19 7 1
29 7 1
36 7 1
117 7 1
122 7 1
337 7 1
338 7 1
8 8 1
20 8 1
30 8 1
37 8 1
118 8 1
123 8 1
338 8 1
339 8 1
9 9 1
21 9 1
31 9 1
38 9 1
119 9 1
124 9 1
339 9 1
340 9 1
10 10 1
22 10 1
32 10 1
39 10 1
120 10 1
125 10 1
340 10 1
341 10 1
1 11 1
11 11 1
33 11 1
40 11 1
121 11 1
126 11 1
341 11 1
342 11 1
2 12 1
12 12 1
34 12 1
41 12 1
122 12 1
127 12 1
342 12 1
343 12 1
3 13 1
13 13 1
35 13 1
42 13 1
123 13 1
128 13 1
343 13 1
344 13 1
4 14 1
14 14 1
36 14 1
43 14 1
124 14 1
129 14 1
344 14 1
345 14 1
5 15 1
15 15 1
37 15 1
44 15 1
125 15 1
130 15 1
345 15 1
346 15 1
6 16 1
16 16 1
23 16 1
38 16 1
126 16 1
131 16 1
346 16 1
347 16 1
7 17 1
17 17 1
24 17 1
39 17 1
127 17 1
132 17 1
347 17 1
348 17 1
8 18 1
18 18 1
25 18 1
40 18 1
111 18 1
128 18 1
348 18 1
349 18 1
9 19 1
19 19 1
26 19 1
41 19 1
112 19 1
129 19 1
349 19 1
350 19 1
10 20 1
20 20 1
27 20 1
42 20 1
113 20 1
130 20 1
350 20 1
351 20 1
11 21 1
21 21 1
28 21 1
43 21 1
114 21 1
131 21 1
351 21 1
352 21 1
12 22 1
22 22 1
29 22 1
44 22 1
115 22 1
132 22 1
331 22 1
352 22 1
1 23 1
15 23 1
45 23 1
52 23 1
133 23 1
138 23 1
353 23 1
354 23 1
2 24 1
16 24 1
46 24 1
53 24 1
134 24 1
139 24 1
354 24 1
355 24 1
3 25 1
17 25 1
47 25 1
54 25 1
135 25 1
140 25 1
355 25 1
356 25 1
4 26 1
18 26 1
48 26 1
55 26 1
136 26 1
141 26 1
356 26 1
357 26 1
5 27 1
19 27 1
49 27 1
56 27 1
137 27 1
142 27 1
357 27 1
358 27 1
6 28 1
20 28 1
50 28 1
57 28 1
138 28 1
143 28 1
358 28 1
359 28 1
7 29 1
21 29 1
51 29 1
58 29 1
139 29 1
144 29 1
359 29 1
360 29 1
8 30 1
22 30 1
52 30 1
59 30 1
140 30 1
145 30 1
360 30 1
361 30 1
1 31 1
9 31 1
53 31 1
60 31 1
141 31 1
146 31 1
361 31 1
362 31 1
2 32 1
10 32 1
54 32 1
61 32 1
142 32 1
147 32 1
362 32 1
363 32 1
3 33 1
11 33 1
55 33 1
62 33 1
143 33 1
148 33 1
363 33 1
364 33 1
4 34 1
12 34 1
56 34 1
63 34 1
144 34 1
149 34 1
364 34 1
365 34 1
5 35 1
13 35 1
57 35 1
64 35 1
145 35 1
150 35 1
365 35 1
366 35 1
6 36 1
14 36 1
58 36 1
65 36 1
146 36 1
151 36 1
366 36 1
367 36 1
7 37 1
15 37 1
59 37 1
66 37 1
147 37 1
152 37 1
367 37 1
368 37 1
8 38 1
16 38 1
45 38 1
60 38 1
148 38 1
153 38 1
368 38 1
369 38 1
9 39 1
17 39 1
46 39 1
61 39 1
149 39 1
154 39 1
369 39 1
370 39 1
10 40 1
18 40 1
47 40 1
62 40 1
133 40 1
150 40 1
370 40 1
371 40 1
11 41 1
19 41 1
48 41 1
63 41 1
134 41 1
151 41 1
371 41 1
372 41 1
12 42 1
20 42 1
49 42 1
64 42 1
135 42 1
152 42 1
372 42 1
373 42 1
13 43 1
21 43 1
50 43 1
65 43 1
136 43 1
153 43 1
373 43 1
374 43 1
14 44 1
22 44 1
51 44 1
66 44 1
137 44 1
154 44 1
353 44 1
374 44 1
1 45 1
17 45 1
67 45 1
74 45 1
155 45 1
160 45 1
375 45 1
376 45 1
2 46 1
18 46 1
68 46 1
75 46 1
156 46 1
161 46 1
376 46 1
377 46 1
3 47 1
19 47 1
69 47 1
76 47 1
157 47 1
162 47 1
377 47 1
378 47 1
4 48 1
20 48 1
70 48 1
77 48 1
158 48 1
163 48 1
378 48 1
379 48 1
5 49 1
21 49 1
71 49 1
78 49 1
159 49 1
164 49 1
379 49 1
380 49 1
6 50 1
22 50 1
72 50 1
79 50 1
160 50 1
165 50 1
380 50 1
381 50 1
1 51 1
7 51 1
73 51 1
80 51 1
161 51 1
166 51 1
381 51 1
382 51 1
2 52 1
8 52 1
74 52 1
81 52 1
162 52 1
167 52 1
382 52 1
383 52 1
3 53 1
9 53 1
75 53 1
82 53 1
163 53 1
168 53 1
383 53 1
384 53 1
4 54 1
10 54 1
76 54 1
83 54 1
164 54 1
169 54 1
384 54 1
385 54 1
5 55 1
11 55 1
77 55 1
84 55 1
165 55 1
170 55 1
385 55 1
386 55 1
6 56 1
12 56 1
78 56 1
85 56 1
166 56 1
171 56 1
386 56 1
387 56 1
7 57 1
13 57 1
79 57 1
86 57 1
167 57 1
172 57 1
387 57 1
388 57 1
8 58 1
14 58 1
80 58 1
87 58 1
168 58 1
173 58 1
388 58 1
389 58 1
9 59 1
15 59 1
81 59 1
88 59 1
169 59 1
174 59 1
389 59 1
390 59 1
10 60 1
16 60 1
67 60 1
82 60 1
170 60 1
175 60 1
390 60 1
391 60 1
11 61 1
17 61 1
68 61 1
83 61 1
171 61 1
176 61 1
391 61 1
392 61 1
12 62 1
18 62 1
69 62 1
84 62 1
155 62 1
172 62 1
392 62 1
393 62 1
13 63 1
19 63 1
70 63 1
85 63 1
156 63 1
173 63 1
393 63 1
394 63 1
14 64 1
20 64 1
71 64 1
86 64 1
157 64 1
174 64 1
394 64 1
395 64 1
15 65 1
21 65 1
72 65 1
87 65 1
158 65 1
175 65 1
395 65 1
396 65 1
16 66 1
22 66 1
73 66 1
88 66 1
159 66 1
176 66 1
375 66 1
396 66 1
1 67 1
20 67 1
89 67 1
96 67 1
177 67 1
182 67 1
397 67 1
398 67 1
2 68 1
21 68 1
90 68 1
97 68 1
178 68 1
183 68 1
398 68 1
399 68 1
3 69 1
22 69 1
91 69 1
98 69 1
179 69 1
184 69 1
399 69 1
400 69 1
1 70 1
4 70 1
92 70 1
99 70 1
180 70 1
185 70 1
400 70 1
401 70 1
2 71 1
5 71 1
93 71 1
100 71 1
181 71 1
186 71 1
401 71 1
402 71 1
3 72 1
6 72 1
94 72 1
101 72 1
182 72 1
187 72 1
402 72 1
403 72 1
4 73 1
7 73 1
95 73 1
102 73 1
183 73 1
188 73 1
403 73 1
404 73 1
5 74 1
8 74 1
96 74 1
103 74 1
184 74 1
189 74 1
404 74 1
405 74 1
6 75 1
9 75 1
97 75 1
104 75 1
185 75 1
190 75 1
405 75 1
406 75 1
7 76 1
10 76 1
98 76 1
105 76 1
186 76 1
191 76 1
406 76 1
407 76 1
8 77 1
11 77 1
99 77 1
106 77 1
187 77 1
192 77 1
407 77 1
408 77 1
9 78 1
12 78 1
100 78 1
107 78 1
188 78 1
193 78 1
408 78 1
409 78 1
10 79 1
13 79 1
101 79 1
108 79 1
189 79 1
194 79 1
409 79 1
410 79 1
11 80 1
14 80 1
102 80 1
109 80 1
190 80 1
195 80 1
410 80 1
411 80 1
12 81 1
15 81 1
103 81 1
110 81 1
191 81 1
196 81 1
411 81 1
412 81 1
13 82 1
16 82 1
89 82 1
104 82 1
192 82 1
197 82 1
412 82 1
413 82 1
14 83 1
17 83 1
90 83 1
105 83 1
193 83 1
198 83 1
413 83 1
414 83 1
15 84 1
18 84 1
91 84 1
106 84 1
177 84 1
194 84 1
414 84 1
415 84 1
16 85 1
19 85 1
92 85 1
107 85 1
178 85 1
195 85 1
415 85 1
416 85 1
17 86 1
20 86 1
93 86 1
108 86 1
179 86 1
196 86 1
416 86 1
417 86 1
18 87 1
21 87 1
94 87 1
109 87 1
180 87 1
197 87 1
417 87 1
418 87 1
19 88 1
22 88 1
95 88 1
110 88 1
181 88 1
198 88 1
397 88 1
418 88 1
23 89 1
37 89 1
45 89 1
57 89 1
199 89 1
204 89 1
419 89 1
420 89 1
24 90 1
38 90 1
46 90 1
58 90 1
200 90 1
205 90 1
420 90 1
421 90 1
25 91 1
39 91 1
47 91 1
59 91 1
201 91 1
206 91 1
421 91 1
422 91 1
26 92 1
40 92 1
48 92 1
60 92 1
202 92 1
207 92 1
422 92 1
423 92 1
27 93 1
41 93 1
49 93 1
61 93 1
203 93 1
208 93 1
423 93 1
424 93 1
28 94 1
42 94 1
50 94 1
62 94 1
204 94 1
209 94 1
424 94 1
425 94 1
29 95 1
43 95 1
51 95 1
63 95 1
205 95 1
210 95 1
425 95 1
426 95 1
30 96 1
44 96 1
52 96 1
64 96 1
206 96 1
211 96 1
426 96 1
427 96 1
23 97 1
31 97 1
53 97 1
65 97 1
207 97 1
212 97 1
427 97 1
428 97 1
24 98 1
32 98 1
54 98 1
66 98 1
208 98 1
213 98 1
428 98 1
429 98 1
25 99 1
33 99 1
45 99 1
55 99 1
209 99 1
214 99 1
429 99 1
430 99 1
26 100 1
34 100 1
46 100 1
56 100 1
210 100 1
215 100 1
430 100 1
431 100 1
27 101 1
35 101 1
47 101 1
57 101 1
211 101 1
216 101 1
431 101 1
432 101 1
28 102 1
36 102 1
48 102 1
58 102 1
212 102 1
217 102 1
432 102 1
433 102 1
29 103 1
37 103 1
49 103 1
59 103 1
213 103 1
218 103 1
433 103 1
434 103 1
30 104 1
38 104 1
50 104 1
60 104 1
214 104 1
219 104 1
434 104 1
435 104 1
31 105 1
39 105 1
51 105 1
61 105 1
215 105 1
220 105 1
435 105 1
436 105 1
32 106 1
40 106 1
52 106 1
62 106 1
199 106 1
216 106 1
436 106 1
437 106 1
33 107 1
41 107 1
53 107 1
63 107 1
200 107 1
217 107 1
437 107 1
438 107 1
34 108 1
42 108 1
54 108 1
64 108 1
201 108 1
218 108 1
438 108 1
439 108 1
35 109 1
43 109 1
55 109 1
65 109 1
202 109 1
219 109 1
439 109 1
440 109 1
36 110 1
44 110 1
56 110 1
66 110 1
203 110 1
220 110 1
419 110 1
440 110 1
23 111 1
39 111 1
67 111 1
79 111 1
221 111 1
226 111 1
441 111 1
442 111 1
24 112 1
40 112 1
68 112 1
80 112 1
222 112 1
227 112 1
442 112 1
443 112 1
25 113 1
41 113 1
69 113 1
81 113 1
223 113 1
228 113 1
443 113 1
444 113 1
26 114 1
42 114 1
70 114 1
82 114 1
224 114 1
229 114 1
444 114 1
445 114 1
27 115 1
43 115 1
71 115 1
83 115 1
225 115 1
230 115 1
445 115 1
446 115 1
28 116 1
44 116 1
72 116 1
84 116 1
226 116 1
231 116 1
446 116 1
447 116 1
23 117 1
29 117 1
73 117 1
85 117 1
227 117 1
232 117 1
447 117 1
448 117 1
24 118 1
30 118 1
74 118 1
86 118 1
228 118 1
233 118 1
448 118 1
449 118 1
25 119 1
31 119 1
75 119 1
87 119 1
229 119 1
234 119 1
449 119 1
450 119 1
26 120 1
32 120 1
76 120 1
88 120 1
230 120 1
235 120 1
450 120 1
451 120 1
27 121 1
33 121 1
67 121 1
77 121 1
231 121 1
236 121 1
451 121 1
452 121 1
28 122 1
34 122 1
68 122 1
78 122 1
232 122 1
237 122 1
452 122 1
453 122 1
29 123 1
35 123 1
69 123 1
79 123 1
233 123 1
238 123 1
453 123 1
454 123 1
30 124 1
36 124 1
70 124 1
80 124 1
234 124 1
239 124 1
454 124 1
455 124 1
31 125 1
37 125 1
71 125 1
81 125 1
235 125 1
240 125 1
455 125 1
456 125 1
32 126 1
38 126 1
72 126 1
82 126 1
236 126 1
241 126 1
456 126 1
457 126 1
33 127 1
39 127 1
73 127 1
83 127 1
237 127 1
242 127 1
457 127 1
458 127 1
34 128 1
40 128 1
74 128 1
84 128 1
221 128 1
238 128 1
458 128 1
459 128 1
35 129 1
41 129 1
75 129 1
85 129 1
222 129 1
239 129 1
459 129 1
460 129 1
36 130 1
42 130 1
76 130 1
86 130 1
223 130 1
240 130 1
460 130 1
461 130 1
37 131 1
43 131 1
77 131 1
87 131 1
224 131 1
241 131 1
461 131 1
462 131 1
38 132 1
44 132 1
78 132 1
88 132 1
225 132 1
242 132 1
441 132 1
462 132 1
23 133 1
42 133 1
89 133 1
101 133 1
243 133 1
248 133 1
463 133 1
464 133 1
24 134 1
43 134 1
90 134 1
102 134 1
244 134 1
249 134 1
464 134 1
465 134 1
25 135 1
44 135 1
91 135 1
103 135 1
245 135 1
250 135 1
465 135 1
466 135 1
23 136 1
26 136 1
92 136 1
104 136 1
246 136 1
251 136 1
466 136 1
467 136 1
24 137 1
27 137 1
93 137 1
105 137 1
247 137 1
252 137 1
467 137 1
468 137 1
25 138 1
28 138 1
94 138 1
106 138 1
248 138 1
253 138 1
468 138 1
469 138 1
26 139 1
29 139 1
95 139 1
107 139 1
249 139 1
254 139 1
469 139 1
470 139 1
27 140 1
30 140 1
96 140 1
108 140 1
250 140 1
255 140 1
470 140 1
471 140 1
28 141 1
31 141 1
97 141 1
109 141 1
251 141 1
256 141 1
471 141 1
472 141 1
29 142 1
32 142 1
98 142 1
110 142 1
252 142 1
257 142 1
472 142 1
473 142 1
30 143 1
33 143 1
89 143 1
99 143 1
253 143 1
258 143 1
473 143 1
474 143 1
31 144 1
34 144 1
90 144 1
100 144 1
254 144 1
259 144 1
474 144 1
475 144 1
32 145 1
35 145 1
91 145 1
101 145 1
255 145 1
260 145 1
475 145 1
476 145 1
33 146 1
36 146 1
92 146 1
102 146 1
256 146 1
261 146 1
476 146 1
477 146 1
34 147 1
37 147 1
93 147 1
103 147 1
257 147 1
262 147 1
477 147 1
478 147 1
35 148 1
38 148 1
94 148 1
104 148 1
258 148 1
263 148 1
478 148 1
479 148 1
36 149 1
39 149 1
95 149 1
105 149 1
259 149 1
264 149 1
479 149 1
480 149 1
37 150 1
40 150 1
96 150 1
106 150 1
243 150 1
260 150 1
480 150 1
481 150 1
38 151 1
41 151 1
97 151 1
107 151 1
244 151 1
261 151 1
481 151 1
482 151 1
39 152 1
42 152 1
98 152 1
108 152 1
245 152 1
262 152 1
482 152 1
483 152 1
40 153 1
43 153 1
99 153 1
109 153 1
246 153 1
263 153 1
483 153 1
484 153 1
41 154 1
44 154 1
100 154 1
110 154 1
247 154 1
264 154 1
463 154 1
484 154 1
45 155 1
61 155 1
67 155 1
81 155 1
265 155 1
270 155 1
485 155 1
486 155 1
46 156 1
62 156 1
68 156 1
82 156 1
266 156 1
271 156 1
486 156 1
487 156 1
47 157 1
63 157 1
69 157 1
83 157 1
267 157 1
272 157 1
487 157 1
488 157 1
48 158 1
64 158 1
70 158 1
84 158 1
268 158 1
273 158 1
488 158 1
489 158 1
49 159 1
65 159 1
71 159 1
85 159 1
269 159 1
274 159 1
489 159 1
490 159 1
50 160 1
66 160 1
72 160 1
86 160 1
270 160 1
275 160 1
490 160 1
491 160 1
45 161 1
51 161 1
73 161 1
87 161 1
271 161 1
276 161 1
491 161 1
492 161 1
46 162 1
52 162 1
74 162 1
88 162 1
272 162 1
277 162 1
492 162 1
493 162 1
47 163 1
53 163 1
67 163 1
75 163 1
273 163 1
278 163 1
493 163 1
494 163 1
48 164 1
54 164 1
68 164 1
76 164 1
274 164 1
279 164 1
494 164 1
495 164 1
49 165 1
55 165 1
69 165 1
77 165 1
275 165 1
280 165 1
495 165 1
496 165 1
50 166 1
56 166 1
70 166 1
78 166 1
276 166 1
281 166 1
496 166 1
497 166 1
51 167 1
57 167 1
71 167 1
79 167 1
277 167 1
282 167 1
497 167 1
498 167 1
52 168 1
58 168 1
72 168 1
80 168 1
278 168 1
283 168 1
498 168 1
499 168 1
53 169 1
59 169 1
73 169 1
81 169 1
279 169 1
284 169 1
499 169 1
500 169 1
54 170 1
60 170 1
74 170 1
82 170 1
280 170 1
285 170 1
500 170 1
501 170 1
55 171 1
61 171 1
75 171 1
83 171 1
281 171 1
286 171 1
501 171 1
502 171 1
56 172 1
62 172 1
76 172 1
84 172 1
265 172 1
282 172 1
502 172 1
503 172 1
57 173 1
63 173 1
77 173 1
85 173 1
266 173 1
283 173 1
503 173 1
504 173 1
58 174 1
64 174 1
78 174 1
86 174 1
267 174 1
284 174 1
504 174 1
505 174 1
59 175 1
65 175 1
79 175 1
87 175 1
268 175 1
285 175 1
505 175 1
506 175 1
60 176 1
66 176 1
80 176 1
88 176 1
269 176 1
286 176 1
485 176 1
506 176 1
45 177 1
64 177 1
89 177 1
103 177 1
287 177 1
292 177 1
507 177 1
508 177 1
46 178 1
65 178 1
90 178 1
104 178 1
288 178 1
293 178 1
508 178 1
509 178 1
47 179 1
66 179 1
91 179 1
105 179 1
289 179 1
294 179 1
509 179 1
510 179 1
45 180 1
48 180 1
92 180 1
106 180 1
290 180 1
295 180 1
510 180 1
511 180 1
46 181 1
49 181 1
93 181 1
107 181 1
291 181 1
296 181 1
511 181 1
512 181 1
47 182 1
50 182 1
94 182 1
108 182 1
292 182 1
297 182 1
512 182 1
513 182 1
48 183 1
51 183 1
95 183 1
109 183 1
293 183 1
298 183 1
513 183 1
514 183 1
49 184 1
52 184 1
96 184 1
110 184 1
294 184 1
299 184 1
514 184 1
515 184 1
50 185 1
53 185 1
89 185 1
97 185 1
295 185 1
300 185 1
515 185 1
516 185 1
51 186 1
54 186 1
90 186 1
98 186 1
296 186 1
301 186 1
516 186 1
517 186 1
52 187 1
55 187 1
91 187 1
99 187 1
297 187 1
302 187 1
517 187 1
518 187 1
53 188 1
56 188 1
92 188 1
100 188 1
298 188 1
303 188 1
518 188 1
519 188 1
54 189 1
57 189 1
93 189 1
101 189 1
299 189 1
304 189 1
519 189 1
520 189 1
55 190 1
58 190 1
94 190 1
102 190 1
300 190 1
305 190 1
520 190 1
521 190 1
56 191 1
59 191 1
95 191 1
103 191 1
301 191 1
306 191 1
521 191 1
522 191 1
57 192 1
60 192 1
96 192 1
104 192 1
302 192 1
307 192 1
522 192 1
523 192 1
58 193 1
61 193 1
97 193 1
105 193 1
303 193 1
308 193 1
523 193 1
524 193 1
59 194 1
62 194 1
98 194 1
106 194 1
287 194 1
304 194 1
524 194 1
525 194 1
60 195 1
63 195 1
99 195 1
107 195 1
288 195 1
305 195 1
525 195 1
526 195 1
61 196 1
64 196 1
100 196 1
108 196 1
289 196 1
306 196 1
526 196 1
527 196 1
62 197 1
65 197 1
101 197 1
109 197 1
290 197 1
307 197 1
527 197 1
528 197 1
63 198 1
66 198 1
102 198 1
110 198 1
291 198 1
308 198 1
507 198 1
528 198 1
67 199 1
86 199 1
89 199 1
105 199 1
309 199 1
314 199 1
529 199 1
530 199 1
68 200 1
87 200 1
90 200 1
106 200 1
310 200 1
315 200 1
530 200 1
531 200 1
69 201 1
88 201 1
91 201 1
107 201 1
311 201 1
316 201 1
531 201 1
532 201 1
67 202 1
70 202 1
92 202 1
108 202 1
312 202 1
317 202 1
532 202 1
533 202 1
68 203 1
71 203 1
93 203 1
109 203 1
313 203 1
318 203 1
533 203 1
534 203 1
69 204 1
72 204 1
94 204 1
110 204 1
314 204 1
319 204 1
534 204 1
535 204 1
70 205 1
73 205 1
89 205 1
95 205 1
315 205 1
320 205 1
535 205 1
536 205 1
71 206 1
74 206 1
90 206 1
96 206 1
316 206 1
321 206 1
536 206 1
537 206 1
72 207 1
75 207 1
91 207 1
97 207 1
317 207 1
322 207 1
537 207 1
538 207 1
73 208 1
76 208 1
92 208 1
98 208 1
318 208 1
323 208 1
538 208 1
539 208 1
74 209 1
77 209 1
93 209 1
99 209 1
319 209 1
324 209 1
539 209 1
540 209 1
75 210 1
78 210 1
94 210 1
100 210 1
320 210 1
325 210 1
540 210 1
541 210 1
76 211 1
79 211 1
95 211 1
101 211 1
321 211 1
326 211 1
541 211 1
542 211 1
77 212 1
80 212 1
96 212 1
102 212 1
322 212 1
327 212 1
542 212 1
543 212 1
78 213 1
81 213 1
97 213 1
103 213 1
323 213 1
328 213 1
543 213 1
544 213 1
79 214 1
82 214 1
98 214 1
104 214 1
324 214 1
329 214 1
544 214 1
545 214 1
80 215 1
83 215 1
99 215 1
105 215 1
325 215 1
330 215 1
545 215 1
546 215 1
81 216 1
84 216 1
100 216 1
106 216 1
309 216 1
326 216 1
546 216 1
547 216 1
82 217 1
85 217 1
101 217 1
107 217 1
310 217 1
327 217 1
547 217 1
548 217 1
83 218 1
86 218 1
102 218 1
108 218 1
311 218 1
328 218 1
548 218 1
549 218 1
84 219 1
87 219 1
103 219 1
109 219 1
312 219 1
329 219 1
549 219 1
550 219 1
85 220 1
88 220 1
104 220 1
110 220 1
313 220 1
330 220 1
529 220 1
550 220 1
111 221 1
125 221 1
133 221 1
145 221 1
199 221 1
206 221 1
551 221 1
552 221 1
112 222 1
126 222 1
134 222 1
146 222 1
200 222 1
207 222 1
552 222 1
553 222 1
113 223 1
127 223 1
135 223 1
147 223 1
201 223 1
208 223 1
553 223 1
554 223 1
114 224 1
128 224 1
136 224 1
148 224 1
202 224 1
209 224 1
554 224 1
555 224 1
115 225 1
129 225 1
137 225 1
149 225 1
203 225 1
210 225 1
555 225 1
556 225 1
116 226 1
130 226 1
138 226 1
150 226 1
204 226 1
211 226 1
556 226 1
557 226 1
117 227 1
131 227 1
139 227 1
151 227 1
205 227 1
212 227 1
557 227 1
558 227 1
118 228 1
132 228 1
140 228 1
152 228 1
206 228 1
213 228 1
558 228 1
559 228 1
111 229 1
119 229 1
141 229 1
153 229 1
207 229 1
214 229 1
559 229 1
560 229 1
112 230 1
120 230 1
142 230 1
154 230 1
208 230 1
215 230 1
560 230 1
561 230 1
113 231 1
121 231 1
133 231 1
143 231 1
209 231 1
216 231 1
561 231 1
562 231 1
114 232 1
122 232 1
134 232 1
144 232 1
210 232 1
217 232 1
562 232 1
563 232 1
115 233 1
123 233 1
135 233 1
145 233 1
211 233 1
218 233 1
563 233 1
564 233 1
116 234 1
124 234 1
136 234 1
146 234 1
212 234 1
219 234 1
564 234 1
565 234 1
117 235 1
125 235 1
137 235 1
147 235 1
213 235 1
220 235 1
565 235 1
566 235 1
118 236 1
126 236 1
138 236 1
148 236 1
199 236 1
214 236 1
566 236 1
567 236 1
119 237 1
127 237 1
139 237 1
149 237 1
200 237 1
215 237 1
567 237 1
568 237 1
120 238 1
128 238 1
140 238 1
150 238 1
201 238 1
216 238 1
568 238 1
569 238 1
121 239 1
129 239 1
141 239 1
151 239 1
202 239 1
217 239 1
569 239 1
570 239 1
122 240 1
130 240 1
142 240 1
152 240 1
203 240 1
218 240 1
570 240 1
571 240 1
123 241 1
131 241 1
143 241 1
153 241 1
204 241 1
219 241 1
571 241 1
572 241 1
124 242 1
132 242 1
144 242 1
154 242 1
205 242 1
220 242 1
551 242 1
572 242 1
111 243 1
127 243 1
155 243 1
167 243 1
221 243 1
228 243 1
573 243 1
574 243 1
112 244 1
128 244 1
156 244 1
168 244 1
222 244 1
229 244 1
574 244 1
575 244 1
113 245 1
129 245 1
157 245 1
169 245 1
223 245 1
230 245 1
575 245 1
576 245 1
114 246 1
130 246 1
158 246 1
170 246 1
224 246 1
231 246 1
576 246 1
577 246 1
115 247 1
131 247 1
159 247 1
171 247 1
225 247 1
232 247 1
577 247 1
578 247 1
116 248 1
132 248 1
160 248 1
172 248 1
226 248 1
233 248 1
578 248 1
579 248 1
111 249 1
117 249 1
161 249 1
173 249 1
227 249 1
234 249 1
579 249 1
580 249 1
112 250 1
118 250 1
162 250 1
174 250 1
228 250 1
235 250 1
580 250 1
581 250 1
113 251 1
119 251 1
163 251 1
175 251 1
229 251 1
236 251 1
581 251 1
582 251 1
114 252 1
120 252 1
164 252 1
176 252 1
230 252 1
237 252 1
582 252 1
583 252 1
115 253 1
121 253 1
155 253 1
165 253 1
231 253 1
238 253 1
583 253 1
584 253 1
116 254 1
122 254 1
156 254 1
166 254 1
232 254 1
239 254 1
584 254 1
585 254 1
117 255 1
123 255 1
157 255 1
167 255 1
233 255 1
240 255 1
585 255 1
586 255 1
118 256 1
124 256 1
158 256 1
168 256 1
234 256 1
241 256 1
586 256 1
587 256 1
119 257 1
125 257 1
159 257 1
169 257 1
235 257 1
242 257 1
587 257 1
588 257 1
120 258 1
126 258 1
160 258 1
170 258 1
221 258 1
236 258 1
588 258 1
589 258 1
121 259 1
127 259 1
161 259 1
171 259 1
222 259 1
237 259 1
589 259 1
590 259 1
122 260 1
128 260 1
162 260 1
172 260 1
223 260 1
238 260 1
590 260 1
591 260 1
123 261 1
129 261 1
163 261 1
173 261 1
224 261 1
239 261 1
591 261 1
592 261 1
124 262 1
130 262 1
164 262 1
174 262 1
225 262 1
240 262 1
592 262 1
593 262 1
125 263 1
131 263 1
165 263 1
175 263 1
226 263 1
241 263 1
593 263 1
594 263 1
126 264 1
132 264 1
166 264 1
176 264 1
227 264 1
242 264 1
573 264 1
594 264 1
111 265 1
130 265 1
177 265 1
189 265 1
243 265 1
250 265 1
595 265 1
596 265 1
112 266 1
131 266 1
178 266 1
190 266 1
244 266 1
251 266 1
596 266 1
597 266 1
113 267 1
132 267 1
179 267 1
191 267 1
245 267 1
252 267 1
597 267 1
598 267 1
111 268 1
114 268 1
180 268 1
192 268 1
246 268 1
253 268 1
598 268 1
599 268 1
112 269 1
115 269 1
181 269 1
193 269 1
247 269 1
254 269 1
599 269 1
600 269 1
113 270 1
116 270 1
182 270 1
194 270 1
248 270 1
255 270 1
600 270 1
601 270 1
114 271 1
117 271 1
183 271 1
195 271 1
249 271 1
256 271 1
601 271 1
602 271 1
115 272 1
118 272 1
184 272 1
196 272 1
250 272 1
257 272 1
602 272 1
603 272 1
116 273 1
119 273 1
185 273 1
197 273 1
251 273 1
258 273 1
603 273 1
604 273 1
117 274 1
120 274 1
186 274 1
198 274 1
252 274 1
259 274 1
604 274 1
605 274 1
118 275 1
121 275 1
177 275 1
187 275 1
253 275 1
260 275 1
605 275 1
606 275 1
119 276 1
122 276 1
178 276 1
188 276 1
254 276 1
261 276 1
606 276 1
607 276 1
120 277 1
123 277 1
179 277 1
189 277 1
255 277 1
262 277 1
607 277 1
608 277 1
121 278 1
124 278 1
180 278 1
190 278 1
256 278 1
263 278 1
608 278 1
609 278 1
122 279 1
125 279 1
181 279 1
191 279 1
257 279 1
264 279 1
609 279 1
610 279 1
123 280 1
126 280 1
182 280 1
192 280 1
243 280 1
258 280 1
610 280 1
611 280 1
124 281 1
127 281 1
183 281 1
193 281 1
244 281 1
259 281 1
611 281 1
612 281 1
125 282 1
128 282 1
184 282 1
194 282 1
245 282 1
260 282 1
612 282 1
613 282 1
126 283 1
129 283 1
185 283 1
195 283 1
246 283 1
261 283 1
613 283 1
614 283 1
127 284 1
130 284 1
186 284 1
196 284 1
247 284 1
262 284 1
614 284 1
615 284 1
128 285 1
131 285 1
187 285 1
197 285 1
248 285 1
263 285 1
615 285 1
616 285 1
129 286 1
132 286 1
188 286 1
198 286 1
249 286 1
264 286 1
595 286 1
616 286 1
133 287 1
149 287 1
155 287 1
169 287 1
265 287 1
272 287 1
617 287 1
618 287 1
134 288 1
150 288 1
156 288 1
170 288 1
266 288 1
273 288 1
618 288 1
619 288 1
135 289 1
151 289 1
157 289 1
171 289 1
267 289 1
274 289 1
619 289 1
620 289 1
136 290 1
152 290 1
158 290 1
172 290 1
268 290 1
275 290 1
620 290 1
621 290 1
137 291 1
153 291 1
159 291 1
173 291 1
269 291 1
276 291 1
621 291 1
622 291 1
138 292 1
154 292 1
160 292 1
174 292 1
270 292 1
277 292 1
622 292 1
623 292 1
133 293 1
139 293 1
161 293 1
175 293 1
271 293 1
278 293 1
623 293 1
624 293 1
134 294 1
140 294 1
162 294 1
176 294 1
272 294 1
279 294 1
624 294 1
625 294 1
135 295 1
141 295 1
155 295 1
163 295 1
273 295 1
280 295 1
625 295 1
626 295 1
136 296 1
142 296 1
156 296 1
164 296 1
274 296 1
281 296 1
626 296 1
627 296 1
137 297 1
143 297 1
157 297 1
165 297 1
275 297 1
282 297 1
627 297 1
628 297 1
138 298 1
144 298 1
158 298 1
166 298 1
276 298 1
283 298 1
628 298 1
629 298 1
139 299 1
145 299 1
159 299 1
167 299 1
277 299 1
284 299 1
629 299 1
630 299 1
140 300 1
146 300 1
160 300 1
168 300 1
278 300 1
285 300 1
630 300 1
631 300 1
141 301 1
147 301 1
161 301 1
169 301 1
279 301 1
286 301 1
631 301 1
632 301 1
142 302 1
148 302 1
162 302 1
170 302 1
265 302 1
280 302 1
632 302 1
633 302 1
143 303 1
149 303 1
163 303 1
171 303 1
266 303 1
281 303 1
633 303 1
634 303 1
144 304 1
150 304 1
164 304 1
172 304 1
267 304 1
282 304 1
634 304 1
635 304 1
145 305 1
151 305 1
165 305 1
173 305 1
268 305 1
283 305 1
635 305 1
636 305 1
146 306 1
152 306 1
166 306 1
174 306 1
269 306 1
284 306 1
636 306 1
637 306 1
147 307 1
153 307 1
167 307 1
175 307 1
270 307 1
285 307 1
637 307 1
638 307 1
148 308 1
154 308 1
168 308 1
176 308 1
271 308 1
286 308 1
617 308 1
638 308 1
133 309 1
152 309 1
177 309 1
191 309 1
287 309 1
294 309 1
639 309 1
640 309 1
134 310 1
153 310 1
178 310 1
192 310 1
288 310 1
295 310 1
640 310 1
641 310 1
135 311 1
154 311 1
179 311 1
193 311 1
289 311 1
296 311 1
641 311 1
642 311 1
133 312 1
136 312 1
180 312 1
194 312 1
290 312 1
297 312 1
642 312 1
643 312 1
134 313 1
137 313 1
181 313 1
195 313 1
291 313 1
298 313 1
643 313 1
644 313 1
135 314 1
138 314 1
182 314 1
196 314 1
292 314 1
299 314 1
644 314 1
645 314 1
136 315 1
139 315 1
183 315 1
197 315 1
293 315 1
300 315 1
645 315 1
646 315 1
137 316 1
140 316 1
184 316 1
198 316 1
294 316 1
301 316 1
646 316 1
647 316 1
138 317 1
141 317 1
177 317 1
185 317 1
295 317 1
302 317 1
647 317 1
648 317 1
139 318 1
142 318 1
178 318 1
186 318 1
296 318 1
303 318 1
648 318 1
649 318 1
140 319 1
143 319 1
179 319 1
187 319 1
297 319 1
304 319 1
649 319 1
650 319 1
141 320 1
144 320 1
180 320 1
188 320 1
298 320 1
305 320 1
650 320 1
651 320 1
142 321 1
145 321 1
181 321 1
189 321 1
299 321 1
306 321 1
651 321 1
652 321 1
143 322 1
146 322 1
182 322 1
190 322 1
300 322 1
307 322 1
652 322 1
653 322 1
144 323 1
147 323 1
183 323 1
191 323 1
301 323 1
308 323 1
653 323 1
654 323 1
145 324 1
148 324 1
184 324 1
192 324 1
287 324 1
302 324 1
654 324 1
655 324 1
146 325 1
149 325 1
185 325 1
193 325 1
288 325 1
303 325 1
655 325 1
656 325 1
147 326 1
150 326 1
186 326 1
194 326 1
289 326 1
304 326 1
656 326 1
657 326 1
148 327 1
151 327 1
187 327 1
195 327 1
290 327 1
305 327 1
657 327 1
658 327 1
149 328 1
152 328 1
188 328 1
196 328 1
291 328 1
306 328 1
658 328 1
659 328 1
150 329 1
153 329 1
189 329 1
197 329 1
292 329 1
307 329 1
659 329 1
660 329 1
151 330 1
154 330 1
190 330 1
198 330 1
293 330 1
308 330 1
639 330 1
660 330 1
155 331 1
174 331 1
177 331 1
193 331 1
309 331 1
316 331 1
661 331 1
662 331 1
156 332 1
175 332 1
178 332 1
194 332 1
310 332 1
317 332 1
662 332 1
663 332 1
157 333 1
176 333 1
179 333 1
195 333 1
311 333 1
318 333 1
663 333 1
664 333 1
155 334 1
158 334 1
180 334 1
196 334 1
312 334 1
319 334 1
664 334 1
665 334 1
156 335 1
159 335 1
181 335 1
197 335 1
313 335 1
320 335 1
665 335 1
666 335 1
157 336 1
160 336 1
182 336 1
198 336 1
314 336 1
321 336 1
666 336 1
667 336 1
158 337 1
161 337 1
177 337 1
183 337 1
315 337 1
322 337 1
667 337 1
668 337 1
159 338 1
162 338 1
178 338 1
184 338 1
316 338 1
323 338 1
668 338 1
669 338 1
160 339 1
163 339 1
179 339 1
185 339 1
317 339 1
324 339 1
669 339 1
670 339 1
161 340 1
164 340 1
180 340 1
186 340 1
318 340 1
325 340 1
670 340 1
671 340 1
162 341 1
165 341 1
181 341 1
187 341 1
319 341 1
326 341 1
671 341 1
672 341 1
163 342 1
166 342 1
182 342 1
188 342 1
320 342 1
327 342 1
672 342 1
673 342 1
164 343 1
167 343 1
183 343 1
189 343 1
321 343 1
328 343 1
673 343 1
674 343 1
165 344 1
168 344 1
184 344 1
190 344 1
322 344 1
329 344 1
674 344 1
675 344 1
166 345 1
169 345 1
185 345 1
191 345 1
323 345 1
330 345 1
675 345 1
676 345 1
167 346 1
170 346 1
186 346 1
192 346 1
309 346 1
324 346 1
676 346 1
677 346 1
168 347 1
171 347 1
187 347 1
193 347 1
310 347 1
325 347 1
677 347 1
678 347 1
169 348 1
172 348 1
188 348 1
194 348 1
311 348 1
326 348 1
678 348 1
679 348 1
170 349 1
173 349 1
189 349 1
195 349 1
312 349 1
327 349 1
679 349 1
680 349 1
171 350 1
174 350 1
190 350 1
196 350 1
313 350 1
328 350 1
680 350 1
681 350 1
172 351 1
175 351 1
191 351 1
197 351 1
314 351 1
329 351 1
681 351 1
682 351 1
173 352 1
176 352 1
192 352 1
198 352 1
315 352 1
330 352 1
661 352 1
682 352 1
199 353 1
215 353 1
221 353 1
235 353 1
265 353 1
277 353 1
683 353 1
684 353 1
200 354 1
216 354 1
222 354 1
236 354 1
266 354 1
278 354 1
684 354 1
685 354 1
201 355 1
217 355 1
223 355 1
237 355 1
267 355 1
279 355 1
685 355 1
686 355 1
202 356 1
218 356 1
224 356 1
238 356 1
268 356 1
280 356 1
686 356 1
687 356 1
203 357 1
219 357 1
225 357 1
239 357 1
269 357 1
281 357 1
687 357 1
688 357 1
204 358 1
220 358 1
226 358 1
240 358 1
270 358 1
282 358 1
688 358 1
689 358 1
199 359 1
205 359 1
227 359 1
241 359 1
271 359 1
283 359 1
689 359 1
690 359 1
200 360 1
206 360 1
228 360 1
242 360 1
272 360 1
284 360 1
690 360 1
691 360 1
201 361 1
207 361 1
221 361 1
229 361 1
273 361 1
285 361 1
691 361 1
692 361 1
202 362 1
208 362 1
222 362 1
230 362 1
274 362 1
286 362 1
692 362 1
693 362 1
203 363 1
209 363 1
223 363 1
231 363 1
265 363 1
275 363 1
693 363 1
694 363 1
204 364 1
210 364 1
224 364 1
232 364 1
266 364 1
276 364 1
694 364 1
695 364 1
205 365 1
211 365 1
225 365 1
233 365 1
267 365 1
277 365 1
695 365 1
696 365 1
206 366 1
212 366 1
226 366 1
234 366 1
268 366 1
278 366 1
696 366 1
697 366 1
207 367 1
213 367 1
227 367 1
235 367 1
269 367 1
279 367 1
697 367 1
698 367 1
208 368 1
214 368 1
228 368 1
236 368 1
270 368 1
280 368 1
698 368 1
699 368 1
209 369 1
215 369 1
229 369 1
237 369 1
271 369 1
281 369 1
699 369 1
700 369 1
210 370 1
216 370 1
230 370 1
238 370 1
272 370 1
282 370 1
700 370 1
701 370 1
211 371 1
217 371 1
231 371 1
239 371 1
273 371 1
283 371 1
701 371 1
702 371 1
212 372 1
218 372 1
232 372 1
240 372 1
274 372 1
284 372 1
702 372 1
703 372 1
213 373 1
219 373 1
233 373 1
241 373 1
275 373 1
285 373 1
703 373 1
704 373 1
214 374 1
220 374 1
234 374 1
242 374 1
276 374 1
286 374 1
683 374 1
704 374 1
199 375 1
218 375 1
243 375 1
257 375 1
287 375 1
299 375 1
705 375 1
706 375 1
200 376 1
219 376 1
244 376 1
258 376 1
288 376 1
300 376 1
706 376 1
707 376 1
201 377 1
220 377 1
245 377 1
259 377 1
289 377 1
301 377 1
707 377 1
708 377 1
199 378 1
202 378 1
246 378 1
260 378 1
290 378 1
302 378 1
708 378 1
709 378 1
200 379 1
203 379 1
247 379 1
261 379 1
291 379 1
303 379 1
709 379 1
710 379 1
201 380 1
204 380 1
248 380 1
262 380 1
292 380 1
304 380 1
710 380 1
711 380 1
202 381 1
205 381 1
249 381 1
263 381 1
293 381 1
305 381 1
711 381 1
712 381 1
203 382 1
206 382 1
250 382 1
264 382 1
294 382 1
306 382 1
712 382 1
713 382 1
204 383 1
207 383 1
243 383 1
251 383 1
295 383 1
307 383 1
713 383 1
714 383 1
205 384 1
208 384 1
244 384 1
252 384 1
296 384 1
308 384 1
714 384 1
715 384 1
206 385 1
209 385 1
245 385 1
253 385 1
287 385 1
297 385 1
715 385 1
716 385 1
207 386 1
210 386 1
246 386 1
254 386 1
288 386 1
298 386 1
716 386 1
717 386 1
208 387 1
211 387 1
247 387 1
255 387 1
289 387 1
299 387 1
717 387 1
718 387 1
209 388 1
212 388 1
248 388 1
256 388 1
290 388 1
300 388 1
718 388 1
719 388 1
210 389 1
213 389 1
249 389 1
257 389 1
291 389 1
301 389 1
719 389 1
720 389 1
211 390 1
214 390 1
250 390 1
258 390 1
292 390 1
302 390 1
720 390 1
721 390 1
212 391 1
215 391 1
251 391 1
259 391 1
293 391 1
303 391 1
721 391 1
722 391 1
213 392 1
216 392 1
252 392 1
260 392 1
294 392 1
304 392 1
722 392 1
723 392 1
214 393 1
217 393 1
253 393 1
261 393 1
295 393 1
305 393 1
723 393 1
724 393 1
215 394 1
218 394 1
254 394 1
262 394 1
296 394 1
306 394 1
724 394 1
725 394 1
216 395 1
219 395 1
255 395 1
263 395 1
297 395 1
307 395 1
725 395 1
726 395 1
217 396 1
220 396 1
256 396 1
264 396 1
298 396 1
308 396 1
705 396 1
726 396 1
221 397 1
240 397 1
243 397 1
259 397 1
309 397 1
321 397 1
727 397 1
728 397 1
222 398 1
241 398 1
244 398 1
260 398 1
310 398 1
322 398 1
728 398 1
729 398 1
223 399 1
242 399 1
245 399 1
261 399 1
311 399 1
323 399 1
729 399 1
730 399 1
221 400 1
224 400 1
246 400 1
262 400 1
312 400 1
324 400 1
730 400 1
731 400 1
222 401 1
225 401 1
247 401 1
263 401 1
313 401 1
325 401 1
731 401 1
732 401 1
223 402 1
226 402 1
248 402 1
264 402 1
314 402 1
326 402 1
732 402 1
733 402 1
224 403 1
227 403 1
243 403 1
249 403 1
315 403 1
327 403 1
733 403 1
734 403 1
225 404 1
228 404 1
244 404 1
250 404 1
316 404 1
328 404 1
734 404 1
735 404 1
226 405 1
229 405 1
245 405 1
251 405 1
317 405 1
329 405 1
735 405 1
736 405 1
227 406 1
230 406 1
246 406 1
252 406 1
318 406 1
330 406 1
736 406 1
737 406 1
228 407 1
231 407 1
247 407 1
253 407 1
309 407 1
319 407 1
737 407 1
738 407 1
229 408 1
232 408 1
248 408 1
254 408 1
310 408 1
320 408 1
738 408 1
739 408 1
230 409 1
233 409 1
249 409 1
255 409 1
311 409 1
321 409 1
739 409 1
740 409 1
231 410 1
234 410 1
250 410 1
256 410 1
312 410 1
322 410 1
740 410 1
741 410 1
232 411 1
235 411 1
251 411 1
257 411 1
313 411 1
323 411 1
741 411 1
742 411 1
233 412 1
236 412 1
252 412 1
258 412 1
314 412 1
324 412 1
742 412 1
743 412 1
234 413 1
237 413 1
253 413 1
259 413 1
315 413 1
325 413 1
743 413 1
744 413 1
235 414 1
238 414 1
254 414 1
260 414 1
316 414 1
326 414 1
744 414 1
745 414 1
236 415 1
239 415 1
255 415 1
261 415 1
317 415 1
327 415 1
745 415 1
746 415 1
237 416 1
240 416 1
256 416 1
262 416 1
318 416 1
328 416 1
746 416 1
747 416 1
238 417 1
241 417 1
257 417 1
263 417 1
319 417 1
329 417 1
747 417 1
748 417 1
239 418 1
242 418 1
258 418 1
264 418 1
320 418 1
330 418 1
727 418 1
748 418 1
265 419 1
284 419 1
287 419 1
303 419 1
309 419 1
323 419 1
749 419 1
750 419 1
266 420 1
285 420 1
288 420 1
304 420 1
310 420 1
324 420 1
750 420 1
751 420 1
267 421 1
286 421 1
289 421 1
305 421 1
311 421 1
325 421 1
751 421 1
752 421 1
265 422 1
268 422 1
290 422 1
306 422 1
312 422 1
326 422 1
752 422 1
753 422 1
266 423 1
269 423 1
291 423 1
307 423 1
313 423 1
327 423 1
753 423 1
754 423 1
267 424 1
270 424 1
292 424 1
308 424 1
314 424 1
328 424 1
754 424 1
755 424 1
268 425 1
271 425 1
287 425 1
293 425 1
315 425 1
329 425 1
755 425 1
756 425 1
269 426 1
272 426 1
288 426 1
294 426 1
316 426 1
330 426 1
756 426 1
757 426 1
270 427 1
273 427 1
289 427 1
295 427 1
309 427 1
317 427 1
757 427 1
758 427 1
271 428 1
274 428 1
290 428 1
296 428 1
310 428 1
318 428 1
758 428 1
759 428 1
272 429 1
275 429 1
291 429 1
297 429 1
311 429 1
319 429 1
759 429 1
760 429 1
273 430 1
276 430 1
292 430 1
298 430 1
312 430 1
320 430 1
760 430 1
761 430 1
274 431 1
277 431 1
293 431 1
299 431 1
313 431 1
321 431 1
761 431 1
762 431 1
275 432 1
278 432 1
294 432 1
300 432 1
314 432 1
322 432 1
762 432 1
763 432 1
276 433 1
279 433 1
295 433 1
301 433 1
315 433 1
323 433 1
763 433 1
764 433 1
277 434 1
280 434 1
296 434 1
302 434 1
316 434 1
324 434 1
764 434 1
765 434 1
278 435 1
281 435 1
297 435 1
303 435 1
317 435 1
325 435 1
765 435 1
766 435 1
279 436 1
282 436 1
298 436 1
304 436 1
318 436 1
326 436 1
766 436 1
767 436 1
280 437 1
283 437 1
299 437 1
305 437 1
319 437 1
327 437 1
767 437 1
768 437 1
281 438 1
284 438 1
300 438 1
306 438 1
320 438 1
328 438 1
768 438 1
769 438 1
282 439 1
285 439 1
301 439 1
307 439 1
321 439 1
329 439 1
769 439 1
770 439 1
283 440 1
286 440 1
302 440 1
308 440 1
322 440 1
330 440 1
749 440 1
770 440 1
331 441 1
345 441 1
353 441 1
365 441 1
419 441 1
426 441 1
551 441 1
556 441 1
332 442 1
346 442 1
354 442 1
366 442 1
420 442 1
427 442 1
552 442 1
557 442 1
333 443 1
347 443 1
355 443 1
367 443 1
421 443 1
428 443 1
553 443 1
558 443 1
334 444 1
348 444 1
356 444 1
368 444 1
422 444 1
429 444 1
554 444 1
559 444 1
335 445 1
349 445 1
357 445 1
369 445 1
423 445 1
430 445 1
555 445 1
560 445 1
336 446 1
350 446 1
358 446 1
370 446 1
424 446 1
431 446 1
556 446 1
561 446 1
337 447 1
351 447 1
359 447 1
371 447 1
425 447 1
432 447 1
557 447 1
562 447 1
338 448 1
352 448 1
360 448 1
372 448 1
426 448 1
433 448 1
558 448 1
563 448 1
331 449 1
339 449 1
361 449 1
373 449 1
427 449 1
434 449 1
559 449 1
564 449 1
332 450 1
340 450 1
362 450 1
374 450 1
428 450 1
435 450 1
560 450 1
565 450 1
333 451 1
341 451 1
353 451 1
363 451 1
429 451 1
436 451 1
561 451 1
566 451 1
334 452 1
342 452 1
354 452 1
364 452 1
430 452 1
437 452 1
562 452 1
567 452 1
335 453 1
343 453 1
355 453 1
365 453 1
431 453 1
438 453 1
563 453 1
568 453 1
336 454 1
344 454 1
356 454 1
366 454 1
432 454 1
439 454 1
564 454 1
569 454 1
337 455 1
345 455 1
357 455 1
367 455 1
433 455 1
440 455 1
565 455 1
570 455 1
338 456 1
346 456 1
358 456 1
368 456 1
419 456 1
434 456 1
566 456 1
571 456 1
339 457 1
347 457 1
359 457 1
369 457 1
420 457 1
435 457 1
567 457 1
572 457 1
340 458 1
348 458 1
360 458 1
370 458 1
421 458 1
436 458 1
551 458 1
568 458 1
341 459 1
349 459 1
361 459 1
371 459 1
422 459 1
437 459 1
552 459 1
569 459 1
342 460 1
350 460 1
362 460 1
372 460 1
423 460 1
438 460 1
553 460 1
570 460 1
343 461 1
351 461 1
363 461 1
373 461 1
424 461 1
439 461 1
554 461 1
571 461 1
344 462 1
352 462 1
364 462 1
374 462 1
425 462 1
440 462 1
555 462 1
572 462 1
331 463 1
347 463 1
375 463 1
387 463 1
441 463 1
448 463 1
573 463 1
578 463 1
332 464 1
348 464 1
376 464 1
388 464 1
442 464 1
449 464 1
574 464 1
579 464 1
333 465 1
349 465 1
377 465 1
389 465 1
443 465 1
450 465 1
575 465 1
580 465 1
334 466 1
350 466 1
378 466 1
390 466 1
444 466 1
451 466 1
576 466 1
581 466 1
335 467 1
351 467 1
379 467 1
391 467 1
445 467 1
452 467 1
577 467 1
582 467 1
336 468 1
352 468 1
380 468 1
392 468 1
446 468 1
453 468 1
578 468 1
583 468 1
331 469 1
337 469 1
381 469 1
393 469 1
447 469 1
454 469 1
579 469 1
584 469 1
332 470 1
338 470 1
382 470 1
394 470 1
448 470 1
455 470 1
580 470 1
585 470 1
333 471 1
339 471 1
383 471 1
395 471 1
449 471 1
456 471 1
581 471 1
586 471 1
334 472 1
340 472 1
384 472 1
396 472 1
450 472 1
457 472 1
582 472 1
587 472 1
335 473 1
341 473 1
375 473 1
385 473 1
451 473 1
458 473 1
583 473 1
588 473 1
336 474 1
342 474 1
376 474 1
386 474 1
452 474 1
459 474 1
584 474 1
589 474 1
337 475 1
343 475 1
377 475 1
387 475 1
453 475 1
460 475 1
585 475 1
590 475 1
338 476 1
344 476 1
378 476 1
388 476 1
454 476 1
461 476 1
586 476 1
591 476 1
339 477 1
345 477 1
379 477 1
389 477 1
455 477 1
462 477 1
587 477 1
592 477 1
340 478 1
346 478 1
380 478 1
390 478 1
441 478 1
456 478 1
588 478 1
593 478 1
341 479 1
347 479 1
381 479 1
391 479 1
442 479 1
457 479 1
589 479 1
594 479 1
342 480 1
348 480 1
382 480 1
392 480 1
443 480 1
458 480 1
573 480 1
590 480 1
343 481 1
349 481 1
383 481 1
393 481 1
444 481 1
459 481 1
574 481 1
591 481 1
344 482 1
350 482 1
384 482 1
394 482 1
445 482 1
460 482 1
575 482 1
592 482 1
345 483 1
351 483 1
385 483 1
395 483 1
446 483 1
461 483 1
576 483 1
593 483 1
346 484 1
352 484 1
386 484 1
396 484 1
447 484 1
462 484 1
577 484 1
594 484 1
331 485 1
350 485 1
397 485 1
409 485 1
463 485 1
470 485 1
595 485 1
600 485 1
332 486 1
351 486 1
398 486 1
410 486 1
464 486 1
471 486 1
596 486 1
601 486 1
333 487 1
352 487 1
399 487 1
411 487 1
465 487 1
472 487 1
597 487 1
602 487 1
331 488 1
334 488 1
400 488 1
412 488 1
466 488 1
473 488 1
598 488 1
603 488 1
332 489 1
335 489 1
401 489 1
413 489 1
467 489 1
474 489 1
599 489 1
604 489 1
333 490 1
336 490 1
402 490 1
414 490 1
468 490 1
475 490 1
600 490 1
605 490 1
334 491 1
337 491 1
403 491 1
415 491 1
469 491 1
476 491 1
601 491 1
606 491 1
335 492 1
338 492 1
404 492 1
416 492 1
470 492 1
477 492 1
602 492 1
607 492 1
336 493 1
339 493 1
405 493 1
417 493 1
471 493 1
478 493 1
603 493 1
608 493 1
337 494 1
340 494 1
406 494 1
418 494 1
472 494 1
479 494 1
604 494 1
609 494 1
338 495 1
341 495 1
397 495 1
407 495 1
473 495 1
480 495 1
605 495 1
610 495 1
339 496 1
342 496 1
398 496 1
408 496 1
474 496 1
481 496 1
606 496 1
611 496 1
340 497 1
343 497 1
399 497 1
409 497 1
475 497 1
482 497 1
607 497 1
612 497 1
341 498 1
344 498 1
400 498 1
410 498 1
476 498 1
483 498 1
608 498 1
613 498 1
342 499 1
345 499 1
401 499 1
411 499 1
477 499 1
484 499 1
609 499 1
614 499 1
343 500 1
346 500 1
402 500 1
412 500 1
463 500 1
478 500 1
610 500 1
615 500 1
344 501 1
347 501 1
403 501 1
413 501 1
464 501 1
479 501 1
611 501 1
616 501 1
345 502 1
348 502 1
404 502 1
414 502 1
465 502 1
480 502 1
595 502 1
612 502 1
346 503 1
349 503 1
405 503 1
415 503 1
466 503 1
481 503 1
596 503 1
613 503 1
347 504 1
350 504 1
406 504 1
416 504 1
467 504 1
482 504 1
597 504 1
614 504 1
348 505 1
351 505 1
407 505 1
417 505 1
468 505 1
483 505 1
598 505 1
615 505 1
349 506 1
352 506 1
408 506 1
418 506 1
469 506 1
484 506 1
599 506 1
616 506 1
353 507 1
369 507 1
375 507 1
389 507 1
485 507 1
492 507 1
617 507 1
622 507 1
354 508 1
370 508 1
376 508 1
390 508 1
486 508 1
493 508 1
618 508 1
623 508 1
355 509 1
371 509 1
377 509 1
391 509 1
487 509 1
494 509 1
619 509 1
624 509 1
356 510 1
372 510 1
378 510 1
392 510 1
488 510 1
495 510 1
620 510 1
625 510 1
357 511 1
373 511 1
379 511 1
393 511 1
489 511 1
496 511 1
621 511 1
626 511 1
358 512 1
374 512 1
380 512 1
394 512 1
490 512 1
497 512 1
622 512 1
627 512 1
353 513 1
359 513 1
381 513 1
395 513 1
491 513 1
498 513 1
623 513 1
628 513 1
354 514 1
360 514 1
382 514 1
396 514 1
492 514 1
499 514 1
624 514 1
629 514 1
355 515 1
361 515 1
375 515 1
383 515 1
493 515 1
500 515 1
625 515 1
630 515 1
356 516 1
362 516 1
376 516 1
384 516 1
494 516 1
501 516 1
626 516 1
631 516 1
357 517 1
363 517 1
377 517 1
385 517 1
495 517 1
502 517 1
627 517 1
632 517 1
358 518 1
364 518 1
378 518 1
386 518 1
496 518 1
503 518 1
628 518 1
633 518 1
359 519 1
365 519 1
379 519 1
387 519 1
497 519 1
504 519 1
629 519 1
634 519 1
360 520 1
366 520 1
380 520 1
388 520 1
498 520 1
505 520 1
630 520 1
635 520 1
361 521 1
367 521 1
381 521 1
389 521 1
499 521 1
506 521 1
631 521 1
636 521 1
362 522 1
368 522 1
382 522 1
390 522 1
485 522 1
500 522 1
632 522 1
637 522 1
363 523 1
369 523 1
383 523 1
391 523 1
486 523 1
501 523 1
633 523 1
638 523 1
364 524 1
370 524 1
384 524 1
392 524 1
487 524 1
502 524 1
617 524 1
634 524 1
365 525 1
371 525 1
385 525 1
393 525 1
488 525 1
503 525 1
618 525 1
635 525 1
366 526 1
372 526 1
386 526 1
394 526 1
489 526 1
504 526 1
619 526 1
636 526 1
367 527 1
373 527 1
387 527 1
395 527 1
490 527 1
505 527 1
620 527 1
637 527 1
368 528 1
374 528 1
388 528 1
396 528 1
491 528 1
506 528 1
621 528 1
638 528 1
353 529 1
372 529 1
397 529 1
411 529 1
507 529 1
514 529 1
639 529 1
644 529 1
354 530 1
373 530 1
398 530 1
412 530 1
508 530 1
515 530 1
640 530 1
645 530 1
355 531 1
374 531 1
399 531 1
413 531 1
509 531 1
516 531 1
641 531 1
646 531 1
353 532 1
356 532 1
400 532 1
414 532 1
510 532 1
517 532 1
642 532 1
647 532 1
354 533 1
357 533 1
401 533 1
415 533 1
511 533 1
518 533 1
643 533 1
648 533 1
355 534 1
358 534 1
402 534 1
416 534 1
512 534 1
519 534 1
644 534 1
649 534 1
356 535 1
359 535 1
403 535 1
417 535 1
513 535 1
520 535 1
645 535 1
650 535 1
357 536 1
360 536 1
404 536 1
418 536 1
514 536 1
521 536 1
646 536 1
651 536 1
358 537 1
361 537 1
397 537 1
405 537 1
515 537 1
522 537 1
647 537 1
652 537 1
359 538 1
362 538 1
398 538 1
406 538 1
516 538 1
523 538 1
648 538 1
653 538 1
360 539 1
363 539 1
399 539 1
407 539 1
517 539 1
524 539 1
649 539 1
654 539 1
361 540 1
364 540 1
400 540 1
408 540 1
518 540 1
525 540 1
650 540 1
655 540 1
362 541 1
365 541 1
401 541 1
409 541 1
519 541 1
526 541 1
651 541 1
656 541 1
363 542 1
366 542 1
402 542 1
410 542 1
520 542 1
527 542 1
652 542 1
657 542 1
364 543 1
367 543 1
403 543 1
411 543 1
521 543 1
528 543 1
653 543 1
658 543 1
365 544 1
368 544 1
404 544 1
412 544 1
507 544 1
522 544 1
654 544 1
659 544 1
366 545 1
369 545 1
405 545 1
413 545 1
508 545 1
523 545 1
655 545 1
660 545 1
367 546 1
370 546 1
406 546 1
414 546 1
509 546 1
524 546 1
639 546 1
656 546 1
368 547 1
371 547 1
407 547 1
415 547 1
510 547 1
525 547 1
640 547 1
657 547 1
369 548 1
372 548 1
408 548 1
416 548 1
511 548 1
526 548 1
641 548 1
658 548 1
370 549 1
373 549 1
409 549 1
417 549 1
512 549 1
527 549 1
642 549 1
659 549 1
371 550 1
374 550 1
410 550 1
418 550 1
513 550 1
528 550 1
643 550 1
660 550 1
375 551 1
394 551 1
397 551 1
413 551 1
529 551 1
536 551 1
661 551 1
666 551 1
376 552 1
395 552 1
398 552 1
414 552 1
530 552 1
537 552 1
662 552 1
667 552 1
377 553 1
396 553 1
399 553 1
415 553 1
531 553 1
538 553 1
663 553 1
668 553 1
375 554 1
378 554 1
400 554 1
416 554 1
532 554 1
539 554 1
664 554 1
669 554 1
376 555 1
379 555 1
401 555 1
417 555 1
533 555 1
540 555 1
665 555 1
670 555 1
377 556 1
380 556 1
402 556 1
418 556 1
534 556 1
541 556 1
666 556 1
671 556 1
378 557 1
381 557 1
397 557 1
403 557 1
535 557 1
542 557 1
667 557 1
672 557 1
379 558 1
382 558 1
398 558 1
404 558 1
536 558 1
543 558 1
668 558 1
673 558 1
380 559 1
383 559 1
399 559 1
405 559 1
537 559 1
544 559 1
669 559 1
674 559 1
381 560 1
384 560 1
400 560 1
406 560 1
538 560 1
545 560 1
670 560 1
675 560 1
382 561 1
385 561 1
401 561 1
407 561 1
539 561 1
546 561 1
671 561 1
676 561 1
383 562 1
386 562 1
402 562 1
408 562 1
540 562 1
547 562 1
672 562 1
677 562 1
384 563 1
387 563 1
403 563 1
409 563 1
541 563 1
548 563 1
673 563 1
678 563 1
385 564 1
388 564 1
404 564 1
410 564 1
542 564 1
549 564 1
674 564 1
679 564 1
386 565 1
389 565 1
405 565 1
411 565 1
543 565 1
550 565 1
675 565 1
680 565 1
387 566 1
390 566 1
406 566 1
412 566 1
529 566 1
544 566 1
676 566 1
681 566 1
388 567 1
391 567 1
407 567 1
413 567 1
530 567 1
545 567 1
677 567 1
682 567 1
389 568 1
392 568 1
408 568 1
414 568 1
531 568 1
546 568 1
661 568 1
678 568 1
390 569 1
393 569 1
409 569 1
415 569 1
532 569 1
547 569 1
662 569 1
679 569 1
391 570 1
394 570 1
410 570 1
416 570 1
533 570 1
548 570 1
663 570 1
680 570 1
392 571 1
395 571 1
411 571 1
417 571 1
534 571 1
549 571 1
664 571 1
681 571 1
393 572 1
396 572 1
412 572 1
418 572 1
535 572 1
550 572 1
665 572 1
682 572 1
419 573 1
435 573 1
441 573 1
455 573 1
485 573 1
497 573 1
683 573 1
688 573 1
420 574 1
436 574 1
442 574 1
456 574 1
486 574 1
498 574 1
684 574 1
689 574 1
421 575 1
437 575 1
443 575 1
457 575 1
487 575 1
499 575 1
685 575 1
690 575 1
422 576 1
438 576 1
444 576 1
458 576 1
488 576 1
500 576 1
686 576 1
691 576 1
423 577 1
439 577 1
445 577 1
459 577 1
489 577 1
501 577 1
687 577 1
692 577 1
424 578 1
440 578 1
446 578 1
460 578 1
490 578 1
502 578 1
688 578 1
693 578 1
419 579 1
425 579 1
447 579 1
461 579 1
491 579 1
503 579 1
689 579 1
694 579 1
420 580 1
426 580 1
448 580 1
462 580 1
492 580 1
504 580 1
690 580 1
695 580 1
421 581 1
427 581 1
441 581 1
449 581 1
493 581 1
505 581 1
691 581 1
696 581 1
422 582 1
428 582 1
442 582 1
450 582 1
494 582 1
506 582 1
692 582 1
697 582 1
423 583 1
429 583 1
443 583 1
451 583 1
485 583 1
495 583 1
693 583 1
698 583 1
424 584 1
430 584 1
444 584 1
452 584 1
486 584 1
496 584 1
694 584 1
699 584 1
425 585 1
431 585 1
445 585 1
453 585 1
487 585 1
497 585 1
695 585 1
700 585 1
426 586 1
432 586 1
446 586 1
454 586 1
488 586 1
498 586 1
696 586 1
701 586 1
427 587 1
433 587 1
447 587 1
455 587 1
489 587 1
499 587 1
697 587 1
702 587 1
428 588 1
434 588 1
448 588 1
456 588 1
490 588 1
500 588 1
698 588 1
703 588 1
429 589 1
435 589 1
449 589 1
457 589 1
491 589 1
501 589 1
699 589 1
704 589 1
430 590 1
436 590 1
450 590 1
458 590 1
492 590 1
502 590 1
683 590 1
700 590 1
431 591 1
437 591 1
451 591 1
459 591 1
493 591 1
503 591 1
684 591 1
701 591 1
432 592 1
438 592 1
452 592 1
460 592 1
494 592 1
504 592 1
685 592 1
702 592 1
433 593 1
439 593 1
453 593 1
461 593 1
495 593 1
505 593 1
686 593 1
703 593 1
434 594 1
440 594 1
454 594 1
462 594 1
496 594 1
506 594 1
687 594 1
704 594 1
419 595 1
438 595 1
463 595 1
477 595 1
507 595 1
519 595 1
705 595 1
710 595 1
420 596 1
439 596 1
464 596 1
478 596 1
508 596 1
520 596 1
706 596 1
711 596 1
421 597 1
440 597 1
465 597 1
479 597 1
509 597 1
521 597 1
707 597 1
712 597 1
419 598 1
422 598 1
466 598 1
480 598 1
510 598 1
522 598 1
708 598 1
713 598 1
420 599 1
423 599 1
467 599 1
481 599 1
511 599 1
523 599 1
709 599 1
714 599 1
421 600 1
424 600 1
468 600 1
482 600 1
512 600 1
524 600 1
710 600 1
715 600 1
422 601 1
425 601 1
469 601 1
483 601 1
513 601 1
525 601 1
711 601 1
716 601 1
423 602 1
426 602 1
470 602 1
484 602 1
514 602 1
526 602 1
712 602 1
717 602 1
424 603 1
427 603 1
463 603 1
471 603 1
515 603 1
527 603 1
713 603 1
718 603 1
425 604 1
428 604 1
464 604 1
472 604 1
516 604 1
528 604 1
714 604 1
719 604 1
426 605 1
429 605 1
465 605 1
473 605 1
507 605 1
517 605 1
715 605 1
720 605 1
427 606 1
430 606 1
466 606 1
474 606 1
508 606 1
518 606 1
716 606 1
721 606 1
428 607 1
431 607 1
467 607 1
475 607 1
509 607 1
519 607 1
717 607 1
722 607 1
429 608 1
432 608 1
468 608 1
476 608 1
510 608 1
520 608 1
718 608 1
723 608 1
430 609 1
433 609 1
469 609 1
477 609 1
511 609 1
521 609 1
719 609 1
724 609 1
431 610 1
434 610 1
470 610 1
478 610 1
512 610 1
522 610 1
720 610 1
725 610 1
432 611 1
435 611 1
471 611 1
479 611 1
513 611 1
523 611 1
721 611 1
726 611 1
433 612 1
436 612 1
472 612 1
480 612 1
514 612 1
524 612 1
705 612 1
722 612 1
434 613 1
437 613 1
473 613 1
481 613 1
515 613 1
525 613 1
706 613 1
723 613 1
435 614 1
438 614 1
474 614 1
482 614 1
516 614 1
526 614 1
707 614 1
724 614 1
436 615 1
439 615 1
475 615 1
483 615 1
517 615 1
527 615 1
708 615 1
725 615 1
437 616 1
440 616 1
476 616 1
484 616 1
518 616 1
528 616 1
709 616 1
726 616 1
441 617 1
460 617 1
463 617 1
479 617 1
529 617 1
541 617 1
727 617 1
732 617 1
442 618 1
461 618 1
464 618 1
480 618 1
530 618 1
542 618 1
728 618 1
733 618 1
443 619 1
462 619 1
465 619 1
481 619 1
531 619 1
543 619 1
729 619 1
734 619 1
441 620 1
444 620 1
466 620 1
482 620 1
532 620 1
544 620 1
730 620 1
735 620 1
442 621 1
445 621 1
467 621 1
483 621 1
533 621 1
545 621 1
731 621 1
736 621 1
443 622 1
446 622 1
468 622 1
484 622 1
534 622 1
546 622 1
732 622 1
737 622 1
444 623 1
447 623 1
463 623 1
469 623 1
535 623 1
547 623 1
733 623 1
738 623 1
445 624 1
448 624 1
464 624 1
470 624 1
536 624 1
548 624 1
734 624 1
739 624 1
446 625 1
449 625 1
465 625 1
471 625 1
537 625 1
549 625 1
735 625 1
740 625 1
447 626 1
450 626 1
466 626 1
472 626 1
538 626 1
550 626 1
736 626 1
741 626 1
448 627 1
451 627 1
467 627 1
473 627 1
529 627 1
539 627 1
737 627 1
742 627 1
449 628 1
452 628 1
468 628 1
474 628 1
530 628 1
540 628 1
738 628 1
743 628 1
450 629 1
453 629 1
469 629 1
475 629 1
531 629 1
541 629 1
739 629 1
744 629 1
451 630 1
454 630 1
470 630 1
476 630 1
532 630 1
542 630 1
740 630 1
745 630 1
452 631 1
455 631 1
471 631 1
477 631 1
533 631 1
543 631 1
741 631 1
746 631 1
453 632 1
456 632 1
472 632 1
478 632 1
534 632 1
544 632 1
742 632 1
747 632 1
454 633 1
457 633 1
473 633 1
479 633 1
535 633 1
545 633 1
743 633 1
748 633 1
455 634 1
458 634 1
474 634 1
480 634 1
536 634 1
546 634 1
727 634 1
744 634 1
456 635 1
459 635 1
475 635 1
481 635 1
537 635 1
547 635 1
728 635 1
745 635 1
457 636 1
460 636 1
476 636 1
482 636 1
538 636 1
548 636 1
729 636 1
746 636 1
458 637 1
461 637 1
477 637 1
483 637 1
539 637 1
549 637 1
730 637 1
747 637 1
459 638 1
462 638 1
478 638 1
484 638 1
540 638 1
550 638 1
731 638 1
748 638 1
485 639 1
504 639 1
507 639 1
523 639 1
529 639 1
543 639 1
749 639 1
754 639 1
486 640 1
505 640 1
508 640 1
524 640 1
530 640 1
544 640 1
750 640 1
755 640 1
487 641 1
506 641 1
509 641 1
525 641 1
531 641 1
545 641 1
751 641 1
756 641 1
485 642 1
488 642 1
510 642 1
526 642 1
532 642 1
546 642 1
752 642 1
757 642 1
486 643 1
489 643 1
511 643 1
527 643 1
533 643 1
547 643 1
753 643 1
758 643 1
487 644 1
490 644 1
512 644 1
528 644 1
534 644 1
548 644 1
754 644 1
759 644 1
488 645 1
491 645 1
507 645 1
513 645 1
535 645 1
549 645 1
755 645 1
760 645 1
489 646 1
492 646 1
508 646 1
514 646 1
536 646 1
550 646 1
756 646 1
761 646 1
490 647 1
493 647 1
509 647 1
515 647 1
529 647 1
537 647 1
757 647 1
762 647 1
491 648 1
494 648 1
510 648 1
516 648 1
530 648 1
538 648 1
758 648 1
763 648 1
492 649 1
495 649 1
511 649 1
517 649 1
531 649 1
539 649 1
759 649 1
764 649 1
493 650 1
496 650 1
512 650 1
518 650 1
532 650 1
540 650 1
760 650 1
765 650 1
494 651 1
497 651 1
513 651 1
519 651 1
533 651 1
541 651 1
761 651 1
766 651 1
495 652 1
498 652 1
514 652 1
520 652 1
534 652 1
542 652 1
762 652 1
767 652 1
496 653 1
499 653 1
515 653 1
521 653 1
535 653 1
543 653 1
763 653 1
768 653 1
497 654 1
500 654 1
516 654 1
522 654 1
536 654 1
544 654 1
764 654 1
769 654 1
498 655 1
501 655 1
517 655 1
523 655 1
537 655 1
545 655 1
765 655 1
770 655 1
499 656 1
502 656 1
518 656 1
524 656 1
538 656 1
546 656 1
749 656 1
766 656 1
500 657 1
503 657 1
519 657 1
525 657 1
539 657 1
547 657 1
750 657 1
767 657 1
501 658 1
504 658 1
520 658 1
526 658 1
540 658 1
548 658 1
751 658 1
768 658 1
502 659 1
505 659 1
521 659 1
527 659 1
541 659 1
549 659 1
752 659 1
769 659 1
503 660 1
506 660 1
522 660 1
528 660 1
542 660 1
550 660 1
753 660 1
770 660 1
551 661 1
567 661 1
573 661 1
587 661 1
617 661 1
629 661 1
683 661 1
690 661 1
552 662 1
568 662 1
574 662 1
588 662 1
618 662 1
630 662 1
684 662 1
691 662 1
553 663 1
569 663 1
575 663 1
589 663 1
619 663 1
631 663 1
685 663 1
692 663 1
554 664 1
570 664 1
576 664 1
590 664 1
620 664 1
632 664 1
686 664 1
693 664 1
555 665 1
571 665 1
577 665 1
591 665 1
621 665 1
633 665 1
687 665 1
694 665 1
556 666 1
572 666 1
578 666 1
592 666 1
622 666 1
634 666 1
688 666 1
695 666 1
551 667 1
557 667 1
579 667 1
593 667 1
623 667 1
635 667 1
689 667 1
696 667 1
552 668 1
558 668 1
580 668 1
594 668 1
624 668 1
636 668 1
690 668 1
697 668 1
553 669 1
559 669 1
573 669 1
581 669 1
625 669 1
637 669 1
691 669 1
698 669 1
554 670 1
560 670 1
574 670 1
582 670 1
626 670 1
638 670 1
692 670 1
699 670 1
555 671 1
561 671 1
575 671 1
583 671 1
617 671 1
627 671 1
693 671 1
700 671 1
556 672 1
562 672 1
576 672 1
584 672 1
618 672 1
628 672 1
694 672 1
701 672 1
557 673 1
563 673 1
577 673 1
585 673 1
619 673 1
629 673 1
695 673 1
702 673 1
558 674 1
564 674 1
578 674 1
586 674 1
620 674 1
630 674 1
696 674 1
703 674 1
559 675 1
565 675 1
579 675 1
587 675 1
621 675 1
631 675 1
697 675 1
704 675 1
560 676 1
566 676 1
580 676 1
588 676 1
622 676 1
632 676 1
683 676 1
698 676 1
561 677 1
567 677 1
581 677 1
589 677 1
623 677 1
633 677 1
684 677 1
699 677 1
562 678 1
568 678 1
582 678 1
590 678 1
624 678 1
634 678 1
685 678 1
700 678 1
563 679 1
569 679 1
583 679 1
591 679 1
625 679 1
635 679 1
686 679 1
701 679 1
564 680 1
570 680 1
584 680 1
592 680 1
626 680 1
636 680 1
687 680 1
702 680 1
565 681 1
571 681 1
585 681 1
593 681 1
627 681 1
637 681 1
688 681 1
703 681 1
566 682 1
572 682 1
586 682 1
594 682 1
628 682 1
638 682 1
689 682 1
704 682 1
551 683 1
570 683 1
595 683 1
609 683 1
639 683 1
651 683 1
705 683 1
712 683 1
552 684 1
571 684 1
596 684 1
610 684 1
640 684 1
652 684 1
706 684 1
713 684 1
553 685 1
572 685 1
597 685 1
611 685 1
641 685 1
653 685 1
707 685 1
714 685 1
551 686 1
554 686 1
598 686 1
612 686 1
642 686 1
654 686 1
708 686 1
715 686 1
552 687 1
555 687 1
599 687 1
613 687 1
643 687 1
655 687 1
709 687 1
716 687 1
553 688 1
556 688 1
600 688 1
614 688 1
644 688 1
656 688 1
710 688 1
717 688 1
554 689 1
557 689 1
601 689 1
615 689 1
645 689 1
657 689 1
711 689 1
718 689 1
555 690 1
558 690 1
602 690 1
616 690 1
646 690 1
658 690 1
712 690 1
719 690 1
556 691 1
559 691 1
595 691 1
603 691 1
647 691 1
659 691 1
713 691 1
720 691 1
557 692 1
560 692 1
596 692 1
604 692 1
648 692 1
660 692 1
714 692 1
721 692 1
558 693 1
561 693 1
597 693 1
605 693 1
639 693 1
649 693 1
715 693 1
722 693 1
559 694 1
562 694 1
598 694 1
606 694 1
640 694 1
650 694 1
716 694 1
723 694 1
560 695 1
563 695 1
599 695 1
607 695 1
641 695 1
651 695 1
717 695 1
724 695 1
561 696 1
564 696 1
600 696 1
608 696 1
642 696 1
652 696 1
718 696 1
725 696 1
562 697 1
565 697 1
601 697 1
609 697 1
643 697 1
653 697 1
719 697 1
726 697 1
563 698 1
566 698 1
602 698 1
610 698 1
644 698 1
654 698 1
705 698 1
720 698 1
564 699 1
567 699 1
603 699 1
611 699 1
645 699 1
655 699 1
706 699 1
721 699 1
565 700 1
568 700 1
604 700 1
612 700 1
646 700 1
656 700 1
707 700 1
722 700 1
566 701 1
569 701 1
605 701 1
613 701 1
647 701 1
657 701 1
708 701 1
723 701 1
567 702 1
570 702 1
606 702 1
614 702 1
648 702 1
658 702 1
709 702 1
724 702 1
568 703 1
571 703 1
607 703 1
615 703 1
649 703 1
659 703 1
710 703 1
725 703 1
569 704 1
572 704 1
608 704 1
616 704 1
650 704 1
660 704 1
711 704 1
726 704 1
573 705 1
592 705 1
595 705 1
611 705 1
661 705 1
673 705 1
727 705 1
734 705 1
574 706 1
593 706 1
596 706 1
612 706 1
662 706 1
674 706 1
728 706 1
735 706 1
575 707 1
594 707 1
597 707 1
613 707 1
663 707 1
675 707 1
729 707 1
736 707 1
573 708 1
576 708 1
598 708 1
614 708 1
664 708 1
676 708 1
730 708 1
737 708 1
574 709 1
577 709 1
599 709 1
615 709 1
665 709 1
677 709 1
731 709 1
738 709 1
575 710 1
578 710 1
600 710 1
616 710 1
666 710 1
678 710 1
732 710 1
739 710 1
576 711 1
579 711 1
595 711 1
601 711 1
667 711 1
679 711 1
733 711 1
740 711 1
577 712 1
580 712 1
596 712 1
602 712 1
668 712 1
680 712 1
734 712 1
741 712 1
578 713 1
581 713 1
597 713 1
603 713 1
669 713 1
681 713 1
735 713 1
742 713 1
579 714 1
582 714 1
598 714 1
604 714 1
670 714 1
682 714 1
736 714 1
743 714 1
580 715 1
583 715 1
599 715 1
605 715 1
661 715 1
671 715 1
737 715 1
744 715 1
581 716 1
584 716 1
600 716 1
606 716 1
662 716 1
672 716 1
738 716 1
745 716 1
582 717 1
585 717 1
601 717 1
607 717 1
663 717 1
673 717 1
739 717 1
746 717 1
583 718 1
586 718 1
602 718 1
608 718 1
664 718 1
674 718 1
740 718 1
747 718 1
584 719 1
587 719 1
603 719 1
609 719 1
665 719 1
675 719 1
741 719 1
748 719 1
585 720 1
588 720 1
604 720 1
610 720 1
666 720 1
676 720 1
727 720 1
742 720 1
586 721 1
589 721 1
605 721 1
611 721 1
667 721 1
677 721 1
728 721 1
743 721 1
587 722 1
590 722 1
606 722 1
612 722 1
668 722 1
678 722 1
729 722 1
744 722 1
588 723 1
591 723 1
607 723 1
613 723 1
669 723 1
679 723 1
730 723 1
745 723 1
589 724 1
592 724 1
608 724 1
614 724 1
670 724 1
680 724 1
731 724 1
746 724 1
590 725 1
593 725 1
609 725 1
615 725 1
671 725 1
681 725 1
732 725 1
747 725 1
591 726 1
594 726 1
610 726 1
616 726 1
672 726 1
682 726 1
733 726 1
748 726 1
617 727 1
636 727 1
639 727 1
655 727 1
661 727 1
675 727 1
749 727 1
756 727 1
618 728 1
637 728 1
640 728 1
656 728 1
662 728 1
676 728 1
750 728 1
757 728 1
619 729 1
638 729 1
641 729 1
657 729 1
663 729 1
677 729 1
751 729 1
758 729 1
617 730 1
620 730 1
642 730 1
658 730 1
664 730 1
678 730 1
752 730 1
759 730 1
618 731 1
621 731 1
643 731 1
659 731 1
665 731 1
679 731 1
753 731 1
760 731 1
619 732 1
622 732 1
644 732 1
660 732 1
666 732 1
680 732 1
754 732 1
761 732 1
620 733 1
623 733 1
639 733 1
645 733 1
667 733 1
681 733 1
755 733 1
762 733 1
621 734 1
624 734 1
640 734 1
646 734 1
668 734 1
682 734 1
756 734 1
763 734 1
622 735 1
625 735 1
641 735 1
647 735 1
661 735 1
669 735 1
757 735 1
764 735 1
623 736 1
626 736 1
642 736 1
648 736 1
662 736 1
670 736 1
758 736 1
765 736 1
624 737 1
627 737 1
643 737 1
649 737 1
663 737 1
671 737 1
759 737 1
766 737 1
625 738 1
628 738 1
644 738 1
650 738 1
664 738 1
672 738 1
760 738 1
767 738 1
626 739 1
629 739 1
645 739 1
651 739 1
665 739 1
673 739 1
761 739 1
768 739 1
627 740 1
630 740 1
646 740 1
652 740 1
666 740 1
674 740 1
762 740 1
769 740 1
628 741 1
631 741 1
647 741 1
653 741 1
667 741 1
675 741 1
763 741 1
770 741 1
629 742 1
632 742 1
648 742 1
654 742 1
668 742 1
676 742 1
749 742 1
764 742 1
630 743 1
633 743 1
649 743 1
655 743 1
669 743 1
677 743 1
750 743 1
765 743 1
631 744 1
634 744 1
650 744 1
656 744 1
670 744 1
678 744 1
751 744 1
766 744 1
632 745 1
635 745 1
651 745 1
657 745 1
671 745 1
679 745 1
752 745 1
767 745 1
633 746 1
636 746 1
652 746 1
658 746 1
672 746 1
680 746 1
753 746 1
768 746 1
634 747 1
637 747 1
653 747 1
659 747 1
673 747 1
681 747 1
754 747 1
769 747 1
635 748 1
638 748 1
654 748 1
660 748 1
674 748 1
682 748 1
755 748 1
770 748 1
683 749 1
702 749 1
705 749 1
721 749 1
727 749 1
741 749 1
749 749 1
761 749 1
684 750 1
703 750 1
706 750 1
722 750 1
728 750 1
742 750 1
750 750 1
762 750 1
685 751 1
704 751 1
707 751 1
723 751 1
729 751 1
743 751 1
751 751 1
763 751 1
683 752 1
686 752 1
708 752 1
724 752 1
730 752 1
744 752 1
752 752 1
764 752 1
684 753 1
687 753 1
709 753 1
725 753 1
731 753 1
745 753 1
753 753 1
765 753 1
685 754 1
688 754 1
710 754 1
726 754 1
732 754 1
746 754 1
754 754 1
766 754 1
686 755 1
689 755 1
705 755 1
711 755 1
733 755 1
747 755 1
755 755 1
767 755 1
687 756 1
690 756 1
706 756 1
712 756 1
734 756 1
748 756 1
756 756 1
768 756 1
688 757 1
691 757 1
707 757 1
713 757 1
727 757 1
735 757 1
757 757 1
769 757 1
689 758 1
692 758 1
708 758 1
714 758 1
728 758 1
736 758 1
758 758 1
770 758 1
690 759 1
693 759 1
709 759 1
715 759 1
729 759 1
737 759 1
749 759 1
759 759 1
691 760 1
694 760 1
710 760 1
716 760 1
730 760 1
738 760 1
750 760 1
760 760 1
692 761 1
695 761 1
711 761 1
717 761 1
731 761 1
739 761 1
751 761 1
761 761 1
693 762 1
696 762 1
712 762 1
718 762 1
732 762 1
740 762 1
752 762 1
762 762 1
694 763 1
697 763 1
713 763 1
719 763 1
733 763 1
741 763 1
753 763 1
763 763 1
695 764 1
698 764 1
714 764 1
720 764 1
734 764 1
742 764 1
754 764 1
764 764 1
696 765 1
699 765 1
715 765 1
721 765 1
735 765 1
743 765 1
755 765 1
765 765 1
697 766 1
700 766 1
716 766 1
722 766 1
736 766 1
744 766 1
756 766 1
766 766 1
698 767 1
701 767 1
717 767 1
723 767 1
737 767 1
745 767 1
757 767 1
767 767 1
699 768 1
702 768 1
718 768 1
724 768 1
738 768 1
746 768 1
758 768 1
768 768 1
700 769 1
703 769 1
719 769 1
725 769 1
739 769 1
747 769 1
759 769 1
769 769 1
701 770 1
704 770 1
720 770 1
726 770 1
740 770 1
748 770 1
760 770 1
770 770 1
