%%MatrixMarket matrix coordinate integer general
% Binary matrix; one-based indices; arithmetic over GF(2)
390 520 3120
1 1 1
8 1 1
27 1 1
32 1 1
131 1 1
134 1 1
2 2 1
9 2 1
28 2 1
33 2 1
132 2 1
135 2 1
3 3 1
10 3 1
29 3 1
34 3 1
133 3 1
136 3 1
4 4 1
11 4 1
30 4 1
35 4 1
134 4 1
137 4 1
5 5 1
12 5 1
31 5 1
36 5 1
135 5 1
138 5 1
6 6 1
13 6 1
32 6 1
37 6 1
136 6 1
139 6 1
7 7 1
14 7 1
33 7 1
38 7 1
137 7 1
140 7 1
8 8 1
15 8 1
34 8 1
39 8 1
138 8 1
141 8 1
9 9 1
16 9 1
35 9 1
40 9 1
139 9 1
142 9 1
10 10 1
17 10 1
36 10 1
41 10 1
140 10 1
143 10 1
11 11 1
18 11 1
37 11 1
42 11 1
141 11 1
144 11 1
12 12 1
19 12 1
38 12 1
43 12 1
142 12 1
145 12 1
13 13 1
20 13 1
39 13 1
44 13 1
143 13 1
146 13 1
14 14 1
21 14 1
40 14 1
45 14 1
144 14 1
147 14 1
15 15 1
22 15 1
41 15 1
46 15 1
145 15 1
148 15 1
16 16 1
23 16 1
42 16 1
47 16 1
146 16 1
149 16 1
17 17 1
24 17 1
43 17 1
48 17 1
147 17 1
150 17 1
18 18 1
25 18 1
44 18 1
49 18 1
148 18 1
151 18 1
19 19 1
26 19 1
45 19 1
50 19 1
149 19 1
152 19 1
1 20 1
20 20 1
46 20 1
51 20 1
150 20 1
153 20 1
2 21 1
21 21 1
47 21 1
52 21 1
151 21 1
154 21 1
3 22 1
22 22 1
27 22 1
48 22 1
152 22 1
155 22 1
4 23 1
23 23 1
28 23 1
49 23 1
153 23 1
156 23 1
5 24 1
24 24 1
29 24 1
50 24 1
131 24 1
154 24 1
6 25 1
25 25 1
30 25 1
51 25 1
132 25 1
155 25 1
7 26 1
26 26 1
31 26 1
52 26 1
133 26 1
156 26 1
1 27 1
17 27 1
53 27 1
58 27 1
157 27 1
160 27 1
2 28 1
18 28 1
54 28 1
59 28 1
158 28 1
161 28 1
3 29 1
19 29 1
55 29 1
60 29 1
159 29 1
162 29 1
4 30 1
20 30 1
56 30 1
61 30 1
160 30 1
163 30 1
5 31 1
21 31 1
57 31 1
62 31 1
161 31 1
164 31 1
6 32 1
22 32 1
58 32 1
63 32 1
162 32 1
165 32 1
7 33 1
23 33 1
59 33 1
64 33 1
163 33 1
166 33 1
8 34 1
24 34 1
60 34 1
65 34 1
164 34 1
167 34 1
9 35 1
25 35 1
61 35 1
66 35 1
165 35 1
168 35 1
10 36 1
26 36 1
62 36 1
67 36 1
166 36 1
169 36 1
1 37 1
11 37 1
63 37 1
68 37 1
167 37 1
170 37 1
2 38 1
12 38 1
64 38 1
69 38 1
168 38 1
171 38 1
3 39 1
13 39 1
65 39 1
70 39 1
169 39 1
172 39 1
4 40 1
14 40 1
66 40 1
71 40 1
170 40 1
173 40 1
5 41 1
15 41 1
67 41 1
72 41 1
171 41 1
174 41 1
6 42 1
16 42 1
68 42 1
73 42 1
172 42 1
175 42 1
7 43 1
17 43 1
69 43 1
74 43 1
173 43 1
176 43 1
8 44 1
18 44 1
70 44 1
75 44 1
174 44 1
177 44 1
9 45 1
19 45 1
71 45 1
76 45 1
175 45 1
178 45 1
10 46 1
20 46 1
72 46 1
77 46 1
176 46 1
179 46 1
11 47 1
21 47 1
73 47 1
78 47 1
177 47 1
180 47 1
12 48 1
22 48 1
53 48 1
74 48 1
178 48 1
181 48 1
13 49 1
23 49 1
54 49 1
75 49 1
179 49 1
182 49 1
14 50 1
24 50 1
55 50 1
76 50 1
157 50 1
180 50 1
15 51 1
25 51 1
56 51 1
77 51 1
158 51 1
181 51 1
16 52 1
26 52 1
57 52 1
78 52 1
159 52 1
182 52 1
1 53 1
18 53 1
79 53 1
84 53 1
183 53 1
186 53 1
2 54 1
19 54 1
80 54 1
85 54 1
184 54 1
187 54 1
3 55 1
20 55 1
81 55 1
86 55 1
185 55 1
188 55 1
4 56 1
21 56 1
82 56 1
87 56 1
186 56 1
189 56 1
5 57 1
22 57 1
83 57 1
88 57 1
187 57 1
190 57 1
6 58 1
23 58 1
84 58 1
89 58 1
188 58 1
191 58 1
7 59 1
24 59 1
85 59 1
90 59 1
189 59 1
192 59 1
8 60 1
25 60 1
86 60 1
91 60 1
190 60 1
193 60 1
9 61 1
26 61 1
87 61 1
92 61 1
191 61 1
194 61 1
1 62 1
10 62 1
88 62 1
93 62 1
192 62 1
195 62 1
2 63 1
11 63 1
89 63 1
94 63 1
193 63 1
196 63 1
3 64 1
12 64 1
90 64 1
95 64 1
194 64 1
197 64 1
4 65 1
13 65 1
91 65 1
96 65 1
195 65 1
198 65 1
5 66 1
14 66 1
92 66 1
97 66 1
196 66 1
199 66 1
6 67 1
15 67 1
93 67 1
98 67 1
197 67 1
200 67 1
7 68 1
16 68 1
94 68 1
99 68 1
198 68 1
201 68 1
8 69 1
17 69 1
95 69 1
100 69 1
199 69 1
202 69 1
9 70 1
18 70 1
96 70 1
101 70 1
200 70 1
203 70 1
10 71 1
19 71 1
97 71 1
102 71 1
201 71 1
204 71 1
11 72 1
20 72 1
98 72 1
103 72 1
202 72 1
205 72 1
12 73 1
21 73 1
99 73 1
104 73 1
203 73 1
206 73 1
13 74 1
22 74 1
79 74 1
100 74 1
204 74 1
207 74 1
14 75 1
23 75 1
80 75 1
101 75 1
205 75 1
208 75 1
15 76 1
24 76 1
81 76 1
102 76 1
183 76 1
206 76 1
16 77 1
25 77 1
82 77 1
103 77 1
184 77 1
207 77 1
17 78 1
26 78 1
83 78 1
104 78 1
185 78 1
208 78 1
1 79 1
23 79 1
105 79 1
110 79 1
209 79 1
212 79 1
2 80 1
24 80 1
106 80 1
111 80 1
210 80 1
213 80 1
3 81 1
25 81 1
107 81 1
112 81 1
211 81 1
214 81 1
4 82 1
26 82 1
108 82 1
113 82 1
212 82 1
215 82 1
1 83 1
5 83 1
109 83 1
114 83 1
213 83 1
216 83 1
2 84 1
6 84 1
110 84 1
115 84 1
214 84 1
217 84 1
3 85 1
7 85 1
111 85 1
116 85 1
215 85 1
218 85 1
4 86 1
8 86 1
112 86 1
117 86 1
216 86 1
219 86 1
5 87 1
9 87 1
113 87 1
118 87 1
217 87 1
220 87 1
6 88 1
10 88 1
114 88 1
119 88 1
218 88 1
221 88 1
7 89 1
11 89 1
115 89 1
120 89 1
219 89 1
222 89 1
8 90 1
12 90 1
116 90 1
121 90 1
220 90 1
223 90 1
9 91 1
13 91 1
117 91 1
122 91 1
221 91 1
224 91 1
10 92 1
14 92 1
118 92 1
123 92 1
222 92 1
225 92 1
11 93 1
15 93 1
119 93 1
124 93 1
223 93 1
226 93 1
12 94 1
16 94 1
120 94 1
125 94 1
224 94 1
227 94 1
13 95 1
17 95 1
121 95 1
126 95 1
225 95 1
228 95 1
14 96 1
18 96 1
122 96 1
127 96 1
226 96 1
229 96 1
15 97 1
19 97 1
123 97 1
128 97 1
227 97 1
230 97 1
16 98 1
20 98 1
124 98 1
129 98 1
228 98 1
231 98 1
17 99 1
21 99 1
125 99 1
130 99 1
229 99 1
232 99 1
18 100 1
22 100 1
105 100 1
126 100 1
230 100 1
233 100 1
19 101 1
23 101 1
106 101 1
127 101 1
231 101 1
234 101 1
20 102 1
24 102 1
107 102 1
128 102 1
209 102 1
232 102 1
21 103 1
25 103 1
108 103 1
129 103 1
210 103 1
233 103 1
22 104 1
26 104 1
109 104 1
130 104 1
211 104 1
234 104 1
27 105 1
43 105 1
53 105 1
60 105 1
235 105 1
238 105 1
28 106 1
44 106 1
54 106 1
61 106 1
236 106 1
239 106 1
29 107 1
45 107 1
55 107 1
62 107 1
237 107 1
240 107 1
30 108 1
46 108 1
56 108 1
63 108 1
238 108 1
241 108 1
31 109 1
47 109 1
57 109 1
64 109 1
239 109 1
242 109 1
32 110 1
48 110 1
58 110 1
65 110 1
240 110 1
243 110 1
33 111 1
49 111 1
59 111 1
66 111 1
241 111 1
244 111 1
34 112 1
50 112 1
60 112 1
67 112 1
242 112 1
245 112 1
35 113 1
51 113 1
61 113 1
68 113 1
243 113 1
246 113 1
36 114 1
52 114 1
62 114 1
69 114 1
244 114 1
247 114 1
27 115 1
37 115 1
63 115 1
70 115 1
245 115 1
248 115 1
28 116 1
38 116 1
64 116 1
71 116 1
246 116 1
249 116 1
29 117 1
39 117 1
65 117 1
72 117 1
247 117 1
250 117 1
30 118 1
40 118 1
66 118 1
73 118 1
248 118 1
251 118 1
31 119 1
41 119 1
67 119 1
74 119 1
249 119 1
252 119 1
32 120 1
42 120 1
68 120 1
75 120 1
250 120 1
253 120 1
33 121 1
43 121 1
69 121 1
76 121 1
251 121 1
254 121 1
34 122 1
44 122 1
70 122 1
77 122 1
252 122 1
255 122 1
35 123 1
45 123 1
71 123 1
78 123 1
253 123 1
256 123 1
36 124 1
46 124 1
53 124 1
72 124 1
254 124 1
257 124 1
37 125 1
47 125 1
54 125 1
73 125 1
255 125 1
258 125 1
38 126 1
48 126 1
55 126 1
74 126 1
256 126 1
259 126 1
39 127 1
49 127 1
56 127 1
75 127 1
257 127 1
260 127 1
40 128 1
50 128 1
57 128 1
76 128 1
235 128 1
258 128 1
41 129 1
51 129 1
58 129 1
77 129 1
236 129 1
259 129 1
42 130 1
52 130 1
59 130 1
78 130 1
237 130 1
260 130 1
27 131 1
44 131 1
79 131 1
86 131 1
261 131 1
264 131 1
28 132 1
45 132 1
80 132 1
87 132 1
262 132 1
265 132 1
29 133 1
46 133 1
81 133 1
88 133 1
263 133 1
266 133 1
30 134 1
47 134 1
82 134 1
89 134 1
264 134 1
267 134 1
31 135 1
48 135 1
83 135 1
90 135 1
265 135 1
268 135 1
32 136 1
49 136 1
84 136 1
91 136 1
266 136 1
269 136 1
33 137 1
50 137 1
85 137 1
92 137 1
267 137 1
270 137 1
34 138 1
51 138 1
86 138 1
93 138 1
268 138 1
271 138 1
35 139 1
52 139 1
87 139 1
94 139 1
269 139 1
272 139 1
27 140 1
36 140 1
88 140 1
95 140 1
270 140 1
273 140 1
28 141 1
37 141 1
89 141 1
96 141 1
271 141 1
274 141 1
29 142 1
38 142 1
90 142 1
97 142 1
272 142 1
275 142 1
30 143 1
39 143 1
91 143 1
98 143 1
273 143 1
276 143 1
31 144 1
40 144 1
92 144 1
99 144 1
274 144 1
277 144 1
32 145 1
41 145 1
93 145 1
100 145 1
275 145 1
278 145 1
33 146 1
42 146 1
94 146 1
101 146 1
276 146 1
279 146 1
34 147 1
43 147 1
95 147 1
102 147 1
277 147 1
280 147 1
35 148 1
44 148 1
96 148 1
103 148 1
278 148 1
281 148 1
36 149 1
45 149 1
97 149 1
104 149 1
279 149 1
282 149 1
37 150 1
46 150 1
79 150 1
98 150 1
280 150 1
283 150 1
38 151 1
47 151 1
80 151 1
99 151 1
281 151 1
284 151 1
39 152 1
48 152 1
81 152 1
100 152 1
282 152 1
285 152 1
40 153 1
49 153 1
82 153 1
101 153 1
283 153 1
286 153 1
41 154 1
50 154 1
83 154 1
102 154 1
261 154 1
284 154 1
42 155 1
51 155 1
84 155 1
103 155 1
262 155 1
285 155 1
43 156 1
52 156 1
85 156 1
104 156 1
263 156 1
286 156 1
27 157 1
49 157 1
105 157 1
112 157 1
287 157 1
290 157 1
28 158 1
50 158 1
106 158 1
113 158 1
288 158 1
291 158 1
29 159 1
51 159 1
107 159 1
114 159 1
289 159 1
292 159 1
30 160 1
52 160 1
108 160 1
115 160 1
290 160 1
293 160 1
27 161 1
31 161 1
109 161 1
116 161 1
291 161 1
294 161 1
28 162 1
32 162 1
110 162 1
117 162 1
292 162 1
295 162 1
29 163 1
33 163 1
111 163 1
118 163 1
293 163 1
296 163 1
30 164 1
34 164 1
112 164 1
119 164 1
294 164 1
297 164 1
31 165 1
35 165 1
113 165 1
120 165 1
295 165 1
298 165 1
32 166 1
36 166 1
114 166 1
121 166 1
296 166 1
299 166 1
33 167 1
37 167 1
115 167 1
122 167 1
297 167 1
300 167 1
34 168 1
38 168 1
116 168 1
123 168 1
298 168 1
301 168 1
35 169 1
39 169 1
117 169 1
124 169 1
299 169 1
302 169 1
36 170 1
40 170 1
118 170 1
125 170 1
300 170 1
303 170 1
37 171 1
41 171 1
119 171 1
126 171 1
301 171 1
304 171 1
38 172 1
42 172 1
120 172 1
127 172 1
302 172 1
305 172 1
39 173 1
43 173 1
121 173 1
128 173 1
303 173 1
306 173 1
40 174 1
44 174 1
122 174 1
129 174 1
304 174 1
307 174 1
41 175 1
45 175 1
123 175 1
130 175 1
305 175 1
308 175 1
42 176 1
46 176 1
105 176 1
124 176 1
306 176 1
309 176 1
43 177 1
47 177 1
106 177 1
125 177 1
307 177 1
310 177 1
44 178 1
48 178 1
107 178 1
126 178 1
308 178 1
311 178 1
45 179 1
49 179 1
108 179 1
127 179 1
309 179 1
312 179 1
46 180 1
50 180 1
109 180 1
128 180 1
287 180 1
310 180 1
47 181 1
51 181 1
110 181 1
129 181 1
288 181 1
311 181 1
48 182 1
52 182 1
111 182 1
130 182 1
289 182 1
312 182 1
53 183 1
70 183 1
79 183 1
95 183 1
313 183 1
316 183 1
54 184 1
71 184 1
80 184 1
96 184 1
314 184 1
317 184 1
55 185 1
72 185 1
81 185 1
97 185 1
315 185 1
318 185 1
56 186 1
73 186 1
82 186 1
98 186 1
316 186 1
319 186 1
57 187 1
74 187 1
83 187 1
99 187 1
317 187 1
320 187 1
58 188 1
75 188 1
84 188 1
100 188 1
318 188 1
321 188 1
59 189 1
76 189 1
85 189 1
101 189 1
319 189 1
322 189 1
60 190 1
77 190 1
86 190 1
102 190 1
320 190 1
323 190 1
61 191 1
78 191 1
87 191 1
103 191 1
321 191 1
324 191 1
53 192 1
62 192 1
88 192 1
104 192 1
322 192 1
325 192 1
54 193 1
63 193 1
79 193 1
89 193 1
323 193 1
326 193 1
55 194 1
64 194 1
80 194 1
90 194 1
324 194 1
327 194 1
56 195 1
65 195 1
81 195 1
91 195 1
325 195 1
328 195 1
57 196 1
66 196 1
82 196 1
92 196 1
326 196 1
329 196 1
58 197 1
67 197 1
83 197 1
93 197 1
327 197 1
330 197 1
59 198 1
68 198 1
84 198 1
94 198 1
328 198 1
331 198 1
60 199 1
69 199 1
85 199 1
95 199 1
329 199 1
332 199 1
61 200 1
70 200 1
86 200 1
96 200 1
330 200 1
333 200 1
62 201 1
71 201 1
87 201 1
97 201 1
331 201 1
334 201 1
63 202 1
72 202 1
88 202 1
98 202 1
332 202 1
335 202 1
64 203 1
73 203 1
89 203 1
99 203 1
333 203 1
336 203 1
65 204 1
74 204 1
90 204 1
100 204 1
334 204 1
337 204 1
66 205 1
75 205 1
91 205 1
101 205 1
335 205 1
338 205 1
67 206 1
76 206 1
92 206 1
102 206 1
313 206 1
336 206 1
68 207 1
77 207 1
93 207 1
103 207 1
314 207 1
337 207 1
69 208 1
78 208 1
94 208 1
104 208 1
315 208 1
338 208 1
53 209 1
75 209 1
105 209 1
121 209 1
339 209 1
342 209 1
54 210 1
76 210 1
106 210 1
122 210 1
340 210 1
343 210 1
55 211 1
77 211 1
107 211 1
123 211 1
341 211 1
344 211 1
56 212 1
78 212 1
108 212 1
124 212 1
342 212 1
345 212 1
53 213 1
57 213 1
109 213 1
125 213 1
343 213 1
346 213 1
54 214 1
58 214 1
110 214 1
126 214 1
344 214 1
347 214 1
55 215 1
59 215 1
111 215 1
127 215 1
345 215 1
348 215 1
56 216 1
60 216 1
112 216 1
128 216 1
346 216 1
349 216 1
57 217 1
61 217 1
113 217 1
129 217 1
347 217 1
350 217 1
58 218 1
62 218 1
114 218 1
130 218 1
348 218 1
351 218 1
59 219 1
63 219 1
105 219 1
115 219 1
349 219 1
352 219 1
60 220 1
64 220 1
106 220 1
116 220 1
350 220 1
353 220 1
61 221 1
65 221 1
107 221 1
117 221 1
351 221 1
354 221 1
62 222 1
66 222 1
108 222 1
118 222 1
352 222 1
355 222 1
63 223 1
67 223 1
109 223 1
119 223 1
353 223 1
356 223 1
64 224 1
68 224 1
110 224 1
120 224 1
354 224 1
357 224 1
65 225 1
69 225 1
111 225 1
121 225 1
355 225 1
358 225 1
66 226 1
70 226 1
112 226 1
122 226 1
356 226 1
359 226 1
67 227 1
71 227 1
113 227 1
123 227 1
357 227 1
360 227 1
68 228 1
72 228 1
114 228 1
124 228 1
358 228 1
361 228 1
69 229 1
73 229 1
115 229 1
125 229 1
359 229 1
362 229 1
70 230 1
74 230 1
116 230 1
126 230 1
360 230 1
363 230 1
71 231 1
75 231 1
117 231 1
127 231 1
361 231 1
364 231 1
72 232 1
76 232 1
118 232 1
128 232 1
339 232 1
362 232 1
73 233 1
77 233 1
119 233 1
129 233 1
340 233 1
363 233 1
74 234 1
78 234 1
120 234 1
130 234 1
341 234 1
364 234 1
79 235 1
101 235 1
105 235 1
122 235 1
365 235 1
368 235 1
80 236 1
102 236 1
106 236 1
123 236 1
366 236 1
369 236 1
81 237 1
103 237 1
107 237 1
124 237 1
367 237 1
370 237 1
82 238 1
104 238 1
108 238 1
125 238 1
368 238 1
371 238 1
79 239 1
83 239 1
109 239 1
126 239 1
369 239 1
372 239 1
80 240 1
84 240 1
110 240 1
127 240 1
370 240 1
373 240 1
81 241 1
85 241 1
111 241 1
128 241 1
371 241 1
374 241 1
82 242 1
86 242 1
112 242 1
129 242 1
372 242 1
375 242 1
83 243 1
87 243 1
113 243 1
130 243 1
373 243 1
376 243 1
84 244 1
88 244 1
105 244 1
114 244 1
374 244 1
377 244 1
85 245 1
89 245 1
106 245 1
115 245 1
375 245 1
378 245 1
86 246 1
90 246 1
107 246 1
116 246 1
376 246 1
379 246 1
87 247 1
91 247 1
108 247 1
117 247 1
377 247 1
380 247 1
88 248 1
92 248 1
109 248 1
118 248 1
378 248 1
381 248 1
89 249 1
93 249 1
110 249 1
119 249 1
379 249 1
382 249 1
90 250 1
94 250 1
111 250 1
120 250 1
380 250 1
383 250 1
91 251 1
95 251 1
112 251 1
121 251 1
381 251 1
384 251 1
92 252 1
96 252 1
113 252 1
122 252 1
382 252 1
385 252 1
93 253 1
97 253 1
114 253 1
123 253 1
383 253 1
386 253 1
94 254 1
98 254 1
115 254 1
124 254 1
384 254 1
387 254 1
95 255 1
99 255 1
116 255 1
125 255 1
385 255 1
388 255 1
96 256 1
100 256 1
117 256 1
126 256 1
386 256 1
389 256 1
97 257 1
101 257 1
118 257 1
127 257 1
387 257 1
390 257 1
98 258 1
102 258 1
119 258 1
128 258 1
365 258 1
388 258 1
99 259 1
103 259 1
120 259 1
129 259 1
366 259 1
389 259 1
100 260 1
104 260 1
121 260 1
130 260 1
367 260 1
390 260 1
131 261 1
147 261 1
157 261 1
164 261 1
235 261 1
240 261 1
132 262 1
148 262 1
158 262 1
165 262 1
236 262 1
241 262 1
133 263 1
149 263 1
159 263 1
166 263 1
237 263 1
242 263 1
134 264 1
150 264 1
160 264 1
167 264 1
238 264 1
243 264 1
135 265 1
151 265 1
161 265 1
168 265 1
239 265 1
244 265 1
136 266 1
152 266 1
162 266 1
169 266 1
240 266 1
245 266 1
137 267 1
153 267 1
163 267 1
170 267 1
241 267 1
246 267 1
138 268 1
154 268 1
164 268 1
171 268 1
242 268 1
247 268 1
139 269 1
155 269 1
165 269 1
172 269 1
243 269 1
248 269 1
140 270 1
156 270 1
166 270 1
173 270 1
244 270 1
249 270 1
131 271 1
141 271 1
167 271 1
174 271 1
245 271 1
250 271 1
132 272 1
142 272 1
168 272 1
175 272 1
246 272 1
251 272 1
133 273 1
143 273 1
169 273 1
176 273 1
247 273 1
252 273 1
134 274 1
144 274 1
170 274 1
177 274 1
248 274 1
253 274 1
135 275 1
145 275 1
171 275 1
178 275 1
249 275 1
254 275 1
136 276 1
146 276 1
172 276 1
179 276 1
250 276 1
255 276 1
137 277 1
147 277 1
173 277 1
180 277 1
251 277 1
256 277 1
138 278 1
148 278 1
174 278 1
181 278 1
252 278 1
257 278 1
139 279 1
149 279 1
175 279 1
182 279 1
253 279 1
258 279 1
140 280 1
150 280 1
157 280 1
176 280 1
254 280 1
259 280 1
141 281 1
151 281 1
158 281 1
177 281 1
255 281 1
260 281 1
142 282 1
152 282 1
159 282 1
178 282 1
235 282 1
256 282 1
143 283 1
153 283 1
160 283 1
179 283 1
236 283 1
257 283 1
144 284 1
154 284 1
161 284 1
180 284 1
237 284 1
258 284 1
145 285 1
155 285 1
162 285 1
181 285 1
238 285 1
259 285 1
146 286 1
156 286 1
163 286 1
182 286 1
239 286 1
260 286 1
131 287 1
148 287 1
183 287 1
190 287 1
261 287 1
266 287 1
132 288 1
149 288 1
184 288 1
191 288 1
262 288 1
267 288 1
133 289 1
150 289 1
185 289 1
192 289 1
263 289 1
268 289 1
134 290 1
151 290 1
186 290 1
193 290 1
264 290 1
269 290 1
135 291 1
152 291 1
187 291 1
194 291 1
265 291 1
270 291 1
136 292 1
153 292 1
188 292 1
195 292 1
266 292 1
271 292 1
137 293 1
154 293 1
189 293 1
196 293 1
267 293 1
272 293 1
138 294 1
155 294 1
190 294 1
197 294 1
268 294 1
273 294 1
139 295 1
156 295 1
191 295 1
198 295 1
269 295 1
274 295 1
131 296 1
140 296 1
192 296 1
199 296 1
270 296 1
275 296 1
132 297 1
141 297 1
193 297 1
200 297 1
271 297 1
276 297 1
133 298 1
142 298 1
194 298 1
201 298 1
272 298 1
277 298 1
134 299 1
143 299 1
195 299 1
202 299 1
273 299 1
278 299 1
135 300 1
144 300 1
196 300 1
203 300 1
274 300 1
279 300 1
136 301 1
145 301 1
197 301 1
204 301 1
275 301 1
280 301 1
137 302 1
146 302 1
198 302 1
205 302 1
276 302 1
281 302 1
138 303 1
147 303 1
199 303 1
206 303 1
277 303 1
282 303 1
139 304 1
148 304 1
200 304 1
207 304 1
278 304 1
283 304 1
140 305 1
149 305 1
201 305 1
208 305 1
279 305 1
284 305 1
141 306 1
150 306 1
183 306 1
202 306 1
280 306 1
285 306 1
142 307 1
151 307 1
184 307 1
203 307 1
281 307 1
286 307 1
143 308 1
152 308 1
185 308 1
204 308 1
261 308 1
282 308 1
144 309 1
153 309 1
186 309 1
205 309 1
262 309 1
283 309 1
145 310 1
154 310 1
187 310 1
206 310 1
263 310 1
284 310 1
146 311 1
155 311 1
188 311 1
207 311 1
264 311 1
285 311 1
147 312 1
156 312 1
189 312 1
208 312 1
265 312 1
286 312 1
131 313 1
153 313 1
209 313 1
216 313 1
287 313 1
292 313 1
132 314 1
154 314 1
210 314 1
217 314 1
288 314 1
293 314 1
133 315 1
155 315 1
211 315 1
218 315 1
289 315 1
294 315 1
134 316 1
156 316 1
212 316 1
219 316 1
290 316 1
295 316 1
131 317 1
135 317 1
213 317 1
220 317 1
291 317 1
296 317 1
132 318 1
136 318 1
214 318 1
221 318 1
292 318 1
297 318 1
133 319 1
137 319 1
215 319 1
222 319 1
293 319 1
298 319 1
134 320 1
138 320 1
216 320 1
223 320 1
294 320 1
299 320 1
135 321 1
139 321 1
217 321 1
224 321 1
295 321 1
300 321 1
136 322 1
140 322 1
218 322 1
225 322 1
296 322 1
301 322 1
137 323 1
141 323 1
219 323 1
226 323 1
297 323 1
302 323 1
138 324 1
142 324 1
220 324 1
227 324 1
298 324 1
303 324 1
139 325 1
143 325 1
221 325 1
228 325 1
299 325 1
304 325 1
140 326 1
144 326 1
222 326 1
229 326 1
300 326 1
305 326 1
141 327 1
145 327 1
223 327 1
230 327 1
301 327 1
306 327 1
142 328 1
146 328 1
224 328 1
231 328 1
302 328 1
307 328 1
143 329 1
147 329 1
225 329 1
232 329 1
303 329 1
308 329 1
144 330 1
148 330 1
226 330 1
233 330 1
304 330 1
309 330 1
145 331 1
149 331 1
227 331 1
234 331 1
305 331 1
310 331 1
146 332 1
150 332 1
209 332 1
228 332 1
306 332 1
311 332 1
147 333 1
151 333 1
210 333 1
229 333 1
307 333 1
312 333 1
148 334 1
152 334 1
211 334 1
230 334 1
287 334 1
308 334 1
149 335 1
153 335 1
212 335 1
231 335 1
288 335 1
309 335 1
150 336 1
154 336 1
213 336 1
232 336 1
289 336 1
310 336 1
151 337 1
155 337 1
214 337 1
233 337 1
290 337 1
311 337 1
152 338 1
156 338 1
215 338 1
234 338 1
291 338 1
312 338 1
157 339 1
174 339 1
183 339 1
199 339 1
313 339 1
318 339 1
158 340 1
175 340 1
184 340 1
200 340 1
314 340 1
319 340 1
159 341 1
176 341 1
185 341 1
201 341 1
315 341 1
320 341 1
160 342 1
177 342 1
186 342 1
202 342 1
316 342 1
321 342 1
161 343 1
178 343 1
187 343 1
203 343 1
317 343 1
322 343 1
162 344 1
179 344 1
188 344 1
204 344 1
318 344 1
323 344 1
163 345 1
180 345 1
189 345 1
205 345 1
319 345 1
324 345 1
164 346 1
181 346 1
190 346 1
206 346 1
320 346 1
325 346 1
165 347 1
182 347 1
191 347 1
207 347 1
321 347 1
326 347 1
157 348 1
166 348 1
192 348 1
208 348 1
322 348 1
327 348 1
158 349 1
167 349 1
183 349 1
193 349 1
323 349 1
328 349 1
159 350 1
168 350 1
184 350 1
194 350 1
324 350 1
329 350 1
160 351 1
169 351 1
185 351 1
195 351 1
325 351 1
330 351 1
161 352 1
170 352 1
186 352 1
196 352 1
326 352 1
331 352 1
162 353 1
171 353 1
187 353 1
197 353 1
327 353 1
332 353 1
163 354 1
172 354 1
188 354 1
198 354 1
328 354 1
333 354 1
164 355 1
173 355 1
189 355 1
199 355 1
329 355 1
334 355 1
165 356 1
174 356 1
190 356 1
200 356 1
330 356 1
335 356 1
166 357 1
175 357 1
191 357 1
201 357 1
331 357 1
336 357 1
167 358 1
176 358 1
192 358 1
202 358 1
332 358 1
337 358 1
168 359 1
177 359 1
193 359 1
203 359 1
333 359 1
338 359 1
169 360 1
178 360 1
194 360 1
204 360 1
313 360 1
334 360 1
170 361 1
179 361 1
195 361 1
205 361 1
314 361 1
335 361 1
171 362 1
180 362 1
196 362 1
206 362 1
315 362 1
336 362 1
172 363 1
181 363 1
197 363 1
207 363 1
316 363 1
337 363 1
173 364 1
182 364 1
198 364 1
208 364 1
317 364 1
338 364 1
157 365 1
179 365 1
209 365 1
225 365 1
339 365 1
344 365 1
158 366 1
180 366 1
210 366 1
226 366 1
340 366 1
345 366 1
159 367 1
181 367 1
211 367 1
227 367 1
341 367 1
346 367 1
160 368 1
182 368 1
212 368 1
228 368 1
342 368 1
347 368 1
157 369 1
161 369 1
213 369 1
229 369 1
343 369 1
348 369 1
158 370 1
162 370 1
214 370 1
230 370 1
344 370 1
349 370 1
159 371 1
163 371 1
215 371 1
231 371 1
345 371 1
350 371 1
160 372 1
164 372 1
216 372 1
232 372 1
346 372 1
351 372 1
161 373 1
165 373 1
217 373 1
233 373 1
347 373 1
352 373 1
162 374 1
166 374 1
218 374 1
234 374 1
348 374 1
353 374 1
163 375 1
167 375 1
209 375 1
219 375 1
349 375 1
354 375 1
164 376 1
168 376 1
210 376 1
220 376 1
350 376 1
355 376 1
165 377 1
169 377 1
211 377 1
221 377 1
351 377 1
356 377 1
166 378 1
170 378 1
212 378 1
222 378 1
352 378 1
357 378 1
167 379 1
171 379 1
213 379 1
223 379 1
353 379 1
358 379 1
168 380 1
172 380 1
214 380 1
224 380 1
354 380 1
359 380 1
169 381 1
173 381 1
215 381 1
225 381 1
355 381 1
360 381 1
170 382 1
174 382 1
216 382 1
226 382 1
356 382 1
361 382 1
171 383 1
175 383 1
217 383 1
227 383 1
357 383 1
362 383 1
172 384 1
176 384 1
218 384 1
228 384 1
358 384 1
363 384 1
173 385 1
177 385 1
219 385 1
229 385 1
359 385 1
364 385 1
174 386 1
178 386 1
220 386 1
230 386 1
339 386 1
360 386 1
175 387 1
179 387 1
221 387 1
231 387 1
340 387 1
361 387 1
176 388 1
180 388 1
222 388 1
232 388 1
341 388 1
362 388 1
177 389 1
181 389 1
223 389 1
233 389 1
342 389 1
363 389 1
178 390 1
182 390 1
224 390 1
234 390 1
343 390 1
364 390 1
183 391 1
205 391 1
209 391 1
226 391 1
365 391 1
370 391 1
184 392 1
206 392 1
210 392 1
227 392 1
366 392 1
371 392 1
185 393 1
207 393 1
211 393 1
228 393 1
367 393 1
372 393 1
186 394 1
208 394 1
212 394 1
229 394 1
368 394 1
373 394 1
183 395 1
187 395 1
213 395 1
230 395 1
369 395 1
374 395 1
184 396 1
188 396 1
214 396 1
231 396 1
370 396 1
375 396 1
185 397 1
189 397 1
215 397 1
232 397 1
371 397 1
376 397 1
186 398 1
190 398 1
216 398 1
233 398 1
372 398 1
377 398 1
187 399 1
191 399 1
217 399 1
234 399 1
373 399 1
378 399 1
188 400 1
192 400 1
209 400 1
218 400 1
374 400 1
379 400 1
189 401 1
193 401 1
210 401 1
219 401 1
375 401 1
380 401 1
190 402 1
194 402 1
211 402 1
220 402 1
376 402 1
381 402 1
191 403 1
195 403 1
212 403 1
221 403 1
377 403 1
382 403 1
192 404 1
196 404 1
213 404 1
222 404 1
378 404 1
383 404 1
193 405 1
197 405 1
214 405 1
223 405 1
379 405 1
384 405 1
194 406 1
198 406 1
215 406 1
224 406 1
380 406 1
385 406 1
195 407 1
199 407 1
216 407 1
225 407 1
381 407 1
386 407 1
196 408 1
200 408 1
217 408 1
226 408 1
382 408 1
387 408 1
197 409 1
201 409 1
218 409 1
227 409 1
383 409 1
388 409 1
198 410 1
202 410 1
219 410 1
228 410 1
384 410 1
389 410 1
199 411 1
203 411 1
220 411 1
229 411 1
385 411 1
390 411 1
200 412 1
204 412 1
221 412 1
230 412 1
365 412 1
386 412 1
201 413 1
205 413 1
222 413 1
231 413 1
366 413 1
387 413 1
202 414 1
206 414 1
223 414 1
232 414 1
367 414 1
388 414 1
203 415 1
207 415 1
224 415 1
233 415 1
368 415 1
389 415 1
204 416 1
208 416 1
225 416 1
234 416 1
369 416 1
390 416 1
235 417 1
252 417 1
261 417 1
277 417 1
313 417 1
320 417 1
236 418 1
253 418 1
262 418 1
278 418 1
314 418 1
321 418 1
237 419 1
254 419 1
263 419 1
279 419 1
315 419 1
322 419 1
238 420 1
255 420 1
264 420 1
280 420 1
316 420 1
323 420 1
239 421 1
256 421 1
265 421 1
281 421 1
317 421 1
324 421 1
240 422 1
257 422 1
266 422 1
282 422 1
318 422 1
325 422 1
241 423 1
258 423 1
267 423 1
283 423 1
319 423 1
326 423 1
242 424 1
259 424 1
268 424 1
284 424 1
320 424 1
327 424 1
243 425 1
260 425 1
269 425 1
285 425 1
321 425 1
328 425 1
235 426 1
244 426 1
270 426 1
286 426 1
322 426 1
329 426 1
236 427 1
245 427 1
261 427 1
271 427 1
323 427 1
330 427 1
237 428 1
246 428 1
262 428 1
272 428 1
324 428 1
331 428 1
238 429 1
247 429 1
263 429 1
273 429 1
325 429 1
332 429 1
239 430 1
248 430 1
264 430 1
274 430 1
326 430 1
333 430 1
240 431 1
249 431 1
265 431 1
275 431 1
327 431 1
334 431 1
241 432 1
250 432 1
266 432 1
276 432 1
328 432 1
335 432 1
242 433 1
251 433 1
267 433 1
277 433 1
329 433 1
336 433 1
243 434 1
252 434 1
268 434 1
278 434 1
330 434 1
337 434 1
244 435 1
253 435 1
269 435 1
279 435 1
331 435 1
338 435 1
245 436 1
254 436 1
270 436 1
280 436 1
313 436 1
332 436 1
246 437 1
255 437 1
271 437 1
281 437 1
314 437 1
333 437 1
247 438 1
256 438 1
272 438 1
282 438 1
315 438 1
334 438 1
248 439 1
257 439 1
273 439 1
283 439 1
316 439 1
335 439 1
249 440 1
258 440 1
274 440 1
284 440 1
317 440 1
336 440 1
250 441 1
259 441 1
275 441 1
285 441 1
318 441 1
337 441 1
251 442 1
260 442 1
276 442 1
286 442 1
319 442 1
338 442 1
235 443 1
257 443 1
287 443 1
303 443 1
339 443 1
346 443 1
236 444 1
258 444 1
288 444 1
304 444 1
340 444 1
347 444 1
237 445 1
259 445 1
289 445 1
305 445 1
341 445 1
348 445 1
238 446 1
260 446 1
290 446 1
306 446 1
342 446 1
349 446 1
235 447 1
239 447 1
291 447 1
307 447 1
343 447 1
350 447 1
236 448 1
240 448 1
292 448 1
308 448 1
344 448 1
351 448 1
237 449 1
241 449 1
293 449 1
309 449 1
345 449 1
352 449 1
238 450 1
242 450 1
294 450 1
310 450 1
346 450 1
353 450 1
239 451 1
243 451 1
295 451 1
311 451 1
347 451 1
354 451 1
240 452 1
244 452 1
296 452 1
312 452 1
348 452 1
355 452 1
241 453 1
245 453 1
287 453 1
297 453 1
349 453 1
356 453 1
242 454 1
246 454 1
288 454 1
298 454 1
350 454 1
357 454 1
243 455 1
247 455 1
289 455 1
299 455 1
351 455 1
358 455 1
244 456 1
248 456 1
290 456 1
300 456 1
352 456 1
359 456 1
245 457 1
249 457 1
291 457 1
301 457 1
353 457 1
360 457 1
246 458 1
250 458 1
292 458 1
302 458 1
354 458 1
361 458 1
247 459 1
251 459 1
293 459 1
303 459 1
355 459 1
362 459 1
248 460 1
252 460 1
294 460 1
304 460 1
356 460 1
363 460 1
249 461 1
253 461 1
295 461 1
305 461 1
357 461 1
364 461 1
250 462 1
254 462 1
296 462 1
306 462 1
339 462 1
358 462 1
251 463 1
255 463 1
297 463 1
307 463 1
340 463 1
359 463 1
252 464 1
256 464 1
298 464 1
308 464 1
341 464 1
360 464 1
253 465 1
257 465 1
299 465 1
309 465 1
342 465 1
361 465 1
254 466 1
258 466 1
300 466 1
310 466 1
343 466 1
362 466 1
255 467 1
259 467 1
301 467 1
311 467 1
344 467 1
363 467 1
256 468 1
260 468 1
302 468 1
312 468 1
345 468 1
364 468 1
261 469 1
283 469 1
287 469 1
304 469 1
365 469 1
372 469 1
262 470 1
284 470 1
288 470 1
305 470 1
366 470 1
373 470 1
263 471 1
285 471 1
289 471 1
306 471 1
367 471 1
374 471 1
264 472 1
286 472 1
290 472 1
307 472 1
368 472 1
375 472 1
261 473 1
265 473 1
291 473 1
308 473 1
369 473 1
376 473 1
262 474 1
266 474 1
292 474 1
309 474 1
370 474 1
377 474 1
263 475 1
267 475 1
293 475 1
310 475 1
371 475 1
378 475 1
264 476 1
268 476 1
294 476 1
311 476 1
372 476 1
379 476 1
265 477 1
269 477 1
295 477 1
312 477 1
373 477 1
380 477 1
266 478 1
270 478 1
287 478 1
296 478 1
374 478 1
381 478 1
267 479 1
271 479 1
288 479 1
297 479 1
375 479 1
382 479 1
268 480 1
272 480 1
289 480 1
298 480 1
376 480 1
383 480 1
269 481 1
273 481 1
290 481 1
299 481 1
377 481 1
384 481 1
270 482 1
274 482 1
291 482 1
300 482 1
378 482 1
385 482 1
271 483 1
275 483 1
292 483 1
301 483 1
379 483 1
386 483 1
272 484 1
276 484 1
293 484 1
302 484 1
380 484 1
387 484 1
273 485 1
277 485 1
294 485 1
303 485 1
381 485 1
388 485 1
274 486 1
278 486 1
295 486 1
304 486 1
382 486 1
389 486 1
275 487 1
279 487 1
296 487 1
305 487 1
383 487 1
390 487 1
276 488 1
280 488 1
297 488 1
306 488 1
365 488 1
384 488 1
277 489 1
281 489 1
298 489 1
307 489 1
366 489 1
385 489 1
278 490 1
282 490 1
299 490 1
308 490 1
367 490 1
386 490 1
279 491 1
283 491 1
300 491 1
309 491 1
368 491 1
387 491 1
280 492 1
284 492 1
301 492 1
310 492 1
369 492 1
388 492 1
281 493 1
285 493 1
302 493 1
311 493 1
370 493 1
389 493 1
282 494 1
286 494 1
303 494 1
312 494 1
371 494 1
390 494 1
313 495 1
335 495 1
339 495 1
356 495 1
365 495 1
381 495 1
314 496 1
336 496 1
340 496 1
357 496 1
366 496 1
382 496 1
315 497 1
337 497 1
341 497 1
358 497 1
367 497 1
383 497 1
316 498 1
338 498 1
342 498 1
359 498 1
368 498 1
384 498 1
313 499 1
317 499 1
343 499 1
360 499 1
369 499 1
385 499 1
314 500 1
318 500 1
344 500 1
361 500 1
370 500 1
386 500 1
315 501 1
319 501 1
345 501 1
362 501 1
371 501 1
387 501 1
316 502 1
320 502 1
346 502 1
363 502 1
372 502 1
388 502 1
317 503 1
321 503 1
347 503 1
364 503 1
373 503 1
389 503 1
318 504 1
322 504 1
339 504 1
348 504 1
374 504 1
390 504 1
319 505 1
323 505 1
340 505 1
349 505 1
365 505 1
375 505 1
320 506 1
324 506 1
341 506 1
350 506 1
366 506 1
376 506 1
321 507 1
325 507 1
342 507 1
351 507 1
367 507 1
377 507 1
322 508 1
326 508 1
343 508 1
352 508 1
368 508 1
378 508 1
323 509 1
327 509 1
344 509 1
353 509 1
369 509 1
379 509 1
324 510 1
328 510 1
345 510 1
354 510 1
370 510 1
380 510 1
325 511 1
329 511 1
346 511 1
355 511 1
371 511 1
381 511 1
326 512 1
330 512 1
347 512 1
356 512 1
372 512 1
382 512 1
327 513 1
331 513 1
348 513 1
357 513 1
373 513 1
383 513 1
328 514 1
332 514 1
349 514 1
358 514 1
374 514 1
384 514 1
329 515 1
333 515 1
350 515 1
359 515 1
375 515 1
385 515 1
330 516 1
334 516 1
351 516 1
360 516 1
376 516 1
386 516 1
331 517 1
335 517 1
352 517 1
361 517 1
377 517 1
387 517 1
332 518 1
336 518 1
353 518 1
362 518 1
378 518 1
388 518 1
333 519 1
337 519 1
354 519 1
363 519 1
379 519 1
389 519 1
334 520 1
338 520 1
355 520 1
364 520 1
380 520 1
390 520 1
