%%MatrixMarket matrix coordinate integer general
% Binary matrix; one-based indices; arithmetic over GF(2)
1456 1820 14560
1 1 1
12 1 1
27 1 1
35 1 1
53 1 1
60 1 1
79 1 1
83 1 1
2 2 1
13 2 1
28 2 1
36 2 1
54 2 1
61 2 1
80 2 1
84 2 1
3 3 1
14 3 1
29 3 1
37 3 1
55 3 1
62 3 1
81 3 1
85 3 1
4 4 1
15 4 1
30 4 1
38 4 1
56 4 1
63 4 1
82 4 1
86 4 1
5 5 1
16 5 1
31 5 1
39 5 1
57 5 1
64 5 1
83 5 1
87 5 1
6 6 1
17 6 1
32 6 1
40 6 1
58 6 1
65 6 1
84 6 1
88 6 1
7 7 1
18 7 1
33 7 1
41 7 1
59 7 1
66 7 1
85 7 1
89 7 1
8 8 1
19 8 1
34 8 1
42 8 1
60 8 1
67 8 1
86 8 1
90 8 1
9 9 1
20 9 1
35 9 1
43 9 1
61 9 1
68 9 1
87 9 1
91 9 1
10 10 1
21 10 1
36 10 1
44 10 1
62 10 1
69 10 1
88 10 1
92 10 1
11 11 1
22 11 1
37 11 1
45 11 1
63 11 1
70 11 1
89 11 1
93 11 1
12 12 1
23 12 1
38 12 1
46 12 1
64 12 1
71 12 1
90 12 1
94 12 1
13 13 1
24 13 1
39 13 1
47 13 1
65 13 1
72 13 1
91 13 1
95 13 1
14 14 1
25 14 1
40 14 1
48 14 1
66 14 1
73 14 1
92 14 1
96 14 1
15 15 1
26 15 1
41 15 1
49 15 1
67 15 1
74 15 1
93 15 1
97 15 1
1 16 1
16 16 1
42 16 1
50 16 1
68 16 1
75 16 1
94 16 1
98 16 1
2 17 1
17 17 1
43 17 1
51 17 1
69 17 1
76 17 1
95 17 1
99 17 1
3 18 1
18 18 1
44 18 1
52 18 1
70 18 1
77 18 1
96 18 1
100 18 1
4 19 1
19 19 1
27 19 1
45 19 1
71 19 1
78 19 1
97 19 1
101 19 1
5 20 1
20 20 1
28 20 1
46 20 1
53 20 1
72 20 1
98 20 1
102 20 1
6 21 1
21 21 1
29 21 1
47 21 1
54 21 1
73 21 1
99 21 1
103 21 1
7 22 1
22 22 1
30 22 1
48 22 1
55 22 1
74 22 1
100 22 1
104 22 1
8 23 1
23 23 1
31 23 1
49 23 1
56 23 1
75 23 1
79 23 1
101 23 1
9 24 1
24 24 1
32 24 1
50 24 1
57 24 1
76 24 1
80 24 1
102 24 1
10 25 1
25 25 1
33 25 1
51 25 1
58 25 1
77 25 1
81 25 1
103 25 1
11 26 1
26 26 1
34 26 1
52 26 1
59 26 1
78 26 1
82 26 1
104 26 1
1 27 1
15 27 1
105 27 1
113 27 1
131 27 1
138 27 1
157 27 1
161 27 1
2 28 1
16 28 1
106 28 1
114 28 1
132 28 1
139 28 1
158 28 1
162 28 1
3 29 1
17 29 1
107 29 1
115 29 1
133 29 1
140 29 1
159 29 1
163 29 1
4 30 1
18 30 1
108 30 1
116 30 1
134 30 1
141 30 1
160 30 1
164 30 1
5 31 1
19 31 1
109 31 1
117 31 1
135 31 1
142 31 1
161 31 1
165 31 1
6 32 1
20 32 1
110 32 1
118 32 1
136 32 1
143 32 1
162 32 1
166 32 1
7 33 1
21 33 1
111 33 1
119 33 1
137 33 1
144 33 1
163 33 1
167 33 1
8 34 1
22 34 1
112 34 1
120 34 1
138 34 1
145 34 1
164 34 1
168 34 1
9 35 1
23 35 1
113 35 1
121 35 1
139 35 1
146 35 1
165 35 1
169 35 1
10 36 1
24 36 1
114 36 1
122 36 1
140 36 1
147 36 1
166 36 1
170 36 1
11 37 1
25 37 1
115 37 1
123 37 1
141 37 1
148 37 1
167 37 1
171 37 1
12 38 1
26 38 1
116 38 1
124 38 1
142 38 1
149 38 1
168 38 1
172 38 1
1 39 1
13 39 1
117 39 1
125 39 1
143 39 1
150 39 1
169 39 1
173 39 1
2 40 1
14 40 1
118 40 1
126 40 1
144 40 1
151 40 1
170 40 1
174 40 1
3 41 1
15 41 1
119 41 1
127 41 1
145 41 1
152 41 1
171 41 1
175 41 1
4 42 1
16 42 1
120 42 1
128 42 1
146 42 1
153 42 1
172 42 1
176 42 1
5 43 1
17 43 1
121 43 1
129 43 1
147 43 1
154 43 1
173 43 1
177 43 1
6 44 1
18 44 1
122 44 1
130 44 1
148 44 1
155 44 1
174 44 1
178 44 1
7 45 1
19 45 1
105 45 1
123 45 1
149 45 1
156 45 1
175 45 1
179 45 1
8 46 1
20 46 1
106 46 1
124 46 1
131 46 1
150 46 1
176 46 1
180 46 1
9 47 1
21 47 1
107 47 1
125 47 1
132 47 1
151 47 1
177 47 1
181 47 1
10 48 1
22 48 1
108 48 1
126 48 1
133 48 1
152 48 1
178 48 1
182 48 1
11 49 1
23 49 1
109 49 1
127 49 1
134 49 1
153 49 1
157 49 1
179 49 1
12 50 1
24 50 1
110 50 1
128 50 1
135 50 1
154 50 1
158 50 1
180 50 1
13 51 1
25 51 1
111 51 1
129 51 1
136 51 1
155 51 1
159 51 1
181 51 1
14 52 1
26 52 1
112 52 1
130 52 1
137 52 1
156 52 1
160 52 1
182 52 1
27 53 1
41 53 1
105 53 1
116 53 1
183 53 1
190 53 1
209 53 1
213 53 1
28 54 1
42 54 1
106 54 1
117 54 1
184 54 1
191 54 1
210 54 1
214 54 1
29 55 1
43 55 1
107 55 1
118 55 1
185 55 1
192 55 1
211 55 1
215 55 1
30 56 1
44 56 1
108 56 1
119 56 1
186 56 1
193 56 1
212 56 1
216 56 1
31 57 1
45 57 1
109 57 1
120 57 1
187 57 1
194 57 1
213 57 1
217 57 1
32 58 1
46 58 1
110 58 1
121 58 1
188 58 1
195 58 1
214 58 1
218 58 1
33 59 1
47 59 1
111 59 1
122 59 1
189 59 1
196 59 1
215 59 1
219 59 1
34 60 1
48 60 1
112 60 1
123 60 1
190 60 1
197 60 1
216 60 1
220 60 1
35 61 1
49 61 1
113 61 1
124 61 1
191 61 1
198 61 1
217 61 1
221 61 1
36 62 1
50 62 1
114 62 1
125 62 1
192 62 1
199 62 1
218 62 1
222 62 1
37 63 1
51 63 1
115 63 1
126 63 1
193 63 1
200 63 1
219 63 1
223 63 1
38 64 1
52 64 1
116 64 1
127 64 1
194 64 1
201 64 1
220 64 1
224 64 1
27 65 1
39 65 1
117 65 1
128 65 1
195 65 1
202 65 1
221 65 1
225 65 1
28 66 1
40 66 1
118 66 1
129 66 1
196 66 1
203 66 1
222 66 1
226 66 1
29 67 1
41 67 1
119 67 1
130 67 1
197 67 1
204 67 1
223 67 1
227 67 1
30 68 1
42 68 1
105 68 1
120 68 1
198 68 1
205 68 1
224 68 1
228 68 1
31 69 1
43 69 1
106 69 1
121 69 1
199 69 1
206 69 1
225 69 1
229 69 1
32 70 1
44 70 1
107 70 1
122 70 1
200 70 1
207 70 1
226 70 1
230 70 1
33 71 1
45 71 1
108 71 1
123 71 1
201 71 1
208 71 1
227 71 1
231 71 1
34 72 1
46 72 1
109 72 1
124 72 1
183 72 1
202 72 1
228 72 1
232 72 1
35 73 1
47 73 1
110 73 1
125 73 1
184 73 1
203 73 1
229 73 1
233 73 1
36 74 1
48 74 1
111 74 1
126 74 1
185 74 1
204 74 1
230 74 1
234 74 1
37 75 1
49 75 1
112 75 1
127 75 1
186 75 1
205 75 1
209 75 1
231 75 1
38 76 1
50 76 1
113 76 1
128 76 1
187 76 1
206 76 1
210 76 1
232 76 1
39 77 1
51 77 1
114 77 1
129 77 1
188 77 1
207 77 1
211 77 1
233 77 1
40 78 1
52 78 1
115 78 1
130 78 1
189 78 1
208 78 1
212 78 1
234 78 1
53 79 1
67 79 1
131 79 1
142 79 1
183 79 1
191 79 1
235 79 1
239 79 1
54 80 1
68 80 1
132 80 1
143 80 1
184 80 1
192 80 1
236 80 1
240 80 1
55 81 1
69 81 1
133 81 1
144 81 1
185 81 1
193 81 1
237 81 1
241 81 1
56 82 1
70 82 1
134 82 1
145 82 1
186 82 1
194 82 1
238 82 1
242 82 1
57 83 1
71 83 1
135 83 1
146 83 1
187 83 1
195 83 1
239 83 1
243 83 1
58 84 1
72 84 1
136 84 1
147 84 1
188 84 1
196 84 1
240 84 1
244 84 1
59 85 1
73 85 1
137 85 1
148 85 1
189 85 1
197 85 1
241 85 1
245 85 1
60 86 1
74 86 1
138 86 1
149 86 1
190 86 1
198 86 1
242 86 1
246 86 1
61 87 1
75 87 1
139 87 1
150 87 1
191 87 1
199 87 1
243 87 1
247 87 1
62 88 1
76 88 1
140 88 1
151 88 1
192 88 1
200 88 1
244 88 1
248 88 1
63 89 1
77 89 1
141 89 1
152 89 1
193 89 1
201 89 1
245 89 1
249 89 1
64 90 1
78 90 1
142 90 1
153 90 1
194 90 1
202 90 1
246 90 1
250 90 1
53 91 1
65 91 1
143 91 1
154 91 1
195 91 1
203 91 1
247 91 1
251 91 1
54 92 1
66 92 1
144 92 1
155 92 1
196 92 1
204 92 1
248 92 1
252 92 1
55 93 1
67 93 1
145 93 1
156 93 1
197 93 1
205 93 1
249 93 1
253 93 1
56 94 1
68 94 1
131 94 1
146 94 1
198 94 1
206 94 1
250 94 1
254 94 1
57 95 1
69 95 1
132 95 1
147 95 1
199 95 1
207 95 1
251 95 1
255 95 1
58 96 1
70 96 1
133 96 1
148 96 1
200 96 1
208 96 1
252 96 1
256 96 1
59 97 1
71 97 1
134 97 1
149 97 1
183 97 1
201 97 1
253 97 1
257 97 1
60 98 1
72 98 1
135 98 1
150 98 1
184 98 1
202 98 1
254 98 1
258 98 1
61 99 1
73 99 1
136 99 1
151 99 1
185 99 1
203 99 1
255 99 1
259 99 1
62 100 1
74 100 1
137 100 1
152 100 1
186 100 1
204 100 1
256 100 1
260 100 1
63 101 1
75 101 1
138 101 1
153 101 1
187 101 1
205 101 1
235 101 1
257 101 1
64 102 1
76 102 1
139 102 1
154 102 1
188 102 1
206 102 1
236 102 1
258 102 1
65 103 1
77 103 1
140 103 1
155 103 1
189 103 1
207 103 1
237 103 1
259 103 1
66 104 1
78 104 1
141 104 1
156 104 1
190 104 1
208 104 1
238 104 1
260 104 1
79 105 1
93 105 1
157 105 1
168 105 1
209 105 1
217 105 1
235 105 1
242 105 1
80 106 1
94 106 1
158 106 1
169 106 1
210 106 1
218 106 1
236 106 1
243 106 1
81 107 1
95 107 1
159 107 1
170 107 1
211 107 1
219 107 1
237 107 1
244 107 1
82 108 1
96 108 1
160 108 1
171 108 1
212 108 1
220 108 1
238 108 1
245 108 1
83 109 1
97 109 1
161 109 1
172 109 1
213 109 1
221 109 1
239 109 1
246 109 1
84 110 1
98 110 1
162 110 1
173 110 1
214 110 1
222 110 1
240 110 1
247 110 1
85 111 1
99 111 1
163 111 1
174 111 1
215 111 1
223 111 1
241 111 1
248 111 1
86 112 1
100 112 1
164 112 1
175 112 1
216 112 1
224 112 1
242 112 1
249 112 1
87 113 1
101 113 1
165 113 1
176 113 1
217 113 1
225 113 1
243 113 1
250 113 1
88 114 1
102 114 1
166 114 1
177 114 1
218 114 1
226 114 1
244 114 1
251 114 1
89 115 1
103 115 1
167 115 1
178 115 1
219 115 1
227 115 1
245 115 1
252 115 1
90 116 1
104 116 1
168 116 1
179 116 1
220 116 1
228 116 1
246 116 1
253 116 1
79 117 1
91 117 1
169 117 1
180 117 1
221 117 1
229 117 1
247 117 1
254 117 1
80 118 1
92 118 1
170 118 1
181 118 1
222 118 1
230 118 1
248 118 1
255 118 1
81 119 1
93 119 1
171 119 1
182 119 1
223 119 1
231 119 1
249 119 1
256 119 1
82 120 1
94 120 1
157 120 1
172 120 1
224 120 1
232 120 1
250 120 1
257 120 1
83 121 1
95 121 1
158 121 1
173 121 1
225 121 1
233 121 1
251 121 1
258 121 1
84 122 1
96 122 1
159 122 1
174 122 1
226 122 1
234 122 1
252 122 1
259 122 1
85 123 1
97 123 1
160 123 1
175 123 1
209 123 1
227 123 1
253 123 1
260 123 1
86 124 1
98 124 1
161 124 1
176 124 1
210 124 1
228 124 1
235 124 1
254 124 1
87 125 1
99 125 1
162 125 1
177 125 1
211 125 1
229 125 1
236 125 1
255 125 1
88 126 1
100 126 1
163 126 1
178 126 1
212 126 1
230 126 1
237 126 1
256 126 1
89 127 1
101 127 1
164 127 1
179 127 1
213 127 1
231 127 1
238 127 1
257 127 1
90 128 1
102 128 1
165 128 1
180 128 1
214 128 1
232 128 1
239 128 1
258 128 1
91 129 1
103 129 1
166 129 1
181 129 1
215 129 1
233 129 1
240 129 1
259 129 1
92 130 1
104 130 1
167 130 1
182 130 1
216 130 1
234 130 1
241 130 1
260 130 1
1 131 1
17 131 1
261 131 1
269 131 1
287 131 1
294 131 1
313 131 1
317 131 1
2 132 1
18 132 1
262 132 1
270 132 1
288 132 1
295 132 1
314 132 1
318 132 1
3 133 1
19 133 1
263 133 1
271 133 1
289 133 1
296 133 1
315 133 1
319 133 1
4 134 1
20 134 1
264 134 1
272 134 1
290 134 1
297 134 1
316 134 1
320 134 1
5 135 1
21 135 1
265 135 1
273 135 1
291 135 1
298 135 1
317 135 1
321 135 1
6 136 1
22 136 1
266 136 1
274 136 1
292 136 1
299 136 1
318 136 1
322 136 1
7 137 1
23 137 1
267 137 1
275 137 1
293 137 1
300 137 1
319 137 1
323 137 1
8 138 1
24 138 1
268 138 1
276 138 1
294 138 1
301 138 1
320 138 1
324 138 1
9 139 1
25 139 1
269 139 1
277 139 1
295 139 1
302 139 1
321 139 1
325 139 1
10 140 1
26 140 1
270 140 1
278 140 1
296 140 1
303 140 1
322 140 1
326 140 1
1 141 1
11 141 1
271 141 1
279 141 1
297 141 1
304 141 1
323 141 1
327 141 1
2 142 1
12 142 1
272 142 1
280 142 1
298 142 1
305 142 1
324 142 1
328 142 1
3 143 1
13 143 1
273 143 1
281 143 1
299 143 1
306 143 1
325 143 1
329 143 1
4 144 1
14 144 1
274 144 1
282 144 1
300 144 1
307 144 1
326 144 1
330 144 1
5 145 1
15 145 1
275 145 1
283 145 1
301 145 1
308 145 1
327 145 1
331 145 1
6 146 1
16 146 1
276 146 1
284 146 1
302 146 1
309 146 1
328 146 1
332 146 1
7 147 1
17 147 1
277 147 1
285 147 1
303 147 1
310 147 1
329 147 1
333 147 1
8 148 1
18 148 1
278 148 1
286 148 1
304 148 1
311 148 1
330 148 1
334 148 1
9 149 1
19 149 1
261 149 1
279 149 1
305 149 1
312 149 1
331 149 1
335 149 1
10 150 1
20 150 1
262 150 1
280 150 1
287 150 1
306 150 1
332 150 1
336 150 1
11 151 1
21 151 1
263 151 1
281 151 1
288 151 1
307 151 1
333 151 1
337 151 1
12 152 1
22 152 1
264 152 1
282 152 1
289 152 1
308 152 1
334 152 1
338 152 1
13 153 1
23 153 1
265 153 1
283 153 1
290 153 1
309 153 1
313 153 1
335 153 1
14 154 1
24 154 1
266 154 1
284 154 1
291 154 1
310 154 1
314 154 1
336 154 1
15 155 1
25 155 1
267 155 1
285 155 1
292 155 1
311 155 1
315 155 1
337 155 1
16 156 1
26 156 1
268 156 1
286 156 1
293 156 1
312 156 1
316 156 1
338 156 1
27 157 1
43 157 1
261 157 1
272 157 1
339 157 1
346 157 1
365 157 1
369 157 1
28 158 1
44 158 1
262 158 1
273 158 1
340 158 1
347 158 1
366 158 1
370 158 1
29 159 1
45 159 1
263 159 1
274 159 1
341 159 1
348 159 1
367 159 1
371 159 1
30 160 1
46 160 1
264 160 1
275 160 1
342 160 1
349 160 1
368 160 1
372 160 1
31 161 1
47 161 1
265 161 1
276 161 1
343 161 1
350 161 1
369 161 1
373 161 1
32 162 1
48 162 1
266 162 1
277 162 1
344 162 1
351 162 1
370 162 1
374 162 1
33 163 1
49 163 1
267 163 1
278 163 1
345 163 1
352 163 1
371 163 1
375 163 1
34 164 1
50 164 1
268 164 1
279 164 1
346 164 1
353 164 1
372 164 1
376 164 1
35 165 1
51 165 1
269 165 1
280 165 1
347 165 1
354 165 1
373 165 1
377 165 1
36 166 1
52 166 1
270 166 1
281 166 1
348 166 1
355 166 1
374 166 1
378 166 1
27 167 1
37 167 1
271 167 1
282 167 1
349 167 1
356 167 1
375 167 1
379 167 1
28 168 1
38 168 1
272 168 1
283 168 1
350 168 1
357 168 1
376 168 1
380 168 1
29 169 1
39 169 1
273 169 1
284 169 1
351 169 1
358 169 1
377 169 1
381 169 1
30 170 1
40 170 1
274 170 1
285 170 1
352 170 1
359 170 1
378 170 1
382 170 1
31 171 1
41 171 1
275 171 1
286 171 1
353 171 1
360 171 1
379 171 1
383 171 1
32 172 1
42 172 1
261 172 1
276 172 1
354 172 1
361 172 1
380 172 1
384 172 1
33 173 1
43 173 1
262 173 1
277 173 1
355 173 1
362 173 1
381 173 1
385 173 1
34 174 1
44 174 1
263 174 1
278 174 1
356 174 1
363 174 1
382 174 1
386 174 1
35 175 1
45 175 1
264 175 1
279 175 1
357 175 1
364 175 1
383 175 1
387 175 1
36 176 1
46 176 1
265 176 1
280 176 1
339 176 1
358 176 1
384 176 1
388 176 1
37 177 1
47 177 1
266 177 1
281 177 1
340 177 1
359 177 1
385 177 1
389 177 1
38 178 1
48 178 1
267 178 1
282 178 1
341 178 1
360 178 1
386 178 1
390 178 1
39 179 1
49 179 1
268 179 1
283 179 1
342 179 1
361 179 1
365 179 1
387 179 1
40 180 1
50 180 1
269 180 1
284 180 1
343 180 1
362 180 1
366 180 1
388 180 1
41 181 1
51 181 1
270 181 1
285 181 1
344 181 1
363 181 1
367 181 1
389 181 1
42 182 1
52 182 1
271 182 1
286 182 1
345 182 1
364 182 1
368 182 1
390 182 1
53 183 1
69 183 1
287 183 1
298 183 1
339 183 1
347 183 1
391 183 1
395 183 1
54 184 1
70 184 1
288 184 1
299 184 1
340 184 1
348 184 1
392 184 1
396 184 1
55 185 1
71 185 1
289 185 1
300 185 1
341 185 1
349 185 1
393 185 1
397 185 1
56 186 1
72 186 1
290 186 1
301 186 1
342 186 1
350 186 1
394 186 1
398 186 1
57 187 1
73 187 1
291 187 1
302 187 1
343 187 1
351 187 1
395 187 1
399 187 1
58 188 1
74 188 1
292 188 1
303 188 1
344 188 1
352 188 1
396 188 1
400 188 1
59 189 1
75 189 1
293 189 1
304 189 1
345 189 1
353 189 1
397 189 1
401 189 1
60 190 1
76 190 1
294 190 1
305 190 1
346 190 1
354 190 1
398 190 1
402 190 1
61 191 1
77 191 1
295 191 1
306 191 1
347 191 1
355 191 1
399 191 1
403 191 1
62 192 1
78 192 1
296 192 1
307 192 1
348 192 1
356 192 1
400 192 1
404 192 1
53 193 1
63 193 1
297 193 1
308 193 1
349 193 1
357 193 1
401 193 1
405 193 1
54 194 1
64 194 1
298 194 1
309 194 1
350 194 1
358 194 1
402 194 1
406 194 1
55 195 1
65 195 1
299 195 1
310 195 1
351 195 1
359 195 1
403 195 1
407 195 1
56 196 1
66 196 1
300 196 1
311 196 1
352 196 1
360 196 1
404 196 1
408 196 1
57 197 1
67 197 1
301 197 1
312 197 1
353 197 1
361 197 1
405 197 1
409 197 1
58 198 1
68 198 1
287 198 1
302 198 1
354 198 1
362 198 1
406 198 1
410 198 1
59 199 1
69 199 1
288 199 1
303 199 1
355 199 1
363 199 1
407 199 1
411 199 1
60 200 1
70 200 1
289 200 1
304 200 1
356 200 1
364 200 1
408 200 1
412 200 1
61 201 1
71 201 1
290 201 1
305 201 1
339 201 1
357 201 1
409 201 1
413 201 1
62 202 1
72 202 1
291 202 1
306 202 1
340 202 1
358 202 1
410 202 1
414 202 1
63 203 1
73 203 1
292 203 1
307 203 1
341 203 1
359 203 1
411 203 1
415 203 1
64 204 1
74 204 1
293 204 1
308 204 1
342 204 1
360 204 1
412 204 1
416 204 1
65 205 1
75 205 1
294 205 1
309 205 1
343 205 1
361 205 1
391 205 1
413 205 1
66 206 1
76 206 1
295 206 1
310 206 1
344 206 1
362 206 1
392 206 1
414 206 1
67 207 1
77 207 1
296 207 1
311 207 1
345 207 1
363 207 1
393 207 1
415 207 1
68 208 1
78 208 1
297 208 1
312 208 1
346 208 1
364 208 1
394 208 1
416 208 1
79 209 1
95 209 1
313 209 1
324 209 1
365 209 1
373 209 1
391 209 1
398 209 1
80 210 1
96 210 1
314 210 1
325 210 1
366 210 1
374 210 1
392 210 1
399 210 1
81 211 1
97 211 1
315 211 1
326 211 1
367 211 1
375 211 1
393 211 1
400 211 1
82 212 1
98 212 1
316 212 1
327 212 1
368 212 1
376 212 1
394 212 1
401 212 1
83 213 1
99 213 1
317 213 1
328 213 1
369 213 1
377 213 1
395 213 1
402 213 1
84 214 1
100 214 1
318 214 1
329 214 1
370 214 1
378 214 1
396 214 1
403 214 1
85 215 1
101 215 1
319 215 1
330 215 1
371 215 1
379 215 1
397 215 1
404 215 1
86 216 1
102 216 1
320 216 1
331 216 1
372 216 1
380 216 1
398 216 1
405 216 1
87 217 1
103 217 1
321 217 1
332 217 1
373 217 1
381 217 1
399 217 1
406 217 1
88 218 1
104 218 1
322 218 1
333 218 1
374 218 1
382 218 1
400 218 1
407 218 1
79 219 1
89 219 1
323 219 1
334 219 1
375 219 1
383 219 1
401 219 1
408 219 1
80 220 1
90 220 1
324 220 1
335 220 1
376 220 1
384 220 1
402 220 1
409 220 1
81 221 1
91 221 1
325 221 1
336 221 1
377 221 1
385 221 1
403 221 1
410 221 1
82 222 1
92 222 1
326 222 1
337 222 1
378 222 1
386 222 1
404 222 1
411 222 1
83 223 1
93 223 1
327 223 1
338 223 1
379 223 1
387 223 1
405 223 1
412 223 1
84 224 1
94 224 1
313 224 1
328 224 1
380 224 1
388 224 1
406 224 1
413 224 1
85 225 1
95 225 1
314 225 1
329 225 1
381 225 1
389 225 1
407 225 1
414 225 1
86 226 1
96 226 1
315 226 1
330 226 1
382 226 1
390 226 1
408 226 1
415 226 1
87 227 1
97 227 1
316 227 1
331 227 1
365 227 1
383 227 1
409 227 1
416 227 1
88 228 1
98 228 1
317 228 1
332 228 1
366 228 1
384 228 1
391 228 1
410 228 1
89 229 1
99 229 1
318 229 1
333 229 1
367 229 1
385 229 1
392 229 1
411 229 1
90 230 1
100 230 1
319 230 1
334 230 1
368 230 1
386 230 1
393 230 1
412 230 1
91 231 1
101 231 1
320 231 1
335 231 1
369 231 1
387 231 1
394 231 1
413 231 1
92 232 1
102 232 1
321 232 1
336 232 1
370 232 1
388 232 1
395 232 1
414 232 1
93 233 1
103 233 1
322 233 1
337 233 1
371 233 1
389 233 1
396 233 1
415 233 1
94 234 1
104 234 1
323 234 1
338 234 1
372 234 1
390 234 1
397 234 1
416 234 1
105 235 1
121 235 1
261 235 1
275 235 1
417 235 1
424 235 1
443 235 1
447 235 1
106 236 1
122 236 1
262 236 1
276 236 1
418 236 1
425 236 1
444 236 1
448 236 1
107 237 1
123 237 1
263 237 1
277 237 1
419 237 1
426 237 1
445 237 1
449 237 1
108 238 1
124 238 1
264 238 1
278 238 1
420 238 1
427 238 1
446 238 1
450 238 1
109 239 1
125 239 1
265 239 1
279 239 1
421 239 1
428 239 1
447 239 1
451 239 1
110 240 1
126 240 1
266 240 1
280 240 1
422 240 1
429 240 1
448 240 1
452 240 1
111 241 1
127 241 1
267 241 1
281 241 1
423 241 1
430 241 1
449 241 1
453 241 1
112 242 1
128 242 1
268 242 1
282 242 1
424 242 1
431 242 1
450 242 1
454 242 1
113 243 1
129 243 1
269 243 1
283 243 1
425 243 1
432 243 1
451 243 1
455 243 1
114 244 1
130 244 1
270 244 1
284 244 1
426 244 1
433 244 1
452 244 1
456 244 1
105 245 1
115 245 1
271 245 1
285 245 1
427 245 1
434 245 1
453 245 1
457 245 1
106 246 1
116 246 1
272 246 1
286 246 1
428 246 1
435 246 1
454 246 1
458 246 1
107 247 1
117 247 1
261 247 1
273 247 1
429 247 1
436 247 1
455 247 1
459 247 1
108 248 1
118 248 1
262 248 1
274 248 1
430 248 1
437 248 1
456 248 1
460 248 1
109 249 1
119 249 1
263 249 1
275 249 1
431 249 1
438 249 1
457 249 1
461 249 1
110 250 1
120 250 1
264 250 1
276 250 1
432 250 1
439 250 1
458 250 1
462 250 1
111 251 1
121 251 1
265 251 1
277 251 1
433 251 1
440 251 1
459 251 1
463 251 1
112 252 1
122 252 1
266 252 1
278 252 1
434 252 1
441 252 1
460 252 1
464 252 1
113 253 1
123 253 1
267 253 1
279 253 1
435 253 1
442 253 1
461 253 1
465 253 1
114 254 1
124 254 1
268 254 1
280 254 1
417 254 1
436 254 1
462 254 1
466 254 1
115 255 1
125 255 1
269 255 1
281 255 1
418 255 1
437 255 1
463 255 1
467 255 1
116 256 1
126 256 1
270 256 1
282 256 1
419 256 1
438 256 1
464 256 1
468 256 1
117 257 1
127 257 1
271 257 1
283 257 1
420 257 1
439 257 1
443 257 1
465 257 1
118 258 1
128 258 1
272 258 1
284 258 1
421 258 1
440 258 1
444 258 1
466 258 1
119 259 1
129 259 1
273 259 1
285 259 1
422 259 1
441 259 1
445 259 1
467 259 1
120 260 1
130 260 1
274 260 1
286 260 1
423 260 1
442 260 1
446 260 1
468 260 1
131 261 1
147 261 1
287 261 1
301 261 1
417 261 1
425 261 1
469 261 1
473 261 1
132 262 1
148 262 1
288 262 1
302 262 1
418 262 1
426 262 1
470 262 1
474 262 1
133 263 1
149 263 1
289 263 1
303 263 1
419 263 1
427 263 1
471 263 1
475 263 1
134 264 1
150 264 1
290 264 1
304 264 1
420 264 1
428 264 1
472 264 1
476 264 1
135 265 1
151 265 1
291 265 1
305 265 1
421 265 1
429 265 1
473 265 1
477 265 1
136 266 1
152 266 1
292 266 1
306 266 1
422 266 1
430 266 1
474 266 1
478 266 1
137 267 1
153 267 1
293 267 1
307 267 1
423 267 1
431 267 1
475 267 1
479 267 1
138 268 1
154 268 1
294 268 1
308 268 1
424 268 1
432 268 1
476 268 1
480 268 1
139 269 1
155 269 1
295 269 1
309 269 1
425 269 1
433 269 1
477 269 1
481 269 1
140 270 1
156 270 1
296 270 1
310 270 1
426 270 1
434 270 1
478 270 1
482 270 1
131 271 1
141 271 1
297 271 1
311 271 1
427 271 1
435 271 1
479 271 1
483 271 1
132 272 1
142 272 1
298 272 1
312 272 1
428 272 1
436 272 1
480 272 1
484 272 1
133 273 1
143 273 1
287 273 1
299 273 1
429 273 1
437 273 1
481 273 1
485 273 1
134 274 1
144 274 1
288 274 1
300 274 1
430 274 1
438 274 1
482 274 1
486 274 1
135 275 1
145 275 1
289 275 1
301 275 1
431 275 1
439 275 1
483 275 1
487 275 1
136 276 1
146 276 1
290 276 1
302 276 1
432 276 1
440 276 1
484 276 1
488 276 1
137 277 1
147 277 1
291 277 1
303 277 1
433 277 1
441 277 1
485 277 1
489 277 1
138 278 1
148 278 1
292 278 1
304 278 1
434 278 1
442 278 1
486 278 1
490 278 1
139 279 1
149 279 1
293 279 1
305 279 1
417 279 1
435 279 1
487 279 1
491 279 1
140 280 1
150 280 1
294 280 1
306 280 1
418 280 1
436 280 1
488 280 1
492 280 1
141 281 1
151 281 1
295 281 1
307 281 1
419 281 1
437 281 1
489 281 1
493 281 1
142 282 1
152 282 1
296 282 1
308 282 1
420 282 1
438 282 1
490 282 1
494 282 1
143 283 1
153 283 1
297 283 1
309 283 1
421 283 1
439 283 1
469 283 1
491 283 1
144 284 1
154 284 1
298 284 1
310 284 1
422 284 1
440 284 1
470 284 1
492 284 1
145 285 1
155 285 1
299 285 1
311 285 1
423 285 1
441 285 1
471 285 1
493 285 1
146 286 1
156 286 1
300 286 1
312 286 1
424 286 1
442 286 1
472 286 1
494 286 1
157 287 1
173 287 1
313 287 1
327 287 1
443 287 1
451 287 1
469 287 1
476 287 1
158 288 1
174 288 1
314 288 1
328 288 1
444 288 1
452 288 1
470 288 1
477 288 1
159 289 1
175 289 1
315 289 1
329 289 1
445 289 1
453 289 1
471 289 1
478 289 1
160 290 1
176 290 1
316 290 1
330 290 1
446 290 1
454 290 1
472 290 1
479 290 1
161 291 1
177 291 1
317 291 1
331 291 1
447 291 1
455 291 1
473 291 1
480 291 1
162 292 1
178 292 1
318 292 1
332 292 1
448 292 1
456 292 1
474 292 1
481 292 1
163 293 1
179 293 1
319 293 1
333 293 1
449 293 1
457 293 1
475 293 1
482 293 1
164 294 1
180 294 1
320 294 1
334 294 1
450 294 1
458 294 1
476 294 1
483 294 1
165 295 1
181 295 1
321 295 1
335 295 1
451 295 1
459 295 1
477 295 1
484 295 1
166 296 1
182 296 1
322 296 1
336 296 1
452 296 1
460 296 1
478 296 1
485 296 1
157 297 1
167 297 1
323 297 1
337 297 1
453 297 1
461 297 1
479 297 1
486 297 1
158 298 1
168 298 1
324 298 1
338 298 1
454 298 1
462 298 1
480 298 1
487 298 1
159 299 1
169 299 1
313 299 1
325 299 1
455 299 1
463 299 1
481 299 1
488 299 1
160 300 1
170 300 1
314 300 1
326 300 1
456 300 1
464 300 1
482 300 1
489 300 1
161 301 1
171 301 1
315 301 1
327 301 1
457 301 1
465 301 1
483 301 1
490 301 1
162 302 1
172 302 1
316 302 1
328 302 1
458 302 1
466 302 1
484 302 1
491 302 1
163 303 1
173 303 1
317 303 1
329 303 1
459 303 1
467 303 1
485 303 1
492 303 1
164 304 1
174 304 1
318 304 1
330 304 1
460 304 1
468 304 1
486 304 1
493 304 1
165 305 1
175 305 1
319 305 1
331 305 1
443 305 1
461 305 1
487 305 1
494 305 1
166 306 1
176 306 1
320 306 1
332 306 1
444 306 1
462 306 1
469 306 1
488 306 1
167 307 1
177 307 1
321 307 1
333 307 1
445 307 1
463 307 1
470 307 1
489 307 1
168 308 1
178 308 1
322 308 1
334 308 1
446 308 1
464 308 1
471 308 1
490 308 1
169 309 1
179 309 1
323 309 1
335 309 1
447 309 1
465 309 1
472 309 1
491 309 1
170 310 1
180 310 1
324 310 1
336 310 1
448 310 1
466 310 1
473 310 1
492 310 1
171 311 1
181 311 1
325 311 1
337 311 1
449 311 1
467 311 1
474 311 1
493 311 1
172 312 1
182 312 1
326 312 1
338 312 1
450 312 1
468 312 1
475 312 1
494 312 1
183 313 1
199 313 1
339 313 1
353 313 1
417 313 1
428 313 1
495 313 1
499 313 1
184 314 1
200 314 1
340 314 1
354 314 1
418 314 1
429 314 1
496 314 1
500 314 1
185 315 1
201 315 1
341 315 1
355 315 1
419 315 1
430 315 1
497 315 1
501 315 1
186 316 1
202 316 1
342 316 1
356 316 1
420 316 1
431 316 1
498 316 1
502 316 1
187 317 1
203 317 1
343 317 1
357 317 1
421 317 1
432 317 1
499 317 1
503 317 1
188 318 1
204 318 1
344 318 1
358 318 1
422 318 1
433 318 1
500 318 1
504 318 1
189 319 1
205 319 1
345 319 1
359 319 1
423 319 1
434 319 1
501 319 1
505 319 1
190 320 1
206 320 1
346 320 1
360 320 1
424 320 1
435 320 1
502 320 1
506 320 1
191 321 1
207 321 1
347 321 1
361 321 1
425 321 1
436 321 1
503 321 1
507 321 1
192 322 1
208 322 1
348 322 1
362 322 1
426 322 1
437 322 1
504 322 1
508 322 1
183 323 1
193 323 1
349 323 1
363 323 1
427 323 1
438 323 1
505 323 1
509 323 1
184 324 1
194 324 1
350 324 1
364 324 1
428 324 1
439 324 1
506 324 1
510 324 1
185 325 1
195 325 1
339 325 1
351 325 1
429 325 1
440 325 1
507 325 1
511 325 1
186 326 1
196 326 1
340 326 1
352 326 1
430 326 1
441 326 1
508 326 1
512 326 1
187 327 1
197 327 1
341 327 1
353 327 1
431 327 1
442 327 1
509 327 1
513 327 1
188 328 1
198 328 1
342 328 1
354 328 1
417 328 1
432 328 1
510 328 1
514 328 1
189 329 1
199 329 1
343 329 1
355 329 1
418 329 1
433 329 1
511 329 1
515 329 1
190 330 1
200 330 1
344 330 1
356 330 1
419 330 1
434 330 1
512 330 1
516 330 1
191 331 1
201 331 1
345 331 1
357 331 1
420 331 1
435 331 1
513 331 1
517 331 1
192 332 1
202 332 1
346 332 1
358 332 1
421 332 1
436 332 1
514 332 1
518 332 1
193 333 1
203 333 1
347 333 1
359 333 1
422 333 1
437 333 1
515 333 1
519 333 1
194 334 1
204 334 1
348 334 1
360 334 1
423 334 1
438 334 1
516 334 1
520 334 1
195 335 1
205 335 1
349 335 1
361 335 1
424 335 1
439 335 1
495 335 1
517 335 1
196 336 1
206 336 1
350 336 1
362 336 1
425 336 1
440 336 1
496 336 1
518 336 1
197 337 1
207 337 1
351 337 1
363 337 1
426 337 1
441 337 1
497 337 1
519 337 1
198 338 1
208 338 1
352 338 1
364 338 1
427 338 1
442 338 1
498 338 1
520 338 1
209 339 1
225 339 1
365 339 1
379 339 1
443 339 1
454 339 1
495 339 1
502 339 1
210 340 1
226 340 1
366 340 1
380 340 1
444 340 1
455 340 1
496 340 1
503 340 1
211 341 1
227 341 1
367 341 1
381 341 1
445 341 1
456 341 1
497 341 1
504 341 1
212 342 1
228 342 1
368 342 1
382 342 1
446 342 1
457 342 1
498 342 1
505 342 1
213 343 1
229 343 1
369 343 1
383 343 1
447 343 1
458 343 1
499 343 1
506 343 1
214 344 1
230 344 1
370 344 1
384 344 1
448 344 1
459 344 1
500 344 1
507 344 1
215 345 1
231 345 1
371 345 1
385 345 1
449 345 1
460 345 1
501 345 1
508 345 1
216 346 1
232 346 1
372 346 1
386 346 1
450 346 1
461 346 1
502 346 1
509 346 1
217 347 1
233 347 1
373 347 1
387 347 1
451 347 1
462 347 1
503 347 1
510 347 1
218 348 1
234 348 1
374 348 1
388 348 1
452 348 1
463 348 1
504 348 1
511 348 1
209 349 1
219 349 1
375 349 1
389 349 1
453 349 1
464 349 1
505 349 1
512 349 1
210 350 1
220 350 1
376 350 1
390 350 1
454 350 1
465 350 1
506 350 1
513 350 1
211 351 1
221 351 1
365 351 1
377 351 1
455 351 1
466 351 1
507 351 1
514 351 1
212 352 1
222 352 1
366 352 1
378 352 1
456 352 1
467 352 1
508 352 1
515 352 1
213 353 1
223 353 1
367 353 1
379 353 1
457 353 1
468 353 1
509 353 1
516 353 1
214 354 1
224 354 1
368 354 1
380 354 1
443 354 1
458 354 1
510 354 1
517 354 1
215 355 1
225 355 1
369 355 1
381 355 1
444 355 1
459 355 1
511 355 1
518 355 1
216 356 1
226 356 1
370 356 1
382 356 1
445 356 1
460 356 1
512 356 1
519 356 1
217 357 1
227 357 1
371 357 1
383 357 1
446 357 1
461 357 1
513 357 1
520 357 1
218 358 1
228 358 1
372 358 1
384 358 1
447 358 1
462 358 1
495 358 1
514 358 1
219 359 1
229 359 1
373 359 1
385 359 1
448 359 1
463 359 1
496 359 1
515 359 1
220 360 1
230 360 1
374 360 1
386 360 1
449 360 1
464 360 1
497 360 1
516 360 1
221 361 1
231 361 1
375 361 1
387 361 1
450 361 1
465 361 1
498 361 1
517 361 1
222 362 1
232 362 1
376 362 1
388 362 1
451 362 1
466 362 1
499 362 1
518 362 1
223 363 1
233 363 1
377 363 1
389 363 1
452 363 1
467 363 1
500 363 1
519 363 1
224 364 1
234 364 1
378 364 1
390 364 1
453 364 1
468 364 1
501 364 1
520 364 1
235 365 1
251 365 1
391 365 1
405 365 1
469 365 1
480 365 1
495 365 1
503 365 1
236 366 1
252 366 1
392 366 1
406 366 1
470 366 1
481 366 1
496 366 1
504 366 1
237 367 1
253 367 1
393 367 1
407 367 1
471 367 1
482 367 1
497 367 1
505 367 1
238 368 1
254 368 1
394 368 1
408 368 1
472 368 1
483 368 1
498 368 1
506 368 1
239 369 1
255 369 1
395 369 1
409 369 1
473 369 1
484 369 1
499 369 1
507 369 1
240 370 1
256 370 1
396 370 1
410 370 1
474 370 1
485 370 1
500 370 1
508 370 1
241 371 1
257 371 1
397 371 1
411 371 1
475 371 1
486 371 1
501 371 1
509 371 1
242 372 1
258 372 1
398 372 1
412 372 1
476 372 1
487 372 1
502 372 1
510 372 1
243 373 1
259 373 1
399 373 1
413 373 1
477 373 1
488 373 1
503 373 1
511 373 1
244 374 1
260 374 1
400 374 1
414 374 1
478 374 1
489 374 1
504 374 1
512 374 1
235 375 1
245 375 1
401 375 1
415 375 1
479 375 1
490 375 1
505 375 1
513 375 1
236 376 1
246 376 1
402 376 1
416 376 1
480 376 1
491 376 1
506 376 1
514 376 1
237 377 1
247 377 1
391 377 1
403 377 1
481 377 1
492 377 1
507 377 1
515 377 1
238 378 1
248 378 1
392 378 1
404 378 1
482 378 1
493 378 1
508 378 1
516 378 1
239 379 1
249 379 1
393 379 1
405 379 1
483 379 1
494 379 1
509 379 1
517 379 1
240 380 1
250 380 1
394 380 1
406 380 1
469 380 1
484 380 1
510 380 1
518 380 1
241 381 1
251 381 1
395 381 1
407 381 1
470 381 1
485 381 1
511 381 1
519 381 1
242 382 1
252 382 1
396 382 1
408 382 1
471 382 1
486 382 1
512 382 1
520 382 1
243 383 1
253 383 1
397 383 1
409 383 1
472 383 1
487 383 1
495 383 1
513 383 1
244 384 1
254 384 1
398 384 1
410 384 1
473 384 1
488 384 1
496 384 1
514 384 1
245 385 1
255 385 1
399 385 1
411 385 1
474 385 1
489 385 1
497 385 1
515 385 1
246 386 1
256 386 1
400 386 1
412 386 1
475 386 1
490 386 1
498 386 1
516 386 1
247 387 1
257 387 1
401 387 1
413 387 1
476 387 1
491 387 1
499 387 1
517 387 1
248 388 1
258 388 1
402 388 1
414 388 1
477 388 1
492 388 1
500 388 1
518 388 1
249 389 1
259 389 1
403 389 1
415 389 1
478 389 1
493 389 1
501 389 1
519 389 1
250 390 1
260 390 1
404 390 1
416 390 1
479 390 1
494 390 1
502 390 1
520 390 1
1 391 1
18 391 1
521 391 1
529 391 1
547 391 1
554 391 1
573 391 1
577 391 1
2 392 1
19 392 1
522 392 1
530 392 1
548 392 1
555 392 1
574 392 1
578 392 1
3 393 1
20 393 1
523 393 1
531 393 1
549 393 1
556 393 1
575 393 1
579 393 1
4 394 1
21 394 1
524 394 1
532 394 1
550 394 1
557 394 1
576 394 1
580 394 1
5 395 1
22 395 1
525 395 1
533 395 1
551 395 1
558 395 1
577 395 1
581 395 1
6 396 1
23 396 1
526 396 1
534 396 1
552 396 1
559 396 1
578 396 1
582 396 1
7 397 1
24 397 1
527 397 1
535 397 1
553 397 1
560 397 1
579 397 1
583 397 1
8 398 1
25 398 1
528 398 1
536 398 1
554 398 1
561 398 1
580 398 1
584 398 1
9 399 1
26 399 1
529 399 1
537 399 1
555 399 1
562 399 1
581 399 1
585 399 1
1 400 1
10 400 1
530 400 1
538 400 1
556 400 1
563 400 1
582 400 1
586 400 1
2 401 1
11 401 1
531 401 1
539 401 1
557 401 1
564 401 1
583 401 1
587 401 1
3 402 1
12 402 1
532 402 1
540 402 1
558 402 1
565 402 1
584 402 1
588 402 1
4 403 1
13 403 1
533 403 1
541 403 1
559 403 1
566 403 1
585 403 1
589 403 1
5 404 1
14 404 1
534 404 1
542 404 1
560 404 1
567 404 1
586 404 1
590 404 1
6 405 1
15 405 1
535 405 1
543 405 1
561 405 1
568 405 1
587 405 1
591 405 1
7 406 1
16 406 1
536 406 1
544 406 1
562 406 1
569 406 1
588 406 1
592 406 1
8 407 1
17 407 1
537 407 1
545 407 1
563 407 1
570 407 1
589 407 1
593 407 1
9 408 1
18 408 1
538 408 1
546 408 1
564 408 1
571 408 1
590 408 1
594 408 1
10 409 1
19 409 1
521 409 1
539 409 1
565 409 1
572 409 1
591 409 1
595 409 1
11 410 1
20 410 1
522 410 1
540 410 1
547 410 1
566 410 1
592 410 1
596 410 1
12 411 1
21 411 1
523 411 1
541 411 1
548 411 1
567 411 1
593 411 1
597 411 1
13 412 1
22 412 1
524 412 1
542 412 1
549 412 1
568 412 1
594 412 1
598 412 1
14 413 1
23 413 1
525 413 1
543 413 1
550 413 1
569 413 1
573 413 1
595 413 1
15 414 1
24 414 1
526 414 1
544 414 1
551 414 1
570 414 1
574 414 1
596 414 1
16 415 1
25 415 1
527 415 1
545 415 1
552 415 1
571 415 1
575 415 1
597 415 1
17 416 1
26 416 1
528 416 1
546 416 1
553 416 1
572 416 1
576 416 1
598 416 1
27 417 1
44 417 1
521 417 1
532 417 1
599 417 1
606 417 1
625 417 1
629 417 1
28 418 1
45 418 1
522 418 1
533 418 1
600 418 1
607 418 1
626 418 1
630 418 1
29 419 1
46 419 1
523 419 1
534 419 1
601 419 1
608 419 1
627 419 1
631 419 1
30 420 1
47 420 1
524 420 1
535 420 1
602 420 1
609 420 1
628 420 1
632 420 1
31 421 1
48 421 1
525 421 1
536 421 1
603 421 1
610 421 1
629 421 1
633 421 1
32 422 1
49 422 1
526 422 1
537 422 1
604 422 1
611 422 1
630 422 1
634 422 1
33 423 1
50 423 1
527 423 1
538 423 1
605 423 1
612 423 1
631 423 1
635 423 1
34 424 1
51 424 1
528 424 1
539 424 1
606 424 1
613 424 1
632 424 1
636 424 1
35 425 1
52 425 1
529 425 1
540 425 1
607 425 1
614 425 1
633 425 1
637 425 1
27 426 1
36 426 1
530 426 1
541 426 1
608 426 1
615 426 1
634 426 1
638 426 1
28 427 1
37 427 1
531 427 1
542 427 1
609 427 1
616 427 1
635 427 1
639 427 1
29 428 1
38 428 1
532 428 1
543 428 1
610 428 1
617 428 1
636 428 1
640 428 1
30 429 1
39 429 1
533 429 1
544 429 1
611 429 1
618 429 1
637 429 1
641 429 1
31 430 1
40 430 1
534 430 1
545 430 1
612 430 1
619 430 1
638 430 1
642 430 1
32 431 1
41 431 1
535 431 1
546 431 1
613 431 1
620 431 1
639 431 1
643 431 1
33 432 1
42 432 1
521 432 1
536 432 1
614 432 1
621 432 1
640 432 1
644 432 1
34 433 1
43 433 1
522 433 1
537 433 1
615 433 1
622 433 1
641 433 1
645 433 1
35 434 1
44 434 1
523 434 1
538 434 1
616 434 1
623 434 1
642 434 1
646 434 1
36 435 1
45 435 1
524 435 1
539 435 1
617 435 1
624 435 1
643 435 1
647 435 1
37 436 1
46 436 1
525 436 1
540 436 1
599 436 1
618 436 1
644 436 1
648 436 1
38 437 1
47 437 1
526 437 1
541 437 1
600 437 1
619 437 1
645 437 1
649 437 1
39 438 1
48 438 1
527 438 1
542 438 1
601 438 1
620 438 1
646 438 1
650 438 1
40 439 1
49 439 1
528 439 1
543 439 1
602 439 1
621 439 1
625 439 1
647 439 1
41 440 1
50 440 1
529 440 1
544 440 1
603 440 1
622 440 1
626 440 1
648 440 1
42 441 1
51 441 1
530 441 1
545 441 1
604 441 1
623 441 1
627 441 1
649 441 1
43 442 1
52 442 1
531 442 1
546 442 1
605 442 1
624 442 1
628 442 1
650 442 1
53 443 1
70 443 1
547 443 1
558 443 1
599 443 1
607 443 1
651 443 1
655 443 1
54 444 1
71 444 1
548 444 1
559 444 1
600 444 1
608 444 1
652 444 1
656 444 1
55 445 1
72 445 1
549 445 1
560 445 1
601 445 1
609 445 1
653 445 1
657 445 1
56 446 1
73 446 1
550 446 1
561 446 1
602 446 1
610 446 1
654 446 1
658 446 1
57 447 1
74 447 1
551 447 1
562 447 1
603 447 1
611 447 1
655 447 1
659 447 1
58 448 1
75 448 1
552 448 1
563 448 1
604 448 1
612 448 1
656 448 1
660 448 1
59 449 1
76 449 1
553 449 1
564 449 1
605 449 1
613 449 1
657 449 1
661 449 1
60 450 1
77 450 1
554 450 1
565 450 1
606 450 1
614 450 1
658 450 1
662 450 1
61 451 1
78 451 1
555 451 1
566 451 1
607 451 1
615 451 1
659 451 1
663 451 1
53 452 1
62 452 1
556 452 1
567 452 1
608 452 1
616 452 1
660 452 1
664 452 1
54 453 1
63 453 1
557 453 1
568 453 1
609 453 1
617 453 1
661 453 1
665 453 1
55 454 1
64 454 1
558 454 1
569 454 1
610 454 1
618 454 1
662 454 1
666 454 1
56 455 1
65 455 1
559 455 1
570 455 1
611 455 1
619 455 1
663 455 1
667 455 1
57 456 1
66 456 1
560 456 1
571 456 1
612 456 1
620 456 1
664 456 1
668 456 1
58 457 1
67 457 1
561 457 1
572 457 1
613 457 1
621 457 1
665 457 1
669 457 1
59 458 1
68 458 1
547 458 1
562 458 1
614 458 1
622 458 1
666 458 1
670 458 1
60 459 1
69 459 1
548 459 1
563 459 1
615 459 1
623 459 1
667 459 1
671 459 1
61 460 1
70 460 1
549 460 1
564 460 1
616 460 1
624 460 1
668 460 1
672 460 1
62 461 1
71 461 1
550 461 1
565 461 1
599 461 1
617 461 1
669 461 1
673 461 1
63 462 1
72 462 1
551 462 1
566 462 1
600 462 1
618 462 1
670 462 1
674 462 1
64 463 1
73 463 1
552 463 1
567 463 1
601 463 1
619 463 1
671 463 1
675 463 1
65 464 1
74 464 1
553 464 1
568 464 1
602 464 1
620 464 1
672 464 1
676 464 1
66 465 1
75 465 1
554 465 1
569 465 1
603 465 1
621 465 1
651 465 1
673 465 1
67 466 1
76 466 1
555 466 1
570 466 1
604 466 1
622 466 1
652 466 1
674 466 1
68 467 1
77 467 1
556 467 1
571 467 1
605 467 1
623 467 1
653 467 1
675 467 1
69 468 1
78 468 1
557 468 1
572 468 1
606 468 1
624 468 1
654 468 1
676 468 1
79 469 1
96 469 1
573 469 1
584 469 1
625 469 1
633 469 1
651 469 1
658 469 1
80 470 1
97 470 1
574 470 1
585 470 1
626 470 1
634 470 1
652 470 1
659 470 1
81 471 1
98 471 1
575 471 1
586 471 1
627 471 1
635 471 1
653 471 1
660 471 1
82 472 1
99 472 1
576 472 1
587 472 1
628 472 1
636 472 1
654 472 1
661 472 1
83 473 1
100 473 1
577 473 1
588 473 1
629 473 1
637 473 1
655 473 1
662 473 1
84 474 1
101 474 1
578 474 1
589 474 1
630 474 1
638 474 1
656 474 1
663 474 1
85 475 1
102 475 1
579 475 1
590 475 1
631 475 1
639 475 1
657 475 1
664 475 1
86 476 1
103 476 1
580 476 1
591 476 1
632 476 1
640 476 1
658 476 1
665 476 1
87 477 1
104 477 1
581 477 1
592 477 1
633 477 1
641 477 1
659 477 1
666 477 1
79 478 1
88 478 1
582 478 1
593 478 1
634 478 1
642 478 1
660 478 1
667 478 1
80 479 1
89 479 1
583 479 1
594 479 1
635 479 1
643 479 1
661 479 1
668 479 1
81 480 1
90 480 1
584 480 1
595 480 1
636 480 1
644 480 1
662 480 1
669 480 1
82 481 1
91 481 1
585 481 1
596 481 1
637 481 1
645 481 1
663 481 1
670 481 1
83 482 1
92 482 1
586 482 1
597 482 1
638 482 1
646 482 1
664 482 1
671 482 1
84 483 1
93 483 1
587 483 1
598 483 1
639 483 1
647 483 1
665 483 1
672 483 1
85 484 1
94 484 1
573 484 1
588 484 1
640 484 1
648 484 1
666 484 1
673 484 1
86 485 1
95 485 1
574 485 1
589 485 1
641 485 1
649 485 1
667 485 1
674 485 1
87 486 1
96 486 1
575 486 1
590 486 1
642 486 1
650 486 1
668 486 1
675 486 1
88 487 1
97 487 1
576 487 1
591 487 1
625 487 1
643 487 1
669 487 1
676 487 1
89 488 1
98 488 1
577 488 1
592 488 1
626 488 1
644 488 1
651 488 1
670 488 1
90 489 1
99 489 1
578 489 1
593 489 1
627 489 1
645 489 1
652 489 1
671 489 1
91 490 1
100 490 1
579 490 1
594 490 1
628 490 1
646 490 1
653 490 1
672 490 1
92 491 1
101 491 1
580 491 1
595 491 1
629 491 1
647 491 1
654 491 1
673 491 1
93 492 1
102 492 1
581 492 1
596 492 1
630 492 1
648 492 1
655 492 1
674 492 1
94 493 1
103 493 1
582 493 1
597 493 1
631 493 1
649 493 1
656 493 1
675 493 1
95 494 1
104 494 1
583 494 1
598 494 1
632 494 1
650 494 1
657 494 1
676 494 1
105 495 1
122 495 1
521 495 1
535 495 1
677 495 1
684 495 1
703 495 1
707 495 1
106 496 1
123 496 1
522 496 1
536 496 1
678 496 1
685 496 1
704 496 1
708 496 1
107 497 1
124 497 1
523 497 1
537 497 1
679 497 1
686 497 1
705 497 1
709 497 1
108 498 1
125 498 1
524 498 1
538 498 1
680 498 1
687 498 1
706 498 1
710 498 1
109 499 1
126 499 1
525 499 1
539 499 1
681 499 1
688 499 1
707 499 1
711 499 1
110 500 1
127 500 1
526 500 1
540 500 1
682 500 1
689 500 1
708 500 1
712 500 1
111 501 1
128 501 1
527 501 1
541 501 1
683 501 1
690 501 1
709 501 1
713 501 1
112 502 1
129 502 1
528 502 1
542 502 1
684 502 1
691 502 1
710 502 1
714 502 1
113 503 1
130 503 1
529 503 1
543 503 1
685 503 1
692 503 1
711 503 1
715 503 1
105 504 1
114 504 1
530 504 1
544 504 1
686 504 1
693 504 1
712 504 1
716 504 1
106 505 1
115 505 1
531 505 1
545 505 1
687 505 1
694 505 1
713 505 1
717 505 1
107 506 1
116 506 1
532 506 1
546 506 1
688 506 1
695 506 1
714 506 1
718 506 1
108 507 1
117 507 1
521 507 1
533 507 1
689 507 1
696 507 1
715 507 1
719 507 1
109 508 1
118 508 1
522 508 1
534 508 1
690 508 1
697 508 1
716 508 1
720 508 1
110 509 1
119 509 1
523 509 1
535 509 1
691 509 1
698 509 1
717 509 1
721 509 1
111 510 1
120 510 1
524 510 1
536 510 1
692 510 1
699 510 1
718 510 1
722 510 1
112 511 1
121 511 1
525 511 1
537 511 1
693 511 1
700 511 1
719 511 1
723 511 1
113 512 1
122 512 1
526 512 1
538 512 1
694 512 1
701 512 1
720 512 1
724 512 1
114 513 1
123 513 1
527 513 1
539 513 1
695 513 1
702 513 1
721 513 1
725 513 1
115 514 1
124 514 1
528 514 1
540 514 1
677 514 1
696 514 1
722 514 1
726 514 1
116 515 1
125 515 1
529 515 1
541 515 1
678 515 1
697 515 1
723 515 1
727 515 1
117 516 1
126 516 1
530 516 1
542 516 1
679 516 1
698 516 1
724 516 1
728 516 1
118 517 1
127 517 1
531 517 1
543 517 1
680 517 1
699 517 1
703 517 1
725 517 1
119 518 1
128 518 1
532 518 1
544 518 1
681 518 1
700 518 1
704 518 1
726 518 1
120 519 1
129 519 1
533 519 1
545 519 1
682 519 1
701 519 1
705 519 1
727 519 1
121 520 1
130 520 1
534 520 1
546 520 1
683 520 1
702 520 1
706 520 1
728 520 1
131 521 1
148 521 1
547 521 1
561 521 1
677 521 1
685 521 1
729 521 1
733 521 1
132 522 1
149 522 1
548 522 1
562 522 1
678 522 1
686 522 1
730 522 1
734 522 1
133 523 1
150 523 1
549 523 1
563 523 1
679 523 1
687 523 1
731 523 1
735 523 1
134 524 1
151 524 1
550 524 1
564 524 1
680 524 1
688 524 1
732 524 1
736 524 1
135 525 1
152 525 1
551 525 1
565 525 1
681 525 1
689 525 1
733 525 1
737 525 1
136 526 1
153 526 1
552 526 1
566 526 1
682 526 1
690 526 1
734 526 1
738 526 1
137 527 1
154 527 1
553 527 1
567 527 1
683 527 1
691 527 1
735 527 1
739 527 1
138 528 1
155 528 1
554 528 1
568 528 1
684 528 1
692 528 1
736 528 1
740 528 1
139 529 1
156 529 1
555 529 1
569 529 1
685 529 1
693 529 1
737 529 1
741 529 1
131 530 1
140 530 1
556 530 1
570 530 1
686 530 1
694 530 1
738 530 1
742 530 1
132 531 1
141 531 1
557 531 1
571 531 1
687 531 1
695 531 1
739 531 1
743 531 1
133 532 1
142 532 1
558 532 1
572 532 1
688 532 1
696 532 1
740 532 1
744 532 1
134 533 1
143 533 1
547 533 1
559 533 1
689 533 1
697 533 1
741 533 1
745 533 1
135 534 1
144 534 1
548 534 1
560 534 1
690 534 1
698 534 1
742 534 1
746 534 1
136 535 1
145 535 1
549 535 1
561 535 1
691 535 1
699 535 1
743 535 1
747 535 1
137 536 1
146 536 1
550 536 1
562 536 1
692 536 1
700 536 1
744 536 1
748 536 1
138 537 1
147 537 1
551 537 1
563 537 1
693 537 1
701 537 1
745 537 1
749 537 1
139 538 1
148 538 1
552 538 1
564 538 1
694 538 1
702 538 1
746 538 1
750 538 1
140 539 1
149 539 1
553 539 1
565 539 1
677 539 1
695 539 1
747 539 1
751 539 1
141 540 1
150 540 1
554 540 1
566 540 1
678 540 1
696 540 1
748 540 1
752 540 1
142 541 1
151 541 1
555 541 1
567 541 1
679 541 1
697 541 1
749 541 1
753 541 1
143 542 1
152 542 1
556 542 1
568 542 1
680 542 1
698 542 1
750 542 1
754 542 1
144 543 1
153 543 1
557 543 1
569 543 1
681 543 1
699 543 1
729 543 1
751 543 1
145 544 1
154 544 1
558 544 1
570 544 1
682 544 1
700 544 1
730 544 1
752 544 1
146 545 1
155 545 1
559 545 1
571 545 1
683 545 1
701 545 1
731 545 1
753 545 1
147 546 1
156 546 1
560 546 1
572 546 1
684 546 1
702 546 1
732 546 1
754 546 1
157 547 1
174 547 1
573 547 1
587 547 1
703 547 1
711 547 1
729 547 1
736 547 1
158 548 1
175 548 1
574 548 1
588 548 1
704 548 1
712 548 1
730 548 1
737 548 1
159 549 1
176 549 1
575 549 1
589 549 1
705 549 1
713 549 1
731 549 1
738 549 1
160 550 1
177 550 1
576 550 1
590 550 1
706 550 1
714 550 1
732 550 1
739 550 1
161 551 1
178 551 1
577 551 1
591 551 1
707 551 1
715 551 1
733 551 1
740 551 1
162 552 1
179 552 1
578 552 1
592 552 1
708 552 1
716 552 1
734 552 1
741 552 1
163 553 1
180 553 1
579 553 1
593 553 1
709 553 1
717 553 1
735 553 1
742 553 1
164 554 1
181 554 1
580 554 1
594 554 1
710 554 1
718 554 1
736 554 1
743 554 1
165 555 1
182 555 1
581 555 1
595 555 1
711 555 1
719 555 1
737 555 1
744 555 1
157 556 1
166 556 1
582 556 1
596 556 1
712 556 1
720 556 1
738 556 1
745 556 1
158 557 1
167 557 1
583 557 1
597 557 1
713 557 1
721 557 1
739 557 1
746 557 1
159 558 1
168 558 1
584 558 1
598 558 1
714 558 1
722 558 1
740 558 1
747 558 1
160 559 1
169 559 1
573 559 1
585 559 1
715 559 1
723 559 1
741 559 1
748 559 1
161 560 1
170 560 1
574 560 1
586 560 1
716 560 1
724 560 1
742 560 1
749 560 1
162 561 1
171 561 1
575 561 1
587 561 1
717 561 1
725 561 1
743 561 1
750 561 1
163 562 1
172 562 1
576 562 1
588 562 1
718 562 1
726 562 1
744 562 1
751 562 1
164 563 1
173 563 1
577 563 1
589 563 1
719 563 1
727 563 1
745 563 1
752 563 1
165 564 1
174 564 1
578 564 1
590 564 1
720 564 1
728 564 1
746 564 1
753 564 1
166 565 1
175 565 1
579 565 1
591 565 1
703 565 1
721 565 1
747 565 1
754 565 1
167 566 1
176 566 1
580 566 1
592 566 1
704 566 1
722 566 1
729 566 1
748 566 1
168 567 1
177 567 1
581 567 1
593 567 1
705 567 1
723 567 1
730 567 1
749 567 1
169 568 1
178 568 1
582 568 1
594 568 1
706 568 1
724 568 1
731 568 1
750 568 1
170 569 1
179 569 1
583 569 1
595 569 1
707 569 1
725 569 1
732 569 1
751 569 1
171 570 1
180 570 1
584 570 1
596 570 1
708 570 1
726 570 1
733 570 1
752 570 1
172 571 1
181 571 1
585 571 1
597 571 1
709 571 1
727 571 1
734 571 1
753 571 1
173 572 1
182 572 1
586 572 1
598 572 1
710 572 1
728 572 1
735 572 1
754 572 1
183 573 1
200 573 1
599 573 1
613 573 1
677 573 1
688 573 1
755 573 1
759 573 1
184 574 1
201 574 1
600 574 1
614 574 1
678 574 1
689 574 1
756 574 1
760 574 1
185 575 1
202 575 1
601 575 1
615 575 1
679 575 1
690 575 1
757 575 1
761 575 1
186 576 1
203 576 1
602 576 1
616 576 1
680 576 1
691 576 1
758 576 1
762 576 1
187 577 1
204 577 1
603 577 1
617 577 1
681 577 1
692 577 1
759 577 1
763 577 1
188 578 1
205 578 1
604 578 1
618 578 1
682 578 1
693 578 1
760 578 1
764 578 1
189 579 1
206 579 1
605 579 1
619 579 1
683 579 1
694 579 1
761 579 1
765 579 1
190 580 1
207 580 1
606 580 1
620 580 1
684 580 1
695 580 1
762 580 1
766 580 1
191 581 1
208 581 1
607 581 1
621 581 1
685 581 1
696 581 1
763 581 1
767 581 1
183 582 1
192 582 1
608 582 1
622 582 1
686 582 1
697 582 1
764 582 1
768 582 1
184 583 1
193 583 1
609 583 1
623 583 1
687 583 1
698 583 1
765 583 1
769 583 1
185 584 1
194 584 1
610 584 1
624 584 1
688 584 1
699 584 1
766 584 1
770 584 1
186 585 1
195 585 1
599 585 1
611 585 1
689 585 1
700 585 1
767 585 1
771 585 1
187 586 1
196 586 1
600 586 1
612 586 1
690 586 1
701 586 1
768 586 1
772 586 1
188 587 1
197 587 1
601 587 1
613 587 1
691 587 1
702 587 1
769 587 1
773 587 1
189 588 1
198 588 1
602 588 1
614 588 1
677 588 1
692 588 1
770 588 1
774 588 1
190 589 1
199 589 1
603 589 1
615 589 1
678 589 1
693 589 1
771 589 1
775 589 1
191 590 1
200 590 1
604 590 1
616 590 1
679 590 1
694 590 1
772 590 1
776 590 1
192 591 1
201 591 1
605 591 1
617 591 1
680 591 1
695 591 1
773 591 1
777 591 1
193 592 1
202 592 1
606 592 1
618 592 1
681 592 1
696 592 1
774 592 1
778 592 1
194 593 1
203 593 1
607 593 1
619 593 1
682 593 1
697 593 1
775 593 1
779 593 1
195 594 1
204 594 1
608 594 1
620 594 1
683 594 1
698 594 1
776 594 1
780 594 1
196 595 1
205 595 1
609 595 1
621 595 1
684 595 1
699 595 1
755 595 1
777 595 1
197 596 1
206 596 1
610 596 1
622 596 1
685 596 1
700 596 1
756 596 1
778 596 1
198 597 1
207 597 1
611 597 1
623 597 1
686 597 1
701 597 1
757 597 1
779 597 1
199 598 1
208 598 1
612 598 1
624 598 1
687 598 1
702 598 1
758 598 1
780 598 1
209 599 1
226 599 1
625 599 1
639 599 1
703 599 1
714 599 1
755 599 1
762 599 1
210 600 1
227 600 1
626 600 1
640 600 1
704 600 1
715 600 1
756 600 1
763 600 1
211 601 1
228 601 1
627 601 1
641 601 1
705 601 1
716 601 1
757 601 1
764 601 1
212 602 1
229 602 1
628 602 1
642 602 1
706 602 1
717 602 1
758 602 1
765 602 1
213 603 1
230 603 1
629 603 1
643 603 1
707 603 1
718 603 1
759 603 1
766 603 1
214 604 1
231 604 1
630 604 1
644 604 1
708 604 1
719 604 1
760 604 1
767 604 1
215 605 1
232 605 1
631 605 1
645 605 1
709 605 1
720 605 1
761 605 1
768 605 1
216 606 1
233 606 1
632 606 1
646 606 1
710 606 1
721 606 1
762 606 1
769 606 1
217 607 1
234 607 1
633 607 1
647 607 1
711 607 1
722 607 1
763 607 1
770 607 1
209 608 1
218 608 1
634 608 1
648 608 1
712 608 1
723 608 1
764 608 1
771 608 1
210 609 1
219 609 1
635 609 1
649 609 1
713 609 1
724 609 1
765 609 1
772 609 1
211 610 1
220 610 1
636 610 1
650 610 1
714 610 1
725 610 1
766 610 1
773 610 1
212 611 1
221 611 1
625 611 1
637 611 1
715 611 1
726 611 1
767 611 1
774 611 1
213 612 1
222 612 1
626 612 1
638 612 1
716 612 1
727 612 1
768 612 1
775 612 1
214 613 1
223 613 1
627 613 1
639 613 1
717 613 1
728 613 1
769 613 1
776 613 1
215 614 1
224 614 1
628 614 1
640 614 1
703 614 1
718 614 1
770 614 1
777 614 1
216 615 1
225 615 1
629 615 1
641 615 1
704 615 1
719 615 1
771 615 1
778 615 1
217 616 1
226 616 1
630 616 1
642 616 1
705 616 1
720 616 1
772 616 1
779 616 1
218 617 1
227 617 1
631 617 1
643 617 1
706 617 1
721 617 1
773 617 1
780 617 1
219 618 1
228 618 1
632 618 1
644 618 1
707 618 1
722 618 1
755 618 1
774 618 1
220 619 1
229 619 1
633 619 1
645 619 1
708 619 1
723 619 1
756 619 1
775 619 1
221 620 1
230 620 1
634 620 1
646 620 1
709 620 1
724 620 1
757 620 1
776 620 1
222 621 1
231 621 1
635 621 1
647 621 1
710 621 1
725 621 1
758 621 1
777 621 1
223 622 1
232 622 1
636 622 1
648 622 1
711 622 1
726 622 1
759 622 1
778 622 1
224 623 1
233 623 1
637 623 1
649 623 1
712 623 1
727 623 1
760 623 1
779 623 1
225 624 1
234 624 1
638 624 1
650 624 1
713 624 1
728 624 1
761 624 1
780 624 1
235 625 1
252 625 1
651 625 1
665 625 1
729 625 1
740 625 1
755 625 1
763 625 1
236 626 1
253 626 1
652 626 1
666 626 1
730 626 1
741 626 1
756 626 1
764 626 1
237 627 1
254 627 1
653 627 1
667 627 1
731 627 1
742 627 1
757 627 1
765 627 1
238 628 1
255 628 1
654 628 1
668 628 1
732 628 1
743 628 1
758 628 1
766 628 1
239 629 1
256 629 1
655 629 1
669 629 1
733 629 1
744 629 1
759 629 1
767 629 1
240 630 1
257 630 1
656 630 1
670 630 1
734 630 1
745 630 1
760 630 1
768 630 1
241 631 1
258 631 1
657 631 1
671 631 1
735 631 1
746 631 1
761 631 1
769 631 1
242 632 1
259 632 1
658 632 1
672 632 1
736 632 1
747 632 1
762 632 1
770 632 1
243 633 1
260 633 1
659 633 1
673 633 1
737 633 1
748 633 1
763 633 1
771 633 1
235 634 1
244 634 1
660 634 1
674 634 1
738 634 1
749 634 1
764 634 1
772 634 1
236 635 1
245 635 1
661 635 1
675 635 1
739 635 1
750 635 1
765 635 1
773 635 1
237 636 1
246 636 1
662 636 1
676 636 1
740 636 1
751 636 1
766 636 1
774 636 1
238 637 1
247 637 1
651 637 1
663 637 1
741 637 1
752 637 1
767 637 1
775 637 1
239 638 1
248 638 1
652 638 1
664 638 1
742 638 1
753 638 1
768 638 1
776 638 1
240 639 1
249 639 1
653 639 1
665 639 1
743 639 1
754 639 1
769 639 1
777 639 1
241 640 1
250 640 1
654 640 1
666 640 1
729 640 1
744 640 1
770 640 1
778 640 1
242 641 1
251 641 1
655 641 1
667 641 1
730 641 1
745 641 1
771 641 1
779 641 1
243 642 1
252 642 1
656 642 1
668 642 1
731 642 1
746 642 1
772 642 1
780 642 1
244 643 1
253 643 1
657 643 1
669 643 1
732 643 1
747 643 1
755 643 1
773 643 1
245 644 1
254 644 1
658 644 1
670 644 1
733 644 1
748 644 1
756 644 1
774 644 1
246 645 1
255 645 1
659 645 1
671 645 1
734 645 1
749 645 1
757 645 1
775 645 1
247 646 1
256 646 1
660 646 1
672 646 1
735 646 1
750 646 1
758 646 1
776 646 1
248 647 1
257 647 1
661 647 1
673 647 1
736 647 1
751 647 1
759 647 1
777 647 1
249 648 1
258 648 1
662 648 1
674 648 1
737 648 1
752 648 1
760 648 1
778 648 1
250 649 1
259 649 1
663 649 1
675 649 1
738 649 1
753 649 1
761 649 1
779 649 1
251 650 1
260 650 1
664 650 1
676 650 1
739 650 1
754 650 1
762 650 1
780 650 1
261 651 1
278 651 1
521 651 1
537 651 1
781 651 1
788 651 1
807 651 1
811 651 1
262 652 1
279 652 1
522 652 1
538 652 1
782 652 1
789 652 1
808 652 1
812 652 1
263 653 1
280 653 1
523 653 1
539 653 1
783 653 1
790 653 1
809 653 1
813 653 1
264 654 1
281 654 1
524 654 1
540 654 1
784 654 1
791 654 1
810 654 1
814 654 1
265 655 1
282 655 1
525 655 1
541 655 1
785 655 1
792 655 1
811 655 1
815 655 1
266 656 1
283 656 1
526 656 1
542 656 1
786 656 1
793 656 1
812 656 1
816 656 1
267 657 1
284 657 1
527 657 1
543 657 1
787 657 1
794 657 1
813 657 1
817 657 1
268 658 1
285 658 1
528 658 1
544 658 1
788 658 1
795 658 1
814 658 1
818 658 1
269 659 1
286 659 1
529 659 1
545 659 1
789 659 1
796 659 1
815 659 1
819 659 1
261 660 1
270 660 1
530 660 1
546 660 1
790 660 1
797 660 1
816 660 1
820 660 1
262 661 1
271 661 1
521 661 1
531 661 1
791 661 1
798 661 1
817 661 1
821 661 1
263 662 1
272 662 1
522 662 1
532 662 1
792 662 1
799 662 1
818 662 1
822 662 1
264 663 1
273 663 1
523 663 1
533 663 1
793 663 1
800 663 1
819 663 1
823 663 1
265 664 1
274 664 1
524 664 1
534 664 1
794 664 1
801 664 1
820 664 1
824 664 1
266 665 1
275 665 1
525 665 1
535 665 1
795 665 1
802 665 1
821 665 1
825 665 1
267 666 1
276 666 1
526 666 1
536 666 1
796 666 1
803 666 1
822 666 1
826 666 1
268 667 1
277 667 1
527 667 1
537 667 1
797 667 1
804 667 1
823 667 1
827 667 1
269 668 1
278 668 1
528 668 1
538 668 1
798 668 1
805 668 1
824 668 1
828 668 1
270 669 1
279 669 1
529 669 1
539 669 1
799 669 1
806 669 1
825 669 1
829 669 1
271 670 1
280 670 1
530 670 1
540 670 1
781 670 1
800 670 1
826 670 1
830 670 1
272 671 1
281 671 1
531 671 1
541 671 1
782 671 1
801 671 1
827 671 1
831 671 1
273 672 1
282 672 1
532 672 1
542 672 1
783 672 1
802 672 1
828 672 1
832 672 1
274 673 1
283 673 1
533 673 1
543 673 1
784 673 1
803 673 1
807 673 1
829 673 1
275 674 1
284 674 1
534 674 1
544 674 1
785 674 1
804 674 1
808 674 1
830 674 1
276 675 1
285 675 1
535 675 1
545 675 1
786 675 1
805 675 1
809 675 1
831 675 1
277 676 1
286 676 1
536 676 1
546 676 1
787 676 1
806 676 1
810 676 1
832 676 1
287 677 1
304 677 1
547 677 1
563 677 1
781 677 1
789 677 1
833 677 1
837 677 1
288 678 1
305 678 1
548 678 1
564 678 1
782 678 1
790 678 1
834 678 1
838 678 1
289 679 1
306 679 1
549 679 1
565 679 1
783 679 1
791 679 1
835 679 1
839 679 1
290 680 1
307 680 1
550 680 1
566 680 1
784 680 1
792 680 1
836 680 1
840 680 1
291 681 1
308 681 1
551 681 1
567 681 1
785 681 1
793 681 1
837 681 1
841 681 1
292 682 1
309 682 1
552 682 1
568 682 1
786 682 1
794 682 1
838 682 1
842 682 1
293 683 1
310 683 1
553 683 1
569 683 1
787 683 1
795 683 1
839 683 1
843 683 1
294 684 1
311 684 1
554 684 1
570 684 1
788 684 1
796 684 1
840 684 1
844 684 1
295 685 1
312 685 1
555 685 1
571 685 1
789 685 1
797 685 1
841 685 1
845 685 1
287 686 1
296 686 1
556 686 1
572 686 1
790 686 1
798 686 1
842 686 1
846 686 1
288 687 1
297 687 1
547 687 1
557 687 1
791 687 1
799 687 1
843 687 1
847 687 1
289 688 1
298 688 1
548 688 1
558 688 1
792 688 1
800 688 1
844 688 1
848 688 1
290 689 1
299 689 1
549 689 1
559 689 1
793 689 1
801 689 1
845 689 1
849 689 1
291 690 1
300 690 1
550 690 1
560 690 1
794 690 1
802 690 1
846 690 1
850 690 1
292 691 1
301 691 1
551 691 1
561 691 1
795 691 1
803 691 1
847 691 1
851 691 1
293 692 1
302 692 1
552 692 1
562 692 1
796 692 1
804 692 1
848 692 1
852 692 1
294 693 1
303 693 1
553 693 1
563 693 1
797 693 1
805 693 1
849 693 1
853 693 1
295 694 1
304 694 1
554 694 1
564 694 1
798 694 1
806 694 1
850 694 1
854 694 1
296 695 1
305 695 1
555 695 1
565 695 1
781 695 1
799 695 1
851 695 1
855 695 1
297 696 1
306 696 1
556 696 1
566 696 1
782 696 1
800 696 1
852 696 1
856 696 1
298 697 1
307 697 1
557 697 1
567 697 1
783 697 1
801 697 1
853 697 1
857 697 1
299 698 1
308 698 1
558 698 1
568 698 1
784 698 1
802 698 1
854 698 1
858 698 1
300 699 1
309 699 1
559 699 1
569 699 1
785 699 1
803 699 1
833 699 1
855 699 1
301 700 1
310 700 1
560 700 1
570 700 1
786 700 1
804 700 1
834 700 1
856 700 1
302 701 1
311 701 1
561 701 1
571 701 1
787 701 1
805 701 1
835 701 1
857 701 1
303 702 1
312 702 1
562 702 1
572 702 1
788 702 1
806 702 1
836 702 1
858 702 1
313 703 1
330 703 1
573 703 1
589 703 1
807 703 1
815 703 1
833 703 1
840 703 1
314 704 1
331 704 1
574 704 1
590 704 1
808 704 1
816 704 1
834 704 1
841 704 1
315 705 1
332 705 1
575 705 1
591 705 1
809 705 1
817 705 1
835 705 1
842 705 1
316 706 1
333 706 1
576 706 1
592 706 1
810 706 1
818 706 1
836 706 1
843 706 1
317 707 1
334 707 1
577 707 1
593 707 1
811 707 1
819 707 1
837 707 1
844 707 1
318 708 1
335 708 1
578 708 1
594 708 1
812 708 1
820 708 1
838 708 1
845 708 1
319 709 1
336 709 1
579 709 1
595 709 1
813 709 1
821 709 1
839 709 1
846 709 1
320 710 1
337 710 1
580 710 1
596 710 1
814 710 1
822 710 1
840 710 1
847 710 1
321 711 1
338 711 1
581 711 1
597 711 1
815 711 1
823 711 1
841 711 1
848 711 1
313 712 1
322 712 1
582 712 1
598 712 1
816 712 1
824 712 1
842 712 1
849 712 1
314 713 1
323 713 1
573 713 1
583 713 1
817 713 1
825 713 1
843 713 1
850 713 1
315 714 1
324 714 1
574 714 1
584 714 1
818 714 1
826 714 1
844 714 1
851 714 1
316 715 1
325 715 1
575 715 1
585 715 1
819 715 1
827 715 1
845 715 1
852 715 1
317 716 1
326 716 1
576 716 1
586 716 1
820 716 1
828 716 1
846 716 1
853 716 1
318 717 1
327 717 1
577 717 1
587 717 1
821 717 1
829 717 1
847 717 1
854 717 1
319 718 1
328 718 1
578 718 1
588 718 1
822 718 1
830 718 1
848 718 1
855 718 1
320 719 1
329 719 1
579 719 1
589 719 1
823 719 1
831 719 1
849 719 1
856 719 1
321 720 1
330 720 1
580 720 1
590 720 1
824 720 1
832 720 1
850 720 1
857 720 1
322 721 1
331 721 1
581 721 1
591 721 1
807 721 1
825 721 1
851 721 1
858 721 1
323 722 1
332 722 1
582 722 1
592 722 1
808 722 1
826 722 1
833 722 1
852 722 1
324 723 1
333 723 1
583 723 1
593 723 1
809 723 1
827 723 1
834 723 1
853 723 1
325 724 1
334 724 1
584 724 1
594 724 1
810 724 1
828 724 1
835 724 1
854 724 1
326 725 1
335 725 1
585 725 1
595 725 1
811 725 1
829 725 1
836 725 1
855 725 1
327 726 1
336 726 1
586 726 1
596 726 1
812 726 1
830 726 1
837 726 1
856 726 1
328 727 1
337 727 1
587 727 1
597 727 1
813 727 1
831 727 1
838 727 1
857 727 1
329 728 1
338 728 1
588 728 1
598 728 1
814 728 1
832 728 1
839 728 1
858 728 1
339 729 1
356 729 1
599 729 1
615 729 1
781 729 1
792 729 1
859 729 1
863 729 1
340 730 1
357 730 1
600 730 1
616 730 1
782 730 1
793 730 1
860 730 1
864 730 1
341 731 1
358 731 1
601 731 1
617 731 1
783 731 1
794 731 1
861 731 1
865 731 1
342 732 1
359 732 1
602 732 1
618 732 1
784 732 1
795 732 1
862 732 1
866 732 1
343 733 1
360 733 1
603 733 1
619 733 1
785 733 1
796 733 1
863 733 1
867 733 1
344 734 1
361 734 1
604 734 1
620 734 1
786 734 1
797 734 1
864 734 1
868 734 1
345 735 1
362 735 1
605 735 1
621 735 1
787 735 1
798 735 1
865 735 1
869 735 1
346 736 1
363 736 1
606 736 1
622 736 1
788 736 1
799 736 1
866 736 1
870 736 1
347 737 1
364 737 1
607 737 1
623 737 1
789 737 1
800 737 1
867 737 1
871 737 1
339 738 1
348 738 1
608 738 1
624 738 1
790 738 1
801 738 1
868 738 1
872 738 1
340 739 1
349 739 1
599 739 1
609 739 1
791 739 1
802 739 1
869 739 1
873 739 1
341 740 1
350 740 1
600 740 1
610 740 1
792 740 1
803 740 1
870 740 1
874 740 1
342 741 1
351 741 1
601 741 1
611 741 1
793 741 1
804 741 1
871 741 1
875 741 1
343 742 1
352 742 1
602 742 1
612 742 1
794 742 1
805 742 1
872 742 1
876 742 1
344 743 1
353 743 1
603 743 1
613 743 1
795 743 1
806 743 1
873 743 1
877 743 1
345 744 1
354 744 1
604 744 1
614 744 1
781 744 1
796 744 1
874 744 1
878 744 1
346 745 1
355 745 1
605 745 1
615 745 1
782 745 1
797 745 1
875 745 1
879 745 1
347 746 1
356 746 1
606 746 1
616 746 1
783 746 1
798 746 1
876 746 1
880 746 1
348 747 1
357 747 1
607 747 1
617 747 1
784 747 1
799 747 1
877 747 1
881 747 1
349 748 1
358 748 1
608 748 1
618 748 1
785 748 1
800 748 1
878 748 1
882 748 1
350 749 1
359 749 1
609 749 1
619 749 1
786 749 1
801 749 1
879 749 1
883 749 1
351 750 1
360 750 1
610 750 1
620 750 1
787 750 1
802 750 1
880 750 1
884 750 1
352 751 1
361 751 1
611 751 1
621 751 1
788 751 1
803 751 1
859 751 1
881 751 1
353 752 1
362 752 1
612 752 1
622 752 1
789 752 1
804 752 1
860 752 1
882 752 1
354 753 1
363 753 1
613 753 1
623 753 1
790 753 1
805 753 1
861 753 1
883 753 1
355 754 1
364 754 1
614 754 1
624 754 1
791 754 1
806 754 1
862 754 1
884 754 1
365 755 1
382 755 1
625 755 1
641 755 1
807 755 1
818 755 1
859 755 1
866 755 1
366 756 1
383 756 1
626 756 1
642 756 1
808 756 1
819 756 1
860 756 1
867 756 1
367 757 1
384 757 1
627 757 1
643 757 1
809 757 1
820 757 1
861 757 1
868 757 1
368 758 1
385 758 1
628 758 1
644 758 1
810 758 1
821 758 1
862 758 1
869 758 1
369 759 1
386 759 1
629 759 1
645 759 1
811 759 1
822 759 1
863 759 1
870 759 1
370 760 1
387 760 1
630 760 1
646 760 1
812 760 1
823 760 1
864 760 1
871 760 1
371 761 1
388 761 1
631 761 1
647 761 1
813 761 1
824 761 1
865 761 1
872 761 1
372 762 1
389 762 1
632 762 1
648 762 1
814 762 1
825 762 1
866 762 1
873 762 1
373 763 1
390 763 1
633 763 1
649 763 1
815 763 1
826 763 1
867 763 1
874 763 1
365 764 1
374 764 1
634 764 1
650 764 1
816 764 1
827 764 1
868 764 1
875 764 1
366 765 1
375 765 1
625 765 1
635 765 1
817 765 1
828 765 1
869 765 1
876 765 1
367 766 1
376 766 1
626 766 1
636 766 1
818 766 1
829 766 1
870 766 1
877 766 1
368 767 1
377 767 1
627 767 1
637 767 1
819 767 1
830 767 1
871 767 1
878 767 1
369 768 1
378 768 1
628 768 1
638 768 1
820 768 1
831 768 1
872 768 1
879 768 1
370 769 1
379 769 1
629 769 1
639 769 1
821 769 1
832 769 1
873 769 1
880 769 1
371 770 1
380 770 1
630 770 1
640 770 1
807 770 1
822 770 1
874 770 1
881 770 1
372 771 1
381 771 1
631 771 1
641 771 1
808 771 1
823 771 1
875 771 1
882 771 1
373 772 1
382 772 1
632 772 1
642 772 1
809 772 1
824 772 1
876 772 1
883 772 1
374 773 1
383 773 1
633 773 1
643 773 1
810 773 1
825 773 1
877 773 1
884 773 1
375 774 1
384 774 1
634 774 1
644 774 1
811 774 1
826 774 1
859 774 1
878 774 1
376 775 1
385 775 1
635 775 1
645 775 1
812 775 1
827 775 1
860 775 1
879 775 1
377 776 1
386 776 1
636 776 1
646 776 1
813 776 1
828 776 1
861 776 1
880 776 1
378 777 1
387 777 1
637 777 1
647 777 1
814 777 1
829 777 1
862 777 1
881 777 1
379 778 1
388 778 1
638 778 1
648 778 1
815 778 1
830 778 1
863 778 1
882 778 1
380 779 1
389 779 1
639 779 1
649 779 1
816 779 1
831 779 1
864 779 1
883 779 1
381 780 1
390 780 1
640 780 1
650 780 1
817 780 1
832 780 1
865 780 1
884 780 1
391 781 1
408 781 1
651 781 1
667 781 1
833 781 1
844 781 1
859 781 1
867 781 1
392 782 1
409 782 1
652 782 1
668 782 1
834 782 1
845 782 1
860 782 1
868 782 1
393 783 1
410 783 1
653 783 1
669 783 1
835 783 1
846 783 1
861 783 1
869 783 1
394 784 1
411 784 1
654 784 1
670 784 1
836 784 1
847 784 1
862 784 1
870 784 1
395 785 1
412 785 1
655 785 1
671 785 1
837 785 1
848 785 1
863 785 1
871 785 1
396 786 1
413 786 1
656 786 1
672 786 1
838 786 1
849 786 1
864 786 1
872 786 1
397 787 1
414 787 1
657 787 1
673 787 1
839 787 1
850 787 1
865 787 1
873 787 1
398 788 1
415 788 1
658 788 1
674 788 1
840 788 1
851 788 1
866 788 1
874 788 1
399 789 1
416 789 1
659 789 1
675 789 1
841 789 1
852 789 1
867 789 1
875 789 1
391 790 1
400 790 1
660 790 1
676 790 1
842 790 1
853 790 1
868 790 1
876 790 1
392 791 1
401 791 1
651 791 1
661 791 1
843 791 1
854 791 1
869 791 1
877 791 1
393 792 1
402 792 1
652 792 1
662 792 1
844 792 1
855 792 1
870 792 1
878 792 1
394 793 1
403 793 1
653 793 1
663 793 1
845 793 1
856 793 1
871 793 1
879 793 1
395 794 1
404 794 1
654 794 1
664 794 1
846 794 1
857 794 1
872 794 1
880 794 1
396 795 1
405 795 1
655 795 1
665 795 1
847 795 1
858 795 1
873 795 1
881 795 1
397 796 1
406 796 1
656 796 1
666 796 1
833 796 1
848 796 1
874 796 1
882 796 1
398 797 1
407 797 1
657 797 1
667 797 1
834 797 1
849 797 1
875 797 1
883 797 1
399 798 1
408 798 1
658 798 1
668 798 1
835 798 1
850 798 1
876 798 1
884 798 1
400 799 1
409 799 1
659 799 1
669 799 1
836 799 1
851 799 1
859 799 1
877 799 1
401 800 1
410 800 1
660 800 1
670 800 1
837 800 1
852 800 1
860 800 1
878 800 1
402 801 1
411 801 1
661 801 1
671 801 1
838 801 1
853 801 1
861 801 1
879 801 1
403 802 1
412 802 1
662 802 1
672 802 1
839 802 1
854 802 1
862 802 1
880 802 1
404 803 1
413 803 1
663 803 1
673 803 1
840 803 1
855 803 1
863 803 1
881 803 1
405 804 1
414 804 1
664 804 1
674 804 1
841 804 1
856 804 1
864 804 1
882 804 1
406 805 1
415 805 1
665 805 1
675 805 1
842 805 1
857 805 1
865 805 1
883 805 1
407 806 1
416 806 1
666 806 1
676 806 1
843 806 1
858 806 1
866 806 1
884 806 1
417 807 1
434 807 1
677 807 1
693 807 1
781 807 1
795 807 1
885 807 1
889 807 1
418 808 1
435 808 1
678 808 1
694 808 1
782 808 1
796 808 1
886 808 1
890 808 1
419 809 1
436 809 1
679 809 1
695 809 1
783 809 1
797 809 1
887 809 1
891 809 1
420 810 1
437 810 1
680 810 1
696 810 1
784 810 1
798 810 1
888 810 1
892 810 1
421 811 1
438 811 1
681 811 1
697 811 1
785 811 1
799 811 1
889 811 1
893 811 1
422 812 1
439 812 1
682 812 1
698 812 1
786 812 1
800 812 1
890 812 1
894 812 1
423 813 1
440 813 1
683 813 1
699 813 1
787 813 1
801 813 1
891 813 1
895 813 1
424 814 1
441 814 1
684 814 1
700 814 1
788 814 1
802 814 1
892 814 1
896 814 1
425 815 1
442 815 1
685 815 1
701 815 1
789 815 1
803 815 1
893 815 1
897 815 1
417 816 1
426 816 1
686 816 1
702 816 1
790 816 1
804 816 1
894 816 1
898 816 1
418 817 1
427 817 1
677 817 1
687 817 1
791 817 1
805 817 1
895 817 1
899 817 1
419 818 1
428 818 1
678 818 1
688 818 1
792 818 1
806 818 1
896 818 1
900 818 1
420 819 1
429 819 1
679 819 1
689 819 1
781 819 1
793 819 1
897 819 1
901 819 1
421 820 1
430 820 1
680 820 1
690 820 1
782 820 1
794 820 1
898 820 1
902 820 1
422 821 1
431 821 1
681 821 1
691 821 1
783 821 1
795 821 1
899 821 1
903 821 1
423 822 1
432 822 1
682 822 1
692 822 1
784 822 1
796 822 1
900 822 1
904 822 1
424 823 1
433 823 1
683 823 1
693 823 1
785 823 1
797 823 1
901 823 1
905 823 1
425 824 1
434 824 1
684 824 1
694 824 1
786 824 1
798 824 1
902 824 1
906 824 1
426 825 1
435 825 1
685 825 1
695 825 1
787 825 1
799 825 1
903 825 1
907 825 1
427 826 1
436 826 1
686 826 1
696 826 1
788 826 1
800 826 1
904 826 1
908 826 1
428 827 1
437 827 1
687 827 1
697 827 1
789 827 1
801 827 1
905 827 1
909 827 1
429 828 1
438 828 1
688 828 1
698 828 1
790 828 1
802 828 1
906 828 1
910 828 1
430 829 1
439 829 1
689 829 1
699 829 1
791 829 1
803 829 1
885 829 1
907 829 1
431 830 1
440 830 1
690 830 1
700 830 1
792 830 1
804 830 1
886 830 1
908 830 1
432 831 1
441 831 1
691 831 1
701 831 1
793 831 1
805 831 1
887 831 1
909 831 1
433 832 1
442 832 1
692 832 1
702 832 1
794 832 1
806 832 1
888 832 1
910 832 1
443 833 1
460 833 1
703 833 1
719 833 1
807 833 1
821 833 1
885 833 1
892 833 1
444 834 1
461 834 1
704 834 1
720 834 1
808 834 1
822 834 1
886 834 1
893 834 1
445 835 1
462 835 1
705 835 1
721 835 1
809 835 1
823 835 1
887 835 1
894 835 1
446 836 1
463 836 1
706 836 1
722 836 1
810 836 1
824 836 1
888 836 1
895 836 1
447 837 1
464 837 1
707 837 1
723 837 1
811 837 1
825 837 1
889 837 1
896 837 1
448 838 1
465 838 1
708 838 1
724 838 1
812 838 1
826 838 1
890 838 1
897 838 1
449 839 1
466 839 1
709 839 1
725 839 1
813 839 1
827 839 1
891 839 1
898 839 1
450 840 1
467 840 1
710 840 1
726 840 1
814 840 1
828 840 1
892 840 1
899 840 1
451 841 1
468 841 1
711 841 1
727 841 1
815 841 1
829 841 1
893 841 1
900 841 1
443 842 1
452 842 1
712 842 1
728 842 1
816 842 1
830 842 1
894 842 1
901 842 1
444 843 1
453 843 1
703 843 1
713 843 1
817 843 1
831 843 1
895 843 1
902 843 1
445 844 1
454 844 1
704 844 1
714 844 1
818 844 1
832 844 1
896 844 1
903 844 1
446 845 1
455 845 1
705 845 1
715 845 1
807 845 1
819 845 1
897 845 1
904 845 1
447 846 1
456 846 1
706 846 1
716 846 1
808 846 1
820 846 1
898 846 1
905 846 1
448 847 1
457 847 1
707 847 1
717 847 1
809 847 1
821 847 1
899 847 1
906 847 1
449 848 1
458 848 1
708 848 1
718 848 1
810 848 1
822 848 1
900 848 1
907 848 1
450 849 1
459 849 1
709 849 1
719 849 1
811 849 1
823 849 1
901 849 1
908 849 1
451 850 1
460 850 1
710 850 1
720 850 1
812 850 1
824 850 1
902 850 1
909 850 1
452 851 1
461 851 1
711 851 1
721 851 1
813 851 1
825 851 1
903 851 1
910 851 1
453 852 1
462 852 1
712 852 1
722 852 1
814 852 1
826 852 1
885 852 1
904 852 1
454 853 1
463 853 1
713 853 1
723 853 1
815 853 1
827 853 1
886 853 1
905 853 1
455 854 1
464 854 1
714 854 1
724 854 1
816 854 1
828 854 1
887 854 1
906 854 1
456 855 1
465 855 1
715 855 1
725 855 1
817 855 1
829 855 1
888 855 1
907 855 1
457 856 1
466 856 1
716 856 1
726 856 1
818 856 1
830 856 1
889 856 1
908 856 1
458 857 1
467 857 1
717 857 1
727 857 1
819 857 1
831 857 1
890 857 1
909 857 1
459 858 1
468 858 1
718 858 1
728 858 1
820 858 1
832 858 1
891 858 1
910 858 1
469 859 1
486 859 1
729 859 1
745 859 1
833 859 1
847 859 1
885 859 1
893 859 1
470 860 1
487 860 1
730 860 1
746 860 1
834 860 1
848 860 1
886 860 1
894 860 1
471 861 1
488 861 1
731 861 1
747 861 1
835 861 1
849 861 1
887 861 1
895 861 1
472 862 1
489 862 1
732 862 1
748 862 1
836 862 1
850 862 1
888 862 1
896 862 1
473 863 1
490 863 1
733 863 1
749 863 1
837 863 1
851 863 1
889 863 1
897 863 1
474 864 1
491 864 1
734 864 1
750 864 1
838 864 1
852 864 1
890 864 1
898 864 1
475 865 1
492 865 1
735 865 1
751 865 1
839 865 1
853 865 1
891 865 1
899 865 1
476 866 1
493 866 1
736 866 1
752 866 1
840 866 1
854 866 1
892 866 1
900 866 1
477 867 1
494 867 1
737 867 1
753 867 1
841 867 1
855 867 1
893 867 1
901 867 1
469 868 1
478 868 1
738 868 1
754 868 1
842 868 1
856 868 1
894 868 1
902 868 1
470 869 1
479 869 1
729 869 1
739 869 1
843 869 1
857 869 1
895 869 1
903 869 1
471 870 1
480 870 1
730 870 1
740 870 1
844 870 1
858 870 1
896 870 1
904 870 1
472 871 1
481 871 1
731 871 1
741 871 1
833 871 1
845 871 1
897 871 1
905 871 1
473 872 1
482 872 1
732 872 1
742 872 1
834 872 1
846 872 1
898 872 1
906 872 1
474 873 1
483 873 1
733 873 1
743 873 1
835 873 1
847 873 1
899 873 1
907 873 1
475 874 1
484 874 1
734 874 1
744 874 1
836 874 1
848 874 1
900 874 1
908 874 1
476 875 1
485 875 1
735 875 1
745 875 1
837 875 1
849 875 1
901 875 1
909 875 1
477 876 1
486 876 1
736 876 1
746 876 1
838 876 1
850 876 1
902 876 1
910 876 1
478 877 1
487 877 1
737 877 1
747 877 1
839 877 1
851 877 1
885 877 1
903 877 1
479 878 1
488 878 1
738 878 1
748 878 1
840 878 1
852 878 1
886 878 1
904 878 1
480 879 1
489 879 1
739 879 1
749 879 1
841 879 1
853 879 1
887 879 1
905 879 1
481 880 1
490 880 1
740 880 1
750 880 1
842 880 1
854 880 1
888 880 1
906 880 1
482 881 1
491 881 1
741 881 1
751 881 1
843 881 1
855 881 1
889 881 1
907 881 1
483 882 1
492 882 1
742 882 1
752 882 1
844 882 1
856 882 1
890 882 1
908 882 1
484 883 1
493 883 1
743 883 1
753 883 1
845 883 1
857 883 1
891 883 1
909 883 1
485 884 1
494 884 1
744 884 1
754 884 1
846 884 1
858 884 1
892 884 1
910 884 1
495 885 1
512 885 1
755 885 1
771 885 1
859 885 1
873 885 1
885 885 1
896 885 1
496 886 1
513 886 1
756 886 1
772 886 1
860 886 1
874 886 1
886 886 1
897 886 1
497 887 1
514 887 1
757 887 1
773 887 1
861 887 1
875 887 1
887 887 1
898 887 1
498 888 1
515 888 1
758 888 1
774 888 1
862 888 1
876 888 1
888 888 1
899 888 1
499 889 1
516 889 1
759 889 1
775 889 1
863 889 1
877 889 1
889 889 1
900 889 1
500 890 1
517 890 1
760 890 1
776 890 1
864 890 1
878 890 1
890 890 1
901 890 1
501 891 1
518 891 1
761 891 1
777 891 1
865 891 1
879 891 1
891 891 1
902 891 1
502 892 1
519 892 1
762 892 1
778 892 1
866 892 1
880 892 1
892 892 1
903 892 1
503 893 1
520 893 1
763 893 1
779 893 1
867 893 1
881 893 1
893 893 1
904 893 1
495 894 1
504 894 1
764 894 1
780 894 1
868 894 1
882 894 1
894 894 1
905 894 1
496 895 1
505 895 1
755 895 1
765 895 1
869 895 1
883 895 1
895 895 1
906 895 1
497 896 1
506 896 1
756 896 1
766 896 1
870 896 1
884 896 1
896 896 1
907 896 1
498 897 1
507 897 1
757 897 1
767 897 1
859 897 1
871 897 1
897 897 1
908 897 1
499 898 1
508 898 1
758 898 1
768 898 1
860 898 1
872 898 1
898 898 1
909 898 1
500 899 1
509 899 1
759 899 1
769 899 1
861 899 1
873 899 1
899 899 1
910 899 1
501 900 1
510 900 1
760 900 1
770 900 1
862 900 1
874 900 1
885 900 1
900 900 1
502 901 1
511 901 1
761 901 1
771 901 1
863 901 1
875 901 1
886 901 1
901 901 1
503 902 1
512 902 1
762 902 1
772 902 1
864 902 1
876 902 1
887 902 1
902 902 1
504 903 1
513 903 1
763 903 1
773 903 1
865 903 1
877 903 1
888 903 1
903 903 1
505 904 1
514 904 1
764 904 1
774 904 1
866 904 1
878 904 1
889 904 1
904 904 1
506 905 1
515 905 1
765 905 1
775 905 1
867 905 1
879 905 1
890 905 1
905 905 1
507 906 1
516 906 1
766 906 1
776 906 1
868 906 1
880 906 1
891 906 1
906 906 1
508 907 1
517 907 1
767 907 1
777 907 1
869 907 1
881 907 1
892 907 1
907 907 1
509 908 1
518 908 1
768 908 1
778 908 1
870 908 1
882 908 1
893 908 1
908 908 1
510 909 1
519 909 1
769 909 1
779 909 1
871 909 1
883 909 1
894 909 1
909 909 1
511 910 1
520 910 1
770 910 1
780 910 1
872 910 1
884 910 1
895 910 1
910 910 1
1 911 1
24 911 1
911 911 1
919 911 1
937 911 1
944 911 1
963 911 1
967 911 1
2 912 1
25 912 1
912 912 1
920 912 1
938 912 1
945 912 1
964 912 1
968 912 1
3 913 1
26 913 1
913 913 1
921 913 1
939 913 1
946 913 1
965 913 1
969 913 1
1 914 1
4 914 1
914 914 1
922 914 1
940 914 1
947 914 1
966 914 1
970 914 1
2 915 1
5 915 1
915 915 1
923 915 1
941 915 1
948 915 1
967 915 1
971 915 1
3 916 1
6 916 1
916 916 1
924 916 1
942 916 1
949 916 1
968 916 1
972 916 1
4 917 1
7 917 1
917 917 1
925 917 1
943 917 1
950 917 1
969 917 1
973 917 1
5 918 1
8 918 1
918 918 1
926 918 1
944 918 1
951 918 1
970 918 1
974 918 1
6 919 1
9 919 1
919 919 1
927 919 1
945 919 1
952 919 1
971 919 1
975 919 1
7 920 1
10 920 1
920 920 1
928 920 1
946 920 1
953 920 1
972 920 1
976 920 1
8 921 1
11 921 1
921 921 1
929 921 1
947 921 1
954 921 1
973 921 1
977 921 1
9 922 1
12 922 1
922 922 1
930 922 1
948 922 1
955 922 1
974 922 1
978 922 1
10 923 1
13 923 1
923 923 1
931 923 1
949 923 1
956 923 1
975 923 1
979 923 1
11 924 1
14 924 1
924 924 1
932 924 1
950 924 1
957 924 1
976 924 1
980 924 1
12 925 1
15 925 1
925 925 1
933 925 1
951 925 1
958 925 1
977 925 1
981 925 1
13 926 1
16 926 1
926 926 1
934 926 1
952 926 1
959 926 1
978 926 1
982 926 1
14 927 1
17 927 1
927 927 1
935 927 1
953 927 1
960 927 1
979 927 1
983 927 1
15 928 1
18 928 1
928 928 1
936 928 1
954 928 1
961 928 1
980 928 1
984 928 1
16 929 1
19 929 1
911 929 1
929 929 1
955 929 1
962 929 1
981 929 1
985 929 1
17 930 1
20 930 1
912 930 1
930 930 1
937 930 1
956 930 1
982 930 1
986 930 1
18 931 1
21 931 1
913 931 1
931 931 1
938 931 1
957 931 1
983 931 1
987 931 1
19 932 1
22 932 1
914 932 1
932 932 1
939 932 1
958 932 1
984 932 1
988 932 1
20 933 1
23 933 1
915 933 1
933 933 1
940 933 1
959 933 1
963 933 1
985 933 1
21 934 1
24 934 1
916 934 1
934 934 1
941 934 1
960 934 1
964 934 1
986 934 1
22 935 1
25 935 1
917 935 1
935 935 1
942 935 1
961 935 1
965 935 1
987 935 1
23 936 1
26 936 1
918 936 1
936 936 1
943 936 1
962 936 1
966 936 1
988 936 1
27 937 1
50 937 1
911 937 1
922 937 1
989 937 1
996 937 1
1015 937 1
1019 937 1
28 938 1
51 938 1
912 938 1
923 938 1
990 938 1
997 938 1
1016 938 1
1020 938 1
29 939 1
52 939 1
913 939 1
924 939 1
991 939 1
998 939 1
1017 939 1
1021 939 1
27 940 1
30 940 1
914 940 1
925 940 1
992 940 1
999 940 1
1018 940 1
1022 940 1
28 941 1
31 941 1
915 941 1
926 941 1
993 941 1
1000 941 1
1019 941 1
1023 941 1
29 942 1
32 942 1
916 942 1
927 942 1
994 942 1
1001 942 1
1020 942 1
1024 942 1
30 943 1
33 943 1
917 943 1
928 943 1
995 943 1
1002 943 1
1021 943 1
1025 943 1
31 944 1
34 944 1
918 944 1
929 944 1
996 944 1
1003 944 1
1022 944 1
1026 944 1
32 945 1
35 945 1
919 945 1
930 945 1
997 945 1
1004 945 1
1023 945 1
1027 945 1
33 946 1
36 946 1
920 946 1
931 946 1
998 946 1
1005 946 1
1024 946 1
1028 946 1
34 947 1
37 947 1
921 947 1
932 947 1
999 947 1
1006 947 1
1025 947 1
1029 947 1
35 948 1
38 948 1
922 948 1
933 948 1
1000 948 1
1007 948 1
1026 948 1
1030 948 1
36 949 1
39 949 1
923 949 1
934 949 1
1001 949 1
1008 949 1
1027 949 1
1031 949 1
37 950 1
40 950 1
924 950 1
935 950 1
1002 950 1
1009 950 1
1028 950 1
1032 950 1
38 951 1
41 951 1
925 951 1
936 951 1
1003 951 1
1010 951 1
1029 951 1
1033 951 1
39 952 1
42 952 1
911 952 1
926 952 1
1004 952 1
1011 952 1
1030 952 1
1034 952 1
40 953 1
43 953 1
912 953 1
927 953 1
1005 953 1
1012 953 1
1031 953 1
1035 953 1
41 954 1
44 954 1
913 954 1
928 954 1
1006 954 1
1013 954 1
1032 954 1
1036 954 1
42 955 1
45 955 1
914 955 1
929 955 1
1007 955 1
1014 955 1
1033 955 1
1037 955 1
43 956 1
46 956 1
915 956 1
930 956 1
989 956 1
1008 956 1
1034 956 1
1038 956 1
44 957 1
47 957 1
916 957 1
931 957 1
990 957 1
1009 957 1
1035 957 1
1039 957 1
45 958 1
48 958 1
917 958 1
932 958 1
991 958 1
1010 958 1
1036 958 1
1040 958 1
46 959 1
49 959 1
918 959 1
933 959 1
992 959 1
1011 959 1
1015 959 1
1037 959 1
47 960 1
50 960 1
919 960 1
934 960 1
993 960 1
1012 960 1
1016 960 1
1038 960 1
48 961 1
51 961 1
920 961 1
935 961 1
994 961 1
1013 961 1
1017 961 1
1039 961 1
49 962 1
52 962 1
921 962 1
936 962 1
995 962 1
1014 962 1
1018 962 1
1040 962 1
53 963 1
76 963 1
937 963 1
948 963 1
989 963 1
997 963 1
1041 963 1
1045 963 1
54 964 1
77 964 1
938 964 1
949 964 1
990 964 1
998 964 1
1042 964 1
1046 964 1
55 965 1
78 965 1
939 965 1
950 965 1
991 965 1
999 965 1
1043 965 1
1047 965 1
53 966 1
56 966 1
940 966 1
951 966 1
992 966 1
1000 966 1
1044 966 1
1048 966 1
54 967 1
57 967 1
941 967 1
952 967 1
993 967 1
1001 967 1
1045 967 1
1049 967 1
55 968 1
58 968 1
942 968 1
953 968 1
994 968 1
1002 968 1
1046 968 1
1050 968 1
56 969 1
59 969 1
943 969 1
954 969 1
995 969 1
1003 969 1
1047 969 1
1051 969 1
57 970 1
60 970 1
944 970 1
955 970 1
996 970 1
1004 970 1
1048 970 1
1052 970 1
58 971 1
61 971 1
945 971 1
956 971 1
997 971 1
1005 971 1
1049 971 1
1053 971 1
59 972 1
62 972 1
946 972 1
957 972 1
998 972 1
1006 972 1
1050 972 1
1054 972 1
60 973 1
63 973 1
947 973 1
958 973 1
999 973 1
1007 973 1
1051 973 1
1055 973 1
61 974 1
64 974 1
948 974 1
959 974 1
1000 974 1
1008 974 1
1052 974 1
1056 974 1
62 975 1
65 975 1
949 975 1
960 975 1
1001 975 1
1009 975 1
1053 975 1
1057 975 1
63 976 1
66 976 1
950 976 1
961 976 1
1002 976 1
1010 976 1
1054 976 1
1058 976 1
64 977 1
67 977 1
951 977 1
962 977 1
1003 977 1
1011 977 1
1055 977 1
1059 977 1
65 978 1
68 978 1
937 978 1
952 978 1
1004 978 1
1012 978 1
1056 978 1
1060 978 1
66 979 1
69 979 1
938 979 1
953 979 1
1005 979 1
1013 979 1
1057 979 1
1061 979 1
67 980 1
70 980 1
939 980 1
954 980 1
1006 980 1
1014 980 1
1058 980 1
1062 980 1
68 981 1
71 981 1
940 981 1
955 981 1
989 981 1
1007 981 1
1059 981 1
1063 981 1
69 982 1
72 982 1
941 982 1
956 982 1
990 982 1
1008 982 1
1060 982 1
1064 982 1
70 983 1
73 983 1
942 983 1
957 983 1
991 983 1
1009 983 1
1061 983 1
1065 983 1
71 984 1
74 984 1
943 984 1
958 984 1
992 984 1
1010 984 1
1062 984 1
1066 984 1
72 985 1
75 985 1
944 985 1
959 985 1
993 985 1
1011 985 1
1041 985 1
1063 985 1
73 986 1
76 986 1
945 986 1
960 986 1
994 986 1
1012 986 1
1042 986 1
1064 986 1
74 987 1
77 987 1
946 987 1
961 987 1
995 987 1
1013 987 1
1043 987 1
1065 987 1
75 988 1
78 988 1
947 988 1
962 988 1
996 988 1
1014 988 1
1044 988 1
1066 988 1
79 989 1
102 989 1
963 989 1
974 989 1
1015 989 1
1023 989 1
1041 989 1
1048 989 1
80 990 1
103 990 1
964 990 1
975 990 1
1016 990 1
1024 990 1
1042 990 1
1049 990 1
81 991 1
104 991 1
965 991 1
976 991 1
1017 991 1
1025 991 1
1043 991 1
1050 991 1
79 992 1
82 992 1
966 992 1
977 992 1
1018 992 1
1026 992 1
1044 992 1
1051 992 1
80 993 1
83 993 1
967 993 1
978 993 1
1019 993 1
1027 993 1
1045 993 1
1052 993 1
81 994 1
84 994 1
968 994 1
979 994 1
1020 994 1
1028 994 1
1046 994 1
1053 994 1
82 995 1
85 995 1
969 995 1
980 995 1
1021 995 1
1029 995 1
1047 995 1
1054 995 1
83 996 1
86 996 1
970 996 1
981 996 1
1022 996 1
1030 996 1
1048 996 1
1055 996 1
84 997 1
87 997 1
971 997 1
982 997 1
1023 997 1
1031 997 1
1049 997 1
1056 997 1
85 998 1
88 998 1
972 998 1
983 998 1
1024 998 1
1032 998 1
1050 998 1
1057 998 1
86 999 1
89 999 1
973 999 1
984 999 1
1025 999 1
1033 999 1
1051 999 1
1058 999 1
87 1000 1
90 1000 1
974 1000 1
985 1000 1
1026 1000 1
1034 1000 1
1052 1000 1
1059 1000 1
88 1001 1
91 1001 1
975 1001 1
986 1001 1
1027 1001 1
1035 1001 1
1053 1001 1
1060 1001 1
89 1002 1
92 1002 1
976 1002 1
987 1002 1
1028 1002 1
1036 1002 1
1054 1002 1
1061 1002 1
90 1003 1
93 1003 1
977 1003 1
988 1003 1
1029 1003 1
1037 1003 1
1055 1003 1
1062 1003 1
91 1004 1
94 1004 1
963 1004 1
978 1004 1
1030 1004 1
1038 1004 1
1056 1004 1
1063 1004 1
92 1005 1
95 1005 1
964 1005 1
979 1005 1
1031 1005 1
1039 1005 1
1057 1005 1
1064 1005 1
93 1006 1
96 1006 1
965 1006 1
980 1006 1
1032 1006 1
1040 1006 1
1058 1006 1
1065 1006 1
94 1007 1
97 1007 1
966 1007 1
981 1007 1
1015 1007 1
1033 1007 1
1059 1007 1
1066 1007 1
95 1008 1
98 1008 1
967 1008 1
982 1008 1
1016 1008 1
1034 1008 1
1041 1008 1
1060 1008 1
96 1009 1
99 1009 1
968 1009 1
983 1009 1
1017 1009 1
1035 1009 1
1042 1009 1
1061 1009 1
97 1010 1
100 1010 1
969 1010 1
984 1010 1
1018 1010 1
1036 1010 1
1043 1010 1
1062 1010 1
98 1011 1
101 1011 1
970 1011 1
985 1011 1
1019 1011 1
1037 1011 1
1044 1011 1
1063 1011 1
99 1012 1
102 1012 1
971 1012 1
986 1012 1
1020 1012 1
1038 1012 1
1045 1012 1
1064 1012 1
100 1013 1
103 1013 1
972 1013 1
987 1013 1
1021 1013 1
1039 1013 1
1046 1013 1
1065 1013 1
101 1014 1
104 1014 1
973 1014 1
988 1014 1
1022 1014 1
1040 1014 1
1047 1014 1
1066 1014 1
105 1015 1
128 1015 1
911 1015 1
925 1015 1
1067 1015 1
1074 1015 1
1093 1015 1
1097 1015 1
106 1016 1
129 1016 1
912 1016 1
926 1016 1
1068 1016 1
1075 1016 1
1094 1016 1
1098 1016 1
107 1017 1
130 1017 1
913 1017 1
927 1017 1
1069 1017 1
1076 1017 1
1095 1017 1
1099 1017 1
105 1018 1
108 1018 1
914 1018 1
928 1018 1
1070 1018 1
1077 1018 1
1096 1018 1
1100 1018 1
106 1019 1
109 1019 1
915 1019 1
929 1019 1
1071 1019 1
1078 1019 1
1097 1019 1
1101 1019 1
107 1020 1
110 1020 1
916 1020 1
930 1020 1
1072 1020 1
1079 1020 1
1098 1020 1
1102 1020 1
108 1021 1
111 1021 1
917 1021 1
931 1021 1
1073 1021 1
1080 1021 1
1099 1021 1
1103 1021 1
109 1022 1
112 1022 1
918 1022 1
932 1022 1
1074 1022 1
1081 1022 1
1100 1022 1
1104 1022 1
110 1023 1
113 1023 1
919 1023 1
933 1023 1
1075 1023 1
1082 1023 1
1101 1023 1
1105 1023 1
111 1024 1
114 1024 1
920 1024 1
934 1024 1
1076 1024 1
1083 1024 1
1102 1024 1
1106 1024 1
112 1025 1
115 1025 1
921 1025 1
935 1025 1
1077 1025 1
1084 1025 1
1103 1025 1
1107 1025 1
113 1026 1
116 1026 1
922 1026 1
936 1026 1
1078 1026 1
1085 1026 1
1104 1026 1
1108 1026 1
114 1027 1
117 1027 1
911 1027 1
923 1027 1
1079 1027 1
1086 1027 1
1105 1027 1
1109 1027 1
115 1028 1
118 1028 1
912 1028 1
924 1028 1
1080 1028 1
1087 1028 1
1106 1028 1
1110 1028 1
116 1029 1
119 1029 1
913 1029 1
925 1029 1
1081 1029 1
1088 1029 1
1107 1029 1
1111 1029 1
117 1030 1
120 1030 1
914 1030 1
926 1030 1
1082 1030 1
1089 1030 1
1108 1030 1
1112 1030 1
118 1031 1
121 1031 1
915 1031 1
927 1031 1
1083 1031 1
1090 1031 1
1109 1031 1
1113 1031 1
119 1032 1
122 1032 1
916 1032 1
928 1032 1
1084 1032 1
1091 1032 1
1110 1032 1
1114 1032 1
120 1033 1
123 1033 1
917 1033 1
929 1033 1
1085 1033 1
1092 1033 1
1111 1033 1
1115 1033 1
121 1034 1
124 1034 1
918 1034 1
930 1034 1
1067 1034 1
1086 1034 1
1112 1034 1
1116 1034 1
122 1035 1
125 1035 1
919 1035 1
931 1035 1
1068 1035 1
1087 1035 1
1113 1035 1
1117 1035 1
123 1036 1
126 1036 1
920 1036 1
932 1036 1
1069 1036 1
1088 1036 1
1114 1036 1
1118 1036 1
124 1037 1
127 1037 1
921 1037 1
933 1037 1
1070 1037 1
1089 1037 1
1093 1037 1
1115 1037 1
125 1038 1
128 1038 1
922 1038 1
934 1038 1
1071 1038 1
1090 1038 1
1094 1038 1
1116 1038 1
126 1039 1
129 1039 1
923 1039 1
935 1039 1
1072 1039 1
1091 1039 1
1095 1039 1
1117 1039 1
127 1040 1
130 1040 1
924 1040 1
936 1040 1
1073 1040 1
1092 1040 1
1096 1040 1
1118 1040 1
131 1041 1
154 1041 1
937 1041 1
951 1041 1
1067 1041 1
1075 1041 1
1119 1041 1
1123 1041 1
132 1042 1
155 1042 1
938 1042 1
952 1042 1
1068 1042 1
1076 1042 1
1120 1042 1
1124 1042 1
133 1043 1
156 1043 1
939 1043 1
953 1043 1
1069 1043 1
1077 1043 1
1121 1043 1
1125 1043 1
131 1044 1
134 1044 1
940 1044 1
954 1044 1
1070 1044 1
1078 1044 1
1122 1044 1
1126 1044 1
132 1045 1
135 1045 1
941 1045 1
955 1045 1
1071 1045 1
1079 1045 1
1123 1045 1
1127 1045 1
133 1046 1
136 1046 1
942 1046 1
956 1046 1
1072 1046 1
1080 1046 1
1124 1046 1
1128 1046 1
134 1047 1
137 1047 1
943 1047 1
957 1047 1
1073 1047 1
1081 1047 1
1125 1047 1
1129 1047 1
135 1048 1
138 1048 1
944 1048 1
958 1048 1
1074 1048 1
1082 1048 1
1126 1048 1
1130 1048 1
136 1049 1
139 1049 1
945 1049 1
959 1049 1
1075 1049 1
1083 1049 1
1127 1049 1
1131 1049 1
137 1050 1
140 1050 1
946 1050 1
960 1050 1
1076 1050 1
1084 1050 1
1128 1050 1
1132 1050 1
138 1051 1
141 1051 1
947 1051 1
961 1051 1
1077 1051 1
1085 1051 1
1129 1051 1
1133 1051 1
139 1052 1
142 1052 1
948 1052 1
962 1052 1
1078 1052 1
1086 1052 1
1130 1052 1
1134 1052 1
140 1053 1
143 1053 1
937 1053 1
949 1053 1
1079 1053 1
1087 1053 1
1131 1053 1
1135 1053 1
141 1054 1
144 1054 1
938 1054 1
950 1054 1
1080 1054 1
1088 1054 1
1132 1054 1
1136 1054 1
142 1055 1
145 1055 1
939 1055 1
951 1055 1
1081 1055 1
1089 1055 1
1133 1055 1
1137 1055 1
143 1056 1
146 1056 1
940 1056 1
952 1056 1
1082 1056 1
1090 1056 1
1134 1056 1
1138 1056 1
144 1057 1
147 1057 1
941 1057 1
953 1057 1
1083 1057 1
1091 1057 1
1135 1057 1
1139 1057 1
145 1058 1
148 1058 1
942 1058 1
954 1058 1
1084 1058 1
1092 1058 1
1136 1058 1
1140 1058 1
146 1059 1
149 1059 1
943 1059 1
955 1059 1
1067 1059 1
1085 1059 1
1137 1059 1
1141 1059 1
147 1060 1
150 1060 1
944 1060 1
956 1060 1
1068 1060 1
1086 1060 1
1138 1060 1
1142 1060 1
148 1061 1
151 1061 1
945 1061 1
957 1061 1
1069 1061 1
1087 1061 1
1139 1061 1
1143 1061 1
149 1062 1
152 1062 1
946 1062 1
958 1062 1
1070 1062 1
1088 1062 1
1140 1062 1
1144 1062 1
150 1063 1
153 1063 1
947 1063 1
959 1063 1
1071 1063 1
1089 1063 1
1119 1063 1
1141 1063 1
151 1064 1
154 1064 1
948 1064 1
960 1064 1
1072 1064 1
1090 1064 1
1120 1064 1
1142 1064 1
152 1065 1
155 1065 1
949 1065 1
961 1065 1
1073 1065 1
1091 1065 1
1121 1065 1
1143 1065 1
153 1066 1
156 1066 1
950 1066 1
962 1066 1
1074 1066 1
1092 1066 1
1122 1066 1
1144 1066 1
157 1067 1
180 1067 1
963 1067 1
977 1067 1
1093 1067 1
1101 1067 1
1119 1067 1
1126 1067 1
158 1068 1
181 1068 1
964 1068 1
978 1068 1
1094 1068 1
1102 1068 1
1120 1068 1
1127 1068 1
159 1069 1
182 1069 1
965 1069 1
979 1069 1
1095 1069 1
1103 1069 1
1121 1069 1
1128 1069 1
157 1070 1
160 1070 1
966 1070 1
980 1070 1
1096 1070 1
1104 1070 1
1122 1070 1
1129 1070 1
158 1071 1
161 1071 1
967 1071 1
981 1071 1
1097 1071 1
1105 1071 1
1123 1071 1
1130 1071 1
159 1072 1
162 1072 1
968 1072 1
982 1072 1
1098 1072 1
1106 1072 1
1124 1072 1
1131 1072 1
160 1073 1
163 1073 1
969 1073 1
983 1073 1
1099 1073 1
1107 1073 1
1125 1073 1
1132 1073 1
161 1074 1
164 1074 1
970 1074 1
984 1074 1
1100 1074 1
1108 1074 1
1126 1074 1
1133 1074 1
162 1075 1
165 1075 1
971 1075 1
985 1075 1
1101 1075 1
1109 1075 1
1127 1075 1
1134 1075 1
163 1076 1
166 1076 1
972 1076 1
986 1076 1
1102 1076 1
1110 1076 1
1128 1076 1
1135 1076 1
164 1077 1
167 1077 1
973 1077 1
987 1077 1
1103 1077 1
1111 1077 1
1129 1077 1
1136 1077 1
165 1078 1
168 1078 1
974 1078 1
988 1078 1
1104 1078 1
1112 1078 1
1130 1078 1
1137 1078 1
166 1079 1
169 1079 1
963 1079 1
975 1079 1
1105 1079 1
1113 1079 1
1131 1079 1
1138 1079 1
167 1080 1
170 1080 1
964 1080 1
976 1080 1
1106 1080 1
1114 1080 1
1132 1080 1
1139 1080 1
168 1081 1
171 1081 1
965 1081 1
977 1081 1
1107 1081 1
1115 1081 1
1133 1081 1
1140 1081 1
169 1082 1
172 1082 1
966 1082 1
978 1082 1
1108 1082 1
1116 1082 1
1134 1082 1
1141 1082 1
170 1083 1
173 1083 1
967 1083 1
979 1083 1
1109 1083 1
1117 1083 1
1135 1083 1
1142 1083 1
171 1084 1
174 1084 1
968 1084 1
980 1084 1
1110 1084 1
1118 1084 1
1136 1084 1
1143 1084 1
172 1085 1
175 1085 1
969 1085 1
981 1085 1
1093 1085 1
1111 1085 1
1137 1085 1
1144 1085 1
173 1086 1
176 1086 1
970 1086 1
982 1086 1
1094 1086 1
1112 1086 1
1119 1086 1
1138 1086 1
174 1087 1
177 1087 1
971 1087 1
983 1087 1
1095 1087 1
1113 1087 1
1120 1087 1
1139 1087 1
175 1088 1
178 1088 1
972 1088 1
984 1088 1
1096 1088 1
1114 1088 1
1121 1088 1
1140 1088 1
176 1089 1
179 1089 1
973 1089 1
985 1089 1
1097 1089 1
1115 1089 1
1122 1089 1
1141 1089 1
177 1090 1
180 1090 1
974 1090 1
986 1090 1
1098 1090 1
1116 1090 1
1123 1090 1
1142 1090 1
178 1091 1
181 1091 1
975 1091 1
987 1091 1
1099 1091 1
1117 1091 1
1124 1091 1
1143 1091 1
179 1092 1
182 1092 1
976 1092 1
988 1092 1
1100 1092 1
1118 1092 1
1125 1092 1
1144 1092 1
183 1093 1
206 1093 1
989 1093 1
1003 1093 1
1067 1093 1
1078 1093 1
1145 1093 1
1149 1093 1
184 1094 1
207 1094 1
990 1094 1
1004 1094 1
1068 1094 1
1079 1094 1
1146 1094 1
1150 1094 1
185 1095 1
208 1095 1
991 1095 1
1005 1095 1
1069 1095 1
1080 1095 1
1147 1095 1
1151 1095 1
183 1096 1
186 1096 1
992 1096 1
1006 1096 1
1070 1096 1
1081 1096 1
1148 1096 1
1152 1096 1
184 1097 1
187 1097 1
993 1097 1
1007 1097 1
1071 1097 1
1082 1097 1
1149 1097 1
1153 1097 1
185 1098 1
188 1098 1
994 1098 1
1008 1098 1
1072 1098 1
1083 1098 1
1150 1098 1
1154 1098 1
186 1099 1
189 1099 1
995 1099 1
1009 1099 1
1073 1099 1
1084 1099 1
1151 1099 1
1155 1099 1
187 1100 1
190 1100 1
996 1100 1
1010 1100 1
1074 1100 1
1085 1100 1
1152 1100 1
1156 1100 1
188 1101 1
191 1101 1
997 1101 1
1011 1101 1
1075 1101 1
1086 1101 1
1153 1101 1
1157 1101 1
189 1102 1
192 1102 1
998 1102 1
1012 1102 1
1076 1102 1
1087 1102 1
1154 1102 1
1158 1102 1
190 1103 1
193 1103 1
999 1103 1
1013 1103 1
1077 1103 1
1088 1103 1
1155 1103 1
1159 1103 1
191 1104 1
194 1104 1
1000 1104 1
1014 1104 1
1078 1104 1
1089 1104 1
1156 1104 1
1160 1104 1
192 1105 1
195 1105 1
989 1105 1
1001 1105 1
1079 1105 1
1090 1105 1
1157 1105 1
1161 1105 1
193 1106 1
196 1106 1
990 1106 1
1002 1106 1
1080 1106 1
1091 1106 1
1158 1106 1
1162 1106 1
194 1107 1
197 1107 1
991 1107 1
1003 1107 1
1081 1107 1
1092 1107 1
1159 1107 1
1163 1107 1
195 1108 1
198 1108 1
992 1108 1
1004 1108 1
1067 1108 1
1082 1108 1
1160 1108 1
1164 1108 1
196 1109 1
199 1109 1
993 1109 1
1005 1109 1
1068 1109 1
1083 1109 1
1161 1109 1
1165 1109 1
197 1110 1
200 1110 1
994 1110 1
1006 1110 1
1069 1110 1
1084 1110 1
1162 1110 1
1166 1110 1
198 1111 1
201 1111 1
995 1111 1
1007 1111 1
1070 1111 1
1085 1111 1
1163 1111 1
1167 1111 1
199 1112 1
202 1112 1
996 1112 1
1008 1112 1
1071 1112 1
1086 1112 1
1164 1112 1
1168 1112 1
200 1113 1
203 1113 1
997 1113 1
1009 1113 1
1072 1113 1
1087 1113 1
1165 1113 1
1169 1113 1
201 1114 1
204 1114 1
998 1114 1
1010 1114 1
1073 1114 1
1088 1114 1
1166 1114 1
1170 1114 1
202 1115 1
205 1115 1
999 1115 1
1011 1115 1
1074 1115 1
1089 1115 1
1145 1115 1
1167 1115 1
203 1116 1
206 1116 1
1000 1116 1
1012 1116 1
1075 1116 1
1090 1116 1
1146 1116 1
1168 1116 1
204 1117 1
207 1117 1
1001 1117 1
1013 1117 1
1076 1117 1
1091 1117 1
1147 1117 1
1169 1117 1
205 1118 1
208 1118 1
1002 1118 1
1014 1118 1
1077 1118 1
1092 1118 1
1148 1118 1
1170 1118 1
209 1119 1
232 1119 1
1015 1119 1
1029 1119 1
1093 1119 1
1104 1119 1
1145 1119 1
1152 1119 1
210 1120 1
233 1120 1
1016 1120 1
1030 1120 1
1094 1120 1
1105 1120 1
1146 1120 1
1153 1120 1
211 1121 1
234 1121 1
1017 1121 1
1031 1121 1
1095 1121 1
1106 1121 1
1147 1121 1
1154 1121 1
209 1122 1
212 1122 1
1018 1122 1
1032 1122 1
1096 1122 1
1107 1122 1
1148 1122 1
1155 1122 1
210 1123 1
213 1123 1
1019 1123 1
1033 1123 1
1097 1123 1
1108 1123 1
1149 1123 1
1156 1123 1
211 1124 1
214 1124 1
1020 1124 1
1034 1124 1
1098 1124 1
1109 1124 1
1150 1124 1
1157 1124 1
212 1125 1
215 1125 1
1021 1125 1
1035 1125 1
1099 1125 1
1110 1125 1
1151 1125 1
1158 1125 1
213 1126 1
216 1126 1
1022 1126 1
1036 1126 1
1100 1126 1
1111 1126 1
1152 1126 1
1159 1126 1
214 1127 1
217 1127 1
1023 1127 1
1037 1127 1
1101 1127 1
1112 1127 1
1153 1127 1
1160 1127 1
215 1128 1
218 1128 1
1024 1128 1
1038 1128 1
1102 1128 1
1113 1128 1
1154 1128 1
1161 1128 1
216 1129 1
219 1129 1
1025 1129 1
1039 1129 1
1103 1129 1
1114 1129 1
1155 1129 1
1162 1129 1
217 1130 1
220 1130 1
1026 1130 1
1040 1130 1
1104 1130 1
1115 1130 1
1156 1130 1
1163 1130 1
218 1131 1
221 1131 1
1015 1131 1
1027 1131 1
1105 1131 1
1116 1131 1
1157 1131 1
1164 1131 1
219 1132 1
222 1132 1
1016 1132 1
1028 1132 1
1106 1132 1
1117 1132 1
1158 1132 1
1165 1132 1
220 1133 1
223 1133 1
1017 1133 1
1029 1133 1
1107 1133 1
1118 1133 1
1159 1133 1
1166 1133 1
221 1134 1
224 1134 1
1018 1134 1
1030 1134 1
1093 1134 1
1108 1134 1
1160 1134 1
1167 1134 1
222 1135 1
225 1135 1
1019 1135 1
1031 1135 1
1094 1135 1
1109 1135 1
1161 1135 1
1168 1135 1
223 1136 1
226 1136 1
1020 1136 1
1032 1136 1
1095 1136 1
1110 1136 1
1162 1136 1
1169 1136 1
224 1137 1
227 1137 1
1021 1137 1
1033 1137 1
1096 1137 1
1111 1137 1
1163 1137 1
1170 1137 1
225 1138 1
228 1138 1
1022 1138 1
1034 1138 1
1097 1138 1
1112 1138 1
1145 1138 1
1164 1138 1
226 1139 1
229 1139 1
1023 1139 1
1035 1139 1
1098 1139 1
1113 1139 1
1146 1139 1
1165 1139 1
227 1140 1
230 1140 1
1024 1140 1
1036 1140 1
1099 1140 1
1114 1140 1
1147 1140 1
1166 1140 1
228 1141 1
231 1141 1
1025 1141 1
1037 1141 1
1100 1141 1
1115 1141 1
1148 1141 1
1167 1141 1
229 1142 1
232 1142 1
1026 1142 1
1038 1142 1
1101 1142 1
1116 1142 1
1149 1142 1
1168 1142 1
230 1143 1
233 1143 1
1027 1143 1
1039 1143 1
1102 1143 1
1117 1143 1
1150 1143 1
1169 1143 1
231 1144 1
234 1144 1
1028 1144 1
1040 1144 1
1103 1144 1
1118 1144 1
1151 1144 1
1170 1144 1
235 1145 1
258 1145 1
1041 1145 1
1055 1145 1
1119 1145 1
1130 1145 1
1145 1145 1
1153 1145 1
236 1146 1
259 1146 1
1042 1146 1
1056 1146 1
1120 1146 1
1131 1146 1
1146 1146 1
1154 1146 1
237 1147 1
260 1147 1
1043 1147 1
1057 1147 1
1121 1147 1
1132 1147 1
1147 1147 1
1155 1147 1
235 1148 1
238 1148 1
1044 1148 1
1058 1148 1
1122 1148 1
1133 1148 1
1148 1148 1
1156 1148 1
236 1149 1
239 1149 1
1045 1149 1
1059 1149 1
1123 1149 1
1134 1149 1
1149 1149 1
1157 1149 1
237 1150 1
240 1150 1
1046 1150 1
1060 1150 1
1124 1150 1
1135 1150 1
1150 1150 1
1158 1150 1
238 1151 1
241 1151 1
1047 1151 1
1061 1151 1
1125 1151 1
1136 1151 1
1151 1151 1
1159 1151 1
239 1152 1
242 1152 1
1048 1152 1
1062 1152 1
1126 1152 1
1137 1152 1
1152 1152 1
1160 1152 1
240 1153 1
243 1153 1
1049 1153 1
1063 1153 1
1127 1153 1
1138 1153 1
1153 1153 1
1161 1153 1
241 1154 1
244 1154 1
1050 1154 1
1064 1154 1
1128 1154 1
1139 1154 1
1154 1154 1
1162 1154 1
242 1155 1
245 1155 1
1051 1155 1
1065 1155 1
1129 1155 1
1140 1155 1
1155 1155 1
1163 1155 1
243 1156 1
246 1156 1
1052 1156 1
1066 1156 1
1130 1156 1
1141 1156 1
1156 1156 1
1164 1156 1
244 1157 1
247 1157 1
1041 1157 1
1053 1157 1
1131 1157 1
1142 1157 1
1157 1157 1
1165 1157 1
245 1158 1
248 1158 1
1042 1158 1
1054 1158 1
1132 1158 1
1143 1158 1
1158 1158 1
1166 1158 1
246 1159 1
249 1159 1
1043 1159 1
1055 1159 1
1133 1159 1
1144 1159 1
1159 1159 1
1167 1159 1
247 1160 1
250 1160 1
1044 1160 1
1056 1160 1
1119 1160 1
1134 1160 1
1160 1160 1
1168 1160 1
248 1161 1
251 1161 1
1045 1161 1
1057 1161 1
1120 1161 1
1135 1161 1
1161 1161 1
1169 1161 1
249 1162 1
252 1162 1
1046 1162 1
1058 1162 1
1121 1162 1
1136 1162 1
1162 1162 1
1170 1162 1
250 1163 1
253 1163 1
1047 1163 1
1059 1163 1
1122 1163 1
1137 1163 1
1145 1163 1
1163 1163 1
251 1164 1
254 1164 1
1048 1164 1
1060 1164 1
1123 1164 1
1138 1164 1
1146 1164 1
1164 1164 1
252 1165 1
255 1165 1
1049 1165 1
1061 1165 1
1124 1165 1
1139 1165 1
1147 1165 1
1165 1165 1
253 1166 1
256 1166 1
1050 1166 1
1062 1166 1
1125 1166 1
1140 1166 1
1148 1166 1
1166 1166 1
254 1167 1
257 1167 1
1051 1167 1
1063 1167 1
1126 1167 1
1141 1167 1
1149 1167 1
1167 1167 1
255 1168 1
258 1168 1
1052 1168 1
1064 1168 1
1127 1168 1
1142 1168 1
1150 1168 1
1168 1168 1
256 1169 1
259 1169 1
1053 1169 1
1065 1169 1
1128 1169 1
1143 1169 1
1151 1169 1
1169 1169 1
257 1170 1
260 1170 1
1054 1170 1
1066 1170 1
1129 1170 1
1144 1170 1
1152 1170 1
1170 1170 1
261 1171 1
284 1171 1
911 1171 1
927 1171 1
1171 1171 1
1178 1171 1
1197 1171 1
1201 1171 1
262 1172 1
285 1172 1
912 1172 1
928 1172 1
1172 1172 1
1179 1172 1
1198 1172 1
1202 1172 1
263 1173 1
286 1173 1
913 1173 1
929 1173 1
1173 1173 1
1180 1173 1
1199 1173 1
1203 1173 1
261 1174 1
264 1174 1
914 1174 1
930 1174 1
1174 1174 1
1181 1174 1
1200 1174 1
1204 1174 1
262 1175 1
265 1175 1
915 1175 1
931 1175 1
1175 1175 1
1182 1175 1
1201 1175 1
1205 1175 1
263 1176 1
266 1176 1
916 1176 1
932 1176 1
1176 1176 1
1183 1176 1
1202 1176 1
1206 1176 1
264 1177 1
267 1177 1
917 1177 1
933 1177 1
1177 1177 1
1184 1177 1
1203 1177 1
1207 1177 1
265 1178 1
268 1178 1
918 1178 1
934 1178 1
1178 1178 1
1185 1178 1
1204 1178 1
1208 1178 1
266 1179 1
269 1179 1
919 1179 1
935 1179 1
1179 1179 1
1186 1179 1
1205 1179 1
1209 1179 1
267 1180 1
270 1180 1
920 1180 1
936 1180 1
1180 1180 1
1187 1180 1
1206 1180 1
1210 1180 1
268 1181 1
271 1181 1
911 1181 1
921 1181 1
1181 1181 1
1188 1181 1
1207 1181 1
1211 1181 1
269 1182 1
272 1182 1
912 1182 1
922 1182 1
1182 1182 1
1189 1182 1
1208 1182 1
1212 1182 1
270 1183 1
273 1183 1
913 1183 1
923 1183 1
1183 1183 1
1190 1183 1
1209 1183 1
1213 1183 1
271 1184 1
274 1184 1
914 1184 1
924 1184 1
1184 1184 1
1191 1184 1
1210 1184 1
1214 1184 1
272 1185 1
275 1185 1
915 1185 1
925 1185 1
1185 1185 1
1192 1185 1
1211 1185 1
1215 1185 1
273 1186 1
276 1186 1
916 1186 1
926 1186 1
1186 1186 1
1193 1186 1
1212 1186 1
1216 1186 1
274 1187 1
277 1187 1
917 1187 1
927 1187 1
1187 1187 1
1194 1187 1
1213 1187 1
1217 1187 1
275 1188 1
278 1188 1
918 1188 1
928 1188 1
1188 1188 1
1195 1188 1
1214 1188 1
1218 1188 1
276 1189 1
279 1189 1
919 1189 1
929 1189 1
1189 1189 1
1196 1189 1
1215 1189 1
1219 1189 1
277 1190 1
280 1190 1
920 1190 1
930 1190 1
1171 1190 1
1190 1190 1
1216 1190 1
1220 1190 1
278 1191 1
281 1191 1
921 1191 1
931 1191 1
1172 1191 1
1191 1191 1
1217 1191 1
1221 1191 1
279 1192 1
282 1192 1
922 1192 1
932 1192 1
1173 1192 1
1192 1192 1
1218 1192 1
1222 1192 1
280 1193 1
283 1193 1
923 1193 1
933 1193 1
1174 1193 1
1193 1193 1
1197 1193 1
1219 1193 1
281 1194 1
284 1194 1
924 1194 1
934 1194 1
1175 1194 1
1194 1194 1
1198 1194 1
1220 1194 1
282 1195 1
285 1195 1
925 1195 1
935 1195 1
1176 1195 1
1195 1195 1
1199 1195 1
1221 1195 1
283 1196 1
286 1196 1
926 1196 1
936 1196 1
1177 1196 1
1196 1196 1
1200 1196 1
1222 1196 1
287 1197 1
310 1197 1
937 1197 1
953 1197 1
1171 1197 1
1179 1197 1
1223 1197 1
1227 1197 1
288 1198 1
311 1198 1
938 1198 1
954 1198 1
1172 1198 1
1180 1198 1
1224 1198 1
1228 1198 1
289 1199 1
312 1199 1
939 1199 1
955 1199 1
1173 1199 1
1181 1199 1
1225 1199 1
1229 1199 1
287 1200 1
290 1200 1
940 1200 1
956 1200 1
1174 1200 1
1182 1200 1
1226 1200 1
1230 1200 1
288 1201 1
291 1201 1
941 1201 1
957 1201 1
1175 1201 1
1183 1201 1
1227 1201 1
1231 1201 1
289 1202 1
292 1202 1
942 1202 1
958 1202 1
1176 1202 1
1184 1202 1
1228 1202 1
1232 1202 1
290 1203 1
293 1203 1
943 1203 1
959 1203 1
1177 1203 1
1185 1203 1
1229 1203 1
1233 1203 1
291 1204 1
294 1204 1
944 1204 1
960 1204 1
1178 1204 1
1186 1204 1
1230 1204 1
1234 1204 1
292 1205 1
295 1205 1
945 1205 1
961 1205 1
1179 1205 1
1187 1205 1
1231 1205 1
1235 1205 1
293 1206 1
296 1206 1
946 1206 1
962 1206 1
1180 1206 1
1188 1206 1
1232 1206 1
1236 1206 1
294 1207 1
297 1207 1
937 1207 1
947 1207 1
1181 1207 1
1189 1207 1
1233 1207 1
1237 1207 1
295 1208 1
298 1208 1
938 1208 1
948 1208 1
1182 1208 1
1190 1208 1
1234 1208 1
1238 1208 1
296 1209 1
299 1209 1
939 1209 1
949 1209 1
1183 1209 1
1191 1209 1
1235 1209 1
1239 1209 1
297 1210 1
300 1210 1
940 1210 1
950 1210 1
1184 1210 1
1192 1210 1
1236 1210 1
1240 1210 1
298 1211 1
301 1211 1
941 1211 1
951 1211 1
1185 1211 1
1193 1211 1
1237 1211 1
1241 1211 1
299 1212 1
302 1212 1
942 1212 1
952 1212 1
1186 1212 1
1194 1212 1
1238 1212 1
1242 1212 1
300 1213 1
303 1213 1
943 1213 1
953 1213 1
1187 1213 1
1195 1213 1
1239 1213 1
1243 1213 1
301 1214 1
304 1214 1
944 1214 1
954 1214 1
1188 1214 1
1196 1214 1
1240 1214 1
1244 1214 1
302 1215 1
305 1215 1
945 1215 1
955 1215 1
1171 1215 1
1189 1215 1
1241 1215 1
1245 1215 1
303 1216 1
306 1216 1
946 1216 1
956 1216 1
1172 1216 1
1190 1216 1
1242 1216 1
1246 1216 1
304 1217 1
307 1217 1
947 1217 1
957 1217 1
1173 1217 1
1191 1217 1
1243 1217 1
1247 1217 1
305 1218 1
308 1218 1
948 1218 1
958 1218 1
1174 1218 1
1192 1218 1
1244 1218 1
1248 1218 1
306 1219 1
309 1219 1
949 1219 1
959 1219 1
1175 1219 1
1193 1219 1
1223 1219 1
1245 1219 1
307 1220 1
310 1220 1
950 1220 1
960 1220 1
1176 1220 1
1194 1220 1
1224 1220 1
1246 1220 1
308 1221 1
311 1221 1
951 1221 1
961 1221 1
1177 1221 1
1195 1221 1
1225 1221 1
1247 1221 1
309 1222 1
312 1222 1
952 1222 1
962 1222 1
1178 1222 1
1196 1222 1
1226 1222 1
1248 1222 1
313 1223 1
336 1223 1
963 1223 1
979 1223 1
1197 1223 1
1205 1223 1
1223 1223 1
1230 1223 1
314 1224 1
337 1224 1
964 1224 1
980 1224 1
1198 1224 1
1206 1224 1
1224 1224 1
1231 1224 1
315 1225 1
338 1225 1
965 1225 1
981 1225 1
1199 1225 1
1207 1225 1
1225 1225 1
1232 1225 1
313 1226 1
316 1226 1
966 1226 1
982 1226 1
1200 1226 1
1208 1226 1
1226 1226 1
1233 1226 1
314 1227 1
317 1227 1
967 1227 1
983 1227 1
1201 1227 1
1209 1227 1
1227 1227 1
1234 1227 1
315 1228 1
318 1228 1
968 1228 1
984 1228 1
1202 1228 1
1210 1228 1
1228 1228 1
1235 1228 1
316 1229 1
319 1229 1
969 1229 1
985 1229 1
1203 1229 1
1211 1229 1
1229 1229 1
1236 1229 1
317 1230 1
320 1230 1
970 1230 1
986 1230 1
1204 1230 1
1212 1230 1
1230 1230 1
1237 1230 1
318 1231 1
321 1231 1
971 1231 1
987 1231 1
1205 1231 1
1213 1231 1
1231 1231 1
1238 1231 1
319 1232 1
322 1232 1
972 1232 1
988 1232 1
1206 1232 1
1214 1232 1
1232 1232 1
1239 1232 1
320 1233 1
323 1233 1
963 1233 1
973 1233 1
1207 1233 1
1215 1233 1
1233 1233 1
1240 1233 1
321 1234 1
324 1234 1
964 1234 1
974 1234 1
1208 1234 1
1216 1234 1
1234 1234 1
1241 1234 1
322 1235 1
325 1235 1
965 1235 1
975 1235 1
1209 1235 1
1217 1235 1
1235 1235 1
1242 1235 1
323 1236 1
326 1236 1
966 1236 1
976 1236 1
1210 1236 1
1218 1236 1
1236 1236 1
1243 1236 1
324 1237 1
327 1237 1
967 1237 1
977 1237 1
1211 1237 1
1219 1237 1
1237 1237 1
1244 1237 1
325 1238 1
328 1238 1
968 1238 1
978 1238 1
1212 1238 1
1220 1238 1
1238 1238 1
1245 1238 1
326 1239 1
329 1239 1
969 1239 1
979 1239 1
1213 1239 1
1221 1239 1
1239 1239 1
1246 1239 1
327 1240 1
330 1240 1
970 1240 1
980 1240 1
1214 1240 1
1222 1240 1
1240 1240 1
1247 1240 1
328 1241 1
331 1241 1
971 1241 1
981 1241 1
1197 1241 1
1215 1241 1
1241 1241 1
1248 1241 1
329 1242 1
332 1242 1
972 1242 1
982 1242 1
1198 1242 1
1216 1242 1
1223 1242 1
1242 1242 1
330 1243 1
333 1243 1
973 1243 1
983 1243 1
1199 1243 1
1217 1243 1
1224 1243 1
1243 1243 1
331 1244 1
334 1244 1
974 1244 1
984 1244 1
1200 1244 1
1218 1244 1
1225 1244 1
1244 1244 1
332 1245 1
335 1245 1
975 1245 1
985 1245 1
1201 1245 1
1219 1245 1
1226 1245 1
1245 1245 1
333 1246 1
336 1246 1
976 1246 1
986 1246 1
1202 1246 1
1220 1246 1
1227 1246 1
1246 1246 1
334 1247 1
337 1247 1
977 1247 1
987 1247 1
1203 1247 1
1221 1247 1
1228 1247 1
1247 1247 1
335 1248 1
338 1248 1
978 1248 1
988 1248 1
1204 1248 1
1222 1248 1
1229 1248 1
1248 1248 1
339 1249 1
362 1249 1
989 1249 1
1005 1249 1
1171 1249 1
1182 1249 1
1249 1249 1
1253 1249 1
340 1250 1
363 1250 1
990 1250 1
1006 1250 1
1172 1250 1
1183 1250 1
1250 1250 1
1254 1250 1
341 1251 1
364 1251 1
991 1251 1
1007 1251 1
1173 1251 1
1184 1251 1
1251 1251 1
1255 1251 1
339 1252 1
342 1252 1
992 1252 1
1008 1252 1
1174 1252 1
1185 1252 1
1252 1252 1
1256 1252 1
340 1253 1
343 1253 1
993 1253 1
1009 1253 1
1175 1253 1
1186 1253 1
1253 1253 1
1257 1253 1
341 1254 1
344 1254 1
994 1254 1
1010 1254 1
1176 1254 1
1187 1254 1
1254 1254 1
1258 1254 1
342 1255 1
345 1255 1
995 1255 1
1011 1255 1
1177 1255 1
1188 1255 1
1255 1255 1
1259 1255 1
343 1256 1
346 1256 1
996 1256 1
1012 1256 1
1178 1256 1
1189 1256 1
1256 1256 1
1260 1256 1
344 1257 1
347 1257 1
997 1257 1
1013 1257 1
1179 1257 1
1190 1257 1
1257 1257 1
1261 1257 1
345 1258 1
348 1258 1
998 1258 1
1014 1258 1
1180 1258 1
1191 1258 1
1258 1258 1
1262 1258 1
346 1259 1
349 1259 1
989 1259 1
999 1259 1
1181 1259 1
1192 1259 1
1259 1259 1
1263 1259 1
347 1260 1
350 1260 1
990 1260 1
1000 1260 1
1182 1260 1
1193 1260 1
1260 1260 1
1264 1260 1
348 1261 1
351 1261 1
991 1261 1
1001 1261 1
1183 1261 1
1194 1261 1
1261 1261 1
1265 1261 1
349 1262 1
352 1262 1
992 1262 1
1002 1262 1
1184 1262 1
1195 1262 1
1262 1262 1
1266 1262 1
350 1263 1
353 1263 1
993 1263 1
1003 1263 1
1185 1263 1
1196 1263 1
1263 1263 1
1267 1263 1
351 1264 1
354 1264 1
994 1264 1
1004 1264 1
1171 1264 1
1186 1264 1
1264 1264 1
1268 1264 1
352 1265 1
355 1265 1
995 1265 1
1005 1265 1
1172 1265 1
1187 1265 1
1265 1265 1
1269 1265 1
353 1266 1
356 1266 1
996 1266 1
1006 1266 1
1173 1266 1
1188 1266 1
1266 1266 1
1270 1266 1
354 1267 1
357 1267 1
997 1267 1
1007 1267 1
1174 1267 1
1189 1267 1
1267 1267 1
1271 1267 1
355 1268 1
358 1268 1
998 1268 1
1008 1268 1
1175 1268 1
1190 1268 1
1268 1268 1
1272 1268 1
356 1269 1
359 1269 1
999 1269 1
1009 1269 1
1176 1269 1
1191 1269 1
1269 1269 1
1273 1269 1
357 1270 1
360 1270 1
1000 1270 1
1010 1270 1
1177 1270 1
1192 1270 1
1270 1270 1
1274 1270 1
358 1271 1
361 1271 1
1001 1271 1
1011 1271 1
1178 1271 1
1193 1271 1
1249 1271 1
1271 1271 1
359 1272 1
362 1272 1
1002 1272 1
1012 1272 1
1179 1272 1
1194 1272 1
1250 1272 1
1272 1272 1
360 1273 1
363 1273 1
1003 1273 1
1013 1273 1
1180 1273 1
1195 1273 1
1251 1273 1
1273 1273 1
361 1274 1
364 1274 1
1004 1274 1
1014 1274 1
1181 1274 1
1196 1274 1
1252 1274 1
1274 1274 1
365 1275 1
388 1275 1
1015 1275 1
1031 1275 1
1197 1275 1
1208 1275 1
1249 1275 1
1256 1275 1
366 1276 1
389 1276 1
1016 1276 1
1032 1276 1
1198 1276 1
1209 1276 1
1250 1276 1
1257 1276 1
367 1277 1
390 1277 1
1017 1277 1
1033 1277 1
1199 1277 1
1210 1277 1
1251 1277 1
1258 1277 1
365 1278 1
368 1278 1
1018 1278 1
1034 1278 1
1200 1278 1
1211 1278 1
1252 1278 1
1259 1278 1
366 1279 1
369 1279 1
1019 1279 1
1035 1279 1
1201 1279 1
1212 1279 1
1253 1279 1
1260 1279 1
367 1280 1
370 1280 1
1020 1280 1
1036 1280 1
1202 1280 1
1213 1280 1
1254 1280 1
1261 1280 1
368 1281 1
371 1281 1
1021 1281 1
1037 1281 1
1203 1281 1
1214 1281 1
1255 1281 1
1262 1281 1
369 1282 1
372 1282 1
1022 1282 1
1038 1282 1
1204 1282 1
1215 1282 1
1256 1282 1
1263 1282 1
370 1283 1
373 1283 1
1023 1283 1
1039 1283 1
1205 1283 1
1216 1283 1
1257 1283 1
1264 1283 1
371 1284 1
374 1284 1
1024 1284 1
1040 1284 1
1206 1284 1
1217 1284 1
1258 1284 1
1265 1284 1
372 1285 1
375 1285 1
1015 1285 1
1025 1285 1
1207 1285 1
1218 1285 1
1259 1285 1
1266 1285 1
373 1286 1
376 1286 1
1016 1286 1
1026 1286 1
1208 1286 1
1219 1286 1
1260 1286 1
1267 1286 1
374 1287 1
377 1287 1
1017 1287 1
1027 1287 1
1209 1287 1
1220 1287 1
1261 1287 1
1268 1287 1
375 1288 1
378 1288 1
1018 1288 1
1028 1288 1
1210 1288 1
1221 1288 1
1262 1288 1
1269 1288 1
376 1289 1
379 1289 1
1019 1289 1
1029 1289 1
1211 1289 1
1222 1289 1
1263 1289 1
1270 1289 1
377 1290 1
380 1290 1
1020 1290 1
1030 1290 1
1197 1290 1
1212 1290 1
1264 1290 1
1271 1290 1
378 1291 1
381 1291 1
1021 1291 1
1031 1291 1
1198 1291 1
1213 1291 1
1265 1291 1
1272 1291 1
379 1292 1
382 1292 1
1022 1292 1
1032 1292 1
1199 1292 1
1214 1292 1
1266 1292 1
1273 1292 1
380 1293 1
383 1293 1
1023 1293 1
1033 1293 1
1200 1293 1
1215 1293 1
1267 1293 1
1274 1293 1
381 1294 1
384 1294 1
1024 1294 1
1034 1294 1
1201 1294 1
1216 1294 1
1249 1294 1
1268 1294 1
382 1295 1
385 1295 1
1025 1295 1
1035 1295 1
1202 1295 1
1217 1295 1
1250 1295 1
1269 1295 1
383 1296 1
386 1296 1
1026 1296 1
1036 1296 1
1203 1296 1
1218 1296 1
1251 1296 1
1270 1296 1
384 1297 1
387 1297 1
1027 1297 1
1037 1297 1
1204 1297 1
1219 1297 1
1252 1297 1
1271 1297 1
385 1298 1
388 1298 1
1028 1298 1
1038 1298 1
1205 1298 1
1220 1298 1
1253 1298 1
1272 1298 1
386 1299 1
389 1299 1
1029 1299 1
1039 1299 1
1206 1299 1
1221 1299 1
1254 1299 1
1273 1299 1
387 1300 1
390 1300 1
1030 1300 1
1040 1300 1
1207 1300 1
1222 1300 1
1255 1300 1
1274 1300 1
391 1301 1
414 1301 1
1041 1301 1
1057 1301 1
1223 1301 1
1234 1301 1
1249 1301 1
1257 1301 1
392 1302 1
415 1302 1
1042 1302 1
1058 1302 1
1224 1302 1
1235 1302 1
1250 1302 1
1258 1302 1
393 1303 1
416 1303 1
1043 1303 1
1059 1303 1
1225 1303 1
1236 1303 1
1251 1303 1
1259 1303 1
391 1304 1
394 1304 1
1044 1304 1
1060 1304 1
1226 1304 1
1237 1304 1
1252 1304 1
1260 1304 1
392 1305 1
395 1305 1
1045 1305 1
1061 1305 1
1227 1305 1
1238 1305 1
1253 1305 1
1261 1305 1
393 1306 1
396 1306 1
1046 1306 1
1062 1306 1
1228 1306 1
1239 1306 1
1254 1306 1
1262 1306 1
394 1307 1
397 1307 1
1047 1307 1
1063 1307 1
1229 1307 1
1240 1307 1
1255 1307 1
1263 1307 1
395 1308 1
398 1308 1
1048 1308 1
1064 1308 1
1230 1308 1
1241 1308 1
1256 1308 1
1264 1308 1
396 1309 1
399 1309 1
1049 1309 1
1065 1309 1
1231 1309 1
1242 1309 1
1257 1309 1
1265 1309 1
397 1310 1
400 1310 1
1050 1310 1
1066 1310 1
1232 1310 1
1243 1310 1
1258 1310 1
1266 1310 1
398 1311 1
401 1311 1
1041 1311 1
1051 1311 1
1233 1311 1
1244 1311 1
1259 1311 1
1267 1311 1
399 1312 1
402 1312 1
1042 1312 1
1052 1312 1
1234 1312 1
1245 1312 1
1260 1312 1
1268 1312 1
400 1313 1
403 1313 1
1043 1313 1
1053 1313 1
1235 1313 1
1246 1313 1
1261 1313 1
1269 1313 1
401 1314 1
404 1314 1
1044 1314 1
1054 1314 1
1236 1314 1
1247 1314 1
1262 1314 1
1270 1314 1
402 1315 1
405 1315 1
1045 1315 1
1055 1315 1
1237 1315 1
1248 1315 1
1263 1315 1
1271 1315 1
403 1316 1
406 1316 1
1046 1316 1
1056 1316 1
1223 1316 1
1238 1316 1
1264 1316 1
1272 1316 1
404 1317 1
407 1317 1
1047 1317 1
1057 1317 1
1224 1317 1
1239 1317 1
1265 1317 1
1273 1317 1
405 1318 1
408 1318 1
1048 1318 1
1058 1318 1
1225 1318 1
1240 1318 1
1266 1318 1
1274 1318 1
406 1319 1
409 1319 1
1049 1319 1
1059 1319 1
1226 1319 1
1241 1319 1
1249 1319 1
1267 1319 1
407 1320 1
410 1320 1
1050 1320 1
1060 1320 1
1227 1320 1
1242 1320 1
1250 1320 1
1268 1320 1
408 1321 1
411 1321 1
1051 1321 1
1061 1321 1
1228 1321 1
1243 1321 1
1251 1321 1
1269 1321 1
409 1322 1
412 1322 1
1052 1322 1
1062 1322 1
1229 1322 1
1244 1322 1
1252 1322 1
1270 1322 1
410 1323 1
413 1323 1
1053 1323 1
1063 1323 1
1230 1323 1
1245 1323 1
1253 1323 1
1271 1323 1
411 1324 1
414 1324 1
1054 1324 1
1064 1324 1
1231 1324 1
1246 1324 1
1254 1324 1
1272 1324 1
412 1325 1
415 1325 1
1055 1325 1
1065 1325 1
1232 1325 1
1247 1325 1
1255 1325 1
1273 1325 1
413 1326 1
416 1326 1
1056 1326 1
1066 1326 1
1233 1326 1
1248 1326 1
1256 1326 1
1274 1326 1
417 1327 1
440 1327 1
1067 1327 1
1083 1327 1
1171 1327 1
1185 1327 1
1275 1327 1
1279 1327 1
418 1328 1
441 1328 1
1068 1328 1
1084 1328 1
1172 1328 1
1186 1328 1
1276 1328 1
1280 1328 1
419 1329 1
442 1329 1
1069 1329 1
1085 1329 1
1173 1329 1
1187 1329 1
1277 1329 1
1281 1329 1
417 1330 1
420 1330 1
1070 1330 1
1086 1330 1
1174 1330 1
1188 1330 1
1278 1330 1
1282 1330 1
418 1331 1
421 1331 1
1071 1331 1
1087 1331 1
1175 1331 1
1189 1331 1
1279 1331 1
1283 1331 1
419 1332 1
422 1332 1
1072 1332 1
1088 1332 1
1176 1332 1
1190 1332 1
1280 1332 1
1284 1332 1
420 1333 1
423 1333 1
1073 1333 1
1089 1333 1
1177 1333 1
1191 1333 1
1281 1333 1
1285 1333 1
421 1334 1
424 1334 1
1074 1334 1
1090 1334 1
1178 1334 1
1192 1334 1
1282 1334 1
1286 1334 1
422 1335 1
425 1335 1
1075 1335 1
1091 1335 1
1179 1335 1
1193 1335 1
1283 1335 1
1287 1335 1
423 1336 1
426 1336 1
1076 1336 1
1092 1336 1
1180 1336 1
1194 1336 1
1284 1336 1
1288 1336 1
424 1337 1
427 1337 1
1067 1337 1
1077 1337 1
1181 1337 1
1195 1337 1
1285 1337 1
1289 1337 1
425 1338 1
428 1338 1
1068 1338 1
1078 1338 1
1182 1338 1
1196 1338 1
1286 1338 1
1290 1338 1
426 1339 1
429 1339 1
1069 1339 1
1079 1339 1
1171 1339 1
1183 1339 1
1287 1339 1
1291 1339 1
427 1340 1
430 1340 1
1070 1340 1
1080 1340 1
1172 1340 1
1184 1340 1
1288 1340 1
1292 1340 1
428 1341 1
431 1341 1
1071 1341 1
1081 1341 1
1173 1341 1
1185 1341 1
1289 1341 1
1293 1341 1
429 1342 1
432 1342 1
1072 1342 1
1082 1342 1
1174 1342 1
1186 1342 1
1290 1342 1
1294 1342 1
430 1343 1
433 1343 1
1073 1343 1
1083 1343 1
1175 1343 1
1187 1343 1
1291 1343 1
1295 1343 1
431 1344 1
434 1344 1
1074 1344 1
1084 1344 1
1176 1344 1
1188 1344 1
1292 1344 1
1296 1344 1
432 1345 1
435 1345 1
1075 1345 1
1085 1345 1
1177 1345 1
1189 1345 1
1293 1345 1
1297 1345 1
433 1346 1
436 1346 1
1076 1346 1
1086 1346 1
1178 1346 1
1190 1346 1
1294 1346 1
1298 1346 1
434 1347 1
437 1347 1
1077 1347 1
1087 1347 1
1179 1347 1
1191 1347 1
1295 1347 1
1299 1347 1
435 1348 1
438 1348 1
1078 1348 1
1088 1348 1
1180 1348 1
1192 1348 1
1296 1348 1
1300 1348 1
436 1349 1
439 1349 1
1079 1349 1
1089 1349 1
1181 1349 1
1193 1349 1
1275 1349 1
1297 1349 1
437 1350 1
440 1350 1
1080 1350 1
1090 1350 1
1182 1350 1
1194 1350 1
1276 1350 1
1298 1350 1
438 1351 1
441 1351 1
1081 1351 1
1091 1351 1
1183 1351 1
1195 1351 1
1277 1351 1
1299 1351 1
439 1352 1
442 1352 1
1082 1352 1
1092 1352 1
1184 1352 1
1196 1352 1
1278 1352 1
1300 1352 1
443 1353 1
466 1353 1
1093 1353 1
1109 1353 1
1197 1353 1
1211 1353 1
1275 1353 1
1282 1353 1
444 1354 1
467 1354 1
1094 1354 1
1110 1354 1
1198 1354 1
1212 1354 1
1276 1354 1
1283 1354 1
445 1355 1
468 1355 1
1095 1355 1
1111 1355 1
1199 1355 1
1213 1355 1
1277 1355 1
1284 1355 1
443 1356 1
446 1356 1
1096 1356 1
1112 1356 1
1200 1356 1
1214 1356 1
1278 1356 1
1285 1356 1
444 1357 1
447 1357 1
1097 1357 1
1113 1357 1
1201 1357 1
1215 1357 1
1279 1357 1
1286 1357 1
445 1358 1
448 1358 1
1098 1358 1
1114 1358 1
1202 1358 1
1216 1358 1
1280 1358 1
1287 1358 1
446 1359 1
449 1359 1
1099 1359 1
1115 1359 1
1203 1359 1
1217 1359 1
1281 1359 1
1288 1359 1
447 1360 1
450 1360 1
1100 1360 1
1116 1360 1
1204 1360 1
1218 1360 1
1282 1360 1
1289 1360 1
448 1361 1
451 1361 1
1101 1361 1
1117 1361 1
1205 1361 1
1219 1361 1
1283 1361 1
1290 1361 1
449 1362 1
452 1362 1
1102 1362 1
1118 1362 1
1206 1362 1
1220 1362 1
1284 1362 1
1291 1362 1
450 1363 1
453 1363 1
1093 1363 1
1103 1363 1
1207 1363 1
1221 1363 1
1285 1363 1
1292 1363 1
451 1364 1
454 1364 1
1094 1364 1
1104 1364 1
1208 1364 1
1222 1364 1
1286 1364 1
1293 1364 1
452 1365 1
455 1365 1
1095 1365 1
1105 1365 1
1197 1365 1
1209 1365 1
1287 1365 1
1294 1365 1
453 1366 1
456 1366 1
1096 1366 1
1106 1366 1
1198 1366 1
1210 1366 1
1288 1366 1
1295 1366 1
454 1367 1
457 1367 1
1097 1367 1
1107 1367 1
1199 1367 1
1211 1367 1
1289 1367 1
1296 1367 1
455 1368 1
458 1368 1
1098 1368 1
1108 1368 1
1200 1368 1
1212 1368 1
1290 1368 1
1297 1368 1
456 1369 1
459 1369 1
1099 1369 1
1109 1369 1
1201 1369 1
1213 1369 1
1291 1369 1
1298 1369 1
457 1370 1
460 1370 1
1100 1370 1
1110 1370 1
1202 1370 1
1214 1370 1
1292 1370 1
1299 1370 1
458 1371 1
461 1371 1
1101 1371 1
1111 1371 1
1203 1371 1
1215 1371 1
1293 1371 1
1300 1371 1
459 1372 1
462 1372 1
1102 1372 1
1112 1372 1
1204 1372 1
1216 1372 1
1275 1372 1
1294 1372 1
460 1373 1
463 1373 1
1103 1373 1
1113 1373 1
1205 1373 1
1217 1373 1
1276 1373 1
1295 1373 1
461 1374 1
464 1374 1
1104 1374 1
1114 1374 1
1206 1374 1
1218 1374 1
1277 1374 1
1296 1374 1
462 1375 1
465 1375 1
1105 1375 1
1115 1375 1
1207 1375 1
1219 1375 1
1278 1375 1
1297 1375 1
463 1376 1
466 1376 1
1106 1376 1
1116 1376 1
1208 1376 1
1220 1376 1
1279 1376 1
1298 1376 1
464 1377 1
467 1377 1
1107 1377 1
1117 1377 1
1209 1377 1
1221 1377 1
1280 1377 1
1299 1377 1
465 1378 1
468 1378 1
1108 1378 1
1118 1378 1
1210 1378 1
1222 1378 1
1281 1378 1
1300 1378 1
469 1379 1
492 1379 1
1119 1379 1
1135 1379 1
1223 1379 1
1237 1379 1
1275 1379 1
1283 1379 1
470 1380 1
493 1380 1
1120 1380 1
1136 1380 1
1224 1380 1
1238 1380 1
1276 1380 1
1284 1380 1
471 1381 1
494 1381 1
1121 1381 1
1137 1381 1
1225 1381 1
1239 1381 1
1277 1381 1
1285 1381 1
469 1382 1
472 1382 1
1122 1382 1
1138 1382 1
1226 1382 1
1240 1382 1
1278 1382 1
1286 1382 1
470 1383 1
473 1383 1
1123 1383 1
1139 1383 1
1227 1383 1
1241 1383 1
1279 1383 1
1287 1383 1
471 1384 1
474 1384 1
1124 1384 1
1140 1384 1
1228 1384 1
1242 1384 1
1280 1384 1
1288 1384 1
472 1385 1
475 1385 1
1125 1385 1
1141 1385 1
1229 1385 1
1243 1385 1
1281 1385 1
1289 1385 1
473 1386 1
476 1386 1
1126 1386 1
1142 1386 1
1230 1386 1
1244 1386 1
1282 1386 1
1290 1386 1
474 1387 1
477 1387 1
1127 1387 1
1143 1387 1
1231 1387 1
1245 1387 1
1283 1387 1
1291 1387 1
475 1388 1
478 1388 1
1128 1388 1
1144 1388 1
1232 1388 1
1246 1388 1
1284 1388 1
1292 1388 1
476 1389 1
479 1389 1
1119 1389 1
1129 1389 1
1233 1389 1
1247 1389 1
1285 1389 1
1293 1389 1
477 1390 1
480 1390 1
1120 1390 1
1130 1390 1
1234 1390 1
1248 1390 1
1286 1390 1
1294 1390 1
478 1391 1
481 1391 1
1121 1391 1
1131 1391 1
1223 1391 1
1235 1391 1
1287 1391 1
1295 1391 1
479 1392 1
482 1392 1
1122 1392 1
1132 1392 1
1224 1392 1
1236 1392 1
1288 1392 1
1296 1392 1
480 1393 1
483 1393 1
1123 1393 1
1133 1393 1
1225 1393 1
1237 1393 1
1289 1393 1
1297 1393 1
481 1394 1
484 1394 1
1124 1394 1
1134 1394 1
1226 1394 1
1238 1394 1
1290 1394 1
1298 1394 1
482 1395 1
485 1395 1
1125 1395 1
1135 1395 1
1227 1395 1
1239 1395 1
1291 1395 1
1299 1395 1
483 1396 1
486 1396 1
1126 1396 1
1136 1396 1
1228 1396 1
1240 1396 1
1292 1396 1
1300 1396 1
484 1397 1
487 1397 1
1127 1397 1
1137 1397 1
1229 1397 1
1241 1397 1
1275 1397 1
1293 1397 1
485 1398 1
488 1398 1
1128 1398 1
1138 1398 1
1230 1398 1
1242 1398 1
1276 1398 1
1294 1398 1
486 1399 1
489 1399 1
1129 1399 1
1139 1399 1
1231 1399 1
1243 1399 1
1277 1399 1
1295 1399 1
487 1400 1
490 1400 1
1130 1400 1
1140 1400 1
1232 1400 1
1244 1400 1
1278 1400 1
1296 1400 1
488 1401 1
491 1401 1
1131 1401 1
1141 1401 1
1233 1401 1
1245 1401 1
1279 1401 1
1297 1401 1
489 1402 1
492 1402 1
1132 1402 1
1142 1402 1
1234 1402 1
1246 1402 1
1280 1402 1
1298 1402 1
490 1403 1
493 1403 1
1133 1403 1
1143 1403 1
1235 1403 1
1247 1403 1
1281 1403 1
1299 1403 1
491 1404 1
494 1404 1
1134 1404 1
1144 1404 1
1236 1404 1
1248 1404 1
1282 1404 1
1300 1404 1
495 1405 1
518 1405 1
1145 1405 1
1161 1405 1
1249 1405 1
1263 1405 1
1275 1405 1
1286 1405 1
496 1406 1
519 1406 1
1146 1406 1
1162 1406 1
1250 1406 1
1264 1406 1
1276 1406 1
1287 1406 1
497 1407 1
520 1407 1
1147 1407 1
1163 1407 1
1251 1407 1
1265 1407 1
1277 1407 1
1288 1407 1
495 1408 1
498 1408 1
1148 1408 1
1164 1408 1
1252 1408 1
1266 1408 1
1278 1408 1
1289 1408 1
496 1409 1
499 1409 1
1149 1409 1
1165 1409 1
1253 1409 1
1267 1409 1
1279 1409 1
1290 1409 1
497 1410 1
500 1410 1
1150 1410 1
1166 1410 1
1254 1410 1
1268 1410 1
1280 1410 1
1291 1410 1
498 1411 1
501 1411 1
1151 1411 1
1167 1411 1
1255 1411 1
1269 1411 1
1281 1411 1
1292 1411 1
499 1412 1
502 1412 1
1152 1412 1
1168 1412 1
1256 1412 1
1270 1412 1
1282 1412 1
1293 1412 1
500 1413 1
503 1413 1
1153 1413 1
1169 1413 1
1257 1413 1
1271 1413 1
1283 1413 1
1294 1413 1
501 1414 1
504 1414 1
1154 1414 1
1170 1414 1
1258 1414 1
1272 1414 1
1284 1414 1
1295 1414 1
502 1415 1
505 1415 1
1145 1415 1
1155 1415 1
1259 1415 1
1273 1415 1
1285 1415 1
1296 1415 1
503 1416 1
506 1416 1
1146 1416 1
1156 1416 1
1260 1416 1
1274 1416 1
1286 1416 1
1297 1416 1
504 1417 1
507 1417 1
1147 1417 1
1157 1417 1
1249 1417 1
1261 1417 1
1287 1417 1
1298 1417 1
505 1418 1
508 1418 1
1148 1418 1
1158 1418 1
1250 1418 1
1262 1418 1
1288 1418 1
1299 1418 1
506 1419 1
509 1419 1
1149 1419 1
1159 1419 1
1251 1419 1
1263 1419 1
1289 1419 1
1300 1419 1
507 1420 1
510 1420 1
1150 1420 1
1160 1420 1
1252 1420 1
1264 1420 1
1275 1420 1
1290 1420 1
508 1421 1
511 1421 1
1151 1421 1
1161 1421 1
1253 1421 1
1265 1421 1
1276 1421 1
1291 1421 1
509 1422 1
512 1422 1
1152 1422 1
1162 1422 1
1254 1422 1
1266 1422 1
1277 1422 1
1292 1422 1
510 1423 1
513 1423 1
1153 1423 1
1163 1423 1
1255 1423 1
1267 1423 1
1278 1423 1
1293 1423 1
511 1424 1
514 1424 1
1154 1424 1
1164 1424 1
1256 1424 1
1268 1424 1
1279 1424 1
1294 1424 1
512 1425 1
515 1425 1
1155 1425 1
1165 1425 1
1257 1425 1
1269 1425 1
1280 1425 1
1295 1425 1
513 1426 1
516 1426 1
1156 1426 1
1166 1426 1
1258 1426 1
1270 1426 1
1281 1426 1
1296 1426 1
514 1427 1
517 1427 1
1157 1427 1
1167 1427 1
1259 1427 1
1271 1427 1
1282 1427 1
1297 1427 1
515 1428 1
518 1428 1
1158 1428 1
1168 1428 1
1260 1428 1
1272 1428 1
1283 1428 1
1298 1428 1
516 1429 1
519 1429 1
1159 1429 1
1169 1429 1
1261 1429 1
1273 1429 1
1284 1429 1
1299 1429 1
517 1430 1
520 1430 1
1160 1430 1
1170 1430 1
1262 1430 1
1274 1430 1
1285 1430 1
1300 1430 1
521 1431 1
544 1431 1
911 1431 1
928 1431 1
1301 1431 1
1308 1431 1
1327 1431 1
1331 1431 1
522 1432 1
545 1432 1
912 1432 1
929 1432 1
1302 1432 1
1309 1432 1
1328 1432 1
1332 1432 1
523 1433 1
546 1433 1
913 1433 1
930 1433 1
1303 1433 1
1310 1433 1
1329 1433 1
1333 1433 1
521 1434 1
524 1434 1
914 1434 1
931 1434 1
1304 1434 1
1311 1434 1
1330 1434 1
1334 1434 1
522 1435 1
525 1435 1
915 1435 1
932 1435 1
1305 1435 1
1312 1435 1
1331 1435 1
1335 1435 1
523 1436 1
526 1436 1
916 1436 1
933 1436 1
1306 1436 1
1313 1436 1
1332 1436 1
1336 1436 1
524 1437 1
527 1437 1
917 1437 1
934 1437 1
1307 1437 1
1314 1437 1
1333 1437 1
1337 1437 1
525 1438 1
528 1438 1
918 1438 1
935 1438 1
1308 1438 1
1315 1438 1
1334 1438 1
1338 1438 1
526 1439 1
529 1439 1
919 1439 1
936 1439 1
1309 1439 1
1316 1439 1
1335 1439 1
1339 1439 1
527 1440 1
530 1440 1
911 1440 1
920 1440 1
1310 1440 1
1317 1440 1
1336 1440 1
1340 1440 1
528 1441 1
531 1441 1
912 1441 1
921 1441 1
1311 1441 1
1318 1441 1
1337 1441 1
1341 1441 1
529 1442 1
532 1442 1
913 1442 1
922 1442 1
1312 1442 1
1319 1442 1
1338 1442 1
1342 1442 1
530 1443 1
533 1443 1
914 1443 1
923 1443 1
1313 1443 1
1320 1443 1
1339 1443 1
1343 1443 1
531 1444 1
534 1444 1
915 1444 1
924 1444 1
1314 1444 1
1321 1444 1
1340 1444 1
1344 1444 1
532 1445 1
535 1445 1
916 1445 1
925 1445 1
1315 1445 1
1322 1445 1
1341 1445 1
1345 1445 1
533 1446 1
536 1446 1
917 1446 1
926 1446 1
1316 1446 1
1323 1446 1
1342 1446 1
1346 1446 1
534 1447 1
537 1447 1
918 1447 1
927 1447 1
1317 1447 1
1324 1447 1
1343 1447 1
1347 1447 1
535 1448 1
538 1448 1
919 1448 1
928 1448 1
1318 1448 1
1325 1448 1
1344 1448 1
1348 1448 1
536 1449 1
539 1449 1
920 1449 1
929 1449 1
1319 1449 1
1326 1449 1
1345 1449 1
1349 1449 1
537 1450 1
540 1450 1
921 1450 1
930 1450 1
1301 1450 1
1320 1450 1
1346 1450 1
1350 1450 1
538 1451 1
541 1451 1
922 1451 1
931 1451 1
1302 1451 1
1321 1451 1
1347 1451 1
1351 1451 1
539 1452 1
542 1452 1
923 1452 1
932 1452 1
1303 1452 1
1322 1452 1
1348 1452 1
1352 1452 1
540 1453 1
543 1453 1
924 1453 1
933 1453 1
1304 1453 1
1323 1453 1
1327 1453 1
1349 1453 1
541 1454 1
544 1454 1
925 1454 1
934 1454 1
1305 1454 1
1324 1454 1
1328 1454 1
1350 1454 1
542 1455 1
545 1455 1
926 1455 1
935 1455 1
1306 1455 1
1325 1455 1
1329 1455 1
1351 1455 1
543 1456 1
546 1456 1
927 1456 1
936 1456 1
1307 1456 1
1326 1456 1
1330 1456 1
1352 1456 1
547 1457 1
570 1457 1
937 1457 1
954 1457 1
1301 1457 1
1309 1457 1
1353 1457 1
1357 1457 1
548 1458 1
571 1458 1
938 1458 1
955 1458 1
1302 1458 1
1310 1458 1
1354 1458 1
1358 1458 1
549 1459 1
572 1459 1
939 1459 1
956 1459 1
1303 1459 1
1311 1459 1
1355 1459 1
1359 1459 1
547 1460 1
550 1460 1
940 1460 1
957 1460 1
1304 1460 1
1312 1460 1
1356 1460 1
1360 1460 1
548 1461 1
551 1461 1
941 1461 1
958 1461 1
1305 1461 1
1313 1461 1
1357 1461 1
1361 1461 1
549 1462 1
552 1462 1
942 1462 1
959 1462 1
1306 1462 1
1314 1462 1
1358 1462 1
1362 1462 1
550 1463 1
553 1463 1
943 1463 1
960 1463 1
1307 1463 1
1315 1463 1
1359 1463 1
1363 1463 1
551 1464 1
554 1464 1
944 1464 1
961 1464 1
1308 1464 1
1316 1464 1
1360 1464 1
1364 1464 1
552 1465 1
555 1465 1
945 1465 1
962 1465 1
1309 1465 1
1317 1465 1
1361 1465 1
1365 1465 1
553 1466 1
556 1466 1
937 1466 1
946 1466 1
1310 1466 1
1318 1466 1
1362 1466 1
1366 1466 1
554 1467 1
557 1467 1
938 1467 1
947 1467 1
1311 1467 1
1319 1467 1
1363 1467 1
1367 1467 1
555 1468 1
558 1468 1
939 1468 1
948 1468 1
1312 1468 1
1320 1468 1
1364 1468 1
1368 1468 1
556 1469 1
559 1469 1
940 1469 1
949 1469 1
1313 1469 1
1321 1469 1
1365 1469 1
1369 1469 1
557 1470 1
560 1470 1
941 1470 1
950 1470 1
1314 1470 1
1322 1470 1
1366 1470 1
1370 1470 1
558 1471 1
561 1471 1
942 1471 1
951 1471 1
1315 1471 1
1323 1471 1
1367 1471 1
1371 1471 1
559 1472 1
562 1472 1
943 1472 1
952 1472 1
1316 1472 1
1324 1472 1
1368 1472 1
1372 1472 1
560 1473 1
563 1473 1
944 1473 1
953 1473 1
1317 1473 1
1325 1473 1
1369 1473 1
1373 1473 1
561 1474 1
564 1474 1
945 1474 1
954 1474 1
1318 1474 1
1326 1474 1
1370 1474 1
1374 1474 1
562 1475 1
565 1475 1
946 1475 1
955 1475 1
1301 1475 1
1319 1475 1
1371 1475 1
1375 1475 1
563 1476 1
566 1476 1
947 1476 1
956 1476 1
1302 1476 1
1320 1476 1
1372 1476 1
1376 1476 1
564 1477 1
567 1477 1
948 1477 1
957 1477 1
1303 1477 1
1321 1477 1
1373 1477 1
1377 1477 1
565 1478 1
568 1478 1
949 1478 1
958 1478 1
1304 1478 1
1322 1478 1
1374 1478 1
1378 1478 1
566 1479 1
569 1479 1
950 1479 1
959 1479 1
1305 1479 1
1323 1479 1
1353 1479 1
1375 1479 1
567 1480 1
570 1480 1
951 1480 1
960 1480 1
1306 1480 1
1324 1480 1
1354 1480 1
1376 1480 1
568 1481 1
571 1481 1
952 1481 1
961 1481 1
1307 1481 1
1325 1481 1
1355 1481 1
1377 1481 1
569 1482 1
572 1482 1
953 1482 1
962 1482 1
1308 1482 1
1326 1482 1
1356 1482 1
1378 1482 1
573 1483 1
596 1483 1
963 1483 1
980 1483 1
1327 1483 1
1335 1483 1
1353 1483 1
1360 1483 1
574 1484 1
597 1484 1
964 1484 1
981 1484 1
1328 1484 1
1336 1484 1
1354 1484 1
1361 1484 1
575 1485 1
598 1485 1
965 1485 1
982 1485 1
1329 1485 1
1337 1485 1
1355 1485 1
1362 1485 1
573 1486 1
576 1486 1
966 1486 1
983 1486 1
1330 1486 1
1338 1486 1
1356 1486 1
1363 1486 1
574 1487 1
577 1487 1
967 1487 1
984 1487 1
1331 1487 1
1339 1487 1
1357 1487 1
1364 1487 1
575 1488 1
578 1488 1
968 1488 1
985 1488 1
1332 1488 1
1340 1488 1
1358 1488 1
1365 1488 1
576 1489 1
579 1489 1
969 1489 1
986 1489 1
1333 1489 1
1341 1489 1
1359 1489 1
1366 1489 1
577 1490 1
580 1490 1
970 1490 1
987 1490 1
1334 1490 1
1342 1490 1
1360 1490 1
1367 1490 1
578 1491 1
581 1491 1
971 1491 1
988 1491 1
1335 1491 1
1343 1491 1
1361 1491 1
1368 1491 1
579 1492 1
582 1492 1
963 1492 1
972 1492 1
1336 1492 1
1344 1492 1
1362 1492 1
1369 1492 1
580 1493 1
583 1493 1
964 1493 1
973 1493 1
1337 1493 1
1345 1493 1
1363 1493 1
1370 1493 1
581 1494 1
584 1494 1
965 1494 1
974 1494 1
1338 1494 1
1346 1494 1
1364 1494 1
1371 1494 1
582 1495 1
585 1495 1
966 1495 1
975 1495 1
1339 1495 1
1347 1495 1
1365 1495 1
1372 1495 1
583 1496 1
586 1496 1
967 1496 1
976 1496 1
1340 1496 1
1348 1496 1
1366 1496 1
1373 1496 1
584 1497 1
587 1497 1
968 1497 1
977 1497 1
1341 1497 1
1349 1497 1
1367 1497 1
1374 1497 1
585 1498 1
588 1498 1
969 1498 1
978 1498 1
1342 1498 1
1350 1498 1
1368 1498 1
1375 1498 1
586 1499 1
589 1499 1
970 1499 1
979 1499 1
1343 1499 1
1351 1499 1
1369 1499 1
1376 1499 1
587 1500 1
590 1500 1
971 1500 1
980 1500 1
1344 1500 1
1352 1500 1
1370 1500 1
1377 1500 1
588 1501 1
591 1501 1
972 1501 1
981 1501 1
1327 1501 1
1345 1501 1
1371 1501 1
1378 1501 1
589 1502 1
592 1502 1
973 1502 1
982 1502 1
1328 1502 1
1346 1502 1
1353 1502 1
1372 1502 1
590 1503 1
593 1503 1
974 1503 1
983 1503 1
1329 1503 1
1347 1503 1
1354 1503 1
1373 1503 1
591 1504 1
594 1504 1
975 1504 1
984 1504 1
1330 1504 1
1348 1504 1
1355 1504 1
1374 1504 1
592 1505 1
595 1505 1
976 1505 1
985 1505 1
1331 1505 1
1349 1505 1
1356 1505 1
1375 1505 1
593 1506 1
596 1506 1
977 1506 1
986 1506 1
1332 1506 1
1350 1506 1
1357 1506 1
1376 1506 1
594 1507 1
597 1507 1
978 1507 1
987 1507 1
1333 1507 1
1351 1507 1
1358 1507 1
1377 1507 1
595 1508 1
598 1508 1
979 1508 1
988 1508 1
1334 1508 1
1352 1508 1
1359 1508 1
1378 1508 1
599 1509 1
622 1509 1
989 1509 1
1006 1509 1
1301 1509 1
1312 1509 1
1379 1509 1
1383 1509 1
600 1510 1
623 1510 1
990 1510 1
1007 1510 1
1302 1510 1
1313 1510 1
1380 1510 1
1384 1510 1
601 1511 1
624 1511 1
991 1511 1
1008 1511 1
1303 1511 1
1314 1511 1
1381 1511 1
1385 1511 1
599 1512 1
602 1512 1
992 1512 1
1009 1512 1
1304 1512 1
1315 1512 1
1382 1512 1
1386 1512 1
600 1513 1
603 1513 1
993 1513 1
1010 1513 1
1305 1513 1
1316 1513 1
1383 1513 1
1387 1513 1
601 1514 1
604 1514 1
994 1514 1
1011 1514 1
1306 1514 1
1317 1514 1
1384 1514 1
1388 1514 1
602 1515 1
605 1515 1
995 1515 1
1012 1515 1
1307 1515 1
1318 1515 1
1385 1515 1
1389 1515 1
603 1516 1
606 1516 1
996 1516 1
1013 1516 1
1308 1516 1
1319 1516 1
1386 1516 1
1390 1516 1
604 1517 1
607 1517 1
997 1517 1
1014 1517 1
1309 1517 1
1320 1517 1
1387 1517 1
1391 1517 1
605 1518 1
608 1518 1
989 1518 1
998 1518 1
1310 1518 1
1321 1518 1
1388 1518 1
1392 1518 1
606 1519 1
609 1519 1
990 1519 1
999 1519 1
1311 1519 1
1322 1519 1
1389 1519 1
1393 1519 1
607 1520 1
610 1520 1
991 1520 1
1000 1520 1
1312 1520 1
1323 1520 1
1390 1520 1
1394 1520 1
608 1521 1
611 1521 1
992 1521 1
1001 1521 1
1313 1521 1
1324 1521 1
1391 1521 1
1395 1521 1
609 1522 1
612 1522 1
993 1522 1
1002 1522 1
1314 1522 1
1325 1522 1
1392 1522 1
1396 1522 1
610 1523 1
613 1523 1
994 1523 1
1003 1523 1
1315 1523 1
1326 1523 1
1393 1523 1
1397 1523 1
611 1524 1
614 1524 1
995 1524 1
1004 1524 1
1301 1524 1
1316 1524 1
1394 1524 1
1398 1524 1
612 1525 1
615 1525 1
996 1525 1
1005 1525 1
1302 1525 1
1317 1525 1
1395 1525 1
1399 1525 1
613 1526 1
616 1526 1
997 1526 1
1006 1526 1
1303 1526 1
1318 1526 1
1396 1526 1
1400 1526 1
614 1527 1
617 1527 1
998 1527 1
1007 1527 1
1304 1527 1
1319 1527 1
1397 1527 1
1401 1527 1
615 1528 1
618 1528 1
999 1528 1
1008 1528 1
1305 1528 1
1320 1528 1
1398 1528 1
1402 1528 1
616 1529 1
619 1529 1
1000 1529 1
1009 1529 1
1306 1529 1
1321 1529 1
1399 1529 1
1403 1529 1
617 1530 1
620 1530 1
1001 1530 1
1010 1530 1
1307 1530 1
1322 1530 1
1400 1530 1
1404 1530 1
618 1531 1
621 1531 1
1002 1531 1
1011 1531 1
1308 1531 1
1323 1531 1
1379 1531 1
1401 1531 1
619 1532 1
622 1532 1
1003 1532 1
1012 1532 1
1309 1532 1
1324 1532 1
1380 1532 1
1402 1532 1
620 1533 1
623 1533 1
1004 1533 1
1013 1533 1
1310 1533 1
1325 1533 1
1381 1533 1
1403 1533 1
621 1534 1
624 1534 1
1005 1534 1
1014 1534 1
1311 1534 1
1326 1534 1
1382 1534 1
1404 1534 1
625 1535 1
648 1535 1
1015 1535 1
1032 1535 1
1327 1535 1
1338 1535 1
1379 1535 1
1386 1535 1
626 1536 1
649 1536 1
1016 1536 1
1033 1536 1
1328 1536 1
1339 1536 1
1380 1536 1
1387 1536 1
627 1537 1
650 1537 1
1017 1537 1
1034 1537 1
1329 1537 1
1340 1537 1
1381 1537 1
1388 1537 1
625 1538 1
628 1538 1
1018 1538 1
1035 1538 1
1330 1538 1
1341 1538 1
1382 1538 1
1389 1538 1
626 1539 1
629 1539 1
1019 1539 1
1036 1539 1
1331 1539 1
1342 1539 1
1383 1539 1
1390 1539 1
627 1540 1
630 1540 1
1020 1540 1
1037 1540 1
1332 1540 1
1343 1540 1
1384 1540 1
1391 1540 1
628 1541 1
631 1541 1
1021 1541 1
1038 1541 1
1333 1541 1
1344 1541 1
1385 1541 1
1392 1541 1
629 1542 1
632 1542 1
1022 1542 1
1039 1542 1
1334 1542 1
1345 1542 1
1386 1542 1
1393 1542 1
630 1543 1
633 1543 1
1023 1543 1
1040 1543 1
1335 1543 1
1346 1543 1
1387 1543 1
1394 1543 1
631 1544 1
634 1544 1
1015 1544 1
1024 1544 1
1336 1544 1
1347 1544 1
1388 1544 1
1395 1544 1
632 1545 1
635 1545 1
1016 1545 1
1025 1545 1
1337 1545 1
1348 1545 1
1389 1545 1
1396 1545 1
633 1546 1
636 1546 1
1017 1546 1
1026 1546 1
1338 1546 1
1349 1546 1
1390 1546 1
1397 1546 1
634 1547 1
637 1547 1
1018 1547 1
1027 1547 1
1339 1547 1
1350 1547 1
1391 1547 1
1398 1547 1
635 1548 1
638 1548 1
1019 1548 1
1028 1548 1
1340 1548 1
1351 1548 1
1392 1548 1
1399 1548 1
636 1549 1
639 1549 1
1020 1549 1
1029 1549 1
1341 1549 1
1352 1549 1
1393 1549 1
1400 1549 1
637 1550 1
640 1550 1
1021 1550 1
1030 1550 1
1327 1550 1
1342 1550 1
1394 1550 1
1401 1550 1
638 1551 1
641 1551 1
1022 1551 1
1031 1551 1
1328 1551 1
1343 1551 1
1395 1551 1
1402 1551 1
639 1552 1
642 1552 1
1023 1552 1
1032 1552 1
1329 1552 1
1344 1552 1
1396 1552 1
1403 1552 1
640 1553 1
643 1553 1
1024 1553 1
1033 1553 1
1330 1553 1
1345 1553 1
1397 1553 1
1404 1553 1
641 1554 1
644 1554 1
1025 1554 1
1034 1554 1
1331 1554 1
1346 1554 1
1379 1554 1
1398 1554 1
642 1555 1
645 1555 1
1026 1555 1
1035 1555 1
1332 1555 1
1347 1555 1
1380 1555 1
1399 1555 1
643 1556 1
646 1556 1
1027 1556 1
1036 1556 1
1333 1556 1
1348 1556 1
1381 1556 1
1400 1556 1
644 1557 1
647 1557 1
1028 1557 1
1037 1557 1
1334 1557 1
1349 1557 1
1382 1557 1
1401 1557 1
645 1558 1
648 1558 1
1029 1558 1
1038 1558 1
1335 1558 1
1350 1558 1
1383 1558 1
1402 1558 1
646 1559 1
649 1559 1
1030 1559 1
1039 1559 1
1336 1559 1
1351 1559 1
1384 1559 1
1403 1559 1
647 1560 1
650 1560 1
1031 1560 1
1040 1560 1
1337 1560 1
1352 1560 1
1385 1560 1
1404 1560 1
651 1561 1
674 1561 1
1041 1561 1
1058 1561 1
1353 1561 1
1364 1561 1
1379 1561 1
1387 1561 1
652 1562 1
675 1562 1
1042 1562 1
1059 1562 1
1354 1562 1
1365 1562 1
1380 1562 1
1388 1562 1
653 1563 1
676 1563 1
1043 1563 1
1060 1563 1
1355 1563 1
1366 1563 1
1381 1563 1
1389 1563 1
651 1564 1
654 1564 1
1044 1564 1
1061 1564 1
1356 1564 1
1367 1564 1
1382 1564 1
1390 1564 1
652 1565 1
655 1565 1
1045 1565 1
1062 1565 1
1357 1565 1
1368 1565 1
1383 1565 1
1391 1565 1
653 1566 1
656 1566 1
1046 1566 1
1063 1566 1
1358 1566 1
1369 1566 1
1384 1566 1
1392 1566 1
654 1567 1
657 1567 1
1047 1567 1
1064 1567 1
1359 1567 1
1370 1567 1
1385 1567 1
1393 1567 1
655 1568 1
658 1568 1
1048 1568 1
1065 1568 1
1360 1568 1
1371 1568 1
1386 1568 1
1394 1568 1
656 1569 1
659 1569 1
1049 1569 1
1066 1569 1
1361 1569 1
1372 1569 1
1387 1569 1
1395 1569 1
657 1570 1
660 1570 1
1041 1570 1
1050 1570 1
1362 1570 1
1373 1570 1
1388 1570 1
1396 1570 1
658 1571 1
661 1571 1
1042 1571 1
1051 1571 1
1363 1571 1
1374 1571 1
1389 1571 1
1397 1571 1
659 1572 1
662 1572 1
1043 1572 1
1052 1572 1
1364 1572 1
1375 1572 1
1390 1572 1
1398 1572 1
660 1573 1
663 1573 1
1044 1573 1
1053 1573 1
1365 1573 1
1376 1573 1
1391 1573 1
1399 1573 1
661 1574 1
664 1574 1
1045 1574 1
1054 1574 1
1366 1574 1
1377 1574 1
1392 1574 1
1400 1574 1
662 1575 1
665 1575 1
1046 1575 1
1055 1575 1
1367 1575 1
1378 1575 1
1393 1575 1
1401 1575 1
663 1576 1
666 1576 1
1047 1576 1
1056 1576 1
1353 1576 1
1368 1576 1
1394 1576 1
1402 1576 1
664 1577 1
667 1577 1
1048 1577 1
1057 1577 1
1354 1577 1
1369 1577 1
1395 1577 1
1403 1577 1
665 1578 1
668 1578 1
1049 1578 1
1058 1578 1
1355 1578 1
1370 1578 1
1396 1578 1
1404 1578 1
666 1579 1
669 1579 1
1050 1579 1
1059 1579 1
1356 1579 1
1371 1579 1
1379 1579 1
1397 1579 1
667 1580 1
670 1580 1
1051 1580 1
1060 1580 1
1357 1580 1
1372 1580 1
1380 1580 1
1398 1580 1
668 1581 1
671 1581 1
1052 1581 1
1061 1581 1
1358 1581 1
1373 1581 1
1381 1581 1
1399 1581 1
669 1582 1
672 1582 1
1053 1582 1
1062 1582 1
1359 1582 1
1374 1582 1
1382 1582 1
1400 1582 1
670 1583 1
673 1583 1
1054 1583 1
1063 1583 1
1360 1583 1
1375 1583 1
1383 1583 1
1401 1583 1
671 1584 1
674 1584 1
1055 1584 1
1064 1584 1
1361 1584 1
1376 1584 1
1384 1584 1
1402 1584 1
672 1585 1
675 1585 1
1056 1585 1
1065 1585 1
1362 1585 1
1377 1585 1
1385 1585 1
1403 1585 1
673 1586 1
676 1586 1
1057 1586 1
1066 1586 1
1363 1586 1
1378 1586 1
1386 1586 1
1404 1586 1
677 1587 1
700 1587 1
1067 1587 1
1084 1587 1
1301 1587 1
1315 1587 1
1405 1587 1
1409 1587 1
678 1588 1
701 1588 1
1068 1588 1
1085 1588 1
1302 1588 1
1316 1588 1
1406 1588 1
1410 1588 1
679 1589 1
702 1589 1
1069 1589 1
1086 1589 1
1303 1589 1
1317 1589 1
1407 1589 1
1411 1589 1
677 1590 1
680 1590 1
1070 1590 1
1087 1590 1
1304 1590 1
1318 1590 1
1408 1590 1
1412 1590 1
678 1591 1
681 1591 1
1071 1591 1
1088 1591 1
1305 1591 1
1319 1591 1
1409 1591 1
1413 1591 1
679 1592 1
682 1592 1
1072 1592 1
1089 1592 1
1306 1592 1
1320 1592 1
1410 1592 1
1414 1592 1
680 1593 1
683 1593 1
1073 1593 1
1090 1593 1
1307 1593 1
1321 1593 1
1411 1593 1
1415 1593 1
681 1594 1
684 1594 1
1074 1594 1
1091 1594 1
1308 1594 1
1322 1594 1
1412 1594 1
1416 1594 1
682 1595 1
685 1595 1
1075 1595 1
1092 1595 1
1309 1595 1
1323 1595 1
1413 1595 1
1417 1595 1
683 1596 1
686 1596 1
1067 1596 1
1076 1596 1
1310 1596 1
1324 1596 1
1414 1596 1
1418 1596 1
684 1597 1
687 1597 1
1068 1597 1
1077 1597 1
1311 1597 1
1325 1597 1
1415 1597 1
1419 1597 1
685 1598 1
688 1598 1
1069 1598 1
1078 1598 1
1312 1598 1
1326 1598 1
1416 1598 1
1420 1598 1
686 1599 1
689 1599 1
1070 1599 1
1079 1599 1
1301 1599 1
1313 1599 1
1417 1599 1
1421 1599 1
687 1600 1
690 1600 1
1071 1600 1
1080 1600 1
1302 1600 1
1314 1600 1
1418 1600 1
1422 1600 1
688 1601 1
691 1601 1
1072 1601 1
1081 1601 1
1303 1601 1
1315 1601 1
1419 1601 1
1423 1601 1
689 1602 1
692 1602 1
1073 1602 1
1082 1602 1
1304 1602 1
1316 1602 1
1420 1602 1
1424 1602 1
690 1603 1
693 1603 1
1074 1603 1
1083 1603 1
1305 1603 1
1317 1603 1
1421 1603 1
1425 1603 1
691 1604 1
694 1604 1
1075 1604 1
1084 1604 1
1306 1604 1
1318 1604 1
1422 1604 1
1426 1604 1
692 1605 1
695 1605 1
1076 1605 1
1085 1605 1
1307 1605 1
1319 1605 1
1423 1605 1
1427 1605 1
693 1606 1
696 1606 1
1077 1606 1
1086 1606 1
1308 1606 1
1320 1606 1
1424 1606 1
1428 1606 1
694 1607 1
697 1607 1
1078 1607 1
1087 1607 1
1309 1607 1
1321 1607 1
1425 1607 1
1429 1607 1
695 1608 1
698 1608 1
1079 1608 1
1088 1608 1
1310 1608 1
1322 1608 1
1426 1608 1
1430 1608 1
696 1609 1
699 1609 1
1080 1609 1
1089 1609 1
1311 1609 1
1323 1609 1
1405 1609 1
1427 1609 1
697 1610 1
700 1610 1
1081 1610 1
1090 1610 1
1312 1610 1
1324 1610 1
1406 1610 1
1428 1610 1
698 1611 1
701 1611 1
1082 1611 1
1091 1611 1
1313 1611 1
1325 1611 1
1407 1611 1
1429 1611 1
699 1612 1
702 1612 1
1083 1612 1
1092 1612 1
1314 1612 1
1326 1612 1
1408 1612 1
1430 1612 1
703 1613 1
726 1613 1
1093 1613 1
1110 1613 1
1327 1613 1
1341 1613 1
1405 1613 1
1412 1613 1
704 1614 1
727 1614 1
1094 1614 1
1111 1614 1
1328 1614 1
1342 1614 1
1406 1614 1
1413 1614 1
705 1615 1
728 1615 1
1095 1615 1
1112 1615 1
1329 1615 1
1343 1615 1
1407 1615 1
1414 1615 1
703 1616 1
706 1616 1
1096 1616 1
1113 1616 1
1330 1616 1
1344 1616 1
1408 1616 1
1415 1616 1
704 1617 1
707 1617 1
1097 1617 1
1114 1617 1
1331 1617 1
1345 1617 1
1409 1617 1
1416 1617 1
705 1618 1
708 1618 1
1098 1618 1
1115 1618 1
1332 1618 1
1346 1618 1
1410 1618 1
1417 1618 1
706 1619 1
709 1619 1
1099 1619 1
1116 1619 1
1333 1619 1
1347 1619 1
1411 1619 1
1418 1619 1
707 1620 1
710 1620 1
1100 1620 1
1117 1620 1
1334 1620 1
1348 1620 1
1412 1620 1
1419 1620 1
708 1621 1
711 1621 1
1101 1621 1
1118 1621 1
1335 1621 1
1349 1621 1
1413 1621 1
1420 1621 1
709 1622 1
712 1622 1
1093 1622 1
1102 1622 1
1336 1622 1
1350 1622 1
1414 1622 1
1421 1622 1
710 1623 1
713 1623 1
1094 1623 1
1103 1623 1
1337 1623 1
1351 1623 1
1415 1623 1
1422 1623 1
711 1624 1
714 1624 1
1095 1624 1
1104 1624 1
1338 1624 1
1352 1624 1
1416 1624 1
1423 1624 1
712 1625 1
715 1625 1
1096 1625 1
1105 1625 1
1327 1625 1
1339 1625 1
1417 1625 1
1424 1625 1
713 1626 1
716 1626 1
1097 1626 1
1106 1626 1
1328 1626 1
1340 1626 1
1418 1626 1
1425 1626 1
714 1627 1
717 1627 1
1098 1627 1
1107 1627 1
1329 1627 1
1341 1627 1
1419 1627 1
1426 1627 1
715 1628 1
718 1628 1
1099 1628 1
1108 1628 1
1330 1628 1
1342 1628 1
1420 1628 1
1427 1628 1
716 1629 1
719 1629 1
1100 1629 1
1109 1629 1
1331 1629 1
1343 1629 1
1421 1629 1
1428 1629 1
717 1630 1
720 1630 1
1101 1630 1
1110 1630 1
1332 1630 1
1344 1630 1
1422 1630 1
1429 1630 1
718 1631 1
721 1631 1
1102 1631 1
1111 1631 1
1333 1631 1
1345 1631 1
1423 1631 1
1430 1631 1
719 1632 1
722 1632 1
1103 1632 1
1112 1632 1
1334 1632 1
1346 1632 1
1405 1632 1
1424 1632 1
720 1633 1
723 1633 1
1104 1633 1
1113 1633 1
1335 1633 1
1347 1633 1
1406 1633 1
1425 1633 1
721 1634 1
724 1634 1
1105 1634 1
1114 1634 1
1336 1634 1
1348 1634 1
1407 1634 1
1426 1634 1
722 1635 1
725 1635 1
1106 1635 1
1115 1635 1
1337 1635 1
1349 1635 1
1408 1635 1
1427 1635 1
723 1636 1
726 1636 1
1107 1636 1
1116 1636 1
1338 1636 1
1350 1636 1
1409 1636 1
1428 1636 1
724 1637 1
727 1637 1
1108 1637 1
1117 1637 1
1339 1637 1
1351 1637 1
1410 1637 1
1429 1637 1
725 1638 1
728 1638 1
1109 1638 1
1118 1638 1
1340 1638 1
1352 1638 1
1411 1638 1
1430 1638 1
729 1639 1
752 1639 1
1119 1639 1
1136 1639 1
1353 1639 1
1367 1639 1
1405 1639 1
1413 1639 1
730 1640 1
753 1640 1
1120 1640 1
1137 1640 1
1354 1640 1
1368 1640 1
1406 1640 1
1414 1640 1
731 1641 1
754 1641 1
1121 1641 1
1138 1641 1
1355 1641 1
1369 1641 1
1407 1641 1
1415 1641 1
729 1642 1
732 1642 1
1122 1642 1
1139 1642 1
1356 1642 1
1370 1642 1
1408 1642 1
1416 1642 1
730 1643 1
733 1643 1
1123 1643 1
1140 1643 1
1357 1643 1
1371 1643 1
1409 1643 1
1417 1643 1
731 1644 1
734 1644 1
1124 1644 1
1141 1644 1
1358 1644 1
1372 1644 1
1410 1644 1
1418 1644 1
732 1645 1
735 1645 1
1125 1645 1
1142 1645 1
1359 1645 1
1373 1645 1
1411 1645 1
1419 1645 1
733 1646 1
736 1646 1
1126 1646 1
1143 1646 1
1360 1646 1
1374 1646 1
1412 1646 1
1420 1646 1
734 1647 1
737 1647 1
1127 1647 1
1144 1647 1
1361 1647 1
1375 1647 1
1413 1647 1
1421 1647 1
735 1648 1
738 1648 1
1119 1648 1
1128 1648 1
1362 1648 1
1376 1648 1
1414 1648 1
1422 1648 1
736 1649 1
739 1649 1
1120 1649 1
1129 1649 1
1363 1649 1
1377 1649 1
1415 1649 1
1423 1649 1
737 1650 1
740 1650 1
1121 1650 1
1130 1650 1
1364 1650 1
1378 1650 1
1416 1650 1
1424 1650 1
738 1651 1
741 1651 1
1122 1651 1
1131 1651 1
1353 1651 1
1365 1651 1
1417 1651 1
1425 1651 1
739 1652 1
742 1652 1
1123 1652 1
1132 1652 1
1354 1652 1
1366 1652 1
1418 1652 1
1426 1652 1
740 1653 1
743 1653 1
1124 1653 1
1133 1653 1
1355 1653 1
1367 1653 1
1419 1653 1
1427 1653 1
741 1654 1
744 1654 1
1125 1654 1
1134 1654 1
1356 1654 1
1368 1654 1
1420 1654 1
1428 1654 1
742 1655 1
745 1655 1
1126 1655 1
1135 1655 1
1357 1655 1
1369 1655 1
1421 1655 1
1429 1655 1
743 1656 1
746 1656 1
1127 1656 1
1136 1656 1
1358 1656 1
1370 1656 1
1422 1656 1
1430 1656 1
744 1657 1
747 1657 1
1128 1657 1
1137 1657 1
1359 1657 1
1371 1657 1
1405 1657 1
1423 1657 1
745 1658 1
748 1658 1
1129 1658 1
1138 1658 1
1360 1658 1
1372 1658 1
1406 1658 1
1424 1658 1
746 1659 1
749 1659 1
1130 1659 1
1139 1659 1
1361 1659 1
1373 1659 1
1407 1659 1
1425 1659 1
747 1660 1
750 1660 1
1131 1660 1
1140 1660 1
1362 1660 1
1374 1660 1
1408 1660 1
1426 1660 1
748 1661 1
751 1661 1
1132 1661 1
1141 1661 1
1363 1661 1
1375 1661 1
1409 1661 1
1427 1661 1
749 1662 1
752 1662 1
1133 1662 1
1142 1662 1
1364 1662 1
1376 1662 1
1410 1662 1
1428 1662 1
750 1663 1
753 1663 1
1134 1663 1
1143 1663 1
1365 1663 1
1377 1663 1
1411 1663 1
1429 1663 1
751 1664 1
754 1664 1
1135 1664 1
1144 1664 1
1366 1664 1
1378 1664 1
1412 1664 1
1430 1664 1
755 1665 1
778 1665 1
1145 1665 1
1162 1665 1
1379 1665 1
1393 1665 1
1405 1665 1
1416 1665 1
756 1666 1
779 1666 1
1146 1666 1
1163 1666 1
1380 1666 1
1394 1666 1
1406 1666 1
1417 1666 1
757 1667 1
780 1667 1
1147 1667 1
1164 1667 1
1381 1667 1
1395 1667 1
1407 1667 1
1418 1667 1
755 1668 1
758 1668 1
1148 1668 1
1165 1668 1
1382 1668 1
1396 1668 1
1408 1668 1
1419 1668 1
756 1669 1
759 1669 1
1149 1669 1
1166 1669 1
1383 1669 1
1397 1669 1
1409 1669 1
1420 1669 1
757 1670 1
760 1670 1
1150 1670 1
1167 1670 1
1384 1670 1
1398 1670 1
1410 1670 1
1421 1670 1
758 1671 1
761 1671 1
1151 1671 1
1168 1671 1
1385 1671 1
1399 1671 1
1411 1671 1
1422 1671 1
759 1672 1
762 1672 1
1152 1672 1
1169 1672 1
1386 1672 1
1400 1672 1
1412 1672 1
1423 1672 1
760 1673 1
763 1673 1
1153 1673 1
1170 1673 1
1387 1673 1
1401 1673 1
1413 1673 1
1424 1673 1
761 1674 1
764 1674 1
1145 1674 1
1154 1674 1
1388 1674 1
1402 1674 1
1414 1674 1
1425 1674 1
762 1675 1
765 1675 1
1146 1675 1
1155 1675 1
1389 1675 1
1403 1675 1
1415 1675 1
1426 1675 1
763 1676 1
766 1676 1
1147 1676 1
1156 1676 1
1390 1676 1
1404 1676 1
1416 1676 1
1427 1676 1
764 1677 1
767 1677 1
1148 1677 1
1157 1677 1
1379 1677 1
1391 1677 1
1417 1677 1
1428 1677 1
765 1678 1
768 1678 1
1149 1678 1
1158 1678 1
1380 1678 1
1392 1678 1
1418 1678 1
1429 1678 1
766 1679 1
769 1679 1
1150 1679 1
1159 1679 1
1381 1679 1
1393 1679 1
1419 1679 1
1430 1679 1
767 1680 1
770 1680 1
1151 1680 1
1160 1680 1
1382 1680 1
1394 1680 1
1405 1680 1
1420 1680 1
768 1681 1
771 1681 1
1152 1681 1
1161 1681 1
1383 1681 1
1395 1681 1
1406 1681 1
1421 1681 1
769 1682 1
772 1682 1
1153 1682 1
1162 1682 1
1384 1682 1
1396 1682 1
1407 1682 1
1422 1682 1
770 1683 1
773 1683 1
1154 1683 1
1163 1683 1
1385 1683 1
1397 1683 1
1408 1683 1
1423 1683 1
771 1684 1
774 1684 1
1155 1684 1
1164 1684 1
1386 1684 1
1398 1684 1
1409 1684 1
1424 1684 1
772 1685 1
775 1685 1
1156 1685 1
1165 1685 1
1387 1685 1
1399 1685 1
1410 1685 1
1425 1685 1
773 1686 1
776 1686 1
1157 1686 1
1166 1686 1
1388 1686 1
1400 1686 1
1411 1686 1
1426 1686 1
774 1687 1
777 1687 1
1158 1687 1
1167 1687 1
1389 1687 1
1401 1687 1
1412 1687 1
1427 1687 1
775 1688 1
778 1688 1
1159 1688 1
1168 1688 1
1390 1688 1
1402 1688 1
1413 1688 1
1428 1688 1
776 1689 1
779 1689 1
1160 1689 1
1169 1689 1
1391 1689 1
1403 1689 1
1414 1689 1
1429 1689 1
777 1690 1
780 1690 1
1161 1690 1
1170 1690 1
1392 1690 1
1404 1690 1
1415 1690 1
1430 1690 1
781 1691 1
804 1691 1
1171 1691 1
1188 1691 1
1301 1691 1
1317 1691 1
1431 1691 1
1435 1691 1
782 1692 1
805 1692 1
1172 1692 1
1189 1692 1
1302 1692 1
1318 1692 1
1432 1692 1
1436 1692 1
783 1693 1
806 1693 1
1173 1693 1
1190 1693 1
1303 1693 1
1319 1693 1
1433 1693 1
1437 1693 1
781 1694 1
784 1694 1
1174 1694 1
1191 1694 1
1304 1694 1
1320 1694 1
1434 1694 1
1438 1694 1
782 1695 1
785 1695 1
1175 1695 1
1192 1695 1
1305 1695 1
1321 1695 1
1435 1695 1
1439 1695 1
783 1696 1
786 1696 1
1176 1696 1
1193 1696 1
1306 1696 1
1322 1696 1
1436 1696 1
1440 1696 1
784 1697 1
787 1697 1
1177 1697 1
1194 1697 1
1307 1697 1
1323 1697 1
1437 1697 1
1441 1697 1
785 1698 1
788 1698 1
1178 1698 1
1195 1698 1
1308 1698 1
1324 1698 1
1438 1698 1
1442 1698 1
786 1699 1
789 1699 1
1179 1699 1
1196 1699 1
1309 1699 1
1325 1699 1
1439 1699 1
1443 1699 1
787 1700 1
790 1700 1
1171 1700 1
1180 1700 1
1310 1700 1
1326 1700 1
1440 1700 1
1444 1700 1
788 1701 1
791 1701 1
1172 1701 1
1181 1701 1
1301 1701 1
1311 1701 1
1441 1701 1
1445 1701 1
789 1702 1
792 1702 1
1173 1702 1
1182 1702 1
1302 1702 1
1312 1702 1
1442 1702 1
1446 1702 1
790 1703 1
793 1703 1
1174 1703 1
1183 1703 1
1303 1703 1
1313 1703 1
1443 1703 1
1447 1703 1
791 1704 1
794 1704 1
1175 1704 1
1184 1704 1
1304 1704 1
1314 1704 1
1444 1704 1
1448 1704 1
792 1705 1
795 1705 1
1176 1705 1
1185 1705 1
1305 1705 1
1315 1705 1
1445 1705 1
1449 1705 1
793 1706 1
796 1706 1
1177 1706 1
1186 1706 1
1306 1706 1
1316 1706 1
1446 1706 1
1450 1706 1
794 1707 1
797 1707 1
1178 1707 1
1187 1707 1
1307 1707 1
1317 1707 1
1447 1707 1
1451 1707 1
795 1708 1
798 1708 1
1179 1708 1
1188 1708 1
1308 1708 1
1318 1708 1
1448 1708 1
1452 1708 1
796 1709 1
799 1709 1
1180 1709 1
1189 1709 1
1309 1709 1
1319 1709 1
1449 1709 1
1453 1709 1
797 1710 1
800 1710 1
1181 1710 1
1190 1710 1
1310 1710 1
1320 1710 1
1450 1710 1
1454 1710 1
798 1711 1
801 1711 1
1182 1711 1
1191 1711 1
1311 1711 1
1321 1711 1
1451 1711 1
1455 1711 1
799 1712 1
802 1712 1
1183 1712 1
1192 1712 1
1312 1712 1
1322 1712 1
1452 1712 1
1456 1712 1
800 1713 1
803 1713 1
1184 1713 1
1193 1713 1
1313 1713 1
1323 1713 1
1431 1713 1
1453 1713 1
801 1714 1
804 1714 1
1185 1714 1
1194 1714 1
1314 1714 1
1324 1714 1
1432 1714 1
1454 1714 1
802 1715 1
805 1715 1
1186 1715 1
1195 1715 1
1315 1715 1
1325 1715 1
1433 1715 1
1455 1715 1
803 1716 1
806 1716 1
1187 1716 1
1196 1716 1
1316 1716 1
1326 1716 1
1434 1716 1
1456 1716 1
807 1717 1
830 1717 1
1197 1717 1
1214 1717 1
1327 1717 1
1343 1717 1
1431 1717 1
1438 1717 1
808 1718 1
831 1718 1
1198 1718 1
1215 1718 1
1328 1718 1
1344 1718 1
1432 1718 1
1439 1718 1
809 1719 1
832 1719 1
1199 1719 1
1216 1719 1
1329 1719 1
1345 1719 1
1433 1719 1
1440 1719 1
807 1720 1
810 1720 1
1200 1720 1
1217 1720 1
1330 1720 1
1346 1720 1
1434 1720 1
1441 1720 1
808 1721 1
811 1721 1
1201 1721 1
1218 1721 1
1331 1721 1
1347 1721 1
1435 1721 1
1442 1721 1
809 1722 1
812 1722 1
1202 1722 1
1219 1722 1
1332 1722 1
1348 1722 1
1436 1722 1
1443 1722 1
810 1723 1
813 1723 1
1203 1723 1
1220 1723 1
1333 1723 1
1349 1723 1
1437 1723 1
1444 1723 1
811 1724 1
814 1724 1
1204 1724 1
1221 1724 1
1334 1724 1
1350 1724 1
1438 1724 1
1445 1724 1
812 1725 1
815 1725 1
1205 1725 1
1222 1725 1
1335 1725 1
1351 1725 1
1439 1725 1
1446 1725 1
813 1726 1
816 1726 1
1197 1726 1
1206 1726 1
1336 1726 1
1352 1726 1
1440 1726 1
1447 1726 1
814 1727 1
817 1727 1
1198 1727 1
1207 1727 1
1327 1727 1
1337 1727 1
1441 1727 1
1448 1727 1
815 1728 1
818 1728 1
1199 1728 1
1208 1728 1
1328 1728 1
1338 1728 1
1442 1728 1
1449 1728 1
816 1729 1
819 1729 1
1200 1729 1
1209 1729 1
1329 1729 1
1339 1729 1
1443 1729 1
1450 1729 1
817 1730 1
820 1730 1
1201 1730 1
1210 1730 1
1330 1730 1
1340 1730 1
1444 1730 1
1451 1730 1
818 1731 1
821 1731 1
1202 1731 1
1211 1731 1
1331 1731 1
1341 1731 1
1445 1731 1
1452 1731 1
819 1732 1
822 1732 1
1203 1732 1
1212 1732 1
1332 1732 1
1342 1732 1
1446 1732 1
1453 1732 1
820 1733 1
823 1733 1
1204 1733 1
1213 1733 1
1333 1733 1
1343 1733 1
1447 1733 1
1454 1733 1
821 1734 1
824 1734 1
1205 1734 1
1214 1734 1
1334 1734 1
1344 1734 1
1448 1734 1
1455 1734 1
822 1735 1
825 1735 1
1206 1735 1
1215 1735 1
1335 1735 1
1345 1735 1
1449 1735 1
1456 1735 1
823 1736 1
826 1736 1
1207 1736 1
1216 1736 1
1336 1736 1
1346 1736 1
1431 1736 1
1450 1736 1
824 1737 1
827 1737 1
1208 1737 1
1217 1737 1
1337 1737 1
1347 1737 1
1432 1737 1
1451 1737 1
825 1738 1
828 1738 1
1209 1738 1
1218 1738 1
1338 1738 1
1348 1738 1
1433 1738 1
1452 1738 1
826 1739 1
829 1739 1
1210 1739 1
1219 1739 1
1339 1739 1
1349 1739 1
1434 1739 1
1453 1739 1
827 1740 1
830 1740 1
1211 1740 1
1220 1740 1
1340 1740 1
1350 1740 1
1435 1740 1
1454 1740 1
828 1741 1
831 1741 1
1212 1741 1
1221 1741 1
1341 1741 1
1351 1741 1
1436 1741 1
1455 1741 1
829 1742 1
832 1742 1
1213 1742 1
1222 1742 1
1342 1742 1
1352 1742 1
1437 1742 1
1456 1742 1
833 1743 1
856 1743 1
1223 1743 1
1240 1743 1
1353 1743 1
1369 1743 1
1431 1743 1
1439 1743 1
834 1744 1
857 1744 1
1224 1744 1
1241 1744 1
1354 1744 1
1370 1744 1
1432 1744 1
1440 1744 1
835 1745 1
858 1745 1
1225 1745 1
1242 1745 1
1355 1745 1
1371 1745 1
1433 1745 1
1441 1745 1
833 1746 1
836 1746 1
1226 1746 1
1243 1746 1
1356 1746 1
1372 1746 1
1434 1746 1
1442 1746 1
834 1747 1
837 1747 1
1227 1747 1
1244 1747 1
1357 1747 1
1373 1747 1
1435 1747 1
1443 1747 1
835 1748 1
838 1748 1
1228 1748 1
1245 1748 1
1358 1748 1
1374 1748 1
1436 1748 1
1444 1748 1
836 1749 1
839 1749 1
1229 1749 1
1246 1749 1
1359 1749 1
1375 1749 1
1437 1749 1
1445 1749 1
837 1750 1
840 1750 1
1230 1750 1
1247 1750 1
1360 1750 1
1376 1750 1
1438 1750 1
1446 1750 1
838 1751 1
841 1751 1
1231 1751 1
1248 1751 1
1361 1751 1
1377 1751 1
1439 1751 1
1447 1751 1
839 1752 1
842 1752 1
1223 1752 1
1232 1752 1
1362 1752 1
1378 1752 1
1440 1752 1
1448 1752 1
840 1753 1
843 1753 1
1224 1753 1
1233 1753 1
1353 1753 1
1363 1753 1
1441 1753 1
1449 1753 1
841 1754 1
844 1754 1
1225 1754 1
1234 1754 1
1354 1754 1
1364 1754 1
1442 1754 1
1450 1754 1
842 1755 1
845 1755 1
1226 1755 1
1235 1755 1
1355 1755 1
1365 1755 1
1443 1755 1
1451 1755 1
843 1756 1
846 1756 1
1227 1756 1
1236 1756 1
1356 1756 1
1366 1756 1
1444 1756 1
1452 1756 1
844 1757 1
847 1757 1
1228 1757 1
1237 1757 1
1357 1757 1
1367 1757 1
1445 1757 1
1453 1757 1
845 1758 1
848 1758 1
1229 1758 1
1238 1758 1
1358 1758 1
1368 1758 1
1446 1758 1
1454 1758 1
846 1759 1
849 1759 1
1230 1759 1
1239 1759 1
1359 1759 1
1369 1759 1
1447 1759 1
1455 1759 1
847 1760 1
850 1760 1
1231 1760 1
1240 1760 1
1360 1760 1
1370 1760 1
1448 1760 1
1456 1760 1
848 1761 1
851 1761 1
1232 1761 1
1241 1761 1
1361 1761 1
1371 1761 1
1431 1761 1
1449 1761 1
849 1762 1
852 1762 1
1233 1762 1
1242 1762 1
1362 1762 1
1372 1762 1
1432 1762 1
1450 1762 1
850 1763 1
853 1763 1
1234 1763 1
1243 1763 1
1363 1763 1
1373 1763 1
1433 1763 1
1451 1763 1
851 1764 1
854 1764 1
1235 1764 1
1244 1764 1
1364 1764 1
1374 1764 1
1434 1764 1
1452 1764 1
852 1765 1
855 1765 1
1236 1765 1
1245 1765 1
1365 1765 1
1375 1765 1
1435 1765 1
1453 1765 1
853 1766 1
856 1766 1
1237 1766 1
1246 1766 1
1366 1766 1
1376 1766 1
1436 1766 1
1454 1766 1
854 1767 1
857 1767 1
1238 1767 1
1247 1767 1
1367 1767 1
1377 1767 1
1437 1767 1
1455 1767 1
855 1768 1
858 1768 1
1239 1768 1
1248 1768 1
1368 1768 1
1378 1768 1
1438 1768 1
1456 1768 1
859 1769 1
882 1769 1
1249 1769 1
1266 1769 1
1379 1769 1
1395 1769 1
1431 1769 1
1442 1769 1
860 1770 1
883 1770 1
1250 1770 1
1267 1770 1
1380 1770 1
1396 1770 1
1432 1770 1
1443 1770 1
861 1771 1
884 1771 1
1251 1771 1
1268 1771 1
1381 1771 1
1397 1771 1
1433 1771 1
1444 1771 1
859 1772 1
862 1772 1
1252 1772 1
1269 1772 1
1382 1772 1
1398 1772 1
1434 1772 1
1445 1772 1
860 1773 1
863 1773 1
1253 1773 1
1270 1773 1
1383 1773 1
1399 1773 1
1435 1773 1
1446 1773 1
861 1774 1
864 1774 1
1254 1774 1
1271 1774 1
1384 1774 1
1400 1774 1
1436 1774 1
1447 1774 1
862 1775 1
865 1775 1
1255 1775 1
1272 1775 1
1385 1775 1
1401 1775 1
1437 1775 1
1448 1775 1
863 1776 1
866 1776 1
1256 1776 1
1273 1776 1
1386 1776 1
1402 1776 1
1438 1776 1
1449 1776 1
864 1777 1
867 1777 1
1257 1777 1
1274 1777 1
1387 1777 1
1403 1777 1
1439 1777 1
1450 1777 1
865 1778 1
868 1778 1
1249 1778 1
1258 1778 1
1388 1778 1
1404 1778 1
1440 1778 1
1451 1778 1
866 1779 1
869 1779 1
1250 1779 1
1259 1779 1
1379 1779 1
1389 1779 1
1441 1779 1
1452 1779 1
867 1780 1
870 1780 1
1251 1780 1
1260 1780 1
1380 1780 1
1390 1780 1
1442 1780 1
1453 1780 1
868 1781 1
871 1781 1
1252 1781 1
1261 1781 1
1381 1781 1
1391 1781 1
1443 1781 1
1454 1781 1
869 1782 1
872 1782 1
1253 1782 1
1262 1782 1
1382 1782 1
1392 1782 1
1444 1782 1
1455 1782 1
870 1783 1
873 1783 1
1254 1783 1
1263 1783 1
1383 1783 1
1393 1783 1
1445 1783 1
1456 1783 1
871 1784 1
874 1784 1
1255 1784 1
1264 1784 1
1384 1784 1
1394 1784 1
1431 1784 1
1446 1784 1
872 1785 1
875 1785 1
1256 1785 1
1265 1785 1
1385 1785 1
1395 1785 1
1432 1785 1
1447 1785 1
873 1786 1
876 1786 1
1257 1786 1
1266 1786 1
1386 1786 1
1396 1786 1
1433 1786 1
1448 1786 1
874 1787 1
877 1787 1
1258 1787 1
1267 1787 1
1387 1787 1
1397 1787 1
1434 1787 1
1449 1787 1
875 1788 1
878 1788 1
1259 1788 1
1268 1788 1
1388 1788 1
1398 1788 1
1435 1788 1
1450 1788 1
876 1789 1
879 1789 1
1260 1789 1
1269 1789 1
1389 1789 1
1399 1789 1
1436 1789 1
1451 1789 1
877 1790 1
880 1790 1
1261 1790 1
1270 1790 1
1390 1790 1
1400 1790 1
1437 1790 1
1452 1790 1
878 1791 1
881 1791 1
1262 1791 1
1271 1791 1
1391 1791 1
1401 1791 1
1438 1791 1
1453 1791 1
879 1792 1
882 1792 1
1263 1792 1
1272 1792 1
1392 1792 1
1402 1792 1
1439 1792 1
1454 1792 1
880 1793 1
883 1793 1
1264 1793 1
1273 1793 1
1393 1793 1
1403 1793 1
1440 1793 1
1455 1793 1
881 1794 1
884 1794 1
1265 1794 1
1274 1794 1
1394 1794 1
1404 1794 1
1441 1794 1
1456 1794 1
885 1795 1
908 1795 1
1275 1795 1
1292 1795 1
1405 1795 1
1421 1795 1
1431 1795 1
1445 1795 1
886 1796 1
909 1796 1
1276 1796 1
1293 1796 1
1406 1796 1
1422 1796 1
1432 1796 1
1446 1796 1
887 1797 1
910 1797 1
1277 1797 1
1294 1797 1
1407 1797 1
1423 1797 1
1433 1797 1
1447 1797 1
885 1798 1
888 1798 1
1278 1798 1
1295 1798 1
1408 1798 1
1424 1798 1
1434 1798 1
1448 1798 1
886 1799 1
889 1799 1
1279 1799 1
1296 1799 1
1409 1799 1
1425 1799 1
1435 1799 1
1449 1799 1
887 1800 1
890 1800 1
1280 1800 1
1297 1800 1
1410 1800 1
1426 1800 1
1436 1800 1
1450 1800 1
888 1801 1
891 1801 1
1281 1801 1
1298 1801 1
1411 1801 1
1427 1801 1
1437 1801 1
1451 1801 1
889 1802 1
892 1802 1
1282 1802 1
1299 1802 1
1412 1802 1
1428 1802 1
1438 1802 1
1452 1802 1
890 1803 1
893 1803 1
1283 1803 1
1300 1803 1
1413 1803 1
1429 1803 1
1439 1803 1
1453 1803 1
891 1804 1
894 1804 1
1275 1804 1
1284 1804 1
1414 1804 1
1430 1804 1
1440 1804 1
1454 1804 1
892 1805 1
895 1805 1
1276 1805 1
1285 1805 1
1405 1805 1
1415 1805 1
1441 1805 1
1455 1805 1
893 1806 1
896 1806 1
1277 1806 1
1286 1806 1
1406 1806 1
1416 1806 1
1442 1806 1
1456 1806 1
894 1807 1
897 1807 1
1278 1807 1
1287 1807 1
1407 1807 1
1417 1807 1
1431 1807 1
1443 1807 1
895 1808 1
898 1808 1
1279 1808 1
1288 1808 1
1408 1808 1
1418 1808 1
1432 1808 1
1444 1808 1
896 1809 1
899 1809 1
1280 1809 1
1289 1809 1
1409 1809 1
1419 1809 1
1433 1809 1
1445 1809 1
897 1810 1
900 1810 1
1281 1810 1
1290 1810 1
1410 1810 1
1420 1810 1
1434 1810 1
1446 1810 1
898 1811 1
901 1811 1
1282 1811 1
1291 1811 1
1411 1811 1
1421 1811 1
1435 1811 1
1447 1811 1
899 1812 1
902 1812 1
1283 1812 1
1292 1812 1
1412 1812 1
1422 1812 1
1436 1812 1
1448 1812 1
900 1813 1
903 1813 1
1284 1813 1
1293 1813 1
1413 1813 1
1423 1813 1
1437 1813 1
1449 1813 1
901 1814 1
904 1814 1
1285 1814 1
1294 1814 1
1414 1814 1
1424 1814 1
1438 1814 1
1450 1814 1
902 1815 1
905 1815 1
1286 1815 1
1295 1815 1
1415 1815 1
1425 1815 1
1439 1815 1
1451 1815 1
903 1816 1
906 1816 1
1287 1816 1
1296 1816 1
1416 1816 1
1426 1816 1
1440 1816 1
1452 1816 1
904 1817 1
907 1817 1
1288 1817 1
1297 1817 1
1417 1817 1
1427 1817 1
1441 1817 1
1453 1817 1
905 1818 1
908 1818 1
1289 1818 1
1298 1818 1
1418 1818 1
1428 1818 1
1442 1818 1
1454 1818 1
906 1819 1
909 1819 1
1290 1819 1
1299 1819 1
1419 1819 1
1429 1819 1
1443 1819 1
1455 1819 1
907 1820 1
910 1820 1
1291 1820 1
1300 1820 1
1420 1820 1
1430 1820 1
1444 1820 1
1456 1820 1
