%%MatrixMarket matrix coordinate integer general
% Binary matrix; one-based indices; arithmetic over GF(2)
528 792 3168
26 1 1
100 1 1
244 1 1
246 1 1
27 2 1
101 2 1
245 2 1
247 2 1
28 3 1
102 3 1
246 3 1
248 3 1
29 4 1
103 4 1
247 4 1
249 4 1
30 5 1
104 5 1
248 5 1
250 5 1
31 6 1
105 6 1
249 6 1
251 6 1
32 7 1
106 7 1
250 7 1
252 7 1
33 8 1
107 8 1
251 8 1
253 8 1
23 9 1
108 9 1
243 9 1
252 9 1
24 10 1
109 10 1
244 10 1
253 10 1
25 11 1
110 11 1
243 11 1
245 11 1
4 12 1
111 12 1
255 12 1
257 12 1
5 13 1
112 13 1
256 13 1
258 13 1
6 14 1
113 14 1
257 14 1
259 14 1
7 15 1
114 15 1
258 15 1
260 15 1
8 16 1
115 16 1
259 16 1
261 16 1
9 17 1
116 17 1
260 17 1
262 17 1
10 18 1
117 18 1
261 18 1
263 18 1
11 19 1
118 19 1
262 19 1
264 19 1
1 20 1
119 20 1
254 20 1
263 20 1
2 21 1
120 21 1
255 21 1
264 21 1
3 22 1
121 22 1
254 22 1
256 22 1
15 23 1
122 23 1
233 23 1
235 23 1
16 24 1
123 24 1
234 24 1
236 24 1
17 25 1
124 25 1
235 25 1
237 25 1
18 26 1
125 26 1
236 26 1
238 26 1
19 27 1
126 27 1
237 27 1
239 27 1
20 28 1
127 28 1
238 28 1
240 28 1
21 29 1
128 29 1
239 29 1
241 29 1
22 30 1
129 30 1
240 30 1
242 30 1
12 31 1
130 31 1
232 31 1
241 31 1
13 32 1
131 32 1
233 32 1
242 32 1
14 33 1
132 33 1
232 33 1
234 33 1
59 34 1
67 34 1
211 34 1
213 34 1
60 35 1
68 35 1
212 35 1
214 35 1
61 36 1
69 36 1
213 36 1
215 36 1
62 37 1
70 37 1
214 37 1
216 37 1
63 38 1
71 38 1
215 38 1
217 38 1
64 39 1
72 39 1
216 39 1
218 39 1
65 40 1
73 40 1
217 40 1
219 40 1
66 41 1
74 41 1
218 41 1
220 41 1
56 42 1
75 42 1
210 42 1
219 42 1
57 43 1
76 43 1
211 43 1
220 43 1
58 44 1
77 44 1
210 44 1
212 44 1
37 45 1
78 45 1
222 45 1
224 45 1
38 46 1
79 46 1
223 46 1
225 46 1
39 47 1
80 47 1
224 47 1
226 47 1
40 48 1
81 48 1
225 48 1
227 48 1
41 49 1
82 49 1
226 49 1
228 49 1
42 50 1
83 50 1
227 50 1
229 50 1
43 51 1
84 51 1
228 51 1
230 51 1
44 52 1
85 52 1
229 52 1
231 52 1
34 53 1
86 53 1
221 53 1
230 53 1
35 54 1
87 54 1
222 54 1
231 54 1
36 55 1
88 55 1
221 55 1
223 55 1
48 56 1
89 56 1
200 56 1
202 56 1
49 57 1
90 57 1
201 57 1
203 57 1
50 58 1
91 58 1
202 58 1
204 58 1
51 59 1
92 59 1
203 59 1
205 59 1
52 60 1
93 60 1
204 60 1
206 60 1
53 61 1
94 61 1
205 61 1
207 61 1
54 62 1
95 62 1
206 62 1
208 62 1
55 63 1
96 63 1
207 63 1
209 63 1
45 64 1
97 64 1
199 64 1
208 64 1
46 65 1
98 65 1
200 65 1
209 65 1
47 66 1
99 66 1
199 66 1
201 66 1
34 67 1
92 67 1
178 67 1
180 67 1
35 68 1
93 68 1
179 68 1
181 68 1
36 69 1
94 69 1
180 69 1
182 69 1
37 70 1
95 70 1
181 70 1
183 70 1
38 71 1
96 71 1
182 71 1
184 71 1
39 72 1
97 72 1
183 72 1
185 72 1
40 73 1
98 73 1
184 73 1
186 73 1
41 74 1
99 74 1
185 74 1
187 74 1
42 75 1
89 75 1
177 75 1
186 75 1
43 76 1
90 76 1
178 76 1
187 76 1
44 77 1
91 77 1
177 77 1
179 77 1
45 78 1
70 78 1
189 78 1
191 78 1
46 79 1
71 79 1
190 79 1
192 79 1
47 80 1
72 80 1
191 80 1
193 80 1
48 81 1
73 81 1
192 81 1
194 81 1
49 82 1
74 82 1
193 82 1
195 82 1
50 83 1
75 83 1
194 83 1
196 83 1
51 84 1
76 84 1
195 84 1
197 84 1
52 85 1
77 85 1
196 85 1
198 85 1
53 86 1
67 86 1
188 86 1
197 86 1
54 87 1
68 87 1
189 87 1
198 87 1
55 88 1
69 88 1
188 88 1
190 88 1
56 89 1
81 89 1
167 89 1
169 89 1
57 90 1
82 90 1
168 90 1
170 90 1
58 91 1
83 91 1
169 91 1
171 91 1
59 92 1
84 92 1
170 92 1
172 92 1
60 93 1
85 93 1
171 93 1
173 93 1
61 94 1
86 94 1
172 94 1
174 94 1
62 95 1
87 95 1
173 95 1
175 95 1
63 96 1
88 96 1
174 96 1
176 96 1
64 97 1
78 97 1
166 97 1
175 97 1
65 98 1
79 98 1
167 98 1
176 98 1
66 99 1
80 99 1
166 99 1
168 99 1
1 100 1
125 100 1
145 100 1
147 100 1
2 101 1
126 101 1
146 101 1
148 101 1
3 102 1
127 102 1
147 102 1
149 102 1
4 103 1
128 103 1
148 103 1
150 103 1
5 104 1
129 104 1
149 104 1
151 104 1
6 105 1
130 105 1
150 105 1
152 105 1
7 106 1
131 106 1
151 106 1
153 106 1
8 107 1
132 107 1
152 107 1
154 107 1
9 108 1
122 108 1
144 108 1
153 108 1
10 109 1
123 109 1
145 109 1
154 109 1
11 110 1
124 110 1
144 110 1
146 110 1
12 111 1
103 111 1
156 111 1
158 111 1
13 112 1
104 112 1
157 112 1
159 112 1
14 113 1
105 113 1
158 113 1
160 113 1
15 114 1
106 114 1
159 114 1
161 114 1
16 115 1
107 115 1
160 115 1
162 115 1
17 116 1
108 116 1
161 116 1
163 116 1
18 117 1
109 117 1
162 117 1
164 117 1
19 118 1
110 118 1
163 118 1
165 118 1
20 119 1
100 119 1
155 119 1
164 119 1
21 120 1
101 120 1
156 120 1
165 120 1
22 121 1
102 121 1
155 121 1
157 121 1
23 122 1
114 122 1
134 122 1
136 122 1
24 123 1
115 123 1
135 123 1
137 123 1
25 124 1
116 124 1
136 124 1
138 124 1
26 125 1
117 125 1
137 125 1
139 125 1
27 126 1
118 126 1
138 126 1
140 126 1
28 127 1
119 127 1
139 127 1
141 127 1
29 128 1
120 128 1
140 128 1
142 128 1
30 129 1
121 129 1
141 129 1
143 129 1
31 130 1
111 130 1
133 130 1
142 130 1
32 131 1
112 131 1
134 131 1
143 131 1
33 132 1
113 132 1
133 132 1
135 132 1
33 133 1
120 133 1
376 133 1
378 133 1
23 134 1
121 134 1
377 134 1
379 134 1
24 135 1
111 135 1
378 135 1
380 135 1
25 136 1
112 136 1
379 136 1
381 136 1
26 137 1
113 137 1
380 137 1
382 137 1
27 138 1
114 138 1
381 138 1
383 138 1
28 139 1
115 139 1
382 139 1
384 139 1
29 140 1
116 140 1
383 140 1
385 140 1
30 141 1
117 141 1
375 141 1
384 141 1
31 142 1
118 142 1
376 142 1
385 142 1
32 143 1
119 143 1
375 143 1
377 143 1
11 144 1
131 144 1
387 144 1
389 144 1
1 145 1
132 145 1
388 145 1
390 145 1
2 146 1
122 146 1
389 146 1
391 146 1
3 147 1
123 147 1
390 147 1
392 147 1
4 148 1
124 148 1
391 148 1
393 148 1
5 149 1
125 149 1
392 149 1
394 149 1
6 150 1
126 150 1
393 150 1
395 150 1
7 151 1
127 151 1
394 151 1
396 151 1
8 152 1
128 152 1
386 152 1
395 152 1
9 153 1
129 153 1
387 153 1
396 153 1
10 154 1
130 154 1
386 154 1
388 154 1
22 155 1
109 155 1
365 155 1
367 155 1
12 156 1
110 156 1
366 156 1
368 156 1
13 157 1
100 157 1
367 157 1
369 157 1
14 158 1
101 158 1
368 158 1
370 158 1
15 159 1
102 159 1
369 159 1
371 159 1
16 160 1
103 160 1
370 160 1
372 160 1
17 161 1
104 161 1
371 161 1
373 161 1
18 162 1
105 162 1
372 162 1
374 162 1
19 163 1
106 163 1
364 163 1
373 163 1
20 164 1
107 164 1
365 164 1
374 164 1
21 165 1
108 165 1
364 165 1
366 165 1
66 166 1
87 166 1
343 166 1
345 166 1
56 167 1
88 167 1
344 167 1
346 167 1
57 168 1
78 168 1
345 168 1
347 168 1
58 169 1
79 169 1
346 169 1
348 169 1
59 170 1
80 170 1
347 170 1
349 170 1
60 171 1
81 171 1
348 171 1
350 171 1
61 172 1
82 172 1
349 172 1
351 172 1
62 173 1
83 173 1
350 173 1
352 173 1
63 174 1
84 174 1
342 174 1
351 174 1
64 175 1
85 175 1
343 175 1
352 175 1
65 176 1
86 176 1
342 176 1
344 176 1
44 177 1
98 177 1
354 177 1
356 177 1
34 178 1
99 178 1
355 178 1
357 178 1
35 179 1
89 179 1
356 179 1
358 179 1
36 180 1
90 180 1
357 180 1
359 180 1
37 181 1
91 181 1
358 181 1
360 181 1
38 182 1
92 182 1
359 182 1
361 182 1
39 183 1
93 183 1
360 183 1
362 183 1
40 184 1
94 184 1
361 184 1
363 184 1
41 185 1
95 185 1
353 185 1
362 185 1
42 186 1
96 186 1
354 186 1
363 186 1
43 187 1
97 187 1
353 187 1
355 187 1
55 188 1
76 188 1
332 188 1
334 188 1
45 189 1
77 189 1
333 189 1
335 189 1
46 190 1
67 190 1
334 190 1
336 190 1
47 191 1
68 191 1
335 191 1
337 191 1
48 192 1
69 192 1
336 192 1
338 192 1
49 193 1
70 193 1
337 193 1
339 193 1
50 194 1
71 194 1
338 194 1
340 194 1
51 195 1
72 195 1
339 195 1
341 195 1
52 196 1
73 196 1
331 196 1
340 196 1
53 197 1
74 197 1
332 197 1
341 197 1
54 198 1
75 198 1
331 198 1
333 198 1
54 199 1
99 199 1
310 199 1
312 199 1
55 200 1
89 200 1
311 200 1
313 200 1
45 201 1
90 201 1
312 201 1
314 201 1
46 202 1
91 202 1
313 202 1
315 202 1
47 203 1
92 203 1
314 203 1
316 203 1
48 204 1
93 204 1
315 204 1
317 204 1
49 205 1
94 205 1
316 205 1
318 205 1
50 206 1
95 206 1
317 206 1
319 206 1
51 207 1
96 207 1
309 207 1
318 207 1
52 208 1
97 208 1
310 208 1
319 208 1
53 209 1
98 209 1
309 209 1
311 209 1
65 210 1
77 210 1
321 210 1
323 210 1
66 211 1
67 211 1
322 211 1
324 211 1
56 212 1
68 212 1
323 212 1
325 212 1
57 213 1
69 213 1
324 213 1
326 213 1
58 214 1
70 214 1
325 214 1
327 214 1
59 215 1
71 215 1
326 215 1
328 215 1
60 216 1
72 216 1
327 216 1
329 216 1
61 217 1
73 217 1
328 217 1
330 217 1
62 218 1
74 218 1
320 218 1
329 218 1
63 219 1
75 219 1
321 219 1
330 219 1
64 220 1
76 220 1
320 220 1
322 220 1
43 221 1
88 221 1
299 221 1
301 221 1
44 222 1
78 222 1
300 222 1
302 222 1
34 223 1
79 223 1
301 223 1
303 223 1
35 224 1
80 224 1
302 224 1
304 224 1
36 225 1
81 225 1
303 225 1
305 225 1
37 226 1
82 226 1
304 226 1
306 226 1
38 227 1
83 227 1
305 227 1
307 227 1
39 228 1
84 228 1
306 228 1
308 228 1
40 229 1
85 229 1
298 229 1
307 229 1
41 230 1
86 230 1
299 230 1
308 230 1
42 231 1
87 231 1
298 231 1
300 231 1
21 232 1
132 232 1
277 232 1
279 232 1
22 233 1
122 233 1
278 233 1
280 233 1
12 234 1
123 234 1
279 234 1
281 234 1
13 235 1
124 235 1
280 235 1
282 235 1
14 236 1
125 236 1
281 236 1
283 236 1
15 237 1
126 237 1
282 237 1
284 237 1
16 238 1
127 238 1
283 238 1
285 238 1
17 239 1
128 239 1
284 239 1
286 239 1
18 240 1
129 240 1
276 240 1
285 240 1
19 241 1
130 241 1
277 241 1
286 241 1
20 242 1
131 242 1
276 242 1
278 242 1
32 243 1
110 243 1
288 243 1
290 243 1
33 244 1
100 244 1
289 244 1
291 244 1
23 245 1
101 245 1
290 245 1
292 245 1
24 246 1
102 246 1
291 246 1
293 246 1
25 247 1
103 247 1
292 247 1
294 247 1
26 248 1
104 248 1
293 248 1
295 248 1
27 249 1
105 249 1
294 249 1
296 249 1
28 250 1
106 250 1
295 250 1
297 250 1
29 251 1
107 251 1
287 251 1
296 251 1
30 252 1
108 252 1
288 252 1
297 252 1
31 253 1
109 253 1
287 253 1
289 253 1
10 254 1
121 254 1
266 254 1
268 254 1
11 255 1
111 255 1
267 255 1
269 255 1
1 256 1
112 256 1
268 256 1
270 256 1
2 257 1
113 257 1
269 257 1
271 257 1
3 258 1
114 258 1
270 258 1
272 258 1
4 259 1
115 259 1
271 259 1
273 259 1
5 260 1
116 260 1
272 260 1
274 260 1
6 261 1
117 261 1
273 261 1
275 261 1
7 262 1
118 262 1
265 262 1
274 262 1
8 263 1
119 263 1
266 263 1
275 263 1
9 264 1
120 264 1
265 264 1
267 264 1
61 265 1
72 265 1
508 265 1
510 265 1
62 266 1
73 266 1
509 266 1
511 266 1
63 267 1
74 267 1
510 267 1
512 267 1
64 268 1
75 268 1
511 268 1
513 268 1
65 269 1
76 269 1
512 269 1
514 269 1
66 270 1
77 270 1
513 270 1
515 270 1
56 271 1
67 271 1
514 271 1
516 271 1
57 272 1
68 272 1
515 272 1
517 272 1
58 273 1
69 273 1
507 273 1
516 273 1
59 274 1
70 274 1
508 274 1
517 274 1
60 275 1
71 275 1
507 275 1
509 275 1
39 276 1
83 276 1
519 276 1
521 276 1
40 277 1
84 277 1
520 277 1
522 277 1
41 278 1
85 278 1
521 278 1
523 278 1
42 279 1
86 279 1
522 279 1
524 279 1
43 280 1
87 280 1
523 280 1
525 280 1
44 281 1
88 281 1
524 281 1
526 281 1
34 282 1
78 282 1
525 282 1
527 282 1
35 283 1
79 283 1
526 283 1
528 283 1
36 284 1
80 284 1
518 284 1
527 284 1
37 285 1
81 285 1
519 285 1
528 285 1
38 286 1
82 286 1
518 286 1
520 286 1
50 287 1
94 287 1
497 287 1
499 287 1
51 288 1
95 288 1
498 288 1
500 288 1
52 289 1
96 289 1
499 289 1
501 289 1
53 290 1
97 290 1
500 290 1
502 290 1
54 291 1
98 291 1
501 291 1
503 291 1
55 292 1
99 292 1
502 292 1
504 292 1
45 293 1
89 293 1
503 293 1
505 293 1
46 294 1
90 294 1
504 294 1
506 294 1
47 295 1
91 295 1
496 295 1
505 295 1
48 296 1
92 296 1
497 296 1
506 296 1
49 297 1
93 297 1
496 297 1
498 297 1
28 298 1
105 298 1
475 298 1
477 298 1
29 299 1
106 299 1
476 299 1
478 299 1
30 300 1
107 300 1
477 300 1
479 300 1
31 301 1
108 301 1
478 301 1
480 301 1
32 302 1
109 302 1
479 302 1
481 302 1
33 303 1
110 303 1
480 303 1
482 303 1
23 304 1
100 304 1
481 304 1
483 304 1
24 305 1
101 305 1
482 305 1
484 305 1
25 306 1
102 306 1
474 306 1
483 306 1
26 307 1
103 307 1
475 307 1
484 307 1
27 308 1
104 308 1
474 308 1
476 308 1
6 309 1
116 309 1
486 309 1
488 309 1
7 310 1
117 310 1
487 310 1
489 310 1
8 311 1
118 311 1
488 311 1
490 311 1
9 312 1
119 312 1
489 312 1
491 312 1
10 313 1
120 313 1
490 313 1
492 313 1
11 314 1
121 314 1
491 314 1
493 314 1
1 315 1
111 315 1
492 315 1
494 315 1
2 316 1
112 316 1
493 316 1
495 316 1
3 317 1
113 317 1
485 317 1
494 317 1
4 318 1
114 318 1
486 318 1
495 318 1
5 319 1
115 319 1
485 319 1
487 319 1
17 320 1
127 320 1
464 320 1
466 320 1
18 321 1
128 321 1
465 321 1
467 321 1
19 322 1
129 322 1
466 322 1
468 322 1
20 323 1
130 323 1
467 323 1
469 323 1
21 324 1
131 324 1
468 324 1
470 324 1
22 325 1
132 325 1
469 325 1
471 325 1
12 326 1
122 326 1
470 326 1
472 326 1
13 327 1
123 327 1
471 327 1
473 327 1
14 328 1
124 328 1
463 328 1
472 328 1
15 329 1
125 329 1
464 329 1
473 329 1
16 330 1
126 330 1
463 330 1
465 330 1
6 331 1
127 331 1
442 331 1
444 331 1
7 332 1
128 332 1
443 332 1
445 332 1
8 333 1
129 333 1
444 333 1
446 333 1
9 334 1
130 334 1
445 334 1
447 334 1
10 335 1
131 335 1
446 335 1
448 335 1
11 336 1
132 336 1
447 336 1
449 336 1
1 337 1
122 337 1
448 337 1
450 337 1
2 338 1
123 338 1
449 338 1
451 338 1
3 339 1
124 339 1
441 339 1
450 339 1
4 340 1
125 340 1
442 340 1
451 340 1
5 341 1
126 341 1
441 341 1
443 341 1
17 342 1
105 342 1
453 342 1
455 342 1
18 343 1
106 343 1
454 343 1
456 343 1
19 344 1
107 344 1
455 344 1
457 344 1
20 345 1
108 345 1
456 345 1
458 345 1
21 346 1
109 346 1
457 346 1
459 346 1
22 347 1
110 347 1
458 347 1
460 347 1
12 348 1
100 348 1
459 348 1
461 348 1
13 349 1
101 349 1
460 349 1
462 349 1
14 350 1
102 350 1
452 350 1
461 350 1
15 351 1
103 351 1
453 351 1
462 351 1
16 352 1
104 352 1
452 352 1
454 352 1
28 353 1
116 353 1
431 353 1
433 353 1
29 354 1
117 354 1
432 354 1
434 354 1
30 355 1
118 355 1
433 355 1
435 355 1
31 356 1
119 356 1
434 356 1
436 356 1
32 357 1
120 357 1
435 357 1
437 357 1
33 358 1
121 358 1
436 358 1
438 358 1
23 359 1
111 359 1
437 359 1
439 359 1
24 360 1
112 360 1
438 360 1
440 360 1
25 361 1
113 361 1
430 361 1
439 361 1
26 362 1
114 362 1
431 362 1
440 362 1
27 363 1
115 363 1
430 363 1
432 363 1
39 364 1
94 364 1
409 364 1
411 364 1
40 365 1
95 365 1
410 365 1
412 365 1
41 366 1
96 366 1
411 366 1
413 366 1
42 367 1
97 367 1
412 367 1
414 367 1
43 368 1
98 368 1
413 368 1
415 368 1
44 369 1
99 369 1
414 369 1
416 369 1
34 370 1
89 370 1
415 370 1
417 370 1
35 371 1
90 371 1
416 371 1
418 371 1
36 372 1
91 372 1
408 372 1
417 372 1
37 373 1
92 373 1
409 373 1
418 373 1
38 374 1
93 374 1
408 374 1
410 374 1
50 375 1
72 375 1
420 375 1
422 375 1
51 376 1
73 376 1
421 376 1
423 376 1
52 377 1
74 377 1
422 377 1
424 377 1
53 378 1
75 378 1
423 378 1
425 378 1
54 379 1
76 379 1
424 379 1
426 379 1
55 380 1
77 380 1
425 380 1
427 380 1
45 381 1
67 381 1
426 381 1
428 381 1
46 382 1
68 382 1
427 382 1
429 382 1
47 383 1
69 383 1
419 383 1
428 383 1
48 384 1
70 384 1
420 384 1
429 384 1
49 385 1
71 385 1
419 385 1
421 385 1
61 386 1
83 386 1
398 386 1
400 386 1
62 387 1
84 387 1
399 387 1
401 387 1
63 388 1
85 388 1
400 388 1
402 388 1
64 389 1
86 389 1
401 389 1
403 389 1
65 390 1
87 390 1
402 390 1
404 390 1
66 391 1
88 391 1
403 391 1
405 391 1
56 392 1
78 392 1
404 392 1
406 392 1
57 393 1
79 393 1
405 393 1
407 393 1
58 394 1
80 394 1
397 394 1
406 394 1
59 395 1
81 395 1
398 395 1
407 395 1
60 396 1
82 396 1
397 396 1
399 396 1
165 397 1
252 397 1
290 397 1
364 397 1
155 398 1
253 398 1
291 398 1
365 398 1
156 399 1
243 399 1
292 399 1
366 399 1
157 400 1
244 400 1
293 400 1
367 400 1
158 401 1
245 401 1
294 401 1
368 401 1
159 402 1
246 402 1
295 402 1
369 402 1
160 403 1
247 403 1
296 403 1
370 403 1
161 404 1
248 404 1
297 404 1
371 404 1
162 405 1
249 405 1
287 405 1
372 405 1
163 406 1
250 406 1
288 406 1
373 406 1
164 407 1
251 407 1
289 407 1
374 407 1
143 408 1
263 408 1
268 408 1
375 408 1
133 409 1
264 409 1
269 409 1
376 409 1
134 410 1
254 410 1
270 410 1
377 410 1
135 411 1
255 411 1
271 411 1
378 411 1
136 412 1
256 412 1
272 412 1
379 412 1
137 413 1
257 413 1
273 413 1
380 413 1
138 414 1
258 414 1
274 414 1
381 414 1
139 415 1
259 415 1
275 415 1
382 415 1
140 416 1
260 416 1
265 416 1
383 416 1
141 417 1
261 417 1
266 417 1
384 417 1
142 418 1
262 418 1
267 418 1
385 418 1
154 419 1
241 419 1
279 419 1
386 419 1
144 420 1
242 420 1
280 420 1
387 420 1
145 421 1
232 421 1
281 421 1
388 421 1
146 422 1
233 422 1
282 422 1
389 422 1
147 423 1
234 423 1
283 423 1
390 423 1
148 424 1
235 424 1
284 424 1
391 424 1
149 425 1
236 425 1
285 425 1
392 425 1
150 426 1
237 426 1
286 426 1
393 426 1
151 427 1
238 427 1
276 427 1
394 427 1
152 428 1
239 428 1
277 428 1
395 428 1
153 429 1
240 429 1
278 429 1
396 429 1
198 430 1
219 430 1
323 430 1
331 430 1
188 431 1
220 431 1
324 431 1
332 431 1
189 432 1
210 432 1
325 432 1
333 432 1
190 433 1
211 433 1
326 433 1
334 433 1
191 434 1
212 434 1
327 434 1
335 434 1
192 435 1
213 435 1
328 435 1
336 435 1
193 436 1
214 436 1
329 436 1
337 436 1
194 437 1
215 437 1
330 437 1
338 437 1
195 438 1
216 438 1
320 438 1
339 438 1
196 439 1
217 439 1
321 439 1
340 439 1
197 440 1
218 440 1
322 440 1
341 440 1
176 441 1
230 441 1
301 441 1
342 441 1
166 442 1
231 442 1
302 442 1
343 442 1
167 443 1
221 443 1
303 443 1
344 443 1
168 444 1
222 444 1
304 444 1
345 444 1
169 445 1
223 445 1
305 445 1
346 445 1
170 446 1
224 446 1
306 446 1
347 446 1
171 447 1
225 447 1
307 447 1
348 447 1
172 448 1
226 448 1
308 448 1
349 448 1
173 449 1
227 449 1
298 449 1
350 449 1
174 450 1
228 450 1
299 450 1
351 450 1
175 451 1
229 451 1
300 451 1
352 451 1
187 452 1
208 452 1
312 452 1
353 452 1
177 453 1
209 453 1
313 453 1
354 453 1
178 454 1
199 454 1
314 454 1
355 454 1
179 455 1
200 455 1
315 455 1
356 455 1
180 456 1
201 456 1
316 456 1
357 456 1
181 457 1
202 457 1
317 457 1
358 457 1
182 458 1
203 458 1
318 458 1
359 458 1
183 459 1
204 459 1
319 459 1
360 459 1
184 460 1
205 460 1
309 460 1
361 460 1
185 461 1
206 461 1
310 461 1
362 461 1
186 462 1
207 462 1
311 462 1
363 462 1
186 463 1
231 463 1
298 463 1
356 463 1
187 464 1
221 464 1
299 464 1
357 464 1
177 465 1
222 465 1
300 465 1
358 465 1
178 466 1
223 466 1
301 466 1
359 466 1
179 467 1
224 467 1
302 467 1
360 467 1
180 468 1
225 468 1
303 468 1
361 468 1
181 469 1
226 469 1
304 469 1
362 469 1
182 470 1
227 470 1
305 470 1
363 470 1
183 471 1
228 471 1
306 471 1
353 471 1
184 472 1
229 472 1
307 472 1
354 472 1
185 473 1
230 473 1
308 473 1
355 473 1
197 474 1
209 474 1
309 474 1
334 474 1
198 475 1
199 475 1
310 475 1
335 475 1
188 476 1
200 476 1
311 476 1
336 476 1
189 477 1
201 477 1
312 477 1
337 477 1
190 478 1
202 478 1
313 478 1
338 478 1
191 479 1
203 479 1
314 479 1
339 479 1
192 480 1
204 480 1
315 480 1
340 480 1
193 481 1
205 481 1
316 481 1
341 481 1
194 482 1
206 482 1
317 482 1
331 482 1
195 483 1
207 483 1
318 483 1
332 483 1
196 484 1
208 484 1
319 484 1
333 484 1
175 485 1
220 485 1
320 485 1
345 485 1
176 486 1
210 486 1
321 486 1
346 486 1
166 487 1
211 487 1
322 487 1
347 487 1
167 488 1
212 488 1
323 488 1
348 488 1
168 489 1
213 489 1
324 489 1
349 489 1
169 490 1
214 490 1
325 490 1
350 490 1
170 491 1
215 491 1
326 491 1
351 491 1
171 492 1
216 492 1
327 492 1
352 492 1
172 493 1
217 493 1
328 493 1
342 493 1
173 494 1
218 494 1
329 494 1
343 494 1
174 495 1
219 495 1
330 495 1
344 495 1
153 496 1
264 496 1
265 496 1
389 496 1
154 497 1
254 497 1
266 497 1
390 497 1
144 498 1
255 498 1
267 498 1
391 498 1
145 499 1
256 499 1
268 499 1
392 499 1
146 500 1
257 500 1
269 500 1
393 500 1
147 501 1
258 501 1
270 501 1
394 501 1
148 502 1
259 502 1
271 502 1
395 502 1
149 503 1
260 503 1
272 503 1
396 503 1
150 504 1
261 504 1
273 504 1
386 504 1
151 505 1
262 505 1
274 505 1
387 505 1
152 506 1
263 506 1
275 506 1
388 506 1
164 507 1
242 507 1
276 507 1
367 507 1
165 508 1
232 508 1
277 508 1
368 508 1
155 509 1
233 509 1
278 509 1
369 509 1
156 510 1
234 510 1
279 510 1
370 510 1
157 511 1
235 511 1
280 511 1
371 511 1
158 512 1
236 512 1
281 512 1
372 512 1
159 513 1
237 513 1
282 513 1
373 513 1
160 514 1
238 514 1
283 514 1
374 514 1
161 515 1
239 515 1
284 515 1
364 515 1
162 516 1
240 516 1
285 516 1
365 516 1
163 517 1
241 517 1
286 517 1
366 517 1
142 518 1
253 518 1
287 518 1
378 518 1
143 519 1
243 519 1
288 519 1
379 519 1
133 520 1
244 520 1
289 520 1
380 520 1
134 521 1
245 521 1
290 521 1
381 521 1
135 522 1
246 522 1
291 522 1
382 522 1
136 523 1
247 523 1
292 523 1
383 523 1
137 524 1
248 524 1
293 524 1
384 524 1
138 525 1
249 525 1
294 525 1
385 525 1
139 526 1
250 526 1
295 526 1
375 526 1
140 527 1
251 527 1
296 527 1
376 527 1
141 528 1
252 528 1
297 528 1
377 528 1
193 529 1
204 529 1
422 529 1
496 529 1
194 530 1
205 530 1
423 530 1
497 530 1
195 531 1
206 531 1
424 531 1
498 531 1
196 532 1
207 532 1
425 532 1
499 532 1
197 533 1
208 533 1
426 533 1
500 533 1
198 534 1
209 534 1
427 534 1
501 534 1
188 535 1
199 535 1
428 535 1
502 535 1
189 536 1
200 536 1
429 536 1
503 536 1
190 537 1
201 537 1
419 537 1
504 537 1
191 538 1
202 538 1
420 538 1
505 538 1
192 539 1
203 539 1
421 539 1
506 539 1
171 540 1
215 540 1
400 540 1
507 540 1
172 541 1
216 541 1
401 541 1
508 541 1
173 542 1
217 542 1
402 542 1
509 542 1
174 543 1
218 543 1
403 543 1
510 543 1
175 544 1
219 544 1
404 544 1
511 544 1
176 545 1
220 545 1
405 545 1
512 545 1
166 546 1
210 546 1
406 546 1
513 546 1
167 547 1
211 547 1
407 547 1
514 547 1
168 548 1
212 548 1
397 548 1
515 548 1
169 549 1
213 549 1
398 549 1
516 549 1
170 550 1
214 550 1
399 550 1
517 550 1
182 551 1
226 551 1
411 551 1
518 551 1
183 552 1
227 552 1
412 552 1
519 552 1
184 553 1
228 553 1
413 553 1
520 553 1
185 554 1
229 554 1
414 554 1
521 554 1
186 555 1
230 555 1
415 555 1
522 555 1
187 556 1
231 556 1
416 556 1
523 556 1
177 557 1
221 557 1
417 557 1
524 557 1
178 558 1
222 558 1
418 558 1
525 558 1
179 559 1
223 559 1
408 559 1
526 559 1
180 560 1
224 560 1
409 560 1
527 560 1
181 561 1
225 561 1
410 561 1
528 561 1
160 562 1
237 562 1
455 562 1
463 562 1
161 563 1
238 563 1
456 563 1
464 563 1
162 564 1
239 564 1
457 564 1
465 564 1
163 565 1
240 565 1
458 565 1
466 565 1
164 566 1
241 566 1
459 566 1
467 566 1
165 567 1
242 567 1
460 567 1
468 567 1
155 568 1
232 568 1
461 568 1
469 568 1
156 569 1
233 569 1
462 569 1
470 569 1
157 570 1
234 570 1
452 570 1
471 570 1
158 571 1
235 571 1
453 571 1
472 571 1
159 572 1
236 572 1
454 572 1
473 572 1
138 573 1
248 573 1
433 573 1
474 573 1
139 574 1
249 574 1
434 574 1
475 574 1
140 575 1
250 575 1
435 575 1
476 575 1
141 576 1
251 576 1
436 576 1
477 576 1
142 577 1
252 577 1
437 577 1
478 577 1
143 578 1
253 578 1
438 578 1
479 578 1
133 579 1
243 579 1
439 579 1
480 579 1
134 580 1
244 580 1
440 580 1
481 580 1
135 581 1
245 581 1
430 581 1
482 581 1
136 582 1
246 582 1
431 582 1
483 582 1
137 583 1
247 583 1
432 583 1
484 583 1
149 584 1
259 584 1
444 584 1
485 584 1
150 585 1
260 585 1
445 585 1
486 585 1
151 586 1
261 586 1
446 586 1
487 586 1
152 587 1
262 587 1
447 587 1
488 587 1
153 588 1
263 588 1
448 588 1
489 588 1
154 589 1
264 589 1
449 589 1
490 589 1
144 590 1
254 590 1
450 590 1
491 590 1
145 591 1
255 591 1
451 591 1
492 591 1
146 592 1
256 592 1
441 592 1
493 592 1
147 593 1
257 593 1
442 593 1
494 593 1
148 594 1
258 594 1
443 594 1
495 594 1
138 595 1
259 595 1
430 595 1
488 595 1
139 596 1
260 596 1
431 596 1
489 596 1
140 597 1
261 597 1
432 597 1
490 597 1
141 598 1
262 598 1
433 598 1
491 598 1
142 599 1
263 599 1
434 599 1
492 599 1
143 600 1
264 600 1
435 600 1
493 600 1
133 601 1
254 601 1
436 601 1
494 601 1
134 602 1
255 602 1
437 602 1
495 602 1
135 603 1
256 603 1
438 603 1
485 603 1
136 604 1
257 604 1
439 604 1
486 604 1
137 605 1
258 605 1
440 605 1
487 605 1
149 606 1
237 606 1
441 606 1
466 606 1
150 607 1
238 607 1
442 607 1
467 607 1
151 608 1
239 608 1
443 608 1
468 608 1
152 609 1
240 609 1
444 609 1
469 609 1
153 610 1
241 610 1
445 610 1
470 610 1
154 611 1
242 611 1
446 611 1
471 611 1
144 612 1
232 612 1
447 612 1
472 612 1
145 613 1
233 613 1
448 613 1
473 613 1
146 614 1
234 614 1
449 614 1
463 614 1
147 615 1
235 615 1
450 615 1
464 615 1
148 616 1
236 616 1
451 616 1
465 616 1
160 617 1
248 617 1
452 617 1
477 617 1
161 618 1
249 618 1
453 618 1
478 618 1
162 619 1
250 619 1
454 619 1
479 619 1
163 620 1
251 620 1
455 620 1
480 620 1
164 621 1
252 621 1
456 621 1
481 621 1
165 622 1
253 622 1
457 622 1
482 622 1
155 623 1
243 623 1
458 623 1
483 623 1
156 624 1
244 624 1
459 624 1
484 624 1
157 625 1
245 625 1
460 625 1
474 625 1
158 626 1
246 626 1
461 626 1
475 626 1
159 627 1
247 627 1
462 627 1
476 627 1
171 628 1
226 628 1
397 628 1
521 628 1
172 629 1
227 629 1
398 629 1
522 629 1
173 630 1
228 630 1
399 630 1
523 630 1
174 631 1
229 631 1
400 631 1
524 631 1
175 632 1
230 632 1
401 632 1
525 632 1
176 633 1
231 633 1
402 633 1
526 633 1
166 634 1
221 634 1
403 634 1
527 634 1
167 635 1
222 635 1
404 635 1
528 635 1
168 636 1
223 636 1
405 636 1
518 636 1
169 637 1
224 637 1
406 637 1
519 637 1
170 638 1
225 638 1
407 638 1
520 638 1
182 639 1
204 639 1
408 639 1
499 639 1
183 640 1
205 640 1
409 640 1
500 640 1
184 641 1
206 641 1
410 641 1
501 641 1
185 642 1
207 642 1
411 642 1
502 642 1
186 643 1
208 643 1
412 643 1
503 643 1
187 644 1
209 644 1
413 644 1
504 644 1
177 645 1
199 645 1
414 645 1
505 645 1
178 646 1
200 646 1
415 646 1
506 646 1
179 647 1
201 647 1
416 647 1
496 647 1
180 648 1
202 648 1
417 648 1
497 648 1
181 649 1
203 649 1
418 649 1
498 649 1
193 650 1
215 650 1
419 650 1
510 650 1
194 651 1
216 651 1
420 651 1
511 651 1
195 652 1
217 652 1
421 652 1
512 652 1
196 653 1
218 653 1
422 653 1
513 653 1
197 654 1
219 654 1
423 654 1
514 654 1
198 655 1
220 655 1
424 655 1
515 655 1
188 656 1
210 656 1
425 656 1
516 656 1
189 657 1
211 657 1
426 657 1
517 657 1
190 658 1
212 658 1
427 658 1
507 658 1
191 659 1
213 659 1
428 659 1
508 659 1
192 660 1
214 660 1
429 660 1
509 660 1
325 661 1
336 661 1
429 661 1
516 661 1
326 662 1
337 662 1
419 662 1
517 662 1
327 663 1
338 663 1
420 663 1
507 663 1
328 664 1
339 664 1
421 664 1
508 664 1
329 665 1
340 665 1
422 665 1
509 665 1
330 666 1
341 666 1
423 666 1
510 666 1
320 667 1
331 667 1
424 667 1
511 667 1
321 668 1
332 668 1
425 668 1
512 668 1
322 669 1
333 669 1
426 669 1
513 669 1
323 670 1
334 670 1
427 670 1
514 670 1
324 671 1
335 671 1
428 671 1
515 671 1
303 672 1
347 672 1
407 672 1
527 672 1
304 673 1
348 673 1
397 673 1
528 673 1
305 674 1
349 674 1
398 674 1
518 674 1
306 675 1
350 675 1
399 675 1
519 675 1
307 676 1
351 676 1
400 676 1
520 676 1
308 677 1
352 677 1
401 677 1
521 677 1
298 678 1
342 678 1
402 678 1
522 678 1
299 679 1
343 679 1
403 679 1
523 679 1
300 680 1
344 680 1
404 680 1
524 680 1
301 681 1
345 681 1
405 681 1
525 681 1
302 682 1
346 682 1
406 682 1
526 682 1
314 683 1
358 683 1
418 683 1
505 683 1
315 684 1
359 684 1
408 684 1
506 684 1
316 685 1
360 685 1
409 685 1
496 685 1
317 686 1
361 686 1
410 686 1
497 686 1
318 687 1
362 687 1
411 687 1
498 687 1
319 688 1
363 688 1
412 688 1
499 688 1
309 689 1
353 689 1
413 689 1
500 689 1
310 690 1
354 690 1
414 690 1
501 690 1
311 691 1
355 691 1
415 691 1
502 691 1
312 692 1
356 692 1
416 692 1
503 692 1
313 693 1
357 693 1
417 693 1
504 693 1
292 694 1
369 694 1
462 694 1
483 694 1
293 695 1
370 695 1
452 695 1
484 695 1
294 696 1
371 696 1
453 696 1
474 696 1
295 697 1
372 697 1
454 697 1
475 697 1
296 698 1
373 698 1
455 698 1
476 698 1
297 699 1
374 699 1
456 699 1
477 699 1
287 700 1
364 700 1
457 700 1
478 700 1
288 701 1
365 701 1
458 701 1
479 701 1
289 702 1
366 702 1
459 702 1
480 702 1
290 703 1
367 703 1
460 703 1
481 703 1
291 704 1
368 704 1
461 704 1
482 704 1
270 705 1
380 705 1
440 705 1
494 705 1
271 706 1
381 706 1
430 706 1
495 706 1
272 707 1
382 707 1
431 707 1
485 707 1
273 708 1
383 708 1
432 708 1
486 708 1
274 709 1
384 709 1
433 709 1
487 709 1
275 710 1
385 710 1
434 710 1
488 710 1
265 711 1
375 711 1
435 711 1
489 711 1
266 712 1
376 712 1
436 712 1
490 712 1
267 713 1
377 713 1
437 713 1
491 713 1
268 714 1
378 714 1
438 714 1
492 714 1
269 715 1
379 715 1
439 715 1
493 715 1
281 716 1
391 716 1
451 716 1
472 716 1
282 717 1
392 717 1
441 717 1
473 717 1
283 718 1
393 718 1
442 718 1
463 718 1
284 719 1
394 719 1
443 719 1
464 719 1
285 720 1
395 720 1
444 720 1
465 720 1
286 721 1
396 721 1
445 721 1
466 721 1
276 722 1
386 722 1
446 722 1
467 722 1
277 723 1
387 723 1
447 723 1
468 723 1
278 724 1
388 724 1
448 724 1
469 724 1
279 725 1
389 725 1
449 725 1
470 725 1
280 726 1
390 726 1
450 726 1
471 726 1
270 727 1
391 727 1
450 727 1
495 727 1
271 728 1
392 728 1
451 728 1
485 728 1
272 729 1
393 729 1
441 729 1
486 729 1
273 730 1
394 730 1
442 730 1
487 730 1
274 731 1
395 731 1
443 731 1
488 731 1
275 732 1
396 732 1
444 732 1
489 732 1
265 733 1
386 733 1
445 733 1
490 733 1
266 734 1
387 734 1
446 734 1
491 734 1
267 735 1
388 735 1
447 735 1
492 735 1
268 736 1
389 736 1
448 736 1
493 736 1
269 737 1
390 737 1
449 737 1
494 737 1
281 738 1
369 738 1
461 738 1
473 738 1
282 739 1
370 739 1
462 739 1
463 739 1
283 740 1
371 740 1
452 740 1
464 740 1
284 741 1
372 741 1
453 741 1
465 741 1
285 742 1
373 742 1
454 742 1
466 742 1
286 743 1
374 743 1
455 743 1
467 743 1
276 744 1
364 744 1
456 744 1
468 744 1
277 745 1
365 745 1
457 745 1
469 745 1
278 746 1
366 746 1
458 746 1
470 746 1
279 747 1
367 747 1
459 747 1
471 747 1
280 748 1
368 748 1
460 748 1
472 748 1
292 749 1
380 749 1
439 749 1
484 749 1
293 750 1
381 750 1
440 750 1
474 750 1
294 751 1
382 751 1
430 751 1
475 751 1
295 752 1
383 752 1
431 752 1
476 752 1
296 753 1
384 753 1
432 753 1
477 753 1
297 754 1
385 754 1
433 754 1
478 754 1
287 755 1
375 755 1
434 755 1
479 755 1
288 756 1
376 756 1
435 756 1
480 756 1
289 757 1
377 757 1
436 757 1
481 757 1
290 758 1
378 758 1
437 758 1
482 758 1
291 759 1
379 759 1
438 759 1
483 759 1
303 760 1
358 760 1
417 760 1
528 760 1
304 761 1
359 761 1
418 761 1
518 761 1
305 762 1
360 762 1
408 762 1
519 762 1
306 763 1
361 763 1
409 763 1
520 763 1
307 764 1
362 764 1
410 764 1
521 764 1
308 765 1
363 765 1
411 765 1
522 765 1
298 766 1
353 766 1
412 766 1
523 766 1
299 767 1
354 767 1
413 767 1
524 767 1
300 768 1
355 768 1
414 768 1
525 768 1
301 769 1
356 769 1
415 769 1
526 769 1
302 770 1
357 770 1
416 770 1
527 770 1
314 771 1
336 771 1
428 771 1
506 771 1
315 772 1
337 772 1
429 772 1
496 772 1
316 773 1
338 773 1
419 773 1
497 773 1
317 774 1
339 774 1
420 774 1
498 774 1
318 775 1
340 775 1
421 775 1
499 775 1
319 776 1
341 776 1
422 776 1
500 776 1
309 777 1
331 777 1
423 777 1
501 777 1
310 778 1
332 778 1
424 778 1
502 778 1
311 779 1
333 779 1
425 779 1
503 779 1
312 780 1
334 780 1
426 780 1
504 780 1
313 781 1
335 781 1
427 781 1
505 781 1
325 782 1
347 782 1
406 782 1
517 782 1
326 783 1
348 783 1
407 783 1
507 783 1
327 784 1
349 784 1
397 784 1
508 784 1
328 785 1
350 785 1
398 785 1
509 785 1
329 786 1
351 786 1
399 786 1
510 786 1
330 787 1
352 787 1
400 787 1
511 787 1
320 788 1
342 788 1
401 788 1
512 788 1
321 789 1
343 789 1
402 789 1
513 789 1
322 790 1
344 790 1
403 790 1
514 790 1
323 791 1
345 791 1
404 791 1
515 791 1
324 792 1
346 792 1
405 792 1
516 792 1
