%%MatrixMarket matrix coordinate integer general
% Binary matrix; one-based indices; arithmetic over GF(2)
290 580 2320
1 1 1
16 1 1
59 1 1
71 1 1
2 2 1
17 2 1
60 2 1
72 2 1
3 3 1
18 3 1
61 3 1
73 3 1
4 4 1
19 4 1
62 4 1
74 4 1
5 5 1
20 5 1
63 5 1
75 5 1
6 6 1
21 6 1
64 6 1
76 6 1
7 7 1
22 7 1
65 7 1
77 7 1
8 8 1
23 8 1
66 8 1
78 8 1
9 9 1
24 9 1
67 9 1
79 9 1
10 10 1
25 10 1
68 10 1
80 10 1
11 11 1
26 11 1
69 11 1
81 11 1
12 12 1
27 12 1
70 12 1
82 12 1
13 13 1
28 13 1
71 13 1
83 13 1
14 14 1
29 14 1
72 14 1
84 14 1
15 15 1
30 15 1
73 15 1
85 15 1
16 16 1
31 16 1
74 16 1
86 16 1
17 17 1
32 17 1
75 17 1
87 17 1
18 18 1
33 18 1
76 18 1
88 18 1
19 19 1
34 19 1
77 19 1
89 19 1
20 20 1
35 20 1
78 20 1
90 20 1
21 21 1
36 21 1
79 21 1
91 21 1
22 22 1
37 22 1
80 22 1
92 22 1
23 23 1
38 23 1
81 23 1
93 23 1
24 24 1
39 24 1
82 24 1
94 24 1
25 25 1
40 25 1
83 25 1
95 25 1
26 26 1
41 26 1
84 26 1
96 26 1
27 27 1
42 27 1
85 27 1
97 27 1
28 28 1
43 28 1
86 28 1
98 28 1
29 29 1
44 29 1
87 29 1
99 29 1
30 30 1
45 30 1
88 30 1
100 30 1
31 31 1
46 31 1
89 31 1
101 31 1
32 32 1
47 32 1
90 32 1
102 32 1
33 33 1
48 33 1
91 33 1
103 33 1
34 34 1
49 34 1
92 34 1
104 34 1
35 35 1
50 35 1
93 35 1
105 35 1
36 36 1
51 36 1
94 36 1
106 36 1
37 37 1
52 37 1
95 37 1
107 37 1
38 38 1
53 38 1
96 38 1
108 38 1
39 39 1
54 39 1
97 39 1
109 39 1
40 40 1
55 40 1
98 40 1
110 40 1
41 41 1
56 41 1
99 41 1
111 41 1
42 42 1
57 42 1
100 42 1
112 42 1
43 43 1
58 43 1
101 43 1
113 43 1
1 44 1
44 44 1
102 44 1
114 44 1
2 45 1
45 45 1
103 45 1
115 45 1
3 46 1
46 46 1
104 46 1
116 46 1
4 47 1
47 47 1
59 47 1
105 47 1
5 48 1
48 48 1
60 48 1
106 48 1
6 49 1
49 49 1
61 49 1
107 49 1
7 50 1
50 50 1
62 50 1
108 50 1
8 51 1
51 51 1
63 51 1
109 51 1
9 52 1
52 52 1
64 52 1
110 52 1
10 53 1
53 53 1
65 53 1
111 53 1
11 54 1
54 54 1
66 54 1
112 54 1
12 55 1
55 55 1
67 55 1
113 55 1
13 56 1
56 56 1
68 56 1
114 56 1
14 57 1
57 57 1
69 57 1
115 57 1
15 58 1
58 58 1
70 58 1
116 58 1
1 59 1
20 59 1
117 59 1
129 59 1
2 60 1
21 60 1
118 60 1
130 60 1
3 61 1
22 61 1
119 61 1
131 61 1
4 62 1
23 62 1
120 62 1
132 62 1
5 63 1
24 63 1
121 63 1
133 63 1
6 64 1
25 64 1
122 64 1
134 64 1
7 65 1
26 65 1
123 65 1
135 65 1
8 66 1
27 66 1
124 66 1
136 66 1
9 67 1
28 67 1
125 67 1
137 67 1
10 68 1
29 68 1
126 68 1
138 68 1
11 69 1
30 69 1
127 69 1
139 69 1
12 70 1
31 70 1
128 70 1
140 70 1
13 71 1
32 71 1
129 71 1
141 71 1
14 72 1
33 72 1
130 72 1
142 72 1
15 73 1
34 73 1
131 73 1
143 73 1
16 74 1
35 74 1
132 74 1
144 74 1
17 75 1
36 75 1
133 75 1
145 75 1
18 76 1
37 76 1
134 76 1
146 76 1
19 77 1
38 77 1
135 77 1
147 77 1
20 78 1
39 78 1
136 78 1
148 78 1
21 79 1
40 79 1
137 79 1
149 79 1
22 80 1
41 80 1
138 80 1
150 80 1
23 81 1
42 81 1
139 81 1
151 81 1
24 82 1
43 82 1
140 82 1
152 82 1
25 83 1
44 83 1
141 83 1
153 83 1
26 84 1
45 84 1
142 84 1
154 84 1
27 85 1
46 85 1
143 85 1
155 85 1
28 86 1
47 86 1
144 86 1
156 86 1
29 87 1
48 87 1
145 87 1
157 87 1
30 88 1
49 88 1
146 88 1
158 88 1
31 89 1
50 89 1
147 89 1
159 89 1
32 90 1
51 90 1
148 90 1
160 90 1
33 91 1
52 91 1
149 91 1
161 91 1
34 92 1
53 92 1
150 92 1
162 92 1
35 93 1
54 93 1
151 93 1
163 93 1
36 94 1
55 94 1
152 94 1
164 94 1
37 95 1
56 95 1
153 95 1
165 95 1
38 96 1
57 96 1
154 96 1
166 96 1
39 97 1
58 97 1
155 97 1
167 97 1
1 98 1
40 98 1
156 98 1
168 98 1
2 99 1
41 99 1
157 99 1
169 99 1
3 100 1
42 100 1
158 100 1
170 100 1
4 101 1
43 101 1
159 101 1
171 101 1
5 102 1
44 102 1
160 102 1
172 102 1
6 103 1
45 103 1
161 103 1
173 103 1
7 104 1
46 104 1
162 104 1
174 104 1
8 105 1
47 105 1
117 105 1
163 105 1
9 106 1
48 106 1
118 106 1
164 106 1
10 107 1
49 107 1
119 107 1
165 107 1
11 108 1
50 108 1
120 108 1
166 108 1
12 109 1
51 109 1
121 109 1
167 109 1
13 110 1
52 110 1
122 110 1
168 110 1
14 111 1
53 111 1
123 111 1
169 111 1
15 112 1
54 112 1
124 112 1
170 112 1
16 113 1
55 113 1
125 113 1
171 113 1
17 114 1
56 114 1
126 114 1
172 114 1
18 115 1
57 115 1
127 115 1
173 115 1
19 116 1
58 116 1
128 116 1
174 116 1
59 117 1
78 117 1
117 117 1
132 117 1
60 118 1
79 118 1
118 118 1
133 118 1
61 119 1
80 119 1
119 119 1
134 119 1
62 120 1
81 120 1
120 120 1
135 120 1
63 121 1
82 121 1
121 121 1
136 121 1
64 122 1
83 122 1
122 122 1
137 122 1
65 123 1
84 123 1
123 123 1
138 123 1
66 124 1
85 124 1
124 124 1
139 124 1
67 125 1
86 125 1
125 125 1
140 125 1
68 126 1
87 126 1
126 126 1
141 126 1
69 127 1
88 127 1
127 127 1
142 127 1
70 128 1
89 128 1
128 128 1
143 128 1
71 129 1
90 129 1
129 129 1
144 129 1
72 130 1
91 130 1
130 130 1
145 130 1
73 131 1
92 131 1
131 131 1
146 131 1
74 132 1
93 132 1
132 132 1
147 132 1
75 133 1
94 133 1
133 133 1
148 133 1
76 134 1
95 134 1
134 134 1
149 134 1
77 135 1
96 135 1
135 135 1
150 135 1
78 136 1
97 136 1
136 136 1
151 136 1
79 137 1
98 137 1
137 137 1
152 137 1
80 138 1
99 138 1
138 138 1
153 138 1
81 139 1
100 139 1
139 139 1
154 139 1
82 140 1
101 140 1
140 140 1
155 140 1
83 141 1
102 141 1
141 141 1
156 141 1
84 142 1
103 142 1
142 142 1
157 142 1
85 143 1
104 143 1
143 143 1
158 143 1
86 144 1
105 144 1
144 144 1
159 144 1
87 145 1
106 145 1
145 145 1
160 145 1
88 146 1
107 146 1
146 146 1
161 146 1
89 147 1
108 147 1
147 147 1
162 147 1
90 148 1
109 148 1
148 148 1
163 148 1
91 149 1
110 149 1
149 149 1
164 149 1
92 150 1
111 150 1
150 150 1
165 150 1
93 151 1
112 151 1
151 151 1
166 151 1
94 152 1
113 152 1
152 152 1
167 152 1
95 153 1
114 153 1
153 153 1
168 153 1
96 154 1
115 154 1
154 154 1
169 154 1
97 155 1
116 155 1
155 155 1
170 155 1
59 156 1
98 156 1
156 156 1
171 156 1
60 157 1
99 157 1
157 157 1
172 157 1
61 158 1
100 158 1
158 158 1
173 158 1
62 159 1
101 159 1
159 159 1
174 159 1
63 160 1
102 160 1
117 160 1
160 160 1
64 161 1
103 161 1
118 161 1
161 161 1
65 162 1
104 162 1
119 162 1
162 162 1
66 163 1
105 163 1
120 163 1
163 163 1
67 164 1
106 164 1
121 164 1
164 164 1
68 165 1
107 165 1
122 165 1
165 165 1
69 166 1
108 166 1
123 166 1
166 166 1
70 167 1
109 167 1
124 167 1
167 167 1
71 168 1
110 168 1
125 168 1
168 168 1
72 169 1
111 169 1
126 169 1
169 169 1
73 170 1
112 170 1
127 170 1
170 170 1
74 171 1
113 171 1
128 171 1
171 171 1
75 172 1
114 172 1
129 172 1
172 172 1
76 173 1
115 173 1
130 173 1
173 173 1
77 174 1
116 174 1
131 174 1
174 174 1
1 175 1
27 175 1
175 175 1
187 175 1
2 176 1
28 176 1
176 176 1
188 176 1
3 177 1
29 177 1
177 177 1
189 177 1
4 178 1
30 178 1
178 178 1
190 178 1
5 179 1
31 179 1
179 179 1
191 179 1
6 180 1
32 180 1
180 180 1
192 180 1
7 181 1
33 181 1
181 181 1
193 181 1
8 182 1
34 182 1
182 182 1
194 182 1
9 183 1
35 183 1
183 183 1
195 183 1
10 184 1
36 184 1
184 184 1
196 184 1
11 185 1
37 185 1
185 185 1
197 185 1
12 186 1
38 186 1
186 186 1
198 186 1
13 187 1
39 187 1
187 187 1
199 187 1
14 188 1
40 188 1
188 188 1
200 188 1
15 189 1
41 189 1
189 189 1
201 189 1
16 190 1
42 190 1
190 190 1
202 190 1
17 191 1
43 191 1
191 191 1
203 191 1
18 192 1
44 192 1
192 192 1
204 192 1
19 193 1
45 193 1
193 193 1
205 193 1
20 194 1
46 194 1
194 194 1
206 194 1
21 195 1
47 195 1
195 195 1
207 195 1
22 196 1
48 196 1
196 196 1
208 196 1
23 197 1
49 197 1
197 197 1
209 197 1
24 198 1
50 198 1
198 198 1
210 198 1
25 199 1
51 199 1
199 199 1
211 199 1
26 200 1
52 200 1
200 200 1
212 200 1
27 201 1
53 201 1
201 201 1
213 201 1
28 202 1
54 202 1
202 202 1
214 202 1
29 203 1
55 203 1
203 203 1
215 203 1
30 204 1
56 204 1
204 204 1
216 204 1
31 205 1
57 205 1
205 205 1
217 205 1
32 206 1
58 206 1
206 206 1
218 206 1
1 207 1
33 207 1
207 207 1
219 207 1
2 208 1
34 208 1
208 208 1
220 208 1
3 209 1
35 209 1
209 209 1
221 209 1
4 210 1
36 210 1
210 210 1
222 210 1
5 211 1
37 211 1
211 211 1
223 211 1
6 212 1
38 212 1
212 212 1
224 212 1
7 213 1
39 213 1
213 213 1
225 213 1
8 214 1
40 214 1
214 214 1
226 214 1
9 215 1
41 215 1
215 215 1
227 215 1
10 216 1
42 216 1
216 216 1
228 216 1
11 217 1
43 217 1
217 217 1
229 217 1
12 218 1
44 218 1
218 218 1
230 218 1
13 219 1
45 219 1
219 219 1
231 219 1
14 220 1
46 220 1
220 220 1
232 220 1
15 221 1
47 221 1
175 221 1
221 221 1
16 222 1
48 222 1
176 222 1
222 222 1
17 223 1
49 223 1
177 223 1
223 223 1
18 224 1
50 224 1
178 224 1
224 224 1
19 225 1
51 225 1
179 225 1
225 225 1
20 226 1
52 226 1
180 226 1
226 226 1
21 227 1
53 227 1
181 227 1
227 227 1
22 228 1
54 228 1
182 228 1
228 228 1
23 229 1
55 229 1
183 229 1
229 229 1
24 230 1
56 230 1
184 230 1
230 230 1
25 231 1
57 231 1
185 231 1
231 231 1
26 232 1
58 232 1
186 232 1
232 232 1
59 233 1
85 233 1
175 233 1
190 233 1
60 234 1
86 234 1
176 234 1
191 234 1
61 235 1
87 235 1
177 235 1
192 235 1
62 236 1
88 236 1
178 236 1
193 236 1
63 237 1
89 237 1
179 237 1
194 237 1
64 238 1
90 238 1
180 238 1
195 238 1
65 239 1
91 239 1
181 239 1
196 239 1
66 240 1
92 240 1
182 240 1
197 240 1
67 241 1
93 241 1
183 241 1
198 241 1
68 242 1
94 242 1
184 242 1
199 242 1
69 243 1
95 243 1
185 243 1
200 243 1
70 244 1
96 244 1
186 244 1
201 244 1
71 245 1
97 245 1
187 245 1
202 245 1
72 246 1
98 246 1
188 246 1
203 246 1
73 247 1
99 247 1
189 247 1
204 247 1
74 248 1
100 248 1
190 248 1
205 248 1
75 249 1
101 249 1
191 249 1
206 249 1
76 250 1
102 250 1
192 250 1
207 250 1
77 251 1
103 251 1
193 251 1
208 251 1
78 252 1
104 252 1
194 252 1
209 252 1
79 253 1
105 253 1
195 253 1
210 253 1
80 254 1
106 254 1
196 254 1
211 254 1
81 255 1
107 255 1
197 255 1
212 255 1
82 256 1
108 256 1
198 256 1
213 256 1
83 257 1
109 257 1
199 257 1
214 257 1
84 258 1
110 258 1
200 258 1
215 258 1
85 259 1
111 259 1
201 259 1
216 259 1
86 260 1
112 260 1
202 260 1
217 260 1
87 261 1
113 261 1
203 261 1
218 261 1
88 262 1
114 262 1
204 262 1
219 262 1
89 263 1
115 263 1
205 263 1
220 263 1
90 264 1
116 264 1
206 264 1
221 264 1
59 265 1
91 265 1
207 265 1
222 265 1
60 266 1
92 266 1
208 266 1
223 266 1
61 267 1
93 267 1
209 267 1
224 267 1
62 268 1
94 268 1
210 268 1
225 268 1
63 269 1
95 269 1
211 269 1
226 269 1
64 270 1
96 270 1
212 270 1
227 270 1
65 271 1
97 271 1
213 271 1
228 271 1
66 272 1
98 272 1
214 272 1
229 272 1
67 273 1
99 273 1
215 273 1
230 273 1
68 274 1
100 274 1
216 274 1
231 274 1
69 275 1
101 275 1
217 275 1
232 275 1
70 276 1
102 276 1
175 276 1
218 276 1
71 277 1
103 277 1
176 277 1
219 277 1
72 278 1
104 278 1
177 278 1
220 278 1
73 279 1
105 279 1
178 279 1
221 279 1
74 280 1
106 280 1
179 280 1
222 280 1
75 281 1
107 281 1
180 281 1
223 281 1
76 282 1
108 282 1
181 282 1
224 282 1
77 283 1
109 283 1
182 283 1
225 283 1
78 284 1
110 284 1
183 284 1
226 284 1
79 285 1
111 285 1
184 285 1
227 285 1
80 286 1
112 286 1
185 286 1
228 286 1
81 287 1
113 287 1
186 287 1
229 287 1
82 288 1
114 288 1
187 288 1
230 288 1
83 289 1
115 289 1
188 289 1
231 289 1
84 290 1
116 290 1
189 290 1
232 290 1
117 291 1
143 291 1
175 291 1
194 291 1
118 292 1
144 292 1
176 292 1
195 292 1
119 293 1
145 293 1
177 293 1
196 293 1
120 294 1
146 294 1
178 294 1
197 294 1
121 295 1
147 295 1
179 295 1
198 295 1
122 296 1
148 296 1
180 296 1
199 296 1
123 297 1
149 297 1
181 297 1
200 297 1
124 298 1
150 298 1
182 298 1
201 298 1
125 299 1
151 299 1
183 299 1
202 299 1
126 300 1
152 300 1
184 300 1
203 300 1
127 301 1
153 301 1
185 301 1
204 301 1
128 302 1
154 302 1
186 302 1
205 302 1
129 303 1
155 303 1
187 303 1
206 303 1
130 304 1
156 304 1
188 304 1
207 304 1
131 305 1
157 305 1
189 305 1
208 305 1
132 306 1
158 306 1
190 306 1
209 306 1
133 307 1
159 307 1
191 307 1
210 307 1
134 308 1
160 308 1
192 308 1
211 308 1
135 309 1
161 309 1
193 309 1
212 309 1
136 310 1
162 310 1
194 310 1
213 310 1
137 311 1
163 311 1
195 311 1
214 311 1
138 312 1
164 312 1
196 312 1
215 312 1
139 313 1
165 313 1
197 313 1
216 313 1
140 314 1
166 314 1
198 314 1
217 314 1
141 315 1
167 315 1
199 315 1
218 315 1
142 316 1
168 316 1
200 316 1
219 316 1
143 317 1
169 317 1
201 317 1
220 317 1
144 318 1
170 318 1
202 318 1
221 318 1
145 319 1
171 319 1
203 319 1
222 319 1
146 320 1
172 320 1
204 320 1
223 320 1
147 321 1
173 321 1
205 321 1
224 321 1
148 322 1
174 322 1
206 322 1
225 322 1
117 323 1
149 323 1
207 323 1
226 323 1
118 324 1
150 324 1
208 324 1
227 324 1
119 325 1
151 325 1
209 325 1
228 325 1
120 326 1
152 326 1
210 326 1
229 326 1
121 327 1
153 327 1
211 327 1
230 327 1
122 328 1
154 328 1
212 328 1
231 328 1
123 329 1
155 329 1
213 329 1
232 329 1
124 330 1
156 330 1
175 330 1
214 330 1
125 331 1
157 331 1
176 331 1
215 331 1
126 332 1
158 332 1
177 332 1
216 332 1
127 333 1
159 333 1
178 333 1
217 333 1
128 334 1
160 334 1
179 334 1
218 334 1
129 335 1
161 335 1
180 335 1
219 335 1
130 336 1
162 336 1
181 336 1
220 336 1
131 337 1
163 337 1
182 337 1
221 337 1
132 338 1
164 338 1
183 338 1
222 338 1
133 339 1
165 339 1
184 339 1
223 339 1
134 340 1
166 340 1
185 340 1
224 340 1
135 341 1
167 341 1
186 341 1
225 341 1
136 342 1
168 342 1
187 342 1
226 342 1
137 343 1
169 343 1
188 343 1
227 343 1
138 344 1
170 344 1
189 344 1
228 344 1
139 345 1
171 345 1
190 345 1
229 345 1
140 346 1
172 346 1
191 346 1
230 346 1
141 347 1
173 347 1
192 347 1
231 347 1
142 348 1
174 348 1
193 348 1
232 348 1
1 349 1
38 349 1
233 349 1
245 349 1
2 350 1
39 350 1
234 350 1
246 350 1
3 351 1
40 351 1
235 351 1
247 351 1
4 352 1
41 352 1
236 352 1
248 352 1
5 353 1
42 353 1
237 353 1
249 353 1
6 354 1
43 354 1
238 354 1
250 354 1
7 355 1
44 355 1
239 355 1
251 355 1
8 356 1
45 356 1
240 356 1
252 356 1
9 357 1
46 357 1
241 357 1
253 357 1
10 358 1
47 358 1
242 358 1
254 358 1
11 359 1
48 359 1
243 359 1
255 359 1
12 360 1
49 360 1
244 360 1
256 360 1
13 361 1
50 361 1
245 361 1
257 361 1
14 362 1
51 362 1
246 362 1
258 362 1
15 363 1
52 363 1
247 363 1
259 363 1
16 364 1
53 364 1
248 364 1
260 364 1
17 365 1
54 365 1
249 365 1
261 365 1
18 366 1
55 366 1
250 366 1
262 366 1
19 367 1
56 367 1
251 367 1
263 367 1
20 368 1
57 368 1
252 368 1
264 368 1
21 369 1
58 369 1
253 369 1
265 369 1
1 370 1
22 370 1
254 370 1
266 370 1
2 371 1
23 371 1
255 371 1
267 371 1
3 372 1
24 372 1
256 372 1
268 372 1
4 373 1
25 373 1
257 373 1
269 373 1
5 374 1
26 374 1
258 374 1
270 374 1
6 375 1
27 375 1
259 375 1
271 375 1
7 376 1
28 376 1
260 376 1
272 376 1
8 377 1
29 377 1
261 377 1
273 377 1
9 378 1
30 378 1
262 378 1
274 378 1
10 379 1
31 379 1
263 379 1
275 379 1
11 380 1
32 380 1
264 380 1
276 380 1
12 381 1
33 381 1
265 381 1
277 381 1
13 382 1
34 382 1
266 382 1
278 382 1
14 383 1
35 383 1
267 383 1
279 383 1
15 384 1
36 384 1
268 384 1
280 384 1
16 385 1
37 385 1
269 385 1
281 385 1
17 386 1
38 386 1
270 386 1
282 386 1
18 387 1
39 387 1
271 387 1
283 387 1
19 388 1
40 388 1
272 388 1
284 388 1
20 389 1
41 389 1
273 389 1
285 389 1
21 390 1
42 390 1
274 390 1
286 390 1
22 391 1
43 391 1
275 391 1
287 391 1
23 392 1
44 392 1
276 392 1
288 392 1
24 393 1
45 393 1
277 393 1
289 393 1
25 394 1
46 394 1
278 394 1
290 394 1
26 395 1
47 395 1
233 395 1
279 395 1
27 396 1
48 396 1
234 396 1
280 396 1
28 397 1
49 397 1
235 397 1
281 397 1
29 398 1
50 398 1
236 398 1
282 398 1
30 399 1
51 399 1
237 399 1
283 399 1
31 400 1
52 400 1
238 400 1
284 400 1
32 401 1
53 401 1
239 401 1
285 401 1
33 402 1
54 402 1
240 402 1
286 402 1
34 403 1
55 403 1
241 403 1
287 403 1
35 404 1
56 404 1
242 404 1
288 404 1
36 405 1
57 405 1
243 405 1
289 405 1
37 406 1
58 406 1
244 406 1
290 406 1
59 407 1
96 407 1
233 407 1
248 407 1
60 408 1
97 408 1
234 408 1
249 408 1
61 409 1
98 409 1
235 409 1
250 409 1
62 410 1
99 410 1
236 410 1
251 410 1
63 411 1
100 411 1
237 411 1
252 411 1
64 412 1
101 412 1
238 412 1
253 412 1
65 413 1
102 413 1
239 413 1
254 413 1
66 414 1
103 414 1
240 414 1
255 414 1
67 415 1
104 415 1
241 415 1
256 415 1
68 416 1
105 416 1
242 416 1
257 416 1
69 417 1
106 417 1
243 417 1
258 417 1
70 418 1
107 418 1
244 418 1
259 418 1
71 419 1
108 419 1
245 419 1
260 419 1
72 420 1
109 420 1
246 420 1
261 420 1
73 421 1
110 421 1
247 421 1
262 421 1
74 422 1
111 422 1
248 422 1
263 422 1
75 423 1
112 423 1
249 423 1
264 423 1
76 424 1
113 424 1
250 424 1
265 424 1
77 425 1
114 425 1
251 425 1
266 425 1
78 426 1
115 426 1
252 426 1
267 426 1
79 427 1
116 427 1
253 427 1
268 427 1
59 428 1
80 428 1
254 428 1
269 428 1
60 429 1
81 429 1
255 429 1
270 429 1
61 430 1
82 430 1
256 430 1
271 430 1
62 431 1
83 431 1
257 431 1
272 431 1
63 432 1
84 432 1
258 432 1
273 432 1
64 433 1
85 433 1
259 433 1
274 433 1
65 434 1
86 434 1
260 434 1
275 434 1
66 435 1
87 435 1
261 435 1
276 435 1
67 436 1
88 436 1
262 436 1
277 436 1
68 437 1
89 437 1
263 437 1
278 437 1
69 438 1
90 438 1
264 438 1
279 438 1
70 439 1
91 439 1
265 439 1
280 439 1
71 440 1
92 440 1
266 440 1
281 440 1
72 441 1
93 441 1
267 441 1
282 441 1
73 442 1
94 442 1
268 442 1
283 442 1
74 443 1
95 443 1
269 443 1
284 443 1
75 444 1
96 444 1
270 444 1
285 444 1
76 445 1
97 445 1
271 445 1
286 445 1
77 446 1
98 446 1
272 446 1
287 446 1
78 447 1
99 447 1
273 447 1
288 447 1
79 448 1
100 448 1
274 448 1
289 448 1
80 449 1
101 449 1
275 449 1
290 449 1
81 450 1
102 450 1
233 450 1
276 450 1
82 451 1
103 451 1
234 451 1
277 451 1
83 452 1
104 452 1
235 452 1
278 452 1
84 453 1
105 453 1
236 453 1
279 453 1
85 454 1
106 454 1
237 454 1
280 454 1
86 455 1
107 455 1
238 455 1
281 455 1
87 456 1
108 456 1
239 456 1
282 456 1
88 457 1
109 457 1
240 457 1
283 457 1
89 458 1
110 458 1
241 458 1
284 458 1
90 459 1
111 459 1
242 459 1
285 459 1
91 460 1
112 460 1
243 460 1
286 460 1
92 461 1
113 461 1
244 461 1
287 461 1
93 462 1
114 462 1
245 462 1
288 462 1
94 463 1
115 463 1
246 463 1
289 463 1
95 464 1
116 464 1
247 464 1
290 464 1
117 465 1
154 465 1
233 465 1
252 465 1
118 466 1
155 466 1
234 466 1
253 466 1
119 467 1
156 467 1
235 467 1
254 467 1
120 468 1
157 468 1
236 468 1
255 468 1
121 469 1
158 469 1
237 469 1
256 469 1
122 470 1
159 470 1
238 470 1
257 470 1
123 471 1
160 471 1
239 471 1
258 471 1
124 472 1
161 472 1
240 472 1
259 472 1
125 473 1
162 473 1
241 473 1
260 473 1
126 474 1
163 474 1
242 474 1
261 474 1
127 475 1
164 475 1
243 475 1
262 475 1
128 476 1
165 476 1
244 476 1
263 476 1
129 477 1
166 477 1
245 477 1
264 477 1
130 478 1
167 478 1
246 478 1
265 478 1
131 479 1
168 479 1
247 479 1
266 479 1
132 480 1
169 480 1
248 480 1
267 480 1
133 481 1
170 481 1
249 481 1
268 481 1
134 482 1
171 482 1
250 482 1
269 482 1
135 483 1
172 483 1
251 483 1
270 483 1
136 484 1
173 484 1
252 484 1
271 484 1
137 485 1
174 485 1
253 485 1
272 485 1
117 486 1
138 486 1
254 486 1
273 486 1
118 487 1
139 487 1
255 487 1
274 487 1
119 488 1
140 488 1
256 488 1
275 488 1
120 489 1
141 489 1
257 489 1
276 489 1
121 490 1
142 490 1
258 490 1
277 490 1
122 491 1
143 491 1
259 491 1
278 491 1
123 492 1
144 492 1
260 492 1
279 492 1
124 493 1
145 493 1
261 493 1
280 493 1
125 494 1
146 494 1
262 494 1
281 494 1
126 495 1
147 495 1
263 495 1
282 495 1
127 496 1
148 496 1
264 496 1
283 496 1
128 497 1
149 497 1
265 497 1
284 497 1
129 498 1
150 498 1
266 498 1
285 498 1
130 499 1
151 499 1
267 499 1
286 499 1
131 500 1
152 500 1
268 500 1
287 500 1
132 501 1
153 501 1
269 501 1
288 501 1
133 502 1
154 502 1
270 502 1
289 502 1
134 503 1
155 503 1
271 503 1
290 503 1
135 504 1
156 504 1
233 504 1
272 504 1
136 505 1
157 505 1
234 505 1
273 505 1
137 506 1
158 506 1
235 506 1
274 506 1
138 507 1
159 507 1
236 507 1
275 507 1
139 508 1
160 508 1
237 508 1
276 508 1
140 509 1
161 509 1
238 509 1
277 509 1
141 510 1
162 510 1
239 510 1
278 510 1
142 511 1
163 511 1
240 511 1
279 511 1
143 512 1
164 512 1
241 512 1
280 512 1
144 513 1
165 513 1
242 513 1
281 513 1
145 514 1
166 514 1
243 514 1
282 514 1
146 515 1
167 515 1
244 515 1
283 515 1
147 516 1
168 516 1
245 516 1
284 516 1
148 517 1
169 517 1
246 517 1
285 517 1
149 518 1
170 518 1
247 518 1
286 518 1
150 519 1
171 519 1
248 519 1
287 519 1
151 520 1
172 520 1
249 520 1
288 520 1
152 521 1
173 521 1
250 521 1
289 521 1
153 522 1
174 522 1
251 522 1
290 522 1
175 523 1
212 523 1
233 523 1
259 523 1
176 524 1
213 524 1
234 524 1
260 524 1
177 525 1
214 525 1
235 525 1
261 525 1
178 526 1
215 526 1
236 526 1
262 526 1
179 527 1
216 527 1
237 527 1
263 527 1
180 528 1
217 528 1
238 528 1
264 528 1
181 529 1
218 529 1
239 529 1
265 529 1
182 530 1
219 530 1
240 530 1
266 530 1
183 531 1
220 531 1
241 531 1
267 531 1
184 532 1
221 532 1
242 532 1
268 532 1
185 533 1
222 533 1
243 533 1
269 533 1
186 534 1
223 534 1
244 534 1
270 534 1
187 535 1
224 535 1
245 535 1
271 535 1
188 536 1
225 536 1
246 536 1
272 536 1
189 537 1
226 537 1
247 537 1
273 537 1
190 538 1
227 538 1
248 538 1
274 538 1
191 539 1
228 539 1
249 539 1
275 539 1
192 540 1
229 540 1
250 540 1
276 540 1
193 541 1
230 541 1
251 541 1
277 541 1
194 542 1
231 542 1
252 542 1
278 542 1
195 543 1
232 543 1
253 543 1
279 543 1
175 544 1
196 544 1
254 544 1
280 544 1
176 545 1
197 545 1
255 545 1
281 545 1
177 546 1
198 546 1
256 546 1
282 546 1
178 547 1
199 547 1
257 547 1
283 547 1
179 548 1
200 548 1
258 548 1
284 548 1
180 549 1
201 549 1
259 549 1
285 549 1
181 550 1
202 550 1
260 550 1
286 550 1
182 551 1
203 551 1
261 551 1
287 551 1
183 552 1
204 552 1
262 552 1
288 552 1
184 553 1
205 553 1
263 553 1
289 553 1
185 554 1
206 554 1
264 554 1
290 554 1
186 555 1
207 555 1
233 555 1
265 555 1
187 556 1
208 556 1
234 556 1
266 556 1
188 557 1
209 557 1
235 557 1
267 557 1
189 558 1
210 558 1
236 558 1
268 558 1
190 559 1
211 559 1
237 559 1
269 559 1
191 560 1
212 560 1
238 560 1
270 560 1
192 561 1
213 561 1
239 561 1
271 561 1
193 562 1
214 562 1
240 562 1
272 562 1
194 563 1
215 563 1
241 563 1
273 563 1
195 564 1
216 564 1
242 564 1
274 564 1
196 565 1
217 565 1
243 565 1
275 565 1
197 566 1
218 566 1
244 566 1
276 566 1
198 567 1
219 567 1
245 567 1
277 567 1
199 568 1
220 568 1
246 568 1
278 568 1
200 569 1
221 569 1
247 569 1
279 569 1
201 570 1
222 570 1
248 570 1
280 570 1
202 571 1
223 571 1
249 571 1
281 571 1
203 572 1
224 572 1
250 572 1
282 572 1
204 573 1
225 573 1
251 573 1
283 573 1
205 574 1
226 574 1
252 574 1
284 574 1
206 575 1
227 575 1
253 575 1
285 575 1
207 576 1
228 576 1
254 576 1
286 576 1
208 577 1
229 577 1
255 577 1
287 577 1
209 578 1
230 578 1
256 578 1
288 578 1
210 579 1
231 579 1
257 579 1
289 579 1
211 580 1
232 580 1
258 580 1
290 580 1
