%%MatrixMarket matrix coordinate integer general
% Binary matrix; one-based indices; arithmetic over GF(2)
555 740 4440
1 1 1
15 1 1
38 1 1
42 1 1
75 1 1
77 1 1
2 2 1
16 2 1
39 2 1
43 2 1
76 2 1
78 2 1
3 3 1
17 3 1
40 3 1
44 3 1
77 3 1
79 3 1
4 4 1
18 4 1
41 4 1
45 4 1
78 4 1
80 4 1
5 5 1
19 5 1
42 5 1
46 5 1
79 5 1
81 5 1
6 6 1
20 6 1
43 6 1
47 6 1
80 6 1
82 6 1
7 7 1
21 7 1
44 7 1
48 7 1
81 7 1
83 7 1
8 8 1
22 8 1
45 8 1
49 8 1
82 8 1
84 8 1
9 9 1
23 9 1
46 9 1
50 9 1
83 9 1
85 9 1
10 10 1
24 10 1
47 10 1
51 10 1
84 10 1
86 10 1
11 11 1
25 11 1
48 11 1
52 11 1
85 11 1
87 11 1
12 12 1
26 12 1
49 12 1
53 12 1
86 12 1
88 12 1
13 13 1
27 13 1
50 13 1
54 13 1
87 13 1
89 13 1
14 14 1
28 14 1
51 14 1
55 14 1
88 14 1
90 14 1
15 15 1
29 15 1
52 15 1
56 15 1
89 15 1
91 15 1
16 16 1
30 16 1
53 16 1
57 16 1
90 16 1
92 16 1
17 17 1
31 17 1
54 17 1
58 17 1
91 17 1
93 17 1
18 18 1
32 18 1
55 18 1
59 18 1
92 18 1
94 18 1
19 19 1
33 19 1
56 19 1
60 19 1
93 19 1
95 19 1
20 20 1
34 20 1
57 20 1
61 20 1
94 20 1
96 20 1
21 21 1
35 21 1
58 21 1
62 21 1
95 21 1
97 21 1
22 22 1
36 22 1
59 22 1
63 22 1
96 22 1
98 22 1
23 23 1
37 23 1
60 23 1
64 23 1
97 23 1
99 23 1
1 24 1
24 24 1
61 24 1
65 24 1
98 24 1
100 24 1
2 25 1
25 25 1
62 25 1
66 25 1
99 25 1
101 25 1
3 26 1
26 26 1
63 26 1
67 26 1
100 26 1
102 26 1
4 27 1
27 27 1
64 27 1
68 27 1
101 27 1
103 27 1
5 28 1
28 28 1
65 28 1
69 28 1
102 28 1
104 28 1
6 29 1
29 29 1
66 29 1
70 29 1
103 29 1
105 29 1
7 30 1
30 30 1
67 30 1
71 30 1
104 30 1
106 30 1
8 31 1
31 31 1
68 31 1
72 31 1
105 31 1
107 31 1
9 32 1
32 32 1
69 32 1
73 32 1
106 32 1
108 32 1
10 33 1
33 33 1
70 33 1
74 33 1
107 33 1
109 33 1
11 34 1
34 34 1
38 34 1
71 34 1
108 34 1
110 34 1
12 35 1
35 35 1
39 35 1
72 35 1
109 35 1
111 35 1
13 36 1
36 36 1
40 36 1
73 36 1
75 36 1
110 36 1
14 37 1
37 37 1
41 37 1
74 37 1
76 37 1
111 37 1
1 38 1
18 38 1
112 38 1
116 38 1
149 38 1
151 38 1
2 39 1
19 39 1
113 39 1
117 39 1
150 39 1
152 39 1
3 40 1
20 40 1
114 40 1
118 40 1
151 40 1
153 40 1
4 41 1
21 41 1
115 41 1
119 41 1
152 41 1
154 41 1
5 42 1
22 42 1
116 42 1
120 42 1
153 42 1
155 42 1
6 43 1
23 43 1
117 43 1
121 43 1
154 43 1
156 43 1
7 44 1
24 44 1
118 44 1
122 44 1
155 44 1
157 44 1
8 45 1
25 45 1
119 45 1
123 45 1
156 45 1
158 45 1
9 46 1
26 46 1
120 46 1
124 46 1
157 46 1
159 46 1
10 47 1
27 47 1
121 47 1
125 47 1
158 47 1
160 47 1
11 48 1
28 48 1
122 48 1
126 48 1
159 48 1
161 48 1
12 49 1
29 49 1
123 49 1
127 49 1
160 49 1
162 49 1
13 50 1
30 50 1
124 50 1
128 50 1
161 50 1
163 50 1
14 51 1
31 51 1
125 51 1
129 51 1
162 51 1
164 51 1
15 52 1
32 52 1
126 52 1
130 52 1
163 52 1
165 52 1
16 53 1
33 53 1
127 53 1
131 53 1
164 53 1
166 53 1
17 54 1
34 54 1
128 54 1
132 54 1
165 54 1
167 54 1
18 55 1
35 55 1
129 55 1
133 55 1
166 55 1
168 55 1
19 56 1
36 56 1
130 56 1
134 56 1
167 56 1
169 56 1
20 57 1
37 57 1
131 57 1
135 57 1
168 57 1
170 57 1
1 58 1
21 58 1
132 58 1
136 58 1
169 58 1
171 58 1
2 59 1
22 59 1
133 59 1
137 59 1
170 59 1
172 59 1
3 60 1
23 60 1
134 60 1
138 60 1
171 60 1
173 60 1
4 61 1
24 61 1
135 61 1
139 61 1
172 61 1
174 61 1
5 62 1
25 62 1
136 62 1
140 62 1
173 62 1
175 62 1
6 63 1
26 63 1
137 63 1
141 63 1
174 63 1
176 63 1
7 64 1
27 64 1
138 64 1
142 64 1
175 64 1
177 64 1
8 65 1
28 65 1
139 65 1
143 65 1
176 65 1
178 65 1
9 66 1
29 66 1
140 66 1
144 66 1
177 66 1
179 66 1
10 67 1
30 67 1
141 67 1
145 67 1
178 67 1
180 67 1
11 68 1
31 68 1
142 68 1
146 68 1
179 68 1
181 68 1
12 69 1
32 69 1
143 69 1
147 69 1
180 69 1
182 69 1
13 70 1
33 70 1
144 70 1
148 70 1
181 70 1
183 70 1
14 71 1
34 71 1
112 71 1
145 71 1
182 71 1
184 71 1
15 72 1
35 72 1
113 72 1
146 72 1
183 72 1
185 72 1
16 73 1
36 73 1
114 73 1
147 73 1
149 73 1
184 73 1
17 74 1
37 74 1
115 74 1
148 74 1
150 74 1
185 74 1
38 75 1
55 75 1
112 75 1
126 75 1
186 75 1
188 75 1
39 76 1
56 76 1
113 76 1
127 76 1
187 76 1
189 76 1
40 77 1
57 77 1
114 77 1
128 77 1
188 77 1
190 77 1
41 78 1
58 78 1
115 78 1
129 78 1
189 78 1
191 78 1
42 79 1
59 79 1
116 79 1
130 79 1
190 79 1
192 79 1
43 80 1
60 80 1
117 80 1
131 80 1
191 80 1
193 80 1
44 81 1
61 81 1
118 81 1
132 81 1
192 81 1
194 81 1
45 82 1
62 82 1
119 82 1
133 82 1
193 82 1
195 82 1
46 83 1
63 83 1
120 83 1
134 83 1
194 83 1
196 83 1
47 84 1
64 84 1
121 84 1
135 84 1
195 84 1
197 84 1
48 85 1
65 85 1
122 85 1
136 85 1
196 85 1
198 85 1
49 86 1
66 86 1
123 86 1
137 86 1
197 86 1
199 86 1
50 87 1
67 87 1
124 87 1
138 87 1
198 87 1
200 87 1
51 88 1
68 88 1
125 88 1
139 88 1
199 88 1
201 88 1
52 89 1
69 89 1
126 89 1
140 89 1
200 89 1
202 89 1
53 90 1
70 90 1
127 90 1
141 90 1
201 90 1
203 90 1
54 91 1
71 91 1
128 91 1
142 91 1
202 91 1
204 91 1
55 92 1
72 92 1
129 92 1
143 92 1
203 92 1
205 92 1
56 93 1
73 93 1
130 93 1
144 93 1
204 93 1
206 93 1
57 94 1
74 94 1
131 94 1
145 94 1
205 94 1
207 94 1
38 95 1
58 95 1
132 95 1
146 95 1
206 95 1
208 95 1
39 96 1
59 96 1
133 96 1
147 96 1
207 96 1
209 96 1
40 97 1
60 97 1
134 97 1
148 97 1
208 97 1
210 97 1
41 98 1
61 98 1
112 98 1
135 98 1
209 98 1
211 98 1
42 99 1
62 99 1
113 99 1
136 99 1
210 99 1
212 99 1
43 100 1
63 100 1
114 100 1
137 100 1
211 100 1
213 100 1
44 101 1
64 101 1
115 101 1
138 101 1
212 101 1
214 101 1
45 102 1
65 102 1
116 102 1
139 102 1
213 102 1
215 102 1
46 103 1
66 103 1
117 103 1
140 103 1
214 103 1
216 103 1
47 104 1
67 104 1
118 104 1
141 104 1
215 104 1
217 104 1
48 105 1
68 105 1
119 105 1
142 105 1
216 105 1
218 105 1
49 106 1
69 106 1
120 106 1
143 106 1
217 106 1
219 106 1
50 107 1
70 107 1
121 107 1
144 107 1
218 107 1
220 107 1
51 108 1
71 108 1
122 108 1
145 108 1
219 108 1
221 108 1
52 109 1
72 109 1
123 109 1
146 109 1
220 109 1
222 109 1
53 110 1
73 110 1
124 110 1
147 110 1
186 110 1
221 110 1
54 111 1
74 111 1
125 111 1
148 111 1
187 111 1
222 111 1
75 112 1
92 112 1
149 112 1
163 112 1
186 112 1
190 112 1
76 113 1
93 113 1
150 113 1
164 113 1
187 113 1
191 113 1
77 114 1
94 114 1
151 114 1
165 114 1
188 114 1
192 114 1
78 115 1
95 115 1
152 115 1
166 115 1
189 115 1
193 115 1
79 116 1
96 116 1
153 116 1
167 116 1
190 116 1
194 116 1
80 117 1
97 117 1
154 117 1
168 117 1
191 117 1
195 117 1
81 118 1
98 118 1
155 118 1
169 118 1
192 118 1
196 118 1
82 119 1
99 119 1
156 119 1
170 119 1
193 119 1
197 119 1
83 120 1
100 120 1
157 120 1
171 120 1
194 120 1
198 120 1
84 121 1
101 121 1
158 121 1
172 121 1
195 121 1
199 121 1
85 122 1
102 122 1
159 122 1
173 122 1
196 122 1
200 122 1
86 123 1
103 123 1
160 123 1
174 123 1
197 123 1
201 123 1
87 124 1
104 124 1
161 124 1
175 124 1
198 124 1
202 124 1
88 125 1
105 125 1
162 125 1
176 125 1
199 125 1
203 125 1
89 126 1
106 126 1
163 126 1
177 126 1
200 126 1
204 126 1
90 127 1
107 127 1
164 127 1
178 127 1
201 127 1
205 127 1
91 128 1
108 128 1
165 128 1
179 128 1
202 128 1
206 128 1
92 129 1
109 129 1
166 129 1
180 129 1
203 129 1
207 129 1
93 130 1
110 130 1
167 130 1
181 130 1
204 130 1
208 130 1
94 131 1
111 131 1
168 131 1
182 131 1
205 131 1
209 131 1
75 132 1
95 132 1
169 132 1
183 132 1
206 132 1
210 132 1
76 133 1
96 133 1
170 133 1
184 133 1
207 133 1
211 133 1
77 134 1
97 134 1
171 134 1
185 134 1
208 134 1
212 134 1
78 135 1
98 135 1
149 135 1
172 135 1
209 135 1
213 135 1
79 136 1
99 136 1
150 136 1
173 136 1
210 136 1
214 136 1
80 137 1
100 137 1
151 137 1
174 137 1
211 137 1
215 137 1
81 138 1
101 138 1
152 138 1
175 138 1
212 138 1
216 138 1
82 139 1
102 139 1
153 139 1
176 139 1
213 139 1
217 139 1
83 140 1
103 140 1
154 140 1
177 140 1
214 140 1
218 140 1
84 141 1
104 141 1
155 141 1
178 141 1
215 141 1
219 141 1
85 142 1
105 142 1
156 142 1
179 142 1
216 142 1
220 142 1
86 143 1
106 143 1
157 143 1
180 143 1
217 143 1
221 143 1
87 144 1
107 144 1
158 144 1
181 144 1
218 144 1
222 144 1
88 145 1
108 145 1
159 145 1
182 145 1
186 145 1
219 145 1
89 146 1
109 146 1
160 146 1
183 146 1
187 146 1
220 146 1
90 147 1
110 147 1
161 147 1
184 147 1
188 147 1
221 147 1
91 148 1
111 148 1
162 148 1
185 148 1
189 148 1
222 148 1
1 149 1
27 149 1
223 149 1
227 149 1
260 149 1
262 149 1
2 150 1
28 150 1
224 150 1
228 150 1
261 150 1
263 150 1
3 151 1
29 151 1
225 151 1
229 151 1
262 151 1
264 151 1
4 152 1
30 152 1
226 152 1
230 152 1
263 152 1
265 152 1
5 153 1
31 153 1
227 153 1
231 153 1
264 153 1
266 153 1
6 154 1
32 154 1
228 154 1
232 154 1
265 154 1
267 154 1
7 155 1
33 155 1
229 155 1
233 155 1
266 155 1
268 155 1
8 156 1
34 156 1
230 156 1
234 156 1
267 156 1
269 156 1
9 157 1
35 157 1
231 157 1
235 157 1
268 157 1
270 157 1
10 158 1
36 158 1
232 158 1
236 158 1
269 158 1
271 158 1
11 159 1
37 159 1
233 159 1
237 159 1
270 159 1
272 159 1
1 160 1
12 160 1
234 160 1
238 160 1
271 160 1
273 160 1
2 161 1
13 161 1
235 161 1
239 161 1
272 161 1
274 161 1
3 162 1
14 162 1
236 162 1
240 162 1
273 162 1
275 162 1
4 163 1
15 163 1
237 163 1
241 163 1
274 163 1
276 163 1
5 164 1
16 164 1
238 164 1
242 164 1
275 164 1
277 164 1
6 165 1
17 165 1
239 165 1
243 165 1
276 165 1
278 165 1
7 166 1
18 166 1
240 166 1
244 166 1
277 166 1
279 166 1
8 167 1
19 167 1
241 167 1
245 167 1
278 167 1
280 167 1
9 168 1
20 168 1
242 168 1
246 168 1
279 168 1
281 168 1
10 169 1
21 169 1
243 169 1
247 169 1
280 169 1
282 169 1
11 170 1
22 170 1
244 170 1
248 170 1
281 170 1
283 170 1
12 171 1
23 171 1
245 171 1
249 171 1
282 171 1
284 171 1
13 172 1
24 172 1
246 172 1
250 172 1
283 172 1
285 172 1
14 173 1
25 173 1
247 173 1
251 173 1
284 173 1
286 173 1
15 174 1
26 174 1
248 174 1
252 174 1
285 174 1
287 174 1
16 175 1
27 175 1
249 175 1
253 175 1
286 175 1
288 175 1
17 176 1
28 176 1
250 176 1
254 176 1
287 176 1
289 176 1
18 177 1
29 177 1
251 177 1
255 177 1
288 177 1
290 177 1
19 178 1
30 178 1
252 178 1
256 178 1
289 178 1
291 178 1
20 179 1
31 179 1
253 179 1
257 179 1
290 179 1
292 179 1
21 180 1
32 180 1
254 180 1
258 180 1
291 180 1
293 180 1
22 181 1
33 181 1
255 181 1
259 181 1
292 181 1
294 181 1
23 182 1
34 182 1
223 182 1
256 182 1
293 182 1
295 182 1
24 183 1
35 183 1
224 183 1
257 183 1
294 183 1
296 183 1
25 184 1
36 184 1
225 184 1
258 184 1
260 184 1
295 184 1
26 185 1
37 185 1
226 185 1
259 185 1
261 185 1
296 185 1
38 186 1
64 186 1
223 186 1
237 186 1
297 186 1
299 186 1
39 187 1
65 187 1
224 187 1
238 187 1
298 187 1
300 187 1
40 188 1
66 188 1
225 188 1
239 188 1
299 188 1
301 188 1
41 189 1
67 189 1
226 189 1
240 189 1
300 189 1
302 189 1
42 190 1
68 190 1
227 190 1
241 190 1
301 190 1
303 190 1
43 191 1
69 191 1
228 191 1
242 191 1
302 191 1
304 191 1
44 192 1
70 192 1
229 192 1
243 192 1
303 192 1
305 192 1
45 193 1
71 193 1
230 193 1
244 193 1
304 193 1
306 193 1
46 194 1
72 194 1
231 194 1
245 194 1
305 194 1
307 194 1
47 195 1
73 195 1
232 195 1
246 195 1
306 195 1
308 195 1
48 196 1
74 196 1
233 196 1
247 196 1
307 196 1
309 196 1
38 197 1
49 197 1
234 197 1
248 197 1
308 197 1
310 197 1
39 198 1
50 198 1
235 198 1
249 198 1
309 198 1
311 198 1
40 199 1
51 199 1
236 199 1
250 199 1
310 199 1
312 199 1
41 200 1
52 200 1
237 200 1
251 200 1
311 200 1
313 200 1
42 201 1
53 201 1
238 201 1
252 201 1
312 201 1
314 201 1
43 202 1
54 202 1
239 202 1
253 202 1
313 202 1
315 202 1
44 203 1
55 203 1
240 203 1
254 203 1
314 203 1
316 203 1
45 204 1
56 204 1
241 204 1
255 204 1
315 204 1
317 204 1
46 205 1
57 205 1
242 205 1
256 205 1
316 205 1
318 205 1
47 206 1
58 206 1
243 206 1
257 206 1
317 206 1
319 206 1
48 207 1
59 207 1
244 207 1
258 207 1
318 207 1
320 207 1
49 208 1
60 208 1
245 208 1
259 208 1
319 208 1
321 208 1
50 209 1
61 209 1
223 209 1
246 209 1
320 209 1
322 209 1
51 210 1
62 210 1
224 210 1
247 210 1
321 210 1
323 210 1
52 211 1
63 211 1
225 211 1
248 211 1
322 211 1
324 211 1
53 212 1
64 212 1
226 212 1
249 212 1
323 212 1
325 212 1
54 213 1
65 213 1
227 213 1
250 213 1
324 213 1
326 213 1
55 214 1
66 214 1
228 214 1
251 214 1
325 214 1
327 214 1
56 215 1
67 215 1
229 215 1
252 215 1
326 215 1
328 215 1
57 216 1
68 216 1
230 216 1
253 216 1
327 216 1
329 216 1
58 217 1
69 217 1
231 217 1
254 217 1
328 217 1
330 217 1
59 218 1
70 218 1
232 218 1
255 218 1
329 218 1
331 218 1
60 219 1
71 219 1
233 219 1
256 219 1
330 219 1
332 219 1
61 220 1
72 220 1
234 220 1
257 220 1
331 220 1
333 220 1
62 221 1
73 221 1
235 221 1
258 221 1
297 221 1
332 221 1
63 222 1
74 222 1
236 222 1
259 222 1
298 222 1
333 222 1
75 223 1
101 223 1
260 223 1
274 223 1
297 223 1
301 223 1
76 224 1
102 224 1
261 224 1
275 224 1
298 224 1
302 224 1
77 225 1
103 225 1
262 225 1
276 225 1
299 225 1
303 225 1
78 226 1
104 226 1
263 226 1
277 226 1
300 226 1
304 226 1
79 227 1
105 227 1
264 227 1
278 227 1
301 227 1
305 227 1
80 228 1
106 228 1
265 228 1
279 228 1
302 228 1
306 228 1
81 229 1
107 229 1
266 229 1
280 229 1
303 229 1
307 229 1
82 230 1
108 230 1
267 230 1
281 230 1
304 230 1
308 230 1
83 231 1
109 231 1
268 231 1
282 231 1
305 231 1
309 231 1
84 232 1
110 232 1
269 232 1
283 232 1
306 232 1
310 232 1
85 233 1
111 233 1
270 233 1
284 233 1
307 233 1
311 233 1
75 234 1
86 234 1
271 234 1
285 234 1
308 234 1
312 234 1
76 235 1
87 235 1
272 235 1
286 235 1
309 235 1
313 235 1
77 236 1
88 236 1
273 236 1
287 236 1
310 236 1
314 236 1
78 237 1
89 237 1
274 237 1
288 237 1
311 237 1
315 237 1
79 238 1
90 238 1
275 238 1
289 238 1
312 238 1
316 238 1
80 239 1
91 239 1
276 239 1
290 239 1
313 239 1
317 239 1
81 240 1
92 240 1
277 240 1
291 240 1
314 240 1
318 240 1
82 241 1
93 241 1
278 241 1
292 241 1
315 241 1
319 241 1
83 242 1
94 242 1
279 242 1
293 242 1
316 242 1
320 242 1
84 243 1
95 243 1
280 243 1
294 243 1
317 243 1
321 243 1
85 244 1
96 244 1
281 244 1
295 244 1
318 244 1
322 244 1
86 245 1
97 245 1
282 245 1
296 245 1
319 245 1
323 245 1
87 246 1
98 246 1
260 246 1
283 246 1
320 246 1
324 246 1
88 247 1
99 247 1
261 247 1
284 247 1
321 247 1
325 247 1
89 248 1
100 248 1
262 248 1
285 248 1
322 248 1
326 248 1
90 249 1
101 249 1
263 249 1
286 249 1
323 249 1
327 249 1
91 250 1
102 250 1
264 250 1
287 250 1
324 250 1
328 250 1
92 251 1
103 251 1
265 251 1
288 251 1
325 251 1
329 251 1
93 252 1
104 252 1
266 252 1
289 252 1
326 252 1
330 252 1
94 253 1
105 253 1
267 253 1
290 253 1
327 253 1
331 253 1
95 254 1
106 254 1
268 254 1
291 254 1
328 254 1
332 254 1
96 255 1
107 255 1
269 255 1
292 255 1
329 255 1
333 255 1
97 256 1
108 256 1
270 256 1
293 256 1
297 256 1
330 256 1
98 257 1
109 257 1
271 257 1
294 257 1
298 257 1
331 257 1
99 258 1
110 258 1
272 258 1
295 258 1
299 258 1
332 258 1
100 259 1
111 259 1
273 259 1
296 259 1
300 259 1
333 259 1
112 260 1
138 260 1
223 260 1
240 260 1
334 260 1
336 260 1
113 261 1
139 261 1
224 261 1
241 261 1
335 261 1
337 261 1
114 262 1
140 262 1
225 262 1
242 262 1
336 262 1
338 262 1
115 263 1
141 263 1
226 263 1
243 263 1
337 263 1
339 263 1
116 264 1
142 264 1
227 264 1
244 264 1
338 264 1
340 264 1
117 265 1
143 265 1
228 265 1
245 265 1
339 265 1
341 265 1
118 266 1
144 266 1
229 266 1
246 266 1
340 266 1
342 266 1
119 267 1
145 267 1
230 267 1
247 267 1
341 267 1
343 267 1
120 268 1
146 268 1
231 268 1
248 268 1
342 268 1
344 268 1
121 269 1
147 269 1
232 269 1
249 269 1
343 269 1
345 269 1
122 270 1
148 270 1
233 270 1
250 270 1
344 270 1
346 270 1
112 271 1
123 271 1
234 271 1
251 271 1
345 271 1
347 271 1
113 272 1
124 272 1
235 272 1
252 272 1
346 272 1
348 272 1
114 273 1
125 273 1
236 273 1
253 273 1
347 273 1
349 273 1
115 274 1
126 274 1
237 274 1
254 274 1
348 274 1
350 274 1
116 275 1
127 275 1
238 275 1
255 275 1
349 275 1
351 275 1
117 276 1
128 276 1
239 276 1
256 276 1
350 276 1
352 276 1
118 277 1
129 277 1
240 277 1
257 277 1
351 277 1
353 277 1
119 278 1
130 278 1
241 278 1
258 278 1
352 278 1
354 278 1
120 279 1
131 279 1
242 279 1
259 279 1
353 279 1
355 279 1
121 280 1
132 280 1
223 280 1
243 280 1
354 280 1
356 280 1
122 281 1
133 281 1
224 281 1
244 281 1
355 281 1
357 281 1
123 282 1
134 282 1
225 282 1
245 282 1
356 282 1
358 282 1
124 283 1
135 283 1
226 283 1
246 283 1
357 283 1
359 283 1
125 284 1
136 284 1
227 284 1
247 284 1
358 284 1
360 284 1
126 285 1
137 285 1
228 285 1
248 285 1
359 285 1
361 285 1
127 286 1
138 286 1
229 286 1
249 286 1
360 286 1
362 286 1
128 287 1
139 287 1
230 287 1
250 287 1
361 287 1
363 287 1
129 288 1
140 288 1
231 288 1
251 288 1
362 288 1
364 288 1
130 289 1
141 289 1
232 289 1
252 289 1
363 289 1
365 289 1
131 290 1
142 290 1
233 290 1
253 290 1
364 290 1
366 290 1
132 291 1
143 291 1
234 291 1
254 291 1
365 291 1
367 291 1
133 292 1
144 292 1
235 292 1
255 292 1
366 292 1
368 292 1
134 293 1
145 293 1
236 293 1
256 293 1
367 293 1
369 293 1
135 294 1
146 294 1
237 294 1
257 294 1
368 294 1
370 294 1
136 295 1
147 295 1
238 295 1
258 295 1
334 295 1
369 295 1
137 296 1
148 296 1
239 296 1
259 296 1
335 296 1
370 296 1
149 297 1
175 297 1
260 297 1
277 297 1
334 297 1
338 297 1
150 298 1
176 298 1
261 298 1
278 298 1
335 298 1
339 298 1
151 299 1
177 299 1
262 299 1
279 299 1
336 299 1
340 299 1
152 300 1
178 300 1
263 300 1
280 300 1
337 300 1
341 300 1
153 301 1
179 301 1
264 301 1
281 301 1
338 301 1
342 301 1
154 302 1
180 302 1
265 302 1
282 302 1
339 302 1
343 302 1
155 303 1
181 303 1
266 303 1
283 303 1
340 303 1
344 303 1
156 304 1
182 304 1
267 304 1
284 304 1
341 304 1
345 304 1
157 305 1
183 305 1
268 305 1
285 305 1
342 305 1
346 305 1
158 306 1
184 306 1
269 306 1
286 306 1
343 306 1
347 306 1
159 307 1
185 307 1
270 307 1
287 307 1
344 307 1
348 307 1
149 308 1
160 308 1
271 308 1
288 308 1
345 308 1
349 308 1
150 309 1
161 309 1
272 309 1
289 309 1
346 309 1
350 309 1
151 310 1
162 310 1
273 310 1
290 310 1
347 310 1
351 310 1
152 311 1
163 311 1
274 311 1
291 311 1
348 311 1
352 311 1
153 312 1
164 312 1
275 312 1
292 312 1
349 312 1
353 312 1
154 313 1
165 313 1
276 313 1
293 313 1
350 313 1
354 313 1
155 314 1
166 314 1
277 314 1
294 314 1
351 314 1
355 314 1
156 315 1
167 315 1
278 315 1
295 315 1
352 315 1
356 315 1
157 316 1
168 316 1
279 316 1
296 316 1
353 316 1
357 316 1
158 317 1
169 317 1
260 317 1
280 317 1
354 317 1
358 317 1
159 318 1
170 318 1
261 318 1
281 318 1
355 318 1
359 318 1
160 319 1
171 319 1
262 319 1
282 319 1
356 319 1
360 319 1
161 320 1
172 320 1
263 320 1
283 320 1
357 320 1
361 320 1
162 321 1
173 321 1
264 321 1
284 321 1
358 321 1
362 321 1
163 322 1
174 322 1
265 322 1
285 322 1
359 322 1
363 322 1
164 323 1
175 323 1
266 323 1
286 323 1
360 323 1
364 323 1
165 324 1
176 324 1
267 324 1
287 324 1
361 324 1
365 324 1
166 325 1
177 325 1
268 325 1
288 325 1
362 325 1
366 325 1
167 326 1
178 326 1
269 326 1
289 326 1
363 326 1
367 326 1
168 327 1
179 327 1
270 327 1
290 327 1
364 327 1
368 327 1
169 328 1
180 328 1
271 328 1
291 328 1
365 328 1
369 328 1
170 329 1
181 329 1
272 329 1
292 329 1
366 329 1
370 329 1
171 330 1
182 330 1
273 330 1
293 330 1
334 330 1
367 330 1
172 331 1
183 331 1
274 331 1
294 331 1
335 331 1
368 331 1
173 332 1
184 332 1
275 332 1
295 332 1
336 332 1
369 332 1
174 333 1
185 333 1
276 333 1
296 333 1
337 333 1
370 333 1
186 334 1
212 334 1
297 334 1
314 334 1
334 334 1
348 334 1
187 335 1
213 335 1
298 335 1
315 335 1
335 335 1
349 335 1
188 336 1
214 336 1
299 336 1
316 336 1
336 336 1
350 336 1
189 337 1
215 337 1
300 337 1
317 337 1
337 337 1
351 337 1
190 338 1
216 338 1
301 338 1
318 338 1
338 338 1
352 338 1
191 339 1
217 339 1
302 339 1
319 339 1
339 339 1
353 339 1
192 340 1
218 340 1
303 340 1
320 340 1
340 340 1
354 340 1
193 341 1
219 341 1
304 341 1
321 341 1
341 341 1
355 341 1
194 342 1
220 342 1
305 342 1
322 342 1
342 342 1
356 342 1
195 343 1
221 343 1
306 343 1
323 343 1
343 343 1
357 343 1
196 344 1
222 344 1
307 344 1
324 344 1
344 344 1
358 344 1
186 345 1
197 345 1
308 345 1
325 345 1
345 345 1
359 345 1
187 346 1
198 346 1
309 346 1
326 346 1
346 346 1
360 346 1
188 347 1
199 347 1
310 347 1
327 347 1
347 347 1
361 347 1
189 348 1
200 348 1
311 348 1
328 348 1
348 348 1
362 348 1
190 349 1
201 349 1
312 349 1
329 349 1
349 349 1
363 349 1
191 350 1
202 350 1
313 350 1
330 350 1
350 350 1
364 350 1
192 351 1
203 351 1
314 351 1
331 351 1
351 351 1
365 351 1
193 352 1
204 352 1
315 352 1
332 352 1
352 352 1
366 352 1
194 353 1
205 353 1
316 353 1
333 353 1
353 353 1
367 353 1
195 354 1
206 354 1
297 354 1
317 354 1
354 354 1
368 354 1
196 355 1
207 355 1
298 355 1
318 355 1
355 355 1
369 355 1
197 356 1
208 356 1
299 356 1
319 356 1
356 356 1
370 356 1
198 357 1
209 357 1
300 357 1
320 357 1
334 357 1
357 357 1
199 358 1
210 358 1
301 358 1
321 358 1
335 358 1
358 358 1
200 359 1
211 359 1
302 359 1
322 359 1
336 359 1
359 359 1
201 360 1
212 360 1
303 360 1
323 360 1
337 360 1
360 360 1
202 361 1
213 361 1
304 361 1
324 361 1
338 361 1
361 361 1
203 362 1
214 362 1
305 362 1
325 362 1
339 362 1
362 362 1
204 363 1
215 363 1
306 363 1
326 363 1
340 363 1
363 363 1
205 364 1
216 364 1
307 364 1
327 364 1
341 364 1
364 364 1
206 365 1
217 365 1
308 365 1
328 365 1
342 365 1
365 365 1
207 366 1
218 366 1
309 366 1
329 366 1
343 366 1
366 366 1
208 367 1
219 367 1
310 367 1
330 367 1
344 367 1
367 367 1
209 368 1
220 368 1
311 368 1
331 368 1
345 368 1
368 368 1
210 369 1
221 369 1
312 369 1
332 369 1
346 369 1
369 369 1
211 370 1
222 370 1
313 370 1
333 370 1
347 370 1
370 370 1
1 371 1
33 371 1
371 371 1
375 371 1
408 371 1
410 371 1
2 372 1
34 372 1
372 372 1
376 372 1
409 372 1
411 372 1
3 373 1
35 373 1
373 373 1
377 373 1
410 373 1
412 373 1
4 374 1
36 374 1
374 374 1
378 374 1
411 374 1
413 374 1
5 375 1
37 375 1
375 375 1
379 375 1
412 375 1
414 375 1
1 376 1
6 376 1
376 376 1
380 376 1
413 376 1
415 376 1
2 377 1
7 377 1
377 377 1
381 377 1
414 377 1
416 377 1
3 378 1
8 378 1
378 378 1
382 378 1
415 378 1
417 378 1
4 379 1
9 379 1
379 379 1
383 379 1
416 379 1
418 379 1
5 380 1
10 380 1
380 380 1
384 380 1
417 380 1
419 380 1
6 381 1
11 381 1
381 381 1
385 381 1
418 381 1
420 381 1
7 382 1
12 382 1
382 382 1
386 382 1
419 382 1
421 382 1
8 383 1
13 383 1
383 383 1
387 383 1
420 383 1
422 383 1
9 384 1
14 384 1
384 384 1
388 384 1
421 384 1
423 384 1
10 385 1
15 385 1
385 385 1
389 385 1
422 385 1
424 385 1
11 386 1
16 386 1
386 386 1
390 386 1
423 386 1
425 386 1
12 387 1
17 387 1
387 387 1
391 387 1
424 387 1
426 387 1
13 388 1
18 388 1
388 388 1
392 388 1
425 388 1
427 388 1
14 389 1
19 389 1
389 389 1
393 389 1
426 389 1
428 389 1
15 390 1
20 390 1
390 390 1
394 390 1
427 390 1
429 390 1
16 391 1
21 391 1
391 391 1
395 391 1
428 391 1
430 391 1
17 392 1
22 392 1
392 392 1
396 392 1
429 392 1
431 392 1
18 393 1
23 393 1
393 393 1
397 393 1
430 393 1
432 393 1
19 394 1
24 394 1
394 394 1
398 394 1
431 394 1
433 394 1
20 395 1
25 395 1
395 395 1
399 395 1
432 395 1
434 395 1
21 396 1
26 396 1
396 396 1
400 396 1
433 396 1
435 396 1
22 397 1
27 397 1
397 397 1
401 397 1
434 397 1
436 397 1
23 398 1
28 398 1
398 398 1
402 398 1
435 398 1
437 398 1
24 399 1
29 399 1
399 399 1
403 399 1
436 399 1
438 399 1
25 400 1
30 400 1
400 400 1
404 400 1
437 400 1
439 400 1
26 401 1
31 401 1
401 401 1
405 401 1
438 401 1
440 401 1
27 402 1
32 402 1
402 402 1
406 402 1
439 402 1
441 402 1
28 403 1
33 403 1
403 403 1
407 403 1
440 403 1
442 403 1
29 404 1
34 404 1
371 404 1
404 404 1
441 404 1
443 404 1
30 405 1
35 405 1
372 405 1
405 405 1
442 405 1
444 405 1
31 406 1
36 406 1
373 406 1
406 406 1
408 406 1
443 406 1
32 407 1
37 407 1
374 407 1
407 407 1
409 407 1
444 407 1
38 408 1
70 408 1
371 408 1
385 408 1
445 408 1
447 408 1
39 409 1
71 409 1
372 409 1
386 409 1
446 409 1
448 409 1
40 410 1
72 410 1
373 410 1
387 410 1
447 410 1
449 410 1
41 411 1
73 411 1
374 411 1
388 411 1
448 411 1
450 411 1
42 412 1
74 412 1
375 412 1
389 412 1
449 412 1
451 412 1
38 413 1
43 413 1
376 413 1
390 413 1
450 413 1
452 413 1
39 414 1
44 414 1
377 414 1
391 414 1
451 414 1
453 414 1
40 415 1
45 415 1
378 415 1
392 415 1
452 415 1
454 415 1
41 416 1
46 416 1
379 416 1
393 416 1
453 416 1
455 416 1
42 417 1
47 417 1
380 417 1
394 417 1
454 417 1
456 417 1
43 418 1
48 418 1
381 418 1
395 418 1
455 418 1
457 418 1
44 419 1
49 419 1
382 419 1
396 419 1
456 419 1
458 419 1
45 420 1
50 420 1
383 420 1
397 420 1
457 420 1
459 420 1
46 421 1
51 421 1
384 421 1
398 421 1
458 421 1
460 421 1
47 422 1
52 422 1
385 422 1
399 422 1
459 422 1
461 422 1
48 423 1
53 423 1
386 423 1
400 423 1
460 423 1
462 423 1
49 424 1
54 424 1
387 424 1
401 424 1
461 424 1
463 424 1
50 425 1
55 425 1
388 425 1
402 425 1
462 425 1
464 425 1
51 426 1
56 426 1
389 426 1
403 426 1
463 426 1
465 426 1
52 427 1
57 427 1
390 427 1
404 427 1
464 427 1
466 427 1
53 428 1
58 428 1
391 428 1
405 428 1
465 428 1
467 428 1
54 429 1
59 429 1
392 429 1
406 429 1
466 429 1
468 429 1
55 430 1
60 430 1
393 430 1
407 430 1
467 430 1
469 430 1
56 431 1
61 431 1
371 431 1
394 431 1
468 431 1
470 431 1
57 432 1
62 432 1
372 432 1
395 432 1
469 432 1
471 432 1
58 433 1
63 433 1
373 433 1
396 433 1
470 433 1
472 433 1
59 434 1
64 434 1
374 434 1
397 434 1
471 434 1
473 434 1
60 435 1
65 435 1
375 435 1
398 435 1
472 435 1
474 435 1
61 436 1
66 436 1
376 436 1
399 436 1
473 436 1
475 436 1
62 437 1
67 437 1
377 437 1
400 437 1
474 437 1
476 437 1
63 438 1
68 438 1
378 438 1
401 438 1
475 438 1
477 438 1
64 439 1
69 439 1
379 439 1
402 439 1
476 439 1
478 439 1
65 440 1
70 440 1
380 440 1
403 440 1
477 440 1
479 440 1
66 441 1
71 441 1
381 441 1
404 441 1
478 441 1
480 441 1
67 442 1
72 442 1
382 442 1
405 442 1
479 442 1
481 442 1
68 443 1
73 443 1
383 443 1
406 443 1
445 443 1
480 443 1
69 444 1
74 444 1
384 444 1
407 444 1
446 444 1
481 444 1
75 445 1
107 445 1
408 445 1
422 445 1
445 445 1
449 445 1
76 446 1
108 446 1
409 446 1
423 446 1
446 446 1
450 446 1
77 447 1
109 447 1
410 447 1
424 447 1
447 447 1
451 447 1
78 448 1
110 448 1
411 448 1
425 448 1
448 448 1
452 448 1
79 449 1
111 449 1
412 449 1
426 449 1
449 449 1
453 449 1
75 450 1
80 450 1
413 450 1
427 450 1
450 450 1
454 450 1
76 451 1
81 451 1
414 451 1
428 451 1
451 451 1
455 451 1
77 452 1
82 452 1
415 452 1
429 452 1
452 452 1
456 452 1
78 453 1
83 453 1
416 453 1
430 453 1
453 453 1
457 453 1
79 454 1
84 454 1
417 454 1
431 454 1
454 454 1
458 454 1
80 455 1
85 455 1
418 455 1
432 455 1
455 455 1
459 455 1
81 456 1
86 456 1
419 456 1
433 456 1
456 456 1
460 456 1
82 457 1
87 457 1
420 457 1
434 457 1
457 457 1
461 457 1
83 458 1
88 458 1
421 458 1
435 458 1
458 458 1
462 458 1
84 459 1
89 459 1
422 459 1
436 459 1
459 459 1
463 459 1
85 460 1
90 460 1
423 460 1
437 460 1
460 460 1
464 460 1
86 461 1
91 461 1
424 461 1
438 461 1
461 461 1
465 461 1
87 462 1
92 462 1
425 462 1
439 462 1
462 462 1
466 462 1
88 463 1
93 463 1
426 463 1
440 463 1
463 463 1
467 463 1
89 464 1
94 464 1
427 464 1
441 464 1
464 464 1
468 464 1
90 465 1
95 465 1
428 465 1
442 465 1
465 465 1
469 465 1
91 466 1
96 466 1
429 466 1
443 466 1
466 466 1
470 466 1
92 467 1
97 467 1
430 467 1
444 467 1
467 467 1
471 467 1
93 468 1
98 468 1
408 468 1
431 468 1
468 468 1
472 468 1
94 469 1
99 469 1
409 469 1
432 469 1
469 469 1
473 469 1
95 470 1
100 470 1
410 470 1
433 470 1
470 470 1
474 470 1
96 471 1
101 471 1
411 471 1
434 471 1
471 471 1
475 471 1
97 472 1
102 472 1
412 472 1
435 472 1
472 472 1
476 472 1
98 473 1
103 473 1
413 473 1
436 473 1
473 473 1
477 473 1
99 474 1
104 474 1
414 474 1
437 474 1
474 474 1
478 474 1
100 475 1
105 475 1
415 475 1
438 475 1
475 475 1
479 475 1
101 476 1
106 476 1
416 476 1
439 476 1
476 476 1
480 476 1
102 477 1
107 477 1
417 477 1
440 477 1
477 477 1
481 477 1
103 478 1
108 478 1
418 478 1
441 478 1
445 478 1
478 478 1
104 479 1
109 479 1
419 479 1
442 479 1
446 479 1
479 479 1
105 480 1
110 480 1
420 480 1
443 480 1
447 480 1
480 480 1
106 481 1
111 481 1
421 481 1
444 481 1
448 481 1
481 481 1
112 482 1
144 482 1
371 482 1
388 482 1
482 482 1
484 482 1
113 483 1
145 483 1
372 483 1
389 483 1
483 483 1
485 483 1
114 484 1
146 484 1
373 484 1
390 484 1
484 484 1
486 484 1
115 485 1
147 485 1
374 485 1
391 485 1
485 485 1
487 485 1
116 486 1
148 486 1
375 486 1
392 486 1
486 486 1
488 486 1
112 487 1
117 487 1
376 487 1
393 487 1
487 487 1
489 487 1
113 488 1
118 488 1
377 488 1
394 488 1
488 488 1
490 488 1
114 489 1
119 489 1
378 489 1
395 489 1
489 489 1
491 489 1
115 490 1
120 490 1
379 490 1
396 490 1
490 490 1
492 490 1
116 491 1
121 491 1
380 491 1
397 491 1
491 491 1
493 491 1
117 492 1
122 492 1
381 492 1
398 492 1
492 492 1
494 492 1
118 493 1
123 493 1
382 493 1
399 493 1
493 493 1
495 493 1
119 494 1
124 494 1
383 494 1
400 494 1
494 494 1
496 494 1
120 495 1
125 495 1
384 495 1
401 495 1
495 495 1
497 495 1
121 496 1
126 496 1
385 496 1
402 496 1
496 496 1
498 496 1
122 497 1
127 497 1
386 497 1
403 497 1
497 497 1
499 497 1
123 498 1
128 498 1
387 498 1
404 498 1
498 498 1
500 498 1
124 499 1
129 499 1
388 499 1
405 499 1
499 499 1
501 499 1
125 500 1
130 500 1
389 500 1
406 500 1
500 500 1
502 500 1
126 501 1
131 501 1
390 501 1
407 501 1
501 501 1
503 501 1
127 502 1
132 502 1
371 502 1
391 502 1
502 502 1
504 502 1
128 503 1
133 503 1
372 503 1
392 503 1
503 503 1
505 503 1
129 504 1
134 504 1
373 504 1
393 504 1
504 504 1
506 504 1
130 505 1
135 505 1
374 505 1
394 505 1
505 505 1
507 505 1
131 506 1
136 506 1
375 506 1
395 506 1
506 506 1
508 506 1
132 507 1
137 507 1
376 507 1
396 507 1
507 507 1
509 507 1
133 508 1
138 508 1
377 508 1
397 508 1
508 508 1
510 508 1
134 509 1
139 509 1
378 509 1
398 509 1
509 509 1
511 509 1
135 510 1
140 510 1
379 510 1
399 510 1
510 510 1
512 510 1
136 511 1
141 511 1
380 511 1
400 511 1
511 511 1
513 511 1
137 512 1
142 512 1
381 512 1
401 512 1
512 512 1
514 512 1
138 513 1
143 513 1
382 513 1
402 513 1
513 513 1
515 513 1
139 514 1
144 514 1
383 514 1
403 514 1
514 514 1
516 514 1
140 515 1
145 515 1
384 515 1
404 515 1
515 515 1
517 515 1
141 516 1
146 516 1
385 516 1
405 516 1
516 516 1
518 516 1
142 517 1
147 517 1
386 517 1
406 517 1
482 517 1
517 517 1
143 518 1
148 518 1
387 518 1
407 518 1
483 518 1
518 518 1
149 519 1
181 519 1
408 519 1
425 519 1
482 519 1
486 519 1
150 520 1
182 520 1
409 520 1
426 520 1
483 520 1
487 520 1
151 521 1
183 521 1
410 521 1
427 521 1
484 521 1
488 521 1
152 522 1
184 522 1
411 522 1
428 522 1
485 522 1
489 522 1
153 523 1
185 523 1
412 523 1
429 523 1
486 523 1
490 523 1
149 524 1
154 524 1
413 524 1
430 524 1
487 524 1
491 524 1
150 525 1
155 525 1
414 525 1
431 525 1
488 525 1
492 525 1
151 526 1
156 526 1
415 526 1
432 526 1
489 526 1
493 526 1
152 527 1
157 527 1
416 527 1
433 527 1
490 527 1
494 527 1
153 528 1
158 528 1
417 528 1
434 528 1
491 528 1
495 528 1
154 529 1
159 529 1
418 529 1
435 529 1
492 529 1
496 529 1
155 530 1
160 530 1
419 530 1
436 530 1
493 530 1
497 530 1
156 531 1
161 531 1
420 531 1
437 531 1
494 531 1
498 531 1
157 532 1
162 532 1
421 532 1
438 532 1
495 532 1
499 532 1
158 533 1
163 533 1
422 533 1
439 533 1
496 533 1
500 533 1
159 534 1
164 534 1
423 534 1
440 534 1
497 534 1
501 534 1
160 535 1
165 535 1
424 535 1
441 535 1
498 535 1
502 535 1
161 536 1
166 536 1
425 536 1
442 536 1
499 536 1
503 536 1
162 537 1
167 537 1
426 537 1
443 537 1
500 537 1
504 537 1
163 538 1
168 538 1
427 538 1
444 538 1
501 538 1
505 538 1
164 539 1
169 539 1
408 539 1
428 539 1
502 539 1
506 539 1
165 540 1
170 540 1
409 540 1
429 540 1
503 540 1
507 540 1
166 541 1
171 541 1
410 541 1
430 541 1
504 541 1
508 541 1
167 542 1
172 542 1
411 542 1
431 542 1
505 542 1
509 542 1
168 543 1
173 543 1
412 543 1
432 543 1
506 543 1
510 543 1
169 544 1
174 544 1
413 544 1
433 544 1
507 544 1
511 544 1
170 545 1
175 545 1
414 545 1
434 545 1
508 545 1
512 545 1
171 546 1
176 546 1
415 546 1
435 546 1
509 546 1
513 546 1
172 547 1
177 547 1
416 547 1
436 547 1
510 547 1
514 547 1
173 548 1
178 548 1
417 548 1
437 548 1
511 548 1
515 548 1
174 549 1
179 549 1
418 549 1
438 549 1
512 549 1
516 549 1
175 550 1
180 550 1
419 550 1
439 550 1
513 550 1
517 550 1
176 551 1
181 551 1
420 551 1
440 551 1
514 551 1
518 551 1
177 552 1
182 552 1
421 552 1
441 552 1
482 552 1
515 552 1
178 553 1
183 553 1
422 553 1
442 553 1
483 553 1
516 553 1
179 554 1
184 554 1
423 554 1
443 554 1
484 554 1
517 554 1
180 555 1
185 555 1
424 555 1
444 555 1
485 555 1
518 555 1
186 556 1
218 556 1
445 556 1
462 556 1
482 556 1
496 556 1
187 557 1
219 557 1
446 557 1
463 557 1
483 557 1
497 557 1
188 558 1
220 558 1
447 558 1
464 558 1
484 558 1
498 558 1
189 559 1
221 559 1
448 559 1
465 559 1
485 559 1
499 559 1
190 560 1
222 560 1
449 560 1
466 560 1
486 560 1
500 560 1
186 561 1
191 561 1
450 561 1
467 561 1
487 561 1
501 561 1
187 562 1
192 562 1
451 562 1
468 562 1
488 562 1
502 562 1
188 563 1
193 563 1
452 563 1
469 563 1
489 563 1
503 563 1
189 564 1
194 564 1
453 564 1
470 564 1
490 564 1
504 564 1
190 565 1
195 565 1
454 565 1
471 565 1
491 565 1
505 565 1
191 566 1
196 566 1
455 566 1
472 566 1
492 566 1
506 566 1
192 567 1
197 567 1
456 567 1
473 567 1
493 567 1
507 567 1
193 568 1
198 568 1
457 568 1
474 568 1
494 568 1
508 568 1
194 569 1
199 569 1
458 569 1
475 569 1
495 569 1
509 569 1
195 570 1
200 570 1
459 570 1
476 570 1
496 570 1
510 570 1
196 571 1
201 571 1
460 571 1
477 571 1
497 571 1
511 571 1
197 572 1
202 572 1
461 572 1
478 572 1
498 572 1
512 572 1
198 573 1
203 573 1
462 573 1
479 573 1
499 573 1
513 573 1
199 574 1
204 574 1
463 574 1
480 574 1
500 574 1
514 574 1
200 575 1
205 575 1
464 575 1
481 575 1
501 575 1
515 575 1
201 576 1
206 576 1
445 576 1
465 576 1
502 576 1
516 576 1
202 577 1
207 577 1
446 577 1
466 577 1
503 577 1
517 577 1
203 578 1
208 578 1
447 578 1
467 578 1
504 578 1
518 578 1
204 579 1
209 579 1
448 579 1
468 579 1
482 579 1
505 579 1
205 580 1
210 580 1
449 580 1
469 580 1
483 580 1
506 580 1
206 581 1
211 581 1
450 581 1
470 581 1
484 581 1
507 581 1
207 582 1
212 582 1
451 582 1
471 582 1
485 582 1
508 582 1
208 583 1
213 583 1
452 583 1
472 583 1
486 583 1
509 583 1
209 584 1
214 584 1
453 584 1
473 584 1
487 584 1
510 584 1
210 585 1
215 585 1
454 585 1
474 585 1
488 585 1
511 585 1
211 586 1
216 586 1
455 586 1
475 586 1
489 586 1
512 586 1
212 587 1
217 587 1
456 587 1
476 587 1
490 587 1
513 587 1
213 588 1
218 588 1
457 588 1
477 588 1
491 588 1
514 588 1
214 589 1
219 589 1
458 589 1
478 589 1
492 589 1
515 589 1
215 590 1
220 590 1
459 590 1
479 590 1
493 590 1
516 590 1
216 591 1
221 591 1
460 591 1
480 591 1
494 591 1
517 591 1
217 592 1
222 592 1
461 592 1
481 592 1
495 592 1
518 592 1
223 593 1
255 593 1
371 593 1
397 593 1
519 593 1
521 593 1
224 594 1
256 594 1
372 594 1
398 594 1
520 594 1
522 594 1
225 595 1
257 595 1
373 595 1
399 595 1
521 595 1
523 595 1
226 596 1
258 596 1
374 596 1
400 596 1
522 596 1
524 596 1
227 597 1
259 597 1
375 597 1
401 597 1
523 597 1
525 597 1
223 598 1
228 598 1
376 598 1
402 598 1
524 598 1
526 598 1
224 599 1
229 599 1
377 599 1
403 599 1
525 599 1
527 599 1
225 600 1
230 600 1
378 600 1
404 600 1
526 600 1
528 600 1
226 601 1
231 601 1
379 601 1
405 601 1
527 601 1
529 601 1
227 602 1
232 602 1
380 602 1
406 602 1
528 602 1
530 602 1
228 603 1
233 603 1
381 603 1
407 603 1
529 603 1
531 603 1
229 604 1
234 604 1
371 604 1
382 604 1
530 604 1
532 604 1
230 605 1
235 605 1
372 605 1
383 605 1
531 605 1
533 605 1
231 606 1
236 606 1
373 606 1
384 606 1
532 606 1
534 606 1
232 607 1
237 607 1
374 607 1
385 607 1
533 607 1
535 607 1
233 608 1
238 608 1
375 608 1
386 608 1
534 608 1
536 608 1
234 609 1
239 609 1
376 609 1
387 609 1
535 609 1
537 609 1
235 610 1
240 610 1
377 610 1
388 610 1
536 610 1
538 610 1
236 611 1
241 611 1
378 611 1
389 611 1
537 611 1
539 611 1
237 612 1
242 612 1
379 612 1
390 612 1
538 612 1
540 612 1
238 613 1
243 613 1
380 613 1
391 613 1
539 613 1
541 613 1
239 614 1
244 614 1
381 614 1
392 614 1
540 614 1
542 614 1
240 615 1
245 615 1
382 615 1
393 615 1
541 615 1
543 615 1
241 616 1
246 616 1
383 616 1
394 616 1
542 616 1
544 616 1
242 617 1
247 617 1
384 617 1
395 617 1
543 617 1
545 617 1
243 618 1
248 618 1
385 618 1
396 618 1
544 618 1
546 618 1
244 619 1
249 619 1
386 619 1
397 619 1
545 619 1
547 619 1
245 620 1
250 620 1
387 620 1
398 620 1
546 620 1
548 620 1
246 621 1
251 621 1
388 621 1
399 621 1
547 621 1
549 621 1
247 622 1
252 622 1
389 622 1
400 622 1
548 622 1
550 622 1
248 623 1
253 623 1
390 623 1
401 623 1
549 623 1
551 623 1
249 624 1
254 624 1
391 624 1
402 624 1
550 624 1
552 624 1
250 625 1
255 625 1
392 625 1
403 625 1
551 625 1
553 625 1
251 626 1
256 626 1
393 626 1
404 626 1
552 626 1
554 626 1
252 627 1
257 627 1
394 627 1
405 627 1
553 627 1
555 627 1
253 628 1
258 628 1
395 628 1
406 628 1
519 628 1
554 628 1
254 629 1
259 629 1
396 629 1
407 629 1
520 629 1
555 629 1
260 630 1
292 630 1
408 630 1
434 630 1
519 630 1
523 630 1
261 631 1
293 631 1
409 631 1
435 631 1
520 631 1
524 631 1
262 632 1
294 632 1
410 632 1
436 632 1
521 632 1
525 632 1
263 633 1
295 633 1
411 633 1
437 633 1
522 633 1
526 633 1
264 634 1
296 634 1
412 634 1
438 634 1
523 634 1
527 634 1
260 635 1
265 635 1
413 635 1
439 635 1
524 635 1
528 635 1
261 636 1
266 636 1
414 636 1
440 636 1
525 636 1
529 636 1
262 637 1
267 637 1
415 637 1
441 637 1
526 637 1
530 637 1
263 638 1
268 638 1
416 638 1
442 638 1
527 638 1
531 638 1
264 639 1
269 639 1
417 639 1
443 639 1
528 639 1
532 639 1
265 640 1
270 640 1
418 640 1
444 640 1
529 640 1
533 640 1
266 641 1
271 641 1
408 641 1
419 641 1
530 641 1
534 641 1
267 642 1
272 642 1
409 642 1
420 642 1
531 642 1
535 642 1
268 643 1
273 643 1
410 643 1
421 643 1
532 643 1
536 643 1
269 644 1
274 644 1
411 644 1
422 644 1
533 644 1
537 644 1
270 645 1
275 645 1
412 645 1
423 645 1
534 645 1
538 645 1
271 646 1
276 646 1
413 646 1
424 646 1
535 646 1
539 646 1
272 647 1
277 647 1
414 647 1
425 647 1
536 647 1
540 647 1
273 648 1
278 648 1
415 648 1
426 648 1
537 648 1
541 648 1
274 649 1
279 649 1
416 649 1
427 649 1
538 649 1
542 649 1
275 650 1
280 650 1
417 650 1
428 650 1
539 650 1
543 650 1
276 651 1
281 651 1
418 651 1
429 651 1
540 651 1
544 651 1
277 652 1
282 652 1
419 652 1
430 652 1
541 652 1
545 652 1
278 653 1
283 653 1
420 653 1
431 653 1
542 653 1
546 653 1
279 654 1
284 654 1
421 654 1
432 654 1
543 654 1
547 654 1
280 655 1
285 655 1
422 655 1
433 655 1
544 655 1
548 655 1
281 656 1
286 656 1
423 656 1
434 656 1
545 656 1
549 656 1
282 657 1
287 657 1
424 657 1
435 657 1
546 657 1
550 657 1
283 658 1
288 658 1
425 658 1
436 658 1
547 658 1
551 658 1
284 659 1
289 659 1
426 659 1
437 659 1
548 659 1
552 659 1
285 660 1
290 660 1
427 660 1
438 660 1
549 660 1
553 660 1
286 661 1
291 661 1
428 661 1
439 661 1
550 661 1
554 661 1
287 662 1
292 662 1
429 662 1
440 662 1
551 662 1
555 662 1
288 663 1
293 663 1
430 663 1
441 663 1
519 663 1
552 663 1
289 664 1
294 664 1
431 664 1
442 664 1
520 664 1
553 664 1
290 665 1
295 665 1
432 665 1
443 665 1
521 665 1
554 665 1
291 666 1
296 666 1
433 666 1
444 666 1
522 666 1
555 666 1
297 667 1
329 667 1
445 667 1
471 667 1
519 667 1
533 667 1
298 668 1
330 668 1
446 668 1
472 668 1
520 668 1
534 668 1
299 669 1
331 669 1
447 669 1
473 669 1
521 669 1
535 669 1
300 670 1
332 670 1
448 670 1
474 670 1
522 670 1
536 670 1
301 671 1
333 671 1
449 671 1
475 671 1
523 671 1
537 671 1
297 672 1
302 672 1
450 672 1
476 672 1
524 672 1
538 672 1
298 673 1
303 673 1
451 673 1
477 673 1
525 673 1
539 673 1
299 674 1
304 674 1
452 674 1
478 674 1
526 674 1
540 674 1
300 675 1
305 675 1
453 675 1
479 675 1
527 675 1
541 675 1
301 676 1
306 676 1
454 676 1
480 676 1
528 676 1
542 676 1
302 677 1
307 677 1
455 677 1
481 677 1
529 677 1
543 677 1
303 678 1
308 678 1
445 678 1
456 678 1
530 678 1
544 678 1
304 679 1
309 679 1
446 679 1
457 679 1
531 679 1
545 679 1
305 680 1
310 680 1
447 680 1
458 680 1
532 680 1
546 680 1
306 681 1
311 681 1
448 681 1
459 681 1
533 681 1
547 681 1
307 682 1
312 682 1
449 682 1
460 682 1
534 682 1
548 682 1
308 683 1
313 683 1
450 683 1
461 683 1
535 683 1
549 683 1
309 684 1
314 684 1
451 684 1
462 684 1
536 684 1
550 684 1
310 685 1
315 685 1
452 685 1
463 685 1
537 685 1
551 685 1
311 686 1
316 686 1
453 686 1
464 686 1
538 686 1
552 686 1
312 687 1
317 687 1
454 687 1
465 687 1
539 687 1
553 687 1
313 688 1
318 688 1
455 688 1
466 688 1
540 688 1
554 688 1
314 689 1
319 689 1
456 689 1
467 689 1
541 689 1
555 689 1
315 690 1
320 690 1
457 690 1
468 690 1
519 690 1
542 690 1
316 691 1
321 691 1
458 691 1
469 691 1
520 691 1
543 691 1
317 692 1
322 692 1
459 692 1
470 692 1
521 692 1
544 692 1
318 693 1
323 693 1
460 693 1
471 693 1
522 693 1
545 693 1
319 694 1
324 694 1
461 694 1
472 694 1
523 694 1
546 694 1
320 695 1
325 695 1
462 695 1
473 695 1
524 695 1
547 695 1
321 696 1
326 696 1
463 696 1
474 696 1
525 696 1
548 696 1
322 697 1
327 697 1
464 697 1
475 697 1
526 697 1
549 697 1
323 698 1
328 698 1
465 698 1
476 698 1
527 698 1
550 698 1
324 699 1
329 699 1
466 699 1
477 699 1
528 699 1
551 699 1
325 700 1
330 700 1
467 700 1
478 700 1
529 700 1
552 700 1
326 701 1
331 701 1
468 701 1
479 701 1
530 701 1
553 701 1
327 702 1
332 702 1
469 702 1
480 702 1
531 702 1
554 702 1
328 703 1
333 703 1
470 703 1
481 703 1
532 703 1
555 703 1
334 704 1
366 704 1
482 704 1
508 704 1
519 704 1
536 704 1
335 705 1
367 705 1
483 705 1
509 705 1
520 705 1
537 705 1
336 706 1
368 706 1
484 706 1
510 706 1
521 706 1
538 706 1
337 707 1
369 707 1
485 707 1
511 707 1
522 707 1
539 707 1
338 708 1
370 708 1
486 708 1
512 708 1
523 708 1
540 708 1
334 709 1
339 709 1
487 709 1
513 709 1
524 709 1
541 709 1
335 710 1
340 710 1
488 710 1
514 710 1
525 710 1
542 710 1
336 711 1
341 711 1
489 711 1
515 711 1
526 711 1
543 711 1
337 712 1
342 712 1
490 712 1
516 712 1
527 712 1
544 712 1
338 713 1
343 713 1
491 713 1
517 713 1
528 713 1
545 713 1
339 714 1
344 714 1
492 714 1
518 714 1
529 714 1
546 714 1
340 715 1
345 715 1
482 715 1
493 715 1
530 715 1
547 715 1
341 716 1
346 716 1
483 716 1
494 716 1
531 716 1
548 716 1
342 717 1
347 717 1
484 717 1
495 717 1
532 717 1
549 717 1
343 718 1
348 718 1
485 718 1
496 718 1
533 718 1
550 718 1
344 719 1
349 719 1
486 719 1
497 719 1
534 719 1
551 719 1
345 720 1
350 720 1
487 720 1
498 720 1
535 720 1
552 720 1
346 721 1
351 721 1
488 721 1
499 721 1
536 721 1
553 721 1
347 722 1
352 722 1
489 722 1
500 722 1
537 722 1
554 722 1
348 723 1
353 723 1
490 723 1
501 723 1
538 723 1
555 723 1
349 724 1
354 724 1
491 724 1
502 724 1
519 724 1
539 724 1
350 725 1
355 725 1
492 725 1
503 725 1
520 725 1
540 725 1
351 726 1
356 726 1
493 726 1
504 726 1
521 726 1
541 726 1
352 727 1
357 727 1
494 727 1
505 727 1
522 727 1
542 727 1
353 728 1
358 728 1
495 728 1
506 728 1
523 728 1
543 728 1
354 729 1
359 729 1
496 729 1
507 729 1
524 729 1
544 729 1
355 730 1
360 730 1
497 730 1
508 730 1
525 730 1
545 730 1
356 731 1
361 731 1
498 731 1
509 731 1
526 731 1
546 731 1
357 732 1
362 732 1
499 732 1
510 732 1
527 732 1
547 732 1
358 733 1
363 733 1
500 733 1
511 733 1
528 733 1
548 733 1
359 734 1
364 734 1
501 734 1
512 734 1
529 734 1
549 734 1
360 735 1
365 735 1
502 735 1
513 735 1
530 735 1
550 735 1
361 736 1
366 736 1
503 736 1
514 736 1
531 736 1
551 736 1
362 737 1
367 737 1
504 737 1
515 737 1
532 737 1
552 737 1
363 738 1
368 738 1
505 738 1
516 738 1
533 738 1
553 738 1
364 739 1
369 739 1
506 739 1
517 739 1
534 739 1
554 739 1
365 740 1
370 740 1
507 740 1
518 740 1
535 740 1
555 740 1
