%%MatrixMarket matrix coordinate integer general
% Binary matrix; one-based indices; arithmetic over GF(2)
240 360 1440
1 1 1
19 1 1
61 1 1
65 1 1
2 2 1
20 2 1
62 2 1
66 2 1
3 3 1
21 3 1
63 3 1
67 3 1
4 4 1
22 4 1
64 4 1
68 4 1
5 5 1
23 5 1
65 5 1
69 5 1
6 6 1
24 6 1
66 6 1
70 6 1
7 7 1
25 7 1
67 7 1
71 7 1
8 8 1
26 8 1
68 8 1
72 8 1
9 9 1
27 9 1
69 9 1
73 9 1
10 10 1
28 10 1
70 10 1
74 10 1
11 11 1
29 11 1
71 11 1
75 11 1
12 12 1
30 12 1
72 12 1
76 12 1
13 13 1
31 13 1
73 13 1
77 13 1
14 14 1
32 14 1
74 14 1
78 14 1
15 15 1
33 15 1
75 15 1
79 15 1
16 16 1
34 16 1
76 16 1
80 16 1
17 17 1
35 17 1
77 17 1
81 17 1
18 18 1
36 18 1
78 18 1
82 18 1
19 19 1
37 19 1
79 19 1
83 19 1
20 20 1
38 20 1
80 20 1
84 20 1
21 21 1
39 21 1
81 21 1
85 21 1
22 22 1
40 22 1
82 22 1
86 22 1
23 23 1
41 23 1
83 23 1
87 23 1
24 24 1
42 24 1
84 24 1
88 24 1
25 25 1
43 25 1
85 25 1
89 25 1
26 26 1
44 26 1
86 26 1
90 26 1
27 27 1
45 27 1
87 27 1
91 27 1
28 28 1
46 28 1
88 28 1
92 28 1
29 29 1
47 29 1
89 29 1
93 29 1
30 30 1
48 30 1
90 30 1
94 30 1
31 31 1
49 31 1
91 31 1
95 31 1
32 32 1
50 32 1
92 32 1
96 32 1
33 33 1
51 33 1
93 33 1
97 33 1
34 34 1
52 34 1
94 34 1
98 34 1
35 35 1
53 35 1
95 35 1
99 35 1
36 36 1
54 36 1
96 36 1
100 36 1
37 37 1
55 37 1
97 37 1
101 37 1
38 38 1
56 38 1
98 38 1
102 38 1
39 39 1
57 39 1
99 39 1
103 39 1
40 40 1
58 40 1
100 40 1
104 40 1
41 41 1
59 41 1
101 41 1
105 41 1
42 42 1
60 42 1
102 42 1
106 42 1
1 43 1
43 43 1
103 43 1
107 43 1
2 44 1
44 44 1
104 44 1
108 44 1
3 45 1
45 45 1
105 45 1
109 45 1
4 46 1
46 46 1
106 46 1
110 46 1
5 47 1
47 47 1
107 47 1
111 47 1
6 48 1
48 48 1
108 48 1
112 48 1
7 49 1
49 49 1
109 49 1
113 49 1
8 50 1
50 50 1
110 50 1
114 50 1
9 51 1
51 51 1
111 51 1
115 51 1
10 52 1
52 52 1
112 52 1
116 52 1
11 53 1
53 53 1
113 53 1
117 53 1
12 54 1
54 54 1
114 54 1
118 54 1
13 55 1
55 55 1
115 55 1
119 55 1
14 56 1
56 56 1
116 56 1
120 56 1
15 57 1
57 57 1
61 57 1
117 57 1
16 58 1
58 58 1
62 58 1
118 58 1
17 59 1
59 59 1
63 59 1
119 59 1
18 60 1
60 60 1
64 60 1
120 60 1
1 61 1
26 61 1
121 61 1
125 61 1
2 62 1
27 62 1
122 62 1
126 62 1
3 63 1
28 63 1
123 63 1
127 63 1
4 64 1
29 64 1
124 64 1
128 64 1
5 65 1
30 65 1
125 65 1
129 65 1
6 66 1
31 66 1
126 66 1
130 66 1
7 67 1
32 67 1
127 67 1
131 67 1
8 68 1
33 68 1
128 68 1
132 68 1
9 69 1
34 69 1
129 69 1
133 69 1
10 70 1
35 70 1
130 70 1
134 70 1
11 71 1
36 71 1
131 71 1
135 71 1
12 72 1
37 72 1
132 72 1
136 72 1
13 73 1
38 73 1
133 73 1
137 73 1
14 74 1
39 74 1
134 74 1
138 74 1
15 75 1
40 75 1
135 75 1
139 75 1
16 76 1
41 76 1
136 76 1
140 76 1
17 77 1
42 77 1
137 77 1
141 77 1
18 78 1
43 78 1
138 78 1
142 78 1
19 79 1
44 79 1
139 79 1
143 79 1
20 80 1
45 80 1
140 80 1
144 80 1
21 81 1
46 81 1
141 81 1
145 81 1
22 82 1
47 82 1
142 82 1
146 82 1
23 83 1
48 83 1
143 83 1
147 83 1
24 84 1
49 84 1
144 84 1
148 84 1
25 85 1
50 85 1
145 85 1
149 85 1
26 86 1
51 86 1
146 86 1
150 86 1
27 87 1
52 87 1
147 87 1
151 87 1
28 88 1
53 88 1
148 88 1
152 88 1
29 89 1
54 89 1
149 89 1
153 89 1
30 90 1
55 90 1
150 90 1
154 90 1
31 91 1
56 91 1
151 91 1
155 91 1
32 92 1
57 92 1
152 92 1
156 92 1
33 93 1
58 93 1
153 93 1
157 93 1
34 94 1
59 94 1
154 94 1
158 94 1
35 95 1
60 95 1
155 95 1
159 95 1
1 96 1
36 96 1
156 96 1
160 96 1
2 97 1
37 97 1
157 97 1
161 97 1
3 98 1
38 98 1
158 98 1
162 98 1
4 99 1
39 99 1
159 99 1
163 99 1
5 100 1
40 100 1
160 100 1
164 100 1
6 101 1
41 101 1
161 101 1
165 101 1
7 102 1
42 102 1
162 102 1
166 102 1
8 103 1
43 103 1
163 103 1
167 103 1
9 104 1
44 104 1
164 104 1
168 104 1
10 105 1
45 105 1
165 105 1
169 105 1
11 106 1
46 106 1
166 106 1
170 106 1
12 107 1
47 107 1
167 107 1
171 107 1
13 108 1
48 108 1
168 108 1
172 108 1
14 109 1
49 109 1
169 109 1
173 109 1
15 110 1
50 110 1
170 110 1
174 110 1
16 111 1
51 111 1
171 111 1
175 111 1
17 112 1
52 112 1
172 112 1
176 112 1
18 113 1
53 113 1
173 113 1
177 113 1
19 114 1
54 114 1
174 114 1
178 114 1
20 115 1
55 115 1
175 115 1
179 115 1
21 116 1
56 116 1
176 116 1
180 116 1
22 117 1
57 117 1
121 117 1
177 117 1
23 118 1
58 118 1
122 118 1
178 118 1
24 119 1
59 119 1
123 119 1
179 119 1
25 120 1
60 120 1
124 120 1
180 120 1
1 121 1
45 121 1
181 121 1
185 121 1
2 122 1
46 122 1
182 122 1
186 122 1
3 123 1
47 123 1
183 123 1
187 123 1
4 124 1
48 124 1
184 124 1
188 124 1
5 125 1
49 125 1
185 125 1
189 125 1
6 126 1
50 126 1
186 126 1
190 126 1
7 127 1
51 127 1
187 127 1
191 127 1
8 128 1
52 128 1
188 128 1
192 128 1
9 129 1
53 129 1
189 129 1
193 129 1
10 130 1
54 130 1
190 130 1
194 130 1
11 131 1
55 131 1
191 131 1
195 131 1
12 132 1
56 132 1
192 132 1
196 132 1
13 133 1
57 133 1
193 133 1
197 133 1
14 134 1
58 134 1
194 134 1
198 134 1
15 135 1
59 135 1
195 135 1
199 135 1
16 136 1
60 136 1
196 136 1
200 136 1
1 137 1
17 137 1
197 137 1
201 137 1
2 138 1
18 138 1
198 138 1
202 138 1
3 139 1
19 139 1
199 139 1
203 139 1
4 140 1
20 140 1
200 140 1
204 140 1
5 141 1
21 141 1
201 141 1
205 141 1
6 142 1
22 142 1
202 142 1
206 142 1
7 143 1
23 143 1
203 143 1
207 143 1
8 144 1
24 144 1
204 144 1
208 144 1
9 145 1
25 145 1
205 145 1
209 145 1
10 146 1
26 146 1
206 146 1
210 146 1
11 147 1
27 147 1
207 147 1
211 147 1
12 148 1
28 148 1
208 148 1
212 148 1
13 149 1
29 149 1
209 149 1
213 149 1
14 150 1
30 150 1
210 150 1
214 150 1
15 151 1
31 151 1
211 151 1
215 151 1
16 152 1
32 152 1
212 152 1
216 152 1
17 153 1
33 153 1
213 153 1
217 153 1
18 154 1
34 154 1
214 154 1
218 154 1
19 155 1
35 155 1
215 155 1
219 155 1
20 156 1
36 156 1
216 156 1
220 156 1
21 157 1
37 157 1
217 157 1
221 157 1
22 158 1
38 158 1
218 158 1
222 158 1
23 159 1
39 159 1
219 159 1
223 159 1
24 160 1
40 160 1
220 160 1
224 160 1
25 161 1
41 161 1
221 161 1
225 161 1
26 162 1
42 162 1
222 162 1
226 162 1
27 163 1
43 163 1
223 163 1
227 163 1
28 164 1
44 164 1
224 164 1
228 164 1
29 165 1
45 165 1
225 165 1
229 165 1
30 166 1
46 166 1
226 166 1
230 166 1
31 167 1
47 167 1
227 167 1
231 167 1
32 168 1
48 168 1
228 168 1
232 168 1
33 169 1
49 169 1
229 169 1
233 169 1
34 170 1
50 170 1
230 170 1
234 170 1
35 171 1
51 171 1
231 171 1
235 171 1
36 172 1
52 172 1
232 172 1
236 172 1
37 173 1
53 173 1
233 173 1
237 173 1
38 174 1
54 174 1
234 174 1
238 174 1
39 175 1
55 175 1
235 175 1
239 175 1
40 176 1
56 176 1
236 176 1
240 176 1
41 177 1
57 177 1
181 177 1
237 177 1
42 178 1
58 178 1
182 178 1
238 178 1
43 179 1
59 179 1
183 179 1
239 179 1
44 180 1
60 180 1
184 180 1
240 180 1
61 181 1
86 181 1
121 181 1
139 181 1
62 182 1
87 182 1
122 182 1
140 182 1
63 183 1
88 183 1
123 183 1
141 183 1
64 184 1
89 184 1
124 184 1
142 184 1
65 185 1
90 185 1
125 185 1
143 185 1
66 186 1
91 186 1
126 186 1
144 186 1
67 187 1
92 187 1
127 187 1
145 187 1
68 188 1
93 188 1
128 188 1
146 188 1
69 189 1
94 189 1
129 189 1
147 189 1
70 190 1
95 190 1
130 190 1
148 190 1
71 191 1
96 191 1
131 191 1
149 191 1
72 192 1
97 192 1
132 192 1
150 192 1
73 193 1
98 193 1
133 193 1
151 193 1
74 194 1
99 194 1
134 194 1
152 194 1
75 195 1
100 195 1
135 195 1
153 195 1
76 196 1
101 196 1
136 196 1
154 196 1
77 197 1
102 197 1
137 197 1
155 197 1
78 198 1
103 198 1
138 198 1
156 198 1
79 199 1
104 199 1
139 199 1
157 199 1
80 200 1
105 200 1
140 200 1
158 200 1
81 201 1
106 201 1
141 201 1
159 201 1
82 202 1
107 202 1
142 202 1
160 202 1
83 203 1
108 203 1
143 203 1
161 203 1
84 204 1
109 204 1
144 204 1
162 204 1
85 205 1
110 205 1
145 205 1
163 205 1
86 206 1
111 206 1
146 206 1
164 206 1
87 207 1
112 207 1
147 207 1
165 207 1
88 208 1
113 208 1
148 208 1
166 208 1
89 209 1
114 209 1
149 209 1
167 209 1
90 210 1
115 210 1
150 210 1
168 210 1
91 211 1
116 211 1
151 211 1
169 211 1
92 212 1
117 212 1
152 212 1
170 212 1
93 213 1
118 213 1
153 213 1
171 213 1
94 214 1
119 214 1
154 214 1
172 214 1
95 215 1
120 215 1
155 215 1
173 215 1
61 216 1
96 216 1
156 216 1
174 216 1
62 217 1
97 217 1
157 217 1
175 217 1
63 218 1
98 218 1
158 218 1
176 218 1
64 219 1
99 219 1
159 219 1
177 219 1
65 220 1
100 220 1
160 220 1
178 220 1
66 221 1
101 221 1
161 221 1
179 221 1
67 222 1
102 222 1
162 222 1
180 222 1
68 223 1
103 223 1
121 223 1
163 223 1
69 224 1
104 224 1
122 224 1
164 224 1
70 225 1
105 225 1
123 225 1
165 225 1
71 226 1
106 226 1
124 226 1
166 226 1
72 227 1
107 227 1
125 227 1
167 227 1
73 228 1
108 228 1
126 228 1
168 228 1
74 229 1
109 229 1
127 229 1
169 229 1
75 230 1
110 230 1
128 230 1
170 230 1
76 231 1
111 231 1
129 231 1
171 231 1
77 232 1
112 232 1
130 232 1
172 232 1
78 233 1
113 233 1
131 233 1
173 233 1
79 234 1
114 234 1
132 234 1
174 234 1
80 235 1
115 235 1
133 235 1
175 235 1
81 236 1
116 236 1
134 236 1
176 236 1
82 237 1
117 237 1
135 237 1
177 237 1
83 238 1
118 238 1
136 238 1
178 238 1
84 239 1
119 239 1
137 239 1
179 239 1
85 240 1
120 240 1
138 240 1
180 240 1
61 241 1
105 241 1
181 241 1
199 241 1
62 242 1
106 242 1
182 242 1
200 242 1
63 243 1
107 243 1
183 243 1
201 243 1
64 244 1
108 244 1
184 244 1
202 244 1
65 245 1
109 245 1
185 245 1
203 245 1
66 246 1
110 246 1
186 246 1
204 246 1
67 247 1
111 247 1
187 247 1
205 247 1
68 248 1
112 248 1
188 248 1
206 248 1
69 249 1
113 249 1
189 249 1
207 249 1
70 250 1
114 250 1
190 250 1
208 250 1
71 251 1
115 251 1
191 251 1
209 251 1
72 252 1
116 252 1
192 252 1
210 252 1
73 253 1
117 253 1
193 253 1
211 253 1
74 254 1
118 254 1
194 254 1
212 254 1
75 255 1
119 255 1
195 255 1
213 255 1
76 256 1
120 256 1
196 256 1
214 256 1
61 257 1
77 257 1
197 257 1
215 257 1
62 258 1
78 258 1
198 258 1
216 258 1
63 259 1
79 259 1
199 259 1
217 259 1
64 260 1
80 260 1
200 260 1
218 260 1
65 261 1
81 261 1
201 261 1
219 261 1
66 262 1
82 262 1
202 262 1
220 262 1
67 263 1
83 263 1
203 263 1
221 263 1
68 264 1
84 264 1
204 264 1
222 264 1
69 265 1
85 265 1
205 265 1
223 265 1
70 266 1
86 266 1
206 266 1
224 266 1
71 267 1
87 267 1
207 267 1
225 267 1
72 268 1
88 268 1
208 268 1
226 268 1
73 269 1
89 269 1
209 269 1
227 269 1
74 270 1
90 270 1
210 270 1
228 270 1
75 271 1
91 271 1
211 271 1
229 271 1
76 272 1
92 272 1
212 272 1
230 272 1
77 273 1
93 273 1
213 273 1
231 273 1
78 274 1
94 274 1
214 274 1
232 274 1
79 275 1
95 275 1
215 275 1
233 275 1
80 276 1
96 276 1
216 276 1
234 276 1
81 277 1
97 277 1
217 277 1
235 277 1
82 278 1
98 278 1
218 278 1
236 278 1
83 279 1
99 279 1
219 279 1
237 279 1
84 280 1
100 280 1
220 280 1
238 280 1
85 281 1
101 281 1
221 281 1
239 281 1
86 282 1
102 282 1
222 282 1
240 282 1
87 283 1
103 283 1
181 283 1
223 283 1
88 284 1
104 284 1
182 284 1
224 284 1
89 285 1
105 285 1
183 285 1
225 285 1
90 286 1
106 286 1
184 286 1
226 286 1
91 287 1
107 287 1
185 287 1
227 287 1
92 288 1
108 288 1
186 288 1
228 288 1
93 289 1
109 289 1
187 289 1
229 289 1
94 290 1
110 290 1
188 290 1
230 290 1
95 291 1
111 291 1
189 291 1
231 291 1
96 292 1
112 292 1
190 292 1
232 292 1
97 293 1
113 293 1
191 293 1
233 293 1
98 294 1
114 294 1
192 294 1
234 294 1
99 295 1
115 295 1
193 295 1
235 295 1
100 296 1
116 296 1
194 296 1
236 296 1
101 297 1
117 297 1
195 297 1
237 297 1
102 298 1
118 298 1
196 298 1
238 298 1
103 299 1
119 299 1
197 299 1
239 299 1
104 300 1
120 300 1
198 300 1
240 300 1
121 301 1
165 301 1
181 301 1
206 301 1
122 302 1
166 302 1
182 302 1
207 302 1
123 303 1
167 303 1
183 303 1
208 303 1
124 304 1
168 304 1
184 304 1
209 304 1
125 305 1
169 305 1
185 305 1
210 305 1
126 306 1
170 306 1
186 306 1
211 306 1
127 307 1
171 307 1
187 307 1
212 307 1
128 308 1
172 308 1
188 308 1
213 308 1
129 309 1
173 309 1
189 309 1
214 309 1
130 310 1
174 310 1
190 310 1
215 310 1
131 311 1
175 311 1
191 311 1
216 311 1
132 312 1
176 312 1
192 312 1
217 312 1
133 313 1
177 313 1
193 313 1
218 313 1
134 314 1
178 314 1
194 314 1
219 314 1
135 315 1
179 315 1
195 315 1
220 315 1
136 316 1
180 316 1
196 316 1
221 316 1
121 317 1
137 317 1
197 317 1
222 317 1
122 318 1
138 318 1
198 318 1
223 318 1
123 319 1
139 319 1
199 319 1
224 319 1
124 320 1
140 320 1
200 320 1
225 320 1
125 321 1
141 321 1
201 321 1
226 321 1
126 322 1
142 322 1
202 322 1
227 322 1
127 323 1
143 323 1
203 323 1
228 323 1
128 324 1
144 324 1
204 324 1
229 324 1
129 325 1
145 325 1
205 325 1
230 325 1
130 326 1
146 326 1
206 326 1
231 326 1
131 327 1
147 327 1
207 327 1
232 327 1
132 328 1
148 328 1
208 328 1
233 328 1
133 329 1
149 329 1
209 329 1
234 329 1
134 330 1
150 330 1
210 330 1
235 330 1
135 331 1
151 331 1
211 331 1
236 331 1
136 332 1
152 332 1
212 332 1
237 332 1
137 333 1
153 333 1
213 333 1
238 333 1
138 334 1
154 334 1
214 334 1
239 334 1
139 335 1
155 335 1
215 335 1
240 335 1
140 336 1
156 336 1
181 336 1
216 336 1
141 337 1
157 337 1
182 337 1
217 337 1
142 338 1
158 338 1
183 338 1
218 338 1
143 339 1
159 339 1
184 339 1
219 339 1
144 340 1
160 340 1
185 340 1
220 340 1
145 341 1
161 341 1
186 341 1
221 341 1
146 342 1
162 342 1
187 342 1
222 342 1
147 343 1
163 343 1
188 343 1
223 343 1
148 344 1
164 344 1
189 344 1
224 344 1
149 345 1
165 345 1
190 345 1
225 345 1
150 346 1
166 346 1
191 346 1
226 346 1
151 347 1
167 347 1
192 347 1
227 347 1
152 348 1
168 348 1
193 348 1
228 348 1
153 349 1
169 349 1
194 349 1
229 349 1
154 350 1
170 350 1
195 350 1
230 350 1
155 351 1
171 351 1
196 351 1
231 351 1
156 352 1
172 352 1
197 352 1
232 352 1
157 353 1
173 353 1
198 353 1
233 353 1
158 354 1
174 354 1
199 354 1
234 354 1
159 355 1
175 355 1
200 355 1
235 355 1
160 356 1
176 356 1
201 356 1
236 356 1
161 357 1
177 357 1
202 357 1
237 357 1
162 358 1
178 358 1
203 358 1
238 358 1
163 359 1
179 359 1
204 359 1
239 359 1
164 360 1
180 360 1
205 360 1
240 360 1
