%%MatrixMarket matrix coordinate integer general
% Binary matrix; one-based indices; arithmetic over GF(2)
125 250 1000
1 1 1
17 1 1
26 1 1
37 1 1
2 2 1
18 2 1
27 2 1
38 2 1
3 3 1
19 3 1
28 3 1
39 3 1
4 4 1
20 4 1
29 4 1
40 4 1
5 5 1
21 5 1
30 5 1
41 5 1
6 6 1
22 6 1
31 6 1
42 6 1
7 7 1
23 7 1
32 7 1
43 7 1
8 8 1
24 8 1
33 8 1
44 8 1
9 9 1
25 9 1
34 9 1
45 9 1
1 10 1
10 10 1
35 10 1
46 10 1
2 11 1
11 11 1
36 11 1
47 11 1
3 12 1
12 12 1
37 12 1
48 12 1
4 13 1
13 13 1
38 13 1
49 13 1
5 14 1
14 14 1
39 14 1
50 14 1
6 15 1
15 15 1
26 15 1
40 15 1
7 16 1
16 16 1
27 16 1
41 16 1
8 17 1
17 17 1
28 17 1
42 17 1
9 18 1
18 18 1
29 18 1
43 18 1
10 19 1
19 19 1
30 19 1
44 19 1
11 20 1
20 20 1
31 20 1
45 20 1
12 21 1
21 21 1
32 21 1
46 21 1
13 22 1
22 22 1
33 22 1
47 22 1
14 23 1
23 23 1
34 23 1
48 23 1
15 24 1
24 24 1
35 24 1
49 24 1
16 25 1
25 25 1
36 25 1
50 25 1
1 26 1
20 26 1
51 26 1
62 26 1
2 27 1
21 27 1
52 27 1
63 27 1
3 28 1
22 28 1
53 28 1
64 28 1
4 29 1
23 29 1
54 29 1
65 29 1
5 30 1
24 30 1
55 30 1
66 30 1
6 31 1
25 31 1
56 31 1
67 31 1
1 32 1
7 32 1
57 32 1
68 32 1
2 33 1
8 33 1
58 33 1
69 33 1
3 34 1
9 34 1
59 34 1
70 34 1
4 35 1
10 35 1
60 35 1
71 35 1
5 36 1
11 36 1
61 36 1
72 36 1
6 37 1
12 37 1
62 37 1
73 37 1
7 38 1
13 38 1
63 38 1
74 38 1
8 39 1
14 39 1
64 39 1
75 39 1
9 40 1
15 40 1
51 40 1
65 40 1
10 41 1
16 41 1
52 41 1
66 41 1
11 42 1
17 42 1
53 42 1
67 42 1
12 43 1
18 43 1
54 43 1
68 43 1
13 44 1
19 44 1
55 44 1
69 44 1
14 45 1
20 45 1
56 45 1
70 45 1
15 46 1
21 46 1
57 46 1
71 46 1
16 47 1
22 47 1
58 47 1
72 47 1
17 48 1
23 48 1
59 48 1
73 48 1
18 49 1
24 49 1
60 49 1
74 49 1
19 50 1
25 50 1
61 50 1
75 50 1
26 51 1
45 51 1
51 51 1
67 51 1
27 52 1
46 52 1
52 52 1
68 52 1
28 53 1
47 53 1
53 53 1
69 53 1
29 54 1
48 54 1
54 54 1
70 54 1
30 55 1
49 55 1
55 55 1
71 55 1
31 56 1
50 56 1
56 56 1
72 56 1
26 57 1
32 57 1
57 57 1
73 57 1
27 58 1
33 58 1
58 58 1
74 58 1
28 59 1
34 59 1
59 59 1
75 59 1
29 60 1
35 60 1
51 60 1
60 60 1
30 61 1
36 61 1
52 61 1
61 61 1
31 62 1
37 62 1
53 62 1
62 62 1
32 63 1
38 63 1
54 63 1
63 63 1
33 64 1
39 64 1
55 64 1
64 64 1
34 65 1
40 65 1
56 65 1
65 65 1
35 66 1
41 66 1
57 66 1
66 66 1
36 67 1
42 67 1
58 67 1
67 67 1
37 68 1
43 68 1
59 68 1
68 68 1
38 69 1
44 69 1
60 69 1
69 69 1
39 70 1
45 70 1
61 70 1
70 70 1
40 71 1
46 71 1
62 71 1
71 71 1
41 72 1
47 72 1
63 72 1
72 72 1
42 73 1
48 73 1
64 73 1
73 73 1
43 74 1
49 74 1
65 74 1
74 74 1
44 75 1
50 75 1
66 75 1
75 75 1
1 76 1
21 76 1
76 76 1
87 76 1
2 77 1
22 77 1
77 77 1
88 77 1
3 78 1
23 78 1
78 78 1
89 78 1
4 79 1
24 79 1
79 79 1
90 79 1
5 80 1
25 80 1
80 80 1
91 80 1
1 81 1
6 81 1
81 81 1
92 81 1
2 82 1
7 82 1
82 82 1
93 82 1
3 83 1
8 83 1
83 83 1
94 83 1
4 84 1
9 84 1
84 84 1
95 84 1
5 85 1
10 85 1
85 85 1
96 85 1
6 86 1
11 86 1
86 86 1
97 86 1
7 87 1
12 87 1
87 87 1
98 87 1
8 88 1
13 88 1
88 88 1
99 88 1
9 89 1
14 89 1
89 89 1
100 89 1
10 90 1
15 90 1
76 90 1
90 90 1
11 91 1
16 91 1
77 91 1
91 91 1
12 92 1
17 92 1
78 92 1
92 92 1
13 93 1
18 93 1
79 93 1
93 93 1
14 94 1
19 94 1
80 94 1
94 94 1
15 95 1
20 95 1
81 95 1
95 95 1
16 96 1
21 96 1
82 96 1
96 96 1
17 97 1
22 97 1
83 97 1
97 97 1
18 98 1
23 98 1
84 98 1
98 98 1
19 99 1
24 99 1
85 99 1
99 99 1
20 100 1
25 100 1
86 100 1
100 100 1
26 101 1
46 101 1
76 101 1
92 101 1
27 102 1
47 102 1
77 102 1
93 102 1
28 103 1
48 103 1
78 103 1
94 103 1
29 104 1
49 104 1
79 104 1
95 104 1
30 105 1
50 105 1
80 105 1
96 105 1
26 106 1
31 106 1
81 106 1
97 106 1
27 107 1
32 107 1
82 107 1
98 107 1
28 108 1
33 108 1
83 108 1
99 108 1
29 109 1
34 109 1
84 109 1
100 109 1
30 110 1
35 110 1
76 110 1
85 110 1
31 111 1
36 111 1
77 111 1
86 111 1
32 112 1
37 112 1
78 112 1
87 112 1
33 113 1
38 113 1
79 113 1
88 113 1
34 114 1
39 114 1
80 114 1
89 114 1
35 115 1
40 115 1
81 115 1
90 115 1
36 116 1
41 116 1
82 116 1
91 116 1
37 117 1
42 117 1
83 117 1
92 117 1
38 118 1
43 118 1
84 118 1
93 118 1
39 119 1
44 119 1
85 119 1
94 119 1
40 120 1
45 120 1
86 120 1
95 120 1
41 121 1
46 121 1
87 121 1
96 121 1
42 122 1
47 122 1
88 122 1
97 122 1
43 123 1
48 123 1
89 123 1
98 123 1
44 124 1
49 124 1
90 124 1
99 124 1
45 125 1
50 125 1
91 125 1
100 125 1
51 126 1
71 126 1
76 126 1
95 126 1
52 127 1
72 127 1
77 127 1
96 127 1
53 128 1
73 128 1
78 128 1
97 128 1
54 129 1
74 129 1
79 129 1
98 129 1
55 130 1
75 130 1
80 130 1
99 130 1
51 131 1
56 131 1
81 131 1
100 131 1
52 132 1
57 132 1
76 132 1
82 132 1
53 133 1
58 133 1
77 133 1
83 133 1
54 134 1
59 134 1
78 134 1
84 134 1
55 135 1
60 135 1
79 135 1
85 135 1
56 136 1
61 136 1
80 136 1
86 136 1
57 137 1
62 137 1
81 137 1
87 137 1
58 138 1
63 138 1
82 138 1
88 138 1
59 139 1
64 139 1
83 139 1
89 139 1
60 140 1
65 140 1
84 140 1
90 140 1
61 141 1
66 141 1
85 141 1
91 141 1
62 142 1
67 142 1
86 142 1
92 142 1
63 143 1
68 143 1
87 143 1
93 143 1
64 144 1
69 144 1
88 144 1
94 144 1
65 145 1
70 145 1
89 145 1
95 145 1
66 146 1
71 146 1
90 146 1
96 146 1
67 147 1
72 147 1
91 147 1
97 147 1
68 148 1
73 148 1
92 148 1
98 148 1
69 149 1
74 149 1
93 149 1
99 149 1
70 150 1
75 150 1
94 150 1
100 150 1
1 151 1
22 151 1
101 151 1
112 151 1
2 152 1
23 152 1
102 152 1
113 152 1
3 153 1
24 153 1
103 153 1
114 153 1
4 154 1
25 154 1
104 154 1
115 154 1
1 155 1
5 155 1
105 155 1
116 155 1
2 156 1
6 156 1
106 156 1
117 156 1
3 157 1
7 157 1
107 157 1
118 157 1
4 158 1
8 158 1
108 158 1
119 158 1
5 159 1
9 159 1
109 159 1
120 159 1
6 160 1
10 160 1
110 160 1
121 160 1
7 161 1
11 161 1
111 161 1
122 161 1
8 162 1
12 162 1
112 162 1
123 162 1
9 163 1
13 163 1
113 163 1
124 163 1
10 164 1
14 164 1
114 164 1
125 164 1
11 165 1
15 165 1
101 165 1
115 165 1
12 166 1
16 166 1
102 166 1
116 166 1
13 167 1
17 167 1
103 167 1
117 167 1
14 168 1
18 168 1
104 168 1
118 168 1
15 169 1
19 169 1
105 169 1
119 169 1
16 170 1
20 170 1
106 170 1
120 170 1
17 171 1
21 171 1
107 171 1
121 171 1
18 172 1
22 172 1
108 172 1
122 172 1
19 173 1
23 173 1
109 173 1
123 173 1
20 174 1
24 174 1
110 174 1
124 174 1
21 175 1
25 175 1
111 175 1
125 175 1
26 176 1
47 176 1
101 176 1
117 176 1
27 177 1
48 177 1
102 177 1
118 177 1
28 178 1
49 178 1
103 178 1
119 178 1
29 179 1
50 179 1
104 179 1
120 179 1
26 180 1
30 180 1
105 180 1
121 180 1
27 181 1
31 181 1
106 181 1
122 181 1
28 182 1
32 182 1
107 182 1
123 182 1
29 183 1
33 183 1
108 183 1
124 183 1
30 184 1
34 184 1
109 184 1
125 184 1
31 185 1
35 185 1
101 185 1
110 185 1
32 186 1
36 186 1
102 186 1
111 186 1
33 187 1
37 187 1
103 187 1
112 187 1
34 188 1
38 188 1
104 188 1
113 188 1
35 189 1
39 189 1
105 189 1
114 189 1
36 190 1
40 190 1
106 190 1
115 190 1
37 191 1
41 191 1
107 191 1
116 191 1
38 192 1
42 192 1
108 192 1
117 192 1
39 193 1
43 193 1
109 193 1
118 193 1
40 194 1
44 194 1
110 194 1
119 194 1
41 195 1
45 195 1
111 195 1
120 195 1
42 196 1
46 196 1
112 196 1
121 196 1
43 197 1
47 197 1
113 197 1
122 197 1
44 198 1
48 198 1
114 198 1
123 198 1
45 199 1
49 199 1
115 199 1
124 199 1
46 200 1
50 200 1
116 200 1
125 200 1
51 201 1
72 201 1
101 201 1
120 201 1
52 202 1
73 202 1
102 202 1
121 202 1
53 203 1
74 203 1
103 203 1
122 203 1
54 204 1
75 204 1
104 204 1
123 204 1
51 205 1
55 205 1
105 205 1
124 205 1
52 206 1
56 206 1
106 206 1
125 206 1
53 207 1
57 207 1
101 207 1
107 207 1
54 208 1
58 208 1
102 208 1
108 208 1
55 209 1
59 209 1
103 209 1
109 209 1
56 210 1
60 210 1
104 210 1
110 210 1
57 211 1
61 211 1
105 211 1
111 211 1
58 212 1
62 212 1
106 212 1
112 212 1
59 213 1
63 213 1
107 213 1
113 213 1
60 214 1
64 214 1
108 214 1
114 214 1
61 215 1
65 215 1
109 215 1
115 215 1
62 216 1
66 216 1
110 216 1
116 216 1
63 217 1
67 217 1
111 217 1
117 217 1
64 218 1
68 218 1
112 218 1
118 218 1
65 219 1
69 219 1
113 219 1
119 219 1
66 220 1
70 220 1
114 220 1
120 220 1
67 221 1
71 221 1
115 221 1
121 221 1
68 222 1
72 222 1
116 222 1
122 222 1
69 223 1
73 223 1
117 223 1
123 223 1
70 224 1
74 224 1
118 224 1
124 224 1
71 225 1
75 225 1
119 225 1
125 225 1
76 226 1
97 226 1
101 226 1
121 226 1
77 227 1
98 227 1
102 227 1
122 227 1
78 228 1
99 228 1
103 228 1
123 228 1
79 229 1
100 229 1
104 229 1
124 229 1
76 230 1
80 230 1
105 230 1
125 230 1
77 231 1
81 231 1
101 231 1
106 231 1
78 232 1
82 232 1
102 232 1
107 232 1
79 233 1
83 233 1
103 233 1
108 233 1
80 234 1
84 234 1
104 234 1
109 234 1
81 235 1
85 235 1
105 235 1
110 235 1
82 236 1
86 236 1
106 236 1
111 236 1
83 237 1
87 237 1
107 237 1
112 237 1
84 238 1
88 238 1
108 238 1
113 238 1
85 239 1
89 239 1
109 239 1
114 239 1
86 240 1
90 240 1
110 240 1
115 240 1
87 241 1
91 241 1
111 241 1
116 241 1
88 242 1
92 242 1
112 242 1
117 242 1
89 243 1
93 243 1
113 243 1
118 243 1
90 244 1
94 244 1
114 244 1
119 244 1
91 245 1
95 245 1
115 245 1
120 245 1
92 246 1
96 246 1
116 246 1
121 246 1
93 247 1
97 247 1
117 247 1
122 247 1
94 248 1
98 248 1
118 248 1
123 248 1
95 249 1
99 249 1
119 249 1
124 249 1
96 250 1
100 250 1
120 250 1
125 250 1
