%%MatrixMarket matrix coordinate integer general
% Binary matrix; one-based indices; arithmetic over GF(2)
1176 1764 14112
1 1 1
9 1 1
15 1 1
22 1 1
29 1 1
34 1 1
43 1 1
44 1 1
2 2 1
10 2 1
16 2 1
23 2 1
30 2 1
35 2 1
44 2 1
45 2 1
3 3 1
11 3 1
17 3 1
24 3 1
31 3 1
36 3 1
45 3 1
46 3 1
4 4 1
12 4 1
18 4 1
25 4 1
32 4 1
37 4 1
46 4 1
47 4 1
5 5 1
13 5 1
19 5 1
26 5 1
33 5 1
38 5 1
47 5 1
48 5 1
6 6 1
14 6 1
20 6 1
27 6 1
34 6 1
39 6 1
48 6 1
49 6 1
1 7 1
7 7 1
21 7 1
28 7 1
35 7 1
40 7 1
49 7 1
50 7 1
2 8 1
8 8 1
15 8 1
22 8 1
36 8 1
41 8 1
50 8 1
51 8 1
3 9 1
9 9 1
16 9 1
23 9 1
37 9 1
42 9 1
51 9 1
52 9 1
4 10 1
10 10 1
17 10 1
24 10 1
29 10 1
38 10 1
52 10 1
53 10 1
5 11 1
11 11 1
18 11 1
25 11 1
30 11 1
39 11 1
53 11 1
54 11 1
6 12 1
12 12 1
19 12 1
26 12 1
31 12 1
40 12 1
54 12 1
55 12 1
7 13 1
13 13 1
20 13 1
27 13 1
32 13 1
41 13 1
55 13 1
56 13 1
8 14 1
14 14 1
21 14 1
28 14 1
33 14 1
42 14 1
43 14 1
56 14 1
1 15 1
10 15 1
57 15 1
64 15 1
71 15 1
76 15 1
85 15 1
86 15 1
2 16 1
11 16 1
58 16 1
65 16 1
72 16 1
77 16 1
86 16 1
87 16 1
3 17 1
12 17 1
59 17 1
66 17 1
73 17 1
78 17 1
87 17 1
88 17 1
4 18 1
13 18 1
60 18 1
67 18 1
74 18 1
79 18 1
88 18 1
89 18 1
5 19 1
14 19 1
61 19 1
68 19 1
75 19 1
80 19 1
89 19 1
90 19 1
1 20 1
6 20 1
62 20 1
69 20 1
76 20 1
81 20 1
90 20 1
91 20 1
2 21 1
7 21 1
63 21 1
70 21 1
77 21 1
82 21 1
91 21 1
92 21 1
3 22 1
8 22 1
57 22 1
64 22 1
78 22 1
83 22 1
92 22 1
93 22 1
4 23 1
9 23 1
58 23 1
65 23 1
79 23 1
84 23 1
93 23 1
94 23 1
5 24 1
10 24 1
59 24 1
66 24 1
71 24 1
80 24 1
94 24 1
95 24 1
6 25 1
11 25 1
60 25 1
67 25 1
72 25 1
81 25 1
95 25 1
96 25 1
7 26 1
12 26 1
61 26 1
68 26 1
73 26 1
82 26 1
96 26 1
97 26 1
8 27 1
13 27 1
62 27 1
69 27 1
74 27 1
83 27 1
97 27 1
98 27 1
9 28 1
14 28 1
63 28 1
70 28 1
75 28 1
84 28 1
85 28 1
98 28 1
15 29 1
24 29 1
57 29 1
65 29 1
99 29 1
104 29 1
113 29 1
114 29 1
16 30 1
25 30 1
58 30 1
66 30 1
100 30 1
105 30 1
114 30 1
115 30 1
17 31 1
26 31 1
59 31 1
67 31 1
101 31 1
106 31 1
115 31 1
116 31 1
18 32 1
27 32 1
60 32 1
68 32 1
102 32 1
107 32 1
116 32 1
117 32 1
19 33 1
28 33 1
61 33 1
69 33 1
103 33 1
108 33 1
117 33 1
118 33 1
15 34 1
20 34 1
62 34 1
70 34 1
104 34 1
109 34 1
118 34 1
119 34 1
16 35 1
21 35 1
57 35 1
63 35 1
105 35 1
110 35 1
119 35 1
120 35 1
17 36 1
22 36 1
58 36 1
64 36 1
106 36 1
111 36 1
120 36 1
121 36 1
18 37 1
23 37 1
59 37 1
65 37 1
107 37 1
112 37 1
121 37 1
122 37 1
19 38 1
24 38 1
60 38 1
66 38 1
99 38 1
108 38 1
122 38 1
123 38 1
20 39 1
25 39 1
61 39 1
67 39 1
100 39 1
109 39 1
123 39 1
124 39 1
21 40 1
26 40 1
62 40 1
68 40 1
101 40 1
110 40 1
124 40 1
125 40 1
22 41 1
27 41 1
63 41 1
69 41 1
102 41 1
111 41 1
125 41 1
126 41 1
23 42 1
28 42 1
64 42 1
70 42 1
103 42 1
112 42 1
113 42 1
126 42 1
29 43 1
38 43 1
71 43 1
79 43 1
99 43 1
106 43 1
127 43 1
128 43 1
30 44 1
39 44 1
72 44 1
80 44 1
100 44 1
107 44 1
128 44 1
129 44 1
31 45 1
40 45 1
73 45 1
81 45 1
101 45 1
108 45 1
129 45 1
130 45 1
32 46 1
41 46 1
74 46 1
82 46 1
102 46 1
109 46 1
130 46 1
131 46 1
33 47 1
42 47 1
75 47 1
83 47 1
103 47 1
110 47 1
131 47 1
132 47 1
29 48 1
34 48 1
76 48 1
84 48 1
104 48 1
111 48 1
132 48 1
133 48 1
30 49 1
35 49 1
71 49 1
77 49 1
105 49 1
112 49 1
133 49 1
134 49 1
31 50 1
36 50 1
72 50 1
78 50 1
99 50 1
106 50 1
134 50 1
135 50 1
32 51 1
37 51 1
73 51 1
79 51 1
100 51 1
107 51 1
135 51 1
136 51 1
33 52 1
38 52 1
74 52 1
80 52 1
101 52 1
108 52 1
136 52 1
137 52 1
34 53 1
39 53 1
75 53 1
81 53 1
102 53 1
109 53 1
137 53 1
138 53 1
35 54 1
40 54 1
76 54 1
82 54 1
103 54 1
110 54 1
138 54 1
139 54 1
36 55 1
41 55 1
77 55 1
83 55 1
104 55 1
111 55 1
139 55 1
140 55 1
37 56 1
42 56 1
78 56 1
84 56 1
105 56 1
112 56 1
127 56 1
140 56 1
43 57 1
52 57 1
85 57 1
93 57 1
113 57 1
120 57 1
127 57 1
132 57 1
44 58 1
53 58 1
86 58 1
94 58 1
114 58 1
121 58 1
128 58 1
133 58 1
45 59 1
54 59 1
87 59 1
95 59 1
115 59 1
122 59 1
129 59 1
134 59 1
46 60 1
55 60 1
88 60 1
96 60 1
116 60 1
123 60 1
130 60 1
135 60 1
47 61 1
56 61 1
89 61 1
97 61 1
117 61 1
124 61 1
131 61 1
136 61 1
43 62 1
48 62 1
90 62 1
98 62 1
118 62 1
125 62 1
132 62 1
137 62 1
44 63 1
49 63 1
85 63 1
91 63 1
119 63 1
126 63 1
133 63 1
138 63 1
45 64 1
50 64 1
86 64 1
92 64 1
113 64 1
120 64 1
134 64 1
139 64 1
46 65 1
51 65 1
87 65 1
93 65 1
114 65 1
121 65 1
135 65 1
140 65 1
47 66 1
52 66 1
88 66 1
94 66 1
115 66 1
122 66 1
127 66 1
136 66 1
48 67 1
53 67 1
89 67 1
95 67 1
116 67 1
123 67 1
128 67 1
137 67 1
49 68 1
54 68 1
90 68 1
96 68 1
117 68 1
124 68 1
129 68 1
138 68 1
50 69 1
55 69 1
91 69 1
97 69 1
118 69 1
125 69 1
130 69 1
139 69 1
51 70 1
56 70 1
92 70 1
98 70 1
119 70 1
126 70 1
131 70 1
140 70 1
1 71 1
11 71 1
141 71 1
148 71 1
155 71 1
160 71 1
169 71 1
170 71 1
2 72 1
12 72 1
142 72 1
149 72 1
156 72 1
161 72 1
170 72 1
171 72 1
3 73 1
13 73 1
143 73 1
150 73 1
157 73 1
162 73 1
171 73 1
172 73 1
4 74 1
14 74 1
144 74 1
151 74 1
158 74 1
163 74 1
172 74 1
173 74 1
1 75 1
5 75 1
145 75 1
152 75 1
159 75 1
164 75 1
173 75 1
174 75 1
2 76 1
6 76 1
146 76 1
153 76 1
160 76 1
165 76 1
174 76 1
175 76 1
3 77 1
7 77 1
147 77 1
154 77 1
161 77 1
166 77 1
175 77 1
176 77 1
4 78 1
8 78 1
141 78 1
148 78 1
162 78 1
167 78 1
176 78 1
177 78 1
5 79 1
9 79 1
142 79 1
149 79 1
163 79 1
168 79 1
177 79 1
178 79 1
6 80 1
10 80 1
143 80 1
150 80 1
155 80 1
164 80 1
178 80 1
179 80 1
7 81 1
11 81 1
144 81 1
151 81 1
156 81 1
165 81 1
179 81 1
180 81 1
8 82 1
12 82 1
145 82 1
152 82 1
157 82 1
166 82 1
180 82 1
181 82 1
9 83 1
13 83 1
146 83 1
153 83 1
158 83 1
167 83 1
181 83 1
182 83 1
10 84 1
14 84 1
147 84 1
154 84 1
159 84 1
168 84 1
169 84 1
182 84 1
15 85 1
25 85 1
141 85 1
149 85 1
183 85 1
188 85 1
197 85 1
198 85 1
16 86 1
26 86 1
142 86 1
150 86 1
184 86 1
189 86 1
198 86 1
199 86 1
17 87 1
27 87 1
143 87 1
151 87 1
185 87 1
190 87 1
199 87 1
200 87 1
18 88 1
28 88 1
144 88 1
152 88 1
186 88 1
191 88 1
200 88 1
201 88 1
15 89 1
19 89 1
145 89 1
153 89 1
187 89 1
192 89 1
201 89 1
202 89 1
16 90 1
20 90 1
146 90 1
154 90 1
188 90 1
193 90 1
202 90 1
203 90 1
17 91 1
21 91 1
141 91 1
147 91 1
189 91 1
194 91 1
203 91 1
204 91 1
18 92 1
22 92 1
142 92 1
148 92 1
190 92 1
195 92 1
204 92 1
205 92 1
19 93 1
23 93 1
143 93 1
149 93 1
191 93 1
196 93 1
205 93 1
206 93 1
20 94 1
24 94 1
144 94 1
150 94 1
183 94 1
192 94 1
206 94 1
207 94 1
21 95 1
25 95 1
145 95 1
151 95 1
184 95 1
193 95 1
207 95 1
208 95 1
22 96 1
26 96 1
146 96 1
152 96 1
185 96 1
194 96 1
208 96 1
209 96 1
23 97 1
27 97 1
147 97 1
153 97 1
186 97 1
195 97 1
209 97 1
210 97 1
24 98 1
28 98 1
148 98 1
154 98 1
187 98 1
196 98 1
197 98 1
210 98 1
29 99 1
39 99 1
155 99 1
163 99 1
183 99 1
190 99 1
211 99 1
212 99 1
30 100 1
40 100 1
156 100 1
164 100 1
184 100 1
191 100 1
212 100 1
213 100 1
31 101 1
41 101 1
157 101 1
165 101 1
185 101 1
192 101 1
213 101 1
214 101 1
32 102 1
42 102 1
158 102 1
166 102 1
186 102 1
193 102 1
214 102 1
215 102 1
29 103 1
33 103 1
159 103 1
167 103 1
187 103 1
194 103 1
215 103 1
216 103 1
30 104 1
34 104 1
160 104 1
168 104 1
188 104 1
195 104 1
216 104 1
217 104 1
31 105 1
35 105 1
155 105 1
161 105 1
189 105 1
196 105 1
217 105 1
218 105 1
32 106 1
36 106 1
156 106 1
162 106 1
183 106 1
190 106 1
218 106 1
219 106 1
33 107 1
37 107 1
157 107 1
163 107 1
184 107 1
191 107 1
219 107 1
220 107 1
34 108 1
38 108 1
158 108 1
164 108 1
185 108 1
192 108 1
220 108 1
221 108 1
35 109 1
39 109 1
159 109 1
165 109 1
186 109 1
193 109 1
221 109 1
222 109 1
36 110 1
40 110 1
160 110 1
166 110 1
187 110 1
194 110 1
222 110 1
223 110 1
37 111 1
41 111 1
161 111 1
167 111 1
188 111 1
195 111 1
223 111 1
224 111 1
38 112 1
42 112 1
162 112 1
168 112 1
189 112 1
196 112 1
211 112 1
224 112 1
43 113 1
53 113 1
169 113 1
177 113 1
197 113 1
204 113 1
211 113 1
216 113 1
44 114 1
54 114 1
170 114 1
178 114 1
198 114 1
205 114 1
212 114 1
217 114 1
45 115 1
55 115 1
171 115 1
179 115 1
199 115 1
206 115 1
213 115 1
218 115 1
46 116 1
56 116 1
172 116 1
180 116 1
200 116 1
207 116 1
214 116 1
219 116 1
43 117 1
47 117 1
173 117 1
181 117 1
201 117 1
208 117 1
215 117 1
220 117 1
44 118 1
48 118 1
174 118 1
182 118 1
202 118 1
209 118 1
216 118 1
221 118 1
45 119 1
49 119 1
169 119 1
175 119 1
203 119 1
210 119 1
217 119 1
222 119 1
46 120 1
50 120 1
170 120 1
176 120 1
197 120 1
204 120 1
218 120 1
223 120 1
47 121 1
51 121 1
171 121 1
177 121 1
198 121 1
205 121 1
219 121 1
224 121 1
48 122 1
52 122 1
172 122 1
178 122 1
199 122 1
206 122 1
211 122 1
220 122 1
49 123 1
53 123 1
173 123 1
179 123 1
200 123 1
207 123 1
212 123 1
221 123 1
50 124 1
54 124 1
174 124 1
180 124 1
201 124 1
208 124 1
213 124 1
222 124 1
51 125 1
55 125 1
175 125 1
181 125 1
202 125 1
209 125 1
214 125 1
223 125 1
52 126 1
56 126 1
176 126 1
182 126 1
203 126 1
210 126 1
215 126 1
224 126 1
57 127 1
67 127 1
141 127 1
150 127 1
225 127 1
230 127 1
239 127 1
240 127 1
58 128 1
68 128 1
142 128 1
151 128 1
226 128 1
231 128 1
240 128 1
241 128 1
59 129 1
69 129 1
143 129 1
152 129 1
227 129 1
232 129 1
241 129 1
242 129 1
60 130 1
70 130 1
144 130 1
153 130 1
228 130 1
233 130 1
242 130 1
243 130 1
57 131 1
61 131 1
145 131 1
154 131 1
229 131 1
234 131 1
243 131 1
244 131 1
58 132 1
62 132 1
141 132 1
146 132 1
230 132 1
235 132 1
244 132 1
245 132 1
59 133 1
63 133 1
142 133 1
147 133 1
231 133 1
236 133 1
245 133 1
246 133 1
60 134 1
64 134 1
143 134 1
148 134 1
232 134 1
237 134 1
246 134 1
247 134 1
61 135 1
65 135 1
144 135 1
149 135 1
233 135 1
238 135 1
247 135 1
248 135 1
62 136 1
66 136 1
145 136 1
150 136 1
225 136 1
234 136 1
248 136 1
249 136 1
63 137 1
67 137 1
146 137 1
151 137 1
226 137 1
235 137 1
249 137 1
250 137 1
64 138 1
68 138 1
147 138 1
152 138 1
227 138 1
236 138 1
250 138 1
251 138 1
65 139 1
69 139 1
148 139 1
153 139 1
228 139 1
237 139 1
251 139 1
252 139 1
66 140 1
70 140 1
149 140 1
154 140 1
229 140 1
238 140 1
239 140 1
252 140 1
71 141 1
81 141 1
155 141 1
164 141 1
225 141 1
232 141 1
253 141 1
254 141 1
72 142 1
82 142 1
156 142 1
165 142 1
226 142 1
233 142 1
254 142 1
255 142 1
73 143 1
83 143 1
157 143 1
166 143 1
227 143 1
234 143 1
255 143 1
256 143 1
74 144 1
84 144 1
158 144 1
167 144 1
228 144 1
235 144 1
256 144 1
257 144 1
71 145 1
75 145 1
159 145 1
168 145 1
229 145 1
236 145 1
257 145 1
258 145 1
72 146 1
76 146 1
155 146 1
160 146 1
230 146 1
237 146 1
258 146 1
259 146 1
73 147 1
77 147 1
156 147 1
161 147 1
231 147 1
238 147 1
259 147 1
260 147 1
74 148 1
78 148 1
157 148 1
162 148 1
225 148 1
232 148 1
260 148 1
261 148 1
75 149 1
79 149 1
158 149 1
163 149 1
226 149 1
233 149 1
261 149 1
262 149 1
76 150 1
80 150 1
159 150 1
164 150 1
227 150 1
234 150 1
262 150 1
263 150 1
77 151 1
81 151 1
160 151 1
165 151 1
228 151 1
235 151 1
263 151 1
264 151 1
78 152 1
82 152 1
161 152 1
166 152 1
229 152 1
236 152 1
264 152 1
265 152 1
79 153 1
83 153 1
162 153 1
167 153 1
230 153 1
237 153 1
265 153 1
266 153 1
80 154 1
84 154 1
163 154 1
168 154 1
231 154 1
238 154 1
253 154 1
266 154 1
85 155 1
95 155 1
169 155 1
178 155 1
239 155 1
246 155 1
253 155 1
258 155 1
86 156 1
96 156 1
170 156 1
179 156 1
240 156 1
247 156 1
254 156 1
259 156 1
87 157 1
97 157 1
171 157 1
180 157 1
241 157 1
248 157 1
255 157 1
260 157 1
88 158 1
98 158 1
172 158 1
181 158 1
242 158 1
249 158 1
256 158 1
261 158 1
85 159 1
89 159 1
173 159 1
182 159 1
243 159 1
250 159 1
257 159 1
262 159 1
86 160 1
90 160 1
169 160 1
174 160 1
244 160 1
251 160 1
258 160 1
263 160 1
87 161 1
91 161 1
170 161 1
175 161 1
245 161 1
252 161 1
259 161 1
264 161 1
88 162 1
92 162 1
171 162 1
176 162 1
239 162 1
246 162 1
260 162 1
265 162 1
89 163 1
93 163 1
172 163 1
177 163 1
240 163 1
247 163 1
261 163 1
266 163 1
90 164 1
94 164 1
173 164 1
178 164 1
241 164 1
248 164 1
253 164 1
262 164 1
91 165 1
95 165 1
174 165 1
179 165 1
242 165 1
249 165 1
254 165 1
263 165 1
92 166 1
96 166 1
175 166 1
180 166 1
243 166 1
250 166 1
255 166 1
264 166 1
93 167 1
97 167 1
176 167 1
181 167 1
244 167 1
251 167 1
256 167 1
265 167 1
94 168 1
98 168 1
177 168 1
182 168 1
245 168 1
252 168 1
257 168 1
266 168 1
99 169 1
109 169 1
183 169 1
192 169 1
225 169 1
233 169 1
267 169 1
268 169 1
100 170 1
110 170 1
184 170 1
193 170 1
226 170 1
234 170 1
268 170 1
269 170 1
101 171 1
111 171 1
185 171 1
194 171 1
227 171 1
235 171 1
269 171 1
270 171 1
102 172 1
112 172 1
186 172 1
195 172 1
228 172 1
236 172 1
270 172 1
271 172 1
99 173 1
103 173 1
187 173 1
196 173 1
229 173 1
237 173 1
271 173 1
272 173 1
100 174 1
104 174 1
183 174 1
188 174 1
230 174 1
238 174 1
272 174 1
273 174 1
101 175 1
105 175 1
184 175 1
189 175 1
225 175 1
231 175 1
273 175 1
274 175 1
102 176 1
106 176 1
185 176 1
190 176 1
226 176 1
232 176 1
274 176 1
275 176 1
103 177 1
107 177 1
186 177 1
191 177 1
227 177 1
233 177 1
275 177 1
276 177 1
104 178 1
108 178 1
187 178 1
192 178 1
228 178 1
234 178 1
276 178 1
277 178 1
105 179 1
109 179 1
188 179 1
193 179 1
229 179 1
235 179 1
277 179 1
278 179 1
106 180 1
110 180 1
189 180 1
194 180 1
230 180 1
236 180 1
278 180 1
279 180 1
107 181 1
111 181 1
190 181 1
195 181 1
231 181 1
237 181 1
279 181 1
280 181 1
108 182 1
112 182 1
191 182 1
196 182 1
232 182 1
238 182 1
267 182 1
280 182 1
113 183 1
123 183 1
197 183 1
206 183 1
239 183 1
247 183 1
267 183 1
272 183 1
114 184 1
124 184 1
198 184 1
207 184 1
240 184 1
248 184 1
268 184 1
273 184 1
115 185 1
125 185 1
199 185 1
208 185 1
241 185 1
249 185 1
269 185 1
274 185 1
116 186 1
126 186 1
200 186 1
209 186 1
242 186 1
250 186 1
270 186 1
275 186 1
113 187 1
117 187 1
201 187 1
210 187 1
243 187 1
251 187 1
271 187 1
276 187 1
114 188 1
118 188 1
197 188 1
202 188 1
244 188 1
252 188 1
272 188 1
277 188 1
115 189 1
119 189 1
198 189 1
203 189 1
239 189 1
245 189 1
273 189 1
278 189 1
116 190 1
120 190 1
199 190 1
204 190 1
240 190 1
246 190 1
274 190 1
279 190 1
117 191 1
121 191 1
200 191 1
205 191 1
241 191 1
247 191 1
275 191 1
280 191 1
118 192 1
122 192 1
201 192 1
206 192 1
242 192 1
248 192 1
267 192 1
276 192 1
119 193 1
123 193 1
202 193 1
207 193 1
243 193 1
249 193 1
268 193 1
277 193 1
120 194 1
124 194 1
203 194 1
208 194 1
244 194 1
250 194 1
269 194 1
278 194 1
121 195 1
125 195 1
204 195 1
209 195 1
245 195 1
251 195 1
270 195 1
279 195 1
122 196 1
126 196 1
205 196 1
210 196 1
246 196 1
252 196 1
271 196 1
280 196 1
127 197 1
137 197 1
211 197 1
220 197 1
253 197 1
261 197 1
267 197 1
274 197 1
128 198 1
138 198 1
212 198 1
221 198 1
254 198 1
262 198 1
268 198 1
275 198 1
129 199 1
139 199 1
213 199 1
222 199 1
255 199 1
263 199 1
269 199 1
276 199 1
130 200 1
140 200 1
214 200 1
223 200 1
256 200 1
264 200 1
270 200 1
277 200 1
127 201 1
131 201 1
215 201 1
224 201 1
257 201 1
265 201 1
271 201 1
278 201 1
128 202 1
132 202 1
211 202 1
216 202 1
258 202 1
266 202 1
272 202 1
279 202 1
129 203 1
133 203 1
212 203 1
217 203 1
253 203 1
259 203 1
273 203 1
280 203 1
130 204 1
134 204 1
213 204 1
218 204 1
254 204 1
260 204 1
267 204 1
274 204 1
131 205 1
135 205 1
214 205 1
219 205 1
255 205 1
261 205 1
268 205 1
275 205 1
132 206 1
136 206 1
215 206 1
220 206 1
256 206 1
262 206 1
269 206 1
276 206 1
133 207 1
137 207 1
216 207 1
221 207 1
257 207 1
263 207 1
270 207 1
277 207 1
134 208 1
138 208 1
217 208 1
222 208 1
258 208 1
264 208 1
271 208 1
278 208 1
135 209 1
139 209 1
218 209 1
223 209 1
259 209 1
265 209 1
272 209 1
279 209 1
136 210 1
140 210 1
219 210 1
224 210 1
260 210 1
266 210 1
273 210 1
280 210 1
1 211 1
12 211 1
281 211 1
288 211 1
295 211 1
300 211 1
309 211 1
310 211 1
2 212 1
13 212 1
282 212 1
289 212 1
296 212 1
301 212 1
310 212 1
311 212 1
3 213 1
14 213 1
283 213 1
290 213 1
297 213 1
302 213 1
311 213 1
312 213 1
1 214 1
4 214 1
284 214 1
291 214 1
298 214 1
303 214 1
312 214 1
313 214 1
2 215 1
5 215 1
285 215 1
292 215 1
299 215 1
304 215 1
313 215 1
314 215 1
3 216 1
6 216 1
286 216 1
293 216 1
300 216 1
305 216 1
314 216 1
315 216 1
4 217 1
7 217 1
287 217 1
294 217 1
301 217 1
306 217 1
315 217 1
316 217 1
5 218 1
8 218 1
281 218 1
288 218 1
302 218 1
307 218 1
316 218 1
317 218 1
6 219 1
9 219 1
282 219 1
289 219 1
303 219 1
308 219 1
317 219 1
318 219 1
7 220 1
10 220 1
283 220 1
290 220 1
295 220 1
304 220 1
318 220 1
319 220 1
8 221 1
11 221 1
284 221 1
291 221 1
296 221 1
305 221 1
319 221 1
320 221 1
9 222 1
12 222 1
285 222 1
292 222 1
297 222 1
306 222 1
320 222 1
321 222 1
10 223 1
13 223 1
286 223 1
293 223 1
298 223 1
307 223 1
321 223 1
322 223 1
11 224 1
14 224 1
287 224 1
294 224 1
299 224 1
308 224 1
309 224 1
322 224 1
15 225 1
26 225 1
281 225 1
289 225 1
323 225 1
328 225 1
337 225 1
338 225 1
16 226 1
27 226 1
282 226 1
290 226 1
324 226 1
329 226 1
338 226 1
339 226 1
17 227 1
28 227 1
283 227 1
291 227 1
325 227 1
330 227 1
339 227 1
340 227 1
15 228 1
18 228 1
284 228 1
292 228 1
326 228 1
331 228 1
340 228 1
341 228 1
16 229 1
19 229 1
285 229 1
293 229 1
327 229 1
332 229 1
341 229 1
342 229 1
17 230 1
20 230 1
286 230 1
294 230 1
328 230 1
333 230 1
342 230 1
343 230 1
18 231 1
21 231 1
281 231 1
287 231 1
329 231 1
334 231 1
343 231 1
344 231 1
19 232 1
22 232 1
282 232 1
288 232 1
330 232 1
335 232 1
344 232 1
345 232 1
20 233 1
23 233 1
283 233 1
289 233 1
331 233 1
336 233 1
345 233 1
346 233 1
21 234 1
24 234 1
284 234 1
290 234 1
323 234 1
332 234 1
346 234 1
347 234 1
22 235 1
25 235 1
285 235 1
291 235 1
324 235 1
333 235 1
347 235 1
348 235 1
23 236 1
26 236 1
286 236 1
292 236 1
325 236 1
334 236 1
348 236 1
349 236 1
24 237 1
27 237 1
287 237 1
293 237 1
326 237 1
335 237 1
349 237 1
350 237 1
25 238 1
28 238 1
288 238 1
294 238 1
327 238 1
336 238 1
337 238 1
350 238 1
29 239 1
40 239 1
295 239 1
303 239 1
323 239 1
330 239 1
351 239 1
352 239 1
30 240 1
41 240 1
296 240 1
304 240 1
324 240 1
331 240 1
352 240 1
353 240 1
31 241 1
42 241 1
297 241 1
305 241 1
325 241 1
332 241 1
353 241 1
354 241 1
29 242 1
32 242 1
298 242 1
306 242 1
326 242 1
333 242 1
354 242 1
355 242 1
30 243 1
33 243 1
299 243 1
307 243 1
327 243 1
334 243 1
355 243 1
356 243 1
31 244 1
34 244 1
300 244 1
308 244 1
328 244 1
335 244 1
356 244 1
357 244 1
32 245 1
35 245 1
295 245 1
301 245 1
329 245 1
336 245 1
357 245 1
358 245 1
33 246 1
36 246 1
296 246 1
302 246 1
323 246 1
330 246 1
358 246 1
359 246 1
34 247 1
37 247 1
297 247 1
303 247 1
324 247 1
331 247 1
359 247 1
360 247 1
35 248 1
38 248 1
298 248 1
304 248 1
325 248 1
332 248 1
360 248 1
361 248 1
36 249 1
39 249 1
299 249 1
305 249 1
326 249 1
333 249 1
361 249 1
362 249 1
37 250 1
40 250 1
300 250 1
306 250 1
327 250 1
334 250 1
362 250 1
363 250 1
38 251 1
41 251 1
301 251 1
307 251 1
328 251 1
335 251 1
363 251 1
364 251 1
39 252 1
42 252 1
302 252 1
308 252 1
329 252 1
336 252 1
351 252 1
364 252 1
43 253 1
54 253 1
309 253 1
317 253 1
337 253 1
344 253 1
351 253 1
356 253 1
44 254 1
55 254 1
310 254 1
318 254 1
338 254 1
345 254 1
352 254 1
357 254 1
45 255 1
56 255 1
311 255 1
319 255 1
339 255 1
346 255 1
353 255 1
358 255 1
43 256 1
46 256 1
312 256 1
320 256 1
340 256 1
347 256 1
354 256 1
359 256 1
44 257 1
47 257 1
313 257 1
321 257 1
341 257 1
348 257 1
355 257 1
360 257 1
45 258 1
48 258 1
314 258 1
322 258 1
342 258 1
349 258 1
356 258 1
361 258 1
46 259 1
49 259 1
309 259 1
315 259 1
343 259 1
350 259 1
357 259 1
362 259 1
47 260 1
50 260 1
310 260 1
316 260 1
337 260 1
344 260 1
358 260 1
363 260 1
48 261 1
51 261 1
311 261 1
317 261 1
338 261 1
345 261 1
359 261 1
364 261 1
49 262 1
52 262 1
312 262 1
318 262 1
339 262 1
346 262 1
351 262 1
360 262 1
50 263 1
53 263 1
313 263 1
319 263 1
340 263 1
347 263 1
352 263 1
361 263 1
51 264 1
54 264 1
314 264 1
320 264 1
341 264 1
348 264 1
353 264 1
362 264 1
52 265 1
55 265 1
315 265 1
321 265 1
342 265 1
349 265 1
354 265 1
363 265 1
53 266 1
56 266 1
316 266 1
322 266 1
343 266 1
350 266 1
355 266 1
364 266 1
57 267 1
68 267 1
281 267 1
290 267 1
365 267 1
370 267 1
379 267 1
380 267 1
58 268 1
69 268 1
282 268 1
291 268 1
366 268 1
371 268 1
380 268 1
381 268 1
59 269 1
70 269 1
283 269 1
292 269 1
367 269 1
372 269 1
381 269 1
382 269 1
57 270 1
60 270 1
284 270 1
293 270 1
368 270 1
373 270 1
382 270 1
383 270 1
58 271 1
61 271 1
285 271 1
294 271 1
369 271 1
374 271 1
383 271 1
384 271 1
59 272 1
62 272 1
281 272 1
286 272 1
370 272 1
375 272 1
384 272 1
385 272 1
60 273 1
63 273 1
282 273 1
287 273 1
371 273 1
376 273 1
385 273 1
386 273 1
61 274 1
64 274 1
283 274 1
288 274 1
372 274 1
377 274 1
386 274 1
387 274 1
62 275 1
65 275 1
284 275 1
289 275 1
373 275 1
378 275 1
387 275 1
388 275 1
63 276 1
66 276 1
285 276 1
290 276 1
365 276 1
374 276 1
388 276 1
389 276 1
64 277 1
67 277 1
286 277 1
291 277 1
366 277 1
375 277 1
389 277 1
390 277 1
65 278 1
68 278 1
287 278 1
292 278 1
367 278 1
376 278 1
390 278 1
391 278 1
66 279 1
69 279 1
288 279 1
293 279 1
368 279 1
377 279 1
391 279 1
392 279 1
67 280 1
70 280 1
289 280 1
294 280 1
369 280 1
378 280 1
379 280 1
392 280 1
71 281 1
82 281 1
295 281 1
304 281 1
365 281 1
372 281 1
393 281 1
394 281 1
72 282 1
83 282 1
296 282 1
305 282 1
366 282 1
373 282 1
394 282 1
395 282 1
73 283 1
84 283 1
297 283 1
306 283 1
367 283 1
374 283 1
395 283 1
396 283 1
71 284 1
74 284 1
298 284 1
307 284 1
368 284 1
375 284 1
396 284 1
397 284 1
72 285 1
75 285 1
299 285 1
308 285 1
369 285 1
376 285 1
397 285 1
398 285 1
73 286 1
76 286 1
295 286 1
300 286 1
370 286 1
377 286 1
398 286 1
399 286 1
74 287 1
77 287 1
296 287 1
301 287 1
371 287 1
378 287 1
399 287 1
400 287 1
75 288 1
78 288 1
297 288 1
302 288 1
365 288 1
372 288 1
400 288 1
401 288 1
76 289 1
79 289 1
298 289 1
303 289 1
366 289 1
373 289 1
401 289 1
402 289 1
77 290 1
80 290 1
299 290 1
304 290 1
367 290 1
374 290 1
402 290 1
403 290 1
78 291 1
81 291 1
300 291 1
305 291 1
368 291 1
375 291 1
403 291 1
404 291 1
79 292 1
82 292 1
301 292 1
306 292 1
369 292 1
376 292 1
404 292 1
405 292 1
80 293 1
83 293 1
302 293 1
307 293 1
370 293 1
377 293 1
405 293 1
406 293 1
81 294 1
84 294 1
303 294 1
308 294 1
371 294 1
378 294 1
393 294 1
406 294 1
85 295 1
96 295 1
309 295 1
318 295 1
379 295 1
386 295 1
393 295 1
398 295 1
86 296 1
97 296 1
310 296 1
319 296 1
380 296 1
387 296 1
394 296 1
399 296 1
87 297 1
98 297 1
311 297 1
320 297 1
381 297 1
388 297 1
395 297 1
400 297 1
85 298 1
88 298 1
312 298 1
321 298 1
382 298 1
389 298 1
396 298 1
401 298 1
86 299 1
89 299 1
313 299 1
322 299 1
383 299 1
390 299 1
397 299 1
402 299 1
87 300 1
90 300 1
309 300 1
314 300 1
384 300 1
391 300 1
398 300 1
403 300 1
88 301 1
91 301 1
310 301 1
315 301 1
385 301 1
392 301 1
399 301 1
404 301 1
89 302 1
92 302 1
311 302 1
316 302 1
379 302 1
386 302 1
400 302 1
405 302 1
90 303 1
93 303 1
312 303 1
317 303 1
380 303 1
387 303 1
401 303 1
406 303 1
91 304 1
94 304 1
313 304 1
318 304 1
381 304 1
388 304 1
393 304 1
402 304 1
92 305 1
95 305 1
314 305 1
319 305 1
382 305 1
389 305 1
394 305 1
403 305 1
93 306 1
96 306 1
315 306 1
320 306 1
383 306 1
390 306 1
395 306 1
404 306 1
94 307 1
97 307 1
316 307 1
321 307 1
384 307 1
391 307 1
396 307 1
405 307 1
95 308 1
98 308 1
317 308 1
322 308 1
385 308 1
392 308 1
397 308 1
406 308 1
99 309 1
110 309 1
323 309 1
332 309 1
365 309 1
373 309 1
407 309 1
408 309 1
100 310 1
111 310 1
324 310 1
333 310 1
366 310 1
374 310 1
408 310 1
409 310 1
101 311 1
112 311 1
325 311 1
334 311 1
367 311 1
375 311 1
409 311 1
410 311 1
99 312 1
102 312 1
326 312 1
335 312 1
368 312 1
376 312 1
410 312 1
411 312 1
100 313 1
103 313 1
327 313 1
336 313 1
369 313 1
377 313 1
411 313 1
412 313 1
101 314 1
104 314 1
323 314 1
328 314 1
370 314 1
378 314 1
412 314 1
413 314 1
102 315 1
105 315 1
324 315 1
329 315 1
365 315 1
371 315 1
413 315 1
414 315 1
103 316 1
106 316 1
325 316 1
330 316 1
366 316 1
372 316 1
414 316 1
415 316 1
104 317 1
107 317 1
326 317 1
331 317 1
367 317 1
373 317 1
415 317 1
416 317 1
105 318 1
108 318 1
327 318 1
332 318 1
368 318 1
374 318 1
416 318 1
417 318 1
106 319 1
109 319 1
328 319 1
333 319 1
369 319 1
375 319 1
417 319 1
418 319 1
107 320 1
110 320 1
329 320 1
334 320 1
370 320 1
376 320 1
418 320 1
419 320 1
108 321 1
111 321 1
330 321 1
335 321 1
371 321 1
377 321 1
419 321 1
420 321 1
109 322 1
112 322 1
331 322 1
336 322 1
372 322 1
378 322 1
407 322 1
420 322 1
113 323 1
124 323 1
337 323 1
346 323 1
379 323 1
387 323 1
407 323 1
412 323 1
114 324 1
125 324 1
338 324 1
347 324 1
380 324 1
388 324 1
408 324 1
413 324 1
115 325 1
126 325 1
339 325 1
348 325 1
381 325 1
389 325 1
409 325 1
414 325 1
113 326 1
116 326 1
340 326 1
349 326 1
382 326 1
390 326 1
410 326 1
415 326 1
114 327 1
117 327 1
341 327 1
350 327 1
383 327 1
391 327 1
411 327 1
416 327 1
115 328 1
118 328 1
337 328 1
342 328 1
384 328 1
392 328 1
412 328 1
417 328 1
116 329 1
119 329 1
338 329 1
343 329 1
379 329 1
385 329 1
413 329 1
418 329 1
117 330 1
120 330 1
339 330 1
344 330 1
380 330 1
386 330 1
414 330 1
419 330 1
118 331 1
121 331 1
340 331 1
345 331 1
381 331 1
387 331 1
415 331 1
420 331 1
119 332 1
122 332 1
341 332 1
346 332 1
382 332 1
388 332 1
407 332 1
416 332 1
120 333 1
123 333 1
342 333 1
347 333 1
383 333 1
389 333 1
408 333 1
417 333 1
121 334 1
124 334 1
343 334 1
348 334 1
384 334 1
390 334 1
409 334 1
418 334 1
122 335 1
125 335 1
344 335 1
349 335 1
385 335 1
391 335 1
410 335 1
419 335 1
123 336 1
126 336 1
345 336 1
350 336 1
386 336 1
392 336 1
411 336 1
420 336 1
127 337 1
138 337 1
351 337 1
360 337 1
393 337 1
401 337 1
407 337 1
414 337 1
128 338 1
139 338 1
352 338 1
361 338 1
394 338 1
402 338 1
408 338 1
415 338 1
129 339 1
140 339 1
353 339 1
362 339 1
395 339 1
403 339 1
409 339 1
416 339 1
127 340 1
130 340 1
354 340 1
363 340 1
396 340 1
404 340 1
410 340 1
417 340 1
128 341 1
131 341 1
355 341 1
364 341 1
397 341 1
405 341 1
411 341 1
418 341 1
129 342 1
132 342 1
351 342 1
356 342 1
398 342 1
406 342 1
412 342 1
419 342 1
130 343 1
133 343 1
352 343 1
357 343 1
393 343 1
399 343 1
413 343 1
420 343 1
131 344 1
134 344 1
353 344 1
358 344 1
394 344 1
400 344 1
407 344 1
414 344 1
132 345 1
135 345 1
354 345 1
359 345 1
395 345 1
401 345 1
408 345 1
415 345 1
133 346 1
136 346 1
355 346 1
360 346 1
396 346 1
402 346 1
409 346 1
416 346 1
134 347 1
137 347 1
356 347 1
361 347 1
397 347 1
403 347 1
410 347 1
417 347 1
135 348 1
138 348 1
357 348 1
362 348 1
398 348 1
404 348 1
411 348 1
418 348 1
136 349 1
139 349 1
358 349 1
363 349 1
399 349 1
405 349 1
412 349 1
419 349 1
137 350 1
140 350 1
359 350 1
364 350 1
400 350 1
406 350 1
413 350 1
420 350 1
141 351 1
152 351 1
281 351 1
291 351 1
421 351 1
426 351 1
435 351 1
436 351 1
142 352 1
153 352 1
282 352 1
292 352 1
422 352 1
427 352 1
436 352 1
437 352 1
143 353 1
154 353 1
283 353 1
293 353 1
423 353 1
428 353 1
437 353 1
438 353 1
141 354 1
144 354 1
284 354 1
294 354 1
424 354 1
429 354 1
438 354 1
439 354 1
142 355 1
145 355 1
281 355 1
285 355 1
425 355 1
430 355 1
439 355 1
440 355 1
143 356 1
146 356 1
282 356 1
286 356 1
426 356 1
431 356 1
440 356 1
441 356 1
144 357 1
147 357 1
283 357 1
287 357 1
427 357 1
432 357 1
441 357 1
442 357 1
145 358 1
148 358 1
284 358 1
288 358 1
428 358 1
433 358 1
442 358 1
443 358 1
146 359 1
149 359 1
285 359 1
289 359 1
429 359 1
434 359 1
443 359 1
444 359 1
147 360 1
150 360 1
286 360 1
290 360 1
421 360 1
430 360 1
444 360 1
445 360 1
148 361 1
151 361 1
287 361 1
291 361 1
422 361 1
431 361 1
445 361 1
446 361 1
149 362 1
152 362 1
288 362 1
292 362 1
423 362 1
432 362 1
446 362 1
447 362 1
150 363 1
153 363 1
289 363 1
293 363 1
424 363 1
433 363 1
447 363 1
448 363 1
151 364 1
154 364 1
290 364 1
294 364 1
425 364 1
434 364 1
435 364 1
448 364 1
155 365 1
166 365 1
295 365 1
305 365 1
421 365 1
428 365 1
449 365 1
450 365 1
156 366 1
167 366 1
296 366 1
306 366 1
422 366 1
429 366 1
450 366 1
451 366 1
157 367 1
168 367 1
297 367 1
307 367 1
423 367 1
430 367 1
451 367 1
452 367 1
155 368 1
158 368 1
298 368 1
308 368 1
424 368 1
431 368 1
452 368 1
453 368 1
156 369 1
159 369 1
295 369 1
299 369 1
425 369 1
432 369 1
453 369 1
454 369 1
157 370 1
160 370 1
296 370 1
300 370 1
426 370 1
433 370 1
454 370 1
455 370 1
158 371 1
161 371 1
297 371 1
301 371 1
427 371 1
434 371 1
455 371 1
456 371 1
159 372 1
162 372 1
298 372 1
302 372 1
421 372 1
428 372 1
456 372 1
457 372 1
160 373 1
163 373 1
299 373 1
303 373 1
422 373 1
429 373 1
457 373 1
458 373 1
161 374 1
164 374 1
300 374 1
304 374 1
423 374 1
430 374 1
458 374 1
459 374 1
162 375 1
165 375 1
301 375 1
305 375 1
424 375 1
431 375 1
459 375 1
460 375 1
163 376 1
166 376 1
302 376 1
306 376 1
425 376 1
432 376 1
460 376 1
461 376 1
164 377 1
167 377 1
303 377 1
307 377 1
426 377 1
433 377 1
461 377 1
462 377 1
165 378 1
168 378 1
304 378 1
308 378 1
427 378 1
434 378 1
449 378 1
462 378 1
169 379 1
180 379 1
309 379 1
319 379 1
435 379 1
442 379 1
449 379 1
454 379 1
170 380 1
181 380 1
310 380 1
320 380 1
436 380 1
443 380 1
450 380 1
455 380 1
171 381 1
182 381 1
311 381 1
321 381 1
437 381 1
444 381 1
451 381 1
456 381 1
169 382 1
172 382 1
312 382 1
322 382 1
438 382 1
445 382 1
452 382 1
457 382 1
170 383 1
173 383 1
309 383 1
313 383 1
439 383 1
446 383 1
453 383 1
458 383 1
171 384 1
174 384 1
310 384 1
314 384 1
440 384 1
447 384 1
454 384 1
459 384 1
172 385 1
175 385 1
311 385 1
315 385 1
441 385 1
448 385 1
455 385 1
460 385 1
173 386 1
176 386 1
312 386 1
316 386 1
435 386 1
442 386 1
456 386 1
461 386 1
174 387 1
177 387 1
313 387 1
317 387 1
436 387 1
443 387 1
457 387 1
462 387 1
175 388 1
178 388 1
314 388 1
318 388 1
437 388 1
444 388 1
449 388 1
458 388 1
176 389 1
179 389 1
315 389 1
319 389 1
438 389 1
445 389 1
450 389 1
459 389 1
177 390 1
180 390 1
316 390 1
320 390 1
439 390 1
446 390 1
451 390 1
460 390 1
178 391 1
181 391 1
317 391 1
321 391 1
440 391 1
447 391 1
452 391 1
461 391 1
179 392 1
182 392 1
318 392 1
322 392 1
441 392 1
448 392 1
453 392 1
462 392 1
183 393 1
194 393 1
323 393 1
333 393 1
421 393 1
429 393 1
463 393 1
464 393 1
184 394 1
195 394 1
324 394 1
334 394 1
422 394 1
430 394 1
464 394 1
465 394 1
185 395 1
196 395 1
325 395 1
335 395 1
423 395 1
431 395 1
465 395 1
466 395 1
183 396 1
186 396 1
326 396 1
336 396 1
424 396 1
432 396 1
466 396 1
467 396 1
184 397 1
187 397 1
323 397 1
327 397 1
425 397 1
433 397 1
467 397 1
468 397 1
185 398 1
188 398 1
324 398 1
328 398 1
426 398 1
434 398 1
468 398 1
469 398 1
186 399 1
189 399 1
325 399 1
329 399 1
421 399 1
427 399 1
469 399 1
470 399 1
187 400 1
190 400 1
326 400 1
330 400 1
422 400 1
428 400 1
470 400 1
471 400 1
188 401 1
191 401 1
327 401 1
331 401 1
423 401 1
429 401 1
471 401 1
472 401 1
189 402 1
192 402 1
328 402 1
332 402 1
424 402 1
430 402 1
472 402 1
473 402 1
190 403 1
193 403 1
329 403 1
333 403 1
425 403 1
431 403 1
473 403 1
474 403 1
191 404 1
194 404 1
330 404 1
334 404 1
426 404 1
432 404 1
474 404 1
475 404 1
192 405 1
195 405 1
331 405 1
335 405 1
427 405 1
433 405 1
475 405 1
476 405 1
193 406 1
196 406 1
332 406 1
336 406 1
428 406 1
434 406 1
463 406 1
476 406 1
197 407 1
208 407 1
337 407 1
347 407 1
435 407 1
443 407 1
463 407 1
468 407 1
198 408 1
209 408 1
338 408 1
348 408 1
436 408 1
444 408 1
464 408 1
469 408 1
199 409 1
210 409 1
339 409 1
349 409 1
437 409 1
445 409 1
465 409 1
470 409 1
197 410 1
200 410 1
340 410 1
350 410 1
438 410 1
446 410 1
466 410 1
471 410 1
198 411 1
201 411 1
337 411 1
341 411 1
439 411 1
447 411 1
467 411 1
472 411 1
199 412 1
202 412 1
338 412 1
342 412 1
440 412 1
448 412 1
468 412 1
473 412 1
200 413 1
203 413 1
339 413 1
343 413 1
435 413 1
441 413 1
469 413 1
474 413 1
201 414 1
204 414 1
340 414 1
344 414 1
436 414 1
442 414 1
470 414 1
475 414 1
202 415 1
205 415 1
341 415 1
345 415 1
437 415 1
443 415 1
471 415 1
476 415 1
203 416 1
206 416 1
342 416 1
346 416 1
438 416 1
444 416 1
463 416 1
472 416 1
204 417 1
207 417 1
343 417 1
347 417 1
439 417 1
445 417 1
464 417 1
473 417 1
205 418 1
208 418 1
344 418 1
348 418 1
440 418 1
446 418 1
465 418 1
474 418 1
206 419 1
209 419 1
345 419 1
349 419 1
441 419 1
447 419 1
466 419 1
475 419 1
207 420 1
210 420 1
346 420 1
350 420 1
442 420 1
448 420 1
467 420 1
476 420 1
211 421 1
222 421 1
351 421 1
361 421 1
449 421 1
457 421 1
463 421 1
470 421 1
212 422 1
223 422 1
352 422 1
362 422 1
450 422 1
458 422 1
464 422 1
471 422 1
213 423 1
224 423 1
353 423 1
363 423 1
451 423 1
459 423 1
465 423 1
472 423 1
211 424 1
214 424 1
354 424 1
364 424 1
452 424 1
460 424 1
466 424 1
473 424 1
212 425 1
215 425 1
351 425 1
355 425 1
453 425 1
461 425 1
467 425 1
474 425 1
213 426 1
216 426 1
352 426 1
356 426 1
454 426 1
462 426 1
468 426 1
475 426 1
214 427 1
217 427 1
353 427 1
357 427 1
449 427 1
455 427 1
469 427 1
476 427 1
215 428 1
218 428 1
354 428 1
358 428 1
450 428 1
456 428 1
463 428 1
470 428 1
216 429 1
219 429 1
355 429 1
359 429 1
451 429 1
457 429 1
464 429 1
471 429 1
217 430 1
220 430 1
356 430 1
360 430 1
452 430 1
458 430 1
465 430 1
472 430 1
218 431 1
221 431 1
357 431 1
361 431 1
453 431 1
459 431 1
466 431 1
473 431 1
219 432 1
222 432 1
358 432 1
362 432 1
454 432 1
460 432 1
467 432 1
474 432 1
220 433 1
223 433 1
359 433 1
363 433 1
455 433 1
461 433 1
468 433 1
475 433 1
221 434 1
224 434 1
360 434 1
364 434 1
456 434 1
462 434 1
469 434 1
476 434 1
225 435 1
236 435 1
365 435 1
375 435 1
421 435 1
430 435 1
477 435 1
478 435 1
226 436 1
237 436 1
366 436 1
376 436 1
422 436 1
431 436 1
478 436 1
479 436 1
227 437 1
238 437 1
367 437 1
377 437 1
423 437 1
432 437 1
479 437 1
480 437 1
225 438 1
228 438 1
368 438 1
378 438 1
424 438 1
433 438 1
480 438 1
481 438 1
226 439 1
229 439 1
365 439 1
369 439 1
425 439 1
434 439 1
481 439 1
482 439 1
227 440 1
230 440 1
366 440 1
370 440 1
421 440 1
426 440 1
482 440 1
483 440 1
228 441 1
231 441 1
367 441 1
371 441 1
422 441 1
427 441 1
483 441 1
484 441 1
229 442 1
232 442 1
368 442 1
372 442 1
423 442 1
428 442 1
484 442 1
485 442 1
230 443 1
233 443 1
369 443 1
373 443 1
424 443 1
429 443 1
485 443 1
486 443 1
231 444 1
234 444 1
370 444 1
374 444 1
425 444 1
430 444 1
486 444 1
487 444 1
232 445 1
235 445 1
371 445 1
375 445 1
426 445 1
431 445 1
487 445 1
488 445 1
233 446 1
236 446 1
372 446 1
376 446 1
427 446 1
432 446 1
488 446 1
489 446 1
234 447 1
237 447 1
373 447 1
377 447 1
428 447 1
433 447 1
489 447 1
490 447 1
235 448 1
238 448 1
374 448 1
378 448 1
429 448 1
434 448 1
477 448 1
490 448 1
239 449 1
250 449 1
379 449 1
389 449 1
435 449 1
444 449 1
477 449 1
482 449 1
240 450 1
251 450 1
380 450 1
390 450 1
436 450 1
445 450 1
478 450 1
483 450 1
241 451 1
252 451 1
381 451 1
391 451 1
437 451 1
446 451 1
479 451 1
484 451 1
239 452 1
242 452 1
382 452 1
392 452 1
438 452 1
447 452 1
480 452 1
485 452 1
240 453 1
243 453 1
379 453 1
383 453 1
439 453 1
448 453 1
481 453 1
486 453 1
241 454 1
244 454 1
380 454 1
384 454 1
435 454 1
440 454 1
482 454 1
487 454 1
242 455 1
245 455 1
381 455 1
385 455 1
436 455 1
441 455 1
483 455 1
488 455 1
243 456 1
246 456 1
382 456 1
386 456 1
437 456 1
442 456 1
484 456 1
489 456 1
244 457 1
247 457 1
383 457 1
387 457 1
438 457 1
443 457 1
485 457 1
490 457 1
245 458 1
248 458 1
384 458 1
388 458 1
439 458 1
444 458 1
477 458 1
486 458 1
246 459 1
249 459 1
385 459 1
389 459 1
440 459 1
445 459 1
478 459 1
487 459 1
247 460 1
250 460 1
386 460 1
390 460 1
441 460 1
446 460 1
479 460 1
488 460 1
248 461 1
251 461 1
387 461 1
391 461 1
442 461 1
447 461 1
480 461 1
489 461 1
249 462 1
252 462 1
388 462 1
392 462 1
443 462 1
448 462 1
481 462 1
490 462 1
253 463 1
264 463 1
393 463 1
403 463 1
449 463 1
458 463 1
477 463 1
484 463 1
254 464 1
265 464 1
394 464 1
404 464 1
450 464 1
459 464 1
478 464 1
485 464 1
255 465 1
266 465 1
395 465 1
405 465 1
451 465 1
460 465 1
479 465 1
486 465 1
253 466 1
256 466 1
396 466 1
406 466 1
452 466 1
461 466 1
480 466 1
487 466 1
254 467 1
257 467 1
393 467 1
397 467 1
453 467 1
462 467 1
481 467 1
488 467 1
255 468 1
258 468 1
394 468 1
398 468 1
449 468 1
454 468 1
482 468 1
489 468 1
256 469 1
259 469 1
395 469 1
399 469 1
450 469 1
455 469 1
483 469 1
490 469 1
257 470 1
260 470 1
396 470 1
400 470 1
451 470 1
456 470 1
477 470 1
484 470 1
258 471 1
261 471 1
397 471 1
401 471 1
452 471 1
457 471 1
478 471 1
485 471 1
259 472 1
262 472 1
398 472 1
402 472 1
453 472 1
458 472 1
479 472 1
486 472 1
260 473 1
263 473 1
399 473 1
403 473 1
454 473 1
459 473 1
480 473 1
487 473 1
261 474 1
264 474 1
400 474 1
404 474 1
455 474 1
460 474 1
481 474 1
488 474 1
262 475 1
265 475 1
401 475 1
405 475 1
456 475 1
461 475 1
482 475 1
489 475 1
263 476 1
266 476 1
402 476 1
406 476 1
457 476 1
462 476 1
483 476 1
490 476 1
267 477 1
278 477 1
407 477 1
417 477 1
463 477 1
472 477 1
477 477 1
485 477 1
268 478 1
279 478 1
408 478 1
418 478 1
464 478 1
473 478 1
478 478 1
486 478 1
269 479 1
280 479 1
409 479 1
419 479 1
465 479 1
474 479 1
479 479 1
487 479 1
267 480 1
270 480 1
410 480 1
420 480 1
466 480 1
475 480 1
480 480 1
488 480 1
268 481 1
271 481 1
407 481 1
411 481 1
467 481 1
476 481 1
481 481 1
489 481 1
269 482 1
272 482 1
408 482 1
412 482 1
463 482 1
468 482 1
482 482 1
490 482 1
270 483 1
273 483 1
409 483 1
413 483 1
464 483 1
469 483 1
477 483 1
483 483 1
271 484 1
274 484 1
410 484 1
414 484 1
465 484 1
470 484 1
478 484 1
484 484 1
272 485 1
275 485 1
411 485 1
415 485 1
466 485 1
471 485 1
479 485 1
485 485 1
273 486 1
276 486 1
412 486 1
416 486 1
467 486 1
472 486 1
480 486 1
486 486 1
274 487 1
277 487 1
413 487 1
417 487 1
468 487 1
473 487 1
481 487 1
487 487 1
275 488 1
278 488 1
414 488 1
418 488 1
469 488 1
474 488 1
482 488 1
488 488 1
276 489 1
279 489 1
415 489 1
419 489 1
470 489 1
475 489 1
483 489 1
489 489 1
277 490 1
280 490 1
416 490 1
420 490 1
471 490 1
476 490 1
484 490 1
490 490 1
1 491 1
13 491 1
491 491 1
498 491 1
505 491 1
510 491 1
519 491 1
520 491 1
2 492 1
14 492 1
492 492 1
499 492 1
506 492 1
511 492 1
520 492 1
521 492 1
1 493 1
3 493 1
493 493 1
500 493 1
507 493 1
512 493 1
521 493 1
522 493 1
2 494 1
4 494 1
494 494 1
501 494 1
508 494 1
513 494 1
522 494 1
523 494 1
3 495 1
5 495 1
495 495 1
502 495 1
509 495 1
514 495 1
523 495 1
524 495 1
4 496 1
6 496 1
496 496 1
503 496 1
510 496 1
515 496 1
524 496 1
525 496 1
5 497 1
7 497 1
497 497 1
504 497 1
511 497 1
516 497 1
525 497 1
526 497 1
6 498 1
8 498 1
491 498 1
498 498 1
512 498 1
517 498 1
526 498 1
527 498 1
7 499 1
9 499 1
492 499 1
499 499 1
513 499 1
518 499 1
527 499 1
528 499 1
8 500 1
10 500 1
493 500 1
500 500 1
505 500 1
514 500 1
528 500 1
529 500 1
9 501 1
11 501 1
494 501 1
501 501 1
506 501 1
515 501 1
529 501 1
530 501 1
10 502 1
12 502 1
495 502 1
502 502 1
507 502 1
516 502 1
530 502 1
531 502 1
11 503 1
13 503 1
496 503 1
503 503 1
508 503 1
517 503 1
531 503 1
532 503 1
12 504 1
14 504 1
497 504 1
504 504 1
509 504 1
518 504 1
519 504 1
532 504 1
15 505 1
27 505 1
491 505 1
499 505 1
533 505 1
538 505 1
547 505 1
548 505 1
16 506 1
28 506 1
492 506 1
500 506 1
534 506 1
539 506 1
548 506 1
549 506 1
15 507 1
17 507 1
493 507 1
501 507 1
535 507 1
540 507 1
549 507 1
550 507 1
16 508 1
18 508 1
494 508 1
502 508 1
536 508 1
541 508 1
550 508 1
551 508 1
17 509 1
19 509 1
495 509 1
503 509 1
537 509 1
542 509 1
551 509 1
552 509 1
18 510 1
20 510 1
496 510 1
504 510 1
538 510 1
543 510 1
552 510 1
553 510 1
19 511 1
21 511 1
491 511 1
497 511 1
539 511 1
544 511 1
553 511 1
554 511 1
20 512 1
22 512 1
492 512 1
498 512 1
540 512 1
545 512 1
554 512 1
555 512 1
21 513 1
23 513 1
493 513 1
499 513 1
541 513 1
546 513 1
555 513 1
556 513 1
22 514 1
24 514 1
494 514 1
500 514 1
533 514 1
542 514 1
556 514 1
557 514 1
23 515 1
25 515 1
495 515 1
501 515 1
534 515 1
543 515 1
557 515 1
558 515 1
24 516 1
26 516 1
496 516 1
502 516 1
535 516 1
544 516 1
558 516 1
559 516 1
25 517 1
27 517 1
497 517 1
503 517 1
536 517 1
545 517 1
559 517 1
560 517 1
26 518 1
28 518 1
498 518 1
504 518 1
537 518 1
546 518 1
547 518 1
560 518 1
29 519 1
41 519 1
505 519 1
513 519 1
533 519 1
540 519 1
561 519 1
562 519 1
30 520 1
42 520 1
506 520 1
514 520 1
534 520 1
541 520 1
562 520 1
563 520 1
29 521 1
31 521 1
507 521 1
515 521 1
535 521 1
542 521 1
563 521 1
564 521 1
30 522 1
32 522 1
508 522 1
516 522 1
536 522 1
543 522 1
564 522 1
565 522 1
31 523 1
33 523 1
509 523 1
517 523 1
537 523 1
544 523 1
565 523 1
566 523 1
32 524 1
34 524 1
510 524 1
518 524 1
538 524 1
545 524 1
566 524 1
567 524 1
33 525 1
35 525 1
505 525 1
511 525 1
539 525 1
546 525 1
567 525 1
568 525 1
34 526 1
36 526 1
506 526 1
512 526 1
533 526 1
540 526 1
568 526 1
569 526 1
35 527 1
37 527 1
507 527 1
513 527 1
534 527 1
541 527 1
569 527 1
570 527 1
36 528 1
38 528 1
508 528 1
514 528 1
535 528 1
542 528 1
570 528 1
571 528 1
37 529 1
39 529 1
509 529 1
515 529 1
536 529 1
543 529 1
571 529 1
572 529 1
38 530 1
40 530 1
510 530 1
516 530 1
537 530 1
544 530 1
572 530 1
573 530 1
39 531 1
41 531 1
511 531 1
517 531 1
538 531 1
545 531 1
573 531 1
574 531 1
40 532 1
42 532 1
512 532 1
518 532 1
539 532 1
546 532 1
561 532 1
574 532 1
43 533 1
55 533 1
519 533 1
527 533 1
547 533 1
554 533 1
561 533 1
566 533 1
44 534 1
56 534 1
520 534 1
528 534 1
548 534 1
555 534 1
562 534 1
567 534 1
43 535 1
45 535 1
521 535 1
529 535 1
549 535 1
556 535 1
563 535 1
568 535 1
44 536 1
46 536 1
522 536 1
530 536 1
550 536 1
557 536 1
564 536 1
569 536 1
45 537 1
47 537 1
523 537 1
531 537 1
551 537 1
558 537 1
565 537 1
570 537 1
46 538 1
48 538 1
524 538 1
532 538 1
552 538 1
559 538 1
566 538 1
571 538 1
47 539 1
49 539 1
519 539 1
525 539 1
553 539 1
560 539 1
567 539 1
572 539 1
48 540 1
50 540 1
520 540 1
526 540 1
547 540 1
554 540 1
568 540 1
573 540 1
49 541 1
51 541 1
521 541 1
527 541 1
548 541 1
555 541 1
569 541 1
574 541 1
50 542 1
52 542 1
522 542 1
528 542 1
549 542 1
556 542 1
561 542 1
570 542 1
51 543 1
53 543 1
523 543 1
529 543 1
550 543 1
557 543 1
562 543 1
571 543 1
52 544 1
54 544 1
524 544 1
530 544 1
551 544 1
558 544 1
563 544 1
572 544 1
53 545 1
55 545 1
525 545 1
531 545 1
552 545 1
559 545 1
564 545 1
573 545 1
54 546 1
56 546 1
526 546 1
532 546 1
553 546 1
560 546 1
565 546 1
574 546 1
57 547 1
69 547 1
491 547 1
500 547 1
575 547 1
580 547 1
589 547 1
590 547 1
58 548 1
70 548 1
492 548 1
501 548 1
576 548 1
581 548 1
590 548 1
591 548 1
57 549 1
59 549 1
493 549 1
502 549 1
577 549 1
582 549 1
591 549 1
592 549 1
58 550 1
60 550 1
494 550 1
503 550 1
578 550 1
583 550 1
592 550 1
593 550 1
59 551 1
61 551 1
495 551 1
504 551 1
579 551 1
584 551 1
593 551 1
594 551 1
60 552 1
62 552 1
491 552 1
496 552 1
580 552 1
585 552 1
594 552 1
595 552 1
61 553 1
63 553 1
492 553 1
497 553 1
581 553 1
586 553 1
595 553 1
596 553 1
62 554 1
64 554 1
493 554 1
498 554 1
582 554 1
587 554 1
596 554 1
597 554 1
63 555 1
65 555 1
494 555 1
499 555 1
583 555 1
588 555 1
597 555 1
598 555 1
64 556 1
66 556 1
495 556 1
500 556 1
575 556 1
584 556 1
598 556 1
599 556 1
65 557 1
67 557 1
496 557 1
501 557 1
576 557 1
585 557 1
599 557 1
600 557 1
66 558 1
68 558 1
497 558 1
502 558 1
577 558 1
586 558 1
600 558 1
601 558 1
67 559 1
69 559 1
498 559 1
503 559 1
578 559 1
587 559 1
601 559 1
602 559 1
68 560 1
70 560 1
499 560 1
504 560 1
579 560 1
588 560 1
589 560 1
602 560 1
71 561 1
83 561 1
505 561 1
514 561 1
575 561 1
582 561 1
603 561 1
604 561 1
72 562 1
84 562 1
506 562 1
515 562 1
576 562 1
583 562 1
604 562 1
605 562 1
71 563 1
73 563 1
507 563 1
516 563 1
577 563 1
584 563 1
605 563 1
606 563 1
72 564 1
74 564 1
508 564 1
517 564 1
578 564 1
585 564 1
606 564 1
607 564 1
73 565 1
75 565 1
509 565 1
518 565 1
579 565 1
586 565 1
607 565 1
608 565 1
74 566 1
76 566 1
505 566 1
510 566 1
580 566 1
587 566 1
608 566 1
609 566 1
75 567 1
77 567 1
506 567 1
511 567 1
581 567 1
588 567 1
609 567 1
610 567 1
76 568 1
78 568 1
507 568 1
512 568 1
575 568 1
582 568 1
610 568 1
611 568 1
77 569 1
79 569 1
508 569 1
513 569 1
576 569 1
583 569 1
611 569 1
612 569 1
78 570 1
80 570 1
509 570 1
514 570 1
577 570 1
584 570 1
612 570 1
613 570 1
79 571 1
81 571 1
510 571 1
515 571 1
578 571 1
585 571 1
613 571 1
614 571 1
80 572 1
82 572 1
511 572 1
516 572 1
579 572 1
586 572 1
614 572 1
615 572 1
81 573 1
83 573 1
512 573 1
517 573 1
580 573 1
587 573 1
615 573 1
616 573 1
82 574 1
84 574 1
513 574 1
518 574 1
581 574 1
588 574 1
603 574 1
616 574 1
85 575 1
97 575 1
519 575 1
528 575 1
589 575 1
596 575 1
603 575 1
608 575 1
86 576 1
98 576 1
520 576 1
529 576 1
590 576 1
597 576 1
604 576 1
609 576 1
85 577 1
87 577 1
521 577 1
530 577 1
591 577 1
598 577 1
605 577 1
610 577 1
86 578 1
88 578 1
522 578 1
531 578 1
592 578 1
599 578 1
606 578 1
611 578 1
87 579 1
89 579 1
523 579 1
532 579 1
593 579 1
600 579 1
607 579 1
612 579 1
88 580 1
90 580 1
519 580 1
524 580 1
594 580 1
601 580 1
608 580 1
613 580 1
89 581 1
91 581 1
520 581 1
525 581 1
595 581 1
602 581 1
609 581 1
614 581 1
90 582 1
92 582 1
521 582 1
526 582 1
589 582 1
596 582 1
610 582 1
615 582 1
91 583 1
93 583 1
522 583 1
527 583 1
590 583 1
597 583 1
611 583 1
616 583 1
92 584 1
94 584 1
523 584 1
528 584 1
591 584 1
598 584 1
603 584 1
612 584 1
93 585 1
95 585 1
524 585 1
529 585 1
592 585 1
599 585 1
604 585 1
613 585 1
94 586 1
96 586 1
525 586 1
530 586 1
593 586 1
600 586 1
605 586 1
614 586 1
95 587 1
97 587 1
526 587 1
531 587 1
594 587 1
601 587 1
606 587 1
615 587 1
96 588 1
98 588 1
527 588 1
532 588 1
595 588 1
602 588 1
607 588 1
616 588 1
99 589 1
111 589 1
533 589 1
542 589 1
575 589 1
583 589 1
617 589 1
618 589 1
100 590 1
112 590 1
534 590 1
543 590 1
576 590 1
584 590 1
618 590 1
619 590 1
99 591 1
101 591 1
535 591 1
544 591 1
577 591 1
585 591 1
619 591 1
620 591 1
100 592 1
102 592 1
536 592 1
545 592 1
578 592 1
586 592 1
620 592 1
621 592 1
101 593 1
103 593 1
537 593 1
546 593 1
579 593 1
587 593 1
621 593 1
622 593 1
102 594 1
104 594 1
533 594 1
538 594 1
580 594 1
588 594 1
622 594 1
623 594 1
103 595 1
105 595 1
534 595 1
539 595 1
575 595 1
581 595 1
623 595 1
624 595 1
104 596 1
106 596 1
535 596 1
540 596 1
576 596 1
582 596 1
624 596 1
625 596 1
105 597 1
107 597 1
536 597 1
541 597 1
577 597 1
583 597 1
625 597 1
626 597 1
106 598 1
108 598 1
537 598 1
542 598 1
578 598 1
584 598 1
626 598 1
627 598 1
107 599 1
109 599 1
538 599 1
543 599 1
579 599 1
585 599 1
627 599 1
628 599 1
108 600 1
110 600 1
539 600 1
544 600 1
580 600 1
586 600 1
628 600 1
629 600 1
109 601 1
111 601 1
540 601 1
545 601 1
581 601 1
587 601 1
629 601 1
630 601 1
110 602 1
112 602 1
541 602 1
546 602 1
582 602 1
588 602 1
617 602 1
630 602 1
113 603 1
125 603 1
547 603 1
556 603 1
589 603 1
597 603 1
617 603 1
622 603 1
114 604 1
126 604 1
548 604 1
557 604 1
590 604 1
598 604 1
618 604 1
623 604 1
113 605 1
115 605 1
549 605 1
558 605 1
591 605 1
599 605 1
619 605 1
624 605 1
114 606 1
116 606 1
550 606 1
559 606 1
592 606 1
600 606 1
620 606 1
625 606 1
115 607 1
117 607 1
551 607 1
560 607 1
593 607 1
601 607 1
621 607 1
626 607 1
116 608 1
118 608 1
547 608 1
552 608 1
594 608 1
602 608 1
622 608 1
627 608 1
117 609 1
119 609 1
548 609 1
553 609 1
589 609 1
595 609 1
623 609 1
628 609 1
118 610 1
120 610 1
549 610 1
554 610 1
590 610 1
596 610 1
624 610 1
629 610 1
119 611 1
121 611 1
550 611 1
555 611 1
591 611 1
597 611 1
625 611 1
630 611 1
120 612 1
122 612 1
551 612 1
556 612 1
592 612 1
598 612 1
617 612 1
626 612 1
121 613 1
123 613 1
552 613 1
557 613 1
593 613 1
599 613 1
618 613 1
627 613 1
122 614 1
124 614 1
553 614 1
558 614 1
594 614 1
600 614 1
619 614 1
628 614 1
123 615 1
125 615 1
554 615 1
559 615 1
595 615 1
601 615 1
620 615 1
629 615 1
124 616 1
126 616 1
555 616 1
560 616 1
596 616 1
602 616 1
621 616 1
630 616 1
127 617 1
139 617 1
561 617 1
570 617 1
603 617 1
611 617 1
617 617 1
624 617 1
128 618 1
140 618 1
562 618 1
571 618 1
604 618 1
612 618 1
618 618 1
625 618 1
127 619 1
129 619 1
563 619 1
572 619 1
605 619 1
613 619 1
619 619 1
626 619 1
128 620 1
130 620 1
564 620 1
573 620 1
606 620 1
614 620 1
620 620 1
627 620 1
129 621 1
131 621 1
565 621 1
574 621 1
607 621 1
615 621 1
621 621 1
628 621 1
130 622 1
132 622 1
561 622 1
566 622 1
608 622 1
616 622 1
622 622 1
629 622 1
131 623 1
133 623 1
562 623 1
567 623 1
603 623 1
609 623 1
623 623 1
630 623 1
132 624 1
134 624 1
563 624 1
568 624 1
604 624 1
610 624 1
617 624 1
624 624 1
133 625 1
135 625 1
564 625 1
569 625 1
605 625 1
611 625 1
618 625 1
625 625 1
134 626 1
136 626 1
565 626 1
570 626 1
606 626 1
612 626 1
619 626 1
626 626 1
135 627 1
137 627 1
566 627 1
571 627 1
607 627 1
613 627 1
620 627 1
627 627 1
136 628 1
138 628 1
567 628 1
572 628 1
608 628 1
614 628 1
621 628 1
628 628 1
137 629 1
139 629 1
568 629 1
573 629 1
609 629 1
615 629 1
622 629 1
629 629 1
138 630 1
140 630 1
569 630 1
574 630 1
610 630 1
616 630 1
623 630 1
630 630 1
141 631 1
153 631 1
491 631 1
501 631 1
631 631 1
636 631 1
645 631 1
646 631 1
142 632 1
154 632 1
492 632 1
502 632 1
632 632 1
637 632 1
646 632 1
647 632 1
141 633 1
143 633 1
493 633 1
503 633 1
633 633 1
638 633 1
647 633 1
648 633 1
142 634 1
144 634 1
494 634 1
504 634 1
634 634 1
639 634 1
648 634 1
649 634 1
143 635 1
145 635 1
491 635 1
495 635 1
635 635 1
640 635 1
649 635 1
650 635 1
144 636 1
146 636 1
492 636 1
496 636 1
636 636 1
641 636 1
650 636 1
651 636 1
145 637 1
147 637 1
493 637 1
497 637 1
637 637 1
642 637 1
651 637 1
652 637 1
146 638 1
148 638 1
494 638 1
498 638 1
638 638 1
643 638 1
652 638 1
653 638 1
147 639 1
149 639 1
495 639 1
499 639 1
639 639 1
644 639 1
653 639 1
654 639 1
148 640 1
150 640 1
496 640 1
500 640 1
631 640 1
640 640 1
654 640 1
655 640 1
149 641 1
151 641 1
497 641 1
501 641 1
632 641 1
641 641 1
655 641 1
656 641 1
150 642 1
152 642 1
498 642 1
502 642 1
633 642 1
642 642 1
656 642 1
657 642 1
151 643 1
153 643 1
499 643 1
503 643 1
634 643 1
643 643 1
657 643 1
658 643 1
152 644 1
154 644 1
500 644 1
504 644 1
635 644 1
644 644 1
645 644 1
658 644 1
155 645 1
167 645 1
505 645 1
515 645 1
631 645 1
638 645 1
659 645 1
660 645 1
156 646 1
168 646 1
506 646 1
516 646 1
632 646 1
639 646 1
660 646 1
661 646 1
155 647 1
157 647 1
507 647 1
517 647 1
633 647 1
640 647 1
661 647 1
662 647 1
156 648 1
158 648 1
508 648 1
518 648 1
634 648 1
641 648 1
662 648 1
663 648 1
157 649 1
159 649 1
505 649 1
509 649 1
635 649 1
642 649 1
663 649 1
664 649 1
158 650 1
160 650 1
506 650 1
510 650 1
636 650 1
643 650 1
664 650 1
665 650 1
159 651 1
161 651 1
507 651 1
511 651 1
637 651 1
644 651 1
665 651 1
666 651 1
160 652 1
162 652 1
508 652 1
512 652 1
631 652 1
638 652 1
666 652 1
667 652 1
161 653 1
163 653 1
509 653 1
513 653 1
632 653 1
639 653 1
667 653 1
668 653 1
162 654 1
164 654 1
510 654 1
514 654 1
633 654 1
640 654 1
668 654 1
669 654 1
163 655 1
165 655 1
511 655 1
515 655 1
634 655 1
641 655 1
669 655 1
670 655 1
164 656 1
166 656 1
512 656 1
516 656 1
635 656 1
642 656 1
670 656 1
671 656 1
165 657 1
167 657 1
513 657 1
517 657 1
636 657 1
643 657 1
671 657 1
672 657 1
166 658 1
168 658 1
514 658 1
518 658 1
637 658 1
644 658 1
659 658 1
672 658 1
169 659 1
181 659 1
519 659 1
529 659 1
645 659 1
652 659 1
659 659 1
664 659 1
170 660 1
182 660 1
520 660 1
530 660 1
646 660 1
653 660 1
660 660 1
665 660 1
169 661 1
171 661 1
521 661 1
531 661 1
647 661 1
654 661 1
661 661 1
666 661 1
170 662 1
172 662 1
522 662 1
532 662 1
648 662 1
655 662 1
662 662 1
667 662 1
171 663 1
173 663 1
519 663 1
523 663 1
649 663 1
656 663 1
663 663 1
668 663 1
172 664 1
174 664 1
520 664 1
524 664 1
650 664 1
657 664 1
664 664 1
669 664 1
173 665 1
175 665 1
521 665 1
525 665 1
651 665 1
658 665 1
665 665 1
670 665 1
174 666 1
176 666 1
522 666 1
526 666 1
645 666 1
652 666 1
666 666 1
671 666 1
175 667 1
177 667 1
523 667 1
527 667 1
646 667 1
653 667 1
667 667 1
672 667 1
176 668 1
178 668 1
524 668 1
528 668 1
647 668 1
654 668 1
659 668 1
668 668 1
177 669 1
179 669 1
525 669 1
529 669 1
648 669 1
655 669 1
660 669 1
669 669 1
178 670 1
180 670 1
526 670 1
530 670 1
649 670 1
656 670 1
661 670 1
670 670 1
179 671 1
181 671 1
527 671 1
531 671 1
650 671 1
657 671 1
662 671 1
671 671 1
180 672 1
182 672 1
528 672 1
532 672 1
651 672 1
658 672 1
663 672 1
672 672 1
183 673 1
195 673 1
533 673 1
543 673 1
631 673 1
639 673 1
673 673 1
674 673 1
184 674 1
196 674 1
534 674 1
544 674 1
632 674 1
640 674 1
674 674 1
675 674 1
183 675 1
185 675 1
535 675 1
545 675 1
633 675 1
641 675 1
675 675 1
676 675 1
184 676 1
186 676 1
536 676 1
546 676 1
634 676 1
642 676 1
676 676 1
677 676 1
185 677 1
187 677 1
533 677 1
537 677 1
635 677 1
643 677 1
677 677 1
678 677 1
186 678 1
188 678 1
534 678 1
538 678 1
636 678 1
644 678 1
678 678 1
679 678 1
187 679 1
189 679 1
535 679 1
539 679 1
631 679 1
637 679 1
679 679 1
680 679 1
188 680 1
190 680 1
536 680 1
540 680 1
632 680 1
638 680 1
680 680 1
681 680 1
189 681 1
191 681 1
537 681 1
541 681 1
633 681 1
639 681 1
681 681 1
682 681 1
190 682 1
192 682 1
538 682 1
542 682 1
634 682 1
640 682 1
682 682 1
683 682 1
191 683 1
193 683 1
539 683 1
543 683 1
635 683 1
641 683 1
683 683 1
684 683 1
192 684 1
194 684 1
540 684 1
544 684 1
636 684 1
642 684 1
684 684 1
685 684 1
193 685 1
195 685 1
541 685 1
545 685 1
637 685 1
643 685 1
685 685 1
686 685 1
194 686 1
196 686 1
542 686 1
546 686 1
638 686 1
644 686 1
673 686 1
686 686 1
197 687 1
209 687 1
547 687 1
557 687 1
645 687 1
653 687 1
673 687 1
678 687 1
198 688 1
210 688 1
548 688 1
558 688 1
646 688 1
654 688 1
674 688 1
679 688 1
197 689 1
199 689 1
549 689 1
559 689 1
647 689 1
655 689 1
675 689 1
680 689 1
198 690 1
200 690 1
550 690 1
560 690 1
648 690 1
656 690 1
676 690 1
681 690 1
199 691 1
201 691 1
547 691 1
551 691 1
649 691 1
657 691 1
677 691 1
682 691 1
200 692 1
202 692 1
548 692 1
552 692 1
650 692 1
658 692 1
678 692 1
683 692 1
201 693 1
203 693 1
549 693 1
553 693 1
645 693 1
651 693 1
679 693 1
684 693 1
202 694 1
204 694 1
550 694 1
554 694 1
646 694 1
652 694 1
680 694 1
685 694 1
203 695 1
205 695 1
551 695 1
555 695 1
647 695 1
653 695 1
681 695 1
686 695 1
204 696 1
206 696 1
552 696 1
556 696 1
648 696 1
654 696 1
673 696 1
682 696 1
205 697 1
207 697 1
553 697 1
557 697 1
649 697 1
655 697 1
674 697 1
683 697 1
206 698 1
208 698 1
554 698 1
558 698 1
650 698 1
656 698 1
675 698 1
684 698 1
207 699 1
209 699 1
555 699 1
559 699 1
651 699 1
657 699 1
676 699 1
685 699 1
208 700 1
210 700 1
556 700 1
560 700 1
652 700 1
658 700 1
677 700 1
686 700 1
211 701 1
223 701 1
561 701 1
571 701 1
659 701 1
667 701 1
673 701 1
680 701 1
212 702 1
224 702 1
562 702 1
572 702 1
660 702 1
668 702 1
674 702 1
681 702 1
211 703 1
213 703 1
563 703 1
573 703 1
661 703 1
669 703 1
675 703 1
682 703 1
212 704 1
214 704 1
564 704 1
574 704 1
662 704 1
670 704 1
676 704 1
683 704 1
213 705 1
215 705 1
561 705 1
565 705 1
663 705 1
671 705 1
677 705 1
684 705 1
214 706 1
216 706 1
562 706 1
566 706 1
664 706 1
672 706 1
678 706 1
685 706 1
215 707 1
217 707 1
563 707 1
567 707 1
659 707 1
665 707 1
679 707 1
686 707 1
216 708 1
218 708 1
564 708 1
568 708 1
660 708 1
666 708 1
673 708 1
680 708 1
217 709 1
219 709 1
565 709 1
569 709 1
661 709 1
667 709 1
674 709 1
681 709 1
218 710 1
220 710 1
566 710 1
570 710 1
662 710 1
668 710 1
675 710 1
682 710 1
219 711 1
221 711 1
567 711 1
571 711 1
663 711 1
669 711 1
676 711 1
683 711 1
220 712 1
222 712 1
568 712 1
572 712 1
664 712 1
670 712 1
677 712 1
684 712 1
221 713 1
223 713 1
569 713 1
573 713 1
665 713 1
671 713 1
678 713 1
685 713 1
222 714 1
224 714 1
570 714 1
574 714 1
666 714 1
672 714 1
679 714 1
686 714 1
225 715 1
237 715 1
575 715 1
585 715 1
631 715 1
640 715 1
687 715 1
688 715 1
226 716 1
238 716 1
576 716 1
586 716 1
632 716 1
641 716 1
688 716 1
689 716 1
225 717 1
227 717 1
577 717 1
587 717 1
633 717 1
642 717 1
689 717 1
690 717 1
226 718 1
228 718 1
578 718 1
588 718 1
634 718 1
643 718 1
690 718 1
691 718 1
227 719 1
229 719 1
575 719 1
579 719 1
635 719 1
644 719 1
691 719 1
692 719 1
228 720 1
230 720 1
576 720 1
580 720 1
631 720 1
636 720 1
692 720 1
693 720 1
229 721 1
231 721 1
577 721 1
581 721 1
632 721 1
637 721 1
693 721 1
694 721 1
230 722 1
232 722 1
578 722 1
582 722 1
633 722 1
638 722 1
694 722 1
695 722 1
231 723 1
233 723 1
579 723 1
583 723 1
634 723 1
639 723 1
695 723 1
696 723 1
232 724 1
234 724 1
580 724 1
584 724 1
635 724 1
640 724 1
696 724 1
697 724 1
233 725 1
235 725 1
581 725 1
585 725 1
636 725 1
641 725 1
697 725 1
698 725 1
234 726 1
236 726 1
582 726 1
586 726 1
637 726 1
642 726 1
698 726 1
699 726 1
235 727 1
237 727 1
583 727 1
587 727 1
638 727 1
643 727 1
699 727 1
700 727 1
236 728 1
238 728 1
584 728 1
588 728 1
639 728 1
644 728 1
687 728 1
700 728 1
239 729 1
251 729 1
589 729 1
599 729 1
645 729 1
654 729 1
687 729 1
692 729 1
240 730 1
252 730 1
590 730 1
600 730 1
646 730 1
655 730 1
688 730 1
693 730 1
239 731 1
241 731 1
591 731 1
601 731 1
647 731 1
656 731 1
689 731 1
694 731 1
240 732 1
242 732 1
592 732 1
602 732 1
648 732 1
657 732 1
690 732 1
695 732 1
241 733 1
243 733 1
589 733 1
593 733 1
649 733 1
658 733 1
691 733 1
696 733 1
242 734 1
244 734 1
590 734 1
594 734 1
645 734 1
650 734 1
692 734 1
697 734 1
243 735 1
245 735 1
591 735 1
595 735 1
646 735 1
651 735 1
693 735 1
698 735 1
244 736 1
246 736 1
592 736 1
596 736 1
647 736 1
652 736 1
694 736 1
699 736 1
245 737 1
247 737 1
593 737 1
597 737 1
648 737 1
653 737 1
695 737 1
700 737 1
246 738 1
248 738 1
594 738 1
598 738 1
649 738 1
654 738 1
687 738 1
696 738 1
247 739 1
249 739 1
595 739 1
599 739 1
650 739 1
655 739 1
688 739 1
697 739 1
248 740 1
250 740 1
596 740 1
600 740 1
651 740 1
656 740 1
689 740 1
698 740 1
249 741 1
251 741 1
597 741 1
601 741 1
652 741 1
657 741 1
690 741 1
699 741 1
250 742 1
252 742 1
598 742 1
602 742 1
653 742 1
658 742 1
691 742 1
700 742 1
253 743 1
265 743 1
603 743 1
613 743 1
659 743 1
668 743 1
687 743 1
694 743 1
254 744 1
266 744 1
604 744 1
614 744 1
660 744 1
669 744 1
688 744 1
695 744 1
253 745 1
255 745 1
605 745 1
615 745 1
661 745 1
670 745 1
689 745 1
696 745 1
254 746 1
256 746 1
606 746 1
616 746 1
662 746 1
671 746 1
690 746 1
697 746 1
255 747 1
257 747 1
603 747 1
607 747 1
663 747 1
672 747 1
691 747 1
698 747 1
256 748 1
258 748 1
604 748 1
608 748 1
659 748 1
664 748 1
692 748 1
699 748 1
257 749 1
259 749 1
605 749 1
609 749 1
660 749 1
665 749 1
693 749 1
700 749 1
258 750 1
260 750 1
606 750 1
610 750 1
661 750 1
666 750 1
687 750 1
694 750 1
259 751 1
261 751 1
607 751 1
611 751 1
662 751 1
667 751 1
688 751 1
695 751 1
260 752 1
262 752 1
608 752 1
612 752 1
663 752 1
668 752 1
689 752 1
696 752 1
261 753 1
263 753 1
609 753 1
613 753 1
664 753 1
669 753 1
690 753 1
697 753 1
262 754 1
264 754 1
610 754 1
614 754 1
665 754 1
670 754 1
691 754 1
698 754 1
263 755 1
265 755 1
611 755 1
615 755 1
666 755 1
671 755 1
692 755 1
699 755 1
264 756 1
266 756 1
612 756 1
616 756 1
667 756 1
672 756 1
693 756 1
700 756 1
267 757 1
279 757 1
617 757 1
627 757 1
673 757 1
682 757 1
687 757 1
695 757 1
268 758 1
280 758 1
618 758 1
628 758 1
674 758 1
683 758 1
688 758 1
696 758 1
267 759 1
269 759 1
619 759 1
629 759 1
675 759 1
684 759 1
689 759 1
697 759 1
268 760 1
270 760 1
620 760 1
630 760 1
676 760 1
685 760 1
690 760 1
698 760 1
269 761 1
271 761 1
617 761 1
621 761 1
677 761 1
686 761 1
691 761 1
699 761 1
270 762 1
272 762 1
618 762 1
622 762 1
673 762 1
678 762 1
692 762 1
700 762 1
271 763 1
273 763 1
619 763 1
623 763 1
674 763 1
679 763 1
687 763 1
693 763 1
272 764 1
274 764 1
620 764 1
624 764 1
675 764 1
680 764 1
688 764 1
694 764 1
273 765 1
275 765 1
621 765 1
625 765 1
676 765 1
681 765 1
689 765 1
695 765 1
274 766 1
276 766 1
622 766 1
626 766 1
677 766 1
682 766 1
690 766 1
696 766 1
275 767 1
277 767 1
623 767 1
627 767 1
678 767 1
683 767 1
691 767 1
697 767 1
276 768 1
278 768 1
624 768 1
628 768 1
679 768 1
684 768 1
692 768 1
698 768 1
277 769 1
279 769 1
625 769 1
629 769 1
680 769 1
685 769 1
693 769 1
699 769 1
278 770 1
280 770 1
626 770 1
630 770 1
681 770 1
686 770 1
694 770 1
700 770 1
281 771 1
293 771 1
491 771 1
502 771 1
701 771 1
706 771 1
715 771 1
716 771 1
282 772 1
294 772 1
492 772 1
503 772 1
702 772 1
707 772 1
716 772 1
717 772 1
281 773 1
283 773 1
493 773 1
504 773 1
703 773 1
708 773 1
717 773 1
718 773 1
282 774 1
284 774 1
491 774 1
494 774 1
704 774 1
709 774 1
718 774 1
719 774 1
283 775 1
285 775 1
492 775 1
495 775 1
705 775 1
710 775 1
719 775 1
720 775 1
284 776 1
286 776 1
493 776 1
496 776 1
706 776 1
711 776 1
720 776 1
721 776 1
285 777 1
287 777 1
494 777 1
497 777 1
707 777 1
712 777 1
721 777 1
722 777 1
286 778 1
288 778 1
495 778 1
498 778 1
708 778 1
713 778 1
722 778 1
723 778 1
287 779 1
289 779 1
496 779 1
499 779 1
709 779 1
714 779 1
723 779 1
724 779 1
288 780 1
290 780 1
497 780 1
500 780 1
701 780 1
710 780 1
724 780 1
725 780 1
289 781 1
291 781 1
498 781 1
501 781 1
702 781 1
711 781 1
725 781 1
726 781 1
290 782 1
292 782 1
499 782 1
502 782 1
703 782 1
712 782 1
726 782 1
727 782 1
291 783 1
293 783 1
500 783 1
503 783 1
704 783 1
713 783 1
727 783 1
728 783 1
292 784 1
294 784 1
501 784 1
504 784 1
705 784 1
714 784 1
715 784 1
728 784 1
295 785 1
307 785 1
505 785 1
516 785 1
701 785 1
708 785 1
729 785 1
730 785 1
296 786 1
308 786 1
506 786 1
517 786 1
702 786 1
709 786 1
730 786 1
731 786 1
295 787 1
297 787 1
507 787 1
518 787 1
703 787 1
710 787 1
731 787 1
732 787 1
296 788 1
298 788 1
505 788 1
508 788 1
704 788 1
711 788 1
732 788 1
733 788 1
297 789 1
299 789 1
506 789 1
509 789 1
705 789 1
712 789 1
733 789 1
734 789 1
298 790 1
300 790 1
507 790 1
510 790 1
706 790 1
713 790 1
734 790 1
735 790 1
299 791 1
301 791 1
508 791 1
511 791 1
707 791 1
714 791 1
735 791 1
736 791 1
300 792 1
302 792 1
509 792 1
512 792 1
701 792 1
708 792 1
736 792 1
737 792 1
301 793 1
303 793 1
510 793 1
513 793 1
702 793 1
709 793 1
737 793 1
738 793 1
302 794 1
304 794 1
511 794 1
514 794 1
703 794 1
710 794 1
738 794 1
739 794 1
303 795 1
305 795 1
512 795 1
515 795 1
704 795 1
711 795 1
739 795 1
740 795 1
304 796 1
306 796 1
513 796 1
516 796 1
705 796 1
712 796 1
740 796 1
741 796 1
305 797 1
307 797 1
514 797 1
517 797 1
706 797 1
713 797 1
741 797 1
742 797 1
306 798 1
308 798 1
515 798 1
518 798 1
707 798 1
714 798 1
729 798 1
742 798 1
309 799 1
321 799 1
519 799 1
530 799 1
715 799 1
722 799 1
729 799 1
734 799 1
310 800 1
322 800 1
520 800 1
531 800 1
716 800 1
723 800 1
730 800 1
735 800 1
309 801 1
311 801 1
521 801 1
532 801 1
717 801 1
724 801 1
731 801 1
736 801 1
310 802 1
312 802 1
519 802 1
522 802 1
718 802 1
725 802 1
732 802 1
737 802 1
311 803 1
313 803 1
520 803 1
523 803 1
719 803 1
726 803 1
733 803 1
738 803 1
312 804 1
314 804 1
521 804 1
524 804 1
720 804 1
727 804 1
734 804 1
739 804 1
313 805 1
315 805 1
522 805 1
525 805 1
721 805 1
728 805 1
735 805 1
740 805 1
314 806 1
316 806 1
523 806 1
526 806 1
715 806 1
722 806 1
736 806 1
741 806 1
315 807 1
317 807 1
524 807 1
527 807 1
716 807 1
723 807 1
737 807 1
742 807 1
316 808 1
318 808 1
525 808 1
528 808 1
717 808 1
724 808 1
729 808 1
738 808 1
317 809 1
319 809 1
526 809 1
529 809 1
718 809 1
725 809 1
730 809 1
739 809 1
318 810 1
320 810 1
527 810 1
530 810 1
719 810 1
726 810 1
731 810 1
740 810 1
319 811 1
321 811 1
528 811 1
531 811 1
720 811 1
727 811 1
732 811 1
741 811 1
320 812 1
322 812 1
529 812 1
532 812 1
721 812 1
728 812 1
733 812 1
742 812 1
323 813 1
335 813 1
533 813 1
544 813 1
701 813 1
709 813 1
743 813 1
744 813 1
324 814 1
336 814 1
534 814 1
545 814 1
702 814 1
710 814 1
744 814 1
745 814 1
323 815 1
325 815 1
535 815 1
546 815 1
703 815 1
711 815 1
745 815 1
746 815 1
324 816 1
326 816 1
533 816 1
536 816 1
704 816 1
712 816 1
746 816 1
747 816 1
325 817 1
327 817 1
534 817 1
537 817 1
705 817 1
713 817 1
747 817 1
748 817 1
326 818 1
328 818 1
535 818 1
538 818 1
706 818 1
714 818 1
748 818 1
749 818 1
327 819 1
329 819 1
536 819 1
539 819 1
701 819 1
707 819 1
749 819 1
750 819 1
328 820 1
330 820 1
537 820 1
540 820 1
702 820 1
708 820 1
750 820 1
751 820 1
329 821 1
331 821 1
538 821 1
541 821 1
703 821 1
709 821 1
751 821 1
752 821 1
330 822 1
332 822 1
539 822 1
542 822 1
704 822 1
710 822 1
752 822 1
753 822 1
331 823 1
333 823 1
540 823 1
543 823 1
705 823 1
711 823 1
753 823 1
754 823 1
332 824 1
334 824 1
541 824 1
544 824 1
706 824 1
712 824 1
754 824 1
755 824 1
333 825 1
335 825 1
542 825 1
545 825 1
707 825 1
713 825 1
755 825 1
756 825 1
334 826 1
336 826 1
543 826 1
546 826 1
708 826 1
714 826 1
743 826 1
756 826 1
337 827 1
349 827 1
547 827 1
558 827 1
715 827 1
723 827 1
743 827 1
748 827 1
338 828 1
350 828 1
548 828 1
559 828 1
716 828 1
724 828 1
744 828 1
749 828 1
337 829 1
339 829 1
549 829 1
560 829 1
717 829 1
725 829 1
745 829 1
750 829 1
338 830 1
340 830 1
547 830 1
550 830 1
718 830 1
726 830 1
746 830 1
751 830 1
339 831 1
341 831 1
548 831 1
551 831 1
719 831 1
727 831 1
747 831 1
752 831 1
340 832 1
342 832 1
549 832 1
552 832 1
720 832 1
728 832 1
748 832 1
753 832 1
341 833 1
343 833 1
550 833 1
553 833 1
715 833 1
721 833 1
749 833 1
754 833 1
342 834 1
344 834 1
551 834 1
554 834 1
716 834 1
722 834 1
750 834 1
755 834 1
343 835 1
345 835 1
552 835 1
555 835 1
717 835 1
723 835 1
751 835 1
756 835 1
344 836 1
346 836 1
553 836 1
556 836 1
718 836 1
724 836 1
743 836 1
752 836 1
345 837 1
347 837 1
554 837 1
557 837 1
719 837 1
725 837 1
744 837 1
753 837 1
346 838 1
348 838 1
555 838 1
558 838 1
720 838 1
726 838 1
745 838 1
754 838 1
347 839 1
349 839 1
556 839 1
559 839 1
721 839 1
727 839 1
746 839 1
755 839 1
348 840 1
350 840 1
557 840 1
560 840 1
722 840 1
728 840 1
747 840 1
756 840 1
351 841 1
363 841 1
561 841 1
572 841 1
729 841 1
737 841 1
743 841 1
750 841 1
352 842 1
364 842 1
562 842 1
573 842 1
730 842 1
738 842 1
744 842 1
751 842 1
351 843 1
353 843 1
563 843 1
574 843 1
731 843 1
739 843 1
745 843 1
752 843 1
352 844 1
354 844 1
561 844 1
564 844 1
732 844 1
740 844 1
746 844 1
753 844 1
353 845 1
355 845 1
562 845 1
565 845 1
733 845 1
741 845 1
747 845 1
754 845 1
354 846 1
356 846 1
563 846 1
566 846 1
734 846 1
742 846 1
748 846 1
755 846 1
355 847 1
357 847 1
564 847 1
567 847 1
729 847 1
735 847 1
749 847 1
756 847 1
356 848 1
358 848 1
565 848 1
568 848 1
730 848 1
736 848 1
743 848 1
750 848 1
357 849 1
359 849 1
566 849 1
569 849 1
731 849 1
737 849 1
744 849 1
751 849 1
358 850 1
360 850 1
567 850 1
570 850 1
732 850 1
738 850 1
745 850 1
752 850 1
359 851 1
361 851 1
568 851 1
571 851 1
733 851 1
739 851 1
746 851 1
753 851 1
360 852 1
362 852 1
569 852 1
572 852 1
734 852 1
740 852 1
747 852 1
754 852 1
361 853 1
363 853 1
570 853 1
573 853 1
735 853 1
741 853 1
748 853 1
755 853 1
362 854 1
364 854 1
571 854 1
574 854 1
736 854 1
742 854 1
749 854 1
756 854 1
365 855 1
377 855 1
575 855 1
586 855 1
701 855 1
710 855 1
757 855 1
758 855 1
366 856 1
378 856 1
576 856 1
587 856 1
702 856 1
711 856 1
758 856 1
759 856 1
365 857 1
367 857 1
577 857 1
588 857 1
703 857 1
712 857 1
759 857 1
760 857 1
366 858 1
368 858 1
575 858 1
578 858 1
704 858 1
713 858 1
760 858 1
761 858 1
367 859 1
369 859 1
576 859 1
579 859 1
705 859 1
714 859 1
761 859 1
762 859 1
368 860 1
370 860 1
577 860 1
580 860 1
701 860 1
706 860 1
762 860 1
763 860 1
369 861 1
371 861 1
578 861 1
581 861 1
702 861 1
707 861 1
763 861 1
764 861 1
370 862 1
372 862 1
579 862 1
582 862 1
703 862 1
708 862 1
764 862 1
765 862 1
371 863 1
373 863 1
580 863 1
583 863 1
704 863 1
709 863 1
765 863 1
766 863 1
372 864 1
374 864 1
581 864 1
584 864 1
705 864 1
710 864 1
766 864 1
767 864 1
373 865 1
375 865 1
582 865 1
585 865 1
706 865 1
711 865 1
767 865 1
768 865 1
374 866 1
376 866 1
583 866 1
586 866 1
707 866 1
712 866 1
768 866 1
769 866 1
375 867 1
377 867 1
584 867 1
587 867 1
708 867 1
713 867 1
769 867 1
770 867 1
376 868 1
378 868 1
585 868 1
588 868 1
709 868 1
714 868 1
757 868 1
770 868 1
379 869 1
391 869 1
589 869 1
600 869 1
715 869 1
724 869 1
757 869 1
762 869 1
380 870 1
392 870 1
590 870 1
601 870 1
716 870 1
725 870 1
758 870 1
763 870 1
379 871 1
381 871 1
591 871 1
602 871 1
717 871 1
726 871 1
759 871 1
764 871 1
380 872 1
382 872 1
589 872 1
592 872 1
718 872 1
727 872 1
760 872 1
765 872 1
381 873 1
383 873 1
590 873 1
593 873 1
719 873 1
728 873 1
761 873 1
766 873 1
382 874 1
384 874 1
591 874 1
594 874 1
715 874 1
720 874 1
762 874 1
767 874 1
383 875 1
385 875 1
592 875 1
595 875 1
716 875 1
721 875 1
763 875 1
768 875 1
384 876 1
386 876 1
593 876 1
596 876 1
717 876 1
722 876 1
764 876 1
769 876 1
385 877 1
387 877 1
594 877 1
597 877 1
718 877 1
723 877 1
765 877 1
770 877 1
386 878 1
388 878 1
595 878 1
598 878 1
719 878 1
724 878 1
757 878 1
766 878 1
387 879 1
389 879 1
596 879 1
599 879 1
720 879 1
725 879 1
758 879 1
767 879 1
388 880 1
390 880 1
597 880 1
600 880 1
721 880 1
726 880 1
759 880 1
768 880 1
389 881 1
391 881 1
598 881 1
601 881 1
722 881 1
727 881 1
760 881 1
769 881 1
390 882 1
392 882 1
599 882 1
602 882 1
723 882 1
728 882 1
761 882 1
770 882 1
393 883 1
405 883 1
603 883 1
614 883 1
729 883 1
738 883 1
757 883 1
764 883 1
394 884 1
406 884 1
604 884 1
615 884 1
730 884 1
739 884 1
758 884 1
765 884 1
393 885 1
395 885 1
605 885 1
616 885 1
731 885 1
740 885 1
759 885 1
766 885 1
394 886 1
396 886 1
603 886 1
606 886 1
732 886 1
741 886 1
760 886 1
767 886 1
395 887 1
397 887 1
604 887 1
607 887 1
733 887 1
742 887 1
761 887 1
768 887 1
396 888 1
398 888 1
605 888 1
608 888 1
729 888 1
734 888 1
762 888 1
769 888 1
397 889 1
399 889 1
606 889 1
609 889 1
730 889 1
735 889 1
763 889 1
770 889 1
398 890 1
400 890 1
607 890 1
610 890 1
731 890 1
736 890 1
757 890 1
764 890 1
399 891 1
401 891 1
608 891 1
611 891 1
732 891 1
737 891 1
758 891 1
765 891 1
400 892 1
402 892 1
609 892 1
612 892 1
733 892 1
738 892 1
759 892 1
766 892 1
401 893 1
403 893 1
610 893 1
613 893 1
734 893 1
739 893 1
760 893 1
767 893 1
402 894 1
404 894 1
611 894 1
614 894 1
735 894 1
740 894 1
761 894 1
768 894 1
403 895 1
405 895 1
612 895 1
615 895 1
736 895 1
741 895 1
762 895 1
769 895 1
404 896 1
406 896 1
613 896 1
616 896 1
737 896 1
742 896 1
763 896 1
770 896 1
407 897 1
419 897 1
617 897 1
628 897 1
743 897 1
752 897 1
757 897 1
765 897 1
408 898 1
420 898 1
618 898 1
629 898 1
744 898 1
753 898 1
758 898 1
766 898 1
407 899 1
409 899 1
619 899 1
630 899 1
745 899 1
754 899 1
759 899 1
767 899 1
408 900 1
410 900 1
617 900 1
620 900 1
746 900 1
755 900 1
760 900 1
768 900 1
409 901 1
411 901 1
618 901 1
621 901 1
747 901 1
756 901 1
761 901 1
769 901 1
410 902 1
412 902 1
619 902 1
622 902 1
743 902 1
748 902 1
762 902 1
770 902 1
411 903 1
413 903 1
620 903 1
623 903 1
744 903 1
749 903 1
757 903 1
763 903 1
412 904 1
414 904 1
621 904 1
624 904 1
745 904 1
750 904 1
758 904 1
764 904 1
413 905 1
415 905 1
622 905 1
625 905 1
746 905 1
751 905 1
759 905 1
765 905 1
414 906 1
416 906 1
623 906 1
626 906 1
747 906 1
752 906 1
760 906 1
766 906 1
415 907 1
417 907 1
624 907 1
627 907 1
748 907 1
753 907 1
761 907 1
767 907 1
416 908 1
418 908 1
625 908 1
628 908 1
749 908 1
754 908 1
762 908 1
768 908 1
417 909 1
419 909 1
626 909 1
629 909 1
750 909 1
755 909 1
763 909 1
769 909 1
418 910 1
420 910 1
627 910 1
630 910 1
751 910 1
756 910 1
764 910 1
770 910 1
421 911 1
433 911 1
631 911 1
642 911 1
701 911 1
711 911 1
771 911 1
772 911 1
422 912 1
434 912 1
632 912 1
643 912 1
702 912 1
712 912 1
772 912 1
773 912 1
421 913 1
423 913 1
633 913 1
644 913 1
703 913 1
713 913 1
773 913 1
774 913 1
422 914 1
424 914 1
631 914 1
634 914 1
704 914 1
714 914 1
774 914 1
775 914 1
423 915 1
425 915 1
632 915 1
635 915 1
701 915 1
705 915 1
775 915 1
776 915 1
424 916 1
426 916 1
633 916 1
636 916 1
702 916 1
706 916 1
776 916 1
777 916 1
425 917 1
427 917 1
634 917 1
637 917 1
703 917 1
707 917 1
777 917 1
778 917 1
426 918 1
428 918 1
635 918 1
638 918 1
704 918 1
708 918 1
778 918 1
779 918 1
427 919 1
429 919 1
636 919 1
639 919 1
705 919 1
709 919 1
779 919 1
780 919 1
428 920 1
430 920 1
637 920 1
640 920 1
706 920 1
710 920 1
780 920 1
781 920 1
429 921 1
431 921 1
638 921 1
641 921 1
707 921 1
711 921 1
781 921 1
782 921 1
430 922 1
432 922 1
639 922 1
642 922 1
708 922 1
712 922 1
782 922 1
783 922 1
431 923 1
433 923 1
640 923 1
643 923 1
709 923 1
713 923 1
783 923 1
784 923 1
432 924 1
434 924 1
641 924 1
644 924 1
710 924 1
714 924 1
771 924 1
784 924 1
435 925 1
447 925 1
645 925 1
656 925 1
715 925 1
725 925 1
771 925 1
776 925 1
436 926 1
448 926 1
646 926 1
657 926 1
716 926 1
726 926 1
772 926 1
777 926 1
435 927 1
437 927 1
647 927 1
658 927 1
717 927 1
727 927 1
773 927 1
778 927 1
436 928 1
438 928 1
645 928 1
648 928 1
718 928 1
728 928 1
774 928 1
779 928 1
437 929 1
439 929 1
646 929 1
649 929 1
715 929 1
719 929 1
775 929 1
780 929 1
438 930 1
440 930 1
647 930 1
650 930 1
716 930 1
720 930 1
776 930 1
781 930 1
439 931 1
441 931 1
648 931 1
651 931 1
717 931 1
721 931 1
777 931 1
782 931 1
440 932 1
442 932 1
649 932 1
652 932 1
718 932 1
722 932 1
778 932 1
783 932 1
441 933 1
443 933 1
650 933 1
653 933 1
719 933 1
723 933 1
779 933 1
784 933 1
442 934 1
444 934 1
651 934 1
654 934 1
720 934 1
724 934 1
771 934 1
780 934 1
443 935 1
445 935 1
652 935 1
655 935 1
721 935 1
725 935 1
772 935 1
781 935 1
444 936 1
446 936 1
653 936 1
656 936 1
722 936 1
726 936 1
773 936 1
782 936 1
445 937 1
447 937 1
654 937 1
657 937 1
723 937 1
727 937 1
774 937 1
783 937 1
446 938 1
448 938 1
655 938 1
658 938 1
724 938 1
728 938 1
775 938 1
784 938 1
449 939 1
461 939 1
659 939 1
670 939 1
729 939 1
739 939 1
771 939 1
778 939 1
450 940 1
462 940 1
660 940 1
671 940 1
730 940 1
740 940 1
772 940 1
779 940 1
449 941 1
451 941 1
661 941 1
672 941 1
731 941 1
741 941 1
773 941 1
780 941 1
450 942 1
452 942 1
659 942 1
662 942 1
732 942 1
742 942 1
774 942 1
781 942 1
451 943 1
453 943 1
660 943 1
663 943 1
729 943 1
733 943 1
775 943 1
782 943 1
452 944 1
454 944 1
661 944 1
664 944 1
730 944 1
734 944 1
776 944 1
783 944 1
453 945 1
455 945 1
662 945 1
665 945 1
731 945 1
735 945 1
777 945 1
784 945 1
454 946 1
456 946 1
663 946 1
666 946 1
732 946 1
736 946 1
771 946 1
778 946 1
455 947 1
457 947 1
664 947 1
667 947 1
733 947 1
737 947 1
772 947 1
779 947 1
456 948 1
458 948 1
665 948 1
668 948 1
734 948 1
738 948 1
773 948 1
780 948 1
457 949 1
459 949 1
666 949 1
669 949 1
735 949 1
739 949 1
774 949 1
781 949 1
458 950 1
460 950 1
667 950 1
670 950 1
736 950 1
740 950 1
775 950 1
782 950 1
459 951 1
461 951 1
668 951 1
671 951 1
737 951 1
741 951 1
776 951 1
783 951 1
460 952 1
462 952 1
669 952 1
672 952 1
738 952 1
742 952 1
777 952 1
784 952 1
463 953 1
475 953 1
673 953 1
684 953 1
743 953 1
753 953 1
771 953 1
779 953 1
464 954 1
476 954 1
674 954 1
685 954 1
744 954 1
754 954 1
772 954 1
780 954 1
463 955 1
465 955 1
675 955 1
686 955 1
745 955 1
755 955 1
773 955 1
781 955 1
464 956 1
466 956 1
673 956 1
676 956 1
746 956 1
756 956 1
774 956 1
782 956 1
465 957 1
467 957 1
674 957 1
677 957 1
743 957 1
747 957 1
775 957 1
783 957 1
466 958 1
468 958 1
675 958 1
678 958 1
744 958 1
748 958 1
776 958 1
784 958 1
467 959 1
469 959 1
676 959 1
679 959 1
745 959 1
749 959 1
771 959 1
777 959 1
468 960 1
470 960 1
677 960 1
680 960 1
746 960 1
750 960 1
772 960 1
778 960 1
469 961 1
471 961 1
678 961 1
681 961 1
747 961 1
751 961 1
773 961 1
779 961 1
470 962 1
472 962 1
679 962 1
682 962 1
748 962 1
752 962 1
774 962 1
780 962 1
471 963 1
473 963 1
680 963 1
683 963 1
749 963 1
753 963 1
775 963 1
781 963 1
472 964 1
474 964 1
681 964 1
684 964 1
750 964 1
754 964 1
776 964 1
782 964 1
473 965 1
475 965 1
682 965 1
685 965 1
751 965 1
755 965 1
777 965 1
783 965 1
474 966 1
476 966 1
683 966 1
686 966 1
752 966 1
756 966 1
778 966 1
784 966 1
477 967 1
489 967 1
687 967 1
698 967 1
757 967 1
767 967 1
771 967 1
780 967 1
478 968 1
490 968 1
688 968 1
699 968 1
758 968 1
768 968 1
772 968 1
781 968 1
477 969 1
479 969 1
689 969 1
700 969 1
759 969 1
769 969 1
773 969 1
782 969 1
478 970 1
480 970 1
687 970 1
690 970 1
760 970 1
770 970 1
774 970 1
783 970 1
479 971 1
481 971 1
688 971 1
691 971 1
757 971 1
761 971 1
775 971 1
784 971 1
480 972 1
482 972 1
689 972 1
692 972 1
758 972 1
762 972 1
771 972 1
776 972 1
481 973 1
483 973 1
690 973 1
693 973 1
759 973 1
763 973 1
772 973 1
777 973 1
482 974 1
484 974 1
691 974 1
694 974 1
760 974 1
764 974 1
773 974 1
778 974 1
483 975 1
485 975 1
692 975 1
695 975 1
761 975 1
765 975 1
774 975 1
779 975 1
484 976 1
486 976 1
693 976 1
696 976 1
762 976 1
766 976 1
775 976 1
780 976 1
485 977 1
487 977 1
694 977 1
697 977 1
763 977 1
767 977 1
776 977 1
781 977 1
486 978 1
488 978 1
695 978 1
698 978 1
764 978 1
768 978 1
777 978 1
782 978 1
487 979 1
489 979 1
696 979 1
699 979 1
765 979 1
769 979 1
778 979 1
783 979 1
488 980 1
490 980 1
697 980 1
700 980 1
766 980 1
770 980 1
779 980 1
784 980 1
1 981 1
14 981 1
785 981 1
792 981 1
799 981 1
804 981 1
813 981 1
814 981 1
1 982 1
2 982 1
786 982 1
793 982 1
800 982 1
805 982 1
814 982 1
815 982 1
2 983 1
3 983 1
787 983 1
794 983 1
801 983 1
806 983 1
815 983 1
816 983 1
3 984 1
4 984 1
788 984 1
795 984 1
802 984 1
807 984 1
816 984 1
817 984 1
4 985 1
5 985 1
789 985 1
796 985 1
803 985 1
808 985 1
817 985 1
818 985 1
5 986 1
6 986 1
790 986 1
797 986 1
804 986 1
809 986 1
818 986 1
819 986 1
6 987 1
7 987 1
791 987 1
798 987 1
805 987 1
810 987 1
819 987 1
820 987 1
7 988 1
8 988 1
785 988 1
792 988 1
806 988 1
811 988 1
820 988 1
821 988 1
8 989 1
9 989 1
786 989 1
793 989 1
807 989 1
812 989 1
821 989 1
822 989 1
9 990 1
10 990 1
787 990 1
794 990 1
799 990 1
808 990 1
822 990 1
823 990 1
10 991 1
11 991 1
788 991 1
795 991 1
800 991 1
809 991 1
823 991 1
824 991 1
11 992 1
12 992 1
789 992 1
796 992 1
801 992 1
810 992 1
824 992 1
825 992 1
12 993 1
13 993 1
790 993 1
797 993 1
802 993 1
811 993 1
825 993 1
826 993 1
13 994 1
14 994 1
791 994 1
798 994 1
803 994 1
812 994 1
813 994 1
826 994 1
15 995 1
28 995 1
785 995 1
793 995 1
827 995 1
832 995 1
841 995 1
842 995 1
15 996 1
16 996 1
786 996 1
794 996 1
828 996 1
833 996 1
842 996 1
843 996 1
16 997 1
17 997 1
787 997 1
795 997 1
829 997 1
834 997 1
843 997 1
844 997 1
17 998 1
18 998 1
788 998 1
796 998 1
830 998 1
835 998 1
844 998 1
845 998 1
18 999 1
19 999 1
789 999 1
797 999 1
831 999 1
836 999 1
845 999 1
846 999 1
19 1000 1
20 1000 1
790 1000 1
798 1000 1
832 1000 1
837 1000 1
846 1000 1
847 1000 1
20 1001 1
21 1001 1
785 1001 1
791 1001 1
833 1001 1
838 1001 1
847 1001 1
848 1001 1
21 1002 1
22 1002 1
786 1002 1
792 1002 1
834 1002 1
839 1002 1
848 1002 1
849 1002 1
22 1003 1
23 1003 1
787 1003 1
793 1003 1
835 1003 1
840 1003 1
849 1003 1
850 1003 1
23 1004 1
24 1004 1
788 1004 1
794 1004 1
827 1004 1
836 1004 1
850 1004 1
851 1004 1
24 1005 1
25 1005 1
789 1005 1
795 1005 1
828 1005 1
837 1005 1
851 1005 1
852 1005 1
25 1006 1
26 1006 1
790 1006 1
796 1006 1
829 1006 1
838 1006 1
852 1006 1
853 1006 1
26 1007 1
27 1007 1
791 1007 1
797 1007 1
830 1007 1
839 1007 1
853 1007 1
854 1007 1
27 1008 1
28 1008 1
792 1008 1
798 1008 1
831 1008 1
840 1008 1
841 1008 1
854 1008 1
29 1009 1
42 1009 1
799 1009 1
807 1009 1
827 1009 1
834 1009 1
855 1009 1
856 1009 1
29 1010 1
30 1010 1
800 1010 1
808 1010 1
828 1010 1
835 1010 1
856 1010 1
857 1010 1
30 1011 1
31 1011 1
801 1011 1
809 1011 1
829 1011 1
836 1011 1
857 1011 1
858 1011 1
31 1012 1
32 1012 1
802 1012 1
810 1012 1
830 1012 1
837 1012 1
858 1012 1
859 1012 1
32 1013 1
33 1013 1
803 1013 1
811 1013 1
831 1013 1
838 1013 1
859 1013 1
860 1013 1
33 1014 1
34 1014 1
804 1014 1
812 1014 1
832 1014 1
839 1014 1
860 1014 1
861 1014 1
34 1015 1
35 1015 1
799 1015 1
805 1015 1
833 1015 1
840 1015 1
861 1015 1
862 1015 1
35 1016 1
36 1016 1
800 1016 1
806 1016 1
827 1016 1
834 1016 1
862 1016 1
863 1016 1
36 1017 1
37 1017 1
801 1017 1
807 1017 1
828 1017 1
835 1017 1
863 1017 1
864 1017 1
37 1018 1
38 1018 1
802 1018 1
808 1018 1
829 1018 1
836 1018 1
864 1018 1
865 1018 1
38 1019 1
39 1019 1
803 1019 1
809 1019 1
830 1019 1
837 1019 1
865 1019 1
866 1019 1
39 1020 1
40 1020 1
804 1020 1
810 1020 1
831 1020 1
838 1020 1
866 1020 1
867 1020 1
40 1021 1
41 1021 1
805 1021 1
811 1021 1
832 1021 1
839 1021 1
867 1021 1
868 1021 1
41 1022 1
42 1022 1
806 1022 1
812 1022 1
833 1022 1
840 1022 1
855 1022 1
868 1022 1
43 1023 1
56 1023 1
813 1023 1
821 1023 1
841 1023 1
848 1023 1
855 1023 1
860 1023 1
43 1024 1
44 1024 1
814 1024 1
822 1024 1
842 1024 1
849 1024 1
856 1024 1
861 1024 1
44 1025 1
45 1025 1
815 1025 1
823 1025 1
843 1025 1
850 1025 1
857 1025 1
862 1025 1
45 1026 1
46 1026 1
816 1026 1
824 1026 1
844 1026 1
851 1026 1
858 1026 1
863 1026 1
46 1027 1
47 1027 1
817 1027 1
825 1027 1
845 1027 1
852 1027 1
859 1027 1
864 1027 1
47 1028 1
48 1028 1
818 1028 1
826 1028 1
846 1028 1
853 1028 1
860 1028 1
865 1028 1
48 1029 1
49 1029 1
813 1029 1
819 1029 1
847 1029 1
854 1029 1
861 1029 1
866 1029 1
49 1030 1
50 1030 1
814 1030 1
820 1030 1
841 1030 1
848 1030 1
862 1030 1
867 1030 1
50 1031 1
51 1031 1
815 1031 1
821 1031 1
842 1031 1
849 1031 1
863 1031 1
868 1031 1
51 1032 1
52 1032 1
816 1032 1
822 1032 1
843 1032 1
850 1032 1
855 1032 1
864 1032 1
52 1033 1
53 1033 1
817 1033 1
823 1033 1
844 1033 1
851 1033 1
856 1033 1
865 1033 1
53 1034 1
54 1034 1
818 1034 1
824 1034 1
845 1034 1
852 1034 1
857 1034 1
866 1034 1
54 1035 1
55 1035 1
819 1035 1
825 1035 1
846 1035 1
853 1035 1
858 1035 1
867 1035 1
55 1036 1
56 1036 1
820 1036 1
826 1036 1
847 1036 1
854 1036 1
859 1036 1
868 1036 1
57 1037 1
70 1037 1
785 1037 1
794 1037 1
869 1037 1
874 1037 1
883 1037 1
884 1037 1
57 1038 1
58 1038 1
786 1038 1
795 1038 1
870 1038 1
875 1038 1
884 1038 1
885 1038 1
58 1039 1
59 1039 1
787 1039 1
796 1039 1
871 1039 1
876 1039 1
885 1039 1
886 1039 1
59 1040 1
60 1040 1
788 1040 1
797 1040 1
872 1040 1
877 1040 1
886 1040 1
887 1040 1
60 1041 1
61 1041 1
789 1041 1
798 1041 1
873 1041 1
878 1041 1
887 1041 1
888 1041 1
61 1042 1
62 1042 1
785 1042 1
790 1042 1
874 1042 1
879 1042 1
888 1042 1
889 1042 1
62 1043 1
63 1043 1
786 1043 1
791 1043 1
875 1043 1
880 1043 1
889 1043 1
890 1043 1
63 1044 1
64 1044 1
787 1044 1
792 1044 1
876 1044 1
881 1044 1
890 1044 1
891 1044 1
64 1045 1
65 1045 1
788 1045 1
793 1045 1
877 1045 1
882 1045 1
891 1045 1
892 1045 1
65 1046 1
66 1046 1
789 1046 1
794 1046 1
869 1046 1
878 1046 1
892 1046 1
893 1046 1
66 1047 1
67 1047 1
790 1047 1
795 1047 1
870 1047 1
879 1047 1
893 1047 1
894 1047 1
67 1048 1
68 1048 1
791 1048 1
796 1048 1
871 1048 1
880 1048 1
894 1048 1
895 1048 1
68 1049 1
69 1049 1
792 1049 1
797 1049 1
872 1049 1
881 1049 1
895 1049 1
896 1049 1
69 1050 1
70 1050 1
793 1050 1
798 1050 1
873 1050 1
882 1050 1
883 1050 1
896 1050 1
71 1051 1
84 1051 1
799 1051 1
808 1051 1
869 1051 1
876 1051 1
897 1051 1
898 1051 1
71 1052 1
72 1052 1
800 1052 1
809 1052 1
870 1052 1
877 1052 1
898 1052 1
899 1052 1
72 1053 1
73 1053 1
801 1053 1
810 1053 1
871 1053 1
878 1053 1
899 1053 1
900 1053 1
73 1054 1
74 1054 1
802 1054 1
811 1054 1
872 1054 1
879 1054 1
900 1054 1
901 1054 1
74 1055 1
75 1055 1
803 1055 1
812 1055 1
873 1055 1
880 1055 1
901 1055 1
902 1055 1
75 1056 1
76 1056 1
799 1056 1
804 1056 1
874 1056 1
881 1056 1
902 1056 1
903 1056 1
76 1057 1
77 1057 1
800 1057 1
805 1057 1
875 1057 1
882 1057 1
903 1057 1
904 1057 1
77 1058 1
78 1058 1
801 1058 1
806 1058 1
869 1058 1
876 1058 1
904 1058 1
905 1058 1
78 1059 1
79 1059 1
802 1059 1
807 1059 1
870 1059 1
877 1059 1
905 1059 1
906 1059 1
79 1060 1
80 1060 1
803 1060 1
808 1060 1
871 1060 1
878 1060 1
906 1060 1
907 1060 1
80 1061 1
81 1061 1
804 1061 1
809 1061 1
872 1061 1
879 1061 1
907 1061 1
908 1061 1
81 1062 1
82 1062 1
805 1062 1
810 1062 1
873 1062 1
880 1062 1
908 1062 1
909 1062 1
82 1063 1
83 1063 1
806 1063 1
811 1063 1
874 1063 1
881 1063 1
909 1063 1
910 1063 1
83 1064 1
84 1064 1
807 1064 1
812 1064 1
875 1064 1
882 1064 1
897 1064 1
910 1064 1
85 1065 1
98 1065 1
813 1065 1
822 1065 1
883 1065 1
890 1065 1
897 1065 1
902 1065 1
85 1066 1
86 1066 1
814 1066 1
823 1066 1
884 1066 1
891 1066 1
898 1066 1
903 1066 1
86 1067 1
87 1067 1
815 1067 1
824 1067 1
885 1067 1
892 1067 1
899 1067 1
904 1067 1
87 1068 1
88 1068 1
816 1068 1
825 1068 1
886 1068 1
893 1068 1
900 1068 1
905 1068 1
88 1069 1
89 1069 1
817 1069 1
826 1069 1
887 1069 1
894 1069 1
901 1069 1
906 1069 1
89 1070 1
90 1070 1
813 1070 1
818 1070 1
888 1070 1
895 1070 1
902 1070 1
907 1070 1
90 1071 1
91 1071 1
814 1071 1
819 1071 1
889 1071 1
896 1071 1
903 1071 1
908 1071 1
91 1072 1
92 1072 1
815 1072 1
820 1072 1
883 1072 1
890 1072 1
904 1072 1
909 1072 1
92 1073 1
93 1073 1
816 1073 1
821 1073 1
884 1073 1
891 1073 1
905 1073 1
910 1073 1
93 1074 1
94 1074 1
817 1074 1
822 1074 1
885 1074 1
892 1074 1
897 1074 1
906 1074 1
94 1075 1
95 1075 1
818 1075 1
823 1075 1
886 1075 1
893 1075 1
898 1075 1
907 1075 1
95 1076 1
96 1076 1
819 1076 1
824 1076 1
887 1076 1
894 1076 1
899 1076 1
908 1076 1
96 1077 1
97 1077 1
820 1077 1
825 1077 1
888 1077 1
895 1077 1
900 1077 1
909 1077 1
97 1078 1
98 1078 1
821 1078 1
826 1078 1
889 1078 1
896 1078 1
901 1078 1
910 1078 1
99 1079 1
112 1079 1
827 1079 1
836 1079 1
869 1079 1
877 1079 1
911 1079 1
912 1079 1
99 1080 1
100 1080 1
828 1080 1
837 1080 1
870 1080 1
878 1080 1
912 1080 1
913 1080 1
100 1081 1
101 1081 1
829 1081 1
838 1081 1
871 1081 1
879 1081 1
913 1081 1
914 1081 1
101 1082 1
102 1082 1
830 1082 1
839 1082 1
872 1082 1
880 1082 1
914 1082 1
915 1082 1
102 1083 1
103 1083 1
831 1083 1
840 1083 1
873 1083 1
881 1083 1
915 1083 1
916 1083 1
103 1084 1
104 1084 1
827 1084 1
832 1084 1
874 1084 1
882 1084 1
916 1084 1
917 1084 1
104 1085 1
105 1085 1
828 1085 1
833 1085 1
869 1085 1
875 1085 1
917 1085 1
918 1085 1
105 1086 1
106 1086 1
829 1086 1
834 1086 1
870 1086 1
876 1086 1
918 1086 1
919 1086 1
106 1087 1
107 1087 1
830 1087 1
835 1087 1
871 1087 1
877 1087 1
919 1087 1
920 1087 1
107 1088 1
108 1088 1
831 1088 1
836 1088 1
872 1088 1
878 1088 1
920 1088 1
921 1088 1
108 1089 1
109 1089 1
832 1089 1
837 1089 1
873 1089 1
879 1089 1
921 1089 1
922 1089 1
109 1090 1
110 1090 1
833 1090 1
838 1090 1
874 1090 1
880 1090 1
922 1090 1
923 1090 1
110 1091 1
111 1091 1
834 1091 1
839 1091 1
875 1091 1
881 1091 1
923 1091 1
924 1091 1
111 1092 1
112 1092 1
835 1092 1
840 1092 1
876 1092 1
882 1092 1
911 1092 1
924 1092 1
113 1093 1
126 1093 1
841 1093 1
850 1093 1
883 1093 1
891 1093 1
911 1093 1
916 1093 1
113 1094 1
114 1094 1
842 1094 1
851 1094 1
884 1094 1
892 1094 1
912 1094 1
917 1094 1
114 1095 1
115 1095 1
843 1095 1
852 1095 1
885 1095 1
893 1095 1
913 1095 1
918 1095 1
115 1096 1
116 1096 1
844 1096 1
853 1096 1
886 1096 1
894 1096 1
914 1096 1
919 1096 1
116 1097 1
117 1097 1
845 1097 1
854 1097 1
887 1097 1
895 1097 1
915 1097 1
920 1097 1
117 1098 1
118 1098 1
841 1098 1
846 1098 1
888 1098 1
896 1098 1
916 1098 1
921 1098 1
118 1099 1
119 1099 1
842 1099 1
847 1099 1
883 1099 1
889 1099 1
917 1099 1
922 1099 1
119 1100 1
120 1100 1
843 1100 1
848 1100 1
884 1100 1
890 1100 1
918 1100 1
923 1100 1
120 1101 1
121 1101 1
844 1101 1
849 1101 1
885 1101 1
891 1101 1
919 1101 1
924 1101 1
121 1102 1
122 1102 1
845 1102 1
850 1102 1
886 1102 1
892 1102 1
911 1102 1
920 1102 1
122 1103 1
123 1103 1
846 1103 1
851 1103 1
887 1103 1
893 1103 1
912 1103 1
921 1103 1
123 1104 1
124 1104 1
847 1104 1
852 1104 1
888 1104 1
894 1104 1
913 1104 1
922 1104 1
124 1105 1
125 1105 1
848 1105 1
853 1105 1
889 1105 1
895 1105 1
914 1105 1
923 1105 1
125 1106 1
126 1106 1
849 1106 1
854 1106 1
890 1106 1
896 1106 1
915 1106 1
924 1106 1
127 1107 1
140 1107 1
855 1107 1
864 1107 1
897 1107 1
905 1107 1
911 1107 1
918 1107 1
127 1108 1
128 1108 1
856 1108 1
865 1108 1
898 1108 1
906 1108 1
912 1108 1
919 1108 1
128 1109 1
129 1109 1
857 1109 1
866 1109 1
899 1109 1
907 1109 1
913 1109 1
920 1109 1
129 1110 1
130 1110 1
858 1110 1
867 1110 1
900 1110 1
908 1110 1
914 1110 1
921 1110 1
130 1111 1
131 1111 1
859 1111 1
868 1111 1
901 1111 1
909 1111 1
915 1111 1
922 1111 1
131 1112 1
132 1112 1
855 1112 1
860 1112 1
902 1112 1
910 1112 1
916 1112 1
923 1112 1
132 1113 1
133 1113 1
856 1113 1
861 1113 1
897 1113 1
903 1113 1
917 1113 1
924 1113 1
133 1114 1
134 1114 1
857 1114 1
862 1114 1
898 1114 1
904 1114 1
911 1114 1
918 1114 1
134 1115 1
135 1115 1
858 1115 1
863 1115 1
899 1115 1
905 1115 1
912 1115 1
919 1115 1
135 1116 1
136 1116 1
859 1116 1
864 1116 1
900 1116 1
906 1116 1
913 1116 1
920 1116 1
136 1117 1
137 1117 1
860 1117 1
865 1117 1
901 1117 1
907 1117 1
914 1117 1
921 1117 1
137 1118 1
138 1118 1
861 1118 1
866 1118 1
902 1118 1
908 1118 1
915 1118 1
922 1118 1
138 1119 1
139 1119 1
862 1119 1
867 1119 1
903 1119 1
909 1119 1
916 1119 1
923 1119 1
139 1120 1
140 1120 1
863 1120 1
868 1120 1
904 1120 1
910 1120 1
917 1120 1
924 1120 1
141 1121 1
154 1121 1
785 1121 1
795 1121 1
925 1121 1
930 1121 1
939 1121 1
940 1121 1
141 1122 1
142 1122 1
786 1122 1
796 1122 1
926 1122 1
931 1122 1
940 1122 1
941 1122 1
142 1123 1
143 1123 1
787 1123 1
797 1123 1
927 1123 1
932 1123 1
941 1123 1
942 1123 1
143 1124 1
144 1124 1
788 1124 1
798 1124 1
928 1124 1
933 1124 1
942 1124 1
943 1124 1
144 1125 1
145 1125 1
785 1125 1
789 1125 1
929 1125 1
934 1125 1
943 1125 1
944 1125 1
145 1126 1
146 1126 1
786 1126 1
790 1126 1
930 1126 1
935 1126 1
944 1126 1
945 1126 1
146 1127 1
147 1127 1
787 1127 1
791 1127 1
931 1127 1
936 1127 1
945 1127 1
946 1127 1
147 1128 1
148 1128 1
788 1128 1
792 1128 1
932 1128 1
937 1128 1
946 1128 1
947 1128 1
148 1129 1
149 1129 1
789 1129 1
793 1129 1
933 1129 1
938 1129 1
947 1129 1
948 1129 1
149 1130 1
150 1130 1
790 1130 1
794 1130 1
925 1130 1
934 1130 1
948 1130 1
949 1130 1
150 1131 1
151 1131 1
791 1131 1
795 1131 1
926 1131 1
935 1131 1
949 1131 1
950 1131 1
151 1132 1
152 1132 1
792 1132 1
796 1132 1
927 1132 1
936 1132 1
950 1132 1
951 1132 1
152 1133 1
153 1133 1
793 1133 1
797 1133 1
928 1133 1
937 1133 1
951 1133 1
952 1133 1
153 1134 1
154 1134 1
794 1134 1
798 1134 1
929 1134 1
938 1134 1
939 1134 1
952 1134 1
155 1135 1
168 1135 1
799 1135 1
809 1135 1
925 1135 1
932 1135 1
953 1135 1
954 1135 1
155 1136 1
156 1136 1
800 1136 1
810 1136 1
926 1136 1
933 1136 1
954 1136 1
955 1136 1
156 1137 1
157 1137 1
801 1137 1
811 1137 1
927 1137 1
934 1137 1
955 1137 1
956 1137 1
157 1138 1
158 1138 1
802 1138 1
812 1138 1
928 1138 1
935 1138 1
956 1138 1
957 1138 1
158 1139 1
159 1139 1
799 1139 1
803 1139 1
929 1139 1
936 1139 1
957 1139 1
958 1139 1
159 1140 1
160 1140 1
800 1140 1
804 1140 1
930 1140 1
937 1140 1
958 1140 1
959 1140 1
160 1141 1
161 1141 1
801 1141 1
805 1141 1
931 1141 1
938 1141 1
959 1141 1
960 1141 1
161 1142 1
162 1142 1
802 1142 1
806 1142 1
925 1142 1
932 1142 1
960 1142 1
961 1142 1
162 1143 1
163 1143 1
803 1143 1
807 1143 1
926 1143 1
933 1143 1
961 1143 1
962 1143 1
163 1144 1
164 1144 1
804 1144 1
808 1144 1
927 1144 1
934 1144 1
962 1144 1
963 1144 1
164 1145 1
165 1145 1
805 1145 1
809 1145 1
928 1145 1
935 1145 1
963 1145 1
964 1145 1
165 1146 1
166 1146 1
806 1146 1
810 1146 1
929 1146 1
936 1146 1
964 1146 1
965 1146 1
166 1147 1
167 1147 1
807 1147 1
811 1147 1
930 1147 1
937 1147 1
965 1147 1
966 1147 1
167 1148 1
168 1148 1
808 1148 1
812 1148 1
931 1148 1
938 1148 1
953 1148 1
966 1148 1
169 1149 1
182 1149 1
813 1149 1
823 1149 1
939 1149 1
946 1149 1
953 1149 1
958 1149 1
169 1150 1
170 1150 1
814 1150 1
824 1150 1
940 1150 1
947 1150 1
954 1150 1
959 1150 1
170 1151 1
171 1151 1
815 1151 1
825 1151 1
941 1151 1
948 1151 1
955 1151 1
960 1151 1
171 1152 1
172 1152 1
816 1152 1
826 1152 1
942 1152 1
949 1152 1
956 1152 1
961 1152 1
172 1153 1
173 1153 1
813 1153 1
817 1153 1
943 1153 1
950 1153 1
957 1153 1
962 1153 1
173 1154 1
174 1154 1
814 1154 1
818 1154 1
944 1154 1
951 1154 1
958 1154 1
963 1154 1
174 1155 1
175 1155 1
815 1155 1
819 1155 1
945 1155 1
952 1155 1
959 1155 1
964 1155 1
175 1156 1
176 1156 1
816 1156 1
820 1156 1
939 1156 1
946 1156 1
960 1156 1
965 1156 1
176 1157 1
177 1157 1
817 1157 1
821 1157 1
940 1157 1
947 1157 1
961 1157 1
966 1157 1
177 1158 1
178 1158 1
818 1158 1
822 1158 1
941 1158 1
948 1158 1
953 1158 1
962 1158 1
178 1159 1
179 1159 1
819 1159 1
823 1159 1
942 1159 1
949 1159 1
954 1159 1
963 1159 1
179 1160 1
180 1160 1
820 1160 1
824 1160 1
943 1160 1
950 1160 1
955 1160 1
964 1160 1
180 1161 1
181 1161 1
821 1161 1
825 1161 1
944 1161 1
951 1161 1
956 1161 1
965 1161 1
181 1162 1
182 1162 1
822 1162 1
826 1162 1
945 1162 1
952 1162 1
957 1162 1
966 1162 1
183 1163 1
196 1163 1
827 1163 1
837 1163 1
925 1163 1
933 1163 1
967 1163 1
968 1163 1
183 1164 1
184 1164 1
828 1164 1
838 1164 1
926 1164 1
934 1164 1
968 1164 1
969 1164 1
184 1165 1
185 1165 1
829 1165 1
839 1165 1
927 1165 1
935 1165 1
969 1165 1
970 1165 1
185 1166 1
186 1166 1
830 1166 1
840 1166 1
928 1166 1
936 1166 1
970 1166 1
971 1166 1
186 1167 1
187 1167 1
827 1167 1
831 1167 1
929 1167 1
937 1167 1
971 1167 1
972 1167 1
187 1168 1
188 1168 1
828 1168 1
832 1168 1
930 1168 1
938 1168 1
972 1168 1
973 1168 1
188 1169 1
189 1169 1
829 1169 1
833 1169 1
925 1169 1
931 1169 1
973 1169 1
974 1169 1
189 1170 1
190 1170 1
830 1170 1
834 1170 1
926 1170 1
932 1170 1
974 1170 1
975 1170 1
190 1171 1
191 1171 1
831 1171 1
835 1171 1
927 1171 1
933 1171 1
975 1171 1
976 1171 1
191 1172 1
192 1172 1
832 1172 1
836 1172 1
928 1172 1
934 1172 1
976 1172 1
977 1172 1
192 1173 1
193 1173 1
833 1173 1
837 1173 1
929 1173 1
935 1173 1
977 1173 1
978 1173 1
193 1174 1
194 1174 1
834 1174 1
838 1174 1
930 1174 1
936 1174 1
978 1174 1
979 1174 1
194 1175 1
195 1175 1
835 1175 1
839 1175 1
931 1175 1
937 1175 1
979 1175 1
980 1175 1
195 1176 1
196 1176 1
836 1176 1
840 1176 1
932 1176 1
938 1176 1
967 1176 1
980 1176 1
197 1177 1
210 1177 1
841 1177 1
851 1177 1
939 1177 1
947 1177 1
967 1177 1
972 1177 1
197 1178 1
198 1178 1
842 1178 1
852 1178 1
940 1178 1
948 1178 1
968 1178 1
973 1178 1
198 1179 1
199 1179 1
843 1179 1
853 1179 1
941 1179 1
949 1179 1
969 1179 1
974 1179 1
199 1180 1
200 1180 1
844 1180 1
854 1180 1
942 1180 1
950 1180 1
970 1180 1
975 1180 1
200 1181 1
201 1181 1
841 1181 1
845 1181 1
943 1181 1
951 1181 1
971 1181 1
976 1181 1
201 1182 1
202 1182 1
842 1182 1
846 1182 1
944 1182 1
952 1182 1
972 1182 1
977 1182 1
202 1183 1
203 1183 1
843 1183 1
847 1183 1
939 1183 1
945 1183 1
973 1183 1
978 1183 1
203 1184 1
204 1184 1
844 1184 1
848 1184 1
940 1184 1
946 1184 1
974 1184 1
979 1184 1
204 1185 1
205 1185 1
845 1185 1
849 1185 1
941 1185 1
947 1185 1
975 1185 1
980 1185 1
205 1186 1
206 1186 1
846 1186 1
850 1186 1
942 1186 1
948 1186 1
967 1186 1
976 1186 1
206 1187 1
207 1187 1
847 1187 1
851 1187 1
943 1187 1
949 1187 1
968 1187 1
977 1187 1
207 1188 1
208 1188 1
848 1188 1
852 1188 1
944 1188 1
950 1188 1
969 1188 1
978 1188 1
208 1189 1
209 1189 1
849 1189 1
853 1189 1
945 1189 1
951 1189 1
970 1189 1
979 1189 1
209 1190 1
210 1190 1
850 1190 1
854 1190 1
946 1190 1
952 1190 1
971 1190 1
980 1190 1
211 1191 1
224 1191 1
855 1191 1
865 1191 1
953 1191 1
961 1191 1
967 1191 1
974 1191 1
211 1192 1
212 1192 1
856 1192 1
866 1192 1
954 1192 1
962 1192 1
968 1192 1
975 1192 1
212 1193 1
213 1193 1
857 1193 1
867 1193 1
955 1193 1
963 1193 1
969 1193 1
976 1193 1
213 1194 1
214 1194 1
858 1194 1
868 1194 1
956 1194 1
964 1194 1
970 1194 1
977 1194 1
214 1195 1
215 1195 1
855 1195 1
859 1195 1
957 1195 1
965 1195 1
971 1195 1
978 1195 1
215 1196 1
216 1196 1
856 1196 1
860 1196 1
958 1196 1
966 1196 1
972 1196 1
979 1196 1
216 1197 1
217 1197 1
857 1197 1
861 1197 1
953 1197 1
959 1197 1
973 1197 1
980 1197 1
217 1198 1
218 1198 1
858 1198 1
862 1198 1
954 1198 1
960 1198 1
967 1198 1
974 1198 1
218 1199 1
219 1199 1
859 1199 1
863 1199 1
955 1199 1
961 1199 1
968 1199 1
975 1199 1
219 1200 1
220 1200 1
860 1200 1
864 1200 1
956 1200 1
962 1200 1
969 1200 1
976 1200 1
220 1201 1
221 1201 1
861 1201 1
865 1201 1
957 1201 1
963 1201 1
970 1201 1
977 1201 1
221 1202 1
222 1202 1
862 1202 1
866 1202 1
958 1202 1
964 1202 1
971 1202 1
978 1202 1
222 1203 1
223 1203 1
863 1203 1
867 1203 1
959 1203 1
965 1203 1
972 1203 1
979 1203 1
223 1204 1
224 1204 1
864 1204 1
868 1204 1
960 1204 1
966 1204 1
973 1204 1
980 1204 1
225 1205 1
238 1205 1
869 1205 1
879 1205 1
925 1205 1
934 1205 1
981 1205 1
982 1205 1
225 1206 1
226 1206 1
870 1206 1
880 1206 1
926 1206 1
935 1206 1
982 1206 1
983 1206 1
226 1207 1
227 1207 1
871 1207 1
881 1207 1
927 1207 1
936 1207 1
983 1207 1
984 1207 1
227 1208 1
228 1208 1
872 1208 1
882 1208 1
928 1208 1
937 1208 1
984 1208 1
985 1208 1
228 1209 1
229 1209 1
869 1209 1
873 1209 1
929 1209 1
938 1209 1
985 1209 1
986 1209 1
229 1210 1
230 1210 1
870 1210 1
874 1210 1
925 1210 1
930 1210 1
986 1210 1
987 1210 1
230 1211 1
231 1211 1
871 1211 1
875 1211 1
926 1211 1
931 1211 1
987 1211 1
988 1211 1
231 1212 1
232 1212 1
872 1212 1
876 1212 1
927 1212 1
932 1212 1
988 1212 1
989 1212 1
232 1213 1
233 1213 1
873 1213 1
877 1213 1
928 1213 1
933 1213 1
989 1213 1
990 1213 1
233 1214 1
234 1214 1
874 1214 1
878 1214 1
929 1214 1
934 1214 1
990 1214 1
991 1214 1
234 1215 1
235 1215 1
875 1215 1
879 1215 1
930 1215 1
935 1215 1
991 1215 1
992 1215 1
235 1216 1
236 1216 1
876 1216 1
880 1216 1
931 1216 1
936 1216 1
992 1216 1
993 1216 1
236 1217 1
237 1217 1
877 1217 1
881 1217 1
932 1217 1
937 1217 1
993 1217 1
994 1217 1
237 1218 1
238 1218 1
878 1218 1
882 1218 1
933 1218 1
938 1218 1
981 1218 1
994 1218 1
239 1219 1
252 1219 1
883 1219 1
893 1219 1
939 1219 1
948 1219 1
981 1219 1
986 1219 1
239 1220 1
240 1220 1
884 1220 1
894 1220 1
940 1220 1
949 1220 1
982 1220 1
987 1220 1
240 1221 1
241 1221 1
885 1221 1
895 1221 1
941 1221 1
950 1221 1
983 1221 1
988 1221 1
241 1222 1
242 1222 1
886 1222 1
896 1222 1
942 1222 1
951 1222 1
984 1222 1
989 1222 1
242 1223 1
243 1223 1
883 1223 1
887 1223 1
943 1223 1
952 1223 1
985 1223 1
990 1223 1
243 1224 1
244 1224 1
884 1224 1
888 1224 1
939 1224 1
944 1224 1
986 1224 1
991 1224 1
244 1225 1
245 1225 1
885 1225 1
889 1225 1
940 1225 1
945 1225 1
987 1225 1
992 1225 1
245 1226 1
246 1226 1
886 1226 1
890 1226 1
941 1226 1
946 1226 1
988 1226 1
993 1226 1
246 1227 1
247 1227 1
887 1227 1
891 1227 1
942 1227 1
947 1227 1
989 1227 1
994 1227 1
247 1228 1
248 1228 1
888 1228 1
892 1228 1
943 1228 1
948 1228 1
981 1228 1
990 1228 1
248 1229 1
249 1229 1
889 1229 1
893 1229 1
944 1229 1
949 1229 1
982 1229 1
991 1229 1
249 1230 1
250 1230 1
890 1230 1
894 1230 1
945 1230 1
950 1230 1
983 1230 1
992 1230 1
250 1231 1
251 1231 1
891 1231 1
895 1231 1
946 1231 1
951 1231 1
984 1231 1
993 1231 1
251 1232 1
252 1232 1
892 1232 1
896 1232 1
947 1232 1
952 1232 1
985 1232 1
994 1232 1
253 1233 1
266 1233 1
897 1233 1
907 1233 1
953 1233 1
962 1233 1
981 1233 1
988 1233 1
253 1234 1
254 1234 1
898 1234 1
908 1234 1
954 1234 1
963 1234 1
982 1234 1
989 1234 1
254 1235 1
255 1235 1
899 1235 1
909 1235 1
955 1235 1
964 1235 1
983 1235 1
990 1235 1
255 1236 1
256 1236 1
900 1236 1
910 1236 1
956 1236 1
965 1236 1
984 1236 1
991 1236 1
256 1237 1
257 1237 1
897 1237 1
901 1237 1
957 1237 1
966 1237 1
985 1237 1
992 1237 1
257 1238 1
258 1238 1
898 1238 1
902 1238 1
953 1238 1
958 1238 1
986 1238 1
993 1238 1
258 1239 1
259 1239 1
899 1239 1
903 1239 1
954 1239 1
959 1239 1
987 1239 1
994 1239 1
259 1240 1
260 1240 1
900 1240 1
904 1240 1
955 1240 1
960 1240 1
981 1240 1
988 1240 1
260 1241 1
261 1241 1
901 1241 1
905 1241 1
956 1241 1
961 1241 1
982 1241 1
989 1241 1
261 1242 1
262 1242 1
902 1242 1
906 1242 1
957 1242 1
962 1242 1
983 1242 1
990 1242 1
262 1243 1
263 1243 1
903 1243 1
907 1243 1
958 1243 1
963 1243 1
984 1243 1
991 1243 1
263 1244 1
264 1244 1
904 1244 1
908 1244 1
959 1244 1
964 1244 1
985 1244 1
992 1244 1
264 1245 1
265 1245 1
905 1245 1
909 1245 1
960 1245 1
965 1245 1
986 1245 1
993 1245 1
265 1246 1
266 1246 1
906 1246 1
910 1246 1
961 1246 1
966 1246 1
987 1246 1
994 1246 1
267 1247 1
280 1247 1
911 1247 1
921 1247 1
967 1247 1
976 1247 1
981 1247 1
989 1247 1
267 1248 1
268 1248 1
912 1248 1
922 1248 1
968 1248 1
977 1248 1
982 1248 1
990 1248 1
268 1249 1
269 1249 1
913 1249 1
923 1249 1
969 1249 1
978 1249 1
983 1249 1
991 1249 1
269 1250 1
270 1250 1
914 1250 1
924 1250 1
970 1250 1
979 1250 1
984 1250 1
992 1250 1
270 1251 1
271 1251 1
911 1251 1
915 1251 1
971 1251 1
980 1251 1
985 1251 1
993 1251 1
271 1252 1
272 1252 1
912 1252 1
916 1252 1
967 1252 1
972 1252 1
986 1252 1
994 1252 1
272 1253 1
273 1253 1
913 1253 1
917 1253 1
968 1253 1
973 1253 1
981 1253 1
987 1253 1
273 1254 1
274 1254 1
914 1254 1
918 1254 1
969 1254 1
974 1254 1
982 1254 1
988 1254 1
274 1255 1
275 1255 1
915 1255 1
919 1255 1
970 1255 1
975 1255 1
983 1255 1
989 1255 1
275 1256 1
276 1256 1
916 1256 1
920 1256 1
971 1256 1
976 1256 1
984 1256 1
990 1256 1
276 1257 1
277 1257 1
917 1257 1
921 1257 1
972 1257 1
977 1257 1
985 1257 1
991 1257 1
277 1258 1
278 1258 1
918 1258 1
922 1258 1
973 1258 1
978 1258 1
986 1258 1
992 1258 1
278 1259 1
279 1259 1
919 1259 1
923 1259 1
974 1259 1
979 1259 1
987 1259 1
993 1259 1
279 1260 1
280 1260 1
920 1260 1
924 1260 1
975 1260 1
980 1260 1
988 1260 1
994 1260 1
281 1261 1
294 1261 1
785 1261 1
796 1261 1
995 1261 1
1000 1261 1
1009 1261 1
1010 1261 1
281 1262 1
282 1262 1
786 1262 1
797 1262 1
996 1262 1
1001 1262 1
1010 1262 1
1011 1262 1
282 1263 1
283 1263 1
787 1263 1
798 1263 1
997 1263 1
1002 1263 1
1011 1263 1
1012 1263 1
283 1264 1
284 1264 1
785 1264 1
788 1264 1
998 1264 1
1003 1264 1
1012 1264 1
1013 1264 1
284 1265 1
285 1265 1
786 1265 1
789 1265 1
999 1265 1
1004 1265 1
1013 1265 1
1014 1265 1
285 1266 1
286 1266 1
787 1266 1
790 1266 1
1000 1266 1
1005 1266 1
1014 1266 1
1015 1266 1
286 1267 1
287 1267 1
788 1267 1
791 1267 1
1001 1267 1
1006 1267 1
1015 1267 1
1016 1267 1
287 1268 1
288 1268 1
789 1268 1
792 1268 1
1002 1268 1
1007 1268 1
1016 1268 1
1017 1268 1
288 1269 1
289 1269 1
790 1269 1
793 1269 1
1003 1269 1
1008 1269 1
1017 1269 1
1018 1269 1
289 1270 1
290 1270 1
791 1270 1
794 1270 1
995 1270 1
1004 1270 1
1018 1270 1
1019 1270 1
290 1271 1
291 1271 1
792 1271 1
795 1271 1
996 1271 1
1005 1271 1
1019 1271 1
1020 1271 1
291 1272 1
292 1272 1
793 1272 1
796 1272 1
997 1272 1
1006 1272 1
1020 1272 1
1021 1272 1
292 1273 1
293 1273 1
794 1273 1
797 1273 1
998 1273 1
1007 1273 1
1021 1273 1
1022 1273 1
293 1274 1
294 1274 1
795 1274 1
798 1274 1
999 1274 1
1008 1274 1
1009 1274 1
1022 1274 1
295 1275 1
308 1275 1
799 1275 1
810 1275 1
995 1275 1
1002 1275 1
1023 1275 1
1024 1275 1
295 1276 1
296 1276 1
800 1276 1
811 1276 1
996 1276 1
1003 1276 1
1024 1276 1
1025 1276 1
296 1277 1
297 1277 1
801 1277 1
812 1277 1
997 1277 1
1004 1277 1
1025 1277 1
1026 1277 1
297 1278 1
298 1278 1
799 1278 1
802 1278 1
998 1278 1
1005 1278 1
1026 1278 1
1027 1278 1
298 1279 1
299 1279 1
800 1279 1
803 1279 1
999 1279 1
1006 1279 1
1027 1279 1
1028 1279 1
299 1280 1
300 1280 1
801 1280 1
804 1280 1
1000 1280 1
1007 1280 1
1028 1280 1
1029 1280 1
300 1281 1
301 1281 1
802 1281 1
805 1281 1
1001 1281 1
1008 1281 1
1029 1281 1
1030 1281 1
301 1282 1
302 1282 1
803 1282 1
806 1282 1
995 1282 1
1002 1282 1
1030 1282 1
1031 1282 1
302 1283 1
303 1283 1
804 1283 1
807 1283 1
996 1283 1
1003 1283 1
1031 1283 1
1032 1283 1
303 1284 1
304 1284 1
805 1284 1
808 1284 1
997 1284 1
1004 1284 1
1032 1284 1
1033 1284 1
304 1285 1
305 1285 1
806 1285 1
809 1285 1
998 1285 1
1005 1285 1
1033 1285 1
1034 1285 1
305 1286 1
306 1286 1
807 1286 1
810 1286 1
999 1286 1
1006 1286 1
1034 1286 1
1035 1286 1
306 1287 1
307 1287 1
808 1287 1
811 1287 1
1000 1287 1
1007 1287 1
1035 1287 1
1036 1287 1
307 1288 1
308 1288 1
809 1288 1
812 1288 1
1001 1288 1
1008 1288 1
1023 1288 1
1036 1288 1
309 1289 1
322 1289 1
813 1289 1
824 1289 1
1009 1289 1
1016 1289 1
1023 1289 1
1028 1289 1
309 1290 1
310 1290 1
814 1290 1
825 1290 1
1010 1290 1
1017 1290 1
1024 1290 1
1029 1290 1
310 1291 1
311 1291 1
815 1291 1
826 1291 1
1011 1291 1
1018 1291 1
1025 1291 1
1030 1291 1
311 1292 1
312 1292 1
813 1292 1
816 1292 1
1012 1292 1
1019 1292 1
1026 1292 1
1031 1292 1
312 1293 1
313 1293 1
814 1293 1
817 1293 1
1013 1293 1
1020 1293 1
1027 1293 1
1032 1293 1
313 1294 1
314 1294 1
815 1294 1
818 1294 1
1014 1294 1
1021 1294 1
1028 1294 1
1033 1294 1
314 1295 1
315 1295 1
816 1295 1
819 1295 1
1015 1295 1
1022 1295 1
1029 1295 1
1034 1295 1
315 1296 1
316 1296 1
817 1296 1
820 1296 1
1009 1296 1
1016 1296 1
1030 1296 1
1035 1296 1
316 1297 1
317 1297 1
818 1297 1
821 1297 1
1010 1297 1
1017 1297 1
1031 1297 1
1036 1297 1
317 1298 1
318 1298 1
819 1298 1
822 1298 1
1011 1298 1
1018 1298 1
1023 1298 1
1032 1298 1
318 1299 1
319 1299 1
820 1299 1
823 1299 1
1012 1299 1
1019 1299 1
1024 1299 1
1033 1299 1
319 1300 1
320 1300 1
821 1300 1
824 1300 1
1013 1300 1
1020 1300 1
1025 1300 1
1034 1300 1
320 1301 1
321 1301 1
822 1301 1
825 1301 1
1014 1301 1
1021 1301 1
1026 1301 1
1035 1301 1
321 1302 1
322 1302 1
823 1302 1
826 1302 1
1015 1302 1
1022 1302 1
1027 1302 1
1036 1302 1
323 1303 1
336 1303 1
827 1303 1
838 1303 1
995 1303 1
1003 1303 1
1037 1303 1
1038 1303 1
323 1304 1
324 1304 1
828 1304 1
839 1304 1
996 1304 1
1004 1304 1
1038 1304 1
1039 1304 1
324 1305 1
325 1305 1
829 1305 1
840 1305 1
997 1305 1
1005 1305 1
1039 1305 1
1040 1305 1
325 1306 1
326 1306 1
827 1306 1
830 1306 1
998 1306 1
1006 1306 1
1040 1306 1
1041 1306 1
326 1307 1
327 1307 1
828 1307 1
831 1307 1
999 1307 1
1007 1307 1
1041 1307 1
1042 1307 1
327 1308 1
328 1308 1
829 1308 1
832 1308 1
1000 1308 1
1008 1308 1
1042 1308 1
1043 1308 1
328 1309 1
329 1309 1
830 1309 1
833 1309 1
995 1309 1
1001 1309 1
1043 1309 1
1044 1309 1
329 1310 1
330 1310 1
831 1310 1
834 1310 1
996 1310 1
1002 1310 1
1044 1310 1
1045 1310 1
330 1311 1
331 1311 1
832 1311 1
835 1311 1
997 1311 1
1003 1311 1
1045 1311 1
1046 1311 1
331 1312 1
332 1312 1
833 1312 1
836 1312 1
998 1312 1
1004 1312 1
1046 1312 1
1047 1312 1
332 1313 1
333 1313 1
834 1313 1
837 1313 1
999 1313 1
1005 1313 1
1047 1313 1
1048 1313 1
333 1314 1
334 1314 1
835 1314 1
838 1314 1
1000 1314 1
1006 1314 1
1048 1314 1
1049 1314 1
334 1315 1
335 1315 1
836 1315 1
839 1315 1
1001 1315 1
1007 1315 1
1049 1315 1
1050 1315 1
335 1316 1
336 1316 1
837 1316 1
840 1316 1
1002 1316 1
1008 1316 1
1037 1316 1
1050 1316 1
337 1317 1
350 1317 1
841 1317 1
852 1317 1
1009 1317 1
1017 1317 1
1037 1317 1
1042 1317 1
337 1318 1
338 1318 1
842 1318 1
853 1318 1
1010 1318 1
1018 1318 1
1038 1318 1
1043 1318 1
338 1319 1
339 1319 1
843 1319 1
854 1319 1
1011 1319 1
1019 1319 1
1039 1319 1
1044 1319 1
339 1320 1
340 1320 1
841 1320 1
844 1320 1
1012 1320 1
1020 1320 1
1040 1320 1
1045 1320 1
340 1321 1
341 1321 1
842 1321 1
845 1321 1
1013 1321 1
1021 1321 1
1041 1321 1
1046 1321 1
341 1322 1
342 1322 1
843 1322 1
846 1322 1
1014 1322 1
1022 1322 1
1042 1322 1
1047 1322 1
342 1323 1
343 1323 1
844 1323 1
847 1323 1
1009 1323 1
1015 1323 1
1043 1323 1
1048 1323 1
343 1324 1
344 1324 1
845 1324 1
848 1324 1
1010 1324 1
1016 1324 1
1044 1324 1
1049 1324 1
344 1325 1
345 1325 1
846 1325 1
849 1325 1
1011 1325 1
1017 1325 1
1045 1325 1
1050 1325 1
345 1326 1
346 1326 1
847 1326 1
850 1326 1
1012 1326 1
1018 1326 1
1037 1326 1
1046 1326 1
346 1327 1
347 1327 1
848 1327 1
851 1327 1
1013 1327 1
1019 1327 1
1038 1327 1
1047 1327 1
347 1328 1
348 1328 1
849 1328 1
852 1328 1
1014 1328 1
1020 1328 1
1039 1328 1
1048 1328 1
348 1329 1
349 1329 1
850 1329 1
853 1329 1
1015 1329 1
1021 1329 1
1040 1329 1
1049 1329 1
349 1330 1
350 1330 1
851 1330 1
854 1330 1
1016 1330 1
1022 1330 1
1041 1330 1
1050 1330 1
351 1331 1
364 1331 1
855 1331 1
866 1331 1
1023 1331 1
1031 1331 1
1037 1331 1
1044 1331 1
351 1332 1
352 1332 1
856 1332 1
867 1332 1
1024 1332 1
1032 1332 1
1038 1332 1
1045 1332 1
352 1333 1
353 1333 1
857 1333 1
868 1333 1
1025 1333 1
1033 1333 1
1039 1333 1
1046 1333 1
353 1334 1
354 1334 1
855 1334 1
858 1334 1
1026 1334 1
1034 1334 1
1040 1334 1
1047 1334 1
354 1335 1
355 1335 1
856 1335 1
859 1335 1
1027 1335 1
1035 1335 1
1041 1335 1
1048 1335 1
355 1336 1
356 1336 1
857 1336 1
860 1336 1
1028 1336 1
1036 1336 1
1042 1336 1
1049 1336 1
356 1337 1
357 1337 1
858 1337 1
861 1337 1
1023 1337 1
1029 1337 1
1043 1337 1
1050 1337 1
357 1338 1
358 1338 1
859 1338 1
862 1338 1
1024 1338 1
1030 1338 1
1037 1338 1
1044 1338 1
358 1339 1
359 1339 1
860 1339 1
863 1339 1
1025 1339 1
1031 1339 1
1038 1339 1
1045 1339 1
359 1340 1
360 1340 1
861 1340 1
864 1340 1
1026 1340 1
1032 1340 1
1039 1340 1
1046 1340 1
360 1341 1
361 1341 1
862 1341 1
865 1341 1
1027 1341 1
1033 1341 1
1040 1341 1
1047 1341 1
361 1342 1
362 1342 1
863 1342 1
866 1342 1
1028 1342 1
1034 1342 1
1041 1342 1
1048 1342 1
362 1343 1
363 1343 1
864 1343 1
867 1343 1
1029 1343 1
1035 1343 1
1042 1343 1
1049 1343 1
363 1344 1
364 1344 1
865 1344 1
868 1344 1
1030 1344 1
1036 1344 1
1043 1344 1
1050 1344 1
365 1345 1
378 1345 1
869 1345 1
880 1345 1
995 1345 1
1004 1345 1
1051 1345 1
1052 1345 1
365 1346 1
366 1346 1
870 1346 1
881 1346 1
996 1346 1
1005 1346 1
1052 1346 1
1053 1346 1
366 1347 1
367 1347 1
871 1347 1
882 1347 1
997 1347 1
1006 1347 1
1053 1347 1
1054 1347 1
367 1348 1
368 1348 1
869 1348 1
872 1348 1
998 1348 1
1007 1348 1
1054 1348 1
1055 1348 1
368 1349 1
369 1349 1
870 1349 1
873 1349 1
999 1349 1
1008 1349 1
1055 1349 1
1056 1349 1
369 1350 1
370 1350 1
871 1350 1
874 1350 1
995 1350 1
1000 1350 1
1056 1350 1
1057 1350 1
370 1351 1
371 1351 1
872 1351 1
875 1351 1
996 1351 1
1001 1351 1
1057 1351 1
1058 1351 1
371 1352 1
372 1352 1
873 1352 1
876 1352 1
997 1352 1
1002 1352 1
1058 1352 1
1059 1352 1
372 1353 1
373 1353 1
874 1353 1
877 1353 1
998 1353 1
1003 1353 1
1059 1353 1
1060 1353 1
373 1354 1
374 1354 1
875 1354 1
878 1354 1
999 1354 1
1004 1354 1
1060 1354 1
1061 1354 1
374 1355 1
375 1355 1
876 1355 1
879 1355 1
1000 1355 1
1005 1355 1
1061 1355 1
1062 1355 1
375 1356 1
376 1356 1
877 1356 1
880 1356 1
1001 1356 1
1006 1356 1
1062 1356 1
1063 1356 1
376 1357 1
377 1357 1
878 1357 1
881 1357 1
1002 1357 1
1007 1357 1
1063 1357 1
1064 1357 1
377 1358 1
378 1358 1
879 1358 1
882 1358 1
1003 1358 1
1008 1358 1
1051 1358 1
1064 1358 1
379 1359 1
392 1359 1
883 1359 1
894 1359 1
1009 1359 1
1018 1359 1
1051 1359 1
1056 1359 1
379 1360 1
380 1360 1
884 1360 1
895 1360 1
1010 1360 1
1019 1360 1
1052 1360 1
1057 1360 1
380 1361 1
381 1361 1
885 1361 1
896 1361 1
1011 1361 1
1020 1361 1
1053 1361 1
1058 1361 1
381 1362 1
382 1362 1
883 1362 1
886 1362 1
1012 1362 1
1021 1362 1
1054 1362 1
1059 1362 1
382 1363 1
383 1363 1
884 1363 1
887 1363 1
1013 1363 1
1022 1363 1
1055 1363 1
1060 1363 1
383 1364 1
384 1364 1
885 1364 1
888 1364 1
1009 1364 1
1014 1364 1
1056 1364 1
1061 1364 1
384 1365 1
385 1365 1
886 1365 1
889 1365 1
1010 1365 1
1015 1365 1
1057 1365 1
1062 1365 1
385 1366 1
386 1366 1
887 1366 1
890 1366 1
1011 1366 1
1016 1366 1
1058 1366 1
1063 1366 1
386 1367 1
387 1367 1
888 1367 1
891 1367 1
1012 1367 1
1017 1367 1
1059 1367 1
1064 1367 1
387 1368 1
388 1368 1
889 1368 1
892 1368 1
1013 1368 1
1018 1368 1
1051 1368 1
1060 1368 1
388 1369 1
389 1369 1
890 1369 1
893 1369 1
1014 1369 1
1019 1369 1
1052 1369 1
1061 1369 1
389 1370 1
390 1370 1
891 1370 1
894 1370 1
1015 1370 1
1020 1370 1
1053 1370 1
1062 1370 1
390 1371 1
391 1371 1
892 1371 1
895 1371 1
1016 1371 1
1021 1371 1
1054 1371 1
1063 1371 1
391 1372 1
392 1372 1
893 1372 1
896 1372 1
1017 1372 1
1022 1372 1
1055 1372 1
1064 1372 1
393 1373 1
406 1373 1
897 1373 1
908 1373 1
1023 1373 1
1032 1373 1
1051 1373 1
1058 1373 1
393 1374 1
394 1374 1
898 1374 1
909 1374 1
1024 1374 1
1033 1374 1
1052 1374 1
1059 1374 1
394 1375 1
395 1375 1
899 1375 1
910 1375 1
1025 1375 1
1034 1375 1
1053 1375 1
1060 1375 1
395 1376 1
396 1376 1
897 1376 1
900 1376 1
1026 1376 1
1035 1376 1
1054 1376 1
1061 1376 1
396 1377 1
397 1377 1
898 1377 1
901 1377 1
1027 1377 1
1036 1377 1
1055 1377 1
1062 1377 1
397 1378 1
398 1378 1
899 1378 1
902 1378 1
1023 1378 1
1028 1378 1
1056 1378 1
1063 1378 1
398 1379 1
399 1379 1
900 1379 1
903 1379 1
1024 1379 1
1029 1379 1
1057 1379 1
1064 1379 1
399 1380 1
400 1380 1
901 1380 1
904 1380 1
1025 1380 1
1030 1380 1
1051 1380 1
1058 1380 1
400 1381 1
401 1381 1
902 1381 1
905 1381 1
1026 1381 1
1031 1381 1
1052 1381 1
1059 1381 1
401 1382 1
402 1382 1
903 1382 1
906 1382 1
1027 1382 1
1032 1382 1
1053 1382 1
1060 1382 1
402 1383 1
403 1383 1
904 1383 1
907 1383 1
1028 1383 1
1033 1383 1
1054 1383 1
1061 1383 1
403 1384 1
404 1384 1
905 1384 1
908 1384 1
1029 1384 1
1034 1384 1
1055 1384 1
1062 1384 1
404 1385 1
405 1385 1
906 1385 1
909 1385 1
1030 1385 1
1035 1385 1
1056 1385 1
1063 1385 1
405 1386 1
406 1386 1
907 1386 1
910 1386 1
1031 1386 1
1036 1386 1
1057 1386 1
1064 1386 1
407 1387 1
420 1387 1
911 1387 1
922 1387 1
1037 1387 1
1046 1387 1
1051 1387 1
1059 1387 1
407 1388 1
408 1388 1
912 1388 1
923 1388 1
1038 1388 1
1047 1388 1
1052 1388 1
1060 1388 1
408 1389 1
409 1389 1
913 1389 1
924 1389 1
1039 1389 1
1048 1389 1
1053 1389 1
1061 1389 1
409 1390 1
410 1390 1
911 1390 1
914 1390 1
1040 1390 1
1049 1390 1
1054 1390 1
1062 1390 1
410 1391 1
411 1391 1
912 1391 1
915 1391 1
1041 1391 1
1050 1391 1
1055 1391 1
1063 1391 1
411 1392 1
412 1392 1
913 1392 1
916 1392 1
1037 1392 1
1042 1392 1
1056 1392 1
1064 1392 1
412 1393 1
413 1393 1
914 1393 1
917 1393 1
1038 1393 1
1043 1393 1
1051 1393 1
1057 1393 1
413 1394 1
414 1394 1
915 1394 1
918 1394 1
1039 1394 1
1044 1394 1
1052 1394 1
1058 1394 1
414 1395 1
415 1395 1
916 1395 1
919 1395 1
1040 1395 1
1045 1395 1
1053 1395 1
1059 1395 1
415 1396 1
416 1396 1
917 1396 1
920 1396 1
1041 1396 1
1046 1396 1
1054 1396 1
1060 1396 1
416 1397 1
417 1397 1
918 1397 1
921 1397 1
1042 1397 1
1047 1397 1
1055 1397 1
1061 1397 1
417 1398 1
418 1398 1
919 1398 1
922 1398 1
1043 1398 1
1048 1398 1
1056 1398 1
1062 1398 1
418 1399 1
419 1399 1
920 1399 1
923 1399 1
1044 1399 1
1049 1399 1
1057 1399 1
1063 1399 1
419 1400 1
420 1400 1
921 1400 1
924 1400 1
1045 1400 1
1050 1400 1
1058 1400 1
1064 1400 1
421 1401 1
434 1401 1
925 1401 1
936 1401 1
995 1401 1
1005 1401 1
1065 1401 1
1066 1401 1
421 1402 1
422 1402 1
926 1402 1
937 1402 1
996 1402 1
1006 1402 1
1066 1402 1
1067 1402 1
422 1403 1
423 1403 1
927 1403 1
938 1403 1
997 1403 1
1007 1403 1
1067 1403 1
1068 1403 1
423 1404 1
424 1404 1
925 1404 1
928 1404 1
998 1404 1
1008 1404 1
1068 1404 1
1069 1404 1
424 1405 1
425 1405 1
926 1405 1
929 1405 1
995 1405 1
999 1405 1
1069 1405 1
1070 1405 1
425 1406 1
426 1406 1
927 1406 1
930 1406 1
996 1406 1
1000 1406 1
1070 1406 1
1071 1406 1
426 1407 1
427 1407 1
928 1407 1
931 1407 1
997 1407 1
1001 1407 1
1071 1407 1
1072 1407 1
427 1408 1
428 1408 1
929 1408 1
932 1408 1
998 1408 1
1002 1408 1
1072 1408 1
1073 1408 1
428 1409 1
429 1409 1
930 1409 1
933 1409 1
999 1409 1
1003 1409 1
1073 1409 1
1074 1409 1
429 1410 1
430 1410 1
931 1410 1
934 1410 1
1000 1410 1
1004 1410 1
1074 1410 1
1075 1410 1
430 1411 1
431 1411 1
932 1411 1
935 1411 1
1001 1411 1
1005 1411 1
1075 1411 1
1076 1411 1
431 1412 1
432 1412 1
933 1412 1
936 1412 1
1002 1412 1
1006 1412 1
1076 1412 1
1077 1412 1
432 1413 1
433 1413 1
934 1413 1
937 1413 1
1003 1413 1
1007 1413 1
1077 1413 1
1078 1413 1
433 1414 1
434 1414 1
935 1414 1
938 1414 1
1004 1414 1
1008 1414 1
1065 1414 1
1078 1414 1
435 1415 1
448 1415 1
939 1415 1
950 1415 1
1009 1415 1
1019 1415 1
1065 1415 1
1070 1415 1
435 1416 1
436 1416 1
940 1416 1
951 1416 1
1010 1416 1
1020 1416 1
1066 1416 1
1071 1416 1
436 1417 1
437 1417 1
941 1417 1
952 1417 1
1011 1417 1
1021 1417 1
1067 1417 1
1072 1417 1
437 1418 1
438 1418 1
939 1418 1
942 1418 1
1012 1418 1
1022 1418 1
1068 1418 1
1073 1418 1
438 1419 1
439 1419 1
940 1419 1
943 1419 1
1009 1419 1
1013 1419 1
1069 1419 1
1074 1419 1
439 1420 1
440 1420 1
941 1420 1
944 1420 1
1010 1420 1
1014 1420 1
1070 1420 1
1075 1420 1
440 1421 1
441 1421 1
942 1421 1
945 1421 1
1011 1421 1
1015 1421 1
1071 1421 1
1076 1421 1
441 1422 1
442 1422 1
943 1422 1
946 1422 1
1012 1422 1
1016 1422 1
1072 1422 1
1077 1422 1
442 1423 1
443 1423 1
944 1423 1
947 1423 1
1013 1423 1
1017 1423 1
1073 1423 1
1078 1423 1
443 1424 1
444 1424 1
945 1424 1
948 1424 1
1014 1424 1
1018 1424 1
1065 1424 1
1074 1424 1
444 1425 1
445 1425 1
946 1425 1
949 1425 1
1015 1425 1
1019 1425 1
1066 1425 1
1075 1425 1
445 1426 1
446 1426 1
947 1426 1
950 1426 1
1016 1426 1
1020 1426 1
1067 1426 1
1076 1426 1
446 1427 1
447 1427 1
948 1427 1
951 1427 1
1017 1427 1
1021 1427 1
1068 1427 1
1077 1427 1
447 1428 1
448 1428 1
949 1428 1
952 1428 1
1018 1428 1
1022 1428 1
1069 1428 1
1078 1428 1
449 1429 1
462 1429 1
953 1429 1
964 1429 1
1023 1429 1
1033 1429 1
1065 1429 1
1072 1429 1
449 1430 1
450 1430 1
954 1430 1
965 1430 1
1024 1430 1
1034 1430 1
1066 1430 1
1073 1430 1
450 1431 1
451 1431 1
955 1431 1
966 1431 1
1025 1431 1
1035 1431 1
1067 1431 1
1074 1431 1
451 1432 1
452 1432 1
953 1432 1
956 1432 1
1026 1432 1
1036 1432 1
1068 1432 1
1075 1432 1
452 1433 1
453 1433 1
954 1433 1
957 1433 1
1023 1433 1
1027 1433 1
1069 1433 1
1076 1433 1
453 1434 1
454 1434 1
955 1434 1
958 1434 1
1024 1434 1
1028 1434 1
1070 1434 1
1077 1434 1
454 1435 1
455 1435 1
956 1435 1
959 1435 1
1025 1435 1
1029 1435 1
1071 1435 1
1078 1435 1
455 1436 1
456 1436 1
957 1436 1
960 1436 1
1026 1436 1
1030 1436 1
1065 1436 1
1072 1436 1
456 1437 1
457 1437 1
958 1437 1
961 1437 1
1027 1437 1
1031 1437 1
1066 1437 1
1073 1437 1
457 1438 1
458 1438 1
959 1438 1
962 1438 1
1028 1438 1
1032 1438 1
1067 1438 1
1074 1438 1
458 1439 1
459 1439 1
960 1439 1
963 1439 1
1029 1439 1
1033 1439 1
1068 1439 1
1075 1439 1
459 1440 1
460 1440 1
961 1440 1
964 1440 1
1030 1440 1
1034 1440 1
1069 1440 1
1076 1440 1
460 1441 1
461 1441 1
962 1441 1
965 1441 1
1031 1441 1
1035 1441 1
1070 1441 1
1077 1441 1
461 1442 1
462 1442 1
963 1442 1
966 1442 1
1032 1442 1
1036 1442 1
1071 1442 1
1078 1442 1
463 1443 1
476 1443 1
967 1443 1
978 1443 1
1037 1443 1
1047 1443 1
1065 1443 1
1073 1443 1
463 1444 1
464 1444 1
968 1444 1
979 1444 1
1038 1444 1
1048 1444 1
1066 1444 1
1074 1444 1
464 1445 1
465 1445 1
969 1445 1
980 1445 1
1039 1445 1
1049 1445 1
1067 1445 1
1075 1445 1
465 1446 1
466 1446 1
967 1446 1
970 1446 1
1040 1446 1
1050 1446 1
1068 1446 1
1076 1446 1
466 1447 1
467 1447 1
968 1447 1
971 1447 1
1037 1447 1
1041 1447 1
1069 1447 1
1077 1447 1
467 1448 1
468 1448 1
969 1448 1
972 1448 1
1038 1448 1
1042 1448 1
1070 1448 1
1078 1448 1
468 1449 1
469 1449 1
970 1449 1
973 1449 1
1039 1449 1
1043 1449 1
1065 1449 1
1071 1449 1
469 1450 1
470 1450 1
971 1450 1
974 1450 1
1040 1450 1
1044 1450 1
1066 1450 1
1072 1450 1
470 1451 1
471 1451 1
972 1451 1
975 1451 1
1041 1451 1
1045 1451 1
1067 1451 1
1073 1451 1
471 1452 1
472 1452 1
973 1452 1
976 1452 1
1042 1452 1
1046 1452 1
1068 1452 1
1074 1452 1
472 1453 1
473 1453 1
974 1453 1
977 1453 1
1043 1453 1
1047 1453 1
1069 1453 1
1075 1453 1
473 1454 1
474 1454 1
975 1454 1
978 1454 1
1044 1454 1
1048 1454 1
1070 1454 1
1076 1454 1
474 1455 1
475 1455 1
976 1455 1
979 1455 1
1045 1455 1
1049 1455 1
1071 1455 1
1077 1455 1
475 1456 1
476 1456 1
977 1456 1
980 1456 1
1046 1456 1
1050 1456 1
1072 1456 1
1078 1456 1
477 1457 1
490 1457 1
981 1457 1
992 1457 1
1051 1457 1
1061 1457 1
1065 1457 1
1074 1457 1
477 1458 1
478 1458 1
982 1458 1
993 1458 1
1052 1458 1
1062 1458 1
1066 1458 1
1075 1458 1
478 1459 1
479 1459 1
983 1459 1
994 1459 1
1053 1459 1
1063 1459 1
1067 1459 1
1076 1459 1
479 1460 1
480 1460 1
981 1460 1
984 1460 1
1054 1460 1
1064 1460 1
1068 1460 1
1077 1460 1
480 1461 1
481 1461 1
982 1461 1
985 1461 1
1051 1461 1
1055 1461 1
1069 1461 1
1078 1461 1
481 1462 1
482 1462 1
983 1462 1
986 1462 1
1052 1462 1
1056 1462 1
1065 1462 1
1070 1462 1
482 1463 1
483 1463 1
984 1463 1
987 1463 1
1053 1463 1
1057 1463 1
1066 1463 1
1071 1463 1
483 1464 1
484 1464 1
985 1464 1
988 1464 1
1054 1464 1
1058 1464 1
1067 1464 1
1072 1464 1
484 1465 1
485 1465 1
986 1465 1
989 1465 1
1055 1465 1
1059 1465 1
1068 1465 1
1073 1465 1
485 1466 1
486 1466 1
987 1466 1
990 1466 1
1056 1466 1
1060 1466 1
1069 1466 1
1074 1466 1
486 1467 1
487 1467 1
988 1467 1
991 1467 1
1057 1467 1
1061 1467 1
1070 1467 1
1075 1467 1
487 1468 1
488 1468 1
989 1468 1
992 1468 1
1058 1468 1
1062 1468 1
1071 1468 1
1076 1468 1
488 1469 1
489 1469 1
990 1469 1
993 1469 1
1059 1469 1
1063 1469 1
1072 1469 1
1077 1469 1
489 1470 1
490 1470 1
991 1470 1
994 1470 1
1060 1470 1
1064 1470 1
1073 1470 1
1078 1470 1
491 1471 1
504 1471 1
785 1471 1
797 1471 1
1079 1471 1
1084 1471 1
1093 1471 1
1094 1471 1
491 1472 1
492 1472 1
786 1472 1
798 1472 1
1080 1472 1
1085 1472 1
1094 1472 1
1095 1472 1
492 1473 1
493 1473 1
785 1473 1
787 1473 1
1081 1473 1
1086 1473 1
1095 1473 1
1096 1473 1
493 1474 1
494 1474 1
786 1474 1
788 1474 1
1082 1474 1
1087 1474 1
1096 1474 1
1097 1474 1
494 1475 1
495 1475 1
787 1475 1
789 1475 1
1083 1475 1
1088 1475 1
1097 1475 1
1098 1475 1
495 1476 1
496 1476 1
788 1476 1
790 1476 1
1084 1476 1
1089 1476 1
1098 1476 1
1099 1476 1
496 1477 1
497 1477 1
789 1477 1
791 1477 1
1085 1477 1
1090 1477 1
1099 1477 1
1100 1477 1
497 1478 1
498 1478 1
790 1478 1
792 1478 1
1086 1478 1
1091 1478 1
1100 1478 1
1101 1478 1
498 1479 1
499 1479 1
791 1479 1
793 1479 1
1087 1479 1
1092 1479 1
1101 1479 1
1102 1479 1
499 1480 1
500 1480 1
792 1480 1
794 1480 1
1079 1480 1
1088 1480 1
1102 1480 1
1103 1480 1
500 1481 1
501 1481 1
793 1481 1
795 1481 1
1080 1481 1
1089 1481 1
1103 1481 1
1104 1481 1
501 1482 1
502 1482 1
794 1482 1
796 1482 1
1081 1482 1
1090 1482 1
1104 1482 1
1105 1482 1
502 1483 1
503 1483 1
795 1483 1
797 1483 1
1082 1483 1
1091 1483 1
1105 1483 1
1106 1483 1
503 1484 1
504 1484 1
796 1484 1
798 1484 1
1083 1484 1
1092 1484 1
1093 1484 1
1106 1484 1
505 1485 1
518 1485 1
799 1485 1
811 1485 1
1079 1485 1
1086 1485 1
1107 1485 1
1108 1485 1
505 1486 1
506 1486 1
800 1486 1
812 1486 1
1080 1486 1
1087 1486 1
1108 1486 1
1109 1486 1
506 1487 1
507 1487 1
799 1487 1
801 1487 1
1081 1487 1
1088 1487 1
1109 1487 1
1110 1487 1
507 1488 1
508 1488 1
800 1488 1
802 1488 1
1082 1488 1
1089 1488 1
1110 1488 1
1111 1488 1
508 1489 1
509 1489 1
801 1489 1
803 1489 1
1083 1489 1
1090 1489 1
1111 1489 1
1112 1489 1
509 1490 1
510 1490 1
802 1490 1
804 1490 1
1084 1490 1
1091 1490 1
1112 1490 1
1113 1490 1
510 1491 1
511 1491 1
803 1491 1
805 1491 1
1085 1491 1
1092 1491 1
1113 1491 1
1114 1491 1
511 1492 1
512 1492 1
804 1492 1
806 1492 1
1079 1492 1
1086 1492 1
1114 1492 1
1115 1492 1
512 1493 1
513 1493 1
805 1493 1
807 1493 1
1080 1493 1
1087 1493 1
1115 1493 1
1116 1493 1
513 1494 1
514 1494 1
806 1494 1
808 1494 1
1081 1494 1
1088 1494 1
1116 1494 1
1117 1494 1
514 1495 1
515 1495 1
807 1495 1
809 1495 1
1082 1495 1
1089 1495 1
1117 1495 1
1118 1495 1
515 1496 1
516 1496 1
808 1496 1
810 1496 1
1083 1496 1
1090 1496 1
1118 1496 1
1119 1496 1
516 1497 1
517 1497 1
809 1497 1
811 1497 1
1084 1497 1
1091 1497 1
1119 1497 1
1120 1497 1
517 1498 1
518 1498 1
810 1498 1
812 1498 1
1085 1498 1
1092 1498 1
1107 1498 1
1120 1498 1
519 1499 1
532 1499 1
813 1499 1
825 1499 1
1093 1499 1
1100 1499 1
1107 1499 1
1112 1499 1
519 1500 1
520 1500 1
814 1500 1
826 1500 1
1094 1500 1
1101 1500 1
1108 1500 1
1113 1500 1
520 1501 1
521 1501 1
813 1501 1
815 1501 1
1095 1501 1
1102 1501 1
1109 1501 1
1114 1501 1
521 1502 1
522 1502 1
814 1502 1
816 1502 1
1096 1502 1
1103 1502 1
1110 1502 1
1115 1502 1
522 1503 1
523 1503 1
815 1503 1
817 1503 1
1097 1503 1
1104 1503 1
1111 1503 1
1116 1503 1
523 1504 1
524 1504 1
816 1504 1
818 1504 1
1098 1504 1
1105 1504 1
1112 1504 1
1117 1504 1
524 1505 1
525 1505 1
817 1505 1
819 1505 1
1099 1505 1
1106 1505 1
1113 1505 1
1118 1505 1
525 1506 1
526 1506 1
818 1506 1
820 1506 1
1093 1506 1
1100 1506 1
1114 1506 1
1119 1506 1
526 1507 1
527 1507 1
819 1507 1
821 1507 1
1094 1507 1
1101 1507 1
1115 1507 1
1120 1507 1
527 1508 1
528 1508 1
820 1508 1
822 1508 1
1095 1508 1
1102 1508 1
1107 1508 1
1116 1508 1
528 1509 1
529 1509 1
821 1509 1
823 1509 1
1096 1509 1
1103 1509 1
1108 1509 1
1117 1509 1
529 1510 1
530 1510 1
822 1510 1
824 1510 1
1097 1510 1
1104 1510 1
1109 1510 1
1118 1510 1
530 1511 1
531 1511 1
823 1511 1
825 1511 1
1098 1511 1
1105 1511 1
1110 1511 1
1119 1511 1
531 1512 1
532 1512 1
824 1512 1
826 1512 1
1099 1512 1
1106 1512 1
1111 1512 1
1120 1512 1
533 1513 1
546 1513 1
827 1513 1
839 1513 1
1079 1513 1
1087 1513 1
1121 1513 1
1122 1513 1
533 1514 1
534 1514 1
828 1514 1
840 1514 1
1080 1514 1
1088 1514 1
1122 1514 1
1123 1514 1
534 1515 1
535 1515 1
827 1515 1
829 1515 1
1081 1515 1
1089 1515 1
1123 1515 1
1124 1515 1
535 1516 1
536 1516 1
828 1516 1
830 1516 1
1082 1516 1
1090 1516 1
1124 1516 1
1125 1516 1
536 1517 1
537 1517 1
829 1517 1
831 1517 1
1083 1517 1
1091 1517 1
1125 1517 1
1126 1517 1
537 1518 1
538 1518 1
830 1518 1
832 1518 1
1084 1518 1
1092 1518 1
1126 1518 1
1127 1518 1
538 1519 1
539 1519 1
831 1519 1
833 1519 1
1079 1519 1
1085 1519 1
1127 1519 1
1128 1519 1
539 1520 1
540 1520 1
832 1520 1
834 1520 1
1080 1520 1
1086 1520 1
1128 1520 1
1129 1520 1
540 1521 1
541 1521 1
833 1521 1
835 1521 1
1081 1521 1
1087 1521 1
1129 1521 1
1130 1521 1
541 1522 1
542 1522 1
834 1522 1
836 1522 1
1082 1522 1
1088 1522 1
1130 1522 1
1131 1522 1
542 1523 1
543 1523 1
835 1523 1
837 1523 1
1083 1523 1
1089 1523 1
1131 1523 1
1132 1523 1
543 1524 1
544 1524 1
836 1524 1
838 1524 1
1084 1524 1
1090 1524 1
1132 1524 1
1133 1524 1
544 1525 1
545 1525 1
837 1525 1
839 1525 1
1085 1525 1
1091 1525 1
1133 1525 1
1134 1525 1
545 1526 1
546 1526 1
838 1526 1
840 1526 1
1086 1526 1
1092 1526 1
1121 1526 1
1134 1526 1
547 1527 1
560 1527 1
841 1527 1
853 1527 1
1093 1527 1
1101 1527 1
1121 1527 1
1126 1527 1
547 1528 1
548 1528 1
842 1528 1
854 1528 1
1094 1528 1
1102 1528 1
1122 1528 1
1127 1528 1
548 1529 1
549 1529 1
841 1529 1
843 1529 1
1095 1529 1
1103 1529 1
1123 1529 1
1128 1529 1
549 1530 1
550 1530 1
842 1530 1
844 1530 1
1096 1530 1
1104 1530 1
1124 1530 1
1129 1530 1
550 1531 1
551 1531 1
843 1531 1
845 1531 1
1097 1531 1
1105 1531 1
1125 1531 1
1130 1531 1
551 1532 1
552 1532 1
844 1532 1
846 1532 1
1098 1532 1
1106 1532 1
1126 1532 1
1131 1532 1
552 1533 1
553 1533 1
845 1533 1
847 1533 1
1093 1533 1
1099 1533 1
1127 1533 1
1132 1533 1
553 1534 1
554 1534 1
846 1534 1
848 1534 1
1094 1534 1
1100 1534 1
1128 1534 1
1133 1534 1
554 1535 1
555 1535 1
847 1535 1
849 1535 1
1095 1535 1
1101 1535 1
1129 1535 1
1134 1535 1
555 1536 1
556 1536 1
848 1536 1
850 1536 1
1096 1536 1
1102 1536 1
1121 1536 1
1130 1536 1
556 1537 1
557 1537 1
849 1537 1
851 1537 1
1097 1537 1
1103 1537 1
1122 1537 1
1131 1537 1
557 1538 1
558 1538 1
850 1538 1
852 1538 1
1098 1538 1
1104 1538 1
1123 1538 1
1132 1538 1
558 1539 1
559 1539 1
851 1539 1
853 1539 1
1099 1539 1
1105 1539 1
1124 1539 1
1133 1539 1
559 1540 1
560 1540 1
852 1540 1
854 1540 1
1100 1540 1
1106 1540 1
1125 1540 1
1134 1540 1
561 1541 1
574 1541 1
855 1541 1
867 1541 1
1107 1541 1
1115 1541 1
1121 1541 1
1128 1541 1
561 1542 1
562 1542 1
856 1542 1
868 1542 1
1108 1542 1
1116 1542 1
1122 1542 1
1129 1542 1
562 1543 1
563 1543 1
855 1543 1
857 1543 1
1109 1543 1
1117 1543 1
1123 1543 1
1130 1543 1
563 1544 1
564 1544 1
856 1544 1
858 1544 1
1110 1544 1
1118 1544 1
1124 1544 1
1131 1544 1
564 1545 1
565 1545 1
857 1545 1
859 1545 1
1111 1545 1
1119 1545 1
1125 1545 1
1132 1545 1
565 1546 1
566 1546 1
858 1546 1
860 1546 1
1112 1546 1
1120 1546 1
1126 1546 1
1133 1546 1
566 1547 1
567 1547 1
859 1547 1
861 1547 1
1107 1547 1
1113 1547 1
1127 1547 1
1134 1547 1
567 1548 1
568 1548 1
860 1548 1
862 1548 1
1108 1548 1
1114 1548 1
1121 1548 1
1128 1548 1
568 1549 1
569 1549 1
861 1549 1
863 1549 1
1109 1549 1
1115 1549 1
1122 1549 1
1129 1549 1
569 1550 1
570 1550 1
862 1550 1
864 1550 1
1110 1550 1
1116 1550 1
1123 1550 1
1130 1550 1
570 1551 1
571 1551 1
863 1551 1
865 1551 1
1111 1551 1
1117 1551 1
1124 1551 1
1131 1551 1
571 1552 1
572 1552 1
864 1552 1
866 1552 1
1112 1552 1
1118 1552 1
1125 1552 1
1132 1552 1
572 1553 1
573 1553 1
865 1553 1
867 1553 1
1113 1553 1
1119 1553 1
1126 1553 1
1133 1553 1
573 1554 1
574 1554 1
866 1554 1
868 1554 1
1114 1554 1
1120 1554 1
1127 1554 1
1134 1554 1
575 1555 1
588 1555 1
869 1555 1
881 1555 1
1079 1555 1
1088 1555 1
1135 1555 1
1136 1555 1
575 1556 1
576 1556 1
870 1556 1
882 1556 1
1080 1556 1
1089 1556 1
1136 1556 1
1137 1556 1
576 1557 1
577 1557 1
869 1557 1
871 1557 1
1081 1557 1
1090 1557 1
1137 1557 1
1138 1557 1
577 1558 1
578 1558 1
870 1558 1
872 1558 1
1082 1558 1
1091 1558 1
1138 1558 1
1139 1558 1
578 1559 1
579 1559 1
871 1559 1
873 1559 1
1083 1559 1
1092 1559 1
1139 1559 1
1140 1559 1
579 1560 1
580 1560 1
872 1560 1
874 1560 1
1079 1560 1
1084 1560 1
1140 1560 1
1141 1560 1
580 1561 1
581 1561 1
873 1561 1
875 1561 1
1080 1561 1
1085 1561 1
1141 1561 1
1142 1561 1
581 1562 1
582 1562 1
874 1562 1
876 1562 1
1081 1562 1
1086 1562 1
1142 1562 1
1143 1562 1
582 1563 1
583 1563 1
875 1563 1
877 1563 1
1082 1563 1
1087 1563 1
1143 1563 1
1144 1563 1
583 1564 1
584 1564 1
876 1564 1
878 1564 1
1083 1564 1
1088 1564 1
1144 1564 1
1145 1564 1
584 1565 1
585 1565 1
877 1565 1
879 1565 1
1084 1565 1
1089 1565 1
1145 1565 1
1146 1565 1
585 1566 1
586 1566 1
878 1566 1
880 1566 1
1085 1566 1
1090 1566 1
1146 1566 1
1147 1566 1
586 1567 1
587 1567 1
879 1567 1
881 1567 1
1086 1567 1
1091 1567 1
1147 1567 1
1148 1567 1
587 1568 1
588 1568 1
880 1568 1
882 1568 1
1087 1568 1
1092 1568 1
1135 1568 1
1148 1568 1
589 1569 1
602 1569 1
883 1569 1
895 1569 1
1093 1569 1
1102 1569 1
1135 1569 1
1140 1569 1
589 1570 1
590 1570 1
884 1570 1
896 1570 1
1094 1570 1
1103 1570 1
1136 1570 1
1141 1570 1
590 1571 1
591 1571 1
883 1571 1
885 1571 1
1095 1571 1
1104 1571 1
1137 1571 1
1142 1571 1
591 1572 1
592 1572 1
884 1572 1
886 1572 1
1096 1572 1
1105 1572 1
1138 1572 1
1143 1572 1
592 1573 1
593 1573 1
885 1573 1
887 1573 1
1097 1573 1
1106 1573 1
1139 1573 1
1144 1573 1
593 1574 1
594 1574 1
886 1574 1
888 1574 1
1093 1574 1
1098 1574 1
1140 1574 1
1145 1574 1
594 1575 1
595 1575 1
887 1575 1
889 1575 1
1094 1575 1
1099 1575 1
1141 1575 1
1146 1575 1
595 1576 1
596 1576 1
888 1576 1
890 1576 1
1095 1576 1
1100 1576 1
1142 1576 1
1147 1576 1
596 1577 1
597 1577 1
889 1577 1
891 1577 1
1096 1577 1
1101 1577 1
1143 1577 1
1148 1577 1
597 1578 1
598 1578 1
890 1578 1
892 1578 1
1097 1578 1
1102 1578 1
1135 1578 1
1144 1578 1
598 1579 1
599 1579 1
891 1579 1
893 1579 1
1098 1579 1
1103 1579 1
1136 1579 1
1145 1579 1
599 1580 1
600 1580 1
892 1580 1
894 1580 1
1099 1580 1
1104 1580 1
1137 1580 1
1146 1580 1
600 1581 1
601 1581 1
893 1581 1
895 1581 1
1100 1581 1
1105 1581 1
1138 1581 1
1147 1581 1
601 1582 1
602 1582 1
894 1582 1
896 1582 1
1101 1582 1
1106 1582 1
1139 1582 1
1148 1582 1
603 1583 1
616 1583 1
897 1583 1
909 1583 1
1107 1583 1
1116 1583 1
1135 1583 1
1142 1583 1
603 1584 1
604 1584 1
898 1584 1
910 1584 1
1108 1584 1
1117 1584 1
1136 1584 1
1143 1584 1
604 1585 1
605 1585 1
897 1585 1
899 1585 1
1109 1585 1
1118 1585 1
1137 1585 1
1144 1585 1
605 1586 1
606 1586 1
898 1586 1
900 1586 1
1110 1586 1
1119 1586 1
1138 1586 1
1145 1586 1
606 1587 1
607 1587 1
899 1587 1
901 1587 1
1111 1587 1
1120 1587 1
1139 1587 1
1146 1587 1
607 1588 1
608 1588 1
900 1588 1
902 1588 1
1107 1588 1
1112 1588 1
1140 1588 1
1147 1588 1
608 1589 1
609 1589 1
901 1589 1
903 1589 1
1108 1589 1
1113 1589 1
1141 1589 1
1148 1589 1
609 1590 1
610 1590 1
902 1590 1
904 1590 1
1109 1590 1
1114 1590 1
1135 1590 1
1142 1590 1
610 1591 1
611 1591 1
903 1591 1
905 1591 1
1110 1591 1
1115 1591 1
1136 1591 1
1143 1591 1
611 1592 1
612 1592 1
904 1592 1
906 1592 1
1111 1592 1
1116 1592 1
1137 1592 1
1144 1592 1
612 1593 1
613 1593 1
905 1593 1
907 1593 1
1112 1593 1
1117 1593 1
1138 1593 1
1145 1593 1
613 1594 1
614 1594 1
906 1594 1
908 1594 1
1113 1594 1
1118 1594 1
1139 1594 1
1146 1594 1
614 1595 1
615 1595 1
907 1595 1
909 1595 1
1114 1595 1
1119 1595 1
1140 1595 1
1147 1595 1
615 1596 1
616 1596 1
908 1596 1
910 1596 1
1115 1596 1
1120 1596 1
1141 1596 1
1148 1596 1
617 1597 1
630 1597 1
911 1597 1
923 1597 1
1121 1597 1
1130 1597 1
1135 1597 1
1143 1597 1
617 1598 1
618 1598 1
912 1598 1
924 1598 1
1122 1598 1
1131 1598 1
1136 1598 1
1144 1598 1
618 1599 1
619 1599 1
911 1599 1
913 1599 1
1123 1599 1
1132 1599 1
1137 1599 1
1145 1599 1
619 1600 1
620 1600 1
912 1600 1
914 1600 1
1124 1600 1
1133 1600 1
1138 1600 1
1146 1600 1
620 1601 1
621 1601 1
913 1601 1
915 1601 1
1125 1601 1
1134 1601 1
1139 1601 1
1147 1601 1
621 1602 1
622 1602 1
914 1602 1
916 1602 1
1121 1602 1
1126 1602 1
1140 1602 1
1148 1602 1
622 1603 1
623 1603 1
915 1603 1
917 1603 1
1122 1603 1
1127 1603 1
1135 1603 1
1141 1603 1
623 1604 1
624 1604 1
916 1604 1
918 1604 1
1123 1604 1
1128 1604 1
1136 1604 1
1142 1604 1
624 1605 1
625 1605 1
917 1605 1
919 1605 1
1124 1605 1
1129 1605 1
1137 1605 1
1143 1605 1
625 1606 1
626 1606 1
918 1606 1
920 1606 1
1125 1606 1
1130 1606 1
1138 1606 1
1144 1606 1
626 1607 1
627 1607 1
919 1607 1
921 1607 1
1126 1607 1
1131 1607 1
1139 1607 1
1145 1607 1
627 1608 1
628 1608 1
920 1608 1
922 1608 1
1127 1608 1
1132 1608 1
1140 1608 1
1146 1608 1
628 1609 1
629 1609 1
921 1609 1
923 1609 1
1128 1609 1
1133 1609 1
1141 1609 1
1147 1609 1
629 1610 1
630 1610 1
922 1610 1
924 1610 1
1129 1610 1
1134 1610 1
1142 1610 1
1148 1610 1
631 1611 1
644 1611 1
925 1611 1
937 1611 1
1079 1611 1
1089 1611 1
1149 1611 1
1150 1611 1
631 1612 1
632 1612 1
926 1612 1
938 1612 1
1080 1612 1
1090 1612 1
1150 1612 1
1151 1612 1
632 1613 1
633 1613 1
925 1613 1
927 1613 1
1081 1613 1
1091 1613 1
1151 1613 1
1152 1613 1
633 1614 1
634 1614 1
926 1614 1
928 1614 1
1082 1614 1
1092 1614 1
1152 1614 1
1153 1614 1
634 1615 1
635 1615 1
927 1615 1
929 1615 1
1079 1615 1
1083 1615 1
1153 1615 1
1154 1615 1
635 1616 1
636 1616 1
928 1616 1
930 1616 1
1080 1616 1
1084 1616 1
1154 1616 1
1155 1616 1
636 1617 1
637 1617 1
929 1617 1
931 1617 1
1081 1617 1
1085 1617 1
1155 1617 1
1156 1617 1
637 1618 1
638 1618 1
930 1618 1
932 1618 1
1082 1618 1
1086 1618 1
1156 1618 1
1157 1618 1
638 1619 1
639 1619 1
931 1619 1
933 1619 1
1083 1619 1
1087 1619 1
1157 1619 1
1158 1619 1
639 1620 1
640 1620 1
932 1620 1
934 1620 1
1084 1620 1
1088 1620 1
1158 1620 1
1159 1620 1
640 1621 1
641 1621 1
933 1621 1
935 1621 1
1085 1621 1
1089 1621 1
1159 1621 1
1160 1621 1
641 1622 1
642 1622 1
934 1622 1
936 1622 1
1086 1622 1
1090 1622 1
1160 1622 1
1161 1622 1
642 1623 1
643 1623 1
935 1623 1
937 1623 1
1087 1623 1
1091 1623 1
1161 1623 1
1162 1623 1
643 1624 1
644 1624 1
936 1624 1
938 1624 1
1088 1624 1
1092 1624 1
1149 1624 1
1162 1624 1
645 1625 1
658 1625 1
939 1625 1
951 1625 1
1093 1625 1
1103 1625 1
1149 1625 1
1154 1625 1
645 1626 1
646 1626 1
940 1626 1
952 1626 1
1094 1626 1
1104 1626 1
1150 1626 1
1155 1626 1
646 1627 1
647 1627 1
939 1627 1
941 1627 1
1095 1627 1
1105 1627 1
1151 1627 1
1156 1627 1
647 1628 1
648 1628 1
940 1628 1
942 1628 1
1096 1628 1
1106 1628 1
1152 1628 1
1157 1628 1
648 1629 1
649 1629 1
941 1629 1
943 1629 1
1093 1629 1
1097 1629 1
1153 1629 1
1158 1629 1
649 1630 1
650 1630 1
942 1630 1
944 1630 1
1094 1630 1
1098 1630 1
1154 1630 1
1159 1630 1
650 1631 1
651 1631 1
943 1631 1
945 1631 1
1095 1631 1
1099 1631 1
1155 1631 1
1160 1631 1
651 1632 1
652 1632 1
944 1632 1
946 1632 1
1096 1632 1
1100 1632 1
1156 1632 1
1161 1632 1
652 1633 1
653 1633 1
945 1633 1
947 1633 1
1097 1633 1
1101 1633 1
1157 1633 1
1162 1633 1
653 1634 1
654 1634 1
946 1634 1
948 1634 1
1098 1634 1
1102 1634 1
1149 1634 1
1158 1634 1
654 1635 1
655 1635 1
947 1635 1
949 1635 1
1099 1635 1
1103 1635 1
1150 1635 1
1159 1635 1
655 1636 1
656 1636 1
948 1636 1
950 1636 1
1100 1636 1
1104 1636 1
1151 1636 1
1160 1636 1
656 1637 1
657 1637 1
949 1637 1
951 1637 1
1101 1637 1
1105 1637 1
1152 1637 1
1161 1637 1
657 1638 1
658 1638 1
950 1638 1
952 1638 1
1102 1638 1
1106 1638 1
1153 1638 1
1162 1638 1
659 1639 1
672 1639 1
953 1639 1
965 1639 1
1107 1639 1
1117 1639 1
1149 1639 1
1156 1639 1
659 1640 1
660 1640 1
954 1640 1
966 1640 1
1108 1640 1
1118 1640 1
1150 1640 1
1157 1640 1
660 1641 1
661 1641 1
953 1641 1
955 1641 1
1109 1641 1
1119 1641 1
1151 1641 1
1158 1641 1
661 1642 1
662 1642 1
954 1642 1
956 1642 1
1110 1642 1
1120 1642 1
1152 1642 1
1159 1642 1
662 1643 1
663 1643 1
955 1643 1
957 1643 1
1107 1643 1
1111 1643 1
1153 1643 1
1160 1643 1
663 1644 1
664 1644 1
956 1644 1
958 1644 1
1108 1644 1
1112 1644 1
1154 1644 1
1161 1644 1
664 1645 1
665 1645 1
957 1645 1
959 1645 1
1109 1645 1
1113 1645 1
1155 1645 1
1162 1645 1
665 1646 1
666 1646 1
958 1646 1
960 1646 1
1110 1646 1
1114 1646 1
1149 1646 1
1156 1646 1
666 1647 1
667 1647 1
959 1647 1
961 1647 1
1111 1647 1
1115 1647 1
1150 1647 1
1157 1647 1
667 1648 1
668 1648 1
960 1648 1
962 1648 1
1112 1648 1
1116 1648 1
1151 1648 1
1158 1648 1
668 1649 1
669 1649 1
961 1649 1
963 1649 1
1113 1649 1
1117 1649 1
1152 1649 1
1159 1649 1
669 1650 1
670 1650 1
962 1650 1
964 1650 1
1114 1650 1
1118 1650 1
1153 1650 1
1160 1650 1
670 1651 1
671 1651 1
963 1651 1
965 1651 1
1115 1651 1
1119 1651 1
1154 1651 1
1161 1651 1
671 1652 1
672 1652 1
964 1652 1
966 1652 1
1116 1652 1
1120 1652 1
1155 1652 1
1162 1652 1
673 1653 1
686 1653 1
967 1653 1
979 1653 1
1121 1653 1
1131 1653 1
1149 1653 1
1157 1653 1
673 1654 1
674 1654 1
968 1654 1
980 1654 1
1122 1654 1
1132 1654 1
1150 1654 1
1158 1654 1
674 1655 1
675 1655 1
967 1655 1
969 1655 1
1123 1655 1
1133 1655 1
1151 1655 1
1159 1655 1
675 1656 1
676 1656 1
968 1656 1
970 1656 1
1124 1656 1
1134 1656 1
1152 1656 1
1160 1656 1
676 1657 1
677 1657 1
969 1657 1
971 1657 1
1121 1657 1
1125 1657 1
1153 1657 1
1161 1657 1
677 1658 1
678 1658 1
970 1658 1
972 1658 1
1122 1658 1
1126 1658 1
1154 1658 1
1162 1658 1
678 1659 1
679 1659 1
971 1659 1
973 1659 1
1123 1659 1
1127 1659 1
1149 1659 1
1155 1659 1
679 1660 1
680 1660 1
972 1660 1
974 1660 1
1124 1660 1
1128 1660 1
1150 1660 1
1156 1660 1
680 1661 1
681 1661 1
973 1661 1
975 1661 1
1125 1661 1
1129 1661 1
1151 1661 1
1157 1661 1
681 1662 1
682 1662 1
974 1662 1
976 1662 1
1126 1662 1
1130 1662 1
1152 1662 1
1158 1662 1
682 1663 1
683 1663 1
975 1663 1
977 1663 1
1127 1663 1
1131 1663 1
1153 1663 1
1159 1663 1
683 1664 1
684 1664 1
976 1664 1
978 1664 1
1128 1664 1
1132 1664 1
1154 1664 1
1160 1664 1
684 1665 1
685 1665 1
977 1665 1
979 1665 1
1129 1665 1
1133 1665 1
1155 1665 1
1161 1665 1
685 1666 1
686 1666 1
978 1666 1
980 1666 1
1130 1666 1
1134 1666 1
1156 1666 1
1162 1666 1
687 1667 1
700 1667 1
981 1667 1
993 1667 1
1135 1667 1
1145 1667 1
1149 1667 1
1158 1667 1
687 1668 1
688 1668 1
982 1668 1
994 1668 1
1136 1668 1
1146 1668 1
1150 1668 1
1159 1668 1
688 1669 1
689 1669 1
981 1669 1
983 1669 1
1137 1669 1
1147 1669 1
1151 1669 1
1160 1669 1
689 1670 1
690 1670 1
982 1670 1
984 1670 1
1138 1670 1
1148 1670 1
1152 1670 1
1161 1670 1
690 1671 1
691 1671 1
983 1671 1
985 1671 1
1135 1671 1
1139 1671 1
1153 1671 1
1162 1671 1
691 1672 1
692 1672 1
984 1672 1
986 1672 1
1136 1672 1
1140 1672 1
1149 1672 1
1154 1672 1
692 1673 1
693 1673 1
985 1673 1
987 1673 1
1137 1673 1
1141 1673 1
1150 1673 1
1155 1673 1
693 1674 1
694 1674 1
986 1674 1
988 1674 1
1138 1674 1
1142 1674 1
1151 1674 1
1156 1674 1
694 1675 1
695 1675 1
987 1675 1
989 1675 1
1139 1675 1
1143 1675 1
1152 1675 1
1157 1675 1
695 1676 1
696 1676 1
988 1676 1
990 1676 1
1140 1676 1
1144 1676 1
1153 1676 1
1158 1676 1
696 1677 1
697 1677 1
989 1677 1
991 1677 1
1141 1677 1
1145 1677 1
1154 1677 1
1159 1677 1
697 1678 1
698 1678 1
990 1678 1
992 1678 1
1142 1678 1
1146 1678 1
1155 1678 1
1160 1678 1
698 1679 1
699 1679 1
991 1679 1
993 1679 1
1143 1679 1
1147 1679 1
1156 1679 1
1161 1679 1
699 1680 1
700 1680 1
992 1680 1
994 1680 1
1144 1680 1
1148 1680 1
1157 1680 1
1162 1680 1
701 1681 1
714 1681 1
995 1681 1
1007 1681 1
1079 1681 1
1090 1681 1
1163 1681 1
1164 1681 1
701 1682 1
702 1682 1
996 1682 1
1008 1682 1
1080 1682 1
1091 1682 1
1164 1682 1
1165 1682 1
702 1683 1
703 1683 1
995 1683 1
997 1683 1
1081 1683 1
1092 1683 1
1165 1683 1
1166 1683 1
703 1684 1
704 1684 1
996 1684 1
998 1684 1
1079 1684 1
1082 1684 1
1166 1684 1
1167 1684 1
704 1685 1
705 1685 1
997 1685 1
999 1685 1
1080 1685 1
1083 1685 1
1167 1685 1
1168 1685 1
705 1686 1
706 1686 1
998 1686 1
1000 1686 1
1081 1686 1
1084 1686 1
1168 1686 1
1169 1686 1
706 1687 1
707 1687 1
999 1687 1
1001 1687 1
1082 1687 1
1085 1687 1
1169 1687 1
1170 1687 1
707 1688 1
708 1688 1
1000 1688 1
1002 1688 1
1083 1688 1
1086 1688 1
1170 1688 1
1171 1688 1
708 1689 1
709 1689 1
1001 1689 1
1003 1689 1
1084 1689 1
1087 1689 1
1171 1689 1
1172 1689 1
709 1690 1
710 1690 1
1002 1690 1
1004 1690 1
1085 1690 1
1088 1690 1
1172 1690 1
1173 1690 1
710 1691 1
711 1691 1
1003 1691 1
1005 1691 1
1086 1691 1
1089 1691 1
1173 1691 1
1174 1691 1
711 1692 1
712 1692 1
1004 1692 1
1006 1692 1
1087 1692 1
1090 1692 1
1174 1692 1
1175 1692 1
712 1693 1
713 1693 1
1005 1693 1
1007 1693 1
1088 1693 1
1091 1693 1
1175 1693 1
1176 1693 1
713 1694 1
714 1694 1
1006 1694 1
1008 1694 1
1089 1694 1
1092 1694 1
1163 1694 1
1176 1694 1
715 1695 1
728 1695 1
1009 1695 1
1021 1695 1
1093 1695 1
1104 1695 1
1163 1695 1
1168 1695 1
715 1696 1
716 1696 1
1010 1696 1
1022 1696 1
1094 1696 1
1105 1696 1
1164 1696 1
1169 1696 1
716 1697 1
717 1697 1
1009 1697 1
1011 1697 1
1095 1697 1
1106 1697 1
1165 1697 1
1170 1697 1
717 1698 1
718 1698 1
1010 1698 1
1012 1698 1
1093 1698 1
1096 1698 1
1166 1698 1
1171 1698 1
718 1699 1
719 1699 1
1011 1699 1
1013 1699 1
1094 1699 1
1097 1699 1
1167 1699 1
1172 1699 1
719 1700 1
720 1700 1
1012 1700 1
1014 1700 1
1095 1700 1
1098 1700 1
1168 1700 1
1173 1700 1
720 1701 1
721 1701 1
1013 1701 1
1015 1701 1
1096 1701 1
1099 1701 1
1169 1701 1
1174 1701 1
721 1702 1
722 1702 1
1014 1702 1
1016 1702 1
1097 1702 1
1100 1702 1
1170 1702 1
1175 1702 1
722 1703 1
723 1703 1
1015 1703 1
1017 1703 1
1098 1703 1
1101 1703 1
1171 1703 1
1176 1703 1
723 1704 1
724 1704 1
1016 1704 1
1018 1704 1
1099 1704 1
1102 1704 1
1163 1704 1
1172 1704 1
724 1705 1
725 1705 1
1017 1705 1
1019 1705 1
1100 1705 1
1103 1705 1
1164 1705 1
1173 1705 1
725 1706 1
726 1706 1
1018 1706 1
1020 1706 1
1101 1706 1
1104 1706 1
1165 1706 1
1174 1706 1
726 1707 1
727 1707 1
1019 1707 1
1021 1707 1
1102 1707 1
1105 1707 1
1166 1707 1
1175 1707 1
727 1708 1
728 1708 1
1020 1708 1
1022 1708 1
1103 1708 1
1106 1708 1
1167 1708 1
1176 1708 1
729 1709 1
742 1709 1
1023 1709 1
1035 1709 1
1107 1709 1
1118 1709 1
1163 1709 1
1170 1709 1
729 1710 1
730 1710 1
1024 1710 1
1036 1710 1
1108 1710 1
1119 1710 1
1164 1710 1
1171 1710 1
730 1711 1
731 1711 1
1023 1711 1
1025 1711 1
1109 1711 1
1120 1711 1
1165 1711 1
1172 1711 1
731 1712 1
732 1712 1
1024 1712 1
1026 1712 1
1107 1712 1
1110 1712 1
1166 1712 1
1173 1712 1
732 1713 1
733 1713 1
1025 1713 1
1027 1713 1
1108 1713 1
1111 1713 1
1167 1713 1
1174 1713 1
733 1714 1
734 1714 1
1026 1714 1
1028 1714 1
1109 1714 1
1112 1714 1
1168 1714 1
1175 1714 1
734 1715 1
735 1715 1
1027 1715 1
1029 1715 1
1110 1715 1
1113 1715 1
1169 1715 1
1176 1715 1
735 1716 1
736 1716 1
1028 1716 1
1030 1716 1
1111 1716 1
1114 1716 1
1163 1716 1
1170 1716 1
736 1717 1
737 1717 1
1029 1717 1
1031 1717 1
1112 1717 1
1115 1717 1
1164 1717 1
1171 1717 1
737 1718 1
738 1718 1
1030 1718 1
1032 1718 1
1113 1718 1
1116 1718 1
1165 1718 1
1172 1718 1
738 1719 1
739 1719 1
1031 1719 1
1033 1719 1
1114 1719 1
1117 1719 1
1166 1719 1
1173 1719 1
739 1720 1
740 1720 1
1032 1720 1
1034 1720 1
1115 1720 1
1118 1720 1
1167 1720 1
1174 1720 1
740 1721 1
741 1721 1
1033 1721 1
1035 1721 1
1116 1721 1
1119 1721 1
1168 1721 1
1175 1721 1
741 1722 1
742 1722 1
1034 1722 1
1036 1722 1
1117 1722 1
1120 1722 1
1169 1722 1
1176 1722 1
743 1723 1
756 1723 1
1037 1723 1
1049 1723 1
1121 1723 1
1132 1723 1
1163 1723 1
1171 1723 1
743 1724 1
744 1724 1
1038 1724 1
1050 1724 1
1122 1724 1
1133 1724 1
1164 1724 1
1172 1724 1
744 1725 1
745 1725 1
1037 1725 1
1039 1725 1
1123 1725 1
1134 1725 1
1165 1725 1
1173 1725 1
745 1726 1
746 1726 1
1038 1726 1
1040 1726 1
1121 1726 1
1124 1726 1
1166 1726 1
1174 1726 1
746 1727 1
747 1727 1
1039 1727 1
1041 1727 1
1122 1727 1
1125 1727 1
1167 1727 1
1175 1727 1
747 1728 1
748 1728 1
1040 1728 1
1042 1728 1
1123 1728 1
1126 1728 1
1168 1728 1
1176 1728 1
748 1729 1
749 1729 1
1041 1729 1
1043 1729 1
1124 1729 1
1127 1729 1
1163 1729 1
1169 1729 1
749 1730 1
750 1730 1
1042 1730 1
1044 1730 1
1125 1730 1
1128 1730 1
1164 1730 1
1170 1730 1
750 1731 1
751 1731 1
1043 1731 1
1045 1731 1
1126 1731 1
1129 1731 1
1165 1731 1
1171 1731 1
751 1732 1
752 1732 1
1044 1732 1
1046 1732 1
1127 1732 1
1130 1732 1
1166 1732 1
1172 1732 1
752 1733 1
753 1733 1
1045 1733 1
1047 1733 1
1128 1733 1
1131 1733 1
1167 1733 1
1173 1733 1
753 1734 1
754 1734 1
1046 1734 1
1048 1734 1
1129 1734 1
1132 1734 1
1168 1734 1
1174 1734 1
754 1735 1
755 1735 1
1047 1735 1
1049 1735 1
1130 1735 1
1133 1735 1
1169 1735 1
1175 1735 1
755 1736 1
756 1736 1
1048 1736 1
1050 1736 1
1131 1736 1
1134 1736 1
1170 1736 1
1176 1736 1
757 1737 1
770 1737 1
1051 1737 1
1063 1737 1
1135 1737 1
1146 1737 1
1163 1737 1
1172 1737 1
757 1738 1
758 1738 1
1052 1738 1
1064 1738 1
1136 1738 1
1147 1738 1
1164 1738 1
1173 1738 1
758 1739 1
759 1739 1
1051 1739 1
1053 1739 1
1137 1739 1
1148 1739 1
1165 1739 1
1174 1739 1
759 1740 1
760 1740 1
1052 1740 1
1054 1740 1
1135 1740 1
1138 1740 1
1166 1740 1
1175 1740 1
760 1741 1
761 1741 1
1053 1741 1
1055 1741 1
1136 1741 1
1139 1741 1
1167 1741 1
1176 1741 1
761 1742 1
762 1742 1
1054 1742 1
1056 1742 1
1137 1742 1
1140 1742 1
1163 1742 1
1168 1742 1
762 1743 1
763 1743 1
1055 1743 1
1057 1743 1
1138 1743 1
1141 1743 1
1164 1743 1
1169 1743 1
763 1744 1
764 1744 1
1056 1744 1
1058 1744 1
1139 1744 1
1142 1744 1
1165 1744 1
1170 1744 1
764 1745 1
765 1745 1
1057 1745 1
1059 1745 1
1140 1745 1
1143 1745 1
1166 1745 1
1171 1745 1
765 1746 1
766 1746 1
1058 1746 1
1060 1746 1
1141 1746 1
1144 1746 1
1167 1746 1
1172 1746 1
766 1747 1
767 1747 1
1059 1747 1
1061 1747 1
1142 1747 1
1145 1747 1
1168 1747 1
1173 1747 1
767 1748 1
768 1748 1
1060 1748 1
1062 1748 1
1143 1748 1
1146 1748 1
1169 1748 1
1174 1748 1
768 1749 1
769 1749 1
1061 1749 1
1063 1749 1
1144 1749 1
1147 1749 1
1170 1749 1
1175 1749 1
769 1750 1
770 1750 1
1062 1750 1
1064 1750 1
1145 1750 1
1148 1750 1
1171 1750 1
1176 1750 1
771 1751 1
784 1751 1
1065 1751 1
1077 1751 1
1149 1751 1
1160 1751 1
1163 1751 1
1173 1751 1
771 1752 1
772 1752 1
1066 1752 1
1078 1752 1
1150 1752 1
1161 1752 1
1164 1752 1
1174 1752 1
772 1753 1
773 1753 1
1065 1753 1
1067 1753 1
1151 1753 1
1162 1753 1
1165 1753 1
1175 1753 1
773 1754 1
774 1754 1
1066 1754 1
1068 1754 1
1149 1754 1
1152 1754 1
1166 1754 1
1176 1754 1
774 1755 1
775 1755 1
1067 1755 1
1069 1755 1
1150 1755 1
1153 1755 1
1163 1755 1
1167 1755 1
775 1756 1
776 1756 1
1068 1756 1
1070 1756 1
1151 1756 1
1154 1756 1
1164 1756 1
1168 1756 1
776 1757 1
777 1757 1
1069 1757 1
1071 1757 1
1152 1757 1
1155 1757 1
1165 1757 1
1169 1757 1
777 1758 1
778 1758 1
1070 1758 1
1072 1758 1
1153 1758 1
1156 1758 1
1166 1758 1
1170 1758 1
778 1759 1
779 1759 1
1071 1759 1
1073 1759 1
1154 1759 1
1157 1759 1
1167 1759 1
1171 1759 1
779 1760 1
780 1760 1
1072 1760 1
1074 1760 1
1155 1760 1
1158 1760 1
1168 1760 1
1172 1760 1
780 1761 1
781 1761 1
1073 1761 1
1075 1761 1
1156 1761 1
1159 1761 1
1169 1761 1
1173 1761 1
781 1762 1
782 1762 1
1074 1762 1
1076 1762 1
1157 1762 1
1160 1762 1
1170 1762 1
1174 1762 1
782 1763 1
783 1763 1
1075 1763 1
1077 1763 1
1158 1763 1
1161 1763 1
1171 1763 1
1175 1763 1
783 1764 1
784 1764 1
1076 1764 1
1078 1764 1
1159 1764 1
1162 1764 1
1172 1764 1
1176 1764 1
