%%MatrixMarket matrix coordinate integer general
% Binary matrix; one-based indices; arithmetic over GF(2)
1764 1764 17640
1 1 1
6 1 1
15 1 1
19 1 1
85 1 1
88 1 1
295 1 1
297 1 1
785 1 1
786 1 1
2 2 1
7 2 1
16 2 1
20 2 1
86 2 1
89 2 1
296 2 1
298 2 1
786 2 1
787 2 1
3 3 1
8 3 1
17 3 1
21 3 1
87 3 1
90 3 1
297 3 1
299 3 1
787 3 1
788 3 1
4 4 1
9 4 1
18 4 1
22 4 1
88 4 1
91 4 1
298 4 1
300 4 1
788 4 1
789 4 1
5 5 1
10 5 1
19 5 1
23 5 1
89 5 1
92 5 1
299 5 1
301 5 1
789 5 1
790 5 1
6 6 1
11 6 1
20 6 1
24 6 1
90 6 1
93 6 1
300 6 1
302 6 1
790 6 1
791 6 1
7 7 1
12 7 1
21 7 1
25 7 1
91 7 1
94 7 1
301 7 1
303 7 1
791 7 1
792 7 1
8 8 1
13 8 1
22 8 1
26 8 1
92 8 1
95 8 1
302 8 1
304 8 1
792 8 1
793 8 1
9 9 1
14 9 1
23 9 1
27 9 1
93 9 1
96 9 1
303 9 1
305 9 1
793 9 1
794 9 1
1 10 1
10 10 1
24 10 1
28 10 1
94 10 1
97 10 1
304 10 1
306 10 1
794 10 1
795 10 1
2 11 1
11 11 1
15 11 1
25 11 1
95 11 1
98 11 1
305 11 1
307 11 1
795 11 1
796 11 1
3 12 1
12 12 1
16 12 1
26 12 1
85 12 1
96 12 1
306 12 1
308 12 1
796 12 1
797 12 1
4 13 1
13 13 1
17 13 1
27 13 1
86 13 1
97 13 1
295 13 1
307 13 1
797 13 1
798 13 1
5 14 1
14 14 1
18 14 1
28 14 1
87 14 1
98 14 1
296 14 1
308 14 1
785 14 1
798 14 1
1 15 1
7 15 1
29 15 1
33 15 1
99 15 1
102 15 1
309 15 1
311 15 1
799 15 1
800 15 1
2 16 1
8 16 1
30 16 1
34 16 1
100 16 1
103 16 1
310 16 1
312 16 1
800 16 1
801 16 1
3 17 1
9 17 1
31 17 1
35 17 1
101 17 1
104 17 1
311 17 1
313 17 1
801 17 1
802 17 1
4 18 1
10 18 1
32 18 1
36 18 1
102 18 1
105 18 1
312 18 1
314 18 1
802 18 1
803 18 1
5 19 1
11 19 1
33 19 1
37 19 1
103 19 1
106 19 1
313 19 1
315 19 1
803 19 1
804 19 1
6 20 1
12 20 1
34 20 1
38 20 1
104 20 1
107 20 1
314 20 1
316 20 1
804 20 1
805 20 1
7 21 1
13 21 1
35 21 1
39 21 1
105 21 1
108 21 1
315 21 1
317 21 1
805 21 1
806 21 1
8 22 1
14 22 1
36 22 1
40 22 1
106 22 1
109 22 1
316 22 1
318 22 1
806 22 1
807 22 1
1 23 1
9 23 1
37 23 1
41 23 1
107 23 1
110 23 1
317 23 1
319 23 1
807 23 1
808 23 1
2 24 1
10 24 1
38 24 1
42 24 1
108 24 1
111 24 1
318 24 1
320 24 1
808 24 1
809 24 1
3 25 1
11 25 1
29 25 1
39 25 1
109 25 1
112 25 1
319 25 1
321 25 1
809 25 1
810 25 1
4 26 1
12 26 1
30 26 1
40 26 1
99 26 1
110 26 1
320 26 1
322 26 1
810 26 1
811 26 1
5 27 1
13 27 1
31 27 1
41 27 1
100 27 1
111 27 1
309 27 1
321 27 1
811 27 1
812 27 1
6 28 1
14 28 1
32 28 1
42 28 1
101 28 1
112 28 1
310 28 1
322 28 1
799 28 1
812 28 1
1 29 1
8 29 1
43 29 1
47 29 1
113 29 1
116 29 1
323 29 1
325 29 1
813 29 1
814 29 1
2 30 1
9 30 1
44 30 1
48 30 1
114 30 1
117 30 1
324 30 1
326 30 1
814 30 1
815 30 1
3 31 1
10 31 1
45 31 1
49 31 1
115 31 1
118 31 1
325 31 1
327 31 1
815 31 1
816 31 1
4 32 1
11 32 1
46 32 1
50 32 1
116 32 1
119 32 1
326 32 1
328 32 1
816 32 1
817 32 1
5 33 1
12 33 1
47 33 1
51 33 1
117 33 1
120 33 1
327 33 1
329 33 1
817 33 1
818 33 1
6 34 1
13 34 1
48 34 1
52 34 1
118 34 1
121 34 1
328 34 1
330 34 1
818 34 1
819 34 1
7 35 1
14 35 1
49 35 1
53 35 1
119 35 1
122 35 1
329 35 1
331 35 1
819 35 1
820 35 1
1 36 1
8 36 1
50 36 1
54 36 1
120 36 1
123 36 1
330 36 1
332 36 1
820 36 1
821 36 1
2 37 1
9 37 1
51 37 1
55 37 1
121 37 1
124 37 1
331 37 1
333 37 1
821 37 1
822 37 1
3 38 1
10 38 1
52 38 1
56 38 1
122 38 1
125 38 1
332 38 1
334 38 1
822 38 1
823 38 1
4 39 1
11 39 1
43 39 1
53 39 1
123 39 1
126 39 1
333 39 1
335 39 1
823 39 1
824 39 1
5 40 1
12 40 1
44 40 1
54 40 1
113 40 1
124 40 1
334 40 1
336 40 1
824 40 1
825 40 1
6 41 1
13 41 1
45 41 1
55 41 1
114 41 1
125 41 1
323 41 1
335 41 1
825 41 1
826 41 1
7 42 1
14 42 1
46 42 1
56 42 1
115 42 1
126 42 1
324 42 1
336 42 1
813 42 1
826 42 1
1 43 1
10 43 1
57 43 1
61 43 1
127 43 1
130 43 1
337 43 1
339 43 1
827 43 1
828 43 1
2 44 1
11 44 1
58 44 1
62 44 1
128 44 1
131 44 1
338 44 1
340 44 1
828 44 1
829 44 1
3 45 1
12 45 1
59 45 1
63 45 1
129 45 1
132 45 1
339 45 1
341 45 1
829 45 1
830 45 1
4 46 1
13 46 1
60 46 1
64 46 1
130 46 1
133 46 1
340 46 1
342 46 1
830 46 1
831 46 1
5 47 1
14 47 1
61 47 1
65 47 1
131 47 1
134 47 1
341 47 1
343 47 1
831 47 1
832 47 1
1 48 1
6 48 1
62 48 1
66 48 1
132 48 1
135 48 1
342 48 1
344 48 1
832 48 1
833 48 1
2 49 1
7 49 1
63 49 1
67 49 1
133 49 1
136 49 1
343 49 1
345 49 1
833 49 1
834 49 1
3 50 1
8 50 1
64 50 1
68 50 1
134 50 1
137 50 1
344 50 1
346 50 1
834 50 1
835 50 1
4 51 1
9 51 1
65 51 1
69 51 1
135 51 1
138 51 1
345 51 1
347 51 1
835 51 1
836 51 1
5 52 1
10 52 1
66 52 1
70 52 1
136 52 1
139 52 1
346 52 1
348 52 1
836 52 1
837 52 1
6 53 1
11 53 1
57 53 1
67 53 1
137 53 1
140 53 1
347 53 1
349 53 1
837 53 1
838 53 1
7 54 1
12 54 1
58 54 1
68 54 1
127 54 1
138 54 1
348 54 1
350 54 1
838 54 1
839 54 1
8 55 1
13 55 1
59 55 1
69 55 1
128 55 1
139 55 1
337 55 1
349 55 1
839 55 1
840 55 1
9 56 1
14 56 1
60 56 1
70 56 1
129 56 1
140 56 1
338 56 1
350 56 1
827 56 1
840 56 1
1 57 1
14 57 1
71 57 1
75 57 1
141 57 1
144 57 1
351 57 1
353 57 1
841 57 1
842 57 1
1 58 1
2 58 1
72 58 1
76 58 1
142 58 1
145 58 1
352 58 1
354 58 1
842 58 1
843 58 1
2 59 1
3 59 1
73 59 1
77 59 1
143 59 1
146 59 1
353 59 1
355 59 1
843 59 1
844 59 1
3 60 1
4 60 1
74 60 1
78 60 1
144 60 1
147 60 1
354 60 1
356 60 1
844 60 1
845 60 1
4 61 1
5 61 1
75 61 1
79 61 1
145 61 1
148 61 1
355 61 1
357 61 1
845 61 1
846 61 1
5 62 1
6 62 1
76 62 1
80 62 1
146 62 1
149 62 1
356 62 1
358 62 1
846 62 1
847 62 1
6 63 1
7 63 1
77 63 1
81 63 1
147 63 1
150 63 1
357 63 1
359 63 1
847 63 1
848 63 1
7 64 1
8 64 1
78 64 1
82 64 1
148 64 1
151 64 1
358 64 1
360 64 1
848 64 1
849 64 1
8 65 1
9 65 1
79 65 1
83 65 1
149 65 1
152 65 1
359 65 1
361 65 1
849 65 1
850 65 1
9 66 1
10 66 1
80 66 1
84 66 1
150 66 1
153 66 1
360 66 1
362 66 1
850 66 1
851 66 1
10 67 1
11 67 1
71 67 1
81 67 1
151 67 1
154 67 1
361 67 1
363 67 1
851 67 1
852 67 1
11 68 1
12 68 1
72 68 1
82 68 1
141 68 1
152 68 1
362 68 1
364 68 1
852 68 1
853 68 1
12 69 1
13 69 1
73 69 1
83 69 1
142 69 1
153 69 1
351 69 1
363 69 1
853 69 1
854 69 1
13 70 1
14 70 1
74 70 1
84 70 1
143 70 1
154 70 1
352 70 1
364 70 1
841 70 1
854 70 1
15 71 1
21 71 1
29 71 1
34 71 1
155 71 1
158 71 1
365 71 1
367 71 1
855 71 1
856 71 1
16 72 1
22 72 1
30 72 1
35 72 1
156 72 1
159 72 1
366 72 1
368 72 1
856 72 1
857 72 1
17 73 1
23 73 1
31 73 1
36 73 1
157 73 1
160 73 1
367 73 1
369 73 1
857 73 1
858 73 1
18 74 1
24 74 1
32 74 1
37 74 1
158 74 1
161 74 1
368 74 1
370 74 1
858 74 1
859 74 1
19 75 1
25 75 1
33 75 1
38 75 1
159 75 1
162 75 1
369 75 1
371 75 1
859 75 1
860 75 1
20 76 1
26 76 1
34 76 1
39 76 1
160 76 1
163 76 1
370 76 1
372 76 1
860 76 1
861 76 1
21 77 1
27 77 1
35 77 1
40 77 1
161 77 1
164 77 1
371 77 1
373 77 1
861 77 1
862 77 1
22 78 1
28 78 1
36 78 1
41 78 1
162 78 1
165 78 1
372 78 1
374 78 1
862 78 1
863 78 1
15 79 1
23 79 1
37 79 1
42 79 1
163 79 1
166 79 1
373 79 1
375 79 1
863 79 1
864 79 1
16 80 1
24 80 1
29 80 1
38 80 1
164 80 1
167 80 1
374 80 1
376 80 1
864 80 1
865 80 1
17 81 1
25 81 1
30 81 1
39 81 1
165 81 1
168 81 1
375 81 1
377 81 1
865 81 1
866 81 1
18 82 1
26 82 1
31 82 1
40 82 1
155 82 1
166 82 1
376 82 1
378 82 1
866 82 1
867 82 1
19 83 1
27 83 1
32 83 1
41 83 1
156 83 1
167 83 1
365 83 1
377 83 1
867 83 1
868 83 1
20 84 1
28 84 1
33 84 1
42 84 1
157 84 1
168 84 1
366 84 1
378 84 1
855 84 1
868 84 1
15 85 1
22 85 1
43 85 1
48 85 1
169 85 1
172 85 1
379 85 1
381 85 1
869 85 1
870 85 1
16 86 1
23 86 1
44 86 1
49 86 1
170 86 1
173 86 1
380 86 1
382 86 1
870 86 1
871 86 1
17 87 1
24 87 1
45 87 1
50 87 1
171 87 1
174 87 1
381 87 1
383 87 1
871 87 1
872 87 1
18 88 1
25 88 1
46 88 1
51 88 1
172 88 1
175 88 1
382 88 1
384 88 1
872 88 1
873 88 1
19 89 1
26 89 1
47 89 1
52 89 1
173 89 1
176 89 1
383 89 1
385 89 1
873 89 1
874 89 1
20 90 1
27 90 1
48 90 1
53 90 1
174 90 1
177 90 1
384 90 1
386 90 1
874 90 1
875 90 1
21 91 1
28 91 1
49 91 1
54 91 1
175 91 1
178 91 1
385 91 1
387 91 1
875 91 1
876 91 1
15 92 1
22 92 1
50 92 1
55 92 1
176 92 1
179 92 1
386 92 1
388 92 1
876 92 1
877 92 1
16 93 1
23 93 1
51 93 1
56 93 1
177 93 1
180 93 1
387 93 1
389 93 1
877 93 1
878 93 1
17 94 1
24 94 1
43 94 1
52 94 1
178 94 1
181 94 1
388 94 1
390 94 1
878 94 1
879 94 1
18 95 1
25 95 1
44 95 1
53 95 1
179 95 1
182 95 1
389 95 1
391 95 1
879 95 1
880 95 1
19 96 1
26 96 1
45 96 1
54 96 1
169 96 1
180 96 1
390 96 1
392 96 1
880 96 1
881 96 1
20 97 1
27 97 1
46 97 1
55 97 1
170 97 1
181 97 1
379 97 1
391 97 1
881 97 1
882 97 1
21 98 1
28 98 1
47 98 1
56 98 1
171 98 1
182 98 1
380 98 1
392 98 1
869 98 1
882 98 1
15 99 1
24 99 1
57 99 1
62 99 1
183 99 1
186 99 1
393 99 1
395 99 1
883 99 1
884 99 1
16 100 1
25 100 1
58 100 1
63 100 1
184 100 1
187 100 1
394 100 1
396 100 1
884 100 1
885 100 1
17 101 1
26 101 1
59 101 1
64 101 1
185 101 1
188 101 1
395 101 1
397 101 1
885 101 1
886 101 1
18 102 1
27 102 1
60 102 1
65 102 1
186 102 1
189 102 1
396 102 1
398 102 1
886 102 1
887 102 1
19 103 1
28 103 1
61 103 1
66 103 1
187 103 1
190 103 1
397 103 1
399 103 1
887 103 1
888 103 1
15 104 1
20 104 1
62 104 1
67 104 1
188 104 1
191 104 1
398 104 1
400 104 1
888 104 1
889 104 1
16 105 1
21 105 1
63 105 1
68 105 1
189 105 1
192 105 1
399 105 1
401 105 1
889 105 1
890 105 1
17 106 1
22 106 1
64 106 1
69 106 1
190 106 1
193 106 1
400 106 1
402 106 1
890 106 1
891 106 1
18 107 1
23 107 1
65 107 1
70 107 1
191 107 1
194 107 1
401 107 1
403 107 1
891 107 1
892 107 1
19 108 1
24 108 1
57 108 1
66 108 1
192 108 1
195 108 1
402 108 1
404 108 1
892 108 1
893 108 1
20 109 1
25 109 1
58 109 1
67 109 1
193 109 1
196 109 1
403 109 1
405 109 1
893 109 1
894 109 1
21 110 1
26 110 1
59 110 1
68 110 1
183 110 1
194 110 1
404 110 1
406 110 1
894 110 1
895 110 1
22 111 1
27 111 1
60 111 1
69 111 1
184 111 1
195 111 1
393 111 1
405 111 1
895 111 1
896 111 1
23 112 1
28 112 1
61 112 1
70 112 1
185 112 1
196 112 1
394 112 1
406 112 1
883 112 1
896 112 1
15 113 1
28 113 1
71 113 1
76 113 1
197 113 1
200 113 1
407 113 1
409 113 1
897 113 1
898 113 1
15 114 1
16 114 1
72 114 1
77 114 1
198 114 1
201 114 1
408 114 1
410 114 1
898 114 1
899 114 1
16 115 1
17 115 1
73 115 1
78 115 1
199 115 1
202 115 1
409 115 1
411 115 1
899 115 1
900 115 1
17 116 1
18 116 1
74 116 1
79 116 1
200 116 1
203 116 1
410 116 1
412 116 1
900 116 1
901 116 1
18 117 1
19 117 1
75 117 1
80 117 1
201 117 1
204 117 1
411 117 1
413 117 1
901 117 1
902 117 1
19 118 1
20 118 1
76 118 1
81 118 1
202 118 1
205 118 1
412 118 1
414 118 1
902 118 1
903 118 1
20 119 1
21 119 1
77 119 1
82 119 1
203 119 1
206 119 1
413 119 1
415 119 1
903 119 1
904 119 1
21 120 1
22 120 1
78 120 1
83 120 1
204 120 1
207 120 1
414 120 1
416 120 1
904 120 1
905 120 1
22 121 1
23 121 1
79 121 1
84 121 1
205 121 1
208 121 1
415 121 1
417 121 1
905 121 1
906 121 1
23 122 1
24 122 1
71 122 1
80 122 1
206 122 1
209 122 1
416 122 1
418 122 1
906 122 1
907 122 1
24 123 1
25 123 1
72 123 1
81 123 1
207 123 1
210 123 1
417 123 1
419 123 1
907 123 1
908 123 1
25 124 1
26 124 1
73 124 1
82 124 1
197 124 1
208 124 1
418 124 1
420 124 1
908 124 1
909 124 1
26 125 1
27 125 1
74 125 1
83 125 1
198 125 1
209 125 1
407 125 1
419 125 1
909 125 1
910 125 1
27 126 1
28 126 1
75 126 1
84 126 1
199 126 1
210 126 1
408 126 1
420 126 1
897 126 1
910 126 1
29 127 1
36 127 1
43 127 1
49 127 1
211 127 1
214 127 1
421 127 1
423 127 1
911 127 1
912 127 1
30 128 1
37 128 1
44 128 1
50 128 1
212 128 1
215 128 1
422 128 1
424 128 1
912 128 1
913 128 1
31 129 1
38 129 1
45 129 1
51 129 1
213 129 1
216 129 1
423 129 1
425 129 1
913 129 1
914 129 1
32 130 1
39 130 1
46 130 1
52 130 1
214 130 1
217 130 1
424 130 1
426 130 1
914 130 1
915 130 1
33 131 1
40 131 1
47 131 1
53 131 1
215 131 1
218 131 1
425 131 1
427 131 1
915 131 1
916 131 1
34 132 1
41 132 1
48 132 1
54 132 1
216 132 1
219 132 1
426 132 1
428 132 1
916 132 1
917 132 1
35 133 1
42 133 1
49 133 1
55 133 1
217 133 1
220 133 1
427 133 1
429 133 1
917 133 1
918 133 1
29 134 1
36 134 1
50 134 1
56 134 1
218 134 1
221 134 1
428 134 1
430 134 1
918 134 1
919 134 1
30 135 1
37 135 1
43 135 1
51 135 1
219 135 1
222 135 1
429 135 1
431 135 1
919 135 1
920 135 1
31 136 1
38 136 1
44 136 1
52 136 1
220 136 1
223 136 1
430 136 1
432 136 1
920 136 1
921 136 1
32 137 1
39 137 1
45 137 1
53 137 1
221 137 1
224 137 1
431 137 1
433 137 1
921 137 1
922 137 1
33 138 1
40 138 1
46 138 1
54 138 1
211 138 1
222 138 1
432 138 1
434 138 1
922 138 1
923 138 1
34 139 1
41 139 1
47 139 1
55 139 1
212 139 1
223 139 1
421 139 1
433 139 1
923 139 1
924 139 1
35 140 1
42 140 1
48 140 1
56 140 1
213 140 1
224 140 1
422 140 1
434 140 1
911 140 1
924 140 1
29 141 1
38 141 1
57 141 1
63 141 1
225 141 1
228 141 1
435 141 1
437 141 1
925 141 1
926 141 1
30 142 1
39 142 1
58 142 1
64 142 1
226 142 1
229 142 1
436 142 1
438 142 1
926 142 1
927 142 1
31 143 1
40 143 1
59 143 1
65 143 1
227 143 1
230 143 1
437 143 1
439 143 1
927 143 1
928 143 1
32 144 1
41 144 1
60 144 1
66 144 1
228 144 1
231 144 1
438 144 1
440 144 1
928 144 1
929 144 1
33 145 1
42 145 1
61 145 1
67 145 1
229 145 1
232 145 1
439 145 1
441 145 1
929 145 1
930 145 1
29 146 1
34 146 1
62 146 1
68 146 1
230 146 1
233 146 1
440 146 1
442 146 1
930 146 1
931 146 1
30 147 1
35 147 1
63 147 1
69 147 1
231 147 1
234 147 1
441 147 1
443 147 1
931 147 1
932 147 1
31 148 1
36 148 1
64 148 1
70 148 1
232 148 1
235 148 1
442 148 1
444 148 1
932 148 1
933 148 1
32 149 1
37 149 1
57 149 1
65 149 1
233 149 1
236 149 1
443 149 1
445 149 1
933 149 1
934 149 1
33 150 1
38 150 1
58 150 1
66 150 1
234 150 1
237 150 1
444 150 1
446 150 1
934 150 1
935 150 1
34 151 1
39 151 1
59 151 1
67 151 1
235 151 1
238 151 1
445 151 1
447 151 1
935 151 1
936 151 1
35 152 1
40 152 1
60 152 1
68 152 1
225 152 1
236 152 1
446 152 1
448 152 1
936 152 1
937 152 1
36 153 1
41 153 1
61 153 1
69 153 1
226 153 1
237 153 1
435 153 1
447 153 1
937 153 1
938 153 1
37 154 1
42 154 1
62 154 1
70 154 1
227 154 1
238 154 1
436 154 1
448 154 1
925 154 1
938 154 1
29 155 1
42 155 1
71 155 1
77 155 1
239 155 1
242 155 1
449 155 1
451 155 1
939 155 1
940 155 1
29 156 1
30 156 1
72 156 1
78 156 1
240 156 1
243 156 1
450 156 1
452 156 1
940 156 1
941 156 1
30 157 1
31 157 1
73 157 1
79 157 1
241 157 1
244 157 1
451 157 1
453 157 1
941 157 1
942 157 1
31 158 1
32 158 1
74 158 1
80 158 1
242 158 1
245 158 1
452 158 1
454 158 1
942 158 1
943 158 1
32 159 1
33 159 1
75 159 1
81 159 1
243 159 1
246 159 1
453 159 1
455 159 1
943 159 1
944 159 1
33 160 1
34 160 1
76 160 1
82 160 1
244 160 1
247 160 1
454 160 1
456 160 1
944 160 1
945 160 1
34 161 1
35 161 1
77 161 1
83 161 1
245 161 1
248 161 1
455 161 1
457 161 1
945 161 1
946 161 1
35 162 1
36 162 1
78 162 1
84 162 1
246 162 1
249 162 1
456 162 1
458 162 1
946 162 1
947 162 1
36 163 1
37 163 1
71 163 1
79 163 1
247 163 1
250 163 1
457 163 1
459 163 1
947 163 1
948 163 1
37 164 1
38 164 1
72 164 1
80 164 1
248 164 1
251 164 1
458 164 1
460 164 1
948 164 1
949 164 1
38 165 1
39 165 1
73 165 1
81 165 1
249 165 1
252 165 1
459 165 1
461 165 1
949 165 1
950 165 1
39 166 1
40 166 1
74 166 1
82 166 1
239 166 1
250 166 1
460 166 1
462 166 1
950 166 1
951 166 1
40 167 1
41 167 1
75 167 1
83 167 1
240 167 1
251 167 1
449 167 1
461 167 1
951 167 1
952 167 1
41 168 1
42 168 1
76 168 1
84 168 1
241 168 1
252 168 1
450 168 1
462 168 1
939 168 1
952 168 1
43 169 1
52 169 1
57 169 1
64 169 1
253 169 1
256 169 1
463 169 1
465 169 1
953 169 1
954 169 1
44 170 1
53 170 1
58 170 1
65 170 1
254 170 1
257 170 1
464 170 1
466 170 1
954 170 1
955 170 1
45 171 1
54 171 1
59 171 1
66 171 1
255 171 1
258 171 1
465 171 1
467 171 1
955 171 1
956 171 1
46 172 1
55 172 1
60 172 1
67 172 1
256 172 1
259 172 1
466 172 1
468 172 1
956 172 1
957 172 1
47 173 1
56 173 1
61 173 1
68 173 1
257 173 1
260 173 1
467 173 1
469 173 1
957 173 1
958 173 1
43 174 1
48 174 1
62 174 1
69 174 1
258 174 1
261 174 1
468 174 1
470 174 1
958 174 1
959 174 1
44 175 1
49 175 1
63 175 1
70 175 1
259 175 1
262 175 1
469 175 1
471 175 1
959 175 1
960 175 1
45 176 1
50 176 1
57 176 1
64 176 1
260 176 1
263 176 1
470 176 1
472 176 1
960 176 1
961 176 1
46 177 1
51 177 1
58 177 1
65 177 1
261 177 1
264 177 1
471 177 1
473 177 1
961 177 1
962 177 1
47 178 1
52 178 1
59 178 1
66 178 1
262 178 1
265 178 1
472 178 1
474 178 1
962 178 1
963 178 1
48 179 1
53 179 1
60 179 1
67 179 1
263 179 1
266 179 1
473 179 1
475 179 1
963 179 1
964 179 1
49 180 1
54 180 1
61 180 1
68 180 1
253 180 1
264 180 1
474 180 1
476 180 1
964 180 1
965 180 1
50 181 1
55 181 1
62 181 1
69 181 1
254 181 1
265 181 1
463 181 1
475 181 1
965 181 1
966 181 1
51 182 1
56 182 1
63 182 1
70 182 1
255 182 1
266 182 1
464 182 1
476 182 1
953 182 1
966 182 1
43 183 1
56 183 1
71 183 1
78 183 1
267 183 1
270 183 1
477 183 1
479 183 1
967 183 1
968 183 1
43 184 1
44 184 1
72 184 1
79 184 1
268 184 1
271 184 1
478 184 1
480 184 1
968 184 1
969 184 1
44 185 1
45 185 1
73 185 1
80 185 1
269 185 1
272 185 1
479 185 1
481 185 1
969 185 1
970 185 1
45 186 1
46 186 1
74 186 1
81 186 1
270 186 1
273 186 1
480 186 1
482 186 1
970 186 1
971 186 1
46 187 1
47 187 1
75 187 1
82 187 1
271 187 1
274 187 1
481 187 1
483 187 1
971 187 1
972 187 1
47 188 1
48 188 1
76 188 1
83 188 1
272 188 1
275 188 1
482 188 1
484 188 1
972 188 1
973 188 1
48 189 1
49 189 1
77 189 1
84 189 1
273 189 1
276 189 1
483 189 1
485 189 1
973 189 1
974 189 1
49 190 1
50 190 1
71 190 1
78 190 1
274 190 1
277 190 1
484 190 1
486 190 1
974 190 1
975 190 1
50 191 1
51 191 1
72 191 1
79 191 1
275 191 1
278 191 1
485 191 1
487 191 1
975 191 1
976 191 1
51 192 1
52 192 1
73 192 1
80 192 1
276 192 1
279 192 1
486 192 1
488 192 1
976 192 1
977 192 1
52 193 1
53 193 1
74 193 1
81 193 1
277 193 1
280 193 1
487 193 1
489 193 1
977 193 1
978 193 1
53 194 1
54 194 1
75 194 1
82 194 1
267 194 1
278 194 1
488 194 1
490 194 1
978 194 1
979 194 1
54 195 1
55 195 1
76 195 1
83 195 1
268 195 1
279 195 1
477 195 1
489 195 1
979 195 1
980 195 1
55 196 1
56 196 1
77 196 1
84 196 1
269 196 1
280 196 1
478 196 1
490 196 1
967 196 1
980 196 1
57 197 1
70 197 1
71 197 1
80 197 1
281 197 1
284 197 1
491 197 1
493 197 1
981 197 1
982 197 1
57 198 1
58 198 1
72 198 1
81 198 1
282 198 1
285 198 1
492 198 1
494 198 1
982 198 1
983 198 1
58 199 1
59 199 1
73 199 1
82 199 1
283 199 1
286 199 1
493 199 1
495 199 1
983 199 1
984 199 1
59 200 1
60 200 1
74 200 1
83 200 1
284 200 1
287 200 1
494 200 1
496 200 1
984 200 1
985 200 1
60 201 1
61 201 1
75 201 1
84 201 1
285 201 1
288 201 1
495 201 1
497 201 1
985 201 1
986 201 1
61 202 1
62 202 1
71 202 1
76 202 1
286 202 1
289 202 1
496 202 1
498 202 1
986 202 1
987 202 1
62 203 1
63 203 1
72 203 1
77 203 1
287 203 1
290 203 1
497 203 1
499 203 1
987 203 1
988 203 1
63 204 1
64 204 1
73 204 1
78 204 1
288 204 1
291 204 1
498 204 1
500 204 1
988 204 1
989 204 1
64 205 1
65 205 1
74 205 1
79 205 1
289 205 1
292 205 1
499 205 1
501 205 1
989 205 1
990 205 1
65 206 1
66 206 1
75 206 1
80 206 1
290 206 1
293 206 1
500 206 1
502 206 1
990 206 1
991 206 1
66 207 1
67 207 1
76 207 1
81 207 1
291 207 1
294 207 1
501 207 1
503 207 1
991 207 1
992 207 1
67 208 1
68 208 1
77 208 1
82 208 1
281 208 1
292 208 1
502 208 1
504 208 1
992 208 1
993 208 1
68 209 1
69 209 1
78 209 1
83 209 1
282 209 1
293 209 1
491 209 1
503 209 1
993 209 1
994 209 1
69 210 1
70 210 1
79 210 1
84 210 1
283 210 1
294 210 1
492 210 1
504 210 1
981 210 1
994 210 1
85 211 1
91 211 1
99 211 1
104 211 1
155 211 1
159 211 1
505 211 1
507 211 1
995 211 1
996 211 1
86 212 1
92 212 1
100 212 1
105 212 1
156 212 1
160 212 1
506 212 1
508 212 1
996 212 1
997 212 1
87 213 1
93 213 1
101 213 1
106 213 1
157 213 1
161 213 1
507 213 1
509 213 1
997 213 1
998 213 1
88 214 1
94 214 1
102 214 1
107 214 1
158 214 1
162 214 1
508 214 1
510 214 1
998 214 1
999 214 1
89 215 1
95 215 1
103 215 1
108 215 1
159 215 1
163 215 1
509 215 1
511 215 1
999 215 1
1000 215 1
90 216 1
96 216 1
104 216 1
109 216 1
160 216 1
164 216 1
510 216 1
512 216 1
1000 216 1
1001 216 1
91 217 1
97 217 1
105 217 1
110 217 1
161 217 1
165 217 1
511 217 1
513 217 1
1001 217 1
1002 217 1
92 218 1
98 218 1
106 218 1
111 218 1
162 218 1
166 218 1
512 218 1
514 218 1
1002 218 1
1003 218 1
85 219 1
93 219 1
107 219 1
112 219 1
163 219 1
167 219 1
513 219 1
515 219 1
1003 219 1
1004 219 1
86 220 1
94 220 1
99 220 1
108 220 1
164 220 1
168 220 1
514 220 1
516 220 1
1004 220 1
1005 220 1
87 221 1
95 221 1
100 221 1
109 221 1
155 221 1
165 221 1
515 221 1
517 221 1
1005 221 1
1006 221 1
88 222 1
96 222 1
101 222 1
110 222 1
156 222 1
166 222 1
516 222 1
518 222 1
1006 222 1
1007 222 1
89 223 1
97 223 1
102 223 1
111 223 1
157 223 1
167 223 1
505 223 1
517 223 1
1007 223 1
1008 223 1
90 224 1
98 224 1
103 224 1
112 224 1
158 224 1
168 224 1
506 224 1
518 224 1
995 224 1
1008 224 1
85 225 1
92 225 1
113 225 1
118 225 1
169 225 1
173 225 1
519 225 1
521 225 1
1009 225 1
1010 225 1
86 226 1
93 226 1
114 226 1
119 226 1
170 226 1
174 226 1
520 226 1
522 226 1
1010 226 1
1011 226 1
87 227 1
94 227 1
115 227 1
120 227 1
171 227 1
175 227 1
521 227 1
523 227 1
1011 227 1
1012 227 1
88 228 1
95 228 1
116 228 1
121 228 1
172 228 1
176 228 1
522 228 1
524 228 1
1012 228 1
1013 228 1
89 229 1
96 229 1
117 229 1
122 229 1
173 229 1
177 229 1
523 229 1
525 229 1
1013 229 1
1014 229 1
90 230 1
97 230 1
118 230 1
123 230 1
174 230 1
178 230 1
524 230 1
526 230 1
1014 230 1
1015 230 1
91 231 1
98 231 1
119 231 1
124 231 1
175 231 1
179 231 1
525 231 1
527 231 1
1015 231 1
1016 231 1
85 232 1
92 232 1
120 232 1
125 232 1
176 232 1
180 232 1
526 232 1
528 232 1
1016 232 1
1017 232 1
86 233 1
93 233 1
121 233 1
126 233 1
177 233 1
181 233 1
527 233 1
529 233 1
1017 233 1
1018 233 1
87 234 1
94 234 1
113 234 1
122 234 1
178 234 1
182 234 1
528 234 1
530 234 1
1018 234 1
1019 234 1
88 235 1
95 235 1
114 235 1
123 235 1
169 235 1
179 235 1
529 235 1
531 235 1
1019 235 1
1020 235 1
89 236 1
96 236 1
115 236 1
124 236 1
170 236 1
180 236 1
530 236 1
532 236 1
1020 236 1
1021 236 1
90 237 1
97 237 1
116 237 1
125 237 1
171 237 1
181 237 1
519 237 1
531 237 1
1021 237 1
1022 237 1
91 238 1
98 238 1
117 238 1
126 238 1
172 238 1
182 238 1
520 238 1
532 238 1
1009 238 1
1022 238 1
85 239 1
94 239 1
127 239 1
132 239 1
183 239 1
187 239 1
533 239 1
535 239 1
1023 239 1
1024 239 1
86 240 1
95 240 1
128 240 1
133 240 1
184 240 1
188 240 1
534 240 1
536 240 1
1024 240 1
1025 240 1
87 241 1
96 241 1
129 241 1
134 241 1
185 241 1
189 241 1
535 241 1
537 241 1
1025 241 1
1026 241 1
88 242 1
97 242 1
130 242 1
135 242 1
186 242 1
190 242 1
536 242 1
538 242 1
1026 242 1
1027 242 1
89 243 1
98 243 1
131 243 1
136 243 1
187 243 1
191 243 1
537 243 1
539 243 1
1027 243 1
1028 243 1
85 244 1
90 244 1
132 244 1
137 244 1
188 244 1
192 244 1
538 244 1
540 244 1
1028 244 1
1029 244 1
86 245 1
91 245 1
133 245 1
138 245 1
189 245 1
193 245 1
539 245 1
541 245 1
1029 245 1
1030 245 1
87 246 1
92 246 1
134 246 1
139 246 1
190 246 1
194 246 1
540 246 1
542 246 1
1030 246 1
1031 246 1
88 247 1
93 247 1
135 247 1
140 247 1
191 247 1
195 247 1
541 247 1
543 247 1
1031 247 1
1032 247 1
89 248 1
94 248 1
127 248 1
136 248 1
192 248 1
196 248 1
542 248 1
544 248 1
1032 248 1
1033 248 1
90 249 1
95 249 1
128 249 1
137 249 1
183 249 1
193 249 1
543 249 1
545 249 1
1033 249 1
1034 249 1
91 250 1
96 250 1
129 250 1
138 250 1
184 250 1
194 250 1
544 250 1
546 250 1
1034 250 1
1035 250 1
92 251 1
97 251 1
130 251 1
139 251 1
185 251 1
195 251 1
533 251 1
545 251 1
1035 251 1
1036 251 1
93 252 1
98 252 1
131 252 1
140 252 1
186 252 1
196 252 1
534 252 1
546 252 1
1023 252 1
1036 252 1
85 253 1
98 253 1
141 253 1
146 253 1
197 253 1
201 253 1
547 253 1
549 253 1
1037 253 1
1038 253 1
85 254 1
86 254 1
142 254 1
147 254 1
198 254 1
202 254 1
548 254 1
550 254 1
1038 254 1
1039 254 1
86 255 1
87 255 1
143 255 1
148 255 1
199 255 1
203 255 1
549 255 1
551 255 1
1039 255 1
1040 255 1
87 256 1
88 256 1
144 256 1
149 256 1
200 256 1
204 256 1
550 256 1
552 256 1
1040 256 1
1041 256 1
88 257 1
89 257 1
145 257 1
150 257 1
201 257 1
205 257 1
551 257 1
553 257 1
1041 257 1
1042 257 1
89 258 1
90 258 1
146 258 1
151 258 1
202 258 1
206 258 1
552 258 1
554 258 1
1042 258 1
1043 258 1
90 259 1
91 259 1
147 259 1
152 259 1
203 259 1
207 259 1
553 259 1
555 259 1
1043 259 1
1044 259 1
91 260 1
92 260 1
148 260 1
153 260 1
204 260 1
208 260 1
554 260 1
556 260 1
1044 260 1
1045 260 1
92 261 1
93 261 1
149 261 1
154 261 1
205 261 1
209 261 1
555 261 1
557 261 1
1045 261 1
1046 261 1
93 262 1
94 262 1
141 262 1
150 262 1
206 262 1
210 262 1
556 262 1
558 262 1
1046 262 1
1047 262 1
94 263 1
95 263 1
142 263 1
151 263 1
197 263 1
207 263 1
557 263 1
559 263 1
1047 263 1
1048 263 1
95 264 1
96 264 1
143 264 1
152 264 1
198 264 1
208 264 1
558 264 1
560 264 1
1048 264 1
1049 264 1
96 265 1
97 265 1
144 265 1
153 265 1
199 265 1
209 265 1
547 265 1
559 265 1
1049 265 1
1050 265 1
97 266 1
98 266 1
145 266 1
154 266 1
200 266 1
210 266 1
548 266 1
560 266 1
1037 266 1
1050 266 1
99 267 1
106 267 1
113 267 1
119 267 1
211 267 1
215 267 1
561 267 1
563 267 1
1051 267 1
1052 267 1
100 268 1
107 268 1
114 268 1
120 268 1
212 268 1
216 268 1
562 268 1
564 268 1
1052 268 1
1053 268 1
101 269 1
108 269 1
115 269 1
121 269 1
213 269 1
217 269 1
563 269 1
565 269 1
1053 269 1
1054 269 1
102 270 1
109 270 1
116 270 1
122 270 1
214 270 1
218 270 1
564 270 1
566 270 1
1054 270 1
1055 270 1
103 271 1
110 271 1
117 271 1
123 271 1
215 271 1
219 271 1
565 271 1
567 271 1
1055 271 1
1056 271 1
104 272 1
111 272 1
118 272 1
124 272 1
216 272 1
220 272 1
566 272 1
568 272 1
1056 272 1
1057 272 1
105 273 1
112 273 1
119 273 1
125 273 1
217 273 1
221 273 1
567 273 1
569 273 1
1057 273 1
1058 273 1
99 274 1
106 274 1
120 274 1
126 274 1
218 274 1
222 274 1
568 274 1
570 274 1
1058 274 1
1059 274 1
100 275 1
107 275 1
113 275 1
121 275 1
219 275 1
223 275 1
569 275 1
571 275 1
1059 275 1
1060 275 1
101 276 1
108 276 1
114 276 1
122 276 1
220 276 1
224 276 1
570 276 1
572 276 1
1060 276 1
1061 276 1
102 277 1
109 277 1
115 277 1
123 277 1
211 277 1
221 277 1
571 277 1
573 277 1
1061 277 1
1062 277 1
103 278 1
110 278 1
116 278 1
124 278 1
212 278 1
222 278 1
572 278 1
574 278 1
1062 278 1
1063 278 1
104 279 1
111 279 1
117 279 1
125 279 1
213 279 1
223 279 1
561 279 1
573 279 1
1063 279 1
1064 279 1
105 280 1
112 280 1
118 280 1
126 280 1
214 280 1
224 280 1
562 280 1
574 280 1
1051 280 1
1064 280 1
99 281 1
108 281 1
127 281 1
133 281 1
225 281 1
229 281 1
575 281 1
577 281 1
1065 281 1
1066 281 1
100 282 1
109 282 1
128 282 1
134 282 1
226 282 1
230 282 1
576 282 1
578 282 1
1066 282 1
1067 282 1
101 283 1
110 283 1
129 283 1
135 283 1
227 283 1
231 283 1
577 283 1
579 283 1
1067 283 1
1068 283 1
102 284 1
111 284 1
130 284 1
136 284 1
228 284 1
232 284 1
578 284 1
580 284 1
1068 284 1
1069 284 1
103 285 1
112 285 1
131 285 1
137 285 1
229 285 1
233 285 1
579 285 1
581 285 1
1069 285 1
1070 285 1
99 286 1
104 286 1
132 286 1
138 286 1
230 286 1
234 286 1
580 286 1
582 286 1
1070 286 1
1071 286 1
100 287 1
105 287 1
133 287 1
139 287 1
231 287 1
235 287 1
581 287 1
583 287 1
1071 287 1
1072 287 1
101 288 1
106 288 1
134 288 1
140 288 1
232 288 1
236 288 1
582 288 1
584 288 1
1072 288 1
1073 288 1
102 289 1
107 289 1
127 289 1
135 289 1
233 289 1
237 289 1
583 289 1
585 289 1
1073 289 1
1074 289 1
103 290 1
108 290 1
128 290 1
136 290 1
234 290 1
238 290 1
584 290 1
586 290 1
1074 290 1
1075 290 1
104 291 1
109 291 1
129 291 1
137 291 1
225 291 1
235 291 1
585 291 1
587 291 1
1075 291 1
1076 291 1
105 292 1
110 292 1
130 292 1
138 292 1
226 292 1
236 292 1
586 292 1
588 292 1
1076 292 1
1077 292 1
106 293 1
111 293 1
131 293 1
139 293 1
227 293 1
237 293 1
575 293 1
587 293 1
1077 293 1
1078 293 1
107 294 1
112 294 1
132 294 1
140 294 1
228 294 1
238 294 1
576 294 1
588 294 1
1065 294 1
1078 294 1
99 295 1
112 295 1
141 295 1
147 295 1
239 295 1
243 295 1
589 295 1
591 295 1
1079 295 1
1080 295 1
99 296 1
100 296 1
142 296 1
148 296 1
240 296 1
244 296 1
590 296 1
592 296 1
1080 296 1
1081 296 1
100 297 1
101 297 1
143 297 1
149 297 1
241 297 1
245 297 1
591 297 1
593 297 1
1081 297 1
1082 297 1
101 298 1
102 298 1
144 298 1
150 298 1
242 298 1
246 298 1
592 298 1
594 298 1
1082 298 1
1083 298 1
102 299 1
103 299 1
145 299 1
151 299 1
243 299 1
247 299 1
593 299 1
595 299 1
1083 299 1
1084 299 1
103 300 1
104 300 1
146 300 1
152 300 1
244 300 1
248 300 1
594 300 1
596 300 1
1084 300 1
1085 300 1
104 301 1
105 301 1
147 301 1
153 301 1
245 301 1
249 301 1
595 301 1
597 301 1
1085 301 1
1086 301 1
105 302 1
106 302 1
148 302 1
154 302 1
246 302 1
250 302 1
596 302 1
598 302 1
1086 302 1
1087 302 1
106 303 1
107 303 1
141 303 1
149 303 1
247 303 1
251 303 1
597 303 1
599 303 1
1087 303 1
1088 303 1
107 304 1
108 304 1
142 304 1
150 304 1
248 304 1
252 304 1
598 304 1
600 304 1
1088 304 1
1089 304 1
108 305 1
109 305 1
143 305 1
151 305 1
239 305 1
249 305 1
599 305 1
601 305 1
1089 305 1
1090 305 1
109 306 1
110 306 1
144 306 1
152 306 1
240 306 1
250 306 1
600 306 1
602 306 1
1090 306 1
1091 306 1
110 307 1
111 307 1
145 307 1
153 307 1
241 307 1
251 307 1
589 307 1
601 307 1
1091 307 1
1092 307 1
111 308 1
112 308 1
146 308 1
154 308 1
242 308 1
252 308 1
590 308 1
602 308 1
1079 308 1
1092 308 1
113 309 1
122 309 1
127 309 1
134 309 1
253 309 1
257 309 1
603 309 1
605 309 1
1093 309 1
1094 309 1
114 310 1
123 310 1
128 310 1
135 310 1
254 310 1
258 310 1
604 310 1
606 310 1
1094 310 1
1095 310 1
115 311 1
124 311 1
129 311 1
136 311 1
255 311 1
259 311 1
605 311 1
607 311 1
1095 311 1
1096 311 1
116 312 1
125 312 1
130 312 1
137 312 1
256 312 1
260 312 1
606 312 1
608 312 1
1096 312 1
1097 312 1
117 313 1
126 313 1
131 313 1
138 313 1
257 313 1
261 313 1
607 313 1
609 313 1
1097 313 1
1098 313 1
113 314 1
118 314 1
132 314 1
139 314 1
258 314 1
262 314 1
608 314 1
610 314 1
1098 314 1
1099 314 1
114 315 1
119 315 1
133 315 1
140 315 1
259 315 1
263 315 1
609 315 1
611 315 1
1099 315 1
1100 315 1
115 316 1
120 316 1
127 316 1
134 316 1
260 316 1
264 316 1
610 316 1
612 316 1
1100 316 1
1101 316 1
116 317 1
121 317 1
128 317 1
135 317 1
261 317 1
265 317 1
611 317 1
613 317 1
1101 317 1
1102 317 1
117 318 1
122 318 1
129 318 1
136 318 1
262 318 1
266 318 1
612 318 1
614 318 1
1102 318 1
1103 318 1
118 319 1
123 319 1
130 319 1
137 319 1
253 319 1
263 319 1
613 319 1
615 319 1
1103 319 1
1104 319 1
119 320 1
124 320 1
131 320 1
138 320 1
254 320 1
264 320 1
614 320 1
616 320 1
1104 320 1
1105 320 1
120 321 1
125 321 1
132 321 1
139 321 1
255 321 1
265 321 1
603 321 1
615 321 1
1105 321 1
1106 321 1
121 322 1
126 322 1
133 322 1
140 322 1
256 322 1
266 322 1
604 322 1
616 322 1
1093 322 1
1106 322 1
113 323 1
126 323 1
141 323 1
148 323 1
267 323 1
271 323 1
617 323 1
619 323 1
1107 323 1
1108 323 1
113 324 1
114 324 1
142 324 1
149 324 1
268 324 1
272 324 1
618 324 1
620 324 1
1108 324 1
1109 324 1
114 325 1
115 325 1
143 325 1
150 325 1
269 325 1
273 325 1
619 325 1
621 325 1
1109 325 1
1110 325 1
115 326 1
116 326 1
144 326 1
151 326 1
270 326 1
274 326 1
620 326 1
622 326 1
1110 326 1
1111 326 1
116 327 1
117 327 1
145 327 1
152 327 1
271 327 1
275 327 1
621 327 1
623 327 1
1111 327 1
1112 327 1
117 328 1
118 328 1
146 328 1
153 328 1
272 328 1
276 328 1
622 328 1
624 328 1
1112 328 1
1113 328 1
118 329 1
119 329 1
147 329 1
154 329 1
273 329 1
277 329 1
623 329 1
625 329 1
1113 329 1
1114 329 1
119 330 1
120 330 1
141 330 1
148 330 1
274 330 1
278 330 1
624 330 1
626 330 1
1114 330 1
1115 330 1
120 331 1
121 331 1
142 331 1
149 331 1
275 331 1
279 331 1
625 331 1
627 331 1
1115 331 1
1116 331 1
121 332 1
122 332 1
143 332 1
150 332 1
276 332 1
280 332 1
626 332 1
628 332 1
1116 332 1
1117 332 1
122 333 1
123 333 1
144 333 1
151 333 1
267 333 1
277 333 1
627 333 1
629 333 1
1117 333 1
1118 333 1
123 334 1
124 334 1
145 334 1
152 334 1
268 334 1
278 334 1
628 334 1
630 334 1
1118 334 1
1119 334 1
124 335 1
125 335 1
146 335 1
153 335 1
269 335 1
279 335 1
617 335 1
629 335 1
1119 335 1
1120 335 1
125 336 1
126 336 1
147 336 1
154 336 1
270 336 1
280 336 1
618 336 1
630 336 1
1107 336 1
1120 336 1
127 337 1
140 337 1
141 337 1
150 337 1
281 337 1
285 337 1
631 337 1
633 337 1
1121 337 1
1122 337 1
127 338 1
128 338 1
142 338 1
151 338 1
282 338 1
286 338 1
632 338 1
634 338 1
1122 338 1
1123 338 1
128 339 1
129 339 1
143 339 1
152 339 1
283 339 1
287 339 1
633 339 1
635 339 1
1123 339 1
1124 339 1
129 340 1
130 340 1
144 340 1
153 340 1
284 340 1
288 340 1
634 340 1
636 340 1
1124 340 1
1125 340 1
130 341 1
131 341 1
145 341 1
154 341 1
285 341 1
289 341 1
635 341 1
637 341 1
1125 341 1
1126 341 1
131 342 1
132 342 1
141 342 1
146 342 1
286 342 1
290 342 1
636 342 1
638 342 1
1126 342 1
1127 342 1
132 343 1
133 343 1
142 343 1
147 343 1
287 343 1
291 343 1
637 343 1
639 343 1
1127 343 1
1128 343 1
133 344 1
134 344 1
143 344 1
148 344 1
288 344 1
292 344 1
638 344 1
640 344 1
1128 344 1
1129 344 1
134 345 1
135 345 1
144 345 1
149 345 1
289 345 1
293 345 1
639 345 1
641 345 1
1129 345 1
1130 345 1
135 346 1
136 346 1
145 346 1
150 346 1
290 346 1
294 346 1
640 346 1
642 346 1
1130 346 1
1131 346 1
136 347 1
137 347 1
146 347 1
151 347 1
281 347 1
291 347 1
641 347 1
643 347 1
1131 347 1
1132 347 1
137 348 1
138 348 1
147 348 1
152 348 1
282 348 1
292 348 1
642 348 1
644 348 1
1132 348 1
1133 348 1
138 349 1
139 349 1
148 349 1
153 349 1
283 349 1
293 349 1
631 349 1
643 349 1
1133 349 1
1134 349 1
139 350 1
140 350 1
149 350 1
154 350 1
284 350 1
294 350 1
632 350 1
644 350 1
1121 350 1
1134 350 1
155 351 1
162 351 1
169 351 1
175 351 1
211 351 1
216 351 1
645 351 1
647 351 1
1135 351 1
1136 351 1
156 352 1
163 352 1
170 352 1
176 352 1
212 352 1
217 352 1
646 352 1
648 352 1
1136 352 1
1137 352 1
157 353 1
164 353 1
171 353 1
177 353 1
213 353 1
218 353 1
647 353 1
649 353 1
1137 353 1
1138 353 1
158 354 1
165 354 1
172 354 1
178 354 1
214 354 1
219 354 1
648 354 1
650 354 1
1138 354 1
1139 354 1
159 355 1
166 355 1
173 355 1
179 355 1
215 355 1
220 355 1
649 355 1
651 355 1
1139 355 1
1140 355 1
160 356 1
167 356 1
174 356 1
180 356 1
216 356 1
221 356 1
650 356 1
652 356 1
1140 356 1
1141 356 1
161 357 1
168 357 1
175 357 1
181 357 1
217 357 1
222 357 1
651 357 1
653 357 1
1141 357 1
1142 357 1
155 358 1
162 358 1
176 358 1
182 358 1
218 358 1
223 358 1
652 358 1
654 358 1
1142 358 1
1143 358 1
156 359 1
163 359 1
169 359 1
177 359 1
219 359 1
224 359 1
653 359 1
655 359 1
1143 359 1
1144 359 1
157 360 1
164 360 1
170 360 1
178 360 1
211 360 1
220 360 1
654 360 1
656 360 1
1144 360 1
1145 360 1
158 361 1
165 361 1
171 361 1
179 361 1
212 361 1
221 361 1
655 361 1
657 361 1
1145 361 1
1146 361 1
159 362 1
166 362 1
172 362 1
180 362 1
213 362 1
222 362 1
656 362 1
658 362 1
1146 362 1
1147 362 1
160 363 1
167 363 1
173 363 1
181 363 1
214 363 1
223 363 1
645 363 1
657 363 1
1147 363 1
1148 363 1
161 364 1
168 364 1
174 364 1
182 364 1
215 364 1
224 364 1
646 364 1
658 364 1
1135 364 1
1148 364 1
155 365 1
164 365 1
183 365 1
189 365 1
225 365 1
230 365 1
659 365 1
661 365 1
1149 365 1
1150 365 1
156 366 1
165 366 1
184 366 1
190 366 1
226 366 1
231 366 1
660 366 1
662 366 1
1150 366 1
1151 366 1
157 367 1
166 367 1
185 367 1
191 367 1
227 367 1
232 367 1
661 367 1
663 367 1
1151 367 1
1152 367 1
158 368 1
167 368 1
186 368 1
192 368 1
228 368 1
233 368 1
662 368 1
664 368 1
1152 368 1
1153 368 1
159 369 1
168 369 1
187 369 1
193 369 1
229 369 1
234 369 1
663 369 1
665 369 1
1153 369 1
1154 369 1
155 370 1
160 370 1
188 370 1
194 370 1
230 370 1
235 370 1
664 370 1
666 370 1
1154 370 1
1155 370 1
156 371 1
161 371 1
189 371 1
195 371 1
231 371 1
236 371 1
665 371 1
667 371 1
1155 371 1
1156 371 1
157 372 1
162 372 1
190 372 1
196 372 1
232 372 1
237 372 1
666 372 1
668 372 1
1156 372 1
1157 372 1
158 373 1
163 373 1
183 373 1
191 373 1
233 373 1
238 373 1
667 373 1
669 373 1
1157 373 1
1158 373 1
159 374 1
164 374 1
184 374 1
192 374 1
225 374 1
234 374 1
668 374 1
670 374 1
1158 374 1
1159 374 1
160 375 1
165 375 1
185 375 1
193 375 1
226 375 1
235 375 1
669 375 1
671 375 1
1159 375 1
1160 375 1
161 376 1
166 376 1
186 376 1
194 376 1
227 376 1
236 376 1
670 376 1
672 376 1
1160 376 1
1161 376 1
162 377 1
167 377 1
187 377 1
195 377 1
228 377 1
237 377 1
659 377 1
671 377 1
1161 377 1
1162 377 1
163 378 1
168 378 1
188 378 1
196 378 1
229 378 1
238 378 1
660 378 1
672 378 1
1149 378 1
1162 378 1
155 379 1
168 379 1
197 379 1
203 379 1
239 379 1
244 379 1
673 379 1
675 379 1
1163 379 1
1164 379 1
155 380 1
156 380 1
198 380 1
204 380 1
240 380 1
245 380 1
674 380 1
676 380 1
1164 380 1
1165 380 1
156 381 1
157 381 1
199 381 1
205 381 1
241 381 1
246 381 1
675 381 1
677 381 1
1165 381 1
1166 381 1
157 382 1
158 382 1
200 382 1
206 382 1
242 382 1
247 382 1
676 382 1
678 382 1
1166 382 1
1167 382 1
158 383 1
159 383 1
201 383 1
207 383 1
243 383 1
248 383 1
677 383 1
679 383 1
1167 383 1
1168 383 1
159 384 1
160 384 1
202 384 1
208 384 1
244 384 1
249 384 1
678 384 1
680 384 1
1168 384 1
1169 384 1
160 385 1
161 385 1
203 385 1
209 385 1
245 385 1
250 385 1
679 385 1
681 385 1
1169 385 1
1170 385 1
161 386 1
162 386 1
204 386 1
210 386 1
246 386 1
251 386 1
680 386 1
682 386 1
1170 386 1
1171 386 1
162 387 1
163 387 1
197 387 1
205 387 1
247 387 1
252 387 1
681 387 1
683 387 1
1171 387 1
1172 387 1
163 388 1
164 388 1
198 388 1
206 388 1
239 388 1
248 388 1
682 388 1
684 388 1
1172 388 1
1173 388 1
164 389 1
165 389 1
199 389 1
207 389 1
240 389 1
249 389 1
683 389 1
685 389 1
1173 389 1
1174 389 1
165 390 1
166 390 1
200 390 1
208 390 1
241 390 1
250 390 1
684 390 1
686 390 1
1174 390 1
1175 390 1
166 391 1
167 391 1
201 391 1
209 391 1
242 391 1
251 391 1
673 391 1
685 391 1
1175 391 1
1176 391 1
167 392 1
168 392 1
202 392 1
210 392 1
243 392 1
252 392 1
674 392 1
686 392 1
1163 392 1
1176 392 1
169 393 1
178 393 1
183 393 1
190 393 1
253 393 1
258 393 1
687 393 1
689 393 1
1177 393 1
1178 393 1
170 394 1
179 394 1
184 394 1
191 394 1
254 394 1
259 394 1
688 394 1
690 394 1
1178 394 1
1179 394 1
171 395 1
180 395 1
185 395 1
192 395 1
255 395 1
260 395 1
689 395 1
691 395 1
1179 395 1
1180 395 1
172 396 1
181 396 1
186 396 1
193 396 1
256 396 1
261 396 1
690 396 1
692 396 1
1180 396 1
1181 396 1
173 397 1
182 397 1
187 397 1
194 397 1
257 397 1
262 397 1
691 397 1
693 397 1
1181 397 1
1182 397 1
169 398 1
174 398 1
188 398 1
195 398 1
258 398 1
263 398 1
692 398 1
694 398 1
1182 398 1
1183 398 1
170 399 1
175 399 1
189 399 1
196 399 1
259 399 1
264 399 1
693 399 1
695 399 1
1183 399 1
1184 399 1
171 400 1
176 400 1
183 400 1
190 400 1
260 400 1
265 400 1
694 400 1
696 400 1
1184 400 1
1185 400 1
172 401 1
177 401 1
184 401 1
191 401 1
261 401 1
266 401 1
695 401 1
697 401 1
1185 401 1
1186 401 1
173 402 1
178 402 1
185 402 1
192 402 1
253 402 1
262 402 1
696 402 1
698 402 1
1186 402 1
1187 402 1
174 403 1
179 403 1
186 403 1
193 403 1
254 403 1
263 403 1
697 403 1
699 403 1
1187 403 1
1188 403 1
175 404 1
180 404 1
187 404 1
194 404 1
255 404 1
264 404 1
698 404 1
700 404 1
1188 404 1
1189 404 1
176 405 1
181 405 1
188 405 1
195 405 1
256 405 1
265 405 1
687 405 1
699 405 1
1189 405 1
1190 405 1
177 406 1
182 406 1
189 406 1
196 406 1
257 406 1
266 406 1
688 406 1
700 406 1
1177 406 1
1190 406 1
169 407 1
182 407 1
197 407 1
204 407 1
267 407 1
272 407 1
701 407 1
703 407 1
1191 407 1
1192 407 1
169 408 1
170 408 1
198 408 1
205 408 1
268 408 1
273 408 1
702 408 1
704 408 1
1192 408 1
1193 408 1
170 409 1
171 409 1
199 409 1
206 409 1
269 409 1
274 409 1
703 409 1
705 409 1
1193 409 1
1194 409 1
171 410 1
172 410 1
200 410 1
207 410 1
270 410 1
275 410 1
704 410 1
706 410 1
1194 410 1
1195 410 1
172 411 1
173 411 1
201 411 1
208 411 1
271 411 1
276 411 1
705 411 1
707 411 1
1195 411 1
1196 411 1
173 412 1
174 412 1
202 412 1
209 412 1
272 412 1
277 412 1
706 412 1
708 412 1
1196 412 1
1197 412 1
174 413 1
175 413 1
203 413 1
210 413 1
273 413 1
278 413 1
707 413 1
709 413 1
1197 413 1
1198 413 1
175 414 1
176 414 1
197 414 1
204 414 1
274 414 1
279 414 1
708 414 1
710 414 1
1198 414 1
1199 414 1
176 415 1
177 415 1
198 415 1
205 415 1
275 415 1
280 415 1
709 415 1
711 415 1
1199 415 1
1200 415 1
177 416 1
178 416 1
199 416 1
206 416 1
267 416 1
276 416 1
710 416 1
712 416 1
1200 416 1
1201 416 1
178 417 1
179 417 1
200 417 1
207 417 1
268 417 1
277 417 1
711 417 1
713 417 1
1201 417 1
1202 417 1
179 418 1
180 418 1
201 418 1
208 418 1
269 418 1
278 418 1
712 418 1
714 418 1
1202 418 1
1203 418 1
180 419 1
181 419 1
202 419 1
209 419 1
270 419 1
279 419 1
701 419 1
713 419 1
1203 419 1
1204 419 1
181 420 1
182 420 1
203 420 1
210 420 1
271 420 1
280 420 1
702 420 1
714 420 1
1191 420 1
1204 420 1
183 421 1
196 421 1
197 421 1
206 421 1
281 421 1
286 421 1
715 421 1
717 421 1
1205 421 1
1206 421 1
183 422 1
184 422 1
198 422 1
207 422 1
282 422 1
287 422 1
716 422 1
718 422 1
1206 422 1
1207 422 1
184 423 1
185 423 1
199 423 1
208 423 1
283 423 1
288 423 1
717 423 1
719 423 1
1207 423 1
1208 423 1
185 424 1
186 424 1
200 424 1
209 424 1
284 424 1
289 424 1
718 424 1
720 424 1
1208 424 1
1209 424 1
186 425 1
187 425 1
201 425 1
210 425 1
285 425 1
290 425 1
719 425 1
721 425 1
1209 425 1
1210 425 1
187 426 1
188 426 1
197 426 1
202 426 1
286 426 1
291 426 1
720 426 1
722 426 1
1210 426 1
1211 426 1
188 427 1
189 427 1
198 427 1
203 427 1
287 427 1
292 427 1
721 427 1
723 427 1
1211 427 1
1212 427 1
189 428 1
190 428 1
199 428 1
204 428 1
288 428 1
293 428 1
722 428 1
724 428 1
1212 428 1
1213 428 1
190 429 1
191 429 1
200 429 1
205 429 1
289 429 1
294 429 1
723 429 1
725 429 1
1213 429 1
1214 429 1
191 430 1
192 430 1
201 430 1
206 430 1
281 430 1
290 430 1
724 430 1
726 430 1
1214 430 1
1215 430 1
192 431 1
193 431 1
202 431 1
207 431 1
282 431 1
291 431 1
725 431 1
727 431 1
1215 431 1
1216 431 1
193 432 1
194 432 1
203 432 1
208 432 1
283 432 1
292 432 1
726 432 1
728 432 1
1216 432 1
1217 432 1
194 433 1
195 433 1
204 433 1
209 433 1
284 433 1
293 433 1
715 433 1
727 433 1
1217 433 1
1218 433 1
195 434 1
196 434 1
205 434 1
210 434 1
285 434 1
294 434 1
716 434 1
728 434 1
1205 434 1
1218 434 1
211 435 1
220 435 1
225 435 1
232 435 1
253 435 1
259 435 1
729 435 1
731 435 1
1219 435 1
1220 435 1
212 436 1
221 436 1
226 436 1
233 436 1
254 436 1
260 436 1
730 436 1
732 436 1
1220 436 1
1221 436 1
213 437 1
222 437 1
227 437 1
234 437 1
255 437 1
261 437 1
731 437 1
733 437 1
1221 437 1
1222 437 1
214 438 1
223 438 1
228 438 1
235 438 1
256 438 1
262 438 1
732 438 1
734 438 1
1222 438 1
1223 438 1
215 439 1
224 439 1
229 439 1
236 439 1
257 439 1
263 439 1
733 439 1
735 439 1
1223 439 1
1224 439 1
211 440 1
216 440 1
230 440 1
237 440 1
258 440 1
264 440 1
734 440 1
736 440 1
1224 440 1
1225 440 1
212 441 1
217 441 1
231 441 1
238 441 1
259 441 1
265 441 1
735 441 1
737 441 1
1225 441 1
1226 441 1
213 442 1
218 442 1
225 442 1
232 442 1
260 442 1
266 442 1
736 442 1
738 442 1
1226 442 1
1227 442 1
214 443 1
219 443 1
226 443 1
233 443 1
253 443 1
261 443 1
737 443 1
739 443 1
1227 443 1
1228 443 1
215 444 1
220 444 1
227 444 1
234 444 1
254 444 1
262 444 1
738 444 1
740 444 1
1228 444 1
1229 444 1
216 445 1
221 445 1
228 445 1
235 445 1
255 445 1
263 445 1
739 445 1
741 445 1
1229 445 1
1230 445 1
217 446 1
222 446 1
229 446 1
236 446 1
256 446 1
264 446 1
740 446 1
742 446 1
1230 446 1
1231 446 1
218 447 1
223 447 1
230 447 1
237 447 1
257 447 1
265 447 1
729 447 1
741 447 1
1231 447 1
1232 447 1
219 448 1
224 448 1
231 448 1
238 448 1
258 448 1
266 448 1
730 448 1
742 448 1
1219 448 1
1232 448 1
211 449 1
224 449 1
239 449 1
246 449 1
267 449 1
273 449 1
743 449 1
745 449 1
1233 449 1
1234 449 1
211 450 1
212 450 1
240 450 1
247 450 1
268 450 1
274 450 1
744 450 1
746 450 1
1234 450 1
1235 450 1
212 451 1
213 451 1
241 451 1
248 451 1
269 451 1
275 451 1
745 451 1
747 451 1
1235 451 1
1236 451 1
213 452 1
214 452 1
242 452 1
249 452 1
270 452 1
276 452 1
746 452 1
748 452 1
1236 452 1
1237 452 1
214 453 1
215 453 1
243 453 1
250 453 1
271 453 1
277 453 1
747 453 1
749 453 1
1237 453 1
1238 453 1
215 454 1
216 454 1
244 454 1
251 454 1
272 454 1
278 454 1
748 454 1
750 454 1
1238 454 1
1239 454 1
216 455 1
217 455 1
245 455 1
252 455 1
273 455 1
279 455 1
749 455 1
751 455 1
1239 455 1
1240 455 1
217 456 1
218 456 1
239 456 1
246 456 1
274 456 1
280 456 1
750 456 1
752 456 1
1240 456 1
1241 456 1
218 457 1
219 457 1
240 457 1
247 457 1
267 457 1
275 457 1
751 457 1
753 457 1
1241 457 1
1242 457 1
219 458 1
220 458 1
241 458 1
248 458 1
268 458 1
276 458 1
752 458 1
754 458 1
1242 458 1
1243 458 1
220 459 1
221 459 1
242 459 1
249 459 1
269 459 1
277 459 1
753 459 1
755 459 1
1243 459 1
1244 459 1
221 460 1
222 460 1
243 460 1
250 460 1
270 460 1
278 460 1
754 460 1
756 460 1
1244 460 1
1245 460 1
222 461 1
223 461 1
244 461 1
251 461 1
271 461 1
279 461 1
743 461 1
755 461 1
1245 461 1
1246 461 1
223 462 1
224 462 1
245 462 1
252 462 1
272 462 1
280 462 1
744 462 1
756 462 1
1233 462 1
1246 462 1
225 463 1
238 463 1
239 463 1
248 463 1
281 463 1
287 463 1
757 463 1
759 463 1
1247 463 1
1248 463 1
225 464 1
226 464 1
240 464 1
249 464 1
282 464 1
288 464 1
758 464 1
760 464 1
1248 464 1
1249 464 1
226 465 1
227 465 1
241 465 1
250 465 1
283 465 1
289 465 1
759 465 1
761 465 1
1249 465 1
1250 465 1
227 466 1
228 466 1
242 466 1
251 466 1
284 466 1
290 466 1
760 466 1
762 466 1
1250 466 1
1251 466 1
228 467 1
229 467 1
243 467 1
252 467 1
285 467 1
291 467 1
761 467 1
763 467 1
1251 467 1
1252 467 1
229 468 1
230 468 1
239 468 1
244 468 1
286 468 1
292 468 1
762 468 1
764 468 1
1252 468 1
1253 468 1
230 469 1
231 469 1
240 469 1
245 469 1
287 469 1
293 469 1
763 469 1
765 469 1
1253 469 1
1254 469 1
231 470 1
232 470 1
241 470 1
246 470 1
288 470 1
294 470 1
764 470 1
766 470 1
1254 470 1
1255 470 1
232 471 1
233 471 1
242 471 1
247 471 1
281 471 1
289 471 1
765 471 1
767 471 1
1255 471 1
1256 471 1
233 472 1
234 472 1
243 472 1
248 472 1
282 472 1
290 472 1
766 472 1
768 472 1
1256 472 1
1257 472 1
234 473 1
235 473 1
244 473 1
249 473 1
283 473 1
291 473 1
767 473 1
769 473 1
1257 473 1
1258 473 1
235 474 1
236 474 1
245 474 1
250 474 1
284 474 1
292 474 1
768 474 1
770 474 1
1258 474 1
1259 474 1
236 475 1
237 475 1
246 475 1
251 475 1
285 475 1
293 475 1
757 475 1
769 475 1
1259 475 1
1260 475 1
237 476 1
238 476 1
247 476 1
252 476 1
286 476 1
294 476 1
758 476 1
770 476 1
1247 476 1
1260 476 1
253 477 1
266 477 1
267 477 1
276 477 1
281 477 1
288 477 1
771 477 1
773 477 1
1261 477 1
1262 477 1
253 478 1
254 478 1
268 478 1
277 478 1
282 478 1
289 478 1
772 478 1
774 478 1
1262 478 1
1263 478 1
254 479 1
255 479 1
269 479 1
278 479 1
283 479 1
290 479 1
773 479 1
775 479 1
1263 479 1
1264 479 1
255 480 1
256 480 1
270 480 1
279 480 1
284 480 1
291 480 1
774 480 1
776 480 1
1264 480 1
1265 480 1
256 481 1
257 481 1
271 481 1
280 481 1
285 481 1
292 481 1
775 481 1
777 481 1
1265 481 1
1266 481 1
257 482 1
258 482 1
267 482 1
272 482 1
286 482 1
293 482 1
776 482 1
778 482 1
1266 482 1
1267 482 1
258 483 1
259 483 1
268 483 1
273 483 1
287 483 1
294 483 1
777 483 1
779 483 1
1267 483 1
1268 483 1
259 484 1
260 484 1
269 484 1
274 484 1
281 484 1
288 484 1
778 484 1
780 484 1
1268 484 1
1269 484 1
260 485 1
261 485 1
270 485 1
275 485 1
282 485 1
289 485 1
779 485 1
781 485 1
1269 485 1
1270 485 1
261 486 1
262 486 1
271 486 1
276 486 1
283 486 1
290 486 1
780 486 1
782 486 1
1270 486 1
1271 486 1
262 487 1
263 487 1
272 487 1
277 487 1
284 487 1
291 487 1
781 487 1
783 487 1
1271 487 1
1272 487 1
263 488 1
264 488 1
273 488 1
278 488 1
285 488 1
292 488 1
782 488 1
784 488 1
1272 488 1
1273 488 1
264 489 1
265 489 1
274 489 1
279 489 1
286 489 1
293 489 1
771 489 1
783 489 1
1273 489 1
1274 489 1
265 490 1
266 490 1
275 490 1
280 490 1
287 490 1
294 490 1
772 490 1
784 490 1
1261 490 1
1274 490 1
295 491 1
301 491 1
309 491 1
314 491 1
365 491 1
369 491 1
505 491 1
508 491 1
1275 491 1
1276 491 1
296 492 1
302 492 1
310 492 1
315 492 1
366 492 1
370 492 1
506 492 1
509 492 1
1276 492 1
1277 492 1
297 493 1
303 493 1
311 493 1
316 493 1
367 493 1
371 493 1
507 493 1
510 493 1
1277 493 1
1278 493 1
298 494 1
304 494 1
312 494 1
317 494 1
368 494 1
372 494 1
508 494 1
511 494 1
1278 494 1
1279 494 1
299 495 1
305 495 1
313 495 1
318 495 1
369 495 1
373 495 1
509 495 1
512 495 1
1279 495 1
1280 495 1
300 496 1
306 496 1
314 496 1
319 496 1
370 496 1
374 496 1
510 496 1
513 496 1
1280 496 1
1281 496 1
301 497 1
307 497 1
315 497 1
320 497 1
371 497 1
375 497 1
511 497 1
514 497 1
1281 497 1
1282 497 1
302 498 1
308 498 1
316 498 1
321 498 1
372 498 1
376 498 1
512 498 1
515 498 1
1282 498 1
1283 498 1
295 499 1
303 499 1
317 499 1
322 499 1
373 499 1
377 499 1
513 499 1
516 499 1
1283 499 1
1284 499 1
296 500 1
304 500 1
309 500 1
318 500 1
374 500 1
378 500 1
514 500 1
517 500 1
1284 500 1
1285 500 1
297 501 1
305 501 1
310 501 1
319 501 1
365 501 1
375 501 1
515 501 1
518 501 1
1285 501 1
1286 501 1
298 502 1
306 502 1
311 502 1
320 502 1
366 502 1
376 502 1
505 502 1
516 502 1
1286 502 1
1287 502 1
299 503 1
307 503 1
312 503 1
321 503 1
367 503 1
377 503 1
506 503 1
517 503 1
1287 503 1
1288 503 1
300 504 1
308 504 1
313 504 1
322 504 1
368 504 1
378 504 1
507 504 1
518 504 1
1275 504 1
1288 504 1
295 505 1
302 505 1
323 505 1
328 505 1
379 505 1
383 505 1
519 505 1
522 505 1
1289 505 1
1290 505 1
296 506 1
303 506 1
324 506 1
329 506 1
380 506 1
384 506 1
520 506 1
523 506 1
1290 506 1
1291 506 1
297 507 1
304 507 1
325 507 1
330 507 1
381 507 1
385 507 1
521 507 1
524 507 1
1291 507 1
1292 507 1
298 508 1
305 508 1
326 508 1
331 508 1
382 508 1
386 508 1
522 508 1
525 508 1
1292 508 1
1293 508 1
299 509 1
306 509 1
327 509 1
332 509 1
383 509 1
387 509 1
523 509 1
526 509 1
1293 509 1
1294 509 1
300 510 1
307 510 1
328 510 1
333 510 1
384 510 1
388 510 1
524 510 1
527 510 1
1294 510 1
1295 510 1
301 511 1
308 511 1
329 511 1
334 511 1
385 511 1
389 511 1
525 511 1
528 511 1
1295 511 1
1296 511 1
295 512 1
302 512 1
330 512 1
335 512 1
386 512 1
390 512 1
526 512 1
529 512 1
1296 512 1
1297 512 1
296 513 1
303 513 1
331 513 1
336 513 1
387 513 1
391 513 1
527 513 1
530 513 1
1297 513 1
1298 513 1
297 514 1
304 514 1
323 514 1
332 514 1
388 514 1
392 514 1
528 514 1
531 514 1
1298 514 1
1299 514 1
298 515 1
305 515 1
324 515 1
333 515 1
379 515 1
389 515 1
529 515 1
532 515 1
1299 515 1
1300 515 1
299 516 1
306 516 1
325 516 1
334 516 1
380 516 1
390 516 1
519 516 1
530 516 1
1300 516 1
1301 516 1
300 517 1
307 517 1
326 517 1
335 517 1
381 517 1
391 517 1
520 517 1
531 517 1
1301 517 1
1302 517 1
301 518 1
308 518 1
327 518 1
336 518 1
382 518 1
392 518 1
521 518 1
532 518 1
1289 518 1
1302 518 1
295 519 1
304 519 1
337 519 1
342 519 1
393 519 1
397 519 1
533 519 1
536 519 1
1303 519 1
1304 519 1
296 520 1
305 520 1
338 520 1
343 520 1
394 520 1
398 520 1
534 520 1
537 520 1
1304 520 1
1305 520 1
297 521 1
306 521 1
339 521 1
344 521 1
395 521 1
399 521 1
535 521 1
538 521 1
1305 521 1
1306 521 1
298 522 1
307 522 1
340 522 1
345 522 1
396 522 1
400 522 1
536 522 1
539 522 1
1306 522 1
1307 522 1
299 523 1
308 523 1
341 523 1
346 523 1
397 523 1
401 523 1
537 523 1
540 523 1
1307 523 1
1308 523 1
295 524 1
300 524 1
342 524 1
347 524 1
398 524 1
402 524 1
538 524 1
541 524 1
1308 524 1
1309 524 1
296 525 1
301 525 1
343 525 1
348 525 1
399 525 1
403 525 1
539 525 1
542 525 1
1309 525 1
1310 525 1
297 526 1
302 526 1
344 526 1
349 526 1
400 526 1
404 526 1
540 526 1
543 526 1
1310 526 1
1311 526 1
298 527 1
303 527 1
345 527 1
350 527 1
401 527 1
405 527 1
541 527 1
544 527 1
1311 527 1
1312 527 1
299 528 1
304 528 1
337 528 1
346 528 1
402 528 1
406 528 1
542 528 1
545 528 1
1312 528 1
1313 528 1
300 529 1
305 529 1
338 529 1
347 529 1
393 529 1
403 529 1
543 529 1
546 529 1
1313 529 1
1314 529 1
301 530 1
306 530 1
339 530 1
348 530 1
394 530 1
404 530 1
533 530 1
544 530 1
1314 530 1
1315 530 1
302 531 1
307 531 1
340 531 1
349 531 1
395 531 1
405 531 1
534 531 1
545 531 1
1315 531 1
1316 531 1
303 532 1
308 532 1
341 532 1
350 532 1
396 532 1
406 532 1
535 532 1
546 532 1
1303 532 1
1316 532 1
295 533 1
308 533 1
351 533 1
356 533 1
407 533 1
411 533 1
547 533 1
550 533 1
1317 533 1
1318 533 1
295 534 1
296 534 1
352 534 1
357 534 1
408 534 1
412 534 1
548 534 1
551 534 1
1318 534 1
1319 534 1
296 535 1
297 535 1
353 535 1
358 535 1
409 535 1
413 535 1
549 535 1
552 535 1
1319 535 1
1320 535 1
297 536 1
298 536 1
354 536 1
359 536 1
410 536 1
414 536 1
550 536 1
553 536 1
1320 536 1
1321 536 1
298 537 1
299 537 1
355 537 1
360 537 1
411 537 1
415 537 1
551 537 1
554 537 1
1321 537 1
1322 537 1
299 538 1
300 538 1
356 538 1
361 538 1
412 538 1
416 538 1
552 538 1
555 538 1
1322 538 1
1323 538 1
300 539 1
301 539 1
357 539 1
362 539 1
413 539 1
417 539 1
553 539 1
556 539 1
1323 539 1
1324 539 1
301 540 1
302 540 1
358 540 1
363 540 1
414 540 1
418 540 1
554 540 1
557 540 1
1324 540 1
1325 540 1
302 541 1
303 541 1
359 541 1
364 541 1
415 541 1
419 541 1
555 541 1
558 541 1
1325 541 1
1326 541 1
303 542 1
304 542 1
351 542 1
360 542 1
416 542 1
420 542 1
556 542 1
559 542 1
1326 542 1
1327 542 1
304 543 1
305 543 1
352 543 1
361 543 1
407 543 1
417 543 1
557 543 1
560 543 1
1327 543 1
1328 543 1
305 544 1
306 544 1
353 544 1
362 544 1
408 544 1
418 544 1
547 544 1
558 544 1
1328 544 1
1329 544 1
306 545 1
307 545 1
354 545 1
363 545 1
409 545 1
419 545 1
548 545 1
559 545 1
1329 545 1
1330 545 1
307 546 1
308 546 1
355 546 1
364 546 1
410 546 1
420 546 1
549 546 1
560 546 1
1317 546 1
1330 546 1
309 547 1
316 547 1
323 547 1
329 547 1
421 547 1
425 547 1
561 547 1
564 547 1
1331 547 1
1332 547 1
310 548 1
317 548 1
324 548 1
330 548 1
422 548 1
426 548 1
562 548 1
565 548 1
1332 548 1
1333 548 1
311 549 1
318 549 1
325 549 1
331 549 1
423 549 1
427 549 1
563 549 1
566 549 1
1333 549 1
1334 549 1
312 550 1
319 550 1
326 550 1
332 550 1
424 550 1
428 550 1
564 550 1
567 550 1
1334 550 1
1335 550 1
313 551 1
320 551 1
327 551 1
333 551 1
425 551 1
429 551 1
565 551 1
568 551 1
1335 551 1
1336 551 1
314 552 1
321 552 1
328 552 1
334 552 1
426 552 1
430 552 1
566 552 1
569 552 1
1336 552 1
1337 552 1
315 553 1
322 553 1
329 553 1
335 553 1
427 553 1
431 553 1
567 553 1
570 553 1
1337 553 1
1338 553 1
309 554 1
316 554 1
330 554 1
336 554 1
428 554 1
432 554 1
568 554 1
571 554 1
1338 554 1
1339 554 1
310 555 1
317 555 1
323 555 1
331 555 1
429 555 1
433 555 1
569 555 1
572 555 1
1339 555 1
1340 555 1
311 556 1
318 556 1
324 556 1
332 556 1
430 556 1
434 556 1
570 556 1
573 556 1
1340 556 1
1341 556 1
312 557 1
319 557 1
325 557 1
333 557 1
421 557 1
431 557 1
571 557 1
574 557 1
1341 557 1
1342 557 1
313 558 1
320 558 1
326 558 1
334 558 1
422 558 1
432 558 1
561 558 1
572 558 1
1342 558 1
1343 558 1
314 559 1
321 559 1
327 559 1
335 559 1
423 559 1
433 559 1
562 559 1
573 559 1
1343 559 1
1344 559 1
315 560 1
322 560 1
328 560 1
336 560 1
424 560 1
434 560 1
563 560 1
574 560 1
1331 560 1
1344 560 1
309 561 1
318 561 1
337 561 1
343 561 1
435 561 1
439 561 1
575 561 1
578 561 1
1345 561 1
1346 561 1
310 562 1
319 562 1
338 562 1
344 562 1
436 562 1
440 562 1
576 562 1
579 562 1
1346 562 1
1347 562 1
311 563 1
320 563 1
339 563 1
345 563 1
437 563 1
441 563 1
577 563 1
580 563 1
1347 563 1
1348 563 1
312 564 1
321 564 1
340 564 1
346 564 1
438 564 1
442 564 1
578 564 1
581 564 1
1348 564 1
1349 564 1
313 565 1
322 565 1
341 565 1
347 565 1
439 565 1
443 565 1
579 565 1
582 565 1
1349 565 1
1350 565 1
309 566 1
314 566 1
342 566 1
348 566 1
440 566 1
444 566 1
580 566 1
583 566 1
1350 566 1
1351 566 1
310 567 1
315 567 1
343 567 1
349 567 1
441 567 1
445 567 1
581 567 1
584 567 1
1351 567 1
1352 567 1
311 568 1
316 568 1
344 568 1
350 568 1
442 568 1
446 568 1
582 568 1
585 568 1
1352 568 1
1353 568 1
312 569 1
317 569 1
337 569 1
345 569 1
443 569 1
447 569 1
583 569 1
586 569 1
1353 569 1
1354 569 1
313 570 1
318 570 1
338 570 1
346 570 1
444 570 1
448 570 1
584 570 1
587 570 1
1354 570 1
1355 570 1
314 571 1
319 571 1
339 571 1
347 571 1
435 571 1
445 571 1
585 571 1
588 571 1
1355 571 1
1356 571 1
315 572 1
320 572 1
340 572 1
348 572 1
436 572 1
446 572 1
575 572 1
586 572 1
1356 572 1
1357 572 1
316 573 1
321 573 1
341 573 1
349 573 1
437 573 1
447 573 1
576 573 1
587 573 1
1357 573 1
1358 573 1
317 574 1
322 574 1
342 574 1
350 574 1
438 574 1
448 574 1
577 574 1
588 574 1
1345 574 1
1358 574 1
309 575 1
322 575 1
351 575 1
357 575 1
449 575 1
453 575 1
589 575 1
592 575 1
1359 575 1
1360 575 1
309 576 1
310 576 1
352 576 1
358 576 1
450 576 1
454 576 1
590 576 1
593 576 1
1360 576 1
1361 576 1
310 577 1
311 577 1
353 577 1
359 577 1
451 577 1
455 577 1
591 577 1
594 577 1
1361 577 1
1362 577 1
311 578 1
312 578 1
354 578 1
360 578 1
452 578 1
456 578 1
592 578 1
595 578 1
1362 578 1
1363 578 1
312 579 1
313 579 1
355 579 1
361 579 1
453 579 1
457 579 1
593 579 1
596 579 1
1363 579 1
1364 579 1
313 580 1
314 580 1
356 580 1
362 580 1
454 580 1
458 580 1
594 580 1
597 580 1
1364 580 1
1365 580 1
314 581 1
315 581 1
357 581 1
363 581 1
455 581 1
459 581 1
595 581 1
598 581 1
1365 581 1
1366 581 1
315 582 1
316 582 1
358 582 1
364 582 1
456 582 1
460 582 1
596 582 1
599 582 1
1366 582 1
1367 582 1
316 583 1
317 583 1
351 583 1
359 583 1
457 583 1
461 583 1
597 583 1
600 583 1
1367 583 1
1368 583 1
317 584 1
318 584 1
352 584 1
360 584 1
458 584 1
462 584 1
598 584 1
601 584 1
1368 584 1
1369 584 1
318 585 1
319 585 1
353 585 1
361 585 1
449 585 1
459 585 1
599 585 1
602 585 1
1369 585 1
1370 585 1
319 586 1
320 586 1
354 586 1
362 586 1
450 586 1
460 586 1
589 586 1
600 586 1
1370 586 1
1371 586 1
320 587 1
321 587 1
355 587 1
363 587 1
451 587 1
461 587 1
590 587 1
601 587 1
1371 587 1
1372 587 1
321 588 1
322 588 1
356 588 1
364 588 1
452 588 1
462 588 1
591 588 1
602 588 1
1359 588 1
1372 588 1
323 589 1
332 589 1
337 589 1
344 589 1
463 589 1
467 589 1
603 589 1
606 589 1
1373 589 1
1374 589 1
324 590 1
333 590 1
338 590 1
345 590 1
464 590 1
468 590 1
604 590 1
607 590 1
1374 590 1
1375 590 1
325 591 1
334 591 1
339 591 1
346 591 1
465 591 1
469 591 1
605 591 1
608 591 1
1375 591 1
1376 591 1
326 592 1
335 592 1
340 592 1
347 592 1
466 592 1
470 592 1
606 592 1
609 592 1
1376 592 1
1377 592 1
327 593 1
336 593 1
341 593 1
348 593 1
467 593 1
471 593 1
607 593 1
610 593 1
1377 593 1
1378 593 1
323 594 1
328 594 1
342 594 1
349 594 1
468 594 1
472 594 1
608 594 1
611 594 1
1378 594 1
1379 594 1
324 595 1
329 595 1
343 595 1
350 595 1
469 595 1
473 595 1
609 595 1
612 595 1
1379 595 1
1380 595 1
325 596 1
330 596 1
337 596 1
344 596 1
470 596 1
474 596 1
610 596 1
613 596 1
1380 596 1
1381 596 1
326 597 1
331 597 1
338 597 1
345 597 1
471 597 1
475 597 1
611 597 1
614 597 1
1381 597 1
1382 597 1
327 598 1
332 598 1
339 598 1
346 598 1
472 598 1
476 598 1
612 598 1
615 598 1
1382 598 1
1383 598 1
328 599 1
333 599 1
340 599 1
347 599 1
463 599 1
473 599 1
613 599 1
616 599 1
1383 599 1
1384 599 1
329 600 1
334 600 1
341 600 1
348 600 1
464 600 1
474 600 1
603 600 1
614 600 1
1384 600 1
1385 600 1
330 601 1
335 601 1
342 601 1
349 601 1
465 601 1
475 601 1
604 601 1
615 601 1
1385 601 1
1386 601 1
331 602 1
336 602 1
343 602 1
350 602 1
466 602 1
476 602 1
605 602 1
616 602 1
1373 602 1
1386 602 1
323 603 1
336 603 1
351 603 1
358 603 1
477 603 1
481 603 1
617 603 1
620 603 1
1387 603 1
1388 603 1
323 604 1
324 604 1
352 604 1
359 604 1
478 604 1
482 604 1
618 604 1
621 604 1
1388 604 1
1389 604 1
324 605 1
325 605 1
353 605 1
360 605 1
479 605 1
483 605 1
619 605 1
622 605 1
1389 605 1
1390 605 1
325 606 1
326 606 1
354 606 1
361 606 1
480 606 1
484 606 1
620 606 1
623 606 1
1390 606 1
1391 606 1
326 607 1
327 607 1
355 607 1
362 607 1
481 607 1
485 607 1
621 607 1
624 607 1
1391 607 1
1392 607 1
327 608 1
328 608 1
356 608 1
363 608 1
482 608 1
486 608 1
622 608 1
625 608 1
1392 608 1
1393 608 1
328 609 1
329 609 1
357 609 1
364 609 1
483 609 1
487 609 1
623 609 1
626 609 1
1393 609 1
1394 609 1
329 610 1
330 610 1
351 610 1
358 610 1
484 610 1
488 610 1
624 610 1
627 610 1
1394 610 1
1395 610 1
330 611 1
331 611 1
352 611 1
359 611 1
485 611 1
489 611 1
625 611 1
628 611 1
1395 611 1
1396 611 1
331 612 1
332 612 1
353 612 1
360 612 1
486 612 1
490 612 1
626 612 1
629 612 1
1396 612 1
1397 612 1
332 613 1
333 613 1
354 613 1
361 613 1
477 613 1
487 613 1
627 613 1
630 613 1
1397 613 1
1398 613 1
333 614 1
334 614 1
355 614 1
362 614 1
478 614 1
488 614 1
617 614 1
628 614 1
1398 614 1
1399 614 1
334 615 1
335 615 1
356 615 1
363 615 1
479 615 1
489 615 1
618 615 1
629 615 1
1399 615 1
1400 615 1
335 616 1
336 616 1
357 616 1
364 616 1
480 616 1
490 616 1
619 616 1
630 616 1
1387 616 1
1400 616 1
337 617 1
350 617 1
351 617 1
360 617 1
491 617 1
495 617 1
631 617 1
634 617 1
1401 617 1
1402 617 1
337 618 1
338 618 1
352 618 1
361 618 1
492 618 1
496 618 1
632 618 1
635 618 1
1402 618 1
1403 618 1
338 619 1
339 619 1
353 619 1
362 619 1
493 619 1
497 619 1
633 619 1
636 619 1
1403 619 1
1404 619 1
339 620 1
340 620 1
354 620 1
363 620 1
494 620 1
498 620 1
634 620 1
637 620 1
1404 620 1
1405 620 1
340 621 1
341 621 1
355 621 1
364 621 1
495 621 1
499 621 1
635 621 1
638 621 1
1405 621 1
1406 621 1
341 622 1
342 622 1
351 622 1
356 622 1
496 622 1
500 622 1
636 622 1
639 622 1
1406 622 1
1407 622 1
342 623 1
343 623 1
352 623 1
357 623 1
497 623 1
501 623 1
637 623 1
640 623 1
1407 623 1
1408 623 1
343 624 1
344 624 1
353 624 1
358 624 1
498 624 1
502 624 1
638 624 1
641 624 1
1408 624 1
1409 624 1
344 625 1
345 625 1
354 625 1
359 625 1
499 625 1
503 625 1
639 625 1
642 625 1
1409 625 1
1410 625 1
345 626 1
346 626 1
355 626 1
360 626 1
500 626 1
504 626 1
640 626 1
643 626 1
1410 626 1
1411 626 1
346 627 1
347 627 1
356 627 1
361 627 1
491 627 1
501 627 1
641 627 1
644 627 1
1411 627 1
1412 627 1
347 628 1
348 628 1
357 628 1
362 628 1
492 628 1
502 628 1
631 628 1
642 628 1
1412 628 1
1413 628 1
348 629 1
349 629 1
358 629 1
363 629 1
493 629 1
503 629 1
632 629 1
643 629 1
1413 629 1
1414 629 1
349 630 1
350 630 1
359 630 1
364 630 1
494 630 1
504 630 1
633 630 1
644 630 1
1401 630 1
1414 630 1
365 631 1
372 631 1
379 631 1
385 631 1
421 631 1
426 631 1
645 631 1
648 631 1
1415 631 1
1416 631 1
366 632 1
373 632 1
380 632 1
386 632 1
422 632 1
427 632 1
646 632 1
649 632 1
1416 632 1
1417 632 1
367 633 1
374 633 1
381 633 1
387 633 1
423 633 1
428 633 1
647 633 1
650 633 1
1417 633 1
1418 633 1
368 634 1
375 634 1
382 634 1
388 634 1
424 634 1
429 634 1
648 634 1
651 634 1
1418 634 1
1419 634 1
369 635 1
376 635 1
383 635 1
389 635 1
425 635 1
430 635 1
649 635 1
652 635 1
1419 635 1
1420 635 1
370 636 1
377 636 1
384 636 1
390 636 1
426 636 1
431 636 1
650 636 1
653 636 1
1420 636 1
1421 636 1
371 637 1
378 637 1
385 637 1
391 637 1
427 637 1
432 637 1
651 637 1
654 637 1
1421 637 1
1422 637 1
365 638 1
372 638 1
386 638 1
392 638 1
428 638 1
433 638 1
652 638 1
655 638 1
1422 638 1
1423 638 1
366 639 1
373 639 1
379 639 1
387 639 1
429 639 1
434 639 1
653 639 1
656 639 1
1423 639 1
1424 639 1
367 640 1
374 640 1
380 640 1
388 640 1
421 640 1
430 640 1
654 640 1
657 640 1
1424 640 1
1425 640 1
368 641 1
375 641 1
381 641 1
389 641 1
422 641 1
431 641 1
655 641 1
658 641 1
1425 641 1
1426 641 1
369 642 1
376 642 1
382 642 1
390 642 1
423 642 1
432 642 1
645 642 1
656 642 1
1426 642 1
1427 642 1
370 643 1
377 643 1
383 643 1
391 643 1
424 643 1
433 643 1
646 643 1
657 643 1
1427 643 1
1428 643 1
371 644 1
378 644 1
384 644 1
392 644 1
425 644 1
434 644 1
647 644 1
658 644 1
1415 644 1
1428 644 1
365 645 1
374 645 1
393 645 1
399 645 1
435 645 1
440 645 1
659 645 1
662 645 1
1429 645 1
1430 645 1
366 646 1
375 646 1
394 646 1
400 646 1
436 646 1
441 646 1
660 646 1
663 646 1
1430 646 1
1431 646 1
367 647 1
376 647 1
395 647 1
401 647 1
437 647 1
442 647 1
661 647 1
664 647 1
1431 647 1
1432 647 1
368 648 1
377 648 1
396 648 1
402 648 1
438 648 1
443 648 1
662 648 1
665 648 1
1432 648 1
1433 648 1
369 649 1
378 649 1
397 649 1
403 649 1
439 649 1
444 649 1
663 649 1
666 649 1
1433 649 1
1434 649 1
365 650 1
370 650 1
398 650 1
404 650 1
440 650 1
445 650 1
664 650 1
667 650 1
1434 650 1
1435 650 1
366 651 1
371 651 1
399 651 1
405 651 1
441 651 1
446 651 1
665 651 1
668 651 1
1435 651 1
1436 651 1
367 652 1
372 652 1
400 652 1
406 652 1
442 652 1
447 652 1
666 652 1
669 652 1
1436 652 1
1437 652 1
368 653 1
373 653 1
393 653 1
401 653 1
443 653 1
448 653 1
667 653 1
670 653 1
1437 653 1
1438 653 1
369 654 1
374 654 1
394 654 1
402 654 1
435 654 1
444 654 1
668 654 1
671 654 1
1438 654 1
1439 654 1
370 655 1
375 655 1
395 655 1
403 655 1
436 655 1
445 655 1
669 655 1
672 655 1
1439 655 1
1440 655 1
371 656 1
376 656 1
396 656 1
404 656 1
437 656 1
446 656 1
659 656 1
670 656 1
1440 656 1
1441 656 1
372 657 1
377 657 1
397 657 1
405 657 1
438 657 1
447 657 1
660 657 1
671 657 1
1441 657 1
1442 657 1
373 658 1
378 658 1
398 658 1
406 658 1
439 658 1
448 658 1
661 658 1
672 658 1
1429 658 1
1442 658 1
365 659 1
378 659 1
407 659 1
413 659 1
449 659 1
454 659 1
673 659 1
676 659 1
1443 659 1
1444 659 1
365 660 1
366 660 1
408 660 1
414 660 1
450 660 1
455 660 1
674 660 1
677 660 1
1444 660 1
1445 660 1
366 661 1
367 661 1
409 661 1
415 661 1
451 661 1
456 661 1
675 661 1
678 661 1
1445 661 1
1446 661 1
367 662 1
368 662 1
410 662 1
416 662 1
452 662 1
457 662 1
676 662 1
679 662 1
1446 662 1
1447 662 1
368 663 1
369 663 1
411 663 1
417 663 1
453 663 1
458 663 1
677 663 1
680 663 1
1447 663 1
1448 663 1
369 664 1
370 664 1
412 664 1
418 664 1
454 664 1
459 664 1
678 664 1
681 664 1
1448 664 1
1449 664 1
370 665 1
371 665 1
413 665 1
419 665 1
455 665 1
460 665 1
679 665 1
682 665 1
1449 665 1
1450 665 1
371 666 1
372 666 1
414 666 1
420 666 1
456 666 1
461 666 1
680 666 1
683 666 1
1450 666 1
1451 666 1
372 667 1
373 667 1
407 667 1
415 667 1
457 667 1
462 667 1
681 667 1
684 667 1
1451 667 1
1452 667 1
373 668 1
374 668 1
408 668 1
416 668 1
449 668 1
458 668 1
682 668 1
685 668 1
1452 668 1
1453 668 1
374 669 1
375 669 1
409 669 1
417 669 1
450 669 1
459 669 1
683 669 1
686 669 1
1453 669 1
1454 669 1
375 670 1
376 670 1
410 670 1
418 670 1
451 670 1
460 670 1
673 670 1
684 670 1
1454 670 1
1455 670 1
376 671 1
377 671 1
411 671 1
419 671 1
452 671 1
461 671 1
674 671 1
685 671 1
1455 671 1
1456 671 1
377 672 1
378 672 1
412 672 1
420 672 1
453 672 1
462 672 1
675 672 1
686 672 1
1443 672 1
1456 672 1
379 673 1
388 673 1
393 673 1
400 673 1
463 673 1
468 673 1
687 673 1
690 673 1
1457 673 1
1458 673 1
380 674 1
389 674 1
394 674 1
401 674 1
464 674 1
469 674 1
688 674 1
691 674 1
1458 674 1
1459 674 1
381 675 1
390 675 1
395 675 1
402 675 1
465 675 1
470 675 1
689 675 1
692 675 1
1459 675 1
1460 675 1
382 676 1
391 676 1
396 676 1
403 676 1
466 676 1
471 676 1
690 676 1
693 676 1
1460 676 1
1461 676 1
383 677 1
392 677 1
397 677 1
404 677 1
467 677 1
472 677 1
691 677 1
694 677 1
1461 677 1
1462 677 1
379 678 1
384 678 1
398 678 1
405 678 1
468 678 1
473 678 1
692 678 1
695 678 1
1462 678 1
1463 678 1
380 679 1
385 679 1
399 679 1
406 679 1
469 679 1
474 679 1
693 679 1
696 679 1
1463 679 1
1464 679 1
381 680 1
386 680 1
393 680 1
400 680 1
470 680 1
475 680 1
694 680 1
697 680 1
1464 680 1
1465 680 1
382 681 1
387 681 1
394 681 1
401 681 1
471 681 1
476 681 1
695 681 1
698 681 1
1465 681 1
1466 681 1
383 682 1
388 682 1
395 682 1
402 682 1
463 682 1
472 682 1
696 682 1
699 682 1
1466 682 1
1467 682 1
384 683 1
389 683 1
396 683 1
403 683 1
464 683 1
473 683 1
697 683 1
700 683 1
1467 683 1
1468 683 1
385 684 1
390 684 1
397 684 1
404 684 1
465 684 1
474 684 1
687 684 1
698 684 1
1468 684 1
1469 684 1
386 685 1
391 685 1
398 685 1
405 685 1
466 685 1
475 685 1
688 685 1
699 685 1
1469 685 1
1470 685 1
387 686 1
392 686 1
399 686 1
406 686 1
467 686 1
476 686 1
689 686 1
700 686 1
1457 686 1
1470 686 1
379 687 1
392 687 1
407 687 1
414 687 1
477 687 1
482 687 1
701 687 1
704 687 1
1471 687 1
1472 687 1
379 688 1
380 688 1
408 688 1
415 688 1
478 688 1
483 688 1
702 688 1
705 688 1
1472 688 1
1473 688 1
380 689 1
381 689 1
409 689 1
416 689 1
479 689 1
484 689 1
703 689 1
706 689 1
1473 689 1
1474 689 1
381 690 1
382 690 1
410 690 1
417 690 1
480 690 1
485 690 1
704 690 1
707 690 1
1474 690 1
1475 690 1
382 691 1
383 691 1
411 691 1
418 691 1
481 691 1
486 691 1
705 691 1
708 691 1
1475 691 1
1476 691 1
383 692 1
384 692 1
412 692 1
419 692 1
482 692 1
487 692 1
706 692 1
709 692 1
1476 692 1
1477 692 1
384 693 1
385 693 1
413 693 1
420 693 1
483 693 1
488 693 1
707 693 1
710 693 1
1477 693 1
1478 693 1
385 694 1
386 694 1
407 694 1
414 694 1
484 694 1
489 694 1
708 694 1
711 694 1
1478 694 1
1479 694 1
386 695 1
387 695 1
408 695 1
415 695 1
485 695 1
490 695 1
709 695 1
712 695 1
1479 695 1
1480 695 1
387 696 1
388 696 1
409 696 1
416 696 1
477 696 1
486 696 1
710 696 1
713 696 1
1480 696 1
1481 696 1
388 697 1
389 697 1
410 697 1
417 697 1
478 697 1
487 697 1
711 697 1
714 697 1
1481 697 1
1482 697 1
389 698 1
390 698 1
411 698 1
418 698 1
479 698 1
488 698 1
701 698 1
712 698 1
1482 698 1
1483 698 1
390 699 1
391 699 1
412 699 1
419 699 1
480 699 1
489 699 1
702 699 1
713 699 1
1483 699 1
1484 699 1
391 700 1
392 700 1
413 700 1
420 700 1
481 700 1
490 700 1
703 700 1
714 700 1
1471 700 1
1484 700 1
393 701 1
406 701 1
407 701 1
416 701 1
491 701 1
496 701 1
715 701 1
718 701 1
1485 701 1
1486 701 1
393 702 1
394 702 1
408 702 1
417 702 1
492 702 1
497 702 1
716 702 1
719 702 1
1486 702 1
1487 702 1
394 703 1
395 703 1
409 703 1
418 703 1
493 703 1
498 703 1
717 703 1
720 703 1
1487 703 1
1488 703 1
395 704 1
396 704 1
410 704 1
419 704 1
494 704 1
499 704 1
718 704 1
721 704 1
1488 704 1
1489 704 1
396 705 1
397 705 1
411 705 1
420 705 1
495 705 1
500 705 1
719 705 1
722 705 1
1489 705 1
1490 705 1
397 706 1
398 706 1
407 706 1
412 706 1
496 706 1
501 706 1
720 706 1
723 706 1
1490 706 1
1491 706 1
398 707 1
399 707 1
408 707 1
413 707 1
497 707 1
502 707 1
721 707 1
724 707 1
1491 707 1
1492 707 1
399 708 1
400 708 1
409 708 1
414 708 1
498 708 1
503 708 1
722 708 1
725 708 1
1492 708 1
1493 708 1
400 709 1
401 709 1
410 709 1
415 709 1
499 709 1
504 709 1
723 709 1
726 709 1
1493 709 1
1494 709 1
401 710 1
402 710 1
411 710 1
416 710 1
491 710 1
500 710 1
724 710 1
727 710 1
1494 710 1
1495 710 1
402 711 1
403 711 1
412 711 1
417 711 1
492 711 1
501 711 1
725 711 1
728 711 1
1495 711 1
1496 711 1
403 712 1
404 712 1
413 712 1
418 712 1
493 712 1
502 712 1
715 712 1
726 712 1
1496 712 1
1497 712 1
404 713 1
405 713 1
414 713 1
419 713 1
494 713 1
503 713 1
716 713 1
727 713 1
1497 713 1
1498 713 1
405 714 1
406 714 1
415 714 1
420 714 1
495 714 1
504 714 1
717 714 1
728 714 1
1485 714 1
1498 714 1
421 715 1
430 715 1
435 715 1
442 715 1
463 715 1
469 715 1
729 715 1
732 715 1
1499 715 1
1500 715 1
422 716 1
431 716 1
436 716 1
443 716 1
464 716 1
470 716 1
730 716 1
733 716 1
1500 716 1
1501 716 1
423 717 1
432 717 1
437 717 1
444 717 1
465 717 1
471 717 1
731 717 1
734 717 1
1501 717 1
1502 717 1
424 718 1
433 718 1
438 718 1
445 718 1
466 718 1
472 718 1
732 718 1
735 718 1
1502 718 1
1503 718 1
425 719 1
434 719 1
439 719 1
446 719 1
467 719 1
473 719 1
733 719 1
736 719 1
1503 719 1
1504 719 1
421 720 1
426 720 1
440 720 1
447 720 1
468 720 1
474 720 1
734 720 1
737 720 1
1504 720 1
1505 720 1
422 721 1
427 721 1
441 721 1
448 721 1
469 721 1
475 721 1
735 721 1
738 721 1
1505 721 1
1506 721 1
423 722 1
428 722 1
435 722 1
442 722 1
470 722 1
476 722 1
736 722 1
739 722 1
1506 722 1
1507 722 1
424 723 1
429 723 1
436 723 1
443 723 1
463 723 1
471 723 1
737 723 1
740 723 1
1507 723 1
1508 723 1
425 724 1
430 724 1
437 724 1
444 724 1
464 724 1
472 724 1
738 724 1
741 724 1
1508 724 1
1509 724 1
426 725 1
431 725 1
438 725 1
445 725 1
465 725 1
473 725 1
739 725 1
742 725 1
1509 725 1
1510 725 1
427 726 1
432 726 1
439 726 1
446 726 1
466 726 1
474 726 1
729 726 1
740 726 1
1510 726 1
1511 726 1
428 727 1
433 727 1
440 727 1
447 727 1
467 727 1
475 727 1
730 727 1
741 727 1
1511 727 1
1512 727 1
429 728 1
434 728 1
441 728 1
448 728 1
468 728 1
476 728 1
731 728 1
742 728 1
1499 728 1
1512 728 1
421 729 1
434 729 1
449 729 1
456 729 1
477 729 1
483 729 1
743 729 1
746 729 1
1513 729 1
1514 729 1
421 730 1
422 730 1
450 730 1
457 730 1
478 730 1
484 730 1
744 730 1
747 730 1
1514 730 1
1515 730 1
422 731 1
423 731 1
451 731 1
458 731 1
479 731 1
485 731 1
745 731 1
748 731 1
1515 731 1
1516 731 1
423 732 1
424 732 1
452 732 1
459 732 1
480 732 1
486 732 1
746 732 1
749 732 1
1516 732 1
1517 732 1
424 733 1
425 733 1
453 733 1
460 733 1
481 733 1
487 733 1
747 733 1
750 733 1
1517 733 1
1518 733 1
425 734 1
426 734 1
454 734 1
461 734 1
482 734 1
488 734 1
748 734 1
751 734 1
1518 734 1
1519 734 1
426 735 1
427 735 1
455 735 1
462 735 1
483 735 1
489 735 1
749 735 1
752 735 1
1519 735 1
1520 735 1
427 736 1
428 736 1
449 736 1
456 736 1
484 736 1
490 736 1
750 736 1
753 736 1
1520 736 1
1521 736 1
428 737 1
429 737 1
450 737 1
457 737 1
477 737 1
485 737 1
751 737 1
754 737 1
1521 737 1
1522 737 1
429 738 1
430 738 1
451 738 1
458 738 1
478 738 1
486 738 1
752 738 1
755 738 1
1522 738 1
1523 738 1
430 739 1
431 739 1
452 739 1
459 739 1
479 739 1
487 739 1
753 739 1
756 739 1
1523 739 1
1524 739 1
431 740 1
432 740 1
453 740 1
460 740 1
480 740 1
488 740 1
743 740 1
754 740 1
1524 740 1
1525 740 1
432 741 1
433 741 1
454 741 1
461 741 1
481 741 1
489 741 1
744 741 1
755 741 1
1525 741 1
1526 741 1
433 742 1
434 742 1
455 742 1
462 742 1
482 742 1
490 742 1
745 742 1
756 742 1
1513 742 1
1526 742 1
435 743 1
448 743 1
449 743 1
458 743 1
491 743 1
497 743 1
757 743 1
760 743 1
1527 743 1
1528 743 1
435 744 1
436 744 1
450 744 1
459 744 1
492 744 1
498 744 1
758 744 1
761 744 1
1528 744 1
1529 744 1
436 745 1
437 745 1
451 745 1
460 745 1
493 745 1
499 745 1
759 745 1
762 745 1
1529 745 1
1530 745 1
437 746 1
438 746 1
452 746 1
461 746 1
494 746 1
500 746 1
760 746 1
763 746 1
1530 746 1
1531 746 1
438 747 1
439 747 1
453 747 1
462 747 1
495 747 1
501 747 1
761 747 1
764 747 1
1531 747 1
1532 747 1
439 748 1
440 748 1
449 748 1
454 748 1
496 748 1
502 748 1
762 748 1
765 748 1
1532 748 1
1533 748 1
440 749 1
441 749 1
450 749 1
455 749 1
497 749 1
503 749 1
763 749 1
766 749 1
1533 749 1
1534 749 1
441 750 1
442 750 1
451 750 1
456 750 1
498 750 1
504 750 1
764 750 1
767 750 1
1534 750 1
1535 750 1
442 751 1
443 751 1
452 751 1
457 751 1
491 751 1
499 751 1
765 751 1
768 751 1
1535 751 1
1536 751 1
443 752 1
444 752 1
453 752 1
458 752 1
492 752 1
500 752 1
766 752 1
769 752 1
1536 752 1
1537 752 1
444 753 1
445 753 1
454 753 1
459 753 1
493 753 1
501 753 1
767 753 1
770 753 1
1537 753 1
1538 753 1
445 754 1
446 754 1
455 754 1
460 754 1
494 754 1
502 754 1
757 754 1
768 754 1
1538 754 1
1539 754 1
446 755 1
447 755 1
456 755 1
461 755 1
495 755 1
503 755 1
758 755 1
769 755 1
1539 755 1
1540 755 1
447 756 1
448 756 1
457 756 1
462 756 1
496 756 1
504 756 1
759 756 1
770 756 1
1527 756 1
1540 756 1
463 757 1
476 757 1
477 757 1
486 757 1
491 757 1
498 757 1
771 757 1
774 757 1
1541 757 1
1542 757 1
463 758 1
464 758 1
478 758 1
487 758 1
492 758 1
499 758 1
772 758 1
775 758 1
1542 758 1
1543 758 1
464 759 1
465 759 1
479 759 1
488 759 1
493 759 1
500 759 1
773 759 1
776 759 1
1543 759 1
1544 759 1
465 760 1
466 760 1
480 760 1
489 760 1
494 760 1
501 760 1
774 760 1
777 760 1
1544 760 1
1545 760 1
466 761 1
467 761 1
481 761 1
490 761 1
495 761 1
502 761 1
775 761 1
778 761 1
1545 761 1
1546 761 1
467 762 1
468 762 1
477 762 1
482 762 1
496 762 1
503 762 1
776 762 1
779 762 1
1546 762 1
1547 762 1
468 763 1
469 763 1
478 763 1
483 763 1
497 763 1
504 763 1
777 763 1
780 763 1
1547 763 1
1548 763 1
469 764 1
470 764 1
479 764 1
484 764 1
491 764 1
498 764 1
778 764 1
781 764 1
1548 764 1
1549 764 1
470 765 1
471 765 1
480 765 1
485 765 1
492 765 1
499 765 1
779 765 1
782 765 1
1549 765 1
1550 765 1
471 766 1
472 766 1
481 766 1
486 766 1
493 766 1
500 766 1
780 766 1
783 766 1
1550 766 1
1551 766 1
472 767 1
473 767 1
482 767 1
487 767 1
494 767 1
501 767 1
781 767 1
784 767 1
1551 767 1
1552 767 1
473 768 1
474 768 1
483 768 1
488 768 1
495 768 1
502 768 1
771 768 1
782 768 1
1552 768 1
1553 768 1
474 769 1
475 769 1
484 769 1
489 769 1
496 769 1
503 769 1
772 769 1
783 769 1
1553 769 1
1554 769 1
475 770 1
476 770 1
485 770 1
490 770 1
497 770 1
504 770 1
773 770 1
784 770 1
1541 770 1
1554 770 1
505 771 1
512 771 1
519 771 1
525 771 1
561 771 1
566 771 1
645 771 1
649 771 1
1555 771 1
1556 771 1
506 772 1
513 772 1
520 772 1
526 772 1
562 772 1
567 772 1
646 772 1
650 772 1
1556 772 1
1557 772 1
507 773 1
514 773 1
521 773 1
527 773 1
563 773 1
568 773 1
647 773 1
651 773 1
1557 773 1
1558 773 1
508 774 1
515 774 1
522 774 1
528 774 1
564 774 1
569 774 1
648 774 1
652 774 1
1558 774 1
1559 774 1
509 775 1
516 775 1
523 775 1
529 775 1
565 775 1
570 775 1
649 775 1
653 775 1
1559 775 1
1560 775 1
510 776 1
517 776 1
524 776 1
530 776 1
566 776 1
571 776 1
650 776 1
654 776 1
1560 776 1
1561 776 1
511 777 1
518 777 1
525 777 1
531 777 1
567 777 1
572 777 1
651 777 1
655 777 1
1561 777 1
1562 777 1
505 778 1
512 778 1
526 778 1
532 778 1
568 778 1
573 778 1
652 778 1
656 778 1
1562 778 1
1563 778 1
506 779 1
513 779 1
519 779 1
527 779 1
569 779 1
574 779 1
653 779 1
657 779 1
1563 779 1
1564 779 1
507 780 1
514 780 1
520 780 1
528 780 1
561 780 1
570 780 1
654 780 1
658 780 1
1564 780 1
1565 780 1
508 781 1
515 781 1
521 781 1
529 781 1
562 781 1
571 781 1
645 781 1
655 781 1
1565 781 1
1566 781 1
509 782 1
516 782 1
522 782 1
530 782 1
563 782 1
572 782 1
646 782 1
656 782 1
1566 782 1
1567 782 1
510 783 1
517 783 1
523 783 1
531 783 1
564 783 1
573 783 1
647 783 1
657 783 1
1567 783 1
1568 783 1
511 784 1
518 784 1
524 784 1
532 784 1
565 784 1
574 784 1
648 784 1
658 784 1
1555 784 1
1568 784 1
505 785 1
514 785 1
533 785 1
539 785 1
575 785 1
580 785 1
659 785 1
663 785 1
1569 785 1
1570 785 1
506 786 1
515 786 1
534 786 1
540 786 1
576 786 1
581 786 1
660 786 1
664 786 1
1570 786 1
1571 786 1
507 787 1
516 787 1
535 787 1
541 787 1
577 787 1
582 787 1
661 787 1
665 787 1
1571 787 1
1572 787 1
508 788 1
517 788 1
536 788 1
542 788 1
578 788 1
583 788 1
662 788 1
666 788 1
1572 788 1
1573 788 1
509 789 1
518 789 1
537 789 1
543 789 1
579 789 1
584 789 1
663 789 1
667 789 1
1573 789 1
1574 789 1
505 790 1
510 790 1
538 790 1
544 790 1
580 790 1
585 790 1
664 790 1
668 790 1
1574 790 1
1575 790 1
506 791 1
511 791 1
539 791 1
545 791 1
581 791 1
586 791 1
665 791 1
669 791 1
1575 791 1
1576 791 1
507 792 1
512 792 1
540 792 1
546 792 1
582 792 1
587 792 1
666 792 1
670 792 1
1576 792 1
1577 792 1
508 793 1
513 793 1
533 793 1
541 793 1
583 793 1
588 793 1
667 793 1
671 793 1
1577 793 1
1578 793 1
509 794 1
514 794 1
534 794 1
542 794 1
575 794 1
584 794 1
668 794 1
672 794 1
1578 794 1
1579 794 1
510 795 1
515 795 1
535 795 1
543 795 1
576 795 1
585 795 1
659 795 1
669 795 1
1579 795 1
1580 795 1
511 796 1
516 796 1
536 796 1
544 796 1
577 796 1
586 796 1
660 796 1
670 796 1
1580 796 1
1581 796 1
512 797 1
517 797 1
537 797 1
545 797 1
578 797 1
587 797 1
661 797 1
671 797 1
1581 797 1
1582 797 1
513 798 1
518 798 1
538 798 1
546 798 1
579 798 1
588 798 1
662 798 1
672 798 1
1569 798 1
1582 798 1
505 799 1
518 799 1
547 799 1
553 799 1
589 799 1
594 799 1
673 799 1
677 799 1
1583 799 1
1584 799 1
505 800 1
506 800 1
548 800 1
554 800 1
590 800 1
595 800 1
674 800 1
678 800 1
1584 800 1
1585 800 1
506 801 1
507 801 1
549 801 1
555 801 1
591 801 1
596 801 1
675 801 1
679 801 1
1585 801 1
1586 801 1
507 802 1
508 802 1
550 802 1
556 802 1
592 802 1
597 802 1
676 802 1
680 802 1
1586 802 1
1587 802 1
508 803 1
509 803 1
551 803 1
557 803 1
593 803 1
598 803 1
677 803 1
681 803 1
1587 803 1
1588 803 1
509 804 1
510 804 1
552 804 1
558 804 1
594 804 1
599 804 1
678 804 1
682 804 1
1588 804 1
1589 804 1
510 805 1
511 805 1
553 805 1
559 805 1
595 805 1
600 805 1
679 805 1
683 805 1
1589 805 1
1590 805 1
511 806 1
512 806 1
554 806 1
560 806 1
596 806 1
601 806 1
680 806 1
684 806 1
1590 806 1
1591 806 1
512 807 1
513 807 1
547 807 1
555 807 1
597 807 1
602 807 1
681 807 1
685 807 1
1591 807 1
1592 807 1
513 808 1
514 808 1
548 808 1
556 808 1
589 808 1
598 808 1
682 808 1
686 808 1
1592 808 1
1593 808 1
514 809 1
515 809 1
549 809 1
557 809 1
590 809 1
599 809 1
673 809 1
683 809 1
1593 809 1
1594 809 1
515 810 1
516 810 1
550 810 1
558 810 1
591 810 1
600 810 1
674 810 1
684 810 1
1594 810 1
1595 810 1
516 811 1
517 811 1
551 811 1
559 811 1
592 811 1
601 811 1
675 811 1
685 811 1
1595 811 1
1596 811 1
517 812 1
518 812 1
552 812 1
560 812 1
593 812 1
602 812 1
676 812 1
686 812 1
1583 812 1
1596 812 1
519 813 1
528 813 1
533 813 1
540 813 1
603 813 1
608 813 1
687 813 1
691 813 1
1597 813 1
1598 813 1
520 814 1
529 814 1
534 814 1
541 814 1
604 814 1
609 814 1
688 814 1
692 814 1
1598 814 1
1599 814 1
521 815 1
530 815 1
535 815 1
542 815 1
605 815 1
610 815 1
689 815 1
693 815 1
1599 815 1
1600 815 1
522 816 1
531 816 1
536 816 1
543 816 1
606 816 1
611 816 1
690 816 1
694 816 1
1600 816 1
1601 816 1
523 817 1
532 817 1
537 817 1
544 817 1
607 817 1
612 817 1
691 817 1
695 817 1
1601 817 1
1602 817 1
519 818 1
524 818 1
538 818 1
545 818 1
608 818 1
613 818 1
692 818 1
696 818 1
1602 818 1
1603 818 1
520 819 1
525 819 1
539 819 1
546 819 1
609 819 1
614 819 1
693 819 1
697 819 1
1603 819 1
1604 819 1
521 820 1
526 820 1
533 820 1
540 820 1
610 820 1
615 820 1
694 820 1
698 820 1
1604 820 1
1605 820 1
522 821 1
527 821 1
534 821 1
541 821 1
611 821 1
616 821 1
695 821 1
699 821 1
1605 821 1
1606 821 1
523 822 1
528 822 1
535 822 1
542 822 1
603 822 1
612 822 1
696 822 1
700 822 1
1606 822 1
1607 822 1
524 823 1
529 823 1
536 823 1
543 823 1
604 823 1
613 823 1
687 823 1
697 823 1
1607 823 1
1608 823 1
525 824 1
530 824 1
537 824 1
544 824 1
605 824 1
614 824 1
688 824 1
698 824 1
1608 824 1
1609 824 1
526 825 1
531 825 1
538 825 1
545 825 1
606 825 1
615 825 1
689 825 1
699 825 1
1609 825 1
1610 825 1
527 826 1
532 826 1
539 826 1
546 826 1
607 826 1
616 826 1
690 826 1
700 826 1
1597 826 1
1610 826 1
519 827 1
532 827 1
547 827 1
554 827 1
617 827 1
622 827 1
701 827 1
705 827 1
1611 827 1
1612 827 1
519 828 1
520 828 1
548 828 1
555 828 1
618 828 1
623 828 1
702 828 1
706 828 1
1612 828 1
1613 828 1
520 829 1
521 829 1
549 829 1
556 829 1
619 829 1
624 829 1
703 829 1
707 829 1
1613 829 1
1614 829 1
521 830 1
522 830 1
550 830 1
557 830 1
620 830 1
625 830 1
704 830 1
708 830 1
1614 830 1
1615 830 1
522 831 1
523 831 1
551 831 1
558 831 1
621 831 1
626 831 1
705 831 1
709 831 1
1615 831 1
1616 831 1
523 832 1
524 832 1
552 832 1
559 832 1
622 832 1
627 832 1
706 832 1
710 832 1
1616 832 1
1617 832 1
524 833 1
525 833 1
553 833 1
560 833 1
623 833 1
628 833 1
707 833 1
711 833 1
1617 833 1
1618 833 1
525 834 1
526 834 1
547 834 1
554 834 1
624 834 1
629 834 1
708 834 1
712 834 1
1618 834 1
1619 834 1
526 835 1
527 835 1
548 835 1
555 835 1
625 835 1
630 835 1
709 835 1
713 835 1
1619 835 1
1620 835 1
527 836 1
528 836 1
549 836 1
556 836 1
617 836 1
626 836 1
710 836 1
714 836 1
1620 836 1
1621 836 1
528 837 1
529 837 1
550 837 1
557 837 1
618 837 1
627 837 1
701 837 1
711 837 1
1621 837 1
1622 837 1
529 838 1
530 838 1
551 838 1
558 838 1
619 838 1
628 838 1
702 838 1
712 838 1
1622 838 1
1623 838 1
530 839 1
531 839 1
552 839 1
559 839 1
620 839 1
629 839 1
703 839 1
713 839 1
1623 839 1
1624 839 1
531 840 1
532 840 1
553 840 1
560 840 1
621 840 1
630 840 1
704 840 1
714 840 1
1611 840 1
1624 840 1
533 841 1
546 841 1
547 841 1
556 841 1
631 841 1
636 841 1
715 841 1
719 841 1
1625 841 1
1626 841 1
533 842 1
534 842 1
548 842 1
557 842 1
632 842 1
637 842 1
716 842 1
720 842 1
1626 842 1
1627 842 1
534 843 1
535 843 1
549 843 1
558 843 1
633 843 1
638 843 1
717 843 1
721 843 1
1627 843 1
1628 843 1
535 844 1
536 844 1
550 844 1
559 844 1
634 844 1
639 844 1
718 844 1
722 844 1
1628 844 1
1629 844 1
536 845 1
537 845 1
551 845 1
560 845 1
635 845 1
640 845 1
719 845 1
723 845 1
1629 845 1
1630 845 1
537 846 1
538 846 1
547 846 1
552 846 1
636 846 1
641 846 1
720 846 1
724 846 1
1630 846 1
1631 846 1
538 847 1
539 847 1
548 847 1
553 847 1
637 847 1
642 847 1
721 847 1
725 847 1
1631 847 1
1632 847 1
539 848 1
540 848 1
549 848 1
554 848 1
638 848 1
643 848 1
722 848 1
726 848 1
1632 848 1
1633 848 1
540 849 1
541 849 1
550 849 1
555 849 1
639 849 1
644 849 1
723 849 1
727 849 1
1633 849 1
1634 849 1
541 850 1
542 850 1
551 850 1
556 850 1
631 850 1
640 850 1
724 850 1
728 850 1
1634 850 1
1635 850 1
542 851 1
543 851 1
552 851 1
557 851 1
632 851 1
641 851 1
715 851 1
725 851 1
1635 851 1
1636 851 1
543 852 1
544 852 1
553 852 1
558 852 1
633 852 1
642 852 1
716 852 1
726 852 1
1636 852 1
1637 852 1
544 853 1
545 853 1
554 853 1
559 853 1
634 853 1
643 853 1
717 853 1
727 853 1
1637 853 1
1638 853 1
545 854 1
546 854 1
555 854 1
560 854 1
635 854 1
644 854 1
718 854 1
728 854 1
1625 854 1
1638 854 1
561 855 1
570 855 1
575 855 1
582 855 1
603 855 1
609 855 1
729 855 1
733 855 1
1639 855 1
1640 855 1
562 856 1
571 856 1
576 856 1
583 856 1
604 856 1
610 856 1
730 856 1
734 856 1
1640 856 1
1641 856 1
563 857 1
572 857 1
577 857 1
584 857 1
605 857 1
611 857 1
731 857 1
735 857 1
1641 857 1
1642 857 1
564 858 1
573 858 1
578 858 1
585 858 1
606 858 1
612 858 1
732 858 1
736 858 1
1642 858 1
1643 858 1
565 859 1
574 859 1
579 859 1
586 859 1
607 859 1
613 859 1
733 859 1
737 859 1
1643 859 1
1644 859 1
561 860 1
566 860 1
580 860 1
587 860 1
608 860 1
614 860 1
734 860 1
738 860 1
1644 860 1
1645 860 1
562 861 1
567 861 1
581 861 1
588 861 1
609 861 1
615 861 1
735 861 1
739 861 1
1645 861 1
1646 861 1
563 862 1
568 862 1
575 862 1
582 862 1
610 862 1
616 862 1
736 862 1
740 862 1
1646 862 1
1647 862 1
564 863 1
569 863 1
576 863 1
583 863 1
603 863 1
611 863 1
737 863 1
741 863 1
1647 863 1
1648 863 1
565 864 1
570 864 1
577 864 1
584 864 1
604 864 1
612 864 1
738 864 1
742 864 1
1648 864 1
1649 864 1
566 865 1
571 865 1
578 865 1
585 865 1
605 865 1
613 865 1
729 865 1
739 865 1
1649 865 1
1650 865 1
567 866 1
572 866 1
579 866 1
586 866 1
606 866 1
614 866 1
730 866 1
740 866 1
1650 866 1
1651 866 1
568 867 1
573 867 1
580 867 1
587 867 1
607 867 1
615 867 1
731 867 1
741 867 1
1651 867 1
1652 867 1
569 868 1
574 868 1
581 868 1
588 868 1
608 868 1
616 868 1
732 868 1
742 868 1
1639 868 1
1652 868 1
561 869 1
574 869 1
589 869 1
596 869 1
617 869 1
623 869 1
743 869 1
747 869 1
1653 869 1
1654 869 1
561 870 1
562 870 1
590 870 1
597 870 1
618 870 1
624 870 1
744 870 1
748 870 1
1654 870 1
1655 870 1
562 871 1
563 871 1
591 871 1
598 871 1
619 871 1
625 871 1
745 871 1
749 871 1
1655 871 1
1656 871 1
563 872 1
564 872 1
592 872 1
599 872 1
620 872 1
626 872 1
746 872 1
750 872 1
1656 872 1
1657 872 1
564 873 1
565 873 1
593 873 1
600 873 1
621 873 1
627 873 1
747 873 1
751 873 1
1657 873 1
1658 873 1
565 874 1
566 874 1
594 874 1
601 874 1
622 874 1
628 874 1
748 874 1
752 874 1
1658 874 1
1659 874 1
566 875 1
567 875 1
595 875 1
602 875 1
623 875 1
629 875 1
749 875 1
753 875 1
1659 875 1
1660 875 1
567 876 1
568 876 1
589 876 1
596 876 1
624 876 1
630 876 1
750 876 1
754 876 1
1660 876 1
1661 876 1
568 877 1
569 877 1
590 877 1
597 877 1
617 877 1
625 877 1
751 877 1
755 877 1
1661 877 1
1662 877 1
569 878 1
570 878 1
591 878 1
598 878 1
618 878 1
626 878 1
752 878 1
756 878 1
1662 878 1
1663 878 1
570 879 1
571 879 1
592 879 1
599 879 1
619 879 1
627 879 1
743 879 1
753 879 1
1663 879 1
1664 879 1
571 880 1
572 880 1
593 880 1
600 880 1
620 880 1
628 880 1
744 880 1
754 880 1
1664 880 1
1665 880 1
572 881 1
573 881 1
594 881 1
601 881 1
621 881 1
629 881 1
745 881 1
755 881 1
1665 881 1
1666 881 1
573 882 1
574 882 1
595 882 1
602 882 1
622 882 1
630 882 1
746 882 1
756 882 1
1653 882 1
1666 882 1
575 883 1
588 883 1
589 883 1
598 883 1
631 883 1
637 883 1
757 883 1
761 883 1
1667 883 1
1668 883 1
575 884 1
576 884 1
590 884 1
599 884 1
632 884 1
638 884 1
758 884 1
762 884 1
1668 884 1
1669 884 1
576 885 1
577 885 1
591 885 1
600 885 1
633 885 1
639 885 1
759 885 1
763 885 1
1669 885 1
1670 885 1
577 886 1
578 886 1
592 886 1
601 886 1
634 886 1
640 886 1
760 886 1
764 886 1
1670 886 1
1671 886 1
578 887 1
579 887 1
593 887 1
602 887 1
635 887 1
641 887 1
761 887 1
765 887 1
1671 887 1
1672 887 1
579 888 1
580 888 1
589 888 1
594 888 1
636 888 1
642 888 1
762 888 1
766 888 1
1672 888 1
1673 888 1
580 889 1
581 889 1
590 889 1
595 889 1
637 889 1
643 889 1
763 889 1
767 889 1
1673 889 1
1674 889 1
581 890 1
582 890 1
591 890 1
596 890 1
638 890 1
644 890 1
764 890 1
768 890 1
1674 890 1
1675 890 1
582 891 1
583 891 1
592 891 1
597 891 1
631 891 1
639 891 1
765 891 1
769 891 1
1675 891 1
1676 891 1
583 892 1
584 892 1
593 892 1
598 892 1
632 892 1
640 892 1
766 892 1
770 892 1
1676 892 1
1677 892 1
584 893 1
585 893 1
594 893 1
599 893 1
633 893 1
641 893 1
757 893 1
767 893 1
1677 893 1
1678 893 1
585 894 1
586 894 1
595 894 1
600 894 1
634 894 1
642 894 1
758 894 1
768 894 1
1678 894 1
1679 894 1
586 895 1
587 895 1
596 895 1
601 895 1
635 895 1
643 895 1
759 895 1
769 895 1
1679 895 1
1680 895 1
587 896 1
588 896 1
597 896 1
602 896 1
636 896 1
644 896 1
760 896 1
770 896 1
1667 896 1
1680 896 1
603 897 1
616 897 1
617 897 1
626 897 1
631 897 1
638 897 1
771 897 1
775 897 1
1681 897 1
1682 897 1
603 898 1
604 898 1
618 898 1
627 898 1
632 898 1
639 898 1
772 898 1
776 898 1
1682 898 1
1683 898 1
604 899 1
605 899 1
619 899 1
628 899 1
633 899 1
640 899 1
773 899 1
777 899 1
1683 899 1
1684 899 1
605 900 1
606 900 1
620 900 1
629 900 1
634 900 1
641 900 1
774 900 1
778 900 1
1684 900 1
1685 900 1
606 901 1
607 901 1
621 901 1
630 901 1
635 901 1
642 901 1
775 901 1
779 901 1
1685 901 1
1686 901 1
607 902 1
608 902 1
617 902 1
622 902 1
636 902 1
643 902 1
776 902 1
780 902 1
1686 902 1
1687 902 1
608 903 1
609 903 1
618 903 1
623 903 1
637 903 1
644 903 1
777 903 1
781 903 1
1687 903 1
1688 903 1
609 904 1
610 904 1
619 904 1
624 904 1
631 904 1
638 904 1
778 904 1
782 904 1
1688 904 1
1689 904 1
610 905 1
611 905 1
620 905 1
625 905 1
632 905 1
639 905 1
779 905 1
783 905 1
1689 905 1
1690 905 1
611 906 1
612 906 1
621 906 1
626 906 1
633 906 1
640 906 1
780 906 1
784 906 1
1690 906 1
1691 906 1
612 907 1
613 907 1
622 907 1
627 907 1
634 907 1
641 907 1
771 907 1
781 907 1
1691 907 1
1692 907 1
613 908 1
614 908 1
623 908 1
628 908 1
635 908 1
642 908 1
772 908 1
782 908 1
1692 908 1
1693 908 1
614 909 1
615 909 1
624 909 1
629 909 1
636 909 1
643 909 1
773 909 1
783 909 1
1693 909 1
1694 909 1
615 910 1
616 910 1
625 910 1
630 910 1
637 910 1
644 910 1
774 910 1
784 910 1
1681 910 1
1694 910 1
645 911 1
654 911 1
659 911 1
666 911 1
687 911 1
693 911 1
729 911 1
734 911 1
1695 911 1
1696 911 1
646 912 1
655 912 1
660 912 1
667 912 1
688 912 1
694 912 1
730 912 1
735 912 1
1696 912 1
1697 912 1
647 913 1
656 913 1
661 913 1
668 913 1
689 913 1
695 913 1
731 913 1
736 913 1
1697 913 1
1698 913 1
648 914 1
657 914 1
662 914 1
669 914 1
690 914 1
696 914 1
732 914 1
737 914 1
1698 914 1
1699 914 1
649 915 1
658 915 1
663 915 1
670 915 1
691 915 1
697 915 1
733 915 1
738 915 1
1699 915 1
1700 915 1
645 916 1
650 916 1
664 916 1
671 916 1
692 916 1
698 916 1
734 916 1
739 916 1
1700 916 1
1701 916 1
646 917 1
651 917 1
665 917 1
672 917 1
693 917 1
699 917 1
735 917 1
740 917 1
1701 917 1
1702 917 1
647 918 1
652 918 1
659 918 1
666 918 1
694 918 1
700 918 1
736 918 1
741 918 1
1702 918 1
1703 918 1
648 919 1
653 919 1
660 919 1
667 919 1
687 919 1
695 919 1
737 919 1
742 919 1
1703 919 1
1704 919 1
649 920 1
654 920 1
661 920 1
668 920 1
688 920 1
696 920 1
729 920 1
738 920 1
1704 920 1
1705 920 1
650 921 1
655 921 1
662 921 1
669 921 1
689 921 1
697 921 1
730 921 1
739 921 1
1705 921 1
1706 921 1
651 922 1
656 922 1
663 922 1
670 922 1
690 922 1
698 922 1
731 922 1
740 922 1
1706 922 1
1707 922 1
652 923 1
657 923 1
664 923 1
671 923 1
691 923 1
699 923 1
732 923 1
741 923 1
1707 923 1
1708 923 1
653 924 1
658 924 1
665 924 1
672 924 1
692 924 1
700 924 1
733 924 1
742 924 1
1695 924 1
1708 924 1
645 925 1
658 925 1
673 925 1
680 925 1
701 925 1
707 925 1
743 925 1
748 925 1
1709 925 1
1710 925 1
645 926 1
646 926 1
674 926 1
681 926 1
702 926 1
708 926 1
744 926 1
749 926 1
1710 926 1
1711 926 1
646 927 1
647 927 1
675 927 1
682 927 1
703 927 1
709 927 1
745 927 1
750 927 1
1711 927 1
1712 927 1
647 928 1
648 928 1
676 928 1
683 928 1
704 928 1
710 928 1
746 928 1
751 928 1
1712 928 1
1713 928 1
648 929 1
649 929 1
677 929 1
684 929 1
705 929 1
711 929 1
747 929 1
752 929 1
1713 929 1
1714 929 1
649 930 1
650 930 1
678 930 1
685 930 1
706 930 1
712 930 1
748 930 1
753 930 1
1714 930 1
1715 930 1
650 931 1
651 931 1
679 931 1
686 931 1
707 931 1
713 931 1
749 931 1
754 931 1
1715 931 1
1716 931 1
651 932 1
652 932 1
673 932 1
680 932 1
708 932 1
714 932 1
750 932 1
755 932 1
1716 932 1
1717 932 1
652 933 1
653 933 1
674 933 1
681 933 1
701 933 1
709 933 1
751 933 1
756 933 1
1717 933 1
1718 933 1
653 934 1
654 934 1
675 934 1
682 934 1
702 934 1
710 934 1
743 934 1
752 934 1
1718 934 1
1719 934 1
654 935 1
655 935 1
676 935 1
683 935 1
703 935 1
711 935 1
744 935 1
753 935 1
1719 935 1
1720 935 1
655 936 1
656 936 1
677 936 1
684 936 1
704 936 1
712 936 1
745 936 1
754 936 1
1720 936 1
1721 936 1
656 937 1
657 937 1
678 937 1
685 937 1
705 937 1
713 937 1
746 937 1
755 937 1
1721 937 1
1722 937 1
657 938 1
658 938 1
679 938 1
686 938 1
706 938 1
714 938 1
747 938 1
756 938 1
1709 938 1
1722 938 1
659 939 1
672 939 1
673 939 1
682 939 1
715 939 1
721 939 1
757 939 1
762 939 1
1723 939 1
1724 939 1
659 940 1
660 940 1
674 940 1
683 940 1
716 940 1
722 940 1
758 940 1
763 940 1
1724 940 1
1725 940 1
660 941 1
661 941 1
675 941 1
684 941 1
717 941 1
723 941 1
759 941 1
764 941 1
1725 941 1
1726 941 1
661 942 1
662 942 1
676 942 1
685 942 1
718 942 1
724 942 1
760 942 1
765 942 1
1726 942 1
1727 942 1
662 943 1
663 943 1
677 943 1
686 943 1
719 943 1
725 943 1
761 943 1
766 943 1
1727 943 1
1728 943 1
663 944 1
664 944 1
673 944 1
678 944 1
720 944 1
726 944 1
762 944 1
767 944 1
1728 944 1
1729 944 1
664 945 1
665 945 1
674 945 1
679 945 1
721 945 1
727 945 1
763 945 1
768 945 1
1729 945 1
1730 945 1
665 946 1
666 946 1
675 946 1
680 946 1
722 946 1
728 946 1
764 946 1
769 946 1
1730 946 1
1731 946 1
666 947 1
667 947 1
676 947 1
681 947 1
715 947 1
723 947 1
765 947 1
770 947 1
1731 947 1
1732 947 1
667 948 1
668 948 1
677 948 1
682 948 1
716 948 1
724 948 1
757 948 1
766 948 1
1732 948 1
1733 948 1
668 949 1
669 949 1
678 949 1
683 949 1
717 949 1
725 949 1
758 949 1
767 949 1
1733 949 1
1734 949 1
669 950 1
670 950 1
679 950 1
684 950 1
718 950 1
726 950 1
759 950 1
768 950 1
1734 950 1
1735 950 1
670 951 1
671 951 1
680 951 1
685 951 1
719 951 1
727 951 1
760 951 1
769 951 1
1735 951 1
1736 951 1
671 952 1
672 952 1
681 952 1
686 952 1
720 952 1
728 952 1
761 952 1
770 952 1
1723 952 1
1736 952 1
687 953 1
700 953 1
701 953 1
710 953 1
715 953 1
722 953 1
771 953 1
776 953 1
1737 953 1
1738 953 1
687 954 1
688 954 1
702 954 1
711 954 1
716 954 1
723 954 1
772 954 1
777 954 1
1738 954 1
1739 954 1
688 955 1
689 955 1
703 955 1
712 955 1
717 955 1
724 955 1
773 955 1
778 955 1
1739 955 1
1740 955 1
689 956 1
690 956 1
704 956 1
713 956 1
718 956 1
725 956 1
774 956 1
779 956 1
1740 956 1
1741 956 1
690 957 1
691 957 1
705 957 1
714 957 1
719 957 1
726 957 1
775 957 1
780 957 1
1741 957 1
1742 957 1
691 958 1
692 958 1
701 958 1
706 958 1
720 958 1
727 958 1
776 958 1
781 958 1
1742 958 1
1743 958 1
692 959 1
693 959 1
702 959 1
707 959 1
721 959 1
728 959 1
777 959 1
782 959 1
1743 959 1
1744 959 1
693 960 1
694 960 1
703 960 1
708 960 1
715 960 1
722 960 1
778 960 1
783 960 1
1744 960 1
1745 960 1
694 961 1
695 961 1
704 961 1
709 961 1
716 961 1
723 961 1
779 961 1
784 961 1
1745 961 1
1746 961 1
695 962 1
696 962 1
705 962 1
710 962 1
717 962 1
724 962 1
771 962 1
780 962 1
1746 962 1
1747 962 1
696 963 1
697 963 1
706 963 1
711 963 1
718 963 1
725 963 1
772 963 1
781 963 1
1747 963 1
1748 963 1
697 964 1
698 964 1
707 964 1
712 964 1
719 964 1
726 964 1
773 964 1
782 964 1
1748 964 1
1749 964 1
698 965 1
699 965 1
708 965 1
713 965 1
720 965 1
727 965 1
774 965 1
783 965 1
1749 965 1
1750 965 1
699 966 1
700 966 1
709 966 1
714 966 1
721 966 1
728 966 1
775 966 1
784 966 1
1737 966 1
1750 966 1
729 967 1
742 967 1
743 967 1
752 967 1
757 967 1
764 967 1
771 967 1
777 967 1
1751 967 1
1752 967 1
729 968 1
730 968 1
744 968 1
753 968 1
758 968 1
765 968 1
772 968 1
778 968 1
1752 968 1
1753 968 1
730 969 1
731 969 1
745 969 1
754 969 1
759 969 1
766 969 1
773 969 1
779 969 1
1753 969 1
1754 969 1
731 970 1
732 970 1
746 970 1
755 970 1
760 970 1
767 970 1
774 970 1
780 970 1
1754 970 1
1755 970 1
732 971 1
733 971 1
747 971 1
756 971 1
761 971 1
768 971 1
775 971 1
781 971 1
1755 971 1
1756 971 1
733 972 1
734 972 1
743 972 1
748 972 1
762 972 1
769 972 1
776 972 1
782 972 1
1756 972 1
1757 972 1
734 973 1
735 973 1
744 973 1
749 973 1
763 973 1
770 973 1
777 973 1
783 973 1
1757 973 1
1758 973 1
735 974 1
736 974 1
745 974 1
750 974 1
757 974 1
764 974 1
778 974 1
784 974 1
1758 974 1
1759 974 1
736 975 1
737 975 1
746 975 1
751 975 1
758 975 1
765 975 1
771 975 1
779 975 1
1759 975 1
1760 975 1
737 976 1
738 976 1
747 976 1
752 976 1
759 976 1
766 976 1
772 976 1
780 976 1
1760 976 1
1761 976 1
738 977 1
739 977 1
748 977 1
753 977 1
760 977 1
767 977 1
773 977 1
781 977 1
1761 977 1
1762 977 1
739 978 1
740 978 1
749 978 1
754 978 1
761 978 1
768 978 1
774 978 1
782 978 1
1762 978 1
1763 978 1
740 979 1
741 979 1
750 979 1
755 979 1
762 979 1
769 979 1
775 979 1
783 979 1
1763 979 1
1764 979 1
741 980 1
742 980 1
751 980 1
756 980 1
763 980 1
770 980 1
776 980 1
784 980 1
1751 980 1
1764 980 1
785 981 1
791 981 1
799 981 1
804 981 1
855 981 1
859 981 1
995 981 1
998 981 1
1275 981 1
1277 981 1
786 982 1
792 982 1
800 982 1
805 982 1
856 982 1
860 982 1
996 982 1
999 982 1
1276 982 1
1278 982 1
787 983 1
793 983 1
801 983 1
806 983 1
857 983 1
861 983 1
997 983 1
1000 983 1
1277 983 1
1279 983 1
788 984 1
794 984 1
802 984 1
807 984 1
858 984 1
862 984 1
998 984 1
1001 984 1
1278 984 1
1280 984 1
789 985 1
795 985 1
803 985 1
808 985 1
859 985 1
863 985 1
999 985 1
1002 985 1
1279 985 1
1281 985 1
790 986 1
796 986 1
804 986 1
809 986 1
860 986 1
864 986 1
1000 986 1
1003 986 1
1280 986 1
1282 986 1
791 987 1
797 987 1
805 987 1
810 987 1
861 987 1
865 987 1
1001 987 1
1004 987 1
1281 987 1
1283 987 1
792 988 1
798 988 1
806 988 1
811 988 1
862 988 1
866 988 1
1002 988 1
1005 988 1
1282 988 1
1284 988 1
785 989 1
793 989 1
807 989 1
812 989 1
863 989 1
867 989 1
1003 989 1
1006 989 1
1283 989 1
1285 989 1
786 990 1
794 990 1
799 990 1
808 990 1
864 990 1
868 990 1
1004 990 1
1007 990 1
1284 990 1
1286 990 1
787 991 1
795 991 1
800 991 1
809 991 1
855 991 1
865 991 1
1005 991 1
1008 991 1
1285 991 1
1287 991 1
788 992 1
796 992 1
801 992 1
810 992 1
856 992 1
866 992 1
995 992 1
1006 992 1
1286 992 1
1288 992 1
789 993 1
797 993 1
802 993 1
811 993 1
857 993 1
867 993 1
996 993 1
1007 993 1
1275 993 1
1287 993 1
790 994 1
798 994 1
803 994 1
812 994 1
858 994 1
868 994 1
997 994 1
1008 994 1
1276 994 1
1288 994 1
785 995 1
792 995 1
813 995 1
818 995 1
869 995 1
873 995 1
1009 995 1
1012 995 1
1289 995 1
1291 995 1
786 996 1
793 996 1
814 996 1
819 996 1
870 996 1
874 996 1
1010 996 1
1013 996 1
1290 996 1
1292 996 1
787 997 1
794 997 1
815 997 1
820 997 1
871 997 1
875 997 1
1011 997 1
1014 997 1
1291 997 1
1293 997 1
788 998 1
795 998 1
816 998 1
821 998 1
872 998 1
876 998 1
1012 998 1
1015 998 1
1292 998 1
1294 998 1
789 999 1
796 999 1
817 999 1
822 999 1
873 999 1
877 999 1
1013 999 1
1016 999 1
1293 999 1
1295 999 1
790 1000 1
797 1000 1
818 1000 1
823 1000 1
874 1000 1
878 1000 1
1014 1000 1
1017 1000 1
1294 1000 1
1296 1000 1
791 1001 1
798 1001 1
819 1001 1
824 1001 1
875 1001 1
879 1001 1
1015 1001 1
1018 1001 1
1295 1001 1
1297 1001 1
785 1002 1
792 1002 1
820 1002 1
825 1002 1
876 1002 1
880 1002 1
1016 1002 1
1019 1002 1
1296 1002 1
1298 1002 1
786 1003 1
793 1003 1
821 1003 1
826 1003 1
877 1003 1
881 1003 1
1017 1003 1
1020 1003 1
1297 1003 1
1299 1003 1
787 1004 1
794 1004 1
813 1004 1
822 1004 1
878 1004 1
882 1004 1
1018 1004 1
1021 1004 1
1298 1004 1
1300 1004 1
788 1005 1
795 1005 1
814 1005 1
823 1005 1
869 1005 1
879 1005 1
1019 1005 1
1022 1005 1
1299 1005 1
1301 1005 1
789 1006 1
796 1006 1
815 1006 1
824 1006 1
870 1006 1
880 1006 1
1009 1006 1
1020 1006 1
1300 1006 1
1302 1006 1
790 1007 1
797 1007 1
816 1007 1
825 1007 1
871 1007 1
881 1007 1
1010 1007 1
1021 1007 1
1289 1007 1
1301 1007 1
791 1008 1
798 1008 1
817 1008 1
826 1008 1
872 1008 1
882 1008 1
1011 1008 1
1022 1008 1
1290 1008 1
1302 1008 1
785 1009 1
794 1009 1
827 1009 1
832 1009 1
883 1009 1
887 1009 1
1023 1009 1
1026 1009 1
1303 1009 1
1305 1009 1
786 1010 1
795 1010 1
828 1010 1
833 1010 1
884 1010 1
888 1010 1
1024 1010 1
1027 1010 1
1304 1010 1
1306 1010 1
787 1011 1
796 1011 1
829 1011 1
834 1011 1
885 1011 1
889 1011 1
1025 1011 1
1028 1011 1
1305 1011 1
1307 1011 1
788 1012 1
797 1012 1
830 1012 1
835 1012 1
886 1012 1
890 1012 1
1026 1012 1
1029 1012 1
1306 1012 1
1308 1012 1
789 1013 1
798 1013 1
831 1013 1
836 1013 1
887 1013 1
891 1013 1
1027 1013 1
1030 1013 1
1307 1013 1
1309 1013 1
785 1014 1
790 1014 1
832 1014 1
837 1014 1
888 1014 1
892 1014 1
1028 1014 1
1031 1014 1
1308 1014 1
1310 1014 1
786 1015 1
791 1015 1
833 1015 1
838 1015 1
889 1015 1
893 1015 1
1029 1015 1
1032 1015 1
1309 1015 1
1311 1015 1
787 1016 1
792 1016 1
834 1016 1
839 1016 1
890 1016 1
894 1016 1
1030 1016 1
1033 1016 1
1310 1016 1
1312 1016 1
788 1017 1
793 1017 1
835 1017 1
840 1017 1
891 1017 1
895 1017 1
1031 1017 1
1034 1017 1
1311 1017 1
1313 1017 1
789 1018 1
794 1018 1
827 1018 1
836 1018 1
892 1018 1
896 1018 1
1032 1018 1
1035 1018 1
1312 1018 1
1314 1018 1
790 1019 1
795 1019 1
828 1019 1
837 1019 1
883 1019 1
893 1019 1
1033 1019 1
1036 1019 1
1313 1019 1
1315 1019 1
791 1020 1
796 1020 1
829 1020 1
838 1020 1
884 1020 1
894 1020 1
1023 1020 1
1034 1020 1
1314 1020 1
1316 1020 1
792 1021 1
797 1021 1
830 1021 1
839 1021 1
885 1021 1
895 1021 1
1024 1021 1
1035 1021 1
1303 1021 1
1315 1021 1
793 1022 1
798 1022 1
831 1022 1
840 1022 1
886 1022 1
896 1022 1
1025 1022 1
1036 1022 1
1304 1022 1
1316 1022 1
785 1023 1
798 1023 1
841 1023 1
846 1023 1
897 1023 1
901 1023 1
1037 1023 1
1040 1023 1
1317 1023 1
1319 1023 1
785 1024 1
786 1024 1
842 1024 1
847 1024 1
898 1024 1
902 1024 1
1038 1024 1
1041 1024 1
1318 1024 1
1320 1024 1
786 1025 1
787 1025 1
843 1025 1
848 1025 1
899 1025 1
903 1025 1
1039 1025 1
1042 1025 1
1319 1025 1
1321 1025 1
787 1026 1
788 1026 1
844 1026 1
849 1026 1
900 1026 1
904 1026 1
1040 1026 1
1043 1026 1
1320 1026 1
1322 1026 1
788 1027 1
789 1027 1
845 1027 1
850 1027 1
901 1027 1
905 1027 1
1041 1027 1
1044 1027 1
1321 1027 1
1323 1027 1
789 1028 1
790 1028 1
846 1028 1
851 1028 1
902 1028 1
906 1028 1
1042 1028 1
1045 1028 1
1322 1028 1
1324 1028 1
790 1029 1
791 1029 1
847 1029 1
852 1029 1
903 1029 1
907 1029 1
1043 1029 1
1046 1029 1
1323 1029 1
1325 1029 1
791 1030 1
792 1030 1
848 1030 1
853 1030 1
904 1030 1
908 1030 1
1044 1030 1
1047 1030 1
1324 1030 1
1326 1030 1
792 1031 1
793 1031 1
849 1031 1
854 1031 1
905 1031 1
909 1031 1
1045 1031 1
1048 1031 1
1325 1031 1
1327 1031 1
793 1032 1
794 1032 1
841 1032 1
850 1032 1
906 1032 1
910 1032 1
1046 1032 1
1049 1032 1
1326 1032 1
1328 1032 1
794 1033 1
795 1033 1
842 1033 1
851 1033 1
897 1033 1
907 1033 1
1047 1033 1
1050 1033 1
1327 1033 1
1329 1033 1
795 1034 1
796 1034 1
843 1034 1
852 1034 1
898 1034 1
908 1034 1
1037 1034 1
1048 1034 1
1328 1034 1
1330 1034 1
796 1035 1
797 1035 1
844 1035 1
853 1035 1
899 1035 1
909 1035 1
1038 1035 1
1049 1035 1
1317 1035 1
1329 1035 1
797 1036 1
798 1036 1
845 1036 1
854 1036 1
900 1036 1
910 1036 1
1039 1036 1
1050 1036 1
1318 1036 1
1330 1036 1
799 1037 1
806 1037 1
813 1037 1
819 1037 1
911 1037 1
915 1037 1
1051 1037 1
1054 1037 1
1331 1037 1
1333 1037 1
800 1038 1
807 1038 1
814 1038 1
820 1038 1
912 1038 1
916 1038 1
1052 1038 1
1055 1038 1
1332 1038 1
1334 1038 1
801 1039 1
808 1039 1
815 1039 1
821 1039 1
913 1039 1
917 1039 1
1053 1039 1
1056 1039 1
1333 1039 1
1335 1039 1
802 1040 1
809 1040 1
816 1040 1
822 1040 1
914 1040 1
918 1040 1
1054 1040 1
1057 1040 1
1334 1040 1
1336 1040 1
803 1041 1
810 1041 1
817 1041 1
823 1041 1
915 1041 1
919 1041 1
1055 1041 1
1058 1041 1
1335 1041 1
1337 1041 1
804 1042 1
811 1042 1
818 1042 1
824 1042 1
916 1042 1
920 1042 1
1056 1042 1
1059 1042 1
1336 1042 1
1338 1042 1
805 1043 1
812 1043 1
819 1043 1
825 1043 1
917 1043 1
921 1043 1
1057 1043 1
1060 1043 1
1337 1043 1
1339 1043 1
799 1044 1
806 1044 1
820 1044 1
826 1044 1
918 1044 1
922 1044 1
1058 1044 1
1061 1044 1
1338 1044 1
1340 1044 1
800 1045 1
807 1045 1
813 1045 1
821 1045 1
919 1045 1
923 1045 1
1059 1045 1
1062 1045 1
1339 1045 1
1341 1045 1
801 1046 1
808 1046 1
814 1046 1
822 1046 1
920 1046 1
924 1046 1
1060 1046 1
1063 1046 1
1340 1046 1
1342 1046 1
802 1047 1
809 1047 1
815 1047 1
823 1047 1
911 1047 1
921 1047 1
1061 1047 1
1064 1047 1
1341 1047 1
1343 1047 1
803 1048 1
810 1048 1
816 1048 1
824 1048 1
912 1048 1
922 1048 1
1051 1048 1
1062 1048 1
1342 1048 1
1344 1048 1
804 1049 1
811 1049 1
817 1049 1
825 1049 1
913 1049 1
923 1049 1
1052 1049 1
1063 1049 1
1331 1049 1
1343 1049 1
805 1050 1
812 1050 1
818 1050 1
826 1050 1
914 1050 1
924 1050 1
1053 1050 1
1064 1050 1
1332 1050 1
1344 1050 1
799 1051 1
808 1051 1
827 1051 1
833 1051 1
925 1051 1
929 1051 1
1065 1051 1
1068 1051 1
1345 1051 1
1347 1051 1
800 1052 1
809 1052 1
828 1052 1
834 1052 1
926 1052 1
930 1052 1
1066 1052 1
1069 1052 1
1346 1052 1
1348 1052 1
801 1053 1
810 1053 1
829 1053 1
835 1053 1
927 1053 1
931 1053 1
1067 1053 1
1070 1053 1
1347 1053 1
1349 1053 1
802 1054 1
811 1054 1
830 1054 1
836 1054 1
928 1054 1
932 1054 1
1068 1054 1
1071 1054 1
1348 1054 1
1350 1054 1
803 1055 1
812 1055 1
831 1055 1
837 1055 1
929 1055 1
933 1055 1
1069 1055 1
1072 1055 1
1349 1055 1
1351 1055 1
799 1056 1
804 1056 1
832 1056 1
838 1056 1
930 1056 1
934 1056 1
1070 1056 1
1073 1056 1
1350 1056 1
1352 1056 1
800 1057 1
805 1057 1
833 1057 1
839 1057 1
931 1057 1
935 1057 1
1071 1057 1
1074 1057 1
1351 1057 1
1353 1057 1
801 1058 1
806 1058 1
834 1058 1
840 1058 1
932 1058 1
936 1058 1
1072 1058 1
1075 1058 1
1352 1058 1
1354 1058 1
802 1059 1
807 1059 1
827 1059 1
835 1059 1
933 1059 1
937 1059 1
1073 1059 1
1076 1059 1
1353 1059 1
1355 1059 1
803 1060 1
808 1060 1
828 1060 1
836 1060 1
934 1060 1
938 1060 1
1074 1060 1
1077 1060 1
1354 1060 1
1356 1060 1
804 1061 1
809 1061 1
829 1061 1
837 1061 1
925 1061 1
935 1061 1
1075 1061 1
1078 1061 1
1355 1061 1
1357 1061 1
805 1062 1
810 1062 1
830 1062 1
838 1062 1
926 1062 1
936 1062 1
1065 1062 1
1076 1062 1
1356 1062 1
1358 1062 1
806 1063 1
811 1063 1
831 1063 1
839 1063 1
927 1063 1
937 1063 1
1066 1063 1
1077 1063 1
1345 1063 1
1357 1063 1
807 1064 1
812 1064 1
832 1064 1
840 1064 1
928 1064 1
938 1064 1
1067 1064 1
1078 1064 1
1346 1064 1
1358 1064 1
799 1065 1
812 1065 1
841 1065 1
847 1065 1
939 1065 1
943 1065 1
1079 1065 1
1082 1065 1
1359 1065 1
1361 1065 1
799 1066 1
800 1066 1
842 1066 1
848 1066 1
940 1066 1
944 1066 1
1080 1066 1
1083 1066 1
1360 1066 1
1362 1066 1
800 1067 1
801 1067 1
843 1067 1
849 1067 1
941 1067 1
945 1067 1
1081 1067 1
1084 1067 1
1361 1067 1
1363 1067 1
801 1068 1
802 1068 1
844 1068 1
850 1068 1
942 1068 1
946 1068 1
1082 1068 1
1085 1068 1
1362 1068 1
1364 1068 1
802 1069 1
803 1069 1
845 1069 1
851 1069 1
943 1069 1
947 1069 1
1083 1069 1
1086 1069 1
1363 1069 1
1365 1069 1
803 1070 1
804 1070 1
846 1070 1
852 1070 1
944 1070 1
948 1070 1
1084 1070 1
1087 1070 1
1364 1070 1
1366 1070 1
804 1071 1
805 1071 1
847 1071 1
853 1071 1
945 1071 1
949 1071 1
1085 1071 1
1088 1071 1
1365 1071 1
1367 1071 1
805 1072 1
806 1072 1
848 1072 1
854 1072 1
946 1072 1
950 1072 1
1086 1072 1
1089 1072 1
1366 1072 1
1368 1072 1
806 1073 1
807 1073 1
841 1073 1
849 1073 1
947 1073 1
951 1073 1
1087 1073 1
1090 1073 1
1367 1073 1
1369 1073 1
807 1074 1
808 1074 1
842 1074 1
850 1074 1
948 1074 1
952 1074 1
1088 1074 1
1091 1074 1
1368 1074 1
1370 1074 1
808 1075 1
809 1075 1
843 1075 1
851 1075 1
939 1075 1
949 1075 1
1089 1075 1
1092 1075 1
1369 1075 1
1371 1075 1
809 1076 1
810 1076 1
844 1076 1
852 1076 1
940 1076 1
950 1076 1
1079 1076 1
1090 1076 1
1370 1076 1
1372 1076 1
810 1077 1
811 1077 1
845 1077 1
853 1077 1
941 1077 1
951 1077 1
1080 1077 1
1091 1077 1
1359 1077 1
1371 1077 1
811 1078 1
812 1078 1
846 1078 1
854 1078 1
942 1078 1
952 1078 1
1081 1078 1
1092 1078 1
1360 1078 1
1372 1078 1
813 1079 1
822 1079 1
827 1079 1
834 1079 1
953 1079 1
957 1079 1
1093 1079 1
1096 1079 1
1373 1079 1
1375 1079 1
814 1080 1
823 1080 1
828 1080 1
835 1080 1
954 1080 1
958 1080 1
1094 1080 1
1097 1080 1
1374 1080 1
1376 1080 1
815 1081 1
824 1081 1
829 1081 1
836 1081 1
955 1081 1
959 1081 1
1095 1081 1
1098 1081 1
1375 1081 1
1377 1081 1
816 1082 1
825 1082 1
830 1082 1
837 1082 1
956 1082 1
960 1082 1
1096 1082 1
1099 1082 1
1376 1082 1
1378 1082 1
817 1083 1
826 1083 1
831 1083 1
838 1083 1
957 1083 1
961 1083 1
1097 1083 1
1100 1083 1
1377 1083 1
1379 1083 1
813 1084 1
818 1084 1
832 1084 1
839 1084 1
958 1084 1
962 1084 1
1098 1084 1
1101 1084 1
1378 1084 1
1380 1084 1
814 1085 1
819 1085 1
833 1085 1
840 1085 1
959 1085 1
963 1085 1
1099 1085 1
1102 1085 1
1379 1085 1
1381 1085 1
815 1086 1
820 1086 1
827 1086 1
834 1086 1
960 1086 1
964 1086 1
1100 1086 1
1103 1086 1
1380 1086 1
1382 1086 1
816 1087 1
821 1087 1
828 1087 1
835 1087 1
961 1087 1
965 1087 1
1101 1087 1
1104 1087 1
1381 1087 1
1383 1087 1
817 1088 1
822 1088 1
829 1088 1
836 1088 1
962 1088 1
966 1088 1
1102 1088 1
1105 1088 1
1382 1088 1
1384 1088 1
818 1089 1
823 1089 1
830 1089 1
837 1089 1
953 1089 1
963 1089 1
1103 1089 1
1106 1089 1
1383 1089 1
1385 1089 1
819 1090 1
824 1090 1
831 1090 1
838 1090 1
954 1090 1
964 1090 1
1093 1090 1
1104 1090 1
1384 1090 1
1386 1090 1
820 1091 1
825 1091 1
832 1091 1
839 1091 1
955 1091 1
965 1091 1
1094 1091 1
1105 1091 1
1373 1091 1
1385 1091 1
821 1092 1
826 1092 1
833 1092 1
840 1092 1
956 1092 1
966 1092 1
1095 1092 1
1106 1092 1
1374 1092 1
1386 1092 1
813 1093 1
826 1093 1
841 1093 1
848 1093 1
967 1093 1
971 1093 1
1107 1093 1
1110 1093 1
1387 1093 1
1389 1093 1
813 1094 1
814 1094 1
842 1094 1
849 1094 1
968 1094 1
972 1094 1
1108 1094 1
1111 1094 1
1388 1094 1
1390 1094 1
814 1095 1
815 1095 1
843 1095 1
850 1095 1
969 1095 1
973 1095 1
1109 1095 1
1112 1095 1
1389 1095 1
1391 1095 1
815 1096 1
816 1096 1
844 1096 1
851 1096 1
970 1096 1
974 1096 1
1110 1096 1
1113 1096 1
1390 1096 1
1392 1096 1
816 1097 1
817 1097 1
845 1097 1
852 1097 1
971 1097 1
975 1097 1
1111 1097 1
1114 1097 1
1391 1097 1
1393 1097 1
817 1098 1
818 1098 1
846 1098 1
853 1098 1
972 1098 1
976 1098 1
1112 1098 1
1115 1098 1
1392 1098 1
1394 1098 1
818 1099 1
819 1099 1
847 1099 1
854 1099 1
973 1099 1
977 1099 1
1113 1099 1
1116 1099 1
1393 1099 1
1395 1099 1
819 1100 1
820 1100 1
841 1100 1
848 1100 1
974 1100 1
978 1100 1
1114 1100 1
1117 1100 1
1394 1100 1
1396 1100 1
820 1101 1
821 1101 1
842 1101 1
849 1101 1
975 1101 1
979 1101 1
1115 1101 1
1118 1101 1
1395 1101 1
1397 1101 1
821 1102 1
822 1102 1
843 1102 1
850 1102 1
976 1102 1
980 1102 1
1116 1102 1
1119 1102 1
1396 1102 1
1398 1102 1
822 1103 1
823 1103 1
844 1103 1
851 1103 1
967 1103 1
977 1103 1
1117 1103 1
1120 1103 1
1397 1103 1
1399 1103 1
823 1104 1
824 1104 1
845 1104 1
852 1104 1
968 1104 1
978 1104 1
1107 1104 1
1118 1104 1
1398 1104 1
1400 1104 1
824 1105 1
825 1105 1
846 1105 1
853 1105 1
969 1105 1
979 1105 1
1108 1105 1
1119 1105 1
1387 1105 1
1399 1105 1
825 1106 1
826 1106 1
847 1106 1
854 1106 1
970 1106 1
980 1106 1
1109 1106 1
1120 1106 1
1388 1106 1
1400 1106 1
827 1107 1
840 1107 1
841 1107 1
850 1107 1
981 1107 1
985 1107 1
1121 1107 1
1124 1107 1
1401 1107 1
1403 1107 1
827 1108 1
828 1108 1
842 1108 1
851 1108 1
982 1108 1
986 1108 1
1122 1108 1
1125 1108 1
1402 1108 1
1404 1108 1
828 1109 1
829 1109 1
843 1109 1
852 1109 1
983 1109 1
987 1109 1
1123 1109 1
1126 1109 1
1403 1109 1
1405 1109 1
829 1110 1
830 1110 1
844 1110 1
853 1110 1
984 1110 1
988 1110 1
1124 1110 1
1127 1110 1
1404 1110 1
1406 1110 1
830 1111 1
831 1111 1
845 1111 1
854 1111 1
985 1111 1
989 1111 1
1125 1111 1
1128 1111 1
1405 1111 1
1407 1111 1
831 1112 1
832 1112 1
841 1112 1
846 1112 1
986 1112 1
990 1112 1
1126 1112 1
1129 1112 1
1406 1112 1
1408 1112 1
832 1113 1
833 1113 1
842 1113 1
847 1113 1
987 1113 1
991 1113 1
1127 1113 1
1130 1113 1
1407 1113 1
1409 1113 1
833 1114 1
834 1114 1
843 1114 1
848 1114 1
988 1114 1
992 1114 1
1128 1114 1
1131 1114 1
1408 1114 1
1410 1114 1
834 1115 1
835 1115 1
844 1115 1
849 1115 1
989 1115 1
993 1115 1
1129 1115 1
1132 1115 1
1409 1115 1
1411 1115 1
835 1116 1
836 1116 1
845 1116 1
850 1116 1
990 1116 1
994 1116 1
1130 1116 1
1133 1116 1
1410 1116 1
1412 1116 1
836 1117 1
837 1117 1
846 1117 1
851 1117 1
981 1117 1
991 1117 1
1131 1117 1
1134 1117 1
1411 1117 1
1413 1117 1
837 1118 1
838 1118 1
847 1118 1
852 1118 1
982 1118 1
992 1118 1
1121 1118 1
1132 1118 1
1412 1118 1
1414 1118 1
838 1119 1
839 1119 1
848 1119 1
853 1119 1
983 1119 1
993 1119 1
1122 1119 1
1133 1119 1
1401 1119 1
1413 1119 1
839 1120 1
840 1120 1
849 1120 1
854 1120 1
984 1120 1
994 1120 1
1123 1120 1
1134 1120 1
1402 1120 1
1414 1120 1
855 1121 1
862 1121 1
869 1121 1
875 1121 1
911 1121 1
916 1121 1
1135 1121 1
1138 1121 1
1415 1121 1
1417 1121 1
856 1122 1
863 1122 1
870 1122 1
876 1122 1
912 1122 1
917 1122 1
1136 1122 1
1139 1122 1
1416 1122 1
1418 1122 1
857 1123 1
864 1123 1
871 1123 1
877 1123 1
913 1123 1
918 1123 1
1137 1123 1
1140 1123 1
1417 1123 1
1419 1123 1
858 1124 1
865 1124 1
872 1124 1
878 1124 1
914 1124 1
919 1124 1
1138 1124 1
1141 1124 1
1418 1124 1
1420 1124 1
859 1125 1
866 1125 1
873 1125 1
879 1125 1
915 1125 1
920 1125 1
1139 1125 1
1142 1125 1
1419 1125 1
1421 1125 1
860 1126 1
867 1126 1
874 1126 1
880 1126 1
916 1126 1
921 1126 1
1140 1126 1
1143 1126 1
1420 1126 1
1422 1126 1
861 1127 1
868 1127 1
875 1127 1
881 1127 1
917 1127 1
922 1127 1
1141 1127 1
1144 1127 1
1421 1127 1
1423 1127 1
855 1128 1
862 1128 1
876 1128 1
882 1128 1
918 1128 1
923 1128 1
1142 1128 1
1145 1128 1
1422 1128 1
1424 1128 1
856 1129 1
863 1129 1
869 1129 1
877 1129 1
919 1129 1
924 1129 1
1143 1129 1
1146 1129 1
1423 1129 1
1425 1129 1
857 1130 1
864 1130 1
870 1130 1
878 1130 1
911 1130 1
920 1130 1
1144 1130 1
1147 1130 1
1424 1130 1
1426 1130 1
858 1131 1
865 1131 1
871 1131 1
879 1131 1
912 1131 1
921 1131 1
1145 1131 1
1148 1131 1
1425 1131 1
1427 1131 1
859 1132 1
866 1132 1
872 1132 1
880 1132 1
913 1132 1
922 1132 1
1135 1132 1
1146 1132 1
1426 1132 1
1428 1132 1
860 1133 1
867 1133 1
873 1133 1
881 1133 1
914 1133 1
923 1133 1
1136 1133 1
1147 1133 1
1415 1133 1
1427 1133 1
861 1134 1
868 1134 1
874 1134 1
882 1134 1
915 1134 1
924 1134 1
1137 1134 1
1148 1134 1
1416 1134 1
1428 1134 1
855 1135 1
864 1135 1
883 1135 1
889 1135 1
925 1135 1
930 1135 1
1149 1135 1
1152 1135 1
1429 1135 1
1431 1135 1
856 1136 1
865 1136 1
884 1136 1
890 1136 1
926 1136 1
931 1136 1
1150 1136 1
1153 1136 1
1430 1136 1
1432 1136 1
857 1137 1
866 1137 1
885 1137 1
891 1137 1
927 1137 1
932 1137 1
1151 1137 1
1154 1137 1
1431 1137 1
1433 1137 1
858 1138 1
867 1138 1
886 1138 1
892 1138 1
928 1138 1
933 1138 1
1152 1138 1
1155 1138 1
1432 1138 1
1434 1138 1
859 1139 1
868 1139 1
887 1139 1
893 1139 1
929 1139 1
934 1139 1
1153 1139 1
1156 1139 1
1433 1139 1
1435 1139 1
855 1140 1
860 1140 1
888 1140 1
894 1140 1
930 1140 1
935 1140 1
1154 1140 1
1157 1140 1
1434 1140 1
1436 1140 1
856 1141 1
861 1141 1
889 1141 1
895 1141 1
931 1141 1
936 1141 1
1155 1141 1
1158 1141 1
1435 1141 1
1437 1141 1
857 1142 1
862 1142 1
890 1142 1
896 1142 1
932 1142 1
937 1142 1
1156 1142 1
1159 1142 1
1436 1142 1
1438 1142 1
858 1143 1
863 1143 1
883 1143 1
891 1143 1
933 1143 1
938 1143 1
1157 1143 1
1160 1143 1
1437 1143 1
1439 1143 1
859 1144 1
864 1144 1
884 1144 1
892 1144 1
925 1144 1
934 1144 1
1158 1144 1
1161 1144 1
1438 1144 1
1440 1144 1
860 1145 1
865 1145 1
885 1145 1
893 1145 1
926 1145 1
935 1145 1
1159 1145 1
1162 1145 1
1439 1145 1
1441 1145 1
861 1146 1
866 1146 1
886 1146 1
894 1146 1
927 1146 1
936 1146 1
1149 1146 1
1160 1146 1
1440 1146 1
1442 1146 1
862 1147 1
867 1147 1
887 1147 1
895 1147 1
928 1147 1
937 1147 1
1150 1147 1
1161 1147 1
1429 1147 1
1441 1147 1
863 1148 1
868 1148 1
888 1148 1
896 1148 1
929 1148 1
938 1148 1
1151 1148 1
1162 1148 1
1430 1148 1
1442 1148 1
855 1149 1
868 1149 1
897 1149 1
903 1149 1
939 1149 1
944 1149 1
1163 1149 1
1166 1149 1
1443 1149 1
1445 1149 1
855 1150 1
856 1150 1
898 1150 1
904 1150 1
940 1150 1
945 1150 1
1164 1150 1
1167 1150 1
1444 1150 1
1446 1150 1
856 1151 1
857 1151 1
899 1151 1
905 1151 1
941 1151 1
946 1151 1
1165 1151 1
1168 1151 1
1445 1151 1
1447 1151 1
857 1152 1
858 1152 1
900 1152 1
906 1152 1
942 1152 1
947 1152 1
1166 1152 1
1169 1152 1
1446 1152 1
1448 1152 1
858 1153 1
859 1153 1
901 1153 1
907 1153 1
943 1153 1
948 1153 1
1167 1153 1
1170 1153 1
1447 1153 1
1449 1153 1
859 1154 1
860 1154 1
902 1154 1
908 1154 1
944 1154 1
949 1154 1
1168 1154 1
1171 1154 1
1448 1154 1
1450 1154 1
860 1155 1
861 1155 1
903 1155 1
909 1155 1
945 1155 1
950 1155 1
1169 1155 1
1172 1155 1
1449 1155 1
1451 1155 1
861 1156 1
862 1156 1
904 1156 1
910 1156 1
946 1156 1
951 1156 1
1170 1156 1
1173 1156 1
1450 1156 1
1452 1156 1
862 1157 1
863 1157 1
897 1157 1
905 1157 1
947 1157 1
952 1157 1
1171 1157 1
1174 1157 1
1451 1157 1
1453 1157 1
863 1158 1
864 1158 1
898 1158 1
906 1158 1
939 1158 1
948 1158 1
1172 1158 1
1175 1158 1
1452 1158 1
1454 1158 1
864 1159 1
865 1159 1
899 1159 1
907 1159 1
940 1159 1
949 1159 1
1173 1159 1
1176 1159 1
1453 1159 1
1455 1159 1
865 1160 1
866 1160 1
900 1160 1
908 1160 1
941 1160 1
950 1160 1
1163 1160 1
1174 1160 1
1454 1160 1
1456 1160 1
866 1161 1
867 1161 1
901 1161 1
909 1161 1
942 1161 1
951 1161 1
1164 1161 1
1175 1161 1
1443 1161 1
1455 1161 1
867 1162 1
868 1162 1
902 1162 1
910 1162 1
943 1162 1
952 1162 1
1165 1162 1
1176 1162 1
1444 1162 1
1456 1162 1
869 1163 1
878 1163 1
883 1163 1
890 1163 1
953 1163 1
958 1163 1
1177 1163 1
1180 1163 1
1457 1163 1
1459 1163 1
870 1164 1
879 1164 1
884 1164 1
891 1164 1
954 1164 1
959 1164 1
1178 1164 1
1181 1164 1
1458 1164 1
1460 1164 1
871 1165 1
880 1165 1
885 1165 1
892 1165 1
955 1165 1
960 1165 1
1179 1165 1
1182 1165 1
1459 1165 1
1461 1165 1
872 1166 1
881 1166 1
886 1166 1
893 1166 1
956 1166 1
961 1166 1
1180 1166 1
1183 1166 1
1460 1166 1
1462 1166 1
873 1167 1
882 1167 1
887 1167 1
894 1167 1
957 1167 1
962 1167 1
1181 1167 1
1184 1167 1
1461 1167 1
1463 1167 1
869 1168 1
874 1168 1
888 1168 1
895 1168 1
958 1168 1
963 1168 1
1182 1168 1
1185 1168 1
1462 1168 1
1464 1168 1
870 1169 1
875 1169 1
889 1169 1
896 1169 1
959 1169 1
964 1169 1
1183 1169 1
1186 1169 1
1463 1169 1
1465 1169 1
871 1170 1
876 1170 1
883 1170 1
890 1170 1
960 1170 1
965 1170 1
1184 1170 1
1187 1170 1
1464 1170 1
1466 1170 1
872 1171 1
877 1171 1
884 1171 1
891 1171 1
961 1171 1
966 1171 1
1185 1171 1
1188 1171 1
1465 1171 1
1467 1171 1
873 1172 1
878 1172 1
885 1172 1
892 1172 1
953 1172 1
962 1172 1
1186 1172 1
1189 1172 1
1466 1172 1
1468 1172 1
874 1173 1
879 1173 1
886 1173 1
893 1173 1
954 1173 1
963 1173 1
1187 1173 1
1190 1173 1
1467 1173 1
1469 1173 1
875 1174 1
880 1174 1
887 1174 1
894 1174 1
955 1174 1
964 1174 1
1177 1174 1
1188 1174 1
1468 1174 1
1470 1174 1
876 1175 1
881 1175 1
888 1175 1
895 1175 1
956 1175 1
965 1175 1
1178 1175 1
1189 1175 1
1457 1175 1
1469 1175 1
877 1176 1
882 1176 1
889 1176 1
896 1176 1
957 1176 1
966 1176 1
1179 1176 1
1190 1176 1
1458 1176 1
1470 1176 1
869 1177 1
882 1177 1
897 1177 1
904 1177 1
967 1177 1
972 1177 1
1191 1177 1
1194 1177 1
1471 1177 1
1473 1177 1
869 1178 1
870 1178 1
898 1178 1
905 1178 1
968 1178 1
973 1178 1
1192 1178 1
1195 1178 1
1472 1178 1
1474 1178 1
870 1179 1
871 1179 1
899 1179 1
906 1179 1
969 1179 1
974 1179 1
1193 1179 1
1196 1179 1
1473 1179 1
1475 1179 1
871 1180 1
872 1180 1
900 1180 1
907 1180 1
970 1180 1
975 1180 1
1194 1180 1
1197 1180 1
1474 1180 1
1476 1180 1
872 1181 1
873 1181 1
901 1181 1
908 1181 1
971 1181 1
976 1181 1
1195 1181 1
1198 1181 1
1475 1181 1
1477 1181 1
873 1182 1
874 1182 1
902 1182 1
909 1182 1
972 1182 1
977 1182 1
1196 1182 1
1199 1182 1
1476 1182 1
1478 1182 1
874 1183 1
875 1183 1
903 1183 1
910 1183 1
973 1183 1
978 1183 1
1197 1183 1
1200 1183 1
1477 1183 1
1479 1183 1
875 1184 1
876 1184 1
897 1184 1
904 1184 1
974 1184 1
979 1184 1
1198 1184 1
1201 1184 1
1478 1184 1
1480 1184 1
876 1185 1
877 1185 1
898 1185 1
905 1185 1
975 1185 1
980 1185 1
1199 1185 1
1202 1185 1
1479 1185 1
1481 1185 1
877 1186 1
878 1186 1
899 1186 1
906 1186 1
967 1186 1
976 1186 1
1200 1186 1
1203 1186 1
1480 1186 1
1482 1186 1
878 1187 1
879 1187 1
900 1187 1
907 1187 1
968 1187 1
977 1187 1
1201 1187 1
1204 1187 1
1481 1187 1
1483 1187 1
879 1188 1
880 1188 1
901 1188 1
908 1188 1
969 1188 1
978 1188 1
1191 1188 1
1202 1188 1
1482 1188 1
1484 1188 1
880 1189 1
881 1189 1
902 1189 1
909 1189 1
970 1189 1
979 1189 1
1192 1189 1
1203 1189 1
1471 1189 1
1483 1189 1
881 1190 1
882 1190 1
903 1190 1
910 1190 1
971 1190 1
980 1190 1
1193 1190 1
1204 1190 1
1472 1190 1
1484 1190 1
883 1191 1
896 1191 1
897 1191 1
906 1191 1
981 1191 1
986 1191 1
1205 1191 1
1208 1191 1
1485 1191 1
1487 1191 1
883 1192 1
884 1192 1
898 1192 1
907 1192 1
982 1192 1
987 1192 1
1206 1192 1
1209 1192 1
1486 1192 1
1488 1192 1
884 1193 1
885 1193 1
899 1193 1
908 1193 1
983 1193 1
988 1193 1
1207 1193 1
1210 1193 1
1487 1193 1
1489 1193 1
885 1194 1
886 1194 1
900 1194 1
909 1194 1
984 1194 1
989 1194 1
1208 1194 1
1211 1194 1
1488 1194 1
1490 1194 1
886 1195 1
887 1195 1
901 1195 1
910 1195 1
985 1195 1
990 1195 1
1209 1195 1
1212 1195 1
1489 1195 1
1491 1195 1
887 1196 1
888 1196 1
897 1196 1
902 1196 1
986 1196 1
991 1196 1
1210 1196 1
1213 1196 1
1490 1196 1
1492 1196 1
888 1197 1
889 1197 1
898 1197 1
903 1197 1
987 1197 1
992 1197 1
1211 1197 1
1214 1197 1
1491 1197 1
1493 1197 1
889 1198 1
890 1198 1
899 1198 1
904 1198 1
988 1198 1
993 1198 1
1212 1198 1
1215 1198 1
1492 1198 1
1494 1198 1
890 1199 1
891 1199 1
900 1199 1
905 1199 1
989 1199 1
994 1199 1
1213 1199 1
1216 1199 1
1493 1199 1
1495 1199 1
891 1200 1
892 1200 1
901 1200 1
906 1200 1
981 1200 1
990 1200 1
1214 1200 1
1217 1200 1
1494 1200 1
1496 1200 1
892 1201 1
893 1201 1
902 1201 1
907 1201 1
982 1201 1
991 1201 1
1215 1201 1
1218 1201 1
1495 1201 1
1497 1201 1
893 1202 1
894 1202 1
903 1202 1
908 1202 1
983 1202 1
992 1202 1
1205 1202 1
1216 1202 1
1496 1202 1
1498 1202 1
894 1203 1
895 1203 1
904 1203 1
909 1203 1
984 1203 1
993 1203 1
1206 1203 1
1217 1203 1
1485 1203 1
1497 1203 1
895 1204 1
896 1204 1
905 1204 1
910 1204 1
985 1204 1
994 1204 1
1207 1204 1
1218 1204 1
1486 1204 1
1498 1204 1
911 1205 1
920 1205 1
925 1205 1
932 1205 1
953 1205 1
959 1205 1
1219 1205 1
1222 1205 1
1499 1205 1
1501 1205 1
912 1206 1
921 1206 1
926 1206 1
933 1206 1
954 1206 1
960 1206 1
1220 1206 1
1223 1206 1
1500 1206 1
1502 1206 1
913 1207 1
922 1207 1
927 1207 1
934 1207 1
955 1207 1
961 1207 1
1221 1207 1
1224 1207 1
1501 1207 1
1503 1207 1
914 1208 1
923 1208 1
928 1208 1
935 1208 1
956 1208 1
962 1208 1
1222 1208 1
1225 1208 1
1502 1208 1
1504 1208 1
915 1209 1
924 1209 1
929 1209 1
936 1209 1
957 1209 1
963 1209 1
1223 1209 1
1226 1209 1
1503 1209 1
1505 1209 1
911 1210 1
916 1210 1
930 1210 1
937 1210 1
958 1210 1
964 1210 1
1224 1210 1
1227 1210 1
1504 1210 1
1506 1210 1
912 1211 1
917 1211 1
931 1211 1
938 1211 1
959 1211 1
965 1211 1
1225 1211 1
1228 1211 1
1505 1211 1
1507 1211 1
913 1212 1
918 1212 1
925 1212 1
932 1212 1
960 1212 1
966 1212 1
1226 1212 1
1229 1212 1
1506 1212 1
1508 1212 1
914 1213 1
919 1213 1
926 1213 1
933 1213 1
953 1213 1
961 1213 1
1227 1213 1
1230 1213 1
1507 1213 1
1509 1213 1
915 1214 1
920 1214 1
927 1214 1
934 1214 1
954 1214 1
962 1214 1
1228 1214 1
1231 1214 1
1508 1214 1
1510 1214 1
916 1215 1
921 1215 1
928 1215 1
935 1215 1
955 1215 1
963 1215 1
1229 1215 1
1232 1215 1
1509 1215 1
1511 1215 1
917 1216 1
922 1216 1
929 1216 1
936 1216 1
956 1216 1
964 1216 1
1219 1216 1
1230 1216 1
1510 1216 1
1512 1216 1
918 1217 1
923 1217 1
930 1217 1
937 1217 1
957 1217 1
965 1217 1
1220 1217 1
1231 1217 1
1499 1217 1
1511 1217 1
919 1218 1
924 1218 1
931 1218 1
938 1218 1
958 1218 1
966 1218 1
1221 1218 1
1232 1218 1
1500 1218 1
1512 1218 1
911 1219 1
924 1219 1
939 1219 1
946 1219 1
967 1219 1
973 1219 1
1233 1219 1
1236 1219 1
1513 1219 1
1515 1219 1
911 1220 1
912 1220 1
940 1220 1
947 1220 1
968 1220 1
974 1220 1
1234 1220 1
1237 1220 1
1514 1220 1
1516 1220 1
912 1221 1
913 1221 1
941 1221 1
948 1221 1
969 1221 1
975 1221 1
1235 1221 1
1238 1221 1
1515 1221 1
1517 1221 1
913 1222 1
914 1222 1
942 1222 1
949 1222 1
970 1222 1
976 1222 1
1236 1222 1
1239 1222 1
1516 1222 1
1518 1222 1
914 1223 1
915 1223 1
943 1223 1
950 1223 1
971 1223 1
977 1223 1
1237 1223 1
1240 1223 1
1517 1223 1
1519 1223 1
915 1224 1
916 1224 1
944 1224 1
951 1224 1
972 1224 1
978 1224 1
1238 1224 1
1241 1224 1
1518 1224 1
1520 1224 1
916 1225 1
917 1225 1
945 1225 1
952 1225 1
973 1225 1
979 1225 1
1239 1225 1
1242 1225 1
1519 1225 1
1521 1225 1
917 1226 1
918 1226 1
939 1226 1
946 1226 1
974 1226 1
980 1226 1
1240 1226 1
1243 1226 1
1520 1226 1
1522 1226 1
918 1227 1
919 1227 1
940 1227 1
947 1227 1
967 1227 1
975 1227 1
1241 1227 1
1244 1227 1
1521 1227 1
1523 1227 1
919 1228 1
920 1228 1
941 1228 1
948 1228 1
968 1228 1
976 1228 1
1242 1228 1
1245 1228 1
1522 1228 1
1524 1228 1
920 1229 1
921 1229 1
942 1229 1
949 1229 1
969 1229 1
977 1229 1
1243 1229 1
1246 1229 1
1523 1229 1
1525 1229 1
921 1230 1
922 1230 1
943 1230 1
950 1230 1
970 1230 1
978 1230 1
1233 1230 1
1244 1230 1
1524 1230 1
1526 1230 1
922 1231 1
923 1231 1
944 1231 1
951 1231 1
971 1231 1
979 1231 1
1234 1231 1
1245 1231 1
1513 1231 1
1525 1231 1
923 1232 1
924 1232 1
945 1232 1
952 1232 1
972 1232 1
980 1232 1
1235 1232 1
1246 1232 1
1514 1232 1
1526 1232 1
925 1233 1
938 1233 1
939 1233 1
948 1233 1
981 1233 1
987 1233 1
1247 1233 1
1250 1233 1
1527 1233 1
1529 1233 1
925 1234 1
926 1234 1
940 1234 1
949 1234 1
982 1234 1
988 1234 1
1248 1234 1
1251 1234 1
1528 1234 1
1530 1234 1
926 1235 1
927 1235 1
941 1235 1
950 1235 1
983 1235 1
989 1235 1
1249 1235 1
1252 1235 1
1529 1235 1
1531 1235 1
927 1236 1
928 1236 1
942 1236 1
951 1236 1
984 1236 1
990 1236 1
1250 1236 1
1253 1236 1
1530 1236 1
1532 1236 1
928 1237 1
929 1237 1
943 1237 1
952 1237 1
985 1237 1
991 1237 1
1251 1237 1
1254 1237 1
1531 1237 1
1533 1237 1
929 1238 1
930 1238 1
939 1238 1
944 1238 1
986 1238 1
992 1238 1
1252 1238 1
1255 1238 1
1532 1238 1
1534 1238 1
930 1239 1
931 1239 1
940 1239 1
945 1239 1
987 1239 1
993 1239 1
1253 1239 1
1256 1239 1
1533 1239 1
1535 1239 1
931 1240 1
932 1240 1
941 1240 1
946 1240 1
988 1240 1
994 1240 1
1254 1240 1
1257 1240 1
1534 1240 1
1536 1240 1
932 1241 1
933 1241 1
942 1241 1
947 1241 1
981 1241 1
989 1241 1
1255 1241 1
1258 1241 1
1535 1241 1
1537 1241 1
933 1242 1
934 1242 1
943 1242 1
948 1242 1
982 1242 1
990 1242 1
1256 1242 1
1259 1242 1
1536 1242 1
1538 1242 1
934 1243 1
935 1243 1
944 1243 1
949 1243 1
983 1243 1
991 1243 1
1257 1243 1
1260 1243 1
1537 1243 1
1539 1243 1
935 1244 1
936 1244 1
945 1244 1
950 1244 1
984 1244 1
992 1244 1
1247 1244 1
1258 1244 1
1538 1244 1
1540 1244 1
936 1245 1
937 1245 1
946 1245 1
951 1245 1
985 1245 1
993 1245 1
1248 1245 1
1259 1245 1
1527 1245 1
1539 1245 1
937 1246 1
938 1246 1
947 1246 1
952 1246 1
986 1246 1
994 1246 1
1249 1246 1
1260 1246 1
1528 1246 1
1540 1246 1
953 1247 1
966 1247 1
967 1247 1
976 1247 1
981 1247 1
988 1247 1
1261 1247 1
1264 1247 1
1541 1247 1
1543 1247 1
953 1248 1
954 1248 1
968 1248 1
977 1248 1
982 1248 1
989 1248 1
1262 1248 1
1265 1248 1
1542 1248 1
1544 1248 1
954 1249 1
955 1249 1
969 1249 1
978 1249 1
983 1249 1
990 1249 1
1263 1249 1
1266 1249 1
1543 1249 1
1545 1249 1
955 1250 1
956 1250 1
970 1250 1
979 1250 1
984 1250 1
991 1250 1
1264 1250 1
1267 1250 1
1544 1250 1
1546 1250 1
956 1251 1
957 1251 1
971 1251 1
980 1251 1
985 1251 1
992 1251 1
1265 1251 1
1268 1251 1
1545 1251 1
1547 1251 1
957 1252 1
958 1252 1
967 1252 1
972 1252 1
986 1252 1
993 1252 1
1266 1252 1
1269 1252 1
1546 1252 1
1548 1252 1
958 1253 1
959 1253 1
968 1253 1
973 1253 1
987 1253 1
994 1253 1
1267 1253 1
1270 1253 1
1547 1253 1
1549 1253 1
959 1254 1
960 1254 1
969 1254 1
974 1254 1
981 1254 1
988 1254 1
1268 1254 1
1271 1254 1
1548 1254 1
1550 1254 1
960 1255 1
961 1255 1
970 1255 1
975 1255 1
982 1255 1
989 1255 1
1269 1255 1
1272 1255 1
1549 1255 1
1551 1255 1
961 1256 1
962 1256 1
971 1256 1
976 1256 1
983 1256 1
990 1256 1
1270 1256 1
1273 1256 1
1550 1256 1
1552 1256 1
962 1257 1
963 1257 1
972 1257 1
977 1257 1
984 1257 1
991 1257 1
1271 1257 1
1274 1257 1
1551 1257 1
1553 1257 1
963 1258 1
964 1258 1
973 1258 1
978 1258 1
985 1258 1
992 1258 1
1261 1258 1
1272 1258 1
1552 1258 1
1554 1258 1
964 1259 1
965 1259 1
974 1259 1
979 1259 1
986 1259 1
993 1259 1
1262 1259 1
1273 1259 1
1541 1259 1
1553 1259 1
965 1260 1
966 1260 1
975 1260 1
980 1260 1
987 1260 1
994 1260 1
1263 1260 1
1274 1260 1
1542 1260 1
1554 1260 1
995 1261 1
1002 1261 1
1009 1261 1
1015 1261 1
1051 1261 1
1056 1261 1
1135 1261 1
1139 1261 1
1555 1261 1
1557 1261 1
996 1262 1
1003 1262 1
1010 1262 1
1016 1262 1
1052 1262 1
1057 1262 1
1136 1262 1
1140 1262 1
1556 1262 1
1558 1262 1
997 1263 1
1004 1263 1
1011 1263 1
1017 1263 1
1053 1263 1
1058 1263 1
1137 1263 1
1141 1263 1
1557 1263 1
1559 1263 1
998 1264 1
1005 1264 1
1012 1264 1
1018 1264 1
1054 1264 1
1059 1264 1
1138 1264 1
1142 1264 1
1558 1264 1
1560 1264 1
999 1265 1
1006 1265 1
1013 1265 1
1019 1265 1
1055 1265 1
1060 1265 1
1139 1265 1
1143 1265 1
1559 1265 1
1561 1265 1
1000 1266 1
1007 1266 1
1014 1266 1
1020 1266 1
1056 1266 1
1061 1266 1
1140 1266 1
1144 1266 1
1560 1266 1
1562 1266 1
1001 1267 1
1008 1267 1
1015 1267 1
1021 1267 1
1057 1267 1
1062 1267 1
1141 1267 1
1145 1267 1
1561 1267 1
1563 1267 1
995 1268 1
1002 1268 1
1016 1268 1
1022 1268 1
1058 1268 1
1063 1268 1
1142 1268 1
1146 1268 1
1562 1268 1
1564 1268 1
996 1269 1
1003 1269 1
1009 1269 1
1017 1269 1
1059 1269 1
1064 1269 1
1143 1269 1
1147 1269 1
1563 1269 1
1565 1269 1
997 1270 1
1004 1270 1
1010 1270 1
1018 1270 1
1051 1270 1
1060 1270 1
1144 1270 1
1148 1270 1
1564 1270 1
1566 1270 1
998 1271 1
1005 1271 1
1011 1271 1
1019 1271 1
1052 1271 1
1061 1271 1
1135 1271 1
1145 1271 1
1565 1271 1
1567 1271 1
999 1272 1
1006 1272 1
1012 1272 1
1020 1272 1
1053 1272 1
1062 1272 1
1136 1272 1
1146 1272 1
1566 1272 1
1568 1272 1
1000 1273 1
1007 1273 1
1013 1273 1
1021 1273 1
1054 1273 1
1063 1273 1
1137 1273 1
1147 1273 1
1555 1273 1
1567 1273 1
1001 1274 1
1008 1274 1
1014 1274 1
1022 1274 1
1055 1274 1
1064 1274 1
1138 1274 1
1148 1274 1
1556 1274 1
1568 1274 1
995 1275 1
1004 1275 1
1023 1275 1
1029 1275 1
1065 1275 1
1070 1275 1
1149 1275 1
1153 1275 1
1569 1275 1
1571 1275 1
996 1276 1
1005 1276 1
1024 1276 1
1030 1276 1
1066 1276 1
1071 1276 1
1150 1276 1
1154 1276 1
1570 1276 1
1572 1276 1
997 1277 1
1006 1277 1
1025 1277 1
1031 1277 1
1067 1277 1
1072 1277 1
1151 1277 1
1155 1277 1
1571 1277 1
1573 1277 1
998 1278 1
1007 1278 1
1026 1278 1
1032 1278 1
1068 1278 1
1073 1278 1
1152 1278 1
1156 1278 1
1572 1278 1
1574 1278 1
999 1279 1
1008 1279 1
1027 1279 1
1033 1279 1
1069 1279 1
1074 1279 1
1153 1279 1
1157 1279 1
1573 1279 1
1575 1279 1
995 1280 1
1000 1280 1
1028 1280 1
1034 1280 1
1070 1280 1
1075 1280 1
1154 1280 1
1158 1280 1
1574 1280 1
1576 1280 1
996 1281 1
1001 1281 1
1029 1281 1
1035 1281 1
1071 1281 1
1076 1281 1
1155 1281 1
1159 1281 1
1575 1281 1
1577 1281 1
997 1282 1
1002 1282 1
1030 1282 1
1036 1282 1
1072 1282 1
1077 1282 1
1156 1282 1
1160 1282 1
1576 1282 1
1578 1282 1
998 1283 1
1003 1283 1
1023 1283 1
1031 1283 1
1073 1283 1
1078 1283 1
1157 1283 1
1161 1283 1
1577 1283 1
1579 1283 1
999 1284 1
1004 1284 1
1024 1284 1
1032 1284 1
1065 1284 1
1074 1284 1
1158 1284 1
1162 1284 1
1578 1284 1
1580 1284 1
1000 1285 1
1005 1285 1
1025 1285 1
1033 1285 1
1066 1285 1
1075 1285 1
1149 1285 1
1159 1285 1
1579 1285 1
1581 1285 1
1001 1286 1
1006 1286 1
1026 1286 1
1034 1286 1
1067 1286 1
1076 1286 1
1150 1286 1
1160 1286 1
1580 1286 1
1582 1286 1
1002 1287 1
1007 1287 1
1027 1287 1
1035 1287 1
1068 1287 1
1077 1287 1
1151 1287 1
1161 1287 1
1569 1287 1
1581 1287 1
1003 1288 1
1008 1288 1
1028 1288 1
1036 1288 1
1069 1288 1
1078 1288 1
1152 1288 1
1162 1288 1
1570 1288 1
1582 1288 1
995 1289 1
1008 1289 1
1037 1289 1
1043 1289 1
1079 1289 1
1084 1289 1
1163 1289 1
1167 1289 1
1583 1289 1
1585 1289 1
995 1290 1
996 1290 1
1038 1290 1
1044 1290 1
1080 1290 1
1085 1290 1
1164 1290 1
1168 1290 1
1584 1290 1
1586 1290 1
996 1291 1
997 1291 1
1039 1291 1
1045 1291 1
1081 1291 1
1086 1291 1
1165 1291 1
1169 1291 1
1585 1291 1
1587 1291 1
997 1292 1
998 1292 1
1040 1292 1
1046 1292 1
1082 1292 1
1087 1292 1
1166 1292 1
1170 1292 1
1586 1292 1
1588 1292 1
998 1293 1
999 1293 1
1041 1293 1
1047 1293 1
1083 1293 1
1088 1293 1
1167 1293 1
1171 1293 1
1587 1293 1
1589 1293 1
999 1294 1
1000 1294 1
1042 1294 1
1048 1294 1
1084 1294 1
1089 1294 1
1168 1294 1
1172 1294 1
1588 1294 1
1590 1294 1
1000 1295 1
1001 1295 1
1043 1295 1
1049 1295 1
1085 1295 1
1090 1295 1
1169 1295 1
1173 1295 1
1589 1295 1
1591 1295 1
1001 1296 1
1002 1296 1
1044 1296 1
1050 1296 1
1086 1296 1
1091 1296 1
1170 1296 1
1174 1296 1
1590 1296 1
1592 1296 1
1002 1297 1
1003 1297 1
1037 1297 1
1045 1297 1
1087 1297 1
1092 1297 1
1171 1297 1
1175 1297 1
1591 1297 1
1593 1297 1
1003 1298 1
1004 1298 1
1038 1298 1
1046 1298 1
1079 1298 1
1088 1298 1
1172 1298 1
1176 1298 1
1592 1298 1
1594 1298 1
1004 1299 1
1005 1299 1
1039 1299 1
1047 1299 1
1080 1299 1
1089 1299 1
1163 1299 1
1173 1299 1
1593 1299 1
1595 1299 1
1005 1300 1
1006 1300 1
1040 1300 1
1048 1300 1
1081 1300 1
1090 1300 1
1164 1300 1
1174 1300 1
1594 1300 1
1596 1300 1
1006 1301 1
1007 1301 1
1041 1301 1
1049 1301 1
1082 1301 1
1091 1301 1
1165 1301 1
1175 1301 1
1583 1301 1
1595 1301 1
1007 1302 1
1008 1302 1
1042 1302 1
1050 1302 1
1083 1302 1
1092 1302 1
1166 1302 1
1176 1302 1
1584 1302 1
1596 1302 1
1009 1303 1
1018 1303 1
1023 1303 1
1030 1303 1
1093 1303 1
1098 1303 1
1177 1303 1
1181 1303 1
1597 1303 1
1599 1303 1
1010 1304 1
1019 1304 1
1024 1304 1
1031 1304 1
1094 1304 1
1099 1304 1
1178 1304 1
1182 1304 1
1598 1304 1
1600 1304 1
1011 1305 1
1020 1305 1
1025 1305 1
1032 1305 1
1095 1305 1
1100 1305 1
1179 1305 1
1183 1305 1
1599 1305 1
1601 1305 1
1012 1306 1
1021 1306 1
1026 1306 1
1033 1306 1
1096 1306 1
1101 1306 1
1180 1306 1
1184 1306 1
1600 1306 1
1602 1306 1
1013 1307 1
1022 1307 1
1027 1307 1
1034 1307 1
1097 1307 1
1102 1307 1
1181 1307 1
1185 1307 1
1601 1307 1
1603 1307 1
1009 1308 1
1014 1308 1
1028 1308 1
1035 1308 1
1098 1308 1
1103 1308 1
1182 1308 1
1186 1308 1
1602 1308 1
1604 1308 1
1010 1309 1
1015 1309 1
1029 1309 1
1036 1309 1
1099 1309 1
1104 1309 1
1183 1309 1
1187 1309 1
1603 1309 1
1605 1309 1
1011 1310 1
1016 1310 1
1023 1310 1
1030 1310 1
1100 1310 1
1105 1310 1
1184 1310 1
1188 1310 1
1604 1310 1
1606 1310 1
1012 1311 1
1017 1311 1
1024 1311 1
1031 1311 1
1101 1311 1
1106 1311 1
1185 1311 1
1189 1311 1
1605 1311 1
1607 1311 1
1013 1312 1
1018 1312 1
1025 1312 1
1032 1312 1
1093 1312 1
1102 1312 1
1186 1312 1
1190 1312 1
1606 1312 1
1608 1312 1
1014 1313 1
1019 1313 1
1026 1313 1
1033 1313 1
1094 1313 1
1103 1313 1
1177 1313 1
1187 1313 1
1607 1313 1
1609 1313 1
1015 1314 1
1020 1314 1
1027 1314 1
1034 1314 1
1095 1314 1
1104 1314 1
1178 1314 1
1188 1314 1
1608 1314 1
1610 1314 1
1016 1315 1
1021 1315 1
1028 1315 1
1035 1315 1
1096 1315 1
1105 1315 1
1179 1315 1
1189 1315 1
1597 1315 1
1609 1315 1
1017 1316 1
1022 1316 1
1029 1316 1
1036 1316 1
1097 1316 1
1106 1316 1
1180 1316 1
1190 1316 1
1598 1316 1
1610 1316 1
1009 1317 1
1022 1317 1
1037 1317 1
1044 1317 1
1107 1317 1
1112 1317 1
1191 1317 1
1195 1317 1
1611 1317 1
1613 1317 1
1009 1318 1
1010 1318 1
1038 1318 1
1045 1318 1
1108 1318 1
1113 1318 1
1192 1318 1
1196 1318 1
1612 1318 1
1614 1318 1
1010 1319 1
1011 1319 1
1039 1319 1
1046 1319 1
1109 1319 1
1114 1319 1
1193 1319 1
1197 1319 1
1613 1319 1
1615 1319 1
1011 1320 1
1012 1320 1
1040 1320 1
1047 1320 1
1110 1320 1
1115 1320 1
1194 1320 1
1198 1320 1
1614 1320 1
1616 1320 1
1012 1321 1
1013 1321 1
1041 1321 1
1048 1321 1
1111 1321 1
1116 1321 1
1195 1321 1
1199 1321 1
1615 1321 1
1617 1321 1
1013 1322 1
1014 1322 1
1042 1322 1
1049 1322 1
1112 1322 1
1117 1322 1
1196 1322 1
1200 1322 1
1616 1322 1
1618 1322 1
1014 1323 1
1015 1323 1
1043 1323 1
1050 1323 1
1113 1323 1
1118 1323 1
1197 1323 1
1201 1323 1
1617 1323 1
1619 1323 1
1015 1324 1
1016 1324 1
1037 1324 1
1044 1324 1
1114 1324 1
1119 1324 1
1198 1324 1
1202 1324 1
1618 1324 1
1620 1324 1
1016 1325 1
1017 1325 1
1038 1325 1
1045 1325 1
1115 1325 1
1120 1325 1
1199 1325 1
1203 1325 1
1619 1325 1
1621 1325 1
1017 1326 1
1018 1326 1
1039 1326 1
1046 1326 1
1107 1326 1
1116 1326 1
1200 1326 1
1204 1326 1
1620 1326 1
1622 1326 1
1018 1327 1
1019 1327 1
1040 1327 1
1047 1327 1
1108 1327 1
1117 1327 1
1191 1327 1
1201 1327 1
1621 1327 1
1623 1327 1
1019 1328 1
1020 1328 1
1041 1328 1
1048 1328 1
1109 1328 1
1118 1328 1
1192 1328 1
1202 1328 1
1622 1328 1
1624 1328 1
1020 1329 1
1021 1329 1
1042 1329 1
1049 1329 1
1110 1329 1
1119 1329 1
1193 1329 1
1203 1329 1
1611 1329 1
1623 1329 1
1021 1330 1
1022 1330 1
1043 1330 1
1050 1330 1
1111 1330 1
1120 1330 1
1194 1330 1
1204 1330 1
1612 1330 1
1624 1330 1
1023 1331 1
1036 1331 1
1037 1331 1
1046 1331 1
1121 1331 1
1126 1331 1
1205 1331 1
1209 1331 1
1625 1331 1
1627 1331 1
1023 1332 1
1024 1332 1
1038 1332 1
1047 1332 1
1122 1332 1
1127 1332 1
1206 1332 1
1210 1332 1
1626 1332 1
1628 1332 1
1024 1333 1
1025 1333 1
1039 1333 1
1048 1333 1
1123 1333 1
1128 1333 1
1207 1333 1
1211 1333 1
1627 1333 1
1629 1333 1
1025 1334 1
1026 1334 1
1040 1334 1
1049 1334 1
1124 1334 1
1129 1334 1
1208 1334 1
1212 1334 1
1628 1334 1
1630 1334 1
1026 1335 1
1027 1335 1
1041 1335 1
1050 1335 1
1125 1335 1
1130 1335 1
1209 1335 1
1213 1335 1
1629 1335 1
1631 1335 1
1027 1336 1
1028 1336 1
1037 1336 1
1042 1336 1
1126 1336 1
1131 1336 1
1210 1336 1
1214 1336 1
1630 1336 1
1632 1336 1
1028 1337 1
1029 1337 1
1038 1337 1
1043 1337 1
1127 1337 1
1132 1337 1
1211 1337 1
1215 1337 1
1631 1337 1
1633 1337 1
1029 1338 1
1030 1338 1
1039 1338 1
1044 1338 1
1128 1338 1
1133 1338 1
1212 1338 1
1216 1338 1
1632 1338 1
1634 1338 1
1030 1339 1
1031 1339 1
1040 1339 1
1045 1339 1
1129 1339 1
1134 1339 1
1213 1339 1
1217 1339 1
1633 1339 1
1635 1339 1
1031 1340 1
1032 1340 1
1041 1340 1
1046 1340 1
1121 1340 1
1130 1340 1
1214 1340 1
1218 1340 1
1634 1340 1
1636 1340 1
1032 1341 1
1033 1341 1
1042 1341 1
1047 1341 1
1122 1341 1
1131 1341 1
1205 1341 1
1215 1341 1
1635 1341 1
1637 1341 1
1033 1342 1
1034 1342 1
1043 1342 1
1048 1342 1
1123 1342 1
1132 1342 1
1206 1342 1
1216 1342 1
1636 1342 1
1638 1342 1
1034 1343 1
1035 1343 1
1044 1343 1
1049 1343 1
1124 1343 1
1133 1343 1
1207 1343 1
1217 1343 1
1625 1343 1
1637 1343 1
1035 1344 1
1036 1344 1
1045 1344 1
1050 1344 1
1125 1344 1
1134 1344 1
1208 1344 1
1218 1344 1
1626 1344 1
1638 1344 1
1051 1345 1
1060 1345 1
1065 1345 1
1072 1345 1
1093 1345 1
1099 1345 1
1219 1345 1
1223 1345 1
1639 1345 1
1641 1345 1
1052 1346 1
1061 1346 1
1066 1346 1
1073 1346 1
1094 1346 1
1100 1346 1
1220 1346 1
1224 1346 1
1640 1346 1
1642 1346 1
1053 1347 1
1062 1347 1
1067 1347 1
1074 1347 1
1095 1347 1
1101 1347 1
1221 1347 1
1225 1347 1
1641 1347 1
1643 1347 1
1054 1348 1
1063 1348 1
1068 1348 1
1075 1348 1
1096 1348 1
1102 1348 1
1222 1348 1
1226 1348 1
1642 1348 1
1644 1348 1
1055 1349 1
1064 1349 1
1069 1349 1
1076 1349 1
1097 1349 1
1103 1349 1
1223 1349 1
1227 1349 1
1643 1349 1
1645 1349 1
1051 1350 1
1056 1350 1
1070 1350 1
1077 1350 1
1098 1350 1
1104 1350 1
1224 1350 1
1228 1350 1
1644 1350 1
1646 1350 1
1052 1351 1
1057 1351 1
1071 1351 1
1078 1351 1
1099 1351 1
1105 1351 1
1225 1351 1
1229 1351 1
1645 1351 1
1647 1351 1
1053 1352 1
1058 1352 1
1065 1352 1
1072 1352 1
1100 1352 1
1106 1352 1
1226 1352 1
1230 1352 1
1646 1352 1
1648 1352 1
1054 1353 1
1059 1353 1
1066 1353 1
1073 1353 1
1093 1353 1
1101 1353 1
1227 1353 1
1231 1353 1
1647 1353 1
1649 1353 1
1055 1354 1
1060 1354 1
1067 1354 1
1074 1354 1
1094 1354 1
1102 1354 1
1228 1354 1
1232 1354 1
1648 1354 1
1650 1354 1
1056 1355 1
1061 1355 1
1068 1355 1
1075 1355 1
1095 1355 1
1103 1355 1
1219 1355 1
1229 1355 1
1649 1355 1
1651 1355 1
1057 1356 1
1062 1356 1
1069 1356 1
1076 1356 1
1096 1356 1
1104 1356 1
1220 1356 1
1230 1356 1
1650 1356 1
1652 1356 1
1058 1357 1
1063 1357 1
1070 1357 1
1077 1357 1
1097 1357 1
1105 1357 1
1221 1357 1
1231 1357 1
1639 1357 1
1651 1357 1
1059 1358 1
1064 1358 1
1071 1358 1
1078 1358 1
1098 1358 1
1106 1358 1
1222 1358 1
1232 1358 1
1640 1358 1
1652 1358 1
1051 1359 1
1064 1359 1
1079 1359 1
1086 1359 1
1107 1359 1
1113 1359 1
1233 1359 1
1237 1359 1
1653 1359 1
1655 1359 1
1051 1360 1
1052 1360 1
1080 1360 1
1087 1360 1
1108 1360 1
1114 1360 1
1234 1360 1
1238 1360 1
1654 1360 1
1656 1360 1
1052 1361 1
1053 1361 1
1081 1361 1
1088 1361 1
1109 1361 1
1115 1361 1
1235 1361 1
1239 1361 1
1655 1361 1
1657 1361 1
1053 1362 1
1054 1362 1
1082 1362 1
1089 1362 1
1110 1362 1
1116 1362 1
1236 1362 1
1240 1362 1
1656 1362 1
1658 1362 1
1054 1363 1
1055 1363 1
1083 1363 1
1090 1363 1
1111 1363 1
1117 1363 1
1237 1363 1
1241 1363 1
1657 1363 1
1659 1363 1
1055 1364 1
1056 1364 1
1084 1364 1
1091 1364 1
1112 1364 1
1118 1364 1
1238 1364 1
1242 1364 1
1658 1364 1
1660 1364 1
1056 1365 1
1057 1365 1
1085 1365 1
1092 1365 1
1113 1365 1
1119 1365 1
1239 1365 1
1243 1365 1
1659 1365 1
1661 1365 1
1057 1366 1
1058 1366 1
1079 1366 1
1086 1366 1
1114 1366 1
1120 1366 1
1240 1366 1
1244 1366 1
1660 1366 1
1662 1366 1
1058 1367 1
1059 1367 1
1080 1367 1
1087 1367 1
1107 1367 1
1115 1367 1
1241 1367 1
1245 1367 1
1661 1367 1
1663 1367 1
1059 1368 1
1060 1368 1
1081 1368 1
1088 1368 1
1108 1368 1
1116 1368 1
1242 1368 1
1246 1368 1
1662 1368 1
1664 1368 1
1060 1369 1
1061 1369 1
1082 1369 1
1089 1369 1
1109 1369 1
1117 1369 1
1233 1369 1
1243 1369 1
1663 1369 1
1665 1369 1
1061 1370 1
1062 1370 1
1083 1370 1
1090 1370 1
1110 1370 1
1118 1370 1
1234 1370 1
1244 1370 1
1664 1370 1
1666 1370 1
1062 1371 1
1063 1371 1
1084 1371 1
1091 1371 1
1111 1371 1
1119 1371 1
1235 1371 1
1245 1371 1
1653 1371 1
1665 1371 1
1063 1372 1
1064 1372 1
1085 1372 1
1092 1372 1
1112 1372 1
1120 1372 1
1236 1372 1
1246 1372 1
1654 1372 1
1666 1372 1
1065 1373 1
1078 1373 1
1079 1373 1
1088 1373 1
1121 1373 1
1127 1373 1
1247 1373 1
1251 1373 1
1667 1373 1
1669 1373 1
1065 1374 1
1066 1374 1
1080 1374 1
1089 1374 1
1122 1374 1
1128 1374 1
1248 1374 1
1252 1374 1
1668 1374 1
1670 1374 1
1066 1375 1
1067 1375 1
1081 1375 1
1090 1375 1
1123 1375 1
1129 1375 1
1249 1375 1
1253 1375 1
1669 1375 1
1671 1375 1
1067 1376 1
1068 1376 1
1082 1376 1
1091 1376 1
1124 1376 1
1130 1376 1
1250 1376 1
1254 1376 1
1670 1376 1
1672 1376 1
1068 1377 1
1069 1377 1
1083 1377 1
1092 1377 1
1125 1377 1
1131 1377 1
1251 1377 1
1255 1377 1
1671 1377 1
1673 1377 1
1069 1378 1
1070 1378 1
1079 1378 1
1084 1378 1
1126 1378 1
1132 1378 1
1252 1378 1
1256 1378 1
1672 1378 1
1674 1378 1
1070 1379 1
1071 1379 1
1080 1379 1
1085 1379 1
1127 1379 1
1133 1379 1
1253 1379 1
1257 1379 1
1673 1379 1
1675 1379 1
1071 1380 1
1072 1380 1
1081 1380 1
1086 1380 1
1128 1380 1
1134 1380 1
1254 1380 1
1258 1380 1
1674 1380 1
1676 1380 1
1072 1381 1
1073 1381 1
1082 1381 1
1087 1381 1
1121 1381 1
1129 1381 1
1255 1381 1
1259 1381 1
1675 1381 1
1677 1381 1
1073 1382 1
1074 1382 1
1083 1382 1
1088 1382 1
1122 1382 1
1130 1382 1
1256 1382 1
1260 1382 1
1676 1382 1
1678 1382 1
1074 1383 1
1075 1383 1
1084 1383 1
1089 1383 1
1123 1383 1
1131 1383 1
1247 1383 1
1257 1383 1
1677 1383 1
1679 1383 1
1075 1384 1
1076 1384 1
1085 1384 1
1090 1384 1
1124 1384 1
1132 1384 1
1248 1384 1
1258 1384 1
1678 1384 1
1680 1384 1
1076 1385 1
1077 1385 1
1086 1385 1
1091 1385 1
1125 1385 1
1133 1385 1
1249 1385 1
1259 1385 1
1667 1385 1
1679 1385 1
1077 1386 1
1078 1386 1
1087 1386 1
1092 1386 1
1126 1386 1
1134 1386 1
1250 1386 1
1260 1386 1
1668 1386 1
1680 1386 1
1093 1387 1
1106 1387 1
1107 1387 1
1116 1387 1
1121 1387 1
1128 1387 1
1261 1387 1
1265 1387 1
1681 1387 1
1683 1387 1
1093 1388 1
1094 1388 1
1108 1388 1
1117 1388 1
1122 1388 1
1129 1388 1
1262 1388 1
1266 1388 1
1682 1388 1
1684 1388 1
1094 1389 1
1095 1389 1
1109 1389 1
1118 1389 1
1123 1389 1
1130 1389 1
1263 1389 1
1267 1389 1
1683 1389 1
1685 1389 1
1095 1390 1
1096 1390 1
1110 1390 1
1119 1390 1
1124 1390 1
1131 1390 1
1264 1390 1
1268 1390 1
1684 1390 1
1686 1390 1
1096 1391 1
1097 1391 1
1111 1391 1
1120 1391 1
1125 1391 1
1132 1391 1
1265 1391 1
1269 1391 1
1685 1391 1
1687 1391 1
1097 1392 1
1098 1392 1
1107 1392 1
1112 1392 1
1126 1392 1
1133 1392 1
1266 1392 1
1270 1392 1
1686 1392 1
1688 1392 1
1098 1393 1
1099 1393 1
1108 1393 1
1113 1393 1
1127 1393 1
1134 1393 1
1267 1393 1
1271 1393 1
1687 1393 1
1689 1393 1
1099 1394 1
1100 1394 1
1109 1394 1
1114 1394 1
1121 1394 1
1128 1394 1
1268 1394 1
1272 1394 1
1688 1394 1
1690 1394 1
1100 1395 1
1101 1395 1
1110 1395 1
1115 1395 1
1122 1395 1
1129 1395 1
1269 1395 1
1273 1395 1
1689 1395 1
1691 1395 1
1101 1396 1
1102 1396 1
1111 1396 1
1116 1396 1
1123 1396 1
1130 1396 1
1270 1396 1
1274 1396 1
1690 1396 1
1692 1396 1
1102 1397 1
1103 1397 1
1112 1397 1
1117 1397 1
1124 1397 1
1131 1397 1
1261 1397 1
1271 1397 1
1691 1397 1
1693 1397 1
1103 1398 1
1104 1398 1
1113 1398 1
1118 1398 1
1125 1398 1
1132 1398 1
1262 1398 1
1272 1398 1
1692 1398 1
1694 1398 1
1104 1399 1
1105 1399 1
1114 1399 1
1119 1399 1
1126 1399 1
1133 1399 1
1263 1399 1
1273 1399 1
1681 1399 1
1693 1399 1
1105 1400 1
1106 1400 1
1115 1400 1
1120 1400 1
1127 1400 1
1134 1400 1
1264 1400 1
1274 1400 1
1682 1400 1
1694 1400 1
1135 1401 1
1144 1401 1
1149 1401 1
1156 1401 1
1177 1401 1
1183 1401 1
1219 1401 1
1224 1401 1
1695 1401 1
1697 1401 1
1136 1402 1
1145 1402 1
1150 1402 1
1157 1402 1
1178 1402 1
1184 1402 1
1220 1402 1
1225 1402 1
1696 1402 1
1698 1402 1
1137 1403 1
1146 1403 1
1151 1403 1
1158 1403 1
1179 1403 1
1185 1403 1
1221 1403 1
1226 1403 1
1697 1403 1
1699 1403 1
1138 1404 1
1147 1404 1
1152 1404 1
1159 1404 1
1180 1404 1
1186 1404 1
1222 1404 1
1227 1404 1
1698 1404 1
1700 1404 1
1139 1405 1
1148 1405 1
1153 1405 1
1160 1405 1
1181 1405 1
1187 1405 1
1223 1405 1
1228 1405 1
1699 1405 1
1701 1405 1
1135 1406 1
1140 1406 1
1154 1406 1
1161 1406 1
1182 1406 1
1188 1406 1
1224 1406 1
1229 1406 1
1700 1406 1
1702 1406 1
1136 1407 1
1141 1407 1
1155 1407 1
1162 1407 1
1183 1407 1
1189 1407 1
1225 1407 1
1230 1407 1
1701 1407 1
1703 1407 1
1137 1408 1
1142 1408 1
1149 1408 1
1156 1408 1
1184 1408 1
1190 1408 1
1226 1408 1
1231 1408 1
1702 1408 1
1704 1408 1
1138 1409 1
1143 1409 1
1150 1409 1
1157 1409 1
1177 1409 1
1185 1409 1
1227 1409 1
1232 1409 1
1703 1409 1
1705 1409 1
1139 1410 1
1144 1410 1
1151 1410 1
1158 1410 1
1178 1410 1
1186 1410 1
1219 1410 1
1228 1410 1
1704 1410 1
1706 1410 1
1140 1411 1
1145 1411 1
1152 1411 1
1159 1411 1
1179 1411 1
1187 1411 1
1220 1411 1
1229 1411 1
1705 1411 1
1707 1411 1
1141 1412 1
1146 1412 1
1153 1412 1
1160 1412 1
1180 1412 1
1188 1412 1
1221 1412 1
1230 1412 1
1706 1412 1
1708 1412 1
1142 1413 1
1147 1413 1
1154 1413 1
1161 1413 1
1181 1413 1
1189 1413 1
1222 1413 1
1231 1413 1
1695 1413 1
1707 1413 1
1143 1414 1
1148 1414 1
1155 1414 1
1162 1414 1
1182 1414 1
1190 1414 1
1223 1414 1
1232 1414 1
1696 1414 1
1708 1414 1
1135 1415 1
1148 1415 1
1163 1415 1
1170 1415 1
1191 1415 1
1197 1415 1
1233 1415 1
1238 1415 1
1709 1415 1
1711 1415 1
1135 1416 1
1136 1416 1
1164 1416 1
1171 1416 1
1192 1416 1
1198 1416 1
1234 1416 1
1239 1416 1
1710 1416 1
1712 1416 1
1136 1417 1
1137 1417 1
1165 1417 1
1172 1417 1
1193 1417 1
1199 1417 1
1235 1417 1
1240 1417 1
1711 1417 1
1713 1417 1
1137 1418 1
1138 1418 1
1166 1418 1
1173 1418 1
1194 1418 1
1200 1418 1
1236 1418 1
1241 1418 1
1712 1418 1
1714 1418 1
1138 1419 1
1139 1419 1
1167 1419 1
1174 1419 1
1195 1419 1
1201 1419 1
1237 1419 1
1242 1419 1
1713 1419 1
1715 1419 1
1139 1420 1
1140 1420 1
1168 1420 1
1175 1420 1
1196 1420 1
1202 1420 1
1238 1420 1
1243 1420 1
1714 1420 1
1716 1420 1
1140 1421 1
1141 1421 1
1169 1421 1
1176 1421 1
1197 1421 1
1203 1421 1
1239 1421 1
1244 1421 1
1715 1421 1
1717 1421 1
1141 1422 1
1142 1422 1
1163 1422 1
1170 1422 1
1198 1422 1
1204 1422 1
1240 1422 1
1245 1422 1
1716 1422 1
1718 1422 1
1142 1423 1
1143 1423 1
1164 1423 1
1171 1423 1
1191 1423 1
1199 1423 1
1241 1423 1
1246 1423 1
1717 1423 1
1719 1423 1
1143 1424 1
1144 1424 1
1165 1424 1
1172 1424 1
1192 1424 1
1200 1424 1
1233 1424 1
1242 1424 1
1718 1424 1
1720 1424 1
1144 1425 1
1145 1425 1
1166 1425 1
1173 1425 1
1193 1425 1
1201 1425 1
1234 1425 1
1243 1425 1
1719 1425 1
1721 1425 1
1145 1426 1
1146 1426 1
1167 1426 1
1174 1426 1
1194 1426 1
1202 1426 1
1235 1426 1
1244 1426 1
1720 1426 1
1722 1426 1
1146 1427 1
1147 1427 1
1168 1427 1
1175 1427 1
1195 1427 1
1203 1427 1
1236 1427 1
1245 1427 1
1709 1427 1
1721 1427 1
1147 1428 1
1148 1428 1
1169 1428 1
1176 1428 1
1196 1428 1
1204 1428 1
1237 1428 1
1246 1428 1
1710 1428 1
1722 1428 1
1149 1429 1
1162 1429 1
1163 1429 1
1172 1429 1
1205 1429 1
1211 1429 1
1247 1429 1
1252 1429 1
1723 1429 1
1725 1429 1
1149 1430 1
1150 1430 1
1164 1430 1
1173 1430 1
1206 1430 1
1212 1430 1
1248 1430 1
1253 1430 1
1724 1430 1
1726 1430 1
1150 1431 1
1151 1431 1
1165 1431 1
1174 1431 1
1207 1431 1
1213 1431 1
1249 1431 1
1254 1431 1
1725 1431 1
1727 1431 1
1151 1432 1
1152 1432 1
1166 1432 1
1175 1432 1
1208 1432 1
1214 1432 1
1250 1432 1
1255 1432 1
1726 1432 1
1728 1432 1
1152 1433 1
1153 1433 1
1167 1433 1
1176 1433 1
1209 1433 1
1215 1433 1
1251 1433 1
1256 1433 1
1727 1433 1
1729 1433 1
1153 1434 1
1154 1434 1
1163 1434 1
1168 1434 1
1210 1434 1
1216 1434 1
1252 1434 1
1257 1434 1
1728 1434 1
1730 1434 1
1154 1435 1
1155 1435 1
1164 1435 1
1169 1435 1
1211 1435 1
1217 1435 1
1253 1435 1
1258 1435 1
1729 1435 1
1731 1435 1
1155 1436 1
1156 1436 1
1165 1436 1
1170 1436 1
1212 1436 1
1218 1436 1
1254 1436 1
1259 1436 1
1730 1436 1
1732 1436 1
1156 1437 1
1157 1437 1
1166 1437 1
1171 1437 1
1205 1437 1
1213 1437 1
1255 1437 1
1260 1437 1
1731 1437 1
1733 1437 1
1157 1438 1
1158 1438 1
1167 1438 1
1172 1438 1
1206 1438 1
1214 1438 1
1247 1438 1
1256 1438 1
1732 1438 1
1734 1438 1
1158 1439 1
1159 1439 1
1168 1439 1
1173 1439 1
1207 1439 1
1215 1439 1
1248 1439 1
1257 1439 1
1733 1439 1
1735 1439 1
1159 1440 1
1160 1440 1
1169 1440 1
1174 1440 1
1208 1440 1
1216 1440 1
1249 1440 1
1258 1440 1
1734 1440 1
1736 1440 1
1160 1441 1
1161 1441 1
1170 1441 1
1175 1441 1
1209 1441 1
1217 1441 1
1250 1441 1
1259 1441 1
1723 1441 1
1735 1441 1
1161 1442 1
1162 1442 1
1171 1442 1
1176 1442 1
1210 1442 1
1218 1442 1
1251 1442 1
1260 1442 1
1724 1442 1
1736 1442 1
1177 1443 1
1190 1443 1
1191 1443 1
1200 1443 1
1205 1443 1
1212 1443 1
1261 1443 1
1266 1443 1
1737 1443 1
1739 1443 1
1177 1444 1
1178 1444 1
1192 1444 1
1201 1444 1
1206 1444 1
1213 1444 1
1262 1444 1
1267 1444 1
1738 1444 1
1740 1444 1
1178 1445 1
1179 1445 1
1193 1445 1
1202 1445 1
1207 1445 1
1214 1445 1
1263 1445 1
1268 1445 1
1739 1445 1
1741 1445 1
1179 1446 1
1180 1446 1
1194 1446 1
1203 1446 1
1208 1446 1
1215 1446 1
1264 1446 1
1269 1446 1
1740 1446 1
1742 1446 1
1180 1447 1
1181 1447 1
1195 1447 1
1204 1447 1
1209 1447 1
1216 1447 1
1265 1447 1
1270 1447 1
1741 1447 1
1743 1447 1
1181 1448 1
1182 1448 1
1191 1448 1
1196 1448 1
1210 1448 1
1217 1448 1
1266 1448 1
1271 1448 1
1742 1448 1
1744 1448 1
1182 1449 1
1183 1449 1
1192 1449 1
1197 1449 1
1211 1449 1
1218 1449 1
1267 1449 1
1272 1449 1
1743 1449 1
1745 1449 1
1183 1450 1
1184 1450 1
1193 1450 1
1198 1450 1
1205 1450 1
1212 1450 1
1268 1450 1
1273 1450 1
1744 1450 1
1746 1450 1
1184 1451 1
1185 1451 1
1194 1451 1
1199 1451 1
1206 1451 1
1213 1451 1
1269 1451 1
1274 1451 1
1745 1451 1
1747 1451 1
1185 1452 1
1186 1452 1
1195 1452 1
1200 1452 1
1207 1452 1
1214 1452 1
1261 1452 1
1270 1452 1
1746 1452 1
1748 1452 1
1186 1453 1
1187 1453 1
1196 1453 1
1201 1453 1
1208 1453 1
1215 1453 1
1262 1453 1
1271 1453 1
1747 1453 1
1749 1453 1
1187 1454 1
1188 1454 1
1197 1454 1
1202 1454 1
1209 1454 1
1216 1454 1
1263 1454 1
1272 1454 1
1748 1454 1
1750 1454 1
1188 1455 1
1189 1455 1
1198 1455 1
1203 1455 1
1210 1455 1
1217 1455 1
1264 1455 1
1273 1455 1
1737 1455 1
1749 1455 1
1189 1456 1
1190 1456 1
1199 1456 1
1204 1456 1
1211 1456 1
1218 1456 1
1265 1456 1
1274 1456 1
1738 1456 1
1750 1456 1
1219 1457 1
1232 1457 1
1233 1457 1
1242 1457 1
1247 1457 1
1254 1457 1
1261 1457 1
1267 1457 1
1751 1457 1
1753 1457 1
1219 1458 1
1220 1458 1
1234 1458 1
1243 1458 1
1248 1458 1
1255 1458 1
1262 1458 1
1268 1458 1
1752 1458 1
1754 1458 1
1220 1459 1
1221 1459 1
1235 1459 1
1244 1459 1
1249 1459 1
1256 1459 1
1263 1459 1
1269 1459 1
1753 1459 1
1755 1459 1
1221 1460 1
1222 1460 1
1236 1460 1
1245 1460 1
1250 1460 1
1257 1460 1
1264 1460 1
1270 1460 1
1754 1460 1
1756 1460 1
1222 1461 1
1223 1461 1
1237 1461 1
1246 1461 1
1251 1461 1
1258 1461 1
1265 1461 1
1271 1461 1
1755 1461 1
1757 1461 1
1223 1462 1
1224 1462 1
1233 1462 1
1238 1462 1
1252 1462 1
1259 1462 1
1266 1462 1
1272 1462 1
1756 1462 1
1758 1462 1
1224 1463 1
1225 1463 1
1234 1463 1
1239 1463 1
1253 1463 1
1260 1463 1
1267 1463 1
1273 1463 1
1757 1463 1
1759 1463 1
1225 1464 1
1226 1464 1
1235 1464 1
1240 1464 1
1247 1464 1
1254 1464 1
1268 1464 1
1274 1464 1
1758 1464 1
1760 1464 1
1226 1465 1
1227 1465 1
1236 1465 1
1241 1465 1
1248 1465 1
1255 1465 1
1261 1465 1
1269 1465 1
1759 1465 1
1761 1465 1
1227 1466 1
1228 1466 1
1237 1466 1
1242 1466 1
1249 1466 1
1256 1466 1
1262 1466 1
1270 1466 1
1760 1466 1
1762 1466 1
1228 1467 1
1229 1467 1
1238 1467 1
1243 1467 1
1250 1467 1
1257 1467 1
1263 1467 1
1271 1467 1
1761 1467 1
1763 1467 1
1229 1468 1
1230 1468 1
1239 1468 1
1244 1468 1
1251 1468 1
1258 1468 1
1264 1468 1
1272 1468 1
1762 1468 1
1764 1468 1
1230 1469 1
1231 1469 1
1240 1469 1
1245 1469 1
1252 1469 1
1259 1469 1
1265 1469 1
1273 1469 1
1751 1469 1
1763 1469 1
1231 1470 1
1232 1470 1
1241 1470 1
1246 1470 1
1253 1470 1
1260 1470 1
1266 1470 1
1274 1470 1
1752 1470 1
1764 1470 1
1275 1471 1
1282 1471 1
1289 1471 1
1295 1471 1
1331 1471 1
1336 1471 1
1415 1471 1
1419 1471 1
1555 1471 1
1558 1471 1
1276 1472 1
1283 1472 1
1290 1472 1
1296 1472 1
1332 1472 1
1337 1472 1
1416 1472 1
1420 1472 1
1556 1472 1
1559 1472 1
1277 1473 1
1284 1473 1
1291 1473 1
1297 1473 1
1333 1473 1
1338 1473 1
1417 1473 1
1421 1473 1
1557 1473 1
1560 1473 1
1278 1474 1
1285 1474 1
1292 1474 1
1298 1474 1
1334 1474 1
1339 1474 1
1418 1474 1
1422 1474 1
1558 1474 1
1561 1474 1
1279 1475 1
1286 1475 1
1293 1475 1
1299 1475 1
1335 1475 1
1340 1475 1
1419 1475 1
1423 1475 1
1559 1475 1
1562 1475 1
1280 1476 1
1287 1476 1
1294 1476 1
1300 1476 1
1336 1476 1
1341 1476 1
1420 1476 1
1424 1476 1
1560 1476 1
1563 1476 1
1281 1477 1
1288 1477 1
1295 1477 1
1301 1477 1
1337 1477 1
1342 1477 1
1421 1477 1
1425 1477 1
1561 1477 1
1564 1477 1
1275 1478 1
1282 1478 1
1296 1478 1
1302 1478 1
1338 1478 1
1343 1478 1
1422 1478 1
1426 1478 1
1562 1478 1
1565 1478 1
1276 1479 1
1283 1479 1
1289 1479 1
1297 1479 1
1339 1479 1
1344 1479 1
1423 1479 1
1427 1479 1
1563 1479 1
1566 1479 1
1277 1480 1
1284 1480 1
1290 1480 1
1298 1480 1
1331 1480 1
1340 1480 1
1424 1480 1
1428 1480 1
1564 1480 1
1567 1480 1
1278 1481 1
1285 1481 1
1291 1481 1
1299 1481 1
1332 1481 1
1341 1481 1
1415 1481 1
1425 1481 1
1565 1481 1
1568 1481 1
1279 1482 1
1286 1482 1
1292 1482 1
1300 1482 1
1333 1482 1
1342 1482 1
1416 1482 1
1426 1482 1
1555 1482 1
1566 1482 1
1280 1483 1
1287 1483 1
1293 1483 1
1301 1483 1
1334 1483 1
1343 1483 1
1417 1483 1
1427 1483 1
1556 1483 1
1567 1483 1
1281 1484 1
1288 1484 1
1294 1484 1
1302 1484 1
1335 1484 1
1344 1484 1
1418 1484 1
1428 1484 1
1557 1484 1
1568 1484 1
1275 1485 1
1284 1485 1
1303 1485 1
1309 1485 1
1345 1485 1
1350 1485 1
1429 1485 1
1433 1485 1
1569 1485 1
1572 1485 1
1276 1486 1
1285 1486 1
1304 1486 1
1310 1486 1
1346 1486 1
1351 1486 1
1430 1486 1
1434 1486 1
1570 1486 1
1573 1486 1
1277 1487 1
1286 1487 1
1305 1487 1
1311 1487 1
1347 1487 1
1352 1487 1
1431 1487 1
1435 1487 1
1571 1487 1
1574 1487 1
1278 1488 1
1287 1488 1
1306 1488 1
1312 1488 1
1348 1488 1
1353 1488 1
1432 1488 1
1436 1488 1
1572 1488 1
1575 1488 1
1279 1489 1
1288 1489 1
1307 1489 1
1313 1489 1
1349 1489 1
1354 1489 1
1433 1489 1
1437 1489 1
1573 1489 1
1576 1489 1
1275 1490 1
1280 1490 1
1308 1490 1
1314 1490 1
1350 1490 1
1355 1490 1
1434 1490 1
1438 1490 1
1574 1490 1
1577 1490 1
1276 1491 1
1281 1491 1
1309 1491 1
1315 1491 1
1351 1491 1
1356 1491 1
1435 1491 1
1439 1491 1
1575 1491 1
1578 1491 1
1277 1492 1
1282 1492 1
1310 1492 1
1316 1492 1
1352 1492 1
1357 1492 1
1436 1492 1
1440 1492 1
1576 1492 1
1579 1492 1
1278 1493 1
1283 1493 1
1303 1493 1
1311 1493 1
1353 1493 1
1358 1493 1
1437 1493 1
1441 1493 1
1577 1493 1
1580 1493 1
1279 1494 1
1284 1494 1
1304 1494 1
1312 1494 1
1345 1494 1
1354 1494 1
1438 1494 1
1442 1494 1
1578 1494 1
1581 1494 1
1280 1495 1
1285 1495 1
1305 1495 1
1313 1495 1
1346 1495 1
1355 1495 1
1429 1495 1
1439 1495 1
1579 1495 1
1582 1495 1
1281 1496 1
1286 1496 1
1306 1496 1
1314 1496 1
1347 1496 1
1356 1496 1
1430 1496 1
1440 1496 1
1569 1496 1
1580 1496 1
1282 1497 1
1287 1497 1
1307 1497 1
1315 1497 1
1348 1497 1
1357 1497 1
1431 1497 1
1441 1497 1
1570 1497 1
1581 1497 1
1283 1498 1
1288 1498 1
1308 1498 1
1316 1498 1
1349 1498 1
1358 1498 1
1432 1498 1
1442 1498 1
1571 1498 1
1582 1498 1
1275 1499 1
1288 1499 1
1317 1499 1
1323 1499 1
1359 1499 1
1364 1499 1
1443 1499 1
1447 1499 1
1583 1499 1
1586 1499 1
1275 1500 1
1276 1500 1
1318 1500 1
1324 1500 1
1360 1500 1
1365 1500 1
1444 1500 1
1448 1500 1
1584 1500 1
1587 1500 1
1276 1501 1
1277 1501 1
1319 1501 1
1325 1501 1
1361 1501 1
1366 1501 1
1445 1501 1
1449 1501 1
1585 1501 1
1588 1501 1
1277 1502 1
1278 1502 1
1320 1502 1
1326 1502 1
1362 1502 1
1367 1502 1
1446 1502 1
1450 1502 1
1586 1502 1
1589 1502 1
1278 1503 1
1279 1503 1
1321 1503 1
1327 1503 1
1363 1503 1
1368 1503 1
1447 1503 1
1451 1503 1
1587 1503 1
1590 1503 1
1279 1504 1
1280 1504 1
1322 1504 1
1328 1504 1
1364 1504 1
1369 1504 1
1448 1504 1
1452 1504 1
1588 1504 1
1591 1504 1
1280 1505 1
1281 1505 1
1323 1505 1
1329 1505 1
1365 1505 1
1370 1505 1
1449 1505 1
1453 1505 1
1589 1505 1
1592 1505 1
1281 1506 1
1282 1506 1
1324 1506 1
1330 1506 1
1366 1506 1
1371 1506 1
1450 1506 1
1454 1506 1
1590 1506 1
1593 1506 1
1282 1507 1
1283 1507 1
1317 1507 1
1325 1507 1
1367 1507 1
1372 1507 1
1451 1507 1
1455 1507 1
1591 1507 1
1594 1507 1
1283 1508 1
1284 1508 1
1318 1508 1
1326 1508 1
1359 1508 1
1368 1508 1
1452 1508 1
1456 1508 1
1592 1508 1
1595 1508 1
1284 1509 1
1285 1509 1
1319 1509 1
1327 1509 1
1360 1509 1
1369 1509 1
1443 1509 1
1453 1509 1
1593 1509 1
1596 1509 1
1285 1510 1
1286 1510 1
1320 1510 1
1328 1510 1
1361 1510 1
1370 1510 1
1444 1510 1
1454 1510 1
1583 1510 1
1594 1510 1
1286 1511 1
1287 1511 1
1321 1511 1
1329 1511 1
1362 1511 1
1371 1511 1
1445 1511 1
1455 1511 1
1584 1511 1
1595 1511 1
1287 1512 1
1288 1512 1
1322 1512 1
1330 1512 1
1363 1512 1
1372 1512 1
1446 1512 1
1456 1512 1
1585 1512 1
1596 1512 1
1289 1513 1
1298 1513 1
1303 1513 1
1310 1513 1
1373 1513 1
1378 1513 1
1457 1513 1
1461 1513 1
1597 1513 1
1600 1513 1
1290 1514 1
1299 1514 1
1304 1514 1
1311 1514 1
1374 1514 1
1379 1514 1
1458 1514 1
1462 1514 1
1598 1514 1
1601 1514 1
1291 1515 1
1300 1515 1
1305 1515 1
1312 1515 1
1375 1515 1
1380 1515 1
1459 1515 1
1463 1515 1
1599 1515 1
1602 1515 1
1292 1516 1
1301 1516 1
1306 1516 1
1313 1516 1
1376 1516 1
1381 1516 1
1460 1516 1
1464 1516 1
1600 1516 1
1603 1516 1
1293 1517 1
1302 1517 1
1307 1517 1
1314 1517 1
1377 1517 1
1382 1517 1
1461 1517 1
1465 1517 1
1601 1517 1
1604 1517 1
1289 1518 1
1294 1518 1
1308 1518 1
1315 1518 1
1378 1518 1
1383 1518 1
1462 1518 1
1466 1518 1
1602 1518 1
1605 1518 1
1290 1519 1
1295 1519 1
1309 1519 1
1316 1519 1
1379 1519 1
1384 1519 1
1463 1519 1
1467 1519 1
1603 1519 1
1606 1519 1
1291 1520 1
1296 1520 1
1303 1520 1
1310 1520 1
1380 1520 1
1385 1520 1
1464 1520 1
1468 1520 1
1604 1520 1
1607 1520 1
1292 1521 1
1297 1521 1
1304 1521 1
1311 1521 1
1381 1521 1
1386 1521 1
1465 1521 1
1469 1521 1
1605 1521 1
1608 1521 1
1293 1522 1
1298 1522 1
1305 1522 1
1312 1522 1
1373 1522 1
1382 1522 1
1466 1522 1
1470 1522 1
1606 1522 1
1609 1522 1
1294 1523 1
1299 1523 1
1306 1523 1
1313 1523 1
1374 1523 1
1383 1523 1
1457 1523 1
1467 1523 1
1607 1523 1
1610 1523 1
1295 1524 1
1300 1524 1
1307 1524 1
1314 1524 1
1375 1524 1
1384 1524 1
1458 1524 1
1468 1524 1
1597 1524 1
1608 1524 1
1296 1525 1
1301 1525 1
1308 1525 1
1315 1525 1
1376 1525 1
1385 1525 1
1459 1525 1
1469 1525 1
1598 1525 1
1609 1525 1
1297 1526 1
1302 1526 1
1309 1526 1
1316 1526 1
1377 1526 1
1386 1526 1
1460 1526 1
1470 1526 1
1599 1526 1
1610 1526 1
1289 1527 1
1302 1527 1
1317 1527 1
1324 1527 1
1387 1527 1
1392 1527 1
1471 1527 1
1475 1527 1
1611 1527 1
1614 1527 1
1289 1528 1
1290 1528 1
1318 1528 1
1325 1528 1
1388 1528 1
1393 1528 1
1472 1528 1
1476 1528 1
1612 1528 1
1615 1528 1
1290 1529 1
1291 1529 1
1319 1529 1
1326 1529 1
1389 1529 1
1394 1529 1
1473 1529 1
1477 1529 1
1613 1529 1
1616 1529 1
1291 1530 1
1292 1530 1
1320 1530 1
1327 1530 1
1390 1530 1
1395 1530 1
1474 1530 1
1478 1530 1
1614 1530 1
1617 1530 1
1292 1531 1
1293 1531 1
1321 1531 1
1328 1531 1
1391 1531 1
1396 1531 1
1475 1531 1
1479 1531 1
1615 1531 1
1618 1531 1
1293 1532 1
1294 1532 1
1322 1532 1
1329 1532 1
1392 1532 1
1397 1532 1
1476 1532 1
1480 1532 1
1616 1532 1
1619 1532 1
1294 1533 1
1295 1533 1
1323 1533 1
1330 1533 1
1393 1533 1
1398 1533 1
1477 1533 1
1481 1533 1
1617 1533 1
1620 1533 1
1295 1534 1
1296 1534 1
1317 1534 1
1324 1534 1
1394 1534 1
1399 1534 1
1478 1534 1
1482 1534 1
1618 1534 1
1621 1534 1
1296 1535 1
1297 1535 1
1318 1535 1
1325 1535 1
1395 1535 1
1400 1535 1
1479 1535 1
1483 1535 1
1619 1535 1
1622 1535 1
1297 1536 1
1298 1536 1
1319 1536 1
1326 1536 1
1387 1536 1
1396 1536 1
1480 1536 1
1484 1536 1
1620 1536 1
1623 1536 1
1298 1537 1
1299 1537 1
1320 1537 1
1327 1537 1
1388 1537 1
1397 1537 1
1471 1537 1
1481 1537 1
1621 1537 1
1624 1537 1
1299 1538 1
1300 1538 1
1321 1538 1
1328 1538 1
1389 1538 1
1398 1538 1
1472 1538 1
1482 1538 1
1611 1538 1
1622 1538 1
1300 1539 1
1301 1539 1
1322 1539 1
1329 1539 1
1390 1539 1
1399 1539 1
1473 1539 1
1483 1539 1
1612 1539 1
1623 1539 1
1301 1540 1
1302 1540 1
1323 1540 1
1330 1540 1
1391 1540 1
1400 1540 1
1474 1540 1
1484 1540 1
1613 1540 1
1624 1540 1
1303 1541 1
1316 1541 1
1317 1541 1
1326 1541 1
1401 1541 1
1406 1541 1
1485 1541 1
1489 1541 1
1625 1541 1
1628 1541 1
1303 1542 1
1304 1542 1
1318 1542 1
1327 1542 1
1402 1542 1
1407 1542 1
1486 1542 1
1490 1542 1
1626 1542 1
1629 1542 1
1304 1543 1
1305 1543 1
1319 1543 1
1328 1543 1
1403 1543 1
1408 1543 1
1487 1543 1
1491 1543 1
1627 1543 1
1630 1543 1
1305 1544 1
1306 1544 1
1320 1544 1
1329 1544 1
1404 1544 1
1409 1544 1
1488 1544 1
1492 1544 1
1628 1544 1
1631 1544 1
1306 1545 1
1307 1545 1
1321 1545 1
1330 1545 1
1405 1545 1
1410 1545 1
1489 1545 1
1493 1545 1
1629 1545 1
1632 1545 1
1307 1546 1
1308 1546 1
1317 1546 1
1322 1546 1
1406 1546 1
1411 1546 1
1490 1546 1
1494 1546 1
1630 1546 1
1633 1546 1
1308 1547 1
1309 1547 1
1318 1547 1
1323 1547 1
1407 1547 1
1412 1547 1
1491 1547 1
1495 1547 1
1631 1547 1
1634 1547 1
1309 1548 1
1310 1548 1
1319 1548 1
1324 1548 1
1408 1548 1
1413 1548 1
1492 1548 1
1496 1548 1
1632 1548 1
1635 1548 1
1310 1549 1
1311 1549 1
1320 1549 1
1325 1549 1
1409 1549 1
1414 1549 1
1493 1549 1
1497 1549 1
1633 1549 1
1636 1549 1
1311 1550 1
1312 1550 1
1321 1550 1
1326 1550 1
1401 1550 1
1410 1550 1
1494 1550 1
1498 1550 1
1634 1550 1
1637 1550 1
1312 1551 1
1313 1551 1
1322 1551 1
1327 1551 1
1402 1551 1
1411 1551 1
1485 1551 1
1495 1551 1
1635 1551 1
1638 1551 1
1313 1552 1
1314 1552 1
1323 1552 1
1328 1552 1
1403 1552 1
1412 1552 1
1486 1552 1
1496 1552 1
1625 1552 1
1636 1552 1
1314 1553 1
1315 1553 1
1324 1553 1
1329 1553 1
1404 1553 1
1413 1553 1
1487 1553 1
1497 1553 1
1626 1553 1
1637 1553 1
1315 1554 1
1316 1554 1
1325 1554 1
1330 1554 1
1405 1554 1
1414 1554 1
1488 1554 1
1498 1554 1
1627 1554 1
1638 1554 1
1331 1555 1
1340 1555 1
1345 1555 1
1352 1555 1
1373 1555 1
1379 1555 1
1499 1555 1
1503 1555 1
1639 1555 1
1642 1555 1
1332 1556 1
1341 1556 1
1346 1556 1
1353 1556 1
1374 1556 1
1380 1556 1
1500 1556 1
1504 1556 1
1640 1556 1
1643 1556 1
1333 1557 1
1342 1557 1
1347 1557 1
1354 1557 1
1375 1557 1
1381 1557 1
1501 1557 1
1505 1557 1
1641 1557 1
1644 1557 1
1334 1558 1
1343 1558 1
1348 1558 1
1355 1558 1
1376 1558 1
1382 1558 1
1502 1558 1
1506 1558 1
1642 1558 1
1645 1558 1
1335 1559 1
1344 1559 1
1349 1559 1
1356 1559 1
1377 1559 1
1383 1559 1
1503 1559 1
1507 1559 1
1643 1559 1
1646 1559 1
1331 1560 1
1336 1560 1
1350 1560 1
1357 1560 1
1378 1560 1
1384 1560 1
1504 1560 1
1508 1560 1
1644 1560 1
1647 1560 1
1332 1561 1
1337 1561 1
1351 1561 1
1358 1561 1
1379 1561 1
1385 1561 1
1505 1561 1
1509 1561 1
1645 1561 1
1648 1561 1
1333 1562 1
1338 1562 1
1345 1562 1
1352 1562 1
1380 1562 1
1386 1562 1
1506 1562 1
1510 1562 1
1646 1562 1
1649 1562 1
1334 1563 1
1339 1563 1
1346 1563 1
1353 1563 1
1373 1563 1
1381 1563 1
1507 1563 1
1511 1563 1
1647 1563 1
1650 1563 1
1335 1564 1
1340 1564 1
1347 1564 1
1354 1564 1
1374 1564 1
1382 1564 1
1508 1564 1
1512 1564 1
1648 1564 1
1651 1564 1
1336 1565 1
1341 1565 1
1348 1565 1
1355 1565 1
1375 1565 1
1383 1565 1
1499 1565 1
1509 1565 1
1649 1565 1
1652 1565 1
1337 1566 1
1342 1566 1
1349 1566 1
1356 1566 1
1376 1566 1
1384 1566 1
1500 1566 1
1510 1566 1
1639 1566 1
1650 1566 1
1338 1567 1
1343 1567 1
1350 1567 1
1357 1567 1
1377 1567 1
1385 1567 1
1501 1567 1
1511 1567 1
1640 1567 1
1651 1567 1
1339 1568 1
1344 1568 1
1351 1568 1
1358 1568 1
1378 1568 1
1386 1568 1
1502 1568 1
1512 1568 1
1641 1568 1
1652 1568 1
1331 1569 1
1344 1569 1
1359 1569 1
1366 1569 1
1387 1569 1
1393 1569 1
1513 1569 1
1517 1569 1
1653 1569 1
1656 1569 1
1331 1570 1
1332 1570 1
1360 1570 1
1367 1570 1
1388 1570 1
1394 1570 1
1514 1570 1
1518 1570 1
1654 1570 1
1657 1570 1
1332 1571 1
1333 1571 1
1361 1571 1
1368 1571 1
1389 1571 1
1395 1571 1
1515 1571 1
1519 1571 1
1655 1571 1
1658 1571 1
1333 1572 1
1334 1572 1
1362 1572 1
1369 1572 1
1390 1572 1
1396 1572 1
1516 1572 1
1520 1572 1
1656 1572 1
1659 1572 1
1334 1573 1
1335 1573 1
1363 1573 1
1370 1573 1
1391 1573 1
1397 1573 1
1517 1573 1
1521 1573 1
1657 1573 1
1660 1573 1
1335 1574 1
1336 1574 1
1364 1574 1
1371 1574 1
1392 1574 1
1398 1574 1
1518 1574 1
1522 1574 1
1658 1574 1
1661 1574 1
1336 1575 1
1337 1575 1
1365 1575 1
1372 1575 1
1393 1575 1
1399 1575 1
1519 1575 1
1523 1575 1
1659 1575 1
1662 1575 1
1337 1576 1
1338 1576 1
1359 1576 1
1366 1576 1
1394 1576 1
1400 1576 1
1520 1576 1
1524 1576 1
1660 1576 1
1663 1576 1
1338 1577 1
1339 1577 1
1360 1577 1
1367 1577 1
1387 1577 1
1395 1577 1
1521 1577 1
1525 1577 1
1661 1577 1
1664 1577 1
1339 1578 1
1340 1578 1
1361 1578 1
1368 1578 1
1388 1578 1
1396 1578 1
1522 1578 1
1526 1578 1
1662 1578 1
1665 1578 1
1340 1579 1
1341 1579 1
1362 1579 1
1369 1579 1
1389 1579 1
1397 1579 1
1513 1579 1
1523 1579 1
1663 1579 1
1666 1579 1
1341 1580 1
1342 1580 1
1363 1580 1
1370 1580 1
1390 1580 1
1398 1580 1
1514 1580 1
1524 1580 1
1653 1580 1
1664 1580 1
1342 1581 1
1343 1581 1
1364 1581 1
1371 1581 1
1391 1581 1
1399 1581 1
1515 1581 1
1525 1581 1
1654 1581 1
1665 1581 1
1343 1582 1
1344 1582 1
1365 1582 1
1372 1582 1
1392 1582 1
1400 1582 1
1516 1582 1
1526 1582 1
1655 1582 1
1666 1582 1
1345 1583 1
1358 1583 1
1359 1583 1
1368 1583 1
1401 1583 1
1407 1583 1
1527 1583 1
1531 1583 1
1667 1583 1
1670 1583 1
1345 1584 1
1346 1584 1
1360 1584 1
1369 1584 1
1402 1584 1
1408 1584 1
1528 1584 1
1532 1584 1
1668 1584 1
1671 1584 1
1346 1585 1
1347 1585 1
1361 1585 1
1370 1585 1
1403 1585 1
1409 1585 1
1529 1585 1
1533 1585 1
1669 1585 1
1672 1585 1
1347 1586 1
1348 1586 1
1362 1586 1
1371 1586 1
1404 1586 1
1410 1586 1
1530 1586 1
1534 1586 1
1670 1586 1
1673 1586 1
1348 1587 1
1349 1587 1
1363 1587 1
1372 1587 1
1405 1587 1
1411 1587 1
1531 1587 1
1535 1587 1
1671 1587 1
1674 1587 1
1349 1588 1
1350 1588 1
1359 1588 1
1364 1588 1
1406 1588 1
1412 1588 1
1532 1588 1
1536 1588 1
1672 1588 1
1675 1588 1
1350 1589 1
1351 1589 1
1360 1589 1
1365 1589 1
1407 1589 1
1413 1589 1
1533 1589 1
1537 1589 1
1673 1589 1
1676 1589 1
1351 1590 1
1352 1590 1
1361 1590 1
1366 1590 1
1408 1590 1
1414 1590 1
1534 1590 1
1538 1590 1
1674 1590 1
1677 1590 1
1352 1591 1
1353 1591 1
1362 1591 1
1367 1591 1
1401 1591 1
1409 1591 1
1535 1591 1
1539 1591 1
1675 1591 1
1678 1591 1
1353 1592 1
1354 1592 1
1363 1592 1
1368 1592 1
1402 1592 1
1410 1592 1
1536 1592 1
1540 1592 1
1676 1592 1
1679 1592 1
1354 1593 1
1355 1593 1
1364 1593 1
1369 1593 1
1403 1593 1
1411 1593 1
1527 1593 1
1537 1593 1
1677 1593 1
1680 1593 1
1355 1594 1
1356 1594 1
1365 1594 1
1370 1594 1
1404 1594 1
1412 1594 1
1528 1594 1
1538 1594 1
1667 1594 1
1678 1594 1
1356 1595 1
1357 1595 1
1366 1595 1
1371 1595 1
1405 1595 1
1413 1595 1
1529 1595 1
1539 1595 1
1668 1595 1
1679 1595 1
1357 1596 1
1358 1596 1
1367 1596 1
1372 1596 1
1406 1596 1
1414 1596 1
1530 1596 1
1540 1596 1
1669 1596 1
1680 1596 1
1373 1597 1
1386 1597 1
1387 1597 1
1396 1597 1
1401 1597 1
1408 1597 1
1541 1597 1
1545 1597 1
1681 1597 1
1684 1597 1
1373 1598 1
1374 1598 1
1388 1598 1
1397 1598 1
1402 1598 1
1409 1598 1
1542 1598 1
1546 1598 1
1682 1598 1
1685 1598 1
1374 1599 1
1375 1599 1
1389 1599 1
1398 1599 1
1403 1599 1
1410 1599 1
1543 1599 1
1547 1599 1
1683 1599 1
1686 1599 1
1375 1600 1
1376 1600 1
1390 1600 1
1399 1600 1
1404 1600 1
1411 1600 1
1544 1600 1
1548 1600 1
1684 1600 1
1687 1600 1
1376 1601 1
1377 1601 1
1391 1601 1
1400 1601 1
1405 1601 1
1412 1601 1
1545 1601 1
1549 1601 1
1685 1601 1
1688 1601 1
1377 1602 1
1378 1602 1
1387 1602 1
1392 1602 1
1406 1602 1
1413 1602 1
1546 1602 1
1550 1602 1
1686 1602 1
1689 1602 1
1378 1603 1
1379 1603 1
1388 1603 1
1393 1603 1
1407 1603 1
1414 1603 1
1547 1603 1
1551 1603 1
1687 1603 1
1690 1603 1
1379 1604 1
1380 1604 1
1389 1604 1
1394 1604 1
1401 1604 1
1408 1604 1
1548 1604 1
1552 1604 1
1688 1604 1
1691 1604 1
1380 1605 1
1381 1605 1
1390 1605 1
1395 1605 1
1402 1605 1
1409 1605 1
1549 1605 1
1553 1605 1
1689 1605 1
1692 1605 1
1381 1606 1
1382 1606 1
1391 1606 1
1396 1606 1
1403 1606 1
1410 1606 1
1550 1606 1
1554 1606 1
1690 1606 1
1693 1606 1
1382 1607 1
1383 1607 1
1392 1607 1
1397 1607 1
1404 1607 1
1411 1607 1
1541 1607 1
1551 1607 1
1691 1607 1
1694 1607 1
1383 1608 1
1384 1608 1
1393 1608 1
1398 1608 1
1405 1608 1
1412 1608 1
1542 1608 1
1552 1608 1
1681 1608 1
1692 1608 1
1384 1609 1
1385 1609 1
1394 1609 1
1399 1609 1
1406 1609 1
1413 1609 1
1543 1609 1
1553 1609 1
1682 1609 1
1693 1609 1
1385 1610 1
1386 1610 1
1395 1610 1
1400 1610 1
1407 1610 1
1414 1610 1
1544 1610 1
1554 1610 1
1683 1610 1
1694 1610 1
1415 1611 1
1424 1611 1
1429 1611 1
1436 1611 1
1457 1611 1
1463 1611 1
1499 1611 1
1504 1611 1
1695 1611 1
1698 1611 1
1416 1612 1
1425 1612 1
1430 1612 1
1437 1612 1
1458 1612 1
1464 1612 1
1500 1612 1
1505 1612 1
1696 1612 1
1699 1612 1
1417 1613 1
1426 1613 1
1431 1613 1
1438 1613 1
1459 1613 1
1465 1613 1
1501 1613 1
1506 1613 1
1697 1613 1
1700 1613 1
1418 1614 1
1427 1614 1
1432 1614 1
1439 1614 1
1460 1614 1
1466 1614 1
1502 1614 1
1507 1614 1
1698 1614 1
1701 1614 1
1419 1615 1
1428 1615 1
1433 1615 1
1440 1615 1
1461 1615 1
1467 1615 1
1503 1615 1
1508 1615 1
1699 1615 1
1702 1615 1
1415 1616 1
1420 1616 1
1434 1616 1
1441 1616 1
1462 1616 1
1468 1616 1
1504 1616 1
1509 1616 1
1700 1616 1
1703 1616 1
1416 1617 1
1421 1617 1
1435 1617 1
1442 1617 1
1463 1617 1
1469 1617 1
1505 1617 1
1510 1617 1
1701 1617 1
1704 1617 1
1417 1618 1
1422 1618 1
1429 1618 1
1436 1618 1
1464 1618 1
1470 1618 1
1506 1618 1
1511 1618 1
1702 1618 1
1705 1618 1
1418 1619 1
1423 1619 1
1430 1619 1
1437 1619 1
1457 1619 1
1465 1619 1
1507 1619 1
1512 1619 1
1703 1619 1
1706 1619 1
1419 1620 1
1424 1620 1
1431 1620 1
1438 1620 1
1458 1620 1
1466 1620 1
1499 1620 1
1508 1620 1
1704 1620 1
1707 1620 1
1420 1621 1
1425 1621 1
1432 1621 1
1439 1621 1
1459 1621 1
1467 1621 1
1500 1621 1
1509 1621 1
1705 1621 1
1708 1621 1
1421 1622 1
1426 1622 1
1433 1622 1
1440 1622 1
1460 1622 1
1468 1622 1
1501 1622 1
1510 1622 1
1695 1622 1
1706 1622 1
1422 1623 1
1427 1623 1
1434 1623 1
1441 1623 1
1461 1623 1
1469 1623 1
1502 1623 1
1511 1623 1
1696 1623 1
1707 1623 1
1423 1624 1
1428 1624 1
1435 1624 1
1442 1624 1
1462 1624 1
1470 1624 1
1503 1624 1
1512 1624 1
1697 1624 1
1708 1624 1
1415 1625 1
1428 1625 1
1443 1625 1
1450 1625 1
1471 1625 1
1477 1625 1
1513 1625 1
1518 1625 1
1709 1625 1
1712 1625 1
1415 1626 1
1416 1626 1
1444 1626 1
1451 1626 1
1472 1626 1
1478 1626 1
1514 1626 1
1519 1626 1
1710 1626 1
1713 1626 1
1416 1627 1
1417 1627 1
1445 1627 1
1452 1627 1
1473 1627 1
1479 1627 1
1515 1627 1
1520 1627 1
1711 1627 1
1714 1627 1
1417 1628 1
1418 1628 1
1446 1628 1
1453 1628 1
1474 1628 1
1480 1628 1
1516 1628 1
1521 1628 1
1712 1628 1
1715 1628 1
1418 1629 1
1419 1629 1
1447 1629 1
1454 1629 1
1475 1629 1
1481 1629 1
1517 1629 1
1522 1629 1
1713 1629 1
1716 1629 1
1419 1630 1
1420 1630 1
1448 1630 1
1455 1630 1
1476 1630 1
1482 1630 1
1518 1630 1
1523 1630 1
1714 1630 1
1717 1630 1
1420 1631 1
1421 1631 1
1449 1631 1
1456 1631 1
1477 1631 1
1483 1631 1
1519 1631 1
1524 1631 1
1715 1631 1
1718 1631 1
1421 1632 1
1422 1632 1
1443 1632 1
1450 1632 1
1478 1632 1
1484 1632 1
1520 1632 1
1525 1632 1
1716 1632 1
1719 1632 1
1422 1633 1
1423 1633 1
1444 1633 1
1451 1633 1
1471 1633 1
1479 1633 1
1521 1633 1
1526 1633 1
1717 1633 1
1720 1633 1
1423 1634 1
1424 1634 1
1445 1634 1
1452 1634 1
1472 1634 1
1480 1634 1
1513 1634 1
1522 1634 1
1718 1634 1
1721 1634 1
1424 1635 1
1425 1635 1
1446 1635 1
1453 1635 1
1473 1635 1
1481 1635 1
1514 1635 1
1523 1635 1
1719 1635 1
1722 1635 1
1425 1636 1
1426 1636 1
1447 1636 1
1454 1636 1
1474 1636 1
1482 1636 1
1515 1636 1
1524 1636 1
1709 1636 1
1720 1636 1
1426 1637 1
1427 1637 1
1448 1637 1
1455 1637 1
1475 1637 1
1483 1637 1
1516 1637 1
1525 1637 1
1710 1637 1
1721 1637 1
1427 1638 1
1428 1638 1
1449 1638 1
1456 1638 1
1476 1638 1
1484 1638 1
1517 1638 1
1526 1638 1
1711 1638 1
1722 1638 1
1429 1639 1
1442 1639 1
1443 1639 1
1452 1639 1
1485 1639 1
1491 1639 1
1527 1639 1
1532 1639 1
1723 1639 1
1726 1639 1
1429 1640 1
1430 1640 1
1444 1640 1
1453 1640 1
1486 1640 1
1492 1640 1
1528 1640 1
1533 1640 1
1724 1640 1
1727 1640 1
1430 1641 1
1431 1641 1
1445 1641 1
1454 1641 1
1487 1641 1
1493 1641 1
1529 1641 1
1534 1641 1
1725 1641 1
1728 1641 1
1431 1642 1
1432 1642 1
1446 1642 1
1455 1642 1
1488 1642 1
1494 1642 1
1530 1642 1
1535 1642 1
1726 1642 1
1729 1642 1
1432 1643 1
1433 1643 1
1447 1643 1
1456 1643 1
1489 1643 1
1495 1643 1
1531 1643 1
1536 1643 1
1727 1643 1
1730 1643 1
1433 1644 1
1434 1644 1
1443 1644 1
1448 1644 1
1490 1644 1
1496 1644 1
1532 1644 1
1537 1644 1
1728 1644 1
1731 1644 1
1434 1645 1
1435 1645 1
1444 1645 1
1449 1645 1
1491 1645 1
1497 1645 1
1533 1645 1
1538 1645 1
1729 1645 1
1732 1645 1
1435 1646 1
1436 1646 1
1445 1646 1
1450 1646 1
1492 1646 1
1498 1646 1
1534 1646 1
1539 1646 1
1730 1646 1
1733 1646 1
1436 1647 1
1437 1647 1
1446 1647 1
1451 1647 1
1485 1647 1
1493 1647 1
1535 1647 1
1540 1647 1
1731 1647 1
1734 1647 1
1437 1648 1
1438 1648 1
1447 1648 1
1452 1648 1
1486 1648 1
1494 1648 1
1527 1648 1
1536 1648 1
1732 1648 1
1735 1648 1
1438 1649 1
1439 1649 1
1448 1649 1
1453 1649 1
1487 1649 1
1495 1649 1
1528 1649 1
1537 1649 1
1733 1649 1
1736 1649 1
1439 1650 1
1440 1650 1
1449 1650 1
1454 1650 1
1488 1650 1
1496 1650 1
1529 1650 1
1538 1650 1
1723 1650 1
1734 1650 1
1440 1651 1
1441 1651 1
1450 1651 1
1455 1651 1
1489 1651 1
1497 1651 1
1530 1651 1
1539 1651 1
1724 1651 1
1735 1651 1
1441 1652 1
1442 1652 1
1451 1652 1
1456 1652 1
1490 1652 1
1498 1652 1
1531 1652 1
1540 1652 1
1725 1652 1
1736 1652 1
1457 1653 1
1470 1653 1
1471 1653 1
1480 1653 1
1485 1653 1
1492 1653 1
1541 1653 1
1546 1653 1
1737 1653 1
1740 1653 1
1457 1654 1
1458 1654 1
1472 1654 1
1481 1654 1
1486 1654 1
1493 1654 1
1542 1654 1
1547 1654 1
1738 1654 1
1741 1654 1
1458 1655 1
1459 1655 1
1473 1655 1
1482 1655 1
1487 1655 1
1494 1655 1
1543 1655 1
1548 1655 1
1739 1655 1
1742 1655 1
1459 1656 1
1460 1656 1
1474 1656 1
1483 1656 1
1488 1656 1
1495 1656 1
1544 1656 1
1549 1656 1
1740 1656 1
1743 1656 1
1460 1657 1
1461 1657 1
1475 1657 1
1484 1657 1
1489 1657 1
1496 1657 1
1545 1657 1
1550 1657 1
1741 1657 1
1744 1657 1
1461 1658 1
1462 1658 1
1471 1658 1
1476 1658 1
1490 1658 1
1497 1658 1
1546 1658 1
1551 1658 1
1742 1658 1
1745 1658 1
1462 1659 1
1463 1659 1
1472 1659 1
1477 1659 1
1491 1659 1
1498 1659 1
1547 1659 1
1552 1659 1
1743 1659 1
1746 1659 1
1463 1660 1
1464 1660 1
1473 1660 1
1478 1660 1
1485 1660 1
1492 1660 1
1548 1660 1
1553 1660 1
1744 1660 1
1747 1660 1
1464 1661 1
1465 1661 1
1474 1661 1
1479 1661 1
1486 1661 1
1493 1661 1
1549 1661 1
1554 1661 1
1745 1661 1
1748 1661 1
1465 1662 1
1466 1662 1
1475 1662 1
1480 1662 1
1487 1662 1
1494 1662 1
1541 1662 1
1550 1662 1
1746 1662 1
1749 1662 1
1466 1663 1
1467 1663 1
1476 1663 1
1481 1663 1
1488 1663 1
1495 1663 1
1542 1663 1
1551 1663 1
1747 1663 1
1750 1663 1
1467 1664 1
1468 1664 1
1477 1664 1
1482 1664 1
1489 1664 1
1496 1664 1
1543 1664 1
1552 1664 1
1737 1664 1
1748 1664 1
1468 1665 1
1469 1665 1
1478 1665 1
1483 1665 1
1490 1665 1
1497 1665 1
1544 1665 1
1553 1665 1
1738 1665 1
1749 1665 1
1469 1666 1
1470 1666 1
1479 1666 1
1484 1666 1
1491 1666 1
1498 1666 1
1545 1666 1
1554 1666 1
1739 1666 1
1750 1666 1
1499 1667 1
1512 1667 1
1513 1667 1
1522 1667 1
1527 1667 1
1534 1667 1
1541 1667 1
1547 1667 1
1751 1667 1
1754 1667 1
1499 1668 1
1500 1668 1
1514 1668 1
1523 1668 1
1528 1668 1
1535 1668 1
1542 1668 1
1548 1668 1
1752 1668 1
1755 1668 1
1500 1669 1
1501 1669 1
1515 1669 1
1524 1669 1
1529 1669 1
1536 1669 1
1543 1669 1
1549 1669 1
1753 1669 1
1756 1669 1
1501 1670 1
1502 1670 1
1516 1670 1
1525 1670 1
1530 1670 1
1537 1670 1
1544 1670 1
1550 1670 1
1754 1670 1
1757 1670 1
1502 1671 1
1503 1671 1
1517 1671 1
1526 1671 1
1531 1671 1
1538 1671 1
1545 1671 1
1551 1671 1
1755 1671 1
1758 1671 1
1503 1672 1
1504 1672 1
1513 1672 1
1518 1672 1
1532 1672 1
1539 1672 1
1546 1672 1
1552 1672 1
1756 1672 1
1759 1672 1
1504 1673 1
1505 1673 1
1514 1673 1
1519 1673 1
1533 1673 1
1540 1673 1
1547 1673 1
1553 1673 1
1757 1673 1
1760 1673 1
1505 1674 1
1506 1674 1
1515 1674 1
1520 1674 1
1527 1674 1
1534 1674 1
1548 1674 1
1554 1674 1
1758 1674 1
1761 1674 1
1506 1675 1
1507 1675 1
1516 1675 1
1521 1675 1
1528 1675 1
1535 1675 1
1541 1675 1
1549 1675 1
1759 1675 1
1762 1675 1
1507 1676 1
1508 1676 1
1517 1676 1
1522 1676 1
1529 1676 1
1536 1676 1
1542 1676 1
1550 1676 1
1760 1676 1
1763 1676 1
1508 1677 1
1509 1677 1
1518 1677 1
1523 1677 1
1530 1677 1
1537 1677 1
1543 1677 1
1551 1677 1
1761 1677 1
1764 1677 1
1509 1678 1
1510 1678 1
1519 1678 1
1524 1678 1
1531 1678 1
1538 1678 1
1544 1678 1
1552 1678 1
1751 1678 1
1762 1678 1
1510 1679 1
1511 1679 1
1520 1679 1
1525 1679 1
1532 1679 1
1539 1679 1
1545 1679 1
1553 1679 1
1752 1679 1
1763 1679 1
1511 1680 1
1512 1680 1
1521 1680 1
1526 1680 1
1533 1680 1
1540 1680 1
1546 1680 1
1554 1680 1
1753 1680 1
1764 1680 1
1555 1681 1
1564 1681 1
1569 1681 1
1576 1681 1
1597 1681 1
1603 1681 1
1639 1681 1
1644 1681 1
1695 1681 1
1699 1681 1
1556 1682 1
1565 1682 1
1570 1682 1
1577 1682 1
1598 1682 1
1604 1682 1
1640 1682 1
1645 1682 1
1696 1682 1
1700 1682 1
1557 1683 1
1566 1683 1
1571 1683 1
1578 1683 1
1599 1683 1
1605 1683 1
1641 1683 1
1646 1683 1
1697 1683 1
1701 1683 1
1558 1684 1
1567 1684 1
1572 1684 1
1579 1684 1
1600 1684 1
1606 1684 1
1642 1684 1
1647 1684 1
1698 1684 1
1702 1684 1
1559 1685 1
1568 1685 1
1573 1685 1
1580 1685 1
1601 1685 1
1607 1685 1
1643 1685 1
1648 1685 1
1699 1685 1
1703 1685 1
1555 1686 1
1560 1686 1
1574 1686 1
1581 1686 1
1602 1686 1
1608 1686 1
1644 1686 1
1649 1686 1
1700 1686 1
1704 1686 1
1556 1687 1
1561 1687 1
1575 1687 1
1582 1687 1
1603 1687 1
1609 1687 1
1645 1687 1
1650 1687 1
1701 1687 1
1705 1687 1
1557 1688 1
1562 1688 1
1569 1688 1
1576 1688 1
1604 1688 1
1610 1688 1
1646 1688 1
1651 1688 1
1702 1688 1
1706 1688 1
1558 1689 1
1563 1689 1
1570 1689 1
1577 1689 1
1597 1689 1
1605 1689 1
1647 1689 1
1652 1689 1
1703 1689 1
1707 1689 1
1559 1690 1
1564 1690 1
1571 1690 1
1578 1690 1
1598 1690 1
1606 1690 1
1639 1690 1
1648 1690 1
1704 1690 1
1708 1690 1
1560 1691 1
1565 1691 1
1572 1691 1
1579 1691 1
1599 1691 1
1607 1691 1
1640 1691 1
1649 1691 1
1695 1691 1
1705 1691 1
1561 1692 1
1566 1692 1
1573 1692 1
1580 1692 1
1600 1692 1
1608 1692 1
1641 1692 1
1650 1692 1
1696 1692 1
1706 1692 1
1562 1693 1
1567 1693 1
1574 1693 1
1581 1693 1
1601 1693 1
1609 1693 1
1642 1693 1
1651 1693 1
1697 1693 1
1707 1693 1
1563 1694 1
1568 1694 1
1575 1694 1
1582 1694 1
1602 1694 1
1610 1694 1
1643 1694 1
1652 1694 1
1698 1694 1
1708 1694 1
1555 1695 1
1568 1695 1
1583 1695 1
1590 1695 1
1611 1695 1
1617 1695 1
1653 1695 1
1658 1695 1
1709 1695 1
1713 1695 1
1555 1696 1
1556 1696 1
1584 1696 1
1591 1696 1
1612 1696 1
1618 1696 1
1654 1696 1
1659 1696 1
1710 1696 1
1714 1696 1
1556 1697 1
1557 1697 1
1585 1697 1
1592 1697 1
1613 1697 1
1619 1697 1
1655 1697 1
1660 1697 1
1711 1697 1
1715 1697 1
1557 1698 1
1558 1698 1
1586 1698 1
1593 1698 1
1614 1698 1
1620 1698 1
1656 1698 1
1661 1698 1
1712 1698 1
1716 1698 1
1558 1699 1
1559 1699 1
1587 1699 1
1594 1699 1
1615 1699 1
1621 1699 1
1657 1699 1
1662 1699 1
1713 1699 1
1717 1699 1
1559 1700 1
1560 1700 1
1588 1700 1
1595 1700 1
1616 1700 1
1622 1700 1
1658 1700 1
1663 1700 1
1714 1700 1
1718 1700 1
1560 1701 1
1561 1701 1
1589 1701 1
1596 1701 1
1617 1701 1
1623 1701 1
1659 1701 1
1664 1701 1
1715 1701 1
1719 1701 1
1561 1702 1
1562 1702 1
1583 1702 1
1590 1702 1
1618 1702 1
1624 1702 1
1660 1702 1
1665 1702 1
1716 1702 1
1720 1702 1
1562 1703 1
1563 1703 1
1584 1703 1
1591 1703 1
1611 1703 1
1619 1703 1
1661 1703 1
1666 1703 1
1717 1703 1
1721 1703 1
1563 1704 1
1564 1704 1
1585 1704 1
1592 1704 1
1612 1704 1
1620 1704 1
1653 1704 1
1662 1704 1
1718 1704 1
1722 1704 1
1564 1705 1
1565 1705 1
1586 1705 1
1593 1705 1
1613 1705 1
1621 1705 1
1654 1705 1
1663 1705 1
1709 1705 1
1719 1705 1
1565 1706 1
1566 1706 1
1587 1706 1
1594 1706 1
1614 1706 1
1622 1706 1
1655 1706 1
1664 1706 1
1710 1706 1
1720 1706 1
1566 1707 1
1567 1707 1
1588 1707 1
1595 1707 1
1615 1707 1
1623 1707 1
1656 1707 1
1665 1707 1
1711 1707 1
1721 1707 1
1567 1708 1
1568 1708 1
1589 1708 1
1596 1708 1
1616 1708 1
1624 1708 1
1657 1708 1
1666 1708 1
1712 1708 1
1722 1708 1
1569 1709 1
1582 1709 1
1583 1709 1
1592 1709 1
1625 1709 1
1631 1709 1
1667 1709 1
1672 1709 1
1723 1709 1
1727 1709 1
1569 1710 1
1570 1710 1
1584 1710 1
1593 1710 1
1626 1710 1
1632 1710 1
1668 1710 1
1673 1710 1
1724 1710 1
1728 1710 1
1570 1711 1
1571 1711 1
1585 1711 1
1594 1711 1
1627 1711 1
1633 1711 1
1669 1711 1
1674 1711 1
1725 1711 1
1729 1711 1
1571 1712 1
1572 1712 1
1586 1712 1
1595 1712 1
1628 1712 1
1634 1712 1
1670 1712 1
1675 1712 1
1726 1712 1
1730 1712 1
1572 1713 1
1573 1713 1
1587 1713 1
1596 1713 1
1629 1713 1
1635 1713 1
1671 1713 1
1676 1713 1
1727 1713 1
1731 1713 1
1573 1714 1
1574 1714 1
1583 1714 1
1588 1714 1
1630 1714 1
1636 1714 1
1672 1714 1
1677 1714 1
1728 1714 1
1732 1714 1
1574 1715 1
1575 1715 1
1584 1715 1
1589 1715 1
1631 1715 1
1637 1715 1
1673 1715 1
1678 1715 1
1729 1715 1
1733 1715 1
1575 1716 1
1576 1716 1
1585 1716 1
1590 1716 1
1632 1716 1
1638 1716 1
1674 1716 1
1679 1716 1
1730 1716 1
1734 1716 1
1576 1717 1
1577 1717 1
1586 1717 1
1591 1717 1
1625 1717 1
1633 1717 1
1675 1717 1
1680 1717 1
1731 1717 1
1735 1717 1
1577 1718 1
1578 1718 1
1587 1718 1
1592 1718 1
1626 1718 1
1634 1718 1
1667 1718 1
1676 1718 1
1732 1718 1
1736 1718 1
1578 1719 1
1579 1719 1
1588 1719 1
1593 1719 1
1627 1719 1
1635 1719 1
1668 1719 1
1677 1719 1
1723 1719 1
1733 1719 1
1579 1720 1
1580 1720 1
1589 1720 1
1594 1720 1
1628 1720 1
1636 1720 1
1669 1720 1
1678 1720 1
1724 1720 1
1734 1720 1
1580 1721 1
1581 1721 1
1590 1721 1
1595 1721 1
1629 1721 1
1637 1721 1
1670 1721 1
1679 1721 1
1725 1721 1
1735 1721 1
1581 1722 1
1582 1722 1
1591 1722 1
1596 1722 1
1630 1722 1
1638 1722 1
1671 1722 1
1680 1722 1
1726 1722 1
1736 1722 1
1597 1723 1
1610 1723 1
1611 1723 1
1620 1723 1
1625 1723 1
1632 1723 1
1681 1723 1
1686 1723 1
1737 1723 1
1741 1723 1
1597 1724 1
1598 1724 1
1612 1724 1
1621 1724 1
1626 1724 1
1633 1724 1
1682 1724 1
1687 1724 1
1738 1724 1
1742 1724 1
1598 1725 1
1599 1725 1
1613 1725 1
1622 1725 1
1627 1725 1
1634 1725 1
1683 1725 1
1688 1725 1
1739 1725 1
1743 1725 1
1599 1726 1
1600 1726 1
1614 1726 1
1623 1726 1
1628 1726 1
1635 1726 1
1684 1726 1
1689 1726 1
1740 1726 1
1744 1726 1
1600 1727 1
1601 1727 1
1615 1727 1
1624 1727 1
1629 1727 1
1636 1727 1
1685 1727 1
1690 1727 1
1741 1727 1
1745 1727 1
1601 1728 1
1602 1728 1
1611 1728 1
1616 1728 1
1630 1728 1
1637 1728 1
1686 1728 1
1691 1728 1
1742 1728 1
1746 1728 1
1602 1729 1
1603 1729 1
1612 1729 1
1617 1729 1
1631 1729 1
1638 1729 1
1687 1729 1
1692 1729 1
1743 1729 1
1747 1729 1
1603 1730 1
1604 1730 1
1613 1730 1
1618 1730 1
1625 1730 1
1632 1730 1
1688 1730 1
1693 1730 1
1744 1730 1
1748 1730 1
1604 1731 1
1605 1731 1
1614 1731 1
1619 1731 1
1626 1731 1
1633 1731 1
1689 1731 1
1694 1731 1
1745 1731 1
1749 1731 1
1605 1732 1
1606 1732 1
1615 1732 1
1620 1732 1
1627 1732 1
1634 1732 1
1681 1732 1
1690 1732 1
1746 1732 1
1750 1732 1
1606 1733 1
1607 1733 1
1616 1733 1
1621 1733 1
1628 1733 1
1635 1733 1
1682 1733 1
1691 1733 1
1737 1733 1
1747 1733 1
1607 1734 1
1608 1734 1
1617 1734 1
1622 1734 1
1629 1734 1
1636 1734 1
1683 1734 1
1692 1734 1
1738 1734 1
1748 1734 1
1608 1735 1
1609 1735 1
1618 1735 1
1623 1735 1
1630 1735 1
1637 1735 1
1684 1735 1
1693 1735 1
1739 1735 1
1749 1735 1
1609 1736 1
1610 1736 1
1619 1736 1
1624 1736 1
1631 1736 1
1638 1736 1
1685 1736 1
1694 1736 1
1740 1736 1
1750 1736 1
1639 1737 1
1652 1737 1
1653 1737 1
1662 1737 1
1667 1737 1
1674 1737 1
1681 1737 1
1687 1737 1
1751 1737 1
1755 1737 1
1639 1738 1
1640 1738 1
1654 1738 1
1663 1738 1
1668 1738 1
1675 1738 1
1682 1738 1
1688 1738 1
1752 1738 1
1756 1738 1
1640 1739 1
1641 1739 1
1655 1739 1
1664 1739 1
1669 1739 1
1676 1739 1
1683 1739 1
1689 1739 1
1753 1739 1
1757 1739 1
1641 1740 1
1642 1740 1
1656 1740 1
1665 1740 1
1670 1740 1
1677 1740 1
1684 1740 1
1690 1740 1
1754 1740 1
1758 1740 1
1642 1741 1
1643 1741 1
1657 1741 1
1666 1741 1
1671 1741 1
1678 1741 1
1685 1741 1
1691 1741 1
1755 1741 1
1759 1741 1
1643 1742 1
1644 1742 1
1653 1742 1
1658 1742 1
1672 1742 1
1679 1742 1
1686 1742 1
1692 1742 1
1756 1742 1
1760 1742 1
1644 1743 1
1645 1743 1
1654 1743 1
1659 1743 1
1673 1743 1
1680 1743 1
1687 1743 1
1693 1743 1
1757 1743 1
1761 1743 1
1645 1744 1
1646 1744 1
1655 1744 1
1660 1744 1
1667 1744 1
1674 1744 1
1688 1744 1
1694 1744 1
1758 1744 1
1762 1744 1
1646 1745 1
1647 1745 1
1656 1745 1
1661 1745 1
1668 1745 1
1675 1745 1
1681 1745 1
1689 1745 1
1759 1745 1
1763 1745 1
1647 1746 1
1648 1746 1
1657 1746 1
1662 1746 1
1669 1746 1
1676 1746 1
1682 1746 1
1690 1746 1
1760 1746 1
1764 1746 1
1648 1747 1
1649 1747 1
1658 1747 1
1663 1747 1
1670 1747 1
1677 1747 1
1683 1747 1
1691 1747 1
1751 1747 1
1761 1747 1
1649 1748 1
1650 1748 1
1659 1748 1
1664 1748 1
1671 1748 1
1678 1748 1
1684 1748 1
1692 1748 1
1752 1748 1
1762 1748 1
1650 1749 1
1651 1749 1
1660 1749 1
1665 1749 1
1672 1749 1
1679 1749 1
1685 1749 1
1693 1749 1
1753 1749 1
1763 1749 1
1651 1750 1
1652 1750 1
1661 1750 1
1666 1750 1
1673 1750 1
1680 1750 1
1686 1750 1
1694 1750 1
1754 1750 1
1764 1750 1
1695 1751 1
1708 1751 1
1709 1751 1
1718 1751 1
1723 1751 1
1730 1751 1
1737 1751 1
1743 1751 1
1751 1751 1
1756 1751 1
1695 1752 1
1696 1752 1
1710 1752 1
1719 1752 1
1724 1752 1
1731 1752 1
1738 1752 1
1744 1752 1
1752 1752 1
1757 1752 1
1696 1753 1
1697 1753 1
1711 1753 1
1720 1753 1
1725 1753 1
1732 1753 1
1739 1753 1
1745 1753 1
1753 1753 1
1758 1753 1
1697 1754 1
1698 1754 1
1712 1754 1
1721 1754 1
1726 1754 1
1733 1754 1
1740 1754 1
1746 1754 1
1754 1754 1
1759 1754 1
1698 1755 1
1699 1755 1
1713 1755 1
1722 1755 1
1727 1755 1
1734 1755 1
1741 1755 1
1747 1755 1
1755 1755 1
1760 1755 1
1699 1756 1
1700 1756 1
1709 1756 1
1714 1756 1
1728 1756 1
1735 1756 1
1742 1756 1
1748 1756 1
1756 1756 1
1761 1756 1
1700 1757 1
1701 1757 1
1710 1757 1
1715 1757 1
1729 1757 1
1736 1757 1
1743 1757 1
1749 1757 1
1757 1757 1
1762 1757 1
1701 1758 1
1702 1758 1
1711 1758 1
1716 1758 1
1723 1758 1
1730 1758 1
1744 1758 1
1750 1758 1
1758 1758 1
1763 1758 1
1702 1759 1
1703 1759 1
1712 1759 1
1717 1759 1
1724 1759 1
1731 1759 1
1737 1759 1
1745 1759 1
1759 1759 1
1764 1759 1
1703 1760 1
1704 1760 1
1713 1760 1
1718 1760 1
1725 1760 1
1732 1760 1
1738 1760 1
1746 1760 1
1751 1760 1
1760 1760 1
1704 1761 1
1705 1761 1
1714 1761 1
1719 1761 1
1726 1761 1
1733 1761 1
1739 1761 1
1747 1761 1
1752 1761 1
1761 1761 1
1705 1762 1
1706 1762 1
1715 1762 1
1720 1762 1
1727 1762 1
1734 1762 1
1740 1762 1
1748 1762 1
1753 1762 1
1762 1762 1
1706 1763 1
1707 1763 1
1716 1763 1
1721 1763 1
1728 1763 1
1735 1763 1
1741 1763 1
1749 1763 1
1754 1763 1
1763 1763 1
1707 1764 1
1708 1764 1
1717 1764 1
1722 1764 1
1729 1764 1
1736 1764 1
1742 1764 1
1750 1764 1
1755 1764 1
1764 1764 1
