%%MatrixMarket matrix coordinate integer general
% Binary matrix; one-based indices; arithmetic over GF(2)
224 336 1344
1 1 1
42 1 1
57 1 1
70 1 1
2 2 1
43 2 1
58 2 1
71 2 1
3 3 1
44 3 1
59 3 1
72 3 1
4 4 1
45 4 1
60 4 1
73 4 1
5 5 1
46 5 1
61 5 1
74 5 1
6 6 1
47 6 1
62 6 1
75 6 1
7 7 1
48 7 1
63 7 1
76 7 1
8 8 1
49 8 1
64 8 1
77 8 1
9 9 1
50 9 1
65 9 1
78 9 1
10 10 1
51 10 1
66 10 1
79 10 1
11 11 1
52 11 1
67 11 1
80 11 1
12 12 1
53 12 1
68 12 1
81 12 1
13 13 1
54 13 1
69 13 1
82 13 1
14 14 1
55 14 1
70 14 1
83 14 1
15 15 1
56 15 1
71 15 1
84 15 1
1 16 1
16 16 1
72 16 1
85 16 1
2 17 1
17 17 1
73 17 1
86 17 1
3 18 1
18 18 1
74 18 1
87 18 1
4 19 1
19 19 1
75 19 1
88 19 1
5 20 1
20 20 1
76 20 1
89 20 1
6 21 1
21 21 1
77 21 1
90 21 1
7 22 1
22 22 1
78 22 1
91 22 1
8 23 1
23 23 1
79 23 1
92 23 1
9 24 1
24 24 1
80 24 1
93 24 1
10 25 1
25 25 1
81 25 1
94 25 1
11 26 1
26 26 1
82 26 1
95 26 1
12 27 1
27 27 1
83 27 1
96 27 1
13 28 1
28 28 1
84 28 1
97 28 1
14 29 1
29 29 1
85 29 1
98 29 1
15 30 1
30 30 1
86 30 1
99 30 1
16 31 1
31 31 1
87 31 1
100 31 1
17 32 1
32 32 1
88 32 1
101 32 1
18 33 1
33 33 1
89 33 1
102 33 1
19 34 1
34 34 1
90 34 1
103 34 1
20 35 1
35 35 1
91 35 1
104 35 1
21 36 1
36 36 1
92 36 1
105 36 1
22 37 1
37 37 1
93 37 1
106 37 1
23 38 1
38 38 1
94 38 1
107 38 1
24 39 1
39 39 1
95 39 1
108 39 1
25 40 1
40 40 1
96 40 1
109 40 1
26 41 1
41 41 1
97 41 1
110 41 1
27 42 1
42 42 1
98 42 1
111 42 1
28 43 1
43 43 1
99 43 1
112 43 1
29 44 1
44 44 1
57 44 1
100 44 1
30 45 1
45 45 1
58 45 1
101 45 1
31 46 1
46 46 1
59 46 1
102 46 1
32 47 1
47 47 1
60 47 1
103 47 1
33 48 1
48 48 1
61 48 1
104 48 1
34 49 1
49 49 1
62 49 1
105 49 1
35 50 1
50 50 1
63 50 1
106 50 1
36 51 1
51 51 1
64 51 1
107 51 1
37 52 1
52 52 1
65 52 1
108 52 1
38 53 1
53 53 1
66 53 1
109 53 1
39 54 1
54 54 1
67 54 1
110 54 1
40 55 1
55 55 1
68 55 1
111 55 1
41 56 1
56 56 1
69 56 1
112 56 1
1 57 1
50 57 1
113 57 1
126 57 1
2 58 1
51 58 1
114 58 1
127 58 1
3 59 1
52 59 1
115 59 1
128 59 1
4 60 1
53 60 1
116 60 1
129 60 1
5 61 1
54 61 1
117 61 1
130 61 1
6 62 1
55 62 1
118 62 1
131 62 1
7 63 1
56 63 1
119 63 1
132 63 1
1 64 1
8 64 1
120 64 1
133 64 1
2 65 1
9 65 1
121 65 1
134 65 1
3 66 1
10 66 1
122 66 1
135 66 1
4 67 1
11 67 1
123 67 1
136 67 1
5 68 1
12 68 1
124 68 1
137 68 1
6 69 1
13 69 1
125 69 1
138 69 1
7 70 1
14 70 1
126 70 1
139 70 1
8 71 1
15 71 1
127 71 1
140 71 1
9 72 1
16 72 1
128 72 1
141 72 1
10 73 1
17 73 1
129 73 1
142 73 1
11 74 1
18 74 1
130 74 1
143 74 1
12 75 1
19 75 1
131 75 1
144 75 1
13 76 1
20 76 1
132 76 1
145 76 1
14 77 1
21 77 1
133 77 1
146 77 1
15 78 1
22 78 1
134 78 1
147 78 1
16 79 1
23 79 1
135 79 1
148 79 1
17 80 1
24 80 1
136 80 1
149 80 1
18 81 1
25 81 1
137 81 1
150 81 1
19 82 1
26 82 1
138 82 1
151 82 1
20 83 1
27 83 1
139 83 1
152 83 1
21 84 1
28 84 1
140 84 1
153 84 1
22 85 1
29 85 1
141 85 1
154 85 1
23 86 1
30 86 1
142 86 1
155 86 1
24 87 1
31 87 1
143 87 1
156 87 1
25 88 1
32 88 1
144 88 1
157 88 1
26 89 1
33 89 1
145 89 1
158 89 1
27 90 1
34 90 1
146 90 1
159 90 1
28 91 1
35 91 1
147 91 1
160 91 1
29 92 1
36 92 1
148 92 1
161 92 1
30 93 1
37 93 1
149 93 1
162 93 1
31 94 1
38 94 1
150 94 1
163 94 1
32 95 1
39 95 1
151 95 1
164 95 1
33 96 1
40 96 1
152 96 1
165 96 1
34 97 1
41 97 1
153 97 1
166 97 1
35 98 1
42 98 1
154 98 1
167 98 1
36 99 1
43 99 1
155 99 1
168 99 1
37 100 1
44 100 1
113 100 1
156 100 1
38 101 1
45 101 1
114 101 1
157 101 1
39 102 1
46 102 1
115 102 1
158 102 1
40 103 1
47 103 1
116 103 1
159 103 1
41 104 1
48 104 1
117 104 1
160 104 1
42 105 1
49 105 1
118 105 1
161 105 1
43 106 1
50 106 1
119 106 1
162 106 1
44 107 1
51 107 1
120 107 1
163 107 1
45 108 1
52 108 1
121 108 1
164 108 1
46 109 1
53 109 1
122 109 1
165 109 1
47 110 1
54 110 1
123 110 1
166 110 1
48 111 1
55 111 1
124 111 1
167 111 1
49 112 1
56 112 1
125 112 1
168 112 1
1 113 1
44 113 1
169 113 1
182 113 1
2 114 1
45 114 1
170 114 1
183 114 1
3 115 1
46 115 1
171 115 1
184 115 1
4 116 1
47 116 1
172 116 1
185 116 1
5 117 1
48 117 1
173 117 1
186 117 1
6 118 1
49 118 1
174 118 1
187 118 1
7 119 1
50 119 1
175 119 1
188 119 1
8 120 1
51 120 1
176 120 1
189 120 1
9 121 1
52 121 1
177 121 1
190 121 1
10 122 1
53 122 1
178 122 1
191 122 1
11 123 1
54 123 1
179 123 1
192 123 1
12 124 1
55 124 1
180 124 1
193 124 1
13 125 1
56 125 1
181 125 1
194 125 1
1 126 1
14 126 1
182 126 1
195 126 1
2 127 1
15 127 1
183 127 1
196 127 1
3 128 1
16 128 1
184 128 1
197 128 1
4 129 1
17 129 1
185 129 1
198 129 1
5 130 1
18 130 1
186 130 1
199 130 1
6 131 1
19 131 1
187 131 1
200 131 1
7 132 1
20 132 1
188 132 1
201 132 1
8 133 1
21 133 1
189 133 1
202 133 1
9 134 1
22 134 1
190 134 1
203 134 1
10 135 1
23 135 1
191 135 1
204 135 1
11 136 1
24 136 1
192 136 1
205 136 1
12 137 1
25 137 1
193 137 1
206 137 1
13 138 1
26 138 1
194 138 1
207 138 1
14 139 1
27 139 1
195 139 1
208 139 1
15 140 1
28 140 1
196 140 1
209 140 1
16 141 1
29 141 1
197 141 1
210 141 1
17 142 1
30 142 1
198 142 1
211 142 1
18 143 1
31 143 1
199 143 1
212 143 1
19 144 1
32 144 1
200 144 1
213 144 1
20 145 1
33 145 1
201 145 1
214 145 1
21 146 1
34 146 1
202 146 1
215 146 1
22 147 1
35 147 1
203 147 1
216 147 1
23 148 1
36 148 1
204 148 1
217 148 1
24 149 1
37 149 1
205 149 1
218 149 1
25 150 1
38 150 1
206 150 1
219 150 1
26 151 1
39 151 1
207 151 1
220 151 1
27 152 1
40 152 1
208 152 1
221 152 1
28 153 1
41 153 1
209 153 1
222 153 1
29 154 1
42 154 1
210 154 1
223 154 1
30 155 1
43 155 1
211 155 1
224 155 1
31 156 1
44 156 1
169 156 1
212 156 1
32 157 1
45 157 1
170 157 1
213 157 1
33 158 1
46 158 1
171 158 1
214 158 1
34 159 1
47 159 1
172 159 1
215 159 1
35 160 1
48 160 1
173 160 1
216 160 1
36 161 1
49 161 1
174 161 1
217 161 1
37 162 1
50 162 1
175 162 1
218 162 1
38 163 1
51 163 1
176 163 1
219 163 1
39 164 1
52 164 1
177 164 1
220 164 1
40 165 1
53 165 1
178 165 1
221 165 1
41 166 1
54 166 1
179 166 1
222 166 1
42 167 1
55 167 1
180 167 1
223 167 1
43 168 1
56 168 1
181 168 1
224 168 1
57 169 1
106 169 1
113 169 1
154 169 1
58 170 1
107 170 1
114 170 1
155 170 1
59 171 1
108 171 1
115 171 1
156 171 1
60 172 1
109 172 1
116 172 1
157 172 1
61 173 1
110 173 1
117 173 1
158 173 1
62 174 1
111 174 1
118 174 1
159 174 1
63 175 1
112 175 1
119 175 1
160 175 1
57 176 1
64 176 1
120 176 1
161 176 1
58 177 1
65 177 1
121 177 1
162 177 1
59 178 1
66 178 1
122 178 1
163 178 1
60 179 1
67 179 1
123 179 1
164 179 1
61 180 1
68 180 1
124 180 1
165 180 1
62 181 1
69 181 1
125 181 1
166 181 1
63 182 1
70 182 1
126 182 1
167 182 1
64 183 1
71 183 1
127 183 1
168 183 1
65 184 1
72 184 1
113 184 1
128 184 1
66 185 1
73 185 1
114 185 1
129 185 1
67 186 1
74 186 1
115 186 1
130 186 1
68 187 1
75 187 1
116 187 1
131 187 1
69 188 1
76 188 1
117 188 1
132 188 1
70 189 1
77 189 1
118 189 1
133 189 1
71 190 1
78 190 1
119 190 1
134 190 1
72 191 1
79 191 1
120 191 1
135 191 1
73 192 1
80 192 1
121 192 1
136 192 1
74 193 1
81 193 1
122 193 1
137 193 1
75 194 1
82 194 1
123 194 1
138 194 1
76 195 1
83 195 1
124 195 1
139 195 1
77 196 1
84 196 1
125 196 1
140 196 1
78 197 1
85 197 1
126 197 1
141 197 1
79 198 1
86 198 1
127 198 1
142 198 1
80 199 1
87 199 1
128 199 1
143 199 1
81 200 1
88 200 1
129 200 1
144 200 1
82 201 1
89 201 1
130 201 1
145 201 1
83 202 1
90 202 1
131 202 1
146 202 1
84 203 1
91 203 1
132 203 1
147 203 1
85 204 1
92 204 1
133 204 1
148 204 1
86 205 1
93 205 1
134 205 1
149 205 1
87 206 1
94 206 1
135 206 1
150 206 1
88 207 1
95 207 1
136 207 1
151 207 1
89 208 1
96 208 1
137 208 1
152 208 1
90 209 1
97 209 1
138 209 1
153 209 1
91 210 1
98 210 1
139 210 1
154 210 1
92 211 1
99 211 1
140 211 1
155 211 1
93 212 1
100 212 1
141 212 1
156 212 1
94 213 1
101 213 1
142 213 1
157 213 1
95 214 1
102 214 1
143 214 1
158 214 1
96 215 1
103 215 1
144 215 1
159 215 1
97 216 1
104 216 1
145 216 1
160 216 1
98 217 1
105 217 1
146 217 1
161 217 1
99 218 1
106 218 1
147 218 1
162 218 1
100 219 1
107 219 1
148 219 1
163 219 1
101 220 1
108 220 1
149 220 1
164 220 1
102 221 1
109 221 1
150 221 1
165 221 1
103 222 1
110 222 1
151 222 1
166 222 1
104 223 1
111 223 1
152 223 1
167 223 1
105 224 1
112 224 1
153 224 1
168 224 1
57 225 1
100 225 1
169 225 1
210 225 1
58 226 1
101 226 1
170 226 1
211 226 1
59 227 1
102 227 1
171 227 1
212 227 1
60 228 1
103 228 1
172 228 1
213 228 1
61 229 1
104 229 1
173 229 1
214 229 1
62 230 1
105 230 1
174 230 1
215 230 1
63 231 1
106 231 1
175 231 1
216 231 1
64 232 1
107 232 1
176 232 1
217 232 1
65 233 1
108 233 1
177 233 1
218 233 1
66 234 1
109 234 1
178 234 1
219 234 1
67 235 1
110 235 1
179 235 1
220 235 1
68 236 1
111 236 1
180 236 1
221 236 1
69 237 1
112 237 1
181 237 1
222 237 1
57 238 1
70 238 1
182 238 1
223 238 1
58 239 1
71 239 1
183 239 1
224 239 1
59 240 1
72 240 1
169 240 1
184 240 1
60 241 1
73 241 1
170 241 1
185 241 1
61 242 1
74 242 1
171 242 1
186 242 1
62 243 1
75 243 1
172 243 1
187 243 1
63 244 1
76 244 1
173 244 1
188 244 1
64 245 1
77 245 1
174 245 1
189 245 1
65 246 1
78 246 1
175 246 1
190 246 1
66 247 1
79 247 1
176 247 1
191 247 1
67 248 1
80 248 1
177 248 1
192 248 1
68 249 1
81 249 1
178 249 1
193 249 1
69 250 1
82 250 1
179 250 1
194 250 1
70 251 1
83 251 1
180 251 1
195 251 1
71 252 1
84 252 1
181 252 1
196 252 1
72 253 1
85 253 1
182 253 1
197 253 1
73 254 1
86 254 1
183 254 1
198 254 1
74 255 1
87 255 1
184 255 1
199 255 1
75 256 1
88 256 1
185 256 1
200 256 1
76 257 1
89 257 1
186 257 1
201 257 1
77 258 1
90 258 1
187 258 1
202 258 1
78 259 1
91 259 1
188 259 1
203 259 1
79 260 1
92 260 1
189 260 1
204 260 1
80 261 1
93 261 1
190 261 1
205 261 1
81 262 1
94 262 1
191 262 1
206 262 1
82 263 1
95 263 1
192 263 1
207 263 1
83 264 1
96 264 1
193 264 1
208 264 1
84 265 1
97 265 1
194 265 1
209 265 1
85 266 1
98 266 1
195 266 1
210 266 1
86 267 1
99 267 1
196 267 1
211 267 1
87 268 1
100 268 1
197 268 1
212 268 1
88 269 1
101 269 1
198 269 1
213 269 1
89 270 1
102 270 1
199 270 1
214 270 1
90 271 1
103 271 1
200 271 1
215 271 1
91 272 1
104 272 1
201 272 1
216 272 1
92 273 1
105 273 1
202 273 1
217 273 1
93 274 1
106 274 1
203 274 1
218 274 1
94 275 1
107 275 1
204 275 1
219 275 1
95 276 1
108 276 1
205 276 1
220 276 1
96 277 1
109 277 1
206 277 1
221 277 1
97 278 1
110 278 1
207 278 1
222 278 1
98 279 1
111 279 1
208 279 1
223 279 1
99 280 1
112 280 1
209 280 1
224 280 1
113 281 1
156 281 1
169 281 1
218 281 1
114 282 1
157 282 1
170 282 1
219 282 1
115 283 1
158 283 1
171 283 1
220 283 1
116 284 1
159 284 1
172 284 1
221 284 1
117 285 1
160 285 1
173 285 1
222 285 1
118 286 1
161 286 1
174 286 1
223 286 1
119 287 1
162 287 1
175 287 1
224 287 1
120 288 1
163 288 1
169 288 1
176 288 1
121 289 1
164 289 1
170 289 1
177 289 1
122 290 1
165 290 1
171 290 1
178 290 1
123 291 1
166 291 1
172 291 1
179 291 1
124 292 1
167 292 1
173 292 1
180 292 1
125 293 1
168 293 1
174 293 1
181 293 1
113 294 1
126 294 1
175 294 1
182 294 1
114 295 1
127 295 1
176 295 1
183 295 1
115 296 1
128 296 1
177 296 1
184 296 1
116 297 1
129 297 1
178 297 1
185 297 1
117 298 1
130 298 1
179 298 1
186 298 1
118 299 1
131 299 1
180 299 1
187 299 1
119 300 1
132 300 1
181 300 1
188 300 1
120 301 1
133 301 1
182 301 1
189 301 1
121 302 1
134 302 1
183 302 1
190 302 1
122 303 1
135 303 1
184 303 1
191 303 1
123 304 1
136 304 1
185 304 1
192 304 1
124 305 1
137 305 1
186 305 1
193 305 1
125 306 1
138 306 1
187 306 1
194 306 1
126 307 1
139 307 1
188 307 1
195 307 1
127 308 1
140 308 1
189 308 1
196 308 1
128 309 1
141 309 1
190 309 1
197 309 1
129 310 1
142 310 1
191 310 1
198 310 1
130 311 1
143 311 1
192 311 1
199 311 1
131 312 1
144 312 1
193 312 1
200 312 1
132 313 1
145 313 1
194 313 1
201 313 1
133 314 1
146 314 1
195 314 1
202 314 1
134 315 1
147 315 1
196 315 1
203 315 1
135 316 1
148 316 1
197 316 1
204 316 1
136 317 1
149 317 1
198 317 1
205 317 1
137 318 1
150 318 1
199 318 1
206 318 1
138 319 1
151 319 1
200 319 1
207 319 1
139 320 1
152 320 1
201 320 1
208 320 1
140 321 1
153 321 1
202 321 1
209 321 1
141 322 1
154 322 1
203 322 1
210 322 1
142 323 1
155 323 1
204 323 1
211 323 1
143 324 1
156 324 1
205 324 1
212 324 1
144 325 1
157 325 1
206 325 1
213 325 1
145 326 1
158 326 1
207 326 1
214 326 1
146 327 1
159 327 1
208 327 1
215 327 1
147 328 1
160 328 1
209 328 1
216 328 1
148 329 1
161 329 1
210 329 1
217 329 1
149 330 1
162 330 1
211 330 1
218 330 1
150 331 1
163 331 1
212 331 1
219 331 1
151 332 1
164 332 1
213 332 1
220 332 1
152 333 1
165 333 1
214 333 1
221 333 1
153 334 1
166 334 1
215 334 1
222 334 1
154 335 1
167 335 1
216 335 1
223 335 1
155 336 1
168 336 1
217 336 1
224 336 1
