%%MatrixMarket matrix coordinate integer general
% Binary matrix; one-based indices; arithmetic over GF(2)
344 516 2064
1 1 1
14 1 1
87 1 1
92 1 1
2 2 1
15 2 1
88 2 1
93 2 1
3 3 1
16 3 1
89 3 1
94 3 1
4 4 1
17 4 1
90 4 1
95 4 1
5 5 1
18 5 1
91 5 1
96 5 1
6 6 1
19 6 1
92 6 1
97 6 1
7 7 1
20 7 1
93 7 1
98 7 1
8 8 1
21 8 1
94 8 1
99 8 1
9 9 1
22 9 1
95 9 1
100 9 1
10 10 1
23 10 1
96 10 1
101 10 1
11 11 1
24 11 1
97 11 1
102 11 1
12 12 1
25 12 1
98 12 1
103 12 1
13 13 1
26 13 1
99 13 1
104 13 1
14 14 1
27 14 1
100 14 1
105 14 1
15 15 1
28 15 1
101 15 1
106 15 1
16 16 1
29 16 1
102 16 1
107 16 1
17 17 1
30 17 1
103 17 1
108 17 1
18 18 1
31 18 1
104 18 1
109 18 1
19 19 1
32 19 1
105 19 1
110 19 1
20 20 1
33 20 1
106 20 1
111 20 1
21 21 1
34 21 1
107 21 1
112 21 1
22 22 1
35 22 1
108 22 1
113 22 1
23 23 1
36 23 1
109 23 1
114 23 1
24 24 1
37 24 1
110 24 1
115 24 1
25 25 1
38 25 1
111 25 1
116 25 1
26 26 1
39 26 1
112 26 1
117 26 1
27 27 1
40 27 1
113 27 1
118 27 1
28 28 1
41 28 1
114 28 1
119 28 1
29 29 1
42 29 1
115 29 1
120 29 1
30 30 1
43 30 1
116 30 1
121 30 1
31 31 1
44 31 1
117 31 1
122 31 1
32 32 1
45 32 1
118 32 1
123 32 1
33 33 1
46 33 1
119 33 1
124 33 1
34 34 1
47 34 1
120 34 1
125 34 1
35 35 1
48 35 1
121 35 1
126 35 1
36 36 1
49 36 1
122 36 1
127 36 1
37 37 1
50 37 1
123 37 1
128 37 1
38 38 1
51 38 1
124 38 1
129 38 1
39 39 1
52 39 1
125 39 1
130 39 1
40 40 1
53 40 1
126 40 1
131 40 1
41 41 1
54 41 1
127 41 1
132 41 1
42 42 1
55 42 1
128 42 1
133 42 1
43 43 1
56 43 1
129 43 1
134 43 1
44 44 1
57 44 1
130 44 1
135 44 1
45 45 1
58 45 1
131 45 1
136 45 1
46 46 1
59 46 1
132 46 1
137 46 1
47 47 1
60 47 1
133 47 1
138 47 1
48 48 1
61 48 1
134 48 1
139 48 1
49 49 1
62 49 1
135 49 1
140 49 1
50 50 1
63 50 1
136 50 1
141 50 1
51 51 1
64 51 1
137 51 1
142 51 1
52 52 1
65 52 1
138 52 1
143 52 1
53 53 1
66 53 1
139 53 1
144 53 1
54 54 1
67 54 1
140 54 1
145 54 1
55 55 1
68 55 1
141 55 1
146 55 1
56 56 1
69 56 1
142 56 1
147 56 1
57 57 1
70 57 1
143 57 1
148 57 1
58 58 1
71 58 1
144 58 1
149 58 1
59 59 1
72 59 1
145 59 1
150 59 1
60 60 1
73 60 1
146 60 1
151 60 1
61 61 1
74 61 1
147 61 1
152 61 1
62 62 1
75 62 1
148 62 1
153 62 1
63 63 1
76 63 1
149 63 1
154 63 1
64 64 1
77 64 1
150 64 1
155 64 1
65 65 1
78 65 1
151 65 1
156 65 1
66 66 1
79 66 1
152 66 1
157 66 1
67 67 1
80 67 1
153 67 1
158 67 1
68 68 1
81 68 1
154 68 1
159 68 1
69 69 1
82 69 1
155 69 1
160 69 1
70 70 1
83 70 1
156 70 1
161 70 1
71 71 1
84 71 1
157 71 1
162 71 1
72 72 1
85 72 1
158 72 1
163 72 1
73 73 1
86 73 1
159 73 1
164 73 1
1 74 1
74 74 1
160 74 1
165 74 1
2 75 1
75 75 1
161 75 1
166 75 1
3 76 1
76 76 1
162 76 1
167 76 1
4 77 1
77 77 1
163 77 1
168 77 1
5 78 1
78 78 1
164 78 1
169 78 1
6 79 1
79 79 1
165 79 1
170 79 1
7 80 1
80 80 1
166 80 1
171 80 1
8 81 1
81 81 1
167 81 1
172 81 1
9 82 1
82 82 1
87 82 1
168 82 1
10 83 1
83 83 1
88 83 1
169 83 1
11 84 1
84 84 1
89 84 1
170 84 1
12 85 1
85 85 1
90 85 1
171 85 1
13 86 1
86 86 1
91 86 1
172 86 1
1 87 1
63 87 1
173 87 1
178 87 1
2 88 1
64 88 1
174 88 1
179 88 1
3 89 1
65 89 1
175 89 1
180 89 1
4 90 1
66 90 1
176 90 1
181 90 1
5 91 1
67 91 1
177 91 1
182 91 1
6 92 1
68 92 1
178 92 1
183 92 1
7 93 1
69 93 1
179 93 1
184 93 1
8 94 1
70 94 1
180 94 1
185 94 1
9 95 1
71 95 1
181 95 1
186 95 1
10 96 1
72 96 1
182 96 1
187 96 1
11 97 1
73 97 1
183 97 1
188 97 1
12 98 1
74 98 1
184 98 1
189 98 1
13 99 1
75 99 1
185 99 1
190 99 1
14 100 1
76 100 1
186 100 1
191 100 1
15 101 1
77 101 1
187 101 1
192 101 1
16 102 1
78 102 1
188 102 1
193 102 1
17 103 1
79 103 1
189 103 1
194 103 1
18 104 1
80 104 1
190 104 1
195 104 1
19 105 1
81 105 1
191 105 1
196 105 1
20 106 1
82 106 1
192 106 1
197 106 1
21 107 1
83 107 1
193 107 1
198 107 1
22 108 1
84 108 1
194 108 1
199 108 1
23 109 1
85 109 1
195 109 1
200 109 1
24 110 1
86 110 1
196 110 1
201 110 1
1 111 1
25 111 1
197 111 1
202 111 1
2 112 1
26 112 1
198 112 1
203 112 1
3 113 1
27 113 1
199 113 1
204 113 1
4 114 1
28 114 1
200 114 1
205 114 1
5 115 1
29 115 1
201 115 1
206 115 1
6 116 1
30 116 1
202 116 1
207 116 1
7 117 1
31 117 1
203 117 1
208 117 1
8 118 1
32 118 1
204 118 1
209 118 1
9 119 1
33 119 1
205 119 1
210 119 1
10 120 1
34 120 1
206 120 1
211 120 1
11 121 1
35 121 1
207 121 1
212 121 1
12 122 1
36 122 1
208 122 1
213 122 1
13 123 1
37 123 1
209 123 1
214 123 1
14 124 1
38 124 1
210 124 1
215 124 1
15 125 1
39 125 1
211 125 1
216 125 1
16 126 1
40 126 1
212 126 1
217 126 1
17 127 1
41 127 1
213 127 1
218 127 1
18 128 1
42 128 1
214 128 1
219 128 1
19 129 1
43 129 1
215 129 1
220 129 1
20 130 1
44 130 1
216 130 1
221 130 1
21 131 1
45 131 1
217 131 1
222 131 1
22 132 1
46 132 1
218 132 1
223 132 1
23 133 1
47 133 1
219 133 1
224 133 1
24 134 1
48 134 1
220 134 1
225 134 1
25 135 1
49 135 1
221 135 1
226 135 1
26 136 1
50 136 1
222 136 1
227 136 1
27 137 1
51 137 1
223 137 1
228 137 1
28 138 1
52 138 1
224 138 1
229 138 1
29 139 1
53 139 1
225 139 1
230 139 1
30 140 1
54 140 1
226 140 1
231 140 1
31 141 1
55 141 1
227 141 1
232 141 1
32 142 1
56 142 1
228 142 1
233 142 1
33 143 1
57 143 1
229 143 1
234 143 1
34 144 1
58 144 1
230 144 1
235 144 1
35 145 1
59 145 1
231 145 1
236 145 1
36 146 1
60 146 1
232 146 1
237 146 1
37 147 1
61 147 1
233 147 1
238 147 1
38 148 1
62 148 1
234 148 1
239 148 1
39 149 1
63 149 1
235 149 1
240 149 1
40 150 1
64 150 1
236 150 1
241 150 1
41 151 1
65 151 1
237 151 1
242 151 1
42 152 1
66 152 1
238 152 1
243 152 1
43 153 1
67 153 1
239 153 1
244 153 1
44 154 1
68 154 1
240 154 1
245 154 1
45 155 1
69 155 1
241 155 1
246 155 1
46 156 1
70 156 1
242 156 1
247 156 1
47 157 1
71 157 1
243 157 1
248 157 1
48 158 1
72 158 1
244 158 1
249 158 1
49 159 1
73 159 1
245 159 1
250 159 1
50 160 1
74 160 1
246 160 1
251 160 1
51 161 1
75 161 1
247 161 1
252 161 1
52 162 1
76 162 1
248 162 1
253 162 1
53 163 1
77 163 1
249 163 1
254 163 1
54 164 1
78 164 1
250 164 1
255 164 1
55 165 1
79 165 1
251 165 1
256 165 1
56 166 1
80 166 1
252 166 1
257 166 1
57 167 1
81 167 1
253 167 1
258 167 1
58 168 1
82 168 1
173 168 1
254 168 1
59 169 1
83 169 1
174 169 1
255 169 1
60 170 1
84 170 1
175 170 1
256 170 1
61 171 1
85 171 1
176 171 1
257 171 1
62 172 1
86 172 1
177 172 1
258 172 1
1 173 1
70 173 1
259 173 1
264 173 1
2 174 1
71 174 1
260 174 1
265 174 1
3 175 1
72 175 1
261 175 1
266 175 1
4 176 1
73 176 1
262 176 1
267 176 1
5 177 1
74 177 1
263 177 1
268 177 1
6 178 1
75 178 1
264 178 1
269 178 1
7 179 1
76 179 1
265 179 1
270 179 1
8 180 1
77 180 1
266 180 1
271 180 1
9 181 1
78 181 1
267 181 1
272 181 1
10 182 1
79 182 1
268 182 1
273 182 1
11 183 1
80 183 1
269 183 1
274 183 1
12 184 1
81 184 1
270 184 1
275 184 1
13 185 1
82 185 1
271 185 1
276 185 1
14 186 1
83 186 1
272 186 1
277 186 1
15 187 1
84 187 1
273 187 1
278 187 1
16 188 1
85 188 1
274 188 1
279 188 1
17 189 1
86 189 1
275 189 1
280 189 1
1 190 1
18 190 1
276 190 1
281 190 1
2 191 1
19 191 1
277 191 1
282 191 1
3 192 1
20 192 1
278 192 1
283 192 1
4 193 1
21 193 1
279 193 1
284 193 1
5 194 1
22 194 1
280 194 1
285 194 1
6 195 1
23 195 1
281 195 1
286 195 1
7 196 1
24 196 1
282 196 1
287 196 1
8 197 1
25 197 1
283 197 1
288 197 1
9 198 1
26 198 1
284 198 1
289 198 1
10 199 1
27 199 1
285 199 1
290 199 1
11 200 1
28 200 1
286 200 1
291 200 1
12 201 1
29 201 1
287 201 1
292 201 1
13 202 1
30 202 1
288 202 1
293 202 1
14 203 1
31 203 1
289 203 1
294 203 1
15 204 1
32 204 1
290 204 1
295 204 1
16 205 1
33 205 1
291 205 1
296 205 1
17 206 1
34 206 1
292 206 1
297 206 1
18 207 1
35 207 1
293 207 1
298 207 1
19 208 1
36 208 1
294 208 1
299 208 1
20 209 1
37 209 1
295 209 1
300 209 1
21 210 1
38 210 1
296 210 1
301 210 1
22 211 1
39 211 1
297 211 1
302 211 1
23 212 1
40 212 1
298 212 1
303 212 1
24 213 1
41 213 1
299 213 1
304 213 1
25 214 1
42 214 1
300 214 1
305 214 1
26 215 1
43 215 1
301 215 1
306 215 1
27 216 1
44 216 1
302 216 1
307 216 1
28 217 1
45 217 1
303 217 1
308 217 1
29 218 1
46 218 1
304 218 1
309 218 1
30 219 1
47 219 1
305 219 1
310 219 1
31 220 1
48 220 1
306 220 1
311 220 1
32 221 1
49 221 1
307 221 1
312 221 1
33 222 1
50 222 1
308 222 1
313 222 1
34 223 1
51 223 1
309 223 1
314 223 1
35 224 1
52 224 1
310 224 1
315 224 1
36 225 1
53 225 1
311 225 1
316 225 1
37 226 1
54 226 1
312 226 1
317 226 1
38 227 1
55 227 1
313 227 1
318 227 1
39 228 1
56 228 1
314 228 1
319 228 1
40 229 1
57 229 1
315 229 1
320 229 1
41 230 1
58 230 1
316 230 1
321 230 1
42 231 1
59 231 1
317 231 1
322 231 1
43 232 1
60 232 1
318 232 1
323 232 1
44 233 1
61 233 1
319 233 1
324 233 1
45 234 1
62 234 1
320 234 1
325 234 1
46 235 1
63 235 1
321 235 1
326 235 1
47 236 1
64 236 1
322 236 1
327 236 1
48 237 1
65 237 1
323 237 1
328 237 1
49 238 1
66 238 1
324 238 1
329 238 1
50 239 1
67 239 1
325 239 1
330 239 1
51 240 1
68 240 1
326 240 1
331 240 1
52 241 1
69 241 1
327 241 1
332 241 1
53 242 1
70 242 1
328 242 1
333 242 1
54 243 1
71 243 1
329 243 1
334 243 1
55 244 1
72 244 1
330 244 1
335 244 1
56 245 1
73 245 1
331 245 1
336 245 1
57 246 1
74 246 1
332 246 1
337 246 1
58 247 1
75 247 1
333 247 1
338 247 1
59 248 1
76 248 1
334 248 1
339 248 1
60 249 1
77 249 1
335 249 1
340 249 1
61 250 1
78 250 1
336 250 1
341 250 1
62 251 1
79 251 1
337 251 1
342 251 1
63 252 1
80 252 1
338 252 1
343 252 1
64 253 1
81 253 1
339 253 1
344 253 1
65 254 1
82 254 1
259 254 1
340 254 1
66 255 1
83 255 1
260 255 1
341 255 1
67 256 1
84 256 1
261 256 1
342 256 1
68 257 1
85 257 1
262 257 1
343 257 1
69 258 1
86 258 1
263 258 1
344 258 1
87 259 1
149 259 1
173 259 1
186 259 1
88 260 1
150 260 1
174 260 1
187 260 1
89 261 1
151 261 1
175 261 1
188 261 1
90 262 1
152 262 1
176 262 1
189 262 1
91 263 1
153 263 1
177 263 1
190 263 1
92 264 1
154 264 1
178 264 1
191 264 1
93 265 1
155 265 1
179 265 1
192 265 1
94 266 1
156 266 1
180 266 1
193 266 1
95 267 1
157 267 1
181 267 1
194 267 1
96 268 1
158 268 1
182 268 1
195 268 1
97 269 1
159 269 1
183 269 1
196 269 1
98 270 1
160 270 1
184 270 1
197 270 1
99 271 1
161 271 1
185 271 1
198 271 1
100 272 1
162 272 1
186 272 1
199 272 1
101 273 1
163 273 1
187 273 1
200 273 1
102 274 1
164 274 1
188 274 1
201 274 1
103 275 1
165 275 1
189 275 1
202 275 1
104 276 1
166 276 1
190 276 1
203 276 1
105 277 1
167 277 1
191 277 1
204 277 1
106 278 1
168 278 1
192 278 1
205 278 1
107 279 1
169 279 1
193 279 1
206 279 1
108 280 1
170 280 1
194 280 1
207 280 1
109 281 1
171 281 1
195 281 1
208 281 1
110 282 1
172 282 1
196 282 1
209 282 1
87 283 1
111 283 1
197 283 1
210 283 1
88 284 1
112 284 1
198 284 1
211 284 1
89 285 1
113 285 1
199 285 1
212 285 1
90 286 1
114 286 1
200 286 1
213 286 1
91 287 1
115 287 1
201 287 1
214 287 1
92 288 1
116 288 1
202 288 1
215 288 1
93 289 1
117 289 1
203 289 1
216 289 1
94 290 1
118 290 1
204 290 1
217 290 1
95 291 1
119 291 1
205 291 1
218 291 1
96 292 1
120 292 1
206 292 1
219 292 1
97 293 1
121 293 1
207 293 1
220 293 1
98 294 1
122 294 1
208 294 1
221 294 1
99 295 1
123 295 1
209 295 1
222 295 1
100 296 1
124 296 1
210 296 1
223 296 1
101 297 1
125 297 1
211 297 1
224 297 1
102 298 1
126 298 1
212 298 1
225 298 1
103 299 1
127 299 1
213 299 1
226 299 1
104 300 1
128 300 1
214 300 1
227 300 1
105 301 1
129 301 1
215 301 1
228 301 1
106 302 1
130 302 1
216 302 1
229 302 1
107 303 1
131 303 1
217 303 1
230 303 1
108 304 1
132 304 1
218 304 1
231 304 1
109 305 1
133 305 1
219 305 1
232 305 1
110 306 1
134 306 1
220 306 1
233 306 1
111 307 1
135 307 1
221 307 1
234 307 1
112 308 1
136 308 1
222 308 1
235 308 1
113 309 1
137 309 1
223 309 1
236 309 1
114 310 1
138 310 1
224 310 1
237 310 1
115 311 1
139 311 1
225 311 1
238 311 1
116 312 1
140 312 1
226 312 1
239 312 1
117 313 1
141 313 1
227 313 1
240 313 1
118 314 1
142 314 1
228 314 1
241 314 1
119 315 1
143 315 1
229 315 1
242 315 1
120 316 1
144 316 1
230 316 1
243 316 1
121 317 1
145 317 1
231 317 1
244 317 1
122 318 1
146 318 1
232 318 1
245 318 1
123 319 1
147 319 1
233 319 1
246 319 1
124 320 1
148 320 1
234 320 1
247 320 1
125 321 1
149 321 1
235 321 1
248 321 1
126 322 1
150 322 1
236 322 1
249 322 1
127 323 1
151 323 1
237 323 1
250 323 1
128 324 1
152 324 1
238 324 1
251 324 1
129 325 1
153 325 1
239 325 1
252 325 1
130 326 1
154 326 1
240 326 1
253 326 1
131 327 1
155 327 1
241 327 1
254 327 1
132 328 1
156 328 1
242 328 1
255 328 1
133 329 1
157 329 1
243 329 1
256 329 1
134 330 1
158 330 1
244 330 1
257 330 1
135 331 1
159 331 1
245 331 1
258 331 1
136 332 1
160 332 1
173 332 1
246 332 1
137 333 1
161 333 1
174 333 1
247 333 1
138 334 1
162 334 1
175 334 1
248 334 1
139 335 1
163 335 1
176 335 1
249 335 1
140 336 1
164 336 1
177 336 1
250 336 1
141 337 1
165 337 1
178 337 1
251 337 1
142 338 1
166 338 1
179 338 1
252 338 1
143 339 1
167 339 1
180 339 1
253 339 1
144 340 1
168 340 1
181 340 1
254 340 1
145 341 1
169 341 1
182 341 1
255 341 1
146 342 1
170 342 1
183 342 1
256 342 1
147 343 1
171 343 1
184 343 1
257 343 1
148 344 1
172 344 1
185 344 1
258 344 1
87 345 1
156 345 1
259 345 1
272 345 1
88 346 1
157 346 1
260 346 1
273 346 1
89 347 1
158 347 1
261 347 1
274 347 1
90 348 1
159 348 1
262 348 1
275 348 1
91 349 1
160 349 1
263 349 1
276 349 1
92 350 1
161 350 1
264 350 1
277 350 1
93 351 1
162 351 1
265 351 1
278 351 1
94 352 1
163 352 1
266 352 1
279 352 1
95 353 1
164 353 1
267 353 1
280 353 1
96 354 1
165 354 1
268 354 1
281 354 1
97 355 1
166 355 1
269 355 1
282 355 1
98 356 1
167 356 1
270 356 1
283 356 1
99 357 1
168 357 1
271 357 1
284 357 1
100 358 1
169 358 1
272 358 1
285 358 1
101 359 1
170 359 1
273 359 1
286 359 1
102 360 1
171 360 1
274 360 1
287 360 1
103 361 1
172 361 1
275 361 1
288 361 1
87 362 1
104 362 1
276 362 1
289 362 1
88 363 1
105 363 1
277 363 1
290 363 1
89 364 1
106 364 1
278 364 1
291 364 1
90 365 1
107 365 1
279 365 1
292 365 1
91 366 1
108 366 1
280 366 1
293 366 1
92 367 1
109 367 1
281 367 1
294 367 1
93 368 1
110 368 1
282 368 1
295 368 1
94 369 1
111 369 1
283 369 1
296 369 1
95 370 1
112 370 1
284 370 1
297 370 1
96 371 1
113 371 1
285 371 1
298 371 1
97 372 1
114 372 1
286 372 1
299 372 1
98 373 1
115 373 1
287 373 1
300 373 1
99 374 1
116 374 1
288 374 1
301 374 1
100 375 1
117 375 1
289 375 1
302 375 1
101 376 1
118 376 1
290 376 1
303 376 1
102 377 1
119 377 1
291 377 1
304 377 1
103 378 1
120 378 1
292 378 1
305 378 1
104 379 1
121 379 1
293 379 1
306 379 1
105 380 1
122 380 1
294 380 1
307 380 1
106 381 1
123 381 1
295 381 1
308 381 1
107 382 1
124 382 1
296 382 1
309 382 1
108 383 1
125 383 1
297 383 1
310 383 1
109 384 1
126 384 1
298 384 1
311 384 1
110 385 1
127 385 1
299 385 1
312 385 1
111 386 1
128 386 1
300 386 1
313 386 1
112 387 1
129 387 1
301 387 1
314 387 1
113 388 1
130 388 1
302 388 1
315 388 1
114 389 1
131 389 1
303 389 1
316 389 1
115 390 1
132 390 1
304 390 1
317 390 1
116 391 1
133 391 1
305 391 1
318 391 1
117 392 1
134 392 1
306 392 1
319 392 1
118 393 1
135 393 1
307 393 1
320 393 1
119 394 1
136 394 1
308 394 1
321 394 1
120 395 1
137 395 1
309 395 1
322 395 1
121 396 1
138 396 1
310 396 1
323 396 1
122 397 1
139 397 1
311 397 1
324 397 1
123 398 1
140 398 1
312 398 1
325 398 1
124 399 1
141 399 1
313 399 1
326 399 1
125 400 1
142 400 1
314 400 1
327 400 1
126 401 1
143 401 1
315 401 1
328 401 1
127 402 1
144 402 1
316 402 1
329 402 1
128 403 1
145 403 1
317 403 1
330 403 1
129 404 1
146 404 1
318 404 1
331 404 1
130 405 1
147 405 1
319 405 1
332 405 1
131 406 1
148 406 1
320 406 1
333 406 1
132 407 1
149 407 1
321 407 1
334 407 1
133 408 1
150 408 1
322 408 1
335 408 1
134 409 1
151 409 1
323 409 1
336 409 1
135 410 1
152 410 1
324 410 1
337 410 1
136 411 1
153 411 1
325 411 1
338 411 1
137 412 1
154 412 1
326 412 1
339 412 1
138 413 1
155 413 1
327 413 1
340 413 1
139 414 1
156 414 1
328 414 1
341 414 1
140 415 1
157 415 1
329 415 1
342 415 1
141 416 1
158 416 1
330 416 1
343 416 1
142 417 1
159 417 1
331 417 1
344 417 1
143 418 1
160 418 1
259 418 1
332 418 1
144 419 1
161 419 1
260 419 1
333 419 1
145 420 1
162 420 1
261 420 1
334 420 1
146 421 1
163 421 1
262 421 1
335 421 1
147 422 1
164 422 1
263 422 1
336 422 1
148 423 1
165 423 1
264 423 1
337 423 1
149 424 1
166 424 1
265 424 1
338 424 1
150 425 1
167 425 1
266 425 1
339 425 1
151 426 1
168 426 1
267 426 1
340 426 1
152 427 1
169 427 1
268 427 1
341 427 1
153 428 1
170 428 1
269 428 1
342 428 1
154 429 1
171 429 1
270 429 1
343 429 1
155 430 1
172 430 1
271 430 1
344 430 1
173 431 1
242 431 1
259 431 1
321 431 1
174 432 1
243 432 1
260 432 1
322 432 1
175 433 1
244 433 1
261 433 1
323 433 1
176 434 1
245 434 1
262 434 1
324 434 1
177 435 1
246 435 1
263 435 1
325 435 1
178 436 1
247 436 1
264 436 1
326 436 1
179 437 1
248 437 1
265 437 1
327 437 1
180 438 1
249 438 1
266 438 1
328 438 1
181 439 1
250 439 1
267 439 1
329 439 1
182 440 1
251 440 1
268 440 1
330 440 1
183 441 1
252 441 1
269 441 1
331 441 1
184 442 1
253 442 1
270 442 1
332 442 1
185 443 1
254 443 1
271 443 1
333 443 1
186 444 1
255 444 1
272 444 1
334 444 1
187 445 1
256 445 1
273 445 1
335 445 1
188 446 1
257 446 1
274 446 1
336 446 1
189 447 1
258 447 1
275 447 1
337 447 1
173 448 1
190 448 1
276 448 1
338 448 1
174 449 1
191 449 1
277 449 1
339 449 1
175 450 1
192 450 1
278 450 1
340 450 1
176 451 1
193 451 1
279 451 1
341 451 1
177 452 1
194 452 1
280 452 1
342 452 1
178 453 1
195 453 1
281 453 1
343 453 1
179 454 1
196 454 1
282 454 1
344 454 1
180 455 1
197 455 1
259 455 1
283 455 1
181 456 1
198 456 1
260 456 1
284 456 1
182 457 1
199 457 1
261 457 1
285 457 1
183 458 1
200 458 1
262 458 1
286 458 1
184 459 1
201 459 1
263 459 1
287 459 1
185 460 1
202 460 1
264 460 1
288 460 1
186 461 1
203 461 1
265 461 1
289 461 1
187 462 1
204 462 1
266 462 1
290 462 1
188 463 1
205 463 1
267 463 1
291 463 1
189 464 1
206 464 1
268 464 1
292 464 1
190 465 1
207 465 1
269 465 1
293 465 1
191 466 1
208 466 1
270 466 1
294 466 1
192 467 1
209 467 1
271 467 1
295 467 1
193 468 1
210 468 1
272 468 1
296 468 1
194 469 1
211 469 1
273 469 1
297 469 1
195 470 1
212 470 1
274 470 1
298 470 1
196 471 1
213 471 1
275 471 1
299 471 1
197 472 1
214 472 1
276 472 1
300 472 1
198 473 1
215 473 1
277 473 1
301 473 1
199 474 1
216 474 1
278 474 1
302 474 1
200 475 1
217 475 1
279 475 1
303 475 1
201 476 1
218 476 1
280 476 1
304 476 1
202 477 1
219 477 1
281 477 1
305 477 1
203 478 1
220 478 1
282 478 1
306 478 1
204 479 1
221 479 1
283 479 1
307 479 1
205 480 1
222 480 1
284 480 1
308 480 1
206 481 1
223 481 1
285 481 1
309 481 1
207 482 1
224 482 1
286 482 1
310 482 1
208 483 1
225 483 1
287 483 1
311 483 1
209 484 1
226 484 1
288 484 1
312 484 1
210 485 1
227 485 1
289 485 1
313 485 1
211 486 1
228 486 1
290 486 1
314 486 1
212 487 1
229 487 1
291 487 1
315 487 1
213 488 1
230 488 1
292 488 1
316 488 1
214 489 1
231 489 1
293 489 1
317 489 1
215 490 1
232 490 1
294 490 1
318 490 1
216 491 1
233 491 1
295 491 1
319 491 1
217 492 1
234 492 1
296 492 1
320 492 1
218 493 1
235 493 1
297 493 1
321 493 1
219 494 1
236 494 1
298 494 1
322 494 1
220 495 1
237 495 1
299 495 1
323 495 1
221 496 1
238 496 1
300 496 1
324 496 1
222 497 1
239 497 1
301 497 1
325 497 1
223 498 1
240 498 1
302 498 1
326 498 1
224 499 1
241 499 1
303 499 1
327 499 1
225 500 1
242 500 1
304 500 1
328 500 1
226 501 1
243 501 1
305 501 1
329 501 1
227 502 1
244 502 1
306 502 1
330 502 1
228 503 1
245 503 1
307 503 1
331 503 1
229 504 1
246 504 1
308 504 1
332 504 1
230 505 1
247 505 1
309 505 1
333 505 1
231 506 1
248 506 1
310 506 1
334 506 1
232 507 1
249 507 1
311 507 1
335 507 1
233 508 1
250 508 1
312 508 1
336 508 1
234 509 1
251 509 1
313 509 1
337 509 1
235 510 1
252 510 1
314 510 1
338 510 1
236 511 1
253 511 1
315 511 1
339 511 1
237 512 1
254 512 1
316 512 1
340 512 1
238 513 1
255 513 1
317 513 1
341 513 1
239 514 1
256 514 1
318 514 1
342 514 1
240 515 1
257 515 1
319 515 1
343 515 1
241 516 1
258 516 1
320 516 1
344 516 1
