%%MatrixMarket matrix coordinate integer general
% Binary matrix; one-based indices; arithmetic over GF(2)
608 912 3648
12 1 1
77 1 1
163 1 1
229 1 1
13 2 1
78 2 1
164 2 1
230 2 1
14 3 1
79 3 1
165 3 1
231 3 1
15 4 1
80 4 1
166 4 1
232 4 1
16 5 1
81 5 1
167 5 1
233 5 1
17 6 1
82 6 1
168 6 1
234 6 1
18 7 1
83 7 1
169 7 1
235 7 1
19 8 1
84 8 1
170 8 1
236 8 1
1 9 1
85 9 1
171 9 1
237 9 1
2 10 1
86 10 1
153 10 1
238 10 1
3 11 1
87 11 1
154 11 1
239 11 1
4 12 1
88 12 1
155 12 1
240 12 1
5 13 1
89 13 1
156 13 1
241 13 1
6 14 1
90 14 1
157 14 1
242 14 1
7 15 1
91 15 1
158 15 1
243 15 1
8 16 1
92 16 1
159 16 1
244 16 1
9 17 1
93 17 1
160 17 1
245 17 1
10 18 1
94 18 1
161 18 1
246 18 1
11 19 1
95 19 1
162 19 1
247 19 1
31 20 1
96 20 1
182 20 1
248 20 1
32 21 1
97 21 1
183 21 1
249 21 1
33 22 1
98 22 1
184 22 1
250 22 1
34 23 1
99 23 1
185 23 1
251 23 1
35 24 1
100 24 1
186 24 1
252 24 1
36 25 1
101 25 1
187 25 1
253 25 1
37 26 1
102 26 1
188 26 1
254 26 1
38 27 1
103 27 1
189 27 1
255 27 1
20 28 1
104 28 1
190 28 1
256 28 1
21 29 1
105 29 1
172 29 1
257 29 1
22 30 1
106 30 1
173 30 1
258 30 1
23 31 1
107 31 1
174 31 1
259 31 1
24 32 1
108 32 1
175 32 1
260 32 1
25 33 1
109 33 1
176 33 1
261 33 1
26 34 1
110 34 1
177 34 1
262 34 1
27 35 1
111 35 1
178 35 1
263 35 1
28 36 1
112 36 1
179 36 1
264 36 1
29 37 1
113 37 1
180 37 1
265 37 1
30 38 1
114 38 1
181 38 1
266 38 1
50 39 1
115 39 1
201 39 1
267 39 1
51 40 1
116 40 1
202 40 1
268 40 1
52 41 1
117 41 1
203 41 1
269 41 1
53 42 1
118 42 1
204 42 1
270 42 1
54 43 1
119 43 1
205 43 1
271 43 1
55 44 1
120 44 1
206 44 1
272 44 1
56 45 1
121 45 1
207 45 1
273 45 1
57 46 1
122 46 1
208 46 1
274 46 1
39 47 1
123 47 1
209 47 1
275 47 1
40 48 1
124 48 1
191 48 1
276 48 1
41 49 1
125 49 1
192 49 1
277 49 1
42 50 1
126 50 1
193 50 1
278 50 1
43 51 1
127 51 1
194 51 1
279 51 1
44 52 1
128 52 1
195 52 1
280 52 1
45 53 1
129 53 1
196 53 1
281 53 1
46 54 1
130 54 1
197 54 1
282 54 1
47 55 1
131 55 1
198 55 1
283 55 1
48 56 1
132 56 1
199 56 1
284 56 1
49 57 1
133 57 1
200 57 1
285 57 1
69 58 1
134 58 1
220 58 1
286 58 1
70 59 1
135 59 1
221 59 1
287 59 1
71 60 1
136 60 1
222 60 1
288 60 1
72 61 1
137 61 1
223 61 1
289 61 1
73 62 1
138 62 1
224 62 1
290 62 1
74 63 1
139 63 1
225 63 1
291 63 1
75 64 1
140 64 1
226 64 1
292 64 1
76 65 1
141 65 1
227 65 1
293 65 1
58 66 1
142 66 1
228 66 1
294 66 1
59 67 1
143 67 1
210 67 1
295 67 1
60 68 1
144 68 1
211 68 1
296 68 1
61 69 1
145 69 1
212 69 1
297 69 1
62 70 1
146 70 1
213 70 1
298 70 1
63 71 1
147 71 1
214 71 1
299 71 1
64 72 1
148 72 1
215 72 1
300 72 1
65 73 1
149 73 1
216 73 1
301 73 1
66 74 1
150 74 1
217 74 1
302 74 1
67 75 1
151 75 1
218 75 1
303 75 1
68 76 1
152 76 1
219 76 1
304 76 1
1 77 1
88 77 1
153 77 1
239 77 1
2 78 1
89 78 1
154 78 1
240 78 1
3 79 1
90 79 1
155 79 1
241 79 1
4 80 1
91 80 1
156 80 1
242 80 1
5 81 1
92 81 1
157 81 1
243 81 1
6 82 1
93 82 1
158 82 1
244 82 1
7 83 1
94 83 1
159 83 1
245 83 1
8 84 1
95 84 1
160 84 1
246 84 1
9 85 1
77 85 1
161 85 1
247 85 1
10 86 1
78 86 1
162 86 1
229 86 1
11 87 1
79 87 1
163 87 1
230 87 1
12 88 1
80 88 1
164 88 1
231 88 1
13 89 1
81 89 1
165 89 1
232 89 1
14 90 1
82 90 1
166 90 1
233 90 1
15 91 1
83 91 1
167 91 1
234 91 1
16 92 1
84 92 1
168 92 1
235 92 1
17 93 1
85 93 1
169 93 1
236 93 1
18 94 1
86 94 1
170 94 1
237 94 1
19 95 1
87 95 1
171 95 1
238 95 1
20 96 1
107 96 1
172 96 1
258 96 1
21 97 1
108 97 1
173 97 1
259 97 1
22 98 1
109 98 1
174 98 1
260 98 1
23 99 1
110 99 1
175 99 1
261 99 1
24 100 1
111 100 1
176 100 1
262 100 1
25 101 1
112 101 1
177 101 1
263 101 1
26 102 1
113 102 1
178 102 1
264 102 1
27 103 1
114 103 1
179 103 1
265 103 1
28 104 1
96 104 1
180 104 1
266 104 1
29 105 1
97 105 1
181 105 1
248 105 1
30 106 1
98 106 1
182 106 1
249 106 1
31 107 1
99 107 1
183 107 1
250 107 1
32 108 1
100 108 1
184 108 1
251 108 1
33 109 1
101 109 1
185 109 1
252 109 1
34 110 1
102 110 1
186 110 1
253 110 1
35 111 1
103 111 1
187 111 1
254 111 1
36 112 1
104 112 1
188 112 1
255 112 1
37 113 1
105 113 1
189 113 1
256 113 1
38 114 1
106 114 1
190 114 1
257 114 1
39 115 1
126 115 1
191 115 1
277 115 1
40 116 1
127 116 1
192 116 1
278 116 1
41 117 1
128 117 1
193 117 1
279 117 1
42 118 1
129 118 1
194 118 1
280 118 1
43 119 1
130 119 1
195 119 1
281 119 1
44 120 1
131 120 1
196 120 1
282 120 1
45 121 1
132 121 1
197 121 1
283 121 1
46 122 1
133 122 1
198 122 1
284 122 1
47 123 1
115 123 1
199 123 1
285 123 1
48 124 1
116 124 1
200 124 1
267 124 1
49 125 1
117 125 1
201 125 1
268 125 1
50 126 1
118 126 1
202 126 1
269 126 1
51 127 1
119 127 1
203 127 1
270 127 1
52 128 1
120 128 1
204 128 1
271 128 1
53 129 1
121 129 1
205 129 1
272 129 1
54 130 1
122 130 1
206 130 1
273 130 1
55 131 1
123 131 1
207 131 1
274 131 1
56 132 1
124 132 1
208 132 1
275 132 1
57 133 1
125 133 1
209 133 1
276 133 1
58 134 1
145 134 1
210 134 1
296 134 1
59 135 1
146 135 1
211 135 1
297 135 1
60 136 1
147 136 1
212 136 1
298 136 1
61 137 1
148 137 1
213 137 1
299 137 1
62 138 1
149 138 1
214 138 1
300 138 1
63 139 1
150 139 1
215 139 1
301 139 1
64 140 1
151 140 1
216 140 1
302 140 1
65 141 1
152 141 1
217 141 1
303 141 1
66 142 1
134 142 1
218 142 1
304 142 1
67 143 1
135 143 1
219 143 1
286 143 1
68 144 1
136 144 1
220 144 1
287 144 1
69 145 1
137 145 1
221 145 1
288 145 1
70 146 1
138 146 1
222 146 1
289 146 1
71 147 1
139 147 1
223 147 1
290 147 1
72 148 1
140 148 1
224 148 1
291 148 1
73 149 1
141 149 1
225 149 1
292 149 1
74 150 1
142 150 1
226 150 1
293 150 1
75 151 1
143 151 1
227 151 1
294 151 1
76 152 1
144 152 1
228 152 1
295 152 1
30 153 1
108 153 1
315 153 1
381 153 1
31 154 1
109 154 1
316 154 1
382 154 1
32 155 1
110 155 1
317 155 1
383 155 1
33 156 1
111 156 1
318 156 1
384 156 1
34 157 1
112 157 1
319 157 1
385 157 1
35 158 1
113 158 1
320 158 1
386 158 1
36 159 1
114 159 1
321 159 1
387 159 1
37 160 1
96 160 1
322 160 1
388 160 1
38 161 1
97 161 1
323 161 1
389 161 1
20 162 1
98 162 1
305 162 1
390 162 1
21 163 1
99 163 1
306 163 1
391 163 1
22 164 1
100 164 1
307 164 1
392 164 1
23 165 1
101 165 1
308 165 1
393 165 1
24 166 1
102 166 1
309 166 1
394 166 1
25 167 1
103 167 1
310 167 1
395 167 1
26 168 1
104 168 1
311 168 1
396 168 1
27 169 1
105 169 1
312 169 1
397 169 1
28 170 1
106 170 1
313 170 1
398 170 1
29 171 1
107 171 1
314 171 1
399 171 1
11 172 1
89 172 1
334 172 1
400 172 1
12 173 1
90 173 1
335 173 1
401 173 1
13 174 1
91 174 1
336 174 1
402 174 1
14 175 1
92 175 1
337 175 1
403 175 1
15 176 1
93 176 1
338 176 1
404 176 1
16 177 1
94 177 1
339 177 1
405 177 1
17 178 1
95 178 1
340 178 1
406 178 1
18 179 1
77 179 1
341 179 1
407 179 1
19 180 1
78 180 1
342 180 1
408 180 1
1 181 1
79 181 1
324 181 1
409 181 1
2 182 1
80 182 1
325 182 1
410 182 1
3 183 1
81 183 1
326 183 1
411 183 1
4 184 1
82 184 1
327 184 1
412 184 1
5 185 1
83 185 1
328 185 1
413 185 1
6 186 1
84 186 1
329 186 1
414 186 1
7 187 1
85 187 1
330 187 1
415 187 1
8 188 1
86 188 1
331 188 1
416 188 1
9 189 1
87 189 1
332 189 1
417 189 1
10 190 1
88 190 1
333 190 1
418 190 1
68 191 1
146 191 1
353 191 1
419 191 1
69 192 1
147 192 1
354 192 1
420 192 1
70 193 1
148 193 1
355 193 1
421 193 1
71 194 1
149 194 1
356 194 1
422 194 1
72 195 1
150 195 1
357 195 1
423 195 1
73 196 1
151 196 1
358 196 1
424 196 1
74 197 1
152 197 1
359 197 1
425 197 1
75 198 1
134 198 1
360 198 1
426 198 1
76 199 1
135 199 1
361 199 1
427 199 1
58 200 1
136 200 1
343 200 1
428 200 1
59 201 1
137 201 1
344 201 1
429 201 1
60 202 1
138 202 1
345 202 1
430 202 1
61 203 1
139 203 1
346 203 1
431 203 1
62 204 1
140 204 1
347 204 1
432 204 1
63 205 1
141 205 1
348 205 1
433 205 1
64 206 1
142 206 1
349 206 1
434 206 1
65 207 1
143 207 1
350 207 1
435 207 1
66 208 1
144 208 1
351 208 1
436 208 1
67 209 1
145 209 1
352 209 1
437 209 1
49 210 1
127 210 1
372 210 1
438 210 1
50 211 1
128 211 1
373 211 1
439 211 1
51 212 1
129 212 1
374 212 1
440 212 1
52 213 1
130 213 1
375 213 1
441 213 1
53 214 1
131 214 1
376 214 1
442 214 1
54 215 1
132 215 1
377 215 1
443 215 1
55 216 1
133 216 1
378 216 1
444 216 1
56 217 1
115 217 1
379 217 1
445 217 1
57 218 1
116 218 1
380 218 1
446 218 1
39 219 1
117 219 1
362 219 1
447 219 1
40 220 1
118 220 1
363 220 1
448 220 1
41 221 1
119 221 1
364 221 1
449 221 1
42 222 1
120 222 1
365 222 1
450 222 1
43 223 1
121 223 1
366 223 1
451 223 1
44 224 1
122 224 1
367 224 1
452 224 1
45 225 1
123 225 1
368 225 1
453 225 1
46 226 1
124 226 1
369 226 1
454 226 1
47 227 1
125 227 1
370 227 1
455 227 1
48 228 1
126 228 1
371 228 1
456 228 1
32 229 1
106 229 1
305 229 1
391 229 1
33 230 1
107 230 1
306 230 1
392 230 1
34 231 1
108 231 1
307 231 1
393 231 1
35 232 1
109 232 1
308 232 1
394 232 1
36 233 1
110 233 1
309 233 1
395 233 1
37 234 1
111 234 1
310 234 1
396 234 1
38 235 1
112 235 1
311 235 1
397 235 1
20 236 1
113 236 1
312 236 1
398 236 1
21 237 1
114 237 1
313 237 1
399 237 1
22 238 1
96 238 1
314 238 1
381 238 1
23 239 1
97 239 1
315 239 1
382 239 1
24 240 1
98 240 1
316 240 1
383 240 1
25 241 1
99 241 1
317 241 1
384 241 1
26 242 1
100 242 1
318 242 1
385 242 1
27 243 1
101 243 1
319 243 1
386 243 1
28 244 1
102 244 1
320 244 1
387 244 1
29 245 1
103 245 1
321 245 1
388 245 1
30 246 1
104 246 1
322 246 1
389 246 1
31 247 1
105 247 1
323 247 1
390 247 1
13 248 1
87 248 1
324 248 1
410 248 1
14 249 1
88 249 1
325 249 1
411 249 1
15 250 1
89 250 1
326 250 1
412 250 1
16 251 1
90 251 1
327 251 1
413 251 1
17 252 1
91 252 1
328 252 1
414 252 1
18 253 1
92 253 1
329 253 1
415 253 1
19 254 1
93 254 1
330 254 1
416 254 1
1 255 1
94 255 1
331 255 1
417 255 1
2 256 1
95 256 1
332 256 1
418 256 1
3 257 1
77 257 1
333 257 1
400 257 1
4 258 1
78 258 1
334 258 1
401 258 1
5 259 1
79 259 1
335 259 1
402 259 1
6 260 1
80 260 1
336 260 1
403 260 1
7 261 1
81 261 1
337 261 1
404 261 1
8 262 1
82 262 1
338 262 1
405 262 1
9 263 1
83 263 1
339 263 1
406 263 1
10 264 1
84 264 1
340 264 1
407 264 1
11 265 1
85 265 1
341 265 1
408 265 1
12 266 1
86 266 1
342 266 1
409 266 1
70 267 1
144 267 1
343 267 1
429 267 1
71 268 1
145 268 1
344 268 1
430 268 1
72 269 1
146 269 1
345 269 1
431 269 1
73 270 1
147 270 1
346 270 1
432 270 1
74 271 1
148 271 1
347 271 1
433 271 1
75 272 1
149 272 1
348 272 1
434 272 1
76 273 1
150 273 1
349 273 1
435 273 1
58 274 1
151 274 1
350 274 1
436 274 1
59 275 1
152 275 1
351 275 1
437 275 1
60 276 1
134 276 1
352 276 1
419 276 1
61 277 1
135 277 1
353 277 1
420 277 1
62 278 1
136 278 1
354 278 1
421 278 1
63 279 1
137 279 1
355 279 1
422 279 1
64 280 1
138 280 1
356 280 1
423 280 1
65 281 1
139 281 1
357 281 1
424 281 1
66 282 1
140 282 1
358 282 1
425 282 1
67 283 1
141 283 1
359 283 1
426 283 1
68 284 1
142 284 1
360 284 1
427 284 1
69 285 1
143 285 1
361 285 1
428 285 1
51 286 1
125 286 1
362 286 1
448 286 1
52 287 1
126 287 1
363 287 1
449 287 1
53 288 1
127 288 1
364 288 1
450 288 1
54 289 1
128 289 1
365 289 1
451 289 1
55 290 1
129 290 1
366 290 1
452 290 1
56 291 1
130 291 1
367 291 1
453 291 1
57 292 1
131 292 1
368 292 1
454 292 1
39 293 1
132 293 1
369 293 1
455 293 1
40 294 1
133 294 1
370 294 1
456 294 1
41 295 1
115 295 1
371 295 1
438 295 1
42 296 1
116 296 1
372 296 1
439 296 1
43 297 1
117 297 1
373 297 1
440 297 1
44 298 1
118 298 1
374 298 1
441 298 1
45 299 1
119 299 1
375 299 1
442 299 1
46 300 1
120 300 1
376 300 1
443 300 1
47 301 1
121 301 1
377 301 1
444 301 1
48 302 1
122 302 1
378 302 1
445 302 1
49 303 1
123 303 1
379 303 1
446 303 1
50 304 1
124 304 1
380 304 1
447 304 1
77 305 1
108 305 1
467 305 1
533 305 1
78 306 1
109 306 1
468 306 1
534 306 1
79 307 1
110 307 1
469 307 1
535 307 1
80 308 1
111 308 1
470 308 1
536 308 1
81 309 1
112 309 1
471 309 1
537 309 1
82 310 1
113 310 1
472 310 1
538 310 1
83 311 1
114 311 1
473 311 1
539 311 1
84 312 1
96 312 1
474 312 1
540 312 1
85 313 1
97 313 1
475 313 1
541 313 1
86 314 1
98 314 1
457 314 1
542 314 1
87 315 1
99 315 1
458 315 1
543 315 1
88 316 1
100 316 1
459 316 1
544 316 1
89 317 1
101 317 1
460 317 1
545 317 1
90 318 1
102 318 1
461 318 1
546 318 1
91 319 1
103 319 1
462 319 1
547 319 1
92 320 1
104 320 1
463 320 1
548 320 1
93 321 1
105 321 1
464 321 1
549 321 1
94 322 1
106 322 1
465 322 1
550 322 1
95 323 1
107 323 1
466 323 1
551 323 1
89 324 1
96 324 1
486 324 1
552 324 1
90 325 1
97 325 1
487 325 1
553 325 1
91 326 1
98 326 1
488 326 1
554 326 1
92 327 1
99 327 1
489 327 1
555 327 1
93 328 1
100 328 1
490 328 1
556 328 1
94 329 1
101 329 1
491 329 1
557 329 1
95 330 1
102 330 1
492 330 1
558 330 1
77 331 1
103 331 1
493 331 1
559 331 1
78 332 1
104 332 1
494 332 1
560 332 1
79 333 1
105 333 1
476 333 1
561 333 1
80 334 1
106 334 1
477 334 1
562 334 1
81 335 1
107 335 1
478 335 1
563 335 1
82 336 1
108 336 1
479 336 1
564 336 1
83 337 1
109 337 1
480 337 1
565 337 1
84 338 1
110 338 1
481 338 1
566 338 1
85 339 1
111 339 1
482 339 1
567 339 1
86 340 1
112 340 1
483 340 1
568 340 1
87 341 1
113 341 1
484 341 1
569 341 1
88 342 1
114 342 1
485 342 1
570 342 1
115 343 1
146 343 1
505 343 1
571 343 1
116 344 1
147 344 1
506 344 1
572 344 1
117 345 1
148 345 1
507 345 1
573 345 1
118 346 1
149 346 1
508 346 1
574 346 1
119 347 1
150 347 1
509 347 1
575 347 1
120 348 1
151 348 1
510 348 1
576 348 1
121 349 1
152 349 1
511 349 1
577 349 1
122 350 1
134 350 1
512 350 1
578 350 1
123 351 1
135 351 1
513 351 1
579 351 1
124 352 1
136 352 1
495 352 1
580 352 1
125 353 1
137 353 1
496 353 1
581 353 1
126 354 1
138 354 1
497 354 1
582 354 1
127 355 1
139 355 1
498 355 1
583 355 1
128 356 1
140 356 1
499 356 1
584 356 1
129 357 1
141 357 1
500 357 1
585 357 1
130 358 1
142 358 1
501 358 1
586 358 1
131 359 1
143 359 1
502 359 1
587 359 1
132 360 1
144 360 1
503 360 1
588 360 1
133 361 1
145 361 1
504 361 1
589 361 1
127 362 1
134 362 1
524 362 1
590 362 1
128 363 1
135 363 1
525 363 1
591 363 1
129 364 1
136 364 1
526 364 1
592 364 1
130 365 1
137 365 1
527 365 1
593 365 1
131 366 1
138 366 1
528 366 1
594 366 1
132 367 1
139 367 1
529 367 1
595 367 1
133 368 1
140 368 1
530 368 1
596 368 1
115 369 1
141 369 1
531 369 1
597 369 1
116 370 1
142 370 1
532 370 1
598 370 1
117 371 1
143 371 1
514 371 1
599 371 1
118 372 1
144 372 1
515 372 1
600 372 1
119 373 1
145 373 1
516 373 1
601 373 1
120 374 1
146 374 1
517 374 1
602 374 1
121 375 1
147 375 1
518 375 1
603 375 1
122 376 1
148 376 1
519 376 1
604 376 1
123 377 1
149 377 1
520 377 1
605 377 1
124 378 1
150 378 1
521 378 1
606 378 1
125 379 1
151 379 1
522 379 1
607 379 1
126 380 1
152 380 1
523 380 1
608 380 1
1 381 1
32 381 1
457 381 1
543 381 1
2 382 1
33 382 1
458 382 1
544 382 1
3 383 1
34 383 1
459 383 1
545 383 1
4 384 1
35 384 1
460 384 1
546 384 1
5 385 1
36 385 1
461 385 1
547 385 1
6 386 1
37 386 1
462 386 1
548 386 1
7 387 1
38 387 1
463 387 1
549 387 1
8 388 1
20 388 1
464 388 1
550 388 1
9 389 1
21 389 1
465 389 1
551 389 1
10 390 1
22 390 1
466 390 1
533 390 1
11 391 1
23 391 1
467 391 1
534 391 1
12 392 1
24 392 1
468 392 1
535 392 1
13 393 1
25 393 1
469 393 1
536 393 1
14 394 1
26 394 1
470 394 1
537 394 1
15 395 1
27 395 1
471 395 1
538 395 1
16 396 1
28 396 1
472 396 1
539 396 1
17 397 1
29 397 1
473 397 1
540 397 1
18 398 1
30 398 1
474 398 1
541 398 1
19 399 1
31 399 1
475 399 1
542 399 1
13 400 1
20 400 1
476 400 1
562 400 1
14 401 1
21 401 1
477 401 1
563 401 1
15 402 1
22 402 1
478 402 1
564 402 1
16 403 1
23 403 1
479 403 1
565 403 1
17 404 1
24 404 1
480 404 1
566 404 1
18 405 1
25 405 1
481 405 1
567 405 1
19 406 1
26 406 1
482 406 1
568 406 1
1 407 1
27 407 1
483 407 1
569 407 1
2 408 1
28 408 1
484 408 1
570 408 1
3 409 1
29 409 1
485 409 1
552 409 1
4 410 1
30 410 1
486 410 1
553 410 1
5 411 1
31 411 1
487 411 1
554 411 1
6 412 1
32 412 1
488 412 1
555 412 1
7 413 1
33 413 1
489 413 1
556 413 1
8 414 1
34 414 1
490 414 1
557 414 1
9 415 1
35 415 1
491 415 1
558 415 1
10 416 1
36 416 1
492 416 1
559 416 1
11 417 1
37 417 1
493 417 1
560 417 1
12 418 1
38 418 1
494 418 1
561 418 1
39 419 1
70 419 1
495 419 1
581 419 1
40 420 1
71 420 1
496 420 1
582 420 1
41 421 1
72 421 1
497 421 1
583 421 1
42 422 1
73 422 1
498 422 1
584 422 1
43 423 1
74 423 1
499 423 1
585 423 1
44 424 1
75 424 1
500 424 1
586 424 1
45 425 1
76 425 1
501 425 1
587 425 1
46 426 1
58 426 1
502 426 1
588 426 1
47 427 1
59 427 1
503 427 1
589 427 1
48 428 1
60 428 1
504 428 1
571 428 1
49 429 1
61 429 1
505 429 1
572 429 1
50 430 1
62 430 1
506 430 1
573 430 1
51 431 1
63 431 1
507 431 1
574 431 1
52 432 1
64 432 1
508 432 1
575 432 1
53 433 1
65 433 1
509 433 1
576 433 1
54 434 1
66 434 1
510 434 1
577 434 1
55 435 1
67 435 1
511 435 1
578 435 1
56 436 1
68 436 1
512 436 1
579 436 1
57 437 1
69 437 1
513 437 1
580 437 1
51 438 1
58 438 1
514 438 1
600 438 1
52 439 1
59 439 1
515 439 1
601 439 1
53 440 1
60 440 1
516 440 1
602 440 1
54 441 1
61 441 1
517 441 1
603 441 1
55 442 1
62 442 1
518 442 1
604 442 1
56 443 1
63 443 1
519 443 1
605 443 1
57 444 1
64 444 1
520 444 1
606 444 1
39 445 1
65 445 1
521 445 1
607 445 1
40 446 1
66 446 1
522 446 1
608 446 1
41 447 1
67 447 1
523 447 1
590 447 1
42 448 1
68 448 1
524 448 1
591 448 1
43 449 1
69 449 1
525 449 1
592 449 1
44 450 1
70 450 1
526 450 1
593 450 1
45 451 1
71 451 1
527 451 1
594 451 1
46 452 1
72 452 1
528 452 1
595 452 1
47 453 1
73 453 1
529 453 1
596 453 1
48 454 1
74 454 1
530 454 1
597 454 1
49 455 1
75 455 1
531 455 1
598 455 1
50 456 1
76 456 1
532 456 1
599 456 1
182 457 1
260 457 1
316 457 1
381 457 1
183 458 1
261 458 1
317 458 1
382 458 1
184 459 1
262 459 1
318 459 1
383 459 1
185 460 1
263 460 1
319 460 1
384 460 1
186 461 1
264 461 1
320 461 1
385 461 1
187 462 1
265 462 1
321 462 1
386 462 1
188 463 1
266 463 1
322 463 1
387 463 1
189 464 1
248 464 1
323 464 1
388 464 1
190 465 1
249 465 1
305 465 1
389 465 1
172 466 1
250 466 1
306 466 1
390 466 1
173 467 1
251 467 1
307 467 1
391 467 1
174 468 1
252 468 1
308 468 1
392 468 1
175 469 1
253 469 1
309 469 1
393 469 1
176 470 1
254 470 1
310 470 1
394 470 1
177 471 1
255 471 1
311 471 1
395 471 1
178 472 1
256 472 1
312 472 1
396 472 1
179 473 1
257 473 1
313 473 1
397 473 1
180 474 1
258 474 1
314 474 1
398 474 1
181 475 1
259 475 1
315 475 1
399 475 1
163 476 1
241 476 1
335 476 1
400 476 1
164 477 1
242 477 1
336 477 1
401 477 1
165 478 1
243 478 1
337 478 1
402 478 1
166 479 1
244 479 1
338 479 1
403 479 1
167 480 1
245 480 1
339 480 1
404 480 1
168 481 1
246 481 1
340 481 1
405 481 1
169 482 1
247 482 1
341 482 1
406 482 1
170 483 1
229 483 1
342 483 1
407 483 1
171 484 1
230 484 1
324 484 1
408 484 1
153 485 1
231 485 1
325 485 1
409 485 1
154 486 1
232 486 1
326 486 1
410 486 1
155 487 1
233 487 1
327 487 1
411 487 1
156 488 1
234 488 1
328 488 1
412 488 1
157 489 1
235 489 1
329 489 1
413 489 1
158 490 1
236 490 1
330 490 1
414 490 1
159 491 1
237 491 1
331 491 1
415 491 1
160 492 1
238 492 1
332 492 1
416 492 1
161 493 1
239 493 1
333 493 1
417 493 1
162 494 1
240 494 1
334 494 1
418 494 1
220 495 1
298 495 1
354 495 1
419 495 1
221 496 1
299 496 1
355 496 1
420 496 1
222 497 1
300 497 1
356 497 1
421 497 1
223 498 1
301 498 1
357 498 1
422 498 1
224 499 1
302 499 1
358 499 1
423 499 1
225 500 1
303 500 1
359 500 1
424 500 1
226 501 1
304 501 1
360 501 1
425 501 1
227 502 1
286 502 1
361 502 1
426 502 1
228 503 1
287 503 1
343 503 1
427 503 1
210 504 1
288 504 1
344 504 1
428 504 1
211 505 1
289 505 1
345 505 1
429 505 1
212 506 1
290 506 1
346 506 1
430 506 1
213 507 1
291 507 1
347 507 1
431 507 1
214 508 1
292 508 1
348 508 1
432 508 1
215 509 1
293 509 1
349 509 1
433 509 1
216 510 1
294 510 1
350 510 1
434 510 1
217 511 1
295 511 1
351 511 1
435 511 1
218 512 1
296 512 1
352 512 1
436 512 1
219 513 1
297 513 1
353 513 1
437 513 1
201 514 1
279 514 1
373 514 1
438 514 1
202 515 1
280 515 1
374 515 1
439 515 1
203 516 1
281 516 1
375 516 1
440 516 1
204 517 1
282 517 1
376 517 1
441 517 1
205 518 1
283 518 1
377 518 1
442 518 1
206 519 1
284 519 1
378 519 1
443 519 1
207 520 1
285 520 1
379 520 1
444 520 1
208 521 1
267 521 1
380 521 1
445 521 1
209 522 1
268 522 1
362 522 1
446 522 1
191 523 1
269 523 1
363 523 1
447 523 1
192 524 1
270 524 1
364 524 1
448 524 1
193 525 1
271 525 1
365 525 1
449 525 1
194 526 1
272 526 1
366 526 1
450 526 1
195 527 1
273 527 1
367 527 1
451 527 1
196 528 1
274 528 1
368 528 1
452 528 1
197 529 1
275 529 1
369 529 1
453 529 1
198 530 1
276 530 1
370 530 1
454 530 1
199 531 1
277 531 1
371 531 1
455 531 1
200 532 1
278 532 1
372 532 1
456 532 1
184 533 1
258 533 1
305 533 1
392 533 1
185 534 1
259 534 1
306 534 1
393 534 1
186 535 1
260 535 1
307 535 1
394 535 1
187 536 1
261 536 1
308 536 1
395 536 1
188 537 1
262 537 1
309 537 1
396 537 1
189 538 1
263 538 1
310 538 1
397 538 1
190 539 1
264 539 1
311 539 1
398 539 1
172 540 1
265 540 1
312 540 1
399 540 1
173 541 1
266 541 1
313 541 1
381 541 1
174 542 1
248 542 1
314 542 1
382 542 1
175 543 1
249 543 1
315 543 1
383 543 1
176 544 1
250 544 1
316 544 1
384 544 1
177 545 1
251 545 1
317 545 1
385 545 1
178 546 1
252 546 1
318 546 1
386 546 1
179 547 1
253 547 1
319 547 1
387 547 1
180 548 1
254 548 1
320 548 1
388 548 1
181 549 1
255 549 1
321 549 1
389 549 1
182 550 1
256 550 1
322 550 1
390 550 1
183 551 1
257 551 1
323 551 1
391 551 1
165 552 1
239 552 1
324 552 1
411 552 1
166 553 1
240 553 1
325 553 1
412 553 1
167 554 1
241 554 1
326 554 1
413 554 1
168 555 1
242 555 1
327 555 1
414 555 1
169 556 1
243 556 1
328 556 1
415 556 1
170 557 1
244 557 1
329 557 1
416 557 1
171 558 1
245 558 1
330 558 1
417 558 1
153 559 1
246 559 1
331 559 1
418 559 1
154 560 1
247 560 1
332 560 1
400 560 1
155 561 1
229 561 1
333 561 1
401 561 1
156 562 1
230 562 1
334 562 1
402 562 1
157 563 1
231 563 1
335 563 1
403 563 1
158 564 1
232 564 1
336 564 1
404 564 1
159 565 1
233 565 1
337 565 1
405 565 1
160 566 1
234 566 1
338 566 1
406 566 1
161 567 1
235 567 1
339 567 1
407 567 1
162 568 1
236 568 1
340 568 1
408 568 1
163 569 1
237 569 1
341 569 1
409 569 1
164 570 1
238 570 1
342 570 1
410 570 1
222 571 1
296 571 1
343 571 1
430 571 1
223 572 1
297 572 1
344 572 1
431 572 1
224 573 1
298 573 1
345 573 1
432 573 1
225 574 1
299 574 1
346 574 1
433 574 1
226 575 1
300 575 1
347 575 1
434 575 1
227 576 1
301 576 1
348 576 1
435 576 1
228 577 1
302 577 1
349 577 1
436 577 1
210 578 1
303 578 1
350 578 1
437 578 1
211 579 1
304 579 1
351 579 1
419 579 1
212 580 1
286 580 1
352 580 1
420 580 1
213 581 1
287 581 1
353 581 1
421 581 1
214 582 1
288 582 1
354 582 1
422 582 1
215 583 1
289 583 1
355 583 1
423 583 1
216 584 1
290 584 1
356 584 1
424 584 1
217 585 1
291 585 1
357 585 1
425 585 1
218 586 1
292 586 1
358 586 1
426 586 1
219 587 1
293 587 1
359 587 1
427 587 1
220 588 1
294 588 1
360 588 1
428 588 1
221 589 1
295 589 1
361 589 1
429 589 1
203 590 1
277 590 1
362 590 1
449 590 1
204 591 1
278 591 1
363 591 1
450 591 1
205 592 1
279 592 1
364 592 1
451 592 1
206 593 1
280 593 1
365 593 1
452 593 1
207 594 1
281 594 1
366 594 1
453 594 1
208 595 1
282 595 1
367 595 1
454 595 1
209 596 1
283 596 1
368 596 1
455 596 1
191 597 1
284 597 1
369 597 1
456 597 1
192 598 1
285 598 1
370 598 1
438 598 1
193 599 1
267 599 1
371 599 1
439 599 1
194 600 1
268 600 1
372 600 1
440 600 1
195 601 1
269 601 1
373 601 1
441 601 1
196 602 1
270 602 1
374 602 1
442 602 1
197 603 1
271 603 1
375 603 1
443 603 1
198 604 1
272 604 1
376 604 1
444 604 1
199 605 1
273 605 1
377 605 1
445 605 1
200 606 1
274 606 1
378 606 1
446 606 1
201 607 1
275 607 1
379 607 1
447 607 1
202 608 1
276 608 1
380 608 1
448 608 1
229 609 1
260 609 1
468 609 1
533 609 1
230 610 1
261 610 1
469 610 1
534 610 1
231 611 1
262 611 1
470 611 1
535 611 1
232 612 1
263 612 1
471 612 1
536 612 1
233 613 1
264 613 1
472 613 1
537 613 1
234 614 1
265 614 1
473 614 1
538 614 1
235 615 1
266 615 1
474 615 1
539 615 1
236 616 1
248 616 1
475 616 1
540 616 1
237 617 1
249 617 1
457 617 1
541 617 1
238 618 1
250 618 1
458 618 1
542 618 1
239 619 1
251 619 1
459 619 1
543 619 1
240 620 1
252 620 1
460 620 1
544 620 1
241 621 1
253 621 1
461 621 1
545 621 1
242 622 1
254 622 1
462 622 1
546 622 1
243 623 1
255 623 1
463 623 1
547 623 1
244 624 1
256 624 1
464 624 1
548 624 1
245 625 1
257 625 1
465 625 1
549 625 1
246 626 1
258 626 1
466 626 1
550 626 1
247 627 1
259 627 1
467 627 1
551 627 1
241 628 1
248 628 1
487 628 1
552 628 1
242 629 1
249 629 1
488 629 1
553 629 1
243 630 1
250 630 1
489 630 1
554 630 1
244 631 1
251 631 1
490 631 1
555 631 1
245 632 1
252 632 1
491 632 1
556 632 1
246 633 1
253 633 1
492 633 1
557 633 1
247 634 1
254 634 1
493 634 1
558 634 1
229 635 1
255 635 1
494 635 1
559 635 1
230 636 1
256 636 1
476 636 1
560 636 1
231 637 1
257 637 1
477 637 1
561 637 1
232 638 1
258 638 1
478 638 1
562 638 1
233 639 1
259 639 1
479 639 1
563 639 1
234 640 1
260 640 1
480 640 1
564 640 1
235 641 1
261 641 1
481 641 1
565 641 1
236 642 1
262 642 1
482 642 1
566 642 1
237 643 1
263 643 1
483 643 1
567 643 1
238 644 1
264 644 1
484 644 1
568 644 1
239 645 1
265 645 1
485 645 1
569 645 1
240 646 1
266 646 1
486 646 1
570 646 1
267 647 1
298 647 1
506 647 1
571 647 1
268 648 1
299 648 1
507 648 1
572 648 1
269 649 1
300 649 1
508 649 1
573 649 1
270 650 1
301 650 1
509 650 1
574 650 1
271 651 1
302 651 1
510 651 1
575 651 1
272 652 1
303 652 1
511 652 1
576 652 1
273 653 1
304 653 1
512 653 1
577 653 1
274 654 1
286 654 1
513 654 1
578 654 1
275 655 1
287 655 1
495 655 1
579 655 1
276 656 1
288 656 1
496 656 1
580 656 1
277 657 1
289 657 1
497 657 1
581 657 1
278 658 1
290 658 1
498 658 1
582 658 1
279 659 1
291 659 1
499 659 1
583 659 1
280 660 1
292 660 1
500 660 1
584 660 1
281 661 1
293 661 1
501 661 1
585 661 1
282 662 1
294 662 1
502 662 1
586 662 1
283 663 1
295 663 1
503 663 1
587 663 1
284 664 1
296 664 1
504 664 1
588 664 1
285 665 1
297 665 1
505 665 1
589 665 1
279 666 1
286 666 1
525 666 1
590 666 1
280 667 1
287 667 1
526 667 1
591 667 1
281 668 1
288 668 1
527 668 1
592 668 1
282 669 1
289 669 1
528 669 1
593 669 1
283 670 1
290 670 1
529 670 1
594 670 1
284 671 1
291 671 1
530 671 1
595 671 1
285 672 1
292 672 1
531 672 1
596 672 1
267 673 1
293 673 1
532 673 1
597 673 1
268 674 1
294 674 1
514 674 1
598 674 1
269 675 1
295 675 1
515 675 1
599 675 1
270 676 1
296 676 1
516 676 1
600 676 1
271 677 1
297 677 1
517 677 1
601 677 1
272 678 1
298 678 1
518 678 1
602 678 1
273 679 1
299 679 1
519 679 1
603 679 1
274 680 1
300 680 1
520 680 1
604 680 1
275 681 1
301 681 1
521 681 1
605 681 1
276 682 1
302 682 1
522 682 1
606 682 1
277 683 1
303 683 1
523 683 1
607 683 1
278 684 1
304 684 1
524 684 1
608 684 1
153 685 1
184 685 1
457 685 1
544 685 1
154 686 1
185 686 1
458 686 1
545 686 1
155 687 1
186 687 1
459 687 1
546 687 1
156 688 1
187 688 1
460 688 1
547 688 1
157 689 1
188 689 1
461 689 1
548 689 1
158 690 1
189 690 1
462 690 1
549 690 1
159 691 1
190 691 1
463 691 1
550 691 1
160 692 1
172 692 1
464 692 1
551 692 1
161 693 1
173 693 1
465 693 1
533 693 1
162 694 1
174 694 1
466 694 1
534 694 1
163 695 1
175 695 1
467 695 1
535 695 1
164 696 1
176 696 1
468 696 1
536 696 1
165 697 1
177 697 1
469 697 1
537 697 1
166 698 1
178 698 1
470 698 1
538 698 1
167 699 1
179 699 1
471 699 1
539 699 1
168 700 1
180 700 1
472 700 1
540 700 1
169 701 1
181 701 1
473 701 1
541 701 1
170 702 1
182 702 1
474 702 1
542 702 1
171 703 1
183 703 1
475 703 1
543 703 1
165 704 1
172 704 1
476 704 1
563 704 1
166 705 1
173 705 1
477 705 1
564 705 1
167 706 1
174 706 1
478 706 1
565 706 1
168 707 1
175 707 1
479 707 1
566 707 1
169 708 1
176 708 1
480 708 1
567 708 1
170 709 1
177 709 1
481 709 1
568 709 1
171 710 1
178 710 1
482 710 1
569 710 1
153 711 1
179 711 1
483 711 1
570 711 1
154 712 1
180 712 1
484 712 1
552 712 1
155 713 1
181 713 1
485 713 1
553 713 1
156 714 1
182 714 1
486 714 1
554 714 1
157 715 1
183 715 1
487 715 1
555 715 1
158 716 1
184 716 1
488 716 1
556 716 1
159 717 1
185 717 1
489 717 1
557 717 1
160 718 1
186 718 1
490 718 1
558 718 1
161 719 1
187 719 1
491 719 1
559 719 1
162 720 1
188 720 1
492 720 1
560 720 1
163 721 1
189 721 1
493 721 1
561 721 1
164 722 1
190 722 1
494 722 1
562 722 1
191 723 1
222 723 1
495 723 1
582 723 1
192 724 1
223 724 1
496 724 1
583 724 1
193 725 1
224 725 1
497 725 1
584 725 1
194 726 1
225 726 1
498 726 1
585 726 1
195 727 1
226 727 1
499 727 1
586 727 1
196 728 1
227 728 1
500 728 1
587 728 1
197 729 1
228 729 1
501 729 1
588 729 1
198 730 1
210 730 1
502 730 1
589 730 1
199 731 1
211 731 1
503 731 1
571 731 1
200 732 1
212 732 1
504 732 1
572 732 1
201 733 1
213 733 1
505 733 1
573 733 1
202 734 1
214 734 1
506 734 1
574 734 1
203 735 1
215 735 1
507 735 1
575 735 1
204 736 1
216 736 1
508 736 1
576 736 1
205 737 1
217 737 1
509 737 1
577 737 1
206 738 1
218 738 1
510 738 1
578 738 1
207 739 1
219 739 1
511 739 1
579 739 1
208 740 1
220 740 1
512 740 1
580 740 1
209 741 1
221 741 1
513 741 1
581 741 1
203 742 1
210 742 1
514 742 1
601 742 1
204 743 1
211 743 1
515 743 1
602 743 1
205 744 1
212 744 1
516 744 1
603 744 1
206 745 1
213 745 1
517 745 1
604 745 1
207 746 1
214 746 1
518 746 1
605 746 1
208 747 1
215 747 1
519 747 1
606 747 1
209 748 1
216 748 1
520 748 1
607 748 1
191 749 1
217 749 1
521 749 1
608 749 1
192 750 1
218 750 1
522 750 1
590 750 1
193 751 1
219 751 1
523 751 1
591 751 1
194 752 1
220 752 1
524 752 1
592 752 1
195 753 1
221 753 1
525 753 1
593 753 1
196 754 1
222 754 1
526 754 1
594 754 1
197 755 1
223 755 1
527 755 1
595 755 1
198 756 1
224 756 1
528 756 1
596 756 1
199 757 1
225 757 1
529 757 1
597 757 1
200 758 1
226 758 1
530 758 1
598 758 1
201 759 1
227 759 1
531 759 1
599 759 1
202 760 1
228 760 1
532 760 1
600 760 1
381 761 1
412 761 1
486 761 1
564 761 1
382 762 1
413 762 1
487 762 1
565 762 1
383 763 1
414 763 1
488 763 1
566 763 1
384 764 1
415 764 1
489 764 1
567 764 1
385 765 1
416 765 1
490 765 1
568 765 1
386 766 1
417 766 1
491 766 1
569 766 1
387 767 1
418 767 1
492 767 1
570 767 1
388 768 1
400 768 1
493 768 1
552 768 1
389 769 1
401 769 1
494 769 1
553 769 1
390 770 1
402 770 1
476 770 1
554 770 1
391 771 1
403 771 1
477 771 1
555 771 1
392 772 1
404 772 1
478 772 1
556 772 1
393 773 1
405 773 1
479 773 1
557 773 1
394 774 1
406 774 1
480 774 1
558 774 1
395 775 1
407 775 1
481 775 1
559 775 1
396 776 1
408 776 1
482 776 1
560 776 1
397 777 1
409 777 1
483 777 1
561 777 1
398 778 1
410 778 1
484 778 1
562 778 1
399 779 1
411 779 1
485 779 1
563 779 1
393 780 1
400 780 1
467 780 1
545 780 1
394 781 1
401 781 1
468 781 1
546 781 1
395 782 1
402 782 1
469 782 1
547 782 1
396 783 1
403 783 1
470 783 1
548 783 1
397 784 1
404 784 1
471 784 1
549 784 1
398 785 1
405 785 1
472 785 1
550 785 1
399 786 1
406 786 1
473 786 1
551 786 1
381 787 1
407 787 1
474 787 1
533 787 1
382 788 1
408 788 1
475 788 1
534 788 1
383 789 1
409 789 1
457 789 1
535 789 1
384 790 1
410 790 1
458 790 1
536 790 1
385 791 1
411 791 1
459 791 1
537 791 1
386 792 1
412 792 1
460 792 1
538 792 1
387 793 1
413 793 1
461 793 1
539 793 1
388 794 1
414 794 1
462 794 1
540 794 1
389 795 1
415 795 1
463 795 1
541 795 1
390 796 1
416 796 1
464 796 1
542 796 1
391 797 1
417 797 1
465 797 1
543 797 1
392 798 1
418 798 1
466 798 1
544 798 1
419 799 1
450 799 1
524 799 1
602 799 1
420 800 1
451 800 1
525 800 1
603 800 1
421 801 1
452 801 1
526 801 1
604 801 1
422 802 1
453 802 1
527 802 1
605 802 1
423 803 1
454 803 1
528 803 1
606 803 1
424 804 1
455 804 1
529 804 1
607 804 1
425 805 1
456 805 1
530 805 1
608 805 1
426 806 1
438 806 1
531 806 1
590 806 1
427 807 1
439 807 1
532 807 1
591 807 1
428 808 1
440 808 1
514 808 1
592 808 1
429 809 1
441 809 1
515 809 1
593 809 1
430 810 1
442 810 1
516 810 1
594 810 1
431 811 1
443 811 1
517 811 1
595 811 1
432 812 1
444 812 1
518 812 1
596 812 1
433 813 1
445 813 1
519 813 1
597 813 1
434 814 1
446 814 1
520 814 1
598 814 1
435 815 1
447 815 1
521 815 1
599 815 1
436 816 1
448 816 1
522 816 1
600 816 1
437 817 1
449 817 1
523 817 1
601 817 1
431 818 1
438 818 1
505 818 1
583 818 1
432 819 1
439 819 1
506 819 1
584 819 1
433 820 1
440 820 1
507 820 1
585 820 1
434 821 1
441 821 1
508 821 1
586 821 1
435 822 1
442 822 1
509 822 1
587 822 1
436 823 1
443 823 1
510 823 1
588 823 1
437 824 1
444 824 1
511 824 1
589 824 1
419 825 1
445 825 1
512 825 1
571 825 1
420 826 1
446 826 1
513 826 1
572 826 1
421 827 1
447 827 1
495 827 1
573 827 1
422 828 1
448 828 1
496 828 1
574 828 1
423 829 1
449 829 1
497 829 1
575 829 1
424 830 1
450 830 1
498 830 1
576 830 1
425 831 1
451 831 1
499 831 1
577 831 1
426 832 1
452 832 1
500 832 1
578 832 1
427 833 1
453 833 1
501 833 1
579 833 1
428 834 1
454 834 1
502 834 1
580 834 1
429 835 1
455 835 1
503 835 1
581 835 1
430 836 1
456 836 1
504 836 1
582 836 1
305 837 1
336 837 1
488 837 1
562 837 1
306 838 1
337 838 1
489 838 1
563 838 1
307 839 1
338 839 1
490 839 1
564 839 1
308 840 1
339 840 1
491 840 1
565 840 1
309 841 1
340 841 1
492 841 1
566 841 1
310 842 1
341 842 1
493 842 1
567 842 1
311 843 1
342 843 1
494 843 1
568 843 1
312 844 1
324 844 1
476 844 1
569 844 1
313 845 1
325 845 1
477 845 1
570 845 1
314 846 1
326 846 1
478 846 1
552 846 1
315 847 1
327 847 1
479 847 1
553 847 1
316 848 1
328 848 1
480 848 1
554 848 1
317 849 1
329 849 1
481 849 1
555 849 1
318 850 1
330 850 1
482 850 1
556 850 1
319 851 1
331 851 1
483 851 1
557 851 1
320 852 1
332 852 1
484 852 1
558 852 1
321 853 1
333 853 1
485 853 1
559 853 1
322 854 1
334 854 1
486 854 1
560 854 1
323 855 1
335 855 1
487 855 1
561 855 1
317 856 1
324 856 1
469 856 1
543 856 1
318 857 1
325 857 1
470 857 1
544 857 1
319 858 1
326 858 1
471 858 1
545 858 1
320 859 1
327 859 1
472 859 1
546 859 1
321 860 1
328 860 1
473 860 1
547 860 1
322 861 1
329 861 1
474 861 1
548 861 1
323 862 1
330 862 1
475 862 1
549 862 1
305 863 1
331 863 1
457 863 1
550 863 1
306 864 1
332 864 1
458 864 1
551 864 1
307 865 1
333 865 1
459 865 1
533 865 1
308 866 1
334 866 1
460 866 1
534 866 1
309 867 1
335 867 1
461 867 1
535 867 1
310 868 1
336 868 1
462 868 1
536 868 1
311 869 1
337 869 1
463 869 1
537 869 1
312 870 1
338 870 1
464 870 1
538 870 1
313 871 1
339 871 1
465 871 1
539 871 1
314 872 1
340 872 1
466 872 1
540 872 1
315 873 1
341 873 1
467 873 1
541 873 1
316 874 1
342 874 1
468 874 1
542 874 1
343 875 1
374 875 1
526 875 1
600 875 1
344 876 1
375 876 1
527 876 1
601 876 1
345 877 1
376 877 1
528 877 1
602 877 1
346 878 1
377 878 1
529 878 1
603 878 1
347 879 1
378 879 1
530 879 1
604 879 1
348 880 1
379 880 1
531 880 1
605 880 1
349 881 1
380 881 1
532 881 1
606 881 1
350 882 1
362 882 1
514 882 1
607 882 1
351 883 1
363 883 1
515 883 1
608 883 1
352 884 1
364 884 1
516 884 1
590 884 1
353 885 1
365 885 1
517 885 1
591 885 1
354 886 1
366 886 1
518 886 1
592 886 1
355 887 1
367 887 1
519 887 1
593 887 1
356 888 1
368 888 1
520 888 1
594 888 1
357 889 1
369 889 1
521 889 1
595 889 1
358 890 1
370 890 1
522 890 1
596 890 1
359 891 1
371 891 1
523 891 1
597 891 1
360 892 1
372 892 1
524 892 1
598 892 1
361 893 1
373 893 1
525 893 1
599 893 1
355 894 1
362 894 1
507 894 1
581 894 1
356 895 1
363 895 1
508 895 1
582 895 1
357 896 1
364 896 1
509 896 1
583 896 1
358 897 1
365 897 1
510 897 1
584 897 1
359 898 1
366 898 1
511 898 1
585 898 1
360 899 1
367 899 1
512 899 1
586 899 1
361 900 1
368 900 1
513 900 1
587 900 1
343 901 1
369 901 1
495 901 1
588 901 1
344 902 1
370 902 1
496 902 1
589 902 1
345 903 1
371 903 1
497 903 1
571 903 1
346 904 1
372 904 1
498 904 1
572 904 1
347 905 1
373 905 1
499 905 1
573 905 1
348 906 1
374 906 1
500 906 1
574 906 1
349 907 1
375 907 1
501 907 1
575 907 1
350 908 1
376 908 1
502 908 1
576 908 1
351 909 1
377 909 1
503 909 1
577 909 1
352 910 1
378 910 1
504 910 1
578 910 1
353 911 1
379 911 1
505 911 1
579 911 1
354 912 1
380 912 1
506 912 1
580 912 1
