%%MatrixMarket matrix coordinate integer general
% Binary matrix; one-based indices; arithmetic over GF(2)
690 920 5520
1 1 1
34 1 1
47 1 1
78 1 1
231 1 1
234 1 1
2 2 1
35 2 1
48 2 1
79 2 1
232 2 1
235 2 1
3 3 1
36 3 1
49 3 1
80 3 1
233 3 1
236 3 1
4 4 1
37 4 1
50 4 1
81 4 1
234 4 1
237 4 1
5 5 1
38 5 1
51 5 1
82 5 1
235 5 1
238 5 1
6 6 1
39 6 1
52 6 1
83 6 1
236 6 1
239 6 1
7 7 1
40 7 1
53 7 1
84 7 1
237 7 1
240 7 1
8 8 1
41 8 1
54 8 1
85 8 1
238 8 1
241 8 1
9 9 1
42 9 1
55 9 1
86 9 1
239 9 1
242 9 1
10 10 1
43 10 1
56 10 1
87 10 1
240 10 1
243 10 1
11 11 1
44 11 1
57 11 1
88 11 1
241 11 1
244 11 1
12 12 1
45 12 1
58 12 1
89 12 1
242 12 1
245 12 1
13 13 1
46 13 1
59 13 1
90 13 1
243 13 1
246 13 1
1 14 1
14 14 1
60 14 1
91 14 1
244 14 1
247 14 1
2 15 1
15 15 1
61 15 1
92 15 1
245 15 1
248 15 1
3 16 1
16 16 1
47 16 1
62 16 1
246 16 1
249 16 1
4 17 1
17 17 1
48 17 1
63 17 1
247 17 1
250 17 1
5 18 1
18 18 1
49 18 1
64 18 1
248 18 1
251 18 1
6 19 1
19 19 1
50 19 1
65 19 1
249 19 1
252 19 1
7 20 1
20 20 1
51 20 1
66 20 1
250 20 1
253 20 1
8 21 1
21 21 1
52 21 1
67 21 1
251 21 1
254 21 1
9 22 1
22 22 1
53 22 1
68 22 1
252 22 1
255 22 1
10 23 1
23 23 1
54 23 1
69 23 1
253 23 1
256 23 1
11 24 1
24 24 1
55 24 1
70 24 1
254 24 1
257 24 1
12 25 1
25 25 1
56 25 1
71 25 1
255 25 1
258 25 1
13 26 1
26 26 1
57 26 1
72 26 1
256 26 1
259 26 1
14 27 1
27 27 1
58 27 1
73 27 1
257 27 1
260 27 1
15 28 1
28 28 1
59 28 1
74 28 1
258 28 1
261 28 1
16 29 1
29 29 1
60 29 1
75 29 1
259 29 1
262 29 1
17 30 1
30 30 1
61 30 1
76 30 1
260 30 1
263 30 1
18 31 1
31 31 1
62 31 1
77 31 1
261 31 1
264 31 1
19 32 1
32 32 1
63 32 1
78 32 1
262 32 1
265 32 1
20 33 1
33 33 1
64 33 1
79 33 1
263 33 1
266 33 1
21 34 1
34 34 1
65 34 1
80 34 1
264 34 1
267 34 1
22 35 1
35 35 1
66 35 1
81 35 1
265 35 1
268 35 1
23 36 1
36 36 1
67 36 1
82 36 1
266 36 1
269 36 1
24 37 1
37 37 1
68 37 1
83 37 1
267 37 1
270 37 1
25 38 1
38 38 1
69 38 1
84 38 1
268 38 1
271 38 1
26 39 1
39 39 1
70 39 1
85 39 1
269 39 1
272 39 1
27 40 1
40 40 1
71 40 1
86 40 1
270 40 1
273 40 1
28 41 1
41 41 1
72 41 1
87 41 1
271 41 1
274 41 1
29 42 1
42 42 1
73 42 1
88 42 1
272 42 1
275 42 1
30 43 1
43 43 1
74 43 1
89 43 1
273 43 1
276 43 1
31 44 1
44 44 1
75 44 1
90 44 1
231 44 1
274 44 1
32 45 1
45 45 1
76 45 1
91 45 1
232 45 1
275 45 1
33 46 1
46 46 1
77 46 1
92 46 1
233 46 1
276 46 1
1 47 1
35 47 1
93 47 1
124 47 1
277 47 1
280 47 1
2 48 1
36 48 1
94 48 1
125 48 1
278 48 1
281 48 1
3 49 1
37 49 1
95 49 1
126 49 1
279 49 1
282 49 1
4 50 1
38 50 1
96 50 1
127 50 1
280 50 1
283 50 1
5 51 1
39 51 1
97 51 1
128 51 1
281 51 1
284 51 1
6 52 1
40 52 1
98 52 1
129 52 1
282 52 1
285 52 1
7 53 1
41 53 1
99 53 1
130 53 1
283 53 1
286 53 1
8 54 1
42 54 1
100 54 1
131 54 1
284 54 1
287 54 1
9 55 1
43 55 1
101 55 1
132 55 1
285 55 1
288 55 1
10 56 1
44 56 1
102 56 1
133 56 1
286 56 1
289 56 1
11 57 1
45 57 1
103 57 1
134 57 1
287 57 1
290 57 1
12 58 1
46 58 1
104 58 1
135 58 1
288 58 1
291 58 1
1 59 1
13 59 1
105 59 1
136 59 1
289 59 1
292 59 1
2 60 1
14 60 1
106 60 1
137 60 1
290 60 1
293 60 1
3 61 1
15 61 1
107 61 1
138 61 1
291 61 1
294 61 1
4 62 1
16 62 1
93 62 1
108 62 1
292 62 1
295 62 1
5 63 1
17 63 1
94 63 1
109 63 1
293 63 1
296 63 1
6 64 1
18 64 1
95 64 1
110 64 1
294 64 1
297 64 1
7 65 1
19 65 1
96 65 1
111 65 1
295 65 1
298 65 1
8 66 1
20 66 1
97 66 1
112 66 1
296 66 1
299 66 1
9 67 1
21 67 1
98 67 1
113 67 1
297 67 1
300 67 1
10 68 1
22 68 1
99 68 1
114 68 1
298 68 1
301 68 1
11 69 1
23 69 1
100 69 1
115 69 1
299 69 1
302 69 1
12 70 1
24 70 1
101 70 1
116 70 1
300 70 1
303 70 1
13 71 1
25 71 1
102 71 1
117 71 1
301 71 1
304 71 1
14 72 1
26 72 1
103 72 1
118 72 1
302 72 1
305 72 1
15 73 1
27 73 1
104 73 1
119 73 1
303 73 1
306 73 1
16 74 1
28 74 1
105 74 1
120 74 1
304 74 1
307 74 1
17 75 1
29 75 1
106 75 1
121 75 1
305 75 1
308 75 1
18 76 1
30 76 1
107 76 1
122 76 1
306 76 1
309 76 1
19 77 1
31 77 1
108 77 1
123 77 1
307 77 1
310 77 1
20 78 1
32 78 1
109 78 1
124 78 1
308 78 1
311 78 1
21 79 1
33 79 1
110 79 1
125 79 1
309 79 1
312 79 1
22 80 1
34 80 1
111 80 1
126 80 1
310 80 1
313 80 1
23 81 1
35 81 1
112 81 1
127 81 1
311 81 1
314 81 1
24 82 1
36 82 1
113 82 1
128 82 1
312 82 1
315 82 1
25 83 1
37 83 1
114 83 1
129 83 1
313 83 1
316 83 1
26 84 1
38 84 1
115 84 1
130 84 1
314 84 1
317 84 1
27 85 1
39 85 1
116 85 1
131 85 1
315 85 1
318 85 1
28 86 1
40 86 1
117 86 1
132 86 1
316 86 1
319 86 1
29 87 1
41 87 1
118 87 1
133 87 1
317 87 1
320 87 1
30 88 1
42 88 1
119 88 1
134 88 1
318 88 1
321 88 1
31 89 1
43 89 1
120 89 1
135 89 1
319 89 1
322 89 1
32 90 1
44 90 1
121 90 1
136 90 1
277 90 1
320 90 1
33 91 1
45 91 1
122 91 1
137 91 1
278 91 1
321 91 1
34 92 1
46 92 1
123 92 1
138 92 1
279 92 1
322 92 1
1 93 1
37 93 1
139 93 1
170 93 1
323 93 1
326 93 1
2 94 1
38 94 1
140 94 1
171 94 1
324 94 1
327 94 1
3 95 1
39 95 1
141 95 1
172 95 1
325 95 1
328 95 1
4 96 1
40 96 1
142 96 1
173 96 1
326 96 1
329 96 1
5 97 1
41 97 1
143 97 1
174 97 1
327 97 1
330 97 1
6 98 1
42 98 1
144 98 1
175 98 1
328 98 1
331 98 1
7 99 1
43 99 1
145 99 1
176 99 1
329 99 1
332 99 1
8 100 1
44 100 1
146 100 1
177 100 1
330 100 1
333 100 1
9 101 1
45 101 1
147 101 1
178 101 1
331 101 1
334 101 1
10 102 1
46 102 1
148 102 1
179 102 1
332 102 1
335 102 1
1 103 1
11 103 1
149 103 1
180 103 1
333 103 1
336 103 1
2 104 1
12 104 1
150 104 1
181 104 1
334 104 1
337 104 1
3 105 1
13 105 1
151 105 1
182 105 1
335 105 1
338 105 1
4 106 1
14 106 1
152 106 1
183 106 1
336 106 1
339 106 1
5 107 1
15 107 1
153 107 1
184 107 1
337 107 1
340 107 1
6 108 1
16 108 1
139 108 1
154 108 1
338 108 1
341 108 1
7 109 1
17 109 1
140 109 1
155 109 1
339 109 1
342 109 1
8 110 1
18 110 1
141 110 1
156 110 1
340 110 1
343 110 1
9 111 1
19 111 1
142 111 1
157 111 1
341 111 1
344 111 1
10 112 1
20 112 1
143 112 1
158 112 1
342 112 1
345 112 1
11 113 1
21 113 1
144 113 1
159 113 1
343 113 1
346 113 1
12 114 1
22 114 1
145 114 1
160 114 1
344 114 1
347 114 1
13 115 1
23 115 1
146 115 1
161 115 1
345 115 1
348 115 1
14 116 1
24 116 1
147 116 1
162 116 1
346 116 1
349 116 1
15 117 1
25 117 1
148 117 1
163 117 1
347 117 1
350 117 1
16 118 1
26 118 1
149 118 1
164 118 1
348 118 1
351 118 1
17 119 1
27 119 1
150 119 1
165 119 1
349 119 1
352 119 1
18 120 1
28 120 1
151 120 1
166 120 1
350 120 1
353 120 1
19 121 1
29 121 1
152 121 1
167 121 1
351 121 1
354 121 1
20 122 1
30 122 1
153 122 1
168 122 1
352 122 1
355 122 1
21 123 1
31 123 1
154 123 1
169 123 1
353 123 1
356 123 1
22 124 1
32 124 1
155 124 1
170 124 1
354 124 1
357 124 1
23 125 1
33 125 1
156 125 1
171 125 1
355 125 1
358 125 1
24 126 1
34 126 1
157 126 1
172 126 1
356 126 1
359 126 1
25 127 1
35 127 1
158 127 1
173 127 1
357 127 1
360 127 1
26 128 1
36 128 1
159 128 1
174 128 1
358 128 1
361 128 1
27 129 1
37 129 1
160 129 1
175 129 1
359 129 1
362 129 1
28 130 1
38 130 1
161 130 1
176 130 1
360 130 1
363 130 1
29 131 1
39 131 1
162 131 1
177 131 1
361 131 1
364 131 1
30 132 1
40 132 1
163 132 1
178 132 1
362 132 1
365 132 1
31 133 1
41 133 1
164 133 1
179 133 1
363 133 1
366 133 1
32 134 1
42 134 1
165 134 1
180 134 1
364 134 1
367 134 1
33 135 1
43 135 1
166 135 1
181 135 1
365 135 1
368 135 1
34 136 1
44 136 1
167 136 1
182 136 1
323 136 1
366 136 1
35 137 1
45 137 1
168 137 1
183 137 1
324 137 1
367 137 1
36 138 1
46 138 1
169 138 1
184 138 1
325 138 1
368 138 1
1 139 1
46 139 1
185 139 1
216 139 1
369 139 1
372 139 1
1 140 1
2 140 1
186 140 1
217 140 1
370 140 1
373 140 1
2 141 1
3 141 1
187 141 1
218 141 1
371 141 1
374 141 1
3 142 1
4 142 1
188 142 1
219 142 1
372 142 1
375 142 1
4 143 1
5 143 1
189 143 1
220 143 1
373 143 1
376 143 1
5 144 1
6 144 1
190 144 1
221 144 1
374 144 1
377 144 1
6 145 1
7 145 1
191 145 1
222 145 1
375 145 1
378 145 1
7 146 1
8 146 1
192 146 1
223 146 1
376 146 1
379 146 1
8 147 1
9 147 1
193 147 1
224 147 1
377 147 1
380 147 1
9 148 1
10 148 1
194 148 1
225 148 1
378 148 1
381 148 1
10 149 1
11 149 1
195 149 1
226 149 1
379 149 1
382 149 1
11 150 1
12 150 1
196 150 1
227 150 1
380 150 1
383 150 1
12 151 1
13 151 1
197 151 1
228 151 1
381 151 1
384 151 1
13 152 1
14 152 1
198 152 1
229 152 1
382 152 1
385 152 1
14 153 1
15 153 1
199 153 1
230 153 1
383 153 1
386 153 1
15 154 1
16 154 1
185 154 1
200 154 1
384 154 1
387 154 1
16 155 1
17 155 1
186 155 1
201 155 1
385 155 1
388 155 1
17 156 1
18 156 1
187 156 1
202 156 1
386 156 1
389 156 1
18 157 1
19 157 1
188 157 1
203 157 1
387 157 1
390 157 1
19 158 1
20 158 1
189 158 1
204 158 1
388 158 1
391 158 1
20 159 1
21 159 1
190 159 1
205 159 1
389 159 1
392 159 1
21 160 1
22 160 1
191 160 1
206 160 1
390 160 1
393 160 1
22 161 1
23 161 1
192 161 1
207 161 1
391 161 1
394 161 1
23 162 1
24 162 1
193 162 1
208 162 1
392 162 1
395 162 1
24 163 1
25 163 1
194 163 1
209 163 1
393 163 1
396 163 1
25 164 1
26 164 1
195 164 1
210 164 1
394 164 1
397 164 1
26 165 1
27 165 1
196 165 1
211 165 1
395 165 1
398 165 1
27 166 1
28 166 1
197 166 1
212 166 1
396 166 1
399 166 1
28 167 1
29 167 1
198 167 1
213 167 1
397 167 1
400 167 1
29 168 1
30 168 1
199 168 1
214 168 1
398 168 1
401 168 1
30 169 1
31 169 1
200 169 1
215 169 1
399 169 1
402 169 1
31 170 1
32 170 1
201 170 1
216 170 1
400 170 1
403 170 1
32 171 1
33 171 1
202 171 1
217 171 1
401 171 1
404 171 1
33 172 1
34 172 1
203 172 1
218 172 1
402 172 1
405 172 1
34 173 1
35 173 1
204 173 1
219 173 1
403 173 1
406 173 1
35 174 1
36 174 1
205 174 1
220 174 1
404 174 1
407 174 1
36 175 1
37 175 1
206 175 1
221 175 1
405 175 1
408 175 1
37 176 1
38 176 1
207 176 1
222 176 1
406 176 1
409 176 1
38 177 1
39 177 1
208 177 1
223 177 1
407 177 1
410 177 1
39 178 1
40 178 1
209 178 1
224 178 1
408 178 1
411 178 1
40 179 1
41 179 1
210 179 1
225 179 1
409 179 1
412 179 1
41 180 1
42 180 1
211 180 1
226 180 1
410 180 1
413 180 1
42 181 1
43 181 1
212 181 1
227 181 1
411 181 1
414 181 1
43 182 1
44 182 1
213 182 1
228 182 1
369 182 1
412 182 1
44 183 1
45 183 1
214 183 1
229 183 1
370 183 1
413 183 1
45 184 1
46 184 1
215 184 1
230 184 1
371 184 1
414 184 1
47 185 1
81 185 1
93 185 1
126 185 1
415 185 1
418 185 1
48 186 1
82 186 1
94 186 1
127 186 1
416 186 1
419 186 1
49 187 1
83 187 1
95 187 1
128 187 1
417 187 1
420 187 1
50 188 1
84 188 1
96 188 1
129 188 1
418 188 1
421 188 1
51 189 1
85 189 1
97 189 1
130 189 1
419 189 1
422 189 1
52 190 1
86 190 1
98 190 1
131 190 1
420 190 1
423 190 1
53 191 1
87 191 1
99 191 1
132 191 1
421 191 1
424 191 1
54 192 1
88 192 1
100 192 1
133 192 1
422 192 1
425 192 1
55 193 1
89 193 1
101 193 1
134 193 1
423 193 1
426 193 1
56 194 1
90 194 1
102 194 1
135 194 1
424 194 1
427 194 1
57 195 1
91 195 1
103 195 1
136 195 1
425 195 1
428 195 1
58 196 1
92 196 1
104 196 1
137 196 1
426 196 1
429 196 1
47 197 1
59 197 1
105 197 1
138 197 1
427 197 1
430 197 1
48 198 1
60 198 1
93 198 1
106 198 1
428 198 1
431 198 1
49 199 1
61 199 1
94 199 1
107 199 1
429 199 1
432 199 1
50 200 1
62 200 1
95 200 1
108 200 1
430 200 1
433 200 1
51 201 1
63 201 1
96 201 1
109 201 1
431 201 1
434 201 1
52 202 1
64 202 1
97 202 1
110 202 1
432 202 1
435 202 1
53 203 1
65 203 1
98 203 1
111 203 1
433 203 1
436 203 1
54 204 1
66 204 1
99 204 1
112 204 1
434 204 1
437 204 1
55 205 1
67 205 1
100 205 1
113 205 1
435 205 1
438 205 1
56 206 1
68 206 1
101 206 1
114 206 1
436 206 1
439 206 1
57 207 1
69 207 1
102 207 1
115 207 1
437 207 1
440 207 1
58 208 1
70 208 1
103 208 1
116 208 1
438 208 1
441 208 1
59 209 1
71 209 1
104 209 1
117 209 1
439 209 1
442 209 1
60 210 1
72 210 1
105 210 1
118 210 1
440 210 1
443 210 1
61 211 1
73 211 1
106 211 1
119 211 1
441 211 1
444 211 1
62 212 1
74 212 1
107 212 1
120 212 1
442 212 1
445 212 1
63 213 1
75 213 1
108 213 1
121 213 1
443 213 1
446 213 1
64 214 1
76 214 1
109 214 1
122 214 1
444 214 1
447 214 1
65 215 1
77 215 1
110 215 1
123 215 1
445 215 1
448 215 1
66 216 1
78 216 1
111 216 1
124 216 1
446 216 1
449 216 1
67 217 1
79 217 1
112 217 1
125 217 1
447 217 1
450 217 1
68 218 1
80 218 1
113 218 1
126 218 1
448 218 1
451 218 1
69 219 1
81 219 1
114 219 1
127 219 1
449 219 1
452 219 1
70 220 1
82 220 1
115 220 1
128 220 1
450 220 1
453 220 1
71 221 1
83 221 1
116 221 1
129 221 1
451 221 1
454 221 1
72 222 1
84 222 1
117 222 1
130 222 1
452 222 1
455 222 1
73 223 1
85 223 1
118 223 1
131 223 1
453 223 1
456 223 1
74 224 1
86 224 1
119 224 1
132 224 1
454 224 1
457 224 1
75 225 1
87 225 1
120 225 1
133 225 1
455 225 1
458 225 1
76 226 1
88 226 1
121 226 1
134 226 1
456 226 1
459 226 1
77 227 1
89 227 1
122 227 1
135 227 1
457 227 1
460 227 1
78 228 1
90 228 1
123 228 1
136 228 1
415 228 1
458 228 1
79 229 1
91 229 1
124 229 1
137 229 1
416 229 1
459 229 1
80 230 1
92 230 1
125 230 1
138 230 1
417 230 1
460 230 1
47 231 1
83 231 1
139 231 1
172 231 1
461 231 1
464 231 1
48 232 1
84 232 1
140 232 1
173 232 1
462 232 1
465 232 1
49 233 1
85 233 1
141 233 1
174 233 1
463 233 1
466 233 1
50 234 1
86 234 1
142 234 1
175 234 1
464 234 1
467 234 1
51 235 1
87 235 1
143 235 1
176 235 1
465 235 1
468 235 1
52 236 1
88 236 1
144 236 1
177 236 1
466 236 1
469 236 1
53 237 1
89 237 1
145 237 1
178 237 1
467 237 1
470 237 1
54 238 1
90 238 1
146 238 1
179 238 1
468 238 1
471 238 1
55 239 1
91 239 1
147 239 1
180 239 1
469 239 1
472 239 1
56 240 1
92 240 1
148 240 1
181 240 1
470 240 1
473 240 1
47 241 1
57 241 1
149 241 1
182 241 1
471 241 1
474 241 1
48 242 1
58 242 1
150 242 1
183 242 1
472 242 1
475 242 1
49 243 1
59 243 1
151 243 1
184 243 1
473 243 1
476 243 1
50 244 1
60 244 1
139 244 1
152 244 1
474 244 1
477 244 1
51 245 1
61 245 1
140 245 1
153 245 1
475 245 1
478 245 1
52 246 1
62 246 1
141 246 1
154 246 1
476 246 1
479 246 1
53 247 1
63 247 1
142 247 1
155 247 1
477 247 1
480 247 1
54 248 1
64 248 1
143 248 1
156 248 1
478 248 1
481 248 1
55 249 1
65 249 1
144 249 1
157 249 1
479 249 1
482 249 1
56 250 1
66 250 1
145 250 1
158 250 1
480 250 1
483 250 1
57 251 1
67 251 1
146 251 1
159 251 1
481 251 1
484 251 1
58 252 1
68 252 1
147 252 1
160 252 1
482 252 1
485 252 1
59 253 1
69 253 1
148 253 1
161 253 1
483 253 1
486 253 1
60 254 1
70 254 1
149 254 1
162 254 1
484 254 1
487 254 1
61 255 1
71 255 1
150 255 1
163 255 1
485 255 1
488 255 1
62 256 1
72 256 1
151 256 1
164 256 1
486 256 1
489 256 1
63 257 1
73 257 1
152 257 1
165 257 1
487 257 1
490 257 1
64 258 1
74 258 1
153 258 1
166 258 1
488 258 1
491 258 1
65 259 1
75 259 1
154 259 1
167 259 1
489 259 1
492 259 1
66 260 1
76 260 1
155 260 1
168 260 1
490 260 1
493 260 1
67 261 1
77 261 1
156 261 1
169 261 1
491 261 1
494 261 1
68 262 1
78 262 1
157 262 1
170 262 1
492 262 1
495 262 1
69 263 1
79 263 1
158 263 1
171 263 1
493 263 1
496 263 1
70 264 1
80 264 1
159 264 1
172 264 1
494 264 1
497 264 1
71 265 1
81 265 1
160 265 1
173 265 1
495 265 1
498 265 1
72 266 1
82 266 1
161 266 1
174 266 1
496 266 1
499 266 1
73 267 1
83 267 1
162 267 1
175 267 1
497 267 1
500 267 1
74 268 1
84 268 1
163 268 1
176 268 1
498 268 1
501 268 1
75 269 1
85 269 1
164 269 1
177 269 1
499 269 1
502 269 1
76 270 1
86 270 1
165 270 1
178 270 1
500 270 1
503 270 1
77 271 1
87 271 1
166 271 1
179 271 1
501 271 1
504 271 1
78 272 1
88 272 1
167 272 1
180 272 1
502 272 1
505 272 1
79 273 1
89 273 1
168 273 1
181 273 1
503 273 1
506 273 1
80 274 1
90 274 1
169 274 1
182 274 1
461 274 1
504 274 1
81 275 1
91 275 1
170 275 1
183 275 1
462 275 1
505 275 1
82 276 1
92 276 1
171 276 1
184 276 1
463 276 1
506 276 1
47 277 1
92 277 1
185 277 1
218 277 1
507 277 1
510 277 1
47 278 1
48 278 1
186 278 1
219 278 1
508 278 1
511 278 1
48 279 1
49 279 1
187 279 1
220 279 1
509 279 1
512 279 1
49 280 1
50 280 1
188 280 1
221 280 1
510 280 1
513 280 1
50 281 1
51 281 1
189 281 1
222 281 1
511 281 1
514 281 1
51 282 1
52 282 1
190 282 1
223 282 1
512 282 1
515 282 1
52 283 1
53 283 1
191 283 1
224 283 1
513 283 1
516 283 1
53 284 1
54 284 1
192 284 1
225 284 1
514 284 1
517 284 1
54 285 1
55 285 1
193 285 1
226 285 1
515 285 1
518 285 1
55 286 1
56 286 1
194 286 1
227 286 1
516 286 1
519 286 1
56 287 1
57 287 1
195 287 1
228 287 1
517 287 1
520 287 1
57 288 1
58 288 1
196 288 1
229 288 1
518 288 1
521 288 1
58 289 1
59 289 1
197 289 1
230 289 1
519 289 1
522 289 1
59 290 1
60 290 1
185 290 1
198 290 1
520 290 1
523 290 1
60 291 1
61 291 1
186 291 1
199 291 1
521 291 1
524 291 1
61 292 1
62 292 1
187 292 1
200 292 1
522 292 1
525 292 1
62 293 1
63 293 1
188 293 1
201 293 1
523 293 1
526 293 1
63 294 1
64 294 1
189 294 1
202 294 1
524 294 1
527 294 1
64 295 1
65 295 1
190 295 1
203 295 1
525 295 1
528 295 1
65 296 1
66 296 1
191 296 1
204 296 1
526 296 1
529 296 1
66 297 1
67 297 1
192 297 1
205 297 1
527 297 1
530 297 1
67 298 1
68 298 1
193 298 1
206 298 1
528 298 1
531 298 1
68 299 1
69 299 1
194 299 1
207 299 1
529 299 1
532 299 1
69 300 1
70 300 1
195 300 1
208 300 1
530 300 1
533 300 1
70 301 1
71 301 1
196 301 1
209 301 1
531 301 1
534 301 1
71 302 1
72 302 1
197 302 1
210 302 1
532 302 1
535 302 1
72 303 1
73 303 1
198 303 1
211 303 1
533 303 1
536 303 1
73 304 1
74 304 1
199 304 1
212 304 1
534 304 1
537 304 1
74 305 1
75 305 1
200 305 1
213 305 1
535 305 1
538 305 1
75 306 1
76 306 1
201 306 1
214 306 1
536 306 1
539 306 1
76 307 1
77 307 1
202 307 1
215 307 1
537 307 1
540 307 1
77 308 1
78 308 1
203 308 1
216 308 1
538 308 1
541 308 1
78 309 1
79 309 1
204 309 1
217 309 1
539 309 1
542 309 1
79 310 1
80 310 1
205 310 1
218 310 1
540 310 1
543 310 1
80 311 1
81 311 1
206 311 1
219 311 1
541 311 1
544 311 1
81 312 1
82 312 1
207 312 1
220 312 1
542 312 1
545 312 1
82 313 1
83 313 1
208 313 1
221 313 1
543 313 1
546 313 1
83 314 1
84 314 1
209 314 1
222 314 1
544 314 1
547 314 1
84 315 1
85 315 1
210 315 1
223 315 1
545 315 1
548 315 1
85 316 1
86 316 1
211 316 1
224 316 1
546 316 1
549 316 1
86 317 1
87 317 1
212 317 1
225 317 1
547 317 1
550 317 1
87 318 1
88 318 1
213 318 1
226 318 1
548 318 1
551 318 1
88 319 1
89 319 1
214 319 1
227 319 1
549 319 1
552 319 1
89 320 1
90 320 1
215 320 1
228 320 1
507 320 1
550 320 1
90 321 1
91 321 1
216 321 1
229 321 1
508 321 1
551 321 1
91 322 1
92 322 1
217 322 1
230 322 1
509 322 1
552 322 1
93 323 1
129 323 1
139 323 1
173 323 1
553 323 1
556 323 1
94 324 1
130 324 1
140 324 1
174 324 1
554 324 1
557 324 1
95 325 1
131 325 1
141 325 1
175 325 1
555 325 1
558 325 1
96 326 1
132 326 1
142 326 1
176 326 1
556 326 1
559 326 1
97 327 1
133 327 1
143 327 1
177 327 1
557 327 1
560 327 1
98 328 1
134 328 1
144 328 1
178 328 1
558 328 1
561 328 1
99 329 1
135 329 1
145 329 1
179 329 1
559 329 1
562 329 1
100 330 1
136 330 1
146 330 1
180 330 1
560 330 1
563 330 1
101 331 1
137 331 1
147 331 1
181 331 1
561 331 1
564 331 1
102 332 1
138 332 1
148 332 1
182 332 1
562 332 1
565 332 1
93 333 1
103 333 1
149 333 1
183 333 1
563 333 1
566 333 1
94 334 1
104 334 1
150 334 1
184 334 1
564 334 1
567 334 1
95 335 1
105 335 1
139 335 1
151 335 1
565 335 1
568 335 1
96 336 1
106 336 1
140 336 1
152 336 1
566 336 1
569 336 1
97 337 1
107 337 1
141 337 1
153 337 1
567 337 1
570 337 1
98 338 1
108 338 1
142 338 1
154 338 1
568 338 1
571 338 1
99 339 1
109 339 1
143 339 1
155 339 1
569 339 1
572 339 1
100 340 1
110 340 1
144 340 1
156 340 1
570 340 1
573 340 1
101 341 1
111 341 1
145 341 1
157 341 1
571 341 1
574 341 1
102 342 1
112 342 1
146 342 1
158 342 1
572 342 1
575 342 1
103 343 1
113 343 1
147 343 1
159 343 1
573 343 1
576 343 1
104 344 1
114 344 1
148 344 1
160 344 1
574 344 1
577 344 1
105 345 1
115 345 1
149 345 1
161 345 1
575 345 1
578 345 1
106 346 1
116 346 1
150 346 1
162 346 1
576 346 1
579 346 1
107 347 1
117 347 1
151 347 1
163 347 1
577 347 1
580 347 1
108 348 1
118 348 1
152 348 1
164 348 1
578 348 1
581 348 1
109 349 1
119 349 1
153 349 1
165 349 1
579 349 1
582 349 1
110 350 1
120 350 1
154 350 1
166 350 1
580 350 1
583 350 1
111 351 1
121 351 1
155 351 1
167 351 1
581 351 1
584 351 1
112 352 1
122 352 1
156 352 1
168 352 1
582 352 1
585 352 1
113 353 1
123 353 1
157 353 1
169 353 1
583 353 1
586 353 1
114 354 1
124 354 1
158 354 1
170 354 1
584 354 1
587 354 1
115 355 1
125 355 1
159 355 1
171 355 1
585 355 1
588 355 1
116 356 1
126 356 1
160 356 1
172 356 1
586 356 1
589 356 1
117 357 1
127 357 1
161 357 1
173 357 1
587 357 1
590 357 1
118 358 1
128 358 1
162 358 1
174 358 1
588 358 1
591 358 1
119 359 1
129 359 1
163 359 1
175 359 1
589 359 1
592 359 1
120 360 1
130 360 1
164 360 1
176 360 1
590 360 1
593 360 1
121 361 1
131 361 1
165 361 1
177 361 1
591 361 1
594 361 1
122 362 1
132 362 1
166 362 1
178 362 1
592 362 1
595 362 1
123 363 1
133 363 1
167 363 1
179 363 1
593 363 1
596 363 1
124 364 1
134 364 1
168 364 1
180 364 1
594 364 1
597 364 1
125 365 1
135 365 1
169 365 1
181 365 1
595 365 1
598 365 1
126 366 1
136 366 1
170 366 1
182 366 1
553 366 1
596 366 1
127 367 1
137 367 1
171 367 1
183 367 1
554 367 1
597 367 1
128 368 1
138 368 1
172 368 1
184 368 1
555 368 1
598 368 1
93 369 1
138 369 1
185 369 1
219 369 1
599 369 1
602 369 1
93 370 1
94 370 1
186 370 1
220 370 1
600 370 1
603 370 1
94 371 1
95 371 1
187 371 1
221 371 1
601 371 1
604 371 1
95 372 1
96 372 1
188 372 1
222 372 1
602 372 1
605 372 1
96 373 1
97 373 1
189 373 1
223 373 1
603 373 1
606 373 1
97 374 1
98 374 1
190 374 1
224 374 1
604 374 1
607 374 1
98 375 1
99 375 1
191 375 1
225 375 1
605 375 1
608 375 1
99 376 1
100 376 1
192 376 1
226 376 1
606 376 1
609 376 1
100 377 1
101 377 1
193 377 1
227 377 1
607 377 1
610 377 1
101 378 1
102 378 1
194 378 1
228 378 1
608 378 1
611 378 1
102 379 1
103 379 1
195 379 1
229 379 1
609 379 1
612 379 1
103 380 1
104 380 1
196 380 1
230 380 1
610 380 1
613 380 1
104 381 1
105 381 1
185 381 1
197 381 1
611 381 1
614 381 1
105 382 1
106 382 1
186 382 1
198 382 1
612 382 1
615 382 1
106 383 1
107 383 1
187 383 1
199 383 1
613 383 1
616 383 1
107 384 1
108 384 1
188 384 1
200 384 1
614 384 1
617 384 1
108 385 1
109 385 1
189 385 1
201 385 1
615 385 1
618 385 1
109 386 1
110 386 1
190 386 1
202 386 1
616 386 1
619 386 1
110 387 1
111 387 1
191 387 1
203 387 1
617 387 1
620 387 1
111 388 1
112 388 1
192 388 1
204 388 1
618 388 1
621 388 1
112 389 1
113 389 1
193 389 1
205 389 1
619 389 1
622 389 1
113 390 1
114 390 1
194 390 1
206 390 1
620 390 1
623 390 1
114 391 1
115 391 1
195 391 1
207 391 1
621 391 1
624 391 1
115 392 1
116 392 1
196 392 1
208 392 1
622 392 1
625 392 1
116 393 1
117 393 1
197 393 1
209 393 1
623 393 1
626 393 1
117 394 1
118 394 1
198 394 1
210 394 1
624 394 1
627 394 1
118 395 1
119 395 1
199 395 1
211 395 1
625 395 1
628 395 1
119 396 1
120 396 1
200 396 1
212 396 1
626 396 1
629 396 1
120 397 1
121 397 1
201 397 1
213 397 1
627 397 1
630 397 1
121 398 1
122 398 1
202 398 1
214 398 1
628 398 1
631 398 1
122 399 1
123 399 1
203 399 1
215 399 1
629 399 1
632 399 1
123 400 1
124 400 1
204 400 1
216 400 1
630 400 1
633 400 1
124 401 1
125 401 1
205 401 1
217 401 1
631 401 1
634 401 1
125 402 1
126 402 1
206 402 1
218 402 1
632 402 1
635 402 1
126 403 1
127 403 1
207 403 1
219 403 1
633 403 1
636 403 1
127 404 1
128 404 1
208 404 1
220 404 1
634 404 1
637 404 1
128 405 1
129 405 1
209 405 1
221 405 1
635 405 1
638 405 1
129 406 1
130 406 1
210 406 1
222 406 1
636 406 1
639 406 1
130 407 1
131 407 1
211 407 1
223 407 1
637 407 1
640 407 1
131 408 1
132 408 1
212 408 1
224 408 1
638 408 1
641 408 1
132 409 1
133 409 1
213 409 1
225 409 1
639 409 1
642 409 1
133 410 1
134 410 1
214 410 1
226 410 1
640 410 1
643 410 1
134 411 1
135 411 1
215 411 1
227 411 1
641 411 1
644 411 1
135 412 1
136 412 1
216 412 1
228 412 1
599 412 1
642 412 1
136 413 1
137 413 1
217 413 1
229 413 1
600 413 1
643 413 1
137 414 1
138 414 1
218 414 1
230 414 1
601 414 1
644 414 1
139 415 1
184 415 1
185 415 1
221 415 1
645 415 1
648 415 1
139 416 1
140 416 1
186 416 1
222 416 1
646 416 1
649 416 1
140 417 1
141 417 1
187 417 1
223 417 1
647 417 1
650 417 1
141 418 1
142 418 1
188 418 1
224 418 1
648 418 1
651 418 1
142 419 1
143 419 1
189 419 1
225 419 1
649 419 1
652 419 1
143 420 1
144 420 1
190 420 1
226 420 1
650 420 1
653 420 1
144 421 1
145 421 1
191 421 1
227 421 1
651 421 1
654 421 1
145 422 1
146 422 1
192 422 1
228 422 1
652 422 1
655 422 1
146 423 1
147 423 1
193 423 1
229 423 1
653 423 1
656 423 1
147 424 1
148 424 1
194 424 1
230 424 1
654 424 1
657 424 1
148 425 1
149 425 1
185 425 1
195 425 1
655 425 1
658 425 1
149 426 1
150 426 1
186 426 1
196 426 1
656 426 1
659 426 1
150 427 1
151 427 1
187 427 1
197 427 1
657 427 1
660 427 1
151 428 1
152 428 1
188 428 1
198 428 1
658 428 1
661 428 1
152 429 1
153 429 1
189 429 1
199 429 1
659 429 1
662 429 1
153 430 1
154 430 1
190 430 1
200 430 1
660 430 1
663 430 1
154 431 1
155 431 1
191 431 1
201 431 1
661 431 1
664 431 1
155 432 1
156 432 1
192 432 1
202 432 1
662 432 1
665 432 1
156 433 1
157 433 1
193 433 1
203 433 1
663 433 1
666 433 1
157 434 1
158 434 1
194 434 1
204 434 1
664 434 1
667 434 1
158 435 1
159 435 1
195 435 1
205 435 1
665 435 1
668 435 1
159 436 1
160 436 1
196 436 1
206 436 1
666 436 1
669 436 1
160 437 1
161 437 1
197 437 1
207 437 1
667 437 1
670 437 1
161 438 1
162 438 1
198 438 1
208 438 1
668 438 1
671 438 1
162 439 1
163 439 1
199 439 1
209 439 1
669 439 1
672 439 1
163 440 1
164 440 1
200 440 1
210 440 1
670 440 1
673 440 1
164 441 1
165 441 1
201 441 1
211 441 1
671 441 1
674 441 1
165 442 1
166 442 1
202 442 1
212 442 1
672 442 1
675 442 1
166 443 1
167 443 1
203 443 1
213 443 1
673 443 1
676 443 1
167 444 1
168 444 1
204 444 1
214 444 1
674 444 1
677 444 1
168 445 1
169 445 1
205 445 1
215 445 1
675 445 1
678 445 1
169 446 1
170 446 1
206 446 1
216 446 1
676 446 1
679 446 1
170 447 1
171 447 1
207 447 1
217 447 1
677 447 1
680 447 1
171 448 1
172 448 1
208 448 1
218 448 1
678 448 1
681 448 1
172 449 1
173 449 1
209 449 1
219 449 1
679 449 1
682 449 1
173 450 1
174 450 1
210 450 1
220 450 1
680 450 1
683 450 1
174 451 1
175 451 1
211 451 1
221 451 1
681 451 1
684 451 1
175 452 1
176 452 1
212 452 1
222 452 1
682 452 1
685 452 1
176 453 1
177 453 1
213 453 1
223 453 1
683 453 1
686 453 1
177 454 1
178 454 1
214 454 1
224 454 1
684 454 1
687 454 1
178 455 1
179 455 1
215 455 1
225 455 1
685 455 1
688 455 1
179 456 1
180 456 1
216 456 1
226 456 1
686 456 1
689 456 1
180 457 1
181 457 1
217 457 1
227 457 1
687 457 1
690 457 1
181 458 1
182 458 1
218 458 1
228 458 1
645 458 1
688 458 1
182 459 1
183 459 1
219 459 1
229 459 1
646 459 1
689 459 1
183 460 1
184 460 1
220 460 1
230 460 1
647 460 1
690 460 1
231 461 1
265 461 1
277 461 1
310 461 1
415 461 1
446 461 1
232 462 1
266 462 1
278 462 1
311 462 1
416 462 1
447 462 1
233 463 1
267 463 1
279 463 1
312 463 1
417 463 1
448 463 1
234 464 1
268 464 1
280 464 1
313 464 1
418 464 1
449 464 1
235 465 1
269 465 1
281 465 1
314 465 1
419 465 1
450 465 1
236 466 1
270 466 1
282 466 1
315 466 1
420 466 1
451 466 1
237 467 1
271 467 1
283 467 1
316 467 1
421 467 1
452 467 1
238 468 1
272 468 1
284 468 1
317 468 1
422 468 1
453 468 1
239 469 1
273 469 1
285 469 1
318 469 1
423 469 1
454 469 1
240 470 1
274 470 1
286 470 1
319 470 1
424 470 1
455 470 1
241 471 1
275 471 1
287 471 1
320 471 1
425 471 1
456 471 1
242 472 1
276 472 1
288 472 1
321 472 1
426 472 1
457 472 1
231 473 1
243 473 1
289 473 1
322 473 1
427 473 1
458 473 1
232 474 1
244 474 1
277 474 1
290 474 1
428 474 1
459 474 1
233 475 1
245 475 1
278 475 1
291 475 1
429 475 1
460 475 1
234 476 1
246 476 1
279 476 1
292 476 1
415 476 1
430 476 1
235 477 1
247 477 1
280 477 1
293 477 1
416 477 1
431 477 1
236 478 1
248 478 1
281 478 1
294 478 1
417 478 1
432 478 1
237 479 1
249 479 1
282 479 1
295 479 1
418 479 1
433 479 1
238 480 1
250 480 1
283 480 1
296 480 1
419 480 1
434 480 1
239 481 1
251 481 1
284 481 1
297 481 1
420 481 1
435 481 1
240 482 1
252 482 1
285 482 1
298 482 1
421 482 1
436 482 1
241 483 1
253 483 1
286 483 1
299 483 1
422 483 1
437 483 1
242 484 1
254 484 1
287 484 1
300 484 1
423 484 1
438 484 1
243 485 1
255 485 1
288 485 1
301 485 1
424 485 1
439 485 1
244 486 1
256 486 1
289 486 1
302 486 1
425 486 1
440 486 1
245 487 1
257 487 1
290 487 1
303 487 1
426 487 1
441 487 1
246 488 1
258 488 1
291 488 1
304 488 1
427 488 1
442 488 1
247 489 1
259 489 1
292 489 1
305 489 1
428 489 1
443 489 1
248 490 1
260 490 1
293 490 1
306 490 1
429 490 1
444 490 1
249 491 1
261 491 1
294 491 1
307 491 1
430 491 1
445 491 1
250 492 1
262 492 1
295 492 1
308 492 1
431 492 1
446 492 1
251 493 1
263 493 1
296 493 1
309 493 1
432 493 1
447 493 1
252 494 1
264 494 1
297 494 1
310 494 1
433 494 1
448 494 1
253 495 1
265 495 1
298 495 1
311 495 1
434 495 1
449 495 1
254 496 1
266 496 1
299 496 1
312 496 1
435 496 1
450 496 1
255 497 1
267 497 1
300 497 1
313 497 1
436 497 1
451 497 1
256 498 1
268 498 1
301 498 1
314 498 1
437 498 1
452 498 1
257 499 1
269 499 1
302 499 1
315 499 1
438 499 1
453 499 1
258 500 1
270 500 1
303 500 1
316 500 1
439 500 1
454 500 1
259 501 1
271 501 1
304 501 1
317 501 1
440 501 1
455 501 1
260 502 1
272 502 1
305 502 1
318 502 1
441 502 1
456 502 1
261 503 1
273 503 1
306 503 1
319 503 1
442 503 1
457 503 1
262 504 1
274 504 1
307 504 1
320 504 1
443 504 1
458 504 1
263 505 1
275 505 1
308 505 1
321 505 1
444 505 1
459 505 1
264 506 1
276 506 1
309 506 1
322 506 1
445 506 1
460 506 1
231 507 1
267 507 1
323 507 1
356 507 1
461 507 1
492 507 1
232 508 1
268 508 1
324 508 1
357 508 1
462 508 1
493 508 1
233 509 1
269 509 1
325 509 1
358 509 1
463 509 1
494 509 1
234 510 1
270 510 1
326 510 1
359 510 1
464 510 1
495 510 1
235 511 1
271 511 1
327 511 1
360 511 1
465 511 1
496 511 1
236 512 1
272 512 1
328 512 1
361 512 1
466 512 1
497 512 1
237 513 1
273 513 1
329 513 1
362 513 1
467 513 1
498 513 1
238 514 1
274 514 1
330 514 1
363 514 1
468 514 1
499 514 1
239 515 1
275 515 1
331 515 1
364 515 1
469 515 1
500 515 1
240 516 1
276 516 1
332 516 1
365 516 1
470 516 1
501 516 1
231 517 1
241 517 1
333 517 1
366 517 1
471 517 1
502 517 1
232 518 1
242 518 1
334 518 1
367 518 1
472 518 1
503 518 1
233 519 1
243 519 1
335 519 1
368 519 1
473 519 1
504 519 1
234 520 1
244 520 1
323 520 1
336 520 1
474 520 1
505 520 1
235 521 1
245 521 1
324 521 1
337 521 1
475 521 1
506 521 1
236 522 1
246 522 1
325 522 1
338 522 1
461 522 1
476 522 1
237 523 1
247 523 1
326 523 1
339 523 1
462 523 1
477 523 1
238 524 1
248 524 1
327 524 1
340 524 1
463 524 1
478 524 1
239 525 1
249 525 1
328 525 1
341 525 1
464 525 1
479 525 1
240 526 1
250 526 1
329 526 1
342 526 1
465 526 1
480 526 1
241 527 1
251 527 1
330 527 1
343 527 1
466 527 1
481 527 1
242 528 1
252 528 1
331 528 1
344 528 1
467 528 1
482 528 1
243 529 1
253 529 1
332 529 1
345 529 1
468 529 1
483 529 1
244 530 1
254 530 1
333 530 1
346 530 1
469 530 1
484 530 1
245 531 1
255 531 1
334 531 1
347 531 1
470 531 1
485 531 1
246 532 1
256 532 1
335 532 1
348 532 1
471 532 1
486 532 1
247 533 1
257 533 1
336 533 1
349 533 1
472 533 1
487 533 1
248 534 1
258 534 1
337 534 1
350 534 1
473 534 1
488 534 1
249 535 1
259 535 1
338 535 1
351 535 1
474 535 1
489 535 1
250 536 1
260 536 1
339 536 1
352 536 1
475 536 1
490 536 1
251 537 1
261 537 1
340 537 1
353 537 1
476 537 1
491 537 1
252 538 1
262 538 1
341 538 1
354 538 1
477 538 1
492 538 1
253 539 1
263 539 1
342 539 1
355 539 1
478 539 1
493 539 1
254 540 1
264 540 1
343 540 1
356 540 1
479 540 1
494 540 1
255 541 1
265 541 1
344 541 1
357 541 1
480 541 1
495 541 1
256 542 1
266 542 1
345 542 1
358 542 1
481 542 1
496 542 1
257 543 1
267 543 1
346 543 1
359 543 1
482 543 1
497 543 1
258 544 1
268 544 1
347 544 1
360 544 1
483 544 1
498 544 1
259 545 1
269 545 1
348 545 1
361 545 1
484 545 1
499 545 1
260 546 1
270 546 1
349 546 1
362 546 1
485 546 1
500 546 1
261 547 1
271 547 1
350 547 1
363 547 1
486 547 1
501 547 1
262 548 1
272 548 1
351 548 1
364 548 1
487 548 1
502 548 1
263 549 1
273 549 1
352 549 1
365 549 1
488 549 1
503 549 1
264 550 1
274 550 1
353 550 1
366 550 1
489 550 1
504 550 1
265 551 1
275 551 1
354 551 1
367 551 1
490 551 1
505 551 1
266 552 1
276 552 1
355 552 1
368 552 1
491 552 1
506 552 1
231 553 1
276 553 1
369 553 1
402 553 1
507 553 1
538 553 1
231 554 1
232 554 1
370 554 1
403 554 1
508 554 1
539 554 1
232 555 1
233 555 1
371 555 1
404 555 1
509 555 1
540 555 1
233 556 1
234 556 1
372 556 1
405 556 1
510 556 1
541 556 1
234 557 1
235 557 1
373 557 1
406 557 1
511 557 1
542 557 1
235 558 1
236 558 1
374 558 1
407 558 1
512 558 1
543 558 1
236 559 1
237 559 1
375 559 1
408 559 1
513 559 1
544 559 1
237 560 1
238 560 1
376 560 1
409 560 1
514 560 1
545 560 1
238 561 1
239 561 1
377 561 1
410 561 1
515 561 1
546 561 1
239 562 1
240 562 1
378 562 1
411 562 1
516 562 1
547 562 1
240 563 1
241 563 1
379 563 1
412 563 1
517 563 1
548 563 1
241 564 1
242 564 1
380 564 1
413 564 1
518 564 1
549 564 1
242 565 1
243 565 1
381 565 1
414 565 1
519 565 1
550 565 1
243 566 1
244 566 1
369 566 1
382 566 1
520 566 1
551 566 1
244 567 1
245 567 1
370 567 1
383 567 1
521 567 1
552 567 1
245 568 1
246 568 1
371 568 1
384 568 1
507 568 1
522 568 1
246 569 1
247 569 1
372 569 1
385 569 1
508 569 1
523 569 1
247 570 1
248 570 1
373 570 1
386 570 1
509 570 1
524 570 1
248 571 1
249 571 1
374 571 1
387 571 1
510 571 1
525 571 1
249 572 1
250 572 1
375 572 1
388 572 1
511 572 1
526 572 1
250 573 1
251 573 1
376 573 1
389 573 1
512 573 1
527 573 1
251 574 1
252 574 1
377 574 1
390 574 1
513 574 1
528 574 1
252 575 1
253 575 1
378 575 1
391 575 1
514 575 1
529 575 1
253 576 1
254 576 1
379 576 1
392 576 1
515 576 1
530 576 1
254 577 1
255 577 1
380 577 1
393 577 1
516 577 1
531 577 1
255 578 1
256 578 1
381 578 1
394 578 1
517 578 1
532 578 1
256 579 1
257 579 1
382 579 1
395 579 1
518 579 1
533 579 1
257 580 1
258 580 1
383 580 1
396 580 1
519 580 1
534 580 1
258 581 1
259 581 1
384 581 1
397 581 1
520 581 1
535 581 1
259 582 1
260 582 1
385 582 1
398 582 1
521 582 1
536 582 1
260 583 1
261 583 1
386 583 1
399 583 1
522 583 1
537 583 1
261 584 1
262 584 1
387 584 1
400 584 1
523 584 1
538 584 1
262 585 1
263 585 1
388 585 1
401 585 1
524 585 1
539 585 1
263 586 1
264 586 1
389 586 1
402 586 1
525 586 1
540 586 1
264 587 1
265 587 1
390 587 1
403 587 1
526 587 1
541 587 1
265 588 1
266 588 1
391 588 1
404 588 1
527 588 1
542 588 1
266 589 1
267 589 1
392 589 1
405 589 1
528 589 1
543 589 1
267 590 1
268 590 1
393 590 1
406 590 1
529 590 1
544 590 1
268 591 1
269 591 1
394 591 1
407 591 1
530 591 1
545 591 1
269 592 1
270 592 1
395 592 1
408 592 1
531 592 1
546 592 1
270 593 1
271 593 1
396 593 1
409 593 1
532 593 1
547 593 1
271 594 1
272 594 1
397 594 1
410 594 1
533 594 1
548 594 1
272 595 1
273 595 1
398 595 1
411 595 1
534 595 1
549 595 1
273 596 1
274 596 1
399 596 1
412 596 1
535 596 1
550 596 1
274 597 1
275 597 1
400 597 1
413 597 1
536 597 1
551 597 1
275 598 1
276 598 1
401 598 1
414 598 1
537 598 1
552 598 1
277 599 1
313 599 1
323 599 1
357 599 1
553 599 1
584 599 1
278 600 1
314 600 1
324 600 1
358 600 1
554 600 1
585 600 1
279 601 1
315 601 1
325 601 1
359 601 1
555 601 1
586 601 1
280 602 1
316 602 1
326 602 1
360 602 1
556 602 1
587 602 1
281 603 1
317 603 1
327 603 1
361 603 1
557 603 1
588 603 1
282 604 1
318 604 1
328 604 1
362 604 1
558 604 1
589 604 1
283 605 1
319 605 1
329 605 1
363 605 1
559 605 1
590 605 1
284 606 1
320 606 1
330 606 1
364 606 1
560 606 1
591 606 1
285 607 1
321 607 1
331 607 1
365 607 1
561 607 1
592 607 1
286 608 1
322 608 1
332 608 1
366 608 1
562 608 1
593 608 1
277 609 1
287 609 1
333 609 1
367 609 1
563 609 1
594 609 1
278 610 1
288 610 1
334 610 1
368 610 1
564 610 1
595 610 1
279 611 1
289 611 1
323 611 1
335 611 1
565 611 1
596 611 1
280 612 1
290 612 1
324 612 1
336 612 1
566 612 1
597 612 1
281 613 1
291 613 1
325 613 1
337 613 1
567 613 1
598 613 1
282 614 1
292 614 1
326 614 1
338 614 1
553 614 1
568 614 1
283 615 1
293 615 1
327 615 1
339 615 1
554 615 1
569 615 1
284 616 1
294 616 1
328 616 1
340 616 1
555 616 1
570 616 1
285 617 1
295 617 1
329 617 1
341 617 1
556 617 1
571 617 1
286 618 1
296 618 1
330 618 1
342 618 1
557 618 1
572 618 1
287 619 1
297 619 1
331 619 1
343 619 1
558 619 1
573 619 1
288 620 1
298 620 1
332 620 1
344 620 1
559 620 1
574 620 1
289 621 1
299 621 1
333 621 1
345 621 1
560 621 1
575 621 1
290 622 1
300 622 1
334 622 1
346 622 1
561 622 1
576 622 1
291 623 1
301 623 1
335 623 1
347 623 1
562 623 1
577 623 1
292 624 1
302 624 1
336 624 1
348 624 1
563 624 1
578 624 1
293 625 1
303 625 1
337 625 1
349 625 1
564 625 1
579 625 1
294 626 1
304 626 1
338 626 1
350 626 1
565 626 1
580 626 1
295 627 1
305 627 1
339 627 1
351 627 1
566 627 1
581 627 1
296 628 1
306 628 1
340 628 1
352 628 1
567 628 1
582 628 1
297 629 1
307 629 1
341 629 1
353 629 1
568 629 1
583 629 1
298 630 1
308 630 1
342 630 1
354 630 1
569 630 1
584 630 1
299 631 1
309 631 1
343 631 1
355 631 1
570 631 1
585 631 1
300 632 1
310 632 1
344 632 1
356 632 1
571 632 1
586 632 1
301 633 1
311 633 1
345 633 1
357 633 1
572 633 1
587 633 1
302 634 1
312 634 1
346 634 1
358 634 1
573 634 1
588 634 1
303 635 1
313 635 1
347 635 1
359 635 1
574 635 1
589 635 1
304 636 1
314 636 1
348 636 1
360 636 1
575 636 1
590 636 1
305 637 1
315 637 1
349 637 1
361 637 1
576 637 1
591 637 1
306 638 1
316 638 1
350 638 1
362 638 1
577 638 1
592 638 1
307 639 1
317 639 1
351 639 1
363 639 1
578 639 1
593 639 1
308 640 1
318 640 1
352 640 1
364 640 1
579 640 1
594 640 1
309 641 1
319 641 1
353 641 1
365 641 1
580 641 1
595 641 1
310 642 1
320 642 1
354 642 1
366 642 1
581 642 1
596 642 1
311 643 1
321 643 1
355 643 1
367 643 1
582 643 1
597 643 1
312 644 1
322 644 1
356 644 1
368 644 1
583 644 1
598 644 1
277 645 1
322 645 1
369 645 1
403 645 1
599 645 1
630 645 1
277 646 1
278 646 1
370 646 1
404 646 1
600 646 1
631 646 1
278 647 1
279 647 1
371 647 1
405 647 1
601 647 1
632 647 1
279 648 1
280 648 1
372 648 1
406 648 1
602 648 1
633 648 1
280 649 1
281 649 1
373 649 1
407 649 1
603 649 1
634 649 1
281 650 1
282 650 1
374 650 1
408 650 1
604 650 1
635 650 1
282 651 1
283 651 1
375 651 1
409 651 1
605 651 1
636 651 1
283 652 1
284 652 1
376 652 1
410 652 1
606 652 1
637 652 1
284 653 1
285 653 1
377 653 1
411 653 1
607 653 1
638 653 1
285 654 1
286 654 1
378 654 1
412 654 1
608 654 1
639 654 1
286 655 1
287 655 1
379 655 1
413 655 1
609 655 1
640 655 1
287 656 1
288 656 1
380 656 1
414 656 1
610 656 1
641 656 1
288 657 1
289 657 1
369 657 1
381 657 1
611 657 1
642 657 1
289 658 1
290 658 1
370 658 1
382 658 1
612 658 1
643 658 1
290 659 1
291 659 1
371 659 1
383 659 1
613 659 1
644 659 1
291 660 1
292 660 1
372 660 1
384 660 1
599 660 1
614 660 1
292 661 1
293 661 1
373 661 1
385 661 1
600 661 1
615 661 1
293 662 1
294 662 1
374 662 1
386 662 1
601 662 1
616 662 1
294 663 1
295 663 1
375 663 1
387 663 1
602 663 1
617 663 1
295 664 1
296 664 1
376 664 1
388 664 1
603 664 1
618 664 1
296 665 1
297 665 1
377 665 1
389 665 1
604 665 1
619 665 1
297 666 1
298 666 1
378 666 1
390 666 1
605 666 1
620 666 1
298 667 1
299 667 1
379 667 1
391 667 1
606 667 1
621 667 1
299 668 1
300 668 1
380 668 1
392 668 1
607 668 1
622 668 1
300 669 1
301 669 1
381 669 1
393 669 1
608 669 1
623 669 1
301 670 1
302 670 1
382 670 1
394 670 1
609 670 1
624 670 1
302 671 1
303 671 1
383 671 1
395 671 1
610 671 1
625 671 1
303 672 1
304 672 1
384 672 1
396 672 1
611 672 1
626 672 1
304 673 1
305 673 1
385 673 1
397 673 1
612 673 1
627 673 1
305 674 1
306 674 1
386 674 1
398 674 1
613 674 1
628 674 1
306 675 1
307 675 1
387 675 1
399 675 1
614 675 1
629 675 1
307 676 1
308 676 1
388 676 1
400 676 1
615 676 1
630 676 1
308 677 1
309 677 1
389 677 1
401 677 1
616 677 1
631 677 1
309 678 1
310 678 1
390 678 1
402 678 1
617 678 1
632 678 1
310 679 1
311 679 1
391 679 1
403 679 1
618 679 1
633 679 1
311 680 1
312 680 1
392 680 1
404 680 1
619 680 1
634 680 1
312 681 1
313 681 1
393 681 1
405 681 1
620 681 1
635 681 1
313 682 1
314 682 1
394 682 1
406 682 1
621 682 1
636 682 1
314 683 1
315 683 1
395 683 1
407 683 1
622 683 1
637 683 1
315 684 1
316 684 1
396 684 1
408 684 1
623 684 1
638 684 1
316 685 1
317 685 1
397 685 1
409 685 1
624 685 1
639 685 1
317 686 1
318 686 1
398 686 1
410 686 1
625 686 1
640 686 1
318 687 1
319 687 1
399 687 1
411 687 1
626 687 1
641 687 1
319 688 1
320 688 1
400 688 1
412 688 1
627 688 1
642 688 1
320 689 1
321 689 1
401 689 1
413 689 1
628 689 1
643 689 1
321 690 1
322 690 1
402 690 1
414 690 1
629 690 1
644 690 1
323 691 1
368 691 1
369 691 1
405 691 1
645 691 1
676 691 1
323 692 1
324 692 1
370 692 1
406 692 1
646 692 1
677 692 1
324 693 1
325 693 1
371 693 1
407 693 1
647 693 1
678 693 1
325 694 1
326 694 1
372 694 1
408 694 1
648 694 1
679 694 1
326 695 1
327 695 1
373 695 1
409 695 1
649 695 1
680 695 1
327 696 1
328 696 1
374 696 1
410 696 1
650 696 1
681 696 1
328 697 1
329 697 1
375 697 1
411 697 1
651 697 1
682 697 1
329 698 1
330 698 1
376 698 1
412 698 1
652 698 1
683 698 1
330 699 1
331 699 1
377 699 1
413 699 1
653 699 1
684 699 1
331 700 1
332 700 1
378 700 1
414 700 1
654 700 1
685 700 1
332 701 1
333 701 1
369 701 1
379 701 1
655 701 1
686 701 1
333 702 1
334 702 1
370 702 1
380 702 1
656 702 1
687 702 1
334 703 1
335 703 1
371 703 1
381 703 1
657 703 1
688 703 1
335 704 1
336 704 1
372 704 1
382 704 1
658 704 1
689 704 1
336 705 1
337 705 1
373 705 1
383 705 1
659 705 1
690 705 1
337 706 1
338 706 1
374 706 1
384 706 1
645 706 1
660 706 1
338 707 1
339 707 1
375 707 1
385 707 1
646 707 1
661 707 1
339 708 1
340 708 1
376 708 1
386 708 1
647 708 1
662 708 1
340 709 1
341 709 1
377 709 1
387 709 1
648 709 1
663 709 1
341 710 1
342 710 1
378 710 1
388 710 1
649 710 1
664 710 1
342 711 1
343 711 1
379 711 1
389 711 1
650 711 1
665 711 1
343 712 1
344 712 1
380 712 1
390 712 1
651 712 1
666 712 1
344 713 1
345 713 1
381 713 1
391 713 1
652 713 1
667 713 1
345 714 1
346 714 1
382 714 1
392 714 1
653 714 1
668 714 1
346 715 1
347 715 1
383 715 1
393 715 1
654 715 1
669 715 1
347 716 1
348 716 1
384 716 1
394 716 1
655 716 1
670 716 1
348 717 1
349 717 1
385 717 1
395 717 1
656 717 1
671 717 1
349 718 1
350 718 1
386 718 1
396 718 1
657 718 1
672 718 1
350 719 1
351 719 1
387 719 1
397 719 1
658 719 1
673 719 1
351 720 1
352 720 1
388 720 1
398 720 1
659 720 1
674 720 1
352 721 1
353 721 1
389 721 1
399 721 1
660 721 1
675 721 1
353 722 1
354 722 1
390 722 1
400 722 1
661 722 1
676 722 1
354 723 1
355 723 1
391 723 1
401 723 1
662 723 1
677 723 1
355 724 1
356 724 1
392 724 1
402 724 1
663 724 1
678 724 1
356 725 1
357 725 1
393 725 1
403 725 1
664 725 1
679 725 1
357 726 1
358 726 1
394 726 1
404 726 1
665 726 1
680 726 1
358 727 1
359 727 1
395 727 1
405 727 1
666 727 1
681 727 1
359 728 1
360 728 1
396 728 1
406 728 1
667 728 1
682 728 1
360 729 1
361 729 1
397 729 1
407 729 1
668 729 1
683 729 1
361 730 1
362 730 1
398 730 1
408 730 1
669 730 1
684 730 1
362 731 1
363 731 1
399 731 1
409 731 1
670 731 1
685 731 1
363 732 1
364 732 1
400 732 1
410 732 1
671 732 1
686 732 1
364 733 1
365 733 1
401 733 1
411 733 1
672 733 1
687 733 1
365 734 1
366 734 1
402 734 1
412 734 1
673 734 1
688 734 1
366 735 1
367 735 1
403 735 1
413 735 1
674 735 1
689 735 1
367 736 1
368 736 1
404 736 1
414 736 1
675 736 1
690 736 1
415 737 1
451 737 1
461 737 1
495 737 1
553 737 1
586 737 1
416 738 1
452 738 1
462 738 1
496 738 1
554 738 1
587 738 1
417 739 1
453 739 1
463 739 1
497 739 1
555 739 1
588 739 1
418 740 1
454 740 1
464 740 1
498 740 1
556 740 1
589 740 1
419 741 1
455 741 1
465 741 1
499 741 1
557 741 1
590 741 1
420 742 1
456 742 1
466 742 1
500 742 1
558 742 1
591 742 1
421 743 1
457 743 1
467 743 1
501 743 1
559 743 1
592 743 1
422 744 1
458 744 1
468 744 1
502 744 1
560 744 1
593 744 1
423 745 1
459 745 1
469 745 1
503 745 1
561 745 1
594 745 1
424 746 1
460 746 1
470 746 1
504 746 1
562 746 1
595 746 1
415 747 1
425 747 1
471 747 1
505 747 1
563 747 1
596 747 1
416 748 1
426 748 1
472 748 1
506 748 1
564 748 1
597 748 1
417 749 1
427 749 1
461 749 1
473 749 1
565 749 1
598 749 1
418 750 1
428 750 1
462 750 1
474 750 1
553 750 1
566 750 1
419 751 1
429 751 1
463 751 1
475 751 1
554 751 1
567 751 1
420 752 1
430 752 1
464 752 1
476 752 1
555 752 1
568 752 1
421 753 1
431 753 1
465 753 1
477 753 1
556 753 1
569 753 1
422 754 1
432 754 1
466 754 1
478 754 1
557 754 1
570 754 1
423 755 1
433 755 1
467 755 1
479 755 1
558 755 1
571 755 1
424 756 1
434 756 1
468 756 1
480 756 1
559 756 1
572 756 1
425 757 1
435 757 1
469 757 1
481 757 1
560 757 1
573 757 1
426 758 1
436 758 1
470 758 1
482 758 1
561 758 1
574 758 1
427 759 1
437 759 1
471 759 1
483 759 1
562 759 1
575 759 1
428 760 1
438 760 1
472 760 1
484 760 1
563 760 1
576 760 1
429 761 1
439 761 1
473 761 1
485 761 1
564 761 1
577 761 1
430 762 1
440 762 1
474 762 1
486 762 1
565 762 1
578 762 1
431 763 1
441 763 1
475 763 1
487 763 1
566 763 1
579 763 1
432 764 1
442 764 1
476 764 1
488 764 1
567 764 1
580 764 1
433 765 1
443 765 1
477 765 1
489 765 1
568 765 1
581 765 1
434 766 1
444 766 1
478 766 1
490 766 1
569 766 1
582 766 1
435 767 1
445 767 1
479 767 1
491 767 1
570 767 1
583 767 1
436 768 1
446 768 1
480 768 1
492 768 1
571 768 1
584 768 1
437 769 1
447 769 1
481 769 1
493 769 1
572 769 1
585 769 1
438 770 1
448 770 1
482 770 1
494 770 1
573 770 1
586 770 1
439 771 1
449 771 1
483 771 1
495 771 1
574 771 1
587 771 1
440 772 1
450 772 1
484 772 1
496 772 1
575 772 1
588 772 1
441 773 1
451 773 1
485 773 1
497 773 1
576 773 1
589 773 1
442 774 1
452 774 1
486 774 1
498 774 1
577 774 1
590 774 1
443 775 1
453 775 1
487 775 1
499 775 1
578 775 1
591 775 1
444 776 1
454 776 1
488 776 1
500 776 1
579 776 1
592 776 1
445 777 1
455 777 1
489 777 1
501 777 1
580 777 1
593 777 1
446 778 1
456 778 1
490 778 1
502 778 1
581 778 1
594 778 1
447 779 1
457 779 1
491 779 1
503 779 1
582 779 1
595 779 1
448 780 1
458 780 1
492 780 1
504 780 1
583 780 1
596 780 1
449 781 1
459 781 1
493 781 1
505 781 1
584 781 1
597 781 1
450 782 1
460 782 1
494 782 1
506 782 1
585 782 1
598 782 1
415 783 1
460 783 1
507 783 1
541 783 1
599 783 1
632 783 1
415 784 1
416 784 1
508 784 1
542 784 1
600 784 1
633 784 1
416 785 1
417 785 1
509 785 1
543 785 1
601 785 1
634 785 1
417 786 1
418 786 1
510 786 1
544 786 1
602 786 1
635 786 1
418 787 1
419 787 1
511 787 1
545 787 1
603 787 1
636 787 1
419 788 1
420 788 1
512 788 1
546 788 1
604 788 1
637 788 1
420 789 1
421 789 1
513 789 1
547 789 1
605 789 1
638 789 1
421 790 1
422 790 1
514 790 1
548 790 1
606 790 1
639 790 1
422 791 1
423 791 1
515 791 1
549 791 1
607 791 1
640 791 1
423 792 1
424 792 1
516 792 1
550 792 1
608 792 1
641 792 1
424 793 1
425 793 1
517 793 1
551 793 1
609 793 1
642 793 1
425 794 1
426 794 1
518 794 1
552 794 1
610 794 1
643 794 1
426 795 1
427 795 1
507 795 1
519 795 1
611 795 1
644 795 1
427 796 1
428 796 1
508 796 1
520 796 1
599 796 1
612 796 1
428 797 1
429 797 1
509 797 1
521 797 1
600 797 1
613 797 1
429 798 1
430 798 1
510 798 1
522 798 1
601 798 1
614 798 1
430 799 1
431 799 1
511 799 1
523 799 1
602 799 1
615 799 1
431 800 1
432 800 1
512 800 1
524 800 1
603 800 1
616 800 1
432 801 1
433 801 1
513 801 1
525 801 1
604 801 1
617 801 1
433 802 1
434 802 1
514 802 1
526 802 1
605 802 1
618 802 1
434 803 1
435 803 1
515 803 1
527 803 1
606 803 1
619 803 1
435 804 1
436 804 1
516 804 1
528 804 1
607 804 1
620 804 1
436 805 1
437 805 1
517 805 1
529 805 1
608 805 1
621 805 1
437 806 1
438 806 1
518 806 1
530 806 1
609 806 1
622 806 1
438 807 1
439 807 1
519 807 1
531 807 1
610 807 1
623 807 1
439 808 1
440 808 1
520 808 1
532 808 1
611 808 1
624 808 1
440 809 1
441 809 1
521 809 1
533 809 1
612 809 1
625 809 1
441 810 1
442 810 1
522 810 1
534 810 1
613 810 1
626 810 1
442 811 1
443 811 1
523 811 1
535 811 1
614 811 1
627 811 1
443 812 1
444 812 1
524 812 1
536 812 1
615 812 1
628 812 1
444 813 1
445 813 1
525 813 1
537 813 1
616 813 1
629 813 1
445 814 1
446 814 1
526 814 1
538 814 1
617 814 1
630 814 1
446 815 1
447 815 1
527 815 1
539 815 1
618 815 1
631 815 1
447 816 1
448 816 1
528 816 1
540 816 1
619 816 1
632 816 1
448 817 1
449 817 1
529 817 1
541 817 1
620 817 1
633 817 1
449 818 1
450 818 1
530 818 1
542 818 1
621 818 1
634 818 1
450 819 1
451 819 1
531 819 1
543 819 1
622 819 1
635 819 1
451 820 1
452 820 1
532 820 1
544 820 1
623 820 1
636 820 1
452 821 1
453 821 1
533 821 1
545 821 1
624 821 1
637 821 1
453 822 1
454 822 1
534 822 1
546 822 1
625 822 1
638 822 1
454 823 1
455 823 1
535 823 1
547 823 1
626 823 1
639 823 1
455 824 1
456 824 1
536 824 1
548 824 1
627 824 1
640 824 1
456 825 1
457 825 1
537 825 1
549 825 1
628 825 1
641 825 1
457 826 1
458 826 1
538 826 1
550 826 1
629 826 1
642 826 1
458 827 1
459 827 1
539 827 1
551 827 1
630 827 1
643 827 1
459 828 1
460 828 1
540 828 1
552 828 1
631 828 1
644 828 1
461 829 1
506 829 1
507 829 1
543 829 1
645 829 1
678 829 1
461 830 1
462 830 1
508 830 1
544 830 1
646 830 1
679 830 1
462 831 1
463 831 1
509 831 1
545 831 1
647 831 1
680 831 1
463 832 1
464 832 1
510 832 1
546 832 1
648 832 1
681 832 1
464 833 1
465 833 1
511 833 1
547 833 1
649 833 1
682 833 1
465 834 1
466 834 1
512 834 1
548 834 1
650 834 1
683 834 1
466 835 1
467 835 1
513 835 1
549 835 1
651 835 1
684 835 1
467 836 1
468 836 1
514 836 1
550 836 1
652 836 1
685 836 1
468 837 1
469 837 1
515 837 1
551 837 1
653 837 1
686 837 1
469 838 1
470 838 1
516 838 1
552 838 1
654 838 1
687 838 1
470 839 1
471 839 1
507 839 1
517 839 1
655 839 1
688 839 1
471 840 1
472 840 1
508 840 1
518 840 1
656 840 1
689 840 1
472 841 1
473 841 1
509 841 1
519 841 1
657 841 1
690 841 1
473 842 1
474 842 1
510 842 1
520 842 1
645 842 1
658 842 1
474 843 1
475 843 1
511 843 1
521 843 1
646 843 1
659 843 1
475 844 1
476 844 1
512 844 1
522 844 1
647 844 1
660 844 1
476 845 1
477 845 1
513 845 1
523 845 1
648 845 1
661 845 1
477 846 1
478 846 1
514 846 1
524 846 1
649 846 1
662 846 1
478 847 1
479 847 1
515 847 1
525 847 1
650 847 1
663 847 1
479 848 1
480 848 1
516 848 1
526 848 1
651 848 1
664 848 1
480 849 1
481 849 1
517 849 1
527 849 1
652 849 1
665 849 1
481 850 1
482 850 1
518 850 1
528 850 1
653 850 1
666 850 1
482 851 1
483 851 1
519 851 1
529 851 1
654 851 1
667 851 1
483 852 1
484 852 1
520 852 1
530 852 1
655 852 1
668 852 1
484 853 1
485 853 1
521 853 1
531 853 1
656 853 1
669 853 1
485 854 1
486 854 1
522 854 1
532 854 1
657 854 1
670 854 1
486 855 1
487 855 1
523 855 1
533 855 1
658 855 1
671 855 1
487 856 1
488 856 1
524 856 1
534 856 1
659 856 1
672 856 1
488 857 1
489 857 1
525 857 1
535 857 1
660 857 1
673 857 1
489 858 1
490 858 1
526 858 1
536 858 1
661 858 1
674 858 1
490 859 1
491 859 1
527 859 1
537 859 1
662 859 1
675 859 1
491 860 1
492 860 1
528 860 1
538 860 1
663 860 1
676 860 1
492 861 1
493 861 1
529 861 1
539 861 1
664 861 1
677 861 1
493 862 1
494 862 1
530 862 1
540 862 1
665 862 1
678 862 1
494 863 1
495 863 1
531 863 1
541 863 1
666 863 1
679 863 1
495 864 1
496 864 1
532 864 1
542 864 1
667 864 1
680 864 1
496 865 1
497 865 1
533 865 1
543 865 1
668 865 1
681 865 1
497 866 1
498 866 1
534 866 1
544 866 1
669 866 1
682 866 1
498 867 1
499 867 1
535 867 1
545 867 1
670 867 1
683 867 1
499 868 1
500 868 1
536 868 1
546 868 1
671 868 1
684 868 1
500 869 1
501 869 1
537 869 1
547 869 1
672 869 1
685 869 1
501 870 1
502 870 1
538 870 1
548 870 1
673 870 1
686 870 1
502 871 1
503 871 1
539 871 1
549 871 1
674 871 1
687 871 1
503 872 1
504 872 1
540 872 1
550 872 1
675 872 1
688 872 1
504 873 1
505 873 1
541 873 1
551 873 1
676 873 1
689 873 1
505 874 1
506 874 1
542 874 1
552 874 1
677 874 1
690 874 1
553 875 1
598 875 1
599 875 1
635 875 1
645 875 1
679 875 1
553 876 1
554 876 1
600 876 1
636 876 1
646 876 1
680 876 1
554 877 1
555 877 1
601 877 1
637 877 1
647 877 1
681 877 1
555 878 1
556 878 1
602 878 1
638 878 1
648 878 1
682 878 1
556 879 1
557 879 1
603 879 1
639 879 1
649 879 1
683 879 1
557 880 1
558 880 1
604 880 1
640 880 1
650 880 1
684 880 1
558 881 1
559 881 1
605 881 1
641 881 1
651 881 1
685 881 1
559 882 1
560 882 1
606 882 1
642 882 1
652 882 1
686 882 1
560 883 1
561 883 1
607 883 1
643 883 1
653 883 1
687 883 1
561 884 1
562 884 1
608 884 1
644 884 1
654 884 1
688 884 1
562 885 1
563 885 1
599 885 1
609 885 1
655 885 1
689 885 1
563 886 1
564 886 1
600 886 1
610 886 1
656 886 1
690 886 1
564 887 1
565 887 1
601 887 1
611 887 1
645 887 1
657 887 1
565 888 1
566 888 1
602 888 1
612 888 1
646 888 1
658 888 1
566 889 1
567 889 1
603 889 1
613 889 1
647 889 1
659 889 1
567 890 1
568 890 1
604 890 1
614 890 1
648 890 1
660 890 1
568 891 1
569 891 1
605 891 1
615 891 1
649 891 1
661 891 1
569 892 1
570 892 1
606 892 1
616 892 1
650 892 1
662 892 1
570 893 1
571 893 1
607 893 1
617 893 1
651 893 1
663 893 1
571 894 1
572 894 1
608 894 1
618 894 1
652 894 1
664 894 1
572 895 1
573 895 1
609 895 1
619 895 1
653 895 1
665 895 1
573 896 1
574 896 1
610 896 1
620 896 1
654 896 1
666 896 1
574 897 1
575 897 1
611 897 1
621 897 1
655 897 1
667 897 1
575 898 1
576 898 1
612 898 1
622 898 1
656 898 1
668 898 1
576 899 1
577 899 1
613 899 1
623 899 1
657 899 1
669 899 1
577 900 1
578 900 1
614 900 1
624 900 1
658 900 1
670 900 1
578 901 1
579 901 1
615 901 1
625 901 1
659 901 1
671 901 1
579 902 1
580 902 1
616 902 1
626 902 1
660 902 1
672 902 1
580 903 1
581 903 1
617 903 1
627 903 1
661 903 1
673 903 1
581 904 1
582 904 1
618 904 1
628 904 1
662 904 1
674 904 1
582 905 1
583 905 1
619 905 1
629 905 1
663 905 1
675 905 1
583 906 1
584 906 1
620 906 1
630 906 1
664 906 1
676 906 1
584 907 1
585 907 1
621 907 1
631 907 1
665 907 1
677 907 1
585 908 1
586 908 1
622 908 1
632 908 1
666 908 1
678 908 1
586 909 1
587 909 1
623 909 1
633 909 1
667 909 1
679 909 1
587 910 1
588 910 1
624 910 1
634 910 1
668 910 1
680 910 1
588 911 1
589 911 1
625 911 1
635 911 1
669 911 1
681 911 1
589 912 1
590 912 1
626 912 1
636 912 1
670 912 1
682 912 1
590 913 1
591 913 1
627 913 1
637 913 1
671 913 1
683 913 1
591 914 1
592 914 1
628 914 1
638 914 1
672 914 1
684 914 1
592 915 1
593 915 1
629 915 1
639 915 1
673 915 1
685 915 1
593 916 1
594 916 1
630 916 1
640 916 1
674 916 1
686 916 1
594 917 1
595 917 1
631 917 1
641 917 1
675 917 1
687 917 1
595 918 1
596 918 1
632 918 1
642 918 1
676 918 1
688 918 1
596 919 1
597 919 1
633 919 1
643 919 1
677 919 1
689 919 1
597 920 1
598 920 1
634 920 1
644 920 1
678 920 1
690 920 1
