%%MatrixMarket matrix coordinate integer general
% Binary matrix; one-based indices; arithmetic over GF(2)
64 96 384
7 1 1
12 1 1
22 1 1
24 1 1
8 2 1
11 2 1
21 2 1
23 2 1
5 3 1
10 3 1
22 3 1
24 3 1
6 4 1
9 4 1
21 4 1
23 4 1
3 5 1
16 5 1
18 5 1
20 5 1
4 6 1
15 6 1
17 6 1
19 6 1
1 7 1
14 7 1
18 7 1
20 7 1
2 8 1
13 8 1
17 8 1
19 8 1
4 9 1
15 9 1
30 9 1
32 9 1
3 10 1
16 10 1
29 10 1
31 10 1
2 11 1
13 11 1
30 11 1
32 11 1
1 12 1
14 12 1
29 12 1
31 12 1
8 13 1
11 13 1
26 13 1
28 13 1
7 14 1
12 14 1
25 14 1
27 14 1
6 15 1
9 15 1
26 15 1
28 15 1
5 16 1
10 16 1
25 16 1
27 16 1
8 17 1
9 17 1
38 17 1
40 17 1
7 18 1
10 18 1
37 18 1
39 18 1
6 19 1
11 19 1
38 19 1
40 19 1
5 20 1
12 20 1
37 20 1
39 20 1
4 21 1
13 21 1
34 21 1
36 21 1
3 22 1
14 22 1
33 22 1
35 22 1
2 23 1
15 23 1
34 23 1
36 23 1
1 24 1
16 24 1
33 24 1
35 24 1
1 25 1
16 25 1
46 25 1
48 25 1
2 26 1
15 26 1
45 26 1
47 26 1
3 27 1
14 27 1
46 27 1
48 27 1
4 28 1
13 28 1
45 28 1
47 28 1
5 29 1
12 29 1
42 29 1
44 29 1
6 30 1
11 30 1
41 30 1
43 30 1
7 31 1
10 31 1
42 31 1
44 31 1
8 32 1
9 32 1
41 32 1
43 32 1
24 33 1
25 33 1
39 33 1
44 33 1
23 34 1
26 34 1
40 34 1
43 34 1
22 35 1
27 35 1
37 35 1
42 35 1
21 36 1
28 36 1
38 36 1
41 36 1
20 37 1
29 37 1
35 37 1
48 37 1
19 38 1
30 38 1
36 38 1
47 38 1
18 39 1
31 39 1
33 39 1
46 39 1
17 40 1
32 40 1
34 40 1
45 40 1
17 41 1
32 41 1
36 41 1
47 41 1
18 42 1
31 42 1
35 42 1
48 42 1
19 43 1
30 43 1
34 43 1
45 43 1
20 44 1
29 44 1
33 44 1
46 44 1
21 45 1
28 45 1
40 45 1
43 45 1
22 46 1
27 46 1
39 46 1
44 46 1
23 47 1
26 47 1
38 47 1
41 47 1
24 48 1
25 48 1
37 48 1
42 48 1
8 49 1
10 49 1
54 49 1
56 49 1
7 50 1
9 50 1
53 50 1
55 50 1
6 51 1
12 51 1
54 51 1
56 51 1
5 52 1
11 52 1
53 52 1
55 52 1
4 53 1
14 53 1
50 53 1
52 53 1
3 54 1
13 54 1
49 54 1
51 54 1
2 55 1
16 55 1
50 55 1
52 55 1
1 56 1
15 56 1
49 56 1
51 56 1
2 57 1
16 57 1
62 57 1
64 57 1
1 58 1
15 58 1
61 58 1
63 58 1
4 59 1
14 59 1
62 59 1
64 59 1
3 60 1
13 60 1
61 60 1
63 60 1
6 61 1
12 61 1
58 61 1
60 61 1
5 62 1
11 62 1
57 62 1
59 62 1
8 63 1
10 63 1
58 63 1
60 63 1
7 64 1
9 64 1
57 64 1
59 64 1
24 65 1
26 65 1
55 65 1
60 65 1
23 66 1
25 66 1
56 66 1
59 66 1
22 67 1
28 67 1
53 67 1
58 67 1
21 68 1
27 68 1
54 68 1
57 68 1
20 69 1
30 69 1
51 69 1
64 69 1
19 70 1
29 70 1
52 70 1
63 70 1
18 71 1
32 71 1
49 71 1
62 71 1
17 72 1
31 72 1
50 72 1
61 72 1
18 73 1
32 73 1
52 73 1
63 73 1
17 74 1
31 74 1
51 74 1
64 74 1
20 75 1
30 75 1
50 75 1
61 75 1
19 76 1
29 76 1
49 76 1
62 76 1
22 77 1
28 77 1
56 77 1
59 77 1
21 78 1
27 78 1
55 78 1
60 78 1
24 79 1
26 79 1
54 79 1
57 79 1
23 80 1
25 80 1
53 80 1
58 80 1
40 81 1
42 81 1
56 81 1
57 81 1
39 82 1
41 82 1
55 82 1
58 82 1
38 83 1
44 83 1
54 83 1
59 83 1
37 84 1
43 84 1
53 84 1
60 84 1
36 85 1
46 85 1
52 85 1
61 85 1
35 86 1
45 86 1
51 86 1
62 86 1
34 87 1
48 87 1
50 87 1
63 87 1
33 88 1
47 88 1
49 88 1
64 88 1
34 89 1
48 89 1
49 89 1
64 89 1
33 90 1
47 90 1
50 90 1
63 90 1
36 91 1
46 91 1
51 91 1
62 91 1
35 92 1
45 92 1
52 92 1
61 92 1
38 93 1
44 93 1
53 93 1
60 93 1
37 94 1
43 94 1
54 94 1
59 94 1
40 95 1
42 95 1
55 95 1
58 95 1
39 96 1
41 96 1
56 96 1
57 96 1
