%%MatrixMarket matrix coordinate integer general
% Binary matrix; one-based indices; arithmetic over GF(2)
312 468 1872
1 1 1
41 1 1
79 1 1
92 1 1
2 2 1
42 2 1
80 2 1
93 2 1
3 3 1
43 3 1
81 3 1
94 3 1
4 4 1
44 4 1
82 4 1
95 4 1
5 5 1
45 5 1
83 5 1
96 5 1
6 6 1
46 6 1
84 6 1
97 6 1
7 7 1
47 7 1
85 7 1
98 7 1
8 8 1
48 8 1
86 8 1
99 8 1
9 9 1
49 9 1
87 9 1
100 9 1
10 10 1
50 10 1
88 10 1
101 10 1
11 11 1
51 11 1
89 11 1
102 11 1
12 12 1
52 12 1
90 12 1
103 12 1
13 13 1
53 13 1
91 13 1
104 13 1
14 14 1
54 14 1
92 14 1
105 14 1
15 15 1
55 15 1
93 15 1
106 15 1
16 16 1
56 16 1
94 16 1
107 16 1
17 17 1
57 17 1
95 17 1
108 17 1
18 18 1
58 18 1
96 18 1
109 18 1
19 19 1
59 19 1
97 19 1
110 19 1
20 20 1
60 20 1
98 20 1
111 20 1
21 21 1
61 21 1
99 21 1
112 21 1
22 22 1
62 22 1
100 22 1
113 22 1
23 23 1
63 23 1
101 23 1
114 23 1
24 24 1
64 24 1
102 24 1
115 24 1
25 25 1
65 25 1
103 25 1
116 25 1
26 26 1
66 26 1
104 26 1
117 26 1
27 27 1
67 27 1
105 27 1
118 27 1
28 28 1
68 28 1
106 28 1
119 28 1
29 29 1
69 29 1
107 29 1
120 29 1
30 30 1
70 30 1
108 30 1
121 30 1
31 31 1
71 31 1
109 31 1
122 31 1
32 32 1
72 32 1
110 32 1
123 32 1
33 33 1
73 33 1
111 33 1
124 33 1
34 34 1
74 34 1
112 34 1
125 34 1
35 35 1
75 35 1
113 35 1
126 35 1
36 36 1
76 36 1
114 36 1
127 36 1
37 37 1
77 37 1
115 37 1
128 37 1
38 38 1
78 38 1
116 38 1
129 38 1
1 39 1
39 39 1
117 39 1
130 39 1
2 40 1
40 40 1
118 40 1
131 40 1
3 41 1
41 41 1
119 41 1
132 41 1
4 42 1
42 42 1
120 42 1
133 42 1
5 43 1
43 43 1
121 43 1
134 43 1
6 44 1
44 44 1
122 44 1
135 44 1
7 45 1
45 45 1
123 45 1
136 45 1
8 46 1
46 46 1
124 46 1
137 46 1
9 47 1
47 47 1
125 47 1
138 47 1
10 48 1
48 48 1
126 48 1
139 48 1
11 49 1
49 49 1
127 49 1
140 49 1
12 50 1
50 50 1
128 50 1
141 50 1
13 51 1
51 51 1
129 51 1
142 51 1
14 52 1
52 52 1
130 52 1
143 52 1
15 53 1
53 53 1
131 53 1
144 53 1
16 54 1
54 54 1
132 54 1
145 54 1
17 55 1
55 55 1
133 55 1
146 55 1
18 56 1
56 56 1
134 56 1
147 56 1
19 57 1
57 57 1
135 57 1
148 57 1
20 58 1
58 58 1
136 58 1
149 58 1
21 59 1
59 59 1
137 59 1
150 59 1
22 60 1
60 60 1
138 60 1
151 60 1
23 61 1
61 61 1
139 61 1
152 61 1
24 62 1
62 62 1
140 62 1
153 62 1
25 63 1
63 63 1
141 63 1
154 63 1
26 64 1
64 64 1
142 64 1
155 64 1
27 65 1
65 65 1
143 65 1
156 65 1
28 66 1
66 66 1
79 66 1
144 66 1
29 67 1
67 67 1
80 67 1
145 67 1
30 68 1
68 68 1
81 68 1
146 68 1
31 69 1
69 69 1
82 69 1
147 69 1
32 70 1
70 70 1
83 70 1
148 70 1
33 71 1
71 71 1
84 71 1
149 71 1
34 72 1
72 72 1
85 72 1
150 72 1
35 73 1
73 73 1
86 73 1
151 73 1
36 74 1
74 74 1
87 74 1
152 74 1
37 75 1
75 75 1
88 75 1
153 75 1
38 76 1
76 76 1
89 76 1
154 76 1
39 77 1
77 77 1
90 77 1
155 77 1
40 78 1
78 78 1
91 78 1
156 78 1
1 79 1
46 79 1
157 79 1
170 79 1
2 80 1
47 80 1
158 80 1
171 80 1
3 81 1
48 81 1
159 81 1
172 81 1
4 82 1
49 82 1
160 82 1
173 82 1
5 83 1
50 83 1
161 83 1
174 83 1
6 84 1
51 84 1
162 84 1
175 84 1
7 85 1
52 85 1
163 85 1
176 85 1
8 86 1
53 86 1
164 86 1
177 86 1
9 87 1
54 87 1
165 87 1
178 87 1
10 88 1
55 88 1
166 88 1
179 88 1
11 89 1
56 89 1
167 89 1
180 89 1
12 90 1
57 90 1
168 90 1
181 90 1
13 91 1
58 91 1
169 91 1
182 91 1
14 92 1
59 92 1
170 92 1
183 92 1
15 93 1
60 93 1
171 93 1
184 93 1
16 94 1
61 94 1
172 94 1
185 94 1
17 95 1
62 95 1
173 95 1
186 95 1
18 96 1
63 96 1
174 96 1
187 96 1
19 97 1
64 97 1
175 97 1
188 97 1
20 98 1
65 98 1
176 98 1
189 98 1
21 99 1
66 99 1
177 99 1
190 99 1
22 100 1
67 100 1
178 100 1
191 100 1
23 101 1
68 101 1
179 101 1
192 101 1
24 102 1
69 102 1
180 102 1
193 102 1
25 103 1
70 103 1
181 103 1
194 103 1
26 104 1
71 104 1
182 104 1
195 104 1
27 105 1
72 105 1
183 105 1
196 105 1
28 106 1
73 106 1
184 106 1
197 106 1
29 107 1
74 107 1
185 107 1
198 107 1
30 108 1
75 108 1
186 108 1
199 108 1
31 109 1
76 109 1
187 109 1
200 109 1
32 110 1
77 110 1
188 110 1
201 110 1
33 111 1
78 111 1
189 111 1
202 111 1
1 112 1
34 112 1
190 112 1
203 112 1
2 113 1
35 113 1
191 113 1
204 113 1
3 114 1
36 114 1
192 114 1
205 114 1
4 115 1
37 115 1
193 115 1
206 115 1
5 116 1
38 116 1
194 116 1
207 116 1
6 117 1
39 117 1
195 117 1
208 117 1
7 118 1
40 118 1
196 118 1
209 118 1
8 119 1
41 119 1
197 119 1
210 119 1
9 120 1
42 120 1
198 120 1
211 120 1
10 121 1
43 121 1
199 121 1
212 121 1
11 122 1
44 122 1
200 122 1
213 122 1
12 123 1
45 123 1
201 123 1
214 123 1
13 124 1
46 124 1
202 124 1
215 124 1
14 125 1
47 125 1
203 125 1
216 125 1
15 126 1
48 126 1
204 126 1
217 126 1
16 127 1
49 127 1
205 127 1
218 127 1
17 128 1
50 128 1
206 128 1
219 128 1
18 129 1
51 129 1
207 129 1
220 129 1
19 130 1
52 130 1
208 130 1
221 130 1
20 131 1
53 131 1
209 131 1
222 131 1
21 132 1
54 132 1
210 132 1
223 132 1
22 133 1
55 133 1
211 133 1
224 133 1
23 134 1
56 134 1
212 134 1
225 134 1
24 135 1
57 135 1
213 135 1
226 135 1
25 136 1
58 136 1
214 136 1
227 136 1
26 137 1
59 137 1
215 137 1
228 137 1
27 138 1
60 138 1
216 138 1
229 138 1
28 139 1
61 139 1
217 139 1
230 139 1
29 140 1
62 140 1
218 140 1
231 140 1
30 141 1
63 141 1
219 141 1
232 141 1
31 142 1
64 142 1
220 142 1
233 142 1
32 143 1
65 143 1
221 143 1
234 143 1
33 144 1
66 144 1
157 144 1
222 144 1
34 145 1
67 145 1
158 145 1
223 145 1
35 146 1
68 146 1
159 146 1
224 146 1
36 147 1
69 147 1
160 147 1
225 147 1
37 148 1
70 148 1
161 148 1
226 148 1
38 149 1
71 149 1
162 149 1
227 149 1
39 150 1
72 150 1
163 150 1
228 150 1
40 151 1
73 151 1
164 151 1
229 151 1
41 152 1
74 152 1
165 152 1
230 152 1
42 153 1
75 153 1
166 153 1
231 153 1
43 154 1
76 154 1
167 154 1
232 154 1
44 155 1
77 155 1
168 155 1
233 155 1
45 156 1
78 156 1
169 156 1
234 156 1
79 157 1
124 157 1
157 157 1
197 157 1
80 158 1
125 158 1
158 158 1
198 158 1
81 159 1
126 159 1
159 159 1
199 159 1
82 160 1
127 160 1
160 160 1
200 160 1
83 161 1
128 161 1
161 161 1
201 161 1
84 162 1
129 162 1
162 162 1
202 162 1
85 163 1
130 163 1
163 163 1
203 163 1
86 164 1
131 164 1
164 164 1
204 164 1
87 165 1
132 165 1
165 165 1
205 165 1
88 166 1
133 166 1
166 166 1
206 166 1
89 167 1
134 167 1
167 167 1
207 167 1
90 168 1
135 168 1
168 168 1
208 168 1
91 169 1
136 169 1
169 169 1
209 169 1
92 170 1
137 170 1
170 170 1
210 170 1
93 171 1
138 171 1
171 171 1
211 171 1
94 172 1
139 172 1
172 172 1
212 172 1
95 173 1
140 173 1
173 173 1
213 173 1
96 174 1
141 174 1
174 174 1
214 174 1
97 175 1
142 175 1
175 175 1
215 175 1
98 176 1
143 176 1
176 176 1
216 176 1
99 177 1
144 177 1
177 177 1
217 177 1
100 178 1
145 178 1
178 178 1
218 178 1
101 179 1
146 179 1
179 179 1
219 179 1
102 180 1
147 180 1
180 180 1
220 180 1
103 181 1
148 181 1
181 181 1
221 181 1
104 182 1
149 182 1
182 182 1
222 182 1
105 183 1
150 183 1
183 183 1
223 183 1
106 184 1
151 184 1
184 184 1
224 184 1
107 185 1
152 185 1
185 185 1
225 185 1
108 186 1
153 186 1
186 186 1
226 186 1
109 187 1
154 187 1
187 187 1
227 187 1
110 188 1
155 188 1
188 188 1
228 188 1
111 189 1
156 189 1
189 189 1
229 189 1
79 190 1
112 190 1
190 190 1
230 190 1
80 191 1
113 191 1
191 191 1
231 191 1
81 192 1
114 192 1
192 192 1
232 192 1
82 193 1
115 193 1
193 193 1
233 193 1
83 194 1
116 194 1
194 194 1
234 194 1
84 195 1
117 195 1
157 195 1
195 195 1
85 196 1
118 196 1
158 196 1
196 196 1
86 197 1
119 197 1
159 197 1
197 197 1
87 198 1
120 198 1
160 198 1
198 198 1
88 199 1
121 199 1
161 199 1
199 199 1
89 200 1
122 200 1
162 200 1
200 200 1
90 201 1
123 201 1
163 201 1
201 201 1
91 202 1
124 202 1
164 202 1
202 202 1
92 203 1
125 203 1
165 203 1
203 203 1
93 204 1
126 204 1
166 204 1
204 204 1
94 205 1
127 205 1
167 205 1
205 205 1
95 206 1
128 206 1
168 206 1
206 206 1
96 207 1
129 207 1
169 207 1
207 207 1
97 208 1
130 208 1
170 208 1
208 208 1
98 209 1
131 209 1
171 209 1
209 209 1
99 210 1
132 210 1
172 210 1
210 210 1
100 211 1
133 211 1
173 211 1
211 211 1
101 212 1
134 212 1
174 212 1
212 212 1
102 213 1
135 213 1
175 213 1
213 213 1
103 214 1
136 214 1
176 214 1
214 214 1
104 215 1
137 215 1
177 215 1
215 215 1
105 216 1
138 216 1
178 216 1
216 216 1
106 217 1
139 217 1
179 217 1
217 217 1
107 218 1
140 218 1
180 218 1
218 218 1
108 219 1
141 219 1
181 219 1
219 219 1
109 220 1
142 220 1
182 220 1
220 220 1
110 221 1
143 221 1
183 221 1
221 221 1
111 222 1
144 222 1
184 222 1
222 222 1
112 223 1
145 223 1
185 223 1
223 223 1
113 224 1
146 224 1
186 224 1
224 224 1
114 225 1
147 225 1
187 225 1
225 225 1
115 226 1
148 226 1
188 226 1
226 226 1
116 227 1
149 227 1
189 227 1
227 227 1
117 228 1
150 228 1
190 228 1
228 228 1
118 229 1
151 229 1
191 229 1
229 229 1
119 230 1
152 230 1
192 230 1
230 230 1
120 231 1
153 231 1
193 231 1
231 231 1
121 232 1
154 232 1
194 232 1
232 232 1
122 233 1
155 233 1
195 233 1
233 233 1
123 234 1
156 234 1
196 234 1
234 234 1
1 235 1
55 235 1
235 235 1
248 235 1
2 236 1
56 236 1
236 236 1
249 236 1
3 237 1
57 237 1
237 237 1
250 237 1
4 238 1
58 238 1
238 238 1
251 238 1
5 239 1
59 239 1
239 239 1
252 239 1
6 240 1
60 240 1
240 240 1
253 240 1
7 241 1
61 241 1
241 241 1
254 241 1
8 242 1
62 242 1
242 242 1
255 242 1
9 243 1
63 243 1
243 243 1
256 243 1
10 244 1
64 244 1
244 244 1
257 244 1
11 245 1
65 245 1
245 245 1
258 245 1
12 246 1
66 246 1
246 246 1
259 246 1
13 247 1
67 247 1
247 247 1
260 247 1
14 248 1
68 248 1
248 248 1
261 248 1
15 249 1
69 249 1
249 249 1
262 249 1
16 250 1
70 250 1
250 250 1
263 250 1
17 251 1
71 251 1
251 251 1
264 251 1
18 252 1
72 252 1
252 252 1
265 252 1
19 253 1
73 253 1
253 253 1
266 253 1
20 254 1
74 254 1
254 254 1
267 254 1
21 255 1
75 255 1
255 255 1
268 255 1
22 256 1
76 256 1
256 256 1
269 256 1
23 257 1
77 257 1
257 257 1
270 257 1
24 258 1
78 258 1
258 258 1
271 258 1
1 259 1
25 259 1
259 259 1
272 259 1
2 260 1
26 260 1
260 260 1
273 260 1
3 261 1
27 261 1
261 261 1
274 261 1
4 262 1
28 262 1
262 262 1
275 262 1
5 263 1
29 263 1
263 263 1
276 263 1
6 264 1
30 264 1
264 264 1
277 264 1
7 265 1
31 265 1
265 265 1
278 265 1
8 266 1
32 266 1
266 266 1
279 266 1
9 267 1
33 267 1
267 267 1
280 267 1
10 268 1
34 268 1
268 268 1
281 268 1
11 269 1
35 269 1
269 269 1
282 269 1
12 270 1
36 270 1
270 270 1
283 270 1
13 271 1
37 271 1
271 271 1
284 271 1
14 272 1
38 272 1
272 272 1
285 272 1
15 273 1
39 273 1
273 273 1
286 273 1
16 274 1
40 274 1
274 274 1
287 274 1
17 275 1
41 275 1
275 275 1
288 275 1
18 276 1
42 276 1
276 276 1
289 276 1
19 277 1
43 277 1
277 277 1
290 277 1
20 278 1
44 278 1
278 278 1
291 278 1
21 279 1
45 279 1
279 279 1
292 279 1
22 280 1
46 280 1
280 280 1
293 280 1
23 281 1
47 281 1
281 281 1
294 281 1
24 282 1
48 282 1
282 282 1
295 282 1
25 283 1
49 283 1
283 283 1
296 283 1
26 284 1
50 284 1
284 284 1
297 284 1
27 285 1
51 285 1
285 285 1
298 285 1
28 286 1
52 286 1
286 286 1
299 286 1
29 287 1
53 287 1
287 287 1
300 287 1
30 288 1
54 288 1
288 288 1
301 288 1
31 289 1
55 289 1
289 289 1
302 289 1
32 290 1
56 290 1
290 290 1
303 290 1
33 291 1
57 291 1
291 291 1
304 291 1
34 292 1
58 292 1
292 292 1
305 292 1
35 293 1
59 293 1
293 293 1
306 293 1
36 294 1
60 294 1
294 294 1
307 294 1
37 295 1
61 295 1
295 295 1
308 295 1
38 296 1
62 296 1
296 296 1
309 296 1
39 297 1
63 297 1
297 297 1
310 297 1
40 298 1
64 298 1
298 298 1
311 298 1
41 299 1
65 299 1
299 299 1
312 299 1
42 300 1
66 300 1
235 300 1
300 300 1
43 301 1
67 301 1
236 301 1
301 301 1
44 302 1
68 302 1
237 302 1
302 302 1
45 303 1
69 303 1
238 303 1
303 303 1
46 304 1
70 304 1
239 304 1
304 304 1
47 305 1
71 305 1
240 305 1
305 305 1
48 306 1
72 306 1
241 306 1
306 306 1
49 307 1
73 307 1
242 307 1
307 307 1
50 308 1
74 308 1
243 308 1
308 308 1
51 309 1
75 309 1
244 309 1
309 309 1
52 310 1
76 310 1
245 310 1
310 310 1
53 311 1
77 311 1
246 311 1
311 311 1
54 312 1
78 312 1
247 312 1
312 312 1
79 313 1
133 313 1
235 313 1
275 313 1
80 314 1
134 314 1
236 314 1
276 314 1
81 315 1
135 315 1
237 315 1
277 315 1
82 316 1
136 316 1
238 316 1
278 316 1
83 317 1
137 317 1
239 317 1
279 317 1
84 318 1
138 318 1
240 318 1
280 318 1
85 319 1
139 319 1
241 319 1
281 319 1
86 320 1
140 320 1
242 320 1
282 320 1
87 321 1
141 321 1
243 321 1
283 321 1
88 322 1
142 322 1
244 322 1
284 322 1
89 323 1
143 323 1
245 323 1
285 323 1
90 324 1
144 324 1
246 324 1
286 324 1
91 325 1
145 325 1
247 325 1
287 325 1
92 326 1
146 326 1
248 326 1
288 326 1
93 327 1
147 327 1
249 327 1
289 327 1
94 328 1
148 328 1
250 328 1
290 328 1
95 329 1
149 329 1
251 329 1
291 329 1
96 330 1
150 330 1
252 330 1
292 330 1
97 331 1
151 331 1
253 331 1
293 331 1
98 332 1
152 332 1
254 332 1
294 332 1
99 333 1
153 333 1
255 333 1
295 333 1
100 334 1
154 334 1
256 334 1
296 334 1
101 335 1
155 335 1
257 335 1
297 335 1
102 336 1
156 336 1
258 336 1
298 336 1
79 337 1
103 337 1
259 337 1
299 337 1
80 338 1
104 338 1
260 338 1
300 338 1
81 339 1
105 339 1
261 339 1
301 339 1
82 340 1
106 340 1
262 340 1
302 340 1
83 341 1
107 341 1
263 341 1
303 341 1
84 342 1
108 342 1
264 342 1
304 342 1
85 343 1
109 343 1
265 343 1
305 343 1
86 344 1
110 344 1
266 344 1
306 344 1
87 345 1
111 345 1
267 345 1
307 345 1
88 346 1
112 346 1
268 346 1
308 346 1
89 347 1
113 347 1
269 347 1
309 347 1
90 348 1
114 348 1
270 348 1
310 348 1
91 349 1
115 349 1
271 349 1
311 349 1
92 350 1
116 350 1
272 350 1
312 350 1
93 351 1
117 351 1
235 351 1
273 351 1
94 352 1
118 352 1
236 352 1
274 352 1
95 353 1
119 353 1
237 353 1
275 353 1
96 354 1
120 354 1
238 354 1
276 354 1
97 355 1
121 355 1
239 355 1
277 355 1
98 356 1
122 356 1
240 356 1
278 356 1
99 357 1
123 357 1
241 357 1
279 357 1
100 358 1
124 358 1
242 358 1
280 358 1
101 359 1
125 359 1
243 359 1
281 359 1
102 360 1
126 360 1
244 360 1
282 360 1
103 361 1
127 361 1
245 361 1
283 361 1
104 362 1
128 362 1
246 362 1
284 362 1
105 363 1
129 363 1
247 363 1
285 363 1
106 364 1
130 364 1
248 364 1
286 364 1
107 365 1
131 365 1
249 365 1
287 365 1
108 366 1
132 366 1
250 366 1
288 366 1
109 367 1
133 367 1
251 367 1
289 367 1
110 368 1
134 368 1
252 368 1
290 368 1
111 369 1
135 369 1
253 369 1
291 369 1
112 370 1
136 370 1
254 370 1
292 370 1
113 371 1
137 371 1
255 371 1
293 371 1
114 372 1
138 372 1
256 372 1
294 372 1
115 373 1
139 373 1
257 373 1
295 373 1
116 374 1
140 374 1
258 374 1
296 374 1
117 375 1
141 375 1
259 375 1
297 375 1
118 376 1
142 376 1
260 376 1
298 376 1
119 377 1
143 377 1
261 377 1
299 377 1
120 378 1
144 378 1
262 378 1
300 378 1
121 379 1
145 379 1
263 379 1
301 379 1
122 380 1
146 380 1
264 380 1
302 380 1
123 381 1
147 381 1
265 381 1
303 381 1
124 382 1
148 382 1
266 382 1
304 382 1
125 383 1
149 383 1
267 383 1
305 383 1
126 384 1
150 384 1
268 384 1
306 384 1
127 385 1
151 385 1
269 385 1
307 385 1
128 386 1
152 386 1
270 386 1
308 386 1
129 387 1
153 387 1
271 387 1
309 387 1
130 388 1
154 388 1
272 388 1
310 388 1
131 389 1
155 389 1
273 389 1
311 389 1
132 390 1
156 390 1
274 390 1
312 390 1
157 391 1
211 391 1
235 391 1
280 391 1
158 392 1
212 392 1
236 392 1
281 392 1
159 393 1
213 393 1
237 393 1
282 393 1
160 394 1
214 394 1
238 394 1
283 394 1
161 395 1
215 395 1
239 395 1
284 395 1
162 396 1
216 396 1
240 396 1
285 396 1
163 397 1
217 397 1
241 397 1
286 397 1
164 398 1
218 398 1
242 398 1
287 398 1
165 399 1
219 399 1
243 399 1
288 399 1
166 400 1
220 400 1
244 400 1
289 400 1
167 401 1
221 401 1
245 401 1
290 401 1
168 402 1
222 402 1
246 402 1
291 402 1
169 403 1
223 403 1
247 403 1
292 403 1
170 404 1
224 404 1
248 404 1
293 404 1
171 405 1
225 405 1
249 405 1
294 405 1
172 406 1
226 406 1
250 406 1
295 406 1
173 407 1
227 407 1
251 407 1
296 407 1
174 408 1
228 408 1
252 408 1
297 408 1
175 409 1
229 409 1
253 409 1
298 409 1
176 410 1
230 410 1
254 410 1
299 410 1
177 411 1
231 411 1
255 411 1
300 411 1
178 412 1
232 412 1
256 412 1
301 412 1
179 413 1
233 413 1
257 413 1
302 413 1
180 414 1
234 414 1
258 414 1
303 414 1
157 415 1
181 415 1
259 415 1
304 415 1
158 416 1
182 416 1
260 416 1
305 416 1
159 417 1
183 417 1
261 417 1
306 417 1
160 418 1
184 418 1
262 418 1
307 418 1
161 419 1
185 419 1
263 419 1
308 419 1
162 420 1
186 420 1
264 420 1
309 420 1
163 421 1
187 421 1
265 421 1
310 421 1
164 422 1
188 422 1
266 422 1
311 422 1
165 423 1
189 423 1
267 423 1
312 423 1
166 424 1
190 424 1
235 424 1
268 424 1
167 425 1
191 425 1
236 425 1
269 425 1
168 426 1
192 426 1
237 426 1
270 426 1
169 427 1
193 427 1
238 427 1
271 427 1
170 428 1
194 428 1
239 428 1
272 428 1
171 429 1
195 429 1
240 429 1
273 429 1
172 430 1
196 430 1
241 430 1
274 430 1
173 431 1
197 431 1
242 431 1
275 431 1
174 432 1
198 432 1
243 432 1
276 432 1
175 433 1
199 433 1
244 433 1
277 433 1
176 434 1
200 434 1
245 434 1
278 434 1
177 435 1
201 435 1
246 435 1
279 435 1
178 436 1
202 436 1
247 436 1
280 436 1
179 437 1
203 437 1
248 437 1
281 437 1
180 438 1
204 438 1
249 438 1
282 438 1
181 439 1
205 439 1
250 439 1
283 439 1
182 440 1
206 440 1
251 440 1
284 440 1
183 441 1
207 441 1
252 441 1
285 441 1
184 442 1
208 442 1
253 442 1
286 442 1
185 443 1
209 443 1
254 443 1
287 443 1
186 444 1
210 444 1
255 444 1
288 444 1
187 445 1
211 445 1
256 445 1
289 445 1
188 446 1
212 446 1
257 446 1
290 446 1
189 447 1
213 447 1
258 447 1
291 447 1
190 448 1
214 448 1
259 448 1
292 448 1
191 449 1
215 449 1
260 449 1
293 449 1
192 450 1
216 450 1
261 450 1
294 450 1
193 451 1
217 451 1
262 451 1
295 451 1
194 452 1
218 452 1
263 452 1
296 452 1
195 453 1
219 453 1
264 453 1
297 453 1
196 454 1
220 454 1
265 454 1
298 454 1
197 455 1
221 455 1
266 455 1
299 455 1
198 456 1
222 456 1
267 456 1
300 456 1
199 457 1
223 457 1
268 457 1
301 457 1
200 458 1
224 458 1
269 458 1
302 458 1
201 459 1
225 459 1
270 459 1
303 459 1
202 460 1
226 460 1
271 460 1
304 460 1
203 461 1
227 461 1
272 461 1
305 461 1
204 462 1
228 462 1
273 462 1
306 462 1
205 463 1
229 463 1
274 463 1
307 463 1
206 464 1
230 464 1
275 464 1
308 464 1
207 465 1
231 465 1
276 465 1
309 465 1
208 466 1
232 466 1
277 466 1
310 466 1
209 467 1
233 467 1
278 467 1
311 467 1
210 468 1
234 468 1
279 468 1
312 468 1
