%%MatrixMarket matrix coordinate integer general
% Binary matrix; one-based indices; arithmetic over GF(2)
260 390 1560
1 1 1
27 1 1
66 1 1
72 1 1
2 2 1
28 2 1
67 2 1
73 2 1
3 3 1
29 3 1
68 3 1
74 3 1
4 4 1
30 4 1
69 4 1
75 4 1
5 5 1
31 5 1
70 5 1
76 5 1
6 6 1
32 6 1
71 6 1
77 6 1
7 7 1
33 7 1
72 7 1
78 7 1
8 8 1
34 8 1
73 8 1
79 8 1
9 9 1
35 9 1
74 9 1
80 9 1
10 10 1
36 10 1
75 10 1
81 10 1
11 11 1
37 11 1
76 11 1
82 11 1
12 12 1
38 12 1
77 12 1
83 12 1
13 13 1
39 13 1
78 13 1
84 13 1
14 14 1
40 14 1
79 14 1
85 14 1
15 15 1
41 15 1
80 15 1
86 15 1
16 16 1
42 16 1
81 16 1
87 16 1
17 17 1
43 17 1
82 17 1
88 17 1
18 18 1
44 18 1
83 18 1
89 18 1
19 19 1
45 19 1
84 19 1
90 19 1
20 20 1
46 20 1
85 20 1
91 20 1
21 21 1
47 21 1
86 21 1
92 21 1
22 22 1
48 22 1
87 22 1
93 22 1
23 23 1
49 23 1
88 23 1
94 23 1
24 24 1
50 24 1
89 24 1
95 24 1
25 25 1
51 25 1
90 25 1
96 25 1
26 26 1
52 26 1
91 26 1
97 26 1
27 27 1
53 27 1
92 27 1
98 27 1
28 28 1
54 28 1
93 28 1
99 28 1
29 29 1
55 29 1
94 29 1
100 29 1
30 30 1
56 30 1
95 30 1
101 30 1
31 31 1
57 31 1
96 31 1
102 31 1
32 32 1
58 32 1
97 32 1
103 32 1
33 33 1
59 33 1
98 33 1
104 33 1
34 34 1
60 34 1
99 34 1
105 34 1
35 35 1
61 35 1
100 35 1
106 35 1
36 36 1
62 36 1
101 36 1
107 36 1
37 37 1
63 37 1
102 37 1
108 37 1
38 38 1
64 38 1
103 38 1
109 38 1
39 39 1
65 39 1
104 39 1
110 39 1
1 40 1
40 40 1
105 40 1
111 40 1
2 41 1
41 41 1
106 41 1
112 41 1
3 42 1
42 42 1
107 42 1
113 42 1
4 43 1
43 43 1
108 43 1
114 43 1
5 44 1
44 44 1
109 44 1
115 44 1
6 45 1
45 45 1
110 45 1
116 45 1
7 46 1
46 46 1
111 46 1
117 46 1
8 47 1
47 47 1
112 47 1
118 47 1
9 48 1
48 48 1
113 48 1
119 48 1
10 49 1
49 49 1
114 49 1
120 49 1
11 50 1
50 50 1
115 50 1
121 50 1
12 51 1
51 51 1
116 51 1
122 51 1
13 52 1
52 52 1
117 52 1
123 52 1
14 53 1
53 53 1
118 53 1
124 53 1
15 54 1
54 54 1
119 54 1
125 54 1
16 55 1
55 55 1
120 55 1
126 55 1
17 56 1
56 56 1
121 56 1
127 56 1
18 57 1
57 57 1
122 57 1
128 57 1
19 58 1
58 58 1
123 58 1
129 58 1
20 59 1
59 59 1
124 59 1
130 59 1
21 60 1
60 60 1
66 60 1
125 60 1
22 61 1
61 61 1
67 61 1
126 61 1
23 62 1
62 62 1
68 62 1
127 62 1
24 63 1
63 63 1
69 63 1
128 63 1
25 64 1
64 64 1
70 64 1
129 64 1
26 65 1
65 65 1
71 65 1
130 65 1
1 66 1
51 66 1
131 66 1
137 66 1
2 67 1
52 67 1
132 67 1
138 67 1
3 68 1
53 68 1
133 68 1
139 68 1
4 69 1
54 69 1
134 69 1
140 69 1
5 70 1
55 70 1
135 70 1
141 70 1
6 71 1
56 71 1
136 71 1
142 71 1
7 72 1
57 72 1
137 72 1
143 72 1
8 73 1
58 73 1
138 73 1
144 73 1
9 74 1
59 74 1
139 74 1
145 74 1
10 75 1
60 75 1
140 75 1
146 75 1
11 76 1
61 76 1
141 76 1
147 76 1
12 77 1
62 77 1
142 77 1
148 77 1
13 78 1
63 78 1
143 78 1
149 78 1
14 79 1
64 79 1
144 79 1
150 79 1
15 80 1
65 80 1
145 80 1
151 80 1
1 81 1
16 81 1
146 81 1
152 81 1
2 82 1
17 82 1
147 82 1
153 82 1
3 83 1
18 83 1
148 83 1
154 83 1
4 84 1
19 84 1
149 84 1
155 84 1
5 85 1
20 85 1
150 85 1
156 85 1
6 86 1
21 86 1
151 86 1
157 86 1
7 87 1
22 87 1
152 87 1
158 87 1
8 88 1
23 88 1
153 88 1
159 88 1
9 89 1
24 89 1
154 89 1
160 89 1
10 90 1
25 90 1
155 90 1
161 90 1
11 91 1
26 91 1
156 91 1
162 91 1
12 92 1
27 92 1
157 92 1
163 92 1
13 93 1
28 93 1
158 93 1
164 93 1
14 94 1
29 94 1
159 94 1
165 94 1
15 95 1
30 95 1
160 95 1
166 95 1
16 96 1
31 96 1
161 96 1
167 96 1
17 97 1
32 97 1
162 97 1
168 97 1
18 98 1
33 98 1
163 98 1
169 98 1
19 99 1
34 99 1
164 99 1
170 99 1
20 100 1
35 100 1
165 100 1
171 100 1
21 101 1
36 101 1
166 101 1
172 101 1
22 102 1
37 102 1
167 102 1
173 102 1
23 103 1
38 103 1
168 103 1
174 103 1
24 104 1
39 104 1
169 104 1
175 104 1
25 105 1
40 105 1
170 105 1
176 105 1
26 106 1
41 106 1
171 106 1
177 106 1
27 107 1
42 107 1
172 107 1
178 107 1
28 108 1
43 108 1
173 108 1
179 108 1
29 109 1
44 109 1
174 109 1
180 109 1
30 110 1
45 110 1
175 110 1
181 110 1
31 111 1
46 111 1
176 111 1
182 111 1
32 112 1
47 112 1
177 112 1
183 112 1
33 113 1
48 113 1
178 113 1
184 113 1
34 114 1
49 114 1
179 114 1
185 114 1
35 115 1
50 115 1
180 115 1
186 115 1
36 116 1
51 116 1
181 116 1
187 116 1
37 117 1
52 117 1
182 117 1
188 117 1
38 118 1
53 118 1
183 118 1
189 118 1
39 119 1
54 119 1
184 119 1
190 119 1
40 120 1
55 120 1
185 120 1
191 120 1
41 121 1
56 121 1
186 121 1
192 121 1
42 122 1
57 122 1
187 122 1
193 122 1
43 123 1
58 123 1
188 123 1
194 123 1
44 124 1
59 124 1
189 124 1
195 124 1
45 125 1
60 125 1
131 125 1
190 125 1
46 126 1
61 126 1
132 126 1
191 126 1
47 127 1
62 127 1
133 127 1
192 127 1
48 128 1
63 128 1
134 128 1
193 128 1
49 129 1
64 129 1
135 129 1
194 129 1
50 130 1
65 130 1
136 130 1
195 130 1
66 131 1
116 131 1
131 131 1
157 131 1
67 132 1
117 132 1
132 132 1
158 132 1
68 133 1
118 133 1
133 133 1
159 133 1
69 134 1
119 134 1
134 134 1
160 134 1
70 135 1
120 135 1
135 135 1
161 135 1
71 136 1
121 136 1
136 136 1
162 136 1
72 137 1
122 137 1
137 137 1
163 137 1
73 138 1
123 138 1
138 138 1
164 138 1
74 139 1
124 139 1
139 139 1
165 139 1
75 140 1
125 140 1
140 140 1
166 140 1
76 141 1
126 141 1
141 141 1
167 141 1
77 142 1
127 142 1
142 142 1
168 142 1
78 143 1
128 143 1
143 143 1
169 143 1
79 144 1
129 144 1
144 144 1
170 144 1
80 145 1
130 145 1
145 145 1
171 145 1
66 146 1
81 146 1
146 146 1
172 146 1
67 147 1
82 147 1
147 147 1
173 147 1
68 148 1
83 148 1
148 148 1
174 148 1
69 149 1
84 149 1
149 149 1
175 149 1
70 150 1
85 150 1
150 150 1
176 150 1
71 151 1
86 151 1
151 151 1
177 151 1
72 152 1
87 152 1
152 152 1
178 152 1
73 153 1
88 153 1
153 153 1
179 153 1
74 154 1
89 154 1
154 154 1
180 154 1
75 155 1
90 155 1
155 155 1
181 155 1
76 156 1
91 156 1
156 156 1
182 156 1
77 157 1
92 157 1
157 157 1
183 157 1
78 158 1
93 158 1
158 158 1
184 158 1
79 159 1
94 159 1
159 159 1
185 159 1
80 160 1
95 160 1
160 160 1
186 160 1
81 161 1
96 161 1
161 161 1
187 161 1
82 162 1
97 162 1
162 162 1
188 162 1
83 163 1
98 163 1
163 163 1
189 163 1
84 164 1
99 164 1
164 164 1
190 164 1
85 165 1
100 165 1
165 165 1
191 165 1
86 166 1
101 166 1
166 166 1
192 166 1
87 167 1
102 167 1
167 167 1
193 167 1
88 168 1
103 168 1
168 168 1
194 168 1
89 169 1
104 169 1
169 169 1
195 169 1
90 170 1
105 170 1
131 170 1
170 170 1
91 171 1
106 171 1
132 171 1
171 171 1
92 172 1
107 172 1
133 172 1
172 172 1
93 173 1
108 173 1
134 173 1
173 173 1
94 174 1
109 174 1
135 174 1
174 174 1
95 175 1
110 175 1
136 175 1
175 175 1
96 176 1
111 176 1
137 176 1
176 176 1
97 177 1
112 177 1
138 177 1
177 177 1
98 178 1
113 178 1
139 178 1
178 178 1
99 179 1
114 179 1
140 179 1
179 179 1
100 180 1
115 180 1
141 180 1
180 180 1
101 181 1
116 181 1
142 181 1
181 181 1
102 182 1
117 182 1
143 182 1
182 182 1
103 183 1
118 183 1
144 183 1
183 183 1
104 184 1
119 184 1
145 184 1
184 184 1
105 185 1
120 185 1
146 185 1
185 185 1
106 186 1
121 186 1
147 186 1
186 186 1
107 187 1
122 187 1
148 187 1
187 187 1
108 188 1
123 188 1
149 188 1
188 188 1
109 189 1
124 189 1
150 189 1
189 189 1
110 190 1
125 190 1
151 190 1
190 190 1
111 191 1
126 191 1
152 191 1
191 191 1
112 192 1
127 192 1
153 192 1
192 192 1
113 193 1
128 193 1
154 193 1
193 193 1
114 194 1
129 194 1
155 194 1
194 194 1
115 195 1
130 195 1
156 195 1
195 195 1
1 196 1
58 196 1
196 196 1
202 196 1
2 197 1
59 197 1
197 197 1
203 197 1
3 198 1
60 198 1
198 198 1
204 198 1
4 199 1
61 199 1
199 199 1
205 199 1
5 200 1
62 200 1
200 200 1
206 200 1
6 201 1
63 201 1
201 201 1
207 201 1
7 202 1
64 202 1
202 202 1
208 202 1
8 203 1
65 203 1
203 203 1
209 203 1
1 204 1
9 204 1
204 204 1
210 204 1
2 205 1
10 205 1
205 205 1
211 205 1
3 206 1
11 206 1
206 206 1
212 206 1
4 207 1
12 207 1
207 207 1
213 207 1
5 208 1
13 208 1
208 208 1
214 208 1
6 209 1
14 209 1
209 209 1
215 209 1
7 210 1
15 210 1
210 210 1
216 210 1
8 211 1
16 211 1
211 211 1
217 211 1
9 212 1
17 212 1
212 212 1
218 212 1
10 213 1
18 213 1
213 213 1
219 213 1
11 214 1
19 214 1
214 214 1
220 214 1
12 215 1
20 215 1
215 215 1
221 215 1
13 216 1
21 216 1
216 216 1
222 216 1
14 217 1
22 217 1
217 217 1
223 217 1
15 218 1
23 218 1
218 218 1
224 218 1
16 219 1
24 219 1
219 219 1
225 219 1
17 220 1
25 220 1
220 220 1
226 220 1
18 221 1
26 221 1
221 221 1
227 221 1
19 222 1
27 222 1
222 222 1
228 222 1
20 223 1
28 223 1
223 223 1
229 223 1
21 224 1
29 224 1
224 224 1
230 224 1
22 225 1
30 225 1
225 225 1
231 225 1
23 226 1
31 226 1
226 226 1
232 226 1
24 227 1
32 227 1
227 227 1
233 227 1
25 228 1
33 228 1
228 228 1
234 228 1
26 229 1
34 229 1
229 229 1
235 229 1
27 230 1
35 230 1
230 230 1
236 230 1
28 231 1
36 231 1
231 231 1
237 231 1
29 232 1
37 232 1
232 232 1
238 232 1
30 233 1
38 233 1
233 233 1
239 233 1
31 234 1
39 234 1
234 234 1
240 234 1
32 235 1
40 235 1
235 235 1
241 235 1
33 236 1
41 236 1
236 236 1
242 236 1
34 237 1
42 237 1
237 237 1
243 237 1
35 238 1
43 238 1
238 238 1
244 238 1
36 239 1
44 239 1
239 239 1
245 239 1
37 240 1
45 240 1
240 240 1
246 240 1
38 241 1
46 241 1
241 241 1
247 241 1
39 242 1
47 242 1
242 242 1
248 242 1
40 243 1
48 243 1
243 243 1
249 243 1
41 244 1
49 244 1
244 244 1
250 244 1
42 245 1
50 245 1
245 245 1
251 245 1
43 246 1
51 246 1
246 246 1
252 246 1
44 247 1
52 247 1
247 247 1
253 247 1
45 248 1
53 248 1
248 248 1
254 248 1
46 249 1
54 249 1
249 249 1
255 249 1
47 250 1
55 250 1
250 250 1
256 250 1
48 251 1
56 251 1
251 251 1
257 251 1
49 252 1
57 252 1
252 252 1
258 252 1
50 253 1
58 253 1
253 253 1
259 253 1
51 254 1
59 254 1
254 254 1
260 254 1
52 255 1
60 255 1
196 255 1
255 255 1
53 256 1
61 256 1
197 256 1
256 256 1
54 257 1
62 257 1
198 257 1
257 257 1
55 258 1
63 258 1
199 258 1
258 258 1
56 259 1
64 259 1
200 259 1
259 259 1
57 260 1
65 260 1
201 260 1
260 260 1
66 261 1
123 261 1
196 261 1
222 261 1
67 262 1
124 262 1
197 262 1
223 262 1
68 263 1
125 263 1
198 263 1
224 263 1
69 264 1
126 264 1
199 264 1
225 264 1
70 265 1
127 265 1
200 265 1
226 265 1
71 266 1
128 266 1
201 266 1
227 266 1
72 267 1
129 267 1
202 267 1
228 267 1
73 268 1
130 268 1
203 268 1
229 268 1
66 269 1
74 269 1
204 269 1
230 269 1
67 270 1
75 270 1
205 270 1
231 270 1
68 271 1
76 271 1
206 271 1
232 271 1
69 272 1
77 272 1
207 272 1
233 272 1
70 273 1
78 273 1
208 273 1
234 273 1
71 274 1
79 274 1
209 274 1
235 274 1
72 275 1
80 275 1
210 275 1
236 275 1
73 276 1
81 276 1
211 276 1
237 276 1
74 277 1
82 277 1
212 277 1
238 277 1
75 278 1
83 278 1
213 278 1
239 278 1
76 279 1
84 279 1
214 279 1
240 279 1
77 280 1
85 280 1
215 280 1
241 280 1
78 281 1
86 281 1
216 281 1
242 281 1
79 282 1
87 282 1
217 282 1
243 282 1
80 283 1
88 283 1
218 283 1
244 283 1
81 284 1
89 284 1
219 284 1
245 284 1
82 285 1
90 285 1
220 285 1
246 285 1
83 286 1
91 286 1
221 286 1
247 286 1
84 287 1
92 287 1
222 287 1
248 287 1
85 288 1
93 288 1
223 288 1
249 288 1
86 289 1
94 289 1
224 289 1
250 289 1
87 290 1
95 290 1
225 290 1
251 290 1
88 291 1
96 291 1
226 291 1
252 291 1
89 292 1
97 292 1
227 292 1
253 292 1
90 293 1
98 293 1
228 293 1
254 293 1
91 294 1
99 294 1
229 294 1
255 294 1
92 295 1
100 295 1
230 295 1
256 295 1
93 296 1
101 296 1
231 296 1
257 296 1
94 297 1
102 297 1
232 297 1
258 297 1
95 298 1
103 298 1
233 298 1
259 298 1
96 299 1
104 299 1
234 299 1
260 299 1
97 300 1
105 300 1
196 300 1
235 300 1
98 301 1
106 301 1
197 301 1
236 301 1
99 302 1
107 302 1
198 302 1
237 302 1
100 303 1
108 303 1
199 303 1
238 303 1
101 304 1
109 304 1
200 304 1
239 304 1
102 305 1
110 305 1
201 305 1
240 305 1
103 306 1
111 306 1
202 306 1
241 306 1
104 307 1
112 307 1
203 307 1
242 307 1
105 308 1
113 308 1
204 308 1
243 308 1
106 309 1
114 309 1
205 309 1
244 309 1
107 310 1
115 310 1
206 310 1
245 310 1
108 311 1
116 311 1
207 311 1
246 311 1
109 312 1
117 312 1
208 312 1
247 312 1
110 313 1
118 313 1
209 313 1
248 313 1
111 314 1
119 314 1
210 314 1
249 314 1
112 315 1
120 315 1
211 315 1
250 315 1
113 316 1
121 316 1
212 316 1
251 316 1
114 317 1
122 317 1
213 317 1
252 317 1
115 318 1
123 318 1
214 318 1
253 318 1
116 319 1
124 319 1
215 319 1
254 319 1
117 320 1
125 320 1
216 320 1
255 320 1
118 321 1
126 321 1
217 321 1
256 321 1
119 322 1
127 322 1
218 322 1
257 322 1
120 323 1
128 323 1
219 323 1
258 323 1
121 324 1
129 324 1
220 324 1
259 324 1
122 325 1
130 325 1
221 325 1
260 325 1
131 326 1
188 326 1
196 326 1
246 326 1
132 327 1
189 327 1
197 327 1
247 327 1
133 328 1
190 328 1
198 328 1
248 328 1
134 329 1
191 329 1
199 329 1
249 329 1
135 330 1
192 330 1
200 330 1
250 330 1
136 331 1
193 331 1
201 331 1
251 331 1
137 332 1
194 332 1
202 332 1
252 332 1
138 333 1
195 333 1
203 333 1
253 333 1
131 334 1
139 334 1
204 334 1
254 334 1
132 335 1
140 335 1
205 335 1
255 335 1
133 336 1
141 336 1
206 336 1
256 336 1
134 337 1
142 337 1
207 337 1
257 337 1
135 338 1
143 338 1
208 338 1
258 338 1
136 339 1
144 339 1
209 339 1
259 339 1
137 340 1
145 340 1
210 340 1
260 340 1
138 341 1
146 341 1
196 341 1
211 341 1
139 342 1
147 342 1
197 342 1
212 342 1
140 343 1
148 343 1
198 343 1
213 343 1
141 344 1
149 344 1
199 344 1
214 344 1
142 345 1
150 345 1
200 345 1
215 345 1
143 346 1
151 346 1
201 346 1
216 346 1
144 347 1
152 347 1
202 347 1
217 347 1
145 348 1
153 348 1
203 348 1
218 348 1
146 349 1
154 349 1
204 349 1
219 349 1
147 350 1
155 350 1
205 350 1
220 350 1
148 351 1
156 351 1
206 351 1
221 351 1
149 352 1
157 352 1
207 352 1
222 352 1
150 353 1
158 353 1
208 353 1
223 353 1
151 354 1
159 354 1
209 354 1
224 354 1
152 355 1
160 355 1
210 355 1
225 355 1
153 356 1
161 356 1
211 356 1
226 356 1
154 357 1
162 357 1
212 357 1
227 357 1
155 358 1
163 358 1
213 358 1
228 358 1
156 359 1
164 359 1
214 359 1
229 359 1
157 360 1
165 360 1
215 360 1
230 360 1
158 361 1
166 361 1
216 361 1
231 361 1
159 362 1
167 362 1
217 362 1
232 362 1
160 363 1
168 363 1
218 363 1
233 363 1
161 364 1
169 364 1
219 364 1
234 364 1
162 365 1
170 365 1
220 365 1
235 365 1
163 366 1
171 366 1
221 366 1
236 366 1
164 367 1
172 367 1
222 367 1
237 367 1
165 368 1
173 368 1
223 368 1
238 368 1
166 369 1
174 369 1
224 369 1
239 369 1
167 370 1
175 370 1
225 370 1
240 370 1
168 371 1
176 371 1
226 371 1
241 371 1
169 372 1
177 372 1
227 372 1
242 372 1
170 373 1
178 373 1
228 373 1
243 373 1
171 374 1
179 374 1
229 374 1
244 374 1
172 375 1
180 375 1
230 375 1
245 375 1
173 376 1
181 376 1
231 376 1
246 376 1
174 377 1
182 377 1
232 377 1
247 377 1
175 378 1
183 378 1
233 378 1
248 378 1
176 379 1
184 379 1
234 379 1
249 379 1
177 380 1
185 380 1
235 380 1
250 380 1
178 381 1
186 381 1
236 381 1
251 381 1
179 382 1
187 382 1
237 382 1
252 382 1
180 383 1
188 383 1
238 383 1
253 383 1
181 384 1
189 384 1
239 384 1
254 384 1
182 385 1
190 385 1
240 385 1
255 385 1
183 386 1
191 386 1
241 386 1
256 386 1
184 387 1
192 387 1
242 387 1
257 387 1
185 388 1
193 388 1
243 388 1
258 388 1
186 389 1
194 389 1
244 389 1
259 389 1
187 390 1
195 390 1
245 390 1
260 390 1
