%%MatrixMarket matrix coordinate integer general
% Binary matrix; one-based indices; arithmetic over GF(2)
155 310 1240
1 1 1
10 1 1
32 1 1
40 1 1
2 2 1
11 2 1
33 2 1
41 2 1
3 3 1
12 3 1
34 3 1
42 3 1
4 4 1
13 4 1
35 4 1
43 4 1
5 5 1
14 5 1
36 5 1
44 5 1
6 6 1
15 6 1
37 6 1
45 6 1
7 7 1
16 7 1
38 7 1
46 7 1
8 8 1
17 8 1
39 8 1
47 8 1
9 9 1
18 9 1
40 9 1
48 9 1
10 10 1
19 10 1
41 10 1
49 10 1
11 11 1
20 11 1
42 11 1
50 11 1
12 12 1
21 12 1
43 12 1
51 12 1
13 13 1
22 13 1
44 13 1
52 13 1
14 14 1
23 14 1
45 14 1
53 14 1
15 15 1
24 15 1
46 15 1
54 15 1
16 16 1
25 16 1
47 16 1
55 16 1
17 17 1
26 17 1
48 17 1
56 17 1
18 18 1
27 18 1
49 18 1
57 18 1
19 19 1
28 19 1
50 19 1
58 19 1
20 20 1
29 20 1
51 20 1
59 20 1
21 21 1
30 21 1
52 21 1
60 21 1
22 22 1
31 22 1
53 22 1
61 22 1
1 23 1
23 23 1
54 23 1
62 23 1
2 24 1
24 24 1
32 24 1
55 24 1
3 25 1
25 25 1
33 25 1
56 25 1
4 26 1
26 26 1
34 26 1
57 26 1
5 27 1
27 27 1
35 27 1
58 27 1
6 28 1
28 28 1
36 28 1
59 28 1
7 29 1
29 29 1
37 29 1
60 29 1
8 30 1
30 30 1
38 30 1
61 30 1
9 31 1
31 31 1
39 31 1
62 31 1
1 32 1
14 32 1
63 32 1
71 32 1
2 33 1
15 33 1
64 33 1
72 33 1
3 34 1
16 34 1
65 34 1
73 34 1
4 35 1
17 35 1
66 35 1
74 35 1
5 36 1
18 36 1
67 36 1
75 36 1
6 37 1
19 37 1
68 37 1
76 37 1
7 38 1
20 38 1
69 38 1
77 38 1
8 39 1
21 39 1
70 39 1
78 39 1
9 40 1
22 40 1
71 40 1
79 40 1
10 41 1
23 41 1
72 41 1
80 41 1
11 42 1
24 42 1
73 42 1
81 42 1
12 43 1
25 43 1
74 43 1
82 43 1
13 44 1
26 44 1
75 44 1
83 44 1
14 45 1
27 45 1
76 45 1
84 45 1
15 46 1
28 46 1
77 46 1
85 46 1
16 47 1
29 47 1
78 47 1
86 47 1
17 48 1
30 48 1
79 48 1
87 48 1
18 49 1
31 49 1
80 49 1
88 49 1
1 50 1
19 50 1
81 50 1
89 50 1
2 51 1
20 51 1
82 51 1
90 51 1
3 52 1
21 52 1
83 52 1
91 52 1
4 53 1
22 53 1
84 53 1
92 53 1
5 54 1
23 54 1
85 54 1
93 54 1
6 55 1
24 55 1
63 55 1
86 55 1
7 56 1
25 56 1
64 56 1
87 56 1
8 57 1
26 57 1
65 57 1
88 57 1
9 58 1
27 58 1
66 58 1
89 58 1
10 59 1
28 59 1
67 59 1
90 59 1
11 60 1
29 60 1
68 60 1
91 60 1
12 61 1
30 61 1
69 61 1
92 61 1
13 62 1
31 62 1
70 62 1
93 62 1
32 63 1
45 63 1
63 63 1
72 63 1
33 64 1
46 64 1
64 64 1
73 64 1
34 65 1
47 65 1
65 65 1
74 65 1
35 66 1
48 66 1
66 66 1
75 66 1
36 67 1
49 67 1
67 67 1
76 67 1
37 68 1
50 68 1
68 68 1
77 68 1
38 69 1
51 69 1
69 69 1
78 69 1
39 70 1
52 70 1
70 70 1
79 70 1
40 71 1
53 71 1
71 71 1
80 71 1
41 72 1
54 72 1
72 72 1
81 72 1
42 73 1
55 73 1
73 73 1
82 73 1
43 74 1
56 74 1
74 74 1
83 74 1
44 75 1
57 75 1
75 75 1
84 75 1
45 76 1
58 76 1
76 76 1
85 76 1
46 77 1
59 77 1
77 77 1
86 77 1
47 78 1
60 78 1
78 78 1
87 78 1
48 79 1
61 79 1
79 79 1
88 79 1
49 80 1
62 80 1
80 80 1
89 80 1
32 81 1
50 81 1
81 81 1
90 81 1
33 82 1
51 82 1
82 82 1
91 82 1
34 83 1
52 83 1
83 83 1
92 83 1
35 84 1
53 84 1
84 84 1
93 84 1
36 85 1
54 85 1
63 85 1
85 85 1
37 86 1
55 86 1
64 86 1
86 86 1
38 87 1
56 87 1
65 87 1
87 87 1
39 88 1
57 88 1
66 88 1
88 88 1
40 89 1
58 89 1
67 89 1
89 89 1
41 90 1
59 90 1
68 90 1
90 90 1
42 91 1
60 91 1
69 91 1
91 91 1
43 92 1
61 92 1
70 92 1
92 92 1
44 93 1
62 93 1
71 93 1
93 93 1
1 94 1
17 94 1
94 94 1
102 94 1
2 95 1
18 95 1
95 95 1
103 95 1
3 96 1
19 96 1
96 96 1
104 96 1
4 97 1
20 97 1
97 97 1
105 97 1
5 98 1
21 98 1
98 98 1
106 98 1
6 99 1
22 99 1
99 99 1
107 99 1
7 100 1
23 100 1
100 100 1
108 100 1
8 101 1
24 101 1
101 101 1
109 101 1
9 102 1
25 102 1
102 102 1
110 102 1
10 103 1
26 103 1
103 103 1
111 103 1
11 104 1
27 104 1
104 104 1
112 104 1
12 105 1
28 105 1
105 105 1
113 105 1
13 106 1
29 106 1
106 106 1
114 106 1
14 107 1
30 107 1
107 107 1
115 107 1
15 108 1
31 108 1
108 108 1
116 108 1
1 109 1
16 109 1
109 109 1
117 109 1
2 110 1
17 110 1
110 110 1
118 110 1
3 111 1
18 111 1
111 111 1
119 111 1
4 112 1
19 112 1
112 112 1
120 112 1
5 113 1
20 113 1
113 113 1
121 113 1
6 114 1
21 114 1
114 114 1
122 114 1
7 115 1
22 115 1
115 115 1
123 115 1
8 116 1
23 116 1
116 116 1
124 116 1
9 117 1
24 117 1
94 117 1
117 117 1
10 118 1
25 118 1
95 118 1
118 118 1
11 119 1
26 119 1
96 119 1
119 119 1
12 120 1
27 120 1
97 120 1
120 120 1
13 121 1
28 121 1
98 121 1
121 121 1
14 122 1
29 122 1
99 122 1
122 122 1
15 123 1
30 123 1
100 123 1
123 123 1
16 124 1
31 124 1
101 124 1
124 124 1
32 125 1
48 125 1
94 125 1
103 125 1
33 126 1
49 126 1
95 126 1
104 126 1
34 127 1
50 127 1
96 127 1
105 127 1
35 128 1
51 128 1
97 128 1
106 128 1
36 129 1
52 129 1
98 129 1
107 129 1
37 130 1
53 130 1
99 130 1
108 130 1
38 131 1
54 131 1
100 131 1
109 131 1
39 132 1
55 132 1
101 132 1
110 132 1
40 133 1
56 133 1
102 133 1
111 133 1
41 134 1
57 134 1
103 134 1
112 134 1
42 135 1
58 135 1
104 135 1
113 135 1
43 136 1
59 136 1
105 136 1
114 136 1
44 137 1
60 137 1
106 137 1
115 137 1
45 138 1
61 138 1
107 138 1
116 138 1
46 139 1
62 139 1
108 139 1
117 139 1
32 140 1
47 140 1
109 140 1
118 140 1
33 141 1
48 141 1
110 141 1
119 141 1
34 142 1
49 142 1
111 142 1
120 142 1
35 143 1
50 143 1
112 143 1
121 143 1
36 144 1
51 144 1
113 144 1
122 144 1
37 145 1
52 145 1
114 145 1
123 145 1
38 146 1
53 146 1
115 146 1
124 146 1
39 147 1
54 147 1
94 147 1
116 147 1
40 148 1
55 148 1
95 148 1
117 148 1
41 149 1
56 149 1
96 149 1
118 149 1
42 150 1
57 150 1
97 150 1
119 150 1
43 151 1
58 151 1
98 151 1
120 151 1
44 152 1
59 152 1
99 152 1
121 152 1
45 153 1
60 153 1
100 153 1
122 153 1
46 154 1
61 154 1
101 154 1
123 154 1
47 155 1
62 155 1
102 155 1
124 155 1
63 156 1
79 156 1
94 156 1
107 156 1
64 157 1
80 157 1
95 157 1
108 157 1
65 158 1
81 158 1
96 158 1
109 158 1
66 159 1
82 159 1
97 159 1
110 159 1
67 160 1
83 160 1
98 160 1
111 160 1
68 161 1
84 161 1
99 161 1
112 161 1
69 162 1
85 162 1
100 162 1
113 162 1
70 163 1
86 163 1
101 163 1
114 163 1
71 164 1
87 164 1
102 164 1
115 164 1
72 165 1
88 165 1
103 165 1
116 165 1
73 166 1
89 166 1
104 166 1
117 166 1
74 167 1
90 167 1
105 167 1
118 167 1
75 168 1
91 168 1
106 168 1
119 168 1
76 169 1
92 169 1
107 169 1
120 169 1
77 170 1
93 170 1
108 170 1
121 170 1
63 171 1
78 171 1
109 171 1
122 171 1
64 172 1
79 172 1
110 172 1
123 172 1
65 173 1
80 173 1
111 173 1
124 173 1
66 174 1
81 174 1
94 174 1
112 174 1
67 175 1
82 175 1
95 175 1
113 175 1
68 176 1
83 176 1
96 176 1
114 176 1
69 177 1
84 177 1
97 177 1
115 177 1
70 178 1
85 178 1
98 178 1
116 178 1
71 179 1
86 179 1
99 179 1
117 179 1
72 180 1
87 180 1
100 180 1
118 180 1
73 181 1
88 181 1
101 181 1
119 181 1
74 182 1
89 182 1
102 182 1
120 182 1
75 183 1
90 183 1
103 183 1
121 183 1
76 184 1
91 184 1
104 184 1
122 184 1
77 185 1
92 185 1
105 185 1
123 185 1
78 186 1
93 186 1
106 186 1
124 186 1
1 187 1
29 187 1
125 187 1
133 187 1
2 188 1
30 188 1
126 188 1
134 188 1
3 189 1
31 189 1
127 189 1
135 189 1
1 190 1
4 190 1
128 190 1
136 190 1
2 191 1
5 191 1
129 191 1
137 191 1
3 192 1
6 192 1
130 192 1
138 192 1
4 193 1
7 193 1
131 193 1
139 193 1
5 194 1
8 194 1
132 194 1
140 194 1
6 195 1
9 195 1
133 195 1
141 195 1
7 196 1
10 196 1
134 196 1
142 196 1
8 197 1
11 197 1
135 197 1
143 197 1
9 198 1
12 198 1
136 198 1
144 198 1
10 199 1
13 199 1
137 199 1
145 199 1
11 200 1
14 200 1
138 200 1
146 200 1
12 201 1
15 201 1
139 201 1
147 201 1
13 202 1
16 202 1
140 202 1
148 202 1
14 203 1
17 203 1
141 203 1
149 203 1
15 204 1
18 204 1
142 204 1
150 204 1
16 205 1
19 205 1
143 205 1
151 205 1
17 206 1
20 206 1
144 206 1
152 206 1
18 207 1
21 207 1
145 207 1
153 207 1
19 208 1
22 208 1
146 208 1
154 208 1
20 209 1
23 209 1
147 209 1
155 209 1
21 210 1
24 210 1
125 210 1
148 210 1
22 211 1
25 211 1
126 211 1
149 211 1
23 212 1
26 212 1
127 212 1
150 212 1
24 213 1
27 213 1
128 213 1
151 213 1
25 214 1
28 214 1
129 214 1
152 214 1
26 215 1
29 215 1
130 215 1
153 215 1
27 216 1
30 216 1
131 216 1
154 216 1
28 217 1
31 217 1
132 217 1
155 217 1
32 218 1
60 218 1
125 218 1
134 218 1
33 219 1
61 219 1
126 219 1
135 219 1
34 220 1
62 220 1
127 220 1
136 220 1
32 221 1
35 221 1
128 221 1
137 221 1
33 222 1
36 222 1
129 222 1
138 222 1
34 223 1
37 223 1
130 223 1
139 223 1
35 224 1
38 224 1
131 224 1
140 224 1
36 225 1
39 225 1
132 225 1
141 225 1
37 226 1
40 226 1
133 226 1
142 226 1
38 227 1
41 227 1
134 227 1
143 227 1
39 228 1
42 228 1
135 228 1
144 228 1
40 229 1
43 229 1
136 229 1
145 229 1
41 230 1
44 230 1
137 230 1
146 230 1
42 231 1
45 231 1
138 231 1
147 231 1
43 232 1
46 232 1
139 232 1
148 232 1
44 233 1
47 233 1
140 233 1
149 233 1
45 234 1
48 234 1
141 234 1
150 234 1
46 235 1
49 235 1
142 235 1
151 235 1
47 236 1
50 236 1
143 236 1
152 236 1
48 237 1
51 237 1
144 237 1
153 237 1
49 238 1
52 238 1
145 238 1
154 238 1
50 239 1
53 239 1
146 239 1
155 239 1
51 240 1
54 240 1
125 240 1
147 240 1
52 241 1
55 241 1
126 241 1
148 241 1
53 242 1
56 242 1
127 242 1
149 242 1
54 243 1
57 243 1
128 243 1
150 243 1
55 244 1
58 244 1
129 244 1
151 244 1
56 245 1
59 245 1
130 245 1
152 245 1
57 246 1
60 246 1
131 246 1
153 246 1
58 247 1
61 247 1
132 247 1
154 247 1
59 248 1
62 248 1
133 248 1
155 248 1
63 249 1
91 249 1
125 249 1
138 249 1
64 250 1
92 250 1
126 250 1
139 250 1
65 251 1
93 251 1
127 251 1
140 251 1
63 252 1
66 252 1
128 252 1
141 252 1
64 253 1
67 253 1
129 253 1
142 253 1
65 254 1
68 254 1
130 254 1
143 254 1
66 255 1
69 255 1
131 255 1
144 255 1
67 256 1
70 256 1
132 256 1
145 256 1
68 257 1
71 257 1
133 257 1
146 257 1
69 258 1
72 258 1
134 258 1
147 258 1
70 259 1
73 259 1
135 259 1
148 259 1
71 260 1
74 260 1
136 260 1
149 260 1
72 261 1
75 261 1
137 261 1
150 261 1
73 262 1
76 262 1
138 262 1
151 262 1
74 263 1
77 263 1
139 263 1
152 263 1
75 264 1
78 264 1
140 264 1
153 264 1
76 265 1
79 265 1
141 265 1
154 265 1
77 266 1
80 266 1
142 266 1
155 266 1
78 267 1
81 267 1
125 267 1
143 267 1
79 268 1
82 268 1
126 268 1
144 268 1
80 269 1
83 269 1
127 269 1
145 269 1
81 270 1
84 270 1
128 270 1
146 270 1
82 271 1
85 271 1
129 271 1
147 271 1
83 272 1
86 272 1
130 272 1
148 272 1
84 273 1
87 273 1
131 273 1
149 273 1
85 274 1
88 274 1
132 274 1
150 274 1
86 275 1
89 275 1
133 275 1
151 275 1
87 276 1
90 276 1
134 276 1
152 276 1
88 277 1
91 277 1
135 277 1
153 277 1
89 278 1
92 278 1
136 278 1
154 278 1
90 279 1
93 279 1
137 279 1
155 279 1
94 280 1
122 280 1
125 280 1
141 280 1
95 281 1
123 281 1
126 281 1
142 281 1
96 282 1
124 282 1
127 282 1
143 282 1
94 283 1
97 283 1
128 283 1
144 283 1
95 284 1
98 284 1
129 284 1
145 284 1
96 285 1
99 285 1
130 285 1
146 285 1
97 286 1
100 286 1
131 286 1
147 286 1
98 287 1
101 287 1
132 287 1
148 287 1
99 288 1
102 288 1
133 288 1
149 288 1
100 289 1
103 289 1
134 289 1
150 289 1
101 290 1
104 290 1
135 290 1
151 290 1
102 291 1
105 291 1
136 291 1
152 291 1
103 292 1
106 292 1
137 292 1
153 292 1
104 293 1
107 293 1
138 293 1
154 293 1
105 294 1
108 294 1
139 294 1
155 294 1
106 295 1
109 295 1
125 295 1
140 295 1
107 296 1
110 296 1
126 296 1
141 296 1
108 297 1
111 297 1
127 297 1
142 297 1
109 298 1
112 298 1
128 298 1
143 298 1
110 299 1
113 299 1
129 299 1
144 299 1
111 300 1
114 300 1
130 300 1
145 300 1
112 301 1
115 301 1
131 301 1
146 301 1
113 302 1
116 302 1
132 302 1
147 302 1
114 303 1
117 303 1
133 303 1
148 303 1
115 304 1
118 304 1
134 304 1
149 304 1
116 305 1
119 305 1
135 305 1
150 305 1
117 306 1
120 306 1
136 306 1
151 306 1
118 307 1
121 307 1
137 307 1
152 307 1
119 308 1
122 308 1
138 308 1
153 308 1
120 309 1
123 309 1
139 309 1
154 309 1
121 310 1
124 310 1
140 310 1
155 310 1
