%%MatrixMarket matrix coordinate integer general
% Binary matrix; one-based indices; arithmetic over GF(2)
690 690 4140
1 1 1
26 1 1
70 1 1
79 1 1
277 1 1
280 1 1
2 2 1
27 2 1
71 2 1
80 2 1
278 2 1
281 2 1
3 3 1
28 3 1
72 3 1
81 3 1
279 3 1
282 3 1
4 4 1
29 4 1
73 4 1
82 4 1
280 4 1
283 4 1
5 5 1
30 5 1
74 5 1
83 5 1
281 5 1
284 5 1
6 6 1
31 6 1
75 6 1
84 6 1
282 6 1
285 6 1
7 7 1
32 7 1
76 7 1
85 7 1
283 7 1
286 7 1
8 8 1
33 8 1
77 8 1
86 8 1
284 8 1
287 8 1
9 9 1
34 9 1
78 9 1
87 9 1
285 9 1
288 9 1
10 10 1
35 10 1
79 10 1
88 10 1
286 10 1
289 10 1
11 11 1
36 11 1
80 11 1
89 11 1
287 11 1
290 11 1
12 12 1
37 12 1
81 12 1
90 12 1
288 12 1
291 12 1
13 13 1
38 13 1
82 13 1
91 13 1
289 13 1
292 13 1
14 14 1
39 14 1
83 14 1
92 14 1
290 14 1
293 14 1
15 15 1
40 15 1
84 15 1
93 15 1
291 15 1
294 15 1
16 16 1
41 16 1
85 16 1
94 16 1
292 16 1
295 16 1
17 17 1
42 17 1
86 17 1
95 17 1
293 17 1
296 17 1
18 18 1
43 18 1
87 18 1
96 18 1
294 18 1
297 18 1
19 19 1
44 19 1
88 19 1
97 19 1
295 19 1
298 19 1
20 20 1
45 20 1
89 20 1
98 20 1
296 20 1
299 20 1
21 21 1
46 21 1
90 21 1
99 21 1
297 21 1
300 21 1
22 22 1
47 22 1
91 22 1
100 22 1
298 22 1
301 22 1
23 23 1
48 23 1
92 23 1
101 23 1
299 23 1
302 23 1
24 24 1
49 24 1
93 24 1
102 24 1
300 24 1
303 24 1
25 25 1
50 25 1
94 25 1
103 25 1
301 25 1
304 25 1
26 26 1
51 26 1
95 26 1
104 26 1
302 26 1
305 26 1
27 27 1
52 27 1
96 27 1
105 27 1
303 27 1
306 27 1
28 28 1
53 28 1
97 28 1
106 28 1
304 28 1
307 28 1
29 29 1
54 29 1
98 29 1
107 29 1
305 29 1
308 29 1
30 30 1
55 30 1
99 30 1
108 30 1
306 30 1
309 30 1
31 31 1
56 31 1
100 31 1
109 31 1
307 31 1
310 31 1
32 32 1
57 32 1
101 32 1
110 32 1
308 32 1
311 32 1
33 33 1
58 33 1
102 33 1
111 33 1
309 33 1
312 33 1
34 34 1
59 34 1
103 34 1
112 34 1
310 34 1
313 34 1
35 35 1
60 35 1
104 35 1
113 35 1
311 35 1
314 35 1
36 36 1
61 36 1
105 36 1
114 36 1
312 36 1
315 36 1
37 37 1
62 37 1
106 37 1
115 37 1
313 37 1
316 37 1
38 38 1
63 38 1
107 38 1
116 38 1
314 38 1
317 38 1
39 39 1
64 39 1
108 39 1
117 39 1
315 39 1
318 39 1
40 40 1
65 40 1
109 40 1
118 40 1
316 40 1
319 40 1
41 41 1
66 41 1
110 41 1
119 41 1
317 41 1
320 41 1
42 42 1
67 42 1
111 42 1
120 42 1
318 42 1
321 42 1
43 43 1
68 43 1
112 43 1
121 43 1
319 43 1
322 43 1
44 44 1
69 44 1
113 44 1
122 44 1
320 44 1
323 44 1
1 45 1
45 45 1
114 45 1
123 45 1
321 45 1
324 45 1
2 46 1
46 46 1
115 46 1
124 46 1
322 46 1
325 46 1
3 47 1
47 47 1
116 47 1
125 47 1
323 47 1
326 47 1
4 48 1
48 48 1
117 48 1
126 48 1
324 48 1
327 48 1
5 49 1
49 49 1
118 49 1
127 49 1
325 49 1
328 49 1
6 50 1
50 50 1
119 50 1
128 50 1
326 50 1
329 50 1
7 51 1
51 51 1
120 51 1
129 51 1
327 51 1
330 51 1
8 52 1
52 52 1
121 52 1
130 52 1
328 52 1
331 52 1
9 53 1
53 53 1
122 53 1
131 53 1
329 53 1
332 53 1
10 54 1
54 54 1
123 54 1
132 54 1
330 54 1
333 54 1
11 55 1
55 55 1
124 55 1
133 55 1
331 55 1
334 55 1
12 56 1
56 56 1
125 56 1
134 56 1
332 56 1
335 56 1
13 57 1
57 57 1
126 57 1
135 57 1
333 57 1
336 57 1
14 58 1
58 58 1
127 58 1
136 58 1
334 58 1
337 58 1
15 59 1
59 59 1
128 59 1
137 59 1
335 59 1
338 59 1
16 60 1
60 60 1
129 60 1
138 60 1
336 60 1
339 60 1
17 61 1
61 61 1
70 61 1
130 61 1
337 61 1
340 61 1
18 62 1
62 62 1
71 62 1
131 62 1
338 62 1
341 62 1
19 63 1
63 63 1
72 63 1
132 63 1
339 63 1
342 63 1
20 64 1
64 64 1
73 64 1
133 64 1
340 64 1
343 64 1
21 65 1
65 65 1
74 65 1
134 65 1
341 65 1
344 65 1
22 66 1
66 66 1
75 66 1
135 66 1
342 66 1
345 66 1
23 67 1
67 67 1
76 67 1
136 67 1
277 67 1
343 67 1
24 68 1
68 68 1
77 68 1
137 68 1
278 68 1
344 68 1
25 69 1
69 69 1
78 69 1
138 69 1
279 69 1
345 69 1
1 70 1
43 70 1
139 70 1
148 70 1
346 70 1
349 70 1
2 71 1
44 71 1
140 71 1
149 71 1
347 71 1
350 71 1
3 72 1
45 72 1
141 72 1
150 72 1
348 72 1
351 72 1
4 73 1
46 73 1
142 73 1
151 73 1
349 73 1
352 73 1
5 74 1
47 74 1
143 74 1
152 74 1
350 74 1
353 74 1
6 75 1
48 75 1
144 75 1
153 75 1
351 75 1
354 75 1
7 76 1
49 76 1
145 76 1
154 76 1
352 76 1
355 76 1
8 77 1
50 77 1
146 77 1
155 77 1
353 77 1
356 77 1
9 78 1
51 78 1
147 78 1
156 78 1
354 78 1
357 78 1
10 79 1
52 79 1
148 79 1
157 79 1
355 79 1
358 79 1
11 80 1
53 80 1
149 80 1
158 80 1
356 80 1
359 80 1
12 81 1
54 81 1
150 81 1
159 81 1
357 81 1
360 81 1
13 82 1
55 82 1
151 82 1
160 82 1
358 82 1
361 82 1
14 83 1
56 83 1
152 83 1
161 83 1
359 83 1
362 83 1
15 84 1
57 84 1
153 84 1
162 84 1
360 84 1
363 84 1
16 85 1
58 85 1
154 85 1
163 85 1
361 85 1
364 85 1
17 86 1
59 86 1
155 86 1
164 86 1
362 86 1
365 86 1
18 87 1
60 87 1
156 87 1
165 87 1
363 87 1
366 87 1
19 88 1
61 88 1
157 88 1
166 88 1
364 88 1
367 88 1
20 89 1
62 89 1
158 89 1
167 89 1
365 89 1
368 89 1
21 90 1
63 90 1
159 90 1
168 90 1
366 90 1
369 90 1
22 91 1
64 91 1
160 91 1
169 91 1
367 91 1
370 91 1
23 92 1
65 92 1
161 92 1
170 92 1
368 92 1
371 92 1
24 93 1
66 93 1
162 93 1
171 93 1
369 93 1
372 93 1
25 94 1
67 94 1
163 94 1
172 94 1
370 94 1
373 94 1
26 95 1
68 95 1
164 95 1
173 95 1
371 95 1
374 95 1
27 96 1
69 96 1
165 96 1
174 96 1
372 96 1
375 96 1
1 97 1
28 97 1
166 97 1
175 97 1
373 97 1
376 97 1
2 98 1
29 98 1
167 98 1
176 98 1
374 98 1
377 98 1
3 99 1
30 99 1
168 99 1
177 99 1
375 99 1
378 99 1
4 100 1
31 100 1
169 100 1
178 100 1
376 100 1
379 100 1
5 101 1
32 101 1
170 101 1
179 101 1
377 101 1
380 101 1
6 102 1
33 102 1
171 102 1
180 102 1
378 102 1
381 102 1
7 103 1
34 103 1
172 103 1
181 103 1
379 103 1
382 103 1
8 104 1
35 104 1
173 104 1
182 104 1
380 104 1
383 104 1
9 105 1
36 105 1
174 105 1
183 105 1
381 105 1
384 105 1
10 106 1
37 106 1
175 106 1
184 106 1
382 106 1
385 106 1
11 107 1
38 107 1
176 107 1
185 107 1
383 107 1
386 107 1
12 108 1
39 108 1
177 108 1
186 108 1
384 108 1
387 108 1
13 109 1
40 109 1
178 109 1
187 109 1
385 109 1
388 109 1
14 110 1
41 110 1
179 110 1
188 110 1
386 110 1
389 110 1
15 111 1
42 111 1
180 111 1
189 111 1
387 111 1
390 111 1
16 112 1
43 112 1
181 112 1
190 112 1
388 112 1
391 112 1
17 113 1
44 113 1
182 113 1
191 113 1
389 113 1
392 113 1
18 114 1
45 114 1
183 114 1
192 114 1
390 114 1
393 114 1
19 115 1
46 115 1
184 115 1
193 115 1
391 115 1
394 115 1
20 116 1
47 116 1
185 116 1
194 116 1
392 116 1
395 116 1
21 117 1
48 117 1
186 117 1
195 117 1
393 117 1
396 117 1
22 118 1
49 118 1
187 118 1
196 118 1
394 118 1
397 118 1
23 119 1
50 119 1
188 119 1
197 119 1
395 119 1
398 119 1
24 120 1
51 120 1
189 120 1
198 120 1
396 120 1
399 120 1
25 121 1
52 121 1
190 121 1
199 121 1
397 121 1
400 121 1
26 122 1
53 122 1
191 122 1
200 122 1
398 122 1
401 122 1
27 123 1
54 123 1
192 123 1
201 123 1
399 123 1
402 123 1
28 124 1
55 124 1
193 124 1
202 124 1
400 124 1
403 124 1
29 125 1
56 125 1
194 125 1
203 125 1
401 125 1
404 125 1
30 126 1
57 126 1
195 126 1
204 126 1
402 126 1
405 126 1
31 127 1
58 127 1
196 127 1
205 127 1
403 127 1
406 127 1
32 128 1
59 128 1
197 128 1
206 128 1
404 128 1
407 128 1
33 129 1
60 129 1
198 129 1
207 129 1
405 129 1
408 129 1
34 130 1
61 130 1
139 130 1
199 130 1
406 130 1
409 130 1
35 131 1
62 131 1
140 131 1
200 131 1
407 131 1
410 131 1
36 132 1
63 132 1
141 132 1
201 132 1
408 132 1
411 132 1
37 133 1
64 133 1
142 133 1
202 133 1
409 133 1
412 133 1
38 134 1
65 134 1
143 134 1
203 134 1
410 134 1
413 134 1
39 135 1
66 135 1
144 135 1
204 135 1
411 135 1
414 135 1
40 136 1
67 136 1
145 136 1
205 136 1
346 136 1
412 136 1
41 137 1
68 137 1
146 137 1
206 137 1
347 137 1
413 137 1
42 138 1
69 138 1
147 138 1
207 138 1
348 138 1
414 138 1
1 139 1
66 139 1
208 139 1
217 139 1
415 139 1
418 139 1
2 140 1
67 140 1
209 140 1
218 140 1
416 140 1
419 140 1
3 141 1
68 141 1
210 141 1
219 141 1
417 141 1
420 141 1
4 142 1
69 142 1
211 142 1
220 142 1
418 142 1
421 142 1
1 143 1
5 143 1
212 143 1
221 143 1
419 143 1
422 143 1
2 144 1
6 144 1
213 144 1
222 144 1
420 144 1
423 144 1
3 145 1
7 145 1
214 145 1
223 145 1
421 145 1
424 145 1
4 146 1
8 146 1
215 146 1
224 146 1
422 146 1
425 146 1
5 147 1
9 147 1
216 147 1
225 147 1
423 147 1
426 147 1
6 148 1
10 148 1
217 148 1
226 148 1
424 148 1
427 148 1
7 149 1
11 149 1
218 149 1
227 149 1
425 149 1
428 149 1
8 150 1
12 150 1
219 150 1
228 150 1
426 150 1
429 150 1
9 151 1
13 151 1
220 151 1
229 151 1
427 151 1
430 151 1
10 152 1
14 152 1
221 152 1
230 152 1
428 152 1
431 152 1
11 153 1
15 153 1
222 153 1
231 153 1
429 153 1
432 153 1
12 154 1
16 154 1
223 154 1
232 154 1
430 154 1
433 154 1
13 155 1
17 155 1
224 155 1
233 155 1
431 155 1
434 155 1
14 156 1
18 156 1
225 156 1
234 156 1
432 156 1
435 156 1
15 157 1
19 157 1
226 157 1
235 157 1
433 157 1
436 157 1
16 158 1
20 158 1
227 158 1
236 158 1
434 158 1
437 158 1
17 159 1
21 159 1
228 159 1
237 159 1
435 159 1
438 159 1
18 160 1
22 160 1
229 160 1
238 160 1
436 160 1
439 160 1
19 161 1
23 161 1
230 161 1
239 161 1
437 161 1
440 161 1
20 162 1
24 162 1
231 162 1
240 162 1
438 162 1
441 162 1
21 163 1
25 163 1
232 163 1
241 163 1
439 163 1
442 163 1
22 164 1
26 164 1
233 164 1
242 164 1
440 164 1
443 164 1
23 165 1
27 165 1
234 165 1
243 165 1
441 165 1
444 165 1
24 166 1
28 166 1
235 166 1
244 166 1
442 166 1
445 166 1
25 167 1
29 167 1
236 167 1
245 167 1
443 167 1
446 167 1
26 168 1
30 168 1
237 168 1
246 168 1
444 168 1
447 168 1
27 169 1
31 169 1
238 169 1
247 169 1
445 169 1
448 169 1
28 170 1
32 170 1
239 170 1
248 170 1
446 170 1
449 170 1
29 171 1
33 171 1
240 171 1
249 171 1
447 171 1
450 171 1
30 172 1
34 172 1
241 172 1
250 172 1
448 172 1
451 172 1
31 173 1
35 173 1
242 173 1
251 173 1
449 173 1
452 173 1
32 174 1
36 174 1
243 174 1
252 174 1
450 174 1
453 174 1
33 175 1
37 175 1
244 175 1
253 175 1
451 175 1
454 175 1
34 176 1
38 176 1
245 176 1
254 176 1
452 176 1
455 176 1
35 177 1
39 177 1
246 177 1
255 177 1
453 177 1
456 177 1
36 178 1
40 178 1
247 178 1
256 178 1
454 178 1
457 178 1
37 179 1
41 179 1
248 179 1
257 179 1
455 179 1
458 179 1
38 180 1
42 180 1
249 180 1
258 180 1
456 180 1
459 180 1
39 181 1
43 181 1
250 181 1
259 181 1
457 181 1
460 181 1
40 182 1
44 182 1
251 182 1
260 182 1
458 182 1
461 182 1
41 183 1
45 183 1
252 183 1
261 183 1
459 183 1
462 183 1
42 184 1
46 184 1
253 184 1
262 184 1
460 184 1
463 184 1
43 185 1
47 185 1
254 185 1
263 185 1
461 185 1
464 185 1
44 186 1
48 186 1
255 186 1
264 186 1
462 186 1
465 186 1
45 187 1
49 187 1
256 187 1
265 187 1
463 187 1
466 187 1
46 188 1
50 188 1
257 188 1
266 188 1
464 188 1
467 188 1
47 189 1
51 189 1
258 189 1
267 189 1
465 189 1
468 189 1
48 190 1
52 190 1
259 190 1
268 190 1
466 190 1
469 190 1
49 191 1
53 191 1
260 191 1
269 191 1
467 191 1
470 191 1
50 192 1
54 192 1
261 192 1
270 192 1
468 192 1
471 192 1
51 193 1
55 193 1
262 193 1
271 193 1
469 193 1
472 193 1
52 194 1
56 194 1
263 194 1
272 194 1
470 194 1
473 194 1
53 195 1
57 195 1
264 195 1
273 195 1
471 195 1
474 195 1
54 196 1
58 196 1
265 196 1
274 196 1
472 196 1
475 196 1
55 197 1
59 197 1
266 197 1
275 197 1
473 197 1
476 197 1
56 198 1
60 198 1
267 198 1
276 198 1
474 198 1
477 198 1
57 199 1
61 199 1
208 199 1
268 199 1
475 199 1
478 199 1
58 200 1
62 200 1
209 200 1
269 200 1
476 200 1
479 200 1
59 201 1
63 201 1
210 201 1
270 201 1
477 201 1
480 201 1
60 202 1
64 202 1
211 202 1
271 202 1
478 202 1
481 202 1
61 203 1
65 203 1
212 203 1
272 203 1
479 203 1
482 203 1
62 204 1
66 204 1
213 204 1
273 204 1
480 204 1
483 204 1
63 205 1
67 205 1
214 205 1
274 205 1
415 205 1
481 205 1
64 206 1
68 206 1
215 206 1
275 206 1
416 206 1
482 206 1
65 207 1
69 207 1
216 207 1
276 207 1
417 207 1
483 207 1
70 208 1
112 208 1
139 208 1
164 208 1
484 208 1
487 208 1
71 209 1
113 209 1
140 209 1
165 209 1
485 209 1
488 209 1
72 210 1
114 210 1
141 210 1
166 210 1
486 210 1
489 210 1
73 211 1
115 211 1
142 211 1
167 211 1
487 211 1
490 211 1
74 212 1
116 212 1
143 212 1
168 212 1
488 212 1
491 212 1
75 213 1
117 213 1
144 213 1
169 213 1
489 213 1
492 213 1
76 214 1
118 214 1
145 214 1
170 214 1
490 214 1
493 214 1
77 215 1
119 215 1
146 215 1
171 215 1
491 215 1
494 215 1
78 216 1
120 216 1
147 216 1
172 216 1
492 216 1
495 216 1
79 217 1
121 217 1
148 217 1
173 217 1
493 217 1
496 217 1
80 218 1
122 218 1
149 218 1
174 218 1
494 218 1
497 218 1
81 219 1
123 219 1
150 219 1
175 219 1
495 219 1
498 219 1
82 220 1
124 220 1
151 220 1
176 220 1
496 220 1
499 220 1
83 221 1
125 221 1
152 221 1
177 221 1
497 221 1
500 221 1
84 222 1
126 222 1
153 222 1
178 222 1
498 222 1
501 222 1
85 223 1
127 223 1
154 223 1
179 223 1
499 223 1
502 223 1
86 224 1
128 224 1
155 224 1
180 224 1
500 224 1
503 224 1
87 225 1
129 225 1
156 225 1
181 225 1
501 225 1
504 225 1
88 226 1
130 226 1
157 226 1
182 226 1
502 226 1
505 226 1
89 227 1
131 227 1
158 227 1
183 227 1
503 227 1
506 227 1
90 228 1
132 228 1
159 228 1
184 228 1
504 228 1
507 228 1
91 229 1
133 229 1
160 229 1
185 229 1
505 229 1
508 229 1
92 230 1
134 230 1
161 230 1
186 230 1
506 230 1
509 230 1
93 231 1
135 231 1
162 231 1
187 231 1
507 231 1
510 231 1
94 232 1
136 232 1
163 232 1
188 232 1
508 232 1
511 232 1
95 233 1
137 233 1
164 233 1
189 233 1
509 233 1
512 233 1
96 234 1
138 234 1
165 234 1
190 234 1
510 234 1
513 234 1
70 235 1
97 235 1
166 235 1
191 235 1
511 235 1
514 235 1
71 236 1
98 236 1
167 236 1
192 236 1
512 236 1
515 236 1
72 237 1
99 237 1
168 237 1
193 237 1
513 237 1
516 237 1
73 238 1
100 238 1
169 238 1
194 238 1
514 238 1
517 238 1
74 239 1
101 239 1
170 239 1
195 239 1
515 239 1
518 239 1
75 240 1
102 240 1
171 240 1
196 240 1
516 240 1
519 240 1
76 241 1
103 241 1
172 241 1
197 241 1
517 241 1
520 241 1
77 242 1
104 242 1
173 242 1
198 242 1
518 242 1
521 242 1
78 243 1
105 243 1
174 243 1
199 243 1
519 243 1
522 243 1
79 244 1
106 244 1
175 244 1
200 244 1
520 244 1
523 244 1
80 245 1
107 245 1
176 245 1
201 245 1
521 245 1
524 245 1
81 246 1
108 246 1
177 246 1
202 246 1
522 246 1
525 246 1
82 247 1
109 247 1
178 247 1
203 247 1
523 247 1
526 247 1
83 248 1
110 248 1
179 248 1
204 248 1
524 248 1
527 248 1
84 249 1
111 249 1
180 249 1
205 249 1
525 249 1
528 249 1
85 250 1
112 250 1
181 250 1
206 250 1
526 250 1
529 250 1
86 251 1
113 251 1
182 251 1
207 251 1
527 251 1
530 251 1
87 252 1
114 252 1
139 252 1
183 252 1
528 252 1
531 252 1
88 253 1
115 253 1
140 253 1
184 253 1
529 253 1
532 253 1
89 254 1
116 254 1
141 254 1
185 254 1
530 254 1
533 254 1
90 255 1
117 255 1
142 255 1
186 255 1
531 255 1
534 255 1
91 256 1
118 256 1
143 256 1
187 256 1
532 256 1
535 256 1
92 257 1
119 257 1
144 257 1
188 257 1
533 257 1
536 257 1
93 258 1
120 258 1
145 258 1
189 258 1
534 258 1
537 258 1
94 259 1
121 259 1
146 259 1
190 259 1
535 259 1
538 259 1
95 260 1
122 260 1
147 260 1
191 260 1
536 260 1
539 260 1
96 261 1
123 261 1
148 261 1
192 261 1
537 261 1
540 261 1
97 262 1
124 262 1
149 262 1
193 262 1
538 262 1
541 262 1
98 263 1
125 263 1
150 263 1
194 263 1
539 263 1
542 263 1
99 264 1
126 264 1
151 264 1
195 264 1
540 264 1
543 264 1
100 265 1
127 265 1
152 265 1
196 265 1
541 265 1
544 265 1
101 266 1
128 266 1
153 266 1
197 266 1
542 266 1
545 266 1
102 267 1
129 267 1
154 267 1
198 267 1
543 267 1
546 267 1
103 268 1
130 268 1
155 268 1
199 268 1
544 268 1
547 268 1
104 269 1
131 269 1
156 269 1
200 269 1
545 269 1
548 269 1
105 270 1
132 270 1
157 270 1
201 270 1
546 270 1
549 270 1
106 271 1
133 271 1
158 271 1
202 271 1
547 271 1
550 271 1
107 272 1
134 272 1
159 272 1
203 272 1
548 272 1
551 272 1
108 273 1
135 273 1
160 273 1
204 273 1
549 273 1
552 273 1
109 274 1
136 274 1
161 274 1
205 274 1
484 274 1
550 274 1
110 275 1
137 275 1
162 275 1
206 275 1
485 275 1
551 275 1
111 276 1
138 276 1
163 276 1
207 276 1
486 276 1
552 276 1
70 277 1
135 277 1
208 277 1
233 277 1
553 277 1
556 277 1
71 278 1
136 278 1
209 278 1
234 278 1
554 278 1
557 278 1
72 279 1
137 279 1
210 279 1
235 279 1
555 279 1
558 279 1
73 280 1
138 280 1
211 280 1
236 280 1
556 280 1
559 280 1
70 281 1
74 281 1
212 281 1
237 281 1
557 281 1
560 281 1
71 282 1
75 282 1
213 282 1
238 282 1
558 282 1
561 282 1
72 283 1
76 283 1
214 283 1
239 283 1
559 283 1
562 283 1
73 284 1
77 284 1
215 284 1
240 284 1
560 284 1
563 284 1
74 285 1
78 285 1
216 285 1
241 285 1
561 285 1
564 285 1
75 286 1
79 286 1
217 286 1
242 286 1
562 286 1
565 286 1
76 287 1
80 287 1
218 287 1
243 287 1
563 287 1
566 287 1
77 288 1
81 288 1
219 288 1
244 288 1
564 288 1
567 288 1
78 289 1
82 289 1
220 289 1
245 289 1
565 289 1
568 289 1
79 290 1
83 290 1
221 290 1
246 290 1
566 290 1
569 290 1
80 291 1
84 291 1
222 291 1
247 291 1
567 291 1
570 291 1
81 292 1
85 292 1
223 292 1
248 292 1
568 292 1
571 292 1
82 293 1
86 293 1
224 293 1
249 293 1
569 293 1
572 293 1
83 294 1
87 294 1
225 294 1
250 294 1
570 294 1
573 294 1
84 295 1
88 295 1
226 295 1
251 295 1
571 295 1
574 295 1
85 296 1
89 296 1
227 296 1
252 296 1
572 296 1
575 296 1
86 297 1
90 297 1
228 297 1
253 297 1
573 297 1
576 297 1
87 298 1
91 298 1
229 298 1
254 298 1
574 298 1
577 298 1
88 299 1
92 299 1
230 299 1
255 299 1
575 299 1
578 299 1
89 300 1
93 300 1
231 300 1
256 300 1
576 300 1
579 300 1
90 301 1
94 301 1
232 301 1
257 301 1
577 301 1
580 301 1
91 302 1
95 302 1
233 302 1
258 302 1
578 302 1
581 302 1
92 303 1
96 303 1
234 303 1
259 303 1
579 303 1
582 303 1
93 304 1
97 304 1
235 304 1
260 304 1
580 304 1
583 304 1
94 305 1
98 305 1
236 305 1
261 305 1
581 305 1
584 305 1
95 306 1
99 306 1
237 306 1
262 306 1
582 306 1
585 306 1
96 307 1
100 307 1
238 307 1
263 307 1
583 307 1
586 307 1
97 308 1
101 308 1
239 308 1
264 308 1
584 308 1
587 308 1
98 309 1
102 309 1
240 309 1
265 309 1
585 309 1
588 309 1
99 310 1
103 310 1
241 310 1
266 310 1
586 310 1
589 310 1
100 311 1
104 311 1
242 311 1
267 311 1
587 311 1
590 311 1
101 312 1
105 312 1
243 312 1
268 312 1
588 312 1
591 312 1
102 313 1
106 313 1
244 313 1
269 313 1
589 313 1
592 313 1
103 314 1
107 314 1
245 314 1
270 314 1
590 314 1
593 314 1
104 315 1
108 315 1
246 315 1
271 315 1
591 315 1
594 315 1
105 316 1
109 316 1
247 316 1
272 316 1
592 316 1
595 316 1
106 317 1
110 317 1
248 317 1
273 317 1
593 317 1
596 317 1
107 318 1
111 318 1
249 318 1
274 318 1
594 318 1
597 318 1
108 319 1
112 319 1
250 319 1
275 319 1
595 319 1
598 319 1
109 320 1
113 320 1
251 320 1
276 320 1
596 320 1
599 320 1
110 321 1
114 321 1
208 321 1
252 321 1
597 321 1
600 321 1
111 322 1
115 322 1
209 322 1
253 322 1
598 322 1
601 322 1
112 323 1
116 323 1
210 323 1
254 323 1
599 323 1
602 323 1
113 324 1
117 324 1
211 324 1
255 324 1
600 324 1
603 324 1
114 325 1
118 325 1
212 325 1
256 325 1
601 325 1
604 325 1
115 326 1
119 326 1
213 326 1
257 326 1
602 326 1
605 326 1
116 327 1
120 327 1
214 327 1
258 327 1
603 327 1
606 327 1
117 328 1
121 328 1
215 328 1
259 328 1
604 328 1
607 328 1
118 329 1
122 329 1
216 329 1
260 329 1
605 329 1
608 329 1
119 330 1
123 330 1
217 330 1
261 330 1
606 330 1
609 330 1
120 331 1
124 331 1
218 331 1
262 331 1
607 331 1
610 331 1
121 332 1
125 332 1
219 332 1
263 332 1
608 332 1
611 332 1
122 333 1
126 333 1
220 333 1
264 333 1
609 333 1
612 333 1
123 334 1
127 334 1
221 334 1
265 334 1
610 334 1
613 334 1
124 335 1
128 335 1
222 335 1
266 335 1
611 335 1
614 335 1
125 336 1
129 336 1
223 336 1
267 336 1
612 336 1
615 336 1
126 337 1
130 337 1
224 337 1
268 337 1
613 337 1
616 337 1
127 338 1
131 338 1
225 338 1
269 338 1
614 338 1
617 338 1
128 339 1
132 339 1
226 339 1
270 339 1
615 339 1
618 339 1
129 340 1
133 340 1
227 340 1
271 340 1
616 340 1
619 340 1
130 341 1
134 341 1
228 341 1
272 341 1
617 341 1
620 341 1
131 342 1
135 342 1
229 342 1
273 342 1
618 342 1
621 342 1
132 343 1
136 343 1
230 343 1
274 343 1
553 343 1
619 343 1
133 344 1
137 344 1
231 344 1
275 344 1
554 344 1
620 344 1
134 345 1
138 345 1
232 345 1
276 345 1
555 345 1
621 345 1
139 346 1
204 346 1
208 346 1
250 346 1
622 346 1
625 346 1
140 347 1
205 347 1
209 347 1
251 347 1
623 347 1
626 347 1
141 348 1
206 348 1
210 348 1
252 348 1
624 348 1
627 348 1
142 349 1
207 349 1
211 349 1
253 349 1
625 349 1
628 349 1
139 350 1
143 350 1
212 350 1
254 350 1
626 350 1
629 350 1
140 351 1
144 351 1
213 351 1
255 351 1
627 351 1
630 351 1
141 352 1
145 352 1
214 352 1
256 352 1
628 352 1
631 352 1
142 353 1
146 353 1
215 353 1
257 353 1
629 353 1
632 353 1
143 354 1
147 354 1
216 354 1
258 354 1
630 354 1
633 354 1
144 355 1
148 355 1
217 355 1
259 355 1
631 355 1
634 355 1
145 356 1
149 356 1
218 356 1
260 356 1
632 356 1
635 356 1
146 357 1
150 357 1
219 357 1
261 357 1
633 357 1
636 357 1
147 358 1
151 358 1
220 358 1
262 358 1
634 358 1
637 358 1
148 359 1
152 359 1
221 359 1
263 359 1
635 359 1
638 359 1
149 360 1
153 360 1
222 360 1
264 360 1
636 360 1
639 360 1
150 361 1
154 361 1
223 361 1
265 361 1
637 361 1
640 361 1
151 362 1
155 362 1
224 362 1
266 362 1
638 362 1
641 362 1
152 363 1
156 363 1
225 363 1
267 363 1
639 363 1
642 363 1
153 364 1
157 364 1
226 364 1
268 364 1
640 364 1
643 364 1
154 365 1
158 365 1
227 365 1
269 365 1
641 365 1
644 365 1
155 366 1
159 366 1
228 366 1
270 366 1
642 366 1
645 366 1
156 367 1
160 367 1
229 367 1
271 367 1
643 367 1
646 367 1
157 368 1
161 368 1
230 368 1
272 368 1
644 368 1
647 368 1
158 369 1
162 369 1
231 369 1
273 369 1
645 369 1
648 369 1
159 370 1
163 370 1
232 370 1
274 370 1
646 370 1
649 370 1
160 371 1
164 371 1
233 371 1
275 371 1
647 371 1
650 371 1
161 372 1
165 372 1
234 372 1
276 372 1
648 372 1
651 372 1
162 373 1
166 373 1
208 373 1
235 373 1
649 373 1
652 373 1
163 374 1
167 374 1
209 374 1
236 374 1
650 374 1
653 374 1
164 375 1
168 375 1
210 375 1
237 375 1
651 375 1
654 375 1
165 376 1
169 376 1
211 376 1
238 376 1
652 376 1
655 376 1
166 377 1
170 377 1
212 377 1
239 377 1
653 377 1
656 377 1
167 378 1
171 378 1
213 378 1
240 378 1
654 378 1
657 378 1
168 379 1
172 379 1
214 379 1
241 379 1
655 379 1
658 379 1
169 380 1
173 380 1
215 380 1
242 380 1
656 380 1
659 380 1
170 381 1
174 381 1
216 381 1
243 381 1
657 381 1
660 381 1
171 382 1
175 382 1
217 382 1
244 382 1
658 382 1
661 382 1
172 383 1
176 383 1
218 383 1
245 383 1
659 383 1
662 383 1
173 384 1
177 384 1
219 384 1
246 384 1
660 384 1
663 384 1
174 385 1
178 385 1
220 385 1
247 385 1
661 385 1
664 385 1
175 386 1
179 386 1
221 386 1
248 386 1
662 386 1
665 386 1
176 387 1
180 387 1
222 387 1
249 387 1
663 387 1
666 387 1
177 388 1
181 388 1
223 388 1
250 388 1
664 388 1
667 388 1
178 389 1
182 389 1
224 389 1
251 389 1
665 389 1
668 389 1
179 390 1
183 390 1
225 390 1
252 390 1
666 390 1
669 390 1
180 391 1
184 391 1
226 391 1
253 391 1
667 391 1
670 391 1
181 392 1
185 392 1
227 392 1
254 392 1
668 392 1
671 392 1
182 393 1
186 393 1
228 393 1
255 393 1
669 393 1
672 393 1
183 394 1
187 394 1
229 394 1
256 394 1
670 394 1
673 394 1
184 395 1
188 395 1
230 395 1
257 395 1
671 395 1
674 395 1
185 396 1
189 396 1
231 396 1
258 396 1
672 396 1
675 396 1
186 397 1
190 397 1
232 397 1
259 397 1
673 397 1
676 397 1
187 398 1
191 398 1
233 398 1
260 398 1
674 398 1
677 398 1
188 399 1
192 399 1
234 399 1
261 399 1
675 399 1
678 399 1
189 400 1
193 400 1
235 400 1
262 400 1
676 400 1
679 400 1
190 401 1
194 401 1
236 401 1
263 401 1
677 401 1
680 401 1
191 402 1
195 402 1
237 402 1
264 402 1
678 402 1
681 402 1
192 403 1
196 403 1
238 403 1
265 403 1
679 403 1
682 403 1
193 404 1
197 404 1
239 404 1
266 404 1
680 404 1
683 404 1
194 405 1
198 405 1
240 405 1
267 405 1
681 405 1
684 405 1
195 406 1
199 406 1
241 406 1
268 406 1
682 406 1
685 406 1
196 407 1
200 407 1
242 407 1
269 407 1
683 407 1
686 407 1
197 408 1
201 408 1
243 408 1
270 408 1
684 408 1
687 408 1
198 409 1
202 409 1
244 409 1
271 409 1
685 409 1
688 409 1
199 410 1
203 410 1
245 410 1
272 410 1
686 410 1
689 410 1
200 411 1
204 411 1
246 411 1
273 411 1
687 411 1
690 411 1
201 412 1
205 412 1
247 412 1
274 412 1
622 412 1
688 412 1
202 413 1
206 413 1
248 413 1
275 413 1
623 413 1
689 413 1
203 414 1
207 414 1
249 414 1
276 414 1
624 414 1
690 414 1
277 415 1
319 415 1
346 415 1
371 415 1
484 415 1
493 415 1
278 416 1
320 416 1
347 416 1
372 416 1
485 416 1
494 416 1
279 417 1
321 417 1
348 417 1
373 417 1
486 417 1
495 417 1
280 418 1
322 418 1
349 418 1
374 418 1
487 418 1
496 418 1
281 419 1
323 419 1
350 419 1
375 419 1
488 419 1
497 419 1
282 420 1
324 420 1
351 420 1
376 420 1
489 420 1
498 420 1
283 421 1
325 421 1
352 421 1
377 421 1
490 421 1
499 421 1
284 422 1
326 422 1
353 422 1
378 422 1
491 422 1
500 422 1
285 423 1
327 423 1
354 423 1
379 423 1
492 423 1
501 423 1
286 424 1
328 424 1
355 424 1
380 424 1
493 424 1
502 424 1
287 425 1
329 425 1
356 425 1
381 425 1
494 425 1
503 425 1
288 426 1
330 426 1
357 426 1
382 426 1
495 426 1
504 426 1
289 427 1
331 427 1
358 427 1
383 427 1
496 427 1
505 427 1
290 428 1
332 428 1
359 428 1
384 428 1
497 428 1
506 428 1
291 429 1
333 429 1
360 429 1
385 429 1
498 429 1
507 429 1
292 430 1
334 430 1
361 430 1
386 430 1
499 430 1
508 430 1
293 431 1
335 431 1
362 431 1
387 431 1
500 431 1
509 431 1
294 432 1
336 432 1
363 432 1
388 432 1
501 432 1
510 432 1
295 433 1
337 433 1
364 433 1
389 433 1
502 433 1
511 433 1
296 434 1
338 434 1
365 434 1
390 434 1
503 434 1
512 434 1
297 435 1
339 435 1
366 435 1
391 435 1
504 435 1
513 435 1
298 436 1
340 436 1
367 436 1
392 436 1
505 436 1
514 436 1
299 437 1
341 437 1
368 437 1
393 437 1
506 437 1
515 437 1
300 438 1
342 438 1
369 438 1
394 438 1
507 438 1
516 438 1
301 439 1
343 439 1
370 439 1
395 439 1
508 439 1
517 439 1
302 440 1
344 440 1
371 440 1
396 440 1
509 440 1
518 440 1
303 441 1
345 441 1
372 441 1
397 441 1
510 441 1
519 441 1
277 442 1
304 442 1
373 442 1
398 442 1
511 442 1
520 442 1
278 443 1
305 443 1
374 443 1
399 443 1
512 443 1
521 443 1
279 444 1
306 444 1
375 444 1
400 444 1
513 444 1
522 444 1
280 445 1
307 445 1
376 445 1
401 445 1
514 445 1
523 445 1
281 446 1
308 446 1
377 446 1
402 446 1
515 446 1
524 446 1
282 447 1
309 447 1
378 447 1
403 447 1
516 447 1
525 447 1
283 448 1
310 448 1
379 448 1
404 448 1
517 448 1
526 448 1
284 449 1
311 449 1
380 449 1
405 449 1
518 449 1
527 449 1
285 450 1
312 450 1
381 450 1
406 450 1
519 450 1
528 450 1
286 451 1
313 451 1
382 451 1
407 451 1
520 451 1
529 451 1
287 452 1
314 452 1
383 452 1
408 452 1
521 452 1
530 452 1
288 453 1
315 453 1
384 453 1
409 453 1
522 453 1
531 453 1
289 454 1
316 454 1
385 454 1
410 454 1
523 454 1
532 454 1
290 455 1
317 455 1
386 455 1
411 455 1
524 455 1
533 455 1
291 456 1
318 456 1
387 456 1
412 456 1
525 456 1
534 456 1
292 457 1
319 457 1
388 457 1
413 457 1
526 457 1
535 457 1
293 458 1
320 458 1
389 458 1
414 458 1
527 458 1
536 458 1
294 459 1
321 459 1
346 459 1
390 459 1
528 459 1
537 459 1
295 460 1
322 460 1
347 460 1
391 460 1
529 460 1
538 460 1
296 461 1
323 461 1
348 461 1
392 461 1
530 461 1
539 461 1
297 462 1
324 462 1
349 462 1
393 462 1
531 462 1
540 462 1
298 463 1
325 463 1
350 463 1
394 463 1
532 463 1
541 463 1
299 464 1
326 464 1
351 464 1
395 464 1
533 464 1
542 464 1
300 465 1
327 465 1
352 465 1
396 465 1
534 465 1
543 465 1
301 466 1
328 466 1
353 466 1
397 466 1
535 466 1
544 466 1
302 467 1
329 467 1
354 467 1
398 467 1
536 467 1
545 467 1
303 468 1
330 468 1
355 468 1
399 468 1
537 468 1
546 468 1
304 469 1
331 469 1
356 469 1
400 469 1
538 469 1
547 469 1
305 470 1
332 470 1
357 470 1
401 470 1
539 470 1
548 470 1
306 471 1
333 471 1
358 471 1
402 471 1
540 471 1
549 471 1
307 472 1
334 472 1
359 472 1
403 472 1
541 472 1
550 472 1
308 473 1
335 473 1
360 473 1
404 473 1
542 473 1
551 473 1
309 474 1
336 474 1
361 474 1
405 474 1
543 474 1
552 474 1
310 475 1
337 475 1
362 475 1
406 475 1
484 475 1
544 475 1
311 476 1
338 476 1
363 476 1
407 476 1
485 476 1
545 476 1
312 477 1
339 477 1
364 477 1
408 477 1
486 477 1
546 477 1
313 478 1
340 478 1
365 478 1
409 478 1
487 478 1
547 478 1
314 479 1
341 479 1
366 479 1
410 479 1
488 479 1
548 479 1
315 480 1
342 480 1
367 480 1
411 480 1
489 480 1
549 480 1
316 481 1
343 481 1
368 481 1
412 481 1
490 481 1
550 481 1
317 482 1
344 482 1
369 482 1
413 482 1
491 482 1
551 482 1
318 483 1
345 483 1
370 483 1
414 483 1
492 483 1
552 483 1
277 484 1
342 484 1
415 484 1
440 484 1
553 484 1
562 484 1
278 485 1
343 485 1
416 485 1
441 485 1
554 485 1
563 485 1
279 486 1
344 486 1
417 486 1
442 486 1
555 486 1
564 486 1
280 487 1
345 487 1
418 487 1
443 487 1
556 487 1
565 487 1
277 488 1
281 488 1
419 488 1
444 488 1
557 488 1
566 488 1
278 489 1
282 489 1
420 489 1
445 489 1
558 489 1
567 489 1
279 490 1
283 490 1
421 490 1
446 490 1
559 490 1
568 490 1
280 491 1
284 491 1
422 491 1
447 491 1
560 491 1
569 491 1
281 492 1
285 492 1
423 492 1
448 492 1
561 492 1
570 492 1
282 493 1
286 493 1
424 493 1
449 493 1
562 493 1
571 493 1
283 494 1
287 494 1
425 494 1
450 494 1
563 494 1
572 494 1
284 495 1
288 495 1
426 495 1
451 495 1
564 495 1
573 495 1
285 496 1
289 496 1
427 496 1
452 496 1
565 496 1
574 496 1
286 497 1
290 497 1
428 497 1
453 497 1
566 497 1
575 497 1
287 498 1
291 498 1
429 498 1
454 498 1
567 498 1
576 498 1
288 499 1
292 499 1
430 499 1
455 499 1
568 499 1
577 499 1
289 500 1
293 500 1
431 500 1
456 500 1
569 500 1
578 500 1
290 501 1
294 501 1
432 501 1
457 501 1
570 501 1
579 501 1
291 502 1
295 502 1
433 502 1
458 502 1
571 502 1
580 502 1
292 503 1
296 503 1
434 503 1
459 503 1
572 503 1
581 503 1
293 504 1
297 504 1
435 504 1
460 504 1
573 504 1
582 504 1
294 505 1
298 505 1
436 505 1
461 505 1
574 505 1
583 505 1
295 506 1
299 506 1
437 506 1
462 506 1
575 506 1
584 506 1
296 507 1
300 507 1
438 507 1
463 507 1
576 507 1
585 507 1
297 508 1
301 508 1
439 508 1
464 508 1
577 508 1
586 508 1
298 509 1
302 509 1
440 509 1
465 509 1
578 509 1
587 509 1
299 510 1
303 510 1
441 510 1
466 510 1
579 510 1
588 510 1
300 511 1
304 511 1
442 511 1
467 511 1
580 511 1
589 511 1
301 512 1
305 512 1
443 512 1
468 512 1
581 512 1
590 512 1
302 513 1
306 513 1
444 513 1
469 513 1
582 513 1
591 513 1
303 514 1
307 514 1
445 514 1
470 514 1
583 514 1
592 514 1
304 515 1
308 515 1
446 515 1
471 515 1
584 515 1
593 515 1
305 516 1
309 516 1
447 516 1
472 516 1
585 516 1
594 516 1
306 517 1
310 517 1
448 517 1
473 517 1
586 517 1
595 517 1
307 518 1
311 518 1
449 518 1
474 518 1
587 518 1
596 518 1
308 519 1
312 519 1
450 519 1
475 519 1
588 519 1
597 519 1
309 520 1
313 520 1
451 520 1
476 520 1
589 520 1
598 520 1
310 521 1
314 521 1
452 521 1
477 521 1
590 521 1
599 521 1
311 522 1
315 522 1
453 522 1
478 522 1
591 522 1
600 522 1
312 523 1
316 523 1
454 523 1
479 523 1
592 523 1
601 523 1
313 524 1
317 524 1
455 524 1
480 524 1
593 524 1
602 524 1
314 525 1
318 525 1
456 525 1
481 525 1
594 525 1
603 525 1
315 526 1
319 526 1
457 526 1
482 526 1
595 526 1
604 526 1
316 527 1
320 527 1
458 527 1
483 527 1
596 527 1
605 527 1
317 528 1
321 528 1
415 528 1
459 528 1
597 528 1
606 528 1
318 529 1
322 529 1
416 529 1
460 529 1
598 529 1
607 529 1
319 530 1
323 530 1
417 530 1
461 530 1
599 530 1
608 530 1
320 531 1
324 531 1
418 531 1
462 531 1
600 531 1
609 531 1
321 532 1
325 532 1
419 532 1
463 532 1
601 532 1
610 532 1
322 533 1
326 533 1
420 533 1
464 533 1
602 533 1
611 533 1
323 534 1
327 534 1
421 534 1
465 534 1
603 534 1
612 534 1
324 535 1
328 535 1
422 535 1
466 535 1
604 535 1
613 535 1
325 536 1
329 536 1
423 536 1
467 536 1
605 536 1
614 536 1
326 537 1
330 537 1
424 537 1
468 537 1
606 537 1
615 537 1
327 538 1
331 538 1
425 538 1
469 538 1
607 538 1
616 538 1
328 539 1
332 539 1
426 539 1
470 539 1
608 539 1
617 539 1
329 540 1
333 540 1
427 540 1
471 540 1
609 540 1
618 540 1
330 541 1
334 541 1
428 541 1
472 541 1
610 541 1
619 541 1
331 542 1
335 542 1
429 542 1
473 542 1
611 542 1
620 542 1
332 543 1
336 543 1
430 543 1
474 543 1
612 543 1
621 543 1
333 544 1
337 544 1
431 544 1
475 544 1
553 544 1
613 544 1
334 545 1
338 545 1
432 545 1
476 545 1
554 545 1
614 545 1
335 546 1
339 546 1
433 546 1
477 546 1
555 546 1
615 546 1
336 547 1
340 547 1
434 547 1
478 547 1
556 547 1
616 547 1
337 548 1
341 548 1
435 548 1
479 548 1
557 548 1
617 548 1
338 549 1
342 549 1
436 549 1
480 549 1
558 549 1
618 549 1
339 550 1
343 550 1
437 550 1
481 550 1
559 550 1
619 550 1
340 551 1
344 551 1
438 551 1
482 551 1
560 551 1
620 551 1
341 552 1
345 552 1
439 552 1
483 552 1
561 552 1
621 552 1
346 553 1
411 553 1
415 553 1
457 553 1
622 553 1
631 553 1
347 554 1
412 554 1
416 554 1
458 554 1
623 554 1
632 554 1
348 555 1
413 555 1
417 555 1
459 555 1
624 555 1
633 555 1
349 556 1
414 556 1
418 556 1
460 556 1
625 556 1
634 556 1
346 557 1
350 557 1
419 557 1
461 557 1
626 557 1
635 557 1
347 558 1
351 558 1
420 558 1
462 558 1
627 558 1
636 558 1
348 559 1
352 559 1
421 559 1
463 559 1
628 559 1
637 559 1
349 560 1
353 560 1
422 560 1
464 560 1
629 560 1
638 560 1
350 561 1
354 561 1
423 561 1
465 561 1
630 561 1
639 561 1
351 562 1
355 562 1
424 562 1
466 562 1
631 562 1
640 562 1
352 563 1
356 563 1
425 563 1
467 563 1
632 563 1
641 563 1
353 564 1
357 564 1
426 564 1
468 564 1
633 564 1
642 564 1
354 565 1
358 565 1
427 565 1
469 565 1
634 565 1
643 565 1
355 566 1
359 566 1
428 566 1
470 566 1
635 566 1
644 566 1
356 567 1
360 567 1
429 567 1
471 567 1
636 567 1
645 567 1
357 568 1
361 568 1
430 568 1
472 568 1
637 568 1
646 568 1
358 569 1
362 569 1
431 569 1
473 569 1
638 569 1
647 569 1
359 570 1
363 570 1
432 570 1
474 570 1
639 570 1
648 570 1
360 571 1
364 571 1
433 571 1
475 571 1
640 571 1
649 571 1
361 572 1
365 572 1
434 572 1
476 572 1
641 572 1
650 572 1
362 573 1
366 573 1
435 573 1
477 573 1
642 573 1
651 573 1
363 574 1
367 574 1
436 574 1
478 574 1
643 574 1
652 574 1
364 575 1
368 575 1
437 575 1
479 575 1
644 575 1
653 575 1
365 576 1
369 576 1
438 576 1
480 576 1
645 576 1
654 576 1
366 577 1
370 577 1
439 577 1
481 577 1
646 577 1
655 577 1
367 578 1
371 578 1
440 578 1
482 578 1
647 578 1
656 578 1
368 579 1
372 579 1
441 579 1
483 579 1
648 579 1
657 579 1
369 580 1
373 580 1
415 580 1
442 580 1
649 580 1
658 580 1
370 581 1
374 581 1
416 581 1
443 581 1
650 581 1
659 581 1
371 582 1
375 582 1
417 582 1
444 582 1
651 582 1
660 582 1
372 583 1
376 583 1
418 583 1
445 583 1
652 583 1
661 583 1
373 584 1
377 584 1
419 584 1
446 584 1
653 584 1
662 584 1
374 585 1
378 585 1
420 585 1
447 585 1
654 585 1
663 585 1
375 586 1
379 586 1
421 586 1
448 586 1
655 586 1
664 586 1
376 587 1
380 587 1
422 587 1
449 587 1
656 587 1
665 587 1
377 588 1
381 588 1
423 588 1
450 588 1
657 588 1
666 588 1
378 589 1
382 589 1
424 589 1
451 589 1
658 589 1
667 589 1
379 590 1
383 590 1
425 590 1
452 590 1
659 590 1
668 590 1
380 591 1
384 591 1
426 591 1
453 591 1
660 591 1
669 591 1
381 592 1
385 592 1
427 592 1
454 592 1
661 592 1
670 592 1
382 593 1
386 593 1
428 593 1
455 593 1
662 593 1
671 593 1
383 594 1
387 594 1
429 594 1
456 594 1
663 594 1
672 594 1
384 595 1
388 595 1
430 595 1
457 595 1
664 595 1
673 595 1
385 596 1
389 596 1
431 596 1
458 596 1
665 596 1
674 596 1
386 597 1
390 597 1
432 597 1
459 597 1
666 597 1
675 597 1
387 598 1
391 598 1
433 598 1
460 598 1
667 598 1
676 598 1
388 599 1
392 599 1
434 599 1
461 599 1
668 599 1
677 599 1
389 600 1
393 600 1
435 600 1
462 600 1
669 600 1
678 600 1
390 601 1
394 601 1
436 601 1
463 601 1
670 601 1
679 601 1
391 602 1
395 602 1
437 602 1
464 602 1
671 602 1
680 602 1
392 603 1
396 603 1
438 603 1
465 603 1
672 603 1
681 603 1
393 604 1
397 604 1
439 604 1
466 604 1
673 604 1
682 604 1
394 605 1
398 605 1
440 605 1
467 605 1
674 605 1
683 605 1
395 606 1
399 606 1
441 606 1
468 606 1
675 606 1
684 606 1
396 607 1
400 607 1
442 607 1
469 607 1
676 607 1
685 607 1
397 608 1
401 608 1
443 608 1
470 608 1
677 608 1
686 608 1
398 609 1
402 609 1
444 609 1
471 609 1
678 609 1
687 609 1
399 610 1
403 610 1
445 610 1
472 610 1
679 610 1
688 610 1
400 611 1
404 611 1
446 611 1
473 611 1
680 611 1
689 611 1
401 612 1
405 612 1
447 612 1
474 612 1
681 612 1
690 612 1
402 613 1
406 613 1
448 613 1
475 613 1
622 613 1
682 613 1
403 614 1
407 614 1
449 614 1
476 614 1
623 614 1
683 614 1
404 615 1
408 615 1
450 615 1
477 615 1
624 615 1
684 615 1
405 616 1
409 616 1
451 616 1
478 616 1
625 616 1
685 616 1
406 617 1
410 617 1
452 617 1
479 617 1
626 617 1
686 617 1
407 618 1
411 618 1
453 618 1
480 618 1
627 618 1
687 618 1
408 619 1
412 619 1
454 619 1
481 619 1
628 619 1
688 619 1
409 620 1
413 620 1
455 620 1
482 620 1
629 620 1
689 620 1
410 621 1
414 621 1
456 621 1
483 621 1
630 621 1
690 621 1
484 622 1
549 622 1
553 622 1
595 622 1
622 622 1
647 622 1
485 623 1
550 623 1
554 623 1
596 623 1
623 623 1
648 623 1
486 624 1
551 624 1
555 624 1
597 624 1
624 624 1
649 624 1
487 625 1
552 625 1
556 625 1
598 625 1
625 625 1
650 625 1
484 626 1
488 626 1
557 626 1
599 626 1
626 626 1
651 626 1
485 627 1
489 627 1
558 627 1
600 627 1
627 627 1
652 627 1
486 628 1
490 628 1
559 628 1
601 628 1
628 628 1
653 628 1
487 629 1
491 629 1
560 629 1
602 629 1
629 629 1
654 629 1
488 630 1
492 630 1
561 630 1
603 630 1
630 630 1
655 630 1
489 631 1
493 631 1
562 631 1
604 631 1
631 631 1
656 631 1
490 632 1
494 632 1
563 632 1
605 632 1
632 632 1
657 632 1
491 633 1
495 633 1
564 633 1
606 633 1
633 633 1
658 633 1
492 634 1
496 634 1
565 634 1
607 634 1
634 634 1
659 634 1
493 635 1
497 635 1
566 635 1
608 635 1
635 635 1
660 635 1
494 636 1
498 636 1
567 636 1
609 636 1
636 636 1
661 636 1
495 637 1
499 637 1
568 637 1
610 637 1
637 637 1
662 637 1
496 638 1
500 638 1
569 638 1
611 638 1
638 638 1
663 638 1
497 639 1
501 639 1
570 639 1
612 639 1
639 639 1
664 639 1
498 640 1
502 640 1
571 640 1
613 640 1
640 640 1
665 640 1
499 641 1
503 641 1
572 641 1
614 641 1
641 641 1
666 641 1
500 642 1
504 642 1
573 642 1
615 642 1
642 642 1
667 642 1
501 643 1
505 643 1
574 643 1
616 643 1
643 643 1
668 643 1
502 644 1
506 644 1
575 644 1
617 644 1
644 644 1
669 644 1
503 645 1
507 645 1
576 645 1
618 645 1
645 645 1
670 645 1
504 646 1
508 646 1
577 646 1
619 646 1
646 646 1
671 646 1
505 647 1
509 647 1
578 647 1
620 647 1
647 647 1
672 647 1
506 648 1
510 648 1
579 648 1
621 648 1
648 648 1
673 648 1
507 649 1
511 649 1
553 649 1
580 649 1
649 649 1
674 649 1
508 650 1
512 650 1
554 650 1
581 650 1
650 650 1
675 650 1
509 651 1
513 651 1
555 651 1
582 651 1
651 651 1
676 651 1
510 652 1
514 652 1
556 652 1
583 652 1
652 652 1
677 652 1
511 653 1
515 653 1
557 653 1
584 653 1
653 653 1
678 653 1
512 654 1
516 654 1
558 654 1
585 654 1
654 654 1
679 654 1
513 655 1
517 655 1
559 655 1
586 655 1
655 655 1
680 655 1
514 656 1
518 656 1
560 656 1
587 656 1
656 656 1
681 656 1
515 657 1
519 657 1
561 657 1
588 657 1
657 657 1
682 657 1
516 658 1
520 658 1
562 658 1
589 658 1
658 658 1
683 658 1
517 659 1
521 659 1
563 659 1
590 659 1
659 659 1
684 659 1
518 660 1
522 660 1
564 660 1
591 660 1
660 660 1
685 660 1
519 661 1
523 661 1
565 661 1
592 661 1
661 661 1
686 661 1
520 662 1
524 662 1
566 662 1
593 662 1
662 662 1
687 662 1
521 663 1
525 663 1
567 663 1
594 663 1
663 663 1
688 663 1
522 664 1
526 664 1
568 664 1
595 664 1
664 664 1
689 664 1
523 665 1
527 665 1
569 665 1
596 665 1
665 665 1
690 665 1
524 666 1
528 666 1
570 666 1
597 666 1
622 666 1
666 666 1
525 667 1
529 667 1
571 667 1
598 667 1
623 667 1
667 667 1
526 668 1
530 668 1
572 668 1
599 668 1
624 668 1
668 668 1
527 669 1
531 669 1
573 669 1
600 669 1
625 669 1
669 669 1
528 670 1
532 670 1
574 670 1
601 670 1
626 670 1
670 670 1
529 671 1
533 671 1
575 671 1
602 671 1
627 671 1
671 671 1
530 672 1
534 672 1
576 672 1
603 672 1
628 672 1
672 672 1
531 673 1
535 673 1
577 673 1
604 673 1
629 673 1
673 673 1
532 674 1
536 674 1
578 674 1
605 674 1
630 674 1
674 674 1
533 675 1
537 675 1
579 675 1
606 675 1
631 675 1
675 675 1
534 676 1
538 676 1
580 676 1
607 676 1
632 676 1
676 676 1
535 677 1
539 677 1
581 677 1
608 677 1
633 677 1
677 677 1
536 678 1
540 678 1
582 678 1
609 678 1
634 678 1
678 678 1
537 679 1
541 679 1
583 679 1
610 679 1
635 679 1
679 679 1
538 680 1
542 680 1
584 680 1
611 680 1
636 680 1
680 680 1
539 681 1
543 681 1
585 681 1
612 681 1
637 681 1
681 681 1
540 682 1
544 682 1
586 682 1
613 682 1
638 682 1
682 682 1
541 683 1
545 683 1
587 683 1
614 683 1
639 683 1
683 683 1
542 684 1
546 684 1
588 684 1
615 684 1
640 684 1
684 684 1
543 685 1
547 685 1
589 685 1
616 685 1
641 685 1
685 685 1
544 686 1
548 686 1
590 686 1
617 686 1
642 686 1
686 686 1
545 687 1
549 687 1
591 687 1
618 687 1
643 687 1
687 687 1
546 688 1
550 688 1
592 688 1
619 688 1
644 688 1
688 688 1
547 689 1
551 689 1
593 689 1
620 689 1
645 689 1
689 689 1
548 690 1
552 690 1
594 690 1
621 690 1
646 690 1
690 690 1
