%%MatrixMarket matrix coordinate integer general
% Binary matrix; one-based indices; arithmetic over GF(2)
416 624 2496
54 1 1
62 1 1
138 1 1
182 1 1
55 2 1
63 2 1
139 2 1
170 2 1
56 3 1
64 3 1
140 3 1
171 3 1
57 4 1
65 4 1
141 4 1
172 4 1
53 5 1
58 5 1
142 5 1
173 5 1
54 6 1
59 6 1
143 6 1
174 6 1
55 7 1
60 7 1
131 7 1
175 7 1
56 8 1
61 8 1
132 8 1
176 8 1
57 9 1
62 9 1
133 9 1
177 9 1
58 10 1
63 10 1
134 10 1
178 10 1
59 11 1
64 11 1
135 11 1
179 11 1
60 12 1
65 12 1
136 12 1
180 12 1
53 13 1
61 13 1
137 13 1
181 13 1
67 14 1
75 14 1
151 14 1
169 14 1
68 15 1
76 15 1
152 15 1
157 15 1
69 16 1
77 16 1
153 16 1
158 16 1
70 17 1
78 17 1
154 17 1
159 17 1
66 18 1
71 18 1
155 18 1
160 18 1
67 19 1
72 19 1
156 19 1
161 19 1
68 20 1
73 20 1
144 20 1
162 20 1
69 21 1
74 21 1
145 21 1
163 21 1
70 22 1
75 22 1
146 22 1
164 22 1
71 23 1
76 23 1
147 23 1
165 23 1
72 24 1
77 24 1
148 24 1
166 24 1
73 25 1
78 25 1
149 25 1
167 25 1
66 26 1
74 26 1
150 26 1
168 26 1
80 27 1
88 27 1
112 27 1
208 27 1
81 28 1
89 28 1
113 28 1
196 28 1
82 29 1
90 29 1
114 29 1
197 29 1
83 30 1
91 30 1
115 30 1
198 30 1
79 31 1
84 31 1
116 31 1
199 31 1
80 32 1
85 32 1
117 32 1
200 32 1
81 33 1
86 33 1
105 33 1
201 33 1
82 34 1
87 34 1
106 34 1
202 34 1
83 35 1
88 35 1
107 35 1
203 35 1
84 36 1
89 36 1
108 36 1
204 36 1
85 37 1
90 37 1
109 37 1
205 37 1
86 38 1
91 38 1
110 38 1
206 38 1
79 39 1
87 39 1
111 39 1
207 39 1
93 40 1
101 40 1
125 40 1
195 40 1
94 41 1
102 41 1
126 41 1
183 41 1
95 42 1
103 42 1
127 42 1
184 42 1
96 43 1
104 43 1
128 43 1
185 43 1
92 44 1
97 44 1
129 44 1
186 44 1
93 45 1
98 45 1
130 45 1
187 45 1
94 46 1
99 46 1
118 46 1
188 46 1
95 47 1
100 47 1
119 47 1
189 47 1
96 48 1
101 48 1
120 48 1
190 48 1
97 49 1
102 49 1
121 49 1
191 49 1
98 50 1
103 50 1
122 50 1
192 50 1
99 51 1
104 51 1
123 51 1
193 51 1
92 52 1
100 52 1
124 52 1
194 52 1
2 53 1
10 53 1
130 53 1
190 53 1
3 54 1
11 54 1
118 54 1
191 54 1
4 55 1
12 55 1
119 55 1
192 55 1
5 56 1
13 56 1
120 56 1
193 56 1
1 57 1
6 57 1
121 57 1
194 57 1
2 58 1
7 58 1
122 58 1
195 58 1
3 59 1
8 59 1
123 59 1
183 59 1
4 60 1
9 60 1
124 60 1
184 60 1
5 61 1
10 61 1
125 61 1
185 61 1
6 62 1
11 62 1
126 62 1
186 62 1
7 63 1
12 63 1
127 63 1
187 63 1
8 64 1
13 64 1
128 64 1
188 64 1
1 65 1
9 65 1
129 65 1
189 65 1
15 66 1
23 66 1
117 66 1
203 66 1
16 67 1
24 67 1
105 67 1
204 67 1
17 68 1
25 68 1
106 68 1
205 68 1
18 69 1
26 69 1
107 69 1
206 69 1
14 70 1
19 70 1
108 70 1
207 70 1
15 71 1
20 71 1
109 71 1
208 71 1
16 72 1
21 72 1
110 72 1
196 72 1
17 73 1
22 73 1
111 73 1
197 73 1
18 74 1
23 74 1
112 74 1
198 74 1
19 75 1
24 75 1
113 75 1
199 75 1
20 76 1
25 76 1
114 76 1
200 76 1
21 77 1
26 77 1
115 77 1
201 77 1
14 78 1
22 78 1
116 78 1
202 78 1
28 79 1
36 79 1
156 79 1
164 79 1
29 80 1
37 80 1
144 80 1
165 80 1
30 81 1
38 81 1
145 81 1
166 81 1
31 82 1
39 82 1
146 82 1
167 82 1
27 83 1
32 83 1
147 83 1
168 83 1
28 84 1
33 84 1
148 84 1
169 84 1
29 85 1
34 85 1
149 85 1
157 85 1
30 86 1
35 86 1
150 86 1
158 86 1
31 87 1
36 87 1
151 87 1
159 87 1
32 88 1
37 88 1
152 88 1
160 88 1
33 89 1
38 89 1
153 89 1
161 89 1
34 90 1
39 90 1
154 90 1
162 90 1
27 91 1
35 91 1
155 91 1
163 91 1
41 92 1
49 92 1
143 92 1
177 92 1
42 93 1
50 93 1
131 93 1
178 93 1
43 94 1
51 94 1
132 94 1
179 94 1
44 95 1
52 95 1
133 95 1
180 95 1
40 96 1
45 96 1
134 96 1
181 96 1
41 97 1
46 97 1
135 97 1
182 97 1
42 98 1
47 98 1
136 98 1
170 98 1
43 99 1
48 99 1
137 99 1
171 99 1
44 100 1
49 100 1
138 100 1
172 100 1
45 101 1
50 101 1
139 101 1
173 101 1
46 102 1
51 102 1
140 102 1
174 102 1
47 103 1
52 103 1
141 103 1
175 103 1
40 104 1
48 104 1
142 104 1
176 104 1
22 105 1
38 105 1
242 105 1
286 105 1
23 106 1
39 106 1
243 106 1
274 106 1
24 107 1
27 107 1
244 107 1
275 107 1
25 108 1
28 108 1
245 108 1
276 108 1
26 109 1
29 109 1
246 109 1
277 109 1
14 110 1
30 110 1
247 110 1
278 110 1
15 111 1
31 111 1
235 111 1
279 111 1
16 112 1
32 112 1
236 112 1
280 112 1
17 113 1
33 113 1
237 113 1
281 113 1
18 114 1
34 114 1
238 114 1
282 114 1
19 115 1
35 115 1
239 115 1
283 115 1
20 116 1
36 116 1
240 116 1
284 116 1
21 117 1
37 117 1
241 117 1
285 117 1
9 118 1
51 118 1
255 118 1
273 118 1
10 119 1
52 119 1
256 119 1
261 119 1
11 120 1
40 120 1
257 120 1
262 120 1
12 121 1
41 121 1
258 121 1
263 121 1
13 122 1
42 122 1
259 122 1
264 122 1
1 123 1
43 123 1
260 123 1
265 123 1
2 124 1
44 124 1
248 124 1
266 124 1
3 125 1
45 125 1
249 125 1
267 125 1
4 126 1
46 126 1
250 126 1
268 126 1
5 127 1
47 127 1
251 127 1
269 127 1
6 128 1
48 128 1
252 128 1
270 128 1
7 129 1
49 129 1
253 129 1
271 129 1
8 130 1
50 130 1
254 130 1
272 130 1
12 131 1
48 131 1
216 131 1
312 131 1
13 132 1
49 132 1
217 132 1
300 132 1
1 133 1
50 133 1
218 133 1
301 133 1
2 134 1
51 134 1
219 134 1
302 134 1
3 135 1
52 135 1
220 135 1
303 135 1
4 136 1
40 136 1
221 136 1
304 136 1
5 137 1
41 137 1
209 137 1
305 137 1
6 138 1
42 138 1
210 138 1
306 138 1
7 139 1
43 139 1
211 139 1
307 139 1
8 140 1
44 140 1
212 140 1
308 140 1
9 141 1
45 141 1
213 141 1
309 141 1
10 142 1
46 142 1
214 142 1
310 142 1
11 143 1
47 143 1
215 143 1
311 143 1
25 144 1
35 144 1
229 144 1
299 144 1
26 145 1
36 145 1
230 145 1
287 145 1
14 146 1
37 146 1
231 146 1
288 146 1
15 147 1
38 147 1
232 147 1
289 147 1
16 148 1
39 148 1
233 148 1
290 148 1
17 149 1
27 149 1
234 149 1
291 149 1
18 150 1
28 150 1
222 150 1
292 150 1
19 151 1
29 151 1
223 151 1
293 151 1
20 152 1
30 152 1
224 152 1
294 152 1
21 153 1
31 153 1
225 153 1
295 153 1
22 154 1
32 154 1
226 154 1
296 154 1
23 155 1
33 155 1
227 155 1
297 155 1
24 156 1
34 156 1
228 156 1
298 156 1
74 157 1
90 157 1
234 157 1
294 157 1
75 158 1
91 158 1
222 158 1
295 158 1
76 159 1
79 159 1
223 159 1
296 159 1
77 160 1
80 160 1
224 160 1
297 160 1
78 161 1
81 161 1
225 161 1
298 161 1
66 162 1
82 162 1
226 162 1
299 162 1
67 163 1
83 163 1
227 163 1
287 163 1
68 164 1
84 164 1
228 164 1
288 164 1
69 165 1
85 165 1
229 165 1
289 165 1
70 166 1
86 166 1
230 166 1
290 166 1
71 167 1
87 167 1
231 167 1
291 167 1
72 168 1
88 168 1
232 168 1
292 168 1
73 169 1
89 169 1
233 169 1
293 169 1
61 170 1
103 170 1
221 170 1
307 170 1
62 171 1
104 171 1
209 171 1
308 171 1
63 172 1
92 172 1
210 172 1
309 172 1
64 173 1
93 173 1
211 173 1
310 173 1
65 174 1
94 174 1
212 174 1
311 174 1
53 175 1
95 175 1
213 175 1
312 175 1
54 176 1
96 176 1
214 176 1
300 176 1
55 177 1
97 177 1
215 177 1
301 177 1
56 178 1
98 178 1
216 178 1
302 178 1
57 179 1
99 179 1
217 179 1
303 179 1
58 180 1
100 180 1
218 180 1
304 180 1
59 181 1
101 181 1
219 181 1
305 181 1
60 182 1
102 182 1
220 182 1
306 182 1
64 183 1
100 183 1
260 183 1
268 183 1
65 184 1
101 184 1
248 184 1
269 184 1
53 185 1
102 185 1
249 185 1
270 185 1
54 186 1
103 186 1
250 186 1
271 186 1
55 187 1
104 187 1
251 187 1
272 187 1
56 188 1
92 188 1
252 188 1
273 188 1
57 189 1
93 189 1
253 189 1
261 189 1
58 190 1
94 190 1
254 190 1
262 190 1
59 191 1
95 191 1
255 191 1
263 191 1
60 192 1
96 192 1
256 192 1
264 192 1
61 193 1
97 193 1
257 193 1
265 193 1
62 194 1
98 194 1
258 194 1
266 194 1
63 195 1
99 195 1
259 195 1
267 195 1
77 196 1
87 196 1
247 196 1
281 196 1
78 197 1
88 197 1
235 197 1
282 197 1
66 198 1
89 198 1
236 198 1
283 198 1
67 199 1
90 199 1
237 199 1
284 199 1
68 200 1
91 200 1
238 200 1
285 200 1
69 201 1
79 201 1
239 201 1
286 201 1
70 202 1
80 202 1
240 202 1
274 202 1
71 203 1
81 203 1
241 203 1
275 203 1
72 204 1
82 204 1
242 204 1
276 204 1
73 205 1
83 205 1
243 205 1
277 205 1
74 206 1
84 206 1
244 206 1
278 206 1
75 207 1
85 207 1
245 207 1
279 207 1
76 208 1
86 208 1
246 208 1
280 208 1
44 209 1
95 209 1
346 209 1
390 209 1
45 210 1
96 210 1
347 210 1
378 210 1
46 211 1
97 211 1
348 211 1
379 211 1
47 212 1
98 212 1
349 212 1
380 212 1
48 213 1
99 213 1
350 213 1
381 213 1
49 214 1
100 214 1
351 214 1
382 214 1
50 215 1
101 215 1
339 215 1
383 215 1
51 216 1
102 216 1
340 216 1
384 216 1
52 217 1
103 217 1
341 217 1
385 217 1
40 218 1
104 218 1
342 218 1
386 218 1
41 219 1
92 219 1
343 219 1
387 219 1
42 220 1
93 220 1
344 220 1
388 220 1
43 221 1
94 221 1
345 221 1
389 221 1
31 222 1
82 222 1
359 222 1
377 222 1
32 223 1
83 223 1
360 223 1
365 223 1
33 224 1
84 224 1
361 224 1
366 224 1
34 225 1
85 225 1
362 225 1
367 225 1
35 226 1
86 226 1
363 226 1
368 226 1
36 227 1
87 227 1
364 227 1
369 227 1
37 228 1
88 228 1
352 228 1
370 228 1
38 229 1
89 229 1
353 229 1
371 229 1
39 230 1
90 230 1
354 230 1
372 230 1
27 231 1
91 231 1
355 231 1
373 231 1
28 232 1
79 232 1
356 232 1
374 232 1
29 233 1
80 233 1
357 233 1
375 233 1
30 234 1
81 234 1
358 234 1
376 234 1
18 235 1
69 235 1
320 235 1
416 235 1
19 236 1
70 236 1
321 236 1
404 236 1
20 237 1
71 237 1
322 237 1
405 237 1
21 238 1
72 238 1
323 238 1
406 238 1
22 239 1
73 239 1
324 239 1
407 239 1
23 240 1
74 240 1
325 240 1
408 240 1
24 241 1
75 241 1
313 241 1
409 241 1
25 242 1
76 242 1
314 242 1
410 242 1
26 243 1
77 243 1
315 243 1
411 243 1
14 244 1
78 244 1
316 244 1
412 244 1
15 245 1
66 245 1
317 245 1
413 245 1
16 246 1
67 246 1
318 246 1
414 246 1
17 247 1
68 247 1
319 247 1
415 247 1
5 248 1
56 248 1
333 248 1
403 248 1
6 249 1
57 249 1
334 249 1
391 249 1
7 250 1
58 250 1
335 250 1
392 250 1
8 251 1
59 251 1
336 251 1
393 251 1
9 252 1
60 252 1
337 252 1
394 252 1
10 253 1
61 253 1
338 253 1
395 253 1
11 254 1
62 254 1
326 254 1
396 254 1
12 255 1
63 255 1
327 255 1
397 255 1
13 256 1
64 256 1
328 256 1
398 256 1
1 257 1
65 257 1
329 257 1
399 257 1
2 258 1
53 258 1
330 258 1
400 258 1
3 259 1
54 259 1
331 259 1
401 259 1
4 260 1
55 260 1
332 260 1
402 260 1
43 261 1
96 261 1
338 261 1
398 261 1
44 262 1
97 262 1
326 262 1
399 262 1
45 263 1
98 263 1
327 263 1
400 263 1
46 264 1
99 264 1
328 264 1
401 264 1
47 265 1
100 265 1
329 265 1
402 265 1
48 266 1
101 266 1
330 266 1
403 266 1
49 267 1
102 267 1
331 267 1
391 267 1
50 268 1
103 268 1
332 268 1
392 268 1
51 269 1
104 269 1
333 269 1
393 269 1
52 270 1
92 270 1
334 270 1
394 270 1
40 271 1
93 271 1
335 271 1
395 271 1
41 272 1
94 272 1
336 272 1
396 272 1
42 273 1
95 273 1
337 273 1
397 273 1
30 274 1
83 274 1
325 274 1
411 274 1
31 275 1
84 275 1
313 275 1
412 275 1
32 276 1
85 276 1
314 276 1
413 276 1
33 277 1
86 277 1
315 277 1
414 277 1
34 278 1
87 278 1
316 278 1
415 278 1
35 279 1
88 279 1
317 279 1
416 279 1
36 280 1
89 280 1
318 280 1
404 280 1
37 281 1
90 281 1
319 281 1
405 281 1
38 282 1
91 282 1
320 282 1
406 282 1
39 283 1
79 283 1
321 283 1
407 283 1
27 284 1
80 284 1
322 284 1
408 284 1
28 285 1
81 285 1
323 285 1
409 285 1
29 286 1
82 286 1
324 286 1
410 286 1
17 287 1
70 287 1
364 287 1
372 287 1
18 288 1
71 288 1
352 288 1
373 288 1
19 289 1
72 289 1
353 289 1
374 289 1
20 290 1
73 290 1
354 290 1
375 290 1
21 291 1
74 291 1
355 291 1
376 291 1
22 292 1
75 292 1
356 292 1
377 292 1
23 293 1
76 293 1
357 293 1
365 293 1
24 294 1
77 294 1
358 294 1
366 294 1
25 295 1
78 295 1
359 295 1
367 295 1
26 296 1
66 296 1
360 296 1
368 296 1
14 297 1
67 297 1
361 297 1
369 297 1
15 298 1
68 298 1
362 298 1
370 298 1
16 299 1
69 299 1
363 299 1
371 299 1
4 300 1
57 300 1
351 300 1
385 300 1
5 301 1
58 301 1
339 301 1
386 301 1
6 302 1
59 302 1
340 302 1
387 302 1
7 303 1
60 303 1
341 303 1
388 303 1
8 304 1
61 304 1
342 304 1
389 304 1
9 305 1
62 305 1
343 305 1
390 305 1
10 306 1
63 306 1
344 306 1
378 306 1
11 307 1
64 307 1
345 307 1
379 307 1
12 308 1
65 308 1
346 308 1
380 308 1
13 309 1
53 309 1
347 309 1
381 309 1
1 310 1
54 310 1
348 310 1
382 310 1
2 311 1
55 311 1
349 311 1
383 311 1
3 312 1
56 312 1
350 312 1
384 312 1
126 313 1
142 313 1
262 313 1
270 313 1
127 314 1
143 314 1
263 314 1
271 314 1
128 315 1
131 315 1
264 315 1
272 315 1
129 316 1
132 316 1
265 316 1
273 316 1
130 317 1
133 317 1
261 317 1
266 317 1
118 318 1
134 318 1
262 318 1
267 318 1
119 319 1
135 319 1
263 319 1
268 319 1
120 320 1
136 320 1
264 320 1
269 320 1
121 321 1
137 321 1
265 321 1
270 321 1
122 322 1
138 322 1
266 322 1
271 322 1
123 323 1
139 323 1
267 323 1
272 323 1
124 324 1
140 324 1
268 324 1
273 324 1
125 325 1
141 325 1
261 325 1
269 325 1
113 326 1
155 326 1
275 326 1
283 326 1
114 327 1
156 327 1
276 327 1
284 327 1
115 328 1
144 328 1
277 328 1
285 328 1
116 329 1
145 329 1
278 329 1
286 329 1
117 330 1
146 330 1
274 330 1
279 330 1
105 331 1
147 331 1
275 331 1
280 331 1
106 332 1
148 332 1
276 332 1
281 332 1
107 333 1
149 333 1
277 333 1
282 333 1
108 334 1
150 334 1
278 334 1
283 334 1
109 335 1
151 335 1
279 335 1
284 335 1
110 336 1
152 336 1
280 336 1
285 336 1
111 337 1
153 337 1
281 337 1
286 337 1
112 338 1
154 338 1
274 338 1
282 338 1
116 339 1
152 339 1
288 339 1
296 339 1
117 340 1
153 340 1
289 340 1
297 340 1
105 341 1
154 341 1
290 341 1
298 341 1
106 342 1
155 342 1
291 342 1
299 342 1
107 343 1
156 343 1
287 343 1
292 343 1
108 344 1
144 344 1
288 344 1
293 344 1
109 345 1
145 345 1
289 345 1
294 345 1
110 346 1
146 346 1
290 346 1
295 346 1
111 347 1
147 347 1
291 347 1
296 347 1
112 348 1
148 348 1
292 348 1
297 348 1
113 349 1
149 349 1
293 349 1
298 349 1
114 350 1
150 350 1
294 350 1
299 350 1
115 351 1
151 351 1
287 351 1
295 351 1
129 352 1
139 352 1
301 352 1
309 352 1
130 353 1
140 353 1
302 353 1
310 353 1
118 354 1
141 354 1
303 354 1
311 354 1
119 355 1
142 355 1
304 355 1
312 355 1
120 356 1
143 356 1
300 356 1
305 356 1
121 357 1
131 357 1
301 357 1
306 357 1
122 358 1
132 358 1
302 358 1
307 358 1
123 359 1
133 359 1
303 359 1
308 359 1
124 360 1
134 360 1
304 360 1
309 360 1
125 361 1
135 361 1
305 361 1
310 361 1
126 362 1
136 362 1
306 362 1
311 362 1
127 363 1
137 363 1
307 363 1
312 363 1
128 364 1
138 364 1
300 364 1
308 364 1
178 365 1
194 365 1
210 365 1
218 365 1
179 366 1
195 366 1
211 366 1
219 366 1
180 367 1
183 367 1
212 367 1
220 367 1
181 368 1
184 368 1
213 368 1
221 368 1
182 369 1
185 369 1
209 369 1
214 369 1
170 370 1
186 370 1
210 370 1
215 370 1
171 371 1
187 371 1
211 371 1
216 371 1
172 372 1
188 372 1
212 372 1
217 372 1
173 373 1
189 373 1
213 373 1
218 373 1
174 374 1
190 374 1
214 374 1
219 374 1
175 375 1
191 375 1
215 375 1
220 375 1
176 376 1
192 376 1
216 376 1
221 376 1
177 377 1
193 377 1
209 377 1
217 377 1
165 378 1
207 378 1
223 378 1
231 378 1
166 379 1
208 379 1
224 379 1
232 379 1
167 380 1
196 380 1
225 380 1
233 380 1
168 381 1
197 381 1
226 381 1
234 381 1
169 382 1
198 382 1
222 382 1
227 382 1
157 383 1
199 383 1
223 383 1
228 383 1
158 384 1
200 384 1
224 384 1
229 384 1
159 385 1
201 385 1
225 385 1
230 385 1
160 386 1
202 386 1
226 386 1
231 386 1
161 387 1
203 387 1
227 387 1
232 387 1
162 388 1
204 388 1
228 388 1
233 388 1
163 389 1
205 389 1
229 389 1
234 389 1
164 390 1
206 390 1
222 390 1
230 390 1
168 391 1
204 391 1
236 391 1
244 391 1
169 392 1
205 392 1
237 392 1
245 392 1
157 393 1
206 393 1
238 393 1
246 393 1
158 394 1
207 394 1
239 394 1
247 394 1
159 395 1
208 395 1
235 395 1
240 395 1
160 396 1
196 396 1
236 396 1
241 396 1
161 397 1
197 397 1
237 397 1
242 397 1
162 398 1
198 398 1
238 398 1
243 398 1
163 399 1
199 399 1
239 399 1
244 399 1
164 400 1
200 400 1
240 400 1
245 400 1
165 401 1
201 401 1
241 401 1
246 401 1
166 402 1
202 402 1
242 402 1
247 402 1
167 403 1
203 403 1
235 403 1
243 403 1
181 404 1
191 404 1
249 404 1
257 404 1
182 405 1
192 405 1
250 405 1
258 405 1
170 406 1
193 406 1
251 406 1
259 406 1
171 407 1
194 407 1
252 407 1
260 407 1
172 408 1
195 408 1
248 408 1
253 408 1
173 409 1
183 409 1
249 409 1
254 409 1
174 410 1
184 410 1
250 410 1
255 410 1
175 411 1
185 411 1
251 411 1
256 411 1
176 412 1
186 412 1
252 412 1
257 412 1
177 413 1
187 413 1
253 413 1
258 413 1
178 414 1
188 414 1
254 414 1
259 414 1
179 415 1
189 415 1
255 415 1
260 415 1
180 416 1
190 416 1
248 416 1
256 416 1
148 417 1
199 417 1
366 417 1
374 417 1
149 418 1
200 418 1
367 418 1
375 418 1
150 419 1
201 419 1
368 419 1
376 419 1
151 420 1
202 420 1
369 420 1
377 420 1
152 421 1
203 421 1
365 421 1
370 421 1
153 422 1
204 422 1
366 422 1
371 422 1
154 423 1
205 423 1
367 423 1
372 423 1
155 424 1
206 424 1
368 424 1
373 424 1
156 425 1
207 425 1
369 425 1
374 425 1
144 426 1
208 426 1
370 426 1
375 426 1
145 427 1
196 427 1
371 427 1
376 427 1
146 428 1
197 428 1
372 428 1
377 428 1
147 429 1
198 429 1
365 429 1
373 429 1
135 430 1
186 430 1
379 430 1
387 430 1
136 431 1
187 431 1
380 431 1
388 431 1
137 432 1
188 432 1
381 432 1
389 432 1
138 433 1
189 433 1
382 433 1
390 433 1
139 434 1
190 434 1
378 434 1
383 434 1
140 435 1
191 435 1
379 435 1
384 435 1
141 436 1
192 436 1
380 436 1
385 436 1
142 437 1
193 437 1
381 437 1
386 437 1
143 438 1
194 438 1
382 438 1
387 438 1
131 439 1
195 439 1
383 439 1
388 439 1
132 440 1
183 440 1
384 440 1
389 440 1
133 441 1
184 441 1
385 441 1
390 441 1
134 442 1
185 442 1
378 442 1
386 442 1
122 443 1
173 443 1
392 443 1
400 443 1
123 444 1
174 444 1
393 444 1
401 444 1
124 445 1
175 445 1
394 445 1
402 445 1
125 446 1
176 446 1
395 446 1
403 446 1
126 447 1
177 447 1
391 447 1
396 447 1
127 448 1
178 448 1
392 448 1
397 448 1
128 449 1
179 449 1
393 449 1
398 449 1
129 450 1
180 450 1
394 450 1
399 450 1
130 451 1
181 451 1
395 451 1
400 451 1
118 452 1
182 452 1
396 452 1
401 452 1
119 453 1
170 453 1
397 453 1
402 453 1
120 454 1
171 454 1
398 454 1
403 454 1
121 455 1
172 455 1
391 455 1
399 455 1
109 456 1
160 456 1
405 456 1
413 456 1
110 457 1
161 457 1
406 457 1
414 457 1
111 458 1
162 458 1
407 458 1
415 458 1
112 459 1
163 459 1
408 459 1
416 459 1
113 460 1
164 460 1
404 460 1
409 460 1
114 461 1
165 461 1
405 461 1
410 461 1
115 462 1
166 462 1
406 462 1
411 462 1
116 463 1
167 463 1
407 463 1
412 463 1
117 464 1
168 464 1
408 464 1
413 464 1
105 465 1
169 465 1
409 465 1
414 465 1
106 466 1
157 466 1
410 466 1
415 466 1
107 467 1
158 467 1
411 467 1
416 467 1
108 468 1
159 468 1
404 468 1
412 468 1
147 469 1
200 469 1
314 469 1
322 469 1
148 470 1
201 470 1
315 470 1
323 470 1
149 471 1
202 471 1
316 471 1
324 471 1
150 472 1
203 472 1
317 472 1
325 472 1
151 473 1
204 473 1
313 473 1
318 473 1
152 474 1
205 474 1
314 474 1
319 474 1
153 475 1
206 475 1
315 475 1
320 475 1
154 476 1
207 476 1
316 476 1
321 476 1
155 477 1
208 477 1
317 477 1
322 477 1
156 478 1
196 478 1
318 478 1
323 478 1
144 479 1
197 479 1
319 479 1
324 479 1
145 480 1
198 480 1
320 480 1
325 480 1
146 481 1
199 481 1
313 481 1
321 481 1
134 482 1
187 482 1
327 482 1
335 482 1
135 483 1
188 483 1
328 483 1
336 483 1
136 484 1
189 484 1
329 484 1
337 484 1
137 485 1
190 485 1
330 485 1
338 485 1
138 486 1
191 486 1
326 486 1
331 486 1
139 487 1
192 487 1
327 487 1
332 487 1
140 488 1
193 488 1
328 488 1
333 488 1
141 489 1
194 489 1
329 489 1
334 489 1
142 490 1
195 490 1
330 490 1
335 490 1
143 491 1
183 491 1
331 491 1
336 491 1
131 492 1
184 492 1
332 492 1
337 492 1
132 493 1
185 493 1
333 493 1
338 493 1
133 494 1
186 494 1
326 494 1
334 494 1
121 495 1
174 495 1
340 495 1
348 495 1
122 496 1
175 496 1
341 496 1
349 496 1
123 497 1
176 497 1
342 497 1
350 497 1
124 498 1
177 498 1
343 498 1
351 498 1
125 499 1
178 499 1
339 499 1
344 499 1
126 500 1
179 500 1
340 500 1
345 500 1
127 501 1
180 501 1
341 501 1
346 501 1
128 502 1
181 502 1
342 502 1
347 502 1
129 503 1
182 503 1
343 503 1
348 503 1
130 504 1
170 504 1
344 504 1
349 504 1
118 505 1
171 505 1
345 505 1
350 505 1
119 506 1
172 506 1
346 506 1
351 506 1
120 507 1
173 507 1
339 507 1
347 507 1
108 508 1
161 508 1
353 508 1
361 508 1
109 509 1
162 509 1
354 509 1
362 509 1
110 510 1
163 510 1
355 510 1
363 510 1
111 511 1
164 511 1
356 511 1
364 511 1
112 512 1
165 512 1
352 512 1
357 512 1
113 513 1
166 513 1
353 513 1
358 513 1
114 514 1
167 514 1
354 514 1
359 514 1
115 515 1
168 515 1
355 515 1
360 515 1
116 516 1
169 516 1
356 516 1
361 516 1
117 517 1
157 517 1
357 517 1
362 517 1
105 518 1
158 518 1
358 518 1
363 518 1
106 519 1
159 519 1
359 519 1
364 519 1
107 520 1
160 520 1
352 520 1
360 520 1
252 521 1
303 521 1
334 521 1
350 521 1
253 522 1
304 522 1
335 522 1
351 522 1
254 523 1
305 523 1
336 523 1
339 523 1
255 524 1
306 524 1
337 524 1
340 524 1
256 525 1
307 525 1
338 525 1
341 525 1
257 526 1
308 526 1
326 526 1
342 526 1
258 527 1
309 527 1
327 527 1
343 527 1
259 528 1
310 528 1
328 528 1
344 528 1
260 529 1
311 529 1
329 529 1
345 529 1
248 530 1
312 530 1
330 530 1
346 530 1
249 531 1
300 531 1
331 531 1
347 531 1
250 532 1
301 532 1
332 532 1
348 532 1
251 533 1
302 533 1
333 533 1
349 533 1
239 534 1
290 534 1
321 534 1
363 534 1
240 535 1
291 535 1
322 535 1
364 535 1
241 536 1
292 536 1
323 536 1
352 536 1
242 537 1
293 537 1
324 537 1
353 537 1
243 538 1
294 538 1
325 538 1
354 538 1
244 539 1
295 539 1
313 539 1
355 539 1
245 540 1
296 540 1
314 540 1
356 540 1
246 541 1
297 541 1
315 541 1
357 541 1
247 542 1
298 542 1
316 542 1
358 542 1
235 543 1
299 543 1
317 543 1
359 543 1
236 544 1
287 544 1
318 544 1
360 544 1
237 545 1
288 545 1
319 545 1
361 545 1
238 546 1
289 546 1
320 546 1
362 546 1
226 547 1
277 547 1
324 547 1
360 547 1
227 548 1
278 548 1
325 548 1
361 548 1
228 549 1
279 549 1
313 549 1
362 549 1
229 550 1
280 550 1
314 550 1
363 550 1
230 551 1
281 551 1
315 551 1
364 551 1
231 552 1
282 552 1
316 552 1
352 552 1
232 553 1
283 553 1
317 553 1
353 553 1
233 554 1
284 554 1
318 554 1
354 554 1
234 555 1
285 555 1
319 555 1
355 555 1
222 556 1
286 556 1
320 556 1
356 556 1
223 557 1
274 557 1
321 557 1
357 557 1
224 558 1
275 558 1
322 558 1
358 558 1
225 559 1
276 559 1
323 559 1
359 559 1
213 560 1
264 560 1
337 560 1
347 560 1
214 561 1
265 561 1
338 561 1
348 561 1
215 562 1
266 562 1
326 562 1
349 562 1
216 563 1
267 563 1
327 563 1
350 563 1
217 564 1
268 564 1
328 564 1
351 564 1
218 565 1
269 565 1
329 565 1
339 565 1
219 566 1
270 566 1
330 566 1
340 566 1
220 567 1
271 567 1
331 567 1
341 567 1
221 568 1
272 568 1
332 568 1
342 568 1
209 569 1
273 569 1
333 569 1
343 569 1
210 570 1
261 570 1
334 570 1
344 570 1
211 571 1
262 571 1
335 571 1
345 571 1
212 572 1
263 572 1
336 572 1
346 572 1
251 573 1
304 573 1
386 573 1
402 573 1
252 574 1
305 574 1
387 574 1
403 574 1
253 575 1
306 575 1
388 575 1
391 575 1
254 576 1
307 576 1
389 576 1
392 576 1
255 577 1
308 577 1
390 577 1
393 577 1
256 578 1
309 578 1
378 578 1
394 578 1
257 579 1
310 579 1
379 579 1
395 579 1
258 580 1
311 580 1
380 580 1
396 580 1
259 581 1
312 581 1
381 581 1
397 581 1
260 582 1
300 582 1
382 582 1
398 582 1
248 583 1
301 583 1
383 583 1
399 583 1
249 584 1
302 584 1
384 584 1
400 584 1
250 585 1
303 585 1
385 585 1
401 585 1
238 586 1
291 586 1
373 586 1
415 586 1
239 587 1
292 587 1
374 587 1
416 587 1
240 588 1
293 588 1
375 588 1
404 588 1
241 589 1
294 589 1
376 589 1
405 589 1
242 590 1
295 590 1
377 590 1
406 590 1
243 591 1
296 591 1
365 591 1
407 591 1
244 592 1
297 592 1
366 592 1
408 592 1
245 593 1
298 593 1
367 593 1
409 593 1
246 594 1
299 594 1
368 594 1
410 594 1
247 595 1
287 595 1
369 595 1
411 595 1
235 596 1
288 596 1
370 596 1
412 596 1
236 597 1
289 597 1
371 597 1
413 597 1
237 598 1
290 598 1
372 598 1
414 598 1
225 599 1
278 599 1
376 599 1
412 599 1
226 600 1
279 600 1
377 600 1
413 600 1
227 601 1
280 601 1
365 601 1
414 601 1
228 602 1
281 602 1
366 602 1
415 602 1
229 603 1
282 603 1
367 603 1
416 603 1
230 604 1
283 604 1
368 604 1
404 604 1
231 605 1
284 605 1
369 605 1
405 605 1
232 606 1
285 606 1
370 606 1
406 606 1
233 607 1
286 607 1
371 607 1
407 607 1
234 608 1
274 608 1
372 608 1
408 608 1
222 609 1
275 609 1
373 609 1
409 609 1
223 610 1
276 610 1
374 610 1
410 610 1
224 611 1
277 611 1
375 611 1
411 611 1
212 612 1
265 612 1
389 612 1
399 612 1
213 613 1
266 613 1
390 613 1
400 613 1
214 614 1
267 614 1
378 614 1
401 614 1
215 615 1
268 615 1
379 615 1
402 615 1
216 616 1
269 616 1
380 616 1
403 616 1
217 617 1
270 617 1
381 617 1
391 617 1
218 618 1
271 618 1
382 618 1
392 618 1
219 619 1
272 619 1
383 619 1
393 619 1
220 620 1
273 620 1
384 620 1
394 620 1
221 621 1
261 621 1
385 621 1
395 621 1
209 622 1
262 622 1
386 622 1
396 622 1
210 623 1
263 623 1
387 623 1
397 623 1
211 624 1
264 624 1
388 624 1
398 624 1
