%%MatrixMarket matrix coordinate integer general
% Binary matrix; one-based indices; arithmetic over GF(2)
350 350 2100
1 1 1
10 1 1
36 1 1
41 1 1
141 1 1
144 1 1
2 2 1
11 2 1
37 2 1
42 2 1
142 2 1
145 2 1
3 3 1
12 3 1
38 3 1
43 3 1
143 3 1
146 3 1
4 4 1
13 4 1
39 4 1
44 4 1
144 4 1
147 4 1
5 5 1
14 5 1
40 5 1
45 5 1
145 5 1
148 5 1
6 6 1
15 6 1
41 6 1
46 6 1
146 6 1
149 6 1
7 7 1
16 7 1
42 7 1
47 7 1
147 7 1
150 7 1
8 8 1
17 8 1
43 8 1
48 8 1
148 8 1
151 8 1
9 9 1
18 9 1
44 9 1
49 9 1
149 9 1
152 9 1
10 10 1
19 10 1
45 10 1
50 10 1
150 10 1
153 10 1
11 11 1
20 11 1
46 11 1
51 11 1
151 11 1
154 11 1
12 12 1
21 12 1
47 12 1
52 12 1
152 12 1
155 12 1
13 13 1
22 13 1
48 13 1
53 13 1
153 13 1
156 13 1
14 14 1
23 14 1
49 14 1
54 14 1
154 14 1
157 14 1
15 15 1
24 15 1
50 15 1
55 15 1
155 15 1
158 15 1
16 16 1
25 16 1
51 16 1
56 16 1
156 16 1
159 16 1
17 17 1
26 17 1
52 17 1
57 17 1
157 17 1
160 17 1
18 18 1
27 18 1
53 18 1
58 18 1
158 18 1
161 18 1
19 19 1
28 19 1
54 19 1
59 19 1
159 19 1
162 19 1
20 20 1
29 20 1
55 20 1
60 20 1
160 20 1
163 20 1
21 21 1
30 21 1
56 21 1
61 21 1
161 21 1
164 21 1
22 22 1
31 22 1
57 22 1
62 22 1
162 22 1
165 22 1
23 23 1
32 23 1
58 23 1
63 23 1
163 23 1
166 23 1
24 24 1
33 24 1
59 24 1
64 24 1
164 24 1
167 24 1
25 25 1
34 25 1
60 25 1
65 25 1
165 25 1
168 25 1
26 26 1
35 26 1
61 26 1
66 26 1
166 26 1
169 26 1
1 27 1
27 27 1
62 27 1
67 27 1
167 27 1
170 27 1
2 28 1
28 28 1
63 28 1
68 28 1
168 28 1
171 28 1
3 29 1
29 29 1
64 29 1
69 29 1
169 29 1
172 29 1
4 30 1
30 30 1
65 30 1
70 30 1
170 30 1
173 30 1
5 31 1
31 31 1
36 31 1
66 31 1
171 31 1
174 31 1
6 32 1
32 32 1
37 32 1
67 32 1
172 32 1
175 32 1
7 33 1
33 33 1
38 33 1
68 33 1
141 33 1
173 33 1
8 34 1
34 34 1
39 34 1
69 34 1
142 34 1
174 34 1
9 35 1
35 35 1
40 35 1
70 35 1
143 35 1
175 35 1
1 36 1
20 36 1
71 36 1
76 36 1
176 36 1
179 36 1
2 37 1
21 37 1
72 37 1
77 37 1
177 37 1
180 37 1
3 38 1
22 38 1
73 38 1
78 38 1
178 38 1
181 38 1
4 39 1
23 39 1
74 39 1
79 39 1
179 39 1
182 39 1
5 40 1
24 40 1
75 40 1
80 40 1
180 40 1
183 40 1
6 41 1
25 41 1
76 41 1
81 41 1
181 41 1
184 41 1
7 42 1
26 42 1
77 42 1
82 42 1
182 42 1
185 42 1
8 43 1
27 43 1
78 43 1
83 43 1
183 43 1
186 43 1
9 44 1
28 44 1
79 44 1
84 44 1
184 44 1
187 44 1
10 45 1
29 45 1
80 45 1
85 45 1
185 45 1
188 45 1
11 46 1
30 46 1
81 46 1
86 46 1
186 46 1
189 46 1
12 47 1
31 47 1
82 47 1
87 47 1
187 47 1
190 47 1
13 48 1
32 48 1
83 48 1
88 48 1
188 48 1
191 48 1
14 49 1
33 49 1
84 49 1
89 49 1
189 49 1
192 49 1
15 50 1
34 50 1
85 50 1
90 50 1
190 50 1
193 50 1
16 51 1
35 51 1
86 51 1
91 51 1
191 51 1
194 51 1
1 52 1
17 52 1
87 52 1
92 52 1
192 52 1
195 52 1
2 53 1
18 53 1
88 53 1
93 53 1
193 53 1
196 53 1
3 54 1
19 54 1
89 54 1
94 54 1
194 54 1
197 54 1
4 55 1
20 55 1
90 55 1
95 55 1
195 55 1
198 55 1
5 56 1
21 56 1
91 56 1
96 56 1
196 56 1
199 56 1
6 57 1
22 57 1
92 57 1
97 57 1
197 57 1
200 57 1
7 58 1
23 58 1
93 58 1
98 58 1
198 58 1
201 58 1
8 59 1
24 59 1
94 59 1
99 59 1
199 59 1
202 59 1
9 60 1
25 60 1
95 60 1
100 60 1
200 60 1
203 60 1
10 61 1
26 61 1
96 61 1
101 61 1
201 61 1
204 61 1
11 62 1
27 62 1
97 62 1
102 62 1
202 62 1
205 62 1
12 63 1
28 63 1
98 63 1
103 63 1
203 63 1
206 63 1
13 64 1
29 64 1
99 64 1
104 64 1
204 64 1
207 64 1
14 65 1
30 65 1
100 65 1
105 65 1
205 65 1
208 65 1
15 66 1
31 66 1
71 66 1
101 66 1
206 66 1
209 66 1
16 67 1
32 67 1
72 67 1
102 67 1
207 67 1
210 67 1
17 68 1
33 68 1
73 68 1
103 68 1
176 68 1
208 68 1
18 69 1
34 69 1
74 69 1
104 69 1
177 69 1
209 69 1
19 70 1
35 70 1
75 70 1
105 70 1
178 70 1
210 70 1
1 71 1
35 71 1
106 71 1
111 71 1
211 71 1
214 71 1
1 72 1
2 72 1
107 72 1
112 72 1
212 72 1
215 72 1
2 73 1
3 73 1
108 73 1
113 73 1
213 73 1
216 73 1
3 74 1
4 74 1
109 74 1
114 74 1
214 74 1
217 74 1
4 75 1
5 75 1
110 75 1
115 75 1
215 75 1
218 75 1
5 76 1
6 76 1
111 76 1
116 76 1
216 76 1
219 76 1
6 77 1
7 77 1
112 77 1
117 77 1
217 77 1
220 77 1
7 78 1
8 78 1
113 78 1
118 78 1
218 78 1
221 78 1
8 79 1
9 79 1
114 79 1
119 79 1
219 79 1
222 79 1
9 80 1
10 80 1
115 80 1
120 80 1
220 80 1
223 80 1
10 81 1
11 81 1
116 81 1
121 81 1
221 81 1
224 81 1
11 82 1
12 82 1
117 82 1
122 82 1
222 82 1
225 82 1
12 83 1
13 83 1
118 83 1
123 83 1
223 83 1
226 83 1
13 84 1
14 84 1
119 84 1
124 84 1
224 84 1
227 84 1
14 85 1
15 85 1
120 85 1
125 85 1
225 85 1
228 85 1
15 86 1
16 86 1
121 86 1
126 86 1
226 86 1
229 86 1
16 87 1
17 87 1
122 87 1
127 87 1
227 87 1
230 87 1
17 88 1
18 88 1
123 88 1
128 88 1
228 88 1
231 88 1
18 89 1
19 89 1
124 89 1
129 89 1
229 89 1
232 89 1
19 90 1
20 90 1
125 90 1
130 90 1
230 90 1
233 90 1
20 91 1
21 91 1
126 91 1
131 91 1
231 91 1
234 91 1
21 92 1
22 92 1
127 92 1
132 92 1
232 92 1
235 92 1
22 93 1
23 93 1
128 93 1
133 93 1
233 93 1
236 93 1
23 94 1
24 94 1
129 94 1
134 94 1
234 94 1
237 94 1
24 95 1
25 95 1
130 95 1
135 95 1
235 95 1
238 95 1
25 96 1
26 96 1
131 96 1
136 96 1
236 96 1
239 96 1
26 97 1
27 97 1
132 97 1
137 97 1
237 97 1
240 97 1
27 98 1
28 98 1
133 98 1
138 98 1
238 98 1
241 98 1
28 99 1
29 99 1
134 99 1
139 99 1
239 99 1
242 99 1
29 100 1
30 100 1
135 100 1
140 100 1
240 100 1
243 100 1
30 101 1
31 101 1
106 101 1
136 101 1
241 101 1
244 101 1
31 102 1
32 102 1
107 102 1
137 102 1
242 102 1
245 102 1
32 103 1
33 103 1
108 103 1
138 103 1
211 103 1
243 103 1
33 104 1
34 104 1
109 104 1
139 104 1
212 104 1
244 104 1
34 105 1
35 105 1
110 105 1
140 105 1
213 105 1
245 105 1
36 106 1
55 106 1
71 106 1
80 106 1
246 106 1
249 106 1
37 107 1
56 107 1
72 107 1
81 107 1
247 107 1
250 107 1
38 108 1
57 108 1
73 108 1
82 108 1
248 108 1
251 108 1
39 109 1
58 109 1
74 109 1
83 109 1
249 109 1
252 109 1
40 110 1
59 110 1
75 110 1
84 110 1
250 110 1
253 110 1
41 111 1
60 111 1
76 111 1
85 111 1
251 111 1
254 111 1
42 112 1
61 112 1
77 112 1
86 112 1
252 112 1
255 112 1
43 113 1
62 113 1
78 113 1
87 113 1
253 113 1
256 113 1
44 114 1
63 114 1
79 114 1
88 114 1
254 114 1
257 114 1
45 115 1
64 115 1
80 115 1
89 115 1
255 115 1
258 115 1
46 116 1
65 116 1
81 116 1
90 116 1
256 116 1
259 116 1
47 117 1
66 117 1
82 117 1
91 117 1
257 117 1
260 117 1
48 118 1
67 118 1
83 118 1
92 118 1
258 118 1
261 118 1
49 119 1
68 119 1
84 119 1
93 119 1
259 119 1
262 119 1
50 120 1
69 120 1
85 120 1
94 120 1
260 120 1
263 120 1
51 121 1
70 121 1
86 121 1
95 121 1
261 121 1
264 121 1
36 122 1
52 122 1
87 122 1
96 122 1
262 122 1
265 122 1
37 123 1
53 123 1
88 123 1
97 123 1
263 123 1
266 123 1
38 124 1
54 124 1
89 124 1
98 124 1
264 124 1
267 124 1
39 125 1
55 125 1
90 125 1
99 125 1
265 125 1
268 125 1
40 126 1
56 126 1
91 126 1
100 126 1
266 126 1
269 126 1
41 127 1
57 127 1
92 127 1
101 127 1
267 127 1
270 127 1
42 128 1
58 128 1
93 128 1
102 128 1
268 128 1
271 128 1
43 129 1
59 129 1
94 129 1
103 129 1
269 129 1
272 129 1
44 130 1
60 130 1
95 130 1
104 130 1
270 130 1
273 130 1
45 131 1
61 131 1
96 131 1
105 131 1
271 131 1
274 131 1
46 132 1
62 132 1
71 132 1
97 132 1
272 132 1
275 132 1
47 133 1
63 133 1
72 133 1
98 133 1
273 133 1
276 133 1
48 134 1
64 134 1
73 134 1
99 134 1
274 134 1
277 134 1
49 135 1
65 135 1
74 135 1
100 135 1
275 135 1
278 135 1
50 136 1
66 136 1
75 136 1
101 136 1
276 136 1
279 136 1
51 137 1
67 137 1
76 137 1
102 137 1
277 137 1
280 137 1
52 138 1
68 138 1
77 138 1
103 138 1
246 138 1
278 138 1
53 139 1
69 139 1
78 139 1
104 139 1
247 139 1
279 139 1
54 140 1
70 140 1
79 140 1
105 140 1
248 140 1
280 140 1
36 141 1
70 141 1
106 141 1
115 141 1
281 141 1
284 141 1
36 142 1
37 142 1
107 142 1
116 142 1
282 142 1
285 142 1
37 143 1
38 143 1
108 143 1
117 143 1
283 143 1
286 143 1
38 144 1
39 144 1
109 144 1
118 144 1
284 144 1
287 144 1
39 145 1
40 145 1
110 145 1
119 145 1
285 145 1
288 145 1
40 146 1
41 146 1
111 146 1
120 146 1
286 146 1
289 146 1
41 147 1
42 147 1
112 147 1
121 147 1
287 147 1
290 147 1
42 148 1
43 148 1
113 148 1
122 148 1
288 148 1
291 148 1
43 149 1
44 149 1
114 149 1
123 149 1
289 149 1
292 149 1
44 150 1
45 150 1
115 150 1
124 150 1
290 150 1
293 150 1
45 151 1
46 151 1
116 151 1
125 151 1
291 151 1
294 151 1
46 152 1
47 152 1
117 152 1
126 152 1
292 152 1
295 152 1
47 153 1
48 153 1
118 153 1
127 153 1
293 153 1
296 153 1
48 154 1
49 154 1
119 154 1
128 154 1
294 154 1
297 154 1
49 155 1
50 155 1
120 155 1
129 155 1
295 155 1
298 155 1
50 156 1
51 156 1
121 156 1
130 156 1
296 156 1
299 156 1
51 157 1
52 157 1
122 157 1
131 157 1
297 157 1
300 157 1
52 158 1
53 158 1
123 158 1
132 158 1
298 158 1
301 158 1
53 159 1
54 159 1
124 159 1
133 159 1
299 159 1
302 159 1
54 160 1
55 160 1
125 160 1
134 160 1
300 160 1
303 160 1
55 161 1
56 161 1
126 161 1
135 161 1
301 161 1
304 161 1
56 162 1
57 162 1
127 162 1
136 162 1
302 162 1
305 162 1
57 163 1
58 163 1
128 163 1
137 163 1
303 163 1
306 163 1
58 164 1
59 164 1
129 164 1
138 164 1
304 164 1
307 164 1
59 165 1
60 165 1
130 165 1
139 165 1
305 165 1
308 165 1
60 166 1
61 166 1
131 166 1
140 166 1
306 166 1
309 166 1
61 167 1
62 167 1
106 167 1
132 167 1
307 167 1
310 167 1
62 168 1
63 168 1
107 168 1
133 168 1
308 168 1
311 168 1
63 169 1
64 169 1
108 169 1
134 169 1
309 169 1
312 169 1
64 170 1
65 170 1
109 170 1
135 170 1
310 170 1
313 170 1
65 171 1
66 171 1
110 171 1
136 171 1
311 171 1
314 171 1
66 172 1
67 172 1
111 172 1
137 172 1
312 172 1
315 172 1
67 173 1
68 173 1
112 173 1
138 173 1
281 173 1
313 173 1
68 174 1
69 174 1
113 174 1
139 174 1
282 174 1
314 174 1
69 175 1
70 175 1
114 175 1
140 175 1
283 175 1
315 175 1
71 176 1
105 176 1
106 176 1
125 176 1
316 176 1
319 176 1
71 177 1
72 177 1
107 177 1
126 177 1
317 177 1
320 177 1
72 178 1
73 178 1
108 178 1
127 178 1
318 178 1
321 178 1
73 179 1
74 179 1
109 179 1
128 179 1
319 179 1
322 179 1
74 180 1
75 180 1
110 180 1
129 180 1
320 180 1
323 180 1
75 181 1
76 181 1
111 181 1
130 181 1
321 181 1
324 181 1
76 182 1
77 182 1
112 182 1
131 182 1
322 182 1
325 182 1
77 183 1
78 183 1
113 183 1
132 183 1
323 183 1
326 183 1
78 184 1
79 184 1
114 184 1
133 184 1
324 184 1
327 184 1
79 185 1
80 185 1
115 185 1
134 185 1
325 185 1
328 185 1
80 186 1
81 186 1
116 186 1
135 186 1
326 186 1
329 186 1
81 187 1
82 187 1
117 187 1
136 187 1
327 187 1
330 187 1
82 188 1
83 188 1
118 188 1
137 188 1
328 188 1
331 188 1
83 189 1
84 189 1
119 189 1
138 189 1
329 189 1
332 189 1
84 190 1
85 190 1
120 190 1
139 190 1
330 190 1
333 190 1
85 191 1
86 191 1
121 191 1
140 191 1
331 191 1
334 191 1
86 192 1
87 192 1
106 192 1
122 192 1
332 192 1
335 192 1
87 193 1
88 193 1
107 193 1
123 193 1
333 193 1
336 193 1
88 194 1
89 194 1
108 194 1
124 194 1
334 194 1
337 194 1
89 195 1
90 195 1
109 195 1
125 195 1
335 195 1
338 195 1
90 196 1
91 196 1
110 196 1
126 196 1
336 196 1
339 196 1
91 197 1
92 197 1
111 197 1
127 197 1
337 197 1
340 197 1
92 198 1
93 198 1
112 198 1
128 198 1
338 198 1
341 198 1
93 199 1
94 199 1
113 199 1
129 199 1
339 199 1
342 199 1
94 200 1
95 200 1
114 200 1
130 200 1
340 200 1
343 200 1
95 201 1
96 201 1
115 201 1
131 201 1
341 201 1
344 201 1
96 202 1
97 202 1
116 202 1
132 202 1
342 202 1
345 202 1
97 203 1
98 203 1
117 203 1
133 203 1
343 203 1
346 203 1
98 204 1
99 204 1
118 204 1
134 204 1
344 204 1
347 204 1
99 205 1
100 205 1
119 205 1
135 205 1
345 205 1
348 205 1
100 206 1
101 206 1
120 206 1
136 206 1
346 206 1
349 206 1
101 207 1
102 207 1
121 207 1
137 207 1
347 207 1
350 207 1
102 208 1
103 208 1
122 208 1
138 208 1
316 208 1
348 208 1
103 209 1
104 209 1
123 209 1
139 209 1
317 209 1
349 209 1
104 210 1
105 210 1
124 210 1
140 210 1
318 210 1
350 210 1
141 211 1
160 211 1
176 211 1
185 211 1
246 211 1
251 211 1
142 212 1
161 212 1
177 212 1
186 212 1
247 212 1
252 212 1
143 213 1
162 213 1
178 213 1
187 213 1
248 213 1
253 213 1
144 214 1
163 214 1
179 214 1
188 214 1
249 214 1
254 214 1
145 215 1
164 215 1
180 215 1
189 215 1
250 215 1
255 215 1
146 216 1
165 216 1
181 216 1
190 216 1
251 216 1
256 216 1
147 217 1
166 217 1
182 217 1
191 217 1
252 217 1
257 217 1
148 218 1
167 218 1
183 218 1
192 218 1
253 218 1
258 218 1
149 219 1
168 219 1
184 219 1
193 219 1
254 219 1
259 219 1
150 220 1
169 220 1
185 220 1
194 220 1
255 220 1
260 220 1
151 221 1
170 221 1
186 221 1
195 221 1
256 221 1
261 221 1
152 222 1
171 222 1
187 222 1
196 222 1
257 222 1
262 222 1
153 223 1
172 223 1
188 223 1
197 223 1
258 223 1
263 223 1
154 224 1
173 224 1
189 224 1
198 224 1
259 224 1
264 224 1
155 225 1
174 225 1
190 225 1
199 225 1
260 225 1
265 225 1
156 226 1
175 226 1
191 226 1
200 226 1
261 226 1
266 226 1
141 227 1
157 227 1
192 227 1
201 227 1
262 227 1
267 227 1
142 228 1
158 228 1
193 228 1
202 228 1
263 228 1
268 228 1
143 229 1
159 229 1
194 229 1
203 229 1
264 229 1
269 229 1
144 230 1
160 230 1
195 230 1
204 230 1
265 230 1
270 230 1
145 231 1
161 231 1
196 231 1
205 231 1
266 231 1
271 231 1
146 232 1
162 232 1
197 232 1
206 232 1
267 232 1
272 232 1
147 233 1
163 233 1
198 233 1
207 233 1
268 233 1
273 233 1
148 234 1
164 234 1
199 234 1
208 234 1
269 234 1
274 234 1
149 235 1
165 235 1
200 235 1
209 235 1
270 235 1
275 235 1
150 236 1
166 236 1
201 236 1
210 236 1
271 236 1
276 236 1
151 237 1
167 237 1
176 237 1
202 237 1
272 237 1
277 237 1
152 238 1
168 238 1
177 238 1
203 238 1
273 238 1
278 238 1
153 239 1
169 239 1
178 239 1
204 239 1
274 239 1
279 239 1
154 240 1
170 240 1
179 240 1
205 240 1
275 240 1
280 240 1
155 241 1
171 241 1
180 241 1
206 241 1
246 241 1
276 241 1
156 242 1
172 242 1
181 242 1
207 242 1
247 242 1
277 242 1
157 243 1
173 243 1
182 243 1
208 243 1
248 243 1
278 243 1
158 244 1
174 244 1
183 244 1
209 244 1
249 244 1
279 244 1
159 245 1
175 245 1
184 245 1
210 245 1
250 245 1
280 245 1
141 246 1
175 246 1
211 246 1
220 246 1
281 246 1
286 246 1
141 247 1
142 247 1
212 247 1
221 247 1
282 247 1
287 247 1
142 248 1
143 248 1
213 248 1
222 248 1
283 248 1
288 248 1
143 249 1
144 249 1
214 249 1
223 249 1
284 249 1
289 249 1
144 250 1
145 250 1
215 250 1
224 250 1
285 250 1
290 250 1
145 251 1
146 251 1
216 251 1
225 251 1
286 251 1
291 251 1
146 252 1
147 252 1
217 252 1
226 252 1
287 252 1
292 252 1
147 253 1
148 253 1
218 253 1
227 253 1
288 253 1
293 253 1
148 254 1
149 254 1
219 254 1
228 254 1
289 254 1
294 254 1
149 255 1
150 255 1
220 255 1
229 255 1
290 255 1
295 255 1
150 256 1
151 256 1
221 256 1
230 256 1
291 256 1
296 256 1
151 257 1
152 257 1
222 257 1
231 257 1
292 257 1
297 257 1
152 258 1
153 258 1
223 258 1
232 258 1
293 258 1
298 258 1
153 259 1
154 259 1
224 259 1
233 259 1
294 259 1
299 259 1
154 260 1
155 260 1
225 260 1
234 260 1
295 260 1
300 260 1
155 261 1
156 261 1
226 261 1
235 261 1
296 261 1
301 261 1
156 262 1
157 262 1
227 262 1
236 262 1
297 262 1
302 262 1
157 263 1
158 263 1
228 263 1
237 263 1
298 263 1
303 263 1
158 264 1
159 264 1
229 264 1
238 264 1
299 264 1
304 264 1
159 265 1
160 265 1
230 265 1
239 265 1
300 265 1
305 265 1
160 266 1
161 266 1
231 266 1
240 266 1
301 266 1
306 266 1
161 267 1
162 267 1
232 267 1
241 267 1
302 267 1
307 267 1
162 268 1
163 268 1
233 268 1
242 268 1
303 268 1
308 268 1
163 269 1
164 269 1
234 269 1
243 269 1
304 269 1
309 269 1
164 270 1
165 270 1
235 270 1
244 270 1
305 270 1
310 270 1
165 271 1
166 271 1
236 271 1
245 271 1
306 271 1
311 271 1
166 272 1
167 272 1
211 272 1
237 272 1
307 272 1
312 272 1
167 273 1
168 273 1
212 273 1
238 273 1
308 273 1
313 273 1
168 274 1
169 274 1
213 274 1
239 274 1
309 274 1
314 274 1
169 275 1
170 275 1
214 275 1
240 275 1
310 275 1
315 275 1
170 276 1
171 276 1
215 276 1
241 276 1
281 276 1
311 276 1
171 277 1
172 277 1
216 277 1
242 277 1
282 277 1
312 277 1
172 278 1
173 278 1
217 278 1
243 278 1
283 278 1
313 278 1
173 279 1
174 279 1
218 279 1
244 279 1
284 279 1
314 279 1
174 280 1
175 280 1
219 280 1
245 280 1
285 280 1
315 280 1
176 281 1
210 281 1
211 281 1
230 281 1
316 281 1
321 281 1
176 282 1
177 282 1
212 282 1
231 282 1
317 282 1
322 282 1
177 283 1
178 283 1
213 283 1
232 283 1
318 283 1
323 283 1
178 284 1
179 284 1
214 284 1
233 284 1
319 284 1
324 284 1
179 285 1
180 285 1
215 285 1
234 285 1
320 285 1
325 285 1
180 286 1
181 286 1
216 286 1
235 286 1
321 286 1
326 286 1
181 287 1
182 287 1
217 287 1
236 287 1
322 287 1
327 287 1
182 288 1
183 288 1
218 288 1
237 288 1
323 288 1
328 288 1
183 289 1
184 289 1
219 289 1
238 289 1
324 289 1
329 289 1
184 290 1
185 290 1
220 290 1
239 290 1
325 290 1
330 290 1
185 291 1
186 291 1
221 291 1
240 291 1
326 291 1
331 291 1
186 292 1
187 292 1
222 292 1
241 292 1
327 292 1
332 292 1
187 293 1
188 293 1
223 293 1
242 293 1
328 293 1
333 293 1
188 294 1
189 294 1
224 294 1
243 294 1
329 294 1
334 294 1
189 295 1
190 295 1
225 295 1
244 295 1
330 295 1
335 295 1
190 296 1
191 296 1
226 296 1
245 296 1
331 296 1
336 296 1
191 297 1
192 297 1
211 297 1
227 297 1
332 297 1
337 297 1
192 298 1
193 298 1
212 298 1
228 298 1
333 298 1
338 298 1
193 299 1
194 299 1
213 299 1
229 299 1
334 299 1
339 299 1
194 300 1
195 300 1
214 300 1
230 300 1
335 300 1
340 300 1
195 301 1
196 301 1
215 301 1
231 301 1
336 301 1
341 301 1
196 302 1
197 302 1
216 302 1
232 302 1
337 302 1
342 302 1
197 303 1
198 303 1
217 303 1
233 303 1
338 303 1
343 303 1
198 304 1
199 304 1
218 304 1
234 304 1
339 304 1
344 304 1
199 305 1
200 305 1
219 305 1
235 305 1
340 305 1
345 305 1
200 306 1
201 306 1
220 306 1
236 306 1
341 306 1
346 306 1
201 307 1
202 307 1
221 307 1
237 307 1
342 307 1
347 307 1
202 308 1
203 308 1
222 308 1
238 308 1
343 308 1
348 308 1
203 309 1
204 309 1
223 309 1
239 309 1
344 309 1
349 309 1
204 310 1
205 310 1
224 310 1
240 310 1
345 310 1
350 310 1
205 311 1
206 311 1
225 311 1
241 311 1
316 311 1
346 311 1
206 312 1
207 312 1
226 312 1
242 312 1
317 312 1
347 312 1
207 313 1
208 313 1
227 313 1
243 313 1
318 313 1
348 313 1
208 314 1
209 314 1
228 314 1
244 314 1
319 314 1
349 314 1
209 315 1
210 315 1
229 315 1
245 315 1
320 315 1
350 315 1
246 316 1
280 316 1
281 316 1
300 316 1
316 316 1
325 316 1
246 317 1
247 317 1
282 317 1
301 317 1
317 317 1
326 317 1
247 318 1
248 318 1
283 318 1
302 318 1
318 318 1
327 318 1
248 319 1
249 319 1
284 319 1
303 319 1
319 319 1
328 319 1
249 320 1
250 320 1
285 320 1
304 320 1
320 320 1
329 320 1
250 321 1
251 321 1
286 321 1
305 321 1
321 321 1
330 321 1
251 322 1
252 322 1
287 322 1
306 322 1
322 322 1
331 322 1
252 323 1
253 323 1
288 323 1
307 323 1
323 323 1
332 323 1
253 324 1
254 324 1
289 324 1
308 324 1
324 324 1
333 324 1
254 325 1
255 325 1
290 325 1
309 325 1
325 325 1
334 325 1
255 326 1
256 326 1
291 326 1
310 326 1
326 326 1
335 326 1
256 327 1
257 327 1
292 327 1
311 327 1
327 327 1
336 327 1
257 328 1
258 328 1
293 328 1
312 328 1
328 328 1
337 328 1
258 329 1
259 329 1
294 329 1
313 329 1
329 329 1
338 329 1
259 330 1
260 330 1
295 330 1
314 330 1
330 330 1
339 330 1
260 331 1
261 331 1
296 331 1
315 331 1
331 331 1
340 331 1
261 332 1
262 332 1
281 332 1
297 332 1
332 332 1
341 332 1
262 333 1
263 333 1
282 333 1
298 333 1
333 333 1
342 333 1
263 334 1
264 334 1
283 334 1
299 334 1
334 334 1
343 334 1
264 335 1
265 335 1
284 335 1
300 335 1
335 335 1
344 335 1
265 336 1
266 336 1
285 336 1
301 336 1
336 336 1
345 336 1
266 337 1
267 337 1
286 337 1
302 337 1
337 337 1
346 337 1
267 338 1
268 338 1
287 338 1
303 338 1
338 338 1
347 338 1
268 339 1
269 339 1
288 339 1
304 339 1
339 339 1
348 339 1
269 340 1
270 340 1
289 340 1
305 340 1
340 340 1
349 340 1
270 341 1
271 341 1
290 341 1
306 341 1
341 341 1
350 341 1
271 342 1
272 342 1
291 342 1
307 342 1
316 342 1
342 342 1
272 343 1
273 343 1
292 343 1
308 343 1
317 343 1
343 343 1
273 344 1
274 344 1
293 344 1
309 344 1
318 344 1
344 344 1
274 345 1
275 345 1
294 345 1
310 345 1
319 345 1
345 345 1
275 346 1
276 346 1
295 346 1
311 346 1
320 346 1
346 346 1
276 347 1
277 347 1
296 347 1
312 347 1
321 347 1
347 347 1
277 348 1
278 348 1
297 348 1
313 348 1
322 348 1
348 348 1
278 349 1
279 349 1
298 349 1
314 349 1
323 349 1
349 349 1
279 350 1
280 350 1
299 350 1
315 350 1
324 350 1
350 350 1
