%%MatrixMarket matrix coordinate integer general
% Binary matrix; one-based indices; arithmetic over GF(2)
1344 1680 13440
1 1 1
10 1 1
25 1 1
33 1 1
49 1 1
54 1 1
73 1 1
75 1 1
2 2 1
11 2 1
26 2 1
34 2 1
50 2 1
55 2 1
74 2 1
76 2 1
3 3 1
12 3 1
27 3 1
35 3 1
51 3 1
56 3 1
75 3 1
77 3 1
4 4 1
13 4 1
28 4 1
36 4 1
52 4 1
57 4 1
76 4 1
78 4 1
5 5 1
14 5 1
29 5 1
37 5 1
53 5 1
58 5 1
77 5 1
79 5 1
6 6 1
15 6 1
30 6 1
38 6 1
54 6 1
59 6 1
78 6 1
80 6 1
7 7 1
16 7 1
31 7 1
39 7 1
55 7 1
60 7 1
79 7 1
81 7 1
8 8 1
17 8 1
32 8 1
40 8 1
56 8 1
61 8 1
80 8 1
82 8 1
9 9 1
18 9 1
33 9 1
41 9 1
57 9 1
62 9 1
81 9 1
83 9 1
10 10 1
19 10 1
34 10 1
42 10 1
58 10 1
63 10 1
82 10 1
84 10 1
11 11 1
20 11 1
35 11 1
43 11 1
59 11 1
64 11 1
83 11 1
85 11 1
12 12 1
21 12 1
36 12 1
44 12 1
60 12 1
65 12 1
84 12 1
86 12 1
13 13 1
22 13 1
37 13 1
45 13 1
61 13 1
66 13 1
85 13 1
87 13 1
14 14 1
23 14 1
38 14 1
46 14 1
62 14 1
67 14 1
86 14 1
88 14 1
15 15 1
24 15 1
39 15 1
47 15 1
63 15 1
68 15 1
87 15 1
89 15 1
1 16 1
16 16 1
40 16 1
48 16 1
64 16 1
69 16 1
88 16 1
90 16 1
2 17 1
17 17 1
25 17 1
41 17 1
65 17 1
70 17 1
89 17 1
91 17 1
3 18 1
18 18 1
26 18 1
42 18 1
66 18 1
71 18 1
90 18 1
92 18 1
4 19 1
19 19 1
27 19 1
43 19 1
67 19 1
72 19 1
91 19 1
93 19 1
5 20 1
20 20 1
28 20 1
44 20 1
49 20 1
68 20 1
92 20 1
94 20 1
6 21 1
21 21 1
29 21 1
45 21 1
50 21 1
69 21 1
93 21 1
95 21 1
7 22 1
22 22 1
30 22 1
46 22 1
51 22 1
70 22 1
94 22 1
96 22 1
8 23 1
23 23 1
31 23 1
47 23 1
52 23 1
71 23 1
73 23 1
95 23 1
9 24 1
24 24 1
32 24 1
48 24 1
53 24 1
72 24 1
74 24 1
96 24 1
1 25 1
12 25 1
97 25 1
105 25 1
121 25 1
126 25 1
145 25 1
147 25 1
2 26 1
13 26 1
98 26 1
106 26 1
122 26 1
127 26 1
146 26 1
148 26 1
3 27 1
14 27 1
99 27 1
107 27 1
123 27 1
128 27 1
147 27 1
149 27 1
4 28 1
15 28 1
100 28 1
108 28 1
124 28 1
129 28 1
148 28 1
150 28 1
5 29 1
16 29 1
101 29 1
109 29 1
125 29 1
130 29 1
149 29 1
151 29 1
6 30 1
17 30 1
102 30 1
110 30 1
126 30 1
131 30 1
150 30 1
152 30 1
7 31 1
18 31 1
103 31 1
111 31 1
127 31 1
132 31 1
151 31 1
153 31 1
8 32 1
19 32 1
104 32 1
112 32 1
128 32 1
133 32 1
152 32 1
154 32 1
9 33 1
20 33 1
105 33 1
113 33 1
129 33 1
134 33 1
153 33 1
155 33 1
10 34 1
21 34 1
106 34 1
114 34 1
130 34 1
135 34 1
154 34 1
156 34 1
11 35 1
22 35 1
107 35 1
115 35 1
131 35 1
136 35 1
155 35 1
157 35 1
12 36 1
23 36 1
108 36 1
116 36 1
132 36 1
137 36 1
156 36 1
158 36 1
13 37 1
24 37 1
109 37 1
117 37 1
133 37 1
138 37 1
157 37 1
159 37 1
1 38 1
14 38 1
110 38 1
118 38 1
134 38 1
139 38 1
158 38 1
160 38 1
2 39 1
15 39 1
111 39 1
119 39 1
135 39 1
140 39 1
159 39 1
161 39 1
3 40 1
16 40 1
112 40 1
120 40 1
136 40 1
141 40 1
160 40 1
162 40 1
4 41 1
17 41 1
97 41 1
113 41 1
137 41 1
142 41 1
161 41 1
163 41 1
5 42 1
18 42 1
98 42 1
114 42 1
138 42 1
143 42 1
162 42 1
164 42 1
6 43 1
19 43 1
99 43 1
115 43 1
139 43 1
144 43 1
163 43 1
165 43 1
7 44 1
20 44 1
100 44 1
116 44 1
121 44 1
140 44 1
164 44 1
166 44 1
8 45 1
21 45 1
101 45 1
117 45 1
122 45 1
141 45 1
165 45 1
167 45 1
9 46 1
22 46 1
102 46 1
118 46 1
123 46 1
142 46 1
166 46 1
168 46 1
10 47 1
23 47 1
103 47 1
119 47 1
124 47 1
143 47 1
145 47 1
167 47 1
11 48 1
24 48 1
104 48 1
120 48 1
125 48 1
144 48 1
146 48 1
168 48 1
25 49 1
36 49 1
97 49 1
106 49 1
169 49 1
174 49 1
193 49 1
195 49 1
26 50 1
37 50 1
98 50 1
107 50 1
170 50 1
175 50 1
194 50 1
196 50 1
27 51 1
38 51 1
99 51 1
108 51 1
171 51 1
176 51 1
195 51 1
197 51 1
28 52 1
39 52 1
100 52 1
109 52 1
172 52 1
177 52 1
196 52 1
198 52 1
29 53 1
40 53 1
101 53 1
110 53 1
173 53 1
178 53 1
197 53 1
199 53 1
30 54 1
41 54 1
102 54 1
111 54 1
174 54 1
179 54 1
198 54 1
200 54 1
31 55 1
42 55 1
103 55 1
112 55 1
175 55 1
180 55 1
199 55 1
201 55 1
32 56 1
43 56 1
104 56 1
113 56 1
176 56 1
181 56 1
200 56 1
202 56 1
33 57 1
44 57 1
105 57 1
114 57 1
177 57 1
182 57 1
201 57 1
203 57 1
34 58 1
45 58 1
106 58 1
115 58 1
178 58 1
183 58 1
202 58 1
204 58 1
35 59 1
46 59 1
107 59 1
116 59 1
179 59 1
184 59 1
203 59 1
205 59 1
36 60 1
47 60 1
108 60 1
117 60 1
180 60 1
185 60 1
204 60 1
206 60 1
37 61 1
48 61 1
109 61 1
118 61 1
181 61 1
186 61 1
205 61 1
207 61 1
25 62 1
38 62 1
110 62 1
119 62 1
182 62 1
187 62 1
206 62 1
208 62 1
26 63 1
39 63 1
111 63 1
120 63 1
183 63 1
188 63 1
207 63 1
209 63 1
27 64 1
40 64 1
97 64 1
112 64 1
184 64 1
189 64 1
208 64 1
210 64 1
28 65 1
41 65 1
98 65 1
113 65 1
185 65 1
190 65 1
209 65 1
211 65 1
29 66 1
42 66 1
99 66 1
114 66 1
186 66 1
191 66 1
210 66 1
212 66 1
30 67 1
43 67 1
100 67 1
115 67 1
187 67 1
192 67 1
211 67 1
213 67 1
31 68 1
44 68 1
101 68 1
116 68 1
169 68 1
188 68 1
212 68 1
214 68 1
32 69 1
45 69 1
102 69 1
117 69 1
170 69 1
189 69 1
213 69 1
215 69 1
33 70 1
46 70 1
103 70 1
118 70 1
171 70 1
190 70 1
214 70 1
216 70 1
34 71 1
47 71 1
104 71 1
119 71 1
172 71 1
191 71 1
193 71 1
215 71 1
35 72 1
48 72 1
105 72 1
120 72 1
173 72 1
192 72 1
194 72 1
216 72 1
49 73 1
60 73 1
121 73 1
130 73 1
169 73 1
177 73 1
217 73 1
219 73 1
50 74 1
61 74 1
122 74 1
131 74 1
170 74 1
178 74 1
218 74 1
220 74 1
51 75 1
62 75 1
123 75 1
132 75 1
171 75 1
179 75 1
219 75 1
221 75 1
52 76 1
63 76 1
124 76 1
133 76 1
172 76 1
180 76 1
220 76 1
222 76 1
53 77 1
64 77 1
125 77 1
134 77 1
173 77 1
181 77 1
221 77 1
223 77 1
54 78 1
65 78 1
126 78 1
135 78 1
174 78 1
182 78 1
222 78 1
224 78 1
55 79 1
66 79 1
127 79 1
136 79 1
175 79 1
183 79 1
223 79 1
225 79 1
56 80 1
67 80 1
128 80 1
137 80 1
176 80 1
184 80 1
224 80 1
226 80 1
57 81 1
68 81 1
129 81 1
138 81 1
177 81 1
185 81 1
225 81 1
227 81 1
58 82 1
69 82 1
130 82 1
139 82 1
178 82 1
186 82 1
226 82 1
228 82 1
59 83 1
70 83 1
131 83 1
140 83 1
179 83 1
187 83 1
227 83 1
229 83 1
60 84 1
71 84 1
132 84 1
141 84 1
180 84 1
188 84 1
228 84 1
230 84 1
61 85 1
72 85 1
133 85 1
142 85 1
181 85 1
189 85 1
229 85 1
231 85 1
49 86 1
62 86 1
134 86 1
143 86 1
182 86 1
190 86 1
230 86 1
232 86 1
50 87 1
63 87 1
135 87 1
144 87 1
183 87 1
191 87 1
231 87 1
233 87 1
51 88 1
64 88 1
121 88 1
136 88 1
184 88 1
192 88 1
232 88 1
234 88 1
52 89 1
65 89 1
122 89 1
137 89 1
169 89 1
185 89 1
233 89 1
235 89 1
53 90 1
66 90 1
123 90 1
138 90 1
170 90 1
186 90 1
234 90 1
236 90 1
54 91 1
67 91 1
124 91 1
139 91 1
171 91 1
187 91 1
235 91 1
237 91 1
55 92 1
68 92 1
125 92 1
140 92 1
172 92 1
188 92 1
236 92 1
238 92 1
56 93 1
69 93 1
126 93 1
141 93 1
173 93 1
189 93 1
237 93 1
239 93 1
57 94 1
70 94 1
127 94 1
142 94 1
174 94 1
190 94 1
238 94 1
240 94 1
58 95 1
71 95 1
128 95 1
143 95 1
175 95 1
191 95 1
217 95 1
239 95 1
59 96 1
72 96 1
129 96 1
144 96 1
176 96 1
192 96 1
218 96 1
240 96 1
73 97 1
84 97 1
145 97 1
154 97 1
193 97 1
201 97 1
217 97 1
222 97 1
74 98 1
85 98 1
146 98 1
155 98 1
194 98 1
202 98 1
218 98 1
223 98 1
75 99 1
86 99 1
147 99 1
156 99 1
195 99 1
203 99 1
219 99 1
224 99 1
76 100 1
87 100 1
148 100 1
157 100 1
196 100 1
204 100 1
220 100 1
225 100 1
77 101 1
88 101 1
149 101 1
158 101 1
197 101 1
205 101 1
221 101 1
226 101 1
78 102 1
89 102 1
150 102 1
159 102 1
198 102 1
206 102 1
222 102 1
227 102 1
79 103 1
90 103 1
151 103 1
160 103 1
199 103 1
207 103 1
223 103 1
228 103 1
80 104 1
91 104 1
152 104 1
161 104 1
200 104 1
208 104 1
224 104 1
229 104 1
81 105 1
92 105 1
153 105 1
162 105 1
201 105 1
209 105 1
225 105 1
230 105 1
82 106 1
93 106 1
154 106 1
163 106 1
202 106 1
210 106 1
226 106 1
231 106 1
83 107 1
94 107 1
155 107 1
164 107 1
203 107 1
211 107 1
227 107 1
232 107 1
84 108 1
95 108 1
156 108 1
165 108 1
204 108 1
212 108 1
228 108 1
233 108 1
85 109 1
96 109 1
157 109 1
166 109 1
205 109 1
213 109 1
229 109 1
234 109 1
73 110 1
86 110 1
158 110 1
167 110 1
206 110 1
214 110 1
230 110 1
235 110 1
74 111 1
87 111 1
159 111 1
168 111 1
207 111 1
215 111 1
231 111 1
236 111 1
75 112 1
88 112 1
145 112 1
160 112 1
208 112 1
216 112 1
232 112 1
237 112 1
76 113 1
89 113 1
146 113 1
161 113 1
193 113 1
209 113 1
233 113 1
238 113 1
77 114 1
90 114 1
147 114 1
162 114 1
194 114 1
210 114 1
234 114 1
239 114 1
78 115 1
91 115 1
148 115 1
163 115 1
195 115 1
211 115 1
235 115 1
240 115 1
79 116 1
92 116 1
149 116 1
164 116 1
196 116 1
212 116 1
217 116 1
236 116 1
80 117 1
93 117 1
150 117 1
165 117 1
197 117 1
213 117 1
218 117 1
237 117 1
81 118 1
94 118 1
151 118 1
166 118 1
198 118 1
214 118 1
219 118 1
238 118 1
82 119 1
95 119 1
152 119 1
167 119 1
199 119 1
215 119 1
220 119 1
239 119 1
83 120 1
96 120 1
153 120 1
168 120 1
200 120 1
216 120 1
221 120 1
240 120 1
1 121 1
16 121 1
241 121 1
249 121 1
265 121 1
270 121 1
289 121 1
291 121 1
2 122 1
17 122 1
242 122 1
250 122 1
266 122 1
271 122 1
290 122 1
292 122 1
3 123 1
18 123 1
243 123 1
251 123 1
267 123 1
272 123 1
291 123 1
293 123 1
4 124 1
19 124 1
244 124 1
252 124 1
268 124 1
273 124 1
292 124 1
294 124 1
5 125 1
20 125 1
245 125 1
253 125 1
269 125 1
274 125 1
293 125 1
295 125 1
6 126 1
21 126 1
246 126 1
254 126 1
270 126 1
275 126 1
294 126 1
296 126 1
7 127 1
22 127 1
247 127 1
255 127 1
271 127 1
276 127 1
295 127 1
297 127 1
8 128 1
23 128 1
248 128 1
256 128 1
272 128 1
277 128 1
296 128 1
298 128 1
9 129 1
24 129 1
249 129 1
257 129 1
273 129 1
278 129 1
297 129 1
299 129 1
1 130 1
10 130 1
250 130 1
258 130 1
274 130 1
279 130 1
298 130 1
300 130 1
2 131 1
11 131 1
251 131 1
259 131 1
275 131 1
280 131 1
299 131 1
301 131 1
3 132 1
12 132 1
252 132 1
260 132 1
276 132 1
281 132 1
300 132 1
302 132 1
4 133 1
13 133 1
253 133 1
261 133 1
277 133 1
282 133 1
301 133 1
303 133 1
5 134 1
14 134 1
254 134 1
262 134 1
278 134 1
283 134 1
302 134 1
304 134 1
6 135 1
15 135 1
255 135 1
263 135 1
279 135 1
284 135 1
303 135 1
305 135 1
7 136 1
16 136 1
256 136 1
264 136 1
280 136 1
285 136 1
304 136 1
306 136 1
8 137 1
17 137 1
241 137 1
257 137 1
281 137 1
286 137 1
305 137 1
307 137 1
9 138 1
18 138 1
242 138 1
258 138 1
282 138 1
287 138 1
306 138 1
308 138 1
10 139 1
19 139 1
243 139 1
259 139 1
283 139 1
288 139 1
307 139 1
309 139 1
11 140 1
20 140 1
244 140 1
260 140 1
265 140 1
284 140 1
308 140 1
310 140 1
12 141 1
21 141 1
245 141 1
261 141 1
266 141 1
285 141 1
309 141 1
311 141 1
13 142 1
22 142 1
246 142 1
262 142 1
267 142 1
286 142 1
310 142 1
312 142 1
14 143 1
23 143 1
247 143 1
263 143 1
268 143 1
287 143 1
289 143 1
311 143 1
15 144 1
24 144 1
248 144 1
264 144 1
269 144 1
288 144 1
290 144 1
312 144 1
25 145 1
40 145 1
241 145 1
250 145 1
313 145 1
318 145 1
337 145 1
339 145 1
26 146 1
41 146 1
242 146 1
251 146 1
314 146 1
319 146 1
338 146 1
340 146 1
27 147 1
42 147 1
243 147 1
252 147 1
315 147 1
320 147 1
339 147 1
341 147 1
28 148 1
43 148 1
244 148 1
253 148 1
316 148 1
321 148 1
340 148 1
342 148 1
29 149 1
44 149 1
245 149 1
254 149 1
317 149 1
322 149 1
341 149 1
343 149 1
30 150 1
45 150 1
246 150 1
255 150 1
318 150 1
323 150 1
342 150 1
344 150 1
31 151 1
46 151 1
247 151 1
256 151 1
319 151 1
324 151 1
343 151 1
345 151 1
32 152 1
47 152 1
248 152 1
257 152 1
320 152 1
325 152 1
344 152 1
346 152 1
33 153 1
48 153 1
249 153 1
258 153 1
321 153 1
326 153 1
345 153 1
347 153 1
25 154 1
34 154 1
250 154 1
259 154 1
322 154 1
327 154 1
346 154 1
348 154 1
26 155 1
35 155 1
251 155 1
260 155 1
323 155 1
328 155 1
347 155 1
349 155 1
27 156 1
36 156 1
252 156 1
261 156 1
324 156 1
329 156 1
348 156 1
350 156 1
28 157 1
37 157 1
253 157 1
262 157 1
325 157 1
330 157 1
349 157 1
351 157 1
29 158 1
38 158 1
254 158 1
263 158 1
326 158 1
331 158 1
350 158 1
352 158 1
30 159 1
39 159 1
255 159 1
264 159 1
327 159 1
332 159 1
351 159 1
353 159 1
31 160 1
40 160 1
241 160 1
256 160 1
328 160 1
333 160 1
352 160 1
354 160 1
32 161 1
41 161 1
242 161 1
257 161 1
329 161 1
334 161 1
353 161 1
355 161 1
33 162 1
42 162 1
243 162 1
258 162 1
330 162 1
335 162 1
354 162 1
356 162 1
34 163 1
43 163 1
244 163 1
259 163 1
331 163 1
336 163 1
355 163 1
357 163 1
35 164 1
44 164 1
245 164 1
260 164 1
313 164 1
332 164 1
356 164 1
358 164 1
36 165 1
45 165 1
246 165 1
261 165 1
314 165 1
333 165 1
357 165 1
359 165 1
37 166 1
46 166 1
247 166 1
262 166 1
315 166 1
334 166 1
358 166 1
360 166 1
38 167 1
47 167 1
248 167 1
263 167 1
316 167 1
335 167 1
337 167 1
359 167 1
39 168 1
48 168 1
249 168 1
264 168 1
317 168 1
336 168 1
338 168 1
360 168 1
49 169 1
64 169 1
265 169 1
274 169 1
313 169 1
321 169 1
361 169 1
363 169 1
50 170 1
65 170 1
266 170 1
275 170 1
314 170 1
322 170 1
362 170 1
364 170 1
51 171 1
66 171 1
267 171 1
276 171 1
315 171 1
323 171 1
363 171 1
365 171 1
52 172 1
67 172 1
268 172 1
277 172 1
316 172 1
324 172 1
364 172 1
366 172 1
53 173 1
68 173 1
269 173 1
278 173 1
317 173 1
325 173 1
365 173 1
367 173 1
54 174 1
69 174 1
270 174 1
279 174 1
318 174 1
326 174 1
366 174 1
368 174 1
55 175 1
70 175 1
271 175 1
280 175 1
319 175 1
327 175 1
367 175 1
369 175 1
56 176 1
71 176 1
272 176 1
281 176 1
320 176 1
328 176 1
368 176 1
370 176 1
57 177 1
72 177 1
273 177 1
282 177 1
321 177 1
329 177 1
369 177 1
371 177 1
49 178 1
58 178 1
274 178 1
283 178 1
322 178 1
330 178 1
370 178 1
372 178 1
50 179 1
59 179 1
275 179 1
284 179 1
323 179 1
331 179 1
371 179 1
373 179 1
51 180 1
60 180 1
276 180 1
285 180 1
324 180 1
332 180 1
372 180 1
374 180 1
52 181 1
61 181 1
277 181 1
286 181 1
325 181 1
333 181 1
373 181 1
375 181 1
53 182 1
62 182 1
278 182 1
287 182 1
326 182 1
334 182 1
374 182 1
376 182 1
54 183 1
63 183 1
279 183 1
288 183 1
327 183 1
335 183 1
375 183 1
377 183 1
55 184 1
64 184 1
265 184 1
280 184 1
328 184 1
336 184 1
376 184 1
378 184 1
56 185 1
65 185 1
266 185 1
281 185 1
313 185 1
329 185 1
377 185 1
379 185 1
57 186 1
66 186 1
267 186 1
282 186 1
314 186 1
330 186 1
378 186 1
380 186 1
58 187 1
67 187 1
268 187 1
283 187 1
315 187 1
331 187 1
379 187 1
381 187 1
59 188 1
68 188 1
269 188 1
284 188 1
316 188 1
332 188 1
380 188 1
382 188 1
60 189 1
69 189 1
270 189 1
285 189 1
317 189 1
333 189 1
381 189 1
383 189 1
61 190 1
70 190 1
271 190 1
286 190 1
318 190 1
334 190 1
382 190 1
384 190 1
62 191 1
71 191 1
272 191 1
287 191 1
319 191 1
335 191 1
361 191 1
383 191 1
63 192 1
72 192 1
273 192 1
288 192 1
320 192 1
336 192 1
362 192 1
384 192 1
73 193 1
88 193 1
289 193 1
298 193 1
337 193 1
345 193 1
361 193 1
366 193 1
74 194 1
89 194 1
290 194 1
299 194 1
338 194 1
346 194 1
362 194 1
367 194 1
75 195 1
90 195 1
291 195 1
300 195 1
339 195 1
347 195 1
363 195 1
368 195 1
76 196 1
91 196 1
292 196 1
301 196 1
340 196 1
348 196 1
364 196 1
369 196 1
77 197 1
92 197 1
293 197 1
302 197 1
341 197 1
349 197 1
365 197 1
370 197 1
78 198 1
93 198 1
294 198 1
303 198 1
342 198 1
350 198 1
366 198 1
371 198 1
79 199 1
94 199 1
295 199 1
304 199 1
343 199 1
351 199 1
367 199 1
372 199 1
80 200 1
95 200 1
296 200 1
305 200 1
344 200 1
352 200 1
368 200 1
373 200 1
81 201 1
96 201 1
297 201 1
306 201 1
345 201 1
353 201 1
369 201 1
374 201 1
73 202 1
82 202 1
298 202 1
307 202 1
346 202 1
354 202 1
370 202 1
375 202 1
74 203 1
83 203 1
299 203 1
308 203 1
347 203 1
355 203 1
371 203 1
376 203 1
75 204 1
84 204 1
300 204 1
309 204 1
348 204 1
356 204 1
372 204 1
377 204 1
76 205 1
85 205 1
301 205 1
310 205 1
349 205 1
357 205 1
373 205 1
378 205 1
77 206 1
86 206 1
302 206 1
311 206 1
350 206 1
358 206 1
374 206 1
379 206 1
78 207 1
87 207 1
303 207 1
312 207 1
351 207 1
359 207 1
375 207 1
380 207 1
79 208 1
88 208 1
289 208 1
304 208 1
352 208 1
360 208 1
376 208 1
381 208 1
80 209 1
89 209 1
290 209 1
305 209 1
337 209 1
353 209 1
377 209 1
382 209 1
81 210 1
90 210 1
291 210 1
306 210 1
338 210 1
354 210 1
378 210 1
383 210 1
82 211 1
91 211 1
292 211 1
307 211 1
339 211 1
355 211 1
379 211 1
384 211 1
83 212 1
92 212 1
293 212 1
308 212 1
340 212 1
356 212 1
361 212 1
380 212 1
84 213 1
93 213 1
294 213 1
309 213 1
341 213 1
357 213 1
362 213 1
381 213 1
85 214 1
94 214 1
295 214 1
310 214 1
342 214 1
358 214 1
363 214 1
382 214 1
86 215 1
95 215 1
296 215 1
311 215 1
343 215 1
359 215 1
364 215 1
383 215 1
87 216 1
96 216 1
297 216 1
312 216 1
344 216 1
360 216 1
365 216 1
384 216 1
97 217 1
112 217 1
241 217 1
252 217 1
385 217 1
390 217 1
409 217 1
411 217 1
98 218 1
113 218 1
242 218 1
253 218 1
386 218 1
391 218 1
410 218 1
412 218 1
99 219 1
114 219 1
243 219 1
254 219 1
387 219 1
392 219 1
411 219 1
413 219 1
100 220 1
115 220 1
244 220 1
255 220 1
388 220 1
393 220 1
412 220 1
414 220 1
101 221 1
116 221 1
245 221 1
256 221 1
389 221 1
394 221 1
413 221 1
415 221 1
102 222 1
117 222 1
246 222 1
257 222 1
390 222 1
395 222 1
414 222 1
416 222 1
103 223 1
118 223 1
247 223 1
258 223 1
391 223 1
396 223 1
415 223 1
417 223 1
104 224 1
119 224 1
248 224 1
259 224 1
392 224 1
397 224 1
416 224 1
418 224 1
105 225 1
120 225 1
249 225 1
260 225 1
393 225 1
398 225 1
417 225 1
419 225 1
97 226 1
106 226 1
250 226 1
261 226 1
394 226 1
399 226 1
418 226 1
420 226 1
98 227 1
107 227 1
251 227 1
262 227 1
395 227 1
400 227 1
419 227 1
421 227 1
99 228 1
108 228 1
252 228 1
263 228 1
396 228 1
401 228 1
420 228 1
422 228 1
100 229 1
109 229 1
253 229 1
264 229 1
397 229 1
402 229 1
421 229 1
423 229 1
101 230 1
110 230 1
241 230 1
254 230 1
398 230 1
403 230 1
422 230 1
424 230 1
102 231 1
111 231 1
242 231 1
255 231 1
399 231 1
404 231 1
423 231 1
425 231 1
103 232 1
112 232 1
243 232 1
256 232 1
400 232 1
405 232 1
424 232 1
426 232 1
104 233 1
113 233 1
244 233 1
257 233 1
401 233 1
406 233 1
425 233 1
427 233 1
105 234 1
114 234 1
245 234 1
258 234 1
402 234 1
407 234 1
426 234 1
428 234 1
106 235 1
115 235 1
246 235 1
259 235 1
403 235 1
408 235 1
427 235 1
429 235 1
107 236 1
116 236 1
247 236 1
260 236 1
385 236 1
404 236 1
428 236 1
430 236 1
108 237 1
117 237 1
248 237 1
261 237 1
386 237 1
405 237 1
429 237 1
431 237 1
109 238 1
118 238 1
249 238 1
262 238 1
387 238 1
406 238 1
430 238 1
432 238 1
110 239 1
119 239 1
250 239 1
263 239 1
388 239 1
407 239 1
409 239 1
431 239 1
111 240 1
120 240 1
251 240 1
264 240 1
389 240 1
408 240 1
410 240 1
432 240 1
121 241 1
136 241 1
265 241 1
276 241 1
385 241 1
393 241 1
433 241 1
435 241 1
122 242 1
137 242 1
266 242 1
277 242 1
386 242 1
394 242 1
434 242 1
436 242 1
123 243 1
138 243 1
267 243 1
278 243 1
387 243 1
395 243 1
435 243 1
437 243 1
124 244 1
139 244 1
268 244 1
279 244 1
388 244 1
396 244 1
436 244 1
438 244 1
125 245 1
140 245 1
269 245 1
280 245 1
389 245 1
397 245 1
437 245 1
439 245 1
126 246 1
141 246 1
270 246 1
281 246 1
390 246 1
398 246 1
438 246 1
440 246 1
127 247 1
142 247 1
271 247 1
282 247 1
391 247 1
399 247 1
439 247 1
441 247 1
128 248 1
143 248 1
272 248 1
283 248 1
392 248 1
400 248 1
440 248 1
442 248 1
129 249 1
144 249 1
273 249 1
284 249 1
393 249 1
401 249 1
441 249 1
443 249 1
121 250 1
130 250 1
274 250 1
285 250 1
394 250 1
402 250 1
442 250 1
444 250 1
122 251 1
131 251 1
275 251 1
286 251 1
395 251 1
403 251 1
443 251 1
445 251 1
123 252 1
132 252 1
276 252 1
287 252 1
396 252 1
404 252 1
444 252 1
446 252 1
124 253 1
133 253 1
277 253 1
288 253 1
397 253 1
405 253 1
445 253 1
447 253 1
125 254 1
134 254 1
265 254 1
278 254 1
398 254 1
406 254 1
446 254 1
448 254 1
126 255 1
135 255 1
266 255 1
279 255 1
399 255 1
407 255 1
447 255 1
449 255 1
127 256 1
136 256 1
267 256 1
280 256 1
400 256 1
408 256 1
448 256 1
450 256 1
128 257 1
137 257 1
268 257 1
281 257 1
385 257 1
401 257 1
449 257 1
451 257 1
129 258 1
138 258 1
269 258 1
282 258 1
386 258 1
402 258 1
450 258 1
452 258 1
130 259 1
139 259 1
270 259 1
283 259 1
387 259 1
403 259 1
451 259 1
453 259 1
131 260 1
140 260 1
271 260 1
284 260 1
388 260 1
404 260 1
452 260 1
454 260 1
132 261 1
141 261 1
272 261 1
285 261 1
389 261 1
405 261 1
453 261 1
455 261 1
133 262 1
142 262 1
273 262 1
286 262 1
390 262 1
406 262 1
454 262 1
456 262 1
134 263 1
143 263 1
274 263 1
287 263 1
391 263 1
407 263 1
433 263 1
455 263 1
135 264 1
144 264 1
275 264 1
288 264 1
392 264 1
408 264 1
434 264 1
456 264 1
145 265 1
160 265 1
289 265 1
300 265 1
409 265 1
417 265 1
433 265 1
438 265 1
146 266 1
161 266 1
290 266 1
301 266 1
410 266 1
418 266 1
434 266 1
439 266 1
147 267 1
162 267 1
291 267 1
302 267 1
411 267 1
419 267 1
435 267 1
440 267 1
148 268 1
163 268 1
292 268 1
303 268 1
412 268 1
420 268 1
436 268 1
441 268 1
149 269 1
164 269 1
293 269 1
304 269 1
413 269 1
421 269 1
437 269 1
442 269 1
150 270 1
165 270 1
294 270 1
305 270 1
414 270 1
422 270 1
438 270 1
443 270 1
151 271 1
166 271 1
295 271 1
306 271 1
415 271 1
423 271 1
439 271 1
444 271 1
152 272 1
167 272 1
296 272 1
307 272 1
416 272 1
424 272 1
440 272 1
445 272 1
153 273 1
168 273 1
297 273 1
308 273 1
417 273 1
425 273 1
441 273 1
446 273 1
145 274 1
154 274 1
298 274 1
309 274 1
418 274 1
426 274 1
442 274 1
447 274 1
146 275 1
155 275 1
299 275 1
310 275 1
419 275 1
427 275 1
443 275 1
448 275 1
147 276 1
156 276 1
300 276 1
311 276 1
420 276 1
428 276 1
444 276 1
449 276 1
148 277 1
157 277 1
301 277 1
312 277 1
421 277 1
429 277 1
445 277 1
450 277 1
149 278 1
158 278 1
289 278 1
302 278 1
422 278 1
430 278 1
446 278 1
451 278 1
150 279 1
159 279 1
290 279 1
303 279 1
423 279 1
431 279 1
447 279 1
452 279 1
151 280 1
160 280 1
291 280 1
304 280 1
424 280 1
432 280 1
448 280 1
453 280 1
152 281 1
161 281 1
292 281 1
305 281 1
409 281 1
425 281 1
449 281 1
454 281 1
153 282 1
162 282 1
293 282 1
306 282 1
410 282 1
426 282 1
450 282 1
455 282 1
154 283 1
163 283 1
294 283 1
307 283 1
411 283 1
427 283 1
451 283 1
456 283 1
155 284 1
164 284 1
295 284 1
308 284 1
412 284 1
428 284 1
433 284 1
452 284 1
156 285 1
165 285 1
296 285 1
309 285 1
413 285 1
429 285 1
434 285 1
453 285 1
157 286 1
166 286 1
297 286 1
310 286 1
414 286 1
430 286 1
435 286 1
454 286 1
158 287 1
167 287 1
298 287 1
311 287 1
415 287 1
431 287 1
436 287 1
455 287 1
159 288 1
168 288 1
299 288 1
312 288 1
416 288 1
432 288 1
437 288 1
456 288 1
169 289 1
184 289 1
313 289 1
324 289 1
385 289 1
394 289 1
457 289 1
459 289 1
170 290 1
185 290 1
314 290 1
325 290 1
386 290 1
395 290 1
458 290 1
460 290 1
171 291 1
186 291 1
315 291 1
326 291 1
387 291 1
396 291 1
459 291 1
461 291 1
172 292 1
187 292 1
316 292 1
327 292 1
388 292 1
397 292 1
460 292 1
462 292 1
173 293 1
188 293 1
317 293 1
328 293 1
389 293 1
398 293 1
461 293 1
463 293 1
174 294 1
189 294 1
318 294 1
329 294 1
390 294 1
399 294 1
462 294 1
464 294 1
175 295 1
190 295 1
319 295 1
330 295 1
391 295 1
400 295 1
463 295 1
465 295 1
176 296 1
191 296 1
320 296 1
331 296 1
392 296 1
401 296 1
464 296 1
466 296 1
177 297 1
192 297 1
321 297 1
332 297 1
393 297 1
402 297 1
465 297 1
467 297 1
169 298 1
178 298 1
322 298 1
333 298 1
394 298 1
403 298 1
466 298 1
468 298 1
170 299 1
179 299 1
323 299 1
334 299 1
395 299 1
404 299 1
467 299 1
469 299 1
171 300 1
180 300 1
324 300 1
335 300 1
396 300 1
405 300 1
468 300 1
470 300 1
172 301 1
181 301 1
325 301 1
336 301 1
397 301 1
406 301 1
469 301 1
471 301 1
173 302 1
182 302 1
313 302 1
326 302 1
398 302 1
407 302 1
470 302 1
472 302 1
174 303 1
183 303 1
314 303 1
327 303 1
399 303 1
408 303 1
471 303 1
473 303 1
175 304 1
184 304 1
315 304 1
328 304 1
385 304 1
400 304 1
472 304 1
474 304 1
176 305 1
185 305 1
316 305 1
329 305 1
386 305 1
401 305 1
473 305 1
475 305 1
177 306 1
186 306 1
317 306 1
330 306 1
387 306 1
402 306 1
474 306 1
476 306 1
178 307 1
187 307 1
318 307 1
331 307 1
388 307 1
403 307 1
475 307 1
477 307 1
179 308 1
188 308 1
319 308 1
332 308 1
389 308 1
404 308 1
476 308 1
478 308 1
180 309 1
189 309 1
320 309 1
333 309 1
390 309 1
405 309 1
477 309 1
479 309 1
181 310 1
190 310 1
321 310 1
334 310 1
391 310 1
406 310 1
478 310 1
480 310 1
182 311 1
191 311 1
322 311 1
335 311 1
392 311 1
407 311 1
457 311 1
479 311 1
183 312 1
192 312 1
323 312 1
336 312 1
393 312 1
408 312 1
458 312 1
480 312 1
193 313 1
208 313 1
337 313 1
348 313 1
409 313 1
418 313 1
457 313 1
462 313 1
194 314 1
209 314 1
338 314 1
349 314 1
410 314 1
419 314 1
458 314 1
463 314 1
195 315 1
210 315 1
339 315 1
350 315 1
411 315 1
420 315 1
459 315 1
464 315 1
196 316 1
211 316 1
340 316 1
351 316 1
412 316 1
421 316 1
460 316 1
465 316 1
197 317 1
212 317 1
341 317 1
352 317 1
413 317 1
422 317 1
461 317 1
466 317 1
198 318 1
213 318 1
342 318 1
353 318 1
414 318 1
423 318 1
462 318 1
467 318 1
199 319 1
214 319 1
343 319 1
354 319 1
415 319 1
424 319 1
463 319 1
468 319 1
200 320 1
215 320 1
344 320 1
355 320 1
416 320 1
425 320 1
464 320 1
469 320 1
201 321 1
216 321 1
345 321 1
356 321 1
417 321 1
426 321 1
465 321 1
470 321 1
193 322 1
202 322 1
346 322 1
357 322 1
418 322 1
427 322 1
466 322 1
471 322 1
194 323 1
203 323 1
347 323 1
358 323 1
419 323 1
428 323 1
467 323 1
472 323 1
195 324 1
204 324 1
348 324 1
359 324 1
420 324 1
429 324 1
468 324 1
473 324 1
196 325 1
205 325 1
349 325 1
360 325 1
421 325 1
430 325 1
469 325 1
474 325 1
197 326 1
206 326 1
337 326 1
350 326 1
422 326 1
431 326 1
470 326 1
475 326 1
198 327 1
207 327 1
338 327 1
351 327 1
423 327 1
432 327 1
471 327 1
476 327 1
199 328 1
208 328 1
339 328 1
352 328 1
409 328 1
424 328 1
472 328 1
477 328 1
200 329 1
209 329 1
340 329 1
353 329 1
410 329 1
425 329 1
473 329 1
478 329 1
201 330 1
210 330 1
341 330 1
354 330 1
411 330 1
426 330 1
474 330 1
479 330 1
202 331 1
211 331 1
342 331 1
355 331 1
412 331 1
427 331 1
475 331 1
480 331 1
203 332 1
212 332 1
343 332 1
356 332 1
413 332 1
428 332 1
457 332 1
476 332 1
204 333 1
213 333 1
344 333 1
357 333 1
414 333 1
429 333 1
458 333 1
477 333 1
205 334 1
214 334 1
345 334 1
358 334 1
415 334 1
430 334 1
459 334 1
478 334 1
206 335 1
215 335 1
346 335 1
359 335 1
416 335 1
431 335 1
460 335 1
479 335 1
207 336 1
216 336 1
347 336 1
360 336 1
417 336 1
432 336 1
461 336 1
480 336 1
217 337 1
232 337 1
361 337 1
372 337 1
433 337 1
442 337 1
457 337 1
465 337 1
218 338 1
233 338 1
362 338 1
373 338 1
434 338 1
443 338 1
458 338 1
466 338 1
219 339 1
234 339 1
363 339 1
374 339 1
435 339 1
444 339 1
459 339 1
467 339 1
220 340 1
235 340 1
364 340 1
375 340 1
436 340 1
445 340 1
460 340 1
468 340 1
221 341 1
236 341 1
365 341 1
376 341 1
437 341 1
446 341 1
461 341 1
469 341 1
222 342 1
237 342 1
366 342 1
377 342 1
438 342 1
447 342 1
462 342 1
470 342 1
223 343 1
238 343 1
367 343 1
378 343 1
439 343 1
448 343 1
463 343 1
471 343 1
224 344 1
239 344 1
368 344 1
379 344 1
440 344 1
449 344 1
464 344 1
472 344 1
225 345 1
240 345 1
369 345 1
380 345 1
441 345 1
450 345 1
465 345 1
473 345 1
217 346 1
226 346 1
370 346 1
381 346 1
442 346 1
451 346 1
466 346 1
474 346 1
218 347 1
227 347 1
371 347 1
382 347 1
443 347 1
452 347 1
467 347 1
475 347 1
219 348 1
228 348 1
372 348 1
383 348 1
444 348 1
453 348 1
468 348 1
476 348 1
220 349 1
229 349 1
373 349 1
384 349 1
445 349 1
454 349 1
469 349 1
477 349 1
221 350 1
230 350 1
361 350 1
374 350 1
446 350 1
455 350 1
470 350 1
478 350 1
222 351 1
231 351 1
362 351 1
375 351 1
447 351 1
456 351 1
471 351 1
479 351 1
223 352 1
232 352 1
363 352 1
376 352 1
433 352 1
448 352 1
472 352 1
480 352 1
224 353 1
233 353 1
364 353 1
377 353 1
434 353 1
449 353 1
457 353 1
473 353 1
225 354 1
234 354 1
365 354 1
378 354 1
435 354 1
450 354 1
458 354 1
474 354 1
226 355 1
235 355 1
366 355 1
379 355 1
436 355 1
451 355 1
459 355 1
475 355 1
227 356 1
236 356 1
367 356 1
380 356 1
437 356 1
452 356 1
460 356 1
476 356 1
228 357 1
237 357 1
368 357 1
381 357 1
438 357 1
453 357 1
461 357 1
477 357 1
229 358 1
238 358 1
369 358 1
382 358 1
439 358 1
454 358 1
462 358 1
478 358 1
230 359 1
239 359 1
370 359 1
383 359 1
440 359 1
455 359 1
463 359 1
479 359 1
231 360 1
240 360 1
371 360 1
384 360 1
441 360 1
456 360 1
464 360 1
480 360 1
1 361 1
19 361 1
481 361 1
489 361 1
505 361 1
510 361 1
529 361 1
531 361 1
2 362 1
20 362 1
482 362 1
490 362 1
506 362 1
511 362 1
530 362 1
532 362 1
3 363 1
21 363 1
483 363 1
491 363 1
507 363 1
512 363 1
531 363 1
533 363 1
4 364 1
22 364 1
484 364 1
492 364 1
508 364 1
513 364 1
532 364 1
534 364 1
5 365 1
23 365 1
485 365 1
493 365 1
509 365 1
514 365 1
533 365 1
535 365 1
6 366 1
24 366 1
486 366 1
494 366 1
510 366 1
515 366 1
534 366 1
536 366 1
1 367 1
7 367 1
487 367 1
495 367 1
511 367 1
516 367 1
535 367 1
537 367 1
2 368 1
8 368 1
488 368 1
496 368 1
512 368 1
517 368 1
536 368 1
538 368 1
3 369 1
9 369 1
489 369 1
497 369 1
513 369 1
518 369 1
537 369 1
539 369 1
4 370 1
10 370 1
490 370 1
498 370 1
514 370 1
519 370 1
538 370 1
540 370 1
5 371 1
11 371 1
491 371 1
499 371 1
515 371 1
520 371 1
539 371 1
541 371 1
6 372 1
12 372 1
492 372 1
500 372 1
516 372 1
521 372 1
540 372 1
542 372 1
7 373 1
13 373 1
493 373 1
501 373 1
517 373 1
522 373 1
541 373 1
543 373 1
8 374 1
14 374 1
494 374 1
502 374 1
518 374 1
523 374 1
542 374 1
544 374 1
9 375 1
15 375 1
495 375 1
503 375 1
519 375 1
524 375 1
543 375 1
545 375 1
10 376 1
16 376 1
496 376 1
504 376 1
520 376 1
525 376 1
544 376 1
546 376 1
11 377 1
17 377 1
481 377 1
497 377 1
521 377 1
526 377 1
545 377 1
547 377 1
12 378 1
18 378 1
482 378 1
498 378 1
522 378 1
527 378 1
546 378 1
548 378 1
13 379 1
19 379 1
483 379 1
499 379 1
523 379 1
528 379 1
547 379 1
549 379 1
14 380 1
20 380 1
484 380 1
500 380 1
505 380 1
524 380 1
548 380 1
550 380 1
15 381 1
21 381 1
485 381 1
501 381 1
506 381 1
525 381 1
549 381 1
551 381 1
16 382 1
22 382 1
486 382 1
502 382 1
507 382 1
526 382 1
550 382 1
552 382 1
17 383 1
23 383 1
487 383 1
503 383 1
508 383 1
527 383 1
529 383 1
551 383 1
18 384 1
24 384 1
488 384 1
504 384 1
509 384 1
528 384 1
530 384 1
552 384 1
25 385 1
43 385 1
481 385 1
490 385 1
553 385 1
558 385 1
577 385 1
579 385 1
26 386 1
44 386 1
482 386 1
491 386 1
554 386 1
559 386 1
578 386 1
580 386 1
27 387 1
45 387 1
483 387 1
492 387 1
555 387 1
560 387 1
579 387 1
581 387 1
28 388 1
46 388 1
484 388 1
493 388 1
556 388 1
561 388 1
580 388 1
582 388 1
29 389 1
47 389 1
485 389 1
494 389 1
557 389 1
562 389 1
581 389 1
583 389 1
30 390 1
48 390 1
486 390 1
495 390 1
558 390 1
563 390 1
582 390 1
584 390 1
25 391 1
31 391 1
487 391 1
496 391 1
559 391 1
564 391 1
583 391 1
585 391 1
26 392 1
32 392 1
488 392 1
497 392 1
560 392 1
565 392 1
584 392 1
586 392 1
27 393 1
33 393 1
489 393 1
498 393 1
561 393 1
566 393 1
585 393 1
587 393 1
28 394 1
34 394 1
490 394 1
499 394 1
562 394 1
567 394 1
586 394 1
588 394 1
29 395 1
35 395 1
491 395 1
500 395 1
563 395 1
568 395 1
587 395 1
589 395 1
30 396 1
36 396 1
492 396 1
501 396 1
564 396 1
569 396 1
588 396 1
590 396 1
31 397 1
37 397 1
493 397 1
502 397 1
565 397 1
570 397 1
589 397 1
591 397 1
32 398 1
38 398 1
494 398 1
503 398 1
566 398 1
571 398 1
590 398 1
592 398 1
33 399 1
39 399 1
495 399 1
504 399 1
567 399 1
572 399 1
591 399 1
593 399 1
34 400 1
40 400 1
481 400 1
496 400 1
568 400 1
573 400 1
592 400 1
594 400 1
35 401 1
41 401 1
482 401 1
497 401 1
569 401 1
574 401 1
593 401 1
595 401 1
36 402 1
42 402 1
483 402 1
498 402 1
570 402 1
575 402 1
594 402 1
596 402 1
37 403 1
43 403 1
484 403 1
499 403 1
571 403 1
576 403 1
595 403 1
597 403 1
38 404 1
44 404 1
485 404 1
500 404 1
553 404 1
572 404 1
596 404 1
598 404 1
39 405 1
45 405 1
486 405 1
501 405 1
554 405 1
573 405 1
597 405 1
599 405 1
40 406 1
46 406 1
487 406 1
502 406 1
555 406 1
574 406 1
598 406 1
600 406 1
41 407 1
47 407 1
488 407 1
503 407 1
556 407 1
575 407 1
577 407 1
599 407 1
42 408 1
48 408 1
489 408 1
504 408 1
557 408 1
576 408 1
578 408 1
600 408 1
49 409 1
67 409 1
505 409 1
514 409 1
553 409 1
561 409 1
601 409 1
603 409 1
50 410 1
68 410 1
506 410 1
515 410 1
554 410 1
562 410 1
602 410 1
604 410 1
51 411 1
69 411 1
507 411 1
516 411 1
555 411 1
563 411 1
603 411 1
605 411 1
52 412 1
70 412 1
508 412 1
517 412 1
556 412 1
564 412 1
604 412 1
606 412 1
53 413 1
71 413 1
509 413 1
518 413 1
557 413 1
565 413 1
605 413 1
607 413 1
54 414 1
72 414 1
510 414 1
519 414 1
558 414 1
566 414 1
606 414 1
608 414 1
49 415 1
55 415 1
511 415 1
520 415 1
559 415 1
567 415 1
607 415 1
609 415 1
50 416 1
56 416 1
512 416 1
521 416 1
560 416 1
568 416 1
608 416 1
610 416 1
51 417 1
57 417 1
513 417 1
522 417 1
561 417 1
569 417 1
609 417 1
611 417 1
52 418 1
58 418 1
514 418 1
523 418 1
562 418 1
570 418 1
610 418 1
612 418 1
53 419 1
59 419 1
515 419 1
524 419 1
563 419 1
571 419 1
611 419 1
613 419 1
54 420 1
60 420 1
516 420 1
525 420 1
564 420 1
572 420 1
612 420 1
614 420 1
55 421 1
61 421 1
517 421 1
526 421 1
565 421 1
573 421 1
613 421 1
615 421 1
56 422 1
62 422 1
518 422 1
527 422 1
566 422 1
574 422 1
614 422 1
616 422 1
57 423 1
63 423 1
519 423 1
528 423 1
567 423 1
575 423 1
615 423 1
617 423 1
58 424 1
64 424 1
505 424 1
520 424 1
568 424 1
576 424 1
616 424 1
618 424 1
59 425 1
65 425 1
506 425 1
521 425 1
553 425 1
569 425 1
617 425 1
619 425 1
60 426 1
66 426 1
507 426 1
522 426 1
554 426 1
570 426 1
618 426 1
620 426 1
61 427 1
67 427 1
508 427 1
523 427 1
555 427 1
571 427 1
619 427 1
621 427 1
62 428 1
68 428 1
509 428 1
524 428 1
556 428 1
572 428 1
620 428 1
622 428 1
63 429 1
69 429 1
510 429 1
525 429 1
557 429 1
573 429 1
621 429 1
623 429 1
64 430 1
70 430 1
511 430 1
526 430 1
558 430 1
574 430 1
622 430 1
624 430 1
65 431 1
71 431 1
512 431 1
527 431 1
559 431 1
575 431 1
601 431 1
623 431 1
66 432 1
72 432 1
513 432 1
528 432 1
560 432 1
576 432 1
602 432 1
624 432 1
73 433 1
91 433 1
529 433 1
538 433 1
577 433 1
585 433 1
601 433 1
606 433 1
74 434 1
92 434 1
530 434 1
539 434 1
578 434 1
586 434 1
602 434 1
607 434 1
75 435 1
93 435 1
531 435 1
540 435 1
579 435 1
587 435 1
603 435 1
608 435 1
76 436 1
94 436 1
532 436 1
541 436 1
580 436 1
588 436 1
604 436 1
609 436 1
77 437 1
95 437 1
533 437 1
542 437 1
581 437 1
589 437 1
605 437 1
610 437 1
78 438 1
96 438 1
534 438 1
543 438 1
582 438 1
590 438 1
606 438 1
611 438 1
73 439 1
79 439 1
535 439 1
544 439 1
583 439 1
591 439 1
607 439 1
612 439 1
74 440 1
80 440 1
536 440 1
545 440 1
584 440 1
592 440 1
608 440 1
613 440 1
75 441 1
81 441 1
537 441 1
546 441 1
585 441 1
593 441 1
609 441 1
614 441 1
76 442 1
82 442 1
538 442 1
547 442 1
586 442 1
594 442 1
610 442 1
615 442 1
77 443 1
83 443 1
539 443 1
548 443 1
587 443 1
595 443 1
611 443 1
616 443 1
78 444 1
84 444 1
540 444 1
549 444 1
588 444 1
596 444 1
612 444 1
617 444 1
79 445 1
85 445 1
541 445 1
550 445 1
589 445 1
597 445 1
613 445 1
618 445 1
80 446 1
86 446 1
542 446 1
551 446 1
590 446 1
598 446 1
614 446 1
619 446 1
81 447 1
87 447 1
543 447 1
552 447 1
591 447 1
599 447 1
615 447 1
620 447 1
82 448 1
88 448 1
529 448 1
544 448 1
592 448 1
600 448 1
616 448 1
621 448 1
83 449 1
89 449 1
530 449 1
545 449 1
577 449 1
593 449 1
617 449 1
622 449 1
84 450 1
90 450 1
531 450 1
546 450 1
578 450 1
594 450 1
618 450 1
623 450 1
85 451 1
91 451 1
532 451 1
547 451 1
579 451 1
595 451 1
619 451 1
624 451 1
86 452 1
92 452 1
533 452 1
548 452 1
580 452 1
596 452 1
601 452 1
620 452 1
87 453 1
93 453 1
534 453 1
549 453 1
581 453 1
597 453 1
602 453 1
621 453 1
88 454 1
94 454 1
535 454 1
550 454 1
582 454 1
598 454 1
603 454 1
622 454 1
89 455 1
95 455 1
536 455 1
551 455 1
583 455 1
599 455 1
604 455 1
623 455 1
90 456 1
96 456 1
537 456 1
552 456 1
584 456 1
600 456 1
605 456 1
624 456 1
97 457 1
115 457 1
481 457 1
492 457 1
625 457 1
630 457 1
649 457 1
651 457 1
98 458 1
116 458 1
482 458 1
493 458 1
626 458 1
631 458 1
650 458 1
652 458 1
99 459 1
117 459 1
483 459 1
494 459 1
627 459 1
632 459 1
651 459 1
653 459 1
100 460 1
118 460 1
484 460 1
495 460 1
628 460 1
633 460 1
652 460 1
654 460 1
101 461 1
119 461 1
485 461 1
496 461 1
629 461 1
634 461 1
653 461 1
655 461 1
102 462 1
120 462 1
486 462 1
497 462 1
630 462 1
635 462 1
654 462 1
656 462 1
97 463 1
103 463 1
487 463 1
498 463 1
631 463 1
636 463 1
655 463 1
657 463 1
98 464 1
104 464 1
488 464 1
499 464 1
632 464 1
637 464 1
656 464 1
658 464 1
99 465 1
105 465 1
489 465 1
500 465 1
633 465 1
638 465 1
657 465 1
659 465 1
100 466 1
106 466 1
490 466 1
501 466 1
634 466 1
639 466 1
658 466 1
660 466 1
101 467 1
107 467 1
491 467 1
502 467 1
635 467 1
640 467 1
659 467 1
661 467 1
102 468 1
108 468 1
492 468 1
503 468 1
636 468 1
641 468 1
660 468 1
662 468 1
103 469 1
109 469 1
493 469 1
504 469 1
637 469 1
642 469 1
661 469 1
663 469 1
104 470 1
110 470 1
481 470 1
494 470 1
638 470 1
643 470 1
662 470 1
664 470 1
105 471 1
111 471 1
482 471 1
495 471 1
639 471 1
644 471 1
663 471 1
665 471 1
106 472 1
112 472 1
483 472 1
496 472 1
640 472 1
645 472 1
664 472 1
666 472 1
107 473 1
113 473 1
484 473 1
497 473 1
641 473 1
646 473 1
665 473 1
667 473 1
108 474 1
114 474 1
485 474 1
498 474 1
642 474 1
647 474 1
666 474 1
668 474 1
109 475 1
115 475 1
486 475 1
499 475 1
643 475 1
648 475 1
667 475 1
669 475 1
110 476 1
116 476 1
487 476 1
500 476 1
625 476 1
644 476 1
668 476 1
670 476 1
111 477 1
117 477 1
488 477 1
501 477 1
626 477 1
645 477 1
669 477 1
671 477 1
112 478 1
118 478 1
489 478 1
502 478 1
627 478 1
646 478 1
670 478 1
672 478 1
113 479 1
119 479 1
490 479 1
503 479 1
628 479 1
647 479 1
649 479 1
671 479 1
114 480 1
120 480 1
491 480 1
504 480 1
629 480 1
648 480 1
650 480 1
672 480 1
121 481 1
139 481 1
505 481 1
516 481 1
625 481 1
633 481 1
673 481 1
675 481 1
122 482 1
140 482 1
506 482 1
517 482 1
626 482 1
634 482 1
674 482 1
676 482 1
123 483 1
141 483 1
507 483 1
518 483 1
627 483 1
635 483 1
675 483 1
677 483 1
124 484 1
142 484 1
508 484 1
519 484 1
628 484 1
636 484 1
676 484 1
678 484 1
125 485 1
143 485 1
509 485 1
520 485 1
629 485 1
637 485 1
677 485 1
679 485 1
126 486 1
144 486 1
510 486 1
521 486 1
630 486 1
638 486 1
678 486 1
680 486 1
121 487 1
127 487 1
511 487 1
522 487 1
631 487 1
639 487 1
679 487 1
681 487 1
122 488 1
128 488 1
512 488 1
523 488 1
632 488 1
640 488 1
680 488 1
682 488 1
123 489 1
129 489 1
513 489 1
524 489 1
633 489 1
641 489 1
681 489 1
683 489 1
124 490 1
130 490 1
514 490 1
525 490 1
634 490 1
642 490 1
682 490 1
684 490 1
125 491 1
131 491 1
515 491 1
526 491 1
635 491 1
643 491 1
683 491 1
685 491 1
126 492 1
132 492 1
516 492 1
527 492 1
636 492 1
644 492 1
684 492 1
686 492 1
127 493 1
133 493 1
517 493 1
528 493 1
637 493 1
645 493 1
685 493 1
687 493 1
128 494 1
134 494 1
505 494 1
518 494 1
638 494 1
646 494 1
686 494 1
688 494 1
129 495 1
135 495 1
506 495 1
519 495 1
639 495 1
647 495 1
687 495 1
689 495 1
130 496 1
136 496 1
507 496 1
520 496 1
640 496 1
648 496 1
688 496 1
690 496 1
131 497 1
137 497 1
508 497 1
521 497 1
625 497 1
641 497 1
689 497 1
691 497 1
132 498 1
138 498 1
509 498 1
522 498 1
626 498 1
642 498 1
690 498 1
692 498 1
133 499 1
139 499 1
510 499 1
523 499 1
627 499 1
643 499 1
691 499 1
693 499 1
134 500 1
140 500 1
511 500 1
524 500 1
628 500 1
644 500 1
692 500 1
694 500 1
135 501 1
141 501 1
512 501 1
525 501 1
629 501 1
645 501 1
693 501 1
695 501 1
136 502 1
142 502 1
513 502 1
526 502 1
630 502 1
646 502 1
694 502 1
696 502 1
137 503 1
143 503 1
514 503 1
527 503 1
631 503 1
647 503 1
673 503 1
695 503 1
138 504 1
144 504 1
515 504 1
528 504 1
632 504 1
648 504 1
674 504 1
696 504 1
145 505 1
163 505 1
529 505 1
540 505 1
649 505 1
657 505 1
673 505 1
678 505 1
146 506 1
164 506 1
530 506 1
541 506 1
650 506 1
658 506 1
674 506 1
679 506 1
147 507 1
165 507 1
531 507 1
542 507 1
651 507 1
659 507 1
675 507 1
680 507 1
148 508 1
166 508 1
532 508 1
543 508 1
652 508 1
660 508 1
676 508 1
681 508 1
149 509 1
167 509 1
533 509 1
544 509 1
653 509 1
661 509 1
677 509 1
682 509 1
150 510 1
168 510 1
534 510 1
545 510 1
654 510 1
662 510 1
678 510 1
683 510 1
145 511 1
151 511 1
535 511 1
546 511 1
655 511 1
663 511 1
679 511 1
684 511 1
146 512 1
152 512 1
536 512 1
547 512 1
656 512 1
664 512 1
680 512 1
685 512 1
147 513 1
153 513 1
537 513 1
548 513 1
657 513 1
665 513 1
681 513 1
686 513 1
148 514 1
154 514 1
538 514 1
549 514 1
658 514 1
666 514 1
682 514 1
687 514 1
149 515 1
155 515 1
539 515 1
550 515 1
659 515 1
667 515 1
683 515 1
688 515 1
150 516 1
156 516 1
540 516 1
551 516 1
660 516 1
668 516 1
684 516 1
689 516 1
151 517 1
157 517 1
541 517 1
552 517 1
661 517 1
669 517 1
685 517 1
690 517 1
152 518 1
158 518 1
529 518 1
542 518 1
662 518 1
670 518 1
686 518 1
691 518 1
153 519 1
159 519 1
530 519 1
543 519 1
663 519 1
671 519 1
687 519 1
692 519 1
154 520 1
160 520 1
531 520 1
544 520 1
664 520 1
672 520 1
688 520 1
693 520 1
155 521 1
161 521 1
532 521 1
545 521 1
649 521 1
665 521 1
689 521 1
694 521 1
156 522 1
162 522 1
533 522 1
546 522 1
650 522 1
666 522 1
690 522 1
695 522 1
157 523 1
163 523 1
534 523 1
547 523 1
651 523 1
667 523 1
691 523 1
696 523 1
158 524 1
164 524 1
535 524 1
548 524 1
652 524 1
668 524 1
673 524 1
692 524 1
159 525 1
165 525 1
536 525 1
549 525 1
653 525 1
669 525 1
674 525 1
693 525 1
160 526 1
166 526 1
537 526 1
550 526 1
654 526 1
670 526 1
675 526 1
694 526 1
161 527 1
167 527 1
538 527 1
551 527 1
655 527 1
671 527 1
676 527 1
695 527 1
162 528 1
168 528 1
539 528 1
552 528 1
656 528 1
672 528 1
677 528 1
696 528 1
169 529 1
187 529 1
553 529 1
564 529 1
625 529 1
634 529 1
697 529 1
699 529 1
170 530 1
188 530 1
554 530 1
565 530 1
626 530 1
635 530 1
698 530 1
700 530 1
171 531 1
189 531 1
555 531 1
566 531 1
627 531 1
636 531 1
699 531 1
701 531 1
172 532 1
190 532 1
556 532 1
567 532 1
628 532 1
637 532 1
700 532 1
702 532 1
173 533 1
191 533 1
557 533 1
568 533 1
629 533 1
638 533 1
701 533 1
703 533 1
174 534 1
192 534 1
558 534 1
569 534 1
630 534 1
639 534 1
702 534 1
704 534 1
169 535 1
175 535 1
559 535 1
570 535 1
631 535 1
640 535 1
703 535 1
705 535 1
170 536 1
176 536 1
560 536 1
571 536 1
632 536 1
641 536 1
704 536 1
706 536 1
171 537 1
177 537 1
561 537 1
572 537 1
633 537 1
642 537 1
705 537 1
707 537 1
172 538 1
178 538 1
562 538 1
573 538 1
634 538 1
643 538 1
706 538 1
708 538 1
173 539 1
179 539 1
563 539 1
574 539 1
635 539 1
644 539 1
707 539 1
709 539 1
174 540 1
180 540 1
564 540 1
575 540 1
636 540 1
645 540 1
708 540 1
710 540 1
175 541 1
181 541 1
565 541 1
576 541 1
637 541 1
646 541 1
709 541 1
711 541 1
176 542 1
182 542 1
553 542 1
566 542 1
638 542 1
647 542 1
710 542 1
712 542 1
177 543 1
183 543 1
554 543 1
567 543 1
639 543 1
648 543 1
711 543 1
713 543 1
178 544 1
184 544 1
555 544 1
568 544 1
625 544 1
640 544 1
712 544 1
714 544 1
179 545 1
185 545 1
556 545 1
569 545 1
626 545 1
641 545 1
713 545 1
715 545 1
180 546 1
186 546 1
557 546 1
570 546 1
627 546 1
642 546 1
714 546 1
716 546 1
181 547 1
187 547 1
558 547 1
571 547 1
628 547 1
643 547 1
715 547 1
717 547 1
182 548 1
188 548 1
559 548 1
572 548 1
629 548 1
644 548 1
716 548 1
718 548 1
183 549 1
189 549 1
560 549 1
573 549 1
630 549 1
645 549 1
717 549 1
719 549 1
184 550 1
190 550 1
561 550 1
574 550 1
631 550 1
646 550 1
718 550 1
720 550 1
185 551 1
191 551 1
562 551 1
575 551 1
632 551 1
647 551 1
697 551 1
719 551 1
186 552 1
192 552 1
563 552 1
576 552 1
633 552 1
648 552 1
698 552 1
720 552 1
193 553 1
211 553 1
577 553 1
588 553 1
649 553 1
658 553 1
697 553 1
702 553 1
194 554 1
212 554 1
578 554 1
589 554 1
650 554 1
659 554 1
698 554 1
703 554 1
195 555 1
213 555 1
579 555 1
590 555 1
651 555 1
660 555 1
699 555 1
704 555 1
196 556 1
214 556 1
580 556 1
591 556 1
652 556 1
661 556 1
700 556 1
705 556 1
197 557 1
215 557 1
581 557 1
592 557 1
653 557 1
662 557 1
701 557 1
706 557 1
198 558 1
216 558 1
582 558 1
593 558 1
654 558 1
663 558 1
702 558 1
707 558 1
193 559 1
199 559 1
583 559 1
594 559 1
655 559 1
664 559 1
703 559 1
708 559 1
194 560 1
200 560 1
584 560 1
595 560 1
656 560 1
665 560 1
704 560 1
709 560 1
195 561 1
201 561 1
585 561 1
596 561 1
657 561 1
666 561 1
705 561 1
710 561 1
196 562 1
202 562 1
586 562 1
597 562 1
658 562 1
667 562 1
706 562 1
711 562 1
197 563 1
203 563 1
587 563 1
598 563 1
659 563 1
668 563 1
707 563 1
712 563 1
198 564 1
204 564 1
588 564 1
599 564 1
660 564 1
669 564 1
708 564 1
713 564 1
199 565 1
205 565 1
589 565 1
600 565 1
661 565 1
670 565 1
709 565 1
714 565 1
200 566 1
206 566 1
577 566 1
590 566 1
662 566 1
671 566 1
710 566 1
715 566 1
201 567 1
207 567 1
578 567 1
591 567 1
663 567 1
672 567 1
711 567 1
716 567 1
202 568 1
208 568 1
579 568 1
592 568 1
649 568 1
664 568 1
712 568 1
717 568 1
203 569 1
209 569 1
580 569 1
593 569 1
650 569 1
665 569 1
713 569 1
718 569 1
204 570 1
210 570 1
581 570 1
594 570 1
651 570 1
666 570 1
714 570 1
719 570 1
205 571 1
211 571 1
582 571 1
595 571 1
652 571 1
667 571 1
715 571 1
720 571 1
206 572 1
212 572 1
583 572 1
596 572 1
653 572 1
668 572 1
697 572 1
716 572 1
207 573 1
213 573 1
584 573 1
597 573 1
654 573 1
669 573 1
698 573 1
717 573 1
208 574 1
214 574 1
585 574 1
598 574 1
655 574 1
670 574 1
699 574 1
718 574 1
209 575 1
215 575 1
586 575 1
599 575 1
656 575 1
671 575 1
700 575 1
719 575 1
210 576 1
216 576 1
587 576 1
600 576 1
657 576 1
672 576 1
701 576 1
720 576 1
217 577 1
235 577 1
601 577 1
612 577 1
673 577 1
682 577 1
697 577 1
705 577 1
218 578 1
236 578 1
602 578 1
613 578 1
674 578 1
683 578 1
698 578 1
706 578 1
219 579 1
237 579 1
603 579 1
614 579 1
675 579 1
684 579 1
699 579 1
707 579 1
220 580 1
238 580 1
604 580 1
615 580 1
676 580 1
685 580 1
700 580 1
708 580 1
221 581 1
239 581 1
605 581 1
616 581 1
677 581 1
686 581 1
701 581 1
709 581 1
222 582 1
240 582 1
606 582 1
617 582 1
678 582 1
687 582 1
702 582 1
710 582 1
217 583 1
223 583 1
607 583 1
618 583 1
679 583 1
688 583 1
703 583 1
711 583 1
218 584 1
224 584 1
608 584 1
619 584 1
680 584 1
689 584 1
704 584 1
712 584 1
219 585 1
225 585 1
609 585 1
620 585 1
681 585 1
690 585 1
705 585 1
713 585 1
220 586 1
226 586 1
610 586 1
621 586 1
682 586 1
691 586 1
706 586 1
714 586 1
221 587 1
227 587 1
611 587 1
622 587 1
683 587 1
692 587 1
707 587 1
715 587 1
222 588 1
228 588 1
612 588 1
623 588 1
684 588 1
693 588 1
708 588 1
716 588 1
223 589 1
229 589 1
613 589 1
624 589 1
685 589 1
694 589 1
709 589 1
717 589 1
224 590 1
230 590 1
601 590 1
614 590 1
686 590 1
695 590 1
710 590 1
718 590 1
225 591 1
231 591 1
602 591 1
615 591 1
687 591 1
696 591 1
711 591 1
719 591 1
226 592 1
232 592 1
603 592 1
616 592 1
673 592 1
688 592 1
712 592 1
720 592 1
227 593 1
233 593 1
604 593 1
617 593 1
674 593 1
689 593 1
697 593 1
713 593 1
228 594 1
234 594 1
605 594 1
618 594 1
675 594 1
690 594 1
698 594 1
714 594 1
229 595 1
235 595 1
606 595 1
619 595 1
676 595 1
691 595 1
699 595 1
715 595 1
230 596 1
236 596 1
607 596 1
620 596 1
677 596 1
692 596 1
700 596 1
716 596 1
231 597 1
237 597 1
608 597 1
621 597 1
678 597 1
693 597 1
701 597 1
717 597 1
232 598 1
238 598 1
609 598 1
622 598 1
679 598 1
694 598 1
702 598 1
718 598 1
233 599 1
239 599 1
610 599 1
623 599 1
680 599 1
695 599 1
703 599 1
719 599 1
234 600 1
240 600 1
611 600 1
624 600 1
681 600 1
696 600 1
704 600 1
720 600 1
241 601 1
259 601 1
481 601 1
496 601 1
721 601 1
726 601 1
745 601 1
747 601 1
242 602 1
260 602 1
482 602 1
497 602 1
722 602 1
727 602 1
746 602 1
748 602 1
243 603 1
261 603 1
483 603 1
498 603 1
723 603 1
728 603 1
747 603 1
749 603 1
244 604 1
262 604 1
484 604 1
499 604 1
724 604 1
729 604 1
748 604 1
750 604 1
245 605 1
263 605 1
485 605 1
500 605 1
725 605 1
730 605 1
749 605 1
751 605 1
246 606 1
264 606 1
486 606 1
501 606 1
726 606 1
731 606 1
750 606 1
752 606 1
241 607 1
247 607 1
487 607 1
502 607 1
727 607 1
732 607 1
751 607 1
753 607 1
242 608 1
248 608 1
488 608 1
503 608 1
728 608 1
733 608 1
752 608 1
754 608 1
243 609 1
249 609 1
489 609 1
504 609 1
729 609 1
734 609 1
753 609 1
755 609 1
244 610 1
250 610 1
481 610 1
490 610 1
730 610 1
735 610 1
754 610 1
756 610 1
245 611 1
251 611 1
482 611 1
491 611 1
731 611 1
736 611 1
755 611 1
757 611 1
246 612 1
252 612 1
483 612 1
492 612 1
732 612 1
737 612 1
756 612 1
758 612 1
247 613 1
253 613 1
484 613 1
493 613 1
733 613 1
738 613 1
757 613 1
759 613 1
248 614 1
254 614 1
485 614 1
494 614 1
734 614 1
739 614 1
758 614 1
760 614 1
249 615 1
255 615 1
486 615 1
495 615 1
735 615 1
740 615 1
759 615 1
761 615 1
250 616 1
256 616 1
487 616 1
496 616 1
736 616 1
741 616 1
760 616 1
762 616 1
251 617 1
257 617 1
488 617 1
497 617 1
737 617 1
742 617 1
761 617 1
763 617 1
252 618 1
258 618 1
489 618 1
498 618 1
738 618 1
743 618 1
762 618 1
764 618 1
253 619 1
259 619 1
490 619 1
499 619 1
739 619 1
744 619 1
763 619 1
765 619 1
254 620 1
260 620 1
491 620 1
500 620 1
721 620 1
740 620 1
764 620 1
766 620 1
255 621 1
261 621 1
492 621 1
501 621 1
722 621 1
741 621 1
765 621 1
767 621 1
256 622 1
262 622 1
493 622 1
502 622 1
723 622 1
742 622 1
766 622 1
768 622 1
257 623 1
263 623 1
494 623 1
503 623 1
724 623 1
743 623 1
745 623 1
767 623 1
258 624 1
264 624 1
495 624 1
504 624 1
725 624 1
744 624 1
746 624 1
768 624 1
265 625 1
283 625 1
505 625 1
520 625 1
721 625 1
729 625 1
769 625 1
771 625 1
266 626 1
284 626 1
506 626 1
521 626 1
722 626 1
730 626 1
770 626 1
772 626 1
267 627 1
285 627 1
507 627 1
522 627 1
723 627 1
731 627 1
771 627 1
773 627 1
268 628 1
286 628 1
508 628 1
523 628 1
724 628 1
732 628 1
772 628 1
774 628 1
269 629 1
287 629 1
509 629 1
524 629 1
725 629 1
733 629 1
773 629 1
775 629 1
270 630 1
288 630 1
510 630 1
525 630 1
726 630 1
734 630 1
774 630 1
776 630 1
265 631 1
271 631 1
511 631 1
526 631 1
727 631 1
735 631 1
775 631 1
777 631 1
266 632 1
272 632 1
512 632 1
527 632 1
728 632 1
736 632 1
776 632 1
778 632 1
267 633 1
273 633 1
513 633 1
528 633 1
729 633 1
737 633 1
777 633 1
779 633 1
268 634 1
274 634 1
505 634 1
514 634 1
730 634 1
738 634 1
778 634 1
780 634 1
269 635 1
275 635 1
506 635 1
515 635 1
731 635 1
739 635 1
779 635 1
781 635 1
270 636 1
276 636 1
507 636 1
516 636 1
732 636 1
740 636 1
780 636 1
782 636 1
271 637 1
277 637 1
508 637 1
517 637 1
733 637 1
741 637 1
781 637 1
783 637 1
272 638 1
278 638 1
509 638 1
518 638 1
734 638 1
742 638 1
782 638 1
784 638 1
273 639 1
279 639 1
510 639 1
519 639 1
735 639 1
743 639 1
783 639 1
785 639 1
274 640 1
280 640 1
511 640 1
520 640 1
736 640 1
744 640 1
784 640 1
786 640 1
275 641 1
281 641 1
512 641 1
521 641 1
721 641 1
737 641 1
785 641 1
787 641 1
276 642 1
282 642 1
513 642 1
522 642 1
722 642 1
738 642 1
786 642 1
788 642 1
277 643 1
283 643 1
514 643 1
523 643 1
723 643 1
739 643 1
787 643 1
789 643 1
278 644 1
284 644 1
515 644 1
524 644 1
724 644 1
740 644 1
788 644 1
790 644 1
279 645 1
285 645 1
516 645 1
525 645 1
725 645 1
741 645 1
789 645 1
791 645 1
280 646 1
286 646 1
517 646 1
526 646 1
726 646 1
742 646 1
790 646 1
792 646 1
281 647 1
287 647 1
518 647 1
527 647 1
727 647 1
743 647 1
769 647 1
791 647 1
282 648 1
288 648 1
519 648 1
528 648 1
728 648 1
744 648 1
770 648 1
792 648 1
289 649 1
307 649 1
529 649 1
544 649 1
745 649 1
753 649 1
769 649 1
774 649 1
290 650 1
308 650 1
530 650 1
545 650 1
746 650 1
754 650 1
770 650 1
775 650 1
291 651 1
309 651 1
531 651 1
546 651 1
747 651 1
755 651 1
771 651 1
776 651 1
292 652 1
310 652 1
532 652 1
547 652 1
748 652 1
756 652 1
772 652 1
777 652 1
293 653 1
311 653 1
533 653 1
548 653 1
749 653 1
757 653 1
773 653 1
778 653 1
294 654 1
312 654 1
534 654 1
549 654 1
750 654 1
758 654 1
774 654 1
779 654 1
289 655 1
295 655 1
535 655 1
550 655 1
751 655 1
759 655 1
775 655 1
780 655 1
290 656 1
296 656 1
536 656 1
551 656 1
752 656 1
760 656 1
776 656 1
781 656 1
291 657 1
297 657 1
537 657 1
552 657 1
753 657 1
761 657 1
777 657 1
782 657 1
292 658 1
298 658 1
529 658 1
538 658 1
754 658 1
762 658 1
778 658 1
783 658 1
293 659 1
299 659 1
530 659 1
539 659 1
755 659 1
763 659 1
779 659 1
784 659 1
294 660 1
300 660 1
531 660 1
540 660 1
756 660 1
764 660 1
780 660 1
785 660 1
295 661 1
301 661 1
532 661 1
541 661 1
757 661 1
765 661 1
781 661 1
786 661 1
296 662 1
302 662 1
533 662 1
542 662 1
758 662 1
766 662 1
782 662 1
787 662 1
297 663 1
303 663 1
534 663 1
543 663 1
759 663 1
767 663 1
783 663 1
788 663 1
298 664 1
304 664 1
535 664 1
544 664 1
760 664 1
768 664 1
784 664 1
789 664 1
299 665 1
305 665 1
536 665 1
545 665 1
745 665 1
761 665 1
785 665 1
790 665 1
300 666 1
306 666 1
537 666 1
546 666 1
746 666 1
762 666 1
786 666 1
791 666 1
301 667 1
307 667 1
538 667 1
547 667 1
747 667 1
763 667 1
787 667 1
792 667 1
302 668 1
308 668 1
539 668 1
548 668 1
748 668 1
764 668 1
769 668 1
788 668 1
303 669 1
309 669 1
540 669 1
549 669 1
749 669 1
765 669 1
770 669 1
789 669 1
304 670 1
310 670 1
541 670 1
550 670 1
750 670 1
766 670 1
771 670 1
790 670 1
305 671 1
311 671 1
542 671 1
551 671 1
751 671 1
767 671 1
772 671 1
791 671 1
306 672 1
312 672 1
543 672 1
552 672 1
752 672 1
768 672 1
773 672 1
792 672 1
313 673 1
331 673 1
553 673 1
568 673 1
721 673 1
730 673 1
793 673 1
795 673 1
314 674 1
332 674 1
554 674 1
569 674 1
722 674 1
731 674 1
794 674 1
796 674 1
315 675 1
333 675 1
555 675 1
570 675 1
723 675 1
732 675 1
795 675 1
797 675 1
316 676 1
334 676 1
556 676 1
571 676 1
724 676 1
733 676 1
796 676 1
798 676 1
317 677 1
335 677 1
557 677 1
572 677 1
725 677 1
734 677 1
797 677 1
799 677 1
318 678 1
336 678 1
558 678 1
573 678 1
726 678 1
735 678 1
798 678 1
800 678 1
313 679 1
319 679 1
559 679 1
574 679 1
727 679 1
736 679 1
799 679 1
801 679 1
314 680 1
320 680 1
560 680 1
575 680 1
728 680 1
737 680 1
800 680 1
802 680 1
315 681 1
321 681 1
561 681 1
576 681 1
729 681 1
738 681 1
801 681 1
803 681 1
316 682 1
322 682 1
553 682 1
562 682 1
730 682 1
739 682 1
802 682 1
804 682 1
317 683 1
323 683 1
554 683 1
563 683 1
731 683 1
740 683 1
803 683 1
805 683 1
318 684 1
324 684 1
555 684 1
564 684 1
732 684 1
741 684 1
804 684 1
806 684 1
319 685 1
325 685 1
556 685 1
565 685 1
733 685 1
742 685 1
805 685 1
807 685 1
320 686 1
326 686 1
557 686 1
566 686 1
734 686 1
743 686 1
806 686 1
808 686 1
321 687 1
327 687 1
558 687 1
567 687 1
735 687 1
744 687 1
807 687 1
809 687 1
322 688 1
328 688 1
559 688 1
568 688 1
721 688 1
736 688 1
808 688 1
810 688 1
323 689 1
329 689 1
560 689 1
569 689 1
722 689 1
737 689 1
809 689 1
811 689 1
324 690 1
330 690 1
561 690 1
570 690 1
723 690 1
738 690 1
810 690 1
812 690 1
325 691 1
331 691 1
562 691 1
571 691 1
724 691 1
739 691 1
811 691 1
813 691 1
326 692 1
332 692 1
563 692 1
572 692 1
725 692 1
740 692 1
812 692 1
814 692 1
327 693 1
333 693 1
564 693 1
573 693 1
726 693 1
741 693 1
813 693 1
815 693 1
328 694 1
334 694 1
565 694 1
574 694 1
727 694 1
742 694 1
814 694 1
816 694 1
329 695 1
335 695 1
566 695 1
575 695 1
728 695 1
743 695 1
793 695 1
815 695 1
330 696 1
336 696 1
567 696 1
576 696 1
729 696 1
744 696 1
794 696 1
816 696 1
337 697 1
355 697 1
577 697 1
592 697 1
745 697 1
754 697 1
793 697 1
798 697 1
338 698 1
356 698 1
578 698 1
593 698 1
746 698 1
755 698 1
794 698 1
799 698 1
339 699 1
357 699 1
579 699 1
594 699 1
747 699 1
756 699 1
795 699 1
800 699 1
340 700 1
358 700 1
580 700 1
595 700 1
748 700 1
757 700 1
796 700 1
801 700 1
341 701 1
359 701 1
581 701 1
596 701 1
749 701 1
758 701 1
797 701 1
802 701 1
342 702 1
360 702 1
582 702 1
597 702 1
750 702 1
759 702 1
798 702 1
803 702 1
337 703 1
343 703 1
583 703 1
598 703 1
751 703 1
760 703 1
799 703 1
804 703 1
338 704 1
344 704 1
584 704 1
599 704 1
752 704 1
761 704 1
800 704 1
805 704 1
339 705 1
345 705 1
585 705 1
600 705 1
753 705 1
762 705 1
801 705 1
806 705 1
340 706 1
346 706 1
577 706 1
586 706 1
754 706 1
763 706 1
802 706 1
807 706 1
341 707 1
347 707 1
578 707 1
587 707 1
755 707 1
764 707 1
803 707 1
808 707 1
342 708 1
348 708 1
579 708 1
588 708 1
756 708 1
765 708 1
804 708 1
809 708 1
343 709 1
349 709 1
580 709 1
589 709 1
757 709 1
766 709 1
805 709 1
810 709 1
344 710 1
350 710 1
581 710 1
590 710 1
758 710 1
767 710 1
806 710 1
811 710 1
345 711 1
351 711 1
582 711 1
591 711 1
759 711 1
768 711 1
807 711 1
812 711 1
346 712 1
352 712 1
583 712 1
592 712 1
745 712 1
760 712 1
808 712 1
813 712 1
347 713 1
353 713 1
584 713 1
593 713 1
746 713 1
761 713 1
809 713 1
814 713 1
348 714 1
354 714 1
585 714 1
594 714 1
747 714 1
762 714 1
810 714 1
815 714 1
349 715 1
355 715 1
586 715 1
595 715 1
748 715 1
763 715 1
811 715 1
816 715 1
350 716 1
356 716 1
587 716 1
596 716 1
749 716 1
764 716 1
793 716 1
812 716 1
351 717 1
357 717 1
588 717 1
597 717 1
750 717 1
765 717 1
794 717 1
813 717 1
352 718 1
358 718 1
589 718 1
598 718 1
751 718 1
766 718 1
795 718 1
814 718 1
353 719 1
359 719 1
590 719 1
599 719 1
752 719 1
767 719 1
796 719 1
815 719 1
354 720 1
360 720 1
591 720 1
600 720 1
753 720 1
768 720 1
797 720 1
816 720 1
361 721 1
379 721 1
601 721 1
616 721 1
769 721 1
778 721 1
793 721 1
801 721 1
362 722 1
380 722 1
602 722 1
617 722 1
770 722 1
779 722 1
794 722 1
802 722 1
363 723 1
381 723 1
603 723 1
618 723 1
771 723 1
780 723 1
795 723 1
803 723 1
364 724 1
382 724 1
604 724 1
619 724 1
772 724 1
781 724 1
796 724 1
804 724 1
365 725 1
383 725 1
605 725 1
620 725 1
773 725 1
782 725 1
797 725 1
805 725 1
366 726 1
384 726 1
606 726 1
621 726 1
774 726 1
783 726 1
798 726 1
806 726 1
361 727 1
367 727 1
607 727 1
622 727 1
775 727 1
784 727 1
799 727 1
807 727 1
362 728 1
368 728 1
608 728 1
623 728 1
776 728 1
785 728 1
800 728 1
808 728 1
363 729 1
369 729 1
609 729 1
624 729 1
777 729 1
786 729 1
801 729 1
809 729 1
364 730 1
370 730 1
601 730 1
610 730 1
778 730 1
787 730 1
802 730 1
810 730 1
365 731 1
371 731 1
602 731 1
611 731 1
779 731 1
788 731 1
803 731 1
811 731 1
366 732 1
372 732 1
603 732 1
612 732 1
780 732 1
789 732 1
804 732 1
812 732 1
367 733 1
373 733 1
604 733 1
613 733 1
781 733 1
790 733 1
805 733 1
813 733 1
368 734 1
374 734 1
605 734 1
614 734 1
782 734 1
791 734 1
806 734 1
814 734 1
369 735 1
375 735 1
606 735 1
615 735 1
783 735 1
792 735 1
807 735 1
815 735 1
370 736 1
376 736 1
607 736 1
616 736 1
769 736 1
784 736 1
808 736 1
816 736 1
371 737 1
377 737 1
608 737 1
617 737 1
770 737 1
785 737 1
793 737 1
809 737 1
372 738 1
378 738 1
609 738 1
618 738 1
771 738 1
786 738 1
794 738 1
810 738 1
373 739 1
379 739 1
610 739 1
619 739 1
772 739 1
787 739 1
795 739 1
811 739 1
374 740 1
380 740 1
611 740 1
620 740 1
773 740 1
788 740 1
796 740 1
812 740 1
375 741 1
381 741 1
612 741 1
621 741 1
774 741 1
789 741 1
797 741 1
813 741 1
376 742 1
382 742 1
613 742 1
622 742 1
775 742 1
790 742 1
798 742 1
814 742 1
377 743 1
383 743 1
614 743 1
623 743 1
776 743 1
791 743 1
799 743 1
815 743 1
378 744 1
384 744 1
615 744 1
624 744 1
777 744 1
792 744 1
800 744 1
816 744 1
385 745 1
403 745 1
625 745 1
640 745 1
721 745 1
732 745 1
817 745 1
819 745 1
386 746 1
404 746 1
626 746 1
641 746 1
722 746 1
733 746 1
818 746 1
820 746 1
387 747 1
405 747 1
627 747 1
642 747 1
723 747 1
734 747 1
819 747 1
821 747 1
388 748 1
406 748 1
628 748 1
643 748 1
724 748 1
735 748 1
820 748 1
822 748 1
389 749 1
407 749 1
629 749 1
644 749 1
725 749 1
736 749 1
821 749 1
823 749 1
390 750 1
408 750 1
630 750 1
645 750 1
726 750 1
737 750 1
822 750 1
824 750 1
385 751 1
391 751 1
631 751 1
646 751 1
727 751 1
738 751 1
823 751 1
825 751 1
386 752 1
392 752 1
632 752 1
647 752 1
728 752 1
739 752 1
824 752 1
826 752 1
387 753 1
393 753 1
633 753 1
648 753 1
729 753 1
740 753 1
825 753 1
827 753 1
388 754 1
394 754 1
625 754 1
634 754 1
730 754 1
741 754 1
826 754 1
828 754 1
389 755 1
395 755 1
626 755 1
635 755 1
731 755 1
742 755 1
827 755 1
829 755 1
390 756 1
396 756 1
627 756 1
636 756 1
732 756 1
743 756 1
828 756 1
830 756 1
391 757 1
397 757 1
628 757 1
637 757 1
733 757 1
744 757 1
829 757 1
831 757 1
392 758 1
398 758 1
629 758 1
638 758 1
721 758 1
734 758 1
830 758 1
832 758 1
393 759 1
399 759 1
630 759 1
639 759 1
722 759 1
735 759 1
831 759 1
833 759 1
394 760 1
400 760 1
631 760 1
640 760 1
723 760 1
736 760 1
832 760 1
834 760 1
395 761 1
401 761 1
632 761 1
641 761 1
724 761 1
737 761 1
833 761 1
835 761 1
396 762 1
402 762 1
633 762 1
642 762 1
725 762 1
738 762 1
834 762 1
836 762 1
397 763 1
403 763 1
634 763 1
643 763 1
726 763 1
739 763 1
835 763 1
837 763 1
398 764 1
404 764 1
635 764 1
644 764 1
727 764 1
740 764 1
836 764 1
838 764 1
399 765 1
405 765 1
636 765 1
645 765 1
728 765 1
741 765 1
837 765 1
839 765 1
400 766 1
406 766 1
637 766 1
646 766 1
729 766 1
742 766 1
838 766 1
840 766 1
401 767 1
407 767 1
638 767 1
647 767 1
730 767 1
743 767 1
817 767 1
839 767 1
402 768 1
408 768 1
639 768 1
648 768 1
731 768 1
744 768 1
818 768 1
840 768 1
409 769 1
427 769 1
649 769 1
664 769 1
745 769 1
756 769 1
817 769 1
822 769 1
410 770 1
428 770 1
650 770 1
665 770 1
746 770 1
757 770 1
818 770 1
823 770 1
411 771 1
429 771 1
651 771 1
666 771 1
747 771 1
758 771 1
819 771 1
824 771 1
412 772 1
430 772 1
652 772 1
667 772 1
748 772 1
759 772 1
820 772 1
825 772 1
413 773 1
431 773 1
653 773 1
668 773 1
749 773 1
760 773 1
821 773 1
826 773 1
414 774 1
432 774 1
654 774 1
669 774 1
750 774 1
761 774 1
822 774 1
827 774 1
409 775 1
415 775 1
655 775 1
670 775 1
751 775 1
762 775 1
823 775 1
828 775 1
410 776 1
416 776 1
656 776 1
671 776 1
752 776 1
763 776 1
824 776 1
829 776 1
411 777 1
417 777 1
657 777 1
672 777 1
753 777 1
764 777 1
825 777 1
830 777 1
412 778 1
418 778 1
649 778 1
658 778 1
754 778 1
765 778 1
826 778 1
831 778 1
413 779 1
419 779 1
650 779 1
659 779 1
755 779 1
766 779 1
827 779 1
832 779 1
414 780 1
420 780 1
651 780 1
660 780 1
756 780 1
767 780 1
828 780 1
833 780 1
415 781 1
421 781 1
652 781 1
661 781 1
757 781 1
768 781 1
829 781 1
834 781 1
416 782 1
422 782 1
653 782 1
662 782 1
745 782 1
758 782 1
830 782 1
835 782 1
417 783 1
423 783 1
654 783 1
663 783 1
746 783 1
759 783 1
831 783 1
836 783 1
418 784 1
424 784 1
655 784 1
664 784 1
747 784 1
760 784 1
832 784 1
837 784 1
419 785 1
425 785 1
656 785 1
665 785 1
748 785 1
761 785 1
833 785 1
838 785 1
420 786 1
426 786 1
657 786 1
666 786 1
749 786 1
762 786 1
834 786 1
839 786 1
421 787 1
427 787 1
658 787 1
667 787 1
750 787 1
763 787 1
835 787 1
840 787 1
422 788 1
428 788 1
659 788 1
668 788 1
751 788 1
764 788 1
817 788 1
836 788 1
423 789 1
429 789 1
660 789 1
669 789 1
752 789 1
765 789 1
818 789 1
837 789 1
424 790 1
430 790 1
661 790 1
670 790 1
753 790 1
766 790 1
819 790 1
838 790 1
425 791 1
431 791 1
662 791 1
671 791 1
754 791 1
767 791 1
820 791 1
839 791 1
426 792 1
432 792 1
663 792 1
672 792 1
755 792 1
768 792 1
821 792 1
840 792 1
433 793 1
451 793 1
673 793 1
688 793 1
769 793 1
780 793 1
817 793 1
825 793 1
434 794 1
452 794 1
674 794 1
689 794 1
770 794 1
781 794 1
818 794 1
826 794 1
435 795 1
453 795 1
675 795 1
690 795 1
771 795 1
782 795 1
819 795 1
827 795 1
436 796 1
454 796 1
676 796 1
691 796 1
772 796 1
783 796 1
820 796 1
828 796 1
437 797 1
455 797 1
677 797 1
692 797 1
773 797 1
784 797 1
821 797 1
829 797 1
438 798 1
456 798 1
678 798 1
693 798 1
774 798 1
785 798 1
822 798 1
830 798 1
433 799 1
439 799 1
679 799 1
694 799 1
775 799 1
786 799 1
823 799 1
831 799 1
434 800 1
440 800 1
680 800 1
695 800 1
776 800 1
787 800 1
824 800 1
832 800 1
435 801 1
441 801 1
681 801 1
696 801 1
777 801 1
788 801 1
825 801 1
833 801 1
436 802 1
442 802 1
673 802 1
682 802 1
778 802 1
789 802 1
826 802 1
834 802 1
437 803 1
443 803 1
674 803 1
683 803 1
779 803 1
790 803 1
827 803 1
835 803 1
438 804 1
444 804 1
675 804 1
684 804 1
780 804 1
791 804 1
828 804 1
836 804 1
439 805 1
445 805 1
676 805 1
685 805 1
781 805 1
792 805 1
829 805 1
837 805 1
440 806 1
446 806 1
677 806 1
686 806 1
769 806 1
782 806 1
830 806 1
838 806 1
441 807 1
447 807 1
678 807 1
687 807 1
770 807 1
783 807 1
831 807 1
839 807 1
442 808 1
448 808 1
679 808 1
688 808 1
771 808 1
784 808 1
832 808 1
840 808 1
443 809 1
449 809 1
680 809 1
689 809 1
772 809 1
785 809 1
817 809 1
833 809 1
444 810 1
450 810 1
681 810 1
690 810 1
773 810 1
786 810 1
818 810 1
834 810 1
445 811 1
451 811 1
682 811 1
691 811 1
774 811 1
787 811 1
819 811 1
835 811 1
446 812 1
452 812 1
683 812 1
692 812 1
775 812 1
788 812 1
820 812 1
836 812 1
447 813 1
453 813 1
684 813 1
693 813 1
776 813 1
789 813 1
821 813 1
837 813 1
448 814 1
454 814 1
685 814 1
694 814 1
777 814 1
790 814 1
822 814 1
838 814 1
449 815 1
455 815 1
686 815 1
695 815 1
778 815 1
791 815 1
823 815 1
839 815 1
450 816 1
456 816 1
687 816 1
696 816 1
779 816 1
792 816 1
824 816 1
840 816 1
457 817 1
475 817 1
697 817 1
712 817 1
793 817 1
804 817 1
817 817 1
826 817 1
458 818 1
476 818 1
698 818 1
713 818 1
794 818 1
805 818 1
818 818 1
827 818 1
459 819 1
477 819 1
699 819 1
714 819 1
795 819 1
806 819 1
819 819 1
828 819 1
460 820 1
478 820 1
700 820 1
715 820 1
796 820 1
807 820 1
820 820 1
829 820 1
461 821 1
479 821 1
701 821 1
716 821 1
797 821 1
808 821 1
821 821 1
830 821 1
462 822 1
480 822 1
702 822 1
717 822 1
798 822 1
809 822 1
822 822 1
831 822 1
457 823 1
463 823 1
703 823 1
718 823 1
799 823 1
810 823 1
823 823 1
832 823 1
458 824 1
464 824 1
704 824 1
719 824 1
800 824 1
811 824 1
824 824 1
833 824 1
459 825 1
465 825 1
705 825 1
720 825 1
801 825 1
812 825 1
825 825 1
834 825 1
460 826 1
466 826 1
697 826 1
706 826 1
802 826 1
813 826 1
826 826 1
835 826 1
461 827 1
467 827 1
698 827 1
707 827 1
803 827 1
814 827 1
827 827 1
836 827 1
462 828 1
468 828 1
699 828 1
708 828 1
804 828 1
815 828 1
828 828 1
837 828 1
463 829 1
469 829 1
700 829 1
709 829 1
805 829 1
816 829 1
829 829 1
838 829 1
464 830 1
470 830 1
701 830 1
710 830 1
793 830 1
806 830 1
830 830 1
839 830 1
465 831 1
471 831 1
702 831 1
711 831 1
794 831 1
807 831 1
831 831 1
840 831 1
466 832 1
472 832 1
703 832 1
712 832 1
795 832 1
808 832 1
817 832 1
832 832 1
467 833 1
473 833 1
704 833 1
713 833 1
796 833 1
809 833 1
818 833 1
833 833 1
468 834 1
474 834 1
705 834 1
714 834 1
797 834 1
810 834 1
819 834 1
834 834 1
469 835 1
475 835 1
706 835 1
715 835 1
798 835 1
811 835 1
820 835 1
835 835 1
470 836 1
476 836 1
707 836 1
716 836 1
799 836 1
812 836 1
821 836 1
836 836 1
471 837 1
477 837 1
708 837 1
717 837 1
800 837 1
813 837 1
822 837 1
837 837 1
472 838 1
478 838 1
709 838 1
718 838 1
801 838 1
814 838 1
823 838 1
838 838 1
473 839 1
479 839 1
710 839 1
719 839 1
802 839 1
815 839 1
824 839 1
839 839 1
474 840 1
480 840 1
711 840 1
720 840 1
803 840 1
816 840 1
825 840 1
840 840 1
1 841 1
24 841 1
841 841 1
849 841 1
865 841 1
870 841 1
889 841 1
891 841 1
1 842 1
2 842 1
842 842 1
850 842 1
866 842 1
871 842 1
890 842 1
892 842 1
2 843 1
3 843 1
843 843 1
851 843 1
867 843 1
872 843 1
891 843 1
893 843 1
3 844 1
4 844 1
844 844 1
852 844 1
868 844 1
873 844 1
892 844 1
894 844 1
4 845 1
5 845 1
845 845 1
853 845 1
869 845 1
874 845 1
893 845 1
895 845 1
5 846 1
6 846 1
846 846 1
854 846 1
870 846 1
875 846 1
894 846 1
896 846 1
6 847 1
7 847 1
847 847 1
855 847 1
871 847 1
876 847 1
895 847 1
897 847 1
7 848 1
8 848 1
848 848 1
856 848 1
872 848 1
877 848 1
896 848 1
898 848 1
8 849 1
9 849 1
849 849 1
857 849 1
873 849 1
878 849 1
897 849 1
899 849 1
9 850 1
10 850 1
850 850 1
858 850 1
874 850 1
879 850 1
898 850 1
900 850 1
10 851 1
11 851 1
851 851 1
859 851 1
875 851 1
880 851 1
899 851 1
901 851 1
11 852 1
12 852 1
852 852 1
860 852 1
876 852 1
881 852 1
900 852 1
902 852 1
12 853 1
13 853 1
853 853 1
861 853 1
877 853 1
882 853 1
901 853 1
903 853 1
13 854 1
14 854 1
854 854 1
862 854 1
878 854 1
883 854 1
902 854 1
904 854 1
14 855 1
15 855 1
855 855 1
863 855 1
879 855 1
884 855 1
903 855 1
905 855 1
15 856 1
16 856 1
856 856 1
864 856 1
880 856 1
885 856 1
904 856 1
906 856 1
16 857 1
17 857 1
841 857 1
857 857 1
881 857 1
886 857 1
905 857 1
907 857 1
17 858 1
18 858 1
842 858 1
858 858 1
882 858 1
887 858 1
906 858 1
908 858 1
18 859 1
19 859 1
843 859 1
859 859 1
883 859 1
888 859 1
907 859 1
909 859 1
19 860 1
20 860 1
844 860 1
860 860 1
865 860 1
884 860 1
908 860 1
910 860 1
20 861 1
21 861 1
845 861 1
861 861 1
866 861 1
885 861 1
909 861 1
911 861 1
21 862 1
22 862 1
846 862 1
862 862 1
867 862 1
886 862 1
910 862 1
912 862 1
22 863 1
23 863 1
847 863 1
863 863 1
868 863 1
887 863 1
889 863 1
911 863 1
23 864 1
24 864 1
848 864 1
864 864 1
869 864 1
888 864 1
890 864 1
912 864 1
25 865 1
48 865 1
841 865 1
850 865 1
913 865 1
918 865 1
937 865 1
939 865 1
25 866 1
26 866 1
842 866 1
851 866 1
914 866 1
919 866 1
938 866 1
940 866 1
26 867 1
27 867 1
843 867 1
852 867 1
915 867 1
920 867 1
939 867 1
941 867 1
27 868 1
28 868 1
844 868 1
853 868 1
916 868 1
921 868 1
940 868 1
942 868 1
28 869 1
29 869 1
845 869 1
854 869 1
917 869 1
922 869 1
941 869 1
943 869 1
29 870 1
30 870 1
846 870 1
855 870 1
918 870 1
923 870 1
942 870 1
944 870 1
30 871 1
31 871 1
847 871 1
856 871 1
919 871 1
924 871 1
943 871 1
945 871 1
31 872 1
32 872 1
848 872 1
857 872 1
920 872 1
925 872 1
944 872 1
946 872 1
32 873 1
33 873 1
849 873 1
858 873 1
921 873 1
926 873 1
945 873 1
947 873 1
33 874 1
34 874 1
850 874 1
859 874 1
922 874 1
927 874 1
946 874 1
948 874 1
34 875 1
35 875 1
851 875 1
860 875 1
923 875 1
928 875 1
947 875 1
949 875 1
35 876 1
36 876 1
852 876 1
861 876 1
924 876 1
929 876 1
948 876 1
950 876 1
36 877 1
37 877 1
853 877 1
862 877 1
925 877 1
930 877 1
949 877 1
951 877 1
37 878 1
38 878 1
854 878 1
863 878 1
926 878 1
931 878 1
950 878 1
952 878 1
38 879 1
39 879 1
855 879 1
864 879 1
927 879 1
932 879 1
951 879 1
953 879 1
39 880 1
40 880 1
841 880 1
856 880 1
928 880 1
933 880 1
952 880 1
954 880 1
40 881 1
41 881 1
842 881 1
857 881 1
929 881 1
934 881 1
953 881 1
955 881 1
41 882 1
42 882 1
843 882 1
858 882 1
930 882 1
935 882 1
954 882 1
956 882 1
42 883 1
43 883 1
844 883 1
859 883 1
931 883 1
936 883 1
955 883 1
957 883 1
43 884 1
44 884 1
845 884 1
860 884 1
913 884 1
932 884 1
956 884 1
958 884 1
44 885 1
45 885 1
846 885 1
861 885 1
914 885 1
933 885 1
957 885 1
959 885 1
45 886 1
46 886 1
847 886 1
862 886 1
915 886 1
934 886 1
958 886 1
960 886 1
46 887 1
47 887 1
848 887 1
863 887 1
916 887 1
935 887 1
937 887 1
959 887 1
47 888 1
48 888 1
849 888 1
864 888 1
917 888 1
936 888 1
938 888 1
960 888 1
49 889 1
72 889 1
865 889 1
874 889 1
913 889 1
921 889 1
961 889 1
963 889 1
49 890 1
50 890 1
866 890 1
875 890 1
914 890 1
922 890 1
962 890 1
964 890 1
50 891 1
51 891 1
867 891 1
876 891 1
915 891 1
923 891 1
963 891 1
965 891 1
51 892 1
52 892 1
868 892 1
877 892 1
916 892 1
924 892 1
964 892 1
966 892 1
52 893 1
53 893 1
869 893 1
878 893 1
917 893 1
925 893 1
965 893 1
967 893 1
53 894 1
54 894 1
870 894 1
879 894 1
918 894 1
926 894 1
966 894 1
968 894 1
54 895 1
55 895 1
871 895 1
880 895 1
919 895 1
927 895 1
967 895 1
969 895 1
55 896 1
56 896 1
872 896 1
881 896 1
920 896 1
928 896 1
968 896 1
970 896 1
56 897 1
57 897 1
873 897 1
882 897 1
921 897 1
929 897 1
969 897 1
971 897 1
57 898 1
58 898 1
874 898 1
883 898 1
922 898 1
930 898 1
970 898 1
972 898 1
58 899 1
59 899 1
875 899 1
884 899 1
923 899 1
931 899 1
971 899 1
973 899 1
59 900 1
60 900 1
876 900 1
885 900 1
924 900 1
932 900 1
972 900 1
974 900 1
60 901 1
61 901 1
877 901 1
886 901 1
925 901 1
933 901 1
973 901 1
975 901 1
61 902 1
62 902 1
878 902 1
887 902 1
926 902 1
934 902 1
974 902 1
976 902 1
62 903 1
63 903 1
879 903 1
888 903 1
927 903 1
935 903 1
975 903 1
977 903 1
63 904 1
64 904 1
865 904 1
880 904 1
928 904 1
936 904 1
976 904 1
978 904 1
64 905 1
65 905 1
866 905 1
881 905 1
913 905 1
929 905 1
977 905 1
979 905 1
65 906 1
66 906 1
867 906 1
882 906 1
914 906 1
930 906 1
978 906 1
980 906 1
66 907 1
67 907 1
868 907 1
883 907 1
915 907 1
931 907 1
979 907 1
981 907 1
67 908 1
68 908 1
869 908 1
884 908 1
916 908 1
932 908 1
980 908 1
982 908 1
68 909 1
69 909 1
870 909 1
885 909 1
917 909 1
933 909 1
981 909 1
983 909 1
69 910 1
70 910 1
871 910 1
886 910 1
918 910 1
934 910 1
982 910 1
984 910 1
70 911 1
71 911 1
872 911 1
887 911 1
919 911 1
935 911 1
961 911 1
983 911 1
71 912 1
72 912 1
873 912 1
888 912 1
920 912 1
936 912 1
962 912 1
984 912 1
73 913 1
96 913 1
889 913 1
898 913 1
937 913 1
945 913 1
961 913 1
966 913 1
73 914 1
74 914 1
890 914 1
899 914 1
938 914 1
946 914 1
962 914 1
967 914 1
74 915 1
75 915 1
891 915 1
900 915 1
939 915 1
947 915 1
963 915 1
968 915 1
75 916 1
76 916 1
892 916 1
901 916 1
940 916 1
948 916 1
964 916 1
969 916 1
76 917 1
77 917 1
893 917 1
902 917 1
941 917 1
949 917 1
965 917 1
970 917 1
77 918 1
78 918 1
894 918 1
903 918 1
942 918 1
950 918 1
966 918 1
971 918 1
78 919 1
79 919 1
895 919 1
904 919 1
943 919 1
951 919 1
967 919 1
972 919 1
79 920 1
80 920 1
896 920 1
905 920 1
944 920 1
952 920 1
968 920 1
973 920 1
80 921 1
81 921 1
897 921 1
906 921 1
945 921 1
953 921 1
969 921 1
974 921 1
81 922 1
82 922 1
898 922 1
907 922 1
946 922 1
954 922 1
970 922 1
975 922 1
82 923 1
83 923 1
899 923 1
908 923 1
947 923 1
955 923 1
971 923 1
976 923 1
83 924 1
84 924 1
900 924 1
909 924 1
948 924 1
956 924 1
972 924 1
977 924 1
84 925 1
85 925 1
901 925 1
910 925 1
949 925 1
957 925 1
973 925 1
978 925 1
85 926 1
86 926 1
902 926 1
911 926 1
950 926 1
958 926 1
974 926 1
979 926 1
86 927 1
87 927 1
903 927 1
912 927 1
951 927 1
959 927 1
975 927 1
980 927 1
87 928 1
88 928 1
889 928 1
904 928 1
952 928 1
960 928 1
976 928 1
981 928 1
88 929 1
89 929 1
890 929 1
905 929 1
937 929 1
953 929 1
977 929 1
982 929 1
89 930 1
90 930 1
891 930 1
906 930 1
938 930 1
954 930 1
978 930 1
983 930 1
90 931 1
91 931 1
892 931 1
907 931 1
939 931 1
955 931 1
979 931 1
984 931 1
91 932 1
92 932 1
893 932 1
908 932 1
940 932 1
956 932 1
961 932 1
980 932 1
92 933 1
93 933 1
894 933 1
909 933 1
941 933 1
957 933 1
962 933 1
981 933 1
93 934 1
94 934 1
895 934 1
910 934 1
942 934 1
958 934 1
963 934 1
982 934 1
94 935 1
95 935 1
896 935 1
911 935 1
943 935 1
959 935 1
964 935 1
983 935 1
95 936 1
96 936 1
897 936 1
912 936 1
944 936 1
960 936 1
965 936 1
984 936 1
97 937 1
120 937 1
841 937 1
852 937 1
985 937 1
990 937 1
1009 937 1
1011 937 1
97 938 1
98 938 1
842 938 1
853 938 1
986 938 1
991 938 1
1010 938 1
1012 938 1
98 939 1
99 939 1
843 939 1
854 939 1
987 939 1
992 939 1
1011 939 1
1013 939 1
99 940 1
100 940 1
844 940 1
855 940 1
988 940 1
993 940 1
1012 940 1
1014 940 1
100 941 1
101 941 1
845 941 1
856 941 1
989 941 1
994 941 1
1013 941 1
1015 941 1
101 942 1
102 942 1
846 942 1
857 942 1
990 942 1
995 942 1
1014 942 1
1016 942 1
102 943 1
103 943 1
847 943 1
858 943 1
991 943 1
996 943 1
1015 943 1
1017 943 1
103 944 1
104 944 1
848 944 1
859 944 1
992 944 1
997 944 1
1016 944 1
1018 944 1
104 945 1
105 945 1
849 945 1
860 945 1
993 945 1
998 945 1
1017 945 1
1019 945 1
105 946 1
106 946 1
850 946 1
861 946 1
994 946 1
999 946 1
1018 946 1
1020 946 1
106 947 1
107 947 1
851 947 1
862 947 1
995 947 1
1000 947 1
1019 947 1
1021 947 1
107 948 1
108 948 1
852 948 1
863 948 1
996 948 1
1001 948 1
1020 948 1
1022 948 1
108 949 1
109 949 1
853 949 1
864 949 1
997 949 1
1002 949 1
1021 949 1
1023 949 1
109 950 1
110 950 1
841 950 1
854 950 1
998 950 1
1003 950 1
1022 950 1
1024 950 1
110 951 1
111 951 1
842 951 1
855 951 1
999 951 1
1004 951 1
1023 951 1
1025 951 1
111 952 1
112 952 1
843 952 1
856 952 1
1000 952 1
1005 952 1
1024 952 1
1026 952 1
112 953 1
113 953 1
844 953 1
857 953 1
1001 953 1
1006 953 1
1025 953 1
1027 953 1
113 954 1
114 954 1
845 954 1
858 954 1
1002 954 1
1007 954 1
1026 954 1
1028 954 1
114 955 1
115 955 1
846 955 1
859 955 1
1003 955 1
1008 955 1
1027 955 1
1029 955 1
115 956 1
116 956 1
847 956 1
860 956 1
985 956 1
1004 956 1
1028 956 1
1030 956 1
116 957 1
117 957 1
848 957 1
861 957 1
986 957 1
1005 957 1
1029 957 1
1031 957 1
117 958 1
118 958 1
849 958 1
862 958 1
987 958 1
1006 958 1
1030 958 1
1032 958 1
118 959 1
119 959 1
850 959 1
863 959 1
988 959 1
1007 959 1
1009 959 1
1031 959 1
119 960 1
120 960 1
851 960 1
864 960 1
989 960 1
1008 960 1
1010 960 1
1032 960 1
121 961 1
144 961 1
865 961 1
876 961 1
985 961 1
993 961 1
1033 961 1
1035 961 1
121 962 1
122 962 1
866 962 1
877 962 1
986 962 1
994 962 1
1034 962 1
1036 962 1
122 963 1
123 963 1
867 963 1
878 963 1
987 963 1
995 963 1
1035 963 1
1037 963 1
123 964 1
124 964 1
868 964 1
879 964 1
988 964 1
996 964 1
1036 964 1
1038 964 1
124 965 1
125 965 1
869 965 1
880 965 1
989 965 1
997 965 1
1037 965 1
1039 965 1
125 966 1
126 966 1
870 966 1
881 966 1
990 966 1
998 966 1
1038 966 1
1040 966 1
126 967 1
127 967 1
871 967 1
882 967 1
991 967 1
999 967 1
1039 967 1
1041 967 1
127 968 1
128 968 1
872 968 1
883 968 1
992 968 1
1000 968 1
1040 968 1
1042 968 1
128 969 1
129 969 1
873 969 1
884 969 1
993 969 1
1001 969 1
1041 969 1
1043 969 1
129 970 1
130 970 1
874 970 1
885 970 1
994 970 1
1002 970 1
1042 970 1
1044 970 1
130 971 1
131 971 1
875 971 1
886 971 1
995 971 1
1003 971 1
1043 971 1
1045 971 1
131 972 1
132 972 1
876 972 1
887 972 1
996 972 1
1004 972 1
1044 972 1
1046 972 1
132 973 1
133 973 1
877 973 1
888 973 1
997 973 1
1005 973 1
1045 973 1
1047 973 1
133 974 1
134 974 1
865 974 1
878 974 1
998 974 1
1006 974 1
1046 974 1
1048 974 1
134 975 1
135 975 1
866 975 1
879 975 1
999 975 1
1007 975 1
1047 975 1
1049 975 1
135 976 1
136 976 1
867 976 1
880 976 1
1000 976 1
1008 976 1
1048 976 1
1050 976 1
136 977 1
137 977 1
868 977 1
881 977 1
985 977 1
1001 977 1
1049 977 1
1051 977 1
137 978 1
138 978 1
869 978 1
882 978 1
986 978 1
1002 978 1
1050 978 1
1052 978 1
138 979 1
139 979 1
870 979 1
883 979 1
987 979 1
1003 979 1
1051 979 1
1053 979 1
139 980 1
140 980 1
871 980 1
884 980 1
988 980 1
1004 980 1
1052 980 1
1054 980 1
140 981 1
141 981 1
872 981 1
885 981 1
989 981 1
1005 981 1
1053 981 1
1055 981 1
141 982 1
142 982 1
873 982 1
886 982 1
990 982 1
1006 982 1
1054 982 1
1056 982 1
142 983 1
143 983 1
874 983 1
887 983 1
991 983 1
1007 983 1
1033 983 1
1055 983 1
143 984 1
144 984 1
875 984 1
888 984 1
992 984 1
1008 984 1
1034 984 1
1056 984 1
145 985 1
168 985 1
889 985 1
900 985 1
1009 985 1
1017 985 1
1033 985 1
1038 985 1
145 986 1
146 986 1
890 986 1
901 986 1
1010 986 1
1018 986 1
1034 986 1
1039 986 1
146 987 1
147 987 1
891 987 1
902 987 1
1011 987 1
1019 987 1
1035 987 1
1040 987 1
147 988 1
148 988 1
892 988 1
903 988 1
1012 988 1
1020 988 1
1036 988 1
1041 988 1
148 989 1
149 989 1
893 989 1
904 989 1
1013 989 1
1021 989 1
1037 989 1
1042 989 1
149 990 1
150 990 1
894 990 1
905 990 1
1014 990 1
1022 990 1
1038 990 1
1043 990 1
150 991 1
151 991 1
895 991 1
906 991 1
1015 991 1
1023 991 1
1039 991 1
1044 991 1
151 992 1
152 992 1
896 992 1
907 992 1
1016 992 1
1024 992 1
1040 992 1
1045 992 1
152 993 1
153 993 1
897 993 1
908 993 1
1017 993 1
1025 993 1
1041 993 1
1046 993 1
153 994 1
154 994 1
898 994 1
909 994 1
1018 994 1
1026 994 1
1042 994 1
1047 994 1
154 995 1
155 995 1
899 995 1
910 995 1
1019 995 1
1027 995 1
1043 995 1
1048 995 1
155 996 1
156 996 1
900 996 1
911 996 1
1020 996 1
1028 996 1
1044 996 1
1049 996 1
156 997 1
157 997 1
901 997 1
912 997 1
1021 997 1
1029 997 1
1045 997 1
1050 997 1
157 998 1
158 998 1
889 998 1
902 998 1
1022 998 1
1030 998 1
1046 998 1
1051 998 1
158 999 1
159 999 1
890 999 1
903 999 1
1023 999 1
1031 999 1
1047 999 1
1052 999 1
159 1000 1
160 1000 1
891 1000 1
904 1000 1
1024 1000 1
1032 1000 1
1048 1000 1
1053 1000 1
160 1001 1
161 1001 1
892 1001 1
905 1001 1
1009 1001 1
1025 1001 1
1049 1001 1
1054 1001 1
161 1002 1
162 1002 1
893 1002 1
906 1002 1
1010 1002 1
1026 1002 1
1050 1002 1
1055 1002 1
162 1003 1
163 1003 1
894 1003 1
907 1003 1
1011 1003 1
1027 1003 1
1051 1003 1
1056 1003 1
163 1004 1
164 1004 1
895 1004 1
908 1004 1
1012 1004 1
1028 1004 1
1033 1004 1
1052 1004 1
164 1005 1
165 1005 1
896 1005 1
909 1005 1
1013 1005 1
1029 1005 1
1034 1005 1
1053 1005 1
165 1006 1
166 1006 1
897 1006 1
910 1006 1
1014 1006 1
1030 1006 1
1035 1006 1
1054 1006 1
166 1007 1
167 1007 1
898 1007 1
911 1007 1
1015 1007 1
1031 1007 1
1036 1007 1
1055 1007 1
167 1008 1
168 1008 1
899 1008 1
912 1008 1
1016 1008 1
1032 1008 1
1037 1008 1
1056 1008 1
169 1009 1
192 1009 1
913 1009 1
924 1009 1
985 1009 1
994 1009 1
1057 1009 1
1059 1009 1
169 1010 1
170 1010 1
914 1010 1
925 1010 1
986 1010 1
995 1010 1
1058 1010 1
1060 1010 1
170 1011 1
171 1011 1
915 1011 1
926 1011 1
987 1011 1
996 1011 1
1059 1011 1
1061 1011 1
171 1012 1
172 1012 1
916 1012 1
927 1012 1
988 1012 1
997 1012 1
1060 1012 1
1062 1012 1
172 1013 1
173 1013 1
917 1013 1
928 1013 1
989 1013 1
998 1013 1
1061 1013 1
1063 1013 1
173 1014 1
174 1014 1
918 1014 1
929 1014 1
990 1014 1
999 1014 1
1062 1014 1
1064 1014 1
174 1015 1
175 1015 1
919 1015 1
930 1015 1
991 1015 1
1000 1015 1
1063 1015 1
1065 1015 1
175 1016 1
176 1016 1
920 1016 1
931 1016 1
992 1016 1
1001 1016 1
1064 1016 1
1066 1016 1
176 1017 1
177 1017 1
921 1017 1
932 1017 1
993 1017 1
1002 1017 1
1065 1017 1
1067 1017 1
177 1018 1
178 1018 1
922 1018 1
933 1018 1
994 1018 1
1003 1018 1
1066 1018 1
1068 1018 1
178 1019 1
179 1019 1
923 1019 1
934 1019 1
995 1019 1
1004 1019 1
1067 1019 1
1069 1019 1
179 1020 1
180 1020 1
924 1020 1
935 1020 1
996 1020 1
1005 1020 1
1068 1020 1
1070 1020 1
180 1021 1
181 1021 1
925 1021 1
936 1021 1
997 1021 1
1006 1021 1
1069 1021 1
1071 1021 1
181 1022 1
182 1022 1
913 1022 1
926 1022 1
998 1022 1
1007 1022 1
1070 1022 1
1072 1022 1
182 1023 1
183 1023 1
914 1023 1
927 1023 1
999 1023 1
1008 1023 1
1071 1023 1
1073 1023 1
183 1024 1
184 1024 1
915 1024 1
928 1024 1
985 1024 1
1000 1024 1
1072 1024 1
1074 1024 1
184 1025 1
185 1025 1
916 1025 1
929 1025 1
986 1025 1
1001 1025 1
1073 1025 1
1075 1025 1
185 1026 1
186 1026 1
917 1026 1
930 1026 1
987 1026 1
1002 1026 1
1074 1026 1
1076 1026 1
186 1027 1
187 1027 1
918 1027 1
931 1027 1
988 1027 1
1003 1027 1
1075 1027 1
1077 1027 1
187 1028 1
188 1028 1
919 1028 1
932 1028 1
989 1028 1
1004 1028 1
1076 1028 1
1078 1028 1
188 1029 1
189 1029 1
920 1029 1
933 1029 1
990 1029 1
1005 1029 1
1077 1029 1
1079 1029 1
189 1030 1
190 1030 1
921 1030 1
934 1030 1
991 1030 1
1006 1030 1
1078 1030 1
1080 1030 1
190 1031 1
191 1031 1
922 1031 1
935 1031 1
992 1031 1
1007 1031 1
1057 1031 1
1079 1031 1
191 1032 1
192 1032 1
923 1032 1
936 1032 1
993 1032 1
1008 1032 1
1058 1032 1
1080 1032 1
193 1033 1
216 1033 1
937 1033 1
948 1033 1
1009 1033 1
1018 1033 1
1057 1033 1
1062 1033 1
193 1034 1
194 1034 1
938 1034 1
949 1034 1
1010 1034 1
1019 1034 1
1058 1034 1
1063 1034 1
194 1035 1
195 1035 1
939 1035 1
950 1035 1
1011 1035 1
1020 1035 1
1059 1035 1
1064 1035 1
195 1036 1
196 1036 1
940 1036 1
951 1036 1
1012 1036 1
1021 1036 1
1060 1036 1
1065 1036 1
196 1037 1
197 1037 1
941 1037 1
952 1037 1
1013 1037 1
1022 1037 1
1061 1037 1
1066 1037 1
197 1038 1
198 1038 1
942 1038 1
953 1038 1
1014 1038 1
1023 1038 1
1062 1038 1
1067 1038 1
198 1039 1
199 1039 1
943 1039 1
954 1039 1
1015 1039 1
1024 1039 1
1063 1039 1
1068 1039 1
199 1040 1
200 1040 1
944 1040 1
955 1040 1
1016 1040 1
1025 1040 1
1064 1040 1
1069 1040 1
200 1041 1
201 1041 1
945 1041 1
956 1041 1
1017 1041 1
1026 1041 1
1065 1041 1
1070 1041 1
201 1042 1
202 1042 1
946 1042 1
957 1042 1
1018 1042 1
1027 1042 1
1066 1042 1
1071 1042 1
202 1043 1
203 1043 1
947 1043 1
958 1043 1
1019 1043 1
1028 1043 1
1067 1043 1
1072 1043 1
203 1044 1
204 1044 1
948 1044 1
959 1044 1
1020 1044 1
1029 1044 1
1068 1044 1
1073 1044 1
204 1045 1
205 1045 1
949 1045 1
960 1045 1
1021 1045 1
1030 1045 1
1069 1045 1
1074 1045 1
205 1046 1
206 1046 1
937 1046 1
950 1046 1
1022 1046 1
1031 1046 1
1070 1046 1
1075 1046 1
206 1047 1
207 1047 1
938 1047 1
951 1047 1
1023 1047 1
1032 1047 1
1071 1047 1
1076 1047 1
207 1048 1
208 1048 1
939 1048 1
952 1048 1
1009 1048 1
1024 1048 1
1072 1048 1
1077 1048 1
208 1049 1
209 1049 1
940 1049 1
953 1049 1
1010 1049 1
1025 1049 1
1073 1049 1
1078 1049 1
209 1050 1
210 1050 1
941 1050 1
954 1050 1
1011 1050 1
1026 1050 1
1074 1050 1
1079 1050 1
210 1051 1
211 1051 1
942 1051 1
955 1051 1
1012 1051 1
1027 1051 1
1075 1051 1
1080 1051 1
211 1052 1
212 1052 1
943 1052 1
956 1052 1
1013 1052 1
1028 1052 1
1057 1052 1
1076 1052 1
212 1053 1
213 1053 1
944 1053 1
957 1053 1
1014 1053 1
1029 1053 1
1058 1053 1
1077 1053 1
213 1054 1
214 1054 1
945 1054 1
958 1054 1
1015 1054 1
1030 1054 1
1059 1054 1
1078 1054 1
214 1055 1
215 1055 1
946 1055 1
959 1055 1
1016 1055 1
1031 1055 1
1060 1055 1
1079 1055 1
215 1056 1
216 1056 1
947 1056 1
960 1056 1
1017 1056 1
1032 1056 1
1061 1056 1
1080 1056 1
217 1057 1
240 1057 1
961 1057 1
972 1057 1
1033 1057 1
1042 1057 1
1057 1057 1
1065 1057 1
217 1058 1
218 1058 1
962 1058 1
973 1058 1
1034 1058 1
1043 1058 1
1058 1058 1
1066 1058 1
218 1059 1
219 1059 1
963 1059 1
974 1059 1
1035 1059 1
1044 1059 1
1059 1059 1
1067 1059 1
219 1060 1
220 1060 1
964 1060 1
975 1060 1
1036 1060 1
1045 1060 1
1060 1060 1
1068 1060 1
220 1061 1
221 1061 1
965 1061 1
976 1061 1
1037 1061 1
1046 1061 1
1061 1061 1
1069 1061 1
221 1062 1
222 1062 1
966 1062 1
977 1062 1
1038 1062 1
1047 1062 1
1062 1062 1
1070 1062 1
222 1063 1
223 1063 1
967 1063 1
978 1063 1
1039 1063 1
1048 1063 1
1063 1063 1
1071 1063 1
223 1064 1
224 1064 1
968 1064 1
979 1064 1
1040 1064 1
1049 1064 1
1064 1064 1
1072 1064 1
224 1065 1
225 1065 1
969 1065 1
980 1065 1
1041 1065 1
1050 1065 1
1065 1065 1
1073 1065 1
225 1066 1
226 1066 1
970 1066 1
981 1066 1
1042 1066 1
1051 1066 1
1066 1066 1
1074 1066 1
226 1067 1
227 1067 1
971 1067 1
982 1067 1
1043 1067 1
1052 1067 1
1067 1067 1
1075 1067 1
227 1068 1
228 1068 1
972 1068 1
983 1068 1
1044 1068 1
1053 1068 1
1068 1068 1
1076 1068 1
228 1069 1
229 1069 1
973 1069 1
984 1069 1
1045 1069 1
1054 1069 1
1069 1069 1
1077 1069 1
229 1070 1
230 1070 1
961 1070 1
974 1070 1
1046 1070 1
1055 1070 1
1070 1070 1
1078 1070 1
230 1071 1
231 1071 1
962 1071 1
975 1071 1
1047 1071 1
1056 1071 1
1071 1071 1
1079 1071 1
231 1072 1
232 1072 1
963 1072 1
976 1072 1
1033 1072 1
1048 1072 1
1072 1072 1
1080 1072 1
232 1073 1
233 1073 1
964 1073 1
977 1073 1
1034 1073 1
1049 1073 1
1057 1073 1
1073 1073 1
233 1074 1
234 1074 1
965 1074 1
978 1074 1
1035 1074 1
1050 1074 1
1058 1074 1
1074 1074 1
234 1075 1
235 1075 1
966 1075 1
979 1075 1
1036 1075 1
1051 1075 1
1059 1075 1
1075 1075 1
235 1076 1
236 1076 1
967 1076 1
980 1076 1
1037 1076 1
1052 1076 1
1060 1076 1
1076 1076 1
236 1077 1
237 1077 1
968 1077 1
981 1077 1
1038 1077 1
1053 1077 1
1061 1077 1
1077 1077 1
237 1078 1
238 1078 1
969 1078 1
982 1078 1
1039 1078 1
1054 1078 1
1062 1078 1
1078 1078 1
238 1079 1
239 1079 1
970 1079 1
983 1079 1
1040 1079 1
1055 1079 1
1063 1079 1
1079 1079 1
239 1080 1
240 1080 1
971 1080 1
984 1080 1
1041 1080 1
1056 1080 1
1064 1080 1
1080 1080 1
241 1081 1
264 1081 1
841 1081 1
856 1081 1
1081 1081 1
1086 1081 1
1105 1081 1
1107 1081 1
241 1082 1
242 1082 1
842 1082 1
857 1082 1
1082 1082 1
1087 1082 1
1106 1082 1
1108 1082 1
242 1083 1
243 1083 1
843 1083 1
858 1083 1
1083 1083 1
1088 1083 1
1107 1083 1
1109 1083 1
243 1084 1
244 1084 1
844 1084 1
859 1084 1
1084 1084 1
1089 1084 1
1108 1084 1
1110 1084 1
244 1085 1
245 1085 1
845 1085 1
860 1085 1
1085 1085 1
1090 1085 1
1109 1085 1
1111 1085 1
245 1086 1
246 1086 1
846 1086 1
861 1086 1
1086 1086 1
1091 1086 1
1110 1086 1
1112 1086 1
246 1087 1
247 1087 1
847 1087 1
862 1087 1
1087 1087 1
1092 1087 1
1111 1087 1
1113 1087 1
247 1088 1
248 1088 1
848 1088 1
863 1088 1
1088 1088 1
1093 1088 1
1112 1088 1
1114 1088 1
248 1089 1
249 1089 1
849 1089 1
864 1089 1
1089 1089 1
1094 1089 1
1113 1089 1
1115 1089 1
249 1090 1
250 1090 1
841 1090 1
850 1090 1
1090 1090 1
1095 1090 1
1114 1090 1
1116 1090 1
250 1091 1
251 1091 1
842 1091 1
851 1091 1
1091 1091 1
1096 1091 1
1115 1091 1
1117 1091 1
251 1092 1
252 1092 1
843 1092 1
852 1092 1
1092 1092 1
1097 1092 1
1116 1092 1
1118 1092 1
252 1093 1
253 1093 1
844 1093 1
853 1093 1
1093 1093 1
1098 1093 1
1117 1093 1
1119 1093 1
253 1094 1
254 1094 1
845 1094 1
854 1094 1
1094 1094 1
1099 1094 1
1118 1094 1
1120 1094 1
254 1095 1
255 1095 1
846 1095 1
855 1095 1
1095 1095 1
1100 1095 1
1119 1095 1
1121 1095 1
255 1096 1
256 1096 1
847 1096 1
856 1096 1
1096 1096 1
1101 1096 1
1120 1096 1
1122 1096 1
256 1097 1
257 1097 1
848 1097 1
857 1097 1
1097 1097 1
1102 1097 1
1121 1097 1
1123 1097 1
257 1098 1
258 1098 1
849 1098 1
858 1098 1
1098 1098 1
1103 1098 1
1122 1098 1
1124 1098 1
258 1099 1
259 1099 1
850 1099 1
859 1099 1
1099 1099 1
1104 1099 1
1123 1099 1
1125 1099 1
259 1100 1
260 1100 1
851 1100 1
860 1100 1
1081 1100 1
1100 1100 1
1124 1100 1
1126 1100 1
260 1101 1
261 1101 1
852 1101 1
861 1101 1
1082 1101 1
1101 1101 1
1125 1101 1
1127 1101 1
261 1102 1
262 1102 1
853 1102 1
862 1102 1
1083 1102 1
1102 1102 1
1126 1102 1
1128 1102 1
262 1103 1
263 1103 1
854 1103 1
863 1103 1
1084 1103 1
1103 1103 1
1105 1103 1
1127 1103 1
263 1104 1
264 1104 1
855 1104 1
864 1104 1
1085 1104 1
1104 1104 1
1106 1104 1
1128 1104 1
265 1105 1
288 1105 1
865 1105 1
880 1105 1
1081 1105 1
1089 1105 1
1129 1105 1
1131 1105 1
265 1106 1
266 1106 1
866 1106 1
881 1106 1
1082 1106 1
1090 1106 1
1130 1106 1
1132 1106 1
266 1107 1
267 1107 1
867 1107 1
882 1107 1
1083 1107 1
1091 1107 1
1131 1107 1
1133 1107 1
267 1108 1
268 1108 1
868 1108 1
883 1108 1
1084 1108 1
1092 1108 1
1132 1108 1
1134 1108 1
268 1109 1
269 1109 1
869 1109 1
884 1109 1
1085 1109 1
1093 1109 1
1133 1109 1
1135 1109 1
269 1110 1
270 1110 1
870 1110 1
885 1110 1
1086 1110 1
1094 1110 1
1134 1110 1
1136 1110 1
270 1111 1
271 1111 1
871 1111 1
886 1111 1
1087 1111 1
1095 1111 1
1135 1111 1
1137 1111 1
271 1112 1
272 1112 1
872 1112 1
887 1112 1
1088 1112 1
1096 1112 1
1136 1112 1
1138 1112 1
272 1113 1
273 1113 1
873 1113 1
888 1113 1
1089 1113 1
1097 1113 1
1137 1113 1
1139 1113 1
273 1114 1
274 1114 1
865 1114 1
874 1114 1
1090 1114 1
1098 1114 1
1138 1114 1
1140 1114 1
274 1115 1
275 1115 1
866 1115 1
875 1115 1
1091 1115 1
1099 1115 1
1139 1115 1
1141 1115 1
275 1116 1
276 1116 1
867 1116 1
876 1116 1
1092 1116 1
1100 1116 1
1140 1116 1
1142 1116 1
276 1117 1
277 1117 1
868 1117 1
877 1117 1
1093 1117 1
1101 1117 1
1141 1117 1
1143 1117 1
277 1118 1
278 1118 1
869 1118 1
878 1118 1
1094 1118 1
1102 1118 1
1142 1118 1
1144 1118 1
278 1119 1
279 1119 1
870 1119 1
879 1119 1
1095 1119 1
1103 1119 1
1143 1119 1
1145 1119 1
279 1120 1
280 1120 1
871 1120 1
880 1120 1
1096 1120 1
1104 1120 1
1144 1120 1
1146 1120 1
280 1121 1
281 1121 1
872 1121 1
881 1121 1
1081 1121 1
1097 1121 1
1145 1121 1
1147 1121 1
281 1122 1
282 1122 1
873 1122 1
882 1122 1
1082 1122 1
1098 1122 1
1146 1122 1
1148 1122 1
282 1123 1
283 1123 1
874 1123 1
883 1123 1
1083 1123 1
1099 1123 1
1147 1123 1
1149 1123 1
283 1124 1
284 1124 1
875 1124 1
884 1124 1
1084 1124 1
1100 1124 1
1148 1124 1
1150 1124 1
284 1125 1
285 1125 1
876 1125 1
885 1125 1
1085 1125 1
1101 1125 1
1149 1125 1
1151 1125 1
285 1126 1
286 1126 1
877 1126 1
886 1126 1
1086 1126 1
1102 1126 1
1150 1126 1
1152 1126 1
286 1127 1
287 1127 1
878 1127 1
887 1127 1
1087 1127 1
1103 1127 1
1129 1127 1
1151 1127 1
287 1128 1
288 1128 1
879 1128 1
888 1128 1
1088 1128 1
1104 1128 1
1130 1128 1
1152 1128 1
289 1129 1
312 1129 1
889 1129 1
904 1129 1
1105 1129 1
1113 1129 1
1129 1129 1
1134 1129 1
289 1130 1
290 1130 1
890 1130 1
905 1130 1
1106 1130 1
1114 1130 1
1130 1130 1
1135 1130 1
290 1131 1
291 1131 1
891 1131 1
906 1131 1
1107 1131 1
1115 1131 1
1131 1131 1
1136 1131 1
291 1132 1
292 1132 1
892 1132 1
907 1132 1
1108 1132 1
1116 1132 1
1132 1132 1
1137 1132 1
292 1133 1
293 1133 1
893 1133 1
908 1133 1
1109 1133 1
1117 1133 1
1133 1133 1
1138 1133 1
293 1134 1
294 1134 1
894 1134 1
909 1134 1
1110 1134 1
1118 1134 1
1134 1134 1
1139 1134 1
294 1135 1
295 1135 1
895 1135 1
910 1135 1
1111 1135 1
1119 1135 1
1135 1135 1
1140 1135 1
295 1136 1
296 1136 1
896 1136 1
911 1136 1
1112 1136 1
1120 1136 1
1136 1136 1
1141 1136 1
296 1137 1
297 1137 1
897 1137 1
912 1137 1
1113 1137 1
1121 1137 1
1137 1137 1
1142 1137 1
297 1138 1
298 1138 1
889 1138 1
898 1138 1
1114 1138 1
1122 1138 1
1138 1138 1
1143 1138 1
298 1139 1
299 1139 1
890 1139 1
899 1139 1
1115 1139 1
1123 1139 1
1139 1139 1
1144 1139 1
299 1140 1
300 1140 1
891 1140 1
900 1140 1
1116 1140 1
1124 1140 1
1140 1140 1
1145 1140 1
300 1141 1
301 1141 1
892 1141 1
901 1141 1
1117 1141 1
1125 1141 1
1141 1141 1
1146 1141 1
301 1142 1
302 1142 1
893 1142 1
902 1142 1
1118 1142 1
1126 1142 1
1142 1142 1
1147 1142 1
302 1143 1
303 1143 1
894 1143 1
903 1143 1
1119 1143 1
1127 1143 1
1143 1143 1
1148 1143 1
303 1144 1
304 1144 1
895 1144 1
904 1144 1
1120 1144 1
1128 1144 1
1144 1144 1
1149 1144 1
304 1145 1
305 1145 1
896 1145 1
905 1145 1
1105 1145 1
1121 1145 1
1145 1145 1
1150 1145 1
305 1146 1
306 1146 1
897 1146 1
906 1146 1
1106 1146 1
1122 1146 1
1146 1146 1
1151 1146 1
306 1147 1
307 1147 1
898 1147 1
907 1147 1
1107 1147 1
1123 1147 1
1147 1147 1
1152 1147 1
307 1148 1
308 1148 1
899 1148 1
908 1148 1
1108 1148 1
1124 1148 1
1129 1148 1
1148 1148 1
308 1149 1
309 1149 1
900 1149 1
909 1149 1
1109 1149 1
1125 1149 1
1130 1149 1
1149 1149 1
309 1150 1
310 1150 1
901 1150 1
910 1150 1
1110 1150 1
1126 1150 1
1131 1150 1
1150 1150 1
310 1151 1
311 1151 1
902 1151 1
911 1151 1
1111 1151 1
1127 1151 1
1132 1151 1
1151 1151 1
311 1152 1
312 1152 1
903 1152 1
912 1152 1
1112 1152 1
1128 1152 1
1133 1152 1
1152 1152 1
313 1153 1
336 1153 1
913 1153 1
928 1153 1
1081 1153 1
1090 1153 1
1153 1153 1
1155 1153 1
313 1154 1
314 1154 1
914 1154 1
929 1154 1
1082 1154 1
1091 1154 1
1154 1154 1
1156 1154 1
314 1155 1
315 1155 1
915 1155 1
930 1155 1
1083 1155 1
1092 1155 1
1155 1155 1
1157 1155 1
315 1156 1
316 1156 1
916 1156 1
931 1156 1
1084 1156 1
1093 1156 1
1156 1156 1
1158 1156 1
316 1157 1
317 1157 1
917 1157 1
932 1157 1
1085 1157 1
1094 1157 1
1157 1157 1
1159 1157 1
317 1158 1
318 1158 1
918 1158 1
933 1158 1
1086 1158 1
1095 1158 1
1158 1158 1
1160 1158 1
318 1159 1
319 1159 1
919 1159 1
934 1159 1
1087 1159 1
1096 1159 1
1159 1159 1
1161 1159 1
319 1160 1
320 1160 1
920 1160 1
935 1160 1
1088 1160 1
1097 1160 1
1160 1160 1
1162 1160 1
320 1161 1
321 1161 1
921 1161 1
936 1161 1
1089 1161 1
1098 1161 1
1161 1161 1
1163 1161 1
321 1162 1
322 1162 1
913 1162 1
922 1162 1
1090 1162 1
1099 1162 1
1162 1162 1
1164 1162 1
322 1163 1
323 1163 1
914 1163 1
923 1163 1
1091 1163 1
1100 1163 1
1163 1163 1
1165 1163 1
323 1164 1
324 1164 1
915 1164 1
924 1164 1
1092 1164 1
1101 1164 1
1164 1164 1
1166 1164 1
324 1165 1
325 1165 1
916 1165 1
925 1165 1
1093 1165 1
1102 1165 1
1165 1165 1
1167 1165 1
325 1166 1
326 1166 1
917 1166 1
926 1166 1
1094 1166 1
1103 1166 1
1166 1166 1
1168 1166 1
326 1167 1
327 1167 1
918 1167 1
927 1167 1
1095 1167 1
1104 1167 1
1167 1167 1
1169 1167 1
327 1168 1
328 1168 1
919 1168 1
928 1168 1
1081 1168 1
1096 1168 1
1168 1168 1
1170 1168 1
328 1169 1
329 1169 1
920 1169 1
929 1169 1
1082 1169 1
1097 1169 1
1169 1169 1
1171 1169 1
329 1170 1
330 1170 1
921 1170 1
930 1170 1
1083 1170 1
1098 1170 1
1170 1170 1
1172 1170 1
330 1171 1
331 1171 1
922 1171 1
931 1171 1
1084 1171 1
1099 1171 1
1171 1171 1
1173 1171 1
331 1172 1
332 1172 1
923 1172 1
932 1172 1
1085 1172 1
1100 1172 1
1172 1172 1
1174 1172 1
332 1173 1
333 1173 1
924 1173 1
933 1173 1
1086 1173 1
1101 1173 1
1173 1173 1
1175 1173 1
333 1174 1
334 1174 1
925 1174 1
934 1174 1
1087 1174 1
1102 1174 1
1174 1174 1
1176 1174 1
334 1175 1
335 1175 1
926 1175 1
935 1175 1
1088 1175 1
1103 1175 1
1153 1175 1
1175 1175 1
335 1176 1
336 1176 1
927 1176 1
936 1176 1
1089 1176 1
1104 1176 1
1154 1176 1
1176 1176 1
337 1177 1
360 1177 1
937 1177 1
952 1177 1
1105 1177 1
1114 1177 1
1153 1177 1
1158 1177 1
337 1178 1
338 1178 1
938 1178 1
953 1178 1
1106 1178 1
1115 1178 1
1154 1178 1
1159 1178 1
338 1179 1
339 1179 1
939 1179 1
954 1179 1
1107 1179 1
1116 1179 1
1155 1179 1
1160 1179 1
339 1180 1
340 1180 1
940 1180 1
955 1180 1
1108 1180 1
1117 1180 1
1156 1180 1
1161 1180 1
340 1181 1
341 1181 1
941 1181 1
956 1181 1
1109 1181 1
1118 1181 1
1157 1181 1
1162 1181 1
341 1182 1
342 1182 1
942 1182 1
957 1182 1
1110 1182 1
1119 1182 1
1158 1182 1
1163 1182 1
342 1183 1
343 1183 1
943 1183 1
958 1183 1
1111 1183 1
1120 1183 1
1159 1183 1
1164 1183 1
343 1184 1
344 1184 1
944 1184 1
959 1184 1
1112 1184 1
1121 1184 1
1160 1184 1
1165 1184 1
344 1185 1
345 1185 1
945 1185 1
960 1185 1
1113 1185 1
1122 1185 1
1161 1185 1
1166 1185 1
345 1186 1
346 1186 1
937 1186 1
946 1186 1
1114 1186 1
1123 1186 1
1162 1186 1
1167 1186 1
346 1187 1
347 1187 1
938 1187 1
947 1187 1
1115 1187 1
1124 1187 1
1163 1187 1
1168 1187 1
347 1188 1
348 1188 1
939 1188 1
948 1188 1
1116 1188 1
1125 1188 1
1164 1188 1
1169 1188 1
348 1189 1
349 1189 1
940 1189 1
949 1189 1
1117 1189 1
1126 1189 1
1165 1189 1
1170 1189 1
349 1190 1
350 1190 1
941 1190 1
950 1190 1
1118 1190 1
1127 1190 1
1166 1190 1
1171 1190 1
350 1191 1
351 1191 1
942 1191 1
951 1191 1
1119 1191 1
1128 1191 1
1167 1191 1
1172 1191 1
351 1192 1
352 1192 1
943 1192 1
952 1192 1
1105 1192 1
1120 1192 1
1168 1192 1
1173 1192 1
352 1193 1
353 1193 1
944 1193 1
953 1193 1
1106 1193 1
1121 1193 1
1169 1193 1
1174 1193 1
353 1194 1
354 1194 1
945 1194 1
954 1194 1
1107 1194 1
1122 1194 1
1170 1194 1
1175 1194 1
354 1195 1
355 1195 1
946 1195 1
955 1195 1
1108 1195 1
1123 1195 1
1171 1195 1
1176 1195 1
355 1196 1
356 1196 1
947 1196 1
956 1196 1
1109 1196 1
1124 1196 1
1153 1196 1
1172 1196 1
356 1197 1
357 1197 1
948 1197 1
957 1197 1
1110 1197 1
1125 1197 1
1154 1197 1
1173 1197 1
357 1198 1
358 1198 1
949 1198 1
958 1198 1
1111 1198 1
1126 1198 1
1155 1198 1
1174 1198 1
358 1199 1
359 1199 1
950 1199 1
959 1199 1
1112 1199 1
1127 1199 1
1156 1199 1
1175 1199 1
359 1200 1
360 1200 1
951 1200 1
960 1200 1
1113 1200 1
1128 1200 1
1157 1200 1
1176 1200 1
361 1201 1
384 1201 1
961 1201 1
976 1201 1
1129 1201 1
1138 1201 1
1153 1201 1
1161 1201 1
361 1202 1
362 1202 1
962 1202 1
977 1202 1
1130 1202 1
1139 1202 1
1154 1202 1
1162 1202 1
362 1203 1
363 1203 1
963 1203 1
978 1203 1
1131 1203 1
1140 1203 1
1155 1203 1
1163 1203 1
363 1204 1
364 1204 1
964 1204 1
979 1204 1
1132 1204 1
1141 1204 1
1156 1204 1
1164 1204 1
364 1205 1
365 1205 1
965 1205 1
980 1205 1
1133 1205 1
1142 1205 1
1157 1205 1
1165 1205 1
365 1206 1
366 1206 1
966 1206 1
981 1206 1
1134 1206 1
1143 1206 1
1158 1206 1
1166 1206 1
366 1207 1
367 1207 1
967 1207 1
982 1207 1
1135 1207 1
1144 1207 1
1159 1207 1
1167 1207 1
367 1208 1
368 1208 1
968 1208 1
983 1208 1
1136 1208 1
1145 1208 1
1160 1208 1
1168 1208 1
368 1209 1
369 1209 1
969 1209 1
984 1209 1
1137 1209 1
1146 1209 1
1161 1209 1
1169 1209 1
369 1210 1
370 1210 1
961 1210 1
970 1210 1
1138 1210 1
1147 1210 1
1162 1210 1
1170 1210 1
370 1211 1
371 1211 1
962 1211 1
971 1211 1
1139 1211 1
1148 1211 1
1163 1211 1
1171 1211 1
371 1212 1
372 1212 1
963 1212 1
972 1212 1
1140 1212 1
1149 1212 1
1164 1212 1
1172 1212 1
372 1213 1
373 1213 1
964 1213 1
973 1213 1
1141 1213 1
1150 1213 1
1165 1213 1
1173 1213 1
373 1214 1
374 1214 1
965 1214 1
974 1214 1
1142 1214 1
1151 1214 1
1166 1214 1
1174 1214 1
374 1215 1
375 1215 1
966 1215 1
975 1215 1
1143 1215 1
1152 1215 1
1167 1215 1
1175 1215 1
375 1216 1
376 1216 1
967 1216 1
976 1216 1
1129 1216 1
1144 1216 1
1168 1216 1
1176 1216 1
376 1217 1
377 1217 1
968 1217 1
977 1217 1
1130 1217 1
1145 1217 1
1153 1217 1
1169 1217 1
377 1218 1
378 1218 1
969 1218 1
978 1218 1
1131 1218 1
1146 1218 1
1154 1218 1
1170 1218 1
378 1219 1
379 1219 1
970 1219 1
979 1219 1
1132 1219 1
1147 1219 1
1155 1219 1
1171 1219 1
379 1220 1
380 1220 1
971 1220 1
980 1220 1
1133 1220 1
1148 1220 1
1156 1220 1
1172 1220 1
380 1221 1
381 1221 1
972 1221 1
981 1221 1
1134 1221 1
1149 1221 1
1157 1221 1
1173 1221 1
381 1222 1
382 1222 1
973 1222 1
982 1222 1
1135 1222 1
1150 1222 1
1158 1222 1
1174 1222 1
382 1223 1
383 1223 1
974 1223 1
983 1223 1
1136 1223 1
1151 1223 1
1159 1223 1
1175 1223 1
383 1224 1
384 1224 1
975 1224 1
984 1224 1
1137 1224 1
1152 1224 1
1160 1224 1
1176 1224 1
385 1225 1
408 1225 1
985 1225 1
1000 1225 1
1081 1225 1
1092 1225 1
1177 1225 1
1179 1225 1
385 1226 1
386 1226 1
986 1226 1
1001 1226 1
1082 1226 1
1093 1226 1
1178 1226 1
1180 1226 1
386 1227 1
387 1227 1
987 1227 1
1002 1227 1
1083 1227 1
1094 1227 1
1179 1227 1
1181 1227 1
387 1228 1
388 1228 1
988 1228 1
1003 1228 1
1084 1228 1
1095 1228 1
1180 1228 1
1182 1228 1
388 1229 1
389 1229 1
989 1229 1
1004 1229 1
1085 1229 1
1096 1229 1
1181 1229 1
1183 1229 1
389 1230 1
390 1230 1
990 1230 1
1005 1230 1
1086 1230 1
1097 1230 1
1182 1230 1
1184 1230 1
390 1231 1
391 1231 1
991 1231 1
1006 1231 1
1087 1231 1
1098 1231 1
1183 1231 1
1185 1231 1
391 1232 1
392 1232 1
992 1232 1
1007 1232 1
1088 1232 1
1099 1232 1
1184 1232 1
1186 1232 1
392 1233 1
393 1233 1
993 1233 1
1008 1233 1
1089 1233 1
1100 1233 1
1185 1233 1
1187 1233 1
393 1234 1
394 1234 1
985 1234 1
994 1234 1
1090 1234 1
1101 1234 1
1186 1234 1
1188 1234 1
394 1235 1
395 1235 1
986 1235 1
995 1235 1
1091 1235 1
1102 1235 1
1187 1235 1
1189 1235 1
395 1236 1
396 1236 1
987 1236 1
996 1236 1
1092 1236 1
1103 1236 1
1188 1236 1
1190 1236 1
396 1237 1
397 1237 1
988 1237 1
997 1237 1
1093 1237 1
1104 1237 1
1189 1237 1
1191 1237 1
397 1238 1
398 1238 1
989 1238 1
998 1238 1
1081 1238 1
1094 1238 1
1190 1238 1
1192 1238 1
398 1239 1
399 1239 1
990 1239 1
999 1239 1
1082 1239 1
1095 1239 1
1191 1239 1
1193 1239 1
399 1240 1
400 1240 1
991 1240 1
1000 1240 1
1083 1240 1
1096 1240 1
1192 1240 1
1194 1240 1
400 1241 1
401 1241 1
992 1241 1
1001 1241 1
1084 1241 1
1097 1241 1
1193 1241 1
1195 1241 1
401 1242 1
402 1242 1
993 1242 1
1002 1242 1
1085 1242 1
1098 1242 1
1194 1242 1
1196 1242 1
402 1243 1
403 1243 1
994 1243 1
1003 1243 1
1086 1243 1
1099 1243 1
1195 1243 1
1197 1243 1
403 1244 1
404 1244 1
995 1244 1
1004 1244 1
1087 1244 1
1100 1244 1
1196 1244 1
1198 1244 1
404 1245 1
405 1245 1
996 1245 1
1005 1245 1
1088 1245 1
1101 1245 1
1197 1245 1
1199 1245 1
405 1246 1
406 1246 1
997 1246 1
1006 1246 1
1089 1246 1
1102 1246 1
1198 1246 1
1200 1246 1
406 1247 1
407 1247 1
998 1247 1
1007 1247 1
1090 1247 1
1103 1247 1
1177 1247 1
1199 1247 1
407 1248 1
408 1248 1
999 1248 1
1008 1248 1
1091 1248 1
1104 1248 1
1178 1248 1
1200 1248 1
409 1249 1
432 1249 1
1009 1249 1
1024 1249 1
1105 1249 1
1116 1249 1
1177 1249 1
1182 1249 1
409 1250 1
410 1250 1
1010 1250 1
1025 1250 1
1106 1250 1
1117 1250 1
1178 1250 1
1183 1250 1
410 1251 1
411 1251 1
1011 1251 1
1026 1251 1
1107 1251 1
1118 1251 1
1179 1251 1
1184 1251 1
411 1252 1
412 1252 1
1012 1252 1
1027 1252 1
1108 1252 1
1119 1252 1
1180 1252 1
1185 1252 1
412 1253 1
413 1253 1
1013 1253 1
1028 1253 1
1109 1253 1
1120 1253 1
1181 1253 1
1186 1253 1
413 1254 1
414 1254 1
1014 1254 1
1029 1254 1
1110 1254 1
1121 1254 1
1182 1254 1
1187 1254 1
414 1255 1
415 1255 1
1015 1255 1
1030 1255 1
1111 1255 1
1122 1255 1
1183 1255 1
1188 1255 1
415 1256 1
416 1256 1
1016 1256 1
1031 1256 1
1112 1256 1
1123 1256 1
1184 1256 1
1189 1256 1
416 1257 1
417 1257 1
1017 1257 1
1032 1257 1
1113 1257 1
1124 1257 1
1185 1257 1
1190 1257 1
417 1258 1
418 1258 1
1009 1258 1
1018 1258 1
1114 1258 1
1125 1258 1
1186 1258 1
1191 1258 1
418 1259 1
419 1259 1
1010 1259 1
1019 1259 1
1115 1259 1
1126 1259 1
1187 1259 1
1192 1259 1
419 1260 1
420 1260 1
1011 1260 1
1020 1260 1
1116 1260 1
1127 1260 1
1188 1260 1
1193 1260 1
420 1261 1
421 1261 1
1012 1261 1
1021 1261 1
1117 1261 1
1128 1261 1
1189 1261 1
1194 1261 1
421 1262 1
422 1262 1
1013 1262 1
1022 1262 1
1105 1262 1
1118 1262 1
1190 1262 1
1195 1262 1
422 1263 1
423 1263 1
1014 1263 1
1023 1263 1
1106 1263 1
1119 1263 1
1191 1263 1
1196 1263 1
423 1264 1
424 1264 1
1015 1264 1
1024 1264 1
1107 1264 1
1120 1264 1
1192 1264 1
1197 1264 1
424 1265 1
425 1265 1
1016 1265 1
1025 1265 1
1108 1265 1
1121 1265 1
1193 1265 1
1198 1265 1
425 1266 1
426 1266 1
1017 1266 1
1026 1266 1
1109 1266 1
1122 1266 1
1194 1266 1
1199 1266 1
426 1267 1
427 1267 1
1018 1267 1
1027 1267 1
1110 1267 1
1123 1267 1
1195 1267 1
1200 1267 1
427 1268 1
428 1268 1
1019 1268 1
1028 1268 1
1111 1268 1
1124 1268 1
1177 1268 1
1196 1268 1
428 1269 1
429 1269 1
1020 1269 1
1029 1269 1
1112 1269 1
1125 1269 1
1178 1269 1
1197 1269 1
429 1270 1
430 1270 1
1021 1270 1
1030 1270 1
1113 1270 1
1126 1270 1
1179 1270 1
1198 1270 1
430 1271 1
431 1271 1
1022 1271 1
1031 1271 1
1114 1271 1
1127 1271 1
1180 1271 1
1199 1271 1
431 1272 1
432 1272 1
1023 1272 1
1032 1272 1
1115 1272 1
1128 1272 1
1181 1272 1
1200 1272 1
433 1273 1
456 1273 1
1033 1273 1
1048 1273 1
1129 1273 1
1140 1273 1
1177 1273 1
1185 1273 1
433 1274 1
434 1274 1
1034 1274 1
1049 1274 1
1130 1274 1
1141 1274 1
1178 1274 1
1186 1274 1
434 1275 1
435 1275 1
1035 1275 1
1050 1275 1
1131 1275 1
1142 1275 1
1179 1275 1
1187 1275 1
435 1276 1
436 1276 1
1036 1276 1
1051 1276 1
1132 1276 1
1143 1276 1
1180 1276 1
1188 1276 1
436 1277 1
437 1277 1
1037 1277 1
1052 1277 1
1133 1277 1
1144 1277 1
1181 1277 1
1189 1277 1
437 1278 1
438 1278 1
1038 1278 1
1053 1278 1
1134 1278 1
1145 1278 1
1182 1278 1
1190 1278 1
438 1279 1
439 1279 1
1039 1279 1
1054 1279 1
1135 1279 1
1146 1279 1
1183 1279 1
1191 1279 1
439 1280 1
440 1280 1
1040 1280 1
1055 1280 1
1136 1280 1
1147 1280 1
1184 1280 1
1192 1280 1
440 1281 1
441 1281 1
1041 1281 1
1056 1281 1
1137 1281 1
1148 1281 1
1185 1281 1
1193 1281 1
441 1282 1
442 1282 1
1033 1282 1
1042 1282 1
1138 1282 1
1149 1282 1
1186 1282 1
1194 1282 1
442 1283 1
443 1283 1
1034 1283 1
1043 1283 1
1139 1283 1
1150 1283 1
1187 1283 1
1195 1283 1
443 1284 1
444 1284 1
1035 1284 1
1044 1284 1
1140 1284 1
1151 1284 1
1188 1284 1
1196 1284 1
444 1285 1
445 1285 1
1036 1285 1
1045 1285 1
1141 1285 1
1152 1285 1
1189 1285 1
1197 1285 1
445 1286 1
446 1286 1
1037 1286 1
1046 1286 1
1129 1286 1
1142 1286 1
1190 1286 1
1198 1286 1
446 1287 1
447 1287 1
1038 1287 1
1047 1287 1
1130 1287 1
1143 1287 1
1191 1287 1
1199 1287 1
447 1288 1
448 1288 1
1039 1288 1
1048 1288 1
1131 1288 1
1144 1288 1
1192 1288 1
1200 1288 1
448 1289 1
449 1289 1
1040 1289 1
1049 1289 1
1132 1289 1
1145 1289 1
1177 1289 1
1193 1289 1
449 1290 1
450 1290 1
1041 1290 1
1050 1290 1
1133 1290 1
1146 1290 1
1178 1290 1
1194 1290 1
450 1291 1
451 1291 1
1042 1291 1
1051 1291 1
1134 1291 1
1147 1291 1
1179 1291 1
1195 1291 1
451 1292 1
452 1292 1
1043 1292 1
1052 1292 1
1135 1292 1
1148 1292 1
1180 1292 1
1196 1292 1
452 1293 1
453 1293 1
1044 1293 1
1053 1293 1
1136 1293 1
1149 1293 1
1181 1293 1
1197 1293 1
453 1294 1
454 1294 1
1045 1294 1
1054 1294 1
1137 1294 1
1150 1294 1
1182 1294 1
1198 1294 1
454 1295 1
455 1295 1
1046 1295 1
1055 1295 1
1138 1295 1
1151 1295 1
1183 1295 1
1199 1295 1
455 1296 1
456 1296 1
1047 1296 1
1056 1296 1
1139 1296 1
1152 1296 1
1184 1296 1
1200 1296 1
457 1297 1
480 1297 1
1057 1297 1
1072 1297 1
1153 1297 1
1164 1297 1
1177 1297 1
1186 1297 1
457 1298 1
458 1298 1
1058 1298 1
1073 1298 1
1154 1298 1
1165 1298 1
1178 1298 1
1187 1298 1
458 1299 1
459 1299 1
1059 1299 1
1074 1299 1
1155 1299 1
1166 1299 1
1179 1299 1
1188 1299 1
459 1300 1
460 1300 1
1060 1300 1
1075 1300 1
1156 1300 1
1167 1300 1
1180 1300 1
1189 1300 1
460 1301 1
461 1301 1
1061 1301 1
1076 1301 1
1157 1301 1
1168 1301 1
1181 1301 1
1190 1301 1
461 1302 1
462 1302 1
1062 1302 1
1077 1302 1
1158 1302 1
1169 1302 1
1182 1302 1
1191 1302 1
462 1303 1
463 1303 1
1063 1303 1
1078 1303 1
1159 1303 1
1170 1303 1
1183 1303 1
1192 1303 1
463 1304 1
464 1304 1
1064 1304 1
1079 1304 1
1160 1304 1
1171 1304 1
1184 1304 1
1193 1304 1
464 1305 1
465 1305 1
1065 1305 1
1080 1305 1
1161 1305 1
1172 1305 1
1185 1305 1
1194 1305 1
465 1306 1
466 1306 1
1057 1306 1
1066 1306 1
1162 1306 1
1173 1306 1
1186 1306 1
1195 1306 1
466 1307 1
467 1307 1
1058 1307 1
1067 1307 1
1163 1307 1
1174 1307 1
1187 1307 1
1196 1307 1
467 1308 1
468 1308 1
1059 1308 1
1068 1308 1
1164 1308 1
1175 1308 1
1188 1308 1
1197 1308 1
468 1309 1
469 1309 1
1060 1309 1
1069 1309 1
1165 1309 1
1176 1309 1
1189 1309 1
1198 1309 1
469 1310 1
470 1310 1
1061 1310 1
1070 1310 1
1153 1310 1
1166 1310 1
1190 1310 1
1199 1310 1
470 1311 1
471 1311 1
1062 1311 1
1071 1311 1
1154 1311 1
1167 1311 1
1191 1311 1
1200 1311 1
471 1312 1
472 1312 1
1063 1312 1
1072 1312 1
1155 1312 1
1168 1312 1
1177 1312 1
1192 1312 1
472 1313 1
473 1313 1
1064 1313 1
1073 1313 1
1156 1313 1
1169 1313 1
1178 1313 1
1193 1313 1
473 1314 1
474 1314 1
1065 1314 1
1074 1314 1
1157 1314 1
1170 1314 1
1179 1314 1
1194 1314 1
474 1315 1
475 1315 1
1066 1315 1
1075 1315 1
1158 1315 1
1171 1315 1
1180 1315 1
1195 1315 1
475 1316 1
476 1316 1
1067 1316 1
1076 1316 1
1159 1316 1
1172 1316 1
1181 1316 1
1196 1316 1
476 1317 1
477 1317 1
1068 1317 1
1077 1317 1
1160 1317 1
1173 1317 1
1182 1317 1
1197 1317 1
477 1318 1
478 1318 1
1069 1318 1
1078 1318 1
1161 1318 1
1174 1318 1
1183 1318 1
1198 1318 1
478 1319 1
479 1319 1
1070 1319 1
1079 1319 1
1162 1319 1
1175 1319 1
1184 1319 1
1199 1319 1
479 1320 1
480 1320 1
1071 1320 1
1080 1320 1
1163 1320 1
1176 1320 1
1185 1320 1
1200 1320 1
481 1321 1
504 1321 1
841 1321 1
859 1321 1
1201 1321 1
1206 1321 1
1225 1321 1
1227 1321 1
481 1322 1
482 1322 1
842 1322 1
860 1322 1
1202 1322 1
1207 1322 1
1226 1322 1
1228 1322 1
482 1323 1
483 1323 1
843 1323 1
861 1323 1
1203 1323 1
1208 1323 1
1227 1323 1
1229 1323 1
483 1324 1
484 1324 1
844 1324 1
862 1324 1
1204 1324 1
1209 1324 1
1228 1324 1
1230 1324 1
484 1325 1
485 1325 1
845 1325 1
863 1325 1
1205 1325 1
1210 1325 1
1229 1325 1
1231 1325 1
485 1326 1
486 1326 1
846 1326 1
864 1326 1
1206 1326 1
1211 1326 1
1230 1326 1
1232 1326 1
486 1327 1
487 1327 1
841 1327 1
847 1327 1
1207 1327 1
1212 1327 1
1231 1327 1
1233 1327 1
487 1328 1
488 1328 1
842 1328 1
848 1328 1
1208 1328 1
1213 1328 1
1232 1328 1
1234 1328 1
488 1329 1
489 1329 1
843 1329 1
849 1329 1
1209 1329 1
1214 1329 1
1233 1329 1
1235 1329 1
489 1330 1
490 1330 1
844 1330 1
850 1330 1
1210 1330 1
1215 1330 1
1234 1330 1
1236 1330 1
490 1331 1
491 1331 1
845 1331 1
851 1331 1
1211 1331 1
1216 1331 1
1235 1331 1
1237 1331 1
491 1332 1
492 1332 1
846 1332 1
852 1332 1
1212 1332 1
1217 1332 1
1236 1332 1
1238 1332 1
492 1333 1
493 1333 1
847 1333 1
853 1333 1
1213 1333 1
1218 1333 1
1237 1333 1
1239 1333 1
493 1334 1
494 1334 1
848 1334 1
854 1334 1
1214 1334 1
1219 1334 1
1238 1334 1
1240 1334 1
494 1335 1
495 1335 1
849 1335 1
855 1335 1
1215 1335 1
1220 1335 1
1239 1335 1
1241 1335 1
495 1336 1
496 1336 1
850 1336 1
856 1336 1
1216 1336 1
1221 1336 1
1240 1336 1
1242 1336 1
496 1337 1
497 1337 1
851 1337 1
857 1337 1
1217 1337 1
1222 1337 1
1241 1337 1
1243 1337 1
497 1338 1
498 1338 1
852 1338 1
858 1338 1
1218 1338 1
1223 1338 1
1242 1338 1
1244 1338 1
498 1339 1
499 1339 1
853 1339 1
859 1339 1
1219 1339 1
1224 1339 1
1243 1339 1
1245 1339 1
499 1340 1
500 1340 1
854 1340 1
860 1340 1
1201 1340 1
1220 1340 1
1244 1340 1
1246 1340 1
500 1341 1
501 1341 1
855 1341 1
861 1341 1
1202 1341 1
1221 1341 1
1245 1341 1
1247 1341 1
501 1342 1
502 1342 1
856 1342 1
862 1342 1
1203 1342 1
1222 1342 1
1246 1342 1
1248 1342 1
502 1343 1
503 1343 1
857 1343 1
863 1343 1
1204 1343 1
1223 1343 1
1225 1343 1
1247 1343 1
503 1344 1
504 1344 1
858 1344 1
864 1344 1
1205 1344 1
1224 1344 1
1226 1344 1
1248 1344 1
505 1345 1
528 1345 1
865 1345 1
883 1345 1
1201 1345 1
1209 1345 1
1249 1345 1
1251 1345 1
505 1346 1
506 1346 1
866 1346 1
884 1346 1
1202 1346 1
1210 1346 1
1250 1346 1
1252 1346 1
506 1347 1
507 1347 1
867 1347 1
885 1347 1
1203 1347 1
1211 1347 1
1251 1347 1
1253 1347 1
507 1348 1
508 1348 1
868 1348 1
886 1348 1
1204 1348 1
1212 1348 1
1252 1348 1
1254 1348 1
508 1349 1
509 1349 1
869 1349 1
887 1349 1
1205 1349 1
1213 1349 1
1253 1349 1
1255 1349 1
509 1350 1
510 1350 1
870 1350 1
888 1350 1
1206 1350 1
1214 1350 1
1254 1350 1
1256 1350 1
510 1351 1
511 1351 1
865 1351 1
871 1351 1
1207 1351 1
1215 1351 1
1255 1351 1
1257 1351 1
511 1352 1
512 1352 1
866 1352 1
872 1352 1
1208 1352 1
1216 1352 1
1256 1352 1
1258 1352 1
512 1353 1
513 1353 1
867 1353 1
873 1353 1
1209 1353 1
1217 1353 1
1257 1353 1
1259 1353 1
513 1354 1
514 1354 1
868 1354 1
874 1354 1
1210 1354 1
1218 1354 1
1258 1354 1
1260 1354 1
514 1355 1
515 1355 1
869 1355 1
875 1355 1
1211 1355 1
1219 1355 1
1259 1355 1
1261 1355 1
515 1356 1
516 1356 1
870 1356 1
876 1356 1
1212 1356 1
1220 1356 1
1260 1356 1
1262 1356 1
516 1357 1
517 1357 1
871 1357 1
877 1357 1
1213 1357 1
1221 1357 1
1261 1357 1
1263 1357 1
517 1358 1
518 1358 1
872 1358 1
878 1358 1
1214 1358 1
1222 1358 1
1262 1358 1
1264 1358 1
518 1359 1
519 1359 1
873 1359 1
879 1359 1
1215 1359 1
1223 1359 1
1263 1359 1
1265 1359 1
519 1360 1
520 1360 1
874 1360 1
880 1360 1
1216 1360 1
1224 1360 1
1264 1360 1
1266 1360 1
520 1361 1
521 1361 1
875 1361 1
881 1361 1
1201 1361 1
1217 1361 1
1265 1361 1
1267 1361 1
521 1362 1
522 1362 1
876 1362 1
882 1362 1
1202 1362 1
1218 1362 1
1266 1362 1
1268 1362 1
522 1363 1
523 1363 1
877 1363 1
883 1363 1
1203 1363 1
1219 1363 1
1267 1363 1
1269 1363 1
523 1364 1
524 1364 1
878 1364 1
884 1364 1
1204 1364 1
1220 1364 1
1268 1364 1
1270 1364 1
524 1365 1
525 1365 1
879 1365 1
885 1365 1
1205 1365 1
1221 1365 1
1269 1365 1
1271 1365 1
525 1366 1
526 1366 1
880 1366 1
886 1366 1
1206 1366 1
1222 1366 1
1270 1366 1
1272 1366 1
526 1367 1
527 1367 1
881 1367 1
887 1367 1
1207 1367 1
1223 1367 1
1249 1367 1
1271 1367 1
527 1368 1
528 1368 1
882 1368 1
888 1368 1
1208 1368 1
1224 1368 1
1250 1368 1
1272 1368 1
529 1369 1
552 1369 1
889 1369 1
907 1369 1
1225 1369 1
1233 1369 1
1249 1369 1
1254 1369 1
529 1370 1
530 1370 1
890 1370 1
908 1370 1
1226 1370 1
1234 1370 1
1250 1370 1
1255 1370 1
530 1371 1
531 1371 1
891 1371 1
909 1371 1
1227 1371 1
1235 1371 1
1251 1371 1
1256 1371 1
531 1372 1
532 1372 1
892 1372 1
910 1372 1
1228 1372 1
1236 1372 1
1252 1372 1
1257 1372 1
532 1373 1
533 1373 1
893 1373 1
911 1373 1
1229 1373 1
1237 1373 1
1253 1373 1
1258 1373 1
533 1374 1
534 1374 1
894 1374 1
912 1374 1
1230 1374 1
1238 1374 1
1254 1374 1
1259 1374 1
534 1375 1
535 1375 1
889 1375 1
895 1375 1
1231 1375 1
1239 1375 1
1255 1375 1
1260 1375 1
535 1376 1
536 1376 1
890 1376 1
896 1376 1
1232 1376 1
1240 1376 1
1256 1376 1
1261 1376 1
536 1377 1
537 1377 1
891 1377 1
897 1377 1
1233 1377 1
1241 1377 1
1257 1377 1
1262 1377 1
537 1378 1
538 1378 1
892 1378 1
898 1378 1
1234 1378 1
1242 1378 1
1258 1378 1
1263 1378 1
538 1379 1
539 1379 1
893 1379 1
899 1379 1
1235 1379 1
1243 1379 1
1259 1379 1
1264 1379 1
539 1380 1
540 1380 1
894 1380 1
900 1380 1
1236 1380 1
1244 1380 1
1260 1380 1
1265 1380 1
540 1381 1
541 1381 1
895 1381 1
901 1381 1
1237 1381 1
1245 1381 1
1261 1381 1
1266 1381 1
541 1382 1
542 1382 1
896 1382 1
902 1382 1
1238 1382 1
1246 1382 1
1262 1382 1
1267 1382 1
542 1383 1
543 1383 1
897 1383 1
903 1383 1
1239 1383 1
1247 1383 1
1263 1383 1
1268 1383 1
543 1384 1
544 1384 1
898 1384 1
904 1384 1
1240 1384 1
1248 1384 1
1264 1384 1
1269 1384 1
544 1385 1
545 1385 1
899 1385 1
905 1385 1
1225 1385 1
1241 1385 1
1265 1385 1
1270 1385 1
545 1386 1
546 1386 1
900 1386 1
906 1386 1
1226 1386 1
1242 1386 1
1266 1386 1
1271 1386 1
546 1387 1
547 1387 1
901 1387 1
907 1387 1
1227 1387 1
1243 1387 1
1267 1387 1
1272 1387 1
547 1388 1
548 1388 1
902 1388 1
908 1388 1
1228 1388 1
1244 1388 1
1249 1388 1
1268 1388 1
548 1389 1
549 1389 1
903 1389 1
909 1389 1
1229 1389 1
1245 1389 1
1250 1389 1
1269 1389 1
549 1390 1
550 1390 1
904 1390 1
910 1390 1
1230 1390 1
1246 1390 1
1251 1390 1
1270 1390 1
550 1391 1
551 1391 1
905 1391 1
911 1391 1
1231 1391 1
1247 1391 1
1252 1391 1
1271 1391 1
551 1392 1
552 1392 1
906 1392 1
912 1392 1
1232 1392 1
1248 1392 1
1253 1392 1
1272 1392 1
553 1393 1
576 1393 1
913 1393 1
931 1393 1
1201 1393 1
1210 1393 1
1273 1393 1
1275 1393 1
553 1394 1
554 1394 1
914 1394 1
932 1394 1
1202 1394 1
1211 1394 1
1274 1394 1
1276 1394 1
554 1395 1
555 1395 1
915 1395 1
933 1395 1
1203 1395 1
1212 1395 1
1275 1395 1
1277 1395 1
555 1396 1
556 1396 1
916 1396 1
934 1396 1
1204 1396 1
1213 1396 1
1276 1396 1
1278 1396 1
556 1397 1
557 1397 1
917 1397 1
935 1397 1
1205 1397 1
1214 1397 1
1277 1397 1
1279 1397 1
557 1398 1
558 1398 1
918 1398 1
936 1398 1
1206 1398 1
1215 1398 1
1278 1398 1
1280 1398 1
558 1399 1
559 1399 1
913 1399 1
919 1399 1
1207 1399 1
1216 1399 1
1279 1399 1
1281 1399 1
559 1400 1
560 1400 1
914 1400 1
920 1400 1
1208 1400 1
1217 1400 1
1280 1400 1
1282 1400 1
560 1401 1
561 1401 1
915 1401 1
921 1401 1
1209 1401 1
1218 1401 1
1281 1401 1
1283 1401 1
561 1402 1
562 1402 1
916 1402 1
922 1402 1
1210 1402 1
1219 1402 1
1282 1402 1
1284 1402 1
562 1403 1
563 1403 1
917 1403 1
923 1403 1
1211 1403 1
1220 1403 1
1283 1403 1
1285 1403 1
563 1404 1
564 1404 1
918 1404 1
924 1404 1
1212 1404 1
1221 1404 1
1284 1404 1
1286 1404 1
564 1405 1
565 1405 1
919 1405 1
925 1405 1
1213 1405 1
1222 1405 1
1285 1405 1
1287 1405 1
565 1406 1
566 1406 1
920 1406 1
926 1406 1
1214 1406 1
1223 1406 1
1286 1406 1
1288 1406 1
566 1407 1
567 1407 1
921 1407 1
927 1407 1
1215 1407 1
1224 1407 1
1287 1407 1
1289 1407 1
567 1408 1
568 1408 1
922 1408 1
928 1408 1
1201 1408 1
1216 1408 1
1288 1408 1
1290 1408 1
568 1409 1
569 1409 1
923 1409 1
929 1409 1
1202 1409 1
1217 1409 1
1289 1409 1
1291 1409 1
569 1410 1
570 1410 1
924 1410 1
930 1410 1
1203 1410 1
1218 1410 1
1290 1410 1
1292 1410 1
570 1411 1
571 1411 1
925 1411 1
931 1411 1
1204 1411 1
1219 1411 1
1291 1411 1
1293 1411 1
571 1412 1
572 1412 1
926 1412 1
932 1412 1
1205 1412 1
1220 1412 1
1292 1412 1
1294 1412 1
572 1413 1
573 1413 1
927 1413 1
933 1413 1
1206 1413 1
1221 1413 1
1293 1413 1
1295 1413 1
573 1414 1
574 1414 1
928 1414 1
934 1414 1
1207 1414 1
1222 1414 1
1294 1414 1
1296 1414 1
574 1415 1
575 1415 1
929 1415 1
935 1415 1
1208 1415 1
1223 1415 1
1273 1415 1
1295 1415 1
575 1416 1
576 1416 1
930 1416 1
936 1416 1
1209 1416 1
1224 1416 1
1274 1416 1
1296 1416 1
577 1417 1
600 1417 1
937 1417 1
955 1417 1
1225 1417 1
1234 1417 1
1273 1417 1
1278 1417 1
577 1418 1
578 1418 1
938 1418 1
956 1418 1
1226 1418 1
1235 1418 1
1274 1418 1
1279 1418 1
578 1419 1
579 1419 1
939 1419 1
957 1419 1
1227 1419 1
1236 1419 1
1275 1419 1
1280 1419 1
579 1420 1
580 1420 1
940 1420 1
958 1420 1
1228 1420 1
1237 1420 1
1276 1420 1
1281 1420 1
580 1421 1
581 1421 1
941 1421 1
959 1421 1
1229 1421 1
1238 1421 1
1277 1421 1
1282 1421 1
581 1422 1
582 1422 1
942 1422 1
960 1422 1
1230 1422 1
1239 1422 1
1278 1422 1
1283 1422 1
582 1423 1
583 1423 1
937 1423 1
943 1423 1
1231 1423 1
1240 1423 1
1279 1423 1
1284 1423 1
583 1424 1
584 1424 1
938 1424 1
944 1424 1
1232 1424 1
1241 1424 1
1280 1424 1
1285 1424 1
584 1425 1
585 1425 1
939 1425 1
945 1425 1
1233 1425 1
1242 1425 1
1281 1425 1
1286 1425 1
585 1426 1
586 1426 1
940 1426 1
946 1426 1
1234 1426 1
1243 1426 1
1282 1426 1
1287 1426 1
586 1427 1
587 1427 1
941 1427 1
947 1427 1
1235 1427 1
1244 1427 1
1283 1427 1
1288 1427 1
587 1428 1
588 1428 1
942 1428 1
948 1428 1
1236 1428 1
1245 1428 1
1284 1428 1
1289 1428 1
588 1429 1
589 1429 1
943 1429 1
949 1429 1
1237 1429 1
1246 1429 1
1285 1429 1
1290 1429 1
589 1430 1
590 1430 1
944 1430 1
950 1430 1
1238 1430 1
1247 1430 1
1286 1430 1
1291 1430 1
590 1431 1
591 1431 1
945 1431 1
951 1431 1
1239 1431 1
1248 1431 1
1287 1431 1
1292 1431 1
591 1432 1
592 1432 1
946 1432 1
952 1432 1
1225 1432 1
1240 1432 1
1288 1432 1
1293 1432 1
592 1433 1
593 1433 1
947 1433 1
953 1433 1
1226 1433 1
1241 1433 1
1289 1433 1
1294 1433 1
593 1434 1
594 1434 1
948 1434 1
954 1434 1
1227 1434 1
1242 1434 1
1290 1434 1
1295 1434 1
594 1435 1
595 1435 1
949 1435 1
955 1435 1
1228 1435 1
1243 1435 1
1291 1435 1
1296 1435 1
595 1436 1
596 1436 1
950 1436 1
956 1436 1
1229 1436 1
1244 1436 1
1273 1436 1
1292 1436 1
596 1437 1
597 1437 1
951 1437 1
957 1437 1
1230 1437 1
1245 1437 1
1274 1437 1
1293 1437 1
597 1438 1
598 1438 1
952 1438 1
958 1438 1
1231 1438 1
1246 1438 1
1275 1438 1
1294 1438 1
598 1439 1
599 1439 1
953 1439 1
959 1439 1
1232 1439 1
1247 1439 1
1276 1439 1
1295 1439 1
599 1440 1
600 1440 1
954 1440 1
960 1440 1
1233 1440 1
1248 1440 1
1277 1440 1
1296 1440 1
601 1441 1
624 1441 1
961 1441 1
979 1441 1
1249 1441 1
1258 1441 1
1273 1441 1
1281 1441 1
601 1442 1
602 1442 1
962 1442 1
980 1442 1
1250 1442 1
1259 1442 1
1274 1442 1
1282 1442 1
602 1443 1
603 1443 1
963 1443 1
981 1443 1
1251 1443 1
1260 1443 1
1275 1443 1
1283 1443 1
603 1444 1
604 1444 1
964 1444 1
982 1444 1
1252 1444 1
1261 1444 1
1276 1444 1
1284 1444 1
604 1445 1
605 1445 1
965 1445 1
983 1445 1
1253 1445 1
1262 1445 1
1277 1445 1
1285 1445 1
605 1446 1
606 1446 1
966 1446 1
984 1446 1
1254 1446 1
1263 1446 1
1278 1446 1
1286 1446 1
606 1447 1
607 1447 1
961 1447 1
967 1447 1
1255 1447 1
1264 1447 1
1279 1447 1
1287 1447 1
607 1448 1
608 1448 1
962 1448 1
968 1448 1
1256 1448 1
1265 1448 1
1280 1448 1
1288 1448 1
608 1449 1
609 1449 1
963 1449 1
969 1449 1
1257 1449 1
1266 1449 1
1281 1449 1
1289 1449 1
609 1450 1
610 1450 1
964 1450 1
970 1450 1
1258 1450 1
1267 1450 1
1282 1450 1
1290 1450 1
610 1451 1
611 1451 1
965 1451 1
971 1451 1
1259 1451 1
1268 1451 1
1283 1451 1
1291 1451 1
611 1452 1
612 1452 1
966 1452 1
972 1452 1
1260 1452 1
1269 1452 1
1284 1452 1
1292 1452 1
612 1453 1
613 1453 1
967 1453 1
973 1453 1
1261 1453 1
1270 1453 1
1285 1453 1
1293 1453 1
613 1454 1
614 1454 1
968 1454 1
974 1454 1
1262 1454 1
1271 1454 1
1286 1454 1
1294 1454 1
614 1455 1
615 1455 1
969 1455 1
975 1455 1
1263 1455 1
1272 1455 1
1287 1455 1
1295 1455 1
615 1456 1
616 1456 1
970 1456 1
976 1456 1
1249 1456 1
1264 1456 1
1288 1456 1
1296 1456 1
616 1457 1
617 1457 1
971 1457 1
977 1457 1
1250 1457 1
1265 1457 1
1273 1457 1
1289 1457 1
617 1458 1
618 1458 1
972 1458 1
978 1458 1
1251 1458 1
1266 1458 1
1274 1458 1
1290 1458 1
618 1459 1
619 1459 1
973 1459 1
979 1459 1
1252 1459 1
1267 1459 1
1275 1459 1
1291 1459 1
619 1460 1
620 1460 1
974 1460 1
980 1460 1
1253 1460 1
1268 1460 1
1276 1460 1
1292 1460 1
620 1461 1
621 1461 1
975 1461 1
981 1461 1
1254 1461 1
1269 1461 1
1277 1461 1
1293 1461 1
621 1462 1
622 1462 1
976 1462 1
982 1462 1
1255 1462 1
1270 1462 1
1278 1462 1
1294 1462 1
622 1463 1
623 1463 1
977 1463 1
983 1463 1
1256 1463 1
1271 1463 1
1279 1463 1
1295 1463 1
623 1464 1
624 1464 1
978 1464 1
984 1464 1
1257 1464 1
1272 1464 1
1280 1464 1
1296 1464 1
625 1465 1
648 1465 1
985 1465 1
1003 1465 1
1201 1465 1
1212 1465 1
1297 1465 1
1299 1465 1
625 1466 1
626 1466 1
986 1466 1
1004 1466 1
1202 1466 1
1213 1466 1
1298 1466 1
1300 1466 1
626 1467 1
627 1467 1
987 1467 1
1005 1467 1
1203 1467 1
1214 1467 1
1299 1467 1
1301 1467 1
627 1468 1
628 1468 1
988 1468 1
1006 1468 1
1204 1468 1
1215 1468 1
1300 1468 1
1302 1468 1
628 1469 1
629 1469 1
989 1469 1
1007 1469 1
1205 1469 1
1216 1469 1
1301 1469 1
1303 1469 1
629 1470 1
630 1470 1
990 1470 1
1008 1470 1
1206 1470 1
1217 1470 1
1302 1470 1
1304 1470 1
630 1471 1
631 1471 1
985 1471 1
991 1471 1
1207 1471 1
1218 1471 1
1303 1471 1
1305 1471 1
631 1472 1
632 1472 1
986 1472 1
992 1472 1
1208 1472 1
1219 1472 1
1304 1472 1
1306 1472 1
632 1473 1
633 1473 1
987 1473 1
993 1473 1
1209 1473 1
1220 1473 1
1305 1473 1
1307 1473 1
633 1474 1
634 1474 1
988 1474 1
994 1474 1
1210 1474 1
1221 1474 1
1306 1474 1
1308 1474 1
634 1475 1
635 1475 1
989 1475 1
995 1475 1
1211 1475 1
1222 1475 1
1307 1475 1
1309 1475 1
635 1476 1
636 1476 1
990 1476 1
996 1476 1
1212 1476 1
1223 1476 1
1308 1476 1
1310 1476 1
636 1477 1
637 1477 1
991 1477 1
997 1477 1
1213 1477 1
1224 1477 1
1309 1477 1
1311 1477 1
637 1478 1
638 1478 1
992 1478 1
998 1478 1
1201 1478 1
1214 1478 1
1310 1478 1
1312 1478 1
638 1479 1
639 1479 1
993 1479 1
999 1479 1
1202 1479 1
1215 1479 1
1311 1479 1
1313 1479 1
639 1480 1
640 1480 1
994 1480 1
1000 1480 1
1203 1480 1
1216 1480 1
1312 1480 1
1314 1480 1
640 1481 1
641 1481 1
995 1481 1
1001 1481 1
1204 1481 1
1217 1481 1
1313 1481 1
1315 1481 1
641 1482 1
642 1482 1
996 1482 1
1002 1482 1
1205 1482 1
1218 1482 1
1314 1482 1
1316 1482 1
642 1483 1
643 1483 1
997 1483 1
1003 1483 1
1206 1483 1
1219 1483 1
1315 1483 1
1317 1483 1
643 1484 1
644 1484 1
998 1484 1
1004 1484 1
1207 1484 1
1220 1484 1
1316 1484 1
1318 1484 1
644 1485 1
645 1485 1
999 1485 1
1005 1485 1
1208 1485 1
1221 1485 1
1317 1485 1
1319 1485 1
645 1486 1
646 1486 1
1000 1486 1
1006 1486 1
1209 1486 1
1222 1486 1
1318 1486 1
1320 1486 1
646 1487 1
647 1487 1
1001 1487 1
1007 1487 1
1210 1487 1
1223 1487 1
1297 1487 1
1319 1487 1
647 1488 1
648 1488 1
1002 1488 1
1008 1488 1
1211 1488 1
1224 1488 1
1298 1488 1
1320 1488 1
649 1489 1
672 1489 1
1009 1489 1
1027 1489 1
1225 1489 1
1236 1489 1
1297 1489 1
1302 1489 1
649 1490 1
650 1490 1
1010 1490 1
1028 1490 1
1226 1490 1
1237 1490 1
1298 1490 1
1303 1490 1
650 1491 1
651 1491 1
1011 1491 1
1029 1491 1
1227 1491 1
1238 1491 1
1299 1491 1
1304 1491 1
651 1492 1
652 1492 1
1012 1492 1
1030 1492 1
1228 1492 1
1239 1492 1
1300 1492 1
1305 1492 1
652 1493 1
653 1493 1
1013 1493 1
1031 1493 1
1229 1493 1
1240 1493 1
1301 1493 1
1306 1493 1
653 1494 1
654 1494 1
1014 1494 1
1032 1494 1
1230 1494 1
1241 1494 1
1302 1494 1
1307 1494 1
654 1495 1
655 1495 1
1009 1495 1
1015 1495 1
1231 1495 1
1242 1495 1
1303 1495 1
1308 1495 1
655 1496 1
656 1496 1
1010 1496 1
1016 1496 1
1232 1496 1
1243 1496 1
1304 1496 1
1309 1496 1
656 1497 1
657 1497 1
1011 1497 1
1017 1497 1
1233 1497 1
1244 1497 1
1305 1497 1
1310 1497 1
657 1498 1
658 1498 1
1012 1498 1
1018 1498 1
1234 1498 1
1245 1498 1
1306 1498 1
1311 1498 1
658 1499 1
659 1499 1
1013 1499 1
1019 1499 1
1235 1499 1
1246 1499 1
1307 1499 1
1312 1499 1
659 1500 1
660 1500 1
1014 1500 1
1020 1500 1
1236 1500 1
1247 1500 1
1308 1500 1
1313 1500 1
660 1501 1
661 1501 1
1015 1501 1
1021 1501 1
1237 1501 1
1248 1501 1
1309 1501 1
1314 1501 1
661 1502 1
662 1502 1
1016 1502 1
1022 1502 1
1225 1502 1
1238 1502 1
1310 1502 1
1315 1502 1
662 1503 1
663 1503 1
1017 1503 1
1023 1503 1
1226 1503 1
1239 1503 1
1311 1503 1
1316 1503 1
663 1504 1
664 1504 1
1018 1504 1
1024 1504 1
1227 1504 1
1240 1504 1
1312 1504 1
1317 1504 1
664 1505 1
665 1505 1
1019 1505 1
1025 1505 1
1228 1505 1
1241 1505 1
1313 1505 1
1318 1505 1
665 1506 1
666 1506 1
1020 1506 1
1026 1506 1
1229 1506 1
1242 1506 1
1314 1506 1
1319 1506 1
666 1507 1
667 1507 1
1021 1507 1
1027 1507 1
1230 1507 1
1243 1507 1
1315 1507 1
1320 1507 1
667 1508 1
668 1508 1
1022 1508 1
1028 1508 1
1231 1508 1
1244 1508 1
1297 1508 1
1316 1508 1
668 1509 1
669 1509 1
1023 1509 1
1029 1509 1
1232 1509 1
1245 1509 1
1298 1509 1
1317 1509 1
669 1510 1
670 1510 1
1024 1510 1
1030 1510 1
1233 1510 1
1246 1510 1
1299 1510 1
1318 1510 1
670 1511 1
671 1511 1
1025 1511 1
1031 1511 1
1234 1511 1
1247 1511 1
1300 1511 1
1319 1511 1
671 1512 1
672 1512 1
1026 1512 1
1032 1512 1
1235 1512 1
1248 1512 1
1301 1512 1
1320 1512 1
673 1513 1
696 1513 1
1033 1513 1
1051 1513 1
1249 1513 1
1260 1513 1
1297 1513 1
1305 1513 1
673 1514 1
674 1514 1
1034 1514 1
1052 1514 1
1250 1514 1
1261 1514 1
1298 1514 1
1306 1514 1
674 1515 1
675 1515 1
1035 1515 1
1053 1515 1
1251 1515 1
1262 1515 1
1299 1515 1
1307 1515 1
675 1516 1
676 1516 1
1036 1516 1
1054 1516 1
1252 1516 1
1263 1516 1
1300 1516 1
1308 1516 1
676 1517 1
677 1517 1
1037 1517 1
1055 1517 1
1253 1517 1
1264 1517 1
1301 1517 1
1309 1517 1
677 1518 1
678 1518 1
1038 1518 1
1056 1518 1
1254 1518 1
1265 1518 1
1302 1518 1
1310 1518 1
678 1519 1
679 1519 1
1033 1519 1
1039 1519 1
1255 1519 1
1266 1519 1
1303 1519 1
1311 1519 1
679 1520 1
680 1520 1
1034 1520 1
1040 1520 1
1256 1520 1
1267 1520 1
1304 1520 1
1312 1520 1
680 1521 1
681 1521 1
1035 1521 1
1041 1521 1
1257 1521 1
1268 1521 1
1305 1521 1
1313 1521 1
681 1522 1
682 1522 1
1036 1522 1
1042 1522 1
1258 1522 1
1269 1522 1
1306 1522 1
1314 1522 1
682 1523 1
683 1523 1
1037 1523 1
1043 1523 1
1259 1523 1
1270 1523 1
1307 1523 1
1315 1523 1
683 1524 1
684 1524 1
1038 1524 1
1044 1524 1
1260 1524 1
1271 1524 1
1308 1524 1
1316 1524 1
684 1525 1
685 1525 1
1039 1525 1
1045 1525 1
1261 1525 1
1272 1525 1
1309 1525 1
1317 1525 1
685 1526 1
686 1526 1
1040 1526 1
1046 1526 1
1249 1526 1
1262 1526 1
1310 1526 1
1318 1526 1
686 1527 1
687 1527 1
1041 1527 1
1047 1527 1
1250 1527 1
1263 1527 1
1311 1527 1
1319 1527 1
687 1528 1
688 1528 1
1042 1528 1
1048 1528 1
1251 1528 1
1264 1528 1
1312 1528 1
1320 1528 1
688 1529 1
689 1529 1
1043 1529 1
1049 1529 1
1252 1529 1
1265 1529 1
1297 1529 1
1313 1529 1
689 1530 1
690 1530 1
1044 1530 1
1050 1530 1
1253 1530 1
1266 1530 1
1298 1530 1
1314 1530 1
690 1531 1
691 1531 1
1045 1531 1
1051 1531 1
1254 1531 1
1267 1531 1
1299 1531 1
1315 1531 1
691 1532 1
692 1532 1
1046 1532 1
1052 1532 1
1255 1532 1
1268 1532 1
1300 1532 1
1316 1532 1
692 1533 1
693 1533 1
1047 1533 1
1053 1533 1
1256 1533 1
1269 1533 1
1301 1533 1
1317 1533 1
693 1534 1
694 1534 1
1048 1534 1
1054 1534 1
1257 1534 1
1270 1534 1
1302 1534 1
1318 1534 1
694 1535 1
695 1535 1
1049 1535 1
1055 1535 1
1258 1535 1
1271 1535 1
1303 1535 1
1319 1535 1
695 1536 1
696 1536 1
1050 1536 1
1056 1536 1
1259 1536 1
1272 1536 1
1304 1536 1
1320 1536 1
697 1537 1
720 1537 1
1057 1537 1
1075 1537 1
1273 1537 1
1284 1537 1
1297 1537 1
1306 1537 1
697 1538 1
698 1538 1
1058 1538 1
1076 1538 1
1274 1538 1
1285 1538 1
1298 1538 1
1307 1538 1
698 1539 1
699 1539 1
1059 1539 1
1077 1539 1
1275 1539 1
1286 1539 1
1299 1539 1
1308 1539 1
699 1540 1
700 1540 1
1060 1540 1
1078 1540 1
1276 1540 1
1287 1540 1
1300 1540 1
1309 1540 1
700 1541 1
701 1541 1
1061 1541 1
1079 1541 1
1277 1541 1
1288 1541 1
1301 1541 1
1310 1541 1
701 1542 1
702 1542 1
1062 1542 1
1080 1542 1
1278 1542 1
1289 1542 1
1302 1542 1
1311 1542 1
702 1543 1
703 1543 1
1057 1543 1
1063 1543 1
1279 1543 1
1290 1543 1
1303 1543 1
1312 1543 1
703 1544 1
704 1544 1
1058 1544 1
1064 1544 1
1280 1544 1
1291 1544 1
1304 1544 1
1313 1544 1
704 1545 1
705 1545 1
1059 1545 1
1065 1545 1
1281 1545 1
1292 1545 1
1305 1545 1
1314 1545 1
705 1546 1
706 1546 1
1060 1546 1
1066 1546 1
1282 1546 1
1293 1546 1
1306 1546 1
1315 1546 1
706 1547 1
707 1547 1
1061 1547 1
1067 1547 1
1283 1547 1
1294 1547 1
1307 1547 1
1316 1547 1
707 1548 1
708 1548 1
1062 1548 1
1068 1548 1
1284 1548 1
1295 1548 1
1308 1548 1
1317 1548 1
708 1549 1
709 1549 1
1063 1549 1
1069 1549 1
1285 1549 1
1296 1549 1
1309 1549 1
1318 1549 1
709 1550 1
710 1550 1
1064 1550 1
1070 1550 1
1273 1550 1
1286 1550 1
1310 1550 1
1319 1550 1
710 1551 1
711 1551 1
1065 1551 1
1071 1551 1
1274 1551 1
1287 1551 1
1311 1551 1
1320 1551 1
711 1552 1
712 1552 1
1066 1552 1
1072 1552 1
1275 1552 1
1288 1552 1
1297 1552 1
1312 1552 1
712 1553 1
713 1553 1
1067 1553 1
1073 1553 1
1276 1553 1
1289 1553 1
1298 1553 1
1313 1553 1
713 1554 1
714 1554 1
1068 1554 1
1074 1554 1
1277 1554 1
1290 1554 1
1299 1554 1
1314 1554 1
714 1555 1
715 1555 1
1069 1555 1
1075 1555 1
1278 1555 1
1291 1555 1
1300 1555 1
1315 1555 1
715 1556 1
716 1556 1
1070 1556 1
1076 1556 1
1279 1556 1
1292 1556 1
1301 1556 1
1316 1556 1
716 1557 1
717 1557 1
1071 1557 1
1077 1557 1
1280 1557 1
1293 1557 1
1302 1557 1
1317 1557 1
717 1558 1
718 1558 1
1072 1558 1
1078 1558 1
1281 1558 1
1294 1558 1
1303 1558 1
1318 1558 1
718 1559 1
719 1559 1
1073 1559 1
1079 1559 1
1282 1559 1
1295 1559 1
1304 1559 1
1319 1559 1
719 1560 1
720 1560 1
1074 1560 1
1080 1560 1
1283 1560 1
1296 1560 1
1305 1560 1
1320 1560 1
721 1561 1
744 1561 1
1081 1561 1
1099 1561 1
1201 1561 1
1216 1561 1
1321 1561 1
1323 1561 1
721 1562 1
722 1562 1
1082 1562 1
1100 1562 1
1202 1562 1
1217 1562 1
1322 1562 1
1324 1562 1
722 1563 1
723 1563 1
1083 1563 1
1101 1563 1
1203 1563 1
1218 1563 1
1323 1563 1
1325 1563 1
723 1564 1
724 1564 1
1084 1564 1
1102 1564 1
1204 1564 1
1219 1564 1
1324 1564 1
1326 1564 1
724 1565 1
725 1565 1
1085 1565 1
1103 1565 1
1205 1565 1
1220 1565 1
1325 1565 1
1327 1565 1
725 1566 1
726 1566 1
1086 1566 1
1104 1566 1
1206 1566 1
1221 1566 1
1326 1566 1
1328 1566 1
726 1567 1
727 1567 1
1081 1567 1
1087 1567 1
1207 1567 1
1222 1567 1
1327 1567 1
1329 1567 1
727 1568 1
728 1568 1
1082 1568 1
1088 1568 1
1208 1568 1
1223 1568 1
1328 1568 1
1330 1568 1
728 1569 1
729 1569 1
1083 1569 1
1089 1569 1
1209 1569 1
1224 1569 1
1329 1569 1
1331 1569 1
729 1570 1
730 1570 1
1084 1570 1
1090 1570 1
1201 1570 1
1210 1570 1
1330 1570 1
1332 1570 1
730 1571 1
731 1571 1
1085 1571 1
1091 1571 1
1202 1571 1
1211 1571 1
1331 1571 1
1333 1571 1
731 1572 1
732 1572 1
1086 1572 1
1092 1572 1
1203 1572 1
1212 1572 1
1332 1572 1
1334 1572 1
732 1573 1
733 1573 1
1087 1573 1
1093 1573 1
1204 1573 1
1213 1573 1
1333 1573 1
1335 1573 1
733 1574 1
734 1574 1
1088 1574 1
1094 1574 1
1205 1574 1
1214 1574 1
1334 1574 1
1336 1574 1
734 1575 1
735 1575 1
1089 1575 1
1095 1575 1
1206 1575 1
1215 1575 1
1335 1575 1
1337 1575 1
735 1576 1
736 1576 1
1090 1576 1
1096 1576 1
1207 1576 1
1216 1576 1
1336 1576 1
1338 1576 1
736 1577 1
737 1577 1
1091 1577 1
1097 1577 1
1208 1577 1
1217 1577 1
1337 1577 1
1339 1577 1
737 1578 1
738 1578 1
1092 1578 1
1098 1578 1
1209 1578 1
1218 1578 1
1338 1578 1
1340 1578 1
738 1579 1
739 1579 1
1093 1579 1
1099 1579 1
1210 1579 1
1219 1579 1
1339 1579 1
1341 1579 1
739 1580 1
740 1580 1
1094 1580 1
1100 1580 1
1211 1580 1
1220 1580 1
1340 1580 1
1342 1580 1
740 1581 1
741 1581 1
1095 1581 1
1101 1581 1
1212 1581 1
1221 1581 1
1341 1581 1
1343 1581 1
741 1582 1
742 1582 1
1096 1582 1
1102 1582 1
1213 1582 1
1222 1582 1
1342 1582 1
1344 1582 1
742 1583 1
743 1583 1
1097 1583 1
1103 1583 1
1214 1583 1
1223 1583 1
1321 1583 1
1343 1583 1
743 1584 1
744 1584 1
1098 1584 1
1104 1584 1
1215 1584 1
1224 1584 1
1322 1584 1
1344 1584 1
745 1585 1
768 1585 1
1105 1585 1
1123 1585 1
1225 1585 1
1240 1585 1
1321 1585 1
1326 1585 1
745 1586 1
746 1586 1
1106 1586 1
1124 1586 1
1226 1586 1
1241 1586 1
1322 1586 1
1327 1586 1
746 1587 1
747 1587 1
1107 1587 1
1125 1587 1
1227 1587 1
1242 1587 1
1323 1587 1
1328 1587 1
747 1588 1
748 1588 1
1108 1588 1
1126 1588 1
1228 1588 1
1243 1588 1
1324 1588 1
1329 1588 1
748 1589 1
749 1589 1
1109 1589 1
1127 1589 1
1229 1589 1
1244 1589 1
1325 1589 1
1330 1589 1
749 1590 1
750 1590 1
1110 1590 1
1128 1590 1
1230 1590 1
1245 1590 1
1326 1590 1
1331 1590 1
750 1591 1
751 1591 1
1105 1591 1
1111 1591 1
1231 1591 1
1246 1591 1
1327 1591 1
1332 1591 1
751 1592 1
752 1592 1
1106 1592 1
1112 1592 1
1232 1592 1
1247 1592 1
1328 1592 1
1333 1592 1
752 1593 1
753 1593 1
1107 1593 1
1113 1593 1
1233 1593 1
1248 1593 1
1329 1593 1
1334 1593 1
753 1594 1
754 1594 1
1108 1594 1
1114 1594 1
1225 1594 1
1234 1594 1
1330 1594 1
1335 1594 1
754 1595 1
755 1595 1
1109 1595 1
1115 1595 1
1226 1595 1
1235 1595 1
1331 1595 1
1336 1595 1
755 1596 1
756 1596 1
1110 1596 1
1116 1596 1
1227 1596 1
1236 1596 1
1332 1596 1
1337 1596 1
756 1597 1
757 1597 1
1111 1597 1
1117 1597 1
1228 1597 1
1237 1597 1
1333 1597 1
1338 1597 1
757 1598 1
758 1598 1
1112 1598 1
1118 1598 1
1229 1598 1
1238 1598 1
1334 1598 1
1339 1598 1
758 1599 1
759 1599 1
1113 1599 1
1119 1599 1
1230 1599 1
1239 1599 1
1335 1599 1
1340 1599 1
759 1600 1
760 1600 1
1114 1600 1
1120 1600 1
1231 1600 1
1240 1600 1
1336 1600 1
1341 1600 1
760 1601 1
761 1601 1
1115 1601 1
1121 1601 1
1232 1601 1
1241 1601 1
1337 1601 1
1342 1601 1
761 1602 1
762 1602 1
1116 1602 1
1122 1602 1
1233 1602 1
1242 1602 1
1338 1602 1
1343 1602 1
762 1603 1
763 1603 1
1117 1603 1
1123 1603 1
1234 1603 1
1243 1603 1
1339 1603 1
1344 1603 1
763 1604 1
764 1604 1
1118 1604 1
1124 1604 1
1235 1604 1
1244 1604 1
1321 1604 1
1340 1604 1
764 1605 1
765 1605 1
1119 1605 1
1125 1605 1
1236 1605 1
1245 1605 1
1322 1605 1
1341 1605 1
765 1606 1
766 1606 1
1120 1606 1
1126 1606 1
1237 1606 1
1246 1606 1
1323 1606 1
1342 1606 1
766 1607 1
767 1607 1
1121 1607 1
1127 1607 1
1238 1607 1
1247 1607 1
1324 1607 1
1343 1607 1
767 1608 1
768 1608 1
1122 1608 1
1128 1608 1
1239 1608 1
1248 1608 1
1325 1608 1
1344 1608 1
769 1609 1
792 1609 1
1129 1609 1
1147 1609 1
1249 1609 1
1264 1609 1
1321 1609 1
1329 1609 1
769 1610 1
770 1610 1
1130 1610 1
1148 1610 1
1250 1610 1
1265 1610 1
1322 1610 1
1330 1610 1
770 1611 1
771 1611 1
1131 1611 1
1149 1611 1
1251 1611 1
1266 1611 1
1323 1611 1
1331 1611 1
771 1612 1
772 1612 1
1132 1612 1
1150 1612 1
1252 1612 1
1267 1612 1
1324 1612 1
1332 1612 1
772 1613 1
773 1613 1
1133 1613 1
1151 1613 1
1253 1613 1
1268 1613 1
1325 1613 1
1333 1613 1
773 1614 1
774 1614 1
1134 1614 1
1152 1614 1
1254 1614 1
1269 1614 1
1326 1614 1
1334 1614 1
774 1615 1
775 1615 1
1129 1615 1
1135 1615 1
1255 1615 1
1270 1615 1
1327 1615 1
1335 1615 1
775 1616 1
776 1616 1
1130 1616 1
1136 1616 1
1256 1616 1
1271 1616 1
1328 1616 1
1336 1616 1
776 1617 1
777 1617 1
1131 1617 1
1137 1617 1
1257 1617 1
1272 1617 1
1329 1617 1
1337 1617 1
777 1618 1
778 1618 1
1132 1618 1
1138 1618 1
1249 1618 1
1258 1618 1
1330 1618 1
1338 1618 1
778 1619 1
779 1619 1
1133 1619 1
1139 1619 1
1250 1619 1
1259 1619 1
1331 1619 1
1339 1619 1
779 1620 1
780 1620 1
1134 1620 1
1140 1620 1
1251 1620 1
1260 1620 1
1332 1620 1
1340 1620 1
780 1621 1
781 1621 1
1135 1621 1
1141 1621 1
1252 1621 1
1261 1621 1
1333 1621 1
1341 1621 1
781 1622 1
782 1622 1
1136 1622 1
1142 1622 1
1253 1622 1
1262 1622 1
1334 1622 1
1342 1622 1
782 1623 1
783 1623 1
1137 1623 1
1143 1623 1
1254 1623 1
1263 1623 1
1335 1623 1
1343 1623 1
783 1624 1
784 1624 1
1138 1624 1
1144 1624 1
1255 1624 1
1264 1624 1
1336 1624 1
1344 1624 1
784 1625 1
785 1625 1
1139 1625 1
1145 1625 1
1256 1625 1
1265 1625 1
1321 1625 1
1337 1625 1
785 1626 1
786 1626 1
1140 1626 1
1146 1626 1
1257 1626 1
1266 1626 1
1322 1626 1
1338 1626 1
786 1627 1
787 1627 1
1141 1627 1
1147 1627 1
1258 1627 1
1267 1627 1
1323 1627 1
1339 1627 1
787 1628 1
788 1628 1
1142 1628 1
1148 1628 1
1259 1628 1
1268 1628 1
1324 1628 1
1340 1628 1
788 1629 1
789 1629 1
1143 1629 1
1149 1629 1
1260 1629 1
1269 1629 1
1325 1629 1
1341 1629 1
789 1630 1
790 1630 1
1144 1630 1
1150 1630 1
1261 1630 1
1270 1630 1
1326 1630 1
1342 1630 1
790 1631 1
791 1631 1
1145 1631 1
1151 1631 1
1262 1631 1
1271 1631 1
1327 1631 1
1343 1631 1
791 1632 1
792 1632 1
1146 1632 1
1152 1632 1
1263 1632 1
1272 1632 1
1328 1632 1
1344 1632 1
793 1633 1
816 1633 1
1153 1633 1
1171 1633 1
1273 1633 1
1288 1633 1
1321 1633 1
1330 1633 1
793 1634 1
794 1634 1
1154 1634 1
1172 1634 1
1274 1634 1
1289 1634 1
1322 1634 1
1331 1634 1
794 1635 1
795 1635 1
1155 1635 1
1173 1635 1
1275 1635 1
1290 1635 1
1323 1635 1
1332 1635 1
795 1636 1
796 1636 1
1156 1636 1
1174 1636 1
1276 1636 1
1291 1636 1
1324 1636 1
1333 1636 1
796 1637 1
797 1637 1
1157 1637 1
1175 1637 1
1277 1637 1
1292 1637 1
1325 1637 1
1334 1637 1
797 1638 1
798 1638 1
1158 1638 1
1176 1638 1
1278 1638 1
1293 1638 1
1326 1638 1
1335 1638 1
798 1639 1
799 1639 1
1153 1639 1
1159 1639 1
1279 1639 1
1294 1639 1
1327 1639 1
1336 1639 1
799 1640 1
800 1640 1
1154 1640 1
1160 1640 1
1280 1640 1
1295 1640 1
1328 1640 1
1337 1640 1
800 1641 1
801 1641 1
1155 1641 1
1161 1641 1
1281 1641 1
1296 1641 1
1329 1641 1
1338 1641 1
801 1642 1
802 1642 1
1156 1642 1
1162 1642 1
1273 1642 1
1282 1642 1
1330 1642 1
1339 1642 1
802 1643 1
803 1643 1
1157 1643 1
1163 1643 1
1274 1643 1
1283 1643 1
1331 1643 1
1340 1643 1
803 1644 1
804 1644 1
1158 1644 1
1164 1644 1
1275 1644 1
1284 1644 1
1332 1644 1
1341 1644 1
804 1645 1
805 1645 1
1159 1645 1
1165 1645 1
1276 1645 1
1285 1645 1
1333 1645 1
1342 1645 1
805 1646 1
806 1646 1
1160 1646 1
1166 1646 1
1277 1646 1
1286 1646 1
1334 1646 1
1343 1646 1
806 1647 1
807 1647 1
1161 1647 1
1167 1647 1
1278 1647 1
1287 1647 1
1335 1647 1
1344 1647 1
807 1648 1
808 1648 1
1162 1648 1
1168 1648 1
1279 1648 1
1288 1648 1
1321 1648 1
1336 1648 1
808 1649 1
809 1649 1
1163 1649 1
1169 1649 1
1280 1649 1
1289 1649 1
1322 1649 1
1337 1649 1
809 1650 1
810 1650 1
1164 1650 1
1170 1650 1
1281 1650 1
1290 1650 1
1323 1650 1
1338 1650 1
810 1651 1
811 1651 1
1165 1651 1
1171 1651 1
1282 1651 1
1291 1651 1
1324 1651 1
1339 1651 1
811 1652 1
812 1652 1
1166 1652 1
1172 1652 1
1283 1652 1
1292 1652 1
1325 1652 1
1340 1652 1
812 1653 1
813 1653 1
1167 1653 1
1173 1653 1
1284 1653 1
1293 1653 1
1326 1653 1
1341 1653 1
813 1654 1
814 1654 1
1168 1654 1
1174 1654 1
1285 1654 1
1294 1654 1
1327 1654 1
1342 1654 1
814 1655 1
815 1655 1
1169 1655 1
1175 1655 1
1286 1655 1
1295 1655 1
1328 1655 1
1343 1655 1
815 1656 1
816 1656 1
1170 1656 1
1176 1656 1
1287 1656 1
1296 1656 1
1329 1656 1
1344 1656 1
817 1657 1
840 1657 1
1177 1657 1
1195 1657 1
1297 1657 1
1312 1657 1
1321 1657 1
1332 1657 1
817 1658 1
818 1658 1
1178 1658 1
1196 1658 1
1298 1658 1
1313 1658 1
1322 1658 1
1333 1658 1
818 1659 1
819 1659 1
1179 1659 1
1197 1659 1
1299 1659 1
1314 1659 1
1323 1659 1
1334 1659 1
819 1660 1
820 1660 1
1180 1660 1
1198 1660 1
1300 1660 1
1315 1660 1
1324 1660 1
1335 1660 1
820 1661 1
821 1661 1
1181 1661 1
1199 1661 1
1301 1661 1
1316 1661 1
1325 1661 1
1336 1661 1
821 1662 1
822 1662 1
1182 1662 1
1200 1662 1
1302 1662 1
1317 1662 1
1326 1662 1
1337 1662 1
822 1663 1
823 1663 1
1177 1663 1
1183 1663 1
1303 1663 1
1318 1663 1
1327 1663 1
1338 1663 1
823 1664 1
824 1664 1
1178 1664 1
1184 1664 1
1304 1664 1
1319 1664 1
1328 1664 1
1339 1664 1
824 1665 1
825 1665 1
1179 1665 1
1185 1665 1
1305 1665 1
1320 1665 1
1329 1665 1
1340 1665 1
825 1666 1
826 1666 1
1180 1666 1
1186 1666 1
1297 1666 1
1306 1666 1
1330 1666 1
1341 1666 1
826 1667 1
827 1667 1
1181 1667 1
1187 1667 1
1298 1667 1
1307 1667 1
1331 1667 1
1342 1667 1
827 1668 1
828 1668 1
1182 1668 1
1188 1668 1
1299 1668 1
1308 1668 1
1332 1668 1
1343 1668 1
828 1669 1
829 1669 1
1183 1669 1
1189 1669 1
1300 1669 1
1309 1669 1
1333 1669 1
1344 1669 1
829 1670 1
830 1670 1
1184 1670 1
1190 1670 1
1301 1670 1
1310 1670 1
1321 1670 1
1334 1670 1
830 1671 1
831 1671 1
1185 1671 1
1191 1671 1
1302 1671 1
1311 1671 1
1322 1671 1
1335 1671 1
831 1672 1
832 1672 1
1186 1672 1
1192 1672 1
1303 1672 1
1312 1672 1
1323 1672 1
1336 1672 1
832 1673 1
833 1673 1
1187 1673 1
1193 1673 1
1304 1673 1
1313 1673 1
1324 1673 1
1337 1673 1
833 1674 1
834 1674 1
1188 1674 1
1194 1674 1
1305 1674 1
1314 1674 1
1325 1674 1
1338 1674 1
834 1675 1
835 1675 1
1189 1675 1
1195 1675 1
1306 1675 1
1315 1675 1
1326 1675 1
1339 1675 1
835 1676 1
836 1676 1
1190 1676 1
1196 1676 1
1307 1676 1
1316 1676 1
1327 1676 1
1340 1676 1
836 1677 1
837 1677 1
1191 1677 1
1197 1677 1
1308 1677 1
1317 1677 1
1328 1677 1
1341 1677 1
837 1678 1
838 1678 1
1192 1678 1
1198 1678 1
1309 1678 1
1318 1678 1
1329 1678 1
1342 1678 1
838 1679 1
839 1679 1
1193 1679 1
1199 1679 1
1310 1679 1
1319 1679 1
1330 1679 1
1343 1679 1
839 1680 1
840 1680 1
1194 1680 1
1200 1680 1
1311 1680 1
1320 1680 1
1331 1680 1
1344 1680 1
