%%MatrixMarket matrix coordinate integer general
% Binary matrix; one-based indices; arithmetic over GF(2)
1344 1680 13440
1 1 1
14 1 1
25 1 1
34 1 1
145 1 1
151 1 1
505 1 1
506 1 1
2 2 1
15 2 1
26 2 1
35 2 1
146 2 1
152 2 1
506 2 1
507 2 1
3 3 1
16 3 1
27 3 1
36 3 1
147 3 1
153 3 1
507 3 1
508 3 1
4 4 1
17 4 1
28 4 1
37 4 1
148 4 1
154 4 1
508 4 1
509 4 1
5 5 1
18 5 1
29 5 1
38 5 1
149 5 1
155 5 1
509 5 1
510 5 1
6 6 1
19 6 1
30 6 1
39 6 1
150 6 1
156 6 1
510 6 1
511 6 1
7 7 1
20 7 1
31 7 1
40 7 1
151 7 1
157 7 1
511 7 1
512 7 1
8 8 1
21 8 1
32 8 1
41 8 1
152 8 1
158 8 1
512 8 1
513 8 1
9 9 1
22 9 1
33 9 1
42 9 1
153 9 1
159 9 1
513 9 1
514 9 1
10 10 1
23 10 1
34 10 1
43 10 1
154 10 1
160 10 1
514 10 1
515 10 1
11 11 1
24 11 1
35 11 1
44 11 1
155 11 1
161 11 1
515 11 1
516 11 1
1 12 1
12 12 1
36 12 1
45 12 1
156 12 1
162 12 1
516 12 1
517 12 1
2 13 1
13 13 1
37 13 1
46 13 1
157 13 1
163 13 1
517 13 1
518 13 1
3 14 1
14 14 1
38 14 1
47 14 1
158 14 1
164 14 1
518 14 1
519 14 1
4 15 1
15 15 1
39 15 1
48 15 1
159 15 1
165 15 1
519 15 1
520 15 1
5 16 1
16 16 1
25 16 1
40 16 1
160 16 1
166 16 1
520 16 1
521 16 1
6 17 1
17 17 1
26 17 1
41 17 1
161 17 1
167 17 1
521 17 1
522 17 1
7 18 1
18 18 1
27 18 1
42 18 1
162 18 1
168 18 1
522 18 1
523 18 1
8 19 1
19 19 1
28 19 1
43 19 1
145 19 1
163 19 1
523 19 1
524 19 1
9 20 1
20 20 1
29 20 1
44 20 1
146 20 1
164 20 1
524 20 1
525 20 1
10 21 1
21 21 1
30 21 1
45 21 1
147 21 1
165 21 1
525 21 1
526 21 1
11 22 1
22 22 1
31 22 1
46 22 1
148 22 1
166 22 1
526 22 1
527 22 1
12 23 1
23 23 1
32 23 1
47 23 1
149 23 1
167 23 1
527 23 1
528 23 1
13 24 1
24 24 1
33 24 1
48 24 1
150 24 1
168 24 1
505 24 1
528 24 1
1 25 1
16 25 1
49 25 1
58 25 1
169 25 1
175 25 1
529 25 1
530 25 1
2 26 1
17 26 1
50 26 1
59 26 1
170 26 1
176 26 1
530 26 1
531 26 1
3 27 1
18 27 1
51 27 1
60 27 1
171 27 1
177 27 1
531 27 1
532 27 1
4 28 1
19 28 1
52 28 1
61 28 1
172 28 1
178 28 1
532 28 1
533 28 1
5 29 1
20 29 1
53 29 1
62 29 1
173 29 1
179 29 1
533 29 1
534 29 1
6 30 1
21 30 1
54 30 1
63 30 1
174 30 1
180 30 1
534 30 1
535 30 1
7 31 1
22 31 1
55 31 1
64 31 1
175 31 1
181 31 1
535 31 1
536 31 1
8 32 1
23 32 1
56 32 1
65 32 1
176 32 1
182 32 1
536 32 1
537 32 1
9 33 1
24 33 1
57 33 1
66 33 1
177 33 1
183 33 1
537 33 1
538 33 1
1 34 1
10 34 1
58 34 1
67 34 1
178 34 1
184 34 1
538 34 1
539 34 1
2 35 1
11 35 1
59 35 1
68 35 1
179 35 1
185 35 1
539 35 1
540 35 1
3 36 1
12 36 1
60 36 1
69 36 1
180 36 1
186 36 1
540 36 1
541 36 1
4 37 1
13 37 1
61 37 1
70 37 1
181 37 1
187 37 1
541 37 1
542 37 1
5 38 1
14 38 1
62 38 1
71 38 1
182 38 1
188 38 1
542 38 1
543 38 1
6 39 1
15 39 1
63 39 1
72 39 1
183 39 1
189 39 1
543 39 1
544 39 1
7 40 1
16 40 1
49 40 1
64 40 1
184 40 1
190 40 1
544 40 1
545 40 1
8 41 1
17 41 1
50 41 1
65 41 1
185 41 1
191 41 1
545 41 1
546 41 1
9 42 1
18 42 1
51 42 1
66 42 1
186 42 1
192 42 1
546 42 1
547 42 1
10 43 1
19 43 1
52 43 1
67 43 1
169 43 1
187 43 1
547 43 1
548 43 1
11 44 1
20 44 1
53 44 1
68 44 1
170 44 1
188 44 1
548 44 1
549 44 1
12 45 1
21 45 1
54 45 1
69 45 1
171 45 1
189 45 1
549 45 1
550 45 1
13 46 1
22 46 1
55 46 1
70 46 1
172 46 1
190 46 1
550 46 1
551 46 1
14 47 1
23 47 1
56 47 1
71 47 1
173 47 1
191 47 1
551 47 1
552 47 1
15 48 1
24 48 1
57 48 1
72 48 1
174 48 1
192 48 1
529 48 1
552 48 1
1 49 1
17 49 1
73 49 1
82 49 1
193 49 1
199 49 1
553 49 1
554 49 1
2 50 1
18 50 1
74 50 1
83 50 1
194 50 1
200 50 1
554 50 1
555 50 1
3 51 1
19 51 1
75 51 1
84 51 1
195 51 1
201 51 1
555 51 1
556 51 1
4 52 1
20 52 1
76 52 1
85 52 1
196 52 1
202 52 1
556 52 1
557 52 1
5 53 1
21 53 1
77 53 1
86 53 1
197 53 1
203 53 1
557 53 1
558 53 1
6 54 1
22 54 1
78 54 1
87 54 1
198 54 1
204 54 1
558 54 1
559 54 1
7 55 1
23 55 1
79 55 1
88 55 1
199 55 1
205 55 1
559 55 1
560 55 1
8 56 1
24 56 1
80 56 1
89 56 1
200 56 1
206 56 1
560 56 1
561 56 1
1 57 1
9 57 1
81 57 1
90 57 1
201 57 1
207 57 1
561 57 1
562 57 1
2 58 1
10 58 1
82 58 1
91 58 1
202 58 1
208 58 1
562 58 1
563 58 1
3 59 1
11 59 1
83 59 1
92 59 1
203 59 1
209 59 1
563 59 1
564 59 1
4 60 1
12 60 1
84 60 1
93 60 1
204 60 1
210 60 1
564 60 1
565 60 1
5 61 1
13 61 1
85 61 1
94 61 1
205 61 1
211 61 1
565 61 1
566 61 1
6 62 1
14 62 1
86 62 1
95 62 1
206 62 1
212 62 1
566 62 1
567 62 1
7 63 1
15 63 1
87 63 1
96 63 1
207 63 1
213 63 1
567 63 1
568 63 1
8 64 1
16 64 1
73 64 1
88 64 1
208 64 1
214 64 1
568 64 1
569 64 1
9 65 1
17 65 1
74 65 1
89 65 1
209 65 1
215 65 1
569 65 1
570 65 1
10 66 1
18 66 1
75 66 1
90 66 1
210 66 1
216 66 1
570 66 1
571 66 1
11 67 1
19 67 1
76 67 1
91 67 1
193 67 1
211 67 1
571 67 1
572 67 1
12 68 1
20 68 1
77 68 1
92 68 1
194 68 1
212 68 1
572 68 1
573 68 1
13 69 1
21 69 1
78 69 1
93 69 1
195 69 1
213 69 1
573 69 1
574 69 1
14 70 1
22 70 1
79 70 1
94 70 1
196 70 1
214 70 1
574 70 1
575 70 1
15 71 1
23 71 1
80 71 1
95 71 1
197 71 1
215 71 1
575 71 1
576 71 1
16 72 1
24 72 1
81 72 1
96 72 1
198 72 1
216 72 1
553 72 1
576 72 1
1 73 1
20 73 1
97 73 1
106 73 1
217 73 1
223 73 1
577 73 1
578 73 1
2 74 1
21 74 1
98 74 1
107 74 1
218 74 1
224 74 1
578 74 1
579 74 1
3 75 1
22 75 1
99 75 1
108 75 1
219 75 1
225 75 1
579 75 1
580 75 1
4 76 1
23 76 1
100 76 1
109 76 1
220 76 1
226 76 1
580 76 1
581 76 1
5 77 1
24 77 1
101 77 1
110 77 1
221 77 1
227 77 1
581 77 1
582 77 1
1 78 1
6 78 1
102 78 1
111 78 1
222 78 1
228 78 1
582 78 1
583 78 1
2 79 1
7 79 1
103 79 1
112 79 1
223 79 1
229 79 1
583 79 1
584 79 1
3 80 1
8 80 1
104 80 1
113 80 1
224 80 1
230 80 1
584 80 1
585 80 1
4 81 1
9 81 1
105 81 1
114 81 1
225 81 1
231 81 1
585 81 1
586 81 1
5 82 1
10 82 1
106 82 1
115 82 1
226 82 1
232 82 1
586 82 1
587 82 1
6 83 1
11 83 1
107 83 1
116 83 1
227 83 1
233 83 1
587 83 1
588 83 1
7 84 1
12 84 1
108 84 1
117 84 1
228 84 1
234 84 1
588 84 1
589 84 1
8 85 1
13 85 1
109 85 1
118 85 1
229 85 1
235 85 1
589 85 1
590 85 1
9 86 1
14 86 1
110 86 1
119 86 1
230 86 1
236 86 1
590 86 1
591 86 1
10 87 1
15 87 1
111 87 1
120 87 1
231 87 1
237 87 1
591 87 1
592 87 1
11 88 1
16 88 1
97 88 1
112 88 1
232 88 1
238 88 1
592 88 1
593 88 1
12 89 1
17 89 1
98 89 1
113 89 1
233 89 1
239 89 1
593 89 1
594 89 1
13 90 1
18 90 1
99 90 1
114 90 1
234 90 1
240 90 1
594 90 1
595 90 1
14 91 1
19 91 1
100 91 1
115 91 1
217 91 1
235 91 1
595 91 1
596 91 1
15 92 1
20 92 1
101 92 1
116 92 1
218 92 1
236 92 1
596 92 1
597 92 1
16 93 1
21 93 1
102 93 1
117 93 1
219 93 1
237 93 1
597 93 1
598 93 1
17 94 1
22 94 1
103 94 1
118 94 1
220 94 1
238 94 1
598 94 1
599 94 1
18 95 1
23 95 1
104 95 1
119 95 1
221 95 1
239 95 1
599 95 1
600 95 1
19 96 1
24 96 1
105 96 1
120 96 1
222 96 1
240 96 1
577 96 1
600 96 1
1 97 1
23 97 1
121 97 1
130 97 1
241 97 1
247 97 1
601 97 1
602 97 1
2 98 1
24 98 1
122 98 1
131 98 1
242 98 1
248 98 1
602 98 1
603 98 1
1 99 1
3 99 1
123 99 1
132 99 1
243 99 1
249 99 1
603 99 1
604 99 1
2 100 1
4 100 1
124 100 1
133 100 1
244 100 1
250 100 1
604 100 1
605 100 1
3 101 1
5 101 1
125 101 1
134 101 1
245 101 1
251 101 1
605 101 1
606 101 1
4 102 1
6 102 1
126 102 1
135 102 1
246 102 1
252 102 1
606 102 1
607 102 1
5 103 1
7 103 1
127 103 1
136 103 1
247 103 1
253 103 1
607 103 1
608 103 1
6 104 1
8 104 1
128 104 1
137 104 1
248 104 1
254 104 1
608 104 1
609 104 1
7 105 1
9 105 1
129 105 1
138 105 1
249 105 1
255 105 1
609 105 1
610 105 1
8 106 1
10 106 1
130 106 1
139 106 1
250 106 1
256 106 1
610 106 1
611 106 1
9 107 1
11 107 1
131 107 1
140 107 1
251 107 1
257 107 1
611 107 1
612 107 1
10 108 1
12 108 1
132 108 1
141 108 1
252 108 1
258 108 1
612 108 1
613 108 1
11 109 1
13 109 1
133 109 1
142 109 1
253 109 1
259 109 1
613 109 1
614 109 1
12 110 1
14 110 1
134 110 1
143 110 1
254 110 1
260 110 1
614 110 1
615 110 1
13 111 1
15 111 1
135 111 1
144 111 1
255 111 1
261 111 1
615 111 1
616 111 1
14 112 1
16 112 1
121 112 1
136 112 1
256 112 1
262 112 1
616 112 1
617 112 1
15 113 1
17 113 1
122 113 1
137 113 1
257 113 1
263 113 1
617 113 1
618 113 1
16 114 1
18 114 1
123 114 1
138 114 1
258 114 1
264 114 1
618 114 1
619 114 1
17 115 1
19 115 1
124 115 1
139 115 1
241 115 1
259 115 1
619 115 1
620 115 1
18 116 1
20 116 1
125 116 1
140 116 1
242 116 1
260 116 1
620 116 1
621 116 1
19 117 1
21 117 1
126 117 1
141 117 1
243 117 1
261 117 1
621 117 1
622 117 1
20 118 1
22 118 1
127 118 1
142 118 1
244 118 1
262 118 1
622 118 1
623 118 1
21 119 1
23 119 1
128 119 1
143 119 1
245 119 1
263 119 1
623 119 1
624 119 1
22 120 1
24 120 1
129 120 1
144 120 1
246 120 1
264 120 1
601 120 1
624 120 1
25 121 1
40 121 1
49 121 1
62 121 1
265 121 1
271 121 1
625 121 1
626 121 1
26 122 1
41 122 1
50 122 1
63 122 1
266 122 1
272 122 1
626 122 1
627 122 1
27 123 1
42 123 1
51 123 1
64 123 1
267 123 1
273 123 1
627 123 1
628 123 1
28 124 1
43 124 1
52 124 1
65 124 1
268 124 1
274 124 1
628 124 1
629 124 1
29 125 1
44 125 1
53 125 1
66 125 1
269 125 1
275 125 1
629 125 1
630 125 1
30 126 1
45 126 1
54 126 1
67 126 1
270 126 1
276 126 1
630 126 1
631 126 1
31 127 1
46 127 1
55 127 1
68 127 1
271 127 1
277 127 1
631 127 1
632 127 1
32 128 1
47 128 1
56 128 1
69 128 1
272 128 1
278 128 1
632 128 1
633 128 1
33 129 1
48 129 1
57 129 1
70 129 1
273 129 1
279 129 1
633 129 1
634 129 1
25 130 1
34 130 1
58 130 1
71 130 1
274 130 1
280 130 1
634 130 1
635 130 1
26 131 1
35 131 1
59 131 1
72 131 1
275 131 1
281 131 1
635 131 1
636 131 1
27 132 1
36 132 1
49 132 1
60 132 1
276 132 1
282 132 1
636 132 1
637 132 1
28 133 1
37 133 1
50 133 1
61 133 1
277 133 1
283 133 1
637 133 1
638 133 1
29 134 1
38 134 1
51 134 1
62 134 1
278 134 1
284 134 1
638 134 1
639 134 1
30 135 1
39 135 1
52 135 1
63 135 1
279 135 1
285 135 1
639 135 1
640 135 1
31 136 1
40 136 1
53 136 1
64 136 1
280 136 1
286 136 1
640 136 1
641 136 1
32 137 1
41 137 1
54 137 1
65 137 1
281 137 1
287 137 1
641 137 1
642 137 1
33 138 1
42 138 1
55 138 1
66 138 1
282 138 1
288 138 1
642 138 1
643 138 1
34 139 1
43 139 1
56 139 1
67 139 1
265 139 1
283 139 1
643 139 1
644 139 1
35 140 1
44 140 1
57 140 1
68 140 1
266 140 1
284 140 1
644 140 1
645 140 1
36 141 1
45 141 1
58 141 1
69 141 1
267 141 1
285 141 1
645 141 1
646 141 1
37 142 1
46 142 1
59 142 1
70 142 1
268 142 1
286 142 1
646 142 1
647 142 1
38 143 1
47 143 1
60 143 1
71 143 1
269 143 1
287 143 1
647 143 1
648 143 1
39 144 1
48 144 1
61 144 1
72 144 1
270 144 1
288 144 1
625 144 1
648 144 1
25 145 1
41 145 1
73 145 1
86 145 1
289 145 1
295 145 1
649 145 1
650 145 1
26 146 1
42 146 1
74 146 1
87 146 1
290 146 1
296 146 1
650 146 1
651 146 1
27 147 1
43 147 1
75 147 1
88 147 1
291 147 1
297 147 1
651 147 1
652 147 1
28 148 1
44 148 1
76 148 1
89 148 1
292 148 1
298 148 1
652 148 1
653 148 1
29 149 1
45 149 1
77 149 1
90 149 1
293 149 1
299 149 1
653 149 1
654 149 1
30 150 1
46 150 1
78 150 1
91 150 1
294 150 1
300 150 1
654 150 1
655 150 1
31 151 1
47 151 1
79 151 1
92 151 1
295 151 1
301 151 1
655 151 1
656 151 1
32 152 1
48 152 1
80 152 1
93 152 1
296 152 1
302 152 1
656 152 1
657 152 1
25 153 1
33 153 1
81 153 1
94 153 1
297 153 1
303 153 1
657 153 1
658 153 1
26 154 1
34 154 1
82 154 1
95 154 1
298 154 1
304 154 1
658 154 1
659 154 1
27 155 1
35 155 1
83 155 1
96 155 1
299 155 1
305 155 1
659 155 1
660 155 1
28 156 1
36 156 1
73 156 1
84 156 1
300 156 1
306 156 1
660 156 1
661 156 1
29 157 1
37 157 1
74 157 1
85 157 1
301 157 1
307 157 1
661 157 1
662 157 1
30 158 1
38 158 1
75 158 1
86 158 1
302 158 1
308 158 1
662 158 1
663 158 1
31 159 1
39 159 1
76 159 1
87 159 1
303 159 1
309 159 1
663 159 1
664 159 1
32 160 1
40 160 1
77 160 1
88 160 1
304 160 1
310 160 1
664 160 1
665 160 1
33 161 1
41 161 1
78 161 1
89 161 1
305 161 1
311 161 1
665 161 1
666 161 1
34 162 1
42 162 1
79 162 1
90 162 1
306 162 1
312 162 1
666 162 1
667 162 1
35 163 1
43 163 1
80 163 1
91 163 1
289 163 1
307 163 1
667 163 1
668 163 1
36 164 1
44 164 1
81 164 1
92 164 1
290 164 1
308 164 1
668 164 1
669 164 1
37 165 1
45 165 1
82 165 1
93 165 1
291 165 1
309 165 1
669 165 1
670 165 1
38 166 1
46 166 1
83 166 1
94 166 1
292 166 1
310 166 1
670 166 1
671 166 1
39 167 1
47 167 1
84 167 1
95 167 1
293 167 1
311 167 1
671 167 1
672 167 1
40 168 1
48 168 1
85 168 1
96 168 1
294 168 1
312 168 1
649 168 1
672 168 1
25 169 1
44 169 1
97 169 1
110 169 1
313 169 1
319 169 1
673 169 1
674 169 1
26 170 1
45 170 1
98 170 1
111 170 1
314 170 1
320 170 1
674 170 1
675 170 1
27 171 1
46 171 1
99 171 1
112 171 1
315 171 1
321 171 1
675 171 1
676 171 1
28 172 1
47 172 1
100 172 1
113 172 1
316 172 1
322 172 1
676 172 1
677 172 1
29 173 1
48 173 1
101 173 1
114 173 1
317 173 1
323 173 1
677 173 1
678 173 1
25 174 1
30 174 1
102 174 1
115 174 1
318 174 1
324 174 1
678 174 1
679 174 1
26 175 1
31 175 1
103 175 1
116 175 1
319 175 1
325 175 1
679 175 1
680 175 1
27 176 1
32 176 1
104 176 1
117 176 1
320 176 1
326 176 1
680 176 1
681 176 1
28 177 1
33 177 1
105 177 1
118 177 1
321 177 1
327 177 1
681 177 1
682 177 1
29 178 1
34 178 1
106 178 1
119 178 1
322 178 1
328 178 1
682 178 1
683 178 1
30 179 1
35 179 1
107 179 1
120 179 1
323 179 1
329 179 1
683 179 1
684 179 1
31 180 1
36 180 1
97 180 1
108 180 1
324 180 1
330 180 1
684 180 1
685 180 1
32 181 1
37 181 1
98 181 1
109 181 1
325 181 1
331 181 1
685 181 1
686 181 1
33 182 1
38 182 1
99 182 1
110 182 1
326 182 1
332 182 1
686 182 1
687 182 1
34 183 1
39 183 1
100 183 1
111 183 1
327 183 1
333 183 1
687 183 1
688 183 1
35 184 1
40 184 1
101 184 1
112 184 1
328 184 1
334 184 1
688 184 1
689 184 1
36 185 1
41 185 1
102 185 1
113 185 1
329 185 1
335 185 1
689 185 1
690 185 1
37 186 1
42 186 1
103 186 1
114 186 1
330 186 1
336 186 1
690 186 1
691 186 1
38 187 1
43 187 1
104 187 1
115 187 1
313 187 1
331 187 1
691 187 1
692 187 1
39 188 1
44 188 1
105 188 1
116 188 1
314 188 1
332 188 1
692 188 1
693 188 1
40 189 1
45 189 1
106 189 1
117 189 1
315 189 1
333 189 1
693 189 1
694 189 1
41 190 1
46 190 1
107 190 1
118 190 1
316 190 1
334 190 1
694 190 1
695 190 1
42 191 1
47 191 1
108 191 1
119 191 1
317 191 1
335 191 1
695 191 1
696 191 1
43 192 1
48 192 1
109 192 1
120 192 1
318 192 1
336 192 1
673 192 1
696 192 1
25 193 1
47 193 1
121 193 1
134 193 1
337 193 1
343 193 1
697 193 1
698 193 1
26 194 1
48 194 1
122 194 1
135 194 1
338 194 1
344 194 1
698 194 1
699 194 1
25 195 1
27 195 1
123 195 1
136 195 1
339 195 1
345 195 1
699 195 1
700 195 1
26 196 1
28 196 1
124 196 1
137 196 1
340 196 1
346 196 1
700 196 1
701 196 1
27 197 1
29 197 1
125 197 1
138 197 1
341 197 1
347 197 1
701 197 1
702 197 1
28 198 1
30 198 1
126 198 1
139 198 1
342 198 1
348 198 1
702 198 1
703 198 1
29 199 1
31 199 1
127 199 1
140 199 1
343 199 1
349 199 1
703 199 1
704 199 1
30 200 1
32 200 1
128 200 1
141 200 1
344 200 1
350 200 1
704 200 1
705 200 1
31 201 1
33 201 1
129 201 1
142 201 1
345 201 1
351 201 1
705 201 1
706 201 1
32 202 1
34 202 1
130 202 1
143 202 1
346 202 1
352 202 1
706 202 1
707 202 1
33 203 1
35 203 1
131 203 1
144 203 1
347 203 1
353 203 1
707 203 1
708 203 1
34 204 1
36 204 1
121 204 1
132 204 1
348 204 1
354 204 1
708 204 1
709 204 1
35 205 1
37 205 1
122 205 1
133 205 1
349 205 1
355 205 1
709 205 1
710 205 1
36 206 1
38 206 1
123 206 1
134 206 1
350 206 1
356 206 1
710 206 1
711 206 1
37 207 1
39 207 1
124 207 1
135 207 1
351 207 1
357 207 1
711 207 1
712 207 1
38 208 1
40 208 1
125 208 1
136 208 1
352 208 1
358 208 1
712 208 1
713 208 1
39 209 1
41 209 1
126 209 1
137 209 1
353 209 1
359 209 1
713 209 1
714 209 1
40 210 1
42 210 1
127 210 1
138 210 1
354 210 1
360 210 1
714 210 1
715 210 1
41 211 1
43 211 1
128 211 1
139 211 1
337 211 1
355 211 1
715 211 1
716 211 1
42 212 1
44 212 1
129 212 1
140 212 1
338 212 1
356 212 1
716 212 1
717 212 1
43 213 1
45 213 1
130 213 1
141 213 1
339 213 1
357 213 1
717 213 1
718 213 1
44 214 1
46 214 1
131 214 1
142 214 1
340 214 1
358 214 1
718 214 1
719 214 1
45 215 1
47 215 1
132 215 1
143 215 1
341 215 1
359 215 1
719 215 1
720 215 1
46 216 1
48 216 1
133 216 1
144 216 1
342 216 1
360 216 1
697 216 1
720 216 1
49 217 1
65 217 1
73 217 1
88 217 1
361 217 1
367 217 1
721 217 1
722 217 1
50 218 1
66 218 1
74 218 1
89 218 1
362 218 1
368 218 1
722 218 1
723 218 1
51 219 1
67 219 1
75 219 1
90 219 1
363 219 1
369 219 1
723 219 1
724 219 1
52 220 1
68 220 1
76 220 1
91 220 1
364 220 1
370 220 1
724 220 1
725 220 1
53 221 1
69 221 1
77 221 1
92 221 1
365 221 1
371 221 1
725 221 1
726 221 1
54 222 1
70 222 1
78 222 1
93 222 1
366 222 1
372 222 1
726 222 1
727 222 1
55 223 1
71 223 1
79 223 1
94 223 1
367 223 1
373 223 1
727 223 1
728 223 1
56 224 1
72 224 1
80 224 1
95 224 1
368 224 1
374 224 1
728 224 1
729 224 1
49 225 1
57 225 1
81 225 1
96 225 1
369 225 1
375 225 1
729 225 1
730 225 1
50 226 1
58 226 1
73 226 1
82 226 1
370 226 1
376 226 1
730 226 1
731 226 1
51 227 1
59 227 1
74 227 1
83 227 1
371 227 1
377 227 1
731 227 1
732 227 1
52 228 1
60 228 1
75 228 1
84 228 1
372 228 1
378 228 1
732 228 1
733 228 1
53 229 1
61 229 1
76 229 1
85 229 1
373 229 1
379 229 1
733 229 1
734 229 1
54 230 1
62 230 1
77 230 1
86 230 1
374 230 1
380 230 1
734 230 1
735 230 1
55 231 1
63 231 1
78 231 1
87 231 1
375 231 1
381 231 1
735 231 1
736 231 1
56 232 1
64 232 1
79 232 1
88 232 1
376 232 1
382 232 1
736 232 1
737 232 1
57 233 1
65 233 1
80 233 1
89 233 1
377 233 1
383 233 1
737 233 1
738 233 1
58 234 1
66 234 1
81 234 1
90 234 1
378 234 1
384 234 1
738 234 1
739 234 1
59 235 1
67 235 1
82 235 1
91 235 1
361 235 1
379 235 1
739 235 1
740 235 1
60 236 1
68 236 1
83 236 1
92 236 1
362 236 1
380 236 1
740 236 1
741 236 1
61 237 1
69 237 1
84 237 1
93 237 1
363 237 1
381 237 1
741 237 1
742 237 1
62 238 1
70 238 1
85 238 1
94 238 1
364 238 1
382 238 1
742 238 1
743 238 1
63 239 1
71 239 1
86 239 1
95 239 1
365 239 1
383 239 1
743 239 1
744 239 1
64 240 1
72 240 1
87 240 1
96 240 1
366 240 1
384 240 1
721 240 1
744 240 1
49 241 1
68 241 1
97 241 1
112 241 1
385 241 1
391 241 1
745 241 1
746 241 1
50 242 1
69 242 1
98 242 1
113 242 1
386 242 1
392 242 1
746 242 1
747 242 1
51 243 1
70 243 1
99 243 1
114 243 1
387 243 1
393 243 1
747 243 1
748 243 1
52 244 1
71 244 1
100 244 1
115 244 1
388 244 1
394 244 1
748 244 1
749 244 1
53 245 1
72 245 1
101 245 1
116 245 1
389 245 1
395 245 1
749 245 1
750 245 1
49 246 1
54 246 1
102 246 1
117 246 1
390 246 1
396 246 1
750 246 1
751 246 1
50 247 1
55 247 1
103 247 1
118 247 1
391 247 1
397 247 1
751 247 1
752 247 1
51 248 1
56 248 1
104 248 1
119 248 1
392 248 1
398 248 1
752 248 1
753 248 1
52 249 1
57 249 1
105 249 1
120 249 1
393 249 1
399 249 1
753 249 1
754 249 1
53 250 1
58 250 1
97 250 1
106 250 1
394 250 1
400 250 1
754 250 1
755 250 1
54 251 1
59 251 1
98 251 1
107 251 1
395 251 1
401 251 1
755 251 1
756 251 1
55 252 1
60 252 1
99 252 1
108 252 1
396 252 1
402 252 1
756 252 1
757 252 1
56 253 1
61 253 1
100 253 1
109 253 1
397 253 1
403 253 1
757 253 1
758 253 1
57 254 1
62 254 1
101 254 1
110 254 1
398 254 1
404 254 1
758 254 1
759 254 1
58 255 1
63 255 1
102 255 1
111 255 1
399 255 1
405 255 1
759 255 1
760 255 1
59 256 1
64 256 1
103 256 1
112 256 1
400 256 1
406 256 1
760 256 1
761 256 1
60 257 1
65 257 1
104 257 1
113 257 1
401 257 1
407 257 1
761 257 1
762 257 1
61 258 1
66 258 1
105 258 1
114 258 1
402 258 1
408 258 1
762 258 1
763 258 1
62 259 1
67 259 1
106 259 1
115 259 1
385 259 1
403 259 1
763 259 1
764 259 1
63 260 1
68 260 1
107 260 1
116 260 1
386 260 1
404 260 1
764 260 1
765 260 1
64 261 1
69 261 1
108 261 1
117 261 1
387 261 1
405 261 1
765 261 1
766 261 1
65 262 1
70 262 1
109 262 1
118 262 1
388 262 1
406 262 1
766 262 1
767 262 1
66 263 1
71 263 1
110 263 1
119 263 1
389 263 1
407 263 1
767 263 1
768 263 1
67 264 1
72 264 1
111 264 1
120 264 1
390 264 1
408 264 1
745 264 1
768 264 1
49 265 1
71 265 1
121 265 1
136 265 1
409 265 1
415 265 1
769 265 1
770 265 1
50 266 1
72 266 1
122 266 1
137 266 1
410 266 1
416 266 1
770 266 1
771 266 1
49 267 1
51 267 1
123 267 1
138 267 1
411 267 1
417 267 1
771 267 1
772 267 1
50 268 1
52 268 1
124 268 1
139 268 1
412 268 1
418 268 1
772 268 1
773 268 1
51 269 1
53 269 1
125 269 1
140 269 1
413 269 1
419 269 1
773 269 1
774 269 1
52 270 1
54 270 1
126 270 1
141 270 1
414 270 1
420 270 1
774 270 1
775 270 1
53 271 1
55 271 1
127 271 1
142 271 1
415 271 1
421 271 1
775 271 1
776 271 1
54 272 1
56 272 1
128 272 1
143 272 1
416 272 1
422 272 1
776 272 1
777 272 1
55 273 1
57 273 1
129 273 1
144 273 1
417 273 1
423 273 1
777 273 1
778 273 1
56 274 1
58 274 1
121 274 1
130 274 1
418 274 1
424 274 1
778 274 1
779 274 1
57 275 1
59 275 1
122 275 1
131 275 1
419 275 1
425 275 1
779 275 1
780 275 1
58 276 1
60 276 1
123 276 1
132 276 1
420 276 1
426 276 1
780 276 1
781 276 1
59 277 1
61 277 1
124 277 1
133 277 1
421 277 1
427 277 1
781 277 1
782 277 1
60 278 1
62 278 1
125 278 1
134 278 1
422 278 1
428 278 1
782 278 1
783 278 1
61 279 1
63 279 1
126 279 1
135 279 1
423 279 1
429 279 1
783 279 1
784 279 1
62 280 1
64 280 1
127 280 1
136 280 1
424 280 1
430 280 1
784 280 1
785 280 1
63 281 1
65 281 1
128 281 1
137 281 1
425 281 1
431 281 1
785 281 1
786 281 1
64 282 1
66 282 1
129 282 1
138 282 1
426 282 1
432 282 1
786 282 1
787 282 1
65 283 1
67 283 1
130 283 1
139 283 1
409 283 1
427 283 1
787 283 1
788 283 1
66 284 1
68 284 1
131 284 1
140 284 1
410 284 1
428 284 1
788 284 1
789 284 1
67 285 1
69 285 1
132 285 1
141 285 1
411 285 1
429 285 1
789 285 1
790 285 1
68 286 1
70 286 1
133 286 1
142 286 1
412 286 1
430 286 1
790 286 1
791 286 1
69 287 1
71 287 1
134 287 1
143 287 1
413 287 1
431 287 1
791 287 1
792 287 1
70 288 1
72 288 1
135 288 1
144 288 1
414 288 1
432 288 1
769 288 1
792 288 1
73 289 1
92 289 1
97 289 1
113 289 1
433 289 1
439 289 1
793 289 1
794 289 1
74 290 1
93 290 1
98 290 1
114 290 1
434 290 1
440 290 1
794 290 1
795 290 1
75 291 1
94 291 1
99 291 1
115 291 1
435 291 1
441 291 1
795 291 1
796 291 1
76 292 1
95 292 1
100 292 1
116 292 1
436 292 1
442 292 1
796 292 1
797 292 1
77 293 1
96 293 1
101 293 1
117 293 1
437 293 1
443 293 1
797 293 1
798 293 1
73 294 1
78 294 1
102 294 1
118 294 1
438 294 1
444 294 1
798 294 1
799 294 1
74 295 1
79 295 1
103 295 1
119 295 1
439 295 1
445 295 1
799 295 1
800 295 1
75 296 1
80 296 1
104 296 1
120 296 1
440 296 1
446 296 1
800 296 1
801 296 1
76 297 1
81 297 1
97 297 1
105 297 1
441 297 1
447 297 1
801 297 1
802 297 1
77 298 1
82 298 1
98 298 1
106 298 1
442 298 1
448 298 1
802 298 1
803 298 1
78 299 1
83 299 1
99 299 1
107 299 1
443 299 1
449 299 1
803 299 1
804 299 1
79 300 1
84 300 1
100 300 1
108 300 1
444 300 1
450 300 1
804 300 1
805 300 1
80 301 1
85 301 1
101 301 1
109 301 1
445 301 1
451 301 1
805 301 1
806 301 1
81 302 1
86 302 1
102 302 1
110 302 1
446 302 1
452 302 1
806 302 1
807 302 1
82 303 1
87 303 1
103 303 1
111 303 1
447 303 1
453 303 1
807 303 1
808 303 1
83 304 1
88 304 1
104 304 1
112 304 1
448 304 1
454 304 1
808 304 1
809 304 1
84 305 1
89 305 1
105 305 1
113 305 1
449 305 1
455 305 1
809 305 1
810 305 1
85 306 1
90 306 1
106 306 1
114 306 1
450 306 1
456 306 1
810 306 1
811 306 1
86 307 1
91 307 1
107 307 1
115 307 1
433 307 1
451 307 1
811 307 1
812 307 1
87 308 1
92 308 1
108 308 1
116 308 1
434 308 1
452 308 1
812 308 1
813 308 1
88 309 1
93 309 1
109 309 1
117 309 1
435 309 1
453 309 1
813 309 1
814 309 1
89 310 1
94 310 1
110 310 1
118 310 1
436 310 1
454 310 1
814 310 1
815 310 1
90 311 1
95 311 1
111 311 1
119 311 1
437 311 1
455 311 1
815 311 1
816 311 1
91 312 1
96 312 1
112 312 1
120 312 1
438 312 1
456 312 1
793 312 1
816 312 1
73 313 1
95 313 1
121 313 1
137 313 1
457 313 1
463 313 1
817 313 1
818 313 1
74 314 1
96 314 1
122 314 1
138 314 1
458 314 1
464 314 1
818 314 1
819 314 1
73 315 1
75 315 1
123 315 1
139 315 1
459 315 1
465 315 1
819 315 1
820 315 1
74 316 1
76 316 1
124 316 1
140 316 1
460 316 1
466 316 1
820 316 1
821 316 1
75 317 1
77 317 1
125 317 1
141 317 1
461 317 1
467 317 1
821 317 1
822 317 1
76 318 1
78 318 1
126 318 1
142 318 1
462 318 1
468 318 1
822 318 1
823 318 1
77 319 1
79 319 1
127 319 1
143 319 1
463 319 1
469 319 1
823 319 1
824 319 1
78 320 1
80 320 1
128 320 1
144 320 1
464 320 1
470 320 1
824 320 1
825 320 1
79 321 1
81 321 1
121 321 1
129 321 1
465 321 1
471 321 1
825 321 1
826 321 1
80 322 1
82 322 1
122 322 1
130 322 1
466 322 1
472 322 1
826 322 1
827 322 1
81 323 1
83 323 1
123 323 1
131 323 1
467 323 1
473 323 1
827 323 1
828 323 1
82 324 1
84 324 1
124 324 1
132 324 1
468 324 1
474 324 1
828 324 1
829 324 1
83 325 1
85 325 1
125 325 1
133 325 1
469 325 1
475 325 1
829 325 1
830 325 1
84 326 1
86 326 1
126 326 1
134 326 1
470 326 1
476 326 1
830 326 1
831 326 1
85 327 1
87 327 1
127 327 1
135 327 1
471 327 1
477 327 1
831 327 1
832 327 1
86 328 1
88 328 1
128 328 1
136 328 1
472 328 1
478 328 1
832 328 1
833 328 1
87 329 1
89 329 1
129 329 1
137 329 1
473 329 1
479 329 1
833 329 1
834 329 1
88 330 1
90 330 1
130 330 1
138 330 1
474 330 1
480 330 1
834 330 1
835 330 1
89 331 1
91 331 1
131 331 1
139 331 1
457 331 1
475 331 1
835 331 1
836 331 1
90 332 1
92 332 1
132 332 1
140 332 1
458 332 1
476 332 1
836 332 1
837 332 1
91 333 1
93 333 1
133 333 1
141 333 1
459 333 1
477 333 1
837 333 1
838 333 1
92 334 1
94 334 1
134 334 1
142 334 1
460 334 1
478 334 1
838 334 1
839 334 1
93 335 1
95 335 1
135 335 1
143 335 1
461 335 1
479 335 1
839 335 1
840 335 1
94 336 1
96 336 1
136 336 1
144 336 1
462 336 1
480 336 1
817 336 1
840 336 1
97 337 1
119 337 1
121 337 1
140 337 1
481 337 1
487 337 1
841 337 1
842 337 1
98 338 1
120 338 1
122 338 1
141 338 1
482 338 1
488 338 1
842 338 1
843 338 1
97 339 1
99 339 1
123 339 1
142 339 1
483 339 1
489 339 1
843 339 1
844 339 1
98 340 1
100 340 1
124 340 1
143 340 1
484 340 1
490 340 1
844 340 1
845 340 1
99 341 1
101 341 1
125 341 1
144 341 1
485 341 1
491 341 1
845 341 1
846 341 1
100 342 1
102 342 1
121 342 1
126 342 1
486 342 1
492 342 1
846 342 1
847 342 1
101 343 1
103 343 1
122 343 1
127 343 1
487 343 1
493 343 1
847 343 1
848 343 1
102 344 1
104 344 1
123 344 1
128 344 1
488 344 1
494 344 1
848 344 1
849 344 1
103 345 1
105 345 1
124 345 1
129 345 1
489 345 1
495 345 1
849 345 1
850 345 1
104 346 1
106 346 1
125 346 1
130 346 1
490 346 1
496 346 1
850 346 1
851 346 1
105 347 1
107 347 1
126 347 1
131 347 1
491 347 1
497 347 1
851 347 1
852 347 1
106 348 1
108 348 1
127 348 1
132 348 1
492 348 1
498 348 1
852 348 1
853 348 1
107 349 1
109 349 1
128 349 1
133 349 1
493 349 1
499 349 1
853 349 1
854 349 1
108 350 1
110 350 1
129 350 1
134 350 1
494 350 1
500 350 1
854 350 1
855 350 1
109 351 1
111 351 1
130 351 1
135 351 1
495 351 1
501 351 1
855 351 1
856 351 1
110 352 1
112 352 1
131 352 1
136 352 1
496 352 1
502 352 1
856 352 1
857 352 1
111 353 1
113 353 1
132 353 1
137 353 1
497 353 1
503 353 1
857 353 1
858 353 1
112 354 1
114 354 1
133 354 1
138 354 1
498 354 1
504 354 1
858 354 1
859 354 1
113 355 1
115 355 1
134 355 1
139 355 1
481 355 1
499 355 1
859 355 1
860 355 1
114 356 1
116 356 1
135 356 1
140 356 1
482 356 1
500 356 1
860 356 1
861 356 1
115 357 1
117 357 1
136 357 1
141 357 1
483 357 1
501 357 1
861 357 1
862 357 1
116 358 1
118 358 1
137 358 1
142 358 1
484 358 1
502 358 1
862 358 1
863 358 1
117 359 1
119 359 1
138 359 1
143 359 1
485 359 1
503 359 1
863 359 1
864 359 1
118 360 1
120 360 1
139 360 1
144 360 1
486 360 1
504 360 1
841 360 1
864 360 1
145 361 1
160 361 1
169 361 1
182 361 1
265 361 1
274 361 1
865 361 1
866 361 1
146 362 1
161 362 1
170 362 1
183 362 1
266 362 1
275 362 1
866 362 1
867 362 1
147 363 1
162 363 1
171 363 1
184 363 1
267 363 1
276 363 1
867 363 1
868 363 1
148 364 1
163 364 1
172 364 1
185 364 1
268 364 1
277 364 1
868 364 1
869 364 1
149 365 1
164 365 1
173 365 1
186 365 1
269 365 1
278 365 1
869 365 1
870 365 1
150 366 1
165 366 1
174 366 1
187 366 1
270 366 1
279 366 1
870 366 1
871 366 1
151 367 1
166 367 1
175 367 1
188 367 1
271 367 1
280 367 1
871 367 1
872 367 1
152 368 1
167 368 1
176 368 1
189 368 1
272 368 1
281 368 1
872 368 1
873 368 1
153 369 1
168 369 1
177 369 1
190 369 1
273 369 1
282 369 1
873 369 1
874 369 1
145 370 1
154 370 1
178 370 1
191 370 1
274 370 1
283 370 1
874 370 1
875 370 1
146 371 1
155 371 1
179 371 1
192 371 1
275 371 1
284 371 1
875 371 1
876 371 1
147 372 1
156 372 1
169 372 1
180 372 1
276 372 1
285 372 1
876 372 1
877 372 1
148 373 1
157 373 1
170 373 1
181 373 1
277 373 1
286 373 1
877 373 1
878 373 1
149 374 1
158 374 1
171 374 1
182 374 1
278 374 1
287 374 1
878 374 1
879 374 1
150 375 1
159 375 1
172 375 1
183 375 1
279 375 1
288 375 1
879 375 1
880 375 1
151 376 1
160 376 1
173 376 1
184 376 1
265 376 1
280 376 1
880 376 1
881 376 1
152 377 1
161 377 1
174 377 1
185 377 1
266 377 1
281 377 1
881 377 1
882 377 1
153 378 1
162 378 1
175 378 1
186 378 1
267 378 1
282 378 1
882 378 1
883 378 1
154 379 1
163 379 1
176 379 1
187 379 1
268 379 1
283 379 1
883 379 1
884 379 1
155 380 1
164 380 1
177 380 1
188 380 1
269 380 1
284 380 1
884 380 1
885 380 1
156 381 1
165 381 1
178 381 1
189 381 1
270 381 1
285 381 1
885 381 1
886 381 1
157 382 1
166 382 1
179 382 1
190 382 1
271 382 1
286 382 1
886 382 1
887 382 1
158 383 1
167 383 1
180 383 1
191 383 1
272 383 1
287 383 1
887 383 1
888 383 1
159 384 1
168 384 1
181 384 1
192 384 1
273 384 1
288 384 1
865 384 1
888 384 1
145 385 1
161 385 1
193 385 1
206 385 1
289 385 1
298 385 1
889 385 1
890 385 1
146 386 1
162 386 1
194 386 1
207 386 1
290 386 1
299 386 1
890 386 1
891 386 1
147 387 1
163 387 1
195 387 1
208 387 1
291 387 1
300 387 1
891 387 1
892 387 1
148 388 1
164 388 1
196 388 1
209 388 1
292 388 1
301 388 1
892 388 1
893 388 1
149 389 1
165 389 1
197 389 1
210 389 1
293 389 1
302 389 1
893 389 1
894 389 1
150 390 1
166 390 1
198 390 1
211 390 1
294 390 1
303 390 1
894 390 1
895 390 1
151 391 1
167 391 1
199 391 1
212 391 1
295 391 1
304 391 1
895 391 1
896 391 1
152 392 1
168 392 1
200 392 1
213 392 1
296 392 1
305 392 1
896 392 1
897 392 1
145 393 1
153 393 1
201 393 1
214 393 1
297 393 1
306 393 1
897 393 1
898 393 1
146 394 1
154 394 1
202 394 1
215 394 1
298 394 1
307 394 1
898 394 1
899 394 1
147 395 1
155 395 1
203 395 1
216 395 1
299 395 1
308 395 1
899 395 1
900 395 1
148 396 1
156 396 1
193 396 1
204 396 1
300 396 1
309 396 1
900 396 1
901 396 1
149 397 1
157 397 1
194 397 1
205 397 1
301 397 1
310 397 1
901 397 1
902 397 1
150 398 1
158 398 1
195 398 1
206 398 1
302 398 1
311 398 1
902 398 1
903 398 1
151 399 1
159 399 1
196 399 1
207 399 1
303 399 1
312 399 1
903 399 1
904 399 1
152 400 1
160 400 1
197 400 1
208 400 1
289 400 1
304 400 1
904 400 1
905 400 1
153 401 1
161 401 1
198 401 1
209 401 1
290 401 1
305 401 1
905 401 1
906 401 1
154 402 1
162 402 1
199 402 1
210 402 1
291 402 1
306 402 1
906 402 1
907 402 1
155 403 1
163 403 1
200 403 1
211 403 1
292 403 1
307 403 1
907 403 1
908 403 1
156 404 1
164 404 1
201 404 1
212 404 1
293 404 1
308 404 1
908 404 1
909 404 1
157 405 1
165 405 1
202 405 1
213 405 1
294 405 1
309 405 1
909 405 1
910 405 1
158 406 1
166 406 1
203 406 1
214 406 1
295 406 1
310 406 1
910 406 1
911 406 1
159 407 1
167 407 1
204 407 1
215 407 1
296 407 1
311 407 1
911 407 1
912 407 1
160 408 1
168 408 1
205 408 1
216 408 1
297 408 1
312 408 1
889 408 1
912 408 1
145 409 1
164 409 1
217 409 1
230 409 1
313 409 1
322 409 1
913 409 1
914 409 1
146 410 1
165 410 1
218 410 1
231 410 1
314 410 1
323 410 1
914 410 1
915 410 1
147 411 1
166 411 1
219 411 1
232 411 1
315 411 1
324 411 1
915 411 1
916 411 1
148 412 1
167 412 1
220 412 1
233 412 1
316 412 1
325 412 1
916 412 1
917 412 1
149 413 1
168 413 1
221 413 1
234 413 1
317 413 1
326 413 1
917 413 1
918 413 1
145 414 1
150 414 1
222 414 1
235 414 1
318 414 1
327 414 1
918 414 1
919 414 1
146 415 1
151 415 1
223 415 1
236 415 1
319 415 1
328 415 1
919 415 1
920 415 1
147 416 1
152 416 1
224 416 1
237 416 1
320 416 1
329 416 1
920 416 1
921 416 1
148 417 1
153 417 1
225 417 1
238 417 1
321 417 1
330 417 1
921 417 1
922 417 1
149 418 1
154 418 1
226 418 1
239 418 1
322 418 1
331 418 1
922 418 1
923 418 1
150 419 1
155 419 1
227 419 1
240 419 1
323 419 1
332 419 1
923 419 1
924 419 1
151 420 1
156 420 1
217 420 1
228 420 1
324 420 1
333 420 1
924 420 1
925 420 1
152 421 1
157 421 1
218 421 1
229 421 1
325 421 1
334 421 1
925 421 1
926 421 1
153 422 1
158 422 1
219 422 1
230 422 1
326 422 1
335 422 1
926 422 1
927 422 1
154 423 1
159 423 1
220 423 1
231 423 1
327 423 1
336 423 1
927 423 1
928 423 1
155 424 1
160 424 1
221 424 1
232 424 1
313 424 1
328 424 1
928 424 1
929 424 1
156 425 1
161 425 1
222 425 1
233 425 1
314 425 1
329 425 1
929 425 1
930 425 1
157 426 1
162 426 1
223 426 1
234 426 1
315 426 1
330 426 1
930 426 1
931 426 1
158 427 1
163 427 1
224 427 1
235 427 1
316 427 1
331 427 1
931 427 1
932 427 1
159 428 1
164 428 1
225 428 1
236 428 1
317 428 1
332 428 1
932 428 1
933 428 1
160 429 1
165 429 1
226 429 1
237 429 1
318 429 1
333 429 1
933 429 1
934 429 1
161 430 1
166 430 1
227 430 1
238 430 1
319 430 1
334 430 1
934 430 1
935 430 1
162 431 1
167 431 1
228 431 1
239 431 1
320 431 1
335 431 1
935 431 1
936 431 1
163 432 1
168 432 1
229 432 1
240 432 1
321 432 1
336 432 1
913 432 1
936 432 1
145 433 1
167 433 1
241 433 1
254 433 1
337 433 1
346 433 1
937 433 1
938 433 1
146 434 1
168 434 1
242 434 1
255 434 1
338 434 1
347 434 1
938 434 1
939 434 1
145 435 1
147 435 1
243 435 1
256 435 1
339 435 1
348 435 1
939 435 1
940 435 1
146 436 1
148 436 1
244 436 1
257 436 1
340 436 1
349 436 1
940 436 1
941 436 1
147 437 1
149 437 1
245 437 1
258 437 1
341 437 1
350 437 1
941 437 1
942 437 1
148 438 1
150 438 1
246 438 1
259 438 1
342 438 1
351 438 1
942 438 1
943 438 1
149 439 1
151 439 1
247 439 1
260 439 1
343 439 1
352 439 1
943 439 1
944 439 1
150 440 1
152 440 1
248 440 1
261 440 1
344 440 1
353 440 1
944 440 1
945 440 1
151 441 1
153 441 1
249 441 1
262 441 1
345 441 1
354 441 1
945 441 1
946 441 1
152 442 1
154 442 1
250 442 1
263 442 1
346 442 1
355 442 1
946 442 1
947 442 1
153 443 1
155 443 1
251 443 1
264 443 1
347 443 1
356 443 1
947 443 1
948 443 1
154 444 1
156 444 1
241 444 1
252 444 1
348 444 1
357 444 1
948 444 1
949 444 1
155 445 1
157 445 1
242 445 1
253 445 1
349 445 1
358 445 1
949 445 1
950 445 1
156 446 1
158 446 1
243 446 1
254 446 1
350 446 1
359 446 1
950 446 1
951 446 1
157 447 1
159 447 1
244 447 1
255 447 1
351 447 1
360 447 1
951 447 1
952 447 1
158 448 1
160 448 1
245 448 1
256 448 1
337 448 1
352 448 1
952 448 1
953 448 1
159 449 1
161 449 1
246 449 1
257 449 1
338 449 1
353 449 1
953 449 1
954 449 1
160 450 1
162 450 1
247 450 1
258 450 1
339 450 1
354 450 1
954 450 1
955 450 1
161 451 1
163 451 1
248 451 1
259 451 1
340 451 1
355 451 1
955 451 1
956 451 1
162 452 1
164 452 1
249 452 1
260 452 1
341 452 1
356 452 1
956 452 1
957 452 1
163 453 1
165 453 1
250 453 1
261 453 1
342 453 1
357 453 1
957 453 1
958 453 1
164 454 1
166 454 1
251 454 1
262 454 1
343 454 1
358 454 1
958 454 1
959 454 1
165 455 1
167 455 1
252 455 1
263 455 1
344 455 1
359 455 1
959 455 1
960 455 1
166 456 1
168 456 1
253 456 1
264 456 1
345 456 1
360 456 1
937 456 1
960 456 1
169 457 1
185 457 1
193 457 1
208 457 1
361 457 1
370 457 1
961 457 1
962 457 1
170 458 1
186 458 1
194 458 1
209 458 1
362 458 1
371 458 1
962 458 1
963 458 1
171 459 1
187 459 1
195 459 1
210 459 1
363 459 1
372 459 1
963 459 1
964 459 1
172 460 1
188 460 1
196 460 1
211 460 1
364 460 1
373 460 1
964 460 1
965 460 1
173 461 1
189 461 1
197 461 1
212 461 1
365 461 1
374 461 1
965 461 1
966 461 1
174 462 1
190 462 1
198 462 1
213 462 1
366 462 1
375 462 1
966 462 1
967 462 1
175 463 1
191 463 1
199 463 1
214 463 1
367 463 1
376 463 1
967 463 1
968 463 1
176 464 1
192 464 1
200 464 1
215 464 1
368 464 1
377 464 1
968 464 1
969 464 1
169 465 1
177 465 1
201 465 1
216 465 1
369 465 1
378 465 1
969 465 1
970 465 1
170 466 1
178 466 1
193 466 1
202 466 1
370 466 1
379 466 1
970 466 1
971 466 1
171 467 1
179 467 1
194 467 1
203 467 1
371 467 1
380 467 1
971 467 1
972 467 1
172 468 1
180 468 1
195 468 1
204 468 1
372 468 1
381 468 1
972 468 1
973 468 1
173 469 1
181 469 1
196 469 1
205 469 1
373 469 1
382 469 1
973 469 1
974 469 1
174 470 1
182 470 1
197 470 1
206 470 1
374 470 1
383 470 1
974 470 1
975 470 1
175 471 1
183 471 1
198 471 1
207 471 1
375 471 1
384 471 1
975 471 1
976 471 1
176 472 1
184 472 1
199 472 1
208 472 1
361 472 1
376 472 1
976 472 1
977 472 1
177 473 1
185 473 1
200 473 1
209 473 1
362 473 1
377 473 1
977 473 1
978 473 1
178 474 1
186 474 1
201 474 1
210 474 1
363 474 1
378 474 1
978 474 1
979 474 1
179 475 1
187 475 1
202 475 1
211 475 1
364 475 1
379 475 1
979 475 1
980 475 1
180 476 1
188 476 1
203 476 1
212 476 1
365 476 1
380 476 1
980 476 1
981 476 1
181 477 1
189 477 1
204 477 1
213 477 1
366 477 1
381 477 1
981 477 1
982 477 1
182 478 1
190 478 1
205 478 1
214 478 1
367 478 1
382 478 1
982 478 1
983 478 1
183 479 1
191 479 1
206 479 1
215 479 1
368 479 1
383 479 1
983 479 1
984 479 1
184 480 1
192 480 1
207 480 1
216 480 1
369 480 1
384 480 1
961 480 1
984 480 1
169 481 1
188 481 1
217 481 1
232 481 1
385 481 1
394 481 1
985 481 1
986 481 1
170 482 1
189 482 1
218 482 1
233 482 1
386 482 1
395 482 1
986 482 1
987 482 1
171 483 1
190 483 1
219 483 1
234 483 1
387 483 1
396 483 1
987 483 1
988 483 1
172 484 1
191 484 1
220 484 1
235 484 1
388 484 1
397 484 1
988 484 1
989 484 1
173 485 1
192 485 1
221 485 1
236 485 1
389 485 1
398 485 1
989 485 1
990 485 1
169 486 1
174 486 1
222 486 1
237 486 1
390 486 1
399 486 1
990 486 1
991 486 1
170 487 1
175 487 1
223 487 1
238 487 1
391 487 1
400 487 1
991 487 1
992 487 1
171 488 1
176 488 1
224 488 1
239 488 1
392 488 1
401 488 1
992 488 1
993 488 1
172 489 1
177 489 1
225 489 1
240 489 1
393 489 1
402 489 1
993 489 1
994 489 1
173 490 1
178 490 1
217 490 1
226 490 1
394 490 1
403 490 1
994 490 1
995 490 1
174 491 1
179 491 1
218 491 1
227 491 1
395 491 1
404 491 1
995 491 1
996 491 1
175 492 1
180 492 1
219 492 1
228 492 1
396 492 1
405 492 1
996 492 1
997 492 1
176 493 1
181 493 1
220 493 1
229 493 1
397 493 1
406 493 1
997 493 1
998 493 1
177 494 1
182 494 1
221 494 1
230 494 1
398 494 1
407 494 1
998 494 1
999 494 1
178 495 1
183 495 1
222 495 1
231 495 1
399 495 1
408 495 1
999 495 1
1000 495 1
179 496 1
184 496 1
223 496 1
232 496 1
385 496 1
400 496 1
1000 496 1
1001 496 1
180 497 1
185 497 1
224 497 1
233 497 1
386 497 1
401 497 1
1001 497 1
1002 497 1
181 498 1
186 498 1
225 498 1
234 498 1
387 498 1
402 498 1
1002 498 1
1003 498 1
182 499 1
187 499 1
226 499 1
235 499 1
388 499 1
403 499 1
1003 499 1
1004 499 1
183 500 1
188 500 1
227 500 1
236 500 1
389 500 1
404 500 1
1004 500 1
1005 500 1
184 501 1
189 501 1
228 501 1
237 501 1
390 501 1
405 501 1
1005 501 1
1006 501 1
185 502 1
190 502 1
229 502 1
238 502 1
391 502 1
406 502 1
1006 502 1
1007 502 1
186 503 1
191 503 1
230 503 1
239 503 1
392 503 1
407 503 1
1007 503 1
1008 503 1
187 504 1
192 504 1
231 504 1
240 504 1
393 504 1
408 504 1
985 504 1
1008 504 1
169 505 1
191 505 1
241 505 1
256 505 1
409 505 1
418 505 1
1009 505 1
1010 505 1
170 506 1
192 506 1
242 506 1
257 506 1
410 506 1
419 506 1
1010 506 1
1011 506 1
169 507 1
171 507 1
243 507 1
258 507 1
411 507 1
420 507 1
1011 507 1
1012 507 1
170 508 1
172 508 1
244 508 1
259 508 1
412 508 1
421 508 1
1012 508 1
1013 508 1
171 509 1
173 509 1
245 509 1
260 509 1
413 509 1
422 509 1
1013 509 1
1014 509 1
172 510 1
174 510 1
246 510 1
261 510 1
414 510 1
423 510 1
1014 510 1
1015 510 1
173 511 1
175 511 1
247 511 1
262 511 1
415 511 1
424 511 1
1015 511 1
1016 511 1
174 512 1
176 512 1
248 512 1
263 512 1
416 512 1
425 512 1
1016 512 1
1017 512 1
175 513 1
177 513 1
249 513 1
264 513 1
417 513 1
426 513 1
1017 513 1
1018 513 1
176 514 1
178 514 1
241 514 1
250 514 1
418 514 1
427 514 1
1018 514 1
1019 514 1
177 515 1
179 515 1
242 515 1
251 515 1
419 515 1
428 515 1
1019 515 1
1020 515 1
178 516 1
180 516 1
243 516 1
252 516 1
420 516 1
429 516 1
1020 516 1
1021 516 1
179 517 1
181 517 1
244 517 1
253 517 1
421 517 1
430 517 1
1021 517 1
1022 517 1
180 518 1
182 518 1
245 518 1
254 518 1
422 518 1
431 518 1
1022 518 1
1023 518 1
181 519 1
183 519 1
246 519 1
255 519 1
423 519 1
432 519 1
1023 519 1
1024 519 1
182 520 1
184 520 1
247 520 1
256 520 1
409 520 1
424 520 1
1024 520 1
1025 520 1
183 521 1
185 521 1
248 521 1
257 521 1
410 521 1
425 521 1
1025 521 1
1026 521 1
184 522 1
186 522 1
249 522 1
258 522 1
411 522 1
426 522 1
1026 522 1
1027 522 1
185 523 1
187 523 1
250 523 1
259 523 1
412 523 1
427 523 1
1027 523 1
1028 523 1
186 524 1
188 524 1
251 524 1
260 524 1
413 524 1
428 524 1
1028 524 1
1029 524 1
187 525 1
189 525 1
252 525 1
261 525 1
414 525 1
429 525 1
1029 525 1
1030 525 1
188 526 1
190 526 1
253 526 1
262 526 1
415 526 1
430 526 1
1030 526 1
1031 526 1
189 527 1
191 527 1
254 527 1
263 527 1
416 527 1
431 527 1
1031 527 1
1032 527 1
190 528 1
192 528 1
255 528 1
264 528 1
417 528 1
432 528 1
1009 528 1
1032 528 1
193 529 1
212 529 1
217 529 1
233 529 1
433 529 1
442 529 1
1033 529 1
1034 529 1
194 530 1
213 530 1
218 530 1
234 530 1
434 530 1
443 530 1
1034 530 1
1035 530 1
195 531 1
214 531 1
219 531 1
235 531 1
435 531 1
444 531 1
1035 531 1
1036 531 1
196 532 1
215 532 1
220 532 1
236 532 1
436 532 1
445 532 1
1036 532 1
1037 532 1
197 533 1
216 533 1
221 533 1
237 533 1
437 533 1
446 533 1
1037 533 1
1038 533 1
193 534 1
198 534 1
222 534 1
238 534 1
438 534 1
447 534 1
1038 534 1
1039 534 1
194 535 1
199 535 1
223 535 1
239 535 1
439 535 1
448 535 1
1039 535 1
1040 535 1
195 536 1
200 536 1
224 536 1
240 536 1
440 536 1
449 536 1
1040 536 1
1041 536 1
196 537 1
201 537 1
217 537 1
225 537 1
441 537 1
450 537 1
1041 537 1
1042 537 1
197 538 1
202 538 1
218 538 1
226 538 1
442 538 1
451 538 1
1042 538 1
1043 538 1
198 539 1
203 539 1
219 539 1
227 539 1
443 539 1
452 539 1
1043 539 1
1044 539 1
199 540 1
204 540 1
220 540 1
228 540 1
444 540 1
453 540 1
1044 540 1
1045 540 1
200 541 1
205 541 1
221 541 1
229 541 1
445 541 1
454 541 1
1045 541 1
1046 541 1
201 542 1
206 542 1
222 542 1
230 542 1
446 542 1
455 542 1
1046 542 1
1047 542 1
202 543 1
207 543 1
223 543 1
231 543 1
447 543 1
456 543 1
1047 543 1
1048 543 1
203 544 1
208 544 1
224 544 1
232 544 1
433 544 1
448 544 1
1048 544 1
1049 544 1
204 545 1
209 545 1
225 545 1
233 545 1
434 545 1
449 545 1
1049 545 1
1050 545 1
205 546 1
210 546 1
226 546 1
234 546 1
435 546 1
450 546 1
1050 546 1
1051 546 1
206 547 1
211 547 1
227 547 1
235 547 1
436 547 1
451 547 1
1051 547 1
1052 547 1
207 548 1
212 548 1
228 548 1
236 548 1
437 548 1
452 548 1
1052 548 1
1053 548 1
208 549 1
213 549 1
229 549 1
237 549 1
438 549 1
453 549 1
1053 549 1
1054 549 1
209 550 1
214 550 1
230 550 1
238 550 1
439 550 1
454 550 1
1054 550 1
1055 550 1
210 551 1
215 551 1
231 551 1
239 551 1
440 551 1
455 551 1
1055 551 1
1056 551 1
211 552 1
216 552 1
232 552 1
240 552 1
441 552 1
456 552 1
1033 552 1
1056 552 1
193 553 1
215 553 1
241 553 1
257 553 1
457 553 1
466 553 1
1057 553 1
1058 553 1
194 554 1
216 554 1
242 554 1
258 554 1
458 554 1
467 554 1
1058 554 1
1059 554 1
193 555 1
195 555 1
243 555 1
259 555 1
459 555 1
468 555 1
1059 555 1
1060 555 1
194 556 1
196 556 1
244 556 1
260 556 1
460 556 1
469 556 1
1060 556 1
1061 556 1
195 557 1
197 557 1
245 557 1
261 557 1
461 557 1
470 557 1
1061 557 1
1062 557 1
196 558 1
198 558 1
246 558 1
262 558 1
462 558 1
471 558 1
1062 558 1
1063 558 1
197 559 1
199 559 1
247 559 1
263 559 1
463 559 1
472 559 1
1063 559 1
1064 559 1
198 560 1
200 560 1
248 560 1
264 560 1
464 560 1
473 560 1
1064 560 1
1065 560 1
199 561 1
201 561 1
241 561 1
249 561 1
465 561 1
474 561 1
1065 561 1
1066 561 1
200 562 1
202 562 1
242 562 1
250 562 1
466 562 1
475 562 1
1066 562 1
1067 562 1
201 563 1
203 563 1
243 563 1
251 563 1
467 563 1
476 563 1
1067 563 1
1068 563 1
202 564 1
204 564 1
244 564 1
252 564 1
468 564 1
477 564 1
1068 564 1
1069 564 1
203 565 1
205 565 1
245 565 1
253 565 1
469 565 1
478 565 1
1069 565 1
1070 565 1
204 566 1
206 566 1
246 566 1
254 566 1
470 566 1
479 566 1
1070 566 1
1071 566 1
205 567 1
207 567 1
247 567 1
255 567 1
471 567 1
480 567 1
1071 567 1
1072 567 1
206 568 1
208 568 1
248 568 1
256 568 1
457 568 1
472 568 1
1072 568 1
1073 568 1
207 569 1
209 569 1
249 569 1
257 569 1
458 569 1
473 569 1
1073 569 1
1074 569 1
208 570 1
210 570 1
250 570 1
258 570 1
459 570 1
474 570 1
1074 570 1
1075 570 1
209 571 1
211 571 1
251 571 1
259 571 1
460 571 1
475 571 1
1075 571 1
1076 571 1
210 572 1
212 572 1
252 572 1
260 572 1
461 572 1
476 572 1
1076 572 1
1077 572 1
211 573 1
213 573 1
253 573 1
261 573 1
462 573 1
477 573 1
1077 573 1
1078 573 1
212 574 1
214 574 1
254 574 1
262 574 1
463 574 1
478 574 1
1078 574 1
1079 574 1
213 575 1
215 575 1
255 575 1
263 575 1
464 575 1
479 575 1
1079 575 1
1080 575 1
214 576 1
216 576 1
256 576 1
264 576 1
465 576 1
480 576 1
1057 576 1
1080 576 1
217 577 1
239 577 1
241 577 1
260 577 1
481 577 1
490 577 1
1081 577 1
1082 577 1
218 578 1
240 578 1
242 578 1
261 578 1
482 578 1
491 578 1
1082 578 1
1083 578 1
217 579 1
219 579 1
243 579 1
262 579 1
483 579 1
492 579 1
1083 579 1
1084 579 1
218 580 1
220 580 1
244 580 1
263 580 1
484 580 1
493 580 1
1084 580 1
1085 580 1
219 581 1
221 581 1
245 581 1
264 581 1
485 581 1
494 581 1
1085 581 1
1086 581 1
220 582 1
222 582 1
241 582 1
246 582 1
486 582 1
495 582 1
1086 582 1
1087 582 1
221 583 1
223 583 1
242 583 1
247 583 1
487 583 1
496 583 1
1087 583 1
1088 583 1
222 584 1
224 584 1
243 584 1
248 584 1
488 584 1
497 584 1
1088 584 1
1089 584 1
223 585 1
225 585 1
244 585 1
249 585 1
489 585 1
498 585 1
1089 585 1
1090 585 1
224 586 1
226 586 1
245 586 1
250 586 1
490 586 1
499 586 1
1090 586 1
1091 586 1
225 587 1
227 587 1
246 587 1
251 587 1
491 587 1
500 587 1
1091 587 1
1092 587 1
226 588 1
228 588 1
247 588 1
252 588 1
492 588 1
501 588 1
1092 588 1
1093 588 1
227 589 1
229 589 1
248 589 1
253 589 1
493 589 1
502 589 1
1093 589 1
1094 589 1
228 590 1
230 590 1
249 590 1
254 590 1
494 590 1
503 590 1
1094 590 1
1095 590 1
229 591 1
231 591 1
250 591 1
255 591 1
495 591 1
504 591 1
1095 591 1
1096 591 1
230 592 1
232 592 1
251 592 1
256 592 1
481 592 1
496 592 1
1096 592 1
1097 592 1
231 593 1
233 593 1
252 593 1
257 593 1
482 593 1
497 593 1
1097 593 1
1098 593 1
232 594 1
234 594 1
253 594 1
258 594 1
483 594 1
498 594 1
1098 594 1
1099 594 1
233 595 1
235 595 1
254 595 1
259 595 1
484 595 1
499 595 1
1099 595 1
1100 595 1
234 596 1
236 596 1
255 596 1
260 596 1
485 596 1
500 596 1
1100 596 1
1101 596 1
235 597 1
237 597 1
256 597 1
261 597 1
486 597 1
501 597 1
1101 597 1
1102 597 1
236 598 1
238 598 1
257 598 1
262 598 1
487 598 1
502 598 1
1102 598 1
1103 598 1
237 599 1
239 599 1
258 599 1
263 599 1
488 599 1
503 599 1
1103 599 1
1104 599 1
238 600 1
240 600 1
259 600 1
264 600 1
489 600 1
504 600 1
1081 600 1
1104 600 1
265 601 1
281 601 1
289 601 1
304 601 1
361 601 1
374 601 1
1105 601 1
1106 601 1
266 602 1
282 602 1
290 602 1
305 602 1
362 602 1
375 602 1
1106 602 1
1107 602 1
267 603 1
283 603 1
291 603 1
306 603 1
363 603 1
376 603 1
1107 603 1
1108 603 1
268 604 1
284 604 1
292 604 1
307 604 1
364 604 1
377 604 1
1108 604 1
1109 604 1
269 605 1
285 605 1
293 605 1
308 605 1
365 605 1
378 605 1
1109 605 1
1110 605 1
270 606 1
286 606 1
294 606 1
309 606 1
366 606 1
379 606 1
1110 606 1
1111 606 1
271 607 1
287 607 1
295 607 1
310 607 1
367 607 1
380 607 1
1111 607 1
1112 607 1
272 608 1
288 608 1
296 608 1
311 608 1
368 608 1
381 608 1
1112 608 1
1113 608 1
265 609 1
273 609 1
297 609 1
312 609 1
369 609 1
382 609 1
1113 609 1
1114 609 1
266 610 1
274 610 1
289 610 1
298 610 1
370 610 1
383 610 1
1114 610 1
1115 610 1
267 611 1
275 611 1
290 611 1
299 611 1
371 611 1
384 611 1
1115 611 1
1116 611 1
268 612 1
276 612 1
291 612 1
300 612 1
361 612 1
372 612 1
1116 612 1
1117 612 1
269 613 1
277 613 1
292 613 1
301 613 1
362 613 1
373 613 1
1117 613 1
1118 613 1
270 614 1
278 614 1
293 614 1
302 614 1
363 614 1
374 614 1
1118 614 1
1119 614 1
271 615 1
279 615 1
294 615 1
303 615 1
364 615 1
375 615 1
1119 615 1
1120 615 1
272 616 1
280 616 1
295 616 1
304 616 1
365 616 1
376 616 1
1120 616 1
1121 616 1
273 617 1
281 617 1
296 617 1
305 617 1
366 617 1
377 617 1
1121 617 1
1122 617 1
274 618 1
282 618 1
297 618 1
306 618 1
367 618 1
378 618 1
1122 618 1
1123 618 1
275 619 1
283 619 1
298 619 1
307 619 1
368 619 1
379 619 1
1123 619 1
1124 619 1
276 620 1
284 620 1
299 620 1
308 620 1
369 620 1
380 620 1
1124 620 1
1125 620 1
277 621 1
285 621 1
300 621 1
309 621 1
370 621 1
381 621 1
1125 621 1
1126 621 1
278 622 1
286 622 1
301 622 1
310 622 1
371 622 1
382 622 1
1126 622 1
1127 622 1
279 623 1
287 623 1
302 623 1
311 623 1
372 623 1
383 623 1
1127 623 1
1128 623 1
280 624 1
288 624 1
303 624 1
312 624 1
373 624 1
384 624 1
1105 624 1
1128 624 1
265 625 1
284 625 1
313 625 1
328 625 1
385 625 1
398 625 1
1129 625 1
1130 625 1
266 626 1
285 626 1
314 626 1
329 626 1
386 626 1
399 626 1
1130 626 1
1131 626 1
267 627 1
286 627 1
315 627 1
330 627 1
387 627 1
400 627 1
1131 627 1
1132 627 1
268 628 1
287 628 1
316 628 1
331 628 1
388 628 1
401 628 1
1132 628 1
1133 628 1
269 629 1
288 629 1
317 629 1
332 629 1
389 629 1
402 629 1
1133 629 1
1134 629 1
265 630 1
270 630 1
318 630 1
333 630 1
390 630 1
403 630 1
1134 630 1
1135 630 1
266 631 1
271 631 1
319 631 1
334 631 1
391 631 1
404 631 1
1135 631 1
1136 631 1
267 632 1
272 632 1
320 632 1
335 632 1
392 632 1
405 632 1
1136 632 1
1137 632 1
268 633 1
273 633 1
321 633 1
336 633 1
393 633 1
406 633 1
1137 633 1
1138 633 1
269 634 1
274 634 1
313 634 1
322 634 1
394 634 1
407 634 1
1138 634 1
1139 634 1
270 635 1
275 635 1
314 635 1
323 635 1
395 635 1
408 635 1
1139 635 1
1140 635 1
271 636 1
276 636 1
315 636 1
324 636 1
385 636 1
396 636 1
1140 636 1
1141 636 1
272 637 1
277 637 1
316 637 1
325 637 1
386 637 1
397 637 1
1141 637 1
1142 637 1
273 638 1
278 638 1
317 638 1
326 638 1
387 638 1
398 638 1
1142 638 1
1143 638 1
274 639 1
279 639 1
318 639 1
327 639 1
388 639 1
399 639 1
1143 639 1
1144 639 1
275 640 1
280 640 1
319 640 1
328 640 1
389 640 1
400 640 1
1144 640 1
1145 640 1
276 641 1
281 641 1
320 641 1
329 641 1
390 641 1
401 641 1
1145 641 1
1146 641 1
277 642 1
282 642 1
321 642 1
330 642 1
391 642 1
402 642 1
1146 642 1
1147 642 1
278 643 1
283 643 1
322 643 1
331 643 1
392 643 1
403 643 1
1147 643 1
1148 643 1
279 644 1
284 644 1
323 644 1
332 644 1
393 644 1
404 644 1
1148 644 1
1149 644 1
280 645 1
285 645 1
324 645 1
333 645 1
394 645 1
405 645 1
1149 645 1
1150 645 1
281 646 1
286 646 1
325 646 1
334 646 1
395 646 1
406 646 1
1150 646 1
1151 646 1
282 647 1
287 647 1
326 647 1
335 647 1
396 647 1
407 647 1
1151 647 1
1152 647 1
283 648 1
288 648 1
327 648 1
336 648 1
397 648 1
408 648 1
1129 648 1
1152 648 1
265 649 1
287 649 1
337 649 1
352 649 1
409 649 1
422 649 1
1153 649 1
1154 649 1
266 650 1
288 650 1
338 650 1
353 650 1
410 650 1
423 650 1
1154 650 1
1155 650 1
265 651 1
267 651 1
339 651 1
354 651 1
411 651 1
424 651 1
1155 651 1
1156 651 1
266 652 1
268 652 1
340 652 1
355 652 1
412 652 1
425 652 1
1156 652 1
1157 652 1
267 653 1
269 653 1
341 653 1
356 653 1
413 653 1
426 653 1
1157 653 1
1158 653 1
268 654 1
270 654 1
342 654 1
357 654 1
414 654 1
427 654 1
1158 654 1
1159 654 1
269 655 1
271 655 1
343 655 1
358 655 1
415 655 1
428 655 1
1159 655 1
1160 655 1
270 656 1
272 656 1
344 656 1
359 656 1
416 656 1
429 656 1
1160 656 1
1161 656 1
271 657 1
273 657 1
345 657 1
360 657 1
417 657 1
430 657 1
1161 657 1
1162 657 1
272 658 1
274 658 1
337 658 1
346 658 1
418 658 1
431 658 1
1162 658 1
1163 658 1
273 659 1
275 659 1
338 659 1
347 659 1
419 659 1
432 659 1
1163 659 1
1164 659 1
274 660 1
276 660 1
339 660 1
348 660 1
409 660 1
420 660 1
1164 660 1
1165 660 1
275 661 1
277 661 1
340 661 1
349 661 1
410 661 1
421 661 1
1165 661 1
1166 661 1
276 662 1
278 662 1
341 662 1
350 662 1
411 662 1
422 662 1
1166 662 1
1167 662 1
277 663 1
279 663 1
342 663 1
351 663 1
412 663 1
423 663 1
1167 663 1
1168 663 1
278 664 1
280 664 1
343 664 1
352 664 1
413 664 1
424 664 1
1168 664 1
1169 664 1
279 665 1
281 665 1
344 665 1
353 665 1
414 665 1
425 665 1
1169 665 1
1170 665 1
280 666 1
282 666 1
345 666 1
354 666 1
415 666 1
426 666 1
1170 666 1
1171 666 1
281 667 1
283 667 1
346 667 1
355 667 1
416 667 1
427 667 1
1171 667 1
1172 667 1
282 668 1
284 668 1
347 668 1
356 668 1
417 668 1
428 668 1
1172 668 1
1173 668 1
283 669 1
285 669 1
348 669 1
357 669 1
418 669 1
429 669 1
1173 669 1
1174 669 1
284 670 1
286 670 1
349 670 1
358 670 1
419 670 1
430 670 1
1174 670 1
1175 670 1
285 671 1
287 671 1
350 671 1
359 671 1
420 671 1
431 671 1
1175 671 1
1176 671 1
286 672 1
288 672 1
351 672 1
360 672 1
421 672 1
432 672 1
1153 672 1
1176 672 1
289 673 1
308 673 1
313 673 1
329 673 1
433 673 1
446 673 1
1177 673 1
1178 673 1
290 674 1
309 674 1
314 674 1
330 674 1
434 674 1
447 674 1
1178 674 1
1179 674 1
291 675 1
310 675 1
315 675 1
331 675 1
435 675 1
448 675 1
1179 675 1
1180 675 1
292 676 1
311 676 1
316 676 1
332 676 1
436 676 1
449 676 1
1180 676 1
1181 676 1
293 677 1
312 677 1
317 677 1
333 677 1
437 677 1
450 677 1
1181 677 1
1182 677 1
289 678 1
294 678 1
318 678 1
334 678 1
438 678 1
451 678 1
1182 678 1
1183 678 1
290 679 1
295 679 1
319 679 1
335 679 1
439 679 1
452 679 1
1183 679 1
1184 679 1
291 680 1
296 680 1
320 680 1
336 680 1
440 680 1
453 680 1
1184 680 1
1185 680 1
292 681 1
297 681 1
313 681 1
321 681 1
441 681 1
454 681 1
1185 681 1
1186 681 1
293 682 1
298 682 1
314 682 1
322 682 1
442 682 1
455 682 1
1186 682 1
1187 682 1
294 683 1
299 683 1
315 683 1
323 683 1
443 683 1
456 683 1
1187 683 1
1188 683 1
295 684 1
300 684 1
316 684 1
324 684 1
433 684 1
444 684 1
1188 684 1
1189 684 1
296 685 1
301 685 1
317 685 1
325 685 1
434 685 1
445 685 1
1189 685 1
1190 685 1
297 686 1
302 686 1
318 686 1
326 686 1
435 686 1
446 686 1
1190 686 1
1191 686 1
298 687 1
303 687 1
319 687 1
327 687 1
436 687 1
447 687 1
1191 687 1
1192 687 1
299 688 1
304 688 1
320 688 1
328 688 1
437 688 1
448 688 1
1192 688 1
1193 688 1
300 689 1
305 689 1
321 689 1
329 689 1
438 689 1
449 689 1
1193 689 1
1194 689 1
301 690 1
306 690 1
322 690 1
330 690 1
439 690 1
450 690 1
1194 690 1
1195 690 1
302 691 1
307 691 1
323 691 1
331 691 1
440 691 1
451 691 1
1195 691 1
1196 691 1
303 692 1
308 692 1
324 692 1
332 692 1
441 692 1
452 692 1
1196 692 1
1197 692 1
304 693 1
309 693 1
325 693 1
333 693 1
442 693 1
453 693 1
1197 693 1
1198 693 1
305 694 1
310 694 1
326 694 1
334 694 1
443 694 1
454 694 1
1198 694 1
1199 694 1
306 695 1
311 695 1
327 695 1
335 695 1
444 695 1
455 695 1
1199 695 1
1200 695 1
307 696 1
312 696 1
328 696 1
336 696 1
445 696 1
456 696 1
1177 696 1
1200 696 1
289 697 1
311 697 1
337 697 1
353 697 1
457 697 1
470 697 1
1201 697 1
1202 697 1
290 698 1
312 698 1
338 698 1
354 698 1
458 698 1
471 698 1
1202 698 1
1203 698 1
289 699 1
291 699 1
339 699 1
355 699 1
459 699 1
472 699 1
1203 699 1
1204 699 1
290 700 1
292 700 1
340 700 1
356 700 1
460 700 1
473 700 1
1204 700 1
1205 700 1
291 701 1
293 701 1
341 701 1
357 701 1
461 701 1
474 701 1
1205 701 1
1206 701 1
292 702 1
294 702 1
342 702 1
358 702 1
462 702 1
475 702 1
1206 702 1
1207 702 1
293 703 1
295 703 1
343 703 1
359 703 1
463 703 1
476 703 1
1207 703 1
1208 703 1
294 704 1
296 704 1
344 704 1
360 704 1
464 704 1
477 704 1
1208 704 1
1209 704 1
295 705 1
297 705 1
337 705 1
345 705 1
465 705 1
478 705 1
1209 705 1
1210 705 1
296 706 1
298 706 1
338 706 1
346 706 1
466 706 1
479 706 1
1210 706 1
1211 706 1
297 707 1
299 707 1
339 707 1
347 707 1
467 707 1
480 707 1
1211 707 1
1212 707 1
298 708 1
300 708 1
340 708 1
348 708 1
457 708 1
468 708 1
1212 708 1
1213 708 1
299 709 1
301 709 1
341 709 1
349 709 1
458 709 1
469 709 1
1213 709 1
1214 709 1
300 710 1
302 710 1
342 710 1
350 710 1
459 710 1
470 710 1
1214 710 1
1215 710 1
301 711 1
303 711 1
343 711 1
351 711 1
460 711 1
471 711 1
1215 711 1
1216 711 1
302 712 1
304 712 1
344 712 1
352 712 1
461 712 1
472 712 1
1216 712 1
1217 712 1
303 713 1
305 713 1
345 713 1
353 713 1
462 713 1
473 713 1
1217 713 1
1218 713 1
304 714 1
306 714 1
346 714 1
354 714 1
463 714 1
474 714 1
1218 714 1
1219 714 1
305 715 1
307 715 1
347 715 1
355 715 1
464 715 1
475 715 1
1219 715 1
1220 715 1
306 716 1
308 716 1
348 716 1
356 716 1
465 716 1
476 716 1
1220 716 1
1221 716 1
307 717 1
309 717 1
349 717 1
357 717 1
466 717 1
477 717 1
1221 717 1
1222 717 1
308 718 1
310 718 1
350 718 1
358 718 1
467 718 1
478 718 1
1222 718 1
1223 718 1
309 719 1
311 719 1
351 719 1
359 719 1
468 719 1
479 719 1
1223 719 1
1224 719 1
310 720 1
312 720 1
352 720 1
360 720 1
469 720 1
480 720 1
1201 720 1
1224 720 1
313 721 1
335 721 1
337 721 1
356 721 1
481 721 1
494 721 1
1225 721 1
1226 721 1
314 722 1
336 722 1
338 722 1
357 722 1
482 722 1
495 722 1
1226 722 1
1227 722 1
313 723 1
315 723 1
339 723 1
358 723 1
483 723 1
496 723 1
1227 723 1
1228 723 1
314 724 1
316 724 1
340 724 1
359 724 1
484 724 1
497 724 1
1228 724 1
1229 724 1
315 725 1
317 725 1
341 725 1
360 725 1
485 725 1
498 725 1
1229 725 1
1230 725 1
316 726 1
318 726 1
337 726 1
342 726 1
486 726 1
499 726 1
1230 726 1
1231 726 1
317 727 1
319 727 1
338 727 1
343 727 1
487 727 1
500 727 1
1231 727 1
1232 727 1
318 728 1
320 728 1
339 728 1
344 728 1
488 728 1
501 728 1
1232 728 1
1233 728 1
319 729 1
321 729 1
340 729 1
345 729 1
489 729 1
502 729 1
1233 729 1
1234 729 1
320 730 1
322 730 1
341 730 1
346 730 1
490 730 1
503 730 1
1234 730 1
1235 730 1
321 731 1
323 731 1
342 731 1
347 731 1
491 731 1
504 731 1
1235 731 1
1236 731 1
322 732 1
324 732 1
343 732 1
348 732 1
481 732 1
492 732 1
1236 732 1
1237 732 1
323 733 1
325 733 1
344 733 1
349 733 1
482 733 1
493 733 1
1237 733 1
1238 733 1
324 734 1
326 734 1
345 734 1
350 734 1
483 734 1
494 734 1
1238 734 1
1239 734 1
325 735 1
327 735 1
346 735 1
351 735 1
484 735 1
495 735 1
1239 735 1
1240 735 1
326 736 1
328 736 1
347 736 1
352 736 1
485 736 1
496 736 1
1240 736 1
1241 736 1
327 737 1
329 737 1
348 737 1
353 737 1
486 737 1
497 737 1
1241 737 1
1242 737 1
328 738 1
330 738 1
349 738 1
354 738 1
487 738 1
498 738 1
1242 738 1
1243 738 1
329 739 1
331 739 1
350 739 1
355 739 1
488 739 1
499 739 1
1243 739 1
1244 739 1
330 740 1
332 740 1
351 740 1
356 740 1
489 740 1
500 740 1
1244 740 1
1245 740 1
331 741 1
333 741 1
352 741 1
357 741 1
490 741 1
501 741 1
1245 741 1
1246 741 1
332 742 1
334 742 1
353 742 1
358 742 1
491 742 1
502 742 1
1246 742 1
1247 742 1
333 743 1
335 743 1
354 743 1
359 743 1
492 743 1
503 743 1
1247 743 1
1248 743 1
334 744 1
336 744 1
355 744 1
360 744 1
493 744 1
504 744 1
1225 744 1
1248 744 1
361 745 1
380 745 1
385 745 1
401 745 1
433 745 1
448 745 1
1249 745 1
1250 745 1
362 746 1
381 746 1
386 746 1
402 746 1
434 746 1
449 746 1
1250 746 1
1251 746 1
363 747 1
382 747 1
387 747 1
403 747 1
435 747 1
450 747 1
1251 747 1
1252 747 1
364 748 1
383 748 1
388 748 1
404 748 1
436 748 1
451 748 1
1252 748 1
1253 748 1
365 749 1
384 749 1
389 749 1
405 749 1
437 749 1
452 749 1
1253 749 1
1254 749 1
361 750 1
366 750 1
390 750 1
406 750 1
438 750 1
453 750 1
1254 750 1
1255 750 1
362 751 1
367 751 1
391 751 1
407 751 1
439 751 1
454 751 1
1255 751 1
1256 751 1
363 752 1
368 752 1
392 752 1
408 752 1
440 752 1
455 752 1
1256 752 1
1257 752 1
364 753 1
369 753 1
385 753 1
393 753 1
441 753 1
456 753 1
1257 753 1
1258 753 1
365 754 1
370 754 1
386 754 1
394 754 1
433 754 1
442 754 1
1258 754 1
1259 754 1
366 755 1
371 755 1
387 755 1
395 755 1
434 755 1
443 755 1
1259 755 1
1260 755 1
367 756 1
372 756 1
388 756 1
396 756 1
435 756 1
444 756 1
1260 756 1
1261 756 1
368 757 1
373 757 1
389 757 1
397 757 1
436 757 1
445 757 1
1261 757 1
1262 757 1
369 758 1
374 758 1
390 758 1
398 758 1
437 758 1
446 758 1
1262 758 1
1263 758 1
370 759 1
375 759 1
391 759 1
399 759 1
438 759 1
447 759 1
1263 759 1
1264 759 1
371 760 1
376 760 1
392 760 1
400 760 1
439 760 1
448 760 1
1264 760 1
1265 760 1
372 761 1
377 761 1
393 761 1
401 761 1
440 761 1
449 761 1
1265 761 1
1266 761 1
373 762 1
378 762 1
394 762 1
402 762 1
441 762 1
450 762 1
1266 762 1
1267 762 1
374 763 1
379 763 1
395 763 1
403 763 1
442 763 1
451 763 1
1267 763 1
1268 763 1
375 764 1
380 764 1
396 764 1
404 764 1
443 764 1
452 764 1
1268 764 1
1269 764 1
376 765 1
381 765 1
397 765 1
405 765 1
444 765 1
453 765 1
1269 765 1
1270 765 1
377 766 1
382 766 1
398 766 1
406 766 1
445 766 1
454 766 1
1270 766 1
1271 766 1
378 767 1
383 767 1
399 767 1
407 767 1
446 767 1
455 767 1
1271 767 1
1272 767 1
379 768 1
384 768 1
400 768 1
408 768 1
447 768 1
456 768 1
1249 768 1
1272 768 1
361 769 1
383 769 1
409 769 1
425 769 1
457 769 1
472 769 1
1273 769 1
1274 769 1
362 770 1
384 770 1
410 770 1
426 770 1
458 770 1
473 770 1
1274 770 1
1275 770 1
361 771 1
363 771 1
411 771 1
427 771 1
459 771 1
474 771 1
1275 771 1
1276 771 1
362 772 1
364 772 1
412 772 1
428 772 1
460 772 1
475 772 1
1276 772 1
1277 772 1
363 773 1
365 773 1
413 773 1
429 773 1
461 773 1
476 773 1
1277 773 1
1278 773 1
364 774 1
366 774 1
414 774 1
430 774 1
462 774 1
477 774 1
1278 774 1
1279 774 1
365 775 1
367 775 1
415 775 1
431 775 1
463 775 1
478 775 1
1279 775 1
1280 775 1
366 776 1
368 776 1
416 776 1
432 776 1
464 776 1
479 776 1
1280 776 1
1281 776 1
367 777 1
369 777 1
409 777 1
417 777 1
465 777 1
480 777 1
1281 777 1
1282 777 1
368 778 1
370 778 1
410 778 1
418 778 1
457 778 1
466 778 1
1282 778 1
1283 778 1
369 779 1
371 779 1
411 779 1
419 779 1
458 779 1
467 779 1
1283 779 1
1284 779 1
370 780 1
372 780 1
412 780 1
420 780 1
459 780 1
468 780 1
1284 780 1
1285 780 1
371 781 1
373 781 1
413 781 1
421 781 1
460 781 1
469 781 1
1285 781 1
1286 781 1
372 782 1
374 782 1
414 782 1
422 782 1
461 782 1
470 782 1
1286 782 1
1287 782 1
373 783 1
375 783 1
415 783 1
423 783 1
462 783 1
471 783 1
1287 783 1
1288 783 1
374 784 1
376 784 1
416 784 1
424 784 1
463 784 1
472 784 1
1288 784 1
1289 784 1
375 785 1
377 785 1
417 785 1
425 785 1
464 785 1
473 785 1
1289 785 1
1290 785 1
376 786 1
378 786 1
418 786 1
426 786 1
465 786 1
474 786 1
1290 786 1
1291 786 1
377 787 1
379 787 1
419 787 1
427 787 1
466 787 1
475 787 1
1291 787 1
1292 787 1
378 788 1
380 788 1
420 788 1
428 788 1
467 788 1
476 788 1
1292 788 1
1293 788 1
379 789 1
381 789 1
421 789 1
429 789 1
468 789 1
477 789 1
1293 789 1
1294 789 1
380 790 1
382 790 1
422 790 1
430 790 1
469 790 1
478 790 1
1294 790 1
1295 790 1
381 791 1
383 791 1
423 791 1
431 791 1
470 791 1
479 791 1
1295 791 1
1296 791 1
382 792 1
384 792 1
424 792 1
432 792 1
471 792 1
480 792 1
1273 792 1
1296 792 1
385 793 1
407 793 1
409 793 1
428 793 1
481 793 1
496 793 1
1297 793 1
1298 793 1
386 794 1
408 794 1
410 794 1
429 794 1
482 794 1
497 794 1
1298 794 1
1299 794 1
385 795 1
387 795 1
411 795 1
430 795 1
483 795 1
498 795 1
1299 795 1
1300 795 1
386 796 1
388 796 1
412 796 1
431 796 1
484 796 1
499 796 1
1300 796 1
1301 796 1
387 797 1
389 797 1
413 797 1
432 797 1
485 797 1
500 797 1
1301 797 1
1302 797 1
388 798 1
390 798 1
409 798 1
414 798 1
486 798 1
501 798 1
1302 798 1
1303 798 1
389 799 1
391 799 1
410 799 1
415 799 1
487 799 1
502 799 1
1303 799 1
1304 799 1
390 800 1
392 800 1
411 800 1
416 800 1
488 800 1
503 800 1
1304 800 1
1305 800 1
391 801 1
393 801 1
412 801 1
417 801 1
489 801 1
504 801 1
1305 801 1
1306 801 1
392 802 1
394 802 1
413 802 1
418 802 1
481 802 1
490 802 1
1306 802 1
1307 802 1
393 803 1
395 803 1
414 803 1
419 803 1
482 803 1
491 803 1
1307 803 1
1308 803 1
394 804 1
396 804 1
415 804 1
420 804 1
483 804 1
492 804 1
1308 804 1
1309 804 1
395 805 1
397 805 1
416 805 1
421 805 1
484 805 1
493 805 1
1309 805 1
1310 805 1
396 806 1
398 806 1
417 806 1
422 806 1
485 806 1
494 806 1
1310 806 1
1311 806 1
397 807 1
399 807 1
418 807 1
423 807 1
486 807 1
495 807 1
1311 807 1
1312 807 1
398 808 1
400 808 1
419 808 1
424 808 1
487 808 1
496 808 1
1312 808 1
1313 808 1
399 809 1
401 809 1
420 809 1
425 809 1
488 809 1
497 809 1
1313 809 1
1314 809 1
400 810 1
402 810 1
421 810 1
426 810 1
489 810 1
498 810 1
1314 810 1
1315 810 1
401 811 1
403 811 1
422 811 1
427 811 1
490 811 1
499 811 1
1315 811 1
1316 811 1
402 812 1
404 812 1
423 812 1
428 812 1
491 812 1
500 812 1
1316 812 1
1317 812 1
403 813 1
405 813 1
424 813 1
429 813 1
492 813 1
501 813 1
1317 813 1
1318 813 1
404 814 1
406 814 1
425 814 1
430 814 1
493 814 1
502 814 1
1318 814 1
1319 814 1
405 815 1
407 815 1
426 815 1
431 815 1
494 815 1
503 815 1
1319 815 1
1320 815 1
406 816 1
408 816 1
427 816 1
432 816 1
495 816 1
504 816 1
1297 816 1
1320 816 1
433 817 1
455 817 1
457 817 1
476 817 1
481 817 1
497 817 1
1321 817 1
1322 817 1
434 818 1
456 818 1
458 818 1
477 818 1
482 818 1
498 818 1
1322 818 1
1323 818 1
433 819 1
435 819 1
459 819 1
478 819 1
483 819 1
499 819 1
1323 819 1
1324 819 1
434 820 1
436 820 1
460 820 1
479 820 1
484 820 1
500 820 1
1324 820 1
1325 820 1
435 821 1
437 821 1
461 821 1
480 821 1
485 821 1
501 821 1
1325 821 1
1326 821 1
436 822 1
438 822 1
457 822 1
462 822 1
486 822 1
502 822 1
1326 822 1
1327 822 1
437 823 1
439 823 1
458 823 1
463 823 1
487 823 1
503 823 1
1327 823 1
1328 823 1
438 824 1
440 824 1
459 824 1
464 824 1
488 824 1
504 824 1
1328 824 1
1329 824 1
439 825 1
441 825 1
460 825 1
465 825 1
481 825 1
489 825 1
1329 825 1
1330 825 1
440 826 1
442 826 1
461 826 1
466 826 1
482 826 1
490 826 1
1330 826 1
1331 826 1
441 827 1
443 827 1
462 827 1
467 827 1
483 827 1
491 827 1
1331 827 1
1332 827 1
442 828 1
444 828 1
463 828 1
468 828 1
484 828 1
492 828 1
1332 828 1
1333 828 1
443 829 1
445 829 1
464 829 1
469 829 1
485 829 1
493 829 1
1333 829 1
1334 829 1
444 830 1
446 830 1
465 830 1
470 830 1
486 830 1
494 830 1
1334 830 1
1335 830 1
445 831 1
447 831 1
466 831 1
471 831 1
487 831 1
495 831 1
1335 831 1
1336 831 1
446 832 1
448 832 1
467 832 1
472 832 1
488 832 1
496 832 1
1336 832 1
1337 832 1
447 833 1
449 833 1
468 833 1
473 833 1
489 833 1
497 833 1
1337 833 1
1338 833 1
448 834 1
450 834 1
469 834 1
474 834 1
490 834 1
498 834 1
1338 834 1
1339 834 1
449 835 1
451 835 1
470 835 1
475 835 1
491 835 1
499 835 1
1339 835 1
1340 835 1
450 836 1
452 836 1
471 836 1
476 836 1
492 836 1
500 836 1
1340 836 1
1341 836 1
451 837 1
453 837 1
472 837 1
477 837 1
493 837 1
501 837 1
1341 837 1
1342 837 1
452 838 1
454 838 1
473 838 1
478 838 1
494 838 1
502 838 1
1342 838 1
1343 838 1
453 839 1
455 839 1
474 839 1
479 839 1
495 839 1
503 839 1
1343 839 1
1344 839 1
454 840 1
456 840 1
475 840 1
480 840 1
496 840 1
504 840 1
1321 840 1
1344 840 1
505 841 1
520 841 1
529 841 1
542 841 1
625 841 1
634 841 1
865 841 1
871 841 1
506 842 1
521 842 1
530 842 1
543 842 1
626 842 1
635 842 1
866 842 1
872 842 1
507 843 1
522 843 1
531 843 1
544 843 1
627 843 1
636 843 1
867 843 1
873 843 1
508 844 1
523 844 1
532 844 1
545 844 1
628 844 1
637 844 1
868 844 1
874 844 1
509 845 1
524 845 1
533 845 1
546 845 1
629 845 1
638 845 1
869 845 1
875 845 1
510 846 1
525 846 1
534 846 1
547 846 1
630 846 1
639 846 1
870 846 1
876 846 1
511 847 1
526 847 1
535 847 1
548 847 1
631 847 1
640 847 1
871 847 1
877 847 1
512 848 1
527 848 1
536 848 1
549 848 1
632 848 1
641 848 1
872 848 1
878 848 1
513 849 1
528 849 1
537 849 1
550 849 1
633 849 1
642 849 1
873 849 1
879 849 1
505 850 1
514 850 1
538 850 1
551 850 1
634 850 1
643 850 1
874 850 1
880 850 1
506 851 1
515 851 1
539 851 1
552 851 1
635 851 1
644 851 1
875 851 1
881 851 1
507 852 1
516 852 1
529 852 1
540 852 1
636 852 1
645 852 1
876 852 1
882 852 1
508 853 1
517 853 1
530 853 1
541 853 1
637 853 1
646 853 1
877 853 1
883 853 1
509 854 1
518 854 1
531 854 1
542 854 1
638 854 1
647 854 1
878 854 1
884 854 1
510 855 1
519 855 1
532 855 1
543 855 1
639 855 1
648 855 1
879 855 1
885 855 1
511 856 1
520 856 1
533 856 1
544 856 1
625 856 1
640 856 1
880 856 1
886 856 1
512 857 1
521 857 1
534 857 1
545 857 1
626 857 1
641 857 1
881 857 1
887 857 1
513 858 1
522 858 1
535 858 1
546 858 1
627 858 1
642 858 1
882 858 1
888 858 1
514 859 1
523 859 1
536 859 1
547 859 1
628 859 1
643 859 1
865 859 1
883 859 1
515 860 1
524 860 1
537 860 1
548 860 1
629 860 1
644 860 1
866 860 1
884 860 1
516 861 1
525 861 1
538 861 1
549 861 1
630 861 1
645 861 1
867 861 1
885 861 1
517 862 1
526 862 1
539 862 1
550 862 1
631 862 1
646 862 1
868 862 1
886 862 1
518 863 1
527 863 1
540 863 1
551 863 1
632 863 1
647 863 1
869 863 1
887 863 1
519 864 1
528 864 1
541 864 1
552 864 1
633 864 1
648 864 1
870 864 1
888 864 1
505 865 1
521 865 1
553 865 1
566 865 1
649 865 1
658 865 1
889 865 1
895 865 1
506 866 1
522 866 1
554 866 1
567 866 1
650 866 1
659 866 1
890 866 1
896 866 1
507 867 1
523 867 1
555 867 1
568 867 1
651 867 1
660 867 1
891 867 1
897 867 1
508 868 1
524 868 1
556 868 1
569 868 1
652 868 1
661 868 1
892 868 1
898 868 1
509 869 1
525 869 1
557 869 1
570 869 1
653 869 1
662 869 1
893 869 1
899 869 1
510 870 1
526 870 1
558 870 1
571 870 1
654 870 1
663 870 1
894 870 1
900 870 1
511 871 1
527 871 1
559 871 1
572 871 1
655 871 1
664 871 1
895 871 1
901 871 1
512 872 1
528 872 1
560 872 1
573 872 1
656 872 1
665 872 1
896 872 1
902 872 1
505 873 1
513 873 1
561 873 1
574 873 1
657 873 1
666 873 1
897 873 1
903 873 1
506 874 1
514 874 1
562 874 1
575 874 1
658 874 1
667 874 1
898 874 1
904 874 1
507 875 1
515 875 1
563 875 1
576 875 1
659 875 1
668 875 1
899 875 1
905 875 1
508 876 1
516 876 1
553 876 1
564 876 1
660 876 1
669 876 1
900 876 1
906 876 1
509 877 1
517 877 1
554 877 1
565 877 1
661 877 1
670 877 1
901 877 1
907 877 1
510 878 1
518 878 1
555 878 1
566 878 1
662 878 1
671 878 1
902 878 1
908 878 1
511 879 1
519 879 1
556 879 1
567 879 1
663 879 1
672 879 1
903 879 1
909 879 1
512 880 1
520 880 1
557 880 1
568 880 1
649 880 1
664 880 1
904 880 1
910 880 1
513 881 1
521 881 1
558 881 1
569 881 1
650 881 1
665 881 1
905 881 1
911 881 1
514 882 1
522 882 1
559 882 1
570 882 1
651 882 1
666 882 1
906 882 1
912 882 1
515 883 1
523 883 1
560 883 1
571 883 1
652 883 1
667 883 1
889 883 1
907 883 1
516 884 1
524 884 1
561 884 1
572 884 1
653 884 1
668 884 1
890 884 1
908 884 1
517 885 1
525 885 1
562 885 1
573 885 1
654 885 1
669 885 1
891 885 1
909 885 1
518 886 1
526 886 1
563 886 1
574 886 1
655 886 1
670 886 1
892 886 1
910 886 1
519 887 1
527 887 1
564 887 1
575 887 1
656 887 1
671 887 1
893 887 1
911 887 1
520 888 1
528 888 1
565 888 1
576 888 1
657 888 1
672 888 1
894 888 1
912 888 1
505 889 1
524 889 1
577 889 1
590 889 1
673 889 1
682 889 1
913 889 1
919 889 1
506 890 1
525 890 1
578 890 1
591 890 1
674 890 1
683 890 1
914 890 1
920 890 1
507 891 1
526 891 1
579 891 1
592 891 1
675 891 1
684 891 1
915 891 1
921 891 1
508 892 1
527 892 1
580 892 1
593 892 1
676 892 1
685 892 1
916 892 1
922 892 1
509 893 1
528 893 1
581 893 1
594 893 1
677 893 1
686 893 1
917 893 1
923 893 1
505 894 1
510 894 1
582 894 1
595 894 1
678 894 1
687 894 1
918 894 1
924 894 1
506 895 1
511 895 1
583 895 1
596 895 1
679 895 1
688 895 1
919 895 1
925 895 1
507 896 1
512 896 1
584 896 1
597 896 1
680 896 1
689 896 1
920 896 1
926 896 1
508 897 1
513 897 1
585 897 1
598 897 1
681 897 1
690 897 1
921 897 1
927 897 1
509 898 1
514 898 1
586 898 1
599 898 1
682 898 1
691 898 1
922 898 1
928 898 1
510 899 1
515 899 1
587 899 1
600 899 1
683 899 1
692 899 1
923 899 1
929 899 1
511 900 1
516 900 1
577 900 1
588 900 1
684 900 1
693 900 1
924 900 1
930 900 1
512 901 1
517 901 1
578 901 1
589 901 1
685 901 1
694 901 1
925 901 1
931 901 1
513 902 1
518 902 1
579 902 1
590 902 1
686 902 1
695 902 1
926 902 1
932 902 1
514 903 1
519 903 1
580 903 1
591 903 1
687 903 1
696 903 1
927 903 1
933 903 1
515 904 1
520 904 1
581 904 1
592 904 1
673 904 1
688 904 1
928 904 1
934 904 1
516 905 1
521 905 1
582 905 1
593 905 1
674 905 1
689 905 1
929 905 1
935 905 1
517 906 1
522 906 1
583 906 1
594 906 1
675 906 1
690 906 1
930 906 1
936 906 1
518 907 1
523 907 1
584 907 1
595 907 1
676 907 1
691 907 1
913 907 1
931 907 1
519 908 1
524 908 1
585 908 1
596 908 1
677 908 1
692 908 1
914 908 1
932 908 1
520 909 1
525 909 1
586 909 1
597 909 1
678 909 1
693 909 1
915 909 1
933 909 1
521 910 1
526 910 1
587 910 1
598 910 1
679 910 1
694 910 1
916 910 1
934 910 1
522 911 1
527 911 1
588 911 1
599 911 1
680 911 1
695 911 1
917 911 1
935 911 1
523 912 1
528 912 1
589 912 1
600 912 1
681 912 1
696 912 1
918 912 1
936 912 1
505 913 1
527 913 1
601 913 1
614 913 1
697 913 1
706 913 1
937 913 1
943 913 1
506 914 1
528 914 1
602 914 1
615 914 1
698 914 1
707 914 1
938 914 1
944 914 1
505 915 1
507 915 1
603 915 1
616 915 1
699 915 1
708 915 1
939 915 1
945 915 1
506 916 1
508 916 1
604 916 1
617 916 1
700 916 1
709 916 1
940 916 1
946 916 1
507 917 1
509 917 1
605 917 1
618 917 1
701 917 1
710 917 1
941 917 1
947 917 1
508 918 1
510 918 1
606 918 1
619 918 1
702 918 1
711 918 1
942 918 1
948 918 1
509 919 1
511 919 1
607 919 1
620 919 1
703 919 1
712 919 1
943 919 1
949 919 1
510 920 1
512 920 1
608 920 1
621 920 1
704 920 1
713 920 1
944 920 1
950 920 1
511 921 1
513 921 1
609 921 1
622 921 1
705 921 1
714 921 1
945 921 1
951 921 1
512 922 1
514 922 1
610 922 1
623 922 1
706 922 1
715 922 1
946 922 1
952 922 1
513 923 1
515 923 1
611 923 1
624 923 1
707 923 1
716 923 1
947 923 1
953 923 1
514 924 1
516 924 1
601 924 1
612 924 1
708 924 1
717 924 1
948 924 1
954 924 1
515 925 1
517 925 1
602 925 1
613 925 1
709 925 1
718 925 1
949 925 1
955 925 1
516 926 1
518 926 1
603 926 1
614 926 1
710 926 1
719 926 1
950 926 1
956 926 1
517 927 1
519 927 1
604 927 1
615 927 1
711 927 1
720 927 1
951 927 1
957 927 1
518 928 1
520 928 1
605 928 1
616 928 1
697 928 1
712 928 1
952 928 1
958 928 1
519 929 1
521 929 1
606 929 1
617 929 1
698 929 1
713 929 1
953 929 1
959 929 1
520 930 1
522 930 1
607 930 1
618 930 1
699 930 1
714 930 1
954 930 1
960 930 1
521 931 1
523 931 1
608 931 1
619 931 1
700 931 1
715 931 1
937 931 1
955 931 1
522 932 1
524 932 1
609 932 1
620 932 1
701 932 1
716 932 1
938 932 1
956 932 1
523 933 1
525 933 1
610 933 1
621 933 1
702 933 1
717 933 1
939 933 1
957 933 1
524 934 1
526 934 1
611 934 1
622 934 1
703 934 1
718 934 1
940 934 1
958 934 1
525 935 1
527 935 1
612 935 1
623 935 1
704 935 1
719 935 1
941 935 1
959 935 1
526 936 1
528 936 1
613 936 1
624 936 1
705 936 1
720 936 1
942 936 1
960 936 1
529 937 1
545 937 1
553 937 1
568 937 1
721 937 1
730 937 1
961 937 1
967 937 1
530 938 1
546 938 1
554 938 1
569 938 1
722 938 1
731 938 1
962 938 1
968 938 1
531 939 1
547 939 1
555 939 1
570 939 1
723 939 1
732 939 1
963 939 1
969 939 1
532 940 1
548 940 1
556 940 1
571 940 1
724 940 1
733 940 1
964 940 1
970 940 1
533 941 1
549 941 1
557 941 1
572 941 1
725 941 1
734 941 1
965 941 1
971 941 1
534 942 1
550 942 1
558 942 1
573 942 1
726 942 1
735 942 1
966 942 1
972 942 1
535 943 1
551 943 1
559 943 1
574 943 1
727 943 1
736 943 1
967 943 1
973 943 1
536 944 1
552 944 1
560 944 1
575 944 1
728 944 1
737 944 1
968 944 1
974 944 1
529 945 1
537 945 1
561 945 1
576 945 1
729 945 1
738 945 1
969 945 1
975 945 1
530 946 1
538 946 1
553 946 1
562 946 1
730 946 1
739 946 1
970 946 1
976 946 1
531 947 1
539 947 1
554 947 1
563 947 1
731 947 1
740 947 1
971 947 1
977 947 1
532 948 1
540 948 1
555 948 1
564 948 1
732 948 1
741 948 1
972 948 1
978 948 1
533 949 1
541 949 1
556 949 1
565 949 1
733 949 1
742 949 1
973 949 1
979 949 1
534 950 1
542 950 1
557 950 1
566 950 1
734 950 1
743 950 1
974 950 1
980 950 1
535 951 1
543 951 1
558 951 1
567 951 1
735 951 1
744 951 1
975 951 1
981 951 1
536 952 1
544 952 1
559 952 1
568 952 1
721 952 1
736 952 1
976 952 1
982 952 1
537 953 1
545 953 1
560 953 1
569 953 1
722 953 1
737 953 1
977 953 1
983 953 1
538 954 1
546 954 1
561 954 1
570 954 1
723 954 1
738 954 1
978 954 1
984 954 1
539 955 1
547 955 1
562 955 1
571 955 1
724 955 1
739 955 1
961 955 1
979 955 1
540 956 1
548 956 1
563 956 1
572 956 1
725 956 1
740 956 1
962 956 1
980 956 1
541 957 1
549 957 1
564 957 1
573 957 1
726 957 1
741 957 1
963 957 1
981 957 1
542 958 1
550 958 1
565 958 1
574 958 1
727 958 1
742 958 1
964 958 1
982 958 1
543 959 1
551 959 1
566 959 1
575 959 1
728 959 1
743 959 1
965 959 1
983 959 1
544 960 1
552 960 1
567 960 1
576 960 1
729 960 1
744 960 1
966 960 1
984 960 1
529 961 1
548 961 1
577 961 1
592 961 1
745 961 1
754 961 1
985 961 1
991 961 1
530 962 1
549 962 1
578 962 1
593 962 1
746 962 1
755 962 1
986 962 1
992 962 1
531 963 1
550 963 1
579 963 1
594 963 1
747 963 1
756 963 1
987 963 1
993 963 1
532 964 1
551 964 1
580 964 1
595 964 1
748 964 1
757 964 1
988 964 1
994 964 1
533 965 1
552 965 1
581 965 1
596 965 1
749 965 1
758 965 1
989 965 1
995 965 1
529 966 1
534 966 1
582 966 1
597 966 1
750 966 1
759 966 1
990 966 1
996 966 1
530 967 1
535 967 1
583 967 1
598 967 1
751 967 1
760 967 1
991 967 1
997 967 1
531 968 1
536 968 1
584 968 1
599 968 1
752 968 1
761 968 1
992 968 1
998 968 1
532 969 1
537 969 1
585 969 1
600 969 1
753 969 1
762 969 1
993 969 1
999 969 1
533 970 1
538 970 1
577 970 1
586 970 1
754 970 1
763 970 1
994 970 1
1000 970 1
534 971 1
539 971 1
578 971 1
587 971 1
755 971 1
764 971 1
995 971 1
1001 971 1
535 972 1
540 972 1
579 972 1
588 972 1
756 972 1
765 972 1
996 972 1
1002 972 1
536 973 1
541 973 1
580 973 1
589 973 1
757 973 1
766 973 1
997 973 1
1003 973 1
537 974 1
542 974 1
581 974 1
590 974 1
758 974 1
767 974 1
998 974 1
1004 974 1
538 975 1
543 975 1
582 975 1
591 975 1
759 975 1
768 975 1
999 975 1
1005 975 1
539 976 1
544 976 1
583 976 1
592 976 1
745 976 1
760 976 1
1000 976 1
1006 976 1
540 977 1
545 977 1
584 977 1
593 977 1
746 977 1
761 977 1
1001 977 1
1007 977 1
541 978 1
546 978 1
585 978 1
594 978 1
747 978 1
762 978 1
1002 978 1
1008 978 1
542 979 1
547 979 1
586 979 1
595 979 1
748 979 1
763 979 1
985 979 1
1003 979 1
543 980 1
548 980 1
587 980 1
596 980 1
749 980 1
764 980 1
986 980 1
1004 980 1
544 981 1
549 981 1
588 981 1
597 981 1
750 981 1
765 981 1
987 981 1
1005 981 1
545 982 1
550 982 1
589 982 1
598 982 1
751 982 1
766 982 1
988 982 1
1006 982 1
546 983 1
551 983 1
590 983 1
599 983 1
752 983 1
767 983 1
989 983 1
1007 983 1
547 984 1
552 984 1
591 984 1
600 984 1
753 984 1
768 984 1
990 984 1
1008 984 1
529 985 1
551 985 1
601 985 1
616 985 1
769 985 1
778 985 1
1009 985 1
1015 985 1
530 986 1
552 986 1
602 986 1
617 986 1
770 986 1
779 986 1
1010 986 1
1016 986 1
529 987 1
531 987 1
603 987 1
618 987 1
771 987 1
780 987 1
1011 987 1
1017 987 1
530 988 1
532 988 1
604 988 1
619 988 1
772 988 1
781 988 1
1012 988 1
1018 988 1
531 989 1
533 989 1
605 989 1
620 989 1
773 989 1
782 989 1
1013 989 1
1019 989 1
532 990 1
534 990 1
606 990 1
621 990 1
774 990 1
783 990 1
1014 990 1
1020 990 1
533 991 1
535 991 1
607 991 1
622 991 1
775 991 1
784 991 1
1015 991 1
1021 991 1
534 992 1
536 992 1
608 992 1
623 992 1
776 992 1
785 992 1
1016 992 1
1022 992 1
535 993 1
537 993 1
609 993 1
624 993 1
777 993 1
786 993 1
1017 993 1
1023 993 1
536 994 1
538 994 1
601 994 1
610 994 1
778 994 1
787 994 1
1018 994 1
1024 994 1
537 995 1
539 995 1
602 995 1
611 995 1
779 995 1
788 995 1
1019 995 1
1025 995 1
538 996 1
540 996 1
603 996 1
612 996 1
780 996 1
789 996 1
1020 996 1
1026 996 1
539 997 1
541 997 1
604 997 1
613 997 1
781 997 1
790 997 1
1021 997 1
1027 997 1
540 998 1
542 998 1
605 998 1
614 998 1
782 998 1
791 998 1
1022 998 1
1028 998 1
541 999 1
543 999 1
606 999 1
615 999 1
783 999 1
792 999 1
1023 999 1
1029 999 1
542 1000 1
544 1000 1
607 1000 1
616 1000 1
769 1000 1
784 1000 1
1024 1000 1
1030 1000 1
543 1001 1
545 1001 1
608 1001 1
617 1001 1
770 1001 1
785 1001 1
1025 1001 1
1031 1001 1
544 1002 1
546 1002 1
609 1002 1
618 1002 1
771 1002 1
786 1002 1
1026 1002 1
1032 1002 1
545 1003 1
547 1003 1
610 1003 1
619 1003 1
772 1003 1
787 1003 1
1009 1003 1
1027 1003 1
546 1004 1
548 1004 1
611 1004 1
620 1004 1
773 1004 1
788 1004 1
1010 1004 1
1028 1004 1
547 1005 1
549 1005 1
612 1005 1
621 1005 1
774 1005 1
789 1005 1
1011 1005 1
1029 1005 1
548 1006 1
550 1006 1
613 1006 1
622 1006 1
775 1006 1
790 1006 1
1012 1006 1
1030 1006 1
549 1007 1
551 1007 1
614 1007 1
623 1007 1
776 1007 1
791 1007 1
1013 1007 1
1031 1007 1
550 1008 1
552 1008 1
615 1008 1
624 1008 1
777 1008 1
792 1008 1
1014 1008 1
1032 1008 1
553 1009 1
572 1009 1
577 1009 1
593 1009 1
793 1009 1
802 1009 1
1033 1009 1
1039 1009 1
554 1010 1
573 1010 1
578 1010 1
594 1010 1
794 1010 1
803 1010 1
1034 1010 1
1040 1010 1
555 1011 1
574 1011 1
579 1011 1
595 1011 1
795 1011 1
804 1011 1
1035 1011 1
1041 1011 1
556 1012 1
575 1012 1
580 1012 1
596 1012 1
796 1012 1
805 1012 1
1036 1012 1
1042 1012 1
557 1013 1
576 1013 1
581 1013 1
597 1013 1
797 1013 1
806 1013 1
1037 1013 1
1043 1013 1
553 1014 1
558 1014 1
582 1014 1
598 1014 1
798 1014 1
807 1014 1
1038 1014 1
1044 1014 1
554 1015 1
559 1015 1
583 1015 1
599 1015 1
799 1015 1
808 1015 1
1039 1015 1
1045 1015 1
555 1016 1
560 1016 1
584 1016 1
600 1016 1
800 1016 1
809 1016 1
1040 1016 1
1046 1016 1
556 1017 1
561 1017 1
577 1017 1
585 1017 1
801 1017 1
810 1017 1
1041 1017 1
1047 1017 1
557 1018 1
562 1018 1
578 1018 1
586 1018 1
802 1018 1
811 1018 1
1042 1018 1
1048 1018 1
558 1019 1
563 1019 1
579 1019 1
587 1019 1
803 1019 1
812 1019 1
1043 1019 1
1049 1019 1
559 1020 1
564 1020 1
580 1020 1
588 1020 1
804 1020 1
813 1020 1
1044 1020 1
1050 1020 1
560 1021 1
565 1021 1
581 1021 1
589 1021 1
805 1021 1
814 1021 1
1045 1021 1
1051 1021 1
561 1022 1
566 1022 1
582 1022 1
590 1022 1
806 1022 1
815 1022 1
1046 1022 1
1052 1022 1
562 1023 1
567 1023 1
583 1023 1
591 1023 1
807 1023 1
816 1023 1
1047 1023 1
1053 1023 1
563 1024 1
568 1024 1
584 1024 1
592 1024 1
793 1024 1
808 1024 1
1048 1024 1
1054 1024 1
564 1025 1
569 1025 1
585 1025 1
593 1025 1
794 1025 1
809 1025 1
1049 1025 1
1055 1025 1
565 1026 1
570 1026 1
586 1026 1
594 1026 1
795 1026 1
810 1026 1
1050 1026 1
1056 1026 1
566 1027 1
571 1027 1
587 1027 1
595 1027 1
796 1027 1
811 1027 1
1033 1027 1
1051 1027 1
567 1028 1
572 1028 1
588 1028 1
596 1028 1
797 1028 1
812 1028 1
1034 1028 1
1052 1028 1
568 1029 1
573 1029 1
589 1029 1
597 1029 1
798 1029 1
813 1029 1
1035 1029 1
1053 1029 1
569 1030 1
574 1030 1
590 1030 1
598 1030 1
799 1030 1
814 1030 1
1036 1030 1
1054 1030 1
570 1031 1
575 1031 1
591 1031 1
599 1031 1
800 1031 1
815 1031 1
1037 1031 1
1055 1031 1
571 1032 1
576 1032 1
592 1032 1
600 1032 1
801 1032 1
816 1032 1
1038 1032 1
1056 1032 1
553 1033 1
575 1033 1
601 1033 1
617 1033 1
817 1033 1
826 1033 1
1057 1033 1
1063 1033 1
554 1034 1
576 1034 1
602 1034 1
618 1034 1
818 1034 1
827 1034 1
1058 1034 1
1064 1034 1
553 1035 1
555 1035 1
603 1035 1
619 1035 1
819 1035 1
828 1035 1
1059 1035 1
1065 1035 1
554 1036 1
556 1036 1
604 1036 1
620 1036 1
820 1036 1
829 1036 1
1060 1036 1
1066 1036 1
555 1037 1
557 1037 1
605 1037 1
621 1037 1
821 1037 1
830 1037 1
1061 1037 1
1067 1037 1
556 1038 1
558 1038 1
606 1038 1
622 1038 1
822 1038 1
831 1038 1
1062 1038 1
1068 1038 1
557 1039 1
559 1039 1
607 1039 1
623 1039 1
823 1039 1
832 1039 1
1063 1039 1
1069 1039 1
558 1040 1
560 1040 1
608 1040 1
624 1040 1
824 1040 1
833 1040 1
1064 1040 1
1070 1040 1
559 1041 1
561 1041 1
601 1041 1
609 1041 1
825 1041 1
834 1041 1
1065 1041 1
1071 1041 1
560 1042 1
562 1042 1
602 1042 1
610 1042 1
826 1042 1
835 1042 1
1066 1042 1
1072 1042 1
561 1043 1
563 1043 1
603 1043 1
611 1043 1
827 1043 1
836 1043 1
1067 1043 1
1073 1043 1
562 1044 1
564 1044 1
604 1044 1
612 1044 1
828 1044 1
837 1044 1
1068 1044 1
1074 1044 1
563 1045 1
565 1045 1
605 1045 1
613 1045 1
829 1045 1
838 1045 1
1069 1045 1
1075 1045 1
564 1046 1
566 1046 1
606 1046 1
614 1046 1
830 1046 1
839 1046 1
1070 1046 1
1076 1046 1
565 1047 1
567 1047 1
607 1047 1
615 1047 1
831 1047 1
840 1047 1
1071 1047 1
1077 1047 1
566 1048 1
568 1048 1
608 1048 1
616 1048 1
817 1048 1
832 1048 1
1072 1048 1
1078 1048 1
567 1049 1
569 1049 1
609 1049 1
617 1049 1
818 1049 1
833 1049 1
1073 1049 1
1079 1049 1
568 1050 1
570 1050 1
610 1050 1
618 1050 1
819 1050 1
834 1050 1
1074 1050 1
1080 1050 1
569 1051 1
571 1051 1
611 1051 1
619 1051 1
820 1051 1
835 1051 1
1057 1051 1
1075 1051 1
570 1052 1
572 1052 1
612 1052 1
620 1052 1
821 1052 1
836 1052 1
1058 1052 1
1076 1052 1
571 1053 1
573 1053 1
613 1053 1
621 1053 1
822 1053 1
837 1053 1
1059 1053 1
1077 1053 1
572 1054 1
574 1054 1
614 1054 1
622 1054 1
823 1054 1
838 1054 1
1060 1054 1
1078 1054 1
573 1055 1
575 1055 1
615 1055 1
623 1055 1
824 1055 1
839 1055 1
1061 1055 1
1079 1055 1
574 1056 1
576 1056 1
616 1056 1
624 1056 1
825 1056 1
840 1056 1
1062 1056 1
1080 1056 1
577 1057 1
599 1057 1
601 1057 1
620 1057 1
841 1057 1
850 1057 1
1081 1057 1
1087 1057 1
578 1058 1
600 1058 1
602 1058 1
621 1058 1
842 1058 1
851 1058 1
1082 1058 1
1088 1058 1
577 1059 1
579 1059 1
603 1059 1
622 1059 1
843 1059 1
852 1059 1
1083 1059 1
1089 1059 1
578 1060 1
580 1060 1
604 1060 1
623 1060 1
844 1060 1
853 1060 1
1084 1060 1
1090 1060 1
579 1061 1
581 1061 1
605 1061 1
624 1061 1
845 1061 1
854 1061 1
1085 1061 1
1091 1061 1
580 1062 1
582 1062 1
601 1062 1
606 1062 1
846 1062 1
855 1062 1
1086 1062 1
1092 1062 1
581 1063 1
583 1063 1
602 1063 1
607 1063 1
847 1063 1
856 1063 1
1087 1063 1
1093 1063 1
582 1064 1
584 1064 1
603 1064 1
608 1064 1
848 1064 1
857 1064 1
1088 1064 1
1094 1064 1
583 1065 1
585 1065 1
604 1065 1
609 1065 1
849 1065 1
858 1065 1
1089 1065 1
1095 1065 1
584 1066 1
586 1066 1
605 1066 1
610 1066 1
850 1066 1
859 1066 1
1090 1066 1
1096 1066 1
585 1067 1
587 1067 1
606 1067 1
611 1067 1
851 1067 1
860 1067 1
1091 1067 1
1097 1067 1
586 1068 1
588 1068 1
607 1068 1
612 1068 1
852 1068 1
861 1068 1
1092 1068 1
1098 1068 1
587 1069 1
589 1069 1
608 1069 1
613 1069 1
853 1069 1
862 1069 1
1093 1069 1
1099 1069 1
588 1070 1
590 1070 1
609 1070 1
614 1070 1
854 1070 1
863 1070 1
1094 1070 1
1100 1070 1
589 1071 1
591 1071 1
610 1071 1
615 1071 1
855 1071 1
864 1071 1
1095 1071 1
1101 1071 1
590 1072 1
592 1072 1
611 1072 1
616 1072 1
841 1072 1
856 1072 1
1096 1072 1
1102 1072 1
591 1073 1
593 1073 1
612 1073 1
617 1073 1
842 1073 1
857 1073 1
1097 1073 1
1103 1073 1
592 1074 1
594 1074 1
613 1074 1
618 1074 1
843 1074 1
858 1074 1
1098 1074 1
1104 1074 1
593 1075 1
595 1075 1
614 1075 1
619 1075 1
844 1075 1
859 1075 1
1081 1075 1
1099 1075 1
594 1076 1
596 1076 1
615 1076 1
620 1076 1
845 1076 1
860 1076 1
1082 1076 1
1100 1076 1
595 1077 1
597 1077 1
616 1077 1
621 1077 1
846 1077 1
861 1077 1
1083 1077 1
1101 1077 1
596 1078 1
598 1078 1
617 1078 1
622 1078 1
847 1078 1
862 1078 1
1084 1078 1
1102 1078 1
597 1079 1
599 1079 1
618 1079 1
623 1079 1
848 1079 1
863 1079 1
1085 1079 1
1103 1079 1
598 1080 1
600 1080 1
619 1080 1
624 1080 1
849 1080 1
864 1080 1
1086 1080 1
1104 1080 1
625 1081 1
641 1081 1
649 1081 1
664 1081 1
721 1081 1
734 1081 1
1105 1081 1
1111 1081 1
626 1082 1
642 1082 1
650 1082 1
665 1082 1
722 1082 1
735 1082 1
1106 1082 1
1112 1082 1
627 1083 1
643 1083 1
651 1083 1
666 1083 1
723 1083 1
736 1083 1
1107 1083 1
1113 1083 1
628 1084 1
644 1084 1
652 1084 1
667 1084 1
724 1084 1
737 1084 1
1108 1084 1
1114 1084 1
629 1085 1
645 1085 1
653 1085 1
668 1085 1
725 1085 1
738 1085 1
1109 1085 1
1115 1085 1
630 1086 1
646 1086 1
654 1086 1
669 1086 1
726 1086 1
739 1086 1
1110 1086 1
1116 1086 1
631 1087 1
647 1087 1
655 1087 1
670 1087 1
727 1087 1
740 1087 1
1111 1087 1
1117 1087 1
632 1088 1
648 1088 1
656 1088 1
671 1088 1
728 1088 1
741 1088 1
1112 1088 1
1118 1088 1
625 1089 1
633 1089 1
657 1089 1
672 1089 1
729 1089 1
742 1089 1
1113 1089 1
1119 1089 1
626 1090 1
634 1090 1
649 1090 1
658 1090 1
730 1090 1
743 1090 1
1114 1090 1
1120 1090 1
627 1091 1
635 1091 1
650 1091 1
659 1091 1
731 1091 1
744 1091 1
1115 1091 1
1121 1091 1
628 1092 1
636 1092 1
651 1092 1
660 1092 1
721 1092 1
732 1092 1
1116 1092 1
1122 1092 1
629 1093 1
637 1093 1
652 1093 1
661 1093 1
722 1093 1
733 1093 1
1117 1093 1
1123 1093 1
630 1094 1
638 1094 1
653 1094 1
662 1094 1
723 1094 1
734 1094 1
1118 1094 1
1124 1094 1
631 1095 1
639 1095 1
654 1095 1
663 1095 1
724 1095 1
735 1095 1
1119 1095 1
1125 1095 1
632 1096 1
640 1096 1
655 1096 1
664 1096 1
725 1096 1
736 1096 1
1120 1096 1
1126 1096 1
633 1097 1
641 1097 1
656 1097 1
665 1097 1
726 1097 1
737 1097 1
1121 1097 1
1127 1097 1
634 1098 1
642 1098 1
657 1098 1
666 1098 1
727 1098 1
738 1098 1
1122 1098 1
1128 1098 1
635 1099 1
643 1099 1
658 1099 1
667 1099 1
728 1099 1
739 1099 1
1105 1099 1
1123 1099 1
636 1100 1
644 1100 1
659 1100 1
668 1100 1
729 1100 1
740 1100 1
1106 1100 1
1124 1100 1
637 1101 1
645 1101 1
660 1101 1
669 1101 1
730 1101 1
741 1101 1
1107 1101 1
1125 1101 1
638 1102 1
646 1102 1
661 1102 1
670 1102 1
731 1102 1
742 1102 1
1108 1102 1
1126 1102 1
639 1103 1
647 1103 1
662 1103 1
671 1103 1
732 1103 1
743 1103 1
1109 1103 1
1127 1103 1
640 1104 1
648 1104 1
663 1104 1
672 1104 1
733 1104 1
744 1104 1
1110 1104 1
1128 1104 1
625 1105 1
644 1105 1
673 1105 1
688 1105 1
745 1105 1
758 1105 1
1129 1105 1
1135 1105 1
626 1106 1
645 1106 1
674 1106 1
689 1106 1
746 1106 1
759 1106 1
1130 1106 1
1136 1106 1
627 1107 1
646 1107 1
675 1107 1
690 1107 1
747 1107 1
760 1107 1
1131 1107 1
1137 1107 1
628 1108 1
647 1108 1
676 1108 1
691 1108 1
748 1108 1
761 1108 1
1132 1108 1
1138 1108 1
629 1109 1
648 1109 1
677 1109 1
692 1109 1
749 1109 1
762 1109 1
1133 1109 1
1139 1109 1
625 1110 1
630 1110 1
678 1110 1
693 1110 1
750 1110 1
763 1110 1
1134 1110 1
1140 1110 1
626 1111 1
631 1111 1
679 1111 1
694 1111 1
751 1111 1
764 1111 1
1135 1111 1
1141 1111 1
627 1112 1
632 1112 1
680 1112 1
695 1112 1
752 1112 1
765 1112 1
1136 1112 1
1142 1112 1
628 1113 1
633 1113 1
681 1113 1
696 1113 1
753 1113 1
766 1113 1
1137 1113 1
1143 1113 1
629 1114 1
634 1114 1
673 1114 1
682 1114 1
754 1114 1
767 1114 1
1138 1114 1
1144 1114 1
630 1115 1
635 1115 1
674 1115 1
683 1115 1
755 1115 1
768 1115 1
1139 1115 1
1145 1115 1
631 1116 1
636 1116 1
675 1116 1
684 1116 1
745 1116 1
756 1116 1
1140 1116 1
1146 1116 1
632 1117 1
637 1117 1
676 1117 1
685 1117 1
746 1117 1
757 1117 1
1141 1117 1
1147 1117 1
633 1118 1
638 1118 1
677 1118 1
686 1118 1
747 1118 1
758 1118 1
1142 1118 1
1148 1118 1
634 1119 1
639 1119 1
678 1119 1
687 1119 1
748 1119 1
759 1119 1
1143 1119 1
1149 1119 1
635 1120 1
640 1120 1
679 1120 1
688 1120 1
749 1120 1
760 1120 1
1144 1120 1
1150 1120 1
636 1121 1
641 1121 1
680 1121 1
689 1121 1
750 1121 1
761 1121 1
1145 1121 1
1151 1121 1
637 1122 1
642 1122 1
681 1122 1
690 1122 1
751 1122 1
762 1122 1
1146 1122 1
1152 1122 1
638 1123 1
643 1123 1
682 1123 1
691 1123 1
752 1123 1
763 1123 1
1129 1123 1
1147 1123 1
639 1124 1
644 1124 1
683 1124 1
692 1124 1
753 1124 1
764 1124 1
1130 1124 1
1148 1124 1
640 1125 1
645 1125 1
684 1125 1
693 1125 1
754 1125 1
765 1125 1
1131 1125 1
1149 1125 1
641 1126 1
646 1126 1
685 1126 1
694 1126 1
755 1126 1
766 1126 1
1132 1126 1
1150 1126 1
642 1127 1
647 1127 1
686 1127 1
695 1127 1
756 1127 1
767 1127 1
1133 1127 1
1151 1127 1
643 1128 1
648 1128 1
687 1128 1
696 1128 1
757 1128 1
768 1128 1
1134 1128 1
1152 1128 1
625 1129 1
647 1129 1
697 1129 1
712 1129 1
769 1129 1
782 1129 1
1153 1129 1
1159 1129 1
626 1130 1
648 1130 1
698 1130 1
713 1130 1
770 1130 1
783 1130 1
1154 1130 1
1160 1130 1
625 1131 1
627 1131 1
699 1131 1
714 1131 1
771 1131 1
784 1131 1
1155 1131 1
1161 1131 1
626 1132 1
628 1132 1
700 1132 1
715 1132 1
772 1132 1
785 1132 1
1156 1132 1
1162 1132 1
627 1133 1
629 1133 1
701 1133 1
716 1133 1
773 1133 1
786 1133 1
1157 1133 1
1163 1133 1
628 1134 1
630 1134 1
702 1134 1
717 1134 1
774 1134 1
787 1134 1
1158 1134 1
1164 1134 1
629 1135 1
631 1135 1
703 1135 1
718 1135 1
775 1135 1
788 1135 1
1159 1135 1
1165 1135 1
630 1136 1
632 1136 1
704 1136 1
719 1136 1
776 1136 1
789 1136 1
1160 1136 1
1166 1136 1
631 1137 1
633 1137 1
705 1137 1
720 1137 1
777 1137 1
790 1137 1
1161 1137 1
1167 1137 1
632 1138 1
634 1138 1
697 1138 1
706 1138 1
778 1138 1
791 1138 1
1162 1138 1
1168 1138 1
633 1139 1
635 1139 1
698 1139 1
707 1139 1
779 1139 1
792 1139 1
1163 1139 1
1169 1139 1
634 1140 1
636 1140 1
699 1140 1
708 1140 1
769 1140 1
780 1140 1
1164 1140 1
1170 1140 1
635 1141 1
637 1141 1
700 1141 1
709 1141 1
770 1141 1
781 1141 1
1165 1141 1
1171 1141 1
636 1142 1
638 1142 1
701 1142 1
710 1142 1
771 1142 1
782 1142 1
1166 1142 1
1172 1142 1
637 1143 1
639 1143 1
702 1143 1
711 1143 1
772 1143 1
783 1143 1
1167 1143 1
1173 1143 1
638 1144 1
640 1144 1
703 1144 1
712 1144 1
773 1144 1
784 1144 1
1168 1144 1
1174 1144 1
639 1145 1
641 1145 1
704 1145 1
713 1145 1
774 1145 1
785 1145 1
1169 1145 1
1175 1145 1
640 1146 1
642 1146 1
705 1146 1
714 1146 1
775 1146 1
786 1146 1
1170 1146 1
1176 1146 1
641 1147 1
643 1147 1
706 1147 1
715 1147 1
776 1147 1
787 1147 1
1153 1147 1
1171 1147 1
642 1148 1
644 1148 1
707 1148 1
716 1148 1
777 1148 1
788 1148 1
1154 1148 1
1172 1148 1
643 1149 1
645 1149 1
708 1149 1
717 1149 1
778 1149 1
789 1149 1
1155 1149 1
1173 1149 1
644 1150 1
646 1150 1
709 1150 1
718 1150 1
779 1150 1
790 1150 1
1156 1150 1
1174 1150 1
645 1151 1
647 1151 1
710 1151 1
719 1151 1
780 1151 1
791 1151 1
1157 1151 1
1175 1151 1
646 1152 1
648 1152 1
711 1152 1
720 1152 1
781 1152 1
792 1152 1
1158 1152 1
1176 1152 1
649 1153 1
668 1153 1
673 1153 1
689 1153 1
793 1153 1
806 1153 1
1177 1153 1
1183 1153 1
650 1154 1
669 1154 1
674 1154 1
690 1154 1
794 1154 1
807 1154 1
1178 1154 1
1184 1154 1
651 1155 1
670 1155 1
675 1155 1
691 1155 1
795 1155 1
808 1155 1
1179 1155 1
1185 1155 1
652 1156 1
671 1156 1
676 1156 1
692 1156 1
796 1156 1
809 1156 1
1180 1156 1
1186 1156 1
653 1157 1
672 1157 1
677 1157 1
693 1157 1
797 1157 1
810 1157 1
1181 1157 1
1187 1157 1
649 1158 1
654 1158 1
678 1158 1
694 1158 1
798 1158 1
811 1158 1
1182 1158 1
1188 1158 1
650 1159 1
655 1159 1
679 1159 1
695 1159 1
799 1159 1
812 1159 1
1183 1159 1
1189 1159 1
651 1160 1
656 1160 1
680 1160 1
696 1160 1
800 1160 1
813 1160 1
1184 1160 1
1190 1160 1
652 1161 1
657 1161 1
673 1161 1
681 1161 1
801 1161 1
814 1161 1
1185 1161 1
1191 1161 1
653 1162 1
658 1162 1
674 1162 1
682 1162 1
802 1162 1
815 1162 1
1186 1162 1
1192 1162 1
654 1163 1
659 1163 1
675 1163 1
683 1163 1
803 1163 1
816 1163 1
1187 1163 1
1193 1163 1
655 1164 1
660 1164 1
676 1164 1
684 1164 1
793 1164 1
804 1164 1
1188 1164 1
1194 1164 1
656 1165 1
661 1165 1
677 1165 1
685 1165 1
794 1165 1
805 1165 1
1189 1165 1
1195 1165 1
657 1166 1
662 1166 1
678 1166 1
686 1166 1
795 1166 1
806 1166 1
1190 1166 1
1196 1166 1
658 1167 1
663 1167 1
679 1167 1
687 1167 1
796 1167 1
807 1167 1
1191 1167 1
1197 1167 1
659 1168 1
664 1168 1
680 1168 1
688 1168 1
797 1168 1
808 1168 1
1192 1168 1
1198 1168 1
660 1169 1
665 1169 1
681 1169 1
689 1169 1
798 1169 1
809 1169 1
1193 1169 1
1199 1169 1
661 1170 1
666 1170 1
682 1170 1
690 1170 1
799 1170 1
810 1170 1
1194 1170 1
1200 1170 1
662 1171 1
667 1171 1
683 1171 1
691 1171 1
800 1171 1
811 1171 1
1177 1171 1
1195 1171 1
663 1172 1
668 1172 1
684 1172 1
692 1172 1
801 1172 1
812 1172 1
1178 1172 1
1196 1172 1
664 1173 1
669 1173 1
685 1173 1
693 1173 1
802 1173 1
813 1173 1
1179 1173 1
1197 1173 1
665 1174 1
670 1174 1
686 1174 1
694 1174 1
803 1174 1
814 1174 1
1180 1174 1
1198 1174 1
666 1175 1
671 1175 1
687 1175 1
695 1175 1
804 1175 1
815 1175 1
1181 1175 1
1199 1175 1
667 1176 1
672 1176 1
688 1176 1
696 1176 1
805 1176 1
816 1176 1
1182 1176 1
1200 1176 1
649 1177 1
671 1177 1
697 1177 1
713 1177 1
817 1177 1
830 1177 1
1201 1177 1
1207 1177 1
650 1178 1
672 1178 1
698 1178 1
714 1178 1
818 1178 1
831 1178 1
1202 1178 1
1208 1178 1
649 1179 1
651 1179 1
699 1179 1
715 1179 1
819 1179 1
832 1179 1
1203 1179 1
1209 1179 1
650 1180 1
652 1180 1
700 1180 1
716 1180 1
820 1180 1
833 1180 1
1204 1180 1
1210 1180 1
651 1181 1
653 1181 1
701 1181 1
717 1181 1
821 1181 1
834 1181 1
1205 1181 1
1211 1181 1
652 1182 1
654 1182 1
702 1182 1
718 1182 1
822 1182 1
835 1182 1
1206 1182 1
1212 1182 1
653 1183 1
655 1183 1
703 1183 1
719 1183 1
823 1183 1
836 1183 1
1207 1183 1
1213 1183 1
654 1184 1
656 1184 1
704 1184 1
720 1184 1
824 1184 1
837 1184 1
1208 1184 1
1214 1184 1
655 1185 1
657 1185 1
697 1185 1
705 1185 1
825 1185 1
838 1185 1
1209 1185 1
1215 1185 1
656 1186 1
658 1186 1
698 1186 1
706 1186 1
826 1186 1
839 1186 1
1210 1186 1
1216 1186 1
657 1187 1
659 1187 1
699 1187 1
707 1187 1
827 1187 1
840 1187 1
1211 1187 1
1217 1187 1
658 1188 1
660 1188 1
700 1188 1
708 1188 1
817 1188 1
828 1188 1
1212 1188 1
1218 1188 1
659 1189 1
661 1189 1
701 1189 1
709 1189 1
818 1189 1
829 1189 1
1213 1189 1
1219 1189 1
660 1190 1
662 1190 1
702 1190 1
710 1190 1
819 1190 1
830 1190 1
1214 1190 1
1220 1190 1
661 1191 1
663 1191 1
703 1191 1
711 1191 1
820 1191 1
831 1191 1
1215 1191 1
1221 1191 1
662 1192 1
664 1192 1
704 1192 1
712 1192 1
821 1192 1
832 1192 1
1216 1192 1
1222 1192 1
663 1193 1
665 1193 1
705 1193 1
713 1193 1
822 1193 1
833 1193 1
1217 1193 1
1223 1193 1
664 1194 1
666 1194 1
706 1194 1
714 1194 1
823 1194 1
834 1194 1
1218 1194 1
1224 1194 1
665 1195 1
667 1195 1
707 1195 1
715 1195 1
824 1195 1
835 1195 1
1201 1195 1
1219 1195 1
666 1196 1
668 1196 1
708 1196 1
716 1196 1
825 1196 1
836 1196 1
1202 1196 1
1220 1196 1
667 1197 1
669 1197 1
709 1197 1
717 1197 1
826 1197 1
837 1197 1
1203 1197 1
1221 1197 1
668 1198 1
670 1198 1
710 1198 1
718 1198 1
827 1198 1
838 1198 1
1204 1198 1
1222 1198 1
669 1199 1
671 1199 1
711 1199 1
719 1199 1
828 1199 1
839 1199 1
1205 1199 1
1223 1199 1
670 1200 1
672 1200 1
712 1200 1
720 1200 1
829 1200 1
840 1200 1
1206 1200 1
1224 1200 1
673 1201 1
695 1201 1
697 1201 1
716 1201 1
841 1201 1
854 1201 1
1225 1201 1
1231 1201 1
674 1202 1
696 1202 1
698 1202 1
717 1202 1
842 1202 1
855 1202 1
1226 1202 1
1232 1202 1
673 1203 1
675 1203 1
699 1203 1
718 1203 1
843 1203 1
856 1203 1
1227 1203 1
1233 1203 1
674 1204 1
676 1204 1
700 1204 1
719 1204 1
844 1204 1
857 1204 1
1228 1204 1
1234 1204 1
675 1205 1
677 1205 1
701 1205 1
720 1205 1
845 1205 1
858 1205 1
1229 1205 1
1235 1205 1
676 1206 1
678 1206 1
697 1206 1
702 1206 1
846 1206 1
859 1206 1
1230 1206 1
1236 1206 1
677 1207 1
679 1207 1
698 1207 1
703 1207 1
847 1207 1
860 1207 1
1231 1207 1
1237 1207 1
678 1208 1
680 1208 1
699 1208 1
704 1208 1
848 1208 1
861 1208 1
1232 1208 1
1238 1208 1
679 1209 1
681 1209 1
700 1209 1
705 1209 1
849 1209 1
862 1209 1
1233 1209 1
1239 1209 1
680 1210 1
682 1210 1
701 1210 1
706 1210 1
850 1210 1
863 1210 1
1234 1210 1
1240 1210 1
681 1211 1
683 1211 1
702 1211 1
707 1211 1
851 1211 1
864 1211 1
1235 1211 1
1241 1211 1
682 1212 1
684 1212 1
703 1212 1
708 1212 1
841 1212 1
852 1212 1
1236 1212 1
1242 1212 1
683 1213 1
685 1213 1
704 1213 1
709 1213 1
842 1213 1
853 1213 1
1237 1213 1
1243 1213 1
684 1214 1
686 1214 1
705 1214 1
710 1214 1
843 1214 1
854 1214 1
1238 1214 1
1244 1214 1
685 1215 1
687 1215 1
706 1215 1
711 1215 1
844 1215 1
855 1215 1
1239 1215 1
1245 1215 1
686 1216 1
688 1216 1
707 1216 1
712 1216 1
845 1216 1
856 1216 1
1240 1216 1
1246 1216 1
687 1217 1
689 1217 1
708 1217 1
713 1217 1
846 1217 1
857 1217 1
1241 1217 1
1247 1217 1
688 1218 1
690 1218 1
709 1218 1
714 1218 1
847 1218 1
858 1218 1
1242 1218 1
1248 1218 1
689 1219 1
691 1219 1
710 1219 1
715 1219 1
848 1219 1
859 1219 1
1225 1219 1
1243 1219 1
690 1220 1
692 1220 1
711 1220 1
716 1220 1
849 1220 1
860 1220 1
1226 1220 1
1244 1220 1
691 1221 1
693 1221 1
712 1221 1
717 1221 1
850 1221 1
861 1221 1
1227 1221 1
1245 1221 1
692 1222 1
694 1222 1
713 1222 1
718 1222 1
851 1222 1
862 1222 1
1228 1222 1
1246 1222 1
693 1223 1
695 1223 1
714 1223 1
719 1223 1
852 1223 1
863 1223 1
1229 1223 1
1247 1223 1
694 1224 1
696 1224 1
715 1224 1
720 1224 1
853 1224 1
864 1224 1
1230 1224 1
1248 1224 1
721 1225 1
740 1225 1
745 1225 1
761 1225 1
793 1225 1
808 1225 1
1249 1225 1
1255 1225 1
722 1226 1
741 1226 1
746 1226 1
762 1226 1
794 1226 1
809 1226 1
1250 1226 1
1256 1226 1
723 1227 1
742 1227 1
747 1227 1
763 1227 1
795 1227 1
810 1227 1
1251 1227 1
1257 1227 1
724 1228 1
743 1228 1
748 1228 1
764 1228 1
796 1228 1
811 1228 1
1252 1228 1
1258 1228 1
725 1229 1
744 1229 1
749 1229 1
765 1229 1
797 1229 1
812 1229 1
1253 1229 1
1259 1229 1
721 1230 1
726 1230 1
750 1230 1
766 1230 1
798 1230 1
813 1230 1
1254 1230 1
1260 1230 1
722 1231 1
727 1231 1
751 1231 1
767 1231 1
799 1231 1
814 1231 1
1255 1231 1
1261 1231 1
723 1232 1
728 1232 1
752 1232 1
768 1232 1
800 1232 1
815 1232 1
1256 1232 1
1262 1232 1
724 1233 1
729 1233 1
745 1233 1
753 1233 1
801 1233 1
816 1233 1
1257 1233 1
1263 1233 1
725 1234 1
730 1234 1
746 1234 1
754 1234 1
793 1234 1
802 1234 1
1258 1234 1
1264 1234 1
726 1235 1
731 1235 1
747 1235 1
755 1235 1
794 1235 1
803 1235 1
1259 1235 1
1265 1235 1
727 1236 1
732 1236 1
748 1236 1
756 1236 1
795 1236 1
804 1236 1
1260 1236 1
1266 1236 1
728 1237 1
733 1237 1
749 1237 1
757 1237 1
796 1237 1
805 1237 1
1261 1237 1
1267 1237 1
729 1238 1
734 1238 1
750 1238 1
758 1238 1
797 1238 1
806 1238 1
1262 1238 1
1268 1238 1
730 1239 1
735 1239 1
751 1239 1
759 1239 1
798 1239 1
807 1239 1
1263 1239 1
1269 1239 1
731 1240 1
736 1240 1
752 1240 1
760 1240 1
799 1240 1
808 1240 1
1264 1240 1
1270 1240 1
732 1241 1
737 1241 1
753 1241 1
761 1241 1
800 1241 1
809 1241 1
1265 1241 1
1271 1241 1
733 1242 1
738 1242 1
754 1242 1
762 1242 1
801 1242 1
810 1242 1
1266 1242 1
1272 1242 1
734 1243 1
739 1243 1
755 1243 1
763 1243 1
802 1243 1
811 1243 1
1249 1243 1
1267 1243 1
735 1244 1
740 1244 1
756 1244 1
764 1244 1
803 1244 1
812 1244 1
1250 1244 1
1268 1244 1
736 1245 1
741 1245 1
757 1245 1
765 1245 1
804 1245 1
813 1245 1
1251 1245 1
1269 1245 1
737 1246 1
742 1246 1
758 1246 1
766 1246 1
805 1246 1
814 1246 1
1252 1246 1
1270 1246 1
738 1247 1
743 1247 1
759 1247 1
767 1247 1
806 1247 1
815 1247 1
1253 1247 1
1271 1247 1
739 1248 1
744 1248 1
760 1248 1
768 1248 1
807 1248 1
816 1248 1
1254 1248 1
1272 1248 1
721 1249 1
743 1249 1
769 1249 1
785 1249 1
817 1249 1
832 1249 1
1273 1249 1
1279 1249 1
722 1250 1
744 1250 1
770 1250 1
786 1250 1
818 1250 1
833 1250 1
1274 1250 1
1280 1250 1
721 1251 1
723 1251 1
771 1251 1
787 1251 1
819 1251 1
834 1251 1
1275 1251 1
1281 1251 1
722 1252 1
724 1252 1
772 1252 1
788 1252 1
820 1252 1
835 1252 1
1276 1252 1
1282 1252 1
723 1253 1
725 1253 1
773 1253 1
789 1253 1
821 1253 1
836 1253 1
1277 1253 1
1283 1253 1
724 1254 1
726 1254 1
774 1254 1
790 1254 1
822 1254 1
837 1254 1
1278 1254 1
1284 1254 1
725 1255 1
727 1255 1
775 1255 1
791 1255 1
823 1255 1
838 1255 1
1279 1255 1
1285 1255 1
726 1256 1
728 1256 1
776 1256 1
792 1256 1
824 1256 1
839 1256 1
1280 1256 1
1286 1256 1
727 1257 1
729 1257 1
769 1257 1
777 1257 1
825 1257 1
840 1257 1
1281 1257 1
1287 1257 1
728 1258 1
730 1258 1
770 1258 1
778 1258 1
817 1258 1
826 1258 1
1282 1258 1
1288 1258 1
729 1259 1
731 1259 1
771 1259 1
779 1259 1
818 1259 1
827 1259 1
1283 1259 1
1289 1259 1
730 1260 1
732 1260 1
772 1260 1
780 1260 1
819 1260 1
828 1260 1
1284 1260 1
1290 1260 1
731 1261 1
733 1261 1
773 1261 1
781 1261 1
820 1261 1
829 1261 1
1285 1261 1
1291 1261 1
732 1262 1
734 1262 1
774 1262 1
782 1262 1
821 1262 1
830 1262 1
1286 1262 1
1292 1262 1
733 1263 1
735 1263 1
775 1263 1
783 1263 1
822 1263 1
831 1263 1
1287 1263 1
1293 1263 1
734 1264 1
736 1264 1
776 1264 1
784 1264 1
823 1264 1
832 1264 1
1288 1264 1
1294 1264 1
735 1265 1
737 1265 1
777 1265 1
785 1265 1
824 1265 1
833 1265 1
1289 1265 1
1295 1265 1
736 1266 1
738 1266 1
778 1266 1
786 1266 1
825 1266 1
834 1266 1
1290 1266 1
1296 1266 1
737 1267 1
739 1267 1
779 1267 1
787 1267 1
826 1267 1
835 1267 1
1273 1267 1
1291 1267 1
738 1268 1
740 1268 1
780 1268 1
788 1268 1
827 1268 1
836 1268 1
1274 1268 1
1292 1268 1
739 1269 1
741 1269 1
781 1269 1
789 1269 1
828 1269 1
837 1269 1
1275 1269 1
1293 1269 1
740 1270 1
742 1270 1
782 1270 1
790 1270 1
829 1270 1
838 1270 1
1276 1270 1
1294 1270 1
741 1271 1
743 1271 1
783 1271 1
791 1271 1
830 1271 1
839 1271 1
1277 1271 1
1295 1271 1
742 1272 1
744 1272 1
784 1272 1
792 1272 1
831 1272 1
840 1272 1
1278 1272 1
1296 1272 1
745 1273 1
767 1273 1
769 1273 1
788 1273 1
841 1273 1
856 1273 1
1297 1273 1
1303 1273 1
746 1274 1
768 1274 1
770 1274 1
789 1274 1
842 1274 1
857 1274 1
1298 1274 1
1304 1274 1
745 1275 1
747 1275 1
771 1275 1
790 1275 1
843 1275 1
858 1275 1
1299 1275 1
1305 1275 1
746 1276 1
748 1276 1
772 1276 1
791 1276 1
844 1276 1
859 1276 1
1300 1276 1
1306 1276 1
747 1277 1
749 1277 1
773 1277 1
792 1277 1
845 1277 1
860 1277 1
1301 1277 1
1307 1277 1
748 1278 1
750 1278 1
769 1278 1
774 1278 1
846 1278 1
861 1278 1
1302 1278 1
1308 1278 1
749 1279 1
751 1279 1
770 1279 1
775 1279 1
847 1279 1
862 1279 1
1303 1279 1
1309 1279 1
750 1280 1
752 1280 1
771 1280 1
776 1280 1
848 1280 1
863 1280 1
1304 1280 1
1310 1280 1
751 1281 1
753 1281 1
772 1281 1
777 1281 1
849 1281 1
864 1281 1
1305 1281 1
1311 1281 1
752 1282 1
754 1282 1
773 1282 1
778 1282 1
841 1282 1
850 1282 1
1306 1282 1
1312 1282 1
753 1283 1
755 1283 1
774 1283 1
779 1283 1
842 1283 1
851 1283 1
1307 1283 1
1313 1283 1
754 1284 1
756 1284 1
775 1284 1
780 1284 1
843 1284 1
852 1284 1
1308 1284 1
1314 1284 1
755 1285 1
757 1285 1
776 1285 1
781 1285 1
844 1285 1
853 1285 1
1309 1285 1
1315 1285 1
756 1286 1
758 1286 1
777 1286 1
782 1286 1
845 1286 1
854 1286 1
1310 1286 1
1316 1286 1
757 1287 1
759 1287 1
778 1287 1
783 1287 1
846 1287 1
855 1287 1
1311 1287 1
1317 1287 1
758 1288 1
760 1288 1
779 1288 1
784 1288 1
847 1288 1
856 1288 1
1312 1288 1
1318 1288 1
759 1289 1
761 1289 1
780 1289 1
785 1289 1
848 1289 1
857 1289 1
1313 1289 1
1319 1289 1
760 1290 1
762 1290 1
781 1290 1
786 1290 1
849 1290 1
858 1290 1
1314 1290 1
1320 1290 1
761 1291 1
763 1291 1
782 1291 1
787 1291 1
850 1291 1
859 1291 1
1297 1291 1
1315 1291 1
762 1292 1
764 1292 1
783 1292 1
788 1292 1
851 1292 1
860 1292 1
1298 1292 1
1316 1292 1
763 1293 1
765 1293 1
784 1293 1
789 1293 1
852 1293 1
861 1293 1
1299 1293 1
1317 1293 1
764 1294 1
766 1294 1
785 1294 1
790 1294 1
853 1294 1
862 1294 1
1300 1294 1
1318 1294 1
765 1295 1
767 1295 1
786 1295 1
791 1295 1
854 1295 1
863 1295 1
1301 1295 1
1319 1295 1
766 1296 1
768 1296 1
787 1296 1
792 1296 1
855 1296 1
864 1296 1
1302 1296 1
1320 1296 1
793 1297 1
815 1297 1
817 1297 1
836 1297 1
841 1297 1
857 1297 1
1321 1297 1
1327 1297 1
794 1298 1
816 1298 1
818 1298 1
837 1298 1
842 1298 1
858 1298 1
1322 1298 1
1328 1298 1
793 1299 1
795 1299 1
819 1299 1
838 1299 1
843 1299 1
859 1299 1
1323 1299 1
1329 1299 1
794 1300 1
796 1300 1
820 1300 1
839 1300 1
844 1300 1
860 1300 1
1324 1300 1
1330 1300 1
795 1301 1
797 1301 1
821 1301 1
840 1301 1
845 1301 1
861 1301 1
1325 1301 1
1331 1301 1
796 1302 1
798 1302 1
817 1302 1
822 1302 1
846 1302 1
862 1302 1
1326 1302 1
1332 1302 1
797 1303 1
799 1303 1
818 1303 1
823 1303 1
847 1303 1
863 1303 1
1327 1303 1
1333 1303 1
798 1304 1
800 1304 1
819 1304 1
824 1304 1
848 1304 1
864 1304 1
1328 1304 1
1334 1304 1
799 1305 1
801 1305 1
820 1305 1
825 1305 1
841 1305 1
849 1305 1
1329 1305 1
1335 1305 1
800 1306 1
802 1306 1
821 1306 1
826 1306 1
842 1306 1
850 1306 1
1330 1306 1
1336 1306 1
801 1307 1
803 1307 1
822 1307 1
827 1307 1
843 1307 1
851 1307 1
1331 1307 1
1337 1307 1
802 1308 1
804 1308 1
823 1308 1
828 1308 1
844 1308 1
852 1308 1
1332 1308 1
1338 1308 1
803 1309 1
805 1309 1
824 1309 1
829 1309 1
845 1309 1
853 1309 1
1333 1309 1
1339 1309 1
804 1310 1
806 1310 1
825 1310 1
830 1310 1
846 1310 1
854 1310 1
1334 1310 1
1340 1310 1
805 1311 1
807 1311 1
826 1311 1
831 1311 1
847 1311 1
855 1311 1
1335 1311 1
1341 1311 1
806 1312 1
808 1312 1
827 1312 1
832 1312 1
848 1312 1
856 1312 1
1336 1312 1
1342 1312 1
807 1313 1
809 1313 1
828 1313 1
833 1313 1
849 1313 1
857 1313 1
1337 1313 1
1343 1313 1
808 1314 1
810 1314 1
829 1314 1
834 1314 1
850 1314 1
858 1314 1
1338 1314 1
1344 1314 1
809 1315 1
811 1315 1
830 1315 1
835 1315 1
851 1315 1
859 1315 1
1321 1315 1
1339 1315 1
810 1316 1
812 1316 1
831 1316 1
836 1316 1
852 1316 1
860 1316 1
1322 1316 1
1340 1316 1
811 1317 1
813 1317 1
832 1317 1
837 1317 1
853 1317 1
861 1317 1
1323 1317 1
1341 1317 1
812 1318 1
814 1318 1
833 1318 1
838 1318 1
854 1318 1
862 1318 1
1324 1318 1
1342 1318 1
813 1319 1
815 1319 1
834 1319 1
839 1319 1
855 1319 1
863 1319 1
1325 1319 1
1343 1319 1
814 1320 1
816 1320 1
835 1320 1
840 1320 1
856 1320 1
864 1320 1
1326 1320 1
1344 1320 1
865 1321 1
881 1321 1
889 1321 1
904 1321 1
961 1321 1
974 1321 1
1105 1321 1
1114 1321 1
866 1322 1
882 1322 1
890 1322 1
905 1322 1
962 1322 1
975 1322 1
1106 1322 1
1115 1322 1
867 1323 1
883 1323 1
891 1323 1
906 1323 1
963 1323 1
976 1323 1
1107 1323 1
1116 1323 1
868 1324 1
884 1324 1
892 1324 1
907 1324 1
964 1324 1
977 1324 1
1108 1324 1
1117 1324 1
869 1325 1
885 1325 1
893 1325 1
908 1325 1
965 1325 1
978 1325 1
1109 1325 1
1118 1325 1
870 1326 1
886 1326 1
894 1326 1
909 1326 1
966 1326 1
979 1326 1
1110 1326 1
1119 1326 1
871 1327 1
887 1327 1
895 1327 1
910 1327 1
967 1327 1
980 1327 1
1111 1327 1
1120 1327 1
872 1328 1
888 1328 1
896 1328 1
911 1328 1
968 1328 1
981 1328 1
1112 1328 1
1121 1328 1
865 1329 1
873 1329 1
897 1329 1
912 1329 1
969 1329 1
982 1329 1
1113 1329 1
1122 1329 1
866 1330 1
874 1330 1
889 1330 1
898 1330 1
970 1330 1
983 1330 1
1114 1330 1
1123 1330 1
867 1331 1
875 1331 1
890 1331 1
899 1331 1
971 1331 1
984 1331 1
1115 1331 1
1124 1331 1
868 1332 1
876 1332 1
891 1332 1
900 1332 1
961 1332 1
972 1332 1
1116 1332 1
1125 1332 1
869 1333 1
877 1333 1
892 1333 1
901 1333 1
962 1333 1
973 1333 1
1117 1333 1
1126 1333 1
870 1334 1
878 1334 1
893 1334 1
902 1334 1
963 1334 1
974 1334 1
1118 1334 1
1127 1334 1
871 1335 1
879 1335 1
894 1335 1
903 1335 1
964 1335 1
975 1335 1
1119 1335 1
1128 1335 1
872 1336 1
880 1336 1
895 1336 1
904 1336 1
965 1336 1
976 1336 1
1105 1336 1
1120 1336 1
873 1337 1
881 1337 1
896 1337 1
905 1337 1
966 1337 1
977 1337 1
1106 1337 1
1121 1337 1
874 1338 1
882 1338 1
897 1338 1
906 1338 1
967 1338 1
978 1338 1
1107 1338 1
1122 1338 1
875 1339 1
883 1339 1
898 1339 1
907 1339 1
968 1339 1
979 1339 1
1108 1339 1
1123 1339 1
876 1340 1
884 1340 1
899 1340 1
908 1340 1
969 1340 1
980 1340 1
1109 1340 1
1124 1340 1
877 1341 1
885 1341 1
900 1341 1
909 1341 1
970 1341 1
981 1341 1
1110 1341 1
1125 1341 1
878 1342 1
886 1342 1
901 1342 1
910 1342 1
971 1342 1
982 1342 1
1111 1342 1
1126 1342 1
879 1343 1
887 1343 1
902 1343 1
911 1343 1
972 1343 1
983 1343 1
1112 1343 1
1127 1343 1
880 1344 1
888 1344 1
903 1344 1
912 1344 1
973 1344 1
984 1344 1
1113 1344 1
1128 1344 1
865 1345 1
884 1345 1
913 1345 1
928 1345 1
985 1345 1
998 1345 1
1129 1345 1
1138 1345 1
866 1346 1
885 1346 1
914 1346 1
929 1346 1
986 1346 1
999 1346 1
1130 1346 1
1139 1346 1
867 1347 1
886 1347 1
915 1347 1
930 1347 1
987 1347 1
1000 1347 1
1131 1347 1
1140 1347 1
868 1348 1
887 1348 1
916 1348 1
931 1348 1
988 1348 1
1001 1348 1
1132 1348 1
1141 1348 1
869 1349 1
888 1349 1
917 1349 1
932 1349 1
989 1349 1
1002 1349 1
1133 1349 1
1142 1349 1
865 1350 1
870 1350 1
918 1350 1
933 1350 1
990 1350 1
1003 1350 1
1134 1350 1
1143 1350 1
866 1351 1
871 1351 1
919 1351 1
934 1351 1
991 1351 1
1004 1351 1
1135 1351 1
1144 1351 1
867 1352 1
872 1352 1
920 1352 1
935 1352 1
992 1352 1
1005 1352 1
1136 1352 1
1145 1352 1
868 1353 1
873 1353 1
921 1353 1
936 1353 1
993 1353 1
1006 1353 1
1137 1353 1
1146 1353 1
869 1354 1
874 1354 1
913 1354 1
922 1354 1
994 1354 1
1007 1354 1
1138 1354 1
1147 1354 1
870 1355 1
875 1355 1
914 1355 1
923 1355 1
995 1355 1
1008 1355 1
1139 1355 1
1148 1355 1
871 1356 1
876 1356 1
915 1356 1
924 1356 1
985 1356 1
996 1356 1
1140 1356 1
1149 1356 1
872 1357 1
877 1357 1
916 1357 1
925 1357 1
986 1357 1
997 1357 1
1141 1357 1
1150 1357 1
873 1358 1
878 1358 1
917 1358 1
926 1358 1
987 1358 1
998 1358 1
1142 1358 1
1151 1358 1
874 1359 1
879 1359 1
918 1359 1
927 1359 1
988 1359 1
999 1359 1
1143 1359 1
1152 1359 1
875 1360 1
880 1360 1
919 1360 1
928 1360 1
989 1360 1
1000 1360 1
1129 1360 1
1144 1360 1
876 1361 1
881 1361 1
920 1361 1
929 1361 1
990 1361 1
1001 1361 1
1130 1361 1
1145 1361 1
877 1362 1
882 1362 1
921 1362 1
930 1362 1
991 1362 1
1002 1362 1
1131 1362 1
1146 1362 1
878 1363 1
883 1363 1
922 1363 1
931 1363 1
992 1363 1
1003 1363 1
1132 1363 1
1147 1363 1
879 1364 1
884 1364 1
923 1364 1
932 1364 1
993 1364 1
1004 1364 1
1133 1364 1
1148 1364 1
880 1365 1
885 1365 1
924 1365 1
933 1365 1
994 1365 1
1005 1365 1
1134 1365 1
1149 1365 1
881 1366 1
886 1366 1
925 1366 1
934 1366 1
995 1366 1
1006 1366 1
1135 1366 1
1150 1366 1
882 1367 1
887 1367 1
926 1367 1
935 1367 1
996 1367 1
1007 1367 1
1136 1367 1
1151 1367 1
883 1368 1
888 1368 1
927 1368 1
936 1368 1
997 1368 1
1008 1368 1
1137 1368 1
1152 1368 1
865 1369 1
887 1369 1
937 1369 1
952 1369 1
1009 1369 1
1022 1369 1
1153 1369 1
1162 1369 1
866 1370 1
888 1370 1
938 1370 1
953 1370 1
1010 1370 1
1023 1370 1
1154 1370 1
1163 1370 1
865 1371 1
867 1371 1
939 1371 1
954 1371 1
1011 1371 1
1024 1371 1
1155 1371 1
1164 1371 1
866 1372 1
868 1372 1
940 1372 1
955 1372 1
1012 1372 1
1025 1372 1
1156 1372 1
1165 1372 1
867 1373 1
869 1373 1
941 1373 1
956 1373 1
1013 1373 1
1026 1373 1
1157 1373 1
1166 1373 1
868 1374 1
870 1374 1
942 1374 1
957 1374 1
1014 1374 1
1027 1374 1
1158 1374 1
1167 1374 1
869 1375 1
871 1375 1
943 1375 1
958 1375 1
1015 1375 1
1028 1375 1
1159 1375 1
1168 1375 1
870 1376 1
872 1376 1
944 1376 1
959 1376 1
1016 1376 1
1029 1376 1
1160 1376 1
1169 1376 1
871 1377 1
873 1377 1
945 1377 1
960 1377 1
1017 1377 1
1030 1377 1
1161 1377 1
1170 1377 1
872 1378 1
874 1378 1
937 1378 1
946 1378 1
1018 1378 1
1031 1378 1
1162 1378 1
1171 1378 1
873 1379 1
875 1379 1
938 1379 1
947 1379 1
1019 1379 1
1032 1379 1
1163 1379 1
1172 1379 1
874 1380 1
876 1380 1
939 1380 1
948 1380 1
1009 1380 1
1020 1380 1
1164 1380 1
1173 1380 1
875 1381 1
877 1381 1
940 1381 1
949 1381 1
1010 1381 1
1021 1381 1
1165 1381 1
1174 1381 1
876 1382 1
878 1382 1
941 1382 1
950 1382 1
1011 1382 1
1022 1382 1
1166 1382 1
1175 1382 1
877 1383 1
879 1383 1
942 1383 1
951 1383 1
1012 1383 1
1023 1383 1
1167 1383 1
1176 1383 1
878 1384 1
880 1384 1
943 1384 1
952 1384 1
1013 1384 1
1024 1384 1
1153 1384 1
1168 1384 1
879 1385 1
881 1385 1
944 1385 1
953 1385 1
1014 1385 1
1025 1385 1
1154 1385 1
1169 1385 1
880 1386 1
882 1386 1
945 1386 1
954 1386 1
1015 1386 1
1026 1386 1
1155 1386 1
1170 1386 1
881 1387 1
883 1387 1
946 1387 1
955 1387 1
1016 1387 1
1027 1387 1
1156 1387 1
1171 1387 1
882 1388 1
884 1388 1
947 1388 1
956 1388 1
1017 1388 1
1028 1388 1
1157 1388 1
1172 1388 1
883 1389 1
885 1389 1
948 1389 1
957 1389 1
1018 1389 1
1029 1389 1
1158 1389 1
1173 1389 1
884 1390 1
886 1390 1
949 1390 1
958 1390 1
1019 1390 1
1030 1390 1
1159 1390 1
1174 1390 1
885 1391 1
887 1391 1
950 1391 1
959 1391 1
1020 1391 1
1031 1391 1
1160 1391 1
1175 1391 1
886 1392 1
888 1392 1
951 1392 1
960 1392 1
1021 1392 1
1032 1392 1
1161 1392 1
1176 1392 1
889 1393 1
908 1393 1
913 1393 1
929 1393 1
1033 1393 1
1046 1393 1
1177 1393 1
1186 1393 1
890 1394 1
909 1394 1
914 1394 1
930 1394 1
1034 1394 1
1047 1394 1
1178 1394 1
1187 1394 1
891 1395 1
910 1395 1
915 1395 1
931 1395 1
1035 1395 1
1048 1395 1
1179 1395 1
1188 1395 1
892 1396 1
911 1396 1
916 1396 1
932 1396 1
1036 1396 1
1049 1396 1
1180 1396 1
1189 1396 1
893 1397 1
912 1397 1
917 1397 1
933 1397 1
1037 1397 1
1050 1397 1
1181 1397 1
1190 1397 1
889 1398 1
894 1398 1
918 1398 1
934 1398 1
1038 1398 1
1051 1398 1
1182 1398 1
1191 1398 1
890 1399 1
895 1399 1
919 1399 1
935 1399 1
1039 1399 1
1052 1399 1
1183 1399 1
1192 1399 1
891 1400 1
896 1400 1
920 1400 1
936 1400 1
1040 1400 1
1053 1400 1
1184 1400 1
1193 1400 1
892 1401 1
897 1401 1
913 1401 1
921 1401 1
1041 1401 1
1054 1401 1
1185 1401 1
1194 1401 1
893 1402 1
898 1402 1
914 1402 1
922 1402 1
1042 1402 1
1055 1402 1
1186 1402 1
1195 1402 1
894 1403 1
899 1403 1
915 1403 1
923 1403 1
1043 1403 1
1056 1403 1
1187 1403 1
1196 1403 1
895 1404 1
900 1404 1
916 1404 1
924 1404 1
1033 1404 1
1044 1404 1
1188 1404 1
1197 1404 1
896 1405 1
901 1405 1
917 1405 1
925 1405 1
1034 1405 1
1045 1405 1
1189 1405 1
1198 1405 1
897 1406 1
902 1406 1
918 1406 1
926 1406 1
1035 1406 1
1046 1406 1
1190 1406 1
1199 1406 1
898 1407 1
903 1407 1
919 1407 1
927 1407 1
1036 1407 1
1047 1407 1
1191 1407 1
1200 1407 1
899 1408 1
904 1408 1
920 1408 1
928 1408 1
1037 1408 1
1048 1408 1
1177 1408 1
1192 1408 1
900 1409 1
905 1409 1
921 1409 1
929 1409 1
1038 1409 1
1049 1409 1
1178 1409 1
1193 1409 1
901 1410 1
906 1410 1
922 1410 1
930 1410 1
1039 1410 1
1050 1410 1
1179 1410 1
1194 1410 1
902 1411 1
907 1411 1
923 1411 1
931 1411 1
1040 1411 1
1051 1411 1
1180 1411 1
1195 1411 1
903 1412 1
908 1412 1
924 1412 1
932 1412 1
1041 1412 1
1052 1412 1
1181 1412 1
1196 1412 1
904 1413 1
909 1413 1
925 1413 1
933 1413 1
1042 1413 1
1053 1413 1
1182 1413 1
1197 1413 1
905 1414 1
910 1414 1
926 1414 1
934 1414 1
1043 1414 1
1054 1414 1
1183 1414 1
1198 1414 1
906 1415 1
911 1415 1
927 1415 1
935 1415 1
1044 1415 1
1055 1415 1
1184 1415 1
1199 1415 1
907 1416 1
912 1416 1
928 1416 1
936 1416 1
1045 1416 1
1056 1416 1
1185 1416 1
1200 1416 1
889 1417 1
911 1417 1
937 1417 1
953 1417 1
1057 1417 1
1070 1417 1
1201 1417 1
1210 1417 1
890 1418 1
912 1418 1
938 1418 1
954 1418 1
1058 1418 1
1071 1418 1
1202 1418 1
1211 1418 1
889 1419 1
891 1419 1
939 1419 1
955 1419 1
1059 1419 1
1072 1419 1
1203 1419 1
1212 1419 1
890 1420 1
892 1420 1
940 1420 1
956 1420 1
1060 1420 1
1073 1420 1
1204 1420 1
1213 1420 1
891 1421 1
893 1421 1
941 1421 1
957 1421 1
1061 1421 1
1074 1421 1
1205 1421 1
1214 1421 1
892 1422 1
894 1422 1
942 1422 1
958 1422 1
1062 1422 1
1075 1422 1
1206 1422 1
1215 1422 1
893 1423 1
895 1423 1
943 1423 1
959 1423 1
1063 1423 1
1076 1423 1
1207 1423 1
1216 1423 1
894 1424 1
896 1424 1
944 1424 1
960 1424 1
1064 1424 1
1077 1424 1
1208 1424 1
1217 1424 1
895 1425 1
897 1425 1
937 1425 1
945 1425 1
1065 1425 1
1078 1425 1
1209 1425 1
1218 1425 1
896 1426 1
898 1426 1
938 1426 1
946 1426 1
1066 1426 1
1079 1426 1
1210 1426 1
1219 1426 1
897 1427 1
899 1427 1
939 1427 1
947 1427 1
1067 1427 1
1080 1427 1
1211 1427 1
1220 1427 1
898 1428 1
900 1428 1
940 1428 1
948 1428 1
1057 1428 1
1068 1428 1
1212 1428 1
1221 1428 1
899 1429 1
901 1429 1
941 1429 1
949 1429 1
1058 1429 1
1069 1429 1
1213 1429 1
1222 1429 1
900 1430 1
902 1430 1
942 1430 1
950 1430 1
1059 1430 1
1070 1430 1
1214 1430 1
1223 1430 1
901 1431 1
903 1431 1
943 1431 1
951 1431 1
1060 1431 1
1071 1431 1
1215 1431 1
1224 1431 1
902 1432 1
904 1432 1
944 1432 1
952 1432 1
1061 1432 1
1072 1432 1
1201 1432 1
1216 1432 1
903 1433 1
905 1433 1
945 1433 1
953 1433 1
1062 1433 1
1073 1433 1
1202 1433 1
1217 1433 1
904 1434 1
906 1434 1
946 1434 1
954 1434 1
1063 1434 1
1074 1434 1
1203 1434 1
1218 1434 1
905 1435 1
907 1435 1
947 1435 1
955 1435 1
1064 1435 1
1075 1435 1
1204 1435 1
1219 1435 1
906 1436 1
908 1436 1
948 1436 1
956 1436 1
1065 1436 1
1076 1436 1
1205 1436 1
1220 1436 1
907 1437 1
909 1437 1
949 1437 1
957 1437 1
1066 1437 1
1077 1437 1
1206 1437 1
1221 1437 1
908 1438 1
910 1438 1
950 1438 1
958 1438 1
1067 1438 1
1078 1438 1
1207 1438 1
1222 1438 1
909 1439 1
911 1439 1
951 1439 1
959 1439 1
1068 1439 1
1079 1439 1
1208 1439 1
1223 1439 1
910 1440 1
912 1440 1
952 1440 1
960 1440 1
1069 1440 1
1080 1440 1
1209 1440 1
1224 1440 1
913 1441 1
935 1441 1
937 1441 1
956 1441 1
1081 1441 1
1094 1441 1
1225 1441 1
1234 1441 1
914 1442 1
936 1442 1
938 1442 1
957 1442 1
1082 1442 1
1095 1442 1
1226 1442 1
1235 1442 1
913 1443 1
915 1443 1
939 1443 1
958 1443 1
1083 1443 1
1096 1443 1
1227 1443 1
1236 1443 1
914 1444 1
916 1444 1
940 1444 1
959 1444 1
1084 1444 1
1097 1444 1
1228 1444 1
1237 1444 1
915 1445 1
917 1445 1
941 1445 1
960 1445 1
1085 1445 1
1098 1445 1
1229 1445 1
1238 1445 1
916 1446 1
918 1446 1
937 1446 1
942 1446 1
1086 1446 1
1099 1446 1
1230 1446 1
1239 1446 1
917 1447 1
919 1447 1
938 1447 1
943 1447 1
1087 1447 1
1100 1447 1
1231 1447 1
1240 1447 1
918 1448 1
920 1448 1
939 1448 1
944 1448 1
1088 1448 1
1101 1448 1
1232 1448 1
1241 1448 1
919 1449 1
921 1449 1
940 1449 1
945 1449 1
1089 1449 1
1102 1449 1
1233 1449 1
1242 1449 1
920 1450 1
922 1450 1
941 1450 1
946 1450 1
1090 1450 1
1103 1450 1
1234 1450 1
1243 1450 1
921 1451 1
923 1451 1
942 1451 1
947 1451 1
1091 1451 1
1104 1451 1
1235 1451 1
1244 1451 1
922 1452 1
924 1452 1
943 1452 1
948 1452 1
1081 1452 1
1092 1452 1
1236 1452 1
1245 1452 1
923 1453 1
925 1453 1
944 1453 1
949 1453 1
1082 1453 1
1093 1453 1
1237 1453 1
1246 1453 1
924 1454 1
926 1454 1
945 1454 1
950 1454 1
1083 1454 1
1094 1454 1
1238 1454 1
1247 1454 1
925 1455 1
927 1455 1
946 1455 1
951 1455 1
1084 1455 1
1095 1455 1
1239 1455 1
1248 1455 1
926 1456 1
928 1456 1
947 1456 1
952 1456 1
1085 1456 1
1096 1456 1
1225 1456 1
1240 1456 1
927 1457 1
929 1457 1
948 1457 1
953 1457 1
1086 1457 1
1097 1457 1
1226 1457 1
1241 1457 1
928 1458 1
930 1458 1
949 1458 1
954 1458 1
1087 1458 1
1098 1458 1
1227 1458 1
1242 1458 1
929 1459 1
931 1459 1
950 1459 1
955 1459 1
1088 1459 1
1099 1459 1
1228 1459 1
1243 1459 1
930 1460 1
932 1460 1
951 1460 1
956 1460 1
1089 1460 1
1100 1460 1
1229 1460 1
1244 1460 1
931 1461 1
933 1461 1
952 1461 1
957 1461 1
1090 1461 1
1101 1461 1
1230 1461 1
1245 1461 1
932 1462 1
934 1462 1
953 1462 1
958 1462 1
1091 1462 1
1102 1462 1
1231 1462 1
1246 1462 1
933 1463 1
935 1463 1
954 1463 1
959 1463 1
1092 1463 1
1103 1463 1
1232 1463 1
1247 1463 1
934 1464 1
936 1464 1
955 1464 1
960 1464 1
1093 1464 1
1104 1464 1
1233 1464 1
1248 1464 1
961 1465 1
980 1465 1
985 1465 1
1001 1465 1
1033 1465 1
1048 1465 1
1249 1465 1
1258 1465 1
962 1466 1
981 1466 1
986 1466 1
1002 1466 1
1034 1466 1
1049 1466 1
1250 1466 1
1259 1466 1
963 1467 1
982 1467 1
987 1467 1
1003 1467 1
1035 1467 1
1050 1467 1
1251 1467 1
1260 1467 1
964 1468 1
983 1468 1
988 1468 1
1004 1468 1
1036 1468 1
1051 1468 1
1252 1468 1
1261 1468 1
965 1469 1
984 1469 1
989 1469 1
1005 1469 1
1037 1469 1
1052 1469 1
1253 1469 1
1262 1469 1
961 1470 1
966 1470 1
990 1470 1
1006 1470 1
1038 1470 1
1053 1470 1
1254 1470 1
1263 1470 1
962 1471 1
967 1471 1
991 1471 1
1007 1471 1
1039 1471 1
1054 1471 1
1255 1471 1
1264 1471 1
963 1472 1
968 1472 1
992 1472 1
1008 1472 1
1040 1472 1
1055 1472 1
1256 1472 1
1265 1472 1
964 1473 1
969 1473 1
985 1473 1
993 1473 1
1041 1473 1
1056 1473 1
1257 1473 1
1266 1473 1
965 1474 1
970 1474 1
986 1474 1
994 1474 1
1033 1474 1
1042 1474 1
1258 1474 1
1267 1474 1
966 1475 1
971 1475 1
987 1475 1
995 1475 1
1034 1475 1
1043 1475 1
1259 1475 1
1268 1475 1
967 1476 1
972 1476 1
988 1476 1
996 1476 1
1035 1476 1
1044 1476 1
1260 1476 1
1269 1476 1
968 1477 1
973 1477 1
989 1477 1
997 1477 1
1036 1477 1
1045 1477 1
1261 1477 1
1270 1477 1
969 1478 1
974 1478 1
990 1478 1
998 1478 1
1037 1478 1
1046 1478 1
1262 1478 1
1271 1478 1
970 1479 1
975 1479 1
991 1479 1
999 1479 1
1038 1479 1
1047 1479 1
1263 1479 1
1272 1479 1
971 1480 1
976 1480 1
992 1480 1
1000 1480 1
1039 1480 1
1048 1480 1
1249 1480 1
1264 1480 1
972 1481 1
977 1481 1
993 1481 1
1001 1481 1
1040 1481 1
1049 1481 1
1250 1481 1
1265 1481 1
973 1482 1
978 1482 1
994 1482 1
1002 1482 1
1041 1482 1
1050 1482 1
1251 1482 1
1266 1482 1
974 1483 1
979 1483 1
995 1483 1
1003 1483 1
1042 1483 1
1051 1483 1
1252 1483 1
1267 1483 1
975 1484 1
980 1484 1
996 1484 1
1004 1484 1
1043 1484 1
1052 1484 1
1253 1484 1
1268 1484 1
976 1485 1
981 1485 1
997 1485 1
1005 1485 1
1044 1485 1
1053 1485 1
1254 1485 1
1269 1485 1
977 1486 1
982 1486 1
998 1486 1
1006 1486 1
1045 1486 1
1054 1486 1
1255 1486 1
1270 1486 1
978 1487 1
983 1487 1
999 1487 1
1007 1487 1
1046 1487 1
1055 1487 1
1256 1487 1
1271 1487 1
979 1488 1
984 1488 1
1000 1488 1
1008 1488 1
1047 1488 1
1056 1488 1
1257 1488 1
1272 1488 1
961 1489 1
983 1489 1
1009 1489 1
1025 1489 1
1057 1489 1
1072 1489 1
1273 1489 1
1282 1489 1
962 1490 1
984 1490 1
1010 1490 1
1026 1490 1
1058 1490 1
1073 1490 1
1274 1490 1
1283 1490 1
961 1491 1
963 1491 1
1011 1491 1
1027 1491 1
1059 1491 1
1074 1491 1
1275 1491 1
1284 1491 1
962 1492 1
964 1492 1
1012 1492 1
1028 1492 1
1060 1492 1
1075 1492 1
1276 1492 1
1285 1492 1
963 1493 1
965 1493 1
1013 1493 1
1029 1493 1
1061 1493 1
1076 1493 1
1277 1493 1
1286 1493 1
964 1494 1
966 1494 1
1014 1494 1
1030 1494 1
1062 1494 1
1077 1494 1
1278 1494 1
1287 1494 1
965 1495 1
967 1495 1
1015 1495 1
1031 1495 1
1063 1495 1
1078 1495 1
1279 1495 1
1288 1495 1
966 1496 1
968 1496 1
1016 1496 1
1032 1496 1
1064 1496 1
1079 1496 1
1280 1496 1
1289 1496 1
967 1497 1
969 1497 1
1009 1497 1
1017 1497 1
1065 1497 1
1080 1497 1
1281 1497 1
1290 1497 1
968 1498 1
970 1498 1
1010 1498 1
1018 1498 1
1057 1498 1
1066 1498 1
1282 1498 1
1291 1498 1
969 1499 1
971 1499 1
1011 1499 1
1019 1499 1
1058 1499 1
1067 1499 1
1283 1499 1
1292 1499 1
970 1500 1
972 1500 1
1012 1500 1
1020 1500 1
1059 1500 1
1068 1500 1
1284 1500 1
1293 1500 1
971 1501 1
973 1501 1
1013 1501 1
1021 1501 1
1060 1501 1
1069 1501 1
1285 1501 1
1294 1501 1
972 1502 1
974 1502 1
1014 1502 1
1022 1502 1
1061 1502 1
1070 1502 1
1286 1502 1
1295 1502 1
973 1503 1
975 1503 1
1015 1503 1
1023 1503 1
1062 1503 1
1071 1503 1
1287 1503 1
1296 1503 1
974 1504 1
976 1504 1
1016 1504 1
1024 1504 1
1063 1504 1
1072 1504 1
1273 1504 1
1288 1504 1
975 1505 1
977 1505 1
1017 1505 1
1025 1505 1
1064 1505 1
1073 1505 1
1274 1505 1
1289 1505 1
976 1506 1
978 1506 1
1018 1506 1
1026 1506 1
1065 1506 1
1074 1506 1
1275 1506 1
1290 1506 1
977 1507 1
979 1507 1
1019 1507 1
1027 1507 1
1066 1507 1
1075 1507 1
1276 1507 1
1291 1507 1
978 1508 1
980 1508 1
1020 1508 1
1028 1508 1
1067 1508 1
1076 1508 1
1277 1508 1
1292 1508 1
979 1509 1
981 1509 1
1021 1509 1
1029 1509 1
1068 1509 1
1077 1509 1
1278 1509 1
1293 1509 1
980 1510 1
982 1510 1
1022 1510 1
1030 1510 1
1069 1510 1
1078 1510 1
1279 1510 1
1294 1510 1
981 1511 1
983 1511 1
1023 1511 1
1031 1511 1
1070 1511 1
1079 1511 1
1280 1511 1
1295 1511 1
982 1512 1
984 1512 1
1024 1512 1
1032 1512 1
1071 1512 1
1080 1512 1
1281 1512 1
1296 1512 1
985 1513 1
1007 1513 1
1009 1513 1
1028 1513 1
1081 1513 1
1096 1513 1
1297 1513 1
1306 1513 1
986 1514 1
1008 1514 1
1010 1514 1
1029 1514 1
1082 1514 1
1097 1514 1
1298 1514 1
1307 1514 1
985 1515 1
987 1515 1
1011 1515 1
1030 1515 1
1083 1515 1
1098 1515 1
1299 1515 1
1308 1515 1
986 1516 1
988 1516 1
1012 1516 1
1031 1516 1
1084 1516 1
1099 1516 1
1300 1516 1
1309 1516 1
987 1517 1
989 1517 1
1013 1517 1
1032 1517 1
1085 1517 1
1100 1517 1
1301 1517 1
1310 1517 1
988 1518 1
990 1518 1
1009 1518 1
1014 1518 1
1086 1518 1
1101 1518 1
1302 1518 1
1311 1518 1
989 1519 1
991 1519 1
1010 1519 1
1015 1519 1
1087 1519 1
1102 1519 1
1303 1519 1
1312 1519 1
990 1520 1
992 1520 1
1011 1520 1
1016 1520 1
1088 1520 1
1103 1520 1
1304 1520 1
1313 1520 1
991 1521 1
993 1521 1
1012 1521 1
1017 1521 1
1089 1521 1
1104 1521 1
1305 1521 1
1314 1521 1
992 1522 1
994 1522 1
1013 1522 1
1018 1522 1
1081 1522 1
1090 1522 1
1306 1522 1
1315 1522 1
993 1523 1
995 1523 1
1014 1523 1
1019 1523 1
1082 1523 1
1091 1523 1
1307 1523 1
1316 1523 1
994 1524 1
996 1524 1
1015 1524 1
1020 1524 1
1083 1524 1
1092 1524 1
1308 1524 1
1317 1524 1
995 1525 1
997 1525 1
1016 1525 1
1021 1525 1
1084 1525 1
1093 1525 1
1309 1525 1
1318 1525 1
996 1526 1
998 1526 1
1017 1526 1
1022 1526 1
1085 1526 1
1094 1526 1
1310 1526 1
1319 1526 1
997 1527 1
999 1527 1
1018 1527 1
1023 1527 1
1086 1527 1
1095 1527 1
1311 1527 1
1320 1527 1
998 1528 1
1000 1528 1
1019 1528 1
1024 1528 1
1087 1528 1
1096 1528 1
1297 1528 1
1312 1528 1
999 1529 1
1001 1529 1
1020 1529 1
1025 1529 1
1088 1529 1
1097 1529 1
1298 1529 1
1313 1529 1
1000 1530 1
1002 1530 1
1021 1530 1
1026 1530 1
1089 1530 1
1098 1530 1
1299 1530 1
1314 1530 1
1001 1531 1
1003 1531 1
1022 1531 1
1027 1531 1
1090 1531 1
1099 1531 1
1300 1531 1
1315 1531 1
1002 1532 1
1004 1532 1
1023 1532 1
1028 1532 1
1091 1532 1
1100 1532 1
1301 1532 1
1316 1532 1
1003 1533 1
1005 1533 1
1024 1533 1
1029 1533 1
1092 1533 1
1101 1533 1
1302 1533 1
1317 1533 1
1004 1534 1
1006 1534 1
1025 1534 1
1030 1534 1
1093 1534 1
1102 1534 1
1303 1534 1
1318 1534 1
1005 1535 1
1007 1535 1
1026 1535 1
1031 1535 1
1094 1535 1
1103 1535 1
1304 1535 1
1319 1535 1
1006 1536 1
1008 1536 1
1027 1536 1
1032 1536 1
1095 1536 1
1104 1536 1
1305 1536 1
1320 1536 1
1033 1537 1
1055 1537 1
1057 1537 1
1076 1537 1
1081 1537 1
1097 1537 1
1321 1537 1
1330 1537 1
1034 1538 1
1056 1538 1
1058 1538 1
1077 1538 1
1082 1538 1
1098 1538 1
1322 1538 1
1331 1538 1
1033 1539 1
1035 1539 1
1059 1539 1
1078 1539 1
1083 1539 1
1099 1539 1
1323 1539 1
1332 1539 1
1034 1540 1
1036 1540 1
1060 1540 1
1079 1540 1
1084 1540 1
1100 1540 1
1324 1540 1
1333 1540 1
1035 1541 1
1037 1541 1
1061 1541 1
1080 1541 1
1085 1541 1
1101 1541 1
1325 1541 1
1334 1541 1
1036 1542 1
1038 1542 1
1057 1542 1
1062 1542 1
1086 1542 1
1102 1542 1
1326 1542 1
1335 1542 1
1037 1543 1
1039 1543 1
1058 1543 1
1063 1543 1
1087 1543 1
1103 1543 1
1327 1543 1
1336 1543 1
1038 1544 1
1040 1544 1
1059 1544 1
1064 1544 1
1088 1544 1
1104 1544 1
1328 1544 1
1337 1544 1
1039 1545 1
1041 1545 1
1060 1545 1
1065 1545 1
1081 1545 1
1089 1545 1
1329 1545 1
1338 1545 1
1040 1546 1
1042 1546 1
1061 1546 1
1066 1546 1
1082 1546 1
1090 1546 1
1330 1546 1
1339 1546 1
1041 1547 1
1043 1547 1
1062 1547 1
1067 1547 1
1083 1547 1
1091 1547 1
1331 1547 1
1340 1547 1
1042 1548 1
1044 1548 1
1063 1548 1
1068 1548 1
1084 1548 1
1092 1548 1
1332 1548 1
1341 1548 1
1043 1549 1
1045 1549 1
1064 1549 1
1069 1549 1
1085 1549 1
1093 1549 1
1333 1549 1
1342 1549 1
1044 1550 1
1046 1550 1
1065 1550 1
1070 1550 1
1086 1550 1
1094 1550 1
1334 1550 1
1343 1550 1
1045 1551 1
1047 1551 1
1066 1551 1
1071 1551 1
1087 1551 1
1095 1551 1
1335 1551 1
1344 1551 1
1046 1552 1
1048 1552 1
1067 1552 1
1072 1552 1
1088 1552 1
1096 1552 1
1321 1552 1
1336 1552 1
1047 1553 1
1049 1553 1
1068 1553 1
1073 1553 1
1089 1553 1
1097 1553 1
1322 1553 1
1337 1553 1
1048 1554 1
1050 1554 1
1069 1554 1
1074 1554 1
1090 1554 1
1098 1554 1
1323 1554 1
1338 1554 1
1049 1555 1
1051 1555 1
1070 1555 1
1075 1555 1
1091 1555 1
1099 1555 1
1324 1555 1
1339 1555 1
1050 1556 1
1052 1556 1
1071 1556 1
1076 1556 1
1092 1556 1
1100 1556 1
1325 1556 1
1340 1556 1
1051 1557 1
1053 1557 1
1072 1557 1
1077 1557 1
1093 1557 1
1101 1557 1
1326 1557 1
1341 1557 1
1052 1558 1
1054 1558 1
1073 1558 1
1078 1558 1
1094 1558 1
1102 1558 1
1327 1558 1
1342 1558 1
1053 1559 1
1055 1559 1
1074 1559 1
1079 1559 1
1095 1559 1
1103 1559 1
1328 1559 1
1343 1559 1
1054 1560 1
1056 1560 1
1075 1560 1
1080 1560 1
1096 1560 1
1104 1560 1
1329 1560 1
1344 1560 1
1105 1561 1
1124 1561 1
1129 1561 1
1145 1561 1
1177 1561 1
1192 1561 1
1249 1561 1
1262 1561 1
1106 1562 1
1125 1562 1
1130 1562 1
1146 1562 1
1178 1562 1
1193 1562 1
1250 1562 1
1263 1562 1
1107 1563 1
1126 1563 1
1131 1563 1
1147 1563 1
1179 1563 1
1194 1563 1
1251 1563 1
1264 1563 1
1108 1564 1
1127 1564 1
1132 1564 1
1148 1564 1
1180 1564 1
1195 1564 1
1252 1564 1
1265 1564 1
1109 1565 1
1128 1565 1
1133 1565 1
1149 1565 1
1181 1565 1
1196 1565 1
1253 1565 1
1266 1565 1
1105 1566 1
1110 1566 1
1134 1566 1
1150 1566 1
1182 1566 1
1197 1566 1
1254 1566 1
1267 1566 1
1106 1567 1
1111 1567 1
1135 1567 1
1151 1567 1
1183 1567 1
1198 1567 1
1255 1567 1
1268 1567 1
1107 1568 1
1112 1568 1
1136 1568 1
1152 1568 1
1184 1568 1
1199 1568 1
1256 1568 1
1269 1568 1
1108 1569 1
1113 1569 1
1129 1569 1
1137 1569 1
1185 1569 1
1200 1569 1
1257 1569 1
1270 1569 1
1109 1570 1
1114 1570 1
1130 1570 1
1138 1570 1
1177 1570 1
1186 1570 1
1258 1570 1
1271 1570 1
1110 1571 1
1115 1571 1
1131 1571 1
1139 1571 1
1178 1571 1
1187 1571 1
1259 1571 1
1272 1571 1
1111 1572 1
1116 1572 1
1132 1572 1
1140 1572 1
1179 1572 1
1188 1572 1
1249 1572 1
1260 1572 1
1112 1573 1
1117 1573 1
1133 1573 1
1141 1573 1
1180 1573 1
1189 1573 1
1250 1573 1
1261 1573 1
1113 1574 1
1118 1574 1
1134 1574 1
1142 1574 1
1181 1574 1
1190 1574 1
1251 1574 1
1262 1574 1
1114 1575 1
1119 1575 1
1135 1575 1
1143 1575 1
1182 1575 1
1191 1575 1
1252 1575 1
1263 1575 1
1115 1576 1
1120 1576 1
1136 1576 1
1144 1576 1
1183 1576 1
1192 1576 1
1253 1576 1
1264 1576 1
1116 1577 1
1121 1577 1
1137 1577 1
1145 1577 1
1184 1577 1
1193 1577 1
1254 1577 1
1265 1577 1
1117 1578 1
1122 1578 1
1138 1578 1
1146 1578 1
1185 1578 1
1194 1578 1
1255 1578 1
1266 1578 1
1118 1579 1
1123 1579 1
1139 1579 1
1147 1579 1
1186 1579 1
1195 1579 1
1256 1579 1
1267 1579 1
1119 1580 1
1124 1580 1
1140 1580 1
1148 1580 1
1187 1580 1
1196 1580 1
1257 1580 1
1268 1580 1
1120 1581 1
1125 1581 1
1141 1581 1
1149 1581 1
1188 1581 1
1197 1581 1
1258 1581 1
1269 1581 1
1121 1582 1
1126 1582 1
1142 1582 1
1150 1582 1
1189 1582 1
1198 1582 1
1259 1582 1
1270 1582 1
1122 1583 1
1127 1583 1
1143 1583 1
1151 1583 1
1190 1583 1
1199 1583 1
1260 1583 1
1271 1583 1
1123 1584 1
1128 1584 1
1144 1584 1
1152 1584 1
1191 1584 1
1200 1584 1
1261 1584 1
1272 1584 1
1105 1585 1
1127 1585 1
1153 1585 1
1169 1585 1
1201 1585 1
1216 1585 1
1273 1585 1
1286 1585 1
1106 1586 1
1128 1586 1
1154 1586 1
1170 1586 1
1202 1586 1
1217 1586 1
1274 1586 1
1287 1586 1
1105 1587 1
1107 1587 1
1155 1587 1
1171 1587 1
1203 1587 1
1218 1587 1
1275 1587 1
1288 1587 1
1106 1588 1
1108 1588 1
1156 1588 1
1172 1588 1
1204 1588 1
1219 1588 1
1276 1588 1
1289 1588 1
1107 1589 1
1109 1589 1
1157 1589 1
1173 1589 1
1205 1589 1
1220 1589 1
1277 1589 1
1290 1589 1
1108 1590 1
1110 1590 1
1158 1590 1
1174 1590 1
1206 1590 1
1221 1590 1
1278 1590 1
1291 1590 1
1109 1591 1
1111 1591 1
1159 1591 1
1175 1591 1
1207 1591 1
1222 1591 1
1279 1591 1
1292 1591 1
1110 1592 1
1112 1592 1
1160 1592 1
1176 1592 1
1208 1592 1
1223 1592 1
1280 1592 1
1293 1592 1
1111 1593 1
1113 1593 1
1153 1593 1
1161 1593 1
1209 1593 1
1224 1593 1
1281 1593 1
1294 1593 1
1112 1594 1
1114 1594 1
1154 1594 1
1162 1594 1
1201 1594 1
1210 1594 1
1282 1594 1
1295 1594 1
1113 1595 1
1115 1595 1
1155 1595 1
1163 1595 1
1202 1595 1
1211 1595 1
1283 1595 1
1296 1595 1
1114 1596 1
1116 1596 1
1156 1596 1
1164 1596 1
1203 1596 1
1212 1596 1
1273 1596 1
1284 1596 1
1115 1597 1
1117 1597 1
1157 1597 1
1165 1597 1
1204 1597 1
1213 1597 1
1274 1597 1
1285 1597 1
1116 1598 1
1118 1598 1
1158 1598 1
1166 1598 1
1205 1598 1
1214 1598 1
1275 1598 1
1286 1598 1
1117 1599 1
1119 1599 1
1159 1599 1
1167 1599 1
1206 1599 1
1215 1599 1
1276 1599 1
1287 1599 1
1118 1600 1
1120 1600 1
1160 1600 1
1168 1600 1
1207 1600 1
1216 1600 1
1277 1600 1
1288 1600 1
1119 1601 1
1121 1601 1
1161 1601 1
1169 1601 1
1208 1601 1
1217 1601 1
1278 1601 1
1289 1601 1
1120 1602 1
1122 1602 1
1162 1602 1
1170 1602 1
1209 1602 1
1218 1602 1
1279 1602 1
1290 1602 1
1121 1603 1
1123 1603 1
1163 1603 1
1171 1603 1
1210 1603 1
1219 1603 1
1280 1603 1
1291 1603 1
1122 1604 1
1124 1604 1
1164 1604 1
1172 1604 1
1211 1604 1
1220 1604 1
1281 1604 1
1292 1604 1
1123 1605 1
1125 1605 1
1165 1605 1
1173 1605 1
1212 1605 1
1221 1605 1
1282 1605 1
1293 1605 1
1124 1606 1
1126 1606 1
1166 1606 1
1174 1606 1
1213 1606 1
1222 1606 1
1283 1606 1
1294 1606 1
1125 1607 1
1127 1607 1
1167 1607 1
1175 1607 1
1214 1607 1
1223 1607 1
1284 1607 1
1295 1607 1
1126 1608 1
1128 1608 1
1168 1608 1
1176 1608 1
1215 1608 1
1224 1608 1
1285 1608 1
1296 1608 1
1129 1609 1
1151 1609 1
1153 1609 1
1172 1609 1
1225 1609 1
1240 1609 1
1297 1609 1
1310 1609 1
1130 1610 1
1152 1610 1
1154 1610 1
1173 1610 1
1226 1610 1
1241 1610 1
1298 1610 1
1311 1610 1
1129 1611 1
1131 1611 1
1155 1611 1
1174 1611 1
1227 1611 1
1242 1611 1
1299 1611 1
1312 1611 1
1130 1612 1
1132 1612 1
1156 1612 1
1175 1612 1
1228 1612 1
1243 1612 1
1300 1612 1
1313 1612 1
1131 1613 1
1133 1613 1
1157 1613 1
1176 1613 1
1229 1613 1
1244 1613 1
1301 1613 1
1314 1613 1
1132 1614 1
1134 1614 1
1153 1614 1
1158 1614 1
1230 1614 1
1245 1614 1
1302 1614 1
1315 1614 1
1133 1615 1
1135 1615 1
1154 1615 1
1159 1615 1
1231 1615 1
1246 1615 1
1303 1615 1
1316 1615 1
1134 1616 1
1136 1616 1
1155 1616 1
1160 1616 1
1232 1616 1
1247 1616 1
1304 1616 1
1317 1616 1
1135 1617 1
1137 1617 1
1156 1617 1
1161 1617 1
1233 1617 1
1248 1617 1
1305 1617 1
1318 1617 1
1136 1618 1
1138 1618 1
1157 1618 1
1162 1618 1
1225 1618 1
1234 1618 1
1306 1618 1
1319 1618 1
1137 1619 1
1139 1619 1
1158 1619 1
1163 1619 1
1226 1619 1
1235 1619 1
1307 1619 1
1320 1619 1
1138 1620 1
1140 1620 1
1159 1620 1
1164 1620 1
1227 1620 1
1236 1620 1
1297 1620 1
1308 1620 1
1139 1621 1
1141 1621 1
1160 1621 1
1165 1621 1
1228 1621 1
1237 1621 1
1298 1621 1
1309 1621 1
1140 1622 1
1142 1622 1
1161 1622 1
1166 1622 1
1229 1622 1
1238 1622 1
1299 1622 1
1310 1622 1
1141 1623 1
1143 1623 1
1162 1623 1
1167 1623 1
1230 1623 1
1239 1623 1
1300 1623 1
1311 1623 1
1142 1624 1
1144 1624 1
1163 1624 1
1168 1624 1
1231 1624 1
1240 1624 1
1301 1624 1
1312 1624 1
1143 1625 1
1145 1625 1
1164 1625 1
1169 1625 1
1232 1625 1
1241 1625 1
1302 1625 1
1313 1625 1
1144 1626 1
1146 1626 1
1165 1626 1
1170 1626 1
1233 1626 1
1242 1626 1
1303 1626 1
1314 1626 1
1145 1627 1
1147 1627 1
1166 1627 1
1171 1627 1
1234 1627 1
1243 1627 1
1304 1627 1
1315 1627 1
1146 1628 1
1148 1628 1
1167 1628 1
1172 1628 1
1235 1628 1
1244 1628 1
1305 1628 1
1316 1628 1
1147 1629 1
1149 1629 1
1168 1629 1
1173 1629 1
1236 1629 1
1245 1629 1
1306 1629 1
1317 1629 1
1148 1630 1
1150 1630 1
1169 1630 1
1174 1630 1
1237 1630 1
1246 1630 1
1307 1630 1
1318 1630 1
1149 1631 1
1151 1631 1
1170 1631 1
1175 1631 1
1238 1631 1
1247 1631 1
1308 1631 1
1319 1631 1
1150 1632 1
1152 1632 1
1171 1632 1
1176 1632 1
1239 1632 1
1248 1632 1
1309 1632 1
1320 1632 1
1177 1633 1
1199 1633 1
1201 1633 1
1220 1633 1
1225 1633 1
1241 1633 1
1321 1633 1
1334 1633 1
1178 1634 1
1200 1634 1
1202 1634 1
1221 1634 1
1226 1634 1
1242 1634 1
1322 1634 1
1335 1634 1
1177 1635 1
1179 1635 1
1203 1635 1
1222 1635 1
1227 1635 1
1243 1635 1
1323 1635 1
1336 1635 1
1178 1636 1
1180 1636 1
1204 1636 1
1223 1636 1
1228 1636 1
1244 1636 1
1324 1636 1
1337 1636 1
1179 1637 1
1181 1637 1
1205 1637 1
1224 1637 1
1229 1637 1
1245 1637 1
1325 1637 1
1338 1637 1
1180 1638 1
1182 1638 1
1201 1638 1
1206 1638 1
1230 1638 1
1246 1638 1
1326 1638 1
1339 1638 1
1181 1639 1
1183 1639 1
1202 1639 1
1207 1639 1
1231 1639 1
1247 1639 1
1327 1639 1
1340 1639 1
1182 1640 1
1184 1640 1
1203 1640 1
1208 1640 1
1232 1640 1
1248 1640 1
1328 1640 1
1341 1640 1
1183 1641 1
1185 1641 1
1204 1641 1
1209 1641 1
1225 1641 1
1233 1641 1
1329 1641 1
1342 1641 1
1184 1642 1
1186 1642 1
1205 1642 1
1210 1642 1
1226 1642 1
1234 1642 1
1330 1642 1
1343 1642 1
1185 1643 1
1187 1643 1
1206 1643 1
1211 1643 1
1227 1643 1
1235 1643 1
1331 1643 1
1344 1643 1
1186 1644 1
1188 1644 1
1207 1644 1
1212 1644 1
1228 1644 1
1236 1644 1
1321 1644 1
1332 1644 1
1187 1645 1
1189 1645 1
1208 1645 1
1213 1645 1
1229 1645 1
1237 1645 1
1322 1645 1
1333 1645 1
1188 1646 1
1190 1646 1
1209 1646 1
1214 1646 1
1230 1646 1
1238 1646 1
1323 1646 1
1334 1646 1
1189 1647 1
1191 1647 1
1210 1647 1
1215 1647 1
1231 1647 1
1239 1647 1
1324 1647 1
1335 1647 1
1190 1648 1
1192 1648 1
1211 1648 1
1216 1648 1
1232 1648 1
1240 1648 1
1325 1648 1
1336 1648 1
1191 1649 1
1193 1649 1
1212 1649 1
1217 1649 1
1233 1649 1
1241 1649 1
1326 1649 1
1337 1649 1
1192 1650 1
1194 1650 1
1213 1650 1
1218 1650 1
1234 1650 1
1242 1650 1
1327 1650 1
1338 1650 1
1193 1651 1
1195 1651 1
1214 1651 1
1219 1651 1
1235 1651 1
1243 1651 1
1328 1651 1
1339 1651 1
1194 1652 1
1196 1652 1
1215 1652 1
1220 1652 1
1236 1652 1
1244 1652 1
1329 1652 1
1340 1652 1
1195 1653 1
1197 1653 1
1216 1653 1
1221 1653 1
1237 1653 1
1245 1653 1
1330 1653 1
1341 1653 1
1196 1654 1
1198 1654 1
1217 1654 1
1222 1654 1
1238 1654 1
1246 1654 1
1331 1654 1
1342 1654 1
1197 1655 1
1199 1655 1
1218 1655 1
1223 1655 1
1239 1655 1
1247 1655 1
1332 1655 1
1343 1655 1
1198 1656 1
1200 1656 1
1219 1656 1
1224 1656 1
1240 1656 1
1248 1656 1
1333 1656 1
1344 1656 1
1249 1657 1
1271 1657 1
1273 1657 1
1292 1657 1
1297 1657 1
1313 1657 1
1321 1657 1
1336 1657 1
1250 1658 1
1272 1658 1
1274 1658 1
1293 1658 1
1298 1658 1
1314 1658 1
1322 1658 1
1337 1658 1
1249 1659 1
1251 1659 1
1275 1659 1
1294 1659 1
1299 1659 1
1315 1659 1
1323 1659 1
1338 1659 1
1250 1660 1
1252 1660 1
1276 1660 1
1295 1660 1
1300 1660 1
1316 1660 1
1324 1660 1
1339 1660 1
1251 1661 1
1253 1661 1
1277 1661 1
1296 1661 1
1301 1661 1
1317 1661 1
1325 1661 1
1340 1661 1
1252 1662 1
1254 1662 1
1273 1662 1
1278 1662 1
1302 1662 1
1318 1662 1
1326 1662 1
1341 1662 1
1253 1663 1
1255 1663 1
1274 1663 1
1279 1663 1
1303 1663 1
1319 1663 1
1327 1663 1
1342 1663 1
1254 1664 1
1256 1664 1
1275 1664 1
1280 1664 1
1304 1664 1
1320 1664 1
1328 1664 1
1343 1664 1
1255 1665 1
1257 1665 1
1276 1665 1
1281 1665 1
1297 1665 1
1305 1665 1
1329 1665 1
1344 1665 1
1256 1666 1
1258 1666 1
1277 1666 1
1282 1666 1
1298 1666 1
1306 1666 1
1321 1666 1
1330 1666 1
1257 1667 1
1259 1667 1
1278 1667 1
1283 1667 1
1299 1667 1
1307 1667 1
1322 1667 1
1331 1667 1
1258 1668 1
1260 1668 1
1279 1668 1
1284 1668 1
1300 1668 1
1308 1668 1
1323 1668 1
1332 1668 1
1259 1669 1
1261 1669 1
1280 1669 1
1285 1669 1
1301 1669 1
1309 1669 1
1324 1669 1
1333 1669 1
1260 1670 1
1262 1670 1
1281 1670 1
1286 1670 1
1302 1670 1
1310 1670 1
1325 1670 1
1334 1670 1
1261 1671 1
1263 1671 1
1282 1671 1
1287 1671 1
1303 1671 1
1311 1671 1
1326 1671 1
1335 1671 1
1262 1672 1
1264 1672 1
1283 1672 1
1288 1672 1
1304 1672 1
1312 1672 1
1327 1672 1
1336 1672 1
1263 1673 1
1265 1673 1
1284 1673 1
1289 1673 1
1305 1673 1
1313 1673 1
1328 1673 1
1337 1673 1
1264 1674 1
1266 1674 1
1285 1674 1
1290 1674 1
1306 1674 1
1314 1674 1
1329 1674 1
1338 1674 1
1265 1675 1
1267 1675 1
1286 1675 1
1291 1675 1
1307 1675 1
1315 1675 1
1330 1675 1
1339 1675 1
1266 1676 1
1268 1676 1
1287 1676 1
1292 1676 1
1308 1676 1
1316 1676 1
1331 1676 1
1340 1676 1
1267 1677 1
1269 1677 1
1288 1677 1
1293 1677 1
1309 1677 1
1317 1677 1
1332 1677 1
1341 1677 1
1268 1678 1
1270 1678 1
1289 1678 1
1294 1678 1
1310 1678 1
1318 1678 1
1333 1678 1
1342 1678 1
1269 1679 1
1271 1679 1
1290 1679 1
1295 1679 1
1311 1679 1
1319 1679 1
1334 1679 1
1343 1679 1
1270 1680 1
1272 1680 1
1291 1680 1
1296 1680 1
1312 1680 1
1320 1680 1
1335 1680 1
1344 1680 1
