%%MatrixMarket matrix coordinate integer general
% Binary matrix; one-based indices; arithmetic over GF(2)
248 372 1488
1 1 1
47 1 1
63 1 1
105 1 1
2 2 1
48 2 1
64 2 1
106 2 1
3 3 1
49 3 1
65 3 1
107 3 1
4 4 1
50 4 1
66 4 1
108 4 1
5 5 1
51 5 1
67 5 1
109 5 1
6 6 1
52 6 1
68 6 1
110 6 1
7 7 1
53 7 1
69 7 1
111 7 1
8 8 1
54 8 1
70 8 1
112 8 1
9 9 1
55 9 1
71 9 1
113 9 1
10 10 1
56 10 1
72 10 1
114 10 1
11 11 1
57 11 1
73 11 1
115 11 1
12 12 1
58 12 1
74 12 1
116 12 1
13 13 1
59 13 1
75 13 1
117 13 1
14 14 1
60 14 1
76 14 1
118 14 1
15 15 1
61 15 1
77 15 1
119 15 1
16 16 1
62 16 1
78 16 1
120 16 1
1 17 1
17 17 1
79 17 1
121 17 1
2 18 1
18 18 1
80 18 1
122 18 1
3 19 1
19 19 1
81 19 1
123 19 1
4 20 1
20 20 1
82 20 1
124 20 1
5 21 1
21 21 1
63 21 1
83 21 1
6 22 1
22 22 1
64 22 1
84 22 1
7 23 1
23 23 1
65 23 1
85 23 1
8 24 1
24 24 1
66 24 1
86 24 1
9 25 1
25 25 1
67 25 1
87 25 1
10 26 1
26 26 1
68 26 1
88 26 1
11 27 1
27 27 1
69 27 1
89 27 1
12 28 1
28 28 1
70 28 1
90 28 1
13 29 1
29 29 1
71 29 1
91 29 1
14 30 1
30 30 1
72 30 1
92 30 1
15 31 1
31 31 1
73 31 1
93 31 1
16 32 1
32 32 1
74 32 1
94 32 1
17 33 1
33 33 1
75 33 1
95 33 1
18 34 1
34 34 1
76 34 1
96 34 1
19 35 1
35 35 1
77 35 1
97 35 1
20 36 1
36 36 1
78 36 1
98 36 1
21 37 1
37 37 1
79 37 1
99 37 1
22 38 1
38 38 1
80 38 1
100 38 1
23 39 1
39 39 1
81 39 1
101 39 1
24 40 1
40 40 1
82 40 1
102 40 1
25 41 1
41 41 1
83 41 1
103 41 1
26 42 1
42 42 1
84 42 1
104 42 1
27 43 1
43 43 1
85 43 1
105 43 1
28 44 1
44 44 1
86 44 1
106 44 1
29 45 1
45 45 1
87 45 1
107 45 1
30 46 1
46 46 1
88 46 1
108 46 1
31 47 1
47 47 1
89 47 1
109 47 1
32 48 1
48 48 1
90 48 1
110 48 1
33 49 1
49 49 1
91 49 1
111 49 1
34 50 1
50 50 1
92 50 1
112 50 1
35 51 1
51 51 1
93 51 1
113 51 1
36 52 1
52 52 1
94 52 1
114 52 1
37 53 1
53 53 1
95 53 1
115 53 1
38 54 1
54 54 1
96 54 1
116 54 1
39 55 1
55 55 1
97 55 1
117 55 1
40 56 1
56 56 1
98 56 1
118 56 1
41 57 1
57 57 1
99 57 1
119 57 1
42 58 1
58 58 1
100 58 1
120 58 1
43 59 1
59 59 1
101 59 1
121 59 1
44 60 1
60 60 1
102 60 1
122 60 1
45 61 1
61 61 1
103 61 1
123 61 1
46 62 1
62 62 1
104 62 1
124 62 1
1 63 1
56 63 1
125 63 1
167 63 1
2 64 1
57 64 1
126 64 1
168 64 1
3 65 1
58 65 1
127 65 1
169 65 1
4 66 1
59 66 1
128 66 1
170 66 1
5 67 1
60 67 1
129 67 1
171 67 1
6 68 1
61 68 1
130 68 1
172 68 1
7 69 1
62 69 1
131 69 1
173 69 1
1 70 1
8 70 1
132 70 1
174 70 1
2 71 1
9 71 1
133 71 1
175 71 1
3 72 1
10 72 1
134 72 1
176 72 1
4 73 1
11 73 1
135 73 1
177 73 1
5 74 1
12 74 1
136 74 1
178 74 1
6 75 1
13 75 1
137 75 1
179 75 1
7 76 1
14 76 1
138 76 1
180 76 1
8 77 1
15 77 1
139 77 1
181 77 1
9 78 1
16 78 1
140 78 1
182 78 1
10 79 1
17 79 1
141 79 1
183 79 1
11 80 1
18 80 1
142 80 1
184 80 1
12 81 1
19 81 1
143 81 1
185 81 1
13 82 1
20 82 1
144 82 1
186 82 1
14 83 1
21 83 1
125 83 1
145 83 1
15 84 1
22 84 1
126 84 1
146 84 1
16 85 1
23 85 1
127 85 1
147 85 1
17 86 1
24 86 1
128 86 1
148 86 1
18 87 1
25 87 1
129 87 1
149 87 1
19 88 1
26 88 1
130 88 1
150 88 1
20 89 1
27 89 1
131 89 1
151 89 1
21 90 1
28 90 1
132 90 1
152 90 1
22 91 1
29 91 1
133 91 1
153 91 1
23 92 1
30 92 1
134 92 1
154 92 1
24 93 1
31 93 1
135 93 1
155 93 1
25 94 1
32 94 1
136 94 1
156 94 1
26 95 1
33 95 1
137 95 1
157 95 1
27 96 1
34 96 1
138 96 1
158 96 1
28 97 1
35 97 1
139 97 1
159 97 1
29 98 1
36 98 1
140 98 1
160 98 1
30 99 1
37 99 1
141 99 1
161 99 1
31 100 1
38 100 1
142 100 1
162 100 1
32 101 1
39 101 1
143 101 1
163 101 1
33 102 1
40 102 1
144 102 1
164 102 1
34 103 1
41 103 1
145 103 1
165 103 1
35 104 1
42 104 1
146 104 1
166 104 1
36 105 1
43 105 1
147 105 1
167 105 1
37 106 1
44 106 1
148 106 1
168 106 1
38 107 1
45 107 1
149 107 1
169 107 1
39 108 1
46 108 1
150 108 1
170 108 1
40 109 1
47 109 1
151 109 1
171 109 1
41 110 1
48 110 1
152 110 1
172 110 1
42 111 1
49 111 1
153 111 1
173 111 1
43 112 1
50 112 1
154 112 1
174 112 1
44 113 1
51 113 1
155 113 1
175 113 1
45 114 1
52 114 1
156 114 1
176 114 1
46 115 1
53 115 1
157 115 1
177 115 1
47 116 1
54 116 1
158 116 1
178 116 1
48 117 1
55 117 1
159 117 1
179 117 1
49 118 1
56 118 1
160 118 1
180 118 1
50 119 1
57 119 1
161 119 1
181 119 1
51 120 1
58 120 1
162 120 1
182 120 1
52 121 1
59 121 1
163 121 1
183 121 1
53 122 1
60 122 1
164 122 1
184 122 1
54 123 1
61 123 1
165 123 1
185 123 1
55 124 1
62 124 1
166 124 1
186 124 1
1 125 1
58 125 1
187 125 1
229 125 1
2 126 1
59 126 1
188 126 1
230 126 1
3 127 1
60 127 1
189 127 1
231 127 1
4 128 1
61 128 1
190 128 1
232 128 1
5 129 1
62 129 1
191 129 1
233 129 1
1 130 1
6 130 1
192 130 1
234 130 1
2 131 1
7 131 1
193 131 1
235 131 1
3 132 1
8 132 1
194 132 1
236 132 1
4 133 1
9 133 1
195 133 1
237 133 1
5 134 1
10 134 1
196 134 1
238 134 1
6 135 1
11 135 1
197 135 1
239 135 1
7 136 1
12 136 1
198 136 1
240 136 1
8 137 1
13 137 1
199 137 1
241 137 1
9 138 1
14 138 1
200 138 1
242 138 1
10 139 1
15 139 1
201 139 1
243 139 1
11 140 1
16 140 1
202 140 1
244 140 1
12 141 1
17 141 1
203 141 1
245 141 1
13 142 1
18 142 1
204 142 1
246 142 1
14 143 1
19 143 1
205 143 1
247 143 1
15 144 1
20 144 1
206 144 1
248 144 1
16 145 1
21 145 1
187 145 1
207 145 1
17 146 1
22 146 1
188 146 1
208 146 1
18 147 1
23 147 1
189 147 1
209 147 1
19 148 1
24 148 1
190 148 1
210 148 1
20 149 1
25 149 1
191 149 1
211 149 1
21 150 1
26 150 1
192 150 1
212 150 1
22 151 1
27 151 1
193 151 1
213 151 1
23 152 1
28 152 1
194 152 1
214 152 1
24 153 1
29 153 1
195 153 1
215 153 1
25 154 1
30 154 1
196 154 1
216 154 1
26 155 1
31 155 1
197 155 1
217 155 1
27 156 1
32 156 1
198 156 1
218 156 1
28 157 1
33 157 1
199 157 1
219 157 1
29 158 1
34 158 1
200 158 1
220 158 1
30 159 1
35 159 1
201 159 1
221 159 1
31 160 1
36 160 1
202 160 1
222 160 1
32 161 1
37 161 1
203 161 1
223 161 1
33 162 1
38 162 1
204 162 1
224 162 1
34 163 1
39 163 1
205 163 1
225 163 1
35 164 1
40 164 1
206 164 1
226 164 1
36 165 1
41 165 1
207 165 1
227 165 1
37 166 1
42 166 1
208 166 1
228 166 1
38 167 1
43 167 1
209 167 1
229 167 1
39 168 1
44 168 1
210 168 1
230 168 1
40 169 1
45 169 1
211 169 1
231 169 1
41 170 1
46 170 1
212 170 1
232 170 1
42 171 1
47 171 1
213 171 1
233 171 1
43 172 1
48 172 1
214 172 1
234 172 1
44 173 1
49 173 1
215 173 1
235 173 1
45 174 1
50 174 1
216 174 1
236 174 1
46 175 1
51 175 1
217 175 1
237 175 1
47 176 1
52 176 1
218 176 1
238 176 1
48 177 1
53 177 1
219 177 1
239 177 1
49 178 1
54 178 1
220 178 1
240 178 1
50 179 1
55 179 1
221 179 1
241 179 1
51 180 1
56 180 1
222 180 1
242 180 1
52 181 1
57 181 1
223 181 1
243 181 1
53 182 1
58 182 1
224 182 1
244 182 1
54 183 1
59 183 1
225 183 1
245 183 1
55 184 1
60 184 1
226 184 1
246 184 1
56 185 1
61 185 1
227 185 1
247 185 1
57 186 1
62 186 1
228 186 1
248 186 1
63 187 1
118 187 1
125 187 1
171 187 1
64 188 1
119 188 1
126 188 1
172 188 1
65 189 1
120 189 1
127 189 1
173 189 1
66 190 1
121 190 1
128 190 1
174 190 1
67 191 1
122 191 1
129 191 1
175 191 1
68 192 1
123 192 1
130 192 1
176 192 1
69 193 1
124 193 1
131 193 1
177 193 1
63 194 1
70 194 1
132 194 1
178 194 1
64 195 1
71 195 1
133 195 1
179 195 1
65 196 1
72 196 1
134 196 1
180 196 1
66 197 1
73 197 1
135 197 1
181 197 1
67 198 1
74 198 1
136 198 1
182 198 1
68 199 1
75 199 1
137 199 1
183 199 1
69 200 1
76 200 1
138 200 1
184 200 1
70 201 1
77 201 1
139 201 1
185 201 1
71 202 1
78 202 1
140 202 1
186 202 1
72 203 1
79 203 1
125 203 1
141 203 1
73 204 1
80 204 1
126 204 1
142 204 1
74 205 1
81 205 1
127 205 1
143 205 1
75 206 1
82 206 1
128 206 1
144 206 1
76 207 1
83 207 1
129 207 1
145 207 1
77 208 1
84 208 1
130 208 1
146 208 1
78 209 1
85 209 1
131 209 1
147 209 1
79 210 1
86 210 1
132 210 1
148 210 1
80 211 1
87 211 1
133 211 1
149 211 1
81 212 1
88 212 1
134 212 1
150 212 1
82 213 1
89 213 1
135 213 1
151 213 1
83 214 1
90 214 1
136 214 1
152 214 1
84 215 1
91 215 1
137 215 1
153 215 1
85 216 1
92 216 1
138 216 1
154 216 1
86 217 1
93 217 1
139 217 1
155 217 1
87 218 1
94 218 1
140 218 1
156 218 1
88 219 1
95 219 1
141 219 1
157 219 1
89 220 1
96 220 1
142 220 1
158 220 1
90 221 1
97 221 1
143 221 1
159 221 1
91 222 1
98 222 1
144 222 1
160 222 1
92 223 1
99 223 1
145 223 1
161 223 1
93 224 1
100 224 1
146 224 1
162 224 1
94 225 1
101 225 1
147 225 1
163 225 1
95 226 1
102 226 1
148 226 1
164 226 1
96 227 1
103 227 1
149 227 1
165 227 1
97 228 1
104 228 1
150 228 1
166 228 1
98 229 1
105 229 1
151 229 1
167 229 1
99 230 1
106 230 1
152 230 1
168 230 1
100 231 1
107 231 1
153 231 1
169 231 1
101 232 1
108 232 1
154 232 1
170 232 1
102 233 1
109 233 1
155 233 1
171 233 1
103 234 1
110 234 1
156 234 1
172 234 1
104 235 1
111 235 1
157 235 1
173 235 1
105 236 1
112 236 1
158 236 1
174 236 1
106 237 1
113 237 1
159 237 1
175 237 1
107 238 1
114 238 1
160 238 1
176 238 1
108 239 1
115 239 1
161 239 1
177 239 1
109 240 1
116 240 1
162 240 1
178 240 1
110 241 1
117 241 1
163 241 1
179 241 1
111 242 1
118 242 1
164 242 1
180 242 1
112 243 1
119 243 1
165 243 1
181 243 1
113 244 1
120 244 1
166 244 1
182 244 1
114 245 1
121 245 1
167 245 1
183 245 1
115 246 1
122 246 1
168 246 1
184 246 1
116 247 1
123 247 1
169 247 1
185 247 1
117 248 1
124 248 1
170 248 1
186 248 1
63 249 1
120 249 1
187 249 1
233 249 1
64 250 1
121 250 1
188 250 1
234 250 1
65 251 1
122 251 1
189 251 1
235 251 1
66 252 1
123 252 1
190 252 1
236 252 1
67 253 1
124 253 1
191 253 1
237 253 1
63 254 1
68 254 1
192 254 1
238 254 1
64 255 1
69 255 1
193 255 1
239 255 1
65 256 1
70 256 1
194 256 1
240 256 1
66 257 1
71 257 1
195 257 1
241 257 1
67 258 1
72 258 1
196 258 1
242 258 1
68 259 1
73 259 1
197 259 1
243 259 1
69 260 1
74 260 1
198 260 1
244 260 1
70 261 1
75 261 1
199 261 1
245 261 1
71 262 1
76 262 1
200 262 1
246 262 1
72 263 1
77 263 1
201 263 1
247 263 1
73 264 1
78 264 1
202 264 1
248 264 1
74 265 1
79 265 1
187 265 1
203 265 1
75 266 1
80 266 1
188 266 1
204 266 1
76 267 1
81 267 1
189 267 1
205 267 1
77 268 1
82 268 1
190 268 1
206 268 1
78 269 1
83 269 1
191 269 1
207 269 1
79 270 1
84 270 1
192 270 1
208 270 1
80 271 1
85 271 1
193 271 1
209 271 1
81 272 1
86 272 1
194 272 1
210 272 1
82 273 1
87 273 1
195 273 1
211 273 1
83 274 1
88 274 1
196 274 1
212 274 1
84 275 1
89 275 1
197 275 1
213 275 1
85 276 1
90 276 1
198 276 1
214 276 1
86 277 1
91 277 1
199 277 1
215 277 1
87 278 1
92 278 1
200 278 1
216 278 1
88 279 1
93 279 1
201 279 1
217 279 1
89 280 1
94 280 1
202 280 1
218 280 1
90 281 1
95 281 1
203 281 1
219 281 1
91 282 1
96 282 1
204 282 1
220 282 1
92 283 1
97 283 1
205 283 1
221 283 1
93 284 1
98 284 1
206 284 1
222 284 1
94 285 1
99 285 1
207 285 1
223 285 1
95 286 1
100 286 1
208 286 1
224 286 1
96 287 1
101 287 1
209 287 1
225 287 1
97 288 1
102 288 1
210 288 1
226 288 1
98 289 1
103 289 1
211 289 1
227 289 1
99 290 1
104 290 1
212 290 1
228 290 1
100 291 1
105 291 1
213 291 1
229 291 1
101 292 1
106 292 1
214 292 1
230 292 1
102 293 1
107 293 1
215 293 1
231 293 1
103 294 1
108 294 1
216 294 1
232 294 1
104 295 1
109 295 1
217 295 1
233 295 1
105 296 1
110 296 1
218 296 1
234 296 1
106 297 1
111 297 1
219 297 1
235 297 1
107 298 1
112 298 1
220 298 1
236 298 1
108 299 1
113 299 1
221 299 1
237 299 1
109 300 1
114 300 1
222 300 1
238 300 1
110 301 1
115 301 1
223 301 1
239 301 1
111 302 1
116 302 1
224 302 1
240 302 1
112 303 1
117 303 1
225 303 1
241 303 1
113 304 1
118 304 1
226 304 1
242 304 1
114 305 1
119 305 1
227 305 1
243 305 1
115 306 1
120 306 1
228 306 1
244 306 1
116 307 1
121 307 1
229 307 1
245 307 1
117 308 1
122 308 1
230 308 1
246 308 1
118 309 1
123 309 1
231 309 1
247 309 1
119 310 1
124 310 1
232 310 1
248 310 1
125 311 1
182 311 1
187 311 1
242 311 1
126 312 1
183 312 1
188 312 1
243 312 1
127 313 1
184 313 1
189 313 1
244 313 1
128 314 1
185 314 1
190 314 1
245 314 1
129 315 1
186 315 1
191 315 1
246 315 1
125 316 1
130 316 1
192 316 1
247 316 1
126 317 1
131 317 1
193 317 1
248 317 1
127 318 1
132 318 1
187 318 1
194 318 1
128 319 1
133 319 1
188 319 1
195 319 1
129 320 1
134 320 1
189 320 1
196 320 1
130 321 1
135 321 1
190 321 1
197 321 1
131 322 1
136 322 1
191 322 1
198 322 1
132 323 1
137 323 1
192 323 1
199 323 1
133 324 1
138 324 1
193 324 1
200 324 1
134 325 1
139 325 1
194 325 1
201 325 1
135 326 1
140 326 1
195 326 1
202 326 1
136 327 1
141 327 1
196 327 1
203 327 1
137 328 1
142 328 1
197 328 1
204 328 1
138 329 1
143 329 1
198 329 1
205 329 1
139 330 1
144 330 1
199 330 1
206 330 1
140 331 1
145 331 1
200 331 1
207 331 1
141 332 1
146 332 1
201 332 1
208 332 1
142 333 1
147 333 1
202 333 1
209 333 1
143 334 1
148 334 1
203 334 1
210 334 1
144 335 1
149 335 1
204 335 1
211 335 1
145 336 1
150 336 1
205 336 1
212 336 1
146 337 1
151 337 1
206 337 1
213 337 1
147 338 1
152 338 1
207 338 1
214 338 1
148 339 1
153 339 1
208 339 1
215 339 1
149 340 1
154 340 1
209 340 1
216 340 1
150 341 1
155 341 1
210 341 1
217 341 1
151 342 1
156 342 1
211 342 1
218 342 1
152 343 1
157 343 1
212 343 1
219 343 1
153 344 1
158 344 1
213 344 1
220 344 1
154 345 1
159 345 1
214 345 1
221 345 1
155 346 1
160 346 1
215 346 1
222 346 1
156 347 1
161 347 1
216 347 1
223 347 1
157 348 1
162 348 1
217 348 1
224 348 1
158 349 1
163 349 1
218 349 1
225 349 1
159 350 1
164 350 1
219 350 1
226 350 1
160 351 1
165 351 1
220 351 1
227 351 1
161 352 1
166 352 1
221 352 1
228 352 1
162 353 1
167 353 1
222 353 1
229 353 1
163 354 1
168 354 1
223 354 1
230 354 1
164 355 1
169 355 1
224 355 1
231 355 1
165 356 1
170 356 1
225 356 1
232 356 1
166 357 1
171 357 1
226 357 1
233 357 1
167 358 1
172 358 1
227 358 1
234 358 1
168 359 1
173 359 1
228 359 1
235 359 1
169 360 1
174 360 1
229 360 1
236 360 1
170 361 1
175 361 1
230 361 1
237 361 1
171 362 1
176 362 1
231 362 1
238 362 1
172 363 1
177 363 1
232 363 1
239 363 1
173 364 1
178 364 1
233 364 1
240 364 1
174 365 1
179 365 1
234 365 1
241 365 1
175 366 1
180 366 1
235 366 1
242 366 1
176 367 1
181 367 1
236 367 1
243 367 1
177 368 1
182 368 1
237 368 1
244 368 1
178 369 1
183 369 1
238 369 1
245 369 1
179 370 1
184 370 1
239 370 1
246 370 1
180 371 1
185 371 1
240 371 1
247 371 1
181 372 1
186 372 1
241 372 1
248 372 1
