%%MatrixMarket matrix coordinate integer general
% Binary matrix; one-based indices; arithmetic over GF(2)
120 240 600
1 1 1
8 1 1
1 2 1
2 2 1
2 3 1
3 3 1
3 4 1
4 4 1
4 5 1
5 5 1
5 6 1
6 6 1
6 7 1
7 7 1
7 8 1
8 8 1
9 9 1
16 9 1
9 10 1
10 10 1
10 11 1
11 11 1
11 12 1
12 12 1
12 13 1
13 13 1
13 14 1
14 14 1
14 15 1
15 15 1
15 16 1
16 16 1
17 17 1
24 17 1
17 18 1
18 18 1
18 19 1
19 19 1
19 20 1
20 20 1
20 21 1
21 21 1
21 22 1
22 22 1
22 23 1
23 23 1
23 24 1
24 24 1
25 25 1
32 25 1
25 26 1
26 26 1
26 27 1
27 27 1
27 28 1
28 28 1
28 29 1
29 29 1
29 30 1
30 30 1
30 31 1
31 31 1
31 32 1
32 32 1
33 33 1
40 33 1
33 34 1
34 34 1
34 35 1
35 35 1
35 36 1
36 36 1
36 37 1
37 37 1
37 38 1
38 38 1
38 39 1
39 39 1
39 40 1
40 40 1
41 41 1
48 41 1
41 42 1
42 42 1
42 43 1
43 43 1
43 44 1
44 44 1
44 45 1
45 45 1
45 46 1
46 46 1
46 47 1
47 47 1
47 48 1
48 48 1
49 49 1
56 49 1
49 50 1
50 50 1
50 51 1
51 51 1
51 52 1
52 52 1
52 53 1
53 53 1
53 54 1
54 54 1
54 55 1
55 55 1
55 56 1
56 56 1
57 57 1
64 57 1
57 58 1
58 58 1
58 59 1
59 59 1
59 60 1
60 60 1
60 61 1
61 61 1
61 62 1
62 62 1
62 63 1
63 63 1
63 64 1
64 64 1
65 65 1
72 65 1
65 66 1
66 66 1
66 67 1
67 67 1
67 68 1
68 68 1
68 69 1
69 69 1
69 70 1
70 70 1
70 71 1
71 71 1
71 72 1
72 72 1
73 73 1
80 73 1
73 74 1
74 74 1
74 75 1
75 75 1
75 76 1
76 76 1
76 77 1
77 77 1
77 78 1
78 78 1
78 79 1
79 79 1
79 80 1
80 80 1
81 81 1
88 81 1
81 82 1
82 82 1
82 83 1
83 83 1
83 84 1
84 84 1
84 85 1
85 85 1
85 86 1
86 86 1
86 87 1
87 87 1
87 88 1
88 88 1
89 89 1
96 89 1
89 90 1
90 90 1
90 91 1
91 91 1
91 92 1
92 92 1
92 93 1
93 93 1
93 94 1
94 94 1
94 95 1
95 95 1
95 96 1
96 96 1
97 97 1
104 97 1
97 98 1
98 98 1
98 99 1
99 99 1
99 100 1
100 100 1
100 101 1
101 101 1
101 102 1
102 102 1
102 103 1
103 103 1
103 104 1
104 104 1
105 105 1
112 105 1
105 106 1
106 106 1
106 107 1
107 107 1
107 108 1
108 108 1
108 109 1
109 109 1
109 110 1
110 110 1
110 111 1
111 111 1
111 112 1
112 112 1
113 113 1
120 113 1
113 114 1
114 114 1
114 115 1
115 115 1
115 116 1
116 116 1
116 117 1
117 117 1
117 118 1
118 118 1
118 119 1
119 119 1
119 120 1
120 120 1
1 121 1
89 121 1
113 121 1
2 122 1
90 122 1
114 122 1
3 123 1
91 123 1
115 123 1
4 124 1
92 124 1
116 124 1
5 125 1
93 125 1
117 125 1
6 126 1
94 126 1
118 126 1
7 127 1
95 127 1
119 127 1
8 128 1
96 128 1
120 128 1
1 129 1
9 129 1
97 129 1
2 130 1
10 130 1
98 130 1
3 131 1
11 131 1
99 131 1
4 132 1
12 132 1
100 132 1
5 133 1
13 133 1
101 133 1
6 134 1
14 134 1
102 134 1
7 135 1
15 135 1
103 135 1
8 136 1
16 136 1
104 136 1
9 137 1
17 137 1
105 137 1
10 138 1
18 138 1
106 138 1
11 139 1
19 139 1
107 139 1
12 140 1
20 140 1
108 140 1
13 141 1
21 141 1
109 141 1
14 142 1
22 142 1
110 142 1
15 143 1
23 143 1
111 143 1
16 144 1
24 144 1
112 144 1
17 145 1
25 145 1
113 145 1
18 146 1
26 146 1
114 146 1
19 147 1
27 147 1
115 147 1
20 148 1
28 148 1
116 148 1
21 149 1
29 149 1
117 149 1
22 150 1
30 150 1
118 150 1
23 151 1
31 151 1
119 151 1
24 152 1
32 152 1
120 152 1
1 153 1
25 153 1
33 153 1
2 154 1
26 154 1
34 154 1
3 155 1
27 155 1
35 155 1
4 156 1
28 156 1
36 156 1
5 157 1
29 157 1
37 157 1
6 158 1
30 158 1
38 158 1
7 159 1
31 159 1
39 159 1
8 160 1
32 160 1
40 160 1
9 161 1
33 161 1
41 161 1
10 162 1
34 162 1
42 162 1
11 163 1
35 163 1
43 163 1
12 164 1
36 164 1
44 164 1
13 165 1
37 165 1
45 165 1
14 166 1
38 166 1
46 166 1
15 167 1
39 167 1
47 167 1
16 168 1
40 168 1
48 168 1
17 169 1
41 169 1
49 169 1
18 170 1
42 170 1
50 170 1
19 171 1
43 171 1
51 171 1
20 172 1
44 172 1
52 172 1
21 173 1
45 173 1
53 173 1
22 174 1
46 174 1
54 174 1
23 175 1
47 175 1
55 175 1
24 176 1
48 176 1
56 176 1
25 177 1
49 177 1
57 177 1
26 178 1
50 178 1
58 178 1
27 179 1
51 179 1
59 179 1
28 180 1
52 180 1
60 180 1
29 181 1
53 181 1
61 181 1
30 182 1
54 182 1
62 182 1
31 183 1
55 183 1
63 183 1
32 184 1
56 184 1
64 184 1
33 185 1
57 185 1
65 185 1
34 186 1
58 186 1
66 186 1
35 187 1
59 187 1
67 187 1
36 188 1
60 188 1
68 188 1
37 189 1
61 189 1
69 189 1
38 190 1
62 190 1
70 190 1
39 191 1
63 191 1
71 191 1
40 192 1
64 192 1
72 192 1
41 193 1
65 193 1
73 193 1
42 194 1
66 194 1
74 194 1
43 195 1
67 195 1
75 195 1
44 196 1
68 196 1
76 196 1
45 197 1
69 197 1
77 197 1
46 198 1
70 198 1
78 198 1
47 199 1
71 199 1
79 199 1
48 200 1
72 200 1
80 200 1
49 201 1
73 201 1
81 201 1
50 202 1
74 202 1
82 202 1
51 203 1
75 203 1
83 203 1
52 204 1
76 204 1
84 204 1
53 205 1
77 205 1
85 205 1
54 206 1
78 206 1
86 206 1
55 207 1
79 207 1
87 207 1
56 208 1
80 208 1
88 208 1
57 209 1
81 209 1
89 209 1
58 210 1
82 210 1
90 210 1
59 211 1
83 211 1
91 211 1
60 212 1
84 212 1
92 212 1
61 213 1
85 213 1
93 213 1
62 214 1
86 214 1
94 214 1
63 215 1
87 215 1
95 215 1
64 216 1
88 216 1
96 216 1
65 217 1
89 217 1
97 217 1
66 218 1
90 218 1
98 218 1
67 219 1
91 219 1
99 219 1
68 220 1
92 220 1
100 220 1
69 221 1
93 221 1
101 221 1
70 222 1
94 222 1
102 222 1
71 223 1
95 223 1
103 223 1
72 224 1
96 224 1
104 224 1
73 225 1
97 225 1
105 225 1
74 226 1
98 226 1
106 226 1
75 227 1
99 227 1
107 227 1
76 228 1
100 228 1
108 228 1
77 229 1
101 229 1
109 229 1
78 230 1
102 230 1
110 230 1
79 231 1
103 231 1
111 231 1
80 232 1
104 232 1
112 232 1
81 233 1
105 233 1
113 233 1
82 234 1
106 234 1
114 234 1
83 235 1
107 235 1
115 235 1
84 236 1
108 236 1
116 236 1
85 237 1
109 237 1
117 237 1
86 238 1
110 238 1
118 238 1
87 239 1
111 239 1
119 239 1
88 240 1
112 240 1
120 240 1
