%%MatrixMarket matrix coordinate integer general
% Binary matrix; one-based indices; arithmetic over GF(2)
128 192 1536
1 1 1
17 1 1
24 1 1
27 1 1
43 1 1
44 1 1
46 1 1
64 1 1
2 2 1
18 2 1
21 2 1
28 2 1
41 2 1
44 2 1
47 2 1
61 2 1
3 3 1
19 3 1
22 3 1
25 3 1
41 3 1
42 3 1
48 3 1
62 3 1
4 4 1
20 4 1
23 4 1
26 4 1
42 4 1
43 4 1
45 4 1
63 4 1
5 5 1
20 5 1
21 5 1
31 5 1
42 5 1
47 5 1
48 5 1
60 5 1
6 6 1
17 6 1
22 6 1
32 6 1
43 6 1
45 6 1
48 6 1
57 6 1
7 7 1
18 7 1
23 7 1
29 7 1
44 7 1
45 7 1
46 7 1
58 7 1
8 8 1
19 8 1
24 8 1
30 8 1
41 8 1
46 8 1
47 8 1
59 8 1
9 9 1
19 9 1
25 9 1
32 9 1
35 9 1
36 9 1
38 9 1
56 9 1
10 10 1
20 10 1
26 10 1
29 10 1
33 10 1
36 10 1
39 10 1
53 10 1
11 11 1
17 11 1
27 11 1
30 11 1
33 11 1
34 11 1
40 11 1
54 11 1
12 12 1
18 12 1
28 12 1
31 12 1
34 12 1
35 12 1
37 12 1
55 12 1
13 13 1
23 13 1
28 13 1
29 13 1
34 13 1
39 13 1
40 13 1
52 13 1
14 14 1
24 14 1
25 14 1
30 14 1
35 14 1
37 14 1
40 14 1
49 14 1
15 15 1
21 15 1
26 15 1
31 15 1
36 15 1
37 15 1
38 15 1
50 15 1
16 16 1
22 16 1
27 16 1
32 16 1
33 16 1
38 16 1
39 16 1
51 16 1
1 17 1
8 17 1
11 17 1
17 17 1
48 17 1
59 17 1
60 17 1
62 17 1
2 18 1
5 18 1
12 18 1
18 18 1
45 18 1
57 18 1
60 18 1
63 18 1
3 19 1
6 19 1
9 19 1
19 19 1
46 19 1
57 19 1
58 19 1
64 19 1
4 20 1
7 20 1
10 20 1
20 20 1
47 20 1
58 20 1
59 20 1
61 20 1
4 21 1
5 21 1
15 21 1
21 21 1
44 21 1
58 21 1
63 21 1
64 21 1
1 22 1
6 22 1
16 22 1
22 22 1
41 22 1
59 22 1
61 22 1
64 22 1
2 23 1
7 23 1
13 23 1
23 23 1
42 23 1
60 23 1
61 23 1
62 23 1
3 24 1
8 24 1
14 24 1
24 24 1
43 24 1
57 24 1
62 24 1
63 24 1
3 25 1
9 25 1
16 25 1
25 25 1
40 25 1
51 25 1
52 25 1
54 25 1
4 26 1
10 26 1
13 26 1
26 26 1
37 26 1
49 26 1
52 26 1
55 26 1
1 27 1
11 27 1
14 27 1
27 27 1
38 27 1
49 27 1
50 27 1
56 27 1
2 28 1
12 28 1
15 28 1
28 28 1
39 28 1
50 28 1
51 28 1
53 28 1
7 29 1
12 29 1
13 29 1
29 29 1
36 29 1
50 29 1
55 29 1
56 29 1
8 30 1
9 30 1
14 30 1
30 30 1
33 30 1
51 30 1
53 30 1
56 30 1
5 31 1
10 31 1
15 31 1
31 31 1
34 31 1
52 31 1
53 31 1
54 31 1
6 32 1
11 32 1
16 32 1
32 32 1
35 32 1
49 32 1
54 32 1
55 32 1
10 33 1
15 33 1
19 33 1
21 33 1
75 33 1
76 33 1
78 33 1
96 33 1
11 34 1
16 34 1
20 34 1
22 34 1
73 34 1
76 34 1
79 34 1
93 34 1
12 35 1
13 35 1
17 35 1
23 35 1
73 35 1
74 35 1
80 35 1
94 35 1
9 36 1
14 36 1
18 36 1
24 36 1
74 36 1
75 36 1
77 36 1
95 36 1
11 37 1
14 37 1
17 37 1
23 37 1
74 37 1
79 37 1
80 37 1
92 37 1
12 38 1
15 38 1
18 38 1
24 38 1
75 38 1
77 38 1
80 38 1
89 38 1
9 39 1
16 39 1
19 39 1
21 39 1
76 39 1
77 39 1
78 39 1
90 39 1
10 40 1
13 40 1
20 40 1
22 40 1
73 40 1
78 40 1
79 40 1
91 40 1
2 41 1
7 41 1
27 41 1
29 41 1
67 41 1
68 41 1
70 41 1
88 41 1
3 42 1
8 42 1
28 42 1
30 42 1
65 42 1
68 42 1
71 42 1
85 42 1
4 43 1
5 43 1
25 43 1
31 43 1
65 43 1
66 43 1
72 43 1
86 43 1
1 44 1
6 44 1
26 44 1
32 44 1
66 44 1
67 44 1
69 44 1
87 44 1
3 45 1
6 45 1
25 45 1
31 45 1
66 45 1
71 45 1
72 45 1
84 45 1
4 46 1
7 46 1
26 46 1
32 46 1
67 46 1
69 46 1
72 46 1
81 46 1
1 47 1
8 47 1
27 47 1
29 47 1
68 47 1
69 47 1
70 47 1
82 47 1
2 48 1
5 48 1
28 48 1
30 48 1
65 48 1
70 48 1
71 48 1
83 48 1
3 49 1
5 49 1
26 49 1
31 49 1
80 49 1
91 49 1
92 49 1
94 49 1
4 50 1
6 50 1
27 50 1
32 50 1
77 50 1
89 50 1
92 50 1
95 50 1
1 51 1
7 51 1
28 51 1
29 51 1
78 51 1
89 51 1
90 51 1
96 51 1
2 52 1
8 52 1
25 52 1
30 52 1
79 52 1
90 52 1
91 52 1
93 52 1
1 53 1
7 53 1
27 53 1
30 53 1
76 53 1
90 53 1
95 53 1
96 53 1
2 54 1
8 54 1
28 54 1
31 54 1
73 54 1
91 54 1
93 54 1
96 54 1
3 55 1
5 55 1
25 55 1
32 55 1
74 55 1
92 55 1
93 55 1
94 55 1
4 56 1
6 56 1
26 56 1
29 56 1
75 56 1
89 56 1
94 56 1
95 56 1
11 57 1
13 57 1
18 57 1
23 57 1
72 57 1
83 57 1
84 57 1
86 57 1
12 58 1
14 58 1
19 58 1
24 58 1
69 58 1
81 58 1
84 58 1
87 58 1
9 59 1
15 59 1
20 59 1
21 59 1
70 59 1
81 59 1
82 59 1
88 59 1
10 60 1
16 60 1
17 60 1
22 60 1
71 60 1
82 60 1
83 60 1
85 60 1
9 61 1
15 61 1
19 61 1
22 61 1
68 61 1
82 61 1
87 61 1
88 61 1
10 62 1
16 62 1
20 62 1
23 62 1
65 62 1
83 62 1
85 62 1
88 62 1
11 63 1
13 63 1
17 63 1
24 63 1
66 63 1
84 63 1
85 63 1
86 63 1
12 64 1
14 64 1
18 64 1
21 64 1
67 64 1
81 64 1
86 64 1
87 64 1
4 65 1
12 65 1
21 65 1
30 65 1
107 65 1
108 65 1
110 65 1
128 65 1
1 66 1
9 66 1
22 66 1
31 66 1
105 66 1
108 66 1
111 66 1
125 66 1
2 67 1
10 67 1
23 67 1
32 67 1
105 67 1
106 67 1
112 67 1
126 67 1
3 68 1
11 68 1
24 68 1
29 68 1
106 68 1
107 68 1
109 68 1
127 68 1
8 69 1
16 69 1
17 69 1
26 69 1
106 69 1
111 69 1
112 69 1
124 69 1
5 70 1
13 70 1
18 70 1
27 70 1
107 70 1
109 70 1
112 70 1
121 70 1
6 71 1
14 71 1
19 71 1
28 71 1
108 71 1
109 71 1
110 71 1
122 71 1
7 72 1
15 72 1
20 72 1
25 72 1
105 72 1
110 72 1
111 72 1
123 72 1
4 73 1
12 73 1
22 73 1
29 73 1
99 73 1
100 73 1
102 73 1
120 73 1
1 74 1
9 74 1
23 74 1
30 74 1
97 74 1
100 74 1
103 74 1
117 74 1
2 75 1
10 75 1
24 75 1
31 75 1
97 75 1
98 75 1
104 75 1
118 75 1
3 76 1
11 76 1
21 76 1
32 76 1
98 76 1
99 76 1
101 76 1
119 76 1
8 77 1
16 77 1
18 77 1
25 77 1
98 77 1
103 77 1
104 77 1
116 77 1
5 78 1
13 78 1
19 78 1
26 78 1
99 78 1
101 78 1
104 78 1
113 78 1
6 79 1
14 79 1
20 79 1
27 79 1
100 79 1
101 79 1
102 79 1
114 79 1
7 80 1
15 80 1
17 80 1
28 80 1
97 80 1
102 80 1
103 80 1
115 80 1
5 81 1
14 81 1
20 81 1
28 81 1
112 81 1
123 81 1
124 81 1
126 81 1
6 82 1
15 82 1
17 82 1
25 82 1
109 82 1
121 82 1
124 82 1
127 82 1
7 83 1
16 83 1
18 83 1
26 83 1
110 83 1
121 83 1
122 83 1
128 83 1
8 84 1
13 84 1
19 84 1
27 84 1
111 84 1
122 84 1
123 84 1
125 84 1
1 85 1
10 85 1
24 85 1
32 85 1
108 85 1
122 85 1
127 85 1
128 85 1
2 86 1
11 86 1
21 86 1
29 86 1
105 86 1
123 86 1
125 86 1
128 86 1
3 87 1
12 87 1
22 87 1
30 87 1
106 87 1
124 87 1
125 87 1
126 87 1
4 88 1
9 88 1
23 88 1
31 88 1
107 88 1
121 88 1
126 88 1
127 88 1
6 89 1
13 89 1
20 89 1
28 89 1
104 89 1
115 89 1
116 89 1
118 89 1
7 90 1
14 90 1
17 90 1
25 90 1
101 90 1
113 90 1
116 90 1
119 90 1
8 91 1
15 91 1
18 91 1
26 91 1
102 91 1
113 91 1
114 91 1
120 91 1
5 92 1
16 92 1
19 92 1
27 92 1
103 92 1
114 92 1
115 92 1
117 92 1
2 93 1
9 93 1
24 93 1
32 93 1
100 93 1
114 93 1
119 93 1
120 93 1
3 94 1
10 94 1
21 94 1
29 94 1
97 94 1
115 94 1
117 94 1
120 94 1
4 95 1
11 95 1
22 95 1
30 95 1
98 95 1
116 95 1
117 95 1
118 95 1
1 96 1
12 96 1
23 96 1
31 96 1
99 96 1
113 96 1
118 96 1
119 96 1
42 97 1
47 97 1
51 97 1
53 97 1
65 97 1
81 97 1
88 97 1
91 97 1
43 98 1
48 98 1
52 98 1
54 98 1
66 98 1
82 98 1
85 98 1
92 98 1
44 99 1
45 99 1
49 99 1
55 99 1
67 99 1
83 99 1
86 99 1
89 99 1
41 100 1
46 100 1
50 100 1
56 100 1
68 100 1
84 100 1
87 100 1
90 100 1
43 101 1
46 101 1
49 101 1
55 101 1
69 101 1
84 101 1
85 101 1
95 101 1
44 102 1
47 102 1
50 102 1
56 102 1
70 102 1
81 102 1
86 102 1
96 102 1
41 103 1
48 103 1
51 103 1
53 103 1
71 103 1
82 103 1
87 103 1
93 103 1
42 104 1
45 104 1
52 104 1
54 104 1
72 104 1
83 104 1
88 104 1
94 104 1
34 105 1
39 105 1
59 105 1
61 105 1
73 105 1
83 105 1
89 105 1
96 105 1
35 106 1
40 106 1
60 106 1
62 106 1
74 106 1
84 106 1
90 106 1
93 106 1
36 107 1
37 107 1
57 107 1
63 107 1
75 107 1
81 107 1
91 107 1
94 107 1
33 108 1
38 108 1
58 108 1
64 108 1
76 108 1
82 108 1
92 108 1
95 108 1
35 109 1
38 109 1
57 109 1
63 109 1
77 109 1
87 109 1
92 109 1
93 109 1
36 110 1
39 110 1
58 110 1
64 110 1
78 110 1
88 110 1
89 110 1
94 110 1
33 111 1
40 111 1
59 111 1
61 111 1
79 111 1
85 111 1
90 111 1
95 111 1
34 112 1
37 112 1
60 112 1
62 112 1
80 112 1
86 112 1
91 112 1
96 112 1
35 113 1
37 113 1
58 113 1
63 113 1
65 113 1
72 113 1
75 113 1
81 113 1
36 114 1
38 114 1
59 114 1
64 114 1
66 114 1
69 114 1
76 114 1
82 114 1
33 115 1
39 115 1
60 115 1
61 115 1
67 115 1
70 115 1
73 115 1
83 115 1
34 116 1
40 116 1
57 116 1
62 116 1
68 116 1
71 116 1
74 116 1
84 116 1
33 117 1
39 117 1
59 117 1
62 117 1
68 117 1
69 117 1
79 117 1
85 117 1
34 118 1
40 118 1
60 118 1
63 118 1
65 118 1
70 118 1
80 118 1
86 118 1
35 119 1
37 119 1
57 119 1
64 119 1
66 119 1
71 119 1
77 119 1
87 119 1
36 120 1
38 120 1
58 120 1
61 120 1
67 120 1
72 120 1
78 120 1
88 120 1
43 121 1
45 121 1
50 121 1
55 121 1
67 121 1
73 121 1
80 121 1
89 121 1
44 122 1
46 122 1
51 122 1
56 122 1
68 122 1
74 122 1
77 122 1
90 122 1
41 123 1
47 123 1
52 123 1
53 123 1
65 123 1
75 123 1
78 123 1
91 123 1
42 124 1
48 124 1
49 124 1
54 124 1
66 124 1
76 124 1
79 124 1
92 124 1
41 125 1
47 125 1
51 125 1
54 125 1
71 125 1
76 125 1
77 125 1
93 125 1
42 126 1
48 126 1
52 126 1
55 126 1
72 126 1
73 126 1
78 126 1
94 126 1
43 127 1
45 127 1
49 127 1
56 127 1
69 127 1
74 127 1
79 127 1
95 127 1
44 128 1
46 128 1
50 128 1
53 128 1
70 128 1
75 128 1
80 128 1
96 128 1
36 129 1
44 129 1
53 129 1
62 129 1
97 129 1
113 129 1
120 129 1
123 129 1
33 130 1
41 130 1
54 130 1
63 130 1
98 130 1
114 130 1
117 130 1
124 130 1
34 131 1
42 131 1
55 131 1
64 131 1
99 131 1
115 131 1
118 131 1
121 131 1
35 132 1
43 132 1
56 132 1
61 132 1
100 132 1
116 132 1
119 132 1
122 132 1
40 133 1
48 133 1
49 133 1
58 133 1
101 133 1
116 133 1
117 133 1
127 133 1
37 134 1
45 134 1
50 134 1
59 134 1
102 134 1
113 134 1
118 134 1
128 134 1
38 135 1
46 135 1
51 135 1
60 135 1
103 135 1
114 135 1
119 135 1
125 135 1
39 136 1
47 136 1
52 136 1
57 136 1
104 136 1
115 136 1
120 136 1
126 136 1
36 137 1
44 137 1
54 137 1
61 137 1
105 137 1
115 137 1
121 137 1
128 137 1
33 138 1
41 138 1
55 138 1
62 138 1
106 138 1
116 138 1
122 138 1
125 138 1
34 139 1
42 139 1
56 139 1
63 139 1
107 139 1
113 139 1
123 139 1
126 139 1
35 140 1
43 140 1
53 140 1
64 140 1
108 140 1
114 140 1
124 140 1
127 140 1
40 141 1
48 141 1
50 141 1
57 141 1
109 141 1
119 141 1
124 141 1
125 141 1
37 142 1
45 142 1
51 142 1
58 142 1
110 142 1
120 142 1
121 142 1
126 142 1
38 143 1
46 143 1
52 143 1
59 143 1
111 143 1
117 143 1
122 143 1
127 143 1
39 144 1
47 144 1
49 144 1
60 144 1
112 144 1
118 144 1
123 144 1
128 144 1
37 145 1
46 145 1
52 145 1
60 145 1
97 145 1
104 145 1
107 145 1
113 145 1
38 146 1
47 146 1
49 146 1
57 146 1
98 146 1
101 146 1
108 146 1
114 146 1
39 147 1
48 147 1
50 147 1
58 147 1
99 147 1
102 147 1
105 147 1
115 147 1
40 148 1
45 148 1
51 148 1
59 148 1
100 148 1
103 148 1
106 148 1
116 148 1
33 149 1
42 149 1
56 149 1
64 149 1
100 149 1
101 149 1
111 149 1
117 149 1
34 150 1
43 150 1
53 150 1
61 150 1
97 150 1
102 150 1
112 150 1
118 150 1
35 151 1
44 151 1
54 151 1
62 151 1
98 151 1
103 151 1
109 151 1
119 151 1
36 152 1
41 152 1
55 152 1
63 152 1
99 152 1
104 152 1
110 152 1
120 152 1
38 153 1
45 153 1
52 153 1
60 153 1
99 153 1
105 153 1
112 153 1
121 153 1
39 154 1
46 154 1
49 154 1
57 154 1
100 154 1
106 154 1
109 154 1
122 154 1
40 155 1
47 155 1
50 155 1
58 155 1
97 155 1
107 155 1
110 155 1
123 155 1
37 156 1
48 156 1
51 156 1
59 156 1
98 156 1
108 156 1
111 156 1
124 156 1
34 157 1
41 157 1
56 157 1
64 157 1
103 157 1
108 157 1
109 157 1
125 157 1
35 158 1
42 158 1
53 158 1
61 158 1
104 158 1
105 158 1
110 158 1
126 158 1
36 159 1
43 159 1
54 159 1
62 159 1
101 159 1
106 159 1
111 159 1
127 159 1
33 160 1
44 160 1
55 160 1
63 160 1
102 160 1
107 160 1
112 160 1
128 160 1
68 161 1
76 161 1
85 161 1
94 161 1
106 161 1
111 161 1
115 161 1
117 161 1
65 162 1
73 162 1
86 162 1
95 162 1
107 162 1
112 162 1
116 162 1
118 162 1
66 163 1
74 163 1
87 163 1
96 163 1
108 163 1
109 163 1
113 163 1
119 163 1
67 164 1
75 164 1
88 164 1
93 164 1
105 164 1
110 164 1
114 164 1
120 164 1
72 165 1
80 165 1
81 165 1
90 165 1
107 165 1
110 165 1
113 165 1
119 165 1
69 166 1
77 166 1
82 166 1
91 166 1
108 166 1
111 166 1
114 166 1
120 166 1
70 167 1
78 167 1
83 167 1
92 167 1
105 167 1
112 167 1
115 167 1
117 167 1
71 168 1
79 168 1
84 168 1
89 168 1
106 168 1
109 168 1
116 168 1
118 168 1
68 169 1
76 169 1
86 169 1
93 169 1
98 169 1
103 169 1
123 169 1
125 169 1
65 170 1
73 170 1
87 170 1
94 170 1
99 170 1
104 170 1
124 170 1
126 170 1
66 171 1
74 171 1
88 171 1
95 171 1
100 171 1
101 171 1
121 171 1
127 171 1
67 172 1
75 172 1
85 172 1
96 172 1
97 172 1
102 172 1
122 172 1
128 172 1
72 173 1
80 173 1
82 173 1
89 173 1
99 173 1
102 173 1
121 173 1
127 173 1
69 174 1
77 174 1
83 174 1
90 174 1
100 174 1
103 174 1
122 174 1
128 174 1
70 175 1
78 175 1
84 175 1
91 175 1
97 175 1
104 175 1
123 175 1
125 175 1
71 176 1
79 176 1
81 176 1
92 176 1
98 176 1
101 176 1
124 176 1
126 176 1
69 177 1
78 177 1
84 177 1
92 177 1
99 177 1
101 177 1
122 177 1
127 177 1
70 178 1
79 178 1
81 178 1
89 178 1
100 178 1
102 178 1
123 178 1
128 178 1
71 179 1
80 179 1
82 179 1
90 179 1
97 179 1
103 179 1
124 179 1
125 179 1
72 180 1
77 180 1
83 180 1
91 180 1
98 180 1
104 180 1
121 180 1
126 180 1
65 181 1
74 181 1
88 181 1
96 181 1
97 181 1
103 181 1
123 181 1
126 181 1
66 182 1
75 182 1
85 182 1
93 182 1
98 182 1
104 182 1
124 182 1
127 182 1
67 183 1
76 183 1
86 183 1
94 183 1
99 183 1
101 183 1
121 183 1
128 183 1
68 184 1
73 184 1
87 184 1
95 184 1
100 184 1
102 184 1
122 184 1
125 184 1
70 185 1
77 185 1
84 185 1
92 185 1
107 185 1
109 185 1
114 185 1
119 185 1
71 186 1
78 186 1
81 186 1
89 186 1
108 186 1
110 186 1
115 186 1
120 186 1
72 187 1
79 187 1
82 187 1
90 187 1
105 187 1
111 187 1
116 187 1
117 187 1
69 188 1
80 188 1
83 188 1
91 188 1
106 188 1
112 188 1
113 188 1
118 188 1
66 189 1
73 189 1
88 189 1
96 189 1
105 189 1
111 189 1
115 189 1
118 189 1
67 190 1
74 190 1
85 190 1
93 190 1
106 190 1
112 190 1
116 190 1
119 190 1
68 191 1
75 191 1
86 191 1
94 191 1
107 191 1
109 191 1
113 191 1
120 191 1
65 192 1
76 192 1
87 192 1
95 192 1
108 192 1
110 192 1
114 192 1
117 192 1
