%%MatrixMarket matrix coordinate integer general
% Binary matrix; one-based indices; arithmetic over GF(2)
96 144 1152
7 1 1
10 1 1
12 1 1
15 1 1
31 1 1
35 1 1
44 1 1
46 1 1
8 2 1
9 2 1
11 2 1
16 2 1
32 2 1
36 2 1
43 2 1
45 2 1
5 3 1
10 3 1
12 3 1
13 3 1
29 3 1
33 3 1
42 3 1
48 3 1
6 4 1
9 4 1
11 4 1
14 4 1
30 4 1
34 4 1
41 4 1
47 4 1
3 5 1
11 5 1
14 5 1
16 5 1
27 5 1
39 5 1
42 5 1
48 5 1
4 6 1
12 6 1
13 6 1
15 6 1
28 6 1
40 6 1
41 6 1
47 6 1
1 7 1
9 7 1
14 7 1
16 7 1
25 7 1
37 7 1
44 7 1
46 7 1
2 8 1
10 8 1
13 8 1
15 8 1
26 8 1
38 8 1
43 8 1
45 8 1
15 9 1
18 9 1
20 9 1
23 9 1
28 9 1
30 9 1
39 9 1
43 9 1
16 10 1
17 10 1
19 10 1
24 10 1
27 10 1
29 10 1
40 10 1
44 10 1
13 11 1
18 11 1
20 11 1
21 11 1
26 11 1
32 11 1
37 11 1
41 11 1
14 12 1
17 12 1
19 12 1
22 12 1
25 12 1
31 12 1
38 12 1
42 12 1
11 13 1
19 13 1
22 13 1
24 13 1
26 13 1
32 13 1
35 13 1
47 13 1
12 14 1
20 14 1
21 14 1
23 14 1
25 14 1
31 14 1
36 14 1
48 14 1
9 15 1
17 15 1
22 15 1
24 15 1
28 15 1
30 15 1
33 15 1
45 15 1
10 16 1
18 16 1
21 16 1
23 16 1
27 16 1
29 16 1
34 16 1
46 16 1
2 17 1
4 17 1
7 17 1
23 17 1
27 17 1
36 17 1
38 17 1
47 17 1
1 18 1
3 18 1
8 18 1
24 18 1
28 18 1
35 18 1
37 18 1
48 18 1
2 19 1
4 19 1
5 19 1
21 19 1
25 19 1
34 19 1
40 19 1
45 19 1
1 20 1
3 20 1
6 20 1
22 20 1
26 20 1
33 20 1
39 20 1
46 20 1
3 21 1
6 21 1
8 21 1
19 21 1
31 21 1
34 21 1
40 21 1
43 21 1
4 22 1
5 22 1
7 22 1
20 22 1
32 22 1
33 22 1
39 22 1
44 22 1
1 23 1
6 23 1
8 23 1
17 23 1
29 23 1
36 23 1
38 23 1
41 23 1
2 24 1
5 24 1
7 24 1
18 24 1
30 24 1
35 24 1
37 24 1
42 24 1
1 25 1
12 25 1
17 25 1
23 25 1
55 25 1
59 25 1
68 25 1
70 25 1
2 26 1
11 26 1
18 26 1
24 26 1
56 26 1
60 26 1
67 26 1
69 26 1
3 27 1
10 27 1
19 27 1
21 27 1
53 27 1
57 27 1
66 27 1
72 27 1
4 28 1
9 28 1
20 28 1
22 28 1
54 28 1
58 28 1
65 28 1
71 28 1
5 29 1
16 29 1
19 29 1
21 29 1
51 29 1
63 29 1
66 29 1
72 29 1
6 30 1
15 30 1
20 30 1
22 30 1
52 30 1
64 30 1
65 30 1
71 30 1
7 31 1
14 31 1
17 31 1
23 31 1
49 31 1
61 31 1
68 31 1
70 31 1
8 32 1
13 32 1
18 32 1
24 32 1
50 32 1
62 32 1
67 32 1
69 32 1
1 33 1
7 33 1
9 33 1
20 33 1
52 33 1
54 33 1
63 33 1
67 33 1
2 34 1
8 34 1
10 34 1
19 34 1
51 34 1
53 34 1
64 34 1
68 34 1
3 35 1
5 35 1
11 35 1
18 35 1
50 35 1
56 35 1
61 35 1
65 35 1
4 36 1
6 36 1
12 36 1
17 36 1
49 36 1
55 36 1
62 36 1
66 36 1
3 37 1
5 37 1
13 37 1
24 37 1
50 37 1
56 37 1
59 37 1
71 37 1
4 38 1
6 38 1
14 38 1
23 38 1
49 38 1
55 38 1
60 38 1
72 38 1
1 39 1
7 39 1
15 39 1
22 39 1
52 39 1
54 39 1
57 39 1
69 39 1
2 40 1
8 40 1
16 40 1
21 40 1
51 40 1
53 40 1
58 40 1
70 40 1
4 41 1
9 41 1
15 41 1
17 41 1
51 41 1
60 41 1
62 41 1
71 41 1
3 42 1
10 42 1
16 42 1
18 42 1
52 42 1
59 42 1
61 42 1
72 42 1
2 43 1
11 43 1
13 43 1
19 43 1
49 43 1
58 43 1
64 43 1
69 43 1
1 44 1
12 44 1
14 44 1
20 44 1
50 44 1
57 44 1
63 44 1
70 44 1
8 45 1
11 45 1
13 45 1
21 45 1
55 45 1
58 45 1
64 45 1
67 45 1
7 46 1
12 46 1
14 46 1
22 46 1
56 46 1
57 46 1
63 46 1
68 46 1
6 47 1
9 47 1
15 47 1
23 47 1
53 47 1
60 47 1
62 47 1
65 47 1
5 48 1
10 48 1
16 48 1
24 48 1
54 48 1
59 48 1
61 48 1
66 48 1
7 49 1
14 49 1
18 49 1
22 49 1
79 49 1
83 49 1
92 49 1
94 49 1
8 50 1
13 50 1
17 50 1
21 50 1
80 50 1
84 50 1
91 50 1
93 50 1
5 51 1
16 51 1
20 51 1
24 51 1
77 51 1
81 51 1
90 51 1
96 51 1
6 52 1
15 52 1
19 52 1
23 52 1
78 52 1
82 52 1
89 52 1
95 52 1
3 53 1
10 53 1
18 53 1
22 53 1
75 53 1
87 53 1
90 53 1
96 53 1
4 54 1
9 54 1
17 54 1
21 54 1
76 54 1
88 54 1
89 54 1
95 54 1
1 55 1
12 55 1
20 55 1
24 55 1
73 55 1
85 55 1
92 55 1
94 55 1
2 56 1
11 56 1
19 56 1
23 56 1
74 56 1
86 56 1
91 56 1
93 56 1
2 57 1
6 57 1
15 57 1
22 57 1
76 57 1
78 57 1
87 57 1
91 57 1
1 58 1
5 58 1
16 58 1
21 58 1
75 58 1
77 58 1
88 58 1
92 58 1
4 59 1
8 59 1
13 59 1
24 59 1
74 59 1
80 59 1
85 59 1
89 59 1
3 60 1
7 60 1
14 60 1
23 60 1
73 60 1
79 60 1
86 60 1
90 60 1
2 61 1
6 61 1
11 61 1
18 61 1
74 61 1
80 61 1
83 61 1
95 61 1
1 62 1
5 62 1
12 62 1
17 62 1
73 62 1
79 62 1
84 62 1
96 62 1
4 63 1
8 63 1
9 63 1
20 63 1
76 63 1
78 63 1
81 63 1
93 63 1
3 64 1
7 64 1
10 64 1
19 64 1
75 64 1
77 64 1
82 64 1
94 64 1
6 65 1
10 65 1
14 65 1
23 65 1
75 65 1
84 65 1
86 65 1
95 65 1
5 66 1
9 66 1
13 66 1
24 66 1
76 66 1
83 66 1
85 66 1
96 66 1
8 67 1
12 67 1
16 67 1
21 67 1
73 67 1
82 67 1
88 67 1
93 67 1
7 68 1
11 68 1
15 68 1
22 68 1
74 68 1
81 68 1
87 68 1
94 68 1
2 69 1
10 69 1
14 69 1
19 69 1
79 69 1
82 69 1
88 69 1
91 69 1
1 70 1
9 70 1
13 70 1
20 70 1
80 70 1
81 70 1
87 70 1
92 70 1
4 71 1
12 71 1
16 71 1
17 71 1
77 71 1
84 71 1
86 71 1
89 71 1
3 72 1
11 72 1
15 72 1
18 72 1
78 72 1
83 72 1
85 72 1
90 72 1
25 73 1
36 73 1
41 73 1
47 73 1
55 73 1
58 73 1
60 73 1
63 73 1
26 74 1
35 74 1
42 74 1
48 74 1
56 74 1
57 74 1
59 74 1
64 74 1
27 75 1
34 75 1
43 75 1
45 75 1
53 75 1
58 75 1
60 75 1
61 75 1
28 76 1
33 76 1
44 76 1
46 76 1
54 76 1
57 76 1
59 76 1
62 76 1
29 77 1
40 77 1
43 77 1
45 77 1
51 77 1
59 77 1
62 77 1
64 77 1
30 78 1
39 78 1
44 78 1
46 78 1
52 78 1
60 78 1
61 78 1
63 78 1
31 79 1
38 79 1
41 79 1
47 79 1
49 79 1
57 79 1
62 79 1
64 79 1
32 80 1
37 80 1
42 80 1
48 80 1
50 80 1
58 80 1
61 80 1
63 80 1
25 81 1
31 81 1
33 81 1
44 81 1
63 81 1
66 81 1
68 81 1
71 81 1
26 82 1
32 82 1
34 82 1
43 82 1
64 82 1
65 82 1
67 82 1
72 82 1
27 83 1
29 83 1
35 83 1
42 83 1
61 83 1
66 83 1
68 83 1
69 83 1
28 84 1
30 84 1
36 84 1
41 84 1
62 84 1
65 84 1
67 84 1
70 84 1
27 85 1
29 85 1
37 85 1
48 85 1
59 85 1
67 85 1
70 85 1
72 85 1
28 86 1
30 86 1
38 86 1
47 86 1
60 86 1
68 86 1
69 86 1
71 86 1
25 87 1
31 87 1
39 87 1
46 87 1
57 87 1
65 87 1
70 87 1
72 87 1
26 88 1
32 88 1
40 88 1
45 88 1
58 88 1
66 88 1
69 88 1
71 88 1
28 89 1
33 89 1
39 89 1
41 89 1
50 89 1
52 89 1
55 89 1
71 89 1
27 90 1
34 90 1
40 90 1
42 90 1
49 90 1
51 90 1
56 90 1
72 90 1
26 91 1
35 91 1
37 91 1
43 91 1
50 91 1
52 91 1
53 91 1
69 91 1
25 92 1
36 92 1
38 92 1
44 92 1
49 92 1
51 92 1
54 92 1
70 92 1
32 93 1
35 93 1
37 93 1
45 93 1
51 93 1
54 93 1
56 93 1
67 93 1
31 94 1
36 94 1
38 94 1
46 94 1
52 94 1
53 94 1
55 94 1
68 94 1
30 95 1
33 95 1
39 95 1
47 95 1
49 95 1
54 95 1
56 95 1
65 95 1
29 96 1
34 96 1
40 96 1
48 96 1
50 96 1
53 96 1
55 96 1
66 96 1
31 97 1
38 97 1
42 97 1
46 97 1
79 97 1
82 97 1
84 97 1
87 97 1
32 98 1
37 98 1
41 98 1
45 98 1
80 98 1
81 98 1
83 98 1
88 98 1
29 99 1
40 99 1
44 99 1
48 99 1
77 99 1
82 99 1
84 99 1
85 99 1
30 100 1
39 100 1
43 100 1
47 100 1
78 100 1
81 100 1
83 100 1
86 100 1
27 101 1
34 101 1
42 101 1
46 101 1
75 101 1
83 101 1
86 101 1
88 101 1
28 102 1
33 102 1
41 102 1
45 102 1
76 102 1
84 102 1
85 102 1
87 102 1
25 103 1
36 103 1
44 103 1
48 103 1
73 103 1
81 103 1
86 103 1
88 103 1
26 104 1
35 104 1
43 104 1
47 104 1
74 104 1
82 104 1
85 104 1
87 104 1
26 105 1
30 105 1
39 105 1
46 105 1
87 105 1
90 105 1
92 105 1
95 105 1
25 106 1
29 106 1
40 106 1
45 106 1
88 106 1
89 106 1
91 106 1
96 106 1
28 107 1
32 107 1
37 107 1
48 107 1
85 107 1
90 107 1
92 107 1
93 107 1
27 108 1
31 108 1
38 108 1
47 108 1
86 108 1
89 108 1
91 108 1
94 108 1
26 109 1
30 109 1
35 109 1
42 109 1
83 109 1
91 109 1
94 109 1
96 109 1
25 110 1
29 110 1
36 110 1
41 110 1
84 110 1
92 110 1
93 110 1
95 110 1
28 111 1
32 111 1
33 111 1
44 111 1
81 111 1
89 111 1
94 111 1
96 111 1
27 112 1
31 112 1
34 112 1
43 112 1
82 112 1
90 112 1
93 112 1
95 112 1
30 113 1
34 113 1
38 113 1
47 113 1
74 113 1
76 113 1
79 113 1
95 113 1
29 114 1
33 114 1
37 114 1
48 114 1
73 114 1
75 114 1
80 114 1
96 114 1
32 115 1
36 115 1
40 115 1
45 115 1
74 115 1
76 115 1
77 115 1
93 115 1
31 116 1
35 116 1
39 116 1
46 116 1
73 116 1
75 116 1
78 116 1
94 116 1
26 117 1
34 117 1
38 117 1
43 117 1
75 117 1
78 117 1
80 117 1
91 117 1
25 118 1
33 118 1
37 118 1
44 118 1
76 118 1
77 118 1
79 118 1
92 118 1
28 119 1
36 119 1
40 119 1
41 119 1
73 119 1
78 119 1
80 119 1
89 119 1
27 120 1
35 120 1
39 120 1
42 120 1
74 120 1
77 120 1
79 120 1
90 120 1
55 121 1
62 121 1
66 121 1
70 121 1
73 121 1
84 121 1
89 121 1
95 121 1
56 122 1
61 122 1
65 122 1
69 122 1
74 122 1
83 122 1
90 122 1
96 122 1
53 123 1
64 123 1
68 123 1
72 123 1
75 123 1
82 123 1
91 123 1
93 123 1
54 124 1
63 124 1
67 124 1
71 124 1
76 124 1
81 124 1
92 124 1
94 124 1
51 125 1
58 125 1
66 125 1
70 125 1
77 125 1
88 125 1
91 125 1
93 125 1
52 126 1
57 126 1
65 126 1
69 126 1
78 126 1
87 126 1
92 126 1
94 126 1
49 127 1
60 127 1
68 127 1
72 127 1
79 127 1
86 127 1
89 127 1
95 127 1
50 128 1
59 128 1
67 128 1
71 128 1
80 128 1
85 128 1
90 128 1
96 128 1
50 129 1
54 129 1
63 129 1
70 129 1
73 129 1
79 129 1
81 129 1
92 129 1
49 130 1
53 130 1
64 130 1
69 130 1
74 130 1
80 130 1
82 130 1
91 130 1
52 131 1
56 131 1
61 131 1
72 131 1
75 131 1
77 131 1
83 131 1
90 131 1
51 132 1
55 132 1
62 132 1
71 132 1
76 132 1
78 132 1
84 132 1
89 132 1
50 133 1
54 133 1
59 133 1
66 133 1
75 133 1
77 133 1
85 133 1
96 133 1
49 134 1
53 134 1
60 134 1
65 134 1
76 134 1
78 134 1
86 134 1
95 134 1
52 135 1
56 135 1
57 135 1
68 135 1
73 135 1
79 135 1
87 135 1
94 135 1
51 136 1
55 136 1
58 136 1
67 136 1
74 136 1
80 136 1
88 136 1
93 136 1
54 137 1
58 137 1
62 137 1
71 137 1
76 137 1
81 137 1
87 137 1
89 137 1
53 138 1
57 138 1
61 138 1
72 138 1
75 138 1
82 138 1
88 138 1
90 138 1
56 139 1
60 139 1
64 139 1
69 139 1
74 139 1
83 139 1
85 139 1
91 139 1
55 140 1
59 140 1
63 140 1
70 140 1
73 140 1
84 140 1
86 140 1
92 140 1
50 141 1
58 141 1
62 141 1
67 141 1
80 141 1
83 141 1
85 141 1
93 141 1
49 142 1
57 142 1
61 142 1
68 142 1
79 142 1
84 142 1
86 142 1
94 142 1
52 143 1
60 143 1
64 143 1
65 143 1
78 143 1
81 143 1
87 143 1
95 143 1
51 144 1
59 144 1
63 144 1
66 144 1
77 144 1
82 144 1
88 144 1
96 144 1
