%%MatrixMarket matrix coordinate integer general
% Binary matrix; one-based indices; arithmetic over GF(2)
270 540 2160
1 1 1
14 1 1
55 1 1
58 1 1
2 2 1
15 2 1
56 2 1
59 2 1
3 3 1
16 3 1
57 3 1
60 3 1
4 4 1
17 4 1
58 4 1
61 4 1
5 5 1
18 5 1
59 5 1
62 5 1
6 6 1
19 6 1
60 6 1
63 6 1
7 7 1
20 7 1
61 7 1
64 7 1
8 8 1
21 8 1
62 8 1
65 8 1
9 9 1
22 9 1
63 9 1
66 9 1
10 10 1
23 10 1
64 10 1
67 10 1
11 11 1
24 11 1
65 11 1
68 11 1
12 12 1
25 12 1
66 12 1
69 12 1
13 13 1
26 13 1
67 13 1
70 13 1
14 14 1
27 14 1
68 14 1
71 14 1
15 15 1
28 15 1
69 15 1
72 15 1
16 16 1
29 16 1
70 16 1
73 16 1
17 17 1
30 17 1
71 17 1
74 17 1
18 18 1
31 18 1
72 18 1
75 18 1
19 19 1
32 19 1
73 19 1
76 19 1
20 20 1
33 20 1
74 20 1
77 20 1
21 21 1
34 21 1
75 21 1
78 21 1
22 22 1
35 22 1
76 22 1
79 22 1
23 23 1
36 23 1
77 23 1
80 23 1
24 24 1
37 24 1
78 24 1
81 24 1
25 25 1
38 25 1
79 25 1
82 25 1
26 26 1
39 26 1
80 26 1
83 26 1
27 27 1
40 27 1
81 27 1
84 27 1
28 28 1
41 28 1
82 28 1
85 28 1
29 29 1
42 29 1
83 29 1
86 29 1
30 30 1
43 30 1
84 30 1
87 30 1
31 31 1
44 31 1
85 31 1
88 31 1
32 32 1
45 32 1
86 32 1
89 32 1
33 33 1
46 33 1
87 33 1
90 33 1
34 34 1
47 34 1
88 34 1
91 34 1
35 35 1
48 35 1
89 35 1
92 35 1
36 36 1
49 36 1
90 36 1
93 36 1
37 37 1
50 37 1
91 37 1
94 37 1
38 38 1
51 38 1
92 38 1
95 38 1
39 39 1
52 39 1
93 39 1
96 39 1
40 40 1
53 40 1
94 40 1
97 40 1
41 41 1
54 41 1
95 41 1
98 41 1
1 42 1
42 42 1
96 42 1
99 42 1
2 43 1
43 43 1
97 43 1
100 43 1
3 44 1
44 44 1
98 44 1
101 44 1
4 45 1
45 45 1
99 45 1
102 45 1
5 46 1
46 46 1
100 46 1
103 46 1
6 47 1
47 47 1
101 47 1
104 47 1
7 48 1
48 48 1
102 48 1
105 48 1
8 49 1
49 49 1
103 49 1
106 49 1
9 50 1
50 50 1
104 50 1
107 50 1
10 51 1
51 51 1
105 51 1
108 51 1
11 52 1
52 52 1
55 52 1
106 52 1
12 53 1
53 53 1
56 53 1
107 53 1
13 54 1
54 54 1
57 54 1
108 54 1
1 55 1
18 55 1
109 55 1
112 55 1
2 56 1
19 56 1
110 56 1
113 56 1
3 57 1
20 57 1
111 57 1
114 57 1
4 58 1
21 58 1
112 58 1
115 58 1
5 59 1
22 59 1
113 59 1
116 59 1
6 60 1
23 60 1
114 60 1
117 60 1
7 61 1
24 61 1
115 61 1
118 61 1
8 62 1
25 62 1
116 62 1
119 62 1
9 63 1
26 63 1
117 63 1
120 63 1
10 64 1
27 64 1
118 64 1
121 64 1
11 65 1
28 65 1
119 65 1
122 65 1
12 66 1
29 66 1
120 66 1
123 66 1
13 67 1
30 67 1
121 67 1
124 67 1
14 68 1
31 68 1
122 68 1
125 68 1
15 69 1
32 69 1
123 69 1
126 69 1
16 70 1
33 70 1
124 70 1
127 70 1
17 71 1
34 71 1
125 71 1
128 71 1
18 72 1
35 72 1
126 72 1
129 72 1
19 73 1
36 73 1
127 73 1
130 73 1
20 74 1
37 74 1
128 74 1
131 74 1
21 75 1
38 75 1
129 75 1
132 75 1
22 76 1
39 76 1
130 76 1
133 76 1
23 77 1
40 77 1
131 77 1
134 77 1
24 78 1
41 78 1
132 78 1
135 78 1
25 79 1
42 79 1
133 79 1
136 79 1
26 80 1
43 80 1
134 80 1
137 80 1
27 81 1
44 81 1
135 81 1
138 81 1
28 82 1
45 82 1
136 82 1
139 82 1
29 83 1
46 83 1
137 83 1
140 83 1
30 84 1
47 84 1
138 84 1
141 84 1
31 85 1
48 85 1
139 85 1
142 85 1
32 86 1
49 86 1
140 86 1
143 86 1
33 87 1
50 87 1
141 87 1
144 87 1
34 88 1
51 88 1
142 88 1
145 88 1
35 89 1
52 89 1
143 89 1
146 89 1
36 90 1
53 90 1
144 90 1
147 90 1
37 91 1
54 91 1
145 91 1
148 91 1
1 92 1
38 92 1
146 92 1
149 92 1
2 93 1
39 93 1
147 93 1
150 93 1
3 94 1
40 94 1
148 94 1
151 94 1
4 95 1
41 95 1
149 95 1
152 95 1
5 96 1
42 96 1
150 96 1
153 96 1
6 97 1
43 97 1
151 97 1
154 97 1
7 98 1
44 98 1
152 98 1
155 98 1
8 99 1
45 99 1
153 99 1
156 99 1
9 100 1
46 100 1
154 100 1
157 100 1
10 101 1
47 101 1
155 101 1
158 101 1
11 102 1
48 102 1
156 102 1
159 102 1
12 103 1
49 103 1
157 103 1
160 103 1
13 104 1
50 104 1
158 104 1
161 104 1
14 105 1
51 105 1
159 105 1
162 105 1
15 106 1
52 106 1
109 106 1
160 106 1
16 107 1
53 107 1
110 107 1
161 107 1
17 108 1
54 108 1
111 108 1
162 108 1
55 109 1
72 109 1
109 109 1
122 109 1
56 110 1
73 110 1
110 110 1
123 110 1
57 111 1
74 111 1
111 111 1
124 111 1
58 112 1
75 112 1
112 112 1
125 112 1
59 113 1
76 113 1
113 113 1
126 113 1
60 114 1
77 114 1
114 114 1
127 114 1
61 115 1
78 115 1
115 115 1
128 115 1
62 116 1
79 116 1
116 116 1
129 116 1
63 117 1
80 117 1
117 117 1
130 117 1
64 118 1
81 118 1
118 118 1
131 118 1
65 119 1
82 119 1
119 119 1
132 119 1
66 120 1
83 120 1
120 120 1
133 120 1
67 121 1
84 121 1
121 121 1
134 121 1
68 122 1
85 122 1
122 122 1
135 122 1
69 123 1
86 123 1
123 123 1
136 123 1
70 124 1
87 124 1
124 124 1
137 124 1
71 125 1
88 125 1
125 125 1
138 125 1
72 126 1
89 126 1
126 126 1
139 126 1
73 127 1
90 127 1
127 127 1
140 127 1
74 128 1
91 128 1
128 128 1
141 128 1
75 129 1
92 129 1
129 129 1
142 129 1
76 130 1
93 130 1
130 130 1
143 130 1
77 131 1
94 131 1
131 131 1
144 131 1
78 132 1
95 132 1
132 132 1
145 132 1
79 133 1
96 133 1
133 133 1
146 133 1
80 134 1
97 134 1
134 134 1
147 134 1
81 135 1
98 135 1
135 135 1
148 135 1
82 136 1
99 136 1
136 136 1
149 136 1
83 137 1
100 137 1
137 137 1
150 137 1
84 138 1
101 138 1
138 138 1
151 138 1
85 139 1
102 139 1
139 139 1
152 139 1
86 140 1
103 140 1
140 140 1
153 140 1
87 141 1
104 141 1
141 141 1
154 141 1
88 142 1
105 142 1
142 142 1
155 142 1
89 143 1
106 143 1
143 143 1
156 143 1
90 144 1
107 144 1
144 144 1
157 144 1
91 145 1
108 145 1
145 145 1
158 145 1
55 146 1
92 146 1
146 146 1
159 146 1
56 147 1
93 147 1
147 147 1
160 147 1
57 148 1
94 148 1
148 148 1
161 148 1
58 149 1
95 149 1
149 149 1
162 149 1
59 150 1
96 150 1
109 150 1
150 150 1
60 151 1
97 151 1
110 151 1
151 151 1
61 152 1
98 152 1
111 152 1
152 152 1
62 153 1
99 153 1
112 153 1
153 153 1
63 154 1
100 154 1
113 154 1
154 154 1
64 155 1
101 155 1
114 155 1
155 155 1
65 156 1
102 156 1
115 156 1
156 156 1
66 157 1
103 157 1
116 157 1
157 157 1
67 158 1
104 158 1
117 158 1
158 158 1
68 159 1
105 159 1
118 159 1
159 159 1
69 160 1
106 160 1
119 160 1
160 160 1
70 161 1
107 161 1
120 161 1
161 161 1
71 162 1
108 162 1
121 162 1
162 162 1
1 163 1
47 163 1
163 163 1
166 163 1
2 164 1
48 164 1
164 164 1
167 164 1
3 165 1
49 165 1
165 165 1
168 165 1
4 166 1
50 166 1
166 166 1
169 166 1
5 167 1
51 167 1
167 167 1
170 167 1
6 168 1
52 168 1
168 168 1
171 168 1
7 169 1
53 169 1
169 169 1
172 169 1
8 170 1
54 170 1
170 170 1
173 170 1
1 171 1
9 171 1
171 171 1
174 171 1
2 172 1
10 172 1
172 172 1
175 172 1
3 173 1
11 173 1
173 173 1
176 173 1
4 174 1
12 174 1
174 174 1
177 174 1
5 175 1
13 175 1
175 175 1
178 175 1
6 176 1
14 176 1
176 176 1
179 176 1
7 177 1
15 177 1
177 177 1
180 177 1
8 178 1
16 178 1
178 178 1
181 178 1
9 179 1
17 179 1
179 179 1
182 179 1
10 180 1
18 180 1
180 180 1
183 180 1
11 181 1
19 181 1
181 181 1
184 181 1
12 182 1
20 182 1
182 182 1
185 182 1
13 183 1
21 183 1
183 183 1
186 183 1
14 184 1
22 184 1
184 184 1
187 184 1
15 185 1
23 185 1
185 185 1
188 185 1
16 186 1
24 186 1
186 186 1
189 186 1
17 187 1
25 187 1
187 187 1
190 187 1
18 188 1
26 188 1
188 188 1
191 188 1
19 189 1
27 189 1
189 189 1
192 189 1
20 190 1
28 190 1
190 190 1
193 190 1
21 191 1
29 191 1
191 191 1
194 191 1
22 192 1
30 192 1
192 192 1
195 192 1
23 193 1
31 193 1
193 193 1
196 193 1
24 194 1
32 194 1
194 194 1
197 194 1
25 195 1
33 195 1
195 195 1
198 195 1
26 196 1
34 196 1
196 196 1
199 196 1
27 197 1
35 197 1
197 197 1
200 197 1
28 198 1
36 198 1
198 198 1
201 198 1
29 199 1
37 199 1
199 199 1
202 199 1
30 200 1
38 200 1
200 200 1
203 200 1
31 201 1
39 201 1
201 201 1
204 201 1
32 202 1
40 202 1
202 202 1
205 202 1
33 203 1
41 203 1
203 203 1
206 203 1
34 204 1
42 204 1
204 204 1
207 204 1
35 205 1
43 205 1
205 205 1
208 205 1
36 206 1
44 206 1
206 206 1
209 206 1
37 207 1
45 207 1
207 207 1
210 207 1
38 208 1
46 208 1
208 208 1
211 208 1
39 209 1
47 209 1
209 209 1
212 209 1
40 210 1
48 210 1
210 210 1
213 210 1
41 211 1
49 211 1
211 211 1
214 211 1
42 212 1
50 212 1
212 212 1
215 212 1
43 213 1
51 213 1
213 213 1
216 213 1
44 214 1
52 214 1
163 214 1
214 214 1
45 215 1
53 215 1
164 215 1
215 215 1
46 216 1
54 216 1
165 216 1
216 216 1
55 217 1
101 217 1
163 217 1
176 217 1
56 218 1
102 218 1
164 218 1
177 218 1
57 219 1
103 219 1
165 219 1
178 219 1
58 220 1
104 220 1
166 220 1
179 220 1
59 221 1
105 221 1
167 221 1
180 221 1
60 222 1
106 222 1
168 222 1
181 222 1
61 223 1
107 223 1
169 223 1
182 223 1
62 224 1
108 224 1
170 224 1
183 224 1
55 225 1
63 225 1
171 225 1
184 225 1
56 226 1
64 226 1
172 226 1
185 226 1
57 227 1
65 227 1
173 227 1
186 227 1
58 228 1
66 228 1
174 228 1
187 228 1
59 229 1
67 229 1
175 229 1
188 229 1
60 230 1
68 230 1
176 230 1
189 230 1
61 231 1
69 231 1
177 231 1
190 231 1
62 232 1
70 232 1
178 232 1
191 232 1
63 233 1
71 233 1
179 233 1
192 233 1
64 234 1
72 234 1
180 234 1
193 234 1
65 235 1
73 235 1
181 235 1
194 235 1
66 236 1
74 236 1
182 236 1
195 236 1
67 237 1
75 237 1
183 237 1
196 237 1
68 238 1
76 238 1
184 238 1
197 238 1
69 239 1
77 239 1
185 239 1
198 239 1
70 240 1
78 240 1
186 240 1
199 240 1
71 241 1
79 241 1
187 241 1
200 241 1
72 242 1
80 242 1
188 242 1
201 242 1
73 243 1
81 243 1
189 243 1
202 243 1
74 244 1
82 244 1
190 244 1
203 244 1
75 245 1
83 245 1
191 245 1
204 245 1
76 246 1
84 246 1
192 246 1
205 246 1
77 247 1
85 247 1
193 247 1
206 247 1
78 248 1
86 248 1
194 248 1
207 248 1
79 249 1
87 249 1
195 249 1
208 249 1
80 250 1
88 250 1
196 250 1
209 250 1
81 251 1
89 251 1
197 251 1
210 251 1
82 252 1
90 252 1
198 252 1
211 252 1
83 253 1
91 253 1
199 253 1
212 253 1
84 254 1
92 254 1
200 254 1
213 254 1
85 255 1
93 255 1
201 255 1
214 255 1
86 256 1
94 256 1
202 256 1
215 256 1
87 257 1
95 257 1
203 257 1
216 257 1
88 258 1
96 258 1
163 258 1
204 258 1
89 259 1
97 259 1
164 259 1
205 259 1
90 260 1
98 260 1
165 260 1
206 260 1
91 261 1
99 261 1
166 261 1
207 261 1
92 262 1
100 262 1
167 262 1
208 262 1
93 263 1
101 263 1
168 263 1
209 263 1
94 264 1
102 264 1
169 264 1
210 264 1
95 265 1
103 265 1
170 265 1
211 265 1
96 266 1
104 266 1
171 266 1
212 266 1
97 267 1
105 267 1
172 267 1
213 267 1
98 268 1
106 268 1
173 268 1
214 268 1
99 269 1
107 269 1
174 269 1
215 269 1
100 270 1
108 270 1
175 270 1
216 270 1
109 271 1
155 271 1
163 271 1
180 271 1
110 272 1
156 272 1
164 272 1
181 272 1
111 273 1
157 273 1
165 273 1
182 273 1
112 274 1
158 274 1
166 274 1
183 274 1
113 275 1
159 275 1
167 275 1
184 275 1
114 276 1
160 276 1
168 276 1
185 276 1
115 277 1
161 277 1
169 277 1
186 277 1
116 278 1
162 278 1
170 278 1
187 278 1
109 279 1
117 279 1
171 279 1
188 279 1
110 280 1
118 280 1
172 280 1
189 280 1
111 281 1
119 281 1
173 281 1
190 281 1
112 282 1
120 282 1
174 282 1
191 282 1
113 283 1
121 283 1
175 283 1
192 283 1
114 284 1
122 284 1
176 284 1
193 284 1
115 285 1
123 285 1
177 285 1
194 285 1
116 286 1
124 286 1
178 286 1
195 286 1
117 287 1
125 287 1
179 287 1
196 287 1
118 288 1
126 288 1
180 288 1
197 288 1
119 289 1
127 289 1
181 289 1
198 289 1
120 290 1
128 290 1
182 290 1
199 290 1
121 291 1
129 291 1
183 291 1
200 291 1
122 292 1
130 292 1
184 292 1
201 292 1
123 293 1
131 293 1
185 293 1
202 293 1
124 294 1
132 294 1
186 294 1
203 294 1
125 295 1
133 295 1
187 295 1
204 295 1
126 296 1
134 296 1
188 296 1
205 296 1
127 297 1
135 297 1
189 297 1
206 297 1
128 298 1
136 298 1
190 298 1
207 298 1
129 299 1
137 299 1
191 299 1
208 299 1
130 300 1
138 300 1
192 300 1
209 300 1
131 301 1
139 301 1
193 301 1
210 301 1
132 302 1
140 302 1
194 302 1
211 302 1
133 303 1
141 303 1
195 303 1
212 303 1
134 304 1
142 304 1
196 304 1
213 304 1
135 305 1
143 305 1
197 305 1
214 305 1
136 306 1
144 306 1
198 306 1
215 306 1
137 307 1
145 307 1
199 307 1
216 307 1
138 308 1
146 308 1
163 308 1
200 308 1
139 309 1
147 309 1
164 309 1
201 309 1
140 310 1
148 310 1
165 310 1
202 310 1
141 311 1
149 311 1
166 311 1
203 311 1
142 312 1
150 312 1
167 312 1
204 312 1
143 313 1
151 313 1
168 313 1
205 313 1
144 314 1
152 314 1
169 314 1
206 314 1
145 315 1
153 315 1
170 315 1
207 315 1
146 316 1
154 316 1
171 316 1
208 316 1
147 317 1
155 317 1
172 317 1
209 317 1
148 318 1
156 318 1
173 318 1
210 318 1
149 319 1
157 319 1
174 319 1
211 319 1
150 320 1
158 320 1
175 320 1
212 320 1
151 321 1
159 321 1
176 321 1
213 321 1
152 322 1
160 322 1
177 322 1
214 322 1
153 323 1
161 323 1
178 323 1
215 323 1
154 324 1
162 324 1
179 324 1
216 324 1
1 325 1
54 325 1
217 325 1
220 325 1
1 326 1
2 326 1
218 326 1
221 326 1
2 327 1
3 327 1
219 327 1
222 327 1
3 328 1
4 328 1
220 328 1
223 328 1
4 329 1
5 329 1
221 329 1
224 329 1
5 330 1
6 330 1
222 330 1
225 330 1
6 331 1
7 331 1
223 331 1
226 331 1
7 332 1
8 332 1
224 332 1
227 332 1
8 333 1
9 333 1
225 333 1
228 333 1
9 334 1
10 334 1
226 334 1
229 334 1
10 335 1
11 335 1
227 335 1
230 335 1
11 336 1
12 336 1
228 336 1
231 336 1
12 337 1
13 337 1
229 337 1
232 337 1
13 338 1
14 338 1
230 338 1
233 338 1
14 339 1
15 339 1
231 339 1
234 339 1
15 340 1
16 340 1
232 340 1
235 340 1
16 341 1
17 341 1
233 341 1
236 341 1
17 342 1
18 342 1
234 342 1
237 342 1
18 343 1
19 343 1
235 343 1
238 343 1
19 344 1
20 344 1
236 344 1
239 344 1
20 345 1
21 345 1
237 345 1
240 345 1
21 346 1
22 346 1
238 346 1
241 346 1
22 347 1
23 347 1
239 347 1
242 347 1
23 348 1
24 348 1
240 348 1
243 348 1
24 349 1
25 349 1
241 349 1
244 349 1
25 350 1
26 350 1
242 350 1
245 350 1
26 351 1
27 351 1
243 351 1
246 351 1
27 352 1
28 352 1
244 352 1
247 352 1
28 353 1
29 353 1
245 353 1
248 353 1
29 354 1
30 354 1
246 354 1
249 354 1
30 355 1
31 355 1
247 355 1
250 355 1
31 356 1
32 356 1
248 356 1
251 356 1
32 357 1
33 357 1
249 357 1
252 357 1
33 358 1
34 358 1
250 358 1
253 358 1
34 359 1
35 359 1
251 359 1
254 359 1
35 360 1
36 360 1
252 360 1
255 360 1
36 361 1
37 361 1
253 361 1
256 361 1
37 362 1
38 362 1
254 362 1
257 362 1
38 363 1
39 363 1
255 363 1
258 363 1
39 364 1
40 364 1
256 364 1
259 364 1
40 365 1
41 365 1
257 365 1
260 365 1
41 366 1
42 366 1
258 366 1
261 366 1
42 367 1
43 367 1
259 367 1
262 367 1
43 368 1
44 368 1
260 368 1
263 368 1
44 369 1
45 369 1
261 369 1
264 369 1
45 370 1
46 370 1
262 370 1
265 370 1
46 371 1
47 371 1
263 371 1
266 371 1
47 372 1
48 372 1
264 372 1
267 372 1
48 373 1
49 373 1
265 373 1
268 373 1
49 374 1
50 374 1
266 374 1
269 374 1
50 375 1
51 375 1
267 375 1
270 375 1
51 376 1
52 376 1
217 376 1
268 376 1
52 377 1
53 377 1
218 377 1
269 377 1
53 378 1
54 378 1
219 378 1
270 378 1
55 379 1
108 379 1
217 379 1
230 379 1
55 380 1
56 380 1
218 380 1
231 380 1
56 381 1
57 381 1
219 381 1
232 381 1
57 382 1
58 382 1
220 382 1
233 382 1
58 383 1
59 383 1
221 383 1
234 383 1
59 384 1
60 384 1
222 384 1
235 384 1
60 385 1
61 385 1
223 385 1
236 385 1
61 386 1
62 386 1
224 386 1
237 386 1
62 387 1
63 387 1
225 387 1
238 387 1
63 388 1
64 388 1
226 388 1
239 388 1
64 389 1
65 389 1
227 389 1
240 389 1
65 390 1
66 390 1
228 390 1
241 390 1
66 391 1
67 391 1
229 391 1
242 391 1
67 392 1
68 392 1
230 392 1
243 392 1
68 393 1
69 393 1
231 393 1
244 393 1
69 394 1
70 394 1
232 394 1
245 394 1
70 395 1
71 395 1
233 395 1
246 395 1
71 396 1
72 396 1
234 396 1
247 396 1
72 397 1
73 397 1
235 397 1
248 397 1
73 398 1
74 398 1
236 398 1
249 398 1
74 399 1
75 399 1
237 399 1
250 399 1
75 400 1
76 400 1
238 400 1
251 400 1
76 401 1
77 401 1
239 401 1
252 401 1
77 402 1
78 402 1
240 402 1
253 402 1
78 403 1
79 403 1
241 403 1
254 403 1
79 404 1
80 404 1
242 404 1
255 404 1
80 405 1
81 405 1
243 405 1
256 405 1
81 406 1
82 406 1
244 406 1
257 406 1
82 407 1
83 407 1
245 407 1
258 407 1
83 408 1
84 408 1
246 408 1
259 408 1
84 409 1
85 409 1
247 409 1
260 409 1
85 410 1
86 410 1
248 410 1
261 410 1
86 411 1
87 411 1
249 411 1
262 411 1
87 412 1
88 412 1
250 412 1
263 412 1
88 413 1
89 413 1
251 413 1
264 413 1
89 414 1
90 414 1
252 414 1
265 414 1
90 415 1
91 415 1
253 415 1
266 415 1
91 416 1
92 416 1
254 416 1
267 416 1
92 417 1
93 417 1
255 417 1
268 417 1
93 418 1
94 418 1
256 418 1
269 418 1
94 419 1
95 419 1
257 419 1
270 419 1
95 420 1
96 420 1
217 420 1
258 420 1
96 421 1
97 421 1
218 421 1
259 421 1
97 422 1
98 422 1
219 422 1
260 422 1
98 423 1
99 423 1
220 423 1
261 423 1
99 424 1
100 424 1
221 424 1
262 424 1
100 425 1
101 425 1
222 425 1
263 425 1
101 426 1
102 426 1
223 426 1
264 426 1
102 427 1
103 427 1
224 427 1
265 427 1
103 428 1
104 428 1
225 428 1
266 428 1
104 429 1
105 429 1
226 429 1
267 429 1
105 430 1
106 430 1
227 430 1
268 430 1
106 431 1
107 431 1
228 431 1
269 431 1
107 432 1
108 432 1
229 432 1
270 432 1
109 433 1
162 433 1
217 433 1
234 433 1
109 434 1
110 434 1
218 434 1
235 434 1
110 435 1
111 435 1
219 435 1
236 435 1
111 436 1
112 436 1
220 436 1
237 436 1
112 437 1
113 437 1
221 437 1
238 437 1
113 438 1
114 438 1
222 438 1
239 438 1
114 439 1
115 439 1
223 439 1
240 439 1
115 440 1
116 440 1
224 440 1
241 440 1
116 441 1
117 441 1
225 441 1
242 441 1
117 442 1
118 442 1
226 442 1
243 442 1
118 443 1
119 443 1
227 443 1
244 443 1
119 444 1
120 444 1
228 444 1
245 444 1
120 445 1
121 445 1
229 445 1
246 445 1
121 446 1
122 446 1
230 446 1
247 446 1
122 447 1
123 447 1
231 447 1
248 447 1
123 448 1
124 448 1
232 448 1
249 448 1
124 449 1
125 449 1
233 449 1
250 449 1
125 450 1
126 450 1
234 450 1
251 450 1
126 451 1
127 451 1
235 451 1
252 451 1
127 452 1
128 452 1
236 452 1
253 452 1
128 453 1
129 453 1
237 453 1
254 453 1
129 454 1
130 454 1
238 454 1
255 454 1
130 455 1
131 455 1
239 455 1
256 455 1
131 456 1
132 456 1
240 456 1
257 456 1
132 457 1
133 457 1
241 457 1
258 457 1
133 458 1
134 458 1
242 458 1
259 458 1
134 459 1
135 459 1
243 459 1
260 459 1
135 460 1
136 460 1
244 460 1
261 460 1
136 461 1
137 461 1
245 461 1
262 461 1
137 462 1
138 462 1
246 462 1
263 462 1
138 463 1
139 463 1
247 463 1
264 463 1
139 464 1
140 464 1
248 464 1
265 464 1
140 465 1
141 465 1
249 465 1
266 465 1
141 466 1
142 466 1
250 466 1
267 466 1
142 467 1
143 467 1
251 467 1
268 467 1
143 468 1
144 468 1
252 468 1
269 468 1
144 469 1
145 469 1
253 469 1
270 469 1
145 470 1
146 470 1
217 470 1
254 470 1
146 471 1
147 471 1
218 471 1
255 471 1
147 472 1
148 472 1
219 472 1
256 472 1
148 473 1
149 473 1
220 473 1
257 473 1
149 474 1
150 474 1
221 474 1
258 474 1
150 475 1
151 475 1
222 475 1
259 475 1
151 476 1
152 476 1
223 476 1
260 476 1
152 477 1
153 477 1
224 477 1
261 477 1
153 478 1
154 478 1
225 478 1
262 478 1
154 479 1
155 479 1
226 479 1
263 479 1
155 480 1
156 480 1
227 480 1
264 480 1
156 481 1
157 481 1
228 481 1
265 481 1
157 482 1
158 482 1
229 482 1
266 482 1
158 483 1
159 483 1
230 483 1
267 483 1
159 484 1
160 484 1
231 484 1
268 484 1
160 485 1
161 485 1
232 485 1
269 485 1
161 486 1
162 486 1
233 486 1
270 486 1
163 487 1
216 487 1
217 487 1
263 487 1
163 488 1
164 488 1
218 488 1
264 488 1
164 489 1
165 489 1
219 489 1
265 489 1
165 490 1
166 490 1
220 490 1
266 490 1
166 491 1
167 491 1
221 491 1
267 491 1
167 492 1
168 492 1
222 492 1
268 492 1
168 493 1
169 493 1
223 493 1
269 493 1
169 494 1
170 494 1
224 494 1
270 494 1
170 495 1
171 495 1
217 495 1
225 495 1
171 496 1
172 496 1
218 496 1
226 496 1
172 497 1
173 497 1
219 497 1
227 497 1
173 498 1
174 498 1
220 498 1
228 498 1
174 499 1
175 499 1
221 499 1
229 499 1
175 500 1
176 500 1
222 500 1
230 500 1
176 501 1
177 501 1
223 501 1
231 501 1
177 502 1
178 502 1
224 502 1
232 502 1
178 503 1
179 503 1
225 503 1
233 503 1
179 504 1
180 504 1
226 504 1
234 504 1
180 505 1
181 505 1
227 505 1
235 505 1
181 506 1
182 506 1
228 506 1
236 506 1
182 507 1
183 507 1
229 507 1
237 507 1
183 508 1
184 508 1
230 508 1
238 508 1
184 509 1
185 509 1
231 509 1
239 509 1
185 510 1
186 510 1
232 510 1
240 510 1
186 511 1
187 511 1
233 511 1
241 511 1
187 512 1
188 512 1
234 512 1
242 512 1
188 513 1
189 513 1
235 513 1
243 513 1
189 514 1
190 514 1
236 514 1
244 514 1
190 515 1
191 515 1
237 515 1
245 515 1
191 516 1
192 516 1
238 516 1
246 516 1
192 517 1
193 517 1
239 517 1
247 517 1
193 518 1
194 518 1
240 518 1
248 518 1
194 519 1
195 519 1
241 519 1
249 519 1
195 520 1
196 520 1
242 520 1
250 520 1
196 521 1
197 521 1
243 521 1
251 521 1
197 522 1
198 522 1
244 522 1
252 522 1
198 523 1
199 523 1
245 523 1
253 523 1
199 524 1
200 524 1
246 524 1
254 524 1
200 525 1
201 525 1
247 525 1
255 525 1
201 526 1
202 526 1
248 526 1
256 526 1
202 527 1
203 527 1
249 527 1
257 527 1
203 528 1
204 528 1
250 528 1
258 528 1
204 529 1
205 529 1
251 529 1
259 529 1
205 530 1
206 530 1
252 530 1
260 530 1
206 531 1
207 531 1
253 531 1
261 531 1
207 532 1
208 532 1
254 532 1
262 532 1
208 533 1
209 533 1
255 533 1
263 533 1
209 534 1
210 534 1
256 534 1
264 534 1
210 535 1
211 535 1
257 535 1
265 535 1
211 536 1
212 536 1
258 536 1
266 536 1
212 537 1
213 537 1
259 537 1
267 537 1
213 538 1
214 538 1
260 538 1
268 538 1
214 539 1
215 539 1
261 539 1
269 539 1
215 540 1
216 540 1
262 540 1
270 540 1
