%%MatrixMarket matrix coordinate integer general
% Binary matrix; one-based indices; arithmetic over GF(2)
24 48 144
2 1 1
5 1 1
19 1 1
20 1 1
3 2 1
6 2 1
20 2 1
21 2 1
1 3 1
4 3 1
21 3 1
22 3 1
2 4 1
5 4 1
22 4 1
23 4 1
3 5 1
6 5 1
23 5 1
24 5 1
1 6 1
4 6 1
19 6 1
24 6 1
1 7 1
2 7 1
8 7 1
11 7 1
2 8 1
3 8 1
9 8 1
12 8 1
3 9 1
4 9 1
7 9 1
10 9 1
4 10 1
5 10 1
8 10 1
11 10 1
5 11 1
6 11 1
9 11 1
12 11 1
1 12 1
6 12 1
7 12 1
10 12 1
7 13 1
8 13 1
14 13 1
17 13 1
8 14 1
9 14 1
15 14 1
18 14 1
9 15 1
10 15 1
13 15 1
16 15 1
10 16 1
11 16 1
14 16 1
17 16 1
11 17 1
12 17 1
15 17 1
18 17 1
7 18 1
12 18 1
13 18 1
16 18 1
13 19 1
14 19 1
20 19 1
23 19 1
14 20 1
15 20 1
21 20 1
24 20 1
15 21 1
16 21 1
19 21 1
22 21 1
16 22 1
17 22 1
20 22 1
23 22 1
17 23 1
18 23 1
21 23 1
24 23 1
13 24 1
18 24 1
19 24 1
22 24 1
2 25 1
7 25 1
3 26 1
8 26 1
4 27 1
9 27 1
5 28 1
10 28 1
6 29 1
11 29 1
1 30 1
12 30 1
8 31 1
13 31 1
9 32 1
14 32 1
10 33 1
15 33 1
11 34 1
16 34 1
12 35 1
17 35 1
7 36 1
18 36 1
14 37 1
19 37 1
15 38 1
20 38 1
16 39 1
21 39 1
17 40 1
22 40 1
18 41 1
23 41 1
13 42 1
24 42 1
1 43 1
20 43 1
2 44 1
21 44 1
3 45 1
22 45 1
4 46 1
23 46 1
5 47 1
24 47 1
6 48 1
19 48 1
