%%MatrixMarket matrix coordinate integer general
% Binary matrix; one-based indices; arithmetic over GF(2)
160 240 1920
12 1 1
22 1 1
27 1 1
35 1 1
61 1 1
70 1 1
77 1 1
78 1 1
13 2 1
23 2 1
28 2 1
31 2 1
62 2 1
66 2 1
78 2 1
79 2 1
14 3 1
24 3 1
29 3 1
32 3 1
63 3 1
67 3 1
79 3 1
80 3 1
15 4 1
25 4 1
30 4 1
33 4 1
64 4 1
68 4 1
76 4 1
80 4 1
11 5 1
21 5 1
26 5 1
34 5 1
65 5 1
69 5 1
76 5 1
77 5 1
17 6 1
22 6 1
27 6 1
40 6 1
65 6 1
66 6 1
72 6 1
73 6 1
18 7 1
23 7 1
28 7 1
36 7 1
61 7 1
67 7 1
73 7 1
74 7 1
19 8 1
24 8 1
29 8 1
37 8 1
62 8 1
68 8 1
74 8 1
75 8 1
20 9 1
25 9 1
30 9 1
38 9 1
63 9 1
69 9 1
71 9 1
75 9 1
16 10 1
21 10 1
26 10 1
39 10 1
64 10 1
70 10 1
71 10 1
72 10 1
2 11 1
25 11 1
32 11 1
37 11 1
67 11 1
68 11 1
71 11 1
80 11 1
3 12 1
21 12 1
33 12 1
38 12 1
68 12 1
69 12 1
72 12 1
76 12 1
4 13 1
22 13 1
34 13 1
39 13 1
69 13 1
70 13 1
73 13 1
77 13 1
5 14 1
23 14 1
35 14 1
40 14 1
66 14 1
70 14 1
74 14 1
78 14 1
1 15 1
24 15 1
31 15 1
36 15 1
66 15 1
67 15 1
75 15 1
79 15 1
7 16 1
30 16 1
32 16 1
37 16 1
62 16 1
63 16 1
75 16 1
76 16 1
8 17 1
26 17 1
33 17 1
38 17 1
63 17 1
64 17 1
71 17 1
77 17 1
9 18 1
27 18 1
34 18 1
39 18 1
64 18 1
65 18 1
72 18 1
78 18 1
10 19 1
28 19 1
35 19 1
40 19 1
61 19 1
65 19 1
73 19 1
79 19 1
6 20 1
29 20 1
31 20 1
36 20 1
61 20 1
62 20 1
74 20 1
80 20 1
2 21 1
7 21 1
15 21 1
32 21 1
41 21 1
50 21 1
57 21 1
58 21 1
3 22 1
8 22 1
11 22 1
33 22 1
42 22 1
46 22 1
58 22 1
59 22 1
4 23 1
9 23 1
12 23 1
34 23 1
43 23 1
47 23 1
59 23 1
60 23 1
5 24 1
10 24 1
13 24 1
35 24 1
44 24 1
48 24 1
56 24 1
60 24 1
1 25 1
6 25 1
14 25 1
31 25 1
45 25 1
49 25 1
56 25 1
57 25 1
2 26 1
7 26 1
20 26 1
37 26 1
45 26 1
46 26 1
52 26 1
53 26 1
3 27 1
8 27 1
16 27 1
38 27 1
41 27 1
47 27 1
53 27 1
54 27 1
4 28 1
9 28 1
17 28 1
39 28 1
42 28 1
48 28 1
54 28 1
55 28 1
5 29 1
10 29 1
18 29 1
40 29 1
43 29 1
49 29 1
51 29 1
55 29 1
1 30 1
6 30 1
19 30 1
36 30 1
44 30 1
50 30 1
51 30 1
52 30 1
5 31 1
12 31 1
17 31 1
22 31 1
47 31 1
48 31 1
51 31 1
60 31 1
1 32 1
13 32 1
18 32 1
23 32 1
48 32 1
49 32 1
52 32 1
56 32 1
2 33 1
14 33 1
19 33 1
24 33 1
49 33 1
50 33 1
53 33 1
57 33 1
3 34 1
15 34 1
20 34 1
25 34 1
46 34 1
50 34 1
54 34 1
58 34 1
4 35 1
11 35 1
16 35 1
21 35 1
46 35 1
47 35 1
55 35 1
59 35 1
10 36 1
12 36 1
17 36 1
27 36 1
42 36 1
43 36 1
55 36 1
56 36 1
6 37 1
13 37 1
18 37 1
28 37 1
43 37 1
44 37 1
51 37 1
57 37 1
7 38 1
14 38 1
19 38 1
29 38 1
44 38 1
45 38 1
52 38 1
58 38 1
8 39 1
15 39 1
20 39 1
30 39 1
41 39 1
45 39 1
53 39 1
59 39 1
9 40 1
11 40 1
16 40 1
26 40 1
41 40 1
42 40 1
54 40 1
60 40 1
13 41 1
21 41 1
25 41 1
27 41 1
101 41 1
110 41 1
117 41 1
118 41 1
14 42 1
21 42 1
22 42 1
28 42 1
102 42 1
106 42 1
118 42 1
119 42 1
15 43 1
22 43 1
23 43 1
29 43 1
103 43 1
107 43 1
119 43 1
120 43 1
11 44 1
23 44 1
24 44 1
30 44 1
104 44 1
108 44 1
116 44 1
120 44 1
12 45 1
24 45 1
25 45 1
26 45 1
105 45 1
109 45 1
116 45 1
117 45 1
18 46 1
22 46 1
26 46 1
30 46 1
105 46 1
106 46 1
112 46 1
113 46 1
19 47 1
23 47 1
26 47 1
27 47 1
101 47 1
107 47 1
113 47 1
114 47 1
20 48 1
24 48 1
27 48 1
28 48 1
102 48 1
108 48 1
114 48 1
115 48 1
16 49 1
25 49 1
28 49 1
29 49 1
103 49 1
109 49 1
111 49 1
115 49 1
17 50 1
21 50 1
29 50 1
30 50 1
104 50 1
110 50 1
111 50 1
112 50 1
3 51 1
31 51 1
35 51 1
37 51 1
107 51 1
108 51 1
111 51 1
120 51 1
4 52 1
31 52 1
32 52 1
38 52 1
108 52 1
109 52 1
112 52 1
116 52 1
5 53 1
32 53 1
33 53 1
39 53 1
109 53 1
110 53 1
113 53 1
117 53 1
1 54 1
33 54 1
34 54 1
40 54 1
106 54 1
110 54 1
114 54 1
118 54 1
2 55 1
34 55 1
35 55 1
36 55 1
106 55 1
107 55 1
115 55 1
119 55 1
8 56 1
32 56 1
36 56 1
40 56 1
102 56 1
103 56 1
115 56 1
116 56 1
9 57 1
33 57 1
36 57 1
37 57 1
103 57 1
104 57 1
111 57 1
117 57 1
10 58 1
34 58 1
37 58 1
38 58 1
104 58 1
105 58 1
112 58 1
118 58 1
6 59 1
35 59 1
38 59 1
39 59 1
101 59 1
105 59 1
113 59 1
119 59 1
7 60 1
31 60 1
39 60 1
40 60 1
101 60 1
102 60 1
114 60 1
120 60 1
1 61 1
5 61 1
7 61 1
33 61 1
81 61 1
90 61 1
97 61 1
98 61 1
1 62 1
2 62 1
8 62 1
34 62 1
82 62 1
86 62 1
98 62 1
99 62 1
2 63 1
3 63 1
9 63 1
35 63 1
83 63 1
87 63 1
99 63 1
100 63 1
3 64 1
4 64 1
10 64 1
31 64 1
84 64 1
88 64 1
96 64 1
100 64 1
4 65 1
5 65 1
6 65 1
32 65 1
85 65 1
89 65 1
96 65 1
97 65 1
2 66 1
6 66 1
10 66 1
38 66 1
85 66 1
86 66 1
92 66 1
93 66 1
3 67 1
6 67 1
7 67 1
39 67 1
81 67 1
87 67 1
93 67 1
94 67 1
4 68 1
7 68 1
8 68 1
40 68 1
82 68 1
88 68 1
94 68 1
95 68 1
5 69 1
8 69 1
9 69 1
36 69 1
83 69 1
89 69 1
91 69 1
95 69 1
1 70 1
9 70 1
10 70 1
37 70 1
84 70 1
90 70 1
91 70 1
92 70 1
11 71 1
15 71 1
17 71 1
23 71 1
87 71 1
88 71 1
91 71 1
100 71 1
11 72 1
12 72 1
18 72 1
24 72 1
88 72 1
89 72 1
92 72 1
96 72 1
12 73 1
13 73 1
19 73 1
25 73 1
89 73 1
90 73 1
93 73 1
97 73 1
13 74 1
14 74 1
20 74 1
21 74 1
86 74 1
90 74 1
94 74 1
98 74 1
14 75 1
15 75 1
16 75 1
22 75 1
86 75 1
87 75 1
95 75 1
99 75 1
12 76 1
16 76 1
20 76 1
28 76 1
82 76 1
83 76 1
95 76 1
96 76 1
13 77 1
16 77 1
17 77 1
29 77 1
83 77 1
84 77 1
91 77 1
97 77 1
14 78 1
17 78 1
18 78 1
30 78 1
84 78 1
85 78 1
92 78 1
98 78 1
15 79 1
18 79 1
19 79 1
26 79 1
81 79 1
85 79 1
93 79 1
99 79 1
11 80 1
19 80 1
20 80 1
27 80 1
81 80 1
82 80 1
94 80 1
100 80 1
53 81 1
61 81 1
65 81 1
67 81 1
92 81 1
102 81 1
107 81 1
115 81 1
54 82 1
61 82 1
62 82 1
68 82 1
93 82 1
103 82 1
108 82 1
111 82 1
55 83 1
62 83 1
63 83 1
69 83 1
94 83 1
104 83 1
109 83 1
112 83 1
51 84 1
63 84 1
64 84 1
70 84 1
95 84 1
105 84 1
110 84 1
113 84 1
52 85 1
64 85 1
65 85 1
66 85 1
91 85 1
101 85 1
106 85 1
114 85 1
58 86 1
62 86 1
66 86 1
70 86 1
97 86 1
102 86 1
107 86 1
120 86 1
59 87 1
63 87 1
66 87 1
67 87 1
98 87 1
103 87 1
108 87 1
116 87 1
60 88 1
64 88 1
67 88 1
68 88 1
99 88 1
104 88 1
109 88 1
117 88 1
56 89 1
65 89 1
68 89 1
69 89 1
100 89 1
105 89 1
110 89 1
118 89 1
57 90 1
61 90 1
69 90 1
70 90 1
96 90 1
101 90 1
106 90 1
119 90 1
43 91 1
71 91 1
75 91 1
77 91 1
82 91 1
105 91 1
112 91 1
117 91 1
44 92 1
71 92 1
72 92 1
78 92 1
83 92 1
101 92 1
113 92 1
118 92 1
45 93 1
72 93 1
73 93 1
79 93 1
84 93 1
102 93 1
114 93 1
119 93 1
41 94 1
73 94 1
74 94 1
80 94 1
85 94 1
103 94 1
115 94 1
120 94 1
42 95 1
74 95 1
75 95 1
76 95 1
81 95 1
104 95 1
111 95 1
116 95 1
48 96 1
72 96 1
76 96 1
80 96 1
87 96 1
110 96 1
112 96 1
117 96 1
49 97 1
73 97 1
76 97 1
77 97 1
88 97 1
106 97 1
113 97 1
118 97 1
50 98 1
74 98 1
77 98 1
78 98 1
89 98 1
107 98 1
114 98 1
119 98 1
46 99 1
75 99 1
78 99 1
79 99 1
90 99 1
108 99 1
115 99 1
120 99 1
47 100 1
71 100 1
79 100 1
80 100 1
86 100 1
109 100 1
111 100 1
116 100 1
41 101 1
45 101 1
47 101 1
73 101 1
82 101 1
87 101 1
95 101 1
112 101 1
41 102 1
42 102 1
48 102 1
74 102 1
83 102 1
88 102 1
91 102 1
113 102 1
42 103 1
43 103 1
49 103 1
75 103 1
84 103 1
89 103 1
92 103 1
114 103 1
43 104 1
44 104 1
50 104 1
71 104 1
85 104 1
90 104 1
93 104 1
115 104 1
44 105 1
45 105 1
46 105 1
72 105 1
81 105 1
86 105 1
94 105 1
111 105 1
42 106 1
46 106 1
50 106 1
78 106 1
82 106 1
87 106 1
100 106 1
117 106 1
43 107 1
46 107 1
47 107 1
79 107 1
83 107 1
88 107 1
96 107 1
118 107 1
44 108 1
47 108 1
48 108 1
80 108 1
84 108 1
89 108 1
97 108 1
119 108 1
45 109 1
48 109 1
49 109 1
76 109 1
85 109 1
90 109 1
98 109 1
120 109 1
41 110 1
49 110 1
50 110 1
77 110 1
81 110 1
86 110 1
99 110 1
116 110 1
51 111 1
55 111 1
57 111 1
63 111 1
85 111 1
92 111 1
97 111 1
102 111 1
51 112 1
52 112 1
58 112 1
64 112 1
81 112 1
93 112 1
98 112 1
103 112 1
52 113 1
53 113 1
59 113 1
65 113 1
82 113 1
94 113 1
99 113 1
104 113 1
53 114 1
54 114 1
60 114 1
61 114 1
83 114 1
95 114 1
100 114 1
105 114 1
54 115 1
55 115 1
56 115 1
62 115 1
84 115 1
91 115 1
96 115 1
101 115 1
52 116 1
56 116 1
60 116 1
68 116 1
90 116 1
92 116 1
97 116 1
107 116 1
53 117 1
56 117 1
57 117 1
69 117 1
86 117 1
93 117 1
98 117 1
108 117 1
54 118 1
57 118 1
58 118 1
70 118 1
87 118 1
94 118 1
99 118 1
109 118 1
55 119 1
58 119 1
59 119 1
66 119 1
88 119 1
95 119 1
100 119 1
110 119 1
51 120 1
59 120 1
60 120 1
67 120 1
89 120 1
91 120 1
96 120 1
106 120 1
17 121 1
26 121 1
28 121 1
32 121 1
141 121 1
150 121 1
157 121 1
158 121 1
18 122 1
27 122 1
29 122 1
33 122 1
142 122 1
146 122 1
158 122 1
159 122 1
19 123 1
28 123 1
30 123 1
34 123 1
143 123 1
147 123 1
159 123 1
160 123 1
20 124 1
26 124 1
29 124 1
35 124 1
144 124 1
148 124 1
156 124 1
160 124 1
16 125 1
27 125 1
30 125 1
31 125 1
145 125 1
149 125 1
156 125 1
157 125 1
12 126 1
21 126 1
23 126 1
37 126 1
145 126 1
146 126 1
152 126 1
153 126 1
13 127 1
22 127 1
24 127 1
38 127 1
141 127 1
147 127 1
153 127 1
154 127 1
14 128 1
23 128 1
25 128 1
39 128 1
142 128 1
148 128 1
154 128 1
155 128 1
15 129 1
21 129 1
24 129 1
40 129 1
143 129 1
149 129 1
151 129 1
155 129 1
11 130 1
22 130 1
25 130 1
36 130 1
144 130 1
150 130 1
151 130 1
152 130 1
7 131 1
22 131 1
36 131 1
38 131 1
147 131 1
148 131 1
151 131 1
160 131 1
8 132 1
23 132 1
37 132 1
39 132 1
148 132 1
149 132 1
152 132 1
156 132 1
9 133 1
24 133 1
38 133 1
40 133 1
149 133 1
150 133 1
153 133 1
157 133 1
10 134 1
25 134 1
36 134 1
39 134 1
146 134 1
150 134 1
154 134 1
158 134 1
6 135 1
21 135 1
37 135 1
40 135 1
146 135 1
147 135 1
155 135 1
159 135 1
2 136 1
27 136 1
31 136 1
33 136 1
142 136 1
143 136 1
155 136 1
156 136 1
3 137 1
28 137 1
32 137 1
34 137 1
143 137 1
144 137 1
151 137 1
157 137 1
4 138 1
29 138 1
33 138 1
35 138 1
144 138 1
145 138 1
152 138 1
158 138 1
5 139 1
30 139 1
31 139 1
34 139 1
141 139 1
145 139 1
153 139 1
159 139 1
1 140 1
26 140 1
32 140 1
35 140 1
141 140 1
142 140 1
154 140 1
160 140 1
6 141 1
8 141 1
12 141 1
37 141 1
121 141 1
130 141 1
137 141 1
138 141 1
7 142 1
9 142 1
13 142 1
38 142 1
122 142 1
126 142 1
138 142 1
139 142 1
8 143 1
10 143 1
14 143 1
39 143 1
123 143 1
127 143 1
139 143 1
140 143 1
6 144 1
9 144 1
15 144 1
40 144 1
124 144 1
128 144 1
136 144 1
140 144 1
7 145 1
10 145 1
11 145 1
36 145 1
125 145 1
129 145 1
136 145 1
137 145 1
1 146 1
3 146 1
17 146 1
32 146 1
125 146 1
126 146 1
132 146 1
133 146 1
2 147 1
4 147 1
18 147 1
33 147 1
121 147 1
127 147 1
133 147 1
134 147 1
3 148 1
5 148 1
19 148 1
34 148 1
122 148 1
128 148 1
134 148 1
135 148 1
1 149 1
4 149 1
20 149 1
35 149 1
123 149 1
129 149 1
131 149 1
135 149 1
2 150 1
5 150 1
16 150 1
31 150 1
124 150 1
130 150 1
131 150 1
132 150 1
2 151 1
16 151 1
18 151 1
27 151 1
127 151 1
128 151 1
131 151 1
140 151 1
3 152 1
17 152 1
19 152 1
28 152 1
128 152 1
129 152 1
132 152 1
136 152 1
4 153 1
18 153 1
20 153 1
29 153 1
129 153 1
130 153 1
133 153 1
137 153 1
5 154 1
16 154 1
19 154 1
30 154 1
126 154 1
130 154 1
134 154 1
138 154 1
1 155 1
17 155 1
20 155 1
26 155 1
126 155 1
127 155 1
135 155 1
139 155 1
7 156 1
11 156 1
13 156 1
22 156 1
122 156 1
123 156 1
135 156 1
136 156 1
8 157 1
12 157 1
14 157 1
23 157 1
123 157 1
124 157 1
131 157 1
137 157 1
9 158 1
13 158 1
15 158 1
24 158 1
124 158 1
125 158 1
132 158 1
138 158 1
10 159 1
11 159 1
14 159 1
25 159 1
121 159 1
125 159 1
133 159 1
139 159 1
6 160 1
12 160 1
15 160 1
21 160 1
121 160 1
122 160 1
134 160 1
140 160 1
57 161 1
66 161 1
68 161 1
72 161 1
132 161 1
142 161 1
147 161 1
155 161 1
58 162 1
67 162 1
69 162 1
73 162 1
133 162 1
143 162 1
148 162 1
151 162 1
59 163 1
68 163 1
70 163 1
74 163 1
134 163 1
144 163 1
149 163 1
152 163 1
60 164 1
66 164 1
69 164 1
75 164 1
135 164 1
145 164 1
150 164 1
153 164 1
56 165 1
67 165 1
70 165 1
71 165 1
131 165 1
141 165 1
146 165 1
154 165 1
52 166 1
61 166 1
63 166 1
77 166 1
137 166 1
142 166 1
147 166 1
160 166 1
53 167 1
62 167 1
64 167 1
78 167 1
138 167 1
143 167 1
148 167 1
156 167 1
54 168 1
63 168 1
65 168 1
79 168 1
139 168 1
144 168 1
149 168 1
157 168 1
55 169 1
61 169 1
64 169 1
80 169 1
140 169 1
145 169 1
150 169 1
158 169 1
51 170 1
62 170 1
65 170 1
76 170 1
136 170 1
141 170 1
146 170 1
159 170 1
47 171 1
62 171 1
76 171 1
78 171 1
122 171 1
145 171 1
152 171 1
157 171 1
48 172 1
63 172 1
77 172 1
79 172 1
123 172 1
141 172 1
153 172 1
158 172 1
49 173 1
64 173 1
78 173 1
80 173 1
124 173 1
142 173 1
154 173 1
159 173 1
50 174 1
65 174 1
76 174 1
79 174 1
125 174 1
143 174 1
155 174 1
160 174 1
46 175 1
61 175 1
77 175 1
80 175 1
121 175 1
144 175 1
151 175 1
156 175 1
42 176 1
67 176 1
71 176 1
73 176 1
127 176 1
150 176 1
152 176 1
157 176 1
43 177 1
68 177 1
72 177 1
74 177 1
128 177 1
146 177 1
153 177 1
158 177 1
44 178 1
69 178 1
73 178 1
75 178 1
129 178 1
147 178 1
154 178 1
159 178 1
45 179 1
70 179 1
71 179 1
74 179 1
130 179 1
148 179 1
155 179 1
160 179 1
41 180 1
66 180 1
72 180 1
75 180 1
126 180 1
149 180 1
151 180 1
156 180 1
46 181 1
48 181 1
52 181 1
77 181 1
122 181 1
127 181 1
135 181 1
152 181 1
47 182 1
49 182 1
53 182 1
78 182 1
123 182 1
128 182 1
131 182 1
153 182 1
48 183 1
50 183 1
54 183 1
79 183 1
124 183 1
129 183 1
132 183 1
154 183 1
46 184 1
49 184 1
55 184 1
80 184 1
125 184 1
130 184 1
133 184 1
155 184 1
47 185 1
50 185 1
51 185 1
76 185 1
121 185 1
126 185 1
134 185 1
151 185 1
41 186 1
43 186 1
57 186 1
72 186 1
122 186 1
127 186 1
140 186 1
157 186 1
42 187 1
44 187 1
58 187 1
73 187 1
123 187 1
128 187 1
136 187 1
158 187 1
43 188 1
45 188 1
59 188 1
74 188 1
124 188 1
129 188 1
137 188 1
159 188 1
41 189 1
44 189 1
60 189 1
75 189 1
125 189 1
130 189 1
138 189 1
160 189 1
42 190 1
45 190 1
56 190 1
71 190 1
121 190 1
126 190 1
139 190 1
156 190 1
42 191 1
56 191 1
58 191 1
67 191 1
125 191 1
132 191 1
137 191 1
142 191 1
43 192 1
57 192 1
59 192 1
68 192 1
121 192 1
133 192 1
138 192 1
143 192 1
44 193 1
58 193 1
60 193 1
69 193 1
122 193 1
134 193 1
139 193 1
144 193 1
45 194 1
56 194 1
59 194 1
70 194 1
123 194 1
135 194 1
140 194 1
145 194 1
41 195 1
57 195 1
60 195 1
66 195 1
124 195 1
131 195 1
136 195 1
141 195 1
47 196 1
51 196 1
53 196 1
62 196 1
130 196 1
132 196 1
137 196 1
147 196 1
48 197 1
52 197 1
54 197 1
63 197 1
126 197 1
133 197 1
138 197 1
148 197 1
49 198 1
53 198 1
55 198 1
64 198 1
127 198 1
134 198 1
139 198 1
149 198 1
50 199 1
51 199 1
54 199 1
65 199 1
128 199 1
135 199 1
140 199 1
150 199 1
46 200 1
52 200 1
55 200 1
61 200 1
129 200 1
131 200 1
136 200 1
146 200 1
97 201 1
106 201 1
108 201 1
112 201 1
133 201 1
141 201 1
145 201 1
147 201 1
98 202 1
107 202 1
109 202 1
113 202 1
134 202 1
141 202 1
142 202 1
148 202 1
99 203 1
108 203 1
110 203 1
114 203 1
135 203 1
142 203 1
143 203 1
149 203 1
100 204 1
106 204 1
109 204 1
115 204 1
131 204 1
143 204 1
144 204 1
150 204 1
96 205 1
107 205 1
110 205 1
111 205 1
132 205 1
144 205 1
145 205 1
146 205 1
92 206 1
101 206 1
103 206 1
117 206 1
138 206 1
142 206 1
146 206 1
150 206 1
93 207 1
102 207 1
104 207 1
118 207 1
139 207 1
143 207 1
146 207 1
147 207 1
94 208 1
103 208 1
105 208 1
119 208 1
140 208 1
144 208 1
147 208 1
148 208 1
95 209 1
101 209 1
104 209 1
120 209 1
136 209 1
145 209 1
148 209 1
149 209 1
91 210 1
102 210 1
105 210 1
116 210 1
137 210 1
141 210 1
149 210 1
150 210 1
87 211 1
102 211 1
116 211 1
118 211 1
123 211 1
151 211 1
155 211 1
157 211 1
88 212 1
103 212 1
117 212 1
119 212 1
124 212 1
151 212 1
152 212 1
158 212 1
89 213 1
104 213 1
118 213 1
120 213 1
125 213 1
152 213 1
153 213 1
159 213 1
90 214 1
105 214 1
116 214 1
119 214 1
121 214 1
153 214 1
154 214 1
160 214 1
86 215 1
101 215 1
117 215 1
120 215 1
122 215 1
154 215 1
155 215 1
156 215 1
82 216 1
107 216 1
111 216 1
113 216 1
128 216 1
152 216 1
156 216 1
160 216 1
83 217 1
108 217 1
112 217 1
114 217 1
129 217 1
153 217 1
156 217 1
157 217 1
84 218 1
109 218 1
113 218 1
115 218 1
130 218 1
154 218 1
157 218 1
158 218 1
85 219 1
110 219 1
111 219 1
114 219 1
126 219 1
155 219 1
158 219 1
159 219 1
81 220 1
106 220 1
112 220 1
115 220 1
127 220 1
151 220 1
159 220 1
160 220 1
86 221 1
88 221 1
92 221 1
117 221 1
121 221 1
125 221 1
127 221 1
153 221 1
87 222 1
89 222 1
93 222 1
118 222 1
121 222 1
122 222 1
128 222 1
154 222 1
88 223 1
90 223 1
94 223 1
119 223 1
122 223 1
123 223 1
129 223 1
155 223 1
86 224 1
89 224 1
95 224 1
120 224 1
123 224 1
124 224 1
130 224 1
151 224 1
87 225 1
90 225 1
91 225 1
116 225 1
124 225 1
125 225 1
126 225 1
152 225 1
81 226 1
83 226 1
97 226 1
112 226 1
122 226 1
126 226 1
130 226 1
158 226 1
82 227 1
84 227 1
98 227 1
113 227 1
123 227 1
126 227 1
127 227 1
159 227 1
83 228 1
85 228 1
99 228 1
114 228 1
124 228 1
127 228 1
128 228 1
160 228 1
81 229 1
84 229 1
100 229 1
115 229 1
125 229 1
128 229 1
129 229 1
156 229 1
82 230 1
85 230 1
96 230 1
111 230 1
121 230 1
129 230 1
130 230 1
157 230 1
82 231 1
96 231 1
98 231 1
107 231 1
131 231 1
135 231 1
137 231 1
143 231 1
83 232 1
97 232 1
99 232 1
108 232 1
131 232 1
132 232 1
138 232 1
144 232 1
84 233 1
98 233 1
100 233 1
109 233 1
132 233 1
133 233 1
139 233 1
145 233 1
85 234 1
96 234 1
99 234 1
110 234 1
133 234 1
134 234 1
140 234 1
141 234 1
81 235 1
97 235 1
100 235 1
106 235 1
134 235 1
135 235 1
136 235 1
142 235 1
87 236 1
91 236 1
93 236 1
102 236 1
132 236 1
136 236 1
140 236 1
148 236 1
88 237 1
92 237 1
94 237 1
103 237 1
133 237 1
136 237 1
137 237 1
149 237 1
89 238 1
93 238 1
95 238 1
104 238 1
134 238 1
137 238 1
138 238 1
150 238 1
90 239 1
91 239 1
94 239 1
105 239 1
135 239 1
138 239 1
139 239 1
146 239 1
86 240 1
92 240 1
95 240 1
101 240 1
131 240 1
139 240 1
140 240 1
147 240 1
