%%MatrixMarket matrix coordinate integer general
% Binary matrix; one-based indices; arithmetic over GF(2)
1008 1260 10080
1 1 1
8 1 1
19 1 1
24 1 1
37 1 1
40 1 1
55 1 1
57 1 1
2 2 1
9 2 1
20 2 1
25 2 1
38 2 1
41 2 1
56 2 1
58 2 1
3 3 1
10 3 1
21 3 1
26 3 1
39 3 1
42 3 1
57 3 1
59 3 1
4 4 1
11 4 1
22 4 1
27 4 1
40 4 1
43 4 1
58 4 1
60 4 1
5 5 1
12 5 1
23 5 1
28 5 1
41 5 1
44 5 1
59 5 1
61 5 1
6 6 1
13 6 1
24 6 1
29 6 1
42 6 1
45 6 1
60 6 1
62 6 1
7 7 1
14 7 1
25 7 1
30 7 1
43 7 1
46 7 1
61 7 1
63 7 1
8 8 1
15 8 1
26 8 1
31 8 1
44 8 1
47 8 1
62 8 1
64 8 1
9 9 1
16 9 1
27 9 1
32 9 1
45 9 1
48 9 1
63 9 1
65 9 1
10 10 1
17 10 1
28 10 1
33 10 1
46 10 1
49 10 1
64 10 1
66 10 1
11 11 1
18 11 1
29 11 1
34 11 1
47 11 1
50 11 1
65 11 1
67 11 1
1 12 1
12 12 1
30 12 1
35 12 1
48 12 1
51 12 1
66 12 1
68 12 1
2 13 1
13 13 1
31 13 1
36 13 1
49 13 1
52 13 1
67 13 1
69 13 1
3 14 1
14 14 1
19 14 1
32 14 1
50 14 1
53 14 1
68 14 1
70 14 1
4 15 1
15 15 1
20 15 1
33 15 1
51 15 1
54 15 1
69 15 1
71 15 1
5 16 1
16 16 1
21 16 1
34 16 1
37 16 1
52 16 1
70 16 1
72 16 1
6 17 1
17 17 1
22 17 1
35 17 1
38 17 1
53 17 1
55 17 1
71 17 1
7 18 1
18 18 1
23 18 1
36 18 1
39 18 1
54 18 1
56 18 1
72 18 1
1 19 1
12 19 1
73 19 1
78 19 1
91 19 1
94 19 1
109 19 1
111 19 1
2 20 1
13 20 1
74 20 1
79 20 1
92 20 1
95 20 1
110 20 1
112 20 1
3 21 1
14 21 1
75 21 1
80 21 1
93 21 1
96 21 1
111 21 1
113 21 1
4 22 1
15 22 1
76 22 1
81 22 1
94 22 1
97 22 1
112 22 1
114 22 1
5 23 1
16 23 1
77 23 1
82 23 1
95 23 1
98 23 1
113 23 1
115 23 1
6 24 1
17 24 1
78 24 1
83 24 1
96 24 1
99 24 1
114 24 1
116 24 1
7 25 1
18 25 1
79 25 1
84 25 1
97 25 1
100 25 1
115 25 1
117 25 1
1 26 1
8 26 1
80 26 1
85 26 1
98 26 1
101 26 1
116 26 1
118 26 1
2 27 1
9 27 1
81 27 1
86 27 1
99 27 1
102 27 1
117 27 1
119 27 1
3 28 1
10 28 1
82 28 1
87 28 1
100 28 1
103 28 1
118 28 1
120 28 1
4 29 1
11 29 1
83 29 1
88 29 1
101 29 1
104 29 1
119 29 1
121 29 1
5 30 1
12 30 1
84 30 1
89 30 1
102 30 1
105 30 1
120 30 1
122 30 1
6 31 1
13 31 1
85 31 1
90 31 1
103 31 1
106 31 1
121 31 1
123 31 1
7 32 1
14 32 1
73 32 1
86 32 1
104 32 1
107 32 1
122 32 1
124 32 1
8 33 1
15 33 1
74 33 1
87 33 1
105 33 1
108 33 1
123 33 1
125 33 1
9 34 1
16 34 1
75 34 1
88 34 1
91 34 1
106 34 1
124 34 1
126 34 1
10 35 1
17 35 1
76 35 1
89 35 1
92 35 1
107 35 1
109 35 1
125 35 1
11 36 1
18 36 1
77 36 1
90 36 1
93 36 1
108 36 1
110 36 1
126 36 1
19 37 1
30 37 1
73 37 1
80 37 1
127 37 1
130 37 1
145 37 1
147 37 1
20 38 1
31 38 1
74 38 1
81 38 1
128 38 1
131 38 1
146 38 1
148 38 1
21 39 1
32 39 1
75 39 1
82 39 1
129 39 1
132 39 1
147 39 1
149 39 1
22 40 1
33 40 1
76 40 1
83 40 1
130 40 1
133 40 1
148 40 1
150 40 1
23 41 1
34 41 1
77 41 1
84 41 1
131 41 1
134 41 1
149 41 1
151 41 1
24 42 1
35 42 1
78 42 1
85 42 1
132 42 1
135 42 1
150 42 1
152 42 1
25 43 1
36 43 1
79 43 1
86 43 1
133 43 1
136 43 1
151 43 1
153 43 1
19 44 1
26 44 1
80 44 1
87 44 1
134 44 1
137 44 1
152 44 1
154 44 1
20 45 1
27 45 1
81 45 1
88 45 1
135 45 1
138 45 1
153 45 1
155 45 1
21 46 1
28 46 1
82 46 1
89 46 1
136 46 1
139 46 1
154 46 1
156 46 1
22 47 1
29 47 1
83 47 1
90 47 1
137 47 1
140 47 1
155 47 1
157 47 1
23 48 1
30 48 1
73 48 1
84 48 1
138 48 1
141 48 1
156 48 1
158 48 1
24 49 1
31 49 1
74 49 1
85 49 1
139 49 1
142 49 1
157 49 1
159 49 1
25 50 1
32 50 1
75 50 1
86 50 1
140 50 1
143 50 1
158 50 1
160 50 1
26 51 1
33 51 1
76 51 1
87 51 1
141 51 1
144 51 1
159 51 1
161 51 1
27 52 1
34 52 1
77 52 1
88 52 1
127 52 1
142 52 1
160 52 1
162 52 1
28 53 1
35 53 1
78 53 1
89 53 1
128 53 1
143 53 1
145 53 1
161 53 1
29 54 1
36 54 1
79 54 1
90 54 1
129 54 1
144 54 1
146 54 1
162 54 1
37 55 1
48 55 1
91 55 1
98 55 1
127 55 1
132 55 1
163 55 1
165 55 1
38 56 1
49 56 1
92 56 1
99 56 1
128 56 1
133 56 1
164 56 1
166 56 1
39 57 1
50 57 1
93 57 1
100 57 1
129 57 1
134 57 1
165 57 1
167 57 1
40 58 1
51 58 1
94 58 1
101 58 1
130 58 1
135 58 1
166 58 1
168 58 1
41 59 1
52 59 1
95 59 1
102 59 1
131 59 1
136 59 1
167 59 1
169 59 1
42 60 1
53 60 1
96 60 1
103 60 1
132 60 1
137 60 1
168 60 1
170 60 1
43 61 1
54 61 1
97 61 1
104 61 1
133 61 1
138 61 1
169 61 1
171 61 1
37 62 1
44 62 1
98 62 1
105 62 1
134 62 1
139 62 1
170 62 1
172 62 1
38 63 1
45 63 1
99 63 1
106 63 1
135 63 1
140 63 1
171 63 1
173 63 1
39 64 1
46 64 1
100 64 1
107 64 1
136 64 1
141 64 1
172 64 1
174 64 1
40 65 1
47 65 1
101 65 1
108 65 1
137 65 1
142 65 1
173 65 1
175 65 1
41 66 1
48 66 1
91 66 1
102 66 1
138 66 1
143 66 1
174 66 1
176 66 1
42 67 1
49 67 1
92 67 1
103 67 1
139 67 1
144 67 1
175 67 1
177 67 1
43 68 1
50 68 1
93 68 1
104 68 1
127 68 1
140 68 1
176 68 1
178 68 1
44 69 1
51 69 1
94 69 1
105 69 1
128 69 1
141 69 1
177 69 1
179 69 1
45 70 1
52 70 1
95 70 1
106 70 1
129 70 1
142 70 1
178 70 1
180 70 1
46 71 1
53 71 1
96 71 1
107 71 1
130 71 1
143 71 1
163 71 1
179 71 1
47 72 1
54 72 1
97 72 1
108 72 1
131 72 1
144 72 1
164 72 1
180 72 1
55 73 1
66 73 1
109 73 1
116 73 1
145 73 1
150 73 1
163 73 1
166 73 1
56 74 1
67 74 1
110 74 1
117 74 1
146 74 1
151 74 1
164 74 1
167 74 1
57 75 1
68 75 1
111 75 1
118 75 1
147 75 1
152 75 1
165 75 1
168 75 1
58 76 1
69 76 1
112 76 1
119 76 1
148 76 1
153 76 1
166 76 1
169 76 1
59 77 1
70 77 1
113 77 1
120 77 1
149 77 1
154 77 1
167 77 1
170 77 1
60 78 1
71 78 1
114 78 1
121 78 1
150 78 1
155 78 1
168 78 1
171 78 1
61 79 1
72 79 1
115 79 1
122 79 1
151 79 1
156 79 1
169 79 1
172 79 1
55 80 1
62 80 1
116 80 1
123 80 1
152 80 1
157 80 1
170 80 1
173 80 1
56 81 1
63 81 1
117 81 1
124 81 1
153 81 1
158 81 1
171 81 1
174 81 1
57 82 1
64 82 1
118 82 1
125 82 1
154 82 1
159 82 1
172 82 1
175 82 1
58 83 1
65 83 1
119 83 1
126 83 1
155 83 1
160 83 1
173 83 1
176 83 1
59 84 1
66 84 1
109 84 1
120 84 1
156 84 1
161 84 1
174 84 1
177 84 1
60 85 1
67 85 1
110 85 1
121 85 1
157 85 1
162 85 1
175 85 1
178 85 1
61 86 1
68 86 1
111 86 1
122 86 1
145 86 1
158 86 1
176 86 1
179 86 1
62 87 1
69 87 1
112 87 1
123 87 1
146 87 1
159 87 1
177 87 1
180 87 1
63 88 1
70 88 1
113 88 1
124 88 1
147 88 1
160 88 1
163 88 1
178 88 1
64 89 1
71 89 1
114 89 1
125 89 1
148 89 1
161 89 1
164 89 1
179 89 1
65 90 1
72 90 1
115 90 1
126 90 1
149 90 1
162 90 1
165 90 1
180 90 1
1 91 1
13 91 1
181 91 1
186 91 1
199 91 1
202 91 1
217 91 1
219 91 1
2 92 1
14 92 1
182 92 1
187 92 1
200 92 1
203 92 1
218 92 1
220 92 1
3 93 1
15 93 1
183 93 1
188 93 1
201 93 1
204 93 1
219 93 1
221 93 1
4 94 1
16 94 1
184 94 1
189 94 1
202 94 1
205 94 1
220 94 1
222 94 1
5 95 1
17 95 1
185 95 1
190 95 1
203 95 1
206 95 1
221 95 1
223 95 1
6 96 1
18 96 1
186 96 1
191 96 1
204 96 1
207 96 1
222 96 1
224 96 1
1 97 1
7 97 1
187 97 1
192 97 1
205 97 1
208 97 1
223 97 1
225 97 1
2 98 1
8 98 1
188 98 1
193 98 1
206 98 1
209 98 1
224 98 1
226 98 1
3 99 1
9 99 1
189 99 1
194 99 1
207 99 1
210 99 1
225 99 1
227 99 1
4 100 1
10 100 1
190 100 1
195 100 1
208 100 1
211 100 1
226 100 1
228 100 1
5 101 1
11 101 1
191 101 1
196 101 1
209 101 1
212 101 1
227 101 1
229 101 1
6 102 1
12 102 1
192 102 1
197 102 1
210 102 1
213 102 1
228 102 1
230 102 1
7 103 1
13 103 1
193 103 1
198 103 1
211 103 1
214 103 1
229 103 1
231 103 1
8 104 1
14 104 1
181 104 1
194 104 1
212 104 1
215 104 1
230 104 1
232 104 1
9 105 1
15 105 1
182 105 1
195 105 1
213 105 1
216 105 1
231 105 1
233 105 1
10 106 1
16 106 1
183 106 1
196 106 1
199 106 1
214 106 1
232 106 1
234 106 1
11 107 1
17 107 1
184 107 1
197 107 1
200 107 1
215 107 1
217 107 1
233 107 1
12 108 1
18 108 1
185 108 1
198 108 1
201 108 1
216 108 1
218 108 1
234 108 1
19 109 1
31 109 1
181 109 1
188 109 1
235 109 1
238 109 1
253 109 1
255 109 1
20 110 1
32 110 1
182 110 1
189 110 1
236 110 1
239 110 1
254 110 1
256 110 1
21 111 1
33 111 1
183 111 1
190 111 1
237 111 1
240 111 1
255 111 1
257 111 1
22 112 1
34 112 1
184 112 1
191 112 1
238 112 1
241 112 1
256 112 1
258 112 1
23 113 1
35 113 1
185 113 1
192 113 1
239 113 1
242 113 1
257 113 1
259 113 1
24 114 1
36 114 1
186 114 1
193 114 1
240 114 1
243 114 1
258 114 1
260 114 1
19 115 1
25 115 1
187 115 1
194 115 1
241 115 1
244 115 1
259 115 1
261 115 1
20 116 1
26 116 1
188 116 1
195 116 1
242 116 1
245 116 1
260 116 1
262 116 1
21 117 1
27 117 1
189 117 1
196 117 1
243 117 1
246 117 1
261 117 1
263 117 1
22 118 1
28 118 1
190 118 1
197 118 1
244 118 1
247 118 1
262 118 1
264 118 1
23 119 1
29 119 1
191 119 1
198 119 1
245 119 1
248 119 1
263 119 1
265 119 1
24 120 1
30 120 1
181 120 1
192 120 1
246 120 1
249 120 1
264 120 1
266 120 1
25 121 1
31 121 1
182 121 1
193 121 1
247 121 1
250 121 1
265 121 1
267 121 1
26 122 1
32 122 1
183 122 1
194 122 1
248 122 1
251 122 1
266 122 1
268 122 1
27 123 1
33 123 1
184 123 1
195 123 1
249 123 1
252 123 1
267 123 1
269 123 1
28 124 1
34 124 1
185 124 1
196 124 1
235 124 1
250 124 1
268 124 1
270 124 1
29 125 1
35 125 1
186 125 1
197 125 1
236 125 1
251 125 1
253 125 1
269 125 1
30 126 1
36 126 1
187 126 1
198 126 1
237 126 1
252 126 1
254 126 1
270 126 1
37 127 1
49 127 1
199 127 1
206 127 1
235 127 1
240 127 1
271 127 1
273 127 1
38 128 1
50 128 1
200 128 1
207 128 1
236 128 1
241 128 1
272 128 1
274 128 1
39 129 1
51 129 1
201 129 1
208 129 1
237 129 1
242 129 1
273 129 1
275 129 1
40 130 1
52 130 1
202 130 1
209 130 1
238 130 1
243 130 1
274 130 1
276 130 1
41 131 1
53 131 1
203 131 1
210 131 1
239 131 1
244 131 1
275 131 1
277 131 1
42 132 1
54 132 1
204 132 1
211 132 1
240 132 1
245 132 1
276 132 1
278 132 1
37 133 1
43 133 1
205 133 1
212 133 1
241 133 1
246 133 1
277 133 1
279 133 1
38 134 1
44 134 1
206 134 1
213 134 1
242 134 1
247 134 1
278 134 1
280 134 1
39 135 1
45 135 1
207 135 1
214 135 1
243 135 1
248 135 1
279 135 1
281 135 1
40 136 1
46 136 1
208 136 1
215 136 1
244 136 1
249 136 1
280 136 1
282 136 1
41 137 1
47 137 1
209 137 1
216 137 1
245 137 1
250 137 1
281 137 1
283 137 1
42 138 1
48 138 1
199 138 1
210 138 1
246 138 1
251 138 1
282 138 1
284 138 1
43 139 1
49 139 1
200 139 1
211 139 1
247 139 1
252 139 1
283 139 1
285 139 1
44 140 1
50 140 1
201 140 1
212 140 1
235 140 1
248 140 1
284 140 1
286 140 1
45 141 1
51 141 1
202 141 1
213 141 1
236 141 1
249 141 1
285 141 1
287 141 1
46 142 1
52 142 1
203 142 1
214 142 1
237 142 1
250 142 1
286 142 1
288 142 1
47 143 1
53 143 1
204 143 1
215 143 1
238 143 1
251 143 1
271 143 1
287 143 1
48 144 1
54 144 1
205 144 1
216 144 1
239 144 1
252 144 1
272 144 1
288 144 1
55 145 1
67 145 1
217 145 1
224 145 1
253 145 1
258 145 1
271 145 1
274 145 1
56 146 1
68 146 1
218 146 1
225 146 1
254 146 1
259 146 1
272 146 1
275 146 1
57 147 1
69 147 1
219 147 1
226 147 1
255 147 1
260 147 1
273 147 1
276 147 1
58 148 1
70 148 1
220 148 1
227 148 1
256 148 1
261 148 1
274 148 1
277 148 1
59 149 1
71 149 1
221 149 1
228 149 1
257 149 1
262 149 1
275 149 1
278 149 1
60 150 1
72 150 1
222 150 1
229 150 1
258 150 1
263 150 1
276 150 1
279 150 1
55 151 1
61 151 1
223 151 1
230 151 1
259 151 1
264 151 1
277 151 1
280 151 1
56 152 1
62 152 1
224 152 1
231 152 1
260 152 1
265 152 1
278 152 1
281 152 1
57 153 1
63 153 1
225 153 1
232 153 1
261 153 1
266 153 1
279 153 1
282 153 1
58 154 1
64 154 1
226 154 1
233 154 1
262 154 1
267 154 1
280 154 1
283 154 1
59 155 1
65 155 1
227 155 1
234 155 1
263 155 1
268 155 1
281 155 1
284 155 1
60 156 1
66 156 1
217 156 1
228 156 1
264 156 1
269 156 1
282 156 1
285 156 1
61 157 1
67 157 1
218 157 1
229 157 1
265 157 1
270 157 1
283 157 1
286 157 1
62 158 1
68 158 1
219 158 1
230 158 1
253 158 1
266 158 1
284 158 1
287 158 1
63 159 1
69 159 1
220 159 1
231 159 1
254 159 1
267 159 1
285 159 1
288 159 1
64 160 1
70 160 1
221 160 1
232 160 1
255 160 1
268 160 1
271 160 1
286 160 1
65 161 1
71 161 1
222 161 1
233 161 1
256 161 1
269 161 1
272 161 1
287 161 1
66 162 1
72 162 1
223 162 1
234 162 1
257 162 1
270 162 1
273 162 1
288 162 1
73 163 1
85 163 1
181 163 1
192 163 1
289 163 1
292 163 1
307 163 1
309 163 1
74 164 1
86 164 1
182 164 1
193 164 1
290 164 1
293 164 1
308 164 1
310 164 1
75 165 1
87 165 1
183 165 1
194 165 1
291 165 1
294 165 1
309 165 1
311 165 1
76 166 1
88 166 1
184 166 1
195 166 1
292 166 1
295 166 1
310 166 1
312 166 1
77 167 1
89 167 1
185 167 1
196 167 1
293 167 1
296 167 1
311 167 1
313 167 1
78 168 1
90 168 1
186 168 1
197 168 1
294 168 1
297 168 1
312 168 1
314 168 1
73 169 1
79 169 1
187 169 1
198 169 1
295 169 1
298 169 1
313 169 1
315 169 1
74 170 1
80 170 1
181 170 1
188 170 1
296 170 1
299 170 1
314 170 1
316 170 1
75 171 1
81 171 1
182 171 1
189 171 1
297 171 1
300 171 1
315 171 1
317 171 1
76 172 1
82 172 1
183 172 1
190 172 1
298 172 1
301 172 1
316 172 1
318 172 1
77 173 1
83 173 1
184 173 1
191 173 1
299 173 1
302 173 1
317 173 1
319 173 1
78 174 1
84 174 1
185 174 1
192 174 1
300 174 1
303 174 1
318 174 1
320 174 1
79 175 1
85 175 1
186 175 1
193 175 1
301 175 1
304 175 1
319 175 1
321 175 1
80 176 1
86 176 1
187 176 1
194 176 1
302 176 1
305 176 1
320 176 1
322 176 1
81 177 1
87 177 1
188 177 1
195 177 1
303 177 1
306 177 1
321 177 1
323 177 1
82 178 1
88 178 1
189 178 1
196 178 1
289 178 1
304 178 1
322 178 1
324 178 1
83 179 1
89 179 1
190 179 1
197 179 1
290 179 1
305 179 1
307 179 1
323 179 1
84 180 1
90 180 1
191 180 1
198 180 1
291 180 1
306 180 1
308 180 1
324 180 1
91 181 1
103 181 1
199 181 1
210 181 1
289 181 1
294 181 1
325 181 1
327 181 1
92 182 1
104 182 1
200 182 1
211 182 1
290 182 1
295 182 1
326 182 1
328 182 1
93 183 1
105 183 1
201 183 1
212 183 1
291 183 1
296 183 1
327 183 1
329 183 1
94 184 1
106 184 1
202 184 1
213 184 1
292 184 1
297 184 1
328 184 1
330 184 1
95 185 1
107 185 1
203 185 1
214 185 1
293 185 1
298 185 1
329 185 1
331 185 1
96 186 1
108 186 1
204 186 1
215 186 1
294 186 1
299 186 1
330 186 1
332 186 1
91 187 1
97 187 1
205 187 1
216 187 1
295 187 1
300 187 1
331 187 1
333 187 1
92 188 1
98 188 1
199 188 1
206 188 1
296 188 1
301 188 1
332 188 1
334 188 1
93 189 1
99 189 1
200 189 1
207 189 1
297 189 1
302 189 1
333 189 1
335 189 1
94 190 1
100 190 1
201 190 1
208 190 1
298 190 1
303 190 1
334 190 1
336 190 1
95 191 1
101 191 1
202 191 1
209 191 1
299 191 1
304 191 1
335 191 1
337 191 1
96 192 1
102 192 1
203 192 1
210 192 1
300 192 1
305 192 1
336 192 1
338 192 1
97 193 1
103 193 1
204 193 1
211 193 1
301 193 1
306 193 1
337 193 1
339 193 1
98 194 1
104 194 1
205 194 1
212 194 1
289 194 1
302 194 1
338 194 1
340 194 1
99 195 1
105 195 1
206 195 1
213 195 1
290 195 1
303 195 1
339 195 1
341 195 1
100 196 1
106 196 1
207 196 1
214 196 1
291 196 1
304 196 1
340 196 1
342 196 1
101 197 1
107 197 1
208 197 1
215 197 1
292 197 1
305 197 1
325 197 1
341 197 1
102 198 1
108 198 1
209 198 1
216 198 1
293 198 1
306 198 1
326 198 1
342 198 1
109 199 1
121 199 1
217 199 1
228 199 1
307 199 1
312 199 1
325 199 1
328 199 1
110 200 1
122 200 1
218 200 1
229 200 1
308 200 1
313 200 1
326 200 1
329 200 1
111 201 1
123 201 1
219 201 1
230 201 1
309 201 1
314 201 1
327 201 1
330 201 1
112 202 1
124 202 1
220 202 1
231 202 1
310 202 1
315 202 1
328 202 1
331 202 1
113 203 1
125 203 1
221 203 1
232 203 1
311 203 1
316 203 1
329 203 1
332 203 1
114 204 1
126 204 1
222 204 1
233 204 1
312 204 1
317 204 1
330 204 1
333 204 1
109 205 1
115 205 1
223 205 1
234 205 1
313 205 1
318 205 1
331 205 1
334 205 1
110 206 1
116 206 1
217 206 1
224 206 1
314 206 1
319 206 1
332 206 1
335 206 1
111 207 1
117 207 1
218 207 1
225 207 1
315 207 1
320 207 1
333 207 1
336 207 1
112 208 1
118 208 1
219 208 1
226 208 1
316 208 1
321 208 1
334 208 1
337 208 1
113 209 1
119 209 1
220 209 1
227 209 1
317 209 1
322 209 1
335 209 1
338 209 1
114 210 1
120 210 1
221 210 1
228 210 1
318 210 1
323 210 1
336 210 1
339 210 1
115 211 1
121 211 1
222 211 1
229 211 1
319 211 1
324 211 1
337 211 1
340 211 1
116 212 1
122 212 1
223 212 1
230 212 1
307 212 1
320 212 1
338 212 1
341 212 1
117 213 1
123 213 1
224 213 1
231 213 1
308 213 1
321 213 1
339 213 1
342 213 1
118 214 1
124 214 1
225 214 1
232 214 1
309 214 1
322 214 1
325 214 1
340 214 1
119 215 1
125 215 1
226 215 1
233 215 1
310 215 1
323 215 1
326 215 1
341 215 1
120 216 1
126 216 1
227 216 1
234 216 1
311 216 1
324 216 1
327 216 1
342 216 1
127 217 1
139 217 1
235 217 1
246 217 1
289 217 1
296 217 1
343 217 1
345 217 1
128 218 1
140 218 1
236 218 1
247 218 1
290 218 1
297 218 1
344 218 1
346 218 1
129 219 1
141 219 1
237 219 1
248 219 1
291 219 1
298 219 1
345 219 1
347 219 1
130 220 1
142 220 1
238 220 1
249 220 1
292 220 1
299 220 1
346 220 1
348 220 1
131 221 1
143 221 1
239 221 1
250 221 1
293 221 1
300 221 1
347 221 1
349 221 1
132 222 1
144 222 1
240 222 1
251 222 1
294 222 1
301 222 1
348 222 1
350 222 1
127 223 1
133 223 1
241 223 1
252 223 1
295 223 1
302 223 1
349 223 1
351 223 1
128 224 1
134 224 1
235 224 1
242 224 1
296 224 1
303 224 1
350 224 1
352 224 1
129 225 1
135 225 1
236 225 1
243 225 1
297 225 1
304 225 1
351 225 1
353 225 1
130 226 1
136 226 1
237 226 1
244 226 1
298 226 1
305 226 1
352 226 1
354 226 1
131 227 1
137 227 1
238 227 1
245 227 1
299 227 1
306 227 1
353 227 1
355 227 1
132 228 1
138 228 1
239 228 1
246 228 1
289 228 1
300 228 1
354 228 1
356 228 1
133 229 1
139 229 1
240 229 1
247 229 1
290 229 1
301 229 1
355 229 1
357 229 1
134 230 1
140 230 1
241 230 1
248 230 1
291 230 1
302 230 1
356 230 1
358 230 1
135 231 1
141 231 1
242 231 1
249 231 1
292 231 1
303 231 1
357 231 1
359 231 1
136 232 1
142 232 1
243 232 1
250 232 1
293 232 1
304 232 1
358 232 1
360 232 1
137 233 1
143 233 1
244 233 1
251 233 1
294 233 1
305 233 1
343 233 1
359 233 1
138 234 1
144 234 1
245 234 1
252 234 1
295 234 1
306 234 1
344 234 1
360 234 1
145 235 1
157 235 1
253 235 1
264 235 1
307 235 1
314 235 1
343 235 1
346 235 1
146 236 1
158 236 1
254 236 1
265 236 1
308 236 1
315 236 1
344 236 1
347 236 1
147 237 1
159 237 1
255 237 1
266 237 1
309 237 1
316 237 1
345 237 1
348 237 1
148 238 1
160 238 1
256 238 1
267 238 1
310 238 1
317 238 1
346 238 1
349 238 1
149 239 1
161 239 1
257 239 1
268 239 1
311 239 1
318 239 1
347 239 1
350 239 1
150 240 1
162 240 1
258 240 1
269 240 1
312 240 1
319 240 1
348 240 1
351 240 1
145 241 1
151 241 1
259 241 1
270 241 1
313 241 1
320 241 1
349 241 1
352 241 1
146 242 1
152 242 1
253 242 1
260 242 1
314 242 1
321 242 1
350 242 1
353 242 1
147 243 1
153 243 1
254 243 1
261 243 1
315 243 1
322 243 1
351 243 1
354 243 1
148 244 1
154 244 1
255 244 1
262 244 1
316 244 1
323 244 1
352 244 1
355 244 1
149 245 1
155 245 1
256 245 1
263 245 1
317 245 1
324 245 1
353 245 1
356 245 1
150 246 1
156 246 1
257 246 1
264 246 1
307 246 1
318 246 1
354 246 1
357 246 1
151 247 1
157 247 1
258 247 1
265 247 1
308 247 1
319 247 1
355 247 1
358 247 1
152 248 1
158 248 1
259 248 1
266 248 1
309 248 1
320 248 1
356 248 1
359 248 1
153 249 1
159 249 1
260 249 1
267 249 1
310 249 1
321 249 1
357 249 1
360 249 1
154 250 1
160 250 1
261 250 1
268 250 1
311 250 1
322 250 1
343 250 1
358 250 1
155 251 1
161 251 1
262 251 1
269 251 1
312 251 1
323 251 1
344 251 1
359 251 1
156 252 1
162 252 1
263 252 1
270 252 1
313 252 1
324 252 1
345 252 1
360 252 1
163 253 1
175 253 1
271 253 1
282 253 1
325 253 1
332 253 1
343 253 1
348 253 1
164 254 1
176 254 1
272 254 1
283 254 1
326 254 1
333 254 1
344 254 1
349 254 1
165 255 1
177 255 1
273 255 1
284 255 1
327 255 1
334 255 1
345 255 1
350 255 1
166 256 1
178 256 1
274 256 1
285 256 1
328 256 1
335 256 1
346 256 1
351 256 1
167 257 1
179 257 1
275 257 1
286 257 1
329 257 1
336 257 1
347 257 1
352 257 1
168 258 1
180 258 1
276 258 1
287 258 1
330 258 1
337 258 1
348 258 1
353 258 1
163 259 1
169 259 1
277 259 1
288 259 1
331 259 1
338 259 1
349 259 1
354 259 1
164 260 1
170 260 1
271 260 1
278 260 1
332 260 1
339 260 1
350 260 1
355 260 1
165 261 1
171 261 1
272 261 1
279 261 1
333 261 1
340 261 1
351 261 1
356 261 1
166 262 1
172 262 1
273 262 1
280 262 1
334 262 1
341 262 1
352 262 1
357 262 1
167 263 1
173 263 1
274 263 1
281 263 1
335 263 1
342 263 1
353 263 1
358 263 1
168 264 1
174 264 1
275 264 1
282 264 1
325 264 1
336 264 1
354 264 1
359 264 1
169 265 1
175 265 1
276 265 1
283 265 1
326 265 1
337 265 1
355 265 1
360 265 1
170 266 1
176 266 1
277 266 1
284 266 1
327 266 1
338 266 1
343 266 1
356 266 1
171 267 1
177 267 1
278 267 1
285 267 1
328 267 1
339 267 1
344 267 1
357 267 1
172 268 1
178 268 1
279 268 1
286 268 1
329 268 1
340 268 1
345 268 1
358 268 1
173 269 1
179 269 1
280 269 1
287 269 1
330 269 1
341 269 1
346 269 1
359 269 1
174 270 1
180 270 1
281 270 1
288 270 1
331 270 1
342 270 1
347 270 1
360 270 1
1 271 1
14 271 1
361 271 1
366 271 1
379 271 1
382 271 1
397 271 1
399 271 1
2 272 1
15 272 1
362 272 1
367 272 1
380 272 1
383 272 1
398 272 1
400 272 1
3 273 1
16 273 1
363 273 1
368 273 1
381 273 1
384 273 1
399 273 1
401 273 1
4 274 1
17 274 1
364 274 1
369 274 1
382 274 1
385 274 1
400 274 1
402 274 1
5 275 1
18 275 1
365 275 1
370 275 1
383 275 1
386 275 1
401 275 1
403 275 1
1 276 1
6 276 1
366 276 1
371 276 1
384 276 1
387 276 1
402 276 1
404 276 1
2 277 1
7 277 1
367 277 1
372 277 1
385 277 1
388 277 1
403 277 1
405 277 1
3 278 1
8 278 1
368 278 1
373 278 1
386 278 1
389 278 1
404 278 1
406 278 1
4 279 1
9 279 1
369 279 1
374 279 1
387 279 1
390 279 1
405 279 1
407 279 1
5 280 1
10 280 1
370 280 1
375 280 1
388 280 1
391 280 1
406 280 1
408 280 1
6 281 1
11 281 1
371 281 1
376 281 1
389 281 1
392 281 1
407 281 1
409 281 1
7 282 1
12 282 1
372 282 1
377 282 1
390 282 1
393 282 1
408 282 1
410 282 1
8 283 1
13 283 1
373 283 1
378 283 1
391 283 1
394 283 1
409 283 1
411 283 1
9 284 1
14 284 1
361 284 1
374 284 1
392 284 1
395 284 1
410 284 1
412 284 1
10 285 1
15 285 1
362 285 1
375 285 1
393 285 1
396 285 1
411 285 1
413 285 1
11 286 1
16 286 1
363 286 1
376 286 1
379 286 1
394 286 1
412 286 1
414 286 1
12 287 1
17 287 1
364 287 1
377 287 1
380 287 1
395 287 1
397 287 1
413 287 1
13 288 1
18 288 1
365 288 1
378 288 1
381 288 1
396 288 1
398 288 1
414 288 1
19 289 1
32 289 1
361 289 1
368 289 1
415 289 1
418 289 1
433 289 1
435 289 1
20 290 1
33 290 1
362 290 1
369 290 1
416 290 1
419 290 1
434 290 1
436 290 1
21 291 1
34 291 1
363 291 1
370 291 1
417 291 1
420 291 1
435 291 1
437 291 1
22 292 1
35 292 1
364 292 1
371 292 1
418 292 1
421 292 1
436 292 1
438 292 1
23 293 1
36 293 1
365 293 1
372 293 1
419 293 1
422 293 1
437 293 1
439 293 1
19 294 1
24 294 1
366 294 1
373 294 1
420 294 1
423 294 1
438 294 1
440 294 1
20 295 1
25 295 1
367 295 1
374 295 1
421 295 1
424 295 1
439 295 1
441 295 1
21 296 1
26 296 1
368 296 1
375 296 1
422 296 1
425 296 1
440 296 1
442 296 1
22 297 1
27 297 1
369 297 1
376 297 1
423 297 1
426 297 1
441 297 1
443 297 1
23 298 1
28 298 1
370 298 1
377 298 1
424 298 1
427 298 1
442 298 1
444 298 1
24 299 1
29 299 1
371 299 1
378 299 1
425 299 1
428 299 1
443 299 1
445 299 1
25 300 1
30 300 1
361 300 1
372 300 1
426 300 1
429 300 1
444 300 1
446 300 1
26 301 1
31 301 1
362 301 1
373 301 1
427 301 1
430 301 1
445 301 1
447 301 1
27 302 1
32 302 1
363 302 1
374 302 1
428 302 1
431 302 1
446 302 1
448 302 1
28 303 1
33 303 1
364 303 1
375 303 1
429 303 1
432 303 1
447 303 1
449 303 1
29 304 1
34 304 1
365 304 1
376 304 1
415 304 1
430 304 1
448 304 1
450 304 1
30 305 1
35 305 1
366 305 1
377 305 1
416 305 1
431 305 1
433 305 1
449 305 1
31 306 1
36 306 1
367 306 1
378 306 1
417 306 1
432 306 1
434 306 1
450 306 1
37 307 1
50 307 1
379 307 1
386 307 1
415 307 1
420 307 1
451 307 1
453 307 1
38 308 1
51 308 1
380 308 1
387 308 1
416 308 1
421 308 1
452 308 1
454 308 1
39 309 1
52 309 1
381 309 1
388 309 1
417 309 1
422 309 1
453 309 1
455 309 1
40 310 1
53 310 1
382 310 1
389 310 1
418 310 1
423 310 1
454 310 1
456 310 1
41 311 1
54 311 1
383 311 1
390 311 1
419 311 1
424 311 1
455 311 1
457 311 1
37 312 1
42 312 1
384 312 1
391 312 1
420 312 1
425 312 1
456 312 1
458 312 1
38 313 1
43 313 1
385 313 1
392 313 1
421 313 1
426 313 1
457 313 1
459 313 1
39 314 1
44 314 1
386 314 1
393 314 1
422 314 1
427 314 1
458 314 1
460 314 1
40 315 1
45 315 1
387 315 1
394 315 1
423 315 1
428 315 1
459 315 1
461 315 1
41 316 1
46 316 1
388 316 1
395 316 1
424 316 1
429 316 1
460 316 1
462 316 1
42 317 1
47 317 1
389 317 1
396 317 1
425 317 1
430 317 1
461 317 1
463 317 1
43 318 1
48 318 1
379 318 1
390 318 1
426 318 1
431 318 1
462 318 1
464 318 1
44 319 1
49 319 1
380 319 1
391 319 1
427 319 1
432 319 1
463 319 1
465 319 1
45 320 1
50 320 1
381 320 1
392 320 1
415 320 1
428 320 1
464 320 1
466 320 1
46 321 1
51 321 1
382 321 1
393 321 1
416 321 1
429 321 1
465 321 1
467 321 1
47 322 1
52 322 1
383 322 1
394 322 1
417 322 1
430 322 1
466 322 1
468 322 1
48 323 1
53 323 1
384 323 1
395 323 1
418 323 1
431 323 1
451 323 1
467 323 1
49 324 1
54 324 1
385 324 1
396 324 1
419 324 1
432 324 1
452 324 1
468 324 1
55 325 1
68 325 1
397 325 1
404 325 1
433 325 1
438 325 1
451 325 1
454 325 1
56 326 1
69 326 1
398 326 1
405 326 1
434 326 1
439 326 1
452 326 1
455 326 1
57 327 1
70 327 1
399 327 1
406 327 1
435 327 1
440 327 1
453 327 1
456 327 1
58 328 1
71 328 1
400 328 1
407 328 1
436 328 1
441 328 1
454 328 1
457 328 1
59 329 1
72 329 1
401 329 1
408 329 1
437 329 1
442 329 1
455 329 1
458 329 1
55 330 1
60 330 1
402 330 1
409 330 1
438 330 1
443 330 1
456 330 1
459 330 1
56 331 1
61 331 1
403 331 1
410 331 1
439 331 1
444 331 1
457 331 1
460 331 1
57 332 1
62 332 1
404 332 1
411 332 1
440 332 1
445 332 1
458 332 1
461 332 1
58 333 1
63 333 1
405 333 1
412 333 1
441 333 1
446 333 1
459 333 1
462 333 1
59 334 1
64 334 1
406 334 1
413 334 1
442 334 1
447 334 1
460 334 1
463 334 1
60 335 1
65 335 1
407 335 1
414 335 1
443 335 1
448 335 1
461 335 1
464 335 1
61 336 1
66 336 1
397 336 1
408 336 1
444 336 1
449 336 1
462 336 1
465 336 1
62 337 1
67 337 1
398 337 1
409 337 1
445 337 1
450 337 1
463 337 1
466 337 1
63 338 1
68 338 1
399 338 1
410 338 1
433 338 1
446 338 1
464 338 1
467 338 1
64 339 1
69 339 1
400 339 1
411 339 1
434 339 1
447 339 1
465 339 1
468 339 1
65 340 1
70 340 1
401 340 1
412 340 1
435 340 1
448 340 1
451 340 1
466 340 1
66 341 1
71 341 1
402 341 1
413 341 1
436 341 1
449 341 1
452 341 1
467 341 1
67 342 1
72 342 1
403 342 1
414 342 1
437 342 1
450 342 1
453 342 1
468 342 1
73 343 1
86 343 1
361 343 1
372 343 1
469 343 1
472 343 1
487 343 1
489 343 1
74 344 1
87 344 1
362 344 1
373 344 1
470 344 1
473 344 1
488 344 1
490 344 1
75 345 1
88 345 1
363 345 1
374 345 1
471 345 1
474 345 1
489 345 1
491 345 1
76 346 1
89 346 1
364 346 1
375 346 1
472 346 1
475 346 1
490 346 1
492 346 1
77 347 1
90 347 1
365 347 1
376 347 1
473 347 1
476 347 1
491 347 1
493 347 1
73 348 1
78 348 1
366 348 1
377 348 1
474 348 1
477 348 1
492 348 1
494 348 1
74 349 1
79 349 1
367 349 1
378 349 1
475 349 1
478 349 1
493 349 1
495 349 1
75 350 1
80 350 1
361 350 1
368 350 1
476 350 1
479 350 1
494 350 1
496 350 1
76 351 1
81 351 1
362 351 1
369 351 1
477 351 1
480 351 1
495 351 1
497 351 1
77 352 1
82 352 1
363 352 1
370 352 1
478 352 1
481 352 1
496 352 1
498 352 1
78 353 1
83 353 1
364 353 1
371 353 1
479 353 1
482 353 1
497 353 1
499 353 1
79 354 1
84 354 1
365 354 1
372 354 1
480 354 1
483 354 1
498 354 1
500 354 1
80 355 1
85 355 1
366 355 1
373 355 1
481 355 1
484 355 1
499 355 1
501 355 1
81 356 1
86 356 1
367 356 1
374 356 1
482 356 1
485 356 1
500 356 1
502 356 1
82 357 1
87 357 1
368 357 1
375 357 1
483 357 1
486 357 1
501 357 1
503 357 1
83 358 1
88 358 1
369 358 1
376 358 1
469 358 1
484 358 1
502 358 1
504 358 1
84 359 1
89 359 1
370 359 1
377 359 1
470 359 1
485 359 1
487 359 1
503 359 1
85 360 1
90 360 1
371 360 1
378 360 1
471 360 1
486 360 1
488 360 1
504 360 1
91 361 1
104 361 1
379 361 1
390 361 1
469 361 1
474 361 1
505 361 1
507 361 1
92 362 1
105 362 1
380 362 1
391 362 1
470 362 1
475 362 1
506 362 1
508 362 1
93 363 1
106 363 1
381 363 1
392 363 1
471 363 1
476 363 1
507 363 1
509 363 1
94 364 1
107 364 1
382 364 1
393 364 1
472 364 1
477 364 1
508 364 1
510 364 1
95 365 1
108 365 1
383 365 1
394 365 1
473 365 1
478 365 1
509 365 1
511 365 1
91 366 1
96 366 1
384 366 1
395 366 1
474 366 1
479 366 1
510 366 1
512 366 1
92 367 1
97 367 1
385 367 1
396 367 1
475 367 1
480 367 1
511 367 1
513 367 1
93 368 1
98 368 1
379 368 1
386 368 1
476 368 1
481 368 1
512 368 1
514 368 1
94 369 1
99 369 1
380 369 1
387 369 1
477 369 1
482 369 1
513 369 1
515 369 1
95 370 1
100 370 1
381 370 1
388 370 1
478 370 1
483 370 1
514 370 1
516 370 1
96 371 1
101 371 1
382 371 1
389 371 1
479 371 1
484 371 1
515 371 1
517 371 1
97 372 1
102 372 1
383 372 1
390 372 1
480 372 1
485 372 1
516 372 1
518 372 1
98 373 1
103 373 1
384 373 1
391 373 1
481 373 1
486 373 1
517 373 1
519 373 1
99 374 1
104 374 1
385 374 1
392 374 1
469 374 1
482 374 1
518 374 1
520 374 1
100 375 1
105 375 1
386 375 1
393 375 1
470 375 1
483 375 1
519 375 1
521 375 1
101 376 1
106 376 1
387 376 1
394 376 1
471 376 1
484 376 1
520 376 1
522 376 1
102 377 1
107 377 1
388 377 1
395 377 1
472 377 1
485 377 1
505 377 1
521 377 1
103 378 1
108 378 1
389 378 1
396 378 1
473 378 1
486 378 1
506 378 1
522 378 1
109 379 1
122 379 1
397 379 1
408 379 1
487 379 1
492 379 1
505 379 1
508 379 1
110 380 1
123 380 1
398 380 1
409 380 1
488 380 1
493 380 1
506 380 1
509 380 1
111 381 1
124 381 1
399 381 1
410 381 1
489 381 1
494 381 1
507 381 1
510 381 1
112 382 1
125 382 1
400 382 1
411 382 1
490 382 1
495 382 1
508 382 1
511 382 1
113 383 1
126 383 1
401 383 1
412 383 1
491 383 1
496 383 1
509 383 1
512 383 1
109 384 1
114 384 1
402 384 1
413 384 1
492 384 1
497 384 1
510 384 1
513 384 1
110 385 1
115 385 1
403 385 1
414 385 1
493 385 1
498 385 1
511 385 1
514 385 1
111 386 1
116 386 1
397 386 1
404 386 1
494 386 1
499 386 1
512 386 1
515 386 1
112 387 1
117 387 1
398 387 1
405 387 1
495 387 1
500 387 1
513 387 1
516 387 1
113 388 1
118 388 1
399 388 1
406 388 1
496 388 1
501 388 1
514 388 1
517 388 1
114 389 1
119 389 1
400 389 1
407 389 1
497 389 1
502 389 1
515 389 1
518 389 1
115 390 1
120 390 1
401 390 1
408 390 1
498 390 1
503 390 1
516 390 1
519 390 1
116 391 1
121 391 1
402 391 1
409 391 1
499 391 1
504 391 1
517 391 1
520 391 1
117 392 1
122 392 1
403 392 1
410 392 1
487 392 1
500 392 1
518 392 1
521 392 1
118 393 1
123 393 1
404 393 1
411 393 1
488 393 1
501 393 1
519 393 1
522 393 1
119 394 1
124 394 1
405 394 1
412 394 1
489 394 1
502 394 1
505 394 1
520 394 1
120 395 1
125 395 1
406 395 1
413 395 1
490 395 1
503 395 1
506 395 1
521 395 1
121 396 1
126 396 1
407 396 1
414 396 1
491 396 1
504 396 1
507 396 1
522 396 1
127 397 1
140 397 1
415 397 1
426 397 1
469 397 1
476 397 1
523 397 1
525 397 1
128 398 1
141 398 1
416 398 1
427 398 1
470 398 1
477 398 1
524 398 1
526 398 1
129 399 1
142 399 1
417 399 1
428 399 1
471 399 1
478 399 1
525 399 1
527 399 1
130 400 1
143 400 1
418 400 1
429 400 1
472 400 1
479 400 1
526 400 1
528 400 1
131 401 1
144 401 1
419 401 1
430 401 1
473 401 1
480 401 1
527 401 1
529 401 1
127 402 1
132 402 1
420 402 1
431 402 1
474 402 1
481 402 1
528 402 1
530 402 1
128 403 1
133 403 1
421 403 1
432 403 1
475 403 1
482 403 1
529 403 1
531 403 1
129 404 1
134 404 1
415 404 1
422 404 1
476 404 1
483 404 1
530 404 1
532 404 1
130 405 1
135 405 1
416 405 1
423 405 1
477 405 1
484 405 1
531 405 1
533 405 1
131 406 1
136 406 1
417 406 1
424 406 1
478 406 1
485 406 1
532 406 1
534 406 1
132 407 1
137 407 1
418 407 1
425 407 1
479 407 1
486 407 1
533 407 1
535 407 1
133 408 1
138 408 1
419 408 1
426 408 1
469 408 1
480 408 1
534 408 1
536 408 1
134 409 1
139 409 1
420 409 1
427 409 1
470 409 1
481 409 1
535 409 1
537 409 1
135 410 1
140 410 1
421 410 1
428 410 1
471 410 1
482 410 1
536 410 1
538 410 1
136 411 1
141 411 1
422 411 1
429 411 1
472 411 1
483 411 1
537 411 1
539 411 1
137 412 1
142 412 1
423 412 1
430 412 1
473 412 1
484 412 1
538 412 1
540 412 1
138 413 1
143 413 1
424 413 1
431 413 1
474 413 1
485 413 1
523 413 1
539 413 1
139 414 1
144 414 1
425 414 1
432 414 1
475 414 1
486 414 1
524 414 1
540 414 1
145 415 1
158 415 1
433 415 1
444 415 1
487 415 1
494 415 1
523 415 1
526 415 1
146 416 1
159 416 1
434 416 1
445 416 1
488 416 1
495 416 1
524 416 1
527 416 1
147 417 1
160 417 1
435 417 1
446 417 1
489 417 1
496 417 1
525 417 1
528 417 1
148 418 1
161 418 1
436 418 1
447 418 1
490 418 1
497 418 1
526 418 1
529 418 1
149 419 1
162 419 1
437 419 1
448 419 1
491 419 1
498 419 1
527 419 1
530 419 1
145 420 1
150 420 1
438 420 1
449 420 1
492 420 1
499 420 1
528 420 1
531 420 1
146 421 1
151 421 1
439 421 1
450 421 1
493 421 1
500 421 1
529 421 1
532 421 1
147 422 1
152 422 1
433 422 1
440 422 1
494 422 1
501 422 1
530 422 1
533 422 1
148 423 1
153 423 1
434 423 1
441 423 1
495 423 1
502 423 1
531 423 1
534 423 1
149 424 1
154 424 1
435 424 1
442 424 1
496 424 1
503 424 1
532 424 1
535 424 1
150 425 1
155 425 1
436 425 1
443 425 1
497 425 1
504 425 1
533 425 1
536 425 1
151 426 1
156 426 1
437 426 1
444 426 1
487 426 1
498 426 1
534 426 1
537 426 1
152 427 1
157 427 1
438 427 1
445 427 1
488 427 1
499 427 1
535 427 1
538 427 1
153 428 1
158 428 1
439 428 1
446 428 1
489 428 1
500 428 1
536 428 1
539 428 1
154 429 1
159 429 1
440 429 1
447 429 1
490 429 1
501 429 1
537 429 1
540 429 1
155 430 1
160 430 1
441 430 1
448 430 1
491 430 1
502 430 1
523 430 1
538 430 1
156 431 1
161 431 1
442 431 1
449 431 1
492 431 1
503 431 1
524 431 1
539 431 1
157 432 1
162 432 1
443 432 1
450 432 1
493 432 1
504 432 1
525 432 1
540 432 1
163 433 1
176 433 1
451 433 1
462 433 1
505 433 1
512 433 1
523 433 1
528 433 1
164 434 1
177 434 1
452 434 1
463 434 1
506 434 1
513 434 1
524 434 1
529 434 1
165 435 1
178 435 1
453 435 1
464 435 1
507 435 1
514 435 1
525 435 1
530 435 1
166 436 1
179 436 1
454 436 1
465 436 1
508 436 1
515 436 1
526 436 1
531 436 1
167 437 1
180 437 1
455 437 1
466 437 1
509 437 1
516 437 1
527 437 1
532 437 1
163 438 1
168 438 1
456 438 1
467 438 1
510 438 1
517 438 1
528 438 1
533 438 1
164 439 1
169 439 1
457 439 1
468 439 1
511 439 1
518 439 1
529 439 1
534 439 1
165 440 1
170 440 1
451 440 1
458 440 1
512 440 1
519 440 1
530 440 1
535 440 1
166 441 1
171 441 1
452 441 1
459 441 1
513 441 1
520 441 1
531 441 1
536 441 1
167 442 1
172 442 1
453 442 1
460 442 1
514 442 1
521 442 1
532 442 1
537 442 1
168 443 1
173 443 1
454 443 1
461 443 1
515 443 1
522 443 1
533 443 1
538 443 1
169 444 1
174 444 1
455 444 1
462 444 1
505 444 1
516 444 1
534 444 1
539 444 1
170 445 1
175 445 1
456 445 1
463 445 1
506 445 1
517 445 1
535 445 1
540 445 1
171 446 1
176 446 1
457 446 1
464 446 1
507 446 1
518 446 1
523 446 1
536 446 1
172 447 1
177 447 1
458 447 1
465 447 1
508 447 1
519 447 1
524 447 1
537 447 1
173 448 1
178 448 1
459 448 1
466 448 1
509 448 1
520 448 1
525 448 1
538 448 1
174 449 1
179 449 1
460 449 1
467 449 1
510 449 1
521 449 1
526 449 1
539 449 1
175 450 1
180 450 1
461 450 1
468 450 1
511 450 1
522 450 1
527 450 1
540 450 1
181 451 1
194 451 1
361 451 1
373 451 1
541 451 1
544 451 1
559 451 1
561 451 1
182 452 1
195 452 1
362 452 1
374 452 1
542 452 1
545 452 1
560 452 1
562 452 1
183 453 1
196 453 1
363 453 1
375 453 1
543 453 1
546 453 1
561 453 1
563 453 1
184 454 1
197 454 1
364 454 1
376 454 1
544 454 1
547 454 1
562 454 1
564 454 1
185 455 1
198 455 1
365 455 1
377 455 1
545 455 1
548 455 1
563 455 1
565 455 1
181 456 1
186 456 1
366 456 1
378 456 1
546 456 1
549 456 1
564 456 1
566 456 1
182 457 1
187 457 1
361 457 1
367 457 1
547 457 1
550 457 1
565 457 1
567 457 1
183 458 1
188 458 1
362 458 1
368 458 1
548 458 1
551 458 1
566 458 1
568 458 1
184 459 1
189 459 1
363 459 1
369 459 1
549 459 1
552 459 1
567 459 1
569 459 1
185 460 1
190 460 1
364 460 1
370 460 1
550 460 1
553 460 1
568 460 1
570 460 1
186 461 1
191 461 1
365 461 1
371 461 1
551 461 1
554 461 1
569 461 1
571 461 1
187 462 1
192 462 1
366 462 1
372 462 1
552 462 1
555 462 1
570 462 1
572 462 1
188 463 1
193 463 1
367 463 1
373 463 1
553 463 1
556 463 1
571 463 1
573 463 1
189 464 1
194 464 1
368 464 1
374 464 1
554 464 1
557 464 1
572 464 1
574 464 1
190 465 1
195 465 1
369 465 1
375 465 1
555 465 1
558 465 1
573 465 1
575 465 1
191 466 1
196 466 1
370 466 1
376 466 1
541 466 1
556 466 1
574 466 1
576 466 1
192 467 1
197 467 1
371 467 1
377 467 1
542 467 1
557 467 1
559 467 1
575 467 1
193 468 1
198 468 1
372 468 1
378 468 1
543 468 1
558 468 1
560 468 1
576 468 1
199 469 1
212 469 1
379 469 1
391 469 1
541 469 1
546 469 1
577 469 1
579 469 1
200 470 1
213 470 1
380 470 1
392 470 1
542 470 1
547 470 1
578 470 1
580 470 1
201 471 1
214 471 1
381 471 1
393 471 1
543 471 1
548 471 1
579 471 1
581 471 1
202 472 1
215 472 1
382 472 1
394 472 1
544 472 1
549 472 1
580 472 1
582 472 1
203 473 1
216 473 1
383 473 1
395 473 1
545 473 1
550 473 1
581 473 1
583 473 1
199 474 1
204 474 1
384 474 1
396 474 1
546 474 1
551 474 1
582 474 1
584 474 1
200 475 1
205 475 1
379 475 1
385 475 1
547 475 1
552 475 1
583 475 1
585 475 1
201 476 1
206 476 1
380 476 1
386 476 1
548 476 1
553 476 1
584 476 1
586 476 1
202 477 1
207 477 1
381 477 1
387 477 1
549 477 1
554 477 1
585 477 1
587 477 1
203 478 1
208 478 1
382 478 1
388 478 1
550 478 1
555 478 1
586 478 1
588 478 1
204 479 1
209 479 1
383 479 1
389 479 1
551 479 1
556 479 1
587 479 1
589 479 1
205 480 1
210 480 1
384 480 1
390 480 1
552 480 1
557 480 1
588 480 1
590 480 1
206 481 1
211 481 1
385 481 1
391 481 1
553 481 1
558 481 1
589 481 1
591 481 1
207 482 1
212 482 1
386 482 1
392 482 1
541 482 1
554 482 1
590 482 1
592 482 1
208 483 1
213 483 1
387 483 1
393 483 1
542 483 1
555 483 1
591 483 1
593 483 1
209 484 1
214 484 1
388 484 1
394 484 1
543 484 1
556 484 1
592 484 1
594 484 1
210 485 1
215 485 1
389 485 1
395 485 1
544 485 1
557 485 1
577 485 1
593 485 1
211 486 1
216 486 1
390 486 1
396 486 1
545 486 1
558 486 1
578 486 1
594 486 1
217 487 1
230 487 1
397 487 1
409 487 1
559 487 1
564 487 1
577 487 1
580 487 1
218 488 1
231 488 1
398 488 1
410 488 1
560 488 1
565 488 1
578 488 1
581 488 1
219 489 1
232 489 1
399 489 1
411 489 1
561 489 1
566 489 1
579 489 1
582 489 1
220 490 1
233 490 1
400 490 1
412 490 1
562 490 1
567 490 1
580 490 1
583 490 1
221 491 1
234 491 1
401 491 1
413 491 1
563 491 1
568 491 1
581 491 1
584 491 1
217 492 1
222 492 1
402 492 1
414 492 1
564 492 1
569 492 1
582 492 1
585 492 1
218 493 1
223 493 1
397 493 1
403 493 1
565 493 1
570 493 1
583 493 1
586 493 1
219 494 1
224 494 1
398 494 1
404 494 1
566 494 1
571 494 1
584 494 1
587 494 1
220 495 1
225 495 1
399 495 1
405 495 1
567 495 1
572 495 1
585 495 1
588 495 1
221 496 1
226 496 1
400 496 1
406 496 1
568 496 1
573 496 1
586 496 1
589 496 1
222 497 1
227 497 1
401 497 1
407 497 1
569 497 1
574 497 1
587 497 1
590 497 1
223 498 1
228 498 1
402 498 1
408 498 1
570 498 1
575 498 1
588 498 1
591 498 1
224 499 1
229 499 1
403 499 1
409 499 1
571 499 1
576 499 1
589 499 1
592 499 1
225 500 1
230 500 1
404 500 1
410 500 1
559 500 1
572 500 1
590 500 1
593 500 1
226 501 1
231 501 1
405 501 1
411 501 1
560 501 1
573 501 1
591 501 1
594 501 1
227 502 1
232 502 1
406 502 1
412 502 1
561 502 1
574 502 1
577 502 1
592 502 1
228 503 1
233 503 1
407 503 1
413 503 1
562 503 1
575 503 1
578 503 1
593 503 1
229 504 1
234 504 1
408 504 1
414 504 1
563 504 1
576 504 1
579 504 1
594 504 1
235 505 1
248 505 1
415 505 1
427 505 1
541 505 1
548 505 1
595 505 1
597 505 1
236 506 1
249 506 1
416 506 1
428 506 1
542 506 1
549 506 1
596 506 1
598 506 1
237 507 1
250 507 1
417 507 1
429 507 1
543 507 1
550 507 1
597 507 1
599 507 1
238 508 1
251 508 1
418 508 1
430 508 1
544 508 1
551 508 1
598 508 1
600 508 1
239 509 1
252 509 1
419 509 1
431 509 1
545 509 1
552 509 1
599 509 1
601 509 1
235 510 1
240 510 1
420 510 1
432 510 1
546 510 1
553 510 1
600 510 1
602 510 1
236 511 1
241 511 1
415 511 1
421 511 1
547 511 1
554 511 1
601 511 1
603 511 1
237 512 1
242 512 1
416 512 1
422 512 1
548 512 1
555 512 1
602 512 1
604 512 1
238 513 1
243 513 1
417 513 1
423 513 1
549 513 1
556 513 1
603 513 1
605 513 1
239 514 1
244 514 1
418 514 1
424 514 1
550 514 1
557 514 1
604 514 1
606 514 1
240 515 1
245 515 1
419 515 1
425 515 1
551 515 1
558 515 1
605 515 1
607 515 1
241 516 1
246 516 1
420 516 1
426 516 1
541 516 1
552 516 1
606 516 1
608 516 1
242 517 1
247 517 1
421 517 1
427 517 1
542 517 1
553 517 1
607 517 1
609 517 1
243 518 1
248 518 1
422 518 1
428 518 1
543 518 1
554 518 1
608 518 1
610 518 1
244 519 1
249 519 1
423 519 1
429 519 1
544 519 1
555 519 1
609 519 1
611 519 1
245 520 1
250 520 1
424 520 1
430 520 1
545 520 1
556 520 1
610 520 1
612 520 1
246 521 1
251 521 1
425 521 1
431 521 1
546 521 1
557 521 1
595 521 1
611 521 1
247 522 1
252 522 1
426 522 1
432 522 1
547 522 1
558 522 1
596 522 1
612 522 1
253 523 1
266 523 1
433 523 1
445 523 1
559 523 1
566 523 1
595 523 1
598 523 1
254 524 1
267 524 1
434 524 1
446 524 1
560 524 1
567 524 1
596 524 1
599 524 1
255 525 1
268 525 1
435 525 1
447 525 1
561 525 1
568 525 1
597 525 1
600 525 1
256 526 1
269 526 1
436 526 1
448 526 1
562 526 1
569 526 1
598 526 1
601 526 1
257 527 1
270 527 1
437 527 1
449 527 1
563 527 1
570 527 1
599 527 1
602 527 1
253 528 1
258 528 1
438 528 1
450 528 1
564 528 1
571 528 1
600 528 1
603 528 1
254 529 1
259 529 1
433 529 1
439 529 1
565 529 1
572 529 1
601 529 1
604 529 1
255 530 1
260 530 1
434 530 1
440 530 1
566 530 1
573 530 1
602 530 1
605 530 1
256 531 1
261 531 1
435 531 1
441 531 1
567 531 1
574 531 1
603 531 1
606 531 1
257 532 1
262 532 1
436 532 1
442 532 1
568 532 1
575 532 1
604 532 1
607 532 1
258 533 1
263 533 1
437 533 1
443 533 1
569 533 1
576 533 1
605 533 1
608 533 1
259 534 1
264 534 1
438 534 1
444 534 1
559 534 1
570 534 1
606 534 1
609 534 1
260 535 1
265 535 1
439 535 1
445 535 1
560 535 1
571 535 1
607 535 1
610 535 1
261 536 1
266 536 1
440 536 1
446 536 1
561 536 1
572 536 1
608 536 1
611 536 1
262 537 1
267 537 1
441 537 1
447 537 1
562 537 1
573 537 1
609 537 1
612 537 1
263 538 1
268 538 1
442 538 1
448 538 1
563 538 1
574 538 1
595 538 1
610 538 1
264 539 1
269 539 1
443 539 1
449 539 1
564 539 1
575 539 1
596 539 1
611 539 1
265 540 1
270 540 1
444 540 1
450 540 1
565 540 1
576 540 1
597 540 1
612 540 1
271 541 1
284 541 1
451 541 1
463 541 1
577 541 1
584 541 1
595 541 1
600 541 1
272 542 1
285 542 1
452 542 1
464 542 1
578 542 1
585 542 1
596 542 1
601 542 1
273 543 1
286 543 1
453 543 1
465 543 1
579 543 1
586 543 1
597 543 1
602 543 1
274 544 1
287 544 1
454 544 1
466 544 1
580 544 1
587 544 1
598 544 1
603 544 1
275 545 1
288 545 1
455 545 1
467 545 1
581 545 1
588 545 1
599 545 1
604 545 1
271 546 1
276 546 1
456 546 1
468 546 1
582 546 1
589 546 1
600 546 1
605 546 1
272 547 1
277 547 1
451 547 1
457 547 1
583 547 1
590 547 1
601 547 1
606 547 1
273 548 1
278 548 1
452 548 1
458 548 1
584 548 1
591 548 1
602 548 1
607 548 1
274 549 1
279 549 1
453 549 1
459 549 1
585 549 1
592 549 1
603 549 1
608 549 1
275 550 1
280 550 1
454 550 1
460 550 1
586 550 1
593 550 1
604 550 1
609 550 1
276 551 1
281 551 1
455 551 1
461 551 1
587 551 1
594 551 1
605 551 1
610 551 1
277 552 1
282 552 1
456 552 1
462 552 1
577 552 1
588 552 1
606 552 1
611 552 1
278 553 1
283 553 1
457 553 1
463 553 1
578 553 1
589 553 1
607 553 1
612 553 1
279 554 1
284 554 1
458 554 1
464 554 1
579 554 1
590 554 1
595 554 1
608 554 1
280 555 1
285 555 1
459 555 1
465 555 1
580 555 1
591 555 1
596 555 1
609 555 1
281 556 1
286 556 1
460 556 1
466 556 1
581 556 1
592 556 1
597 556 1
610 556 1
282 557 1
287 557 1
461 557 1
467 557 1
582 557 1
593 557 1
598 557 1
611 557 1
283 558 1
288 558 1
462 558 1
468 558 1
583 558 1
594 558 1
599 558 1
612 558 1
289 559 1
302 559 1
469 559 1
481 559 1
541 559 1
552 559 1
613 559 1
615 559 1
290 560 1
303 560 1
470 560 1
482 560 1
542 560 1
553 560 1
614 560 1
616 560 1
291 561 1
304 561 1
471 561 1
483 561 1
543 561 1
554 561 1
615 561 1
617 561 1
292 562 1
305 562 1
472 562 1
484 562 1
544 562 1
555 562 1
616 562 1
618 562 1
293 563 1
306 563 1
473 563 1
485 563 1
545 563 1
556 563 1
617 563 1
619 563 1
289 564 1
294 564 1
474 564 1
486 564 1
546 564 1
557 564 1
618 564 1
620 564 1
290 565 1
295 565 1
469 565 1
475 565 1
547 565 1
558 565 1
619 565 1
621 565 1
291 566 1
296 566 1
470 566 1
476 566 1
541 566 1
548 566 1
620 566 1
622 566 1
292 567 1
297 567 1
471 567 1
477 567 1
542 567 1
549 567 1
621 567 1
623 567 1
293 568 1
298 568 1
472 568 1
478 568 1
543 568 1
550 568 1
622 568 1
624 568 1
294 569 1
299 569 1
473 569 1
479 569 1
544 569 1
551 569 1
623 569 1
625 569 1
295 570 1
300 570 1
474 570 1
480 570 1
545 570 1
552 570 1
624 570 1
626 570 1
296 571 1
301 571 1
475 571 1
481 571 1
546 571 1
553 571 1
625 571 1
627 571 1
297 572 1
302 572 1
476 572 1
482 572 1
547 572 1
554 572 1
626 572 1
628 572 1
298 573 1
303 573 1
477 573 1
483 573 1
548 573 1
555 573 1
627 573 1
629 573 1
299 574 1
304 574 1
478 574 1
484 574 1
549 574 1
556 574 1
628 574 1
630 574 1
300 575 1
305 575 1
479 575 1
485 575 1
550 575 1
557 575 1
613 575 1
629 575 1
301 576 1
306 576 1
480 576 1
486 576 1
551 576 1
558 576 1
614 576 1
630 576 1
307 577 1
320 577 1
487 577 1
499 577 1
559 577 1
570 577 1
613 577 1
616 577 1
308 578 1
321 578 1
488 578 1
500 578 1
560 578 1
571 578 1
614 578 1
617 578 1
309 579 1
322 579 1
489 579 1
501 579 1
561 579 1
572 579 1
615 579 1
618 579 1
310 580 1
323 580 1
490 580 1
502 580 1
562 580 1
573 580 1
616 580 1
619 580 1
311 581 1
324 581 1
491 581 1
503 581 1
563 581 1
574 581 1
617 581 1
620 581 1
307 582 1
312 582 1
492 582 1
504 582 1
564 582 1
575 582 1
618 582 1
621 582 1
308 583 1
313 583 1
487 583 1
493 583 1
565 583 1
576 583 1
619 583 1
622 583 1
309 584 1
314 584 1
488 584 1
494 584 1
559 584 1
566 584 1
620 584 1
623 584 1
310 585 1
315 585 1
489 585 1
495 585 1
560 585 1
567 585 1
621 585 1
624 585 1
311 586 1
316 586 1
490 586 1
496 586 1
561 586 1
568 586 1
622 586 1
625 586 1
312 587 1
317 587 1
491 587 1
497 587 1
562 587 1
569 587 1
623 587 1
626 587 1
313 588 1
318 588 1
492 588 1
498 588 1
563 588 1
570 588 1
624 588 1
627 588 1
314 589 1
319 589 1
493 589 1
499 589 1
564 589 1
571 589 1
625 589 1
628 589 1
315 590 1
320 590 1
494 590 1
500 590 1
565 590 1
572 590 1
626 590 1
629 590 1
316 591 1
321 591 1
495 591 1
501 591 1
566 591 1
573 591 1
627 591 1
630 591 1
317 592 1
322 592 1
496 592 1
502 592 1
567 592 1
574 592 1
613 592 1
628 592 1
318 593 1
323 593 1
497 593 1
503 593 1
568 593 1
575 593 1
614 593 1
629 593 1
319 594 1
324 594 1
498 594 1
504 594 1
569 594 1
576 594 1
615 594 1
630 594 1
325 595 1
338 595 1
505 595 1
517 595 1
577 595 1
588 595 1
613 595 1
618 595 1
326 596 1
339 596 1
506 596 1
518 596 1
578 596 1
589 596 1
614 596 1
619 596 1
327 597 1
340 597 1
507 597 1
519 597 1
579 597 1
590 597 1
615 597 1
620 597 1
328 598 1
341 598 1
508 598 1
520 598 1
580 598 1
591 598 1
616 598 1
621 598 1
329 599 1
342 599 1
509 599 1
521 599 1
581 599 1
592 599 1
617 599 1
622 599 1
325 600 1
330 600 1
510 600 1
522 600 1
582 600 1
593 600 1
618 600 1
623 600 1
326 601 1
331 601 1
505 601 1
511 601 1
583 601 1
594 601 1
619 601 1
624 601 1
327 602 1
332 602 1
506 602 1
512 602 1
577 602 1
584 602 1
620 602 1
625 602 1
328 603 1
333 603 1
507 603 1
513 603 1
578 603 1
585 603 1
621 603 1
626 603 1
329 604 1
334 604 1
508 604 1
514 604 1
579 604 1
586 604 1
622 604 1
627 604 1
330 605 1
335 605 1
509 605 1
515 605 1
580 605 1
587 605 1
623 605 1
628 605 1
331 606 1
336 606 1
510 606 1
516 606 1
581 606 1
588 606 1
624 606 1
629 606 1
332 607 1
337 607 1
511 607 1
517 607 1
582 607 1
589 607 1
625 607 1
630 607 1
333 608 1
338 608 1
512 608 1
518 608 1
583 608 1
590 608 1
613 608 1
626 608 1
334 609 1
339 609 1
513 609 1
519 609 1
584 609 1
591 609 1
614 609 1
627 609 1
335 610 1
340 610 1
514 610 1
520 610 1
585 610 1
592 610 1
615 610 1
628 610 1
336 611 1
341 611 1
515 611 1
521 611 1
586 611 1
593 611 1
616 611 1
629 611 1
337 612 1
342 612 1
516 612 1
522 612 1
587 612 1
594 612 1
617 612 1
630 612 1
343 613 1
356 613 1
523 613 1
535 613 1
595 613 1
606 613 1
613 613 1
620 613 1
344 614 1
357 614 1
524 614 1
536 614 1
596 614 1
607 614 1
614 614 1
621 614 1
345 615 1
358 615 1
525 615 1
537 615 1
597 615 1
608 615 1
615 615 1
622 615 1
346 616 1
359 616 1
526 616 1
538 616 1
598 616 1
609 616 1
616 616 1
623 616 1
347 617 1
360 617 1
527 617 1
539 617 1
599 617 1
610 617 1
617 617 1
624 617 1
343 618 1
348 618 1
528 618 1
540 618 1
600 618 1
611 618 1
618 618 1
625 618 1
344 619 1
349 619 1
523 619 1
529 619 1
601 619 1
612 619 1
619 619 1
626 619 1
345 620 1
350 620 1
524 620 1
530 620 1
595 620 1
602 620 1
620 620 1
627 620 1
346 621 1
351 621 1
525 621 1
531 621 1
596 621 1
603 621 1
621 621 1
628 621 1
347 622 1
352 622 1
526 622 1
532 622 1
597 622 1
604 622 1
622 622 1
629 622 1
348 623 1
353 623 1
527 623 1
533 623 1
598 623 1
605 623 1
623 623 1
630 623 1
349 624 1
354 624 1
528 624 1
534 624 1
599 624 1
606 624 1
613 624 1
624 624 1
350 625 1
355 625 1
529 625 1
535 625 1
600 625 1
607 625 1
614 625 1
625 625 1
351 626 1
356 626 1
530 626 1
536 626 1
601 626 1
608 626 1
615 626 1
626 626 1
352 627 1
357 627 1
531 627 1
537 627 1
602 627 1
609 627 1
616 627 1
627 627 1
353 628 1
358 628 1
532 628 1
538 628 1
603 628 1
610 628 1
617 628 1
628 628 1
354 629 1
359 629 1
533 629 1
539 629 1
604 629 1
611 629 1
618 629 1
629 629 1
355 630 1
360 630 1
534 630 1
540 630 1
605 630 1
612 630 1
619 630 1
630 630 1
1 631 1
15 631 1
631 631 1
636 631 1
649 631 1
652 631 1
667 631 1
669 631 1
2 632 1
16 632 1
632 632 1
637 632 1
650 632 1
653 632 1
668 632 1
670 632 1
3 633 1
17 633 1
633 633 1
638 633 1
651 633 1
654 633 1
669 633 1
671 633 1
4 634 1
18 634 1
634 634 1
639 634 1
652 634 1
655 634 1
670 634 1
672 634 1
1 635 1
5 635 1
635 635 1
640 635 1
653 635 1
656 635 1
671 635 1
673 635 1
2 636 1
6 636 1
636 636 1
641 636 1
654 636 1
657 636 1
672 636 1
674 636 1
3 637 1
7 637 1
637 637 1
642 637 1
655 637 1
658 637 1
673 637 1
675 637 1
4 638 1
8 638 1
638 638 1
643 638 1
656 638 1
659 638 1
674 638 1
676 638 1
5 639 1
9 639 1
639 639 1
644 639 1
657 639 1
660 639 1
675 639 1
677 639 1
6 640 1
10 640 1
640 640 1
645 640 1
658 640 1
661 640 1
676 640 1
678 640 1
7 641 1
11 641 1
641 641 1
646 641 1
659 641 1
662 641 1
677 641 1
679 641 1
8 642 1
12 642 1
642 642 1
647 642 1
660 642 1
663 642 1
678 642 1
680 642 1
9 643 1
13 643 1
643 643 1
648 643 1
661 643 1
664 643 1
679 643 1
681 643 1
10 644 1
14 644 1
631 644 1
644 644 1
662 644 1
665 644 1
680 644 1
682 644 1
11 645 1
15 645 1
632 645 1
645 645 1
663 645 1
666 645 1
681 645 1
683 645 1
12 646 1
16 646 1
633 646 1
646 646 1
649 646 1
664 646 1
682 646 1
684 646 1
13 647 1
17 647 1
634 647 1
647 647 1
650 647 1
665 647 1
667 647 1
683 647 1
14 648 1
18 648 1
635 648 1
648 648 1
651 648 1
666 648 1
668 648 1
684 648 1
19 649 1
33 649 1
631 649 1
638 649 1
685 649 1
688 649 1
703 649 1
705 649 1
20 650 1
34 650 1
632 650 1
639 650 1
686 650 1
689 650 1
704 650 1
706 650 1
21 651 1
35 651 1
633 651 1
640 651 1
687 651 1
690 651 1
705 651 1
707 651 1
22 652 1
36 652 1
634 652 1
641 652 1
688 652 1
691 652 1
706 652 1
708 652 1
19 653 1
23 653 1
635 653 1
642 653 1
689 653 1
692 653 1
707 653 1
709 653 1
20 654 1
24 654 1
636 654 1
643 654 1
690 654 1
693 654 1
708 654 1
710 654 1
21 655 1
25 655 1
637 655 1
644 655 1
691 655 1
694 655 1
709 655 1
711 655 1
22 656 1
26 656 1
638 656 1
645 656 1
692 656 1
695 656 1
710 656 1
712 656 1
23 657 1
27 657 1
639 657 1
646 657 1
693 657 1
696 657 1
711 657 1
713 657 1
24 658 1
28 658 1
640 658 1
647 658 1
694 658 1
697 658 1
712 658 1
714 658 1
25 659 1
29 659 1
641 659 1
648 659 1
695 659 1
698 659 1
713 659 1
715 659 1
26 660 1
30 660 1
631 660 1
642 660 1
696 660 1
699 660 1
714 660 1
716 660 1
27 661 1
31 661 1
632 661 1
643 661 1
697 661 1
700 661 1
715 661 1
717 661 1
28 662 1
32 662 1
633 662 1
644 662 1
698 662 1
701 662 1
716 662 1
718 662 1
29 663 1
33 663 1
634 663 1
645 663 1
699 663 1
702 663 1
717 663 1
719 663 1
30 664 1
34 664 1
635 664 1
646 664 1
685 664 1
700 664 1
718 664 1
720 664 1
31 665 1
35 665 1
636 665 1
647 665 1
686 665 1
701 665 1
703 665 1
719 665 1
32 666 1
36 666 1
637 666 1
648 666 1
687 666 1
702 666 1
704 666 1
720 666 1
37 667 1
51 667 1
649 667 1
656 667 1
685 667 1
690 667 1
721 667 1
723 667 1
38 668 1
52 668 1
650 668 1
657 668 1
686 668 1
691 668 1
722 668 1
724 668 1
39 669 1
53 669 1
651 669 1
658 669 1
687 669 1
692 669 1
723 669 1
725 669 1
40 670 1
54 670 1
652 670 1
659 670 1
688 670 1
693 670 1
724 670 1
726 670 1
37 671 1
41 671 1
653 671 1
660 671 1
689 671 1
694 671 1
725 671 1
727 671 1
38 672 1
42 672 1
654 672 1
661 672 1
690 672 1
695 672 1
726 672 1
728 672 1
39 673 1
43 673 1
655 673 1
662 673 1
691 673 1
696 673 1
727 673 1
729 673 1
40 674 1
44 674 1
656 674 1
663 674 1
692 674 1
697 674 1
728 674 1
730 674 1
41 675 1
45 675 1
657 675 1
664 675 1
693 675 1
698 675 1
729 675 1
731 675 1
42 676 1
46 676 1
658 676 1
665 676 1
694 676 1
699 676 1
730 676 1
732 676 1
43 677 1
47 677 1
659 677 1
666 677 1
695 677 1
700 677 1
731 677 1
733 677 1
44 678 1
48 678 1
649 678 1
660 678 1
696 678 1
701 678 1
732 678 1
734 678 1
45 679 1
49 679 1
650 679 1
661 679 1
697 679 1
702 679 1
733 679 1
735 679 1
46 680 1
50 680 1
651 680 1
662 680 1
685 680 1
698 680 1
734 680 1
736 680 1
47 681 1
51 681 1
652 681 1
663 681 1
686 681 1
699 681 1
735 681 1
737 681 1
48 682 1
52 682 1
653 682 1
664 682 1
687 682 1
700 682 1
736 682 1
738 682 1
49 683 1
53 683 1
654 683 1
665 683 1
688 683 1
701 683 1
721 683 1
737 683 1
50 684 1
54 684 1
655 684 1
666 684 1
689 684 1
702 684 1
722 684 1
738 684 1
55 685 1
69 685 1
667 685 1
674 685 1
703 685 1
708 685 1
721 685 1
724 685 1
56 686 1
70 686 1
668 686 1
675 686 1
704 686 1
709 686 1
722 686 1
725 686 1
57 687 1
71 687 1
669 687 1
676 687 1
705 687 1
710 687 1
723 687 1
726 687 1
58 688 1
72 688 1
670 688 1
677 688 1
706 688 1
711 688 1
724 688 1
727 688 1
55 689 1
59 689 1
671 689 1
678 689 1
707 689 1
712 689 1
725 689 1
728 689 1
56 690 1
60 690 1
672 690 1
679 690 1
708 690 1
713 690 1
726 690 1
729 690 1
57 691 1
61 691 1
673 691 1
680 691 1
709 691 1
714 691 1
727 691 1
730 691 1
58 692 1
62 692 1
674 692 1
681 692 1
710 692 1
715 692 1
728 692 1
731 692 1
59 693 1
63 693 1
675 693 1
682 693 1
711 693 1
716 693 1
729 693 1
732 693 1
60 694 1
64 694 1
676 694 1
683 694 1
712 694 1
717 694 1
730 694 1
733 694 1
61 695 1
65 695 1
677 695 1
684 695 1
713 695 1
718 695 1
731 695 1
734 695 1
62 696 1
66 696 1
667 696 1
678 696 1
714 696 1
719 696 1
732 696 1
735 696 1
63 697 1
67 697 1
668 697 1
679 697 1
715 697 1
720 697 1
733 697 1
736 697 1
64 698 1
68 698 1
669 698 1
680 698 1
703 698 1
716 698 1
734 698 1
737 698 1
65 699 1
69 699 1
670 699 1
681 699 1
704 699 1
717 699 1
735 699 1
738 699 1
66 700 1
70 700 1
671 700 1
682 700 1
705 700 1
718 700 1
721 700 1
736 700 1
67 701 1
71 701 1
672 701 1
683 701 1
706 701 1
719 701 1
722 701 1
737 701 1
68 702 1
72 702 1
673 702 1
684 702 1
707 702 1
720 702 1
723 702 1
738 702 1
73 703 1
87 703 1
631 703 1
642 703 1
739 703 1
742 703 1
757 703 1
759 703 1
74 704 1
88 704 1
632 704 1
643 704 1
740 704 1
743 704 1
758 704 1
760 704 1
75 705 1
89 705 1
633 705 1
644 705 1
741 705 1
744 705 1
759 705 1
761 705 1
76 706 1
90 706 1
634 706 1
645 706 1
742 706 1
745 706 1
760 706 1
762 706 1
73 707 1
77 707 1
635 707 1
646 707 1
743 707 1
746 707 1
761 707 1
763 707 1
74 708 1
78 708 1
636 708 1
647 708 1
744 708 1
747 708 1
762 708 1
764 708 1
75 709 1
79 709 1
637 709 1
648 709 1
745 709 1
748 709 1
763 709 1
765 709 1
76 710 1
80 710 1
631 710 1
638 710 1
746 710 1
749 710 1
764 710 1
766 710 1
77 711 1
81 711 1
632 711 1
639 711 1
747 711 1
750 711 1
765 711 1
767 711 1
78 712 1
82 712 1
633 712 1
640 712 1
748 712 1
751 712 1
766 712 1
768 712 1
79 713 1
83 713 1
634 713 1
641 713 1
749 713 1
752 713 1
767 713 1
769 713 1
80 714 1
84 714 1
635 714 1
642 714 1
750 714 1
753 714 1
768 714 1
770 714 1
81 715 1
85 715 1
636 715 1
643 715 1
751 715 1
754 715 1
769 715 1
771 715 1
82 716 1
86 716 1
637 716 1
644 716 1
752 716 1
755 716 1
770 716 1
772 716 1
83 717 1
87 717 1
638 717 1
645 717 1
753 717 1
756 717 1
771 717 1
773 717 1
84 718 1
88 718 1
639 718 1
646 718 1
739 718 1
754 718 1
772 718 1
774 718 1
85 719 1
89 719 1
640 719 1
647 719 1
740 719 1
755 719 1
757 719 1
773 719 1
86 720 1
90 720 1
641 720 1
648 720 1
741 720 1
756 720 1
758 720 1
774 720 1
91 721 1
105 721 1
649 721 1
660 721 1
739 721 1
744 721 1
775 721 1
777 721 1
92 722 1
106 722 1
650 722 1
661 722 1
740 722 1
745 722 1
776 722 1
778 722 1
93 723 1
107 723 1
651 723 1
662 723 1
741 723 1
746 723 1
777 723 1
779 723 1
94 724 1
108 724 1
652 724 1
663 724 1
742 724 1
747 724 1
778 724 1
780 724 1
91 725 1
95 725 1
653 725 1
664 725 1
743 725 1
748 725 1
779 725 1
781 725 1
92 726 1
96 726 1
654 726 1
665 726 1
744 726 1
749 726 1
780 726 1
782 726 1
93 727 1
97 727 1
655 727 1
666 727 1
745 727 1
750 727 1
781 727 1
783 727 1
94 728 1
98 728 1
649 728 1
656 728 1
746 728 1
751 728 1
782 728 1
784 728 1
95 729 1
99 729 1
650 729 1
657 729 1
747 729 1
752 729 1
783 729 1
785 729 1
96 730 1
100 730 1
651 730 1
658 730 1
748 730 1
753 730 1
784 730 1
786 730 1
97 731 1
101 731 1
652 731 1
659 731 1
749 731 1
754 731 1
785 731 1
787 731 1
98 732 1
102 732 1
653 732 1
660 732 1
750 732 1
755 732 1
786 732 1
788 732 1
99 733 1
103 733 1
654 733 1
661 733 1
751 733 1
756 733 1
787 733 1
789 733 1
100 734 1
104 734 1
655 734 1
662 734 1
739 734 1
752 734 1
788 734 1
790 734 1
101 735 1
105 735 1
656 735 1
663 735 1
740 735 1
753 735 1
789 735 1
791 735 1
102 736 1
106 736 1
657 736 1
664 736 1
741 736 1
754 736 1
790 736 1
792 736 1
103 737 1
107 737 1
658 737 1
665 737 1
742 737 1
755 737 1
775 737 1
791 737 1
104 738 1
108 738 1
659 738 1
666 738 1
743 738 1
756 738 1
776 738 1
792 738 1
109 739 1
123 739 1
667 739 1
678 739 1
757 739 1
762 739 1
775 739 1
778 739 1
110 740 1
124 740 1
668 740 1
679 740 1
758 740 1
763 740 1
776 740 1
779 740 1
111 741 1
125 741 1
669 741 1
680 741 1
759 741 1
764 741 1
777 741 1
780 741 1
112 742 1
126 742 1
670 742 1
681 742 1
760 742 1
765 742 1
778 742 1
781 742 1
109 743 1
113 743 1
671 743 1
682 743 1
761 743 1
766 743 1
779 743 1
782 743 1
110 744 1
114 744 1
672 744 1
683 744 1
762 744 1
767 744 1
780 744 1
783 744 1
111 745 1
115 745 1
673 745 1
684 745 1
763 745 1
768 745 1
781 745 1
784 745 1
112 746 1
116 746 1
667 746 1
674 746 1
764 746 1
769 746 1
782 746 1
785 746 1
113 747 1
117 747 1
668 747 1
675 747 1
765 747 1
770 747 1
783 747 1
786 747 1
114 748 1
118 748 1
669 748 1
676 748 1
766 748 1
771 748 1
784 748 1
787 748 1
115 749 1
119 749 1
670 749 1
677 749 1
767 749 1
772 749 1
785 749 1
788 749 1
116 750 1
120 750 1
671 750 1
678 750 1
768 750 1
773 750 1
786 750 1
789 750 1
117 751 1
121 751 1
672 751 1
679 751 1
769 751 1
774 751 1
787 751 1
790 751 1
118 752 1
122 752 1
673 752 1
680 752 1
757 752 1
770 752 1
788 752 1
791 752 1
119 753 1
123 753 1
674 753 1
681 753 1
758 753 1
771 753 1
789 753 1
792 753 1
120 754 1
124 754 1
675 754 1
682 754 1
759 754 1
772 754 1
775 754 1
790 754 1
121 755 1
125 755 1
676 755 1
683 755 1
760 755 1
773 755 1
776 755 1
791 755 1
122 756 1
126 756 1
677 756 1
684 756 1
761 756 1
774 756 1
777 756 1
792 756 1
127 757 1
141 757 1
685 757 1
696 757 1
739 757 1
746 757 1
793 757 1
795 757 1
128 758 1
142 758 1
686 758 1
697 758 1
740 758 1
747 758 1
794 758 1
796 758 1
129 759 1
143 759 1
687 759 1
698 759 1
741 759 1
748 759 1
795 759 1
797 759 1
130 760 1
144 760 1
688 760 1
699 760 1
742 760 1
749 760 1
796 760 1
798 760 1
127 761 1
131 761 1
689 761 1
700 761 1
743 761 1
750 761 1
797 761 1
799 761 1
128 762 1
132 762 1
690 762 1
701 762 1
744 762 1
751 762 1
798 762 1
800 762 1
129 763 1
133 763 1
691 763 1
702 763 1
745 763 1
752 763 1
799 763 1
801 763 1
130 764 1
134 764 1
685 764 1
692 764 1
746 764 1
753 764 1
800 764 1
802 764 1
131 765 1
135 765 1
686 765 1
693 765 1
747 765 1
754 765 1
801 765 1
803 765 1
132 766 1
136 766 1
687 766 1
694 766 1
748 766 1
755 766 1
802 766 1
804 766 1
133 767 1
137 767 1
688 767 1
695 767 1
749 767 1
756 767 1
803 767 1
805 767 1
134 768 1
138 768 1
689 768 1
696 768 1
739 768 1
750 768 1
804 768 1
806 768 1
135 769 1
139 769 1
690 769 1
697 769 1
740 769 1
751 769 1
805 769 1
807 769 1
136 770 1
140 770 1
691 770 1
698 770 1
741 770 1
752 770 1
806 770 1
808 770 1
137 771 1
141 771 1
692 771 1
699 771 1
742 771 1
753 771 1
807 771 1
809 771 1
138 772 1
142 772 1
693 772 1
700 772 1
743 772 1
754 772 1
808 772 1
810 772 1
139 773 1
143 773 1
694 773 1
701 773 1
744 773 1
755 773 1
793 773 1
809 773 1
140 774 1
144 774 1
695 774 1
702 774 1
745 774 1
756 774 1
794 774 1
810 774 1
145 775 1
159 775 1
703 775 1
714 775 1
757 775 1
764 775 1
793 775 1
796 775 1
146 776 1
160 776 1
704 776 1
715 776 1
758 776 1
765 776 1
794 776 1
797 776 1
147 777 1
161 777 1
705 777 1
716 777 1
759 777 1
766 777 1
795 777 1
798 777 1
148 778 1
162 778 1
706 778 1
717 778 1
760 778 1
767 778 1
796 778 1
799 778 1
145 779 1
149 779 1
707 779 1
718 779 1
761 779 1
768 779 1
797 779 1
800 779 1
146 780 1
150 780 1
708 780 1
719 780 1
762 780 1
769 780 1
798 780 1
801 780 1
147 781 1
151 781 1
709 781 1
720 781 1
763 781 1
770 781 1
799 781 1
802 781 1
148 782 1
152 782 1
703 782 1
710 782 1
764 782 1
771 782 1
800 782 1
803 782 1
149 783 1
153 783 1
704 783 1
711 783 1
765 783 1
772 783 1
801 783 1
804 783 1
150 784 1
154 784 1
705 784 1
712 784 1
766 784 1
773 784 1
802 784 1
805 784 1
151 785 1
155 785 1
706 785 1
713 785 1
767 785 1
774 785 1
803 785 1
806 785 1
152 786 1
156 786 1
707 786 1
714 786 1
757 786 1
768 786 1
804 786 1
807 786 1
153 787 1
157 787 1
708 787 1
715 787 1
758 787 1
769 787 1
805 787 1
808 787 1
154 788 1
158 788 1
709 788 1
716 788 1
759 788 1
770 788 1
806 788 1
809 788 1
155 789 1
159 789 1
710 789 1
717 789 1
760 789 1
771 789 1
807 789 1
810 789 1
156 790 1
160 790 1
711 790 1
718 790 1
761 790 1
772 790 1
793 790 1
808 790 1
157 791 1
161 791 1
712 791 1
719 791 1
762 791 1
773 791 1
794 791 1
809 791 1
158 792 1
162 792 1
713 792 1
720 792 1
763 792 1
774 792 1
795 792 1
810 792 1
163 793 1
177 793 1
721 793 1
732 793 1
775 793 1
782 793 1
793 793 1
798 793 1
164 794 1
178 794 1
722 794 1
733 794 1
776 794 1
783 794 1
794 794 1
799 794 1
165 795 1
179 795 1
723 795 1
734 795 1
777 795 1
784 795 1
795 795 1
800 795 1
166 796 1
180 796 1
724 796 1
735 796 1
778 796 1
785 796 1
796 796 1
801 796 1
163 797 1
167 797 1
725 797 1
736 797 1
779 797 1
786 797 1
797 797 1
802 797 1
164 798 1
168 798 1
726 798 1
737 798 1
780 798 1
787 798 1
798 798 1
803 798 1
165 799 1
169 799 1
727 799 1
738 799 1
781 799 1
788 799 1
799 799 1
804 799 1
166 800 1
170 800 1
721 800 1
728 800 1
782 800 1
789 800 1
800 800 1
805 800 1
167 801 1
171 801 1
722 801 1
729 801 1
783 801 1
790 801 1
801 801 1
806 801 1
168 802 1
172 802 1
723 802 1
730 802 1
784 802 1
791 802 1
802 802 1
807 802 1
169 803 1
173 803 1
724 803 1
731 803 1
785 803 1
792 803 1
803 803 1
808 803 1
170 804 1
174 804 1
725 804 1
732 804 1
775 804 1
786 804 1
804 804 1
809 804 1
171 805 1
175 805 1
726 805 1
733 805 1
776 805 1
787 805 1
805 805 1
810 805 1
172 806 1
176 806 1
727 806 1
734 806 1
777 806 1
788 806 1
793 806 1
806 806 1
173 807 1
177 807 1
728 807 1
735 807 1
778 807 1
789 807 1
794 807 1
807 807 1
174 808 1
178 808 1
729 808 1
736 808 1
779 808 1
790 808 1
795 808 1
808 808 1
175 809 1
179 809 1
730 809 1
737 809 1
780 809 1
791 809 1
796 809 1
809 809 1
176 810 1
180 810 1
731 810 1
738 810 1
781 810 1
792 810 1
797 810 1
810 810 1
181 811 1
195 811 1
631 811 1
643 811 1
811 811 1
814 811 1
829 811 1
831 811 1
182 812 1
196 812 1
632 812 1
644 812 1
812 812 1
815 812 1
830 812 1
832 812 1
183 813 1
197 813 1
633 813 1
645 813 1
813 813 1
816 813 1
831 813 1
833 813 1
184 814 1
198 814 1
634 814 1
646 814 1
814 814 1
817 814 1
832 814 1
834 814 1
181 815 1
185 815 1
635 815 1
647 815 1
815 815 1
818 815 1
833 815 1
835 815 1
182 816 1
186 816 1
636 816 1
648 816 1
816 816 1
819 816 1
834 816 1
836 816 1
183 817 1
187 817 1
631 817 1
637 817 1
817 817 1
820 817 1
835 817 1
837 817 1
184 818 1
188 818 1
632 818 1
638 818 1
818 818 1
821 818 1
836 818 1
838 818 1
185 819 1
189 819 1
633 819 1
639 819 1
819 819 1
822 819 1
837 819 1
839 819 1
186 820 1
190 820 1
634 820 1
640 820 1
820 820 1
823 820 1
838 820 1
840 820 1
187 821 1
191 821 1
635 821 1
641 821 1
821 821 1
824 821 1
839 821 1
841 821 1
188 822 1
192 822 1
636 822 1
642 822 1
822 822 1
825 822 1
840 822 1
842 822 1
189 823 1
193 823 1
637 823 1
643 823 1
823 823 1
826 823 1
841 823 1
843 823 1
190 824 1
194 824 1
638 824 1
644 824 1
824 824 1
827 824 1
842 824 1
844 824 1
191 825 1
195 825 1
639 825 1
645 825 1
825 825 1
828 825 1
843 825 1
845 825 1
192 826 1
196 826 1
640 826 1
646 826 1
811 826 1
826 826 1
844 826 1
846 826 1
193 827 1
197 827 1
641 827 1
647 827 1
812 827 1
827 827 1
829 827 1
845 827 1
194 828 1
198 828 1
642 828 1
648 828 1
813 828 1
828 828 1
830 828 1
846 828 1
199 829 1
213 829 1
649 829 1
661 829 1
811 829 1
816 829 1
847 829 1
849 829 1
200 830 1
214 830 1
650 830 1
662 830 1
812 830 1
817 830 1
848 830 1
850 830 1
201 831 1
215 831 1
651 831 1
663 831 1
813 831 1
818 831 1
849 831 1
851 831 1
202 832 1
216 832 1
652 832 1
664 832 1
814 832 1
819 832 1
850 832 1
852 832 1
199 833 1
203 833 1
653 833 1
665 833 1
815 833 1
820 833 1
851 833 1
853 833 1
200 834 1
204 834 1
654 834 1
666 834 1
816 834 1
821 834 1
852 834 1
854 834 1
201 835 1
205 835 1
649 835 1
655 835 1
817 835 1
822 835 1
853 835 1
855 835 1
202 836 1
206 836 1
650 836 1
656 836 1
818 836 1
823 836 1
854 836 1
856 836 1
203 837 1
207 837 1
651 837 1
657 837 1
819 837 1
824 837 1
855 837 1
857 837 1
204 838 1
208 838 1
652 838 1
658 838 1
820 838 1
825 838 1
856 838 1
858 838 1
205 839 1
209 839 1
653 839 1
659 839 1
821 839 1
826 839 1
857 839 1
859 839 1
206 840 1
210 840 1
654 840 1
660 840 1
822 840 1
827 840 1
858 840 1
860 840 1
207 841 1
211 841 1
655 841 1
661 841 1
823 841 1
828 841 1
859 841 1
861 841 1
208 842 1
212 842 1
656 842 1
662 842 1
811 842 1
824 842 1
860 842 1
862 842 1
209 843 1
213 843 1
657 843 1
663 843 1
812 843 1
825 843 1
861 843 1
863 843 1
210 844 1
214 844 1
658 844 1
664 844 1
813 844 1
826 844 1
862 844 1
864 844 1
211 845 1
215 845 1
659 845 1
665 845 1
814 845 1
827 845 1
847 845 1
863 845 1
212 846 1
216 846 1
660 846 1
666 846 1
815 846 1
828 846 1
848 846 1
864 846 1
217 847 1
231 847 1
667 847 1
679 847 1
829 847 1
834 847 1
847 847 1
850 847 1
218 848 1
232 848 1
668 848 1
680 848 1
830 848 1
835 848 1
848 848 1
851 848 1
219 849 1
233 849 1
669 849 1
681 849 1
831 849 1
836 849 1
849 849 1
852 849 1
220 850 1
234 850 1
670 850 1
682 850 1
832 850 1
837 850 1
850 850 1
853 850 1
217 851 1
221 851 1
671 851 1
683 851 1
833 851 1
838 851 1
851 851 1
854 851 1
218 852 1
222 852 1
672 852 1
684 852 1
834 852 1
839 852 1
852 852 1
855 852 1
219 853 1
223 853 1
667 853 1
673 853 1
835 853 1
840 853 1
853 853 1
856 853 1
220 854 1
224 854 1
668 854 1
674 854 1
836 854 1
841 854 1
854 854 1
857 854 1
221 855 1
225 855 1
669 855 1
675 855 1
837 855 1
842 855 1
855 855 1
858 855 1
222 856 1
226 856 1
670 856 1
676 856 1
838 856 1
843 856 1
856 856 1
859 856 1
223 857 1
227 857 1
671 857 1
677 857 1
839 857 1
844 857 1
857 857 1
860 857 1
224 858 1
228 858 1
672 858 1
678 858 1
840 858 1
845 858 1
858 858 1
861 858 1
225 859 1
229 859 1
673 859 1
679 859 1
841 859 1
846 859 1
859 859 1
862 859 1
226 860 1
230 860 1
674 860 1
680 860 1
829 860 1
842 860 1
860 860 1
863 860 1
227 861 1
231 861 1
675 861 1
681 861 1
830 861 1
843 861 1
861 861 1
864 861 1
228 862 1
232 862 1
676 862 1
682 862 1
831 862 1
844 862 1
847 862 1
862 862 1
229 863 1
233 863 1
677 863 1
683 863 1
832 863 1
845 863 1
848 863 1
863 863 1
230 864 1
234 864 1
678 864 1
684 864 1
833 864 1
846 864 1
849 864 1
864 864 1
235 865 1
249 865 1
685 865 1
697 865 1
811 865 1
818 865 1
865 865 1
867 865 1
236 866 1
250 866 1
686 866 1
698 866 1
812 866 1
819 866 1
866 866 1
868 866 1
237 867 1
251 867 1
687 867 1
699 867 1
813 867 1
820 867 1
867 867 1
869 867 1
238 868 1
252 868 1
688 868 1
700 868 1
814 868 1
821 868 1
868 868 1
870 868 1
235 869 1
239 869 1
689 869 1
701 869 1
815 869 1
822 869 1
869 869 1
871 869 1
236 870 1
240 870 1
690 870 1
702 870 1
816 870 1
823 870 1
870 870 1
872 870 1
237 871 1
241 871 1
685 871 1
691 871 1
817 871 1
824 871 1
871 871 1
873 871 1
238 872 1
242 872 1
686 872 1
692 872 1
818 872 1
825 872 1
872 872 1
874 872 1
239 873 1
243 873 1
687 873 1
693 873 1
819 873 1
826 873 1
873 873 1
875 873 1
240 874 1
244 874 1
688 874 1
694 874 1
820 874 1
827 874 1
874 874 1
876 874 1
241 875 1
245 875 1
689 875 1
695 875 1
821 875 1
828 875 1
875 875 1
877 875 1
242 876 1
246 876 1
690 876 1
696 876 1
811 876 1
822 876 1
876 876 1
878 876 1
243 877 1
247 877 1
691 877 1
697 877 1
812 877 1
823 877 1
877 877 1
879 877 1
244 878 1
248 878 1
692 878 1
698 878 1
813 878 1
824 878 1
878 878 1
880 878 1
245 879 1
249 879 1
693 879 1
699 879 1
814 879 1
825 879 1
879 879 1
881 879 1
246 880 1
250 880 1
694 880 1
700 880 1
815 880 1
826 880 1
880 880 1
882 880 1
247 881 1
251 881 1
695 881 1
701 881 1
816 881 1
827 881 1
865 881 1
881 881 1
248 882 1
252 882 1
696 882 1
702 882 1
817 882 1
828 882 1
866 882 1
882 882 1
253 883 1
267 883 1
703 883 1
715 883 1
829 883 1
836 883 1
865 883 1
868 883 1
254 884 1
268 884 1
704 884 1
716 884 1
830 884 1
837 884 1
866 884 1
869 884 1
255 885 1
269 885 1
705 885 1
717 885 1
831 885 1
838 885 1
867 885 1
870 885 1
256 886 1
270 886 1
706 886 1
718 886 1
832 886 1
839 886 1
868 886 1
871 886 1
253 887 1
257 887 1
707 887 1
719 887 1
833 887 1
840 887 1
869 887 1
872 887 1
254 888 1
258 888 1
708 888 1
720 888 1
834 888 1
841 888 1
870 888 1
873 888 1
255 889 1
259 889 1
703 889 1
709 889 1
835 889 1
842 889 1
871 889 1
874 889 1
256 890 1
260 890 1
704 890 1
710 890 1
836 890 1
843 890 1
872 890 1
875 890 1
257 891 1
261 891 1
705 891 1
711 891 1
837 891 1
844 891 1
873 891 1
876 891 1
258 892 1
262 892 1
706 892 1
712 892 1
838 892 1
845 892 1
874 892 1
877 892 1
259 893 1
263 893 1
707 893 1
713 893 1
839 893 1
846 893 1
875 893 1
878 893 1
260 894 1
264 894 1
708 894 1
714 894 1
829 894 1
840 894 1
876 894 1
879 894 1
261 895 1
265 895 1
709 895 1
715 895 1
830 895 1
841 895 1
877 895 1
880 895 1
262 896 1
266 896 1
710 896 1
716 896 1
831 896 1
842 896 1
878 896 1
881 896 1
263 897 1
267 897 1
711 897 1
717 897 1
832 897 1
843 897 1
879 897 1
882 897 1
264 898 1
268 898 1
712 898 1
718 898 1
833 898 1
844 898 1
865 898 1
880 898 1
265 899 1
269 899 1
713 899 1
719 899 1
834 899 1
845 899 1
866 899 1
881 899 1
266 900 1
270 900 1
714 900 1
720 900 1
835 900 1
846 900 1
867 900 1
882 900 1
271 901 1
285 901 1
721 901 1
733 901 1
847 901 1
854 901 1
865 901 1
870 901 1
272 902 1
286 902 1
722 902 1
734 902 1
848 902 1
855 902 1
866 902 1
871 902 1
273 903 1
287 903 1
723 903 1
735 903 1
849 903 1
856 903 1
867 903 1
872 903 1
274 904 1
288 904 1
724 904 1
736 904 1
850 904 1
857 904 1
868 904 1
873 904 1
271 905 1
275 905 1
725 905 1
737 905 1
851 905 1
858 905 1
869 905 1
874 905 1
272 906 1
276 906 1
726 906 1
738 906 1
852 906 1
859 906 1
870 906 1
875 906 1
273 907 1
277 907 1
721 907 1
727 907 1
853 907 1
860 907 1
871 907 1
876 907 1
274 908 1
278 908 1
722 908 1
728 908 1
854 908 1
861 908 1
872 908 1
877 908 1
275 909 1
279 909 1
723 909 1
729 909 1
855 909 1
862 909 1
873 909 1
878 909 1
276 910 1
280 910 1
724 910 1
730 910 1
856 910 1
863 910 1
874 910 1
879 910 1
277 911 1
281 911 1
725 911 1
731 911 1
857 911 1
864 911 1
875 911 1
880 911 1
278 912 1
282 912 1
726 912 1
732 912 1
847 912 1
858 912 1
876 912 1
881 912 1
279 913 1
283 913 1
727 913 1
733 913 1
848 913 1
859 913 1
877 913 1
882 913 1
280 914 1
284 914 1
728 914 1
734 914 1
849 914 1
860 914 1
865 914 1
878 914 1
281 915 1
285 915 1
729 915 1
735 915 1
850 915 1
861 915 1
866 915 1
879 915 1
282 916 1
286 916 1
730 916 1
736 916 1
851 916 1
862 916 1
867 916 1
880 916 1
283 917 1
287 917 1
731 917 1
737 917 1
852 917 1
863 917 1
868 917 1
881 917 1
284 918 1
288 918 1
732 918 1
738 918 1
853 918 1
864 918 1
869 918 1
882 918 1
289 919 1
303 919 1
739 919 1
751 919 1
811 919 1
822 919 1
883 919 1
885 919 1
290 920 1
304 920 1
740 920 1
752 920 1
812 920 1
823 920 1
884 920 1
886 920 1
291 921 1
305 921 1
741 921 1
753 921 1
813 921 1
824 921 1
885 921 1
887 921 1
292 922 1
306 922 1
742 922 1
754 922 1
814 922 1
825 922 1
886 922 1
888 922 1
289 923 1
293 923 1
743 923 1
755 923 1
815 923 1
826 923 1
887 923 1
889 923 1
290 924 1
294 924 1
744 924 1
756 924 1
816 924 1
827 924 1
888 924 1
890 924 1
291 925 1
295 925 1
739 925 1
745 925 1
817 925 1
828 925 1
889 925 1
891 925 1
292 926 1
296 926 1
740 926 1
746 926 1
811 926 1
818 926 1
890 926 1
892 926 1
293 927 1
297 927 1
741 927 1
747 927 1
812 927 1
819 927 1
891 927 1
893 927 1
294 928 1
298 928 1
742 928 1
748 928 1
813 928 1
820 928 1
892 928 1
894 928 1
295 929 1
299 929 1
743 929 1
749 929 1
814 929 1
821 929 1
893 929 1
895 929 1
296 930 1
300 930 1
744 930 1
750 930 1
815 930 1
822 930 1
894 930 1
896 930 1
297 931 1
301 931 1
745 931 1
751 931 1
816 931 1
823 931 1
895 931 1
897 931 1
298 932 1
302 932 1
746 932 1
752 932 1
817 932 1
824 932 1
896 932 1
898 932 1
299 933 1
303 933 1
747 933 1
753 933 1
818 933 1
825 933 1
897 933 1
899 933 1
300 934 1
304 934 1
748 934 1
754 934 1
819 934 1
826 934 1
898 934 1
900 934 1
301 935 1
305 935 1
749 935 1
755 935 1
820 935 1
827 935 1
883 935 1
899 935 1
302 936 1
306 936 1
750 936 1
756 936 1
821 936 1
828 936 1
884 936 1
900 936 1
307 937 1
321 937 1
757 937 1
769 937 1
829 937 1
840 937 1
883 937 1
886 937 1
308 938 1
322 938 1
758 938 1
770 938 1
830 938 1
841 938 1
884 938 1
887 938 1
309 939 1
323 939 1
759 939 1
771 939 1
831 939 1
842 939 1
885 939 1
888 939 1
310 940 1
324 940 1
760 940 1
772 940 1
832 940 1
843 940 1
886 940 1
889 940 1
307 941 1
311 941 1
761 941 1
773 941 1
833 941 1
844 941 1
887 941 1
890 941 1
308 942 1
312 942 1
762 942 1
774 942 1
834 942 1
845 942 1
888 942 1
891 942 1
309 943 1
313 943 1
757 943 1
763 943 1
835 943 1
846 943 1
889 943 1
892 943 1
310 944 1
314 944 1
758 944 1
764 944 1
829 944 1
836 944 1
890 944 1
893 944 1
311 945 1
315 945 1
759 945 1
765 945 1
830 945 1
837 945 1
891 945 1
894 945 1
312 946 1
316 946 1
760 946 1
766 946 1
831 946 1
838 946 1
892 946 1
895 946 1
313 947 1
317 947 1
761 947 1
767 947 1
832 947 1
839 947 1
893 947 1
896 947 1
314 948 1
318 948 1
762 948 1
768 948 1
833 948 1
840 948 1
894 948 1
897 948 1
315 949 1
319 949 1
763 949 1
769 949 1
834 949 1
841 949 1
895 949 1
898 949 1
316 950 1
320 950 1
764 950 1
770 950 1
835 950 1
842 950 1
896 950 1
899 950 1
317 951 1
321 951 1
765 951 1
771 951 1
836 951 1
843 951 1
897 951 1
900 951 1
318 952 1
322 952 1
766 952 1
772 952 1
837 952 1
844 952 1
883 952 1
898 952 1
319 953 1
323 953 1
767 953 1
773 953 1
838 953 1
845 953 1
884 953 1
899 953 1
320 954 1
324 954 1
768 954 1
774 954 1
839 954 1
846 954 1
885 954 1
900 954 1
325 955 1
339 955 1
775 955 1
787 955 1
847 955 1
858 955 1
883 955 1
888 955 1
326 956 1
340 956 1
776 956 1
788 956 1
848 956 1
859 956 1
884 956 1
889 956 1
327 957 1
341 957 1
777 957 1
789 957 1
849 957 1
860 957 1
885 957 1
890 957 1
328 958 1
342 958 1
778 958 1
790 958 1
850 958 1
861 958 1
886 958 1
891 958 1
325 959 1
329 959 1
779 959 1
791 959 1
851 959 1
862 959 1
887 959 1
892 959 1
326 960 1
330 960 1
780 960 1
792 960 1
852 960 1
863 960 1
888 960 1
893 960 1
327 961 1
331 961 1
775 961 1
781 961 1
853 961 1
864 961 1
889 961 1
894 961 1
328 962 1
332 962 1
776 962 1
782 962 1
847 962 1
854 962 1
890 962 1
895 962 1
329 963 1
333 963 1
777 963 1
783 963 1
848 963 1
855 963 1
891 963 1
896 963 1
330 964 1
334 964 1
778 964 1
784 964 1
849 964 1
856 964 1
892 964 1
897 964 1
331 965 1
335 965 1
779 965 1
785 965 1
850 965 1
857 965 1
893 965 1
898 965 1
332 966 1
336 966 1
780 966 1
786 966 1
851 966 1
858 966 1
894 966 1
899 966 1
333 967 1
337 967 1
781 967 1
787 967 1
852 967 1
859 967 1
895 967 1
900 967 1
334 968 1
338 968 1
782 968 1
788 968 1
853 968 1
860 968 1
883 968 1
896 968 1
335 969 1
339 969 1
783 969 1
789 969 1
854 969 1
861 969 1
884 969 1
897 969 1
336 970 1
340 970 1
784 970 1
790 970 1
855 970 1
862 970 1
885 970 1
898 970 1
337 971 1
341 971 1
785 971 1
791 971 1
856 971 1
863 971 1
886 971 1
899 971 1
338 972 1
342 972 1
786 972 1
792 972 1
857 972 1
864 972 1
887 972 1
900 972 1
343 973 1
357 973 1
793 973 1
805 973 1
865 973 1
876 973 1
883 973 1
890 973 1
344 974 1
358 974 1
794 974 1
806 974 1
866 974 1
877 974 1
884 974 1
891 974 1
345 975 1
359 975 1
795 975 1
807 975 1
867 975 1
878 975 1
885 975 1
892 975 1
346 976 1
360 976 1
796 976 1
808 976 1
868 976 1
879 976 1
886 976 1
893 976 1
343 977 1
347 977 1
797 977 1
809 977 1
869 977 1
880 977 1
887 977 1
894 977 1
344 978 1
348 978 1
798 978 1
810 978 1
870 978 1
881 978 1
888 978 1
895 978 1
345 979 1
349 979 1
793 979 1
799 979 1
871 979 1
882 979 1
889 979 1
896 979 1
346 980 1
350 980 1
794 980 1
800 980 1
865 980 1
872 980 1
890 980 1
897 980 1
347 981 1
351 981 1
795 981 1
801 981 1
866 981 1
873 981 1
891 981 1
898 981 1
348 982 1
352 982 1
796 982 1
802 982 1
867 982 1
874 982 1
892 982 1
899 982 1
349 983 1
353 983 1
797 983 1
803 983 1
868 983 1
875 983 1
893 983 1
900 983 1
350 984 1
354 984 1
798 984 1
804 984 1
869 984 1
876 984 1
883 984 1
894 984 1
351 985 1
355 985 1
799 985 1
805 985 1
870 985 1
877 985 1
884 985 1
895 985 1
352 986 1
356 986 1
800 986 1
806 986 1
871 986 1
878 986 1
885 986 1
896 986 1
353 987 1
357 987 1
801 987 1
807 987 1
872 987 1
879 987 1
886 987 1
897 987 1
354 988 1
358 988 1
802 988 1
808 988 1
873 988 1
880 988 1
887 988 1
898 988 1
355 989 1
359 989 1
803 989 1
809 989 1
874 989 1
881 989 1
888 989 1
899 989 1
356 990 1
360 990 1
804 990 1
810 990 1
875 990 1
882 990 1
889 990 1
900 990 1
361 991 1
375 991 1
631 991 1
644 991 1
901 991 1
904 991 1
919 991 1
921 991 1
362 992 1
376 992 1
632 992 1
645 992 1
902 992 1
905 992 1
920 992 1
922 992 1
363 993 1
377 993 1
633 993 1
646 993 1
903 993 1
906 993 1
921 993 1
923 993 1
364 994 1
378 994 1
634 994 1
647 994 1
904 994 1
907 994 1
922 994 1
924 994 1
361 995 1
365 995 1
635 995 1
648 995 1
905 995 1
908 995 1
923 995 1
925 995 1
362 996 1
366 996 1
631 996 1
636 996 1
906 996 1
909 996 1
924 996 1
926 996 1
363 997 1
367 997 1
632 997 1
637 997 1
907 997 1
910 997 1
925 997 1
927 997 1
364 998 1
368 998 1
633 998 1
638 998 1
908 998 1
911 998 1
926 998 1
928 998 1
365 999 1
369 999 1
634 999 1
639 999 1
909 999 1
912 999 1
927 999 1
929 999 1
366 1000 1
370 1000 1
635 1000 1
640 1000 1
910 1000 1
913 1000 1
928 1000 1
930 1000 1
367 1001 1
371 1001 1
636 1001 1
641 1001 1
911 1001 1
914 1001 1
929 1001 1
931 1001 1
368 1002 1
372 1002 1
637 1002 1
642 1002 1
912 1002 1
915 1002 1
930 1002 1
932 1002 1
369 1003 1
373 1003 1
638 1003 1
643 1003 1
913 1003 1
916 1003 1
931 1003 1
933 1003 1
370 1004 1
374 1004 1
639 1004 1
644 1004 1
914 1004 1
917 1004 1
932 1004 1
934 1004 1
371 1005 1
375 1005 1
640 1005 1
645 1005 1
915 1005 1
918 1005 1
933 1005 1
935 1005 1
372 1006 1
376 1006 1
641 1006 1
646 1006 1
901 1006 1
916 1006 1
934 1006 1
936 1006 1
373 1007 1
377 1007 1
642 1007 1
647 1007 1
902 1007 1
917 1007 1
919 1007 1
935 1007 1
374 1008 1
378 1008 1
643 1008 1
648 1008 1
903 1008 1
918 1008 1
920 1008 1
936 1008 1
379 1009 1
393 1009 1
649 1009 1
662 1009 1
901 1009 1
906 1009 1
937 1009 1
939 1009 1
380 1010 1
394 1010 1
650 1010 1
663 1010 1
902 1010 1
907 1010 1
938 1010 1
940 1010 1
381 1011 1
395 1011 1
651 1011 1
664 1011 1
903 1011 1
908 1011 1
939 1011 1
941 1011 1
382 1012 1
396 1012 1
652 1012 1
665 1012 1
904 1012 1
909 1012 1
940 1012 1
942 1012 1
379 1013 1
383 1013 1
653 1013 1
666 1013 1
905 1013 1
910 1013 1
941 1013 1
943 1013 1
380 1014 1
384 1014 1
649 1014 1
654 1014 1
906 1014 1
911 1014 1
942 1014 1
944 1014 1
381 1015 1
385 1015 1
650 1015 1
655 1015 1
907 1015 1
912 1015 1
943 1015 1
945 1015 1
382 1016 1
386 1016 1
651 1016 1
656 1016 1
908 1016 1
913 1016 1
944 1016 1
946 1016 1
383 1017 1
387 1017 1
652 1017 1
657 1017 1
909 1017 1
914 1017 1
945 1017 1
947 1017 1
384 1018 1
388 1018 1
653 1018 1
658 1018 1
910 1018 1
915 1018 1
946 1018 1
948 1018 1
385 1019 1
389 1019 1
654 1019 1
659 1019 1
911 1019 1
916 1019 1
947 1019 1
949 1019 1
386 1020 1
390 1020 1
655 1020 1
660 1020 1
912 1020 1
917 1020 1
948 1020 1
950 1020 1
387 1021 1
391 1021 1
656 1021 1
661 1021 1
913 1021 1
918 1021 1
949 1021 1
951 1021 1
388 1022 1
392 1022 1
657 1022 1
662 1022 1
901 1022 1
914 1022 1
950 1022 1
952 1022 1
389 1023 1
393 1023 1
658 1023 1
663 1023 1
902 1023 1
915 1023 1
951 1023 1
953 1023 1
390 1024 1
394 1024 1
659 1024 1
664 1024 1
903 1024 1
916 1024 1
952 1024 1
954 1024 1
391 1025 1
395 1025 1
660 1025 1
665 1025 1
904 1025 1
917 1025 1
937 1025 1
953 1025 1
392 1026 1
396 1026 1
661 1026 1
666 1026 1
905 1026 1
918 1026 1
938 1026 1
954 1026 1
397 1027 1
411 1027 1
667 1027 1
680 1027 1
919 1027 1
924 1027 1
937 1027 1
940 1027 1
398 1028 1
412 1028 1
668 1028 1
681 1028 1
920 1028 1
925 1028 1
938 1028 1
941 1028 1
399 1029 1
413 1029 1
669 1029 1
682 1029 1
921 1029 1
926 1029 1
939 1029 1
942 1029 1
400 1030 1
414 1030 1
670 1030 1
683 1030 1
922 1030 1
927 1030 1
940 1030 1
943 1030 1
397 1031 1
401 1031 1
671 1031 1
684 1031 1
923 1031 1
928 1031 1
941 1031 1
944 1031 1
398 1032 1
402 1032 1
667 1032 1
672 1032 1
924 1032 1
929 1032 1
942 1032 1
945 1032 1
399 1033 1
403 1033 1
668 1033 1
673 1033 1
925 1033 1
930 1033 1
943 1033 1
946 1033 1
400 1034 1
404 1034 1
669 1034 1
674 1034 1
926 1034 1
931 1034 1
944 1034 1
947 1034 1
401 1035 1
405 1035 1
670 1035 1
675 1035 1
927 1035 1
932 1035 1
945 1035 1
948 1035 1
402 1036 1
406 1036 1
671 1036 1
676 1036 1
928 1036 1
933 1036 1
946 1036 1
949 1036 1
403 1037 1
407 1037 1
672 1037 1
677 1037 1
929 1037 1
934 1037 1
947 1037 1
950 1037 1
404 1038 1
408 1038 1
673 1038 1
678 1038 1
930 1038 1
935 1038 1
948 1038 1
951 1038 1
405 1039 1
409 1039 1
674 1039 1
679 1039 1
931 1039 1
936 1039 1
949 1039 1
952 1039 1
406 1040 1
410 1040 1
675 1040 1
680 1040 1
919 1040 1
932 1040 1
950 1040 1
953 1040 1
407 1041 1
411 1041 1
676 1041 1
681 1041 1
920 1041 1
933 1041 1
951 1041 1
954 1041 1
408 1042 1
412 1042 1
677 1042 1
682 1042 1
921 1042 1
934 1042 1
937 1042 1
952 1042 1
409 1043 1
413 1043 1
678 1043 1
683 1043 1
922 1043 1
935 1043 1
938 1043 1
953 1043 1
410 1044 1
414 1044 1
679 1044 1
684 1044 1
923 1044 1
936 1044 1
939 1044 1
954 1044 1
415 1045 1
429 1045 1
685 1045 1
698 1045 1
901 1045 1
908 1045 1
955 1045 1
957 1045 1
416 1046 1
430 1046 1
686 1046 1
699 1046 1
902 1046 1
909 1046 1
956 1046 1
958 1046 1
417 1047 1
431 1047 1
687 1047 1
700 1047 1
903 1047 1
910 1047 1
957 1047 1
959 1047 1
418 1048 1
432 1048 1
688 1048 1
701 1048 1
904 1048 1
911 1048 1
958 1048 1
960 1048 1
415 1049 1
419 1049 1
689 1049 1
702 1049 1
905 1049 1
912 1049 1
959 1049 1
961 1049 1
416 1050 1
420 1050 1
685 1050 1
690 1050 1
906 1050 1
913 1050 1
960 1050 1
962 1050 1
417 1051 1
421 1051 1
686 1051 1
691 1051 1
907 1051 1
914 1051 1
961 1051 1
963 1051 1
418 1052 1
422 1052 1
687 1052 1
692 1052 1
908 1052 1
915 1052 1
962 1052 1
964 1052 1
419 1053 1
423 1053 1
688 1053 1
693 1053 1
909 1053 1
916 1053 1
963 1053 1
965 1053 1
420 1054 1
424 1054 1
689 1054 1
694 1054 1
910 1054 1
917 1054 1
964 1054 1
966 1054 1
421 1055 1
425 1055 1
690 1055 1
695 1055 1
911 1055 1
918 1055 1
965 1055 1
967 1055 1
422 1056 1
426 1056 1
691 1056 1
696 1056 1
901 1056 1
912 1056 1
966 1056 1
968 1056 1
423 1057 1
427 1057 1
692 1057 1
697 1057 1
902 1057 1
913 1057 1
967 1057 1
969 1057 1
424 1058 1
428 1058 1
693 1058 1
698 1058 1
903 1058 1
914 1058 1
968 1058 1
970 1058 1
425 1059 1
429 1059 1
694 1059 1
699 1059 1
904 1059 1
915 1059 1
969 1059 1
971 1059 1
426 1060 1
430 1060 1
695 1060 1
700 1060 1
905 1060 1
916 1060 1
970 1060 1
972 1060 1
427 1061 1
431 1061 1
696 1061 1
701 1061 1
906 1061 1
917 1061 1
955 1061 1
971 1061 1
428 1062 1
432 1062 1
697 1062 1
702 1062 1
907 1062 1
918 1062 1
956 1062 1
972 1062 1
433 1063 1
447 1063 1
703 1063 1
716 1063 1
919 1063 1
926 1063 1
955 1063 1
958 1063 1
434 1064 1
448 1064 1
704 1064 1
717 1064 1
920 1064 1
927 1064 1
956 1064 1
959 1064 1
435 1065 1
449 1065 1
705 1065 1
718 1065 1
921 1065 1
928 1065 1
957 1065 1
960 1065 1
436 1066 1
450 1066 1
706 1066 1
719 1066 1
922 1066 1
929 1066 1
958 1066 1
961 1066 1
433 1067 1
437 1067 1
707 1067 1
720 1067 1
923 1067 1
930 1067 1
959 1067 1
962 1067 1
434 1068 1
438 1068 1
703 1068 1
708 1068 1
924 1068 1
931 1068 1
960 1068 1
963 1068 1
435 1069 1
439 1069 1
704 1069 1
709 1069 1
925 1069 1
932 1069 1
961 1069 1
964 1069 1
436 1070 1
440 1070 1
705 1070 1
710 1070 1
926 1070 1
933 1070 1
962 1070 1
965 1070 1
437 1071 1
441 1071 1
706 1071 1
711 1071 1
927 1071 1
934 1071 1
963 1071 1
966 1071 1
438 1072 1
442 1072 1
707 1072 1
712 1072 1
928 1072 1
935 1072 1
964 1072 1
967 1072 1
439 1073 1
443 1073 1
708 1073 1
713 1073 1
929 1073 1
936 1073 1
965 1073 1
968 1073 1
440 1074 1
444 1074 1
709 1074 1
714 1074 1
919 1074 1
930 1074 1
966 1074 1
969 1074 1
441 1075 1
445 1075 1
710 1075 1
715 1075 1
920 1075 1
931 1075 1
967 1075 1
970 1075 1
442 1076 1
446 1076 1
711 1076 1
716 1076 1
921 1076 1
932 1076 1
968 1076 1
971 1076 1
443 1077 1
447 1077 1
712 1077 1
717 1077 1
922 1077 1
933 1077 1
969 1077 1
972 1077 1
444 1078 1
448 1078 1
713 1078 1
718 1078 1
923 1078 1
934 1078 1
955 1078 1
970 1078 1
445 1079 1
449 1079 1
714 1079 1
719 1079 1
924 1079 1
935 1079 1
956 1079 1
971 1079 1
446 1080 1
450 1080 1
715 1080 1
720 1080 1
925 1080 1
936 1080 1
957 1080 1
972 1080 1
451 1081 1
465 1081 1
721 1081 1
734 1081 1
937 1081 1
944 1081 1
955 1081 1
960 1081 1
452 1082 1
466 1082 1
722 1082 1
735 1082 1
938 1082 1
945 1082 1
956 1082 1
961 1082 1
453 1083 1
467 1083 1
723 1083 1
736 1083 1
939 1083 1
946 1083 1
957 1083 1
962 1083 1
454 1084 1
468 1084 1
724 1084 1
737 1084 1
940 1084 1
947 1084 1
958 1084 1
963 1084 1
451 1085 1
455 1085 1
725 1085 1
738 1085 1
941 1085 1
948 1085 1
959 1085 1
964 1085 1
452 1086 1
456 1086 1
721 1086 1
726 1086 1
942 1086 1
949 1086 1
960 1086 1
965 1086 1
453 1087 1
457 1087 1
722 1087 1
727 1087 1
943 1087 1
950 1087 1
961 1087 1
966 1087 1
454 1088 1
458 1088 1
723 1088 1
728 1088 1
944 1088 1
951 1088 1
962 1088 1
967 1088 1
455 1089 1
459 1089 1
724 1089 1
729 1089 1
945 1089 1
952 1089 1
963 1089 1
968 1089 1
456 1090 1
460 1090 1
725 1090 1
730 1090 1
946 1090 1
953 1090 1
964 1090 1
969 1090 1
457 1091 1
461 1091 1
726 1091 1
731 1091 1
947 1091 1
954 1091 1
965 1091 1
970 1091 1
458 1092 1
462 1092 1
727 1092 1
732 1092 1
937 1092 1
948 1092 1
966 1092 1
971 1092 1
459 1093 1
463 1093 1
728 1093 1
733 1093 1
938 1093 1
949 1093 1
967 1093 1
972 1093 1
460 1094 1
464 1094 1
729 1094 1
734 1094 1
939 1094 1
950 1094 1
955 1094 1
968 1094 1
461 1095 1
465 1095 1
730 1095 1
735 1095 1
940 1095 1
951 1095 1
956 1095 1
969 1095 1
462 1096 1
466 1096 1
731 1096 1
736 1096 1
941 1096 1
952 1096 1
957 1096 1
970 1096 1
463 1097 1
467 1097 1
732 1097 1
737 1097 1
942 1097 1
953 1097 1
958 1097 1
971 1097 1
464 1098 1
468 1098 1
733 1098 1
738 1098 1
943 1098 1
954 1098 1
959 1098 1
972 1098 1
469 1099 1
483 1099 1
739 1099 1
752 1099 1
901 1099 1
912 1099 1
973 1099 1
975 1099 1
470 1100 1
484 1100 1
740 1100 1
753 1100 1
902 1100 1
913 1100 1
974 1100 1
976 1100 1
471 1101 1
485 1101 1
741 1101 1
754 1101 1
903 1101 1
914 1101 1
975 1101 1
977 1101 1
472 1102 1
486 1102 1
742 1102 1
755 1102 1
904 1102 1
915 1102 1
976 1102 1
978 1102 1
469 1103 1
473 1103 1
743 1103 1
756 1103 1
905 1103 1
916 1103 1
977 1103 1
979 1103 1
470 1104 1
474 1104 1
739 1104 1
744 1104 1
906 1104 1
917 1104 1
978 1104 1
980 1104 1
471 1105 1
475 1105 1
740 1105 1
745 1105 1
907 1105 1
918 1105 1
979 1105 1
981 1105 1
472 1106 1
476 1106 1
741 1106 1
746 1106 1
901 1106 1
908 1106 1
980 1106 1
982 1106 1
473 1107 1
477 1107 1
742 1107 1
747 1107 1
902 1107 1
909 1107 1
981 1107 1
983 1107 1
474 1108 1
478 1108 1
743 1108 1
748 1108 1
903 1108 1
910 1108 1
982 1108 1
984 1108 1
475 1109 1
479 1109 1
744 1109 1
749 1109 1
904 1109 1
911 1109 1
983 1109 1
985 1109 1
476 1110 1
480 1110 1
745 1110 1
750 1110 1
905 1110 1
912 1110 1
984 1110 1
986 1110 1
477 1111 1
481 1111 1
746 1111 1
751 1111 1
906 1111 1
913 1111 1
985 1111 1
987 1111 1
478 1112 1
482 1112 1
747 1112 1
752 1112 1
907 1112 1
914 1112 1
986 1112 1
988 1112 1
479 1113 1
483 1113 1
748 1113 1
753 1113 1
908 1113 1
915 1113 1
987 1113 1
989 1113 1
480 1114 1
484 1114 1
749 1114 1
754 1114 1
909 1114 1
916 1114 1
988 1114 1
990 1114 1
481 1115 1
485 1115 1
750 1115 1
755 1115 1
910 1115 1
917 1115 1
973 1115 1
989 1115 1
482 1116 1
486 1116 1
751 1116 1
756 1116 1
911 1116 1
918 1116 1
974 1116 1
990 1116 1
487 1117 1
501 1117 1
757 1117 1
770 1117 1
919 1117 1
930 1117 1
973 1117 1
976 1117 1
488 1118 1
502 1118 1
758 1118 1
771 1118 1
920 1118 1
931 1118 1
974 1118 1
977 1118 1
489 1119 1
503 1119 1
759 1119 1
772 1119 1
921 1119 1
932 1119 1
975 1119 1
978 1119 1
490 1120 1
504 1120 1
760 1120 1
773 1120 1
922 1120 1
933 1120 1
976 1120 1
979 1120 1
487 1121 1
491 1121 1
761 1121 1
774 1121 1
923 1121 1
934 1121 1
977 1121 1
980 1121 1
488 1122 1
492 1122 1
757 1122 1
762 1122 1
924 1122 1
935 1122 1
978 1122 1
981 1122 1
489 1123 1
493 1123 1
758 1123 1
763 1123 1
925 1123 1
936 1123 1
979 1123 1
982 1123 1
490 1124 1
494 1124 1
759 1124 1
764 1124 1
919 1124 1
926 1124 1
980 1124 1
983 1124 1
491 1125 1
495 1125 1
760 1125 1
765 1125 1
920 1125 1
927 1125 1
981 1125 1
984 1125 1
492 1126 1
496 1126 1
761 1126 1
766 1126 1
921 1126 1
928 1126 1
982 1126 1
985 1126 1
493 1127 1
497 1127 1
762 1127 1
767 1127 1
922 1127 1
929 1127 1
983 1127 1
986 1127 1
494 1128 1
498 1128 1
763 1128 1
768 1128 1
923 1128 1
930 1128 1
984 1128 1
987 1128 1
495 1129 1
499 1129 1
764 1129 1
769 1129 1
924 1129 1
931 1129 1
985 1129 1
988 1129 1
496 1130 1
500 1130 1
765 1130 1
770 1130 1
925 1130 1
932 1130 1
986 1130 1
989 1130 1
497 1131 1
501 1131 1
766 1131 1
771 1131 1
926 1131 1
933 1131 1
987 1131 1
990 1131 1
498 1132 1
502 1132 1
767 1132 1
772 1132 1
927 1132 1
934 1132 1
973 1132 1
988 1132 1
499 1133 1
503 1133 1
768 1133 1
773 1133 1
928 1133 1
935 1133 1
974 1133 1
989 1133 1
500 1134 1
504 1134 1
769 1134 1
774 1134 1
929 1134 1
936 1134 1
975 1134 1
990 1134 1
505 1135 1
519 1135 1
775 1135 1
788 1135 1
937 1135 1
948 1135 1
973 1135 1
978 1135 1
506 1136 1
520 1136 1
776 1136 1
789 1136 1
938 1136 1
949 1136 1
974 1136 1
979 1136 1
507 1137 1
521 1137 1
777 1137 1
790 1137 1
939 1137 1
950 1137 1
975 1137 1
980 1137 1
508 1138 1
522 1138 1
778 1138 1
791 1138 1
940 1138 1
951 1138 1
976 1138 1
981 1138 1
505 1139 1
509 1139 1
779 1139 1
792 1139 1
941 1139 1
952 1139 1
977 1139 1
982 1139 1
506 1140 1
510 1140 1
775 1140 1
780 1140 1
942 1140 1
953 1140 1
978 1140 1
983 1140 1
507 1141 1
511 1141 1
776 1141 1
781 1141 1
943 1141 1
954 1141 1
979 1141 1
984 1141 1
508 1142 1
512 1142 1
777 1142 1
782 1142 1
937 1142 1
944 1142 1
980 1142 1
985 1142 1
509 1143 1
513 1143 1
778 1143 1
783 1143 1
938 1143 1
945 1143 1
981 1143 1
986 1143 1
510 1144 1
514 1144 1
779 1144 1
784 1144 1
939 1144 1
946 1144 1
982 1144 1
987 1144 1
511 1145 1
515 1145 1
780 1145 1
785 1145 1
940 1145 1
947 1145 1
983 1145 1
988 1145 1
512 1146 1
516 1146 1
781 1146 1
786 1146 1
941 1146 1
948 1146 1
984 1146 1
989 1146 1
513 1147 1
517 1147 1
782 1147 1
787 1147 1
942 1147 1
949 1147 1
985 1147 1
990 1147 1
514 1148 1
518 1148 1
783 1148 1
788 1148 1
943 1148 1
950 1148 1
973 1148 1
986 1148 1
515 1149 1
519 1149 1
784 1149 1
789 1149 1
944 1149 1
951 1149 1
974 1149 1
987 1149 1
516 1150 1
520 1150 1
785 1150 1
790 1150 1
945 1150 1
952 1150 1
975 1150 1
988 1150 1
517 1151 1
521 1151 1
786 1151 1
791 1151 1
946 1151 1
953 1151 1
976 1151 1
989 1151 1
518 1152 1
522 1152 1
787 1152 1
792 1152 1
947 1152 1
954 1152 1
977 1152 1
990 1152 1
523 1153 1
537 1153 1
793 1153 1
806 1153 1
955 1153 1
966 1153 1
973 1153 1
980 1153 1
524 1154 1
538 1154 1
794 1154 1
807 1154 1
956 1154 1
967 1154 1
974 1154 1
981 1154 1
525 1155 1
539 1155 1
795 1155 1
808 1155 1
957 1155 1
968 1155 1
975 1155 1
982 1155 1
526 1156 1
540 1156 1
796 1156 1
809 1156 1
958 1156 1
969 1156 1
976 1156 1
983 1156 1
523 1157 1
527 1157 1
797 1157 1
810 1157 1
959 1157 1
970 1157 1
977 1157 1
984 1157 1
524 1158 1
528 1158 1
793 1158 1
798 1158 1
960 1158 1
971 1158 1
978 1158 1
985 1158 1
525 1159 1
529 1159 1
794 1159 1
799 1159 1
961 1159 1
972 1159 1
979 1159 1
986 1159 1
526 1160 1
530 1160 1
795 1160 1
800 1160 1
955 1160 1
962 1160 1
980 1160 1
987 1160 1
527 1161 1
531 1161 1
796 1161 1
801 1161 1
956 1161 1
963 1161 1
981 1161 1
988 1161 1
528 1162 1
532 1162 1
797 1162 1
802 1162 1
957 1162 1
964 1162 1
982 1162 1
989 1162 1
529 1163 1
533 1163 1
798 1163 1
803 1163 1
958 1163 1
965 1163 1
983 1163 1
990 1163 1
530 1164 1
534 1164 1
799 1164 1
804 1164 1
959 1164 1
966 1164 1
973 1164 1
984 1164 1
531 1165 1
535 1165 1
800 1165 1
805 1165 1
960 1165 1
967 1165 1
974 1165 1
985 1165 1
532 1166 1
536 1166 1
801 1166 1
806 1166 1
961 1166 1
968 1166 1
975 1166 1
986 1166 1
533 1167 1
537 1167 1
802 1167 1
807 1167 1
962 1167 1
969 1167 1
976 1167 1
987 1167 1
534 1168 1
538 1168 1
803 1168 1
808 1168 1
963 1168 1
970 1168 1
977 1168 1
988 1168 1
535 1169 1
539 1169 1
804 1169 1
809 1169 1
964 1169 1
971 1169 1
978 1169 1
989 1169 1
536 1170 1
540 1170 1
805 1170 1
810 1170 1
965 1170 1
972 1170 1
979 1170 1
990 1170 1
541 1171 1
555 1171 1
811 1171 1
824 1171 1
901 1171 1
913 1171 1
991 1171 1
993 1171 1
542 1172 1
556 1172 1
812 1172 1
825 1172 1
902 1172 1
914 1172 1
992 1172 1
994 1172 1
543 1173 1
557 1173 1
813 1173 1
826 1173 1
903 1173 1
915 1173 1
993 1173 1
995 1173 1
544 1174 1
558 1174 1
814 1174 1
827 1174 1
904 1174 1
916 1174 1
994 1174 1
996 1174 1
541 1175 1
545 1175 1
815 1175 1
828 1175 1
905 1175 1
917 1175 1
995 1175 1
997 1175 1
542 1176 1
546 1176 1
811 1176 1
816 1176 1
906 1176 1
918 1176 1
996 1176 1
998 1176 1
543 1177 1
547 1177 1
812 1177 1
817 1177 1
901 1177 1
907 1177 1
997 1177 1
999 1177 1
544 1178 1
548 1178 1
813 1178 1
818 1178 1
902 1178 1
908 1178 1
998 1178 1
1000 1178 1
545 1179 1
549 1179 1
814 1179 1
819 1179 1
903 1179 1
909 1179 1
999 1179 1
1001 1179 1
546 1180 1
550 1180 1
815 1180 1
820 1180 1
904 1180 1
910 1180 1
1000 1180 1
1002 1180 1
547 1181 1
551 1181 1
816 1181 1
821 1181 1
905 1181 1
911 1181 1
1001 1181 1
1003 1181 1
548 1182 1
552 1182 1
817 1182 1
822 1182 1
906 1182 1
912 1182 1
1002 1182 1
1004 1182 1
549 1183 1
553 1183 1
818 1183 1
823 1183 1
907 1183 1
913 1183 1
1003 1183 1
1005 1183 1
550 1184 1
554 1184 1
819 1184 1
824 1184 1
908 1184 1
914 1184 1
1004 1184 1
1006 1184 1
551 1185 1
555 1185 1
820 1185 1
825 1185 1
909 1185 1
915 1185 1
1005 1185 1
1007 1185 1
552 1186 1
556 1186 1
821 1186 1
826 1186 1
910 1186 1
916 1186 1
1006 1186 1
1008 1186 1
553 1187 1
557 1187 1
822 1187 1
827 1187 1
911 1187 1
917 1187 1
991 1187 1
1007 1187 1
554 1188 1
558 1188 1
823 1188 1
828 1188 1
912 1188 1
918 1188 1
992 1188 1
1008 1188 1
559 1189 1
573 1189 1
829 1189 1
842 1189 1
919 1189 1
931 1189 1
991 1189 1
994 1189 1
560 1190 1
574 1190 1
830 1190 1
843 1190 1
920 1190 1
932 1190 1
992 1190 1
995 1190 1
561 1191 1
575 1191 1
831 1191 1
844 1191 1
921 1191 1
933 1191 1
993 1191 1
996 1191 1
562 1192 1
576 1192 1
832 1192 1
845 1192 1
922 1192 1
934 1192 1
994 1192 1
997 1192 1
559 1193 1
563 1193 1
833 1193 1
846 1193 1
923 1193 1
935 1193 1
995 1193 1
998 1193 1
560 1194 1
564 1194 1
829 1194 1
834 1194 1
924 1194 1
936 1194 1
996 1194 1
999 1194 1
561 1195 1
565 1195 1
830 1195 1
835 1195 1
919 1195 1
925 1195 1
997 1195 1
1000 1195 1
562 1196 1
566 1196 1
831 1196 1
836 1196 1
920 1196 1
926 1196 1
998 1196 1
1001 1196 1
563 1197 1
567 1197 1
832 1197 1
837 1197 1
921 1197 1
927 1197 1
999 1197 1
1002 1197 1
564 1198 1
568 1198 1
833 1198 1
838 1198 1
922 1198 1
928 1198 1
1000 1198 1
1003 1198 1
565 1199 1
569 1199 1
834 1199 1
839 1199 1
923 1199 1
929 1199 1
1001 1199 1
1004 1199 1
566 1200 1
570 1200 1
835 1200 1
840 1200 1
924 1200 1
930 1200 1
1002 1200 1
1005 1200 1
567 1201 1
571 1201 1
836 1201 1
841 1201 1
925 1201 1
931 1201 1
1003 1201 1
1006 1201 1
568 1202 1
572 1202 1
837 1202 1
842 1202 1
926 1202 1
932 1202 1
1004 1202 1
1007 1202 1
569 1203 1
573 1203 1
838 1203 1
843 1203 1
927 1203 1
933 1203 1
1005 1203 1
1008 1203 1
570 1204 1
574 1204 1
839 1204 1
844 1204 1
928 1204 1
934 1204 1
991 1204 1
1006 1204 1
571 1205 1
575 1205 1
840 1205 1
845 1205 1
929 1205 1
935 1205 1
992 1205 1
1007 1205 1
572 1206 1
576 1206 1
841 1206 1
846 1206 1
930 1206 1
936 1206 1
993 1206 1
1008 1206 1
577 1207 1
591 1207 1
847 1207 1
860 1207 1
937 1207 1
949 1207 1
991 1207 1
996 1207 1
578 1208 1
592 1208 1
848 1208 1
861 1208 1
938 1208 1
950 1208 1
992 1208 1
997 1208 1
579 1209 1
593 1209 1
849 1209 1
862 1209 1
939 1209 1
951 1209 1
993 1209 1
998 1209 1
580 1210 1
594 1210 1
850 1210 1
863 1210 1
940 1210 1
952 1210 1
994 1210 1
999 1210 1
577 1211 1
581 1211 1
851 1211 1
864 1211 1
941 1211 1
953 1211 1
995 1211 1
1000 1211 1
578 1212 1
582 1212 1
847 1212 1
852 1212 1
942 1212 1
954 1212 1
996 1212 1
1001 1212 1
579 1213 1
583 1213 1
848 1213 1
853 1213 1
937 1213 1
943 1213 1
997 1213 1
1002 1213 1
580 1214 1
584 1214 1
849 1214 1
854 1214 1
938 1214 1
944 1214 1
998 1214 1
1003 1214 1
581 1215 1
585 1215 1
850 1215 1
855 1215 1
939 1215 1
945 1215 1
999 1215 1
1004 1215 1
582 1216 1
586 1216 1
851 1216 1
856 1216 1
940 1216 1
946 1216 1
1000 1216 1
1005 1216 1
583 1217 1
587 1217 1
852 1217 1
857 1217 1
941 1217 1
947 1217 1
1001 1217 1
1006 1217 1
584 1218 1
588 1218 1
853 1218 1
858 1218 1
942 1218 1
948 1218 1
1002 1218 1
1007 1218 1
585 1219 1
589 1219 1
854 1219 1
859 1219 1
943 1219 1
949 1219 1
1003 1219 1
1008 1219 1
586 1220 1
590 1220 1
855 1220 1
860 1220 1
944 1220 1
950 1220 1
991 1220 1
1004 1220 1
587 1221 1
591 1221 1
856 1221 1
861 1221 1
945 1221 1
951 1221 1
992 1221 1
1005 1221 1
588 1222 1
592 1222 1
857 1222 1
862 1222 1
946 1222 1
952 1222 1
993 1222 1
1006 1222 1
589 1223 1
593 1223 1
858 1223 1
863 1223 1
947 1223 1
953 1223 1
994 1223 1
1007 1223 1
590 1224 1
594 1224 1
859 1224 1
864 1224 1
948 1224 1
954 1224 1
995 1224 1
1008 1224 1
595 1225 1
609 1225 1
865 1225 1
878 1225 1
955 1225 1
967 1225 1
991 1225 1
998 1225 1
596 1226 1
610 1226 1
866 1226 1
879 1226 1
956 1226 1
968 1226 1
992 1226 1
999 1226 1
597 1227 1
611 1227 1
867 1227 1
880 1227 1
957 1227 1
969 1227 1
993 1227 1
1000 1227 1
598 1228 1
612 1228 1
868 1228 1
881 1228 1
958 1228 1
970 1228 1
994 1228 1
1001 1228 1
595 1229 1
599 1229 1
869 1229 1
882 1229 1
959 1229 1
971 1229 1
995 1229 1
1002 1229 1
596 1230 1
600 1230 1
865 1230 1
870 1230 1
960 1230 1
972 1230 1
996 1230 1
1003 1230 1
597 1231 1
601 1231 1
866 1231 1
871 1231 1
955 1231 1
961 1231 1
997 1231 1
1004 1231 1
598 1232 1
602 1232 1
867 1232 1
872 1232 1
956 1232 1
962 1232 1
998 1232 1
1005 1232 1
599 1233 1
603 1233 1
868 1233 1
873 1233 1
957 1233 1
963 1233 1
999 1233 1
1006 1233 1
600 1234 1
604 1234 1
869 1234 1
874 1234 1
958 1234 1
964 1234 1
1000 1234 1
1007 1234 1
601 1235 1
605 1235 1
870 1235 1
875 1235 1
959 1235 1
965 1235 1
1001 1235 1
1008 1235 1
602 1236 1
606 1236 1
871 1236 1
876 1236 1
960 1236 1
966 1236 1
991 1236 1
1002 1236 1
603 1237 1
607 1237 1
872 1237 1
877 1237 1
961 1237 1
967 1237 1
992 1237 1
1003 1237 1
604 1238 1
608 1238 1
873 1238 1
878 1238 1
962 1238 1
968 1238 1
993 1238 1
1004 1238 1
605 1239 1
609 1239 1
874 1239 1
879 1239 1
963 1239 1
969 1239 1
994 1239 1
1005 1239 1
606 1240 1
610 1240 1
875 1240 1
880 1240 1
964 1240 1
970 1240 1
995 1240 1
1006 1240 1
607 1241 1
611 1241 1
876 1241 1
881 1241 1
965 1241 1
971 1241 1
996 1241 1
1007 1241 1
608 1242 1
612 1242 1
877 1242 1
882 1242 1
966 1242 1
972 1242 1
997 1242 1
1008 1242 1
613 1243 1
627 1243 1
883 1243 1
896 1243 1
973 1243 1
985 1243 1
991 1243 1
1002 1243 1
614 1244 1
628 1244 1
884 1244 1
897 1244 1
974 1244 1
986 1244 1
992 1244 1
1003 1244 1
615 1245 1
629 1245 1
885 1245 1
898 1245 1
975 1245 1
987 1245 1
993 1245 1
1004 1245 1
616 1246 1
630 1246 1
886 1246 1
899 1246 1
976 1246 1
988 1246 1
994 1246 1
1005 1246 1
613 1247 1
617 1247 1
887 1247 1
900 1247 1
977 1247 1
989 1247 1
995 1247 1
1006 1247 1
614 1248 1
618 1248 1
883 1248 1
888 1248 1
978 1248 1
990 1248 1
996 1248 1
1007 1248 1
615 1249 1
619 1249 1
884 1249 1
889 1249 1
973 1249 1
979 1249 1
997 1249 1
1008 1249 1
616 1250 1
620 1250 1
885 1250 1
890 1250 1
974 1250 1
980 1250 1
991 1250 1
998 1250 1
617 1251 1
621 1251 1
886 1251 1
891 1251 1
975 1251 1
981 1251 1
992 1251 1
999 1251 1
618 1252 1
622 1252 1
887 1252 1
892 1252 1
976 1252 1
982 1252 1
993 1252 1
1000 1252 1
619 1253 1
623 1253 1
888 1253 1
893 1253 1
977 1253 1
983 1253 1
994 1253 1
1001 1253 1
620 1254 1
624 1254 1
889 1254 1
894 1254 1
978 1254 1
984 1254 1
995 1254 1
1002 1254 1
621 1255 1
625 1255 1
890 1255 1
895 1255 1
979 1255 1
985 1255 1
996 1255 1
1003 1255 1
622 1256 1
626 1256 1
891 1256 1
896 1256 1
980 1256 1
986 1256 1
997 1256 1
1004 1256 1
623 1257 1
627 1257 1
892 1257 1
897 1257 1
981 1257 1
987 1257 1
998 1257 1
1005 1257 1
624 1258 1
628 1258 1
893 1258 1
898 1258 1
982 1258 1
988 1258 1
999 1258 1
1006 1258 1
625 1259 1
629 1259 1
894 1259 1
899 1259 1
983 1259 1
989 1259 1
1000 1259 1
1007 1259 1
626 1260 1
630 1260 1
895 1260 1
900 1260 1
984 1260 1
990 1260 1
1001 1260 1
1008 1260 1
