%%MatrixMarket matrix coordinate integer general
% Binary matrix; one-based indices; arithmetic over GF(2)
1008 1260 10080
1 1 1
8 1 1
19 1 1
25 1 1
109 1 1
114 1 1
379 1 1
383 1 1
2 2 1
9 2 1
20 2 1
26 2 1
110 2 1
115 2 1
380 2 1
384 2 1
3 3 1
10 3 1
21 3 1
27 3 1
111 3 1
116 3 1
381 3 1
385 3 1
4 4 1
11 4 1
22 4 1
28 4 1
112 4 1
117 4 1
382 4 1
386 4 1
5 5 1
12 5 1
23 5 1
29 5 1
113 5 1
118 5 1
383 5 1
387 5 1
6 6 1
13 6 1
24 6 1
30 6 1
114 6 1
119 6 1
384 6 1
388 6 1
7 7 1
14 7 1
25 7 1
31 7 1
115 7 1
120 7 1
385 7 1
389 7 1
8 8 1
15 8 1
26 8 1
32 8 1
116 8 1
121 8 1
386 8 1
390 8 1
9 9 1
16 9 1
27 9 1
33 9 1
117 9 1
122 9 1
387 9 1
391 9 1
10 10 1
17 10 1
28 10 1
34 10 1
118 10 1
123 10 1
388 10 1
392 10 1
11 11 1
18 11 1
29 11 1
35 11 1
119 11 1
124 11 1
389 11 1
393 11 1
1 12 1
12 12 1
30 12 1
36 12 1
120 12 1
125 12 1
390 12 1
394 12 1
2 13 1
13 13 1
19 13 1
31 13 1
121 13 1
126 13 1
391 13 1
395 13 1
3 14 1
14 14 1
20 14 1
32 14 1
109 14 1
122 14 1
392 14 1
396 14 1
4 15 1
15 15 1
21 15 1
33 15 1
110 15 1
123 15 1
379 15 1
393 15 1
5 16 1
16 16 1
22 16 1
34 16 1
111 16 1
124 16 1
380 16 1
394 16 1
6 17 1
17 17 1
23 17 1
35 17 1
112 17 1
125 17 1
381 17 1
395 17 1
7 18 1
18 18 1
24 18 1
36 18 1
113 18 1
126 18 1
382 18 1
396 18 1
1 19 1
12 19 1
37 19 1
43 19 1
127 19 1
132 19 1
397 19 1
401 19 1
2 20 1
13 20 1
38 20 1
44 20 1
128 20 1
133 20 1
398 20 1
402 20 1
3 21 1
14 21 1
39 21 1
45 21 1
129 21 1
134 21 1
399 21 1
403 21 1
4 22 1
15 22 1
40 22 1
46 22 1
130 22 1
135 22 1
400 22 1
404 22 1
5 23 1
16 23 1
41 23 1
47 23 1
131 23 1
136 23 1
401 23 1
405 23 1
6 24 1
17 24 1
42 24 1
48 24 1
132 24 1
137 24 1
402 24 1
406 24 1
7 25 1
18 25 1
43 25 1
49 25 1
133 25 1
138 25 1
403 25 1
407 25 1
1 26 1
8 26 1
44 26 1
50 26 1
134 26 1
139 26 1
404 26 1
408 26 1
2 27 1
9 27 1
45 27 1
51 27 1
135 27 1
140 27 1
405 27 1
409 27 1
3 28 1
10 28 1
46 28 1
52 28 1
136 28 1
141 28 1
406 28 1
410 28 1
4 29 1
11 29 1
47 29 1
53 29 1
137 29 1
142 29 1
407 29 1
411 29 1
5 30 1
12 30 1
48 30 1
54 30 1
138 30 1
143 30 1
408 30 1
412 30 1
6 31 1
13 31 1
37 31 1
49 31 1
139 31 1
144 31 1
409 31 1
413 31 1
7 32 1
14 32 1
38 32 1
50 32 1
127 32 1
140 32 1
410 32 1
414 32 1
8 33 1
15 33 1
39 33 1
51 33 1
128 33 1
141 33 1
397 33 1
411 33 1
9 34 1
16 34 1
40 34 1
52 34 1
129 34 1
142 34 1
398 34 1
412 34 1
10 35 1
17 35 1
41 35 1
53 35 1
130 35 1
143 35 1
399 35 1
413 35 1
11 36 1
18 36 1
42 36 1
54 36 1
131 36 1
144 36 1
400 36 1
414 36 1
1 37 1
14 37 1
55 37 1
61 37 1
145 37 1
150 37 1
415 37 1
419 37 1
2 38 1
15 38 1
56 38 1
62 38 1
146 38 1
151 38 1
416 38 1
420 38 1
3 39 1
16 39 1
57 39 1
63 39 1
147 39 1
152 39 1
417 39 1
421 39 1
4 40 1
17 40 1
58 40 1
64 40 1
148 40 1
153 40 1
418 40 1
422 40 1
5 41 1
18 41 1
59 41 1
65 41 1
149 41 1
154 41 1
419 41 1
423 41 1
1 42 1
6 42 1
60 42 1
66 42 1
150 42 1
155 42 1
420 42 1
424 42 1
2 43 1
7 43 1
61 43 1
67 43 1
151 43 1
156 43 1
421 43 1
425 43 1
3 44 1
8 44 1
62 44 1
68 44 1
152 44 1
157 44 1
422 44 1
426 44 1
4 45 1
9 45 1
63 45 1
69 45 1
153 45 1
158 45 1
423 45 1
427 45 1
5 46 1
10 46 1
64 46 1
70 46 1
154 46 1
159 46 1
424 46 1
428 46 1
6 47 1
11 47 1
65 47 1
71 47 1
155 47 1
160 47 1
425 47 1
429 47 1
7 48 1
12 48 1
66 48 1
72 48 1
156 48 1
161 48 1
426 48 1
430 48 1
8 49 1
13 49 1
55 49 1
67 49 1
157 49 1
162 49 1
427 49 1
431 49 1
9 50 1
14 50 1
56 50 1
68 50 1
145 50 1
158 50 1
428 50 1
432 50 1
10 51 1
15 51 1
57 51 1
69 51 1
146 51 1
159 51 1
415 51 1
429 51 1
11 52 1
16 52 1
58 52 1
70 52 1
147 52 1
160 52 1
416 52 1
430 52 1
12 53 1
17 53 1
59 53 1
71 53 1
148 53 1
161 53 1
417 53 1
431 53 1
13 54 1
18 54 1
60 54 1
72 54 1
149 54 1
162 54 1
418 54 1
432 54 1
1 55 1
16 55 1
73 55 1
79 55 1
163 55 1
168 55 1
433 55 1
437 55 1
2 56 1
17 56 1
74 56 1
80 56 1
164 56 1
169 56 1
434 56 1
438 56 1
3 57 1
18 57 1
75 57 1
81 57 1
165 57 1
170 57 1
435 57 1
439 57 1
1 58 1
4 58 1
76 58 1
82 58 1
166 58 1
171 58 1
436 58 1
440 58 1
2 59 1
5 59 1
77 59 1
83 59 1
167 59 1
172 59 1
437 59 1
441 59 1
3 60 1
6 60 1
78 60 1
84 60 1
168 60 1
173 60 1
438 60 1
442 60 1
4 61 1
7 61 1
79 61 1
85 61 1
169 61 1
174 61 1
439 61 1
443 61 1
5 62 1
8 62 1
80 62 1
86 62 1
170 62 1
175 62 1
440 62 1
444 62 1
6 63 1
9 63 1
81 63 1
87 63 1
171 63 1
176 63 1
441 63 1
445 63 1
7 64 1
10 64 1
82 64 1
88 64 1
172 64 1
177 64 1
442 64 1
446 64 1
8 65 1
11 65 1
83 65 1
89 65 1
173 65 1
178 65 1
443 65 1
447 65 1
9 66 1
12 66 1
84 66 1
90 66 1
174 66 1
179 66 1
444 66 1
448 66 1
10 67 1
13 67 1
73 67 1
85 67 1
175 67 1
180 67 1
445 67 1
449 67 1
11 68 1
14 68 1
74 68 1
86 68 1
163 68 1
176 68 1
446 68 1
450 68 1
12 69 1
15 69 1
75 69 1
87 69 1
164 69 1
177 69 1
433 69 1
447 69 1
13 70 1
16 70 1
76 70 1
88 70 1
165 70 1
178 70 1
434 70 1
448 70 1
14 71 1
17 71 1
77 71 1
89 71 1
166 71 1
179 71 1
435 71 1
449 71 1
15 72 1
18 72 1
78 72 1
90 72 1
167 72 1
180 72 1
436 72 1
450 72 1
1 73 1
17 73 1
91 73 1
97 73 1
181 73 1
186 73 1
451 73 1
455 73 1
2 74 1
18 74 1
92 74 1
98 74 1
182 74 1
187 74 1
452 74 1
456 74 1
1 75 1
3 75 1
93 75 1
99 75 1
183 75 1
188 75 1
453 75 1
457 75 1
2 76 1
4 76 1
94 76 1
100 76 1
184 76 1
189 76 1
454 76 1
458 76 1
3 77 1
5 77 1
95 77 1
101 77 1
185 77 1
190 77 1
455 77 1
459 77 1
4 78 1
6 78 1
96 78 1
102 78 1
186 78 1
191 78 1
456 78 1
460 78 1
5 79 1
7 79 1
97 79 1
103 79 1
187 79 1
192 79 1
457 79 1
461 79 1
6 80 1
8 80 1
98 80 1
104 80 1
188 80 1
193 80 1
458 80 1
462 80 1
7 81 1
9 81 1
99 81 1
105 81 1
189 81 1
194 81 1
459 81 1
463 81 1
8 82 1
10 82 1
100 82 1
106 82 1
190 82 1
195 82 1
460 82 1
464 82 1
9 83 1
11 83 1
101 83 1
107 83 1
191 83 1
196 83 1
461 83 1
465 83 1
10 84 1
12 84 1
102 84 1
108 84 1
192 84 1
197 84 1
462 84 1
466 84 1
11 85 1
13 85 1
91 85 1
103 85 1
193 85 1
198 85 1
463 85 1
467 85 1
12 86 1
14 86 1
92 86 1
104 86 1
181 86 1
194 86 1
464 86 1
468 86 1
13 87 1
15 87 1
93 87 1
105 87 1
182 87 1
195 87 1
451 87 1
465 87 1
14 88 1
16 88 1
94 88 1
106 88 1
183 88 1
196 88 1
452 88 1
466 88 1
15 89 1
17 89 1
95 89 1
107 89 1
184 89 1
197 89 1
453 89 1
467 89 1
16 90 1
18 90 1
96 90 1
108 90 1
185 90 1
198 90 1
454 90 1
468 90 1
19 91 1
30 91 1
37 91 1
44 91 1
199 91 1
204 91 1
469 91 1
473 91 1
20 92 1
31 92 1
38 92 1
45 92 1
200 92 1
205 92 1
470 92 1
474 92 1
21 93 1
32 93 1
39 93 1
46 93 1
201 93 1
206 93 1
471 93 1
475 93 1
22 94 1
33 94 1
40 94 1
47 94 1
202 94 1
207 94 1
472 94 1
476 94 1
23 95 1
34 95 1
41 95 1
48 95 1
203 95 1
208 95 1
473 95 1
477 95 1
24 96 1
35 96 1
42 96 1
49 96 1
204 96 1
209 96 1
474 96 1
478 96 1
25 97 1
36 97 1
43 97 1
50 97 1
205 97 1
210 97 1
475 97 1
479 97 1
19 98 1
26 98 1
44 98 1
51 98 1
206 98 1
211 98 1
476 98 1
480 98 1
20 99 1
27 99 1
45 99 1
52 99 1
207 99 1
212 99 1
477 99 1
481 99 1
21 100 1
28 100 1
46 100 1
53 100 1
208 100 1
213 100 1
478 100 1
482 100 1
22 101 1
29 101 1
47 101 1
54 101 1
209 101 1
214 101 1
479 101 1
483 101 1
23 102 1
30 102 1
37 102 1
48 102 1
210 102 1
215 102 1
480 102 1
484 102 1
24 103 1
31 103 1
38 103 1
49 103 1
211 103 1
216 103 1
481 103 1
485 103 1
25 104 1
32 104 1
39 104 1
50 104 1
199 104 1
212 104 1
482 104 1
486 104 1
26 105 1
33 105 1
40 105 1
51 105 1
200 105 1
213 105 1
469 105 1
483 105 1
27 106 1
34 106 1
41 106 1
52 106 1
201 106 1
214 106 1
470 106 1
484 106 1
28 107 1
35 107 1
42 107 1
53 107 1
202 107 1
215 107 1
471 107 1
485 107 1
29 108 1
36 108 1
43 108 1
54 108 1
203 108 1
216 108 1
472 108 1
486 108 1
19 109 1
32 109 1
55 109 1
62 109 1
217 109 1
222 109 1
487 109 1
491 109 1
20 110 1
33 110 1
56 110 1
63 110 1
218 110 1
223 110 1
488 110 1
492 110 1
21 111 1
34 111 1
57 111 1
64 111 1
219 111 1
224 111 1
489 111 1
493 111 1
22 112 1
35 112 1
58 112 1
65 112 1
220 112 1
225 112 1
490 112 1
494 112 1
23 113 1
36 113 1
59 113 1
66 113 1
221 113 1
226 113 1
491 113 1
495 113 1
19 114 1
24 114 1
60 114 1
67 114 1
222 114 1
227 114 1
492 114 1
496 114 1
20 115 1
25 115 1
61 115 1
68 115 1
223 115 1
228 115 1
493 115 1
497 115 1
21 116 1
26 116 1
62 116 1
69 116 1
224 116 1
229 116 1
494 116 1
498 116 1
22 117 1
27 117 1
63 117 1
70 117 1
225 117 1
230 117 1
495 117 1
499 117 1
23 118 1
28 118 1
64 118 1
71 118 1
226 118 1
231 118 1
496 118 1
500 118 1
24 119 1
29 119 1
65 119 1
72 119 1
227 119 1
232 119 1
497 119 1
501 119 1
25 120 1
30 120 1
55 120 1
66 120 1
228 120 1
233 120 1
498 120 1
502 120 1
26 121 1
31 121 1
56 121 1
67 121 1
229 121 1
234 121 1
499 121 1
503 121 1
27 122 1
32 122 1
57 122 1
68 122 1
217 122 1
230 122 1
500 122 1
504 122 1
28 123 1
33 123 1
58 123 1
69 123 1
218 123 1
231 123 1
487 123 1
501 123 1
29 124 1
34 124 1
59 124 1
70 124 1
219 124 1
232 124 1
488 124 1
502 124 1
30 125 1
35 125 1
60 125 1
71 125 1
220 125 1
233 125 1
489 125 1
503 125 1
31 126 1
36 126 1
61 126 1
72 126 1
221 126 1
234 126 1
490 126 1
504 126 1
19 127 1
34 127 1
73 127 1
80 127 1
235 127 1
240 127 1
505 127 1
509 127 1
20 128 1
35 128 1
74 128 1
81 128 1
236 128 1
241 128 1
506 128 1
510 128 1
21 129 1
36 129 1
75 129 1
82 129 1
237 129 1
242 129 1
507 129 1
511 129 1
19 130 1
22 130 1
76 130 1
83 130 1
238 130 1
243 130 1
508 130 1
512 130 1
20 131 1
23 131 1
77 131 1
84 131 1
239 131 1
244 131 1
509 131 1
513 131 1
21 132 1
24 132 1
78 132 1
85 132 1
240 132 1
245 132 1
510 132 1
514 132 1
22 133 1
25 133 1
79 133 1
86 133 1
241 133 1
246 133 1
511 133 1
515 133 1
23 134 1
26 134 1
80 134 1
87 134 1
242 134 1
247 134 1
512 134 1
516 134 1
24 135 1
27 135 1
81 135 1
88 135 1
243 135 1
248 135 1
513 135 1
517 135 1
25 136 1
28 136 1
82 136 1
89 136 1
244 136 1
249 136 1
514 136 1
518 136 1
26 137 1
29 137 1
83 137 1
90 137 1
245 137 1
250 137 1
515 137 1
519 137 1
27 138 1
30 138 1
73 138 1
84 138 1
246 138 1
251 138 1
516 138 1
520 138 1
28 139 1
31 139 1
74 139 1
85 139 1
247 139 1
252 139 1
517 139 1
521 139 1
29 140 1
32 140 1
75 140 1
86 140 1
235 140 1
248 140 1
518 140 1
522 140 1
30 141 1
33 141 1
76 141 1
87 141 1
236 141 1
249 141 1
505 141 1
519 141 1
31 142 1
34 142 1
77 142 1
88 142 1
237 142 1
250 142 1
506 142 1
520 142 1
32 143 1
35 143 1
78 143 1
89 143 1
238 143 1
251 143 1
507 143 1
521 143 1
33 144 1
36 144 1
79 144 1
90 144 1
239 144 1
252 144 1
508 144 1
522 144 1
19 145 1
35 145 1
91 145 1
98 145 1
253 145 1
258 145 1
523 145 1
527 145 1
20 146 1
36 146 1
92 146 1
99 146 1
254 146 1
259 146 1
524 146 1
528 146 1
19 147 1
21 147 1
93 147 1
100 147 1
255 147 1
260 147 1
525 147 1
529 147 1
20 148 1
22 148 1
94 148 1
101 148 1
256 148 1
261 148 1
526 148 1
530 148 1
21 149 1
23 149 1
95 149 1
102 149 1
257 149 1
262 149 1
527 149 1
531 149 1
22 150 1
24 150 1
96 150 1
103 150 1
258 150 1
263 150 1
528 150 1
532 150 1
23 151 1
25 151 1
97 151 1
104 151 1
259 151 1
264 151 1
529 151 1
533 151 1
24 152 1
26 152 1
98 152 1
105 152 1
260 152 1
265 152 1
530 152 1
534 152 1
25 153 1
27 153 1
99 153 1
106 153 1
261 153 1
266 153 1
531 153 1
535 153 1
26 154 1
28 154 1
100 154 1
107 154 1
262 154 1
267 154 1
532 154 1
536 154 1
27 155 1
29 155 1
101 155 1
108 155 1
263 155 1
268 155 1
533 155 1
537 155 1
28 156 1
30 156 1
91 156 1
102 156 1
264 156 1
269 156 1
534 156 1
538 156 1
29 157 1
31 157 1
92 157 1
103 157 1
265 157 1
270 157 1
535 157 1
539 157 1
30 158 1
32 158 1
93 158 1
104 158 1
253 158 1
266 158 1
536 158 1
540 158 1
31 159 1
33 159 1
94 159 1
105 159 1
254 159 1
267 159 1
523 159 1
537 159 1
32 160 1
34 160 1
95 160 1
106 160 1
255 160 1
268 160 1
524 160 1
538 160 1
33 161 1
35 161 1
96 161 1
107 161 1
256 161 1
269 161 1
525 161 1
539 161 1
34 162 1
36 162 1
97 162 1
108 162 1
257 162 1
270 162 1
526 162 1
540 162 1
37 163 1
50 163 1
55 163 1
66 163 1
271 163 1
276 163 1
541 163 1
545 163 1
38 164 1
51 164 1
56 164 1
67 164 1
272 164 1
277 164 1
542 164 1
546 164 1
39 165 1
52 165 1
57 165 1
68 165 1
273 165 1
278 165 1
543 165 1
547 165 1
40 166 1
53 166 1
58 166 1
69 166 1
274 166 1
279 166 1
544 166 1
548 166 1
41 167 1
54 167 1
59 167 1
70 167 1
275 167 1
280 167 1
545 167 1
549 167 1
37 168 1
42 168 1
60 168 1
71 168 1
276 168 1
281 168 1
546 168 1
550 168 1
38 169 1
43 169 1
61 169 1
72 169 1
277 169 1
282 169 1
547 169 1
551 169 1
39 170 1
44 170 1
55 170 1
62 170 1
278 170 1
283 170 1
548 170 1
552 170 1
40 171 1
45 171 1
56 171 1
63 171 1
279 171 1
284 171 1
549 171 1
553 171 1
41 172 1
46 172 1
57 172 1
64 172 1
280 172 1
285 172 1
550 172 1
554 172 1
42 173 1
47 173 1
58 173 1
65 173 1
281 173 1
286 173 1
551 173 1
555 173 1
43 174 1
48 174 1
59 174 1
66 174 1
282 174 1
287 174 1
552 174 1
556 174 1
44 175 1
49 175 1
60 175 1
67 175 1
283 175 1
288 175 1
553 175 1
557 175 1
45 176 1
50 176 1
61 176 1
68 176 1
271 176 1
284 176 1
554 176 1
558 176 1
46 177 1
51 177 1
62 177 1
69 177 1
272 177 1
285 177 1
541 177 1
555 177 1
47 178 1
52 178 1
63 178 1
70 178 1
273 178 1
286 178 1
542 178 1
556 178 1
48 179 1
53 179 1
64 179 1
71 179 1
274 179 1
287 179 1
543 179 1
557 179 1
49 180 1
54 180 1
65 180 1
72 180 1
275 180 1
288 180 1
544 180 1
558 180 1
37 181 1
52 181 1
73 181 1
84 181 1
289 181 1
294 181 1
559 181 1
563 181 1
38 182 1
53 182 1
74 182 1
85 182 1
290 182 1
295 182 1
560 182 1
564 182 1
39 183 1
54 183 1
75 183 1
86 183 1
291 183 1
296 183 1
561 183 1
565 183 1
37 184 1
40 184 1
76 184 1
87 184 1
292 184 1
297 184 1
562 184 1
566 184 1
38 185 1
41 185 1
77 185 1
88 185 1
293 185 1
298 185 1
563 185 1
567 185 1
39 186 1
42 186 1
78 186 1
89 186 1
294 186 1
299 186 1
564 186 1
568 186 1
40 187 1
43 187 1
79 187 1
90 187 1
295 187 1
300 187 1
565 187 1
569 187 1
41 188 1
44 188 1
73 188 1
80 188 1
296 188 1
301 188 1
566 188 1
570 188 1
42 189 1
45 189 1
74 189 1
81 189 1
297 189 1
302 189 1
567 189 1
571 189 1
43 190 1
46 190 1
75 190 1
82 190 1
298 190 1
303 190 1
568 190 1
572 190 1
44 191 1
47 191 1
76 191 1
83 191 1
299 191 1
304 191 1
569 191 1
573 191 1
45 192 1
48 192 1
77 192 1
84 192 1
300 192 1
305 192 1
570 192 1
574 192 1
46 193 1
49 193 1
78 193 1
85 193 1
301 193 1
306 193 1
571 193 1
575 193 1
47 194 1
50 194 1
79 194 1
86 194 1
289 194 1
302 194 1
572 194 1
576 194 1
48 195 1
51 195 1
80 195 1
87 195 1
290 195 1
303 195 1
559 195 1
573 195 1
49 196 1
52 196 1
81 196 1
88 196 1
291 196 1
304 196 1
560 196 1
574 196 1
50 197 1
53 197 1
82 197 1
89 197 1
292 197 1
305 197 1
561 197 1
575 197 1
51 198 1
54 198 1
83 198 1
90 198 1
293 198 1
306 198 1
562 198 1
576 198 1
37 199 1
53 199 1
91 199 1
102 199 1
307 199 1
312 199 1
577 199 1
581 199 1
38 200 1
54 200 1
92 200 1
103 200 1
308 200 1
313 200 1
578 200 1
582 200 1
37 201 1
39 201 1
93 201 1
104 201 1
309 201 1
314 201 1
579 201 1
583 201 1
38 202 1
40 202 1
94 202 1
105 202 1
310 202 1
315 202 1
580 202 1
584 202 1
39 203 1
41 203 1
95 203 1
106 203 1
311 203 1
316 203 1
581 203 1
585 203 1
40 204 1
42 204 1
96 204 1
107 204 1
312 204 1
317 204 1
582 204 1
586 204 1
41 205 1
43 205 1
97 205 1
108 205 1
313 205 1
318 205 1
583 205 1
587 205 1
42 206 1
44 206 1
91 206 1
98 206 1
314 206 1
319 206 1
584 206 1
588 206 1
43 207 1
45 207 1
92 207 1
99 207 1
315 207 1
320 207 1
585 207 1
589 207 1
44 208 1
46 208 1
93 208 1
100 208 1
316 208 1
321 208 1
586 208 1
590 208 1
45 209 1
47 209 1
94 209 1
101 209 1
317 209 1
322 209 1
587 209 1
591 209 1
46 210 1
48 210 1
95 210 1
102 210 1
318 210 1
323 210 1
588 210 1
592 210 1
47 211 1
49 211 1
96 211 1
103 211 1
319 211 1
324 211 1
589 211 1
593 211 1
48 212 1
50 212 1
97 212 1
104 212 1
307 212 1
320 212 1
590 212 1
594 212 1
49 213 1
51 213 1
98 213 1
105 213 1
308 213 1
321 213 1
577 213 1
591 213 1
50 214 1
52 214 1
99 214 1
106 214 1
309 214 1
322 214 1
578 214 1
592 214 1
51 215 1
53 215 1
100 215 1
107 215 1
310 215 1
323 215 1
579 215 1
593 215 1
52 216 1
54 216 1
101 216 1
108 216 1
311 216 1
324 216 1
580 216 1
594 216 1
55 217 1
70 217 1
73 217 1
86 217 1
325 217 1
330 217 1
595 217 1
599 217 1
56 218 1
71 218 1
74 218 1
87 218 1
326 218 1
331 218 1
596 218 1
600 218 1
57 219 1
72 219 1
75 219 1
88 219 1
327 219 1
332 219 1
597 219 1
601 219 1
55 220 1
58 220 1
76 220 1
89 220 1
328 220 1
333 220 1
598 220 1
602 220 1
56 221 1
59 221 1
77 221 1
90 221 1
329 221 1
334 221 1
599 221 1
603 221 1
57 222 1
60 222 1
73 222 1
78 222 1
330 222 1
335 222 1
600 222 1
604 222 1
58 223 1
61 223 1
74 223 1
79 223 1
331 223 1
336 223 1
601 223 1
605 223 1
59 224 1
62 224 1
75 224 1
80 224 1
332 224 1
337 224 1
602 224 1
606 224 1
60 225 1
63 225 1
76 225 1
81 225 1
333 225 1
338 225 1
603 225 1
607 225 1
61 226 1
64 226 1
77 226 1
82 226 1
334 226 1
339 226 1
604 226 1
608 226 1
62 227 1
65 227 1
78 227 1
83 227 1
335 227 1
340 227 1
605 227 1
609 227 1
63 228 1
66 228 1
79 228 1
84 228 1
336 228 1
341 228 1
606 228 1
610 228 1
64 229 1
67 229 1
80 229 1
85 229 1
337 229 1
342 229 1
607 229 1
611 229 1
65 230 1
68 230 1
81 230 1
86 230 1
325 230 1
338 230 1
608 230 1
612 230 1
66 231 1
69 231 1
82 231 1
87 231 1
326 231 1
339 231 1
595 231 1
609 231 1
67 232 1
70 232 1
83 232 1
88 232 1
327 232 1
340 232 1
596 232 1
610 232 1
68 233 1
71 233 1
84 233 1
89 233 1
328 233 1
341 233 1
597 233 1
611 233 1
69 234 1
72 234 1
85 234 1
90 234 1
329 234 1
342 234 1
598 234 1
612 234 1
55 235 1
71 235 1
91 235 1
104 235 1
343 235 1
348 235 1
613 235 1
617 235 1
56 236 1
72 236 1
92 236 1
105 236 1
344 236 1
349 236 1
614 236 1
618 236 1
55 237 1
57 237 1
93 237 1
106 237 1
345 237 1
350 237 1
615 237 1
619 237 1
56 238 1
58 238 1
94 238 1
107 238 1
346 238 1
351 238 1
616 238 1
620 238 1
57 239 1
59 239 1
95 239 1
108 239 1
347 239 1
352 239 1
617 239 1
621 239 1
58 240 1
60 240 1
91 240 1
96 240 1
348 240 1
353 240 1
618 240 1
622 240 1
59 241 1
61 241 1
92 241 1
97 241 1
349 241 1
354 241 1
619 241 1
623 241 1
60 242 1
62 242 1
93 242 1
98 242 1
350 242 1
355 242 1
620 242 1
624 242 1
61 243 1
63 243 1
94 243 1
99 243 1
351 243 1
356 243 1
621 243 1
625 243 1
62 244 1
64 244 1
95 244 1
100 244 1
352 244 1
357 244 1
622 244 1
626 244 1
63 245 1
65 245 1
96 245 1
101 245 1
353 245 1
358 245 1
623 245 1
627 245 1
64 246 1
66 246 1
97 246 1
102 246 1
354 246 1
359 246 1
624 246 1
628 246 1
65 247 1
67 247 1
98 247 1
103 247 1
355 247 1
360 247 1
625 247 1
629 247 1
66 248 1
68 248 1
99 248 1
104 248 1
343 248 1
356 248 1
626 248 1
630 248 1
67 249 1
69 249 1
100 249 1
105 249 1
344 249 1
357 249 1
613 249 1
627 249 1
68 250 1
70 250 1
101 250 1
106 250 1
345 250 1
358 250 1
614 250 1
628 250 1
69 251 1
71 251 1
102 251 1
107 251 1
346 251 1
359 251 1
615 251 1
629 251 1
70 252 1
72 252 1
103 252 1
108 252 1
347 252 1
360 252 1
616 252 1
630 252 1
73 253 1
89 253 1
91 253 1
106 253 1
361 253 1
366 253 1
631 253 1
635 253 1
74 254 1
90 254 1
92 254 1
107 254 1
362 254 1
367 254 1
632 254 1
636 254 1
73 255 1
75 255 1
93 255 1
108 255 1
363 255 1
368 255 1
633 255 1
637 255 1
74 256 1
76 256 1
91 256 1
94 256 1
364 256 1
369 256 1
634 256 1
638 256 1
75 257 1
77 257 1
92 257 1
95 257 1
365 257 1
370 257 1
635 257 1
639 257 1
76 258 1
78 258 1
93 258 1
96 258 1
366 258 1
371 258 1
636 258 1
640 258 1
77 259 1
79 259 1
94 259 1
97 259 1
367 259 1
372 259 1
637 259 1
641 259 1
78 260 1
80 260 1
95 260 1
98 260 1
368 260 1
373 260 1
638 260 1
642 260 1
79 261 1
81 261 1
96 261 1
99 261 1
369 261 1
374 261 1
639 261 1
643 261 1
80 262 1
82 262 1
97 262 1
100 262 1
370 262 1
375 262 1
640 262 1
644 262 1
81 263 1
83 263 1
98 263 1
101 263 1
371 263 1
376 263 1
641 263 1
645 263 1
82 264 1
84 264 1
99 264 1
102 264 1
372 264 1
377 264 1
642 264 1
646 264 1
83 265 1
85 265 1
100 265 1
103 265 1
373 265 1
378 265 1
643 265 1
647 265 1
84 266 1
86 266 1
101 266 1
104 266 1
361 266 1
374 266 1
644 266 1
648 266 1
85 267 1
87 267 1
102 267 1
105 267 1
362 267 1
375 267 1
631 267 1
645 267 1
86 268 1
88 268 1
103 268 1
106 268 1
363 268 1
376 268 1
632 268 1
646 268 1
87 269 1
89 269 1
104 269 1
107 269 1
364 269 1
377 269 1
633 269 1
647 269 1
88 270 1
90 270 1
105 270 1
108 270 1
365 270 1
378 270 1
634 270 1
648 270 1
109 271 1
120 271 1
127 271 1
134 271 1
199 271 1
205 271 1
649 271 1
653 271 1
110 272 1
121 272 1
128 272 1
135 272 1
200 272 1
206 272 1
650 272 1
654 272 1
111 273 1
122 273 1
129 273 1
136 273 1
201 273 1
207 273 1
651 273 1
655 273 1
112 274 1
123 274 1
130 274 1
137 274 1
202 274 1
208 274 1
652 274 1
656 274 1
113 275 1
124 275 1
131 275 1
138 275 1
203 275 1
209 275 1
653 275 1
657 275 1
114 276 1
125 276 1
132 276 1
139 276 1
204 276 1
210 276 1
654 276 1
658 276 1
115 277 1
126 277 1
133 277 1
140 277 1
205 277 1
211 277 1
655 277 1
659 277 1
109 278 1
116 278 1
134 278 1
141 278 1
206 278 1
212 278 1
656 278 1
660 278 1
110 279 1
117 279 1
135 279 1
142 279 1
207 279 1
213 279 1
657 279 1
661 279 1
111 280 1
118 280 1
136 280 1
143 280 1
208 280 1
214 280 1
658 280 1
662 280 1
112 281 1
119 281 1
137 281 1
144 281 1
209 281 1
215 281 1
659 281 1
663 281 1
113 282 1
120 282 1
127 282 1
138 282 1
210 282 1
216 282 1
660 282 1
664 282 1
114 283 1
121 283 1
128 283 1
139 283 1
199 283 1
211 283 1
661 283 1
665 283 1
115 284 1
122 284 1
129 284 1
140 284 1
200 284 1
212 284 1
662 284 1
666 284 1
116 285 1
123 285 1
130 285 1
141 285 1
201 285 1
213 285 1
649 285 1
663 285 1
117 286 1
124 286 1
131 286 1
142 286 1
202 286 1
214 286 1
650 286 1
664 286 1
118 287 1
125 287 1
132 287 1
143 287 1
203 287 1
215 287 1
651 287 1
665 287 1
119 288 1
126 288 1
133 288 1
144 288 1
204 288 1
216 288 1
652 288 1
666 288 1
109 289 1
122 289 1
145 289 1
152 289 1
217 289 1
223 289 1
667 289 1
671 289 1
110 290 1
123 290 1
146 290 1
153 290 1
218 290 1
224 290 1
668 290 1
672 290 1
111 291 1
124 291 1
147 291 1
154 291 1
219 291 1
225 291 1
669 291 1
673 291 1
112 292 1
125 292 1
148 292 1
155 292 1
220 292 1
226 292 1
670 292 1
674 292 1
113 293 1
126 293 1
149 293 1
156 293 1
221 293 1
227 293 1
671 293 1
675 293 1
109 294 1
114 294 1
150 294 1
157 294 1
222 294 1
228 294 1
672 294 1
676 294 1
110 295 1
115 295 1
151 295 1
158 295 1
223 295 1
229 295 1
673 295 1
677 295 1
111 296 1
116 296 1
152 296 1
159 296 1
224 296 1
230 296 1
674 296 1
678 296 1
112 297 1
117 297 1
153 297 1
160 297 1
225 297 1
231 297 1
675 297 1
679 297 1
113 298 1
118 298 1
154 298 1
161 298 1
226 298 1
232 298 1
676 298 1
680 298 1
114 299 1
119 299 1
155 299 1
162 299 1
227 299 1
233 299 1
677 299 1
681 299 1
115 300 1
120 300 1
145 300 1
156 300 1
228 300 1
234 300 1
678 300 1
682 300 1
116 301 1
121 301 1
146 301 1
157 301 1
217 301 1
229 301 1
679 301 1
683 301 1
117 302 1
122 302 1
147 302 1
158 302 1
218 302 1
230 302 1
680 302 1
684 302 1
118 303 1
123 303 1
148 303 1
159 303 1
219 303 1
231 303 1
667 303 1
681 303 1
119 304 1
124 304 1
149 304 1
160 304 1
220 304 1
232 304 1
668 304 1
682 304 1
120 305 1
125 305 1
150 305 1
161 305 1
221 305 1
233 305 1
669 305 1
683 305 1
121 306 1
126 306 1
151 306 1
162 306 1
222 306 1
234 306 1
670 306 1
684 306 1
109 307 1
124 307 1
163 307 1
170 307 1
235 307 1
241 307 1
685 307 1
689 307 1
110 308 1
125 308 1
164 308 1
171 308 1
236 308 1
242 308 1
686 308 1
690 308 1
111 309 1
126 309 1
165 309 1
172 309 1
237 309 1
243 309 1
687 309 1
691 309 1
109 310 1
112 310 1
166 310 1
173 310 1
238 310 1
244 310 1
688 310 1
692 310 1
110 311 1
113 311 1
167 311 1
174 311 1
239 311 1
245 311 1
689 311 1
693 311 1
111 312 1
114 312 1
168 312 1
175 312 1
240 312 1
246 312 1
690 312 1
694 312 1
112 313 1
115 313 1
169 313 1
176 313 1
241 313 1
247 313 1
691 313 1
695 313 1
113 314 1
116 314 1
170 314 1
177 314 1
242 314 1
248 314 1
692 314 1
696 314 1
114 315 1
117 315 1
171 315 1
178 315 1
243 315 1
249 315 1
693 315 1
697 315 1
115 316 1
118 316 1
172 316 1
179 316 1
244 316 1
250 316 1
694 316 1
698 316 1
116 317 1
119 317 1
173 317 1
180 317 1
245 317 1
251 317 1
695 317 1
699 317 1
117 318 1
120 318 1
163 318 1
174 318 1
246 318 1
252 318 1
696 318 1
700 318 1
118 319 1
121 319 1
164 319 1
175 319 1
235 319 1
247 319 1
697 319 1
701 319 1
119 320 1
122 320 1
165 320 1
176 320 1
236 320 1
248 320 1
698 320 1
702 320 1
120 321 1
123 321 1
166 321 1
177 321 1
237 321 1
249 321 1
685 321 1
699 321 1
121 322 1
124 322 1
167 322 1
178 322 1
238 322 1
250 322 1
686 322 1
700 322 1
122 323 1
125 323 1
168 323 1
179 323 1
239 323 1
251 323 1
687 323 1
701 323 1
123 324 1
126 324 1
169 324 1
180 324 1
240 324 1
252 324 1
688 324 1
702 324 1
109 325 1
125 325 1
181 325 1
188 325 1
253 325 1
259 325 1
703 325 1
707 325 1
110 326 1
126 326 1
182 326 1
189 326 1
254 326 1
260 326 1
704 326 1
708 326 1
109 327 1
111 327 1
183 327 1
190 327 1
255 327 1
261 327 1
705 327 1
709 327 1
110 328 1
112 328 1
184 328 1
191 328 1
256 328 1
262 328 1
706 328 1
710 328 1
111 329 1
113 329 1
185 329 1
192 329 1
257 329 1
263 329 1
707 329 1
711 329 1
112 330 1
114 330 1
186 330 1
193 330 1
258 330 1
264 330 1
708 330 1
712 330 1
113 331 1
115 331 1
187 331 1
194 331 1
259 331 1
265 331 1
709 331 1
713 331 1
114 332 1
116 332 1
188 332 1
195 332 1
260 332 1
266 332 1
710 332 1
714 332 1
115 333 1
117 333 1
189 333 1
196 333 1
261 333 1
267 333 1
711 333 1
715 333 1
116 334 1
118 334 1
190 334 1
197 334 1
262 334 1
268 334 1
712 334 1
716 334 1
117 335 1
119 335 1
191 335 1
198 335 1
263 335 1
269 335 1
713 335 1
717 335 1
118 336 1
120 336 1
181 336 1
192 336 1
264 336 1
270 336 1
714 336 1
718 336 1
119 337 1
121 337 1
182 337 1
193 337 1
253 337 1
265 337 1
715 337 1
719 337 1
120 338 1
122 338 1
183 338 1
194 338 1
254 338 1
266 338 1
716 338 1
720 338 1
121 339 1
123 339 1
184 339 1
195 339 1
255 339 1
267 339 1
703 339 1
717 339 1
122 340 1
124 340 1
185 340 1
196 340 1
256 340 1
268 340 1
704 340 1
718 340 1
123 341 1
125 341 1
186 341 1
197 341 1
257 341 1
269 341 1
705 341 1
719 341 1
124 342 1
126 342 1
187 342 1
198 342 1
258 342 1
270 342 1
706 342 1
720 342 1
127 343 1
140 343 1
145 343 1
156 343 1
271 343 1
277 343 1
721 343 1
725 343 1
128 344 1
141 344 1
146 344 1
157 344 1
272 344 1
278 344 1
722 344 1
726 344 1
129 345 1
142 345 1
147 345 1
158 345 1
273 345 1
279 345 1
723 345 1
727 345 1
130 346 1
143 346 1
148 346 1
159 346 1
274 346 1
280 346 1
724 346 1
728 346 1
131 347 1
144 347 1
149 347 1
160 347 1
275 347 1
281 347 1
725 347 1
729 347 1
127 348 1
132 348 1
150 348 1
161 348 1
276 348 1
282 348 1
726 348 1
730 348 1
128 349 1
133 349 1
151 349 1
162 349 1
277 349 1
283 349 1
727 349 1
731 349 1
129 350 1
134 350 1
145 350 1
152 350 1
278 350 1
284 350 1
728 350 1
732 350 1
130 351 1
135 351 1
146 351 1
153 351 1
279 351 1
285 351 1
729 351 1
733 351 1
131 352 1
136 352 1
147 352 1
154 352 1
280 352 1
286 352 1
730 352 1
734 352 1
132 353 1
137 353 1
148 353 1
155 353 1
281 353 1
287 353 1
731 353 1
735 353 1
133 354 1
138 354 1
149 354 1
156 354 1
282 354 1
288 354 1
732 354 1
736 354 1
134 355 1
139 355 1
150 355 1
157 355 1
271 355 1
283 355 1
733 355 1
737 355 1
135 356 1
140 356 1
151 356 1
158 356 1
272 356 1
284 356 1
734 356 1
738 356 1
136 357 1
141 357 1
152 357 1
159 357 1
273 357 1
285 357 1
721 357 1
735 357 1
137 358 1
142 358 1
153 358 1
160 358 1
274 358 1
286 358 1
722 358 1
736 358 1
138 359 1
143 359 1
154 359 1
161 359 1
275 359 1
287 359 1
723 359 1
737 359 1
139 360 1
144 360 1
155 360 1
162 360 1
276 360 1
288 360 1
724 360 1
738 360 1
127 361 1
142 361 1
163 361 1
174 361 1
289 361 1
295 361 1
739 361 1
743 361 1
128 362 1
143 362 1
164 362 1
175 362 1
290 362 1
296 362 1
740 362 1
744 362 1
129 363 1
144 363 1
165 363 1
176 363 1
291 363 1
297 363 1
741 363 1
745 363 1
127 364 1
130 364 1
166 364 1
177 364 1
292 364 1
298 364 1
742 364 1
746 364 1
128 365 1
131 365 1
167 365 1
178 365 1
293 365 1
299 365 1
743 365 1
747 365 1
129 366 1
132 366 1
168 366 1
179 366 1
294 366 1
300 366 1
744 366 1
748 366 1
130 367 1
133 367 1
169 367 1
180 367 1
295 367 1
301 367 1
745 367 1
749 367 1
131 368 1
134 368 1
163 368 1
170 368 1
296 368 1
302 368 1
746 368 1
750 368 1
132 369 1
135 369 1
164 369 1
171 369 1
297 369 1
303 369 1
747 369 1
751 369 1
133 370 1
136 370 1
165 370 1
172 370 1
298 370 1
304 370 1
748 370 1
752 370 1
134 371 1
137 371 1
166 371 1
173 371 1
299 371 1
305 371 1
749 371 1
753 371 1
135 372 1
138 372 1
167 372 1
174 372 1
300 372 1
306 372 1
750 372 1
754 372 1
136 373 1
139 373 1
168 373 1
175 373 1
289 373 1
301 373 1
751 373 1
755 373 1
137 374 1
140 374 1
169 374 1
176 374 1
290 374 1
302 374 1
752 374 1
756 374 1
138 375 1
141 375 1
170 375 1
177 375 1
291 375 1
303 375 1
739 375 1
753 375 1
139 376 1
142 376 1
171 376 1
178 376 1
292 376 1
304 376 1
740 376 1
754 376 1
140 377 1
143 377 1
172 377 1
179 377 1
293 377 1
305 377 1
741 377 1
755 377 1
141 378 1
144 378 1
173 378 1
180 378 1
294 378 1
306 378 1
742 378 1
756 378 1
127 379 1
143 379 1
181 379 1
192 379 1
307 379 1
313 379 1
757 379 1
761 379 1
128 380 1
144 380 1
182 380 1
193 380 1
308 380 1
314 380 1
758 380 1
762 380 1
127 381 1
129 381 1
183 381 1
194 381 1
309 381 1
315 381 1
759 381 1
763 381 1
128 382 1
130 382 1
184 382 1
195 382 1
310 382 1
316 382 1
760 382 1
764 382 1
129 383 1
131 383 1
185 383 1
196 383 1
311 383 1
317 383 1
761 383 1
765 383 1
130 384 1
132 384 1
186 384 1
197 384 1
312 384 1
318 384 1
762 384 1
766 384 1
131 385 1
133 385 1
187 385 1
198 385 1
313 385 1
319 385 1
763 385 1
767 385 1
132 386 1
134 386 1
181 386 1
188 386 1
314 386 1
320 386 1
764 386 1
768 386 1
133 387 1
135 387 1
182 387 1
189 387 1
315 387 1
321 387 1
765 387 1
769 387 1
134 388 1
136 388 1
183 388 1
190 388 1
316 388 1
322 388 1
766 388 1
770 388 1
135 389 1
137 389 1
184 389 1
191 389 1
317 389 1
323 389 1
767 389 1
771 389 1
136 390 1
138 390 1
185 390 1
192 390 1
318 390 1
324 390 1
768 390 1
772 390 1
137 391 1
139 391 1
186 391 1
193 391 1
307 391 1
319 391 1
769 391 1
773 391 1
138 392 1
140 392 1
187 392 1
194 392 1
308 392 1
320 392 1
770 392 1
774 392 1
139 393 1
141 393 1
188 393 1
195 393 1
309 393 1
321 393 1
757 393 1
771 393 1
140 394 1
142 394 1
189 394 1
196 394 1
310 394 1
322 394 1
758 394 1
772 394 1
141 395 1
143 395 1
190 395 1
197 395 1
311 395 1
323 395 1
759 395 1
773 395 1
142 396 1
144 396 1
191 396 1
198 396 1
312 396 1
324 396 1
760 396 1
774 396 1
145 397 1
160 397 1
163 397 1
176 397 1
325 397 1
331 397 1
775 397 1
779 397 1
146 398 1
161 398 1
164 398 1
177 398 1
326 398 1
332 398 1
776 398 1
780 398 1
147 399 1
162 399 1
165 399 1
178 399 1
327 399 1
333 399 1
777 399 1
781 399 1
145 400 1
148 400 1
166 400 1
179 400 1
328 400 1
334 400 1
778 400 1
782 400 1
146 401 1
149 401 1
167 401 1
180 401 1
329 401 1
335 401 1
779 401 1
783 401 1
147 402 1
150 402 1
163 402 1
168 402 1
330 402 1
336 402 1
780 402 1
784 402 1
148 403 1
151 403 1
164 403 1
169 403 1
331 403 1
337 403 1
781 403 1
785 403 1
149 404 1
152 404 1
165 404 1
170 404 1
332 404 1
338 404 1
782 404 1
786 404 1
150 405 1
153 405 1
166 405 1
171 405 1
333 405 1
339 405 1
783 405 1
787 405 1
151 406 1
154 406 1
167 406 1
172 406 1
334 406 1
340 406 1
784 406 1
788 406 1
152 407 1
155 407 1
168 407 1
173 407 1
335 407 1
341 407 1
785 407 1
789 407 1
153 408 1
156 408 1
169 408 1
174 408 1
336 408 1
342 408 1
786 408 1
790 408 1
154 409 1
157 409 1
170 409 1
175 409 1
325 409 1
337 409 1
787 409 1
791 409 1
155 410 1
158 410 1
171 410 1
176 410 1
326 410 1
338 410 1
788 410 1
792 410 1
156 411 1
159 411 1
172 411 1
177 411 1
327 411 1
339 411 1
775 411 1
789 411 1
157 412 1
160 412 1
173 412 1
178 412 1
328 412 1
340 412 1
776 412 1
790 412 1
158 413 1
161 413 1
174 413 1
179 413 1
329 413 1
341 413 1
777 413 1
791 413 1
159 414 1
162 414 1
175 414 1
180 414 1
330 414 1
342 414 1
778 414 1
792 414 1
145 415 1
161 415 1
181 415 1
194 415 1
343 415 1
349 415 1
793 415 1
797 415 1
146 416 1
162 416 1
182 416 1
195 416 1
344 416 1
350 416 1
794 416 1
798 416 1
145 417 1
147 417 1
183 417 1
196 417 1
345 417 1
351 417 1
795 417 1
799 417 1
146 418 1
148 418 1
184 418 1
197 418 1
346 418 1
352 418 1
796 418 1
800 418 1
147 419 1
149 419 1
185 419 1
198 419 1
347 419 1
353 419 1
797 419 1
801 419 1
148 420 1
150 420 1
181 420 1
186 420 1
348 420 1
354 420 1
798 420 1
802 420 1
149 421 1
151 421 1
182 421 1
187 421 1
349 421 1
355 421 1
799 421 1
803 421 1
150 422 1
152 422 1
183 422 1
188 422 1
350 422 1
356 422 1
800 422 1
804 422 1
151 423 1
153 423 1
184 423 1
189 423 1
351 423 1
357 423 1
801 423 1
805 423 1
152 424 1
154 424 1
185 424 1
190 424 1
352 424 1
358 424 1
802 424 1
806 424 1
153 425 1
155 425 1
186 425 1
191 425 1
353 425 1
359 425 1
803 425 1
807 425 1
154 426 1
156 426 1
187 426 1
192 426 1
354 426 1
360 426 1
804 426 1
808 426 1
155 427 1
157 427 1
188 427 1
193 427 1
343 427 1
355 427 1
805 427 1
809 427 1
156 428 1
158 428 1
189 428 1
194 428 1
344 428 1
356 428 1
806 428 1
810 428 1
157 429 1
159 429 1
190 429 1
195 429 1
345 429 1
357 429 1
793 429 1
807 429 1
158 430 1
160 430 1
191 430 1
196 430 1
346 430 1
358 430 1
794 430 1
808 430 1
159 431 1
161 431 1
192 431 1
197 431 1
347 431 1
359 431 1
795 431 1
809 431 1
160 432 1
162 432 1
193 432 1
198 432 1
348 432 1
360 432 1
796 432 1
810 432 1
163 433 1
179 433 1
181 433 1
196 433 1
361 433 1
367 433 1
811 433 1
815 433 1
164 434 1
180 434 1
182 434 1
197 434 1
362 434 1
368 434 1
812 434 1
816 434 1
163 435 1
165 435 1
183 435 1
198 435 1
363 435 1
369 435 1
813 435 1
817 435 1
164 436 1
166 436 1
181 436 1
184 436 1
364 436 1
370 436 1
814 436 1
818 436 1
165 437 1
167 437 1
182 437 1
185 437 1
365 437 1
371 437 1
815 437 1
819 437 1
166 438 1
168 438 1
183 438 1
186 438 1
366 438 1
372 438 1
816 438 1
820 438 1
167 439 1
169 439 1
184 439 1
187 439 1
367 439 1
373 439 1
817 439 1
821 439 1
168 440 1
170 440 1
185 440 1
188 440 1
368 440 1
374 440 1
818 440 1
822 440 1
169 441 1
171 441 1
186 441 1
189 441 1
369 441 1
375 441 1
819 441 1
823 441 1
170 442 1
172 442 1
187 442 1
190 442 1
370 442 1
376 442 1
820 442 1
824 442 1
171 443 1
173 443 1
188 443 1
191 443 1
371 443 1
377 443 1
821 443 1
825 443 1
172 444 1
174 444 1
189 444 1
192 444 1
372 444 1
378 444 1
822 444 1
826 444 1
173 445 1
175 445 1
190 445 1
193 445 1
361 445 1
373 445 1
823 445 1
827 445 1
174 446 1
176 446 1
191 446 1
194 446 1
362 446 1
374 446 1
824 446 1
828 446 1
175 447 1
177 447 1
192 447 1
195 447 1
363 447 1
375 447 1
811 447 1
825 447 1
176 448 1
178 448 1
193 448 1
196 448 1
364 448 1
376 448 1
812 448 1
826 448 1
177 449 1
179 449 1
194 449 1
197 449 1
365 449 1
377 449 1
813 449 1
827 449 1
178 450 1
180 450 1
195 450 1
198 450 1
366 450 1
378 450 1
814 450 1
828 450 1
199 451 1
212 451 1
217 451 1
228 451 1
271 451 1
278 451 1
829 451 1
833 451 1
200 452 1
213 452 1
218 452 1
229 452 1
272 452 1
279 452 1
830 452 1
834 452 1
201 453 1
214 453 1
219 453 1
230 453 1
273 453 1
280 453 1
831 453 1
835 453 1
202 454 1
215 454 1
220 454 1
231 454 1
274 454 1
281 454 1
832 454 1
836 454 1
203 455 1
216 455 1
221 455 1
232 455 1
275 455 1
282 455 1
833 455 1
837 455 1
199 456 1
204 456 1
222 456 1
233 456 1
276 456 1
283 456 1
834 456 1
838 456 1
200 457 1
205 457 1
223 457 1
234 457 1
277 457 1
284 457 1
835 457 1
839 457 1
201 458 1
206 458 1
217 458 1
224 458 1
278 458 1
285 458 1
836 458 1
840 458 1
202 459 1
207 459 1
218 459 1
225 459 1
279 459 1
286 459 1
837 459 1
841 459 1
203 460 1
208 460 1
219 460 1
226 460 1
280 460 1
287 460 1
838 460 1
842 460 1
204 461 1
209 461 1
220 461 1
227 461 1
281 461 1
288 461 1
839 461 1
843 461 1
205 462 1
210 462 1
221 462 1
228 462 1
271 462 1
282 462 1
840 462 1
844 462 1
206 463 1
211 463 1
222 463 1
229 463 1
272 463 1
283 463 1
841 463 1
845 463 1
207 464 1
212 464 1
223 464 1
230 464 1
273 464 1
284 464 1
842 464 1
846 464 1
208 465 1
213 465 1
224 465 1
231 465 1
274 465 1
285 465 1
829 465 1
843 465 1
209 466 1
214 466 1
225 466 1
232 466 1
275 466 1
286 466 1
830 466 1
844 466 1
210 467 1
215 467 1
226 467 1
233 467 1
276 467 1
287 467 1
831 467 1
845 467 1
211 468 1
216 468 1
227 468 1
234 468 1
277 468 1
288 468 1
832 468 1
846 468 1
199 469 1
214 469 1
235 469 1
246 469 1
289 469 1
296 469 1
847 469 1
851 469 1
200 470 1
215 470 1
236 470 1
247 470 1
290 470 1
297 470 1
848 470 1
852 470 1
201 471 1
216 471 1
237 471 1
248 471 1
291 471 1
298 471 1
849 471 1
853 471 1
199 472 1
202 472 1
238 472 1
249 472 1
292 472 1
299 472 1
850 472 1
854 472 1
200 473 1
203 473 1
239 473 1
250 473 1
293 473 1
300 473 1
851 473 1
855 473 1
201 474 1
204 474 1
240 474 1
251 474 1
294 474 1
301 474 1
852 474 1
856 474 1
202 475 1
205 475 1
241 475 1
252 475 1
295 475 1
302 475 1
853 475 1
857 475 1
203 476 1
206 476 1
235 476 1
242 476 1
296 476 1
303 476 1
854 476 1
858 476 1
204 477 1
207 477 1
236 477 1
243 477 1
297 477 1
304 477 1
855 477 1
859 477 1
205 478 1
208 478 1
237 478 1
244 478 1
298 478 1
305 478 1
856 478 1
860 478 1
206 479 1
209 479 1
238 479 1
245 479 1
299 479 1
306 479 1
857 479 1
861 479 1
207 480 1
210 480 1
239 480 1
246 480 1
289 480 1
300 480 1
858 480 1
862 480 1
208 481 1
211 481 1
240 481 1
247 481 1
290 481 1
301 481 1
859 481 1
863 481 1
209 482 1
212 482 1
241 482 1
248 482 1
291 482 1
302 482 1
860 482 1
864 482 1
210 483 1
213 483 1
242 483 1
249 483 1
292 483 1
303 483 1
847 483 1
861 483 1
211 484 1
214 484 1
243 484 1
250 484 1
293 484 1
304 484 1
848 484 1
862 484 1
212 485 1
215 485 1
244 485 1
251 485 1
294 485 1
305 485 1
849 485 1
863 485 1
213 486 1
216 486 1
245 486 1
252 486 1
295 486 1
306 486 1
850 486 1
864 486 1
199 487 1
215 487 1
253 487 1
264 487 1
307 487 1
314 487 1
865 487 1
869 487 1
200 488 1
216 488 1
254 488 1
265 488 1
308 488 1
315 488 1
866 488 1
870 488 1
199 489 1
201 489 1
255 489 1
266 489 1
309 489 1
316 489 1
867 489 1
871 489 1
200 490 1
202 490 1
256 490 1
267 490 1
310 490 1
317 490 1
868 490 1
872 490 1
201 491 1
203 491 1
257 491 1
268 491 1
311 491 1
318 491 1
869 491 1
873 491 1
202 492 1
204 492 1
258 492 1
269 492 1
312 492 1
319 492 1
870 492 1
874 492 1
203 493 1
205 493 1
259 493 1
270 493 1
313 493 1
320 493 1
871 493 1
875 493 1
204 494 1
206 494 1
253 494 1
260 494 1
314 494 1
321 494 1
872 494 1
876 494 1
205 495 1
207 495 1
254 495 1
261 495 1
315 495 1
322 495 1
873 495 1
877 495 1
206 496 1
208 496 1
255 496 1
262 496 1
316 496 1
323 496 1
874 496 1
878 496 1
207 497 1
209 497 1
256 497 1
263 497 1
317 497 1
324 497 1
875 497 1
879 497 1
208 498 1
210 498 1
257 498 1
264 498 1
307 498 1
318 498 1
876 498 1
880 498 1
209 499 1
211 499 1
258 499 1
265 499 1
308 499 1
319 499 1
877 499 1
881 499 1
210 500 1
212 500 1
259 500 1
266 500 1
309 500 1
320 500 1
878 500 1
882 500 1
211 501 1
213 501 1
260 501 1
267 501 1
310 501 1
321 501 1
865 501 1
879 501 1
212 502 1
214 502 1
261 502 1
268 502 1
311 502 1
322 502 1
866 502 1
880 502 1
213 503 1
215 503 1
262 503 1
269 503 1
312 503 1
323 503 1
867 503 1
881 503 1
214 504 1
216 504 1
263 504 1
270 504 1
313 504 1
324 504 1
868 504 1
882 504 1
217 505 1
232 505 1
235 505 1
248 505 1
325 505 1
332 505 1
883 505 1
887 505 1
218 506 1
233 506 1
236 506 1
249 506 1
326 506 1
333 506 1
884 506 1
888 506 1
219 507 1
234 507 1
237 507 1
250 507 1
327 507 1
334 507 1
885 507 1
889 507 1
217 508 1
220 508 1
238 508 1
251 508 1
328 508 1
335 508 1
886 508 1
890 508 1
218 509 1
221 509 1
239 509 1
252 509 1
329 509 1
336 509 1
887 509 1
891 509 1
219 510 1
222 510 1
235 510 1
240 510 1
330 510 1
337 510 1
888 510 1
892 510 1
220 511 1
223 511 1
236 511 1
241 511 1
331 511 1
338 511 1
889 511 1
893 511 1
221 512 1
224 512 1
237 512 1
242 512 1
332 512 1
339 512 1
890 512 1
894 512 1
222 513 1
225 513 1
238 513 1
243 513 1
333 513 1
340 513 1
891 513 1
895 513 1
223 514 1
226 514 1
239 514 1
244 514 1
334 514 1
341 514 1
892 514 1
896 514 1
224 515 1
227 515 1
240 515 1
245 515 1
335 515 1
342 515 1
893 515 1
897 515 1
225 516 1
228 516 1
241 516 1
246 516 1
325 516 1
336 516 1
894 516 1
898 516 1
226 517 1
229 517 1
242 517 1
247 517 1
326 517 1
337 517 1
895 517 1
899 517 1
227 518 1
230 518 1
243 518 1
248 518 1
327 518 1
338 518 1
896 518 1
900 518 1
228 519 1
231 519 1
244 519 1
249 519 1
328 519 1
339 519 1
883 519 1
897 519 1
229 520 1
232 520 1
245 520 1
250 520 1
329 520 1
340 520 1
884 520 1
898 520 1
230 521 1
233 521 1
246 521 1
251 521 1
330 521 1
341 521 1
885 521 1
899 521 1
231 522 1
234 522 1
247 522 1
252 522 1
331 522 1
342 522 1
886 522 1
900 522 1
217 523 1
233 523 1
253 523 1
266 523 1
343 523 1
350 523 1
901 523 1
905 523 1
218 524 1
234 524 1
254 524 1
267 524 1
344 524 1
351 524 1
902 524 1
906 524 1
217 525 1
219 525 1
255 525 1
268 525 1
345 525 1
352 525 1
903 525 1
907 525 1
218 526 1
220 526 1
256 526 1
269 526 1
346 526 1
353 526 1
904 526 1
908 526 1
219 527 1
221 527 1
257 527 1
270 527 1
347 527 1
354 527 1
905 527 1
909 527 1
220 528 1
222 528 1
253 528 1
258 528 1
348 528 1
355 528 1
906 528 1
910 528 1
221 529 1
223 529 1
254 529 1
259 529 1
349 529 1
356 529 1
907 529 1
911 529 1
222 530 1
224 530 1
255 530 1
260 530 1
350 530 1
357 530 1
908 530 1
912 530 1
223 531 1
225 531 1
256 531 1
261 531 1
351 531 1
358 531 1
909 531 1
913 531 1
224 532 1
226 532 1
257 532 1
262 532 1
352 532 1
359 532 1
910 532 1
914 532 1
225 533 1
227 533 1
258 533 1
263 533 1
353 533 1
360 533 1
911 533 1
915 533 1
226 534 1
228 534 1
259 534 1
264 534 1
343 534 1
354 534 1
912 534 1
916 534 1
227 535 1
229 535 1
260 535 1
265 535 1
344 535 1
355 535 1
913 535 1
917 535 1
228 536 1
230 536 1
261 536 1
266 536 1
345 536 1
356 536 1
914 536 1
918 536 1
229 537 1
231 537 1
262 537 1
267 537 1
346 537 1
357 537 1
901 537 1
915 537 1
230 538 1
232 538 1
263 538 1
268 538 1
347 538 1
358 538 1
902 538 1
916 538 1
231 539 1
233 539 1
264 539 1
269 539 1
348 539 1
359 539 1
903 539 1
917 539 1
232 540 1
234 540 1
265 540 1
270 540 1
349 540 1
360 540 1
904 540 1
918 540 1
235 541 1
251 541 1
253 541 1
268 541 1
361 541 1
368 541 1
919 541 1
923 541 1
236 542 1
252 542 1
254 542 1
269 542 1
362 542 1
369 542 1
920 542 1
924 542 1
235 543 1
237 543 1
255 543 1
270 543 1
363 543 1
370 543 1
921 543 1
925 543 1
236 544 1
238 544 1
253 544 1
256 544 1
364 544 1
371 544 1
922 544 1
926 544 1
237 545 1
239 545 1
254 545 1
257 545 1
365 545 1
372 545 1
923 545 1
927 545 1
238 546 1
240 546 1
255 546 1
258 546 1
366 546 1
373 546 1
924 546 1
928 546 1
239 547 1
241 547 1
256 547 1
259 547 1
367 547 1
374 547 1
925 547 1
929 547 1
240 548 1
242 548 1
257 548 1
260 548 1
368 548 1
375 548 1
926 548 1
930 548 1
241 549 1
243 549 1
258 549 1
261 549 1
369 549 1
376 549 1
927 549 1
931 549 1
242 550 1
244 550 1
259 550 1
262 550 1
370 550 1
377 550 1
928 550 1
932 550 1
243 551 1
245 551 1
260 551 1
263 551 1
371 551 1
378 551 1
929 551 1
933 551 1
244 552 1
246 552 1
261 552 1
264 552 1
361 552 1
372 552 1
930 552 1
934 552 1
245 553 1
247 553 1
262 553 1
265 553 1
362 553 1
373 553 1
931 553 1
935 553 1
246 554 1
248 554 1
263 554 1
266 554 1
363 554 1
374 554 1
932 554 1
936 554 1
247 555 1
249 555 1
264 555 1
267 555 1
364 555 1
375 555 1
919 555 1
933 555 1
248 556 1
250 556 1
265 556 1
268 556 1
365 556 1
376 556 1
920 556 1
934 556 1
249 557 1
251 557 1
266 557 1
269 557 1
366 557 1
377 557 1
921 557 1
935 557 1
250 558 1
252 558 1
267 558 1
270 558 1
367 558 1
378 558 1
922 558 1
936 558 1
271 559 1
286 559 1
289 559 1
302 559 1
325 559 1
336 559 1
937 559 1
941 559 1
272 560 1
287 560 1
290 560 1
303 560 1
326 560 1
337 560 1
938 560 1
942 560 1
273 561 1
288 561 1
291 561 1
304 561 1
327 561 1
338 561 1
939 561 1
943 561 1
271 562 1
274 562 1
292 562 1
305 562 1
328 562 1
339 562 1
940 562 1
944 562 1
272 563 1
275 563 1
293 563 1
306 563 1
329 563 1
340 563 1
941 563 1
945 563 1
273 564 1
276 564 1
289 564 1
294 564 1
330 564 1
341 564 1
942 564 1
946 564 1
274 565 1
277 565 1
290 565 1
295 565 1
331 565 1
342 565 1
943 565 1
947 565 1
275 566 1
278 566 1
291 566 1
296 566 1
325 566 1
332 566 1
944 566 1
948 566 1
276 567 1
279 567 1
292 567 1
297 567 1
326 567 1
333 567 1
945 567 1
949 567 1
277 568 1
280 568 1
293 568 1
298 568 1
327 568 1
334 568 1
946 568 1
950 568 1
278 569 1
281 569 1
294 569 1
299 569 1
328 569 1
335 569 1
947 569 1
951 569 1
279 570 1
282 570 1
295 570 1
300 570 1
329 570 1
336 570 1
948 570 1
952 570 1
280 571 1
283 571 1
296 571 1
301 571 1
330 571 1
337 571 1
949 571 1
953 571 1
281 572 1
284 572 1
297 572 1
302 572 1
331 572 1
338 572 1
950 572 1
954 572 1
282 573 1
285 573 1
298 573 1
303 573 1
332 573 1
339 573 1
937 573 1
951 573 1
283 574 1
286 574 1
299 574 1
304 574 1
333 574 1
340 574 1
938 574 1
952 574 1
284 575 1
287 575 1
300 575 1
305 575 1
334 575 1
341 575 1
939 575 1
953 575 1
285 576 1
288 576 1
301 576 1
306 576 1
335 576 1
342 576 1
940 576 1
954 576 1
271 577 1
287 577 1
307 577 1
320 577 1
343 577 1
354 577 1
955 577 1
959 577 1
272 578 1
288 578 1
308 578 1
321 578 1
344 578 1
355 578 1
956 578 1
960 578 1
271 579 1
273 579 1
309 579 1
322 579 1
345 579 1
356 579 1
957 579 1
961 579 1
272 580 1
274 580 1
310 580 1
323 580 1
346 580 1
357 580 1
958 580 1
962 580 1
273 581 1
275 581 1
311 581 1
324 581 1
347 581 1
358 581 1
959 581 1
963 581 1
274 582 1
276 582 1
307 582 1
312 582 1
348 582 1
359 582 1
960 582 1
964 582 1
275 583 1
277 583 1
308 583 1
313 583 1
349 583 1
360 583 1
961 583 1
965 583 1
276 584 1
278 584 1
309 584 1
314 584 1
343 584 1
350 584 1
962 584 1
966 584 1
277 585 1
279 585 1
310 585 1
315 585 1
344 585 1
351 585 1
963 585 1
967 585 1
278 586 1
280 586 1
311 586 1
316 586 1
345 586 1
352 586 1
964 586 1
968 586 1
279 587 1
281 587 1
312 587 1
317 587 1
346 587 1
353 587 1
965 587 1
969 587 1
280 588 1
282 588 1
313 588 1
318 588 1
347 588 1
354 588 1
966 588 1
970 588 1
281 589 1
283 589 1
314 589 1
319 589 1
348 589 1
355 589 1
967 589 1
971 589 1
282 590 1
284 590 1
315 590 1
320 590 1
349 590 1
356 590 1
968 590 1
972 590 1
283 591 1
285 591 1
316 591 1
321 591 1
350 591 1
357 591 1
955 591 1
969 591 1
284 592 1
286 592 1
317 592 1
322 592 1
351 592 1
358 592 1
956 592 1
970 592 1
285 593 1
287 593 1
318 593 1
323 593 1
352 593 1
359 593 1
957 593 1
971 593 1
286 594 1
288 594 1
319 594 1
324 594 1
353 594 1
360 594 1
958 594 1
972 594 1
289 595 1
305 595 1
307 595 1
322 595 1
361 595 1
372 595 1
973 595 1
977 595 1
290 596 1
306 596 1
308 596 1
323 596 1
362 596 1
373 596 1
974 596 1
978 596 1
289 597 1
291 597 1
309 597 1
324 597 1
363 597 1
374 597 1
975 597 1
979 597 1
290 598 1
292 598 1
307 598 1
310 598 1
364 598 1
375 598 1
976 598 1
980 598 1
291 599 1
293 599 1
308 599 1
311 599 1
365 599 1
376 599 1
977 599 1
981 599 1
292 600 1
294 600 1
309 600 1
312 600 1
366 600 1
377 600 1
978 600 1
982 600 1
293 601 1
295 601 1
310 601 1
313 601 1
367 601 1
378 601 1
979 601 1
983 601 1
294 602 1
296 602 1
311 602 1
314 602 1
361 602 1
368 602 1
980 602 1
984 602 1
295 603 1
297 603 1
312 603 1
315 603 1
362 603 1
369 603 1
981 603 1
985 603 1
296 604 1
298 604 1
313 604 1
316 604 1
363 604 1
370 604 1
982 604 1
986 604 1
297 605 1
299 605 1
314 605 1
317 605 1
364 605 1
371 605 1
983 605 1
987 605 1
298 606 1
300 606 1
315 606 1
318 606 1
365 606 1
372 606 1
984 606 1
988 606 1
299 607 1
301 607 1
316 607 1
319 607 1
366 607 1
373 607 1
985 607 1
989 607 1
300 608 1
302 608 1
317 608 1
320 608 1
367 608 1
374 608 1
986 608 1
990 608 1
301 609 1
303 609 1
318 609 1
321 609 1
368 609 1
375 609 1
973 609 1
987 609 1
302 610 1
304 610 1
319 610 1
322 610 1
369 610 1
376 610 1
974 610 1
988 610 1
303 611 1
305 611 1
320 611 1
323 611 1
370 611 1
377 611 1
975 611 1
989 611 1
304 612 1
306 612 1
321 612 1
324 612 1
371 612 1
378 612 1
976 612 1
990 612 1
325 613 1
341 613 1
343 613 1
358 613 1
361 613 1
374 613 1
991 613 1
995 613 1
326 614 1
342 614 1
344 614 1
359 614 1
362 614 1
375 614 1
992 614 1
996 614 1
325 615 1
327 615 1
345 615 1
360 615 1
363 615 1
376 615 1
993 615 1
997 615 1
326 616 1
328 616 1
343 616 1
346 616 1
364 616 1
377 616 1
994 616 1
998 616 1
327 617 1
329 617 1
344 617 1
347 617 1
365 617 1
378 617 1
995 617 1
999 617 1
328 618 1
330 618 1
345 618 1
348 618 1
361 618 1
366 618 1
996 618 1
1000 618 1
329 619 1
331 619 1
346 619 1
349 619 1
362 619 1
367 619 1
997 619 1
1001 619 1
330 620 1
332 620 1
347 620 1
350 620 1
363 620 1
368 620 1
998 620 1
1002 620 1
331 621 1
333 621 1
348 621 1
351 621 1
364 621 1
369 621 1
999 621 1
1003 621 1
332 622 1
334 622 1
349 622 1
352 622 1
365 622 1
370 622 1
1000 622 1
1004 622 1
333 623 1
335 623 1
350 623 1
353 623 1
366 623 1
371 623 1
1001 623 1
1005 623 1
334 624 1
336 624 1
351 624 1
354 624 1
367 624 1
372 624 1
1002 624 1
1006 624 1
335 625 1
337 625 1
352 625 1
355 625 1
368 625 1
373 625 1
1003 625 1
1007 625 1
336 626 1
338 626 1
353 626 1
356 626 1
369 626 1
374 626 1
1004 626 1
1008 626 1
337 627 1
339 627 1
354 627 1
357 627 1
370 627 1
375 627 1
991 627 1
1005 627 1
338 628 1
340 628 1
355 628 1
358 628 1
371 628 1
376 628 1
992 628 1
1006 628 1
339 629 1
341 629 1
356 629 1
359 629 1
372 629 1
377 629 1
993 629 1
1007 629 1
340 630 1
342 630 1
357 630 1
360 630 1
373 630 1
378 630 1
994 630 1
1008 630 1
379 631 1
390 631 1
397 631 1
404 631 1
469 631 1
475 631 1
649 631 1
654 631 1
380 632 1
391 632 1
398 632 1
405 632 1
470 632 1
476 632 1
650 632 1
655 632 1
381 633 1
392 633 1
399 633 1
406 633 1
471 633 1
477 633 1
651 633 1
656 633 1
382 634 1
393 634 1
400 634 1
407 634 1
472 634 1
478 634 1
652 634 1
657 634 1
383 635 1
394 635 1
401 635 1
408 635 1
473 635 1
479 635 1
653 635 1
658 635 1
384 636 1
395 636 1
402 636 1
409 636 1
474 636 1
480 636 1
654 636 1
659 636 1
385 637 1
396 637 1
403 637 1
410 637 1
475 637 1
481 637 1
655 637 1
660 637 1
379 638 1
386 638 1
404 638 1
411 638 1
476 638 1
482 638 1
656 638 1
661 638 1
380 639 1
387 639 1
405 639 1
412 639 1
477 639 1
483 639 1
657 639 1
662 639 1
381 640 1
388 640 1
406 640 1
413 640 1
478 640 1
484 640 1
658 640 1
663 640 1
382 641 1
389 641 1
407 641 1
414 641 1
479 641 1
485 641 1
659 641 1
664 641 1
383 642 1
390 642 1
397 642 1
408 642 1
480 642 1
486 642 1
660 642 1
665 642 1
384 643 1
391 643 1
398 643 1
409 643 1
469 643 1
481 643 1
661 643 1
666 643 1
385 644 1
392 644 1
399 644 1
410 644 1
470 644 1
482 644 1
649 644 1
662 644 1
386 645 1
393 645 1
400 645 1
411 645 1
471 645 1
483 645 1
650 645 1
663 645 1
387 646 1
394 646 1
401 646 1
412 646 1
472 646 1
484 646 1
651 646 1
664 646 1
388 647 1
395 647 1
402 647 1
413 647 1
473 647 1
485 647 1
652 647 1
665 647 1
389 648 1
396 648 1
403 648 1
414 648 1
474 648 1
486 648 1
653 648 1
666 648 1
379 649 1
392 649 1
415 649 1
422 649 1
487 649 1
493 649 1
667 649 1
672 649 1
380 650 1
393 650 1
416 650 1
423 650 1
488 650 1
494 650 1
668 650 1
673 650 1
381 651 1
394 651 1
417 651 1
424 651 1
489 651 1
495 651 1
669 651 1
674 651 1
382 652 1
395 652 1
418 652 1
425 652 1
490 652 1
496 652 1
670 652 1
675 652 1
383 653 1
396 653 1
419 653 1
426 653 1
491 653 1
497 653 1
671 653 1
676 653 1
379 654 1
384 654 1
420 654 1
427 654 1
492 654 1
498 654 1
672 654 1
677 654 1
380 655 1
385 655 1
421 655 1
428 655 1
493 655 1
499 655 1
673 655 1
678 655 1
381 656 1
386 656 1
422 656 1
429 656 1
494 656 1
500 656 1
674 656 1
679 656 1
382 657 1
387 657 1
423 657 1
430 657 1
495 657 1
501 657 1
675 657 1
680 657 1
383 658 1
388 658 1
424 658 1
431 658 1
496 658 1
502 658 1
676 658 1
681 658 1
384 659 1
389 659 1
425 659 1
432 659 1
497 659 1
503 659 1
677 659 1
682 659 1
385 660 1
390 660 1
415 660 1
426 660 1
498 660 1
504 660 1
678 660 1
683 660 1
386 661 1
391 661 1
416 661 1
427 661 1
487 661 1
499 661 1
679 661 1
684 661 1
387 662 1
392 662 1
417 662 1
428 662 1
488 662 1
500 662 1
667 662 1
680 662 1
388 663 1
393 663 1
418 663 1
429 663 1
489 663 1
501 663 1
668 663 1
681 663 1
389 664 1
394 664 1
419 664 1
430 664 1
490 664 1
502 664 1
669 664 1
682 664 1
390 665 1
395 665 1
420 665 1
431 665 1
491 665 1
503 665 1
670 665 1
683 665 1
391 666 1
396 666 1
421 666 1
432 666 1
492 666 1
504 666 1
671 666 1
684 666 1
379 667 1
394 667 1
433 667 1
440 667 1
505 667 1
511 667 1
685 667 1
690 667 1
380 668 1
395 668 1
434 668 1
441 668 1
506 668 1
512 668 1
686 668 1
691 668 1
381 669 1
396 669 1
435 669 1
442 669 1
507 669 1
513 669 1
687 669 1
692 669 1
379 670 1
382 670 1
436 670 1
443 670 1
508 670 1
514 670 1
688 670 1
693 670 1
380 671 1
383 671 1
437 671 1
444 671 1
509 671 1
515 671 1
689 671 1
694 671 1
381 672 1
384 672 1
438 672 1
445 672 1
510 672 1
516 672 1
690 672 1
695 672 1
382 673 1
385 673 1
439 673 1
446 673 1
511 673 1
517 673 1
691 673 1
696 673 1
383 674 1
386 674 1
440 674 1
447 674 1
512 674 1
518 674 1
692 674 1
697 674 1
384 675 1
387 675 1
441 675 1
448 675 1
513 675 1
519 675 1
693 675 1
698 675 1
385 676 1
388 676 1
442 676 1
449 676 1
514 676 1
520 676 1
694 676 1
699 676 1
386 677 1
389 677 1
443 677 1
450 677 1
515 677 1
521 677 1
695 677 1
700 677 1
387 678 1
390 678 1
433 678 1
444 678 1
516 678 1
522 678 1
696 678 1
701 678 1
388 679 1
391 679 1
434 679 1
445 679 1
505 679 1
517 679 1
697 679 1
702 679 1
389 680 1
392 680 1
435 680 1
446 680 1
506 680 1
518 680 1
685 680 1
698 680 1
390 681 1
393 681 1
436 681 1
447 681 1
507 681 1
519 681 1
686 681 1
699 681 1
391 682 1
394 682 1
437 682 1
448 682 1
508 682 1
520 682 1
687 682 1
700 682 1
392 683 1
395 683 1
438 683 1
449 683 1
509 683 1
521 683 1
688 683 1
701 683 1
393 684 1
396 684 1
439 684 1
450 684 1
510 684 1
522 684 1
689 684 1
702 684 1
379 685 1
395 685 1
451 685 1
458 685 1
523 685 1
529 685 1
703 685 1
708 685 1
380 686 1
396 686 1
452 686 1
459 686 1
524 686 1
530 686 1
704 686 1
709 686 1
379 687 1
381 687 1
453 687 1
460 687 1
525 687 1
531 687 1
705 687 1
710 687 1
380 688 1
382 688 1
454 688 1
461 688 1
526 688 1
532 688 1
706 688 1
711 688 1
381 689 1
383 689 1
455 689 1
462 689 1
527 689 1
533 689 1
707 689 1
712 689 1
382 690 1
384 690 1
456 690 1
463 690 1
528 690 1
534 690 1
708 690 1
713 690 1
383 691 1
385 691 1
457 691 1
464 691 1
529 691 1
535 691 1
709 691 1
714 691 1
384 692 1
386 692 1
458 692 1
465 692 1
530 692 1
536 692 1
710 692 1
715 692 1
385 693 1
387 693 1
459 693 1
466 693 1
531 693 1
537 693 1
711 693 1
716 693 1
386 694 1
388 694 1
460 694 1
467 694 1
532 694 1
538 694 1
712 694 1
717 694 1
387 695 1
389 695 1
461 695 1
468 695 1
533 695 1
539 695 1
713 695 1
718 695 1
388 696 1
390 696 1
451 696 1
462 696 1
534 696 1
540 696 1
714 696 1
719 696 1
389 697 1
391 697 1
452 697 1
463 697 1
523 697 1
535 697 1
715 697 1
720 697 1
390 698 1
392 698 1
453 698 1
464 698 1
524 698 1
536 698 1
703 698 1
716 698 1
391 699 1
393 699 1
454 699 1
465 699 1
525 699 1
537 699 1
704 699 1
717 699 1
392 700 1
394 700 1
455 700 1
466 700 1
526 700 1
538 700 1
705 700 1
718 700 1
393 701 1
395 701 1
456 701 1
467 701 1
527 701 1
539 701 1
706 701 1
719 701 1
394 702 1
396 702 1
457 702 1
468 702 1
528 702 1
540 702 1
707 702 1
720 702 1
397 703 1
410 703 1
415 703 1
426 703 1
541 703 1
547 703 1
721 703 1
726 703 1
398 704 1
411 704 1
416 704 1
427 704 1
542 704 1
548 704 1
722 704 1
727 704 1
399 705 1
412 705 1
417 705 1
428 705 1
543 705 1
549 705 1
723 705 1
728 705 1
400 706 1
413 706 1
418 706 1
429 706 1
544 706 1
550 706 1
724 706 1
729 706 1
401 707 1
414 707 1
419 707 1
430 707 1
545 707 1
551 707 1
725 707 1
730 707 1
397 708 1
402 708 1
420 708 1
431 708 1
546 708 1
552 708 1
726 708 1
731 708 1
398 709 1
403 709 1
421 709 1
432 709 1
547 709 1
553 709 1
727 709 1
732 709 1
399 710 1
404 710 1
415 710 1
422 710 1
548 710 1
554 710 1
728 710 1
733 710 1
400 711 1
405 711 1
416 711 1
423 711 1
549 711 1
555 711 1
729 711 1
734 711 1
401 712 1
406 712 1
417 712 1
424 712 1
550 712 1
556 712 1
730 712 1
735 712 1
402 713 1
407 713 1
418 713 1
425 713 1
551 713 1
557 713 1
731 713 1
736 713 1
403 714 1
408 714 1
419 714 1
426 714 1
552 714 1
558 714 1
732 714 1
737 714 1
404 715 1
409 715 1
420 715 1
427 715 1
541 715 1
553 715 1
733 715 1
738 715 1
405 716 1
410 716 1
421 716 1
428 716 1
542 716 1
554 716 1
721 716 1
734 716 1
406 717 1
411 717 1
422 717 1
429 717 1
543 717 1
555 717 1
722 717 1
735 717 1
407 718 1
412 718 1
423 718 1
430 718 1
544 718 1
556 718 1
723 718 1
736 718 1
408 719 1
413 719 1
424 719 1
431 719 1
545 719 1
557 719 1
724 719 1
737 719 1
409 720 1
414 720 1
425 720 1
432 720 1
546 720 1
558 720 1
725 720 1
738 720 1
397 721 1
412 721 1
433 721 1
444 721 1
559 721 1
565 721 1
739 721 1
744 721 1
398 722 1
413 722 1
434 722 1
445 722 1
560 722 1
566 722 1
740 722 1
745 722 1
399 723 1
414 723 1
435 723 1
446 723 1
561 723 1
567 723 1
741 723 1
746 723 1
397 724 1
400 724 1
436 724 1
447 724 1
562 724 1
568 724 1
742 724 1
747 724 1
398 725 1
401 725 1
437 725 1
448 725 1
563 725 1
569 725 1
743 725 1
748 725 1
399 726 1
402 726 1
438 726 1
449 726 1
564 726 1
570 726 1
744 726 1
749 726 1
400 727 1
403 727 1
439 727 1
450 727 1
565 727 1
571 727 1
745 727 1
750 727 1
401 728 1
404 728 1
433 728 1
440 728 1
566 728 1
572 728 1
746 728 1
751 728 1
402 729 1
405 729 1
434 729 1
441 729 1
567 729 1
573 729 1
747 729 1
752 729 1
403 730 1
406 730 1
435 730 1
442 730 1
568 730 1
574 730 1
748 730 1
753 730 1
404 731 1
407 731 1
436 731 1
443 731 1
569 731 1
575 731 1
749 731 1
754 731 1
405 732 1
408 732 1
437 732 1
444 732 1
570 732 1
576 732 1
750 732 1
755 732 1
406 733 1
409 733 1
438 733 1
445 733 1
559 733 1
571 733 1
751 733 1
756 733 1
407 734 1
410 734 1
439 734 1
446 734 1
560 734 1
572 734 1
739 734 1
752 734 1
408 735 1
411 735 1
440 735 1
447 735 1
561 735 1
573 735 1
740 735 1
753 735 1
409 736 1
412 736 1
441 736 1
448 736 1
562 736 1
574 736 1
741 736 1
754 736 1
410 737 1
413 737 1
442 737 1
449 737 1
563 737 1
575 737 1
742 737 1
755 737 1
411 738 1
414 738 1
443 738 1
450 738 1
564 738 1
576 738 1
743 738 1
756 738 1
397 739 1
413 739 1
451 739 1
462 739 1
577 739 1
583 739 1
757 739 1
762 739 1
398 740 1
414 740 1
452 740 1
463 740 1
578 740 1
584 740 1
758 740 1
763 740 1
397 741 1
399 741 1
453 741 1
464 741 1
579 741 1
585 741 1
759 741 1
764 741 1
398 742 1
400 742 1
454 742 1
465 742 1
580 742 1
586 742 1
760 742 1
765 742 1
399 743 1
401 743 1
455 743 1
466 743 1
581 743 1
587 743 1
761 743 1
766 743 1
400 744 1
402 744 1
456 744 1
467 744 1
582 744 1
588 744 1
762 744 1
767 744 1
401 745 1
403 745 1
457 745 1
468 745 1
583 745 1
589 745 1
763 745 1
768 745 1
402 746 1
404 746 1
451 746 1
458 746 1
584 746 1
590 746 1
764 746 1
769 746 1
403 747 1
405 747 1
452 747 1
459 747 1
585 747 1
591 747 1
765 747 1
770 747 1
404 748 1
406 748 1
453 748 1
460 748 1
586 748 1
592 748 1
766 748 1
771 748 1
405 749 1
407 749 1
454 749 1
461 749 1
587 749 1
593 749 1
767 749 1
772 749 1
406 750 1
408 750 1
455 750 1
462 750 1
588 750 1
594 750 1
768 750 1
773 750 1
407 751 1
409 751 1
456 751 1
463 751 1
577 751 1
589 751 1
769 751 1
774 751 1
408 752 1
410 752 1
457 752 1
464 752 1
578 752 1
590 752 1
757 752 1
770 752 1
409 753 1
411 753 1
458 753 1
465 753 1
579 753 1
591 753 1
758 753 1
771 753 1
410 754 1
412 754 1
459 754 1
466 754 1
580 754 1
592 754 1
759 754 1
772 754 1
411 755 1
413 755 1
460 755 1
467 755 1
581 755 1
593 755 1
760 755 1
773 755 1
412 756 1
414 756 1
461 756 1
468 756 1
582 756 1
594 756 1
761 756 1
774 756 1
415 757 1
430 757 1
433 757 1
446 757 1
595 757 1
601 757 1
775 757 1
780 757 1
416 758 1
431 758 1
434 758 1
447 758 1
596 758 1
602 758 1
776 758 1
781 758 1
417 759 1
432 759 1
435 759 1
448 759 1
597 759 1
603 759 1
777 759 1
782 759 1
415 760 1
418 760 1
436 760 1
449 760 1
598 760 1
604 760 1
778 760 1
783 760 1
416 761 1
419 761 1
437 761 1
450 761 1
599 761 1
605 761 1
779 761 1
784 761 1
417 762 1
420 762 1
433 762 1
438 762 1
600 762 1
606 762 1
780 762 1
785 762 1
418 763 1
421 763 1
434 763 1
439 763 1
601 763 1
607 763 1
781 763 1
786 763 1
419 764 1
422 764 1
435 764 1
440 764 1
602 764 1
608 764 1
782 764 1
787 764 1
420 765 1
423 765 1
436 765 1
441 765 1
603 765 1
609 765 1
783 765 1
788 765 1
421 766 1
424 766 1
437 766 1
442 766 1
604 766 1
610 766 1
784 766 1
789 766 1
422 767 1
425 767 1
438 767 1
443 767 1
605 767 1
611 767 1
785 767 1
790 767 1
423 768 1
426 768 1
439 768 1
444 768 1
606 768 1
612 768 1
786 768 1
791 768 1
424 769 1
427 769 1
440 769 1
445 769 1
595 769 1
607 769 1
787 769 1
792 769 1
425 770 1
428 770 1
441 770 1
446 770 1
596 770 1
608 770 1
775 770 1
788 770 1
426 771 1
429 771 1
442 771 1
447 771 1
597 771 1
609 771 1
776 771 1
789 771 1
427 772 1
430 772 1
443 772 1
448 772 1
598 772 1
610 772 1
777 772 1
790 772 1
428 773 1
431 773 1
444 773 1
449 773 1
599 773 1
611 773 1
778 773 1
791 773 1
429 774 1
432 774 1
445 774 1
450 774 1
600 774 1
612 774 1
779 774 1
792 774 1
415 775 1
431 775 1
451 775 1
464 775 1
613 775 1
619 775 1
793 775 1
798 775 1
416 776 1
432 776 1
452 776 1
465 776 1
614 776 1
620 776 1
794 776 1
799 776 1
415 777 1
417 777 1
453 777 1
466 777 1
615 777 1
621 777 1
795 777 1
800 777 1
416 778 1
418 778 1
454 778 1
467 778 1
616 778 1
622 778 1
796 778 1
801 778 1
417 779 1
419 779 1
455 779 1
468 779 1
617 779 1
623 779 1
797 779 1
802 779 1
418 780 1
420 780 1
451 780 1
456 780 1
618 780 1
624 780 1
798 780 1
803 780 1
419 781 1
421 781 1
452 781 1
457 781 1
619 781 1
625 781 1
799 781 1
804 781 1
420 782 1
422 782 1
453 782 1
458 782 1
620 782 1
626 782 1
800 782 1
805 782 1
421 783 1
423 783 1
454 783 1
459 783 1
621 783 1
627 783 1
801 783 1
806 783 1
422 784 1
424 784 1
455 784 1
460 784 1
622 784 1
628 784 1
802 784 1
807 784 1
423 785 1
425 785 1
456 785 1
461 785 1
623 785 1
629 785 1
803 785 1
808 785 1
424 786 1
426 786 1
457 786 1
462 786 1
624 786 1
630 786 1
804 786 1
809 786 1
425 787 1
427 787 1
458 787 1
463 787 1
613 787 1
625 787 1
805 787 1
810 787 1
426 788 1
428 788 1
459 788 1
464 788 1
614 788 1
626 788 1
793 788 1
806 788 1
427 789 1
429 789 1
460 789 1
465 789 1
615 789 1
627 789 1
794 789 1
807 789 1
428 790 1
430 790 1
461 790 1
466 790 1
616 790 1
628 790 1
795 790 1
808 790 1
429 791 1
431 791 1
462 791 1
467 791 1
617 791 1
629 791 1
796 791 1
809 791 1
430 792 1
432 792 1
463 792 1
468 792 1
618 792 1
630 792 1
797 792 1
810 792 1
433 793 1
449 793 1
451 793 1
466 793 1
631 793 1
637 793 1
811 793 1
816 793 1
434 794 1
450 794 1
452 794 1
467 794 1
632 794 1
638 794 1
812 794 1
817 794 1
433 795 1
435 795 1
453 795 1
468 795 1
633 795 1
639 795 1
813 795 1
818 795 1
434 796 1
436 796 1
451 796 1
454 796 1
634 796 1
640 796 1
814 796 1
819 796 1
435 797 1
437 797 1
452 797 1
455 797 1
635 797 1
641 797 1
815 797 1
820 797 1
436 798 1
438 798 1
453 798 1
456 798 1
636 798 1
642 798 1
816 798 1
821 798 1
437 799 1
439 799 1
454 799 1
457 799 1
637 799 1
643 799 1
817 799 1
822 799 1
438 800 1
440 800 1
455 800 1
458 800 1
638 800 1
644 800 1
818 800 1
823 800 1
439 801 1
441 801 1
456 801 1
459 801 1
639 801 1
645 801 1
819 801 1
824 801 1
440 802 1
442 802 1
457 802 1
460 802 1
640 802 1
646 802 1
820 802 1
825 802 1
441 803 1
443 803 1
458 803 1
461 803 1
641 803 1
647 803 1
821 803 1
826 803 1
442 804 1
444 804 1
459 804 1
462 804 1
642 804 1
648 804 1
822 804 1
827 804 1
443 805 1
445 805 1
460 805 1
463 805 1
631 805 1
643 805 1
823 805 1
828 805 1
444 806 1
446 806 1
461 806 1
464 806 1
632 806 1
644 806 1
811 806 1
824 806 1
445 807 1
447 807 1
462 807 1
465 807 1
633 807 1
645 807 1
812 807 1
825 807 1
446 808 1
448 808 1
463 808 1
466 808 1
634 808 1
646 808 1
813 808 1
826 808 1
447 809 1
449 809 1
464 809 1
467 809 1
635 809 1
647 809 1
814 809 1
827 809 1
448 810 1
450 810 1
465 810 1
468 810 1
636 810 1
648 810 1
815 810 1
828 810 1
469 811 1
482 811 1
487 811 1
498 811 1
541 811 1
548 811 1
829 811 1
834 811 1
470 812 1
483 812 1
488 812 1
499 812 1
542 812 1
549 812 1
830 812 1
835 812 1
471 813 1
484 813 1
489 813 1
500 813 1
543 813 1
550 813 1
831 813 1
836 813 1
472 814 1
485 814 1
490 814 1
501 814 1
544 814 1
551 814 1
832 814 1
837 814 1
473 815 1
486 815 1
491 815 1
502 815 1
545 815 1
552 815 1
833 815 1
838 815 1
469 816 1
474 816 1
492 816 1
503 816 1
546 816 1
553 816 1
834 816 1
839 816 1
470 817 1
475 817 1
493 817 1
504 817 1
547 817 1
554 817 1
835 817 1
840 817 1
471 818 1
476 818 1
487 818 1
494 818 1
548 818 1
555 818 1
836 818 1
841 818 1
472 819 1
477 819 1
488 819 1
495 819 1
549 819 1
556 819 1
837 819 1
842 819 1
473 820 1
478 820 1
489 820 1
496 820 1
550 820 1
557 820 1
838 820 1
843 820 1
474 821 1
479 821 1
490 821 1
497 821 1
551 821 1
558 821 1
839 821 1
844 821 1
475 822 1
480 822 1
491 822 1
498 822 1
541 822 1
552 822 1
840 822 1
845 822 1
476 823 1
481 823 1
492 823 1
499 823 1
542 823 1
553 823 1
841 823 1
846 823 1
477 824 1
482 824 1
493 824 1
500 824 1
543 824 1
554 824 1
829 824 1
842 824 1
478 825 1
483 825 1
494 825 1
501 825 1
544 825 1
555 825 1
830 825 1
843 825 1
479 826 1
484 826 1
495 826 1
502 826 1
545 826 1
556 826 1
831 826 1
844 826 1
480 827 1
485 827 1
496 827 1
503 827 1
546 827 1
557 827 1
832 827 1
845 827 1
481 828 1
486 828 1
497 828 1
504 828 1
547 828 1
558 828 1
833 828 1
846 828 1
469 829 1
484 829 1
505 829 1
516 829 1
559 829 1
566 829 1
847 829 1
852 829 1
470 830 1
485 830 1
506 830 1
517 830 1
560 830 1
567 830 1
848 830 1
853 830 1
471 831 1
486 831 1
507 831 1
518 831 1
561 831 1
568 831 1
849 831 1
854 831 1
469 832 1
472 832 1
508 832 1
519 832 1
562 832 1
569 832 1
850 832 1
855 832 1
470 833 1
473 833 1
509 833 1
520 833 1
563 833 1
570 833 1
851 833 1
856 833 1
471 834 1
474 834 1
510 834 1
521 834 1
564 834 1
571 834 1
852 834 1
857 834 1
472 835 1
475 835 1
511 835 1
522 835 1
565 835 1
572 835 1
853 835 1
858 835 1
473 836 1
476 836 1
505 836 1
512 836 1
566 836 1
573 836 1
854 836 1
859 836 1
474 837 1
477 837 1
506 837 1
513 837 1
567 837 1
574 837 1
855 837 1
860 837 1
475 838 1
478 838 1
507 838 1
514 838 1
568 838 1
575 838 1
856 838 1
861 838 1
476 839 1
479 839 1
508 839 1
515 839 1
569 839 1
576 839 1
857 839 1
862 839 1
477 840 1
480 840 1
509 840 1
516 840 1
559 840 1
570 840 1
858 840 1
863 840 1
478 841 1
481 841 1
510 841 1
517 841 1
560 841 1
571 841 1
859 841 1
864 841 1
479 842 1
482 842 1
511 842 1
518 842 1
561 842 1
572 842 1
847 842 1
860 842 1
480 843 1
483 843 1
512 843 1
519 843 1
562 843 1
573 843 1
848 843 1
861 843 1
481 844 1
484 844 1
513 844 1
520 844 1
563 844 1
574 844 1
849 844 1
862 844 1
482 845 1
485 845 1
514 845 1
521 845 1
564 845 1
575 845 1
850 845 1
863 845 1
483 846 1
486 846 1
515 846 1
522 846 1
565 846 1
576 846 1
851 846 1
864 846 1
469 847 1
485 847 1
523 847 1
534 847 1
577 847 1
584 847 1
865 847 1
870 847 1
470 848 1
486 848 1
524 848 1
535 848 1
578 848 1
585 848 1
866 848 1
871 848 1
469 849 1
471 849 1
525 849 1
536 849 1
579 849 1
586 849 1
867 849 1
872 849 1
470 850 1
472 850 1
526 850 1
537 850 1
580 850 1
587 850 1
868 850 1
873 850 1
471 851 1
473 851 1
527 851 1
538 851 1
581 851 1
588 851 1
869 851 1
874 851 1
472 852 1
474 852 1
528 852 1
539 852 1
582 852 1
589 852 1
870 852 1
875 852 1
473 853 1
475 853 1
529 853 1
540 853 1
583 853 1
590 853 1
871 853 1
876 853 1
474 854 1
476 854 1
523 854 1
530 854 1
584 854 1
591 854 1
872 854 1
877 854 1
475 855 1
477 855 1
524 855 1
531 855 1
585 855 1
592 855 1
873 855 1
878 855 1
476 856 1
478 856 1
525 856 1
532 856 1
586 856 1
593 856 1
874 856 1
879 856 1
477 857 1
479 857 1
526 857 1
533 857 1
587 857 1
594 857 1
875 857 1
880 857 1
478 858 1
480 858 1
527 858 1
534 858 1
577 858 1
588 858 1
876 858 1
881 858 1
479 859 1
481 859 1
528 859 1
535 859 1
578 859 1
589 859 1
877 859 1
882 859 1
480 860 1
482 860 1
529 860 1
536 860 1
579 860 1
590 860 1
865 860 1
878 860 1
481 861 1
483 861 1
530 861 1
537 861 1
580 861 1
591 861 1
866 861 1
879 861 1
482 862 1
484 862 1
531 862 1
538 862 1
581 862 1
592 862 1
867 862 1
880 862 1
483 863 1
485 863 1
532 863 1
539 863 1
582 863 1
593 863 1
868 863 1
881 863 1
484 864 1
486 864 1
533 864 1
540 864 1
583 864 1
594 864 1
869 864 1
882 864 1
487 865 1
502 865 1
505 865 1
518 865 1
595 865 1
602 865 1
883 865 1
888 865 1
488 866 1
503 866 1
506 866 1
519 866 1
596 866 1
603 866 1
884 866 1
889 866 1
489 867 1
504 867 1
507 867 1
520 867 1
597 867 1
604 867 1
885 867 1
890 867 1
487 868 1
490 868 1
508 868 1
521 868 1
598 868 1
605 868 1
886 868 1
891 868 1
488 869 1
491 869 1
509 869 1
522 869 1
599 869 1
606 869 1
887 869 1
892 869 1
489 870 1
492 870 1
505 870 1
510 870 1
600 870 1
607 870 1
888 870 1
893 870 1
490 871 1
493 871 1
506 871 1
511 871 1
601 871 1
608 871 1
889 871 1
894 871 1
491 872 1
494 872 1
507 872 1
512 872 1
602 872 1
609 872 1
890 872 1
895 872 1
492 873 1
495 873 1
508 873 1
513 873 1
603 873 1
610 873 1
891 873 1
896 873 1
493 874 1
496 874 1
509 874 1
514 874 1
604 874 1
611 874 1
892 874 1
897 874 1
494 875 1
497 875 1
510 875 1
515 875 1
605 875 1
612 875 1
893 875 1
898 875 1
495 876 1
498 876 1
511 876 1
516 876 1
595 876 1
606 876 1
894 876 1
899 876 1
496 877 1
499 877 1
512 877 1
517 877 1
596 877 1
607 877 1
895 877 1
900 877 1
497 878 1
500 878 1
513 878 1
518 878 1
597 878 1
608 878 1
883 878 1
896 878 1
498 879 1
501 879 1
514 879 1
519 879 1
598 879 1
609 879 1
884 879 1
897 879 1
499 880 1
502 880 1
515 880 1
520 880 1
599 880 1
610 880 1
885 880 1
898 880 1
500 881 1
503 881 1
516 881 1
521 881 1
600 881 1
611 881 1
886 881 1
899 881 1
501 882 1
504 882 1
517 882 1
522 882 1
601 882 1
612 882 1
887 882 1
900 882 1
487 883 1
503 883 1
523 883 1
536 883 1
613 883 1
620 883 1
901 883 1
906 883 1
488 884 1
504 884 1
524 884 1
537 884 1
614 884 1
621 884 1
902 884 1
907 884 1
487 885 1
489 885 1
525 885 1
538 885 1
615 885 1
622 885 1
903 885 1
908 885 1
488 886 1
490 886 1
526 886 1
539 886 1
616 886 1
623 886 1
904 886 1
909 886 1
489 887 1
491 887 1
527 887 1
540 887 1
617 887 1
624 887 1
905 887 1
910 887 1
490 888 1
492 888 1
523 888 1
528 888 1
618 888 1
625 888 1
906 888 1
911 888 1
491 889 1
493 889 1
524 889 1
529 889 1
619 889 1
626 889 1
907 889 1
912 889 1
492 890 1
494 890 1
525 890 1
530 890 1
620 890 1
627 890 1
908 890 1
913 890 1
493 891 1
495 891 1
526 891 1
531 891 1
621 891 1
628 891 1
909 891 1
914 891 1
494 892 1
496 892 1
527 892 1
532 892 1
622 892 1
629 892 1
910 892 1
915 892 1
495 893 1
497 893 1
528 893 1
533 893 1
623 893 1
630 893 1
911 893 1
916 893 1
496 894 1
498 894 1
529 894 1
534 894 1
613 894 1
624 894 1
912 894 1
917 894 1
497 895 1
499 895 1
530 895 1
535 895 1
614 895 1
625 895 1
913 895 1
918 895 1
498 896 1
500 896 1
531 896 1
536 896 1
615 896 1
626 896 1
901 896 1
914 896 1
499 897 1
501 897 1
532 897 1
537 897 1
616 897 1
627 897 1
902 897 1
915 897 1
500 898 1
502 898 1
533 898 1
538 898 1
617 898 1
628 898 1
903 898 1
916 898 1
501 899 1
503 899 1
534 899 1
539 899 1
618 899 1
629 899 1
904 899 1
917 899 1
502 900 1
504 900 1
535 900 1
540 900 1
619 900 1
630 900 1
905 900 1
918 900 1
505 901 1
521 901 1
523 901 1
538 901 1
631 901 1
638 901 1
919 901 1
924 901 1
506 902 1
522 902 1
524 902 1
539 902 1
632 902 1
639 902 1
920 902 1
925 902 1
505 903 1
507 903 1
525 903 1
540 903 1
633 903 1
640 903 1
921 903 1
926 903 1
506 904 1
508 904 1
523 904 1
526 904 1
634 904 1
641 904 1
922 904 1
927 904 1
507 905 1
509 905 1
524 905 1
527 905 1
635 905 1
642 905 1
923 905 1
928 905 1
508 906 1
510 906 1
525 906 1
528 906 1
636 906 1
643 906 1
924 906 1
929 906 1
509 907 1
511 907 1
526 907 1
529 907 1
637 907 1
644 907 1
925 907 1
930 907 1
510 908 1
512 908 1
527 908 1
530 908 1
638 908 1
645 908 1
926 908 1
931 908 1
511 909 1
513 909 1
528 909 1
531 909 1
639 909 1
646 909 1
927 909 1
932 909 1
512 910 1
514 910 1
529 910 1
532 910 1
640 910 1
647 910 1
928 910 1
933 910 1
513 911 1
515 911 1
530 911 1
533 911 1
641 911 1
648 911 1
929 911 1
934 911 1
514 912 1
516 912 1
531 912 1
534 912 1
631 912 1
642 912 1
930 912 1
935 912 1
515 913 1
517 913 1
532 913 1
535 913 1
632 913 1
643 913 1
931 913 1
936 913 1
516 914 1
518 914 1
533 914 1
536 914 1
633 914 1
644 914 1
919 914 1
932 914 1
517 915 1
519 915 1
534 915 1
537 915 1
634 915 1
645 915 1
920 915 1
933 915 1
518 916 1
520 916 1
535 916 1
538 916 1
635 916 1
646 916 1
921 916 1
934 916 1
519 917 1
521 917 1
536 917 1
539 917 1
636 917 1
647 917 1
922 917 1
935 917 1
520 918 1
522 918 1
537 918 1
540 918 1
637 918 1
648 918 1
923 918 1
936 918 1
541 919 1
556 919 1
559 919 1
572 919 1
595 919 1
606 919 1
937 919 1
942 919 1
542 920 1
557 920 1
560 920 1
573 920 1
596 920 1
607 920 1
938 920 1
943 920 1
543 921 1
558 921 1
561 921 1
574 921 1
597 921 1
608 921 1
939 921 1
944 921 1
541 922 1
544 922 1
562 922 1
575 922 1
598 922 1
609 922 1
940 922 1
945 922 1
542 923 1
545 923 1
563 923 1
576 923 1
599 923 1
610 923 1
941 923 1
946 923 1
543 924 1
546 924 1
559 924 1
564 924 1
600 924 1
611 924 1
942 924 1
947 924 1
544 925 1
547 925 1
560 925 1
565 925 1
601 925 1
612 925 1
943 925 1
948 925 1
545 926 1
548 926 1
561 926 1
566 926 1
595 926 1
602 926 1
944 926 1
949 926 1
546 927 1
549 927 1
562 927 1
567 927 1
596 927 1
603 927 1
945 927 1
950 927 1
547 928 1
550 928 1
563 928 1
568 928 1
597 928 1
604 928 1
946 928 1
951 928 1
548 929 1
551 929 1
564 929 1
569 929 1
598 929 1
605 929 1
947 929 1
952 929 1
549 930 1
552 930 1
565 930 1
570 930 1
599 930 1
606 930 1
948 930 1
953 930 1
550 931 1
553 931 1
566 931 1
571 931 1
600 931 1
607 931 1
949 931 1
954 931 1
551 932 1
554 932 1
567 932 1
572 932 1
601 932 1
608 932 1
937 932 1
950 932 1
552 933 1
555 933 1
568 933 1
573 933 1
602 933 1
609 933 1
938 933 1
951 933 1
553 934 1
556 934 1
569 934 1
574 934 1
603 934 1
610 934 1
939 934 1
952 934 1
554 935 1
557 935 1
570 935 1
575 935 1
604 935 1
611 935 1
940 935 1
953 935 1
555 936 1
558 936 1
571 936 1
576 936 1
605 936 1
612 936 1
941 936 1
954 936 1
541 937 1
557 937 1
577 937 1
590 937 1
613 937 1
624 937 1
955 937 1
960 937 1
542 938 1
558 938 1
578 938 1
591 938 1
614 938 1
625 938 1
956 938 1
961 938 1
541 939 1
543 939 1
579 939 1
592 939 1
615 939 1
626 939 1
957 939 1
962 939 1
542 940 1
544 940 1
580 940 1
593 940 1
616 940 1
627 940 1
958 940 1
963 940 1
543 941 1
545 941 1
581 941 1
594 941 1
617 941 1
628 941 1
959 941 1
964 941 1
544 942 1
546 942 1
577 942 1
582 942 1
618 942 1
629 942 1
960 942 1
965 942 1
545 943 1
547 943 1
578 943 1
583 943 1
619 943 1
630 943 1
961 943 1
966 943 1
546 944 1
548 944 1
579 944 1
584 944 1
613 944 1
620 944 1
962 944 1
967 944 1
547 945 1
549 945 1
580 945 1
585 945 1
614 945 1
621 945 1
963 945 1
968 945 1
548 946 1
550 946 1
581 946 1
586 946 1
615 946 1
622 946 1
964 946 1
969 946 1
549 947 1
551 947 1
582 947 1
587 947 1
616 947 1
623 947 1
965 947 1
970 947 1
550 948 1
552 948 1
583 948 1
588 948 1
617 948 1
624 948 1
966 948 1
971 948 1
551 949 1
553 949 1
584 949 1
589 949 1
618 949 1
625 949 1
967 949 1
972 949 1
552 950 1
554 950 1
585 950 1
590 950 1
619 950 1
626 950 1
955 950 1
968 950 1
553 951 1
555 951 1
586 951 1
591 951 1
620 951 1
627 951 1
956 951 1
969 951 1
554 952 1
556 952 1
587 952 1
592 952 1
621 952 1
628 952 1
957 952 1
970 952 1
555 953 1
557 953 1
588 953 1
593 953 1
622 953 1
629 953 1
958 953 1
971 953 1
556 954 1
558 954 1
589 954 1
594 954 1
623 954 1
630 954 1
959 954 1
972 954 1
559 955 1
575 955 1
577 955 1
592 955 1
631 955 1
642 955 1
973 955 1
978 955 1
560 956 1
576 956 1
578 956 1
593 956 1
632 956 1
643 956 1
974 956 1
979 956 1
559 957 1
561 957 1
579 957 1
594 957 1
633 957 1
644 957 1
975 957 1
980 957 1
560 958 1
562 958 1
577 958 1
580 958 1
634 958 1
645 958 1
976 958 1
981 958 1
561 959 1
563 959 1
578 959 1
581 959 1
635 959 1
646 959 1
977 959 1
982 959 1
562 960 1
564 960 1
579 960 1
582 960 1
636 960 1
647 960 1
978 960 1
983 960 1
563 961 1
565 961 1
580 961 1
583 961 1
637 961 1
648 961 1
979 961 1
984 961 1
564 962 1
566 962 1
581 962 1
584 962 1
631 962 1
638 962 1
980 962 1
985 962 1
565 963 1
567 963 1
582 963 1
585 963 1
632 963 1
639 963 1
981 963 1
986 963 1
566 964 1
568 964 1
583 964 1
586 964 1
633 964 1
640 964 1
982 964 1
987 964 1
567 965 1
569 965 1
584 965 1
587 965 1
634 965 1
641 965 1
983 965 1
988 965 1
568 966 1
570 966 1
585 966 1
588 966 1
635 966 1
642 966 1
984 966 1
989 966 1
569 967 1
571 967 1
586 967 1
589 967 1
636 967 1
643 967 1
985 967 1
990 967 1
570 968 1
572 968 1
587 968 1
590 968 1
637 968 1
644 968 1
973 968 1
986 968 1
571 969 1
573 969 1
588 969 1
591 969 1
638 969 1
645 969 1
974 969 1
987 969 1
572 970 1
574 970 1
589 970 1
592 970 1
639 970 1
646 970 1
975 970 1
988 970 1
573 971 1
575 971 1
590 971 1
593 971 1
640 971 1
647 971 1
976 971 1
989 971 1
574 972 1
576 972 1
591 972 1
594 972 1
641 972 1
648 972 1
977 972 1
990 972 1
595 973 1
611 973 1
613 973 1
628 973 1
631 973 1
644 973 1
991 973 1
996 973 1
596 974 1
612 974 1
614 974 1
629 974 1
632 974 1
645 974 1
992 974 1
997 974 1
595 975 1
597 975 1
615 975 1
630 975 1
633 975 1
646 975 1
993 975 1
998 975 1
596 976 1
598 976 1
613 976 1
616 976 1
634 976 1
647 976 1
994 976 1
999 976 1
597 977 1
599 977 1
614 977 1
617 977 1
635 977 1
648 977 1
995 977 1
1000 977 1
598 978 1
600 978 1
615 978 1
618 978 1
631 978 1
636 978 1
996 978 1
1001 978 1
599 979 1
601 979 1
616 979 1
619 979 1
632 979 1
637 979 1
997 979 1
1002 979 1
600 980 1
602 980 1
617 980 1
620 980 1
633 980 1
638 980 1
998 980 1
1003 980 1
601 981 1
603 981 1
618 981 1
621 981 1
634 981 1
639 981 1
999 981 1
1004 981 1
602 982 1
604 982 1
619 982 1
622 982 1
635 982 1
640 982 1
1000 982 1
1005 982 1
603 983 1
605 983 1
620 983 1
623 983 1
636 983 1
641 983 1
1001 983 1
1006 983 1
604 984 1
606 984 1
621 984 1
624 984 1
637 984 1
642 984 1
1002 984 1
1007 984 1
605 985 1
607 985 1
622 985 1
625 985 1
638 985 1
643 985 1
1003 985 1
1008 985 1
606 986 1
608 986 1
623 986 1
626 986 1
639 986 1
644 986 1
991 986 1
1004 986 1
607 987 1
609 987 1
624 987 1
627 987 1
640 987 1
645 987 1
992 987 1
1005 987 1
608 988 1
610 988 1
625 988 1
628 988 1
641 988 1
646 988 1
993 988 1
1006 988 1
609 989 1
611 989 1
626 989 1
629 989 1
642 989 1
647 989 1
994 989 1
1007 989 1
610 990 1
612 990 1
627 990 1
630 990 1
643 990 1
648 990 1
995 990 1
1008 990 1
649 991 1
662 991 1
667 991 1
678 991 1
721 991 1
728 991 1
829 991 1
835 991 1
650 992 1
663 992 1
668 992 1
679 992 1
722 992 1
729 992 1
830 992 1
836 992 1
651 993 1
664 993 1
669 993 1
680 993 1
723 993 1
730 993 1
831 993 1
837 993 1
652 994 1
665 994 1
670 994 1
681 994 1
724 994 1
731 994 1
832 994 1
838 994 1
653 995 1
666 995 1
671 995 1
682 995 1
725 995 1
732 995 1
833 995 1
839 995 1
649 996 1
654 996 1
672 996 1
683 996 1
726 996 1
733 996 1
834 996 1
840 996 1
650 997 1
655 997 1
673 997 1
684 997 1
727 997 1
734 997 1
835 997 1
841 997 1
651 998 1
656 998 1
667 998 1
674 998 1
728 998 1
735 998 1
836 998 1
842 998 1
652 999 1
657 999 1
668 999 1
675 999 1
729 999 1
736 999 1
837 999 1
843 999 1
653 1000 1
658 1000 1
669 1000 1
676 1000 1
730 1000 1
737 1000 1
838 1000 1
844 1000 1
654 1001 1
659 1001 1
670 1001 1
677 1001 1
731 1001 1
738 1001 1
839 1001 1
845 1001 1
655 1002 1
660 1002 1
671 1002 1
678 1002 1
721 1002 1
732 1002 1
840 1002 1
846 1002 1
656 1003 1
661 1003 1
672 1003 1
679 1003 1
722 1003 1
733 1003 1
829 1003 1
841 1003 1
657 1004 1
662 1004 1
673 1004 1
680 1004 1
723 1004 1
734 1004 1
830 1004 1
842 1004 1
658 1005 1
663 1005 1
674 1005 1
681 1005 1
724 1005 1
735 1005 1
831 1005 1
843 1005 1
659 1006 1
664 1006 1
675 1006 1
682 1006 1
725 1006 1
736 1006 1
832 1006 1
844 1006 1
660 1007 1
665 1007 1
676 1007 1
683 1007 1
726 1007 1
737 1007 1
833 1007 1
845 1007 1
661 1008 1
666 1008 1
677 1008 1
684 1008 1
727 1008 1
738 1008 1
834 1008 1
846 1008 1
649 1009 1
664 1009 1
685 1009 1
696 1009 1
739 1009 1
746 1009 1
847 1009 1
853 1009 1
650 1010 1
665 1010 1
686 1010 1
697 1010 1
740 1010 1
747 1010 1
848 1010 1
854 1010 1
651 1011 1
666 1011 1
687 1011 1
698 1011 1
741 1011 1
748 1011 1
849 1011 1
855 1011 1
649 1012 1
652 1012 1
688 1012 1
699 1012 1
742 1012 1
749 1012 1
850 1012 1
856 1012 1
650 1013 1
653 1013 1
689 1013 1
700 1013 1
743 1013 1
750 1013 1
851 1013 1
857 1013 1
651 1014 1
654 1014 1
690 1014 1
701 1014 1
744 1014 1
751 1014 1
852 1014 1
858 1014 1
652 1015 1
655 1015 1
691 1015 1
702 1015 1
745 1015 1
752 1015 1
853 1015 1
859 1015 1
653 1016 1
656 1016 1
685 1016 1
692 1016 1
746 1016 1
753 1016 1
854 1016 1
860 1016 1
654 1017 1
657 1017 1
686 1017 1
693 1017 1
747 1017 1
754 1017 1
855 1017 1
861 1017 1
655 1018 1
658 1018 1
687 1018 1
694 1018 1
748 1018 1
755 1018 1
856 1018 1
862 1018 1
656 1019 1
659 1019 1
688 1019 1
695 1019 1
749 1019 1
756 1019 1
857 1019 1
863 1019 1
657 1020 1
660 1020 1
689 1020 1
696 1020 1
739 1020 1
750 1020 1
858 1020 1
864 1020 1
658 1021 1
661 1021 1
690 1021 1
697 1021 1
740 1021 1
751 1021 1
847 1021 1
859 1021 1
659 1022 1
662 1022 1
691 1022 1
698 1022 1
741 1022 1
752 1022 1
848 1022 1
860 1022 1
660 1023 1
663 1023 1
692 1023 1
699 1023 1
742 1023 1
753 1023 1
849 1023 1
861 1023 1
661 1024 1
664 1024 1
693 1024 1
700 1024 1
743 1024 1
754 1024 1
850 1024 1
862 1024 1
662 1025 1
665 1025 1
694 1025 1
701 1025 1
744 1025 1
755 1025 1
851 1025 1
863 1025 1
663 1026 1
666 1026 1
695 1026 1
702 1026 1
745 1026 1
756 1026 1
852 1026 1
864 1026 1
649 1027 1
665 1027 1
703 1027 1
714 1027 1
757 1027 1
764 1027 1
865 1027 1
871 1027 1
650 1028 1
666 1028 1
704 1028 1
715 1028 1
758 1028 1
765 1028 1
866 1028 1
872 1028 1
649 1029 1
651 1029 1
705 1029 1
716 1029 1
759 1029 1
766 1029 1
867 1029 1
873 1029 1
650 1030 1
652 1030 1
706 1030 1
717 1030 1
760 1030 1
767 1030 1
868 1030 1
874 1030 1
651 1031 1
653 1031 1
707 1031 1
718 1031 1
761 1031 1
768 1031 1
869 1031 1
875 1031 1
652 1032 1
654 1032 1
708 1032 1
719 1032 1
762 1032 1
769 1032 1
870 1032 1
876 1032 1
653 1033 1
655 1033 1
709 1033 1
720 1033 1
763 1033 1
770 1033 1
871 1033 1
877 1033 1
654 1034 1
656 1034 1
703 1034 1
710 1034 1
764 1034 1
771 1034 1
872 1034 1
878 1034 1
655 1035 1
657 1035 1
704 1035 1
711 1035 1
765 1035 1
772 1035 1
873 1035 1
879 1035 1
656 1036 1
658 1036 1
705 1036 1
712 1036 1
766 1036 1
773 1036 1
874 1036 1
880 1036 1
657 1037 1
659 1037 1
706 1037 1
713 1037 1
767 1037 1
774 1037 1
875 1037 1
881 1037 1
658 1038 1
660 1038 1
707 1038 1
714 1038 1
757 1038 1
768 1038 1
876 1038 1
882 1038 1
659 1039 1
661 1039 1
708 1039 1
715 1039 1
758 1039 1
769 1039 1
865 1039 1
877 1039 1
660 1040 1
662 1040 1
709 1040 1
716 1040 1
759 1040 1
770 1040 1
866 1040 1
878 1040 1
661 1041 1
663 1041 1
710 1041 1
717 1041 1
760 1041 1
771 1041 1
867 1041 1
879 1041 1
662 1042 1
664 1042 1
711 1042 1
718 1042 1
761 1042 1
772 1042 1
868 1042 1
880 1042 1
663 1043 1
665 1043 1
712 1043 1
719 1043 1
762 1043 1
773 1043 1
869 1043 1
881 1043 1
664 1044 1
666 1044 1
713 1044 1
720 1044 1
763 1044 1
774 1044 1
870 1044 1
882 1044 1
667 1045 1
682 1045 1
685 1045 1
698 1045 1
775 1045 1
782 1045 1
883 1045 1
889 1045 1
668 1046 1
683 1046 1
686 1046 1
699 1046 1
776 1046 1
783 1046 1
884 1046 1
890 1046 1
669 1047 1
684 1047 1
687 1047 1
700 1047 1
777 1047 1
784 1047 1
885 1047 1
891 1047 1
667 1048 1
670 1048 1
688 1048 1
701 1048 1
778 1048 1
785 1048 1
886 1048 1
892 1048 1
668 1049 1
671 1049 1
689 1049 1
702 1049 1
779 1049 1
786 1049 1
887 1049 1
893 1049 1
669 1050 1
672 1050 1
685 1050 1
690 1050 1
780 1050 1
787 1050 1
888 1050 1
894 1050 1
670 1051 1
673 1051 1
686 1051 1
691 1051 1
781 1051 1
788 1051 1
889 1051 1
895 1051 1
671 1052 1
674 1052 1
687 1052 1
692 1052 1
782 1052 1
789 1052 1
890 1052 1
896 1052 1
672 1053 1
675 1053 1
688 1053 1
693 1053 1
783 1053 1
790 1053 1
891 1053 1
897 1053 1
673 1054 1
676 1054 1
689 1054 1
694 1054 1
784 1054 1
791 1054 1
892 1054 1
898 1054 1
674 1055 1
677 1055 1
690 1055 1
695 1055 1
785 1055 1
792 1055 1
893 1055 1
899 1055 1
675 1056 1
678 1056 1
691 1056 1
696 1056 1
775 1056 1
786 1056 1
894 1056 1
900 1056 1
676 1057 1
679 1057 1
692 1057 1
697 1057 1
776 1057 1
787 1057 1
883 1057 1
895 1057 1
677 1058 1
680 1058 1
693 1058 1
698 1058 1
777 1058 1
788 1058 1
884 1058 1
896 1058 1
678 1059 1
681 1059 1
694 1059 1
699 1059 1
778 1059 1
789 1059 1
885 1059 1
897 1059 1
679 1060 1
682 1060 1
695 1060 1
700 1060 1
779 1060 1
790 1060 1
886 1060 1
898 1060 1
680 1061 1
683 1061 1
696 1061 1
701 1061 1
780 1061 1
791 1061 1
887 1061 1
899 1061 1
681 1062 1
684 1062 1
697 1062 1
702 1062 1
781 1062 1
792 1062 1
888 1062 1
900 1062 1
667 1063 1
683 1063 1
703 1063 1
716 1063 1
793 1063 1
800 1063 1
901 1063 1
907 1063 1
668 1064 1
684 1064 1
704 1064 1
717 1064 1
794 1064 1
801 1064 1
902 1064 1
908 1064 1
667 1065 1
669 1065 1
705 1065 1
718 1065 1
795 1065 1
802 1065 1
903 1065 1
909 1065 1
668 1066 1
670 1066 1
706 1066 1
719 1066 1
796 1066 1
803 1066 1
904 1066 1
910 1066 1
669 1067 1
671 1067 1
707 1067 1
720 1067 1
797 1067 1
804 1067 1
905 1067 1
911 1067 1
670 1068 1
672 1068 1
703 1068 1
708 1068 1
798 1068 1
805 1068 1
906 1068 1
912 1068 1
671 1069 1
673 1069 1
704 1069 1
709 1069 1
799 1069 1
806 1069 1
907 1069 1
913 1069 1
672 1070 1
674 1070 1
705 1070 1
710 1070 1
800 1070 1
807 1070 1
908 1070 1
914 1070 1
673 1071 1
675 1071 1
706 1071 1
711 1071 1
801 1071 1
808 1071 1
909 1071 1
915 1071 1
674 1072 1
676 1072 1
707 1072 1
712 1072 1
802 1072 1
809 1072 1
910 1072 1
916 1072 1
675 1073 1
677 1073 1
708 1073 1
713 1073 1
803 1073 1
810 1073 1
911 1073 1
917 1073 1
676 1074 1
678 1074 1
709 1074 1
714 1074 1
793 1074 1
804 1074 1
912 1074 1
918 1074 1
677 1075 1
679 1075 1
710 1075 1
715 1075 1
794 1075 1
805 1075 1
901 1075 1
913 1075 1
678 1076 1
680 1076 1
711 1076 1
716 1076 1
795 1076 1
806 1076 1
902 1076 1
914 1076 1
679 1077 1
681 1077 1
712 1077 1
717 1077 1
796 1077 1
807 1077 1
903 1077 1
915 1077 1
680 1078 1
682 1078 1
713 1078 1
718 1078 1
797 1078 1
808 1078 1
904 1078 1
916 1078 1
681 1079 1
683 1079 1
714 1079 1
719 1079 1
798 1079 1
809 1079 1
905 1079 1
917 1079 1
682 1080 1
684 1080 1
715 1080 1
720 1080 1
799 1080 1
810 1080 1
906 1080 1
918 1080 1
685 1081 1
701 1081 1
703 1081 1
718 1081 1
811 1081 1
818 1081 1
919 1081 1
925 1081 1
686 1082 1
702 1082 1
704 1082 1
719 1082 1
812 1082 1
819 1082 1
920 1082 1
926 1082 1
685 1083 1
687 1083 1
705 1083 1
720 1083 1
813 1083 1
820 1083 1
921 1083 1
927 1083 1
686 1084 1
688 1084 1
703 1084 1
706 1084 1
814 1084 1
821 1084 1
922 1084 1
928 1084 1
687 1085 1
689 1085 1
704 1085 1
707 1085 1
815 1085 1
822 1085 1
923 1085 1
929 1085 1
688 1086 1
690 1086 1
705 1086 1
708 1086 1
816 1086 1
823 1086 1
924 1086 1
930 1086 1
689 1087 1
691 1087 1
706 1087 1
709 1087 1
817 1087 1
824 1087 1
925 1087 1
931 1087 1
690 1088 1
692 1088 1
707 1088 1
710 1088 1
818 1088 1
825 1088 1
926 1088 1
932 1088 1
691 1089 1
693 1089 1
708 1089 1
711 1089 1
819 1089 1
826 1089 1
927 1089 1
933 1089 1
692 1090 1
694 1090 1
709 1090 1
712 1090 1
820 1090 1
827 1090 1
928 1090 1
934 1090 1
693 1091 1
695 1091 1
710 1091 1
713 1091 1
821 1091 1
828 1091 1
929 1091 1
935 1091 1
694 1092 1
696 1092 1
711 1092 1
714 1092 1
811 1092 1
822 1092 1
930 1092 1
936 1092 1
695 1093 1
697 1093 1
712 1093 1
715 1093 1
812 1093 1
823 1093 1
919 1093 1
931 1093 1
696 1094 1
698 1094 1
713 1094 1
716 1094 1
813 1094 1
824 1094 1
920 1094 1
932 1094 1
697 1095 1
699 1095 1
714 1095 1
717 1095 1
814 1095 1
825 1095 1
921 1095 1
933 1095 1
698 1096 1
700 1096 1
715 1096 1
718 1096 1
815 1096 1
826 1096 1
922 1096 1
934 1096 1
699 1097 1
701 1097 1
716 1097 1
719 1097 1
816 1097 1
827 1097 1
923 1097 1
935 1097 1
700 1098 1
702 1098 1
717 1098 1
720 1098 1
817 1098 1
828 1098 1
924 1098 1
936 1098 1
721 1099 1
736 1099 1
739 1099 1
752 1099 1
775 1099 1
786 1099 1
937 1099 1
943 1099 1
722 1100 1
737 1100 1
740 1100 1
753 1100 1
776 1100 1
787 1100 1
938 1100 1
944 1100 1
723 1101 1
738 1101 1
741 1101 1
754 1101 1
777 1101 1
788 1101 1
939 1101 1
945 1101 1
721 1102 1
724 1102 1
742 1102 1
755 1102 1
778 1102 1
789 1102 1
940 1102 1
946 1102 1
722 1103 1
725 1103 1
743 1103 1
756 1103 1
779 1103 1
790 1103 1
941 1103 1
947 1103 1
723 1104 1
726 1104 1
739 1104 1
744 1104 1
780 1104 1
791 1104 1
942 1104 1
948 1104 1
724 1105 1
727 1105 1
740 1105 1
745 1105 1
781 1105 1
792 1105 1
943 1105 1
949 1105 1
725 1106 1
728 1106 1
741 1106 1
746 1106 1
775 1106 1
782 1106 1
944 1106 1
950 1106 1
726 1107 1
729 1107 1
742 1107 1
747 1107 1
776 1107 1
783 1107 1
945 1107 1
951 1107 1
727 1108 1
730 1108 1
743 1108 1
748 1108 1
777 1108 1
784 1108 1
946 1108 1
952 1108 1
728 1109 1
731 1109 1
744 1109 1
749 1109 1
778 1109 1
785 1109 1
947 1109 1
953 1109 1
729 1110 1
732 1110 1
745 1110 1
750 1110 1
779 1110 1
786 1110 1
948 1110 1
954 1110 1
730 1111 1
733 1111 1
746 1111 1
751 1111 1
780 1111 1
787 1111 1
937 1111 1
949 1111 1
731 1112 1
734 1112 1
747 1112 1
752 1112 1
781 1112 1
788 1112 1
938 1112 1
950 1112 1
732 1113 1
735 1113 1
748 1113 1
753 1113 1
782 1113 1
789 1113 1
939 1113 1
951 1113 1
733 1114 1
736 1114 1
749 1114 1
754 1114 1
783 1114 1
790 1114 1
940 1114 1
952 1114 1
734 1115 1
737 1115 1
750 1115 1
755 1115 1
784 1115 1
791 1115 1
941 1115 1
953 1115 1
735 1116 1
738 1116 1
751 1116 1
756 1116 1
785 1116 1
792 1116 1
942 1116 1
954 1116 1
721 1117 1
737 1117 1
757 1117 1
770 1117 1
793 1117 1
804 1117 1
955 1117 1
961 1117 1
722 1118 1
738 1118 1
758 1118 1
771 1118 1
794 1118 1
805 1118 1
956 1118 1
962 1118 1
721 1119 1
723 1119 1
759 1119 1
772 1119 1
795 1119 1
806 1119 1
957 1119 1
963 1119 1
722 1120 1
724 1120 1
760 1120 1
773 1120 1
796 1120 1
807 1120 1
958 1120 1
964 1120 1
723 1121 1
725 1121 1
761 1121 1
774 1121 1
797 1121 1
808 1121 1
959 1121 1
965 1121 1
724 1122 1
726 1122 1
757 1122 1
762 1122 1
798 1122 1
809 1122 1
960 1122 1
966 1122 1
725 1123 1
727 1123 1
758 1123 1
763 1123 1
799 1123 1
810 1123 1
961 1123 1
967 1123 1
726 1124 1
728 1124 1
759 1124 1
764 1124 1
793 1124 1
800 1124 1
962 1124 1
968 1124 1
727 1125 1
729 1125 1
760 1125 1
765 1125 1
794 1125 1
801 1125 1
963 1125 1
969 1125 1
728 1126 1
730 1126 1
761 1126 1
766 1126 1
795 1126 1
802 1126 1
964 1126 1
970 1126 1
729 1127 1
731 1127 1
762 1127 1
767 1127 1
796 1127 1
803 1127 1
965 1127 1
971 1127 1
730 1128 1
732 1128 1
763 1128 1
768 1128 1
797 1128 1
804 1128 1
966 1128 1
972 1128 1
731 1129 1
733 1129 1
764 1129 1
769 1129 1
798 1129 1
805 1129 1
955 1129 1
967 1129 1
732 1130 1
734 1130 1
765 1130 1
770 1130 1
799 1130 1
806 1130 1
956 1130 1
968 1130 1
733 1131 1
735 1131 1
766 1131 1
771 1131 1
800 1131 1
807 1131 1
957 1131 1
969 1131 1
734 1132 1
736 1132 1
767 1132 1
772 1132 1
801 1132 1
808 1132 1
958 1132 1
970 1132 1
735 1133 1
737 1133 1
768 1133 1
773 1133 1
802 1133 1
809 1133 1
959 1133 1
971 1133 1
736 1134 1
738 1134 1
769 1134 1
774 1134 1
803 1134 1
810 1134 1
960 1134 1
972 1134 1
739 1135 1
755 1135 1
757 1135 1
772 1135 1
811 1135 1
822 1135 1
973 1135 1
979 1135 1
740 1136 1
756 1136 1
758 1136 1
773 1136 1
812 1136 1
823 1136 1
974 1136 1
980 1136 1
739 1137 1
741 1137 1
759 1137 1
774 1137 1
813 1137 1
824 1137 1
975 1137 1
981 1137 1
740 1138 1
742 1138 1
757 1138 1
760 1138 1
814 1138 1
825 1138 1
976 1138 1
982 1138 1
741 1139 1
743 1139 1
758 1139 1
761 1139 1
815 1139 1
826 1139 1
977 1139 1
983 1139 1
742 1140 1
744 1140 1
759 1140 1
762 1140 1
816 1140 1
827 1140 1
978 1140 1
984 1140 1
743 1141 1
745 1141 1
760 1141 1
763 1141 1
817 1141 1
828 1141 1
979 1141 1
985 1141 1
744 1142 1
746 1142 1
761 1142 1
764 1142 1
811 1142 1
818 1142 1
980 1142 1
986 1142 1
745 1143 1
747 1143 1
762 1143 1
765 1143 1
812 1143 1
819 1143 1
981 1143 1
987 1143 1
746 1144 1
748 1144 1
763 1144 1
766 1144 1
813 1144 1
820 1144 1
982 1144 1
988 1144 1
747 1145 1
749 1145 1
764 1145 1
767 1145 1
814 1145 1
821 1145 1
983 1145 1
989 1145 1
748 1146 1
750 1146 1
765 1146 1
768 1146 1
815 1146 1
822 1146 1
984 1146 1
990 1146 1
749 1147 1
751 1147 1
766 1147 1
769 1147 1
816 1147 1
823 1147 1
973 1147 1
985 1147 1
750 1148 1
752 1148 1
767 1148 1
770 1148 1
817 1148 1
824 1148 1
974 1148 1
986 1148 1
751 1149 1
753 1149 1
768 1149 1
771 1149 1
818 1149 1
825 1149 1
975 1149 1
987 1149 1
752 1150 1
754 1150 1
769 1150 1
772 1150 1
819 1150 1
826 1150 1
976 1150 1
988 1150 1
753 1151 1
755 1151 1
770 1151 1
773 1151 1
820 1151 1
827 1151 1
977 1151 1
989 1151 1
754 1152 1
756 1152 1
771 1152 1
774 1152 1
821 1152 1
828 1152 1
978 1152 1
990 1152 1
775 1153 1
791 1153 1
793 1153 1
808 1153 1
811 1153 1
824 1153 1
991 1153 1
997 1153 1
776 1154 1
792 1154 1
794 1154 1
809 1154 1
812 1154 1
825 1154 1
992 1154 1
998 1154 1
775 1155 1
777 1155 1
795 1155 1
810 1155 1
813 1155 1
826 1155 1
993 1155 1
999 1155 1
776 1156 1
778 1156 1
793 1156 1
796 1156 1
814 1156 1
827 1156 1
994 1156 1
1000 1156 1
777 1157 1
779 1157 1
794 1157 1
797 1157 1
815 1157 1
828 1157 1
995 1157 1
1001 1157 1
778 1158 1
780 1158 1
795 1158 1
798 1158 1
811 1158 1
816 1158 1
996 1158 1
1002 1158 1
779 1159 1
781 1159 1
796 1159 1
799 1159 1
812 1159 1
817 1159 1
997 1159 1
1003 1159 1
780 1160 1
782 1160 1
797 1160 1
800 1160 1
813 1160 1
818 1160 1
998 1160 1
1004 1160 1
781 1161 1
783 1161 1
798 1161 1
801 1161 1
814 1161 1
819 1161 1
999 1161 1
1005 1161 1
782 1162 1
784 1162 1
799 1162 1
802 1162 1
815 1162 1
820 1162 1
1000 1162 1
1006 1162 1
783 1163 1
785 1163 1
800 1163 1
803 1163 1
816 1163 1
821 1163 1
1001 1163 1
1007 1163 1
784 1164 1
786 1164 1
801 1164 1
804 1164 1
817 1164 1
822 1164 1
1002 1164 1
1008 1164 1
785 1165 1
787 1165 1
802 1165 1
805 1165 1
818 1165 1
823 1165 1
991 1165 1
1003 1165 1
786 1166 1
788 1166 1
803 1166 1
806 1166 1
819 1166 1
824 1166 1
992 1166 1
1004 1166 1
787 1167 1
789 1167 1
804 1167 1
807 1167 1
820 1167 1
825 1167 1
993 1167 1
1005 1167 1
788 1168 1
790 1168 1
805 1168 1
808 1168 1
821 1168 1
826 1168 1
994 1168 1
1006 1168 1
789 1169 1
791 1169 1
806 1169 1
809 1169 1
822 1169 1
827 1169 1
995 1169 1
1007 1169 1
790 1170 1
792 1170 1
807 1170 1
810 1170 1
823 1170 1
828 1170 1
996 1170 1
1008 1170 1
829 1171 1
844 1171 1
847 1171 1
860 1171 1
883 1171 1
894 1171 1
937 1171 1
944 1171 1
830 1172 1
845 1172 1
848 1172 1
861 1172 1
884 1172 1
895 1172 1
938 1172 1
945 1172 1
831 1173 1
846 1173 1
849 1173 1
862 1173 1
885 1173 1
896 1173 1
939 1173 1
946 1173 1
829 1174 1
832 1174 1
850 1174 1
863 1174 1
886 1174 1
897 1174 1
940 1174 1
947 1174 1
830 1175 1
833 1175 1
851 1175 1
864 1175 1
887 1175 1
898 1175 1
941 1175 1
948 1175 1
831 1176 1
834 1176 1
847 1176 1
852 1176 1
888 1176 1
899 1176 1
942 1176 1
949 1176 1
832 1177 1
835 1177 1
848 1177 1
853 1177 1
889 1177 1
900 1177 1
943 1177 1
950 1177 1
833 1178 1
836 1178 1
849 1178 1
854 1178 1
883 1178 1
890 1178 1
944 1178 1
951 1178 1
834 1179 1
837 1179 1
850 1179 1
855 1179 1
884 1179 1
891 1179 1
945 1179 1
952 1179 1
835 1180 1
838 1180 1
851 1180 1
856 1180 1
885 1180 1
892 1180 1
946 1180 1
953 1180 1
836 1181 1
839 1181 1
852 1181 1
857 1181 1
886 1181 1
893 1181 1
947 1181 1
954 1181 1
837 1182 1
840 1182 1
853 1182 1
858 1182 1
887 1182 1
894 1182 1
937 1182 1
948 1182 1
838 1183 1
841 1183 1
854 1183 1
859 1183 1
888 1183 1
895 1183 1
938 1183 1
949 1183 1
839 1184 1
842 1184 1
855 1184 1
860 1184 1
889 1184 1
896 1184 1
939 1184 1
950 1184 1
840 1185 1
843 1185 1
856 1185 1
861 1185 1
890 1185 1
897 1185 1
940 1185 1
951 1185 1
841 1186 1
844 1186 1
857 1186 1
862 1186 1
891 1186 1
898 1186 1
941 1186 1
952 1186 1
842 1187 1
845 1187 1
858 1187 1
863 1187 1
892 1187 1
899 1187 1
942 1187 1
953 1187 1
843 1188 1
846 1188 1
859 1188 1
864 1188 1
893 1188 1
900 1188 1
943 1188 1
954 1188 1
829 1189 1
845 1189 1
865 1189 1
878 1189 1
901 1189 1
912 1189 1
955 1189 1
962 1189 1
830 1190 1
846 1190 1
866 1190 1
879 1190 1
902 1190 1
913 1190 1
956 1190 1
963 1190 1
829 1191 1
831 1191 1
867 1191 1
880 1191 1
903 1191 1
914 1191 1
957 1191 1
964 1191 1
830 1192 1
832 1192 1
868 1192 1
881 1192 1
904 1192 1
915 1192 1
958 1192 1
965 1192 1
831 1193 1
833 1193 1
869 1193 1
882 1193 1
905 1193 1
916 1193 1
959 1193 1
966 1193 1
832 1194 1
834 1194 1
865 1194 1
870 1194 1
906 1194 1
917 1194 1
960 1194 1
967 1194 1
833 1195 1
835 1195 1
866 1195 1
871 1195 1
907 1195 1
918 1195 1
961 1195 1
968 1195 1
834 1196 1
836 1196 1
867 1196 1
872 1196 1
901 1196 1
908 1196 1
962 1196 1
969 1196 1
835 1197 1
837 1197 1
868 1197 1
873 1197 1
902 1197 1
909 1197 1
963 1197 1
970 1197 1
836 1198 1
838 1198 1
869 1198 1
874 1198 1
903 1198 1
910 1198 1
964 1198 1
971 1198 1
837 1199 1
839 1199 1
870 1199 1
875 1199 1
904 1199 1
911 1199 1
965 1199 1
972 1199 1
838 1200 1
840 1200 1
871 1200 1
876 1200 1
905 1200 1
912 1200 1
955 1200 1
966 1200 1
839 1201 1
841 1201 1
872 1201 1
877 1201 1
906 1201 1
913 1201 1
956 1201 1
967 1201 1
840 1202 1
842 1202 1
873 1202 1
878 1202 1
907 1202 1
914 1202 1
957 1202 1
968 1202 1
841 1203 1
843 1203 1
874 1203 1
879 1203 1
908 1203 1
915 1203 1
958 1203 1
969 1203 1
842 1204 1
844 1204 1
875 1204 1
880 1204 1
909 1204 1
916 1204 1
959 1204 1
970 1204 1
843 1205 1
845 1205 1
876 1205 1
881 1205 1
910 1205 1
917 1205 1
960 1205 1
971 1205 1
844 1206 1
846 1206 1
877 1206 1
882 1206 1
911 1206 1
918 1206 1
961 1206 1
972 1206 1
847 1207 1
863 1207 1
865 1207 1
880 1207 1
919 1207 1
930 1207 1
973 1207 1
980 1207 1
848 1208 1
864 1208 1
866 1208 1
881 1208 1
920 1208 1
931 1208 1
974 1208 1
981 1208 1
847 1209 1
849 1209 1
867 1209 1
882 1209 1
921 1209 1
932 1209 1
975 1209 1
982 1209 1
848 1210 1
850 1210 1
865 1210 1
868 1210 1
922 1210 1
933 1210 1
976 1210 1
983 1210 1
849 1211 1
851 1211 1
866 1211 1
869 1211 1
923 1211 1
934 1211 1
977 1211 1
984 1211 1
850 1212 1
852 1212 1
867 1212 1
870 1212 1
924 1212 1
935 1212 1
978 1212 1
985 1212 1
851 1213 1
853 1213 1
868 1213 1
871 1213 1
925 1213 1
936 1213 1
979 1213 1
986 1213 1
852 1214 1
854 1214 1
869 1214 1
872 1214 1
919 1214 1
926 1214 1
980 1214 1
987 1214 1
853 1215 1
855 1215 1
870 1215 1
873 1215 1
920 1215 1
927 1215 1
981 1215 1
988 1215 1
854 1216 1
856 1216 1
871 1216 1
874 1216 1
921 1216 1
928 1216 1
982 1216 1
989 1216 1
855 1217 1
857 1217 1
872 1217 1
875 1217 1
922 1217 1
929 1217 1
983 1217 1
990 1217 1
856 1218 1
858 1218 1
873 1218 1
876 1218 1
923 1218 1
930 1218 1
973 1218 1
984 1218 1
857 1219 1
859 1219 1
874 1219 1
877 1219 1
924 1219 1
931 1219 1
974 1219 1
985 1219 1
858 1220 1
860 1220 1
875 1220 1
878 1220 1
925 1220 1
932 1220 1
975 1220 1
986 1220 1
859 1221 1
861 1221 1
876 1221 1
879 1221 1
926 1221 1
933 1221 1
976 1221 1
987 1221 1
860 1222 1
862 1222 1
877 1222 1
880 1222 1
927 1222 1
934 1222 1
977 1222 1
988 1222 1
861 1223 1
863 1223 1
878 1223 1
881 1223 1
928 1223 1
935 1223 1
978 1223 1
989 1223 1
862 1224 1
864 1224 1
879 1224 1
882 1224 1
929 1224 1
936 1224 1
979 1224 1
990 1224 1
883 1225 1
899 1225 1
901 1225 1
916 1225 1
919 1225 1
932 1225 1
991 1225 1
998 1225 1
884 1226 1
900 1226 1
902 1226 1
917 1226 1
920 1226 1
933 1226 1
992 1226 1
999 1226 1
883 1227 1
885 1227 1
903 1227 1
918 1227 1
921 1227 1
934 1227 1
993 1227 1
1000 1227 1
884 1228 1
886 1228 1
901 1228 1
904 1228 1
922 1228 1
935 1228 1
994 1228 1
1001 1228 1
885 1229 1
887 1229 1
902 1229 1
905 1229 1
923 1229 1
936 1229 1
995 1229 1
1002 1229 1
886 1230 1
888 1230 1
903 1230 1
906 1230 1
919 1230 1
924 1230 1
996 1230 1
1003 1230 1
887 1231 1
889 1231 1
904 1231 1
907 1231 1
920 1231 1
925 1231 1
997 1231 1
1004 1231 1
888 1232 1
890 1232 1
905 1232 1
908 1232 1
921 1232 1
926 1232 1
998 1232 1
1005 1232 1
889 1233 1
891 1233 1
906 1233 1
909 1233 1
922 1233 1
927 1233 1
999 1233 1
1006 1233 1
890 1234 1
892 1234 1
907 1234 1
910 1234 1
923 1234 1
928 1234 1
1000 1234 1
1007 1234 1
891 1235 1
893 1235 1
908 1235 1
911 1235 1
924 1235 1
929 1235 1
1001 1235 1
1008 1235 1
892 1236 1
894 1236 1
909 1236 1
912 1236 1
925 1236 1
930 1236 1
991 1236 1
1002 1236 1
893 1237 1
895 1237 1
910 1237 1
913 1237 1
926 1237 1
931 1237 1
992 1237 1
1003 1237 1
894 1238 1
896 1238 1
911 1238 1
914 1238 1
927 1238 1
932 1238 1
993 1238 1
1004 1238 1
895 1239 1
897 1239 1
912 1239 1
915 1239 1
928 1239 1
933 1239 1
994 1239 1
1005 1239 1
896 1240 1
898 1240 1
913 1240 1
916 1240 1
929 1240 1
934 1240 1
995 1240 1
1006 1240 1
897 1241 1
899 1241 1
914 1241 1
917 1241 1
930 1241 1
935 1241 1
996 1241 1
1007 1241 1
898 1242 1
900 1242 1
915 1242 1
918 1242 1
931 1242 1
936 1242 1
997 1242 1
1008 1242 1
937 1243 1
953 1243 1
955 1243 1
970 1243 1
973 1243 1
986 1243 1
991 1243 1
1002 1243 1
938 1244 1
954 1244 1
956 1244 1
971 1244 1
974 1244 1
987 1244 1
992 1244 1
1003 1244 1
937 1245 1
939 1245 1
957 1245 1
972 1245 1
975 1245 1
988 1245 1
993 1245 1
1004 1245 1
938 1246 1
940 1246 1
955 1246 1
958 1246 1
976 1246 1
989 1246 1
994 1246 1
1005 1246 1
939 1247 1
941 1247 1
956 1247 1
959 1247 1
977 1247 1
990 1247 1
995 1247 1
1006 1247 1
940 1248 1
942 1248 1
957 1248 1
960 1248 1
973 1248 1
978 1248 1
996 1248 1
1007 1248 1
941 1249 1
943 1249 1
958 1249 1
961 1249 1
974 1249 1
979 1249 1
997 1249 1
1008 1249 1
942 1250 1
944 1250 1
959 1250 1
962 1250 1
975 1250 1
980 1250 1
991 1250 1
998 1250 1
943 1251 1
945 1251 1
960 1251 1
963 1251 1
976 1251 1
981 1251 1
992 1251 1
999 1251 1
944 1252 1
946 1252 1
961 1252 1
964 1252 1
977 1252 1
982 1252 1
993 1252 1
1000 1252 1
945 1253 1
947 1253 1
962 1253 1
965 1253 1
978 1253 1
983 1253 1
994 1253 1
1001 1253 1
946 1254 1
948 1254 1
963 1254 1
966 1254 1
979 1254 1
984 1254 1
995 1254 1
1002 1254 1
947 1255 1
949 1255 1
964 1255 1
967 1255 1
980 1255 1
985 1255 1
996 1255 1
1003 1255 1
948 1256 1
950 1256 1
965 1256 1
968 1256 1
981 1256 1
986 1256 1
997 1256 1
1004 1256 1
949 1257 1
951 1257 1
966 1257 1
969 1257 1
982 1257 1
987 1257 1
998 1257 1
1005 1257 1
950 1258 1
952 1258 1
967 1258 1
970 1258 1
983 1258 1
988 1258 1
999 1258 1
1006 1258 1
951 1259 1
953 1259 1
968 1259 1
971 1259 1
984 1259 1
989 1259 1
1000 1259 1
1007 1259 1
952 1260 1
954 1260 1
969 1260 1
972 1260 1
985 1260 1
990 1260 1
1001 1260 1
1008 1260 1
