%%MatrixMarket matrix coordinate integer general
% Binary matrix; one-based indices; arithmetic over GF(2)
96 144 1152
3 1 1
5 1 1
19 1 1
23 1 1
26 1 1
29 1 1
31 1 1
46 1 1
4 2 1
6 2 1
20 2 1
24 2 1
25 2 1
30 2 1
32 2 1
45 2 1
1 3 1
7 3 1
17 3 1
21 3 1
28 3 1
29 3 1
31 3 1
48 3 1
2 4 1
8 4 1
18 4 1
22 4 1
27 4 1
30 4 1
32 4 1
47 4 1
1 5 1
7 5 1
19 5 1
23 5 1
25 5 1
27 5 1
30 5 1
42 5 1
2 6 1
8 6 1
20 6 1
24 6 1
26 6 1
28 6 1
29 6 1
41 6 1
3 7 1
5 7 1
17 7 1
21 7 1
25 7 1
27 7 1
32 7 1
44 7 1
4 8 1
6 8 1
18 8 1
22 8 1
26 8 1
28 8 1
31 8 1
43 8 1
3 9 1
7 9 1
11 9 1
13 9 1
30 9 1
34 9 1
37 9 1
39 9 1
4 10 1
8 10 1
12 10 1
14 10 1
29 10 1
33 10 1
38 10 1
40 10 1
1 11 1
5 11 1
9 11 1
15 11 1
32 11 1
36 11 1
37 11 1
39 11 1
2 12 1
6 12 1
10 12 1
16 12 1
31 12 1
35 12 1
38 12 1
40 12 1
3 13 1
7 13 1
9 13 1
15 13 1
26 13 1
33 13 1
35 13 1
38 13 1
4 14 1
8 14 1
10 14 1
16 14 1
25 14 1
34 14 1
36 14 1
37 14 1
1 15 1
5 15 1
11 15 1
13 15 1
28 15 1
33 15 1
35 15 1
40 15 1
2 16 1
6 16 1
12 16 1
14 16 1
27 16 1
34 16 1
36 16 1
39 16 1
11 17 1
15 17 1
19 17 1
21 17 1
38 17 1
42 17 1
45 17 1
47 17 1
12 18 1
16 18 1
20 18 1
22 18 1
37 18 1
41 18 1
46 18 1
48 18 1
9 19 1
13 19 1
17 19 1
23 19 1
40 19 1
44 19 1
45 19 1
47 19 1
10 20 1
14 20 1
18 20 1
24 20 1
39 20 1
43 20 1
46 20 1
48 20 1
11 21 1
15 21 1
17 21 1
23 21 1
34 21 1
41 21 1
43 21 1
46 21 1
12 22 1
16 22 1
18 22 1
24 22 1
33 22 1
42 22 1
44 22 1
45 22 1
9 23 1
13 23 1
19 23 1
21 23 1
36 23 1
41 23 1
43 23 1
48 23 1
10 24 1
14 24 1
20 24 1
22 24 1
35 24 1
42 24 1
44 24 1
47 24 1
7 25 1
12 25 1
17 25 1
22 25 1
50 25 1
53 25 1
55 25 1
70 25 1
8 26 1
11 26 1
18 26 1
21 26 1
49 26 1
54 26 1
56 26 1
69 26 1
5 27 1
10 27 1
19 27 1
24 27 1
52 27 1
53 27 1
55 27 1
72 27 1
6 28 1
9 28 1
20 28 1
23 28 1
51 28 1
54 28 1
56 28 1
71 28 1
3 29 1
16 29 1
18 29 1
21 29 1
49 29 1
51 29 1
54 29 1
66 29 1
4 30 1
15 30 1
17 30 1
22 30 1
50 30 1
52 30 1
53 30 1
65 30 1
1 31 1
14 31 1
20 31 1
23 31 1
49 31 1
51 31 1
56 31 1
68 31 1
2 32 1
13 32 1
19 32 1
24 32 1
50 32 1
52 32 1
55 32 1
67 32 1
1 33 1
6 33 1
15 33 1
20 33 1
54 33 1
58 33 1
61 33 1
63 33 1
2 34 1
5 34 1
16 34 1
19 34 1
53 34 1
57 34 1
62 34 1
64 34 1
3 35 1
8 35 1
13 35 1
18 35 1
56 35 1
60 35 1
61 35 1
63 35 1
4 36 1
7 36 1
14 36 1
17 36 1
55 36 1
59 36 1
62 36 1
64 36 1
2 37 1
5 37 1
11 37 1
24 37 1
50 37 1
57 37 1
59 37 1
62 37 1
1 38 1
6 38 1
12 38 1
23 38 1
49 38 1
58 38 1
60 38 1
61 38 1
4 39 1
7 39 1
9 39 1
22 39 1
52 39 1
57 39 1
59 39 1
64 39 1
3 40 1
8 40 1
10 40 1
21 40 1
51 40 1
58 40 1
60 40 1
63 40 1
4 41 1
9 41 1
14 41 1
23 41 1
62 41 1
66 41 1
69 41 1
71 41 1
3 42 1
10 42 1
13 42 1
24 42 1
61 42 1
65 42 1
70 42 1
72 42 1
2 43 1
11 43 1
16 43 1
21 43 1
64 43 1
68 43 1
69 43 1
71 43 1
1 44 1
12 44 1
15 44 1
22 44 1
63 44 1
67 44 1
70 44 1
72 44 1
8 45 1
10 45 1
13 45 1
19 45 1
58 45 1
65 45 1
67 45 1
70 45 1
7 46 1
9 46 1
14 46 1
20 46 1
57 46 1
66 46 1
68 46 1
69 46 1
6 47 1
12 47 1
15 47 1
17 47 1
60 47 1
65 47 1
67 47 1
72 47 1
5 48 1
11 48 1
16 48 1
18 48 1
59 48 1
66 48 1
68 48 1
71 48 1
31 49 1
36 49 1
41 49 1
46 49 1
51 49 1
53 49 1
67 49 1
71 49 1
32 50 1
35 50 1
42 50 1
45 50 1
52 50 1
54 50 1
68 50 1
72 50 1
29 51 1
34 51 1
43 51 1
48 51 1
49 51 1
55 51 1
65 51 1
69 51 1
30 52 1
33 52 1
44 52 1
47 52 1
50 52 1
56 52 1
66 52 1
70 52 1
27 53 1
40 53 1
42 53 1
45 53 1
49 53 1
55 53 1
67 53 1
71 53 1
28 54 1
39 54 1
41 54 1
46 54 1
50 54 1
56 54 1
68 54 1
72 54 1
25 55 1
38 55 1
44 55 1
47 55 1
51 55 1
53 55 1
65 55 1
69 55 1
26 56 1
37 56 1
43 56 1
48 56 1
52 56 1
54 56 1
66 56 1
70 56 1
25 57 1
30 57 1
39 57 1
44 57 1
51 57 1
55 57 1
59 57 1
61 57 1
26 58 1
29 58 1
40 58 1
43 58 1
52 58 1
56 58 1
60 58 1
62 58 1
27 59 1
32 59 1
37 59 1
42 59 1
49 59 1
53 59 1
57 59 1
63 59 1
28 60 1
31 60 1
38 60 1
41 60 1
50 60 1
54 60 1
58 60 1
64 60 1
26 61 1
29 61 1
35 61 1
48 61 1
51 61 1
55 61 1
57 61 1
63 61 1
25 62 1
30 62 1
36 62 1
47 62 1
52 62 1
56 62 1
58 62 1
64 62 1
28 63 1
31 63 1
33 63 1
46 63 1
49 63 1
53 63 1
59 63 1
61 63 1
27 64 1
32 64 1
34 64 1
45 64 1
50 64 1
54 64 1
60 64 1
62 64 1
28 65 1
33 65 1
38 65 1
47 65 1
59 65 1
63 65 1
67 65 1
69 65 1
27 66 1
34 66 1
37 66 1
48 66 1
60 66 1
64 66 1
68 66 1
70 66 1
26 67 1
35 67 1
40 67 1
45 67 1
57 67 1
61 67 1
65 67 1
71 67 1
25 68 1
36 68 1
39 68 1
46 68 1
58 68 1
62 68 1
66 68 1
72 68 1
32 69 1
34 69 1
37 69 1
43 69 1
59 69 1
63 69 1
65 69 1
71 69 1
31 70 1
33 70 1
38 70 1
44 70 1
60 70 1
64 70 1
66 70 1
72 70 1
30 71 1
36 71 1
39 71 1
41 71 1
57 71 1
61 71 1
67 71 1
69 71 1
29 72 1
35 72 1
40 72 1
42 72 1
58 72 1
62 72 1
68 72 1
70 72 1
2 73 1
12 73 1
14 73 1
21 73 1
74 73 1
77 73 1
79 73 1
94 73 1
1 74 1
11 74 1
13 74 1
22 74 1
73 74 1
78 74 1
80 74 1
93 74 1
4 75 1
10 75 1
16 75 1
23 75 1
76 75 1
77 75 1
79 75 1
96 75 1
3 76 1
9 76 1
15 76 1
24 76 1
75 76 1
78 76 1
80 76 1
95 76 1
6 77 1
10 77 1
16 77 1
17 77 1
73 77 1
75 77 1
78 77 1
90 77 1
5 78 1
9 78 1
15 78 1
18 78 1
74 78 1
76 78 1
77 78 1
89 78 1
8 79 1
12 79 1
14 79 1
19 79 1
73 79 1
75 79 1
80 79 1
92 79 1
7 80 1
11 80 1
13 80 1
20 80 1
74 80 1
76 80 1
79 80 1
91 80 1
5 81 1
10 81 1
20 81 1
22 81 1
78 81 1
82 81 1
85 81 1
87 81 1
6 82 1
9 82 1
19 82 1
21 82 1
77 82 1
81 82 1
86 82 1
88 82 1
7 83 1
12 83 1
18 83 1
24 83 1
80 83 1
84 83 1
85 83 1
87 83 1
8 84 1
11 84 1
17 84 1
23 84 1
79 84 1
83 84 1
86 84 1
88 84 1
1 85 1
14 85 1
18 85 1
24 85 1
74 85 1
81 85 1
83 85 1
86 85 1
2 86 1
13 86 1
17 86 1
23 86 1
73 86 1
82 86 1
84 86 1
85 86 1
3 87 1
16 87 1
20 87 1
22 87 1
76 87 1
81 87 1
83 87 1
88 87 1
4 88 1
15 88 1
19 88 1
21 88 1
75 88 1
82 88 1
84 88 1
87 88 1
4 89 1
6 89 1
13 89 1
18 89 1
86 89 1
90 89 1
93 89 1
95 89 1
3 90 1
5 90 1
14 90 1
17 90 1
85 90 1
89 90 1
94 90 1
96 90 1
2 91 1
8 91 1
15 91 1
20 91 1
88 91 1
92 91 1
93 91 1
95 91 1
1 92 1
7 92 1
16 92 1
19 92 1
87 92 1
91 92 1
94 92 1
96 92 1
2 93 1
8 93 1
9 93 1
22 93 1
82 93 1
89 93 1
91 93 1
94 93 1
1 94 1
7 94 1
10 94 1
21 94 1
81 94 1
90 94 1
92 94 1
93 94 1
4 95 1
6 95 1
11 95 1
24 95 1
84 95 1
89 95 1
91 95 1
96 95 1
3 96 1
5 96 1
12 96 1
23 96 1
83 96 1
90 96 1
92 96 1
95 96 1
26 97 1
36 97 1
38 97 1
45 97 1
75 97 1
77 97 1
91 97 1
95 97 1
25 98 1
35 98 1
37 98 1
46 98 1
76 98 1
78 98 1
92 98 1
96 98 1
28 99 1
34 99 1
40 99 1
47 99 1
73 99 1
79 99 1
89 99 1
93 99 1
27 100 1
33 100 1
39 100 1
48 100 1
74 100 1
80 100 1
90 100 1
94 100 1
30 101 1
34 101 1
40 101 1
41 101 1
73 101 1
79 101 1
91 101 1
95 101 1
29 102 1
33 102 1
39 102 1
42 102 1
74 102 1
80 102 1
92 102 1
96 102 1
32 103 1
36 103 1
38 103 1
43 103 1
75 103 1
77 103 1
89 103 1
93 103 1
31 104 1
35 104 1
37 104 1
44 104 1
76 104 1
78 104 1
90 104 1
94 104 1
29 105 1
34 105 1
44 105 1
46 105 1
75 105 1
79 105 1
83 105 1
85 105 1
30 106 1
33 106 1
43 106 1
45 106 1
76 106 1
80 106 1
84 106 1
86 106 1
31 107 1
36 107 1
42 107 1
48 107 1
73 107 1
77 107 1
81 107 1
87 107 1
32 108 1
35 108 1
41 108 1
47 108 1
74 108 1
78 108 1
82 108 1
88 108 1
25 109 1
38 109 1
42 109 1
48 109 1
75 109 1
79 109 1
81 109 1
87 109 1
26 110 1
37 110 1
41 110 1
47 110 1
76 110 1
80 110 1
82 110 1
88 110 1
27 111 1
40 111 1
44 111 1
46 111 1
73 111 1
77 111 1
83 111 1
85 111 1
28 112 1
39 112 1
43 112 1
45 112 1
74 112 1
78 112 1
84 112 1
86 112 1
28 113 1
30 113 1
37 113 1
42 113 1
83 113 1
87 113 1
91 113 1
93 113 1
27 114 1
29 114 1
38 114 1
41 114 1
84 114 1
88 114 1
92 114 1
94 114 1
26 115 1
32 115 1
39 115 1
44 115 1
81 115 1
85 115 1
89 115 1
95 115 1
25 116 1
31 116 1
40 116 1
43 116 1
82 116 1
86 116 1
90 116 1
96 116 1
26 117 1
32 117 1
33 117 1
46 117 1
83 117 1
87 117 1
89 117 1
95 117 1
25 118 1
31 118 1
34 118 1
45 118 1
84 118 1
88 118 1
90 118 1
96 118 1
28 119 1
30 119 1
35 119 1
48 119 1
81 119 1
85 119 1
91 119 1
93 119 1
27 120 1
29 120 1
36 120 1
47 120 1
82 120 1
86 120 1
92 120 1
94 120 1
50 121 1
60 121 1
62 121 1
69 121 1
79 121 1
84 121 1
89 121 1
94 121 1
49 122 1
59 122 1
61 122 1
70 122 1
80 122 1
83 122 1
90 122 1
93 122 1
52 123 1
58 123 1
64 123 1
71 123 1
77 123 1
82 123 1
91 123 1
96 123 1
51 124 1
57 124 1
63 124 1
72 124 1
78 124 1
81 124 1
92 124 1
95 124 1
54 125 1
58 125 1
64 125 1
65 125 1
75 125 1
88 125 1
90 125 1
93 125 1
53 126 1
57 126 1
63 126 1
66 126 1
76 126 1
87 126 1
89 126 1
94 126 1
56 127 1
60 127 1
62 127 1
67 127 1
73 127 1
86 127 1
92 127 1
95 127 1
55 128 1
59 128 1
61 128 1
68 128 1
74 128 1
85 128 1
91 128 1
96 128 1
53 129 1
58 129 1
68 129 1
70 129 1
73 129 1
78 129 1
87 129 1
92 129 1
54 130 1
57 130 1
67 130 1
69 130 1
74 130 1
77 130 1
88 130 1
91 130 1
55 131 1
60 131 1
66 131 1
72 131 1
75 131 1
80 131 1
85 131 1
90 131 1
56 132 1
59 132 1
65 132 1
71 132 1
76 132 1
79 132 1
86 132 1
89 132 1
49 133 1
62 133 1
66 133 1
72 133 1
74 133 1
77 133 1
83 133 1
96 133 1
50 134 1
61 134 1
65 134 1
71 134 1
73 134 1
78 134 1
84 134 1
95 134 1
51 135 1
64 135 1
68 135 1
70 135 1
76 135 1
79 135 1
81 135 1
94 135 1
52 136 1
63 136 1
67 136 1
69 136 1
75 136 1
80 136 1
82 136 1
93 136 1
52 137 1
54 137 1
61 137 1
66 137 1
76 137 1
81 137 1
86 137 1
95 137 1
51 138 1
53 138 1
62 138 1
65 138 1
75 138 1
82 138 1
85 138 1
96 138 1
50 139 1
56 139 1
63 139 1
68 139 1
74 139 1
83 139 1
88 139 1
93 139 1
49 140 1
55 140 1
64 140 1
67 140 1
73 140 1
84 140 1
87 140 1
94 140 1
50 141 1
56 141 1
57 141 1
70 141 1
80 141 1
82 141 1
85 141 1
91 141 1
49 142 1
55 142 1
58 142 1
69 142 1
79 142 1
81 142 1
86 142 1
92 142 1
52 143 1
54 143 1
59 143 1
72 143 1
78 143 1
84 143 1
87 143 1
89 143 1
51 144 1
53 144 1
60 144 1
71 144 1
77 144 1
83 144 1
88 144 1
90 144 1
