%%MatrixMarket matrix coordinate integer general
% Binary matrix; one-based indices; arithmetic over GF(2)
195 390 1560
1 1 1
17 1 1
40 1 1
44 1 1
2 2 1
18 2 1
41 2 1
45 2 1
3 3 1
19 3 1
42 3 1
46 3 1
4 4 1
20 4 1
43 4 1
47 4 1
5 5 1
21 5 1
44 5 1
48 5 1
6 6 1
22 6 1
45 6 1
49 6 1
7 7 1
23 7 1
46 7 1
50 7 1
8 8 1
24 8 1
47 8 1
51 8 1
9 9 1
25 9 1
48 9 1
52 9 1
10 10 1
26 10 1
49 10 1
53 10 1
11 11 1
27 11 1
50 11 1
54 11 1
12 12 1
28 12 1
51 12 1
55 12 1
13 13 1
29 13 1
52 13 1
56 13 1
14 14 1
30 14 1
53 14 1
57 14 1
15 15 1
31 15 1
54 15 1
58 15 1
16 16 1
32 16 1
55 16 1
59 16 1
17 17 1
33 17 1
56 17 1
60 17 1
18 18 1
34 18 1
57 18 1
61 18 1
19 19 1
35 19 1
58 19 1
62 19 1
20 20 1
36 20 1
59 20 1
63 20 1
21 21 1
37 21 1
60 21 1
64 21 1
22 22 1
38 22 1
61 22 1
65 22 1
23 23 1
39 23 1
62 23 1
66 23 1
1 24 1
24 24 1
63 24 1
67 24 1
2 25 1
25 25 1
64 25 1
68 25 1
3 26 1
26 26 1
65 26 1
69 26 1
4 27 1
27 27 1
66 27 1
70 27 1
5 28 1
28 28 1
67 28 1
71 28 1
6 29 1
29 29 1
68 29 1
72 29 1
7 30 1
30 30 1
69 30 1
73 30 1
8 31 1
31 31 1
70 31 1
74 31 1
9 32 1
32 32 1
71 32 1
75 32 1
10 33 1
33 33 1
72 33 1
76 33 1
11 34 1
34 34 1
73 34 1
77 34 1
12 35 1
35 35 1
74 35 1
78 35 1
13 36 1
36 36 1
40 36 1
75 36 1
14 37 1
37 37 1
41 37 1
76 37 1
15 38 1
38 38 1
42 38 1
77 38 1
16 39 1
39 39 1
43 39 1
78 39 1
1 40 1
19 40 1
79 40 1
83 40 1
2 41 1
20 41 1
80 41 1
84 41 1
3 42 1
21 42 1
81 42 1
85 42 1
4 43 1
22 43 1
82 43 1
86 43 1
5 44 1
23 44 1
83 44 1
87 44 1
6 45 1
24 45 1
84 45 1
88 45 1
7 46 1
25 46 1
85 46 1
89 46 1
8 47 1
26 47 1
86 47 1
90 47 1
9 48 1
27 48 1
87 48 1
91 48 1
10 49 1
28 49 1
88 49 1
92 49 1
11 50 1
29 50 1
89 50 1
93 50 1
12 51 1
30 51 1
90 51 1
94 51 1
13 52 1
31 52 1
91 52 1
95 52 1
14 53 1
32 53 1
92 53 1
96 53 1
15 54 1
33 54 1
93 54 1
97 54 1
16 55 1
34 55 1
94 55 1
98 55 1
17 56 1
35 56 1
95 56 1
99 56 1
18 57 1
36 57 1
96 57 1
100 57 1
19 58 1
37 58 1
97 58 1
101 58 1
20 59 1
38 59 1
98 59 1
102 59 1
21 60 1
39 60 1
99 60 1
103 60 1
1 61 1
22 61 1
100 61 1
104 61 1
2 62 1
23 62 1
101 62 1
105 62 1
3 63 1
24 63 1
102 63 1
106 63 1
4 64 1
25 64 1
103 64 1
107 64 1
5 65 1
26 65 1
104 65 1
108 65 1
6 66 1
27 66 1
105 66 1
109 66 1
7 67 1
28 67 1
106 67 1
110 67 1
8 68 1
29 68 1
107 68 1
111 68 1
9 69 1
30 69 1
108 69 1
112 69 1
10 70 1
31 70 1
109 70 1
113 70 1
11 71 1
32 71 1
110 71 1
114 71 1
12 72 1
33 72 1
111 72 1
115 72 1
13 73 1
34 73 1
112 73 1
116 73 1
14 74 1
35 74 1
113 74 1
117 74 1
15 75 1
36 75 1
79 75 1
114 75 1
16 76 1
37 76 1
80 76 1
115 76 1
17 77 1
38 77 1
81 77 1
116 77 1
18 78 1
39 78 1
82 78 1
117 78 1
40 79 1
58 79 1
79 79 1
95 79 1
41 80 1
59 80 1
80 80 1
96 80 1
42 81 1
60 81 1
81 81 1
97 81 1
43 82 1
61 82 1
82 82 1
98 82 1
44 83 1
62 83 1
83 83 1
99 83 1
45 84 1
63 84 1
84 84 1
100 84 1
46 85 1
64 85 1
85 85 1
101 85 1
47 86 1
65 86 1
86 86 1
102 86 1
48 87 1
66 87 1
87 87 1
103 87 1
49 88 1
67 88 1
88 88 1
104 88 1
50 89 1
68 89 1
89 89 1
105 89 1
51 90 1
69 90 1
90 90 1
106 90 1
52 91 1
70 91 1
91 91 1
107 91 1
53 92 1
71 92 1
92 92 1
108 92 1
54 93 1
72 93 1
93 93 1
109 93 1
55 94 1
73 94 1
94 94 1
110 94 1
56 95 1
74 95 1
95 95 1
111 95 1
57 96 1
75 96 1
96 96 1
112 96 1
58 97 1
76 97 1
97 97 1
113 97 1
59 98 1
77 98 1
98 98 1
114 98 1
60 99 1
78 99 1
99 99 1
115 99 1
40 100 1
61 100 1
100 100 1
116 100 1
41 101 1
62 101 1
101 101 1
117 101 1
42 102 1
63 102 1
79 102 1
102 102 1
43 103 1
64 103 1
80 103 1
103 103 1
44 104 1
65 104 1
81 104 1
104 104 1
45 105 1
66 105 1
82 105 1
105 105 1
46 106 1
67 106 1
83 106 1
106 106 1
47 107 1
68 107 1
84 107 1
107 107 1
48 108 1
69 108 1
85 108 1
108 108 1
49 109 1
70 109 1
86 109 1
109 109 1
50 110 1
71 110 1
87 110 1
110 110 1
51 111 1
72 111 1
88 111 1
111 111 1
52 112 1
73 112 1
89 112 1
112 112 1
53 113 1
74 113 1
90 113 1
113 113 1
54 114 1
75 114 1
91 114 1
114 114 1
55 115 1
76 115 1
92 115 1
115 115 1
56 116 1
77 116 1
93 116 1
116 116 1
57 117 1
78 117 1
94 117 1
117 117 1
1 118 1
25 118 1
118 118 1
122 118 1
2 119 1
26 119 1
119 119 1
123 119 1
3 120 1
27 120 1
120 120 1
124 120 1
4 121 1
28 121 1
121 121 1
125 121 1
5 122 1
29 122 1
122 122 1
126 122 1
6 123 1
30 123 1
123 123 1
127 123 1
7 124 1
31 124 1
124 124 1
128 124 1
8 125 1
32 125 1
125 125 1
129 125 1
9 126 1
33 126 1
126 126 1
130 126 1
10 127 1
34 127 1
127 127 1
131 127 1
11 128 1
35 128 1
128 128 1
132 128 1
12 129 1
36 129 1
129 129 1
133 129 1
13 130 1
37 130 1
130 130 1
134 130 1
14 131 1
38 131 1
131 131 1
135 131 1
15 132 1
39 132 1
132 132 1
136 132 1
1 133 1
16 133 1
133 133 1
137 133 1
2 134 1
17 134 1
134 134 1
138 134 1
3 135 1
18 135 1
135 135 1
139 135 1
4 136 1
19 136 1
136 136 1
140 136 1
5 137 1
20 137 1
137 137 1
141 137 1
6 138 1
21 138 1
138 138 1
142 138 1
7 139 1
22 139 1
139 139 1
143 139 1
8 140 1
23 140 1
140 140 1
144 140 1
9 141 1
24 141 1
141 141 1
145 141 1
10 142 1
25 142 1
142 142 1
146 142 1
11 143 1
26 143 1
143 143 1
147 143 1
12 144 1
27 144 1
144 144 1
148 144 1
13 145 1
28 145 1
145 145 1
149 145 1
14 146 1
29 146 1
146 146 1
150 146 1
15 147 1
30 147 1
147 147 1
151 147 1
16 148 1
31 148 1
148 148 1
152 148 1
17 149 1
32 149 1
149 149 1
153 149 1
18 150 1
33 150 1
150 150 1
154 150 1
19 151 1
34 151 1
151 151 1
155 151 1
20 152 1
35 152 1
152 152 1
156 152 1
21 153 1
36 153 1
118 153 1
153 153 1
22 154 1
37 154 1
119 154 1
154 154 1
23 155 1
38 155 1
120 155 1
155 155 1
24 156 1
39 156 1
121 156 1
156 156 1
40 157 1
64 157 1
118 157 1
134 157 1
41 158 1
65 158 1
119 158 1
135 158 1
42 159 1
66 159 1
120 159 1
136 159 1
43 160 1
67 160 1
121 160 1
137 160 1
44 161 1
68 161 1
122 161 1
138 161 1
45 162 1
69 162 1
123 162 1
139 162 1
46 163 1
70 163 1
124 163 1
140 163 1
47 164 1
71 164 1
125 164 1
141 164 1
48 165 1
72 165 1
126 165 1
142 165 1
49 166 1
73 166 1
127 166 1
143 166 1
50 167 1
74 167 1
128 167 1
144 167 1
51 168 1
75 168 1
129 168 1
145 168 1
52 169 1
76 169 1
130 169 1
146 169 1
53 170 1
77 170 1
131 170 1
147 170 1
54 171 1
78 171 1
132 171 1
148 171 1
40 172 1
55 172 1
133 172 1
149 172 1
41 173 1
56 173 1
134 173 1
150 173 1
42 174 1
57 174 1
135 174 1
151 174 1
43 175 1
58 175 1
136 175 1
152 175 1
44 176 1
59 176 1
137 176 1
153 176 1
45 177 1
60 177 1
138 177 1
154 177 1
46 178 1
61 178 1
139 178 1
155 178 1
47 179 1
62 179 1
140 179 1
156 179 1
48 180 1
63 180 1
118 180 1
141 180 1
49 181 1
64 181 1
119 181 1
142 181 1
50 182 1
65 182 1
120 182 1
143 182 1
51 183 1
66 183 1
121 183 1
144 183 1
52 184 1
67 184 1
122 184 1
145 184 1
53 185 1
68 185 1
123 185 1
146 185 1
54 186 1
69 186 1
124 186 1
147 186 1
55 187 1
70 187 1
125 187 1
148 187 1
56 188 1
71 188 1
126 188 1
149 188 1
57 189 1
72 189 1
127 189 1
150 189 1
58 190 1
73 190 1
128 190 1
151 190 1
59 191 1
74 191 1
129 191 1
152 191 1
60 192 1
75 192 1
130 192 1
153 192 1
61 193 1
76 193 1
131 193 1
154 193 1
62 194 1
77 194 1
132 194 1
155 194 1
63 195 1
78 195 1
133 195 1
156 195 1
79 196 1
103 196 1
118 196 1
136 196 1
80 197 1
104 197 1
119 197 1
137 197 1
81 198 1
105 198 1
120 198 1
138 198 1
82 199 1
106 199 1
121 199 1
139 199 1
83 200 1
107 200 1
122 200 1
140 200 1
84 201 1
108 201 1
123 201 1
141 201 1
85 202 1
109 202 1
124 202 1
142 202 1
86 203 1
110 203 1
125 203 1
143 203 1
87 204 1
111 204 1
126 204 1
144 204 1
88 205 1
112 205 1
127 205 1
145 205 1
89 206 1
113 206 1
128 206 1
146 206 1
90 207 1
114 207 1
129 207 1
147 207 1
91 208 1
115 208 1
130 208 1
148 208 1
92 209 1
116 209 1
131 209 1
149 209 1
93 210 1
117 210 1
132 210 1
150 210 1
79 211 1
94 211 1
133 211 1
151 211 1
80 212 1
95 212 1
134 212 1
152 212 1
81 213 1
96 213 1
135 213 1
153 213 1
82 214 1
97 214 1
136 214 1
154 214 1
83 215 1
98 215 1
137 215 1
155 215 1
84 216 1
99 216 1
138 216 1
156 216 1
85 217 1
100 217 1
118 217 1
139 217 1
86 218 1
101 218 1
119 218 1
140 218 1
87 219 1
102 219 1
120 219 1
141 219 1
88 220 1
103 220 1
121 220 1
142 220 1
89 221 1
104 221 1
122 221 1
143 221 1
90 222 1
105 222 1
123 222 1
144 222 1
91 223 1
106 223 1
124 223 1
145 223 1
92 224 1
107 224 1
125 224 1
146 224 1
93 225 1
108 225 1
126 225 1
147 225 1
94 226 1
109 226 1
127 226 1
148 226 1
95 227 1
110 227 1
128 227 1
149 227 1
96 228 1
111 228 1
129 228 1
150 228 1
97 229 1
112 229 1
130 229 1
151 229 1
98 230 1
113 230 1
131 230 1
152 230 1
99 231 1
114 231 1
132 231 1
153 231 1
100 232 1
115 232 1
133 232 1
154 232 1
101 233 1
116 233 1
134 233 1
155 233 1
102 234 1
117 234 1
135 234 1
156 234 1
1 235 1
35 235 1
157 235 1
161 235 1
2 236 1
36 236 1
158 236 1
162 236 1
3 237 1
37 237 1
159 237 1
163 237 1
4 238 1
38 238 1
160 238 1
164 238 1
5 239 1
39 239 1
161 239 1
165 239 1
1 240 1
6 240 1
162 240 1
166 240 1
2 241 1
7 241 1
163 241 1
167 241 1
3 242 1
8 242 1
164 242 1
168 242 1
4 243 1
9 243 1
165 243 1
169 243 1
5 244 1
10 244 1
166 244 1
170 244 1
6 245 1
11 245 1
167 245 1
171 245 1
7 246 1
12 246 1
168 246 1
172 246 1
8 247 1
13 247 1
169 247 1
173 247 1
9 248 1
14 248 1
170 248 1
174 248 1
10 249 1
15 249 1
171 249 1
175 249 1
11 250 1
16 250 1
172 250 1
176 250 1
12 251 1
17 251 1
173 251 1
177 251 1
13 252 1
18 252 1
174 252 1
178 252 1
14 253 1
19 253 1
175 253 1
179 253 1
15 254 1
20 254 1
176 254 1
180 254 1
16 255 1
21 255 1
177 255 1
181 255 1
17 256 1
22 256 1
178 256 1
182 256 1
18 257 1
23 257 1
179 257 1
183 257 1
19 258 1
24 258 1
180 258 1
184 258 1
20 259 1
25 259 1
181 259 1
185 259 1
21 260 1
26 260 1
182 260 1
186 260 1
22 261 1
27 261 1
183 261 1
187 261 1
23 262 1
28 262 1
184 262 1
188 262 1
24 263 1
29 263 1
185 263 1
189 263 1
25 264 1
30 264 1
186 264 1
190 264 1
26 265 1
31 265 1
187 265 1
191 265 1
27 266 1
32 266 1
188 266 1
192 266 1
28 267 1
33 267 1
189 267 1
193 267 1
29 268 1
34 268 1
190 268 1
194 268 1
30 269 1
35 269 1
191 269 1
195 269 1
31 270 1
36 270 1
157 270 1
192 270 1
32 271 1
37 271 1
158 271 1
193 271 1
33 272 1
38 272 1
159 272 1
194 272 1
34 273 1
39 273 1
160 273 1
195 273 1
40 274 1
74 274 1
157 274 1
173 274 1
41 275 1
75 275 1
158 275 1
174 275 1
42 276 1
76 276 1
159 276 1
175 276 1
43 277 1
77 277 1
160 277 1
176 277 1
44 278 1
78 278 1
161 278 1
177 278 1
40 279 1
45 279 1
162 279 1
178 279 1
41 280 1
46 280 1
163 280 1
179 280 1
42 281 1
47 281 1
164 281 1
180 281 1
43 282 1
48 282 1
165 282 1
181 282 1
44 283 1
49 283 1
166 283 1
182 283 1
45 284 1
50 284 1
167 284 1
183 284 1
46 285 1
51 285 1
168 285 1
184 285 1
47 286 1
52 286 1
169 286 1
185 286 1
48 287 1
53 287 1
170 287 1
186 287 1
49 288 1
54 288 1
171 288 1
187 288 1
50 289 1
55 289 1
172 289 1
188 289 1
51 290 1
56 290 1
173 290 1
189 290 1
52 291 1
57 291 1
174 291 1
190 291 1
53 292 1
58 292 1
175 292 1
191 292 1
54 293 1
59 293 1
176 293 1
192 293 1
55 294 1
60 294 1
177 294 1
193 294 1
56 295 1
61 295 1
178 295 1
194 295 1
57 296 1
62 296 1
179 296 1
195 296 1
58 297 1
63 297 1
157 297 1
180 297 1
59 298 1
64 298 1
158 298 1
181 298 1
60 299 1
65 299 1
159 299 1
182 299 1
61 300 1
66 300 1
160 300 1
183 300 1
62 301 1
67 301 1
161 301 1
184 301 1
63 302 1
68 302 1
162 302 1
185 302 1
64 303 1
69 303 1
163 303 1
186 303 1
65 304 1
70 304 1
164 304 1
187 304 1
66 305 1
71 305 1
165 305 1
188 305 1
67 306 1
72 306 1
166 306 1
189 306 1
68 307 1
73 307 1
167 307 1
190 307 1
69 308 1
74 308 1
168 308 1
191 308 1
70 309 1
75 309 1
169 309 1
192 309 1
71 310 1
76 310 1
170 310 1
193 310 1
72 311 1
77 311 1
171 311 1
194 311 1
73 312 1
78 312 1
172 312 1
195 312 1
79 313 1
113 313 1
157 313 1
175 313 1
80 314 1
114 314 1
158 314 1
176 314 1
81 315 1
115 315 1
159 315 1
177 315 1
82 316 1
116 316 1
160 316 1
178 316 1
83 317 1
117 317 1
161 317 1
179 317 1
79 318 1
84 318 1
162 318 1
180 318 1
80 319 1
85 319 1
163 319 1
181 319 1
81 320 1
86 320 1
164 320 1
182 320 1
82 321 1
87 321 1
165 321 1
183 321 1
83 322 1
88 322 1
166 322 1
184 322 1
84 323 1
89 323 1
167 323 1
185 323 1
85 324 1
90 324 1
168 324 1
186 324 1
86 325 1
91 325 1
169 325 1
187 325 1
87 326 1
92 326 1
170 326 1
188 326 1
88 327 1
93 327 1
171 327 1
189 327 1
89 328 1
94 328 1
172 328 1
190 328 1
90 329 1
95 329 1
173 329 1
191 329 1
91 330 1
96 330 1
174 330 1
192 330 1
92 331 1
97 331 1
175 331 1
193 331 1
93 332 1
98 332 1
176 332 1
194 332 1
94 333 1
99 333 1
177 333 1
195 333 1
95 334 1
100 334 1
157 334 1
178 334 1
96 335 1
101 335 1
158 335 1
179 335 1
97 336 1
102 336 1
159 336 1
180 336 1
98 337 1
103 337 1
160 337 1
181 337 1
99 338 1
104 338 1
161 338 1
182 338 1
100 339 1
105 339 1
162 339 1
183 339 1
101 340 1
106 340 1
163 340 1
184 340 1
102 341 1
107 341 1
164 341 1
185 341 1
103 342 1
108 342 1
165 342 1
186 342 1
104 343 1
109 343 1
166 343 1
187 343 1
105 344 1
110 344 1
167 344 1
188 344 1
106 345 1
111 345 1
168 345 1
189 345 1
107 346 1
112 346 1
169 346 1
190 346 1
108 347 1
113 347 1
170 347 1
191 347 1
109 348 1
114 348 1
171 348 1
192 348 1
110 349 1
115 349 1
172 349 1
193 349 1
111 350 1
116 350 1
173 350 1
194 350 1
112 351 1
117 351 1
174 351 1
195 351 1
118 352 1
152 352 1
157 352 1
181 352 1
119 353 1
153 353 1
158 353 1
182 353 1
120 354 1
154 354 1
159 354 1
183 354 1
121 355 1
155 355 1
160 355 1
184 355 1
122 356 1
156 356 1
161 356 1
185 356 1
118 357 1
123 357 1
162 357 1
186 357 1
119 358 1
124 358 1
163 358 1
187 358 1
120 359 1
125 359 1
164 359 1
188 359 1
121 360 1
126 360 1
165 360 1
189 360 1
122 361 1
127 361 1
166 361 1
190 361 1
123 362 1
128 362 1
167 362 1
191 362 1
124 363 1
129 363 1
168 363 1
192 363 1
125 364 1
130 364 1
169 364 1
193 364 1
126 365 1
131 365 1
170 365 1
194 365 1
127 366 1
132 366 1
171 366 1
195 366 1
128 367 1
133 367 1
157 367 1
172 367 1
129 368 1
134 368 1
158 368 1
173 368 1
130 369 1
135 369 1
159 369 1
174 369 1
131 370 1
136 370 1
160 370 1
175 370 1
132 371 1
137 371 1
161 371 1
176 371 1
133 372 1
138 372 1
162 372 1
177 372 1
134 373 1
139 373 1
163 373 1
178 373 1
135 374 1
140 374 1
164 374 1
179 374 1
136 375 1
141 375 1
165 375 1
180 375 1
137 376 1
142 376 1
166 376 1
181 376 1
138 377 1
143 377 1
167 377 1
182 377 1
139 378 1
144 378 1
168 378 1
183 378 1
140 379 1
145 379 1
169 379 1
184 379 1
141 380 1
146 380 1
170 380 1
185 380 1
142 381 1
147 381 1
171 381 1
186 381 1
143 382 1
148 382 1
172 382 1
187 382 1
144 383 1
149 383 1
173 383 1
188 383 1
145 384 1
150 384 1
174 384 1
189 384 1
146 385 1
151 385 1
175 385 1
190 385 1
147 386 1
152 386 1
176 386 1
191 386 1
148 387 1
153 387 1
177 387 1
192 387 1
149 388 1
154 388 1
178 388 1
193 388 1
150 389 1
155 389 1
179 389 1
194 389 1
151 390 1
156 390 1
180 390 1
195 390 1
