%%MatrixMarket matrix coordinate integer general
% Binary matrix; one-based indices; arithmetic over GF(2)
85 170 680
1 1 1
5 1 1
18 1 1
20 1 1
2 2 1
6 2 1
19 2 1
21 2 1
3 3 1
7 3 1
20 3 1
22 3 1
4 4 1
8 4 1
21 4 1
23 4 1
5 5 1
9 5 1
22 5 1
24 5 1
6 6 1
10 6 1
23 6 1
25 6 1
7 7 1
11 7 1
24 7 1
26 7 1
8 8 1
12 8 1
25 8 1
27 8 1
9 9 1
13 9 1
26 9 1
28 9 1
10 10 1
14 10 1
27 10 1
29 10 1
11 11 1
15 11 1
28 11 1
30 11 1
12 12 1
16 12 1
29 12 1
31 12 1
13 13 1
17 13 1
30 13 1
32 13 1
1 14 1
14 14 1
31 14 1
33 14 1
2 15 1
15 15 1
32 15 1
34 15 1
3 16 1
16 16 1
18 16 1
33 16 1
4 17 1
17 17 1
19 17 1
34 17 1
1 18 1
6 18 1
35 18 1
37 18 1
2 19 1
7 19 1
36 19 1
38 19 1
3 20 1
8 20 1
37 20 1
39 20 1
4 21 1
9 21 1
38 21 1
40 21 1
5 22 1
10 22 1
39 22 1
41 22 1
6 23 1
11 23 1
40 23 1
42 23 1
7 24 1
12 24 1
41 24 1
43 24 1
8 25 1
13 25 1
42 25 1
44 25 1
9 26 1
14 26 1
43 26 1
45 26 1
10 27 1
15 27 1
44 27 1
46 27 1
11 28 1
16 28 1
45 28 1
47 28 1
12 29 1
17 29 1
46 29 1
48 29 1
1 30 1
13 30 1
47 30 1
49 30 1
2 31 1
14 31 1
48 31 1
50 31 1
3 32 1
15 32 1
49 32 1
51 32 1
4 33 1
16 33 1
35 33 1
50 33 1
5 34 1
17 34 1
36 34 1
51 34 1
18 35 1
23 35 1
35 35 1
39 35 1
19 36 1
24 36 1
36 36 1
40 36 1
20 37 1
25 37 1
37 37 1
41 37 1
21 38 1
26 38 1
38 38 1
42 38 1
22 39 1
27 39 1
39 39 1
43 39 1
23 40 1
28 40 1
40 40 1
44 40 1
24 41 1
29 41 1
41 41 1
45 41 1
25 42 1
30 42 1
42 42 1
46 42 1
26 43 1
31 43 1
43 43 1
47 43 1
27 44 1
32 44 1
44 44 1
48 44 1
28 45 1
33 45 1
45 45 1
49 45 1
29 46 1
34 46 1
46 46 1
50 46 1
18 47 1
30 47 1
47 47 1
51 47 1
19 48 1
31 48 1
35 48 1
48 48 1
20 49 1
32 49 1
36 49 1
49 49 1
21 50 1
33 50 1
37 50 1
50 50 1
22 51 1
34 51 1
38 51 1
51 51 1
1 52 1
11 52 1
52 52 1
54 52 1
2 53 1
12 53 1
53 53 1
55 53 1
3 54 1
13 54 1
54 54 1
56 54 1
4 55 1
14 55 1
55 55 1
57 55 1
5 56 1
15 56 1
56 56 1
58 56 1
6 57 1
16 57 1
57 57 1
59 57 1
7 58 1
17 58 1
58 58 1
60 58 1
1 59 1
8 59 1
59 59 1
61 59 1
2 60 1
9 60 1
60 60 1
62 60 1
3 61 1
10 61 1
61 61 1
63 61 1
4 62 1
11 62 1
62 62 1
64 62 1
5 63 1
12 63 1
63 63 1
65 63 1
6 64 1
13 64 1
64 64 1
66 64 1
7 65 1
14 65 1
65 65 1
67 65 1
8 66 1
15 66 1
66 66 1
68 66 1
9 67 1
16 67 1
52 67 1
67 67 1
10 68 1
17 68 1
53 68 1
68 68 1
18 69 1
28 69 1
52 69 1
56 69 1
19 70 1
29 70 1
53 70 1
57 70 1
20 71 1
30 71 1
54 71 1
58 71 1
21 72 1
31 72 1
55 72 1
59 72 1
22 73 1
32 73 1
56 73 1
60 73 1
23 74 1
33 74 1
57 74 1
61 74 1
24 75 1
34 75 1
58 75 1
62 75 1
18 76 1
25 76 1
59 76 1
63 76 1
19 77 1
26 77 1
60 77 1
64 77 1
20 78 1
27 78 1
61 78 1
65 78 1
21 79 1
28 79 1
62 79 1
66 79 1
22 80 1
29 80 1
63 80 1
67 80 1
23 81 1
30 81 1
64 81 1
68 81 1
24 82 1
31 82 1
52 82 1
65 82 1
25 83 1
32 83 1
53 83 1
66 83 1
26 84 1
33 84 1
54 84 1
67 84 1
27 85 1
34 85 1
55 85 1
68 85 1
35 86 1
45 86 1
52 86 1
57 86 1
36 87 1
46 87 1
53 87 1
58 87 1
37 88 1
47 88 1
54 88 1
59 88 1
38 89 1
48 89 1
55 89 1
60 89 1
39 90 1
49 90 1
56 90 1
61 90 1
40 91 1
50 91 1
57 91 1
62 91 1
41 92 1
51 92 1
58 92 1
63 92 1
35 93 1
42 93 1
59 93 1
64 93 1
36 94 1
43 94 1
60 94 1
65 94 1
37 95 1
44 95 1
61 95 1
66 95 1
38 96 1
45 96 1
62 96 1
67 96 1
39 97 1
46 97 1
63 97 1
68 97 1
40 98 1
47 98 1
52 98 1
64 98 1
41 99 1
48 99 1
53 99 1
65 99 1
42 100 1
49 100 1
54 100 1
66 100 1
43 101 1
50 101 1
55 101 1
67 101 1
44 102 1
51 102 1
56 102 1
68 102 1
1 103 1
14 103 1
69 103 1
71 103 1
2 104 1
15 104 1
70 104 1
72 104 1
3 105 1
16 105 1
71 105 1
73 105 1
4 106 1
17 106 1
72 106 1
74 106 1
1 107 1
5 107 1
73 107 1
75 107 1
2 108 1
6 108 1
74 108 1
76 108 1
3 109 1
7 109 1
75 109 1
77 109 1
4 110 1
8 110 1
76 110 1
78 110 1
5 111 1
9 111 1
77 111 1
79 111 1
6 112 1
10 112 1
78 112 1
80 112 1
7 113 1
11 113 1
79 113 1
81 113 1
8 114 1
12 114 1
80 114 1
82 114 1
9 115 1
13 115 1
81 115 1
83 115 1
10 116 1
14 116 1
82 116 1
84 116 1
11 117 1
15 117 1
83 117 1
85 117 1
12 118 1
16 118 1
69 118 1
84 118 1
13 119 1
17 119 1
70 119 1
85 119 1
18 120 1
31 120 1
69 120 1
73 120 1
19 121 1
32 121 1
70 121 1
74 121 1
20 122 1
33 122 1
71 122 1
75 122 1
21 123 1
34 123 1
72 123 1
76 123 1
18 124 1
22 124 1
73 124 1
77 124 1
19 125 1
23 125 1
74 125 1
78 125 1
20 126 1
24 126 1
75 126 1
79 126 1
21 127 1
25 127 1
76 127 1
80 127 1
22 128 1
26 128 1
77 128 1
81 128 1
23 129 1
27 129 1
78 129 1
82 129 1
24 130 1
28 130 1
79 130 1
83 130 1
25 131 1
29 131 1
80 131 1
84 131 1
26 132 1
30 132 1
81 132 1
85 132 1
27 133 1
31 133 1
69 133 1
82 133 1
28 134 1
32 134 1
70 134 1
83 134 1
29 135 1
33 135 1
71 135 1
84 135 1
30 136 1
34 136 1
72 136 1
85 136 1
35 137 1
48 137 1
69 137 1
74 137 1
36 138 1
49 138 1
70 138 1
75 138 1
37 139 1
50 139 1
71 139 1
76 139 1
38 140 1
51 140 1
72 140 1
77 140 1
35 141 1
39 141 1
73 141 1
78 141 1
36 142 1
40 142 1
74 142 1
79 142 1
37 143 1
41 143 1
75 143 1
80 143 1
38 144 1
42 144 1
76 144 1
81 144 1
39 145 1
43 145 1
77 145 1
82 145 1
40 146 1
44 146 1
78 146 1
83 146 1
41 147 1
45 147 1
79 147 1
84 147 1
42 148 1
46 148 1
80 148 1
85 148 1
43 149 1
47 149 1
69 149 1
81 149 1
44 150 1
48 150 1
70 150 1
82 150 1
45 151 1
49 151 1
71 151 1
83 151 1
46 152 1
50 152 1
72 152 1
84 152 1
47 153 1
51 153 1
73 153 1
85 153 1
52 154 1
65 154 1
69 154 1
79 154 1
53 155 1
66 155 1
70 155 1
80 155 1
54 156 1
67 156 1
71 156 1
81 156 1
55 157 1
68 157 1
72 157 1
82 157 1
52 158 1
56 158 1
73 158 1
83 158 1
53 159 1
57 159 1
74 159 1
84 159 1
54 160 1
58 160 1
75 160 1
85 160 1
55 161 1
59 161 1
69 161 1
76 161 1
56 162 1
60 162 1
70 162 1
77 162 1
57 163 1
61 163 1
71 163 1
78 163 1
58 164 1
62 164 1
72 164 1
79 164 1
59 165 1
63 165 1
73 165 1
80 165 1
60 166 1
64 166 1
74 166 1
81 166 1
61 167 1
65 167 1
75 167 1
82 167 1
62 168 1
66 168 1
76 168 1
83 168 1
63 169 1
67 169 1
77 169 1
84 169 1
64 170 1
68 170 1
78 170 1
85 170 1
