%%MatrixMarket matrix coordinate integer general
% Binary matrix; one-based indices; arithmetic over GF(2)
205 410 1640
1 1 1
16 1 1
42 1 1
45 1 1
2 2 1
17 2 1
43 2 1
46 2 1
3 3 1
18 3 1
44 3 1
47 3 1
4 4 1
19 4 1
45 4 1
48 4 1
5 5 1
20 5 1
46 5 1
49 5 1
6 6 1
21 6 1
47 6 1
50 6 1
7 7 1
22 7 1
48 7 1
51 7 1
8 8 1
23 8 1
49 8 1
52 8 1
9 9 1
24 9 1
50 9 1
53 9 1
10 10 1
25 10 1
51 10 1
54 10 1
11 11 1
26 11 1
52 11 1
55 11 1
12 12 1
27 12 1
53 12 1
56 12 1
13 13 1
28 13 1
54 13 1
57 13 1
14 14 1
29 14 1
55 14 1
58 14 1
15 15 1
30 15 1
56 15 1
59 15 1
16 16 1
31 16 1
57 16 1
60 16 1
17 17 1
32 17 1
58 17 1
61 17 1
18 18 1
33 18 1
59 18 1
62 18 1
19 19 1
34 19 1
60 19 1
63 19 1
20 20 1
35 20 1
61 20 1
64 20 1
21 21 1
36 21 1
62 21 1
65 21 1
22 22 1
37 22 1
63 22 1
66 22 1
23 23 1
38 23 1
64 23 1
67 23 1
24 24 1
39 24 1
65 24 1
68 24 1
25 25 1
40 25 1
66 25 1
69 25 1
26 26 1
41 26 1
67 26 1
70 26 1
1 27 1
27 27 1
68 27 1
71 27 1
2 28 1
28 28 1
69 28 1
72 28 1
3 29 1
29 29 1
70 29 1
73 29 1
4 30 1
30 30 1
71 30 1
74 30 1
5 31 1
31 31 1
72 31 1
75 31 1
6 32 1
32 32 1
73 32 1
76 32 1
7 33 1
33 33 1
74 33 1
77 33 1
8 34 1
34 34 1
75 34 1
78 34 1
9 35 1
35 35 1
76 35 1
79 35 1
10 36 1
36 36 1
77 36 1
80 36 1
11 37 1
37 37 1
78 37 1
81 37 1
12 38 1
38 38 1
79 38 1
82 38 1
13 39 1
39 39 1
42 39 1
80 39 1
14 40 1
40 40 1
43 40 1
81 40 1
15 41 1
41 41 1
44 41 1
82 41 1
1 42 1
17 42 1
83 42 1
86 42 1
2 43 1
18 43 1
84 43 1
87 43 1
3 44 1
19 44 1
85 44 1
88 44 1
4 45 1
20 45 1
86 45 1
89 45 1
5 46 1
21 46 1
87 46 1
90 46 1
6 47 1
22 47 1
88 47 1
91 47 1
7 48 1
23 48 1
89 48 1
92 48 1
8 49 1
24 49 1
90 49 1
93 49 1
9 50 1
25 50 1
91 50 1
94 50 1
10 51 1
26 51 1
92 51 1
95 51 1
11 52 1
27 52 1
93 52 1
96 52 1
12 53 1
28 53 1
94 53 1
97 53 1
13 54 1
29 54 1
95 54 1
98 54 1
14 55 1
30 55 1
96 55 1
99 55 1
15 56 1
31 56 1
97 56 1
100 56 1
16 57 1
32 57 1
98 57 1
101 57 1
17 58 1
33 58 1
99 58 1
102 58 1
18 59 1
34 59 1
100 59 1
103 59 1
19 60 1
35 60 1
101 60 1
104 60 1
20 61 1
36 61 1
102 61 1
105 61 1
21 62 1
37 62 1
103 62 1
106 62 1
22 63 1
38 63 1
104 63 1
107 63 1
23 64 1
39 64 1
105 64 1
108 64 1
24 65 1
40 65 1
106 65 1
109 65 1
25 66 1
41 66 1
107 66 1
110 66 1
1 67 1
26 67 1
108 67 1
111 67 1
2 68 1
27 68 1
109 68 1
112 68 1
3 69 1
28 69 1
110 69 1
113 69 1
4 70 1
29 70 1
111 70 1
114 70 1
5 71 1
30 71 1
112 71 1
115 71 1
6 72 1
31 72 1
113 72 1
116 72 1
7 73 1
32 73 1
114 73 1
117 73 1
8 74 1
33 74 1
115 74 1
118 74 1
9 75 1
34 75 1
116 75 1
119 75 1
10 76 1
35 76 1
117 76 1
120 76 1
11 77 1
36 77 1
118 77 1
121 77 1
12 78 1
37 78 1
119 78 1
122 78 1
13 79 1
38 79 1
120 79 1
123 79 1
14 80 1
39 80 1
83 80 1
121 80 1
15 81 1
40 81 1
84 81 1
122 81 1
16 82 1
41 82 1
85 82 1
123 82 1
42 83 1
58 83 1
83 83 1
98 83 1
43 84 1
59 84 1
84 84 1
99 84 1
44 85 1
60 85 1
85 85 1
100 85 1
45 86 1
61 86 1
86 86 1
101 86 1
46 87 1
62 87 1
87 87 1
102 87 1
47 88 1
63 88 1
88 88 1
103 88 1
48 89 1
64 89 1
89 89 1
104 89 1
49 90 1
65 90 1
90 90 1
105 90 1
50 91 1
66 91 1
91 91 1
106 91 1
51 92 1
67 92 1
92 92 1
107 92 1
52 93 1
68 93 1
93 93 1
108 93 1
53 94 1
69 94 1
94 94 1
109 94 1
54 95 1
70 95 1
95 95 1
110 95 1
55 96 1
71 96 1
96 96 1
111 96 1
56 97 1
72 97 1
97 97 1
112 97 1
57 98 1
73 98 1
98 98 1
113 98 1
58 99 1
74 99 1
99 99 1
114 99 1
59 100 1
75 100 1
100 100 1
115 100 1
60 101 1
76 101 1
101 101 1
116 101 1
61 102 1
77 102 1
102 102 1
117 102 1
62 103 1
78 103 1
103 103 1
118 103 1
63 104 1
79 104 1
104 104 1
119 104 1
64 105 1
80 105 1
105 105 1
120 105 1
65 106 1
81 106 1
106 106 1
121 106 1
66 107 1
82 107 1
107 107 1
122 107 1
42 108 1
67 108 1
108 108 1
123 108 1
43 109 1
68 109 1
83 109 1
109 109 1
44 110 1
69 110 1
84 110 1
110 110 1
45 111 1
70 111 1
85 111 1
111 111 1
46 112 1
71 112 1
86 112 1
112 112 1
47 113 1
72 113 1
87 113 1
113 113 1
48 114 1
73 114 1
88 114 1
114 114 1
49 115 1
74 115 1
89 115 1
115 115 1
50 116 1
75 116 1
90 116 1
116 116 1
51 117 1
76 117 1
91 117 1
117 117 1
52 118 1
77 118 1
92 118 1
118 118 1
53 119 1
78 119 1
93 119 1
119 119 1
54 120 1
79 120 1
94 120 1
120 120 1
55 121 1
80 121 1
95 121 1
121 121 1
56 122 1
81 122 1
96 122 1
122 122 1
57 123 1
82 123 1
97 123 1
123 123 1
1 124 1
28 124 1
124 124 1
127 124 1
2 125 1
29 125 1
125 125 1
128 125 1
3 126 1
30 126 1
126 126 1
129 126 1
4 127 1
31 127 1
127 127 1
130 127 1
5 128 1
32 128 1
128 128 1
131 128 1
6 129 1
33 129 1
129 129 1
132 129 1
7 130 1
34 130 1
130 130 1
133 130 1
8 131 1
35 131 1
131 131 1
134 131 1
9 132 1
36 132 1
132 132 1
135 132 1
10 133 1
37 133 1
133 133 1
136 133 1
11 134 1
38 134 1
134 134 1
137 134 1
12 135 1
39 135 1
135 135 1
138 135 1
13 136 1
40 136 1
136 136 1
139 136 1
14 137 1
41 137 1
137 137 1
140 137 1
1 138 1
15 138 1
138 138 1
141 138 1
2 139 1
16 139 1
139 139 1
142 139 1
3 140 1
17 140 1
140 140 1
143 140 1
4 141 1
18 141 1
141 141 1
144 141 1
5 142 1
19 142 1
142 142 1
145 142 1
6 143 1
20 143 1
143 143 1
146 143 1
7 144 1
21 144 1
144 144 1
147 144 1
8 145 1
22 145 1
145 145 1
148 145 1
9 146 1
23 146 1
146 146 1
149 146 1
10 147 1
24 147 1
147 147 1
150 147 1
11 148 1
25 148 1
148 148 1
151 148 1
12 149 1
26 149 1
149 149 1
152 149 1
13 150 1
27 150 1
150 150 1
153 150 1
14 151 1
28 151 1
151 151 1
154 151 1
15 152 1
29 152 1
152 152 1
155 152 1
16 153 1
30 153 1
153 153 1
156 153 1
17 154 1
31 154 1
154 154 1
157 154 1
18 155 1
32 155 1
155 155 1
158 155 1
19 156 1
33 156 1
156 156 1
159 156 1
20 157 1
34 157 1
157 157 1
160 157 1
21 158 1
35 158 1
158 158 1
161 158 1
22 159 1
36 159 1
159 159 1
162 159 1
23 160 1
37 160 1
160 160 1
163 160 1
24 161 1
38 161 1
161 161 1
164 161 1
25 162 1
39 162 1
124 162 1
162 162 1
26 163 1
40 163 1
125 163 1
163 163 1
27 164 1
41 164 1
126 164 1
164 164 1
42 165 1
69 165 1
124 165 1
139 165 1
43 166 1
70 166 1
125 166 1
140 166 1
44 167 1
71 167 1
126 167 1
141 167 1
45 168 1
72 168 1
127 168 1
142 168 1
46 169 1
73 169 1
128 169 1
143 169 1
47 170 1
74 170 1
129 170 1
144 170 1
48 171 1
75 171 1
130 171 1
145 171 1
49 172 1
76 172 1
131 172 1
146 172 1
50 173 1
77 173 1
132 173 1
147 173 1
51 174 1
78 174 1
133 174 1
148 174 1
52 175 1
79 175 1
134 175 1
149 175 1
53 176 1
80 176 1
135 176 1
150 176 1
54 177 1
81 177 1
136 177 1
151 177 1
55 178 1
82 178 1
137 178 1
152 178 1
42 179 1
56 179 1
138 179 1
153 179 1
43 180 1
57 180 1
139 180 1
154 180 1
44 181 1
58 181 1
140 181 1
155 181 1
45 182 1
59 182 1
141 182 1
156 182 1
46 183 1
60 183 1
142 183 1
157 183 1
47 184 1
61 184 1
143 184 1
158 184 1
48 185 1
62 185 1
144 185 1
159 185 1
49 186 1
63 186 1
145 186 1
160 186 1
50 187 1
64 187 1
146 187 1
161 187 1
51 188 1
65 188 1
147 188 1
162 188 1
52 189 1
66 189 1
148 189 1
163 189 1
53 190 1
67 190 1
149 190 1
164 190 1
54 191 1
68 191 1
124 191 1
150 191 1
55 192 1
69 192 1
125 192 1
151 192 1
56 193 1
70 193 1
126 193 1
152 193 1
57 194 1
71 194 1
127 194 1
153 194 1
58 195 1
72 195 1
128 195 1
154 195 1
59 196 1
73 196 1
129 196 1
155 196 1
60 197 1
74 197 1
130 197 1
156 197 1
61 198 1
75 198 1
131 198 1
157 198 1
62 199 1
76 199 1
132 199 1
158 199 1
63 200 1
77 200 1
133 200 1
159 200 1
64 201 1
78 201 1
134 201 1
160 201 1
65 202 1
79 202 1
135 202 1
161 202 1
66 203 1
80 203 1
136 203 1
162 203 1
67 204 1
81 204 1
137 204 1
163 204 1
68 205 1
82 205 1
138 205 1
164 205 1
83 206 1
110 206 1
124 206 1
140 206 1
84 207 1
111 207 1
125 207 1
141 207 1
85 208 1
112 208 1
126 208 1
142 208 1
86 209 1
113 209 1
127 209 1
143 209 1
87 210 1
114 210 1
128 210 1
144 210 1
88 211 1
115 211 1
129 211 1
145 211 1
89 212 1
116 212 1
130 212 1
146 212 1
90 213 1
117 213 1
131 213 1
147 213 1
91 214 1
118 214 1
132 214 1
148 214 1
92 215 1
119 215 1
133 215 1
149 215 1
93 216 1
120 216 1
134 216 1
150 216 1
94 217 1
121 217 1
135 217 1
151 217 1
95 218 1
122 218 1
136 218 1
152 218 1
96 219 1
123 219 1
137 219 1
153 219 1
83 220 1
97 220 1
138 220 1
154 220 1
84 221 1
98 221 1
139 221 1
155 221 1
85 222 1
99 222 1
140 222 1
156 222 1
86 223 1
100 223 1
141 223 1
157 223 1
87 224 1
101 224 1
142 224 1
158 224 1
88 225 1
102 225 1
143 225 1
159 225 1
89 226 1
103 226 1
144 226 1
160 226 1
90 227 1
104 227 1
145 227 1
161 227 1
91 228 1
105 228 1
146 228 1
162 228 1
92 229 1
106 229 1
147 229 1
163 229 1
93 230 1
107 230 1
148 230 1
164 230 1
94 231 1
108 231 1
124 231 1
149 231 1
95 232 1
109 232 1
125 232 1
150 232 1
96 233 1
110 233 1
126 233 1
151 233 1
97 234 1
111 234 1
127 234 1
152 234 1
98 235 1
112 235 1
128 235 1
153 235 1
99 236 1
113 236 1
129 236 1
154 236 1
100 237 1
114 237 1
130 237 1
155 237 1
101 238 1
115 238 1
131 238 1
156 238 1
102 239 1
116 239 1
132 239 1
157 239 1
103 240 1
117 240 1
133 240 1
158 240 1
104 241 1
118 241 1
134 241 1
159 241 1
105 242 1
119 242 1
135 242 1
160 242 1
106 243 1
120 243 1
136 243 1
161 243 1
107 244 1
121 244 1
137 244 1
162 244 1
108 245 1
122 245 1
138 245 1
163 245 1
109 246 1
123 246 1
139 246 1
164 246 1
1 247 1
35 247 1
165 247 1
168 247 1
2 248 1
36 248 1
166 248 1
169 248 1
3 249 1
37 249 1
167 249 1
170 249 1
4 250 1
38 250 1
168 250 1
171 250 1
5 251 1
39 251 1
169 251 1
172 251 1
6 252 1
40 252 1
170 252 1
173 252 1
7 253 1
41 253 1
171 253 1
174 253 1
1 254 1
8 254 1
172 254 1
175 254 1
2 255 1
9 255 1
173 255 1
176 255 1
3 256 1
10 256 1
174 256 1
177 256 1
4 257 1
11 257 1
175 257 1
178 257 1
5 258 1
12 258 1
176 258 1
179 258 1
6 259 1
13 259 1
177 259 1
180 259 1
7 260 1
14 260 1
178 260 1
181 260 1
8 261 1
15 261 1
179 261 1
182 261 1
9 262 1
16 262 1
180 262 1
183 262 1
10 263 1
17 263 1
181 263 1
184 263 1
11 264 1
18 264 1
182 264 1
185 264 1
12 265 1
19 265 1
183 265 1
186 265 1
13 266 1
20 266 1
184 266 1
187 266 1
14 267 1
21 267 1
185 267 1
188 267 1
15 268 1
22 268 1
186 268 1
189 268 1
16 269 1
23 269 1
187 269 1
190 269 1
17 270 1
24 270 1
188 270 1
191 270 1
18 271 1
25 271 1
189 271 1
192 271 1
19 272 1
26 272 1
190 272 1
193 272 1
20 273 1
27 273 1
191 273 1
194 273 1
21 274 1
28 274 1
192 274 1
195 274 1
22 275 1
29 275 1
193 275 1
196 275 1
23 276 1
30 276 1
194 276 1
197 276 1
24 277 1
31 277 1
195 277 1
198 277 1
25 278 1
32 278 1
196 278 1
199 278 1
26 279 1
33 279 1
197 279 1
200 279 1
27 280 1
34 280 1
198 280 1
201 280 1
28 281 1
35 281 1
199 281 1
202 281 1
29 282 1
36 282 1
200 282 1
203 282 1
30 283 1
37 283 1
201 283 1
204 283 1
31 284 1
38 284 1
202 284 1
205 284 1
32 285 1
39 285 1
165 285 1
203 285 1
33 286 1
40 286 1
166 286 1
204 286 1
34 287 1
41 287 1
167 287 1
205 287 1
42 288 1
76 288 1
165 288 1
180 288 1
43 289 1
77 289 1
166 289 1
181 289 1
44 290 1
78 290 1
167 290 1
182 290 1
45 291 1
79 291 1
168 291 1
183 291 1
46 292 1
80 292 1
169 292 1
184 292 1
47 293 1
81 293 1
170 293 1
185 293 1
48 294 1
82 294 1
171 294 1
186 294 1
42 295 1
49 295 1
172 295 1
187 295 1
43 296 1
50 296 1
173 296 1
188 296 1
44 297 1
51 297 1
174 297 1
189 297 1
45 298 1
52 298 1
175 298 1
190 298 1
46 299 1
53 299 1
176 299 1
191 299 1
47 300 1
54 300 1
177 300 1
192 300 1
48 301 1
55 301 1
178 301 1
193 301 1
49 302 1
56 302 1
179 302 1
194 302 1
50 303 1
57 303 1
180 303 1
195 303 1
51 304 1
58 304 1
181 304 1
196 304 1
52 305 1
59 305 1
182 305 1
197 305 1
53 306 1
60 306 1
183 306 1
198 306 1
54 307 1
61 307 1
184 307 1
199 307 1
55 308 1
62 308 1
185 308 1
200 308 1
56 309 1
63 309 1
186 309 1
201 309 1
57 310 1
64 310 1
187 310 1
202 310 1
58 311 1
65 311 1
188 311 1
203 311 1
59 312 1
66 312 1
189 312 1
204 312 1
60 313 1
67 313 1
190 313 1
205 313 1
61 314 1
68 314 1
165 314 1
191 314 1
62 315 1
69 315 1
166 315 1
192 315 1
63 316 1
70 316 1
167 316 1
193 316 1
64 317 1
71 317 1
168 317 1
194 317 1
65 318 1
72 318 1
169 318 1
195 318 1
66 319 1
73 319 1
170 319 1
196 319 1
67 320 1
74 320 1
171 320 1
197 320 1
68 321 1
75 321 1
172 321 1
198 321 1
69 322 1
76 322 1
173 322 1
199 322 1
70 323 1
77 323 1
174 323 1
200 323 1
71 324 1
78 324 1
175 324 1
201 324 1
72 325 1
79 325 1
176 325 1
202 325 1
73 326 1
80 326 1
177 326 1
203 326 1
74 327 1
81 327 1
178 327 1
204 327 1
75 328 1
82 328 1
179 328 1
205 328 1
83 329 1
117 329 1
165 329 1
181 329 1
84 330 1
118 330 1
166 330 1
182 330 1
85 331 1
119 331 1
167 331 1
183 331 1
86 332 1
120 332 1
168 332 1
184 332 1
87 333 1
121 333 1
169 333 1
185 333 1
88 334 1
122 334 1
170 334 1
186 334 1
89 335 1
123 335 1
171 335 1
187 335 1
83 336 1
90 336 1
172 336 1
188 336 1
84 337 1
91 337 1
173 337 1
189 337 1
85 338 1
92 338 1
174 338 1
190 338 1
86 339 1
93 339 1
175 339 1
191 339 1
87 340 1
94 340 1
176 340 1
192 340 1
88 341 1
95 341 1
177 341 1
193 341 1
89 342 1
96 342 1
178 342 1
194 342 1
90 343 1
97 343 1
179 343 1
195 343 1
91 344 1
98 344 1
180 344 1
196 344 1
92 345 1
99 345 1
181 345 1
197 345 1
93 346 1
100 346 1
182 346 1
198 346 1
94 347 1
101 347 1
183 347 1
199 347 1
95 348 1
102 348 1
184 348 1
200 348 1
96 349 1
103 349 1
185 349 1
201 349 1
97 350 1
104 350 1
186 350 1
202 350 1
98 351 1
105 351 1
187 351 1
203 351 1
99 352 1
106 352 1
188 352 1
204 352 1
100 353 1
107 353 1
189 353 1
205 353 1
101 354 1
108 354 1
165 354 1
190 354 1
102 355 1
109 355 1
166 355 1
191 355 1
103 356 1
110 356 1
167 356 1
192 356 1
104 357 1
111 357 1
168 357 1
193 357 1
105 358 1
112 358 1
169 358 1
194 358 1
106 359 1
113 359 1
170 359 1
195 359 1
107 360 1
114 360 1
171 360 1
196 360 1
108 361 1
115 361 1
172 361 1
197 361 1
109 362 1
116 362 1
173 362 1
198 362 1
110 363 1
117 363 1
174 363 1
199 363 1
111 364 1
118 364 1
175 364 1
200 364 1
112 365 1
119 365 1
176 365 1
201 365 1
113 366 1
120 366 1
177 366 1
202 366 1
114 367 1
121 367 1
178 367 1
203 367 1
115 368 1
122 368 1
179 368 1
204 368 1
116 369 1
123 369 1
180 369 1
205 369 1
124 370 1
158 370 1
165 370 1
192 370 1
125 371 1
159 371 1
166 371 1
193 371 1
126 372 1
160 372 1
167 372 1
194 372 1
127 373 1
161 373 1
168 373 1
195 373 1
128 374 1
162 374 1
169 374 1
196 374 1
129 375 1
163 375 1
170 375 1
197 375 1
130 376 1
164 376 1
171 376 1
198 376 1
124 377 1
131 377 1
172 377 1
199 377 1
125 378 1
132 378 1
173 378 1
200 378 1
126 379 1
133 379 1
174 379 1
201 379 1
127 380 1
134 380 1
175 380 1
202 380 1
128 381 1
135 381 1
176 381 1
203 381 1
129 382 1
136 382 1
177 382 1
204 382 1
130 383 1
137 383 1
178 383 1
205 383 1
131 384 1
138 384 1
165 384 1
179 384 1
132 385 1
139 385 1
166 385 1
180 385 1
133 386 1
140 386 1
167 386 1
181 386 1
134 387 1
141 387 1
168 387 1
182 387 1
135 388 1
142 388 1
169 388 1
183 388 1
136 389 1
143 389 1
170 389 1
184 389 1
137 390 1
144 390 1
171 390 1
185 390 1
138 391 1
145 391 1
172 391 1
186 391 1
139 392 1
146 392 1
173 392 1
187 392 1
140 393 1
147 393 1
174 393 1
188 393 1
141 394 1
148 394 1
175 394 1
189 394 1
142 395 1
149 395 1
176 395 1
190 395 1
143 396 1
150 396 1
177 396 1
191 396 1
144 397 1
151 397 1
178 397 1
192 397 1
145 398 1
152 398 1
179 398 1
193 398 1
146 399 1
153 399 1
180 399 1
194 399 1
147 400 1
154 400 1
181 400 1
195 400 1
148 401 1
155 401 1
182 401 1
196 401 1
149 402 1
156 402 1
183 402 1
197 402 1
150 403 1
157 403 1
184 403 1
198 403 1
151 404 1
158 404 1
185 404 1
199 404 1
152 405 1
159 405 1
186 405 1
200 405 1
153 406 1
160 406 1
187 406 1
201 406 1
154 407 1
161 407 1
188 407 1
202 407 1
155 408 1
162 408 1
189 408 1
203 408 1
156 409 1
163 409 1
190 409 1
204 409 1
157 410 1
164 410 1
191 410 1
205 410 1
