%%MatrixMarket matrix coordinate integer general
% Binary matrix; one-based indices; arithmetic over GF(2)
324 486 2916
38 1 1
60 1 1
69 1 1
92 1 1
123 1 1
138 1 1
39 2 1
58 2 1
67 2 1
93 2 1
121 2 1
136 2 1
37 3 1
59 3 1
68 3 1
91 3 1
122 3 1
137 3 1
41 4 1
63 4 1
72 4 1
95 4 1
126 4 1
141 4 1
42 5 1
61 5 1
70 5 1
96 5 1
124 5 1
139 5 1
40 6 1
62 6 1
71 6 1
94 6 1
125 6 1
140 6 1
44 7 1
57 7 1
66 7 1
98 7 1
120 7 1
144 7 1
45 8 1
55 8 1
64 8 1
99 8 1
118 8 1
142 8 1
43 9 1
56 9 1
65 9 1
97 9 1
119 9 1
143 9 1
47 10 1
69 10 1
78 10 1
101 10 1
132 10 1
147 10 1
48 11 1
67 11 1
76 11 1
102 11 1
130 11 1
145 11 1
46 12 1
68 12 1
77 12 1
100 12 1
131 12 1
146 12 1
50 13 1
72 13 1
81 13 1
104 13 1
135 13 1
150 13 1
51 14 1
70 14 1
79 14 1
105 14 1
133 14 1
148 14 1
49 15 1
71 15 1
80 15 1
103 15 1
134 15 1
149 15 1
53 16 1
66 16 1
75 16 1
107 16 1
129 16 1
153 16 1
54 17 1
64 17 1
73 17 1
108 17 1
127 17 1
151 17 1
52 18 1
65 18 1
74 18 1
106 18 1
128 18 1
152 18 1
29 19 1
60 19 1
78 19 1
83 19 1
114 19 1
156 19 1
30 20 1
58 20 1
76 20 1
84 20 1
112 20 1
154 20 1
28 21 1
59 21 1
77 21 1
82 21 1
113 21 1
155 21 1
32 22 1
63 22 1
81 22 1
86 22 1
117 22 1
159 22 1
33 23 1
61 23 1
79 23 1
87 23 1
115 23 1
157 23 1
31 24 1
62 24 1
80 24 1
85 24 1
116 24 1
158 24 1
35 25 1
57 25 1
75 25 1
89 25 1
111 25 1
162 25 1
36 26 1
55 26 1
73 26 1
90 26 1
109 26 1
160 26 1
34 27 1
56 27 1
74 27 1
88 27 1
110 27 1
161 27 1
6 28 1
15 28 1
65 28 1
84 28 1
119 28 1
150 28 1
4 29 1
13 29 1
66 29 1
82 29 1
120 29 1
148 29 1
5 30 1
14 30 1
64 30 1
83 30 1
118 30 1
149 30 1
9 31 1
18 31 1
68 31 1
87 31 1
122 31 1
153 31 1
7 32 1
16 32 1
69 32 1
85 32 1
123 32 1
151 32 1
8 33 1
17 33 1
67 33 1
86 33 1
121 33 1
152 33 1
3 34 1
12 34 1
71 34 1
90 34 1
125 34 1
147 34 1
1 35 1
10 35 1
72 35 1
88 35 1
126 35 1
145 35 1
2 36 1
11 36 1
70 36 1
89 36 1
124 36 1
146 36 1
15 37 1
24 37 1
74 37 1
93 37 1
128 37 1
159 37 1
13 38 1
22 38 1
75 38 1
91 38 1
129 38 1
157 38 1
14 39 1
23 39 1
73 39 1
92 39 1
127 39 1
158 39 1
18 40 1
27 40 1
77 40 1
96 40 1
131 40 1
162 40 1
16 41 1
25 41 1
78 41 1
94 41 1
132 41 1
160 41 1
17 42 1
26 42 1
76 42 1
95 42 1
130 42 1
161 42 1
12 43 1
21 43 1
80 43 1
99 43 1
134 43 1
156 43 1
10 44 1
19 44 1
81 44 1
97 44 1
135 44 1
154 44 1
11 45 1
20 45 1
79 45 1
98 45 1
133 45 1
155 45 1
6 46 1
24 46 1
56 46 1
102 46 1
110 46 1
141 46 1
4 47 1
22 47 1
57 47 1
100 47 1
111 47 1
139 47 1
5 48 1
23 48 1
55 48 1
101 48 1
109 48 1
140 48 1
9 49 1
27 49 1
59 49 1
105 49 1
113 49 1
144 49 1
7 50 1
25 50 1
60 50 1
103 50 1
114 50 1
142 50 1
8 51 1
26 51 1
58 51 1
104 51 1
112 51 1
143 51 1
3 52 1
21 52 1
62 52 1
108 52 1
116 52 1
138 52 1
1 53 1
19 53 1
63 53 1
106 53 1
117 53 1
136 53 1
2 54 1
20 54 1
61 54 1
107 54 1
115 54 1
137 54 1
11 55 1
33 55 1
42 55 1
96 55 1
111 55 1
146 55 1
12 56 1
31 56 1
40 56 1
94 56 1
109 56 1
147 56 1
10 57 1
32 57 1
41 57 1
95 57 1
110 57 1
145 57 1
14 58 1
36 58 1
45 58 1
99 58 1
114 58 1
149 58 1
15 59 1
34 59 1
43 59 1
97 59 1
112 59 1
150 59 1
13 60 1
35 60 1
44 60 1
98 60 1
113 60 1
148 60 1
17 61 1
30 61 1
39 61 1
93 61 1
117 61 1
152 61 1
18 62 1
28 62 1
37 62 1
91 62 1
115 62 1
153 62 1
16 63 1
29 63 1
38 63 1
92 63 1
116 63 1
151 63 1
20 64 1
42 64 1
51 64 1
105 64 1
120 64 1
155 64 1
21 65 1
40 65 1
49 65 1
103 65 1
118 65 1
156 65 1
19 66 1
41 66 1
50 66 1
104 66 1
119 66 1
154 66 1
23 67 1
45 67 1
54 67 1
108 67 1
123 67 1
158 67 1
24 68 1
43 68 1
52 68 1
106 68 1
121 68 1
159 68 1
22 69 1
44 69 1
53 69 1
107 69 1
122 69 1
157 69 1
26 70 1
39 70 1
48 70 1
102 70 1
126 70 1
161 70 1
27 71 1
37 71 1
46 71 1
100 71 1
124 71 1
162 71 1
25 72 1
38 72 1
47 72 1
101 72 1
125 72 1
160 72 1
2 73 1
33 73 1
51 73 1
87 73 1
129 73 1
137 73 1
3 74 1
31 74 1
49 74 1
85 74 1
127 74 1
138 74 1
1 75 1
32 75 1
50 75 1
86 75 1
128 75 1
136 75 1
5 76 1
36 76 1
54 76 1
90 76 1
132 76 1
140 76 1
6 77 1
34 77 1
52 77 1
88 77 1
130 77 1
141 77 1
4 78 1
35 78 1
53 78 1
89 78 1
131 78 1
139 78 1
8 79 1
30 79 1
48 79 1
84 79 1
135 79 1
143 79 1
9 80 1
28 80 1
46 80 1
82 80 1
133 80 1
144 80 1
7 81 1
29 81 1
47 81 1
83 81 1
134 81 1
142 81 1
3 82 1
14 82 1
29 82 1
173 82 1
204 82 1
219 82 1
1 83 1
15 83 1
30 83 1
174 83 1
202 83 1
217 83 1
2 84 1
13 84 1
28 84 1
172 84 1
203 84 1
218 84 1
6 85 1
17 85 1
32 85 1
176 85 1
207 85 1
222 85 1
4 86 1
18 86 1
33 86 1
177 86 1
205 86 1
220 86 1
5 87 1
16 87 1
31 87 1
175 87 1
206 87 1
221 87 1
9 88 1
11 88 1
35 88 1
179 88 1
201 88 1
225 88 1
7 89 1
12 89 1
36 89 1
180 89 1
199 89 1
223 89 1
8 90 1
10 90 1
34 90 1
178 90 1
200 90 1
224 90 1
12 91 1
23 91 1
38 91 1
182 91 1
213 91 1
228 91 1
10 92 1
24 92 1
39 92 1
183 92 1
211 92 1
226 92 1
11 93 1
22 93 1
37 93 1
181 93 1
212 93 1
227 93 1
15 94 1
26 94 1
41 94 1
185 94 1
216 94 1
231 94 1
13 95 1
27 95 1
42 95 1
186 95 1
214 95 1
229 95 1
14 96 1
25 96 1
40 96 1
184 96 1
215 96 1
230 96 1
18 97 1
20 97 1
44 97 1
188 97 1
210 97 1
234 97 1
16 98 1
21 98 1
45 98 1
189 98 1
208 98 1
232 98 1
17 99 1
19 99 1
43 99 1
187 99 1
209 99 1
233 99 1
5 100 1
21 100 1
47 100 1
164 100 1
195 100 1
237 100 1
6 101 1
19 101 1
48 101 1
165 101 1
193 101 1
235 101 1
4 102 1
20 102 1
46 102 1
163 102 1
194 102 1
236 102 1
8 103 1
24 103 1
50 103 1
167 103 1
198 103 1
240 103 1
9 104 1
22 104 1
51 104 1
168 104 1
196 104 1
238 104 1
7 105 1
23 105 1
49 105 1
166 105 1
197 105 1
239 105 1
2 106 1
27 106 1
53 106 1
170 106 1
192 106 1
243 106 1
3 107 1
25 107 1
54 107 1
171 107 1
190 107 1
241 107 1
1 108 1
26 108 1
52 108 1
169 108 1
191 108 1
242 108 1
30 109 1
41 109 1
56 109 1
165 109 1
200 109 1
231 109 1
28 110 1
42 110 1
57 110 1
163 110 1
201 110 1
229 110 1
29 111 1
40 111 1
55 111 1
164 111 1
199 111 1
230 111 1
33 112 1
44 112 1
59 112 1
168 112 1
203 112 1
234 112 1
31 113 1
45 113 1
60 113 1
166 113 1
204 113 1
232 113 1
32 114 1
43 114 1
58 114 1
167 114 1
202 114 1
233 114 1
36 115 1
38 115 1
62 115 1
171 115 1
206 115 1
228 115 1
34 116 1
39 116 1
63 116 1
169 116 1
207 116 1
226 116 1
35 117 1
37 117 1
61 117 1
170 117 1
205 117 1
227 117 1
39 118 1
50 118 1
65 118 1
174 118 1
209 118 1
240 118 1
37 119 1
51 119 1
66 119 1
172 119 1
210 119 1
238 119 1
38 120 1
49 120 1
64 120 1
173 120 1
208 120 1
239 120 1
42 121 1
53 121 1
68 121 1
177 121 1
212 121 1
243 121 1
40 122 1
54 122 1
69 122 1
175 122 1
213 122 1
241 122 1
41 123 1
52 123 1
67 123 1
176 123 1
211 123 1
242 123 1
45 124 1
47 124 1
71 124 1
180 124 1
215 124 1
237 124 1
43 125 1
48 125 1
72 125 1
178 125 1
216 125 1
235 125 1
44 126 1
46 126 1
70 126 1
179 126 1
214 126 1
236 126 1
32 127 1
48 127 1
74 127 1
183 127 1
191 127 1
222 127 1
33 128 1
46 128 1
75 128 1
181 128 1
192 128 1
220 128 1
31 129 1
47 129 1
73 129 1
182 129 1
190 129 1
221 129 1
35 130 1
51 130 1
77 130 1
186 130 1
194 130 1
225 130 1
36 131 1
49 131 1
78 131 1
184 131 1
195 131 1
223 131 1
34 132 1
50 132 1
76 132 1
185 132 1
193 132 1
224 132 1
29 133 1
54 133 1
80 133 1
189 133 1
197 133 1
219 133 1
30 134 1
52 134 1
81 134 1
187 134 1
198 134 1
217 134 1
28 135 1
53 135 1
79 135 1
188 135 1
196 135 1
218 135 1
2 136 1
57 136 1
68 136 1
177 136 1
192 136 1
227 136 1
3 137 1
55 137 1
69 137 1
175 137 1
190 137 1
228 137 1
1 138 1
56 138 1
67 138 1
176 138 1
191 138 1
226 138 1
5 139 1
60 139 1
71 139 1
180 139 1
195 139 1
230 139 1
6 140 1
58 140 1
72 140 1
178 140 1
193 140 1
231 140 1
4 141 1
59 141 1
70 141 1
179 141 1
194 141 1
229 141 1
8 142 1
63 142 1
65 142 1
174 142 1
198 142 1
233 142 1
9 143 1
61 143 1
66 143 1
172 143 1
196 143 1
234 143 1
7 144 1
62 144 1
64 144 1
173 144 1
197 144 1
232 144 1
11 145 1
66 145 1
77 145 1
186 145 1
201 145 1
236 145 1
12 146 1
64 146 1
78 146 1
184 146 1
199 146 1
237 146 1
10 147 1
65 147 1
76 147 1
185 147 1
200 147 1
235 147 1
14 148 1
69 148 1
80 148 1
189 148 1
204 148 1
239 148 1
15 149 1
67 149 1
81 149 1
187 149 1
202 149 1
240 149 1
13 150 1
68 150 1
79 150 1
188 150 1
203 150 1
238 150 1
17 151 1
72 151 1
74 151 1
183 151 1
207 151 1
242 151 1
18 152 1
70 152 1
75 152 1
181 152 1
205 152 1
243 152 1
16 153 1
71 153 1
73 153 1
182 153 1
206 153 1
241 153 1
20 154 1
59 154 1
75 154 1
168 154 1
210 154 1
218 154 1
21 155 1
60 155 1
73 155 1
166 155 1
208 155 1
219 155 1
19 156 1
58 156 1
74 156 1
167 156 1
209 156 1
217 156 1
23 157 1
62 157 1
78 157 1
171 157 1
213 157 1
221 157 1
24 158 1
63 158 1
76 158 1
169 158 1
211 158 1
222 158 1
22 159 1
61 159 1
77 159 1
170 159 1
212 159 1
220 159 1
26 160 1
56 160 1
81 160 1
165 160 1
216 160 1
224 160 1
27 161 1
57 161 1
79 161 1
163 161 1
214 161 1
225 161 1
25 162 1
55 162 1
80 162 1
164 162 1
215 162 1
223 162 1
84 163 1
95 163 1
110 163 1
200 163 1
222 163 1
231 163 1
82 164 1
96 164 1
111 164 1
201 164 1
220 164 1
229 164 1
83 165 1
94 165 1
109 165 1
199 165 1
221 165 1
230 165 1
87 166 1
98 166 1
113 166 1
203 166 1
225 166 1
234 166 1
85 167 1
99 167 1
114 167 1
204 167 1
223 167 1
232 167 1
86 168 1
97 168 1
112 168 1
202 168 1
224 168 1
233 168 1
90 169 1
92 169 1
116 169 1
206 169 1
219 169 1
228 169 1
88 170 1
93 170 1
117 170 1
207 170 1
217 170 1
226 170 1
89 171 1
91 171 1
115 171 1
205 171 1
218 171 1
227 171 1
93 172 1
104 172 1
119 172 1
209 172 1
231 172 1
240 172 1
91 173 1
105 173 1
120 173 1
210 173 1
229 173 1
238 173 1
92 174 1
103 174 1
118 174 1
208 174 1
230 174 1
239 174 1
96 175 1
107 175 1
122 175 1
212 175 1
234 175 1
243 175 1
94 176 1
108 176 1
123 176 1
213 176 1
232 176 1
241 176 1
95 177 1
106 177 1
121 177 1
211 177 1
233 177 1
242 177 1
99 178 1
101 178 1
125 178 1
215 178 1
228 178 1
237 178 1
97 179 1
102 179 1
126 179 1
216 179 1
226 179 1
235 179 1
98 180 1
100 180 1
124 180 1
214 180 1
227 180 1
236 180 1
86 181 1
102 181 1
128 181 1
191 181 1
222 181 1
240 181 1
87 182 1
100 182 1
129 182 1
192 182 1
220 182 1
238 182 1
85 183 1
101 183 1
127 183 1
190 183 1
221 183 1
239 183 1
89 184 1
105 184 1
131 184 1
194 184 1
225 184 1
243 184 1
90 185 1
103 185 1
132 185 1
195 185 1
223 185 1
241 185 1
88 186 1
104 186 1
130 186 1
193 186 1
224 186 1
242 186 1
83 187 1
108 187 1
134 187 1
197 187 1
219 187 1
237 187 1
84 188 1
106 188 1
135 188 1
198 188 1
217 188 1
235 188 1
82 189 1
107 189 1
133 189 1
196 189 1
218 189 1
236 189 1
111 190 1
122 190 1
137 190 1
168 190 1
177 190 1
227 190 1
109 191 1
123 191 1
138 191 1
166 191 1
175 191 1
228 191 1
110 192 1
121 192 1
136 192 1
167 192 1
176 192 1
226 192 1
114 193 1
125 193 1
140 193 1
171 193 1
180 193 1
230 193 1
112 194 1
126 194 1
141 194 1
169 194 1
178 194 1
231 194 1
113 195 1
124 195 1
139 195 1
170 195 1
179 195 1
229 195 1
117 196 1
119 196 1
143 196 1
165 196 1
174 196 1
233 196 1
115 197 1
120 197 1
144 197 1
163 197 1
172 197 1
234 197 1
116 198 1
118 198 1
142 198 1
164 198 1
173 198 1
232 198 1
120 199 1
131 199 1
146 199 1
177 199 1
186 199 1
236 199 1
118 200 1
132 200 1
147 200 1
175 200 1
184 200 1
237 200 1
119 201 1
130 201 1
145 201 1
176 201 1
185 201 1
235 201 1
123 202 1
134 202 1
149 202 1
180 202 1
189 202 1
239 202 1
121 203 1
135 203 1
150 203 1
178 203 1
187 203 1
240 203 1
122 204 1
133 204 1
148 204 1
179 204 1
188 204 1
238 204 1
126 205 1
128 205 1
152 205 1
174 205 1
183 205 1
242 205 1
124 206 1
129 206 1
153 206 1
172 206 1
181 206 1
243 206 1
125 207 1
127 207 1
151 207 1
173 207 1
182 207 1
241 207 1
113 208 1
129 208 1
155 208 1
168 208 1
186 208 1
218 208 1
114 209 1
127 209 1
156 209 1
166 209 1
184 209 1
219 209 1
112 210 1
128 210 1
154 210 1
167 210 1
185 210 1
217 210 1
116 211 1
132 211 1
158 211 1
171 211 1
189 211 1
221 211 1
117 212 1
130 212 1
159 212 1
169 212 1
187 212 1
222 212 1
115 213 1
131 213 1
157 213 1
170 213 1
188 213 1
220 213 1
110 214 1
135 214 1
161 214 1
165 214 1
183 214 1
224 214 1
111 215 1
133 215 1
162 215 1
163 215 1
181 215 1
225 215 1
109 216 1
134 216 1
160 216 1
164 216 1
182 216 1
223 216 1
83 217 1
138 217 1
149 217 1
173 217 1
195 217 1
204 217 1
84 218 1
136 218 1
150 218 1
174 218 1
193 218 1
202 218 1
82 219 1
137 219 1
148 219 1
172 219 1
194 219 1
203 219 1
86 220 1
141 220 1
152 220 1
176 220 1
198 220 1
207 220 1
87 221 1
139 221 1
153 221 1
177 221 1
196 221 1
205 221 1
85 222 1
140 222 1
151 222 1
175 222 1
197 222 1
206 222 1
89 223 1
144 223 1
146 223 1
179 223 1
192 223 1
201 223 1
90 224 1
142 224 1
147 224 1
180 224 1
190 224 1
199 224 1
88 225 1
143 225 1
145 225 1
178 225 1
191 225 1
200 225 1
92 226 1
147 226 1
158 226 1
182 226 1
204 226 1
213 226 1
93 227 1
145 227 1
159 227 1
183 227 1
202 227 1
211 227 1
91 228 1
146 228 1
157 228 1
181 228 1
203 228 1
212 228 1
95 229 1
150 229 1
161 229 1
185 229 1
207 229 1
216 229 1
96 230 1
148 230 1
162 230 1
186 230 1
205 230 1
214 230 1
94 231 1
149 231 1
160 231 1
184 231 1
206 231 1
215 231 1
98 232 1
153 232 1
155 232 1
188 232 1
201 232 1
210 232 1
99 233 1
151 233 1
156 233 1
189 233 1
199 233 1
208 233 1
97 234 1
152 234 1
154 234 1
187 234 1
200 234 1
209 234 1
101 235 1
140 235 1
156 235 1
164 235 1
195 235 1
213 235 1
102 236 1
141 236 1
154 236 1
165 236 1
193 236 1
211 236 1
100 237 1
139 237 1
155 237 1
163 237 1
194 237 1
212 237 1
104 238 1
143 238 1
159 238 1
167 238 1
198 238 1
216 238 1
105 239 1
144 239 1
157 239 1
168 239 1
196 239 1
214 239 1
103 240 1
142 240 1
158 240 1
166 240 1
197 240 1
215 240 1
107 241 1
137 241 1
162 241 1
170 241 1
192 241 1
210 241 1
108 242 1
138 242 1
160 242 1
171 242 1
190 242 1
208 242 1
106 243 1
136 243 1
161 243 1
169 243 1
191 243 1
209 243 1
4 244 1
5 244 1
63 244 1
254 244 1
285 244 1
300 244 1
5 245 1
6 245 1
61 245 1
255 245 1
283 245 1
298 245 1
4 246 1
6 246 1
62 246 1
253 246 1
284 246 1
299 246 1
7 247 1
8 247 1
57 247 1
257 247 1
288 247 1
303 247 1
8 248 1
9 248 1
55 248 1
258 248 1
286 248 1
301 248 1
7 249 1
9 249 1
56 249 1
256 249 1
287 249 1
302 249 1
1 250 1
2 250 1
60 250 1
260 250 1
282 250 1
306 250 1
2 251 1
3 251 1
58 251 1
261 251 1
280 251 1
304 251 1
1 252 1
3 252 1
59 252 1
259 252 1
281 252 1
305 252 1
13 253 1
14 253 1
72 253 1
263 253 1
294 253 1
309 253 1
14 254 1
15 254 1
70 254 1
264 254 1
292 254 1
307 254 1
13 255 1
15 255 1
71 255 1
262 255 1
293 255 1
308 255 1
16 256 1
17 256 1
66 256 1
266 256 1
297 256 1
312 256 1
17 257 1
18 257 1
64 257 1
267 257 1
295 257 1
310 257 1
16 258 1
18 258 1
65 258 1
265 258 1
296 258 1
311 258 1
10 259 1
11 259 1
69 259 1
269 259 1
291 259 1
315 259 1
11 260 1
12 260 1
67 260 1
270 260 1
289 260 1
313 260 1
10 261 1
12 261 1
68 261 1
268 261 1
290 261 1
314 261 1
22 262 1
23 262 1
81 262 1
245 262 1
276 262 1
318 262 1
23 263 1
24 263 1
79 263 1
246 263 1
274 263 1
316 263 1
22 264 1
24 264 1
80 264 1
244 264 1
275 264 1
317 264 1
25 265 1
26 265 1
75 265 1
248 265 1
279 265 1
321 265 1
26 266 1
27 266 1
73 266 1
249 266 1
277 266 1
319 266 1
25 267 1
27 267 1
74 267 1
247 267 1
278 267 1
320 267 1
19 268 1
20 268 1
78 268 1
251 268 1
273 268 1
324 268 1
20 269 1
21 269 1
76 269 1
252 269 1
271 269 1
322 269 1
19 270 1
21 270 1
77 270 1
250 270 1
272 270 1
323 270 1
9 271 1
31 271 1
32 271 1
246 271 1
281 271 1
312 271 1
7 272 1
32 272 1
33 272 1
244 272 1
282 272 1
310 272 1
8 273 1
31 273 1
33 273 1
245 273 1
280 273 1
311 273 1
3 274 1
34 274 1
35 274 1
249 274 1
284 274 1
315 274 1
1 275 1
35 275 1
36 275 1
247 275 1
285 275 1
313 275 1
2 276 1
34 276 1
36 276 1
248 276 1
283 276 1
314 276 1
6 277 1
28 277 1
29 277 1
252 277 1
287 277 1
309 277 1
4 278 1
29 278 1
30 278 1
250 278 1
288 278 1
307 278 1
5 279 1
28 279 1
30 279 1
251 279 1
286 279 1
308 279 1
18 280 1
40 280 1
41 280 1
255 280 1
290 280 1
321 280 1
16 281 1
41 281 1
42 281 1
253 281 1
291 281 1
319 281 1
17 282 1
40 282 1
42 282 1
254 282 1
289 282 1
320 282 1
12 283 1
43 283 1
44 283 1
258 283 1
293 283 1
324 283 1
10 284 1
44 284 1
45 284 1
256 284 1
294 284 1
322 284 1
11 285 1
43 285 1
45 285 1
257 285 1
292 285 1
323 285 1
15 286 1
37 286 1
38 286 1
261 286 1
296 286 1
318 286 1
13 287 1
38 287 1
39 287 1
259 287 1
297 287 1
316 287 1
14 288 1
37 288 1
39 288 1
260 288 1
295 288 1
317 288 1
27 289 1
49 289 1
50 289 1
264 289 1
272 289 1
303 289 1
25 290 1
50 290 1
51 290 1
262 290 1
273 290 1
301 290 1
26 291 1
49 291 1
51 291 1
263 291 1
271 291 1
302 291 1
21 292 1
52 292 1
53 292 1
267 292 1
275 292 1
306 292 1
19 293 1
53 293 1
54 293 1
265 293 1
276 293 1
304 293 1
20 294 1
52 294 1
54 294 1
266 294 1
274 294 1
305 294 1
24 295 1
46 295 1
47 295 1
270 295 1
278 295 1
300 295 1
22 296 1
47 296 1
48 296 1
268 296 1
279 296 1
298 296 1
23 297 1
46 297 1
48 297 1
269 297 1
277 297 1
299 297 1
36 298 1
58 298 1
59 298 1
258 298 1
273 298 1
308 298 1
34 299 1
59 299 1
60 299 1
256 299 1
271 299 1
309 299 1
35 300 1
58 300 1
60 300 1
257 300 1
272 300 1
307 300 1
30 301 1
61 301 1
62 301 1
261 301 1
276 301 1
311 301 1
28 302 1
62 302 1
63 302 1
259 302 1
274 302 1
312 302 1
29 303 1
61 303 1
63 303 1
260 303 1
275 303 1
310 303 1
33 304 1
55 304 1
56 304 1
255 304 1
279 304 1
314 304 1
31 305 1
56 305 1
57 305 1
253 305 1
277 305 1
315 305 1
32 306 1
55 306 1
57 306 1
254 306 1
278 306 1
313 306 1
45 307 1
67 307 1
68 307 1
267 307 1
282 307 1
317 307 1
43 308 1
68 308 1
69 308 1
265 308 1
280 308 1
318 308 1
44 309 1
67 309 1
69 309 1
266 309 1
281 309 1
316 309 1
39 310 1
70 310 1
71 310 1
270 310 1
285 310 1
320 310 1
37 311 1
71 311 1
72 311 1
268 311 1
283 311 1
321 311 1
38 312 1
70 312 1
72 312 1
269 312 1
284 312 1
319 312 1
42 313 1
64 313 1
65 313 1
264 313 1
288 313 1
323 313 1
40 314 1
65 314 1
66 314 1
262 314 1
286 314 1
324 314 1
41 315 1
64 315 1
66 315 1
263 315 1
287 315 1
322 315 1
54 316 1
76 316 1
77 316 1
249 316 1
291 316 1
299 316 1
52 317 1
77 317 1
78 317 1
247 317 1
289 317 1
300 317 1
53 318 1
76 318 1
78 318 1
248 318 1
290 318 1
298 318 1
48 319 1
79 319 1
80 319 1
252 319 1
294 319 1
302 319 1
46 320 1
80 320 1
81 320 1
250 320 1
292 320 1
303 320 1
47 321 1
79 321 1
81 321 1
251 321 1
293 321 1
301 321 1
51 322 1
73 322 1
74 322 1
246 322 1
297 322 1
305 322 1
49 323 1
74 323 1
75 323 1
244 323 1
295 323 1
306 323 1
50 324 1
73 324 1
75 324 1
245 324 1
296 324 1
304 324 1
85 325 1
86 325 1
144 325 1
281 325 1
303 325 1
312 325 1
86 326 1
87 326 1
142 326 1
282 326 1
301 326 1
310 326 1
85 327 1
87 327 1
143 327 1
280 327 1
302 327 1
311 327 1
88 328 1
89 328 1
138 328 1
284 328 1
306 328 1
315 328 1
89 329 1
90 329 1
136 329 1
285 329 1
304 329 1
313 329 1
88 330 1
90 330 1
137 330 1
283 330 1
305 330 1
314 330 1
82 331 1
83 331 1
141 331 1
287 331 1
300 331 1
309 331 1
83 332 1
84 332 1
139 332 1
288 332 1
298 332 1
307 332 1
82 333 1
84 333 1
140 333 1
286 333 1
299 333 1
308 333 1
94 334 1
95 334 1
153 334 1
290 334 1
312 334 1
321 334 1
95 335 1
96 335 1
151 335 1
291 335 1
310 335 1
319 335 1
94 336 1
96 336 1
152 336 1
289 336 1
311 336 1
320 336 1
97 337 1
98 337 1
147 337 1
293 337 1
315 337 1
324 337 1
98 338 1
99 338 1
145 338 1
294 338 1
313 338 1
322 338 1
97 339 1
99 339 1
146 339 1
292 339 1
314 339 1
323 339 1
91 340 1
92 340 1
150 340 1
296 340 1
309 340 1
318 340 1
92 341 1
93 341 1
148 341 1
297 341 1
307 341 1
316 341 1
91 342 1
93 342 1
149 342 1
295 342 1
308 342 1
317 342 1
103 343 1
104 343 1
162 343 1
272 343 1
303 343 1
321 343 1
104 344 1
105 344 1
160 344 1
273 344 1
301 344 1
319 344 1
103 345 1
105 345 1
161 345 1
271 345 1
302 345 1
320 345 1
106 346 1
107 346 1
156 346 1
275 346 1
306 346 1
324 346 1
107 347 1
108 347 1
154 347 1
276 347 1
304 347 1
322 347 1
106 348 1
108 348 1
155 348 1
274 348 1
305 348 1
323 348 1
100 349 1
101 349 1
159 349 1
278 349 1
300 349 1
318 349 1
101 350 1
102 350 1
157 350 1
279 350 1
298 350 1
316 350 1
100 351 1
102 351 1
158 351 1
277 351 1
299 351 1
317 351 1
90 352 1
112 352 1
113 352 1
249 352 1
258 352 1
308 352 1
88 353 1
113 353 1
114 353 1
247 353 1
256 353 1
309 353 1
89 354 1
112 354 1
114 354 1
248 354 1
257 354 1
307 354 1
84 355 1
115 355 1
116 355 1
252 355 1
261 355 1
311 355 1
82 356 1
116 356 1
117 356 1
250 356 1
259 356 1
312 356 1
83 357 1
115 357 1
117 357 1
251 357 1
260 357 1
310 357 1
87 358 1
109 358 1
110 358 1
246 358 1
255 358 1
314 358 1
85 359 1
110 359 1
111 359 1
244 359 1
253 359 1
315 359 1
86 360 1
109 360 1
111 360 1
245 360 1
254 360 1
313 360 1
99 361 1
121 361 1
122 361 1
258 361 1
267 361 1
317 361 1
97 362 1
122 362 1
123 362 1
256 362 1
265 362 1
318 362 1
98 363 1
121 363 1
123 363 1
257 363 1
266 363 1
316 363 1
93 364 1
124 364 1
125 364 1
261 364 1
270 364 1
320 364 1
91 365 1
125 365 1
126 365 1
259 365 1
268 365 1
321 365 1
92 366 1
124 366 1
126 366 1
260 366 1
269 366 1
319 366 1
96 367 1
118 367 1
119 367 1
255 367 1
264 367 1
323 367 1
94 368 1
119 368 1
120 368 1
253 368 1
262 368 1
324 368 1
95 369 1
118 369 1
120 369 1
254 369 1
263 369 1
322 369 1
108 370 1
130 370 1
131 370 1
249 370 1
267 370 1
299 370 1
106 371 1
131 371 1
132 371 1
247 371 1
265 371 1
300 371 1
107 372 1
130 372 1
132 372 1
248 372 1
266 372 1
298 372 1
102 373 1
133 373 1
134 373 1
252 373 1
270 373 1
302 373 1
100 374 1
134 374 1
135 374 1
250 374 1
268 374 1
303 374 1
101 375 1
133 375 1
135 375 1
251 375 1
269 375 1
301 375 1
105 376 1
127 376 1
128 376 1
246 376 1
264 376 1
305 376 1
103 377 1
128 377 1
129 377 1
244 377 1
262 377 1
306 377 1
104 378 1
127 378 1
129 378 1
245 378 1
263 378 1
304 378 1
117 379 1
139 379 1
140 379 1
254 379 1
276 379 1
285 379 1
115 380 1
140 380 1
141 380 1
255 380 1
274 380 1
283 380 1
116 381 1
139 381 1
141 381 1
253 381 1
275 381 1
284 381 1
111 382 1
142 382 1
143 382 1
257 382 1
279 382 1
288 382 1
109 383 1
143 383 1
144 383 1
258 383 1
277 383 1
286 383 1
110 384 1
142 384 1
144 384 1
256 384 1
278 384 1
287 384 1
114 385 1
136 385 1
137 385 1
260 385 1
273 385 1
282 385 1
112 386 1
137 386 1
138 386 1
261 386 1
271 386 1
280 386 1
113 387 1
136 387 1
138 387 1
259 387 1
272 387 1
281 387 1
126 388 1
148 388 1
149 388 1
263 388 1
285 388 1
294 388 1
124 389 1
149 389 1
150 389 1
264 389 1
283 389 1
292 389 1
125 390 1
148 390 1
150 390 1
262 390 1
284 390 1
293 390 1
120 391 1
151 391 1
152 391 1
266 391 1
288 391 1
297 391 1
118 392 1
152 392 1
153 392 1
267 392 1
286 392 1
295 392 1
119 393 1
151 393 1
153 393 1
265 393 1
287 393 1
296 393 1
123 394 1
145 394 1
146 394 1
269 394 1
282 394 1
291 394 1
121 395 1
146 395 1
147 395 1
270 395 1
280 395 1
289 395 1
122 396 1
145 396 1
147 396 1
268 396 1
281 396 1
290 396 1
135 397 1
157 397 1
158 397 1
245 397 1
276 397 1
294 397 1
133 398 1
158 398 1
159 398 1
246 398 1
274 398 1
292 398 1
134 399 1
157 399 1
159 399 1
244 399 1
275 399 1
293 399 1
129 400 1
160 400 1
161 400 1
248 400 1
279 400 1
297 400 1
127 401 1
161 401 1
162 401 1
249 401 1
277 401 1
295 401 1
128 402 1
160 402 1
162 402 1
247 402 1
278 402 1
296 402 1
132 403 1
154 403 1
155 403 1
251 403 1
273 403 1
291 403 1
130 404 1
155 404 1
156 404 1
252 404 1
271 404 1
289 404 1
131 405 1
154 405 1
156 405 1
250 405 1
272 405 1
290 405 1
166 406 1
167 406 1
225 406 1
246 406 1
257 406 1
272 406 1
167 407 1
168 407 1
223 407 1
244 407 1
258 407 1
273 407 1
166 408 1
168 408 1
224 408 1
245 408 1
256 408 1
271 408 1
169 409 1
170 409 1
219 409 1
249 409 1
260 409 1
275 409 1
170 410 1
171 410 1
217 410 1
247 410 1
261 410 1
276 410 1
169 411 1
171 411 1
218 411 1
248 411 1
259 411 1
274 411 1
163 412 1
164 412 1
222 412 1
252 412 1
254 412 1
278 412 1
164 413 1
165 413 1
220 413 1
250 413 1
255 413 1
279 413 1
163 414 1
165 414 1
221 414 1
251 414 1
253 414 1
277 414 1
175 415 1
176 415 1
234 415 1
255 415 1
266 415 1
281 415 1
176 416 1
177 416 1
232 416 1
253 416 1
267 416 1
282 416 1
175 417 1
177 417 1
233 417 1
254 417 1
265 417 1
280 417 1
178 418 1
179 418 1
228 418 1
258 418 1
269 418 1
284 418 1
179 419 1
180 419 1
226 419 1
256 419 1
270 419 1
285 419 1
178 420 1
180 420 1
227 420 1
257 420 1
268 420 1
283 420 1
172 421 1
173 421 1
231 421 1
261 421 1
263 421 1
287 421 1
173 422 1
174 422 1
229 422 1
259 422 1
264 422 1
288 422 1
172 423 1
174 423 1
230 423 1
260 423 1
262 423 1
286 423 1
184 424 1
185 424 1
243 424 1
248 424 1
264 424 1
290 424 1
185 425 1
186 425 1
241 425 1
249 425 1
262 425 1
291 425 1
184 426 1
186 426 1
242 426 1
247 426 1
263 426 1
289 426 1
187 427 1
188 427 1
237 427 1
251 427 1
267 427 1
293 427 1
188 428 1
189 428 1
235 428 1
252 428 1
265 428 1
294 428 1
187 429 1
189 429 1
236 429 1
250 429 1
266 429 1
292 429 1
181 430 1
182 430 1
240 430 1
245 430 1
270 430 1
296 430 1
182 431 1
183 431 1
238 431 1
246 431 1
268 431 1
297 431 1
181 432 1
183 432 1
239 432 1
244 432 1
269 432 1
295 432 1
171 433 1
193 433 1
194 433 1
273 433 1
284 433 1
299 433 1
169 434 1
194 434 1
195 434 1
271 434 1
285 434 1
300 434 1
170 435 1
193 435 1
195 435 1
272 435 1
283 435 1
298 435 1
165 436 1
196 436 1
197 436 1
276 436 1
287 436 1
302 436 1
163 437 1
197 437 1
198 437 1
274 437 1
288 437 1
303 437 1
164 438 1
196 438 1
198 438 1
275 438 1
286 438 1
301 438 1
168 439 1
190 439 1
191 439 1
279 439 1
281 439 1
305 439 1
166 440 1
191 440 1
192 440 1
277 440 1
282 440 1
306 440 1
167 441 1
190 441 1
192 441 1
278 441 1
280 441 1
304 441 1
180 442 1
202 442 1
203 442 1
282 442 1
293 442 1
308 442 1
178 443 1
203 443 1
204 443 1
280 443 1
294 443 1
309 443 1
179 444 1
202 444 1
204 444 1
281 444 1
292 444 1
307 444 1
174 445 1
205 445 1
206 445 1
285 445 1
296 445 1
311 445 1
172 446 1
206 446 1
207 446 1
283 446 1
297 446 1
312 446 1
173 447 1
205 447 1
207 447 1
284 447 1
295 447 1
310 447 1
177 448 1
199 448 1
200 448 1
288 448 1
290 448 1
314 448 1
175 449 1
200 449 1
201 449 1
286 449 1
291 449 1
315 449 1
176 450 1
199 450 1
201 450 1
287 450 1
289 450 1
313 450 1
189 451 1
211 451 1
212 451 1
275 451 1
291 451 1
317 451 1
187 452 1
212 452 1
213 452 1
276 452 1
289 452 1
318 452 1
188 453 1
211 453 1
213 453 1
274 453 1
290 453 1
316 453 1
183 454 1
214 454 1
215 454 1
278 454 1
294 454 1
320 454 1
181 455 1
215 455 1
216 455 1
279 455 1
292 455 1
321 455 1
182 456 1
214 456 1
216 456 1
277 456 1
293 456 1
319 456 1
186 457 1
208 457 1
209 457 1
272 457 1
297 457 1
323 457 1
184 458 1
209 458 1
210 458 1
273 458 1
295 458 1
324 458 1
185 459 1
208 459 1
210 459 1
271 459 1
296 459 1
322 459 1
198 460 1
220 460 1
221 460 1
245 460 1
300 460 1
311 460 1
196 461 1
221 461 1
222 461 1
246 461 1
298 461 1
312 461 1
197 462 1
220 462 1
222 462 1
244 462 1
299 462 1
310 462 1
192 463 1
223 463 1
224 463 1
248 463 1
303 463 1
314 463 1
190 464 1
224 464 1
225 464 1
249 464 1
301 464 1
315 464 1
191 465 1
223 465 1
225 465 1
247 465 1
302 465 1
313 465 1
195 466 1
217 466 1
218 466 1
251 466 1
306 466 1
308 466 1
193 467 1
218 467 1
219 467 1
252 467 1
304 467 1
309 467 1
194 468 1
217 468 1
219 468 1
250 468 1
305 468 1
307 468 1
207 469 1
229 469 1
230 469 1
254 469 1
309 469 1
320 469 1
205 470 1
230 470 1
231 470 1
255 470 1
307 470 1
321 470 1
206 471 1
229 471 1
231 471 1
253 471 1
308 471 1
319 471 1
201 472 1
232 472 1
233 472 1
257 472 1
312 472 1
323 472 1
199 473 1
233 473 1
234 473 1
258 473 1
310 473 1
324 473 1
200 474 1
232 474 1
234 474 1
256 474 1
311 474 1
322 474 1
204 475 1
226 475 1
227 475 1
260 475 1
315 475 1
317 475 1
202 476 1
227 476 1
228 476 1
261 476 1
313 476 1
318 476 1
203 477 1
226 477 1
228 477 1
259 477 1
314 477 1
316 477 1
216 478 1
238 478 1
239 478 1
263 478 1
302 478 1
318 478 1
214 479 1
239 479 1
240 479 1
264 479 1
303 479 1
316 479 1
215 480 1
238 480 1
240 480 1
262 480 1
301 480 1
317 480 1
210 481 1
241 481 1
242 481 1
266 481 1
305 481 1
321 481 1
208 482 1
242 482 1
243 482 1
267 482 1
306 482 1
319 482 1
209 483 1
241 483 1
243 483 1
265 483 1
304 483 1
320 483 1
213 484 1
235 484 1
236 484 1
269 484 1
299 484 1
324 484 1
211 485 1
236 485 1
237 485 1
270 485 1
300 485 1
322 485 1
212 486 1
235 486 1
237 486 1
268 486 1
298 486 1
323 486 1
