%%MatrixMarket matrix coordinate integer general
% Binary matrix; one-based indices; arithmetic over GF(2)
224 336 2688
19 1 1
21 1 1
23 1 1
33 1 1
57 1 1
83 1 1
90 1 1
102 1 1
15 2 1
20 2 1
24 2 1
34 2 1
58 2 1
84 2 1
91 2 1
103 2 1
16 3 1
21 3 1
25 3 1
35 3 1
59 3 1
78 3 1
85 3 1
104 3 1
15 4 1
17 4 1
26 4 1
29 4 1
60 4 1
79 4 1
86 4 1
105 4 1
16 5 1
18 5 1
27 5 1
30 5 1
61 5 1
80 5 1
87 5 1
99 5 1
17 6 1
19 6 1
28 6 1
31 6 1
62 6 1
81 6 1
88 6 1
100 6 1
18 7 1
20 7 1
22 7 1
32 7 1
63 7 1
82 7 1
89 7 1
101 7 1
16 8 1
26 8 1
28 8 1
40 8 1
64 8 1
76 8 1
97 8 1
109 8 1
17 9 1
22 9 1
27 9 1
41 9 1
65 9 1
77 9 1
98 9 1
110 9 1
18 10 1
23 10 1
28 10 1
42 10 1
66 10 1
71 10 1
92 10 1
111 10 1
19 11 1
22 11 1
24 11 1
36 11 1
67 11 1
72 11 1
93 11 1
112 11 1
20 12 1
23 12 1
25 12 1
37 12 1
68 12 1
73 12 1
94 12 1
106 12 1
21 13 1
24 13 1
26 13 1
38 13 1
69 13 1
74 13 1
95 13 1
107 13 1
15 14 1
25 14 1
27 14 1
39 14 1
70 14 1
75 14 1
96 14 1
108 14 1
5 15 1
7 15 1
9 15 1
47 15 1
69 15 1
71 15 1
88 15 1
104 15 1
1 16 1
6 16 1
10 16 1
48 16 1
70 16 1
72 16 1
89 16 1
105 16 1
2 17 1
7 17 1
11 17 1
49 17 1
64 17 1
73 17 1
90 17 1
99 17 1
1 18 1
3 18 1
12 18 1
43 18 1
65 18 1
74 18 1
91 18 1
100 18 1
2 19 1
4 19 1
13 19 1
44 19 1
66 19 1
75 19 1
85 19 1
101 19 1
3 20 1
5 20 1
14 20 1
45 20 1
67 20 1
76 20 1
86 20 1
102 20 1
4 21 1
6 21 1
8 21 1
46 21 1
68 21 1
77 21 1
87 21 1
103 21 1
2 22 1
12 22 1
14 22 1
54 22 1
62 22 1
78 22 1
95 22 1
111 22 1
3 23 1
8 23 1
13 23 1
55 23 1
63 23 1
79 23 1
96 23 1
112 23 1
4 24 1
9 24 1
14 24 1
56 24 1
57 24 1
80 24 1
97 24 1
106 24 1
5 25 1
8 25 1
10 25 1
50 25 1
58 25 1
81 25 1
98 25 1
107 25 1
6 26 1
9 26 1
11 26 1
51 26 1
59 26 1
82 26 1
92 26 1
108 26 1
7 27 1
10 27 1
12 27 1
52 27 1
60 27 1
83 27 1
93 27 1
109 27 1
1 28 1
11 28 1
13 28 1
53 28 1
61 28 1
84 28 1
94 28 1
110 28 1
5 29 1
47 29 1
49 29 1
51 29 1
62 29 1
74 29 1
85 29 1
111 29 1
6 30 1
43 30 1
48 30 1
52 30 1
63 30 1
75 30 1
86 30 1
112 30 1
7 31 1
44 31 1
49 31 1
53 31 1
57 31 1
76 31 1
87 31 1
106 31 1
1 32 1
43 32 1
45 32 1
54 32 1
58 32 1
77 32 1
88 32 1
107 32 1
2 33 1
44 33 1
46 33 1
55 33 1
59 33 1
71 33 1
89 33 1
108 33 1
3 34 1
45 34 1
47 34 1
56 34 1
60 34 1
72 34 1
90 34 1
109 34 1
4 35 1
46 35 1
48 35 1
50 35 1
61 35 1
73 35 1
91 35 1
110 35 1
12 36 1
44 36 1
54 36 1
56 36 1
69 36 1
81 36 1
92 36 1
104 36 1
13 37 1
45 37 1
50 37 1
55 37 1
70 37 1
82 37 1
93 37 1
105 37 1
14 38 1
46 38 1
51 38 1
56 38 1
64 38 1
83 38 1
94 38 1
99 38 1
8 39 1
47 39 1
50 39 1
52 39 1
65 39 1
84 39 1
95 39 1
100 39 1
9 40 1
48 40 1
51 40 1
53 40 1
66 40 1
78 40 1
96 40 1
101 40 1
10 41 1
49 41 1
52 41 1
54 41 1
67 41 1
79 41 1
97 41 1
102 41 1
11 42 1
43 42 1
53 42 1
55 42 1
68 42 1
80 42 1
98 42 1
103 42 1
19 43 1
33 43 1
35 43 1
37 43 1
60 43 1
76 43 1
97 43 1
99 43 1
20 44 1
29 44 1
34 44 1
38 44 1
61 44 1
77 44 1
98 44 1
100 44 1
21 45 1
30 45 1
35 45 1
39 45 1
62 45 1
71 45 1
92 45 1
101 45 1
15 46 1
29 46 1
31 46 1
40 46 1
63 46 1
72 46 1
93 46 1
102 46 1
16 47 1
30 47 1
32 47 1
41 47 1
57 47 1
73 47 1
94 47 1
103 47 1
17 48 1
31 48 1
33 48 1
42 48 1
58 48 1
74 48 1
95 48 1
104 48 1
18 49 1
32 49 1
34 49 1
36 49 1
59 49 1
75 49 1
96 49 1
105 49 1
26 50 1
30 50 1
40 50 1
42 50 1
67 50 1
83 50 1
90 50 1
106 50 1
27 51 1
31 51 1
36 51 1
41 51 1
68 51 1
84 51 1
91 51 1
107 51 1
28 52 1
32 52 1
37 52 1
42 52 1
69 52 1
78 52 1
85 52 1
108 52 1
22 53 1
33 53 1
36 53 1
38 53 1
70 53 1
79 53 1
86 53 1
109 53 1
23 54 1
34 54 1
37 54 1
39 54 1
64 54 1
80 54 1
87 54 1
110 54 1
24 55 1
35 55 1
38 55 1
40 55 1
65 55 1
81 55 1
88 55 1
111 55 1
25 56 1
29 56 1
39 56 1
41 56 1
66 56 1
82 56 1
89 56 1
112 56 1
10 57 1
19 57 1
29 57 1
37 57 1
113 57 1
139 57 1
146 57 1
158 57 1
11 58 1
20 58 1
30 58 1
38 58 1
114 58 1
140 58 1
147 58 1
159 58 1
12 59 1
21 59 1
31 59 1
39 59 1
115 59 1
134 59 1
141 59 1
160 59 1
13 60 1
15 60 1
32 60 1
40 60 1
116 60 1
135 60 1
142 60 1
161 60 1
14 61 1
16 61 1
33 61 1
41 61 1
117 61 1
136 61 1
143 61 1
155 61 1
8 62 1
17 62 1
34 62 1
42 62 1
118 62 1
137 62 1
144 62 1
156 62 1
9 63 1
18 63 1
35 63 1
36 63 1
119 63 1
138 63 1
145 63 1
157 63 1
3 64 1
26 64 1
30 64 1
36 64 1
120 64 1
132 64 1
153 64 1
165 64 1
4 65 1
27 65 1
31 65 1
37 65 1
121 65 1
133 65 1
154 65 1
166 65 1
5 66 1
28 66 1
32 66 1
38 66 1
122 66 1
127 66 1
148 66 1
167 66 1
6 67 1
22 67 1
33 67 1
39 67 1
123 67 1
128 67 1
149 67 1
168 67 1
7 68 1
23 68 1
34 68 1
40 68 1
124 68 1
129 68 1
150 68 1
162 68 1
1 69 1
24 69 1
35 69 1
41 69 1
125 69 1
130 69 1
151 69 1
163 69 1
2 70 1
25 70 1
29 70 1
42 70 1
126 70 1
131 70 1
152 70 1
164 70 1
5 71 1
24 71 1
43 71 1
51 71 1
125 71 1
127 71 1
144 71 1
160 71 1
6 72 1
25 72 1
44 72 1
52 72 1
126 72 1
128 72 1
145 72 1
161 72 1
7 73 1
26 73 1
45 73 1
53 73 1
120 73 1
129 73 1
146 73 1
155 73 1
1 74 1
27 74 1
46 74 1
54 74 1
121 74 1
130 74 1
147 74 1
156 74 1
2 75 1
28 75 1
47 75 1
55 75 1
122 75 1
131 75 1
141 75 1
157 75 1
3 76 1
22 76 1
48 76 1
56 76 1
123 76 1
132 76 1
142 76 1
158 76 1
4 77 1
23 77 1
49 77 1
50 77 1
124 77 1
133 77 1
143 77 1
159 77 1
12 78 1
17 78 1
44 78 1
50 78 1
118 78 1
134 78 1
151 78 1
167 78 1
13 79 1
18 79 1
45 79 1
51 79 1
119 79 1
135 79 1
152 79 1
168 79 1
14 80 1
19 80 1
46 80 1
52 80 1
113 80 1
136 80 1
153 80 1
162 80 1
8 81 1
20 81 1
47 81 1
53 81 1
114 81 1
137 81 1
154 81 1
163 81 1
9 82 1
21 82 1
48 82 1
54 82 1
115 82 1
138 82 1
148 82 1
164 82 1
10 83 1
15 83 1
49 83 1
55 83 1
116 83 1
139 83 1
149 83 1
165 83 1
11 84 1
16 84 1
43 84 1
56 84 1
117 84 1
140 84 1
150 84 1
166 84 1
1 85 1
9 85 1
38 85 1
47 85 1
118 85 1
130 85 1
141 85 1
167 85 1
2 86 1
10 86 1
39 86 1
48 86 1
119 86 1
131 86 1
142 86 1
168 86 1
3 87 1
11 87 1
40 87 1
49 87 1
113 87 1
132 87 1
143 87 1
162 87 1
4 88 1
12 88 1
41 88 1
43 88 1
114 88 1
133 88 1
144 88 1
163 88 1
5 89 1
13 89 1
42 89 1
44 89 1
115 89 1
127 89 1
145 89 1
164 89 1
6 90 1
14 90 1
36 90 1
45 90 1
116 90 1
128 90 1
146 90 1
165 90 1
7 91 1
8 91 1
37 91 1
46 91 1
117 91 1
129 91 1
147 91 1
166 91 1
2 92 1
8 92 1
31 92 1
54 92 1
125 92 1
137 92 1
148 92 1
160 92 1
3 93 1
9 93 1
32 93 1
55 93 1
126 93 1
138 93 1
149 93 1
161 93 1
4 94 1
10 94 1
33 94 1
56 94 1
120 94 1
139 94 1
150 94 1
155 94 1
5 95 1
11 95 1
34 95 1
50 95 1
121 95 1
140 95 1
151 95 1
156 95 1
6 96 1
12 96 1
35 96 1
51 96 1
122 96 1
134 96 1
152 96 1
157 96 1
7 97 1
13 97 1
29 97 1
52 97 1
123 97 1
135 97 1
153 97 1
158 97 1
1 98 1
14 98 1
30 98 1
53 98 1
124 98 1
136 98 1
154 98 1
159 98 1
15 99 1
23 99 1
33 99 1
52 99 1
116 99 1
132 99 1
153 99 1
155 99 1
16 100 1
24 100 1
34 100 1
53 100 1
117 100 1
133 100 1
154 100 1
156 100 1
17 101 1
25 101 1
35 101 1
54 101 1
118 101 1
127 101 1
148 101 1
157 101 1
18 102 1
26 102 1
29 102 1
55 102 1
119 102 1
128 102 1
149 102 1
158 102 1
19 103 1
27 103 1
30 103 1
56 103 1
113 103 1
129 103 1
150 103 1
159 103 1
20 104 1
28 104 1
31 104 1
50 104 1
114 104 1
130 104 1
151 104 1
160 104 1
21 105 1
22 105 1
32 105 1
51 105 1
115 105 1
131 105 1
152 105 1
161 105 1
16 106 1
22 106 1
40 106 1
45 106 1
123 106 1
139 106 1
146 106 1
162 106 1
17 107 1
23 107 1
41 107 1
46 107 1
124 107 1
140 107 1
147 107 1
163 107 1
18 108 1
24 108 1
42 108 1
47 108 1
125 108 1
134 108 1
141 108 1
164 108 1
19 109 1
25 109 1
36 109 1
48 109 1
126 109 1
135 109 1
142 109 1
165 109 1
20 110 1
26 110 1
37 110 1
49 110 1
120 110 1
136 110 1
143 110 1
166 110 1
21 111 1
27 111 1
38 111 1
43 111 1
121 111 1
137 111 1
144 111 1
167 111 1
15 112 1
28 112 1
39 112 1
44 112 1
122 112 1
138 112 1
145 112 1
168 112 1
66 113 1
75 113 1
85 113 1
93 113 1
131 113 1
133 113 1
135 113 1
145 113 1
67 114 1
76 114 1
86 114 1
94 114 1
127 114 1
132 114 1
136 114 1
146 114 1
68 115 1
77 115 1
87 115 1
95 115 1
128 115 1
133 115 1
137 115 1
147 115 1
69 116 1
71 116 1
88 116 1
96 116 1
127 116 1
129 116 1
138 116 1
141 116 1
70 117 1
72 117 1
89 117 1
97 117 1
128 117 1
130 117 1
139 117 1
142 117 1
64 118 1
73 118 1
90 118 1
98 118 1
129 118 1
131 118 1
140 118 1
143 118 1
65 119 1
74 119 1
91 119 1
92 119 1
130 119 1
132 119 1
134 119 1
144 119 1
59 120 1
82 120 1
86 120 1
92 120 1
128 120 1
138 120 1
140 120 1
152 120 1
60 121 1
83 121 1
87 121 1
93 121 1
129 121 1
134 121 1
139 121 1
153 121 1
61 122 1
84 122 1
88 122 1
94 122 1
130 122 1
135 122 1
140 122 1
154 122 1
62 123 1
78 123 1
89 123 1
95 123 1
131 123 1
134 123 1
136 123 1
148 123 1
63 124 1
79 124 1
90 124 1
96 124 1
132 124 1
135 124 1
137 124 1
149 124 1
57 125 1
80 125 1
91 125 1
97 125 1
133 125 1
136 125 1
138 125 1
150 125 1
58 126 1
81 126 1
85 126 1
98 126 1
127 126 1
137 126 1
139 126 1
151 126 1
61 127 1
80 127 1
99 127 1
107 127 1
117 127 1
119 127 1
121 127 1
159 127 1
62 128 1
81 128 1
100 128 1
108 128 1
113 128 1
118 128 1
122 128 1
160 128 1
63 129 1
82 129 1
101 129 1
109 129 1
114 129 1
119 129 1
123 129 1
161 129 1
57 130 1
83 130 1
102 130 1
110 130 1
113 130 1
115 130 1
124 130 1
155 130 1
58 131 1
84 131 1
103 131 1
111 131 1
114 131 1
116 131 1
125 131 1
156 131 1
59 132 1
78 132 1
104 132 1
112 132 1
115 132 1
117 132 1
126 132 1
157 132 1
60 133 1
79 133 1
105 133 1
106 133 1
116 133 1
118 133 1
120 133 1
158 133 1
68 134 1
73 134 1
100 134 1
106 134 1
114 134 1
124 134 1
126 134 1
166 134 1
69 135 1
74 135 1
101 135 1
107 135 1
115 135 1
120 135 1
125 135 1
167 135 1
70 136 1
75 136 1
102 136 1
108 136 1
116 136 1
121 136 1
126 136 1
168 136 1
64 137 1
76 137 1
103 137 1
109 137 1
117 137 1
120 137 1
122 137 1
162 137 1
65 138 1
77 138 1
104 138 1
110 138 1
118 138 1
121 138 1
123 138 1
163 138 1
66 139 1
71 139 1
105 139 1
111 139 1
119 139 1
122 139 1
124 139 1
164 139 1
67 140 1
72 140 1
99 140 1
112 140 1
113 140 1
123 140 1
125 140 1
165 140 1
57 141 1
65 141 1
94 141 1
103 141 1
117 141 1
159 141 1
161 141 1
163 141 1
58 142 1
66 142 1
95 142 1
104 142 1
118 142 1
155 142 1
160 142 1
164 142 1
59 143 1
67 143 1
96 143 1
105 143 1
119 143 1
156 143 1
161 143 1
165 143 1
60 144 1
68 144 1
97 144 1
99 144 1
113 144 1
155 144 1
157 144 1
166 144 1
61 145 1
69 145 1
98 145 1
100 145 1
114 145 1
156 145 1
158 145 1
167 145 1
62 146 1
70 146 1
92 146 1
101 146 1
115 146 1
157 146 1
159 146 1
168 146 1
63 147 1
64 147 1
93 147 1
102 147 1
116 147 1
158 147 1
160 147 1
162 147 1
58 148 1
64 148 1
87 148 1
110 148 1
124 148 1
156 148 1
166 148 1
168 148 1
59 149 1
65 149 1
88 149 1
111 149 1
125 149 1
157 149 1
162 149 1
167 149 1
60 150 1
66 150 1
89 150 1
112 150 1
126 150 1
158 150 1
163 150 1
168 150 1
61 151 1
67 151 1
90 151 1
106 151 1
120 151 1
159 151 1
162 151 1
164 151 1
62 152 1
68 152 1
91 152 1
107 152 1
121 152 1
160 152 1
163 152 1
165 152 1
63 153 1
69 153 1
85 153 1
108 153 1
122 153 1
161 153 1
164 153 1
166 153 1
57 154 1
70 154 1
86 154 1
109 154 1
123 154 1
155 154 1
165 154 1
167 154 1
71 155 1
79 155 1
89 155 1
108 155 1
131 155 1
145 155 1
147 155 1
149 155 1
72 156 1
80 156 1
90 156 1
109 156 1
132 156 1
141 156 1
146 156 1
150 156 1
73 157 1
81 157 1
91 157 1
110 157 1
133 157 1
142 157 1
147 157 1
151 157 1
74 158 1
82 158 1
85 158 1
111 158 1
127 158 1
141 158 1
143 158 1
152 158 1
75 159 1
83 159 1
86 159 1
112 159 1
128 159 1
142 159 1
144 159 1
153 159 1
76 160 1
84 160 1
87 160 1
106 160 1
129 160 1
143 160 1
145 160 1
154 160 1
77 161 1
78 161 1
88 161 1
107 161 1
130 161 1
144 161 1
146 161 1
148 161 1
72 162 1
78 162 1
96 162 1
101 162 1
138 162 1
142 162 1
152 162 1
154 162 1
73 163 1
79 163 1
97 163 1
102 163 1
139 163 1
143 163 1
148 163 1
153 163 1
74 164 1
80 164 1
98 164 1
103 164 1
140 164 1
144 164 1
149 164 1
154 164 1
75 165 1
81 165 1
92 165 1
104 165 1
134 165 1
145 165 1
148 165 1
150 165 1
76 166 1
82 166 1
93 166 1
105 166 1
135 166 1
146 166 1
149 166 1
151 166 1
77 167 1
83 167 1
94 167 1
99 167 1
136 167 1
147 167 1
150 167 1
152 167 1
71 168 1
84 168 1
95 168 1
100 168 1
137 168 1
141 168 1
151 168 1
153 168 1
9 169 1
12 169 1
32 169 1
53 169 1
169 169 1
195 169 1
202 169 1
214 169 1
10 170 1
13 170 1
33 170 1
54 170 1
170 170 1
196 170 1
203 170 1
215 170 1
11 171 1
14 171 1
34 171 1
55 171 1
171 171 1
190 171 1
197 171 1
216 171 1
8 172 1
12 172 1
35 172 1
56 172 1
172 172 1
191 172 1
198 172 1
217 172 1
9 173 1
13 173 1
29 173 1
50 173 1
173 173 1
192 173 1
199 173 1
211 173 1
10 174 1
14 174 1
30 174 1
51 174 1
174 174 1
193 174 1
200 174 1
212 174 1
8 175 1
11 175 1
31 175 1
52 175 1
175 175 1
194 175 1
201 175 1
213 175 1
2 176 1
5 176 1
39 176 1
46 176 1
176 176 1
188 176 1
209 176 1
221 176 1
3 177 1
6 177 1
40 177 1
47 177 1
177 177 1
189 177 1
210 177 1
222 177 1
4 178 1
7 178 1
41 178 1
48 178 1
178 178 1
183 178 1
204 178 1
223 178 1
1 179 1
5 179 1
42 179 1
49 179 1
179 179 1
184 179 1
205 179 1
224 179 1
2 180 1
6 180 1
36 180 1
43 180 1
180 180 1
185 180 1
206 180 1
218 180 1
3 181 1
7 181 1
37 181 1
44 181 1
181 181 1
186 181 1
207 181 1
219 181 1
1 182 1
4 182 1
38 182 1
45 182 1
182 182 1
187 182 1
208 182 1
220 182 1
23 183 1
26 183 1
39 183 1
46 183 1
181 183 1
183 183 1
200 183 1
216 183 1
24 184 1
27 184 1
40 184 1
47 184 1
182 184 1
184 184 1
201 184 1
217 184 1
25 185 1
28 185 1
41 185 1
48 185 1
176 185 1
185 185 1
202 185 1
211 185 1
22 186 1
26 186 1
42 186 1
49 186 1
177 186 1
186 186 1
203 186 1
212 186 1
23 187 1
27 187 1
36 187 1
43 187 1
178 187 1
187 187 1
197 187 1
213 187 1
24 188 1
28 188 1
37 188 1
44 188 1
179 188 1
188 188 1
198 188 1
214 188 1
22 189 1
25 189 1
38 189 1
45 189 1
180 189 1
189 189 1
199 189 1
215 189 1
16 190 1
19 190 1
32 190 1
53 190 1
174 190 1
190 190 1
207 190 1
223 190 1
17 191 1
20 191 1
33 191 1
54 191 1
175 191 1
191 191 1
208 191 1
224 191 1
18 192 1
21 192 1
34 192 1
55 192 1
169 192 1
192 192 1
209 192 1
218 192 1
15 193 1
19 193 1
35 193 1
56 193 1
170 193 1
193 193 1
210 193 1
219 193 1
16 194 1
20 194 1
29 194 1
50 194 1
171 194 1
194 194 1
204 194 1
220 194 1
17 195 1
21 195 1
30 195 1
51 195 1
172 195 1
195 195 1
205 195 1
221 195 1
15 196 1
18 196 1
31 196 1
52 196 1
173 196 1
196 196 1
206 196 1
222 196 1
4 197 1
25 197 1
37 197 1
40 197 1
174 197 1
186 197 1
197 197 1
223 197 1
5 198 1
26 198 1
38 198 1
41 198 1
175 198 1
187 198 1
198 198 1
224 198 1
6 199 1
27 199 1
39 199 1
42 199 1
169 199 1
188 199 1
199 199 1
218 199 1
7 200 1
28 200 1
36 200 1
40 200 1
170 200 1
189 200 1
200 200 1
219 200 1
1 201 1
22 201 1
37 201 1
41 201 1
171 201 1
183 201 1
201 201 1
220 201 1
2 202 1
23 202 1
38 202 1
42 202 1
172 202 1
184 202 1
202 202 1
221 202 1
3 203 1
24 203 1
36 203 1
39 203 1
173 203 1
185 203 1
203 203 1
222 203 1
11 204 1
18 204 1
30 204 1
33 204 1
181 204 1
193 204 1
204 204 1
216 204 1
12 205 1
19 205 1
31 205 1
34 205 1
182 205 1
194 205 1
205 205 1
217 205 1
13 206 1
20 206 1
32 206 1
35 206 1
176 206 1
195 206 1
206 206 1
211 206 1
14 207 1
21 207 1
29 207 1
33 207 1
177 207 1
196 207 1
207 207 1
212 207 1
8 208 1
15 208 1
30 208 1
34 208 1
178 208 1
190 208 1
208 208 1
213 208 1
9 209 1
16 209 1
31 209 1
35 209 1
179 209 1
191 209 1
209 209 1
214 209 1
10 210 1
17 210 1
29 210 1
32 210 1
180 210 1
192 210 1
210 210 1
215 210 1
11 211 1
18 211 1
51 211 1
54 211 1
172 211 1
188 211 1
209 211 1
211 211 1
12 212 1
19 212 1
52 212 1
55 212 1
173 212 1
189 212 1
210 212 1
212 212 1
13 213 1
20 213 1
53 213 1
56 213 1
174 213 1
183 213 1
204 213 1
213 213 1
14 214 1
21 214 1
50 214 1
54 214 1
175 214 1
184 214 1
205 214 1
214 214 1
8 215 1
15 215 1
51 215 1
55 215 1
169 215 1
185 215 1
206 215 1
215 215 1
9 216 1
16 216 1
52 216 1
56 216 1
170 216 1
186 216 1
207 216 1
216 216 1
10 217 1
17 217 1
50 217 1
53 217 1
171 217 1
187 217 1
208 217 1
217 217 1
4 218 1
25 218 1
44 218 1
47 218 1
179 218 1
195 218 1
202 218 1
218 218 1
5 219 1
26 219 1
45 219 1
48 219 1
180 219 1
196 219 1
203 219 1
219 219 1
6 220 1
27 220 1
46 220 1
49 220 1
181 220 1
190 220 1
197 220 1
220 220 1
7 221 1
28 221 1
43 221 1
47 221 1
182 221 1
191 221 1
198 221 1
221 221 1
1 222 1
22 222 1
44 222 1
48 222 1
176 222 1
192 222 1
199 222 1
222 222 1
2 223 1
23 223 1
45 223 1
49 223 1
177 223 1
193 223 1
200 223 1
223 223 1
3 224 1
24 224 1
43 224 1
46 224 1
178 224 1
194 224 1
201 224 1
224 224 1
65 225 1
68 225 1
88 225 1
109 225 1
187 225 1
189 225 1
191 225 1
201 225 1
66 226 1
69 226 1
89 226 1
110 226 1
183 226 1
188 226 1
192 226 1
202 226 1
67 227 1
70 227 1
90 227 1
111 227 1
184 227 1
189 227 1
193 227 1
203 227 1
64 228 1
68 228 1
91 228 1
112 228 1
183 228 1
185 228 1
194 228 1
197 228 1
65 229 1
69 229 1
85 229 1
106 229 1
184 229 1
186 229 1
195 229 1
198 229 1
66 230 1
70 230 1
86 230 1
107 230 1
185 230 1
187 230 1
196 230 1
199 230 1
64 231 1
67 231 1
87 231 1
108 231 1
186 231 1
188 231 1
190 231 1
200 231 1
58 232 1
61 232 1
95 232 1
102 232 1
184 232 1
194 232 1
196 232 1
208 232 1
59 233 1
62 233 1
96 233 1
103 233 1
185 233 1
190 233 1
195 233 1
209 233 1
60 234 1
63 234 1
97 234 1
104 234 1
186 234 1
191 234 1
196 234 1
210 234 1
57 235 1
61 235 1
98 235 1
105 235 1
187 235 1
190 235 1
192 235 1
204 235 1
58 236 1
62 236 1
92 236 1
99 236 1
188 236 1
191 236 1
193 236 1
205 236 1
59 237 1
63 237 1
93 237 1
100 237 1
189 237 1
192 237 1
194 237 1
206 237 1
57 238 1
60 238 1
94 238 1
101 238 1
183 238 1
193 238 1
195 238 1
207 238 1
79 239 1
82 239 1
95 239 1
102 239 1
173 239 1
175 239 1
177 239 1
215 239 1
80 240 1
83 240 1
96 240 1
103 240 1
169 240 1
174 240 1
178 240 1
216 240 1
81 241 1
84 241 1
97 241 1
104 241 1
170 241 1
175 241 1
179 241 1
217 241 1
78 242 1
82 242 1
98 242 1
105 242 1
169 242 1
171 242 1
180 242 1
211 242 1
79 243 1
83 243 1
92 243 1
99 243 1
170 243 1
172 243 1
181 243 1
212 243 1
80 244 1
84 244 1
93 244 1
100 244 1
171 244 1
173 244 1
182 244 1
213 244 1
78 245 1
81 245 1
94 245 1
101 245 1
172 245 1
174 245 1
176 245 1
214 245 1
72 246 1
75 246 1
88 246 1
109 246 1
170 246 1
180 246 1
182 246 1
222 246 1
73 247 1
76 247 1
89 247 1
110 247 1
171 247 1
176 247 1
181 247 1
223 247 1
74 248 1
77 248 1
90 248 1
111 248 1
172 248 1
177 248 1
182 248 1
224 248 1
71 249 1
75 249 1
91 249 1
112 249 1
173 249 1
176 249 1
178 249 1
218 249 1
72 250 1
76 250 1
85 250 1
106 250 1
174 250 1
177 250 1
179 250 1
219 250 1
73 251 1
77 251 1
86 251 1
107 251 1
175 251 1
178 251 1
180 251 1
220 251 1
71 252 1
74 252 1
87 252 1
108 252 1
169 252 1
179 252 1
181 252 1
221 252 1
60 253 1
81 253 1
93 253 1
96 253 1
173 253 1
215 253 1
217 253 1
219 253 1
61 254 1
82 254 1
94 254 1
97 254 1
174 254 1
211 254 1
216 254 1
220 254 1
62 255 1
83 255 1
95 255 1
98 255 1
175 255 1
212 255 1
217 255 1
221 255 1
63 256 1
84 256 1
92 256 1
96 256 1
169 256 1
211 256 1
213 256 1
222 256 1
57 257 1
78 257 1
93 257 1
97 257 1
170 257 1
212 257 1
214 257 1
223 257 1
58 258 1
79 258 1
94 258 1
98 258 1
171 258 1
213 258 1
215 258 1
224 258 1
59 259 1
80 259 1
92 259 1
95 259 1
172 259 1
214 259 1
216 259 1
218 259 1
67 260 1
74 260 1
86 260 1
89 260 1
180 260 1
212 260 1
222 260 1
224 260 1
68 261 1
75 261 1
87 261 1
90 261 1
181 261 1
213 261 1
218 261 1
223 261 1
69 262 1
76 262 1
88 262 1
91 262 1
182 262 1
214 262 1
219 262 1
224 262 1
70 263 1
77 263 1
85 263 1
89 263 1
176 263 1
215 263 1
218 263 1
220 263 1
64 264 1
71 264 1
86 264 1
90 264 1
177 264 1
216 264 1
219 264 1
221 264 1
65 265 1
72 265 1
87 265 1
91 265 1
178 265 1
217 265 1
220 265 1
222 265 1
66 266 1
73 266 1
85 266 1
88 266 1
179 266 1
211 266 1
221 266 1
223 266 1
67 267 1
74 267 1
107 267 1
110 267 1
187 267 1
201 267 1
203 267 1
205 267 1
68 268 1
75 268 1
108 268 1
111 268 1
188 268 1
197 268 1
202 268 1
206 268 1
69 269 1
76 269 1
109 269 1
112 269 1
189 269 1
198 269 1
203 269 1
207 269 1
70 270 1
77 270 1
106 270 1
110 270 1
183 270 1
197 270 1
199 270 1
208 270 1
64 271 1
71 271 1
107 271 1
111 271 1
184 271 1
198 271 1
200 271 1
209 271 1
65 272 1
72 272 1
108 272 1
112 272 1
185 272 1
199 272 1
201 272 1
210 272 1
66 273 1
73 273 1
106 273 1
109 273 1
186 273 1
200 273 1
202 273 1
204 273 1
60 274 1
81 274 1
100 274 1
103 274 1
194 274 1
198 274 1
208 274 1
210 274 1
61 275 1
82 275 1
101 275 1
104 275 1
195 275 1
199 275 1
204 275 1
209 275 1
62 276 1
83 276 1
102 276 1
105 276 1
196 276 1
200 276 1
205 276 1
210 276 1
63 277 1
84 277 1
99 277 1
103 277 1
190 277 1
201 277 1
204 277 1
206 277 1
57 278 1
78 278 1
100 278 1
104 278 1
191 278 1
202 278 1
205 278 1
207 278 1
58 279 1
79 279 1
101 279 1
105 279 1
192 279 1
203 279 1
206 279 1
208 279 1
59 280 1
80 280 1
99 280 1
102 280 1
193 280 1
197 280 1
207 280 1
209 280 1
121 281 1
124 281 1
144 281 1
165 281 1
178 281 1
187 281 1
197 281 1
205 281 1
122 282 1
125 282 1
145 282 1
166 282 1
179 282 1
188 282 1
198 282 1
206 282 1
123 283 1
126 283 1
146 283 1
167 283 1
180 283 1
189 283 1
199 283 1
207 283 1
120 284 1
124 284 1
147 284 1
168 284 1
181 284 1
183 284 1
200 284 1
208 284 1
121 285 1
125 285 1
141 285 1
162 285 1
182 285 1
184 285 1
201 285 1
209 285 1
122 286 1
126 286 1
142 286 1
163 286 1
176 286 1
185 286 1
202 286 1
210 286 1
120 287 1
123 287 1
143 287 1
164 287 1
177 287 1
186 287 1
203 287 1
204 287 1
114 288 1
117 288 1
151 288 1
158 288 1
171 288 1
194 288 1
198 288 1
204 288 1
115 289 1
118 289 1
152 289 1
159 289 1
172 289 1
195 289 1
199 289 1
205 289 1
116 290 1
119 290 1
153 290 1
160 290 1
173 290 1
196 290 1
200 290 1
206 290 1
113 291 1
117 291 1
154 291 1
161 291 1
174 291 1
190 291 1
201 291 1
207 291 1
114 292 1
118 292 1
148 292 1
155 292 1
175 292 1
191 292 1
202 292 1
208 292 1
115 293 1
119 293 1
149 293 1
156 293 1
169 293 1
192 293 1
203 293 1
209 293 1
113 294 1
116 294 1
150 294 1
157 294 1
170 294 1
193 294 1
197 294 1
210 294 1
135 295 1
138 295 1
151 295 1
158 295 1
173 295 1
192 295 1
211 295 1
219 295 1
136 296 1
139 296 1
152 296 1
159 296 1
174 296 1
193 296 1
212 296 1
220 296 1
137 297 1
140 297 1
153 297 1
160 297 1
175 297 1
194 297 1
213 297 1
221 297 1
134 298 1
138 298 1
154 298 1
161 298 1
169 298 1
195 298 1
214 298 1
222 298 1
135 299 1
139 299 1
148 299 1
155 299 1
170 299 1
196 299 1
215 299 1
223 299 1
136 300 1
140 300 1
149 300 1
156 300 1
171 300 1
190 300 1
216 300 1
224 300 1
134 301 1
137 301 1
150 301 1
157 301 1
172 301 1
191 301 1
217 301 1
218 301 1
128 302 1
131 302 1
144 302 1
165 302 1
180 302 1
185 302 1
212 302 1
218 302 1
129 303 1
132 303 1
145 303 1
166 303 1
181 303 1
186 303 1
213 303 1
219 303 1
130 304 1
133 304 1
146 304 1
167 304 1
182 304 1
187 304 1
214 304 1
220 304 1
127 305 1
131 305 1
147 305 1
168 305 1
176 305 1
188 305 1
215 305 1
221 305 1
128 306 1
132 306 1
141 306 1
162 306 1
177 306 1
189 306 1
216 306 1
222 306 1
129 307 1
133 307 1
142 307 1
163 307 1
178 307 1
183 307 1
217 307 1
223 307 1
127 308 1
130 308 1
143 308 1
164 308 1
179 308 1
184 308 1
211 308 1
224 308 1
116 309 1
137 309 1
149 309 1
152 309 1
169 309 1
177 309 1
206 309 1
215 309 1
117 310 1
138 310 1
150 310 1
153 310 1
170 310 1
178 310 1
207 310 1
216 310 1
118 311 1
139 311 1
151 311 1
154 311 1
171 311 1
179 311 1
208 311 1
217 311 1
119 312 1
140 312 1
148 312 1
152 312 1
172 312 1
180 312 1
209 312 1
211 312 1
113 313 1
134 313 1
149 313 1
153 313 1
173 313 1
181 313 1
210 313 1
212 313 1
114 314 1
135 314 1
150 314 1
154 314 1
174 314 1
182 314 1
204 314 1
213 314 1
115 315 1
136 315 1
148 315 1
151 315 1
175 315 1
176 315 1
205 315 1
214 315 1
123 316 1
130 316 1
142 316 1
145 316 1
170 316 1
176 316 1
199 316 1
222 316 1
124 317 1
131 317 1
143 317 1
146 317 1
171 317 1
177 317 1
200 317 1
223 317 1
125 318 1
132 318 1
144 318 1
147 318 1
172 318 1
178 318 1
201 318 1
224 318 1
126 319 1
133 319 1
141 319 1
145 319 1
173 319 1
179 319 1
202 319 1
218 319 1
120 320 1
127 320 1
142 320 1
146 320 1
174 320 1
180 320 1
203 320 1
219 320 1
121 321 1
128 321 1
143 321 1
147 321 1
175 321 1
181 321 1
197 321 1
220 321 1
122 322 1
129 322 1
141 322 1
144 322 1
169 322 1
182 322 1
198 322 1
221 322 1
123 323 1
130 323 1
163 323 1
166 323 1
183 323 1
191 323 1
201 323 1
220 323 1
124 324 1
131 324 1
164 324 1
167 324 1
184 324 1
192 324 1
202 324 1
221 324 1
125 325 1
132 325 1
165 325 1
168 325 1
185 325 1
193 325 1
203 325 1
222 325 1
126 326 1
133 326 1
162 326 1
166 326 1
186 326 1
194 326 1
197 326 1
223 326 1
120 327 1
127 327 1
163 327 1
167 327 1
187 327 1
195 327 1
198 327 1
224 327 1
121 328 1
128 328 1
164 328 1
168 328 1
188 328 1
196 328 1
199 328 1
218 328 1
122 329 1
129 329 1
162 329 1
165 329 1
189 329 1
190 329 1
200 329 1
219 329 1
116 330 1
137 330 1
156 330 1
159 330 1
184 330 1
190 330 1
208 330 1
213 330 1
117 331 1
138 331 1
157 331 1
160 331 1
185 331 1
191 331 1
209 331 1
214 331 1
118 332 1
139 332 1
158 332 1
161 332 1
186 332 1
192 332 1
210 332 1
215 332 1
119 333 1
140 333 1
155 333 1
159 333 1
187 333 1
193 333 1
204 333 1
216 333 1
113 334 1
134 334 1
156 334 1
160 334 1
188 334 1
194 334 1
205 334 1
217 334 1
114 335 1
135 335 1
157 335 1
161 335 1
189 335 1
195 335 1
206 335 1
211 335 1
115 336 1
136 336 1
155 336 1
158 336 1
183 336 1
196 336 1
207 336 1
212 336 1
