%%MatrixMarket matrix coordinate integer general
% Binary matrix; one-based indices; arithmetic over GF(2)
224 336 2688
13 1 1
18 1 1
29 1 1
42 1 1
67 1 1
70 1 1
89 1 1
110 1 1
14 2 1
19 2 1
30 2 1
36 2 1
64 2 1
68 2 1
90 2 1
111 2 1
8 3 1
20 3 1
31 3 1
37 3 1
65 3 1
69 3 1
91 3 1
112 3 1
9 4 1
21 4 1
32 4 1
38 4 1
66 4 1
70 4 1
85 4 1
106 4 1
10 5 1
15 5 1
33 5 1
39 5 1
64 5 1
67 5 1
86 5 1
107 5 1
11 6 1
16 6 1
34 6 1
40 6 1
65 6 1
68 6 1
87 6 1
108 6 1
12 7 1
17 7 1
35 7 1
41 7 1
66 7 1
69 7 1
88 7 1
109 7 1
6 8 1
25 8 1
35 8 1
36 8 1
60 8 1
63 8 1
96 8 1
103 8 1
7 9 1
26 9 1
29 9 1
37 9 1
57 9 1
61 9 1
97 9 1
104 9 1
1 10 1
27 10 1
30 10 1
38 10 1
58 10 1
62 10 1
98 10 1
105 10 1
2 11 1
28 11 1
31 11 1
39 11 1
59 11 1
63 11 1
92 11 1
99 11 1
3 12 1
22 12 1
32 12 1
40 12 1
57 12 1
60 12 1
93 12 1
100 12 1
4 13 1
23 13 1
33 13 1
41 13 1
58 13 1
61 13 1
94 13 1
101 13 1
5 14 1
24 14 1
34 14 1
42 14 1
59 14 1
62 14 1
95 14 1
102 14 1
4 15 1
27 15 1
43 15 1
56 15 1
81 15 1
84 15 1
96 15 1
103 15 1
5 16 1
28 16 1
44 16 1
50 16 1
78 16 1
82 16 1
97 16 1
104 16 1
6 17 1
22 17 1
45 17 1
51 17 1
79 17 1
83 17 1
98 17 1
105 17 1
7 18 1
23 18 1
46 18 1
52 18 1
80 18 1
84 18 1
92 18 1
99 18 1
1 19 1
24 19 1
47 19 1
53 19 1
78 19 1
81 19 1
93 19 1
100 19 1
2 20 1
25 20 1
48 20 1
54 20 1
79 20 1
82 20 1
94 20 1
101 20 1
3 21 1
26 21 1
49 21 1
55 21 1
80 21 1
83 21 1
95 21 1
102 21 1
11 22 1
20 22 1
49 22 1
50 22 1
74 22 1
77 22 1
89 22 1
110 22 1
12 23 1
21 23 1
43 23 1
51 23 1
71 23 1
75 23 1
90 23 1
111 23 1
13 24 1
15 24 1
44 24 1
52 24 1
72 24 1
76 24 1
91 24 1
112 24 1
14 25 1
16 25 1
45 25 1
53 25 1
73 25 1
77 25 1
85 25 1
106 25 1
8 26 1
17 26 1
46 26 1
54 26 1
71 26 1
74 26 1
86 26 1
107 26 1
9 27 1
18 27 1
47 27 1
55 27 1
72 27 1
75 27 1
87 27 1
108 27 1
10 28 1
19 28 1
48 28 1
56 28 1
73 28 1
76 28 1
88 28 1
109 28 1
1 29 1
14 29 1
41 29 1
46 29 1
61 29 1
82 29 1
95 29 1
98 29 1
2 30 1
8 30 1
42 30 1
47 30 1
62 30 1
83 30 1
92 30 1
96 30 1
3 31 1
9 31 1
36 31 1
48 31 1
63 31 1
84 31 1
93 31 1
97 31 1
4 32 1
10 32 1
37 32 1
49 32 1
57 32 1
78 32 1
94 32 1
98 32 1
5 33 1
11 33 1
38 33 1
43 33 1
58 33 1
79 33 1
92 33 1
95 33 1
6 34 1
12 34 1
39 34 1
44 34 1
59 34 1
80 34 1
93 34 1
96 34 1
7 35 1
13 35 1
40 35 1
45 35 1
60 35 1
81 35 1
94 35 1
97 35 1
7 36 1
8 36 1
34 36 1
53 36 1
68 36 1
75 36 1
88 36 1
91 36 1
1 37 1
9 37 1
35 37 1
54 37 1
69 37 1
76 37 1
85 37 1
89 37 1
2 38 1
10 38 1
29 38 1
55 38 1
70 38 1
77 38 1
86 38 1
90 38 1
3 39 1
11 39 1
30 39 1
56 39 1
64 39 1
71 39 1
87 39 1
91 39 1
4 40 1
12 40 1
31 40 1
50 40 1
65 40 1
72 40 1
85 40 1
88 40 1
5 41 1
13 41 1
32 41 1
51 41 1
66 41 1
73 41 1
86 41 1
89 41 1
6 42 1
14 42 1
33 42 1
52 42 1
67 42 1
74 42 1
87 42 1
90 42 1
15 43 1
28 43 1
32 43 1
55 43 1
68 43 1
75 43 1
109 43 1
112 43 1
16 44 1
22 44 1
33 44 1
56 44 1
69 44 1
76 44 1
106 44 1
110 44 1
17 45 1
23 45 1
34 45 1
50 45 1
70 45 1
77 45 1
107 45 1
111 45 1
18 46 1
24 46 1
35 46 1
51 46 1
64 46 1
71 46 1
108 46 1
112 46 1
19 47 1
25 47 1
29 47 1
52 47 1
65 47 1
72 47 1
106 47 1
109 47 1
20 48 1
26 48 1
30 48 1
53 48 1
66 48 1
73 48 1
107 48 1
110 48 1
21 49 1
27 49 1
31 49 1
54 49 1
67 49 1
74 49 1
108 49 1
111 49 1
21 50 1
22 50 1
39 50 1
48 50 1
61 50 1
82 50 1
102 50 1
105 50 1
15 51 1
23 51 1
40 51 1
49 51 1
62 51 1
83 51 1
99 51 1
103 51 1
16 52 1
24 52 1
41 52 1
43 52 1
63 52 1
84 52 1
100 52 1
104 52 1
17 53 1
25 53 1
42 53 1
44 53 1
57 53 1
78 53 1
101 53 1
105 53 1
18 54 1
26 54 1
36 54 1
45 54 1
58 54 1
79 54 1
99 54 1
102 54 1
19 55 1
27 55 1
37 55 1
46 55 1
59 55 1
80 55 1
100 55 1
103 55 1
20 56 1
28 56 1
38 56 1
47 56 1
60 56 1
81 56 1
101 56 1
104 56 1
16 57 1
18 57 1
28 57 1
32 57 1
123 57 1
126 57 1
145 57 1
166 57 1
17 58 1
19 58 1
22 58 1
33 58 1
120 58 1
124 58 1
146 58 1
167 58 1
18 59 1
20 59 1
23 59 1
34 59 1
121 59 1
125 59 1
147 59 1
168 59 1
19 60 1
21 60 1
24 60 1
35 60 1
122 60 1
126 60 1
141 60 1
162 60 1
15 61 1
20 61 1
25 61 1
29 61 1
120 61 1
123 61 1
142 61 1
163 61 1
16 62 1
21 62 1
26 62 1
30 62 1
121 62 1
124 62 1
143 62 1
164 62 1
15 63 1
17 63 1
27 63 1
31 63 1
122 63 1
125 63 1
144 63 1
165 63 1
21 64 1
23 64 1
25 64 1
39 64 1
116 64 1
119 64 1
152 64 1
159 64 1
15 65 1
24 65 1
26 65 1
40 65 1
113 65 1
117 65 1
153 65 1
160 65 1
16 66 1
25 66 1
27 66 1
41 66 1
114 66 1
118 66 1
154 66 1
161 66 1
17 67 1
26 67 1
28 67 1
42 67 1
115 67 1
119 67 1
148 67 1
155 67 1
18 68 1
22 68 1
27 68 1
36 68 1
113 68 1
116 68 1
149 68 1
156 68 1
19 69 1
23 69 1
28 69 1
37 69 1
114 69 1
117 69 1
150 69 1
157 69 1
20 70 1
22 70 1
24 70 1
38 70 1
115 70 1
118 70 1
151 70 1
158 70 1
2 71 1
4 71 1
14 71 1
46 71 1
137 71 1
140 71 1
152 71 1
159 71 1
3 72 1
5 72 1
8 72 1
47 72 1
134 72 1
138 72 1
153 72 1
160 72 1
4 73 1
6 73 1
9 73 1
48 73 1
135 73 1
139 73 1
154 73 1
161 73 1
5 74 1
7 74 1
10 74 1
49 74 1
136 74 1
140 74 1
148 74 1
155 74 1
1 75 1
6 75 1
11 75 1
43 75 1
134 75 1
137 75 1
149 75 1
156 75 1
2 76 1
7 76 1
12 76 1
44 76 1
135 76 1
138 76 1
150 76 1
157 76 1
1 77 1
3 77 1
13 77 1
45 77 1
136 77 1
139 77 1
151 77 1
158 77 1
7 78 1
9 78 1
11 78 1
53 78 1
130 78 1
133 78 1
145 78 1
166 78 1
1 79 1
10 79 1
12 79 1
54 79 1
127 79 1
131 79 1
146 79 1
167 79 1
2 80 1
11 80 1
13 80 1
55 80 1
128 80 1
132 80 1
147 80 1
168 80 1
3 81 1
12 81 1
14 81 1
56 81 1
129 81 1
133 81 1
141 81 1
162 81 1
4 82 1
8 82 1
13 82 1
50 82 1
127 82 1
130 82 1
142 82 1
163 82 1
5 83 1
9 83 1
14 83 1
51 83 1
128 83 1
131 83 1
143 83 1
164 83 1
6 84 1
8 84 1
10 84 1
52 84 1
129 84 1
132 84 1
144 84 1
165 84 1
4 85 1
44 85 1
46 85 1
56 85 1
117 85 1
138 85 1
151 85 1
154 85 1
5 86 1
45 86 1
47 86 1
50 86 1
118 86 1
139 86 1
148 86 1
152 86 1
6 87 1
46 87 1
48 87 1
51 87 1
119 87 1
140 87 1
149 87 1
153 87 1
7 88 1
47 88 1
49 88 1
52 88 1
113 88 1
134 88 1
150 88 1
154 88 1
1 89 1
43 89 1
48 89 1
53 89 1
114 89 1
135 89 1
148 89 1
151 89 1
2 90 1
44 90 1
49 90 1
54 90 1
115 90 1
136 90 1
149 90 1
152 90 1
3 91 1
43 91 1
45 91 1
55 91 1
116 91 1
137 91 1
150 91 1
153 91 1
11 92 1
49 92 1
51 92 1
53 92 1
124 92 1
131 92 1
144 92 1
147 92 1
12 93 1
43 93 1
52 93 1
54 93 1
125 93 1
132 93 1
141 93 1
145 93 1
13 94 1
44 94 1
53 94 1
55 94 1
126 94 1
133 94 1
142 94 1
146 94 1
14 95 1
45 95 1
54 95 1
56 95 1
120 95 1
127 95 1
143 95 1
147 95 1
8 96 1
46 96 1
50 96 1
55 96 1
121 96 1
128 96 1
141 96 1
144 96 1
9 97 1
47 97 1
51 97 1
56 97 1
122 97 1
129 97 1
142 97 1
145 97 1
10 98 1
48 98 1
50 98 1
52 98 1
123 98 1
130 98 1
143 98 1
146 98 1
18 99 1
30 99 1
32 99 1
42 99 1
124 99 1
131 99 1
165 99 1
168 99 1
19 100 1
31 100 1
33 100 1
36 100 1
125 100 1
132 100 1
162 100 1
166 100 1
20 101 1
32 101 1
34 101 1
37 101 1
126 101 1
133 101 1
163 101 1
167 101 1
21 102 1
33 102 1
35 102 1
38 102 1
120 102 1
127 102 1
164 102 1
168 102 1
15 103 1
29 103 1
34 103 1
39 103 1
121 103 1
128 103 1
162 103 1
165 103 1
16 104 1
30 104 1
35 104 1
40 104 1
122 104 1
129 104 1
163 104 1
166 104 1
17 105 1
29 105 1
31 105 1
41 105 1
123 105 1
130 105 1
164 105 1
167 105 1
25 106 1
35 106 1
37 106 1
39 106 1
117 106 1
138 106 1
158 106 1
161 106 1
26 107 1
29 107 1
38 107 1
40 107 1
118 107 1
139 107 1
155 107 1
159 107 1
27 108 1
30 108 1
39 108 1
41 108 1
119 108 1
140 108 1
156 108 1
160 108 1
28 109 1
31 109 1
40 109 1
42 109 1
113 109 1
134 109 1
157 109 1
161 109 1
22 110 1
32 110 1
36 110 1
41 110 1
114 110 1
135 110 1
155 110 1
158 110 1
23 111 1
33 111 1
37 111 1
42 111 1
115 111 1
136 111 1
156 111 1
159 111 1
24 112 1
34 112 1
36 112 1
38 112 1
116 112 1
137 112 1
157 112 1
160 112 1
1 113 1
24 113 1
31 113 1
47 113 1
179 113 1
182 113 1
201 113 1
222 113 1
2 114 1
25 114 1
32 114 1
48 114 1
176 114 1
180 114 1
202 114 1
223 114 1
3 115 1
26 115 1
33 115 1
49 115 1
177 115 1
181 115 1
203 115 1
224 115 1
4 116 1
27 116 1
34 116 1
43 116 1
178 116 1
182 116 1
197 116 1
218 116 1
5 117 1
28 117 1
35 117 1
44 117 1
176 117 1
179 117 1
198 117 1
219 117 1
6 118 1
22 118 1
29 118 1
45 118 1
177 118 1
180 118 1
199 118 1
220 118 1
7 119 1
23 119 1
30 119 1
46 119 1
178 119 1
181 119 1
200 119 1
221 119 1
8 120 1
17 120 1
38 120 1
54 120 1
172 120 1
175 120 1
208 120 1
215 120 1
9 121 1
18 121 1
39 121 1
55 121 1
169 121 1
173 121 1
209 121 1
216 121 1
10 122 1
19 122 1
40 122 1
56 122 1
170 122 1
174 122 1
210 122 1
217 122 1
11 123 1
20 123 1
41 123 1
50 123 1
171 123 1
175 123 1
204 123 1
211 123 1
12 124 1
21 124 1
42 124 1
51 124 1
169 124 1
172 124 1
205 124 1
212 124 1
13 125 1
15 125 1
36 125 1
52 125 1
170 125 1
173 125 1
206 125 1
213 125 1
14 126 1
16 126 1
37 126 1
53 126 1
171 126 1
174 126 1
207 126 1
214 126 1
10 127 1
15 127 1
33 127 1
45 127 1
193 127 1
196 127 1
208 127 1
215 127 1
11 128 1
16 128 1
34 128 1
46 128 1
190 128 1
194 128 1
209 128 1
216 128 1
12 129 1
17 129 1
35 129 1
47 129 1
191 129 1
195 129 1
210 129 1
217 129 1
13 130 1
18 130 1
29 130 1
48 130 1
192 130 1
196 130 1
204 130 1
211 130 1
14 131 1
19 131 1
30 131 1
49 131 1
190 131 1
193 131 1
205 131 1
212 131 1
8 132 1
20 132 1
31 132 1
43 132 1
191 132 1
194 132 1
206 132 1
213 132 1
9 133 1
21 133 1
32 133 1
44 133 1
192 133 1
195 133 1
207 133 1
214 133 1
3 134 1
22 134 1
40 134 1
52 134 1
186 134 1
189 134 1
201 134 1
222 134 1
4 135 1
23 135 1
41 135 1
53 135 1
183 135 1
187 135 1
202 135 1
223 135 1
5 136 1
24 136 1
42 136 1
54 136 1
184 136 1
188 136 1
203 136 1
224 136 1
6 137 1
25 137 1
36 137 1
55 137 1
185 137 1
189 137 1
197 137 1
218 137 1
7 138 1
26 138 1
37 138 1
56 138 1
183 138 1
186 138 1
198 138 1
219 138 1
1 139 1
27 139 1
38 139 1
50 139 1
184 139 1
187 139 1
199 139 1
220 139 1
2 140 1
28 140 1
39 140 1
51 140 1
185 140 1
188 140 1
200 140 1
221 140 1
3 141 1
19 141 1
29 141 1
52 141 1
173 141 1
194 141 1
207 141 1
210 141 1
4 142 1
20 142 1
30 142 1
53 142 1
174 142 1
195 142 1
204 142 1
208 142 1
5 143 1
21 143 1
31 143 1
54 143 1
175 143 1
196 143 1
205 143 1
209 143 1
6 144 1
15 144 1
32 144 1
55 144 1
169 144 1
190 144 1
206 144 1
210 144 1
7 145 1
16 145 1
33 145 1
56 145 1
170 145 1
191 145 1
204 145 1
207 145 1
1 146 1
17 146 1
34 146 1
50 146 1
171 146 1
192 146 1
205 146 1
208 146 1
2 147 1
18 147 1
35 147 1
51 147 1
172 147 1
193 147 1
206 147 1
209 147 1
10 148 1
26 148 1
36 148 1
45 148 1
180 148 1
187 148 1
200 148 1
203 148 1
11 149 1
27 149 1
37 149 1
46 149 1
181 149 1
188 149 1
197 149 1
201 149 1
12 150 1
28 150 1
38 150 1
47 150 1
182 150 1
189 150 1
198 150 1
202 150 1
13 151 1
22 151 1
39 151 1
48 151 1
176 151 1
183 151 1
199 151 1
203 151 1
14 152 1
23 152 1
40 152 1
49 152 1
177 152 1
184 152 1
197 152 1
200 152 1
8 153 1
24 153 1
41 153 1
43 153 1
178 153 1
185 153 1
198 153 1
201 153 1
9 154 1
25 154 1
42 154 1
44 154 1
179 154 1
186 154 1
199 154 1
202 154 1
5 155 1
17 155 1
38 155 1
43 155 1
180 155 1
187 155 1
221 155 1
224 155 1
6 156 1
18 156 1
39 156 1
44 156 1
181 156 1
188 156 1
218 156 1
222 156 1
7 157 1
19 157 1
40 157 1
45 157 1
182 157 1
189 157 1
219 157 1
223 157 1
1 158 1
20 158 1
41 158 1
46 158 1
176 158 1
183 158 1
220 158 1
224 158 1
2 159 1
21 159 1
42 159 1
47 159 1
177 159 1
184 159 1
218 159 1
221 159 1
3 160 1
15 160 1
36 160 1
48 160 1
178 160 1
185 160 1
219 160 1
222 160 1
4 161 1
16 161 1
37 161 1
49 161 1
179 161 1
186 161 1
220 161 1
223 161 1
12 162 1
24 162 1
31 162 1
50 162 1
173 162 1
194 162 1
214 162 1
217 162 1
13 163 1
25 163 1
32 163 1
51 163 1
174 163 1
195 163 1
211 163 1
215 163 1
14 164 1
26 164 1
33 164 1
52 164 1
175 164 1
196 164 1
212 164 1
216 164 1
8 165 1
27 165 1
34 165 1
53 165 1
169 165 1
190 165 1
213 165 1
217 165 1
9 166 1
28 166 1
35 166 1
54 166 1
170 166 1
191 166 1
211 166 1
214 166 1
10 167 1
22 167 1
29 167 1
55 167 1
171 167 1
192 167 1
212 167 1
215 167 1
11 168 1
23 168 1
30 168 1
56 168 1
172 168 1
193 168 1
213 168 1
216 168 1
72 169 1
74 169 1
84 169 1
88 169 1
125 169 1
130 169 1
141 169 1
154 169 1
73 170 1
75 170 1
78 170 1
89 170 1
126 170 1
131 170 1
142 170 1
148 170 1
74 171 1
76 171 1
79 171 1
90 171 1
120 171 1
132 171 1
143 171 1
149 171 1
75 172 1
77 172 1
80 172 1
91 172 1
121 172 1
133 172 1
144 172 1
150 172 1
71 173 1
76 173 1
81 173 1
85 173 1
122 173 1
127 173 1
145 173 1
151 173 1
72 174 1
77 174 1
82 174 1
86 174 1
123 174 1
128 174 1
146 174 1
152 174 1
71 175 1
73 175 1
83 175 1
87 175 1
124 175 1
129 175 1
147 175 1
153 175 1
77 176 1
79 176 1
81 176 1
95 176 1
118 176 1
137 176 1
147 176 1
148 176 1
71 177 1
80 177 1
82 177 1
96 177 1
119 177 1
138 177 1
141 177 1
149 177 1
72 178 1
81 178 1
83 178 1
97 178 1
113 178 1
139 178 1
142 178 1
150 178 1
73 179 1
82 179 1
84 179 1
98 179 1
114 179 1
140 179 1
143 179 1
151 179 1
74 180 1
78 180 1
83 180 1
92 180 1
115 180 1
134 180 1
144 180 1
152 180 1
75 181 1
79 181 1
84 181 1
93 181 1
116 181 1
135 181 1
145 181 1
153 181 1
76 182 1
78 182 1
80 182 1
94 182 1
117 182 1
136 182 1
146 182 1
154 182 1
58 183 1
60 183 1
70 183 1
102 183 1
116 183 1
139 183 1
155 183 1
168 183 1
59 184 1
61 184 1
64 184 1
103 184 1
117 184 1
140 184 1
156 184 1
162 184 1
60 185 1
62 185 1
65 185 1
104 185 1
118 185 1
134 185 1
157 185 1
163 185 1
61 186 1
63 186 1
66 186 1
105 186 1
119 186 1
135 186 1
158 186 1
164 186 1
57 187 1
62 187 1
67 187 1
99 187 1
113 187 1
136 187 1
159 187 1
165 187 1
58 188 1
63 188 1
68 188 1
100 188 1
114 188 1
137 188 1
160 188 1
166 188 1
57 189 1
59 189 1
69 189 1
101 189 1
115 189 1
138 189 1
161 189 1
167 189 1
63 190 1
65 190 1
67 190 1
109 190 1
123 190 1
132 190 1
161 190 1
162 190 1
57 191 1
66 191 1
68 191 1
110 191 1
124 191 1
133 191 1
155 191 1
163 191 1
58 192 1
67 192 1
69 192 1
111 192 1
125 192 1
127 192 1
156 192 1
164 192 1
59 193 1
68 193 1
70 193 1
112 193 1
126 193 1
128 193 1
157 193 1
165 193 1
60 194 1
64 194 1
69 194 1
106 194 1
120 194 1
129 194 1
158 194 1
166 194 1
61 195 1
65 195 1
70 195 1
107 195 1
121 195 1
130 195 1
159 195 1
167 195 1
62 196 1
64 196 1
66 196 1
108 196 1
122 196 1
131 196 1
160 196 1
168 196 1
60 197 1
100 197 1
102 197 1
112 197 1
113 197 1
126 197 1
153 197 1
158 197 1
61 198 1
101 198 1
103 198 1
106 198 1
114 198 1
120 198 1
154 198 1
159 198 1
62 199 1
102 199 1
104 199 1
107 199 1
115 199 1
121 199 1
148 199 1
160 199 1
63 200 1
103 200 1
105 200 1
108 200 1
116 200 1
122 200 1
149 200 1
161 200 1
57 201 1
99 201 1
104 201 1
109 201 1
117 201 1
123 201 1
150 201 1
155 201 1
58 202 1
100 202 1
105 202 1
110 202 1
118 202 1
124 202 1
151 202 1
156 202 1
59 203 1
99 203 1
101 203 1
111 203 1
119 203 1
125 203 1
152 203 1
157 203 1
67 204 1
105 204 1
107 204 1
109 204 1
119 204 1
120 204 1
146 204 1
165 204 1
68 205 1
99 205 1
108 205 1
110 205 1
113 205 1
121 205 1
147 205 1
166 205 1
69 206 1
100 206 1
109 206 1
111 206 1
114 206 1
122 206 1
141 206 1
167 206 1
70 207 1
101 207 1
110 207 1
112 207 1
115 207 1
123 207 1
142 207 1
168 207 1
64 208 1
102 208 1
106 208 1
111 208 1
116 208 1
124 208 1
143 208 1
162 208 1
65 209 1
103 209 1
107 209 1
112 209 1
117 209 1
125 209 1
144 209 1
163 209 1
66 210 1
104 210 1
106 210 1
108 210 1
118 210 1
126 210 1
145 210 1
164 210 1
74 211 1
86 211 1
88 211 1
98 211 1
127 211 1
140 211 1
144 211 1
167 211 1
75 212 1
87 212 1
89 212 1
92 212 1
128 212 1
134 212 1
145 212 1
168 212 1
76 213 1
88 213 1
90 213 1
93 213 1
129 213 1
135 213 1
146 213 1
162 213 1
77 214 1
89 214 1
91 214 1
94 214 1
130 214 1
136 214 1
147 214 1
163 214 1
71 215 1
85 215 1
90 215 1
95 215 1
131 215 1
137 215 1
141 215 1
164 215 1
72 216 1
86 216 1
91 216 1
96 216 1
132 216 1
138 216 1
142 216 1
165 216 1
73 217 1
85 217 1
87 217 1
97 217 1
133 217 1
139 217 1
143 217 1
166 217 1
81 218 1
91 218 1
93 218 1
95 218 1
133 218 1
134 218 1
151 218 1
160 218 1
82 219 1
85 219 1
94 219 1
96 219 1
127 219 1
135 219 1
152 219 1
161 219 1
83 220 1
86 220 1
95 220 1
97 220 1
128 220 1
136 220 1
153 220 1
155 220 1
84 221 1
87 221 1
96 221 1
98 221 1
129 221 1
137 221 1
154 221 1
156 221 1
78 222 1
88 222 1
92 222 1
97 222 1
130 222 1
138 222 1
148 222 1
157 222 1
79 223 1
89 223 1
93 223 1
98 223 1
131 223 1
139 223 1
149 223 1
158 223 1
80 224 1
90 224 1
92 224 1
94 224 1
132 224 1
140 224 1
150 224 1
159 224 1
57 225 1
80 225 1
87 225 1
103 225 1
181 225 1
186 225 1
197 225 1
210 225 1
58 226 1
81 226 1
88 226 1
104 226 1
182 226 1
187 226 1
198 226 1
204 226 1
59 227 1
82 227 1
89 227 1
105 227 1
176 227 1
188 227 1
199 227 1
205 227 1
60 228 1
83 228 1
90 228 1
99 228 1
177 228 1
189 228 1
200 228 1
206 228 1
61 229 1
84 229 1
91 229 1
100 229 1
178 229 1
183 229 1
201 229 1
207 229 1
62 230 1
78 230 1
85 230 1
101 230 1
179 230 1
184 230 1
202 230 1
208 230 1
63 231 1
79 231 1
86 231 1
102 231 1
180 231 1
185 231 1
203 231 1
209 231 1
64 232 1
73 232 1
94 232 1
110 232 1
174 232 1
193 232 1
203 232 1
204 232 1
65 233 1
74 233 1
95 233 1
111 233 1
175 233 1
194 233 1
197 233 1
205 233 1
66 234 1
75 234 1
96 234 1
112 234 1
169 234 1
195 234 1
198 234 1
206 234 1
67 235 1
76 235 1
97 235 1
106 235 1
170 235 1
196 235 1
199 235 1
207 235 1
68 236 1
77 236 1
98 236 1
107 236 1
171 236 1
190 236 1
200 236 1
208 236 1
69 237 1
71 237 1
92 237 1
108 237 1
172 237 1
191 237 1
201 237 1
209 237 1
70 238 1
72 238 1
93 238 1
109 238 1
173 238 1
192 238 1
202 238 1
210 238 1
66 239 1
71 239 1
89 239 1
101 239 1
172 239 1
195 239 1
211 239 1
224 239 1
67 240 1
72 240 1
90 240 1
102 240 1
173 240 1
196 240 1
212 240 1
218 240 1
68 241 1
73 241 1
91 241 1
103 241 1
174 241 1
190 241 1
213 241 1
219 241 1
69 242 1
74 242 1
85 242 1
104 242 1
175 242 1
191 242 1
214 242 1
220 242 1
70 243 1
75 243 1
86 243 1
105 243 1
169 243 1
192 243 1
215 243 1
221 243 1
64 244 1
76 244 1
87 244 1
99 244 1
170 244 1
193 244 1
216 244 1
222 244 1
65 245 1
77 245 1
88 245 1
100 245 1
171 245 1
194 245 1
217 245 1
223 245 1
59 246 1
78 246 1
96 246 1
108 246 1
179 246 1
188 246 1
217 246 1
218 246 1
60 247 1
79 247 1
97 247 1
109 247 1
180 247 1
189 247 1
211 247 1
219 247 1
61 248 1
80 248 1
98 248 1
110 248 1
181 248 1
183 248 1
212 248 1
220 248 1
62 249 1
81 249 1
92 249 1
111 249 1
182 249 1
184 249 1
213 249 1
221 249 1
63 250 1
82 250 1
93 250 1
112 250 1
176 250 1
185 250 1
214 250 1
222 250 1
57 251 1
83 251 1
94 251 1
106 251 1
177 251 1
186 251 1
215 251 1
223 251 1
58 252 1
84 252 1
95 252 1
107 252 1
178 252 1
187 252 1
216 252 1
224 252 1
59 253 1
75 253 1
85 253 1
108 253 1
169 253 1
182 253 1
209 253 1
214 253 1
60 254 1
76 254 1
86 254 1
109 254 1
170 254 1
176 254 1
210 254 1
215 254 1
61 255 1
77 255 1
87 255 1
110 255 1
171 255 1
177 255 1
204 255 1
216 255 1
62 256 1
71 256 1
88 256 1
111 256 1
172 256 1
178 256 1
205 256 1
217 256 1
63 257 1
72 257 1
89 257 1
112 257 1
173 257 1
179 257 1
206 257 1
211 257 1
57 258 1
73 258 1
90 258 1
106 258 1
174 258 1
180 258 1
207 258 1
212 258 1
58 259 1
74 259 1
91 259 1
107 259 1
175 259 1
181 259 1
208 259 1
213 259 1
66 260 1
82 260 1
92 260 1
101 260 1
175 260 1
176 260 1
202 260 1
221 260 1
67 261 1
83 261 1
93 261 1
102 261 1
169 261 1
177 261 1
203 261 1
222 261 1
68 262 1
84 262 1
94 262 1
103 262 1
170 262 1
178 262 1
197 262 1
223 262 1
69 263 1
78 263 1
95 263 1
104 263 1
171 263 1
179 263 1
198 263 1
224 263 1
70 264 1
79 264 1
96 264 1
105 264 1
172 264 1
180 264 1
199 264 1
218 264 1
64 265 1
80 265 1
97 265 1
99 265 1
173 265 1
181 265 1
200 265 1
219 265 1
65 266 1
81 266 1
98 266 1
100 266 1
174 266 1
182 266 1
201 266 1
220 266 1
61 267 1
73 267 1
94 267 1
99 267 1
183 267 1
196 267 1
200 267 1
223 267 1
62 268 1
74 268 1
95 268 1
100 268 1
184 268 1
190 268 1
201 268 1
224 268 1
63 269 1
75 269 1
96 269 1
101 269 1
185 269 1
191 269 1
202 269 1
218 269 1
57 270 1
76 270 1
97 270 1
102 270 1
186 270 1
192 270 1
203 270 1
219 270 1
58 271 1
77 271 1
98 271 1
103 271 1
187 271 1
193 271 1
197 271 1
220 271 1
59 272 1
71 272 1
92 272 1
104 272 1
188 272 1
194 272 1
198 272 1
221 272 1
60 273 1
72 273 1
93 273 1
105 273 1
189 273 1
195 273 1
199 273 1
222 273 1
68 274 1
80 274 1
87 274 1
106 274 1
189 274 1
190 274 1
207 274 1
216 274 1
69 275 1
81 275 1
88 275 1
107 275 1
183 275 1
191 275 1
208 275 1
217 275 1
70 276 1
82 276 1
89 276 1
108 276 1
184 276 1
192 276 1
209 276 1
211 276 1
64 277 1
83 277 1
90 277 1
109 277 1
185 277 1
193 277 1
210 277 1
212 277 1
65 278 1
84 278 1
91 278 1
110 278 1
186 278 1
194 278 1
204 278 1
213 278 1
66 279 1
78 279 1
85 279 1
111 279 1
187 279 1
195 279 1
205 279 1
214 279 1
67 280 1
79 280 1
86 280 1
112 280 1
188 280 1
196 280 1
206 280 1
215 280 1
113 281 1
136 281 1
143 281 1
159 281 1
184 281 1
186 281 1
196 281 1
200 281 1
114 282 1
137 282 1
144 282 1
160 282 1
185 282 1
187 282 1
190 282 1
201 282 1
115 283 1
138 283 1
145 283 1
161 283 1
186 283 1
188 283 1
191 283 1
202 283 1
116 284 1
139 284 1
146 284 1
155 284 1
187 284 1
189 284 1
192 284 1
203 284 1
117 285 1
140 285 1
147 285 1
156 285 1
183 285 1
188 285 1
193 285 1
197 285 1
118 286 1
134 286 1
141 286 1
157 286 1
184 286 1
189 286 1
194 286 1
198 286 1
119 287 1
135 287 1
142 287 1
158 287 1
183 287 1
185 287 1
195 287 1
199 287 1
120 288 1
129 288 1
150 288 1
166 288 1
189 288 1
191 288 1
193 288 1
207 288 1
121 289 1
130 289 1
151 289 1
167 289 1
183 289 1
192 289 1
194 289 1
208 289 1
122 290 1
131 290 1
152 290 1
168 290 1
184 290 1
193 290 1
195 290 1
209 290 1
123 291 1
132 291 1
153 291 1
162 291 1
185 291 1
194 291 1
196 291 1
210 291 1
124 292 1
133 292 1
154 292 1
163 292 1
186 292 1
190 292 1
195 292 1
204 292 1
125 293 1
127 293 1
148 293 1
164 293 1
187 293 1
191 293 1
196 293 1
205 293 1
126 294 1
128 294 1
149 294 1
165 294 1
188 294 1
190 294 1
192 294 1
206 294 1
122 295 1
127 295 1
145 295 1
157 295 1
170 295 1
172 295 1
182 295 1
214 295 1
123 296 1
128 296 1
146 296 1
158 296 1
171 296 1
173 296 1
176 296 1
215 296 1
124 297 1
129 297 1
147 297 1
159 297 1
172 297 1
174 297 1
177 297 1
216 297 1
125 298 1
130 298 1
141 298 1
160 298 1
173 298 1
175 298 1
178 298 1
217 298 1
126 299 1
131 299 1
142 299 1
161 299 1
169 299 1
174 299 1
179 299 1
211 299 1
120 300 1
132 300 1
143 300 1
155 300 1
170 300 1
175 300 1
180 300 1
212 300 1
121 301 1
133 301 1
144 301 1
156 301 1
169 301 1
171 301 1
181 301 1
213 301 1
115 302 1
134 302 1
152 302 1
164 302 1
175 302 1
177 302 1
179 302 1
221 302 1
116 303 1
135 303 1
153 303 1
165 303 1
169 303 1
178 303 1
180 303 1
222 303 1
117 304 1
136 304 1
154 304 1
166 304 1
170 304 1
179 304 1
181 304 1
223 304 1
118 305 1
137 305 1
148 305 1
167 305 1
171 305 1
180 305 1
182 305 1
224 305 1
119 306 1
138 306 1
149 306 1
168 306 1
172 306 1
176 306 1
181 306 1
218 306 1
113 307 1
139 307 1
150 307 1
162 307 1
173 307 1
177 307 1
182 307 1
219 307 1
114 308 1
140 308 1
151 308 1
163 308 1
174 308 1
176 308 1
178 308 1
220 308 1
115 309 1
131 309 1
141 309 1
164 309 1
172 309 1
212 309 1
214 309 1
224 309 1
116 310 1
132 310 1
142 310 1
165 310 1
173 310 1
213 310 1
215 310 1
218 310 1
117 311 1
133 311 1
143 311 1
166 311 1
174 311 1
214 311 1
216 311 1
219 311 1
118 312 1
127 312 1
144 312 1
167 312 1
175 312 1
215 312 1
217 312 1
220 312 1
119 313 1
128 313 1
145 313 1
168 313 1
169 313 1
211 313 1
216 313 1
221 313 1
113 314 1
129 314 1
146 314 1
162 314 1
170 314 1
212 314 1
217 314 1
222 314 1
114 315 1
130 315 1
147 315 1
163 315 1
171 315 1
211 315 1
213 315 1
223 315 1
122 316 1
138 316 1
148 316 1
157 316 1
179 316 1
217 316 1
219 316 1
221 316 1
123 317 1
139 317 1
149 317 1
158 317 1
180 317 1
211 317 1
220 317 1
222 317 1
124 318 1
140 318 1
150 318 1
159 318 1
181 318 1
212 318 1
221 318 1
223 318 1
125 319 1
134 319 1
151 319 1
160 319 1
182 319 1
213 319 1
222 319 1
224 319 1
126 320 1
135 320 1
152 320 1
161 320 1
176 320 1
214 320 1
218 320 1
223 320 1
120 321 1
136 321 1
153 321 1
155 321 1
177 321 1
215 321 1
219 321 1
224 321 1
121 322 1
137 322 1
154 322 1
156 322 1
178 322 1
216 322 1
218 322 1
220 322 1
117 323 1
129 323 1
150 323 1
155 323 1
186 323 1
198 323 1
200 323 1
210 323 1
118 324 1
130 324 1
151 324 1
156 324 1
187 324 1
199 324 1
201 324 1
204 324 1
119 325 1
131 325 1
152 325 1
157 325 1
188 325 1
200 325 1
202 325 1
205 325 1
113 326 1
132 326 1
153 326 1
158 326 1
189 326 1
201 326 1
203 326 1
206 326 1
114 327 1
133 327 1
154 327 1
159 327 1
183 327 1
197 327 1
202 327 1
207 327 1
115 328 1
127 328 1
148 328 1
160 328 1
184 328 1
198 328 1
203 328 1
208 328 1
116 329 1
128 329 1
149 329 1
161 329 1
185 329 1
197 329 1
199 329 1
209 329 1
124 330 1
136 330 1
143 330 1
162 330 1
193 330 1
203 330 1
205 330 1
207 330 1
125 331 1
137 331 1
144 331 1
163 331 1
194 331 1
197 331 1
206 331 1
208 331 1
126 332 1
138 332 1
145 332 1
164 332 1
195 332 1
198 332 1
207 332 1
209 332 1
120 333 1
139 333 1
146 333 1
165 333 1
196 333 1
199 333 1
208 333 1
210 333 1
121 334 1
140 334 1
147 334 1
166 334 1
190 334 1
200 334 1
204 334 1
209 334 1
122 335 1
134 335 1
141 335 1
167 335 1
191 335 1
201 335 1
205 335 1
210 335 1
123 336 1
135 336 1
142 336 1
168 336 1
192 336 1
202 336 1
204 336 1
206 336 1
