%%MatrixMarket matrix coordinate integer general
% Binary matrix; one-based indices; arithmetic over GF(2)
170 340 1360
1 1 1
16 1 1
35 1 1
40 1 1
2 2 1
17 2 1
36 2 1
41 2 1
3 3 1
18 3 1
37 3 1
42 3 1
4 4 1
19 4 1
38 4 1
43 4 1
5 5 1
20 5 1
39 5 1
44 5 1
6 6 1
21 6 1
40 6 1
45 6 1
7 7 1
22 7 1
41 7 1
46 7 1
8 8 1
23 8 1
42 8 1
47 8 1
9 9 1
24 9 1
43 9 1
48 9 1
10 10 1
25 10 1
44 10 1
49 10 1
11 11 1
26 11 1
45 11 1
50 11 1
12 12 1
27 12 1
46 12 1
51 12 1
13 13 1
28 13 1
47 13 1
52 13 1
14 14 1
29 14 1
48 14 1
53 14 1
15 15 1
30 15 1
49 15 1
54 15 1
16 16 1
31 16 1
50 16 1
55 16 1
17 17 1
32 17 1
51 17 1
56 17 1
18 18 1
33 18 1
52 18 1
57 18 1
19 19 1
34 19 1
53 19 1
58 19 1
1 20 1
20 20 1
54 20 1
59 20 1
2 21 1
21 21 1
55 21 1
60 21 1
3 22 1
22 22 1
56 22 1
61 22 1
4 23 1
23 23 1
57 23 1
62 23 1
5 24 1
24 24 1
58 24 1
63 24 1
6 25 1
25 25 1
59 25 1
64 25 1
7 26 1
26 26 1
60 26 1
65 26 1
8 27 1
27 27 1
61 27 1
66 27 1
9 28 1
28 28 1
62 28 1
67 28 1
10 29 1
29 29 1
63 29 1
68 29 1
11 30 1
30 30 1
35 30 1
64 30 1
12 31 1
31 31 1
36 31 1
65 31 1
13 32 1
32 32 1
37 32 1
66 32 1
14 33 1
33 33 1
38 33 1
67 33 1
15 34 1
34 34 1
39 34 1
68 34 1
1 35 1
17 35 1
69 35 1
74 35 1
2 36 1
18 36 1
70 36 1
75 36 1
3 37 1
19 37 1
71 37 1
76 37 1
4 38 1
20 38 1
72 38 1
77 38 1
5 39 1
21 39 1
73 39 1
78 39 1
6 40 1
22 40 1
74 40 1
79 40 1
7 41 1
23 41 1
75 41 1
80 41 1
8 42 1
24 42 1
76 42 1
81 42 1
9 43 1
25 43 1
77 43 1
82 43 1
10 44 1
26 44 1
78 44 1
83 44 1
11 45 1
27 45 1
79 45 1
84 45 1
12 46 1
28 46 1
80 46 1
85 46 1
13 47 1
29 47 1
81 47 1
86 47 1
14 48 1
30 48 1
82 48 1
87 48 1
15 49 1
31 49 1
83 49 1
88 49 1
16 50 1
32 50 1
84 50 1
89 50 1
17 51 1
33 51 1
85 51 1
90 51 1
18 52 1
34 52 1
86 52 1
91 52 1
1 53 1
19 53 1
87 53 1
92 53 1
2 54 1
20 54 1
88 54 1
93 54 1
3 55 1
21 55 1
89 55 1
94 55 1
4 56 1
22 56 1
90 56 1
95 56 1
5 57 1
23 57 1
91 57 1
96 57 1
6 58 1
24 58 1
92 58 1
97 58 1
7 59 1
25 59 1
93 59 1
98 59 1
8 60 1
26 60 1
94 60 1
99 60 1
9 61 1
27 61 1
95 61 1
100 61 1
10 62 1
28 62 1
96 62 1
101 62 1
11 63 1
29 63 1
97 63 1
102 63 1
12 64 1
30 64 1
69 64 1
98 64 1
13 65 1
31 65 1
70 65 1
99 65 1
14 66 1
32 66 1
71 66 1
100 66 1
15 67 1
33 67 1
72 67 1
101 67 1
16 68 1
34 68 1
73 68 1
102 68 1
35 69 1
51 69 1
69 69 1
84 69 1
36 70 1
52 70 1
70 70 1
85 70 1
37 71 1
53 71 1
71 71 1
86 71 1
38 72 1
54 72 1
72 72 1
87 72 1
39 73 1
55 73 1
73 73 1
88 73 1
40 74 1
56 74 1
74 74 1
89 74 1
41 75 1
57 75 1
75 75 1
90 75 1
42 76 1
58 76 1
76 76 1
91 76 1
43 77 1
59 77 1
77 77 1
92 77 1
44 78 1
60 78 1
78 78 1
93 78 1
45 79 1
61 79 1
79 79 1
94 79 1
46 80 1
62 80 1
80 80 1
95 80 1
47 81 1
63 81 1
81 81 1
96 81 1
48 82 1
64 82 1
82 82 1
97 82 1
49 83 1
65 83 1
83 83 1
98 83 1
50 84 1
66 84 1
84 84 1
99 84 1
51 85 1
67 85 1
85 85 1
100 85 1
52 86 1
68 86 1
86 86 1
101 86 1
35 87 1
53 87 1
87 87 1
102 87 1
36 88 1
54 88 1
69 88 1
88 88 1
37 89 1
55 89 1
70 89 1
89 89 1
38 90 1
56 90 1
71 90 1
90 90 1
39 91 1
57 91 1
72 91 1
91 91 1
40 92 1
58 92 1
73 92 1
92 92 1
41 93 1
59 93 1
74 93 1
93 93 1
42 94 1
60 94 1
75 94 1
94 94 1
43 95 1
61 95 1
76 95 1
95 95 1
44 96 1
62 96 1
77 96 1
96 96 1
45 97 1
63 97 1
78 97 1
97 97 1
46 98 1
64 98 1
79 98 1
98 98 1
47 99 1
65 99 1
80 99 1
99 99 1
48 100 1
66 100 1
81 100 1
100 100 1
49 101 1
67 101 1
82 101 1
101 101 1
50 102 1
68 102 1
83 102 1
102 102 1
1 103 1
28 103 1
103 103 1
108 103 1
2 104 1
29 104 1
104 104 1
109 104 1
3 105 1
30 105 1
105 105 1
110 105 1
4 106 1
31 106 1
106 106 1
111 106 1
5 107 1
32 107 1
107 107 1
112 107 1
6 108 1
33 108 1
108 108 1
113 108 1
7 109 1
34 109 1
109 109 1
114 109 1
1 110 1
8 110 1
110 110 1
115 110 1
2 111 1
9 111 1
111 111 1
116 111 1
3 112 1
10 112 1
112 112 1
117 112 1
4 113 1
11 113 1
113 113 1
118 113 1
5 114 1
12 114 1
114 114 1
119 114 1
6 115 1
13 115 1
115 115 1
120 115 1
7 116 1
14 116 1
116 116 1
121 116 1
8 117 1
15 117 1
117 117 1
122 117 1
9 118 1
16 118 1
118 118 1
123 118 1
10 119 1
17 119 1
119 119 1
124 119 1
11 120 1
18 120 1
120 120 1
125 120 1
12 121 1
19 121 1
121 121 1
126 121 1
13 122 1
20 122 1
122 122 1
127 122 1
14 123 1
21 123 1
123 123 1
128 123 1
15 124 1
22 124 1
124 124 1
129 124 1
16 125 1
23 125 1
125 125 1
130 125 1
17 126 1
24 126 1
126 126 1
131 126 1
18 127 1
25 127 1
127 127 1
132 127 1
19 128 1
26 128 1
128 128 1
133 128 1
20 129 1
27 129 1
129 129 1
134 129 1
21 130 1
28 130 1
130 130 1
135 130 1
22 131 1
29 131 1
131 131 1
136 131 1
23 132 1
30 132 1
103 132 1
132 132 1
24 133 1
31 133 1
104 133 1
133 133 1
25 134 1
32 134 1
105 134 1
134 134 1
26 135 1
33 135 1
106 135 1
135 135 1
27 136 1
34 136 1
107 136 1
136 136 1
35 137 1
62 137 1
103 137 1
118 137 1
36 138 1
63 138 1
104 138 1
119 138 1
37 139 1
64 139 1
105 139 1
120 139 1
38 140 1
65 140 1
106 140 1
121 140 1
39 141 1
66 141 1
107 141 1
122 141 1
40 142 1
67 142 1
108 142 1
123 142 1
41 143 1
68 143 1
109 143 1
124 143 1
35 144 1
42 144 1
110 144 1
125 144 1
36 145 1
43 145 1
111 145 1
126 145 1
37 146 1
44 146 1
112 146 1
127 146 1
38 147 1
45 147 1
113 147 1
128 147 1
39 148 1
46 148 1
114 148 1
129 148 1
40 149 1
47 149 1
115 149 1
130 149 1
41 150 1
48 150 1
116 150 1
131 150 1
42 151 1
49 151 1
117 151 1
132 151 1
43 152 1
50 152 1
118 152 1
133 152 1
44 153 1
51 153 1
119 153 1
134 153 1
45 154 1
52 154 1
120 154 1
135 154 1
46 155 1
53 155 1
121 155 1
136 155 1
47 156 1
54 156 1
103 156 1
122 156 1
48 157 1
55 157 1
104 157 1
123 157 1
49 158 1
56 158 1
105 158 1
124 158 1
50 159 1
57 159 1
106 159 1
125 159 1
51 160 1
58 160 1
107 160 1
126 160 1
52 161 1
59 161 1
108 161 1
127 161 1
53 162 1
60 162 1
109 162 1
128 162 1
54 163 1
61 163 1
110 163 1
129 163 1
55 164 1
62 164 1
111 164 1
130 164 1
56 165 1
63 165 1
112 165 1
131 165 1
57 166 1
64 166 1
113 166 1
132 166 1
58 167 1
65 167 1
114 167 1
133 167 1
59 168 1
66 168 1
115 168 1
134 168 1
60 169 1
67 169 1
116 169 1
135 169 1
61 170 1
68 170 1
117 170 1
136 170 1
69 171 1
96 171 1
103 171 1
119 171 1
70 172 1
97 172 1
104 172 1
120 172 1
71 173 1
98 173 1
105 173 1
121 173 1
72 174 1
99 174 1
106 174 1
122 174 1
73 175 1
100 175 1
107 175 1
123 175 1
74 176 1
101 176 1
108 176 1
124 176 1
75 177 1
102 177 1
109 177 1
125 177 1
69 178 1
76 178 1
110 178 1
126 178 1
70 179 1
77 179 1
111 179 1
127 179 1
71 180 1
78 180 1
112 180 1
128 180 1
72 181 1
79 181 1
113 181 1
129 181 1
73 182 1
80 182 1
114 182 1
130 182 1
74 183 1
81 183 1
115 183 1
131 183 1
75 184 1
82 184 1
116 184 1
132 184 1
76 185 1
83 185 1
117 185 1
133 185 1
77 186 1
84 186 1
118 186 1
134 186 1
78 187 1
85 187 1
119 187 1
135 187 1
79 188 1
86 188 1
120 188 1
136 188 1
80 189 1
87 189 1
103 189 1
121 189 1
81 190 1
88 190 1
104 190 1
122 190 1
82 191 1
89 191 1
105 191 1
123 191 1
83 192 1
90 192 1
106 192 1
124 192 1
84 193 1
91 193 1
107 193 1
125 193 1
85 194 1
92 194 1
108 194 1
126 194 1
86 195 1
93 195 1
109 195 1
127 195 1
87 196 1
94 196 1
110 196 1
128 196 1
88 197 1
95 197 1
111 197 1
129 197 1
89 198 1
96 198 1
112 198 1
130 198 1
90 199 1
97 199 1
113 199 1
131 199 1
91 200 1
98 200 1
114 200 1
132 200 1
92 201 1
99 201 1
115 201 1
133 201 1
93 202 1
100 202 1
116 202 1
134 202 1
94 203 1
101 203 1
117 203 1
135 203 1
95 204 1
102 204 1
118 204 1
136 204 1
1 205 1
32 205 1
137 205 1
142 205 1
2 206 1
33 206 1
138 206 1
143 206 1
3 207 1
34 207 1
139 207 1
144 207 1
1 208 1
4 208 1
140 208 1
145 208 1
2 209 1
5 209 1
141 209 1
146 209 1
3 210 1
6 210 1
142 210 1
147 210 1
4 211 1
7 211 1
143 211 1
148 211 1
5 212 1
8 212 1
144 212 1
149 212 1
6 213 1
9 213 1
145 213 1
150 213 1
7 214 1
10 214 1
146 214 1
151 214 1
8 215 1
11 215 1
147 215 1
152 215 1
9 216 1
12 216 1
148 216 1
153 216 1
10 217 1
13 217 1
149 217 1
154 217 1
11 218 1
14 218 1
150 218 1
155 218 1
12 219 1
15 219 1
151 219 1
156 219 1
13 220 1
16 220 1
152 220 1
157 220 1
14 221 1
17 221 1
153 221 1
158 221 1
15 222 1
18 222 1
154 222 1
159 222 1
16 223 1
19 223 1
155 223 1
160 223 1
17 224 1
20 224 1
156 224 1
161 224 1
18 225 1
21 225 1
157 225 1
162 225 1
19 226 1
22 226 1
158 226 1
163 226 1
20 227 1
23 227 1
159 227 1
164 227 1
21 228 1
24 228 1
160 228 1
165 228 1
22 229 1
25 229 1
161 229 1
166 229 1
23 230 1
26 230 1
162 230 1
167 230 1
24 231 1
27 231 1
163 231 1
168 231 1
25 232 1
28 232 1
164 232 1
169 232 1
26 233 1
29 233 1
165 233 1
170 233 1
27 234 1
30 234 1
137 234 1
166 234 1
28 235 1
31 235 1
138 235 1
167 235 1
29 236 1
32 236 1
139 236 1
168 236 1
30 237 1
33 237 1
140 237 1
169 237 1
31 238 1
34 238 1
141 238 1
170 238 1
35 239 1
66 239 1
137 239 1
152 239 1
36 240 1
67 240 1
138 240 1
153 240 1
37 241 1
68 241 1
139 241 1
154 241 1
35 242 1
38 242 1
140 242 1
155 242 1
36 243 1
39 243 1
141 243 1
156 243 1
37 244 1
40 244 1
142 244 1
157 244 1
38 245 1
41 245 1
143 245 1
158 245 1
39 246 1
42 246 1
144 246 1
159 246 1
40 247 1
43 247 1
145 247 1
160 247 1
41 248 1
44 248 1
146 248 1
161 248 1
42 249 1
45 249 1
147 249 1
162 249 1
43 250 1
46 250 1
148 250 1
163 250 1
44 251 1
47 251 1
149 251 1
164 251 1
45 252 1
48 252 1
150 252 1
165 252 1
46 253 1
49 253 1
151 253 1
166 253 1
47 254 1
50 254 1
152 254 1
167 254 1
48 255 1
51 255 1
153 255 1
168 255 1
49 256 1
52 256 1
154 256 1
169 256 1
50 257 1
53 257 1
155 257 1
170 257 1
51 258 1
54 258 1
137 258 1
156 258 1
52 259 1
55 259 1
138 259 1
157 259 1
53 260 1
56 260 1
139 260 1
158 260 1
54 261 1
57 261 1
140 261 1
159 261 1
55 262 1
58 262 1
141 262 1
160 262 1
56 263 1
59 263 1
142 263 1
161 263 1
57 264 1
60 264 1
143 264 1
162 264 1
58 265 1
61 265 1
144 265 1
163 265 1
59 266 1
62 266 1
145 266 1
164 266 1
60 267 1
63 267 1
146 267 1
165 267 1
61 268 1
64 268 1
147 268 1
166 268 1
62 269 1
65 269 1
148 269 1
167 269 1
63 270 1
66 270 1
149 270 1
168 270 1
64 271 1
67 271 1
150 271 1
169 271 1
65 272 1
68 272 1
151 272 1
170 272 1
69 273 1
100 273 1
137 273 1
153 273 1
70 274 1
101 274 1
138 274 1
154 274 1
71 275 1
102 275 1
139 275 1
155 275 1
69 276 1
72 276 1
140 276 1
156 276 1
70 277 1
73 277 1
141 277 1
157 277 1
71 278 1
74 278 1
142 278 1
158 278 1
72 279 1
75 279 1
143 279 1
159 279 1
73 280 1
76 280 1
144 280 1
160 280 1
74 281 1
77 281 1
145 281 1
161 281 1
75 282 1
78 282 1
146 282 1
162 282 1
76 283 1
79 283 1
147 283 1
163 283 1
77 284 1
80 284 1
148 284 1
164 284 1
78 285 1
81 285 1
149 285 1
165 285 1
79 286 1
82 286 1
150 286 1
166 286 1
80 287 1
83 287 1
151 287 1
167 287 1
81 288 1
84 288 1
152 288 1
168 288 1
82 289 1
85 289 1
153 289 1
169 289 1
83 290 1
86 290 1
154 290 1
170 290 1
84 291 1
87 291 1
137 291 1
155 291 1
85 292 1
88 292 1
138 292 1
156 292 1
86 293 1
89 293 1
139 293 1
157 293 1
87 294 1
90 294 1
140 294 1
158 294 1
88 295 1
91 295 1
141 295 1
159 295 1
89 296 1
92 296 1
142 296 1
160 296 1
90 297 1
93 297 1
143 297 1
161 297 1
91 298 1
94 298 1
144 298 1
162 298 1
92 299 1
95 299 1
145 299 1
163 299 1
93 300 1
96 300 1
146 300 1
164 300 1
94 301 1
97 301 1
147 301 1
165 301 1
95 302 1
98 302 1
148 302 1
166 302 1
96 303 1
99 303 1
149 303 1
167 303 1
97 304 1
100 304 1
150 304 1
168 304 1
98 305 1
101 305 1
151 305 1
169 305 1
99 306 1
102 306 1
152 306 1
170 306 1
103 307 1
134 307 1
137 307 1
164 307 1
104 308 1
135 308 1
138 308 1
165 308 1
105 309 1
136 309 1
139 309 1
166 309 1
103 310 1
106 310 1
140 310 1
167 310 1
104 311 1
107 311 1
141 311 1
168 311 1
105 312 1
108 312 1
142 312 1
169 312 1
106 313 1
109 313 1
143 313 1
170 313 1
107 314 1
110 314 1
137 314 1
144 314 1
108 315 1
111 315 1
138 315 1
145 315 1
109 316 1
112 316 1
139 316 1
146 316 1
110 317 1
113 317 1
140 317 1
147 317 1
111 318 1
114 318 1
141 318 1
148 318 1
112 319 1
115 319 1
142 319 1
149 319 1
113 320 1
116 320 1
143 320 1
150 320 1
114 321 1
117 321 1
144 321 1
151 321 1
115 322 1
118 322 1
145 322 1
152 322 1
116 323 1
119 323 1
146 323 1
153 323 1
117 324 1
120 324 1
147 324 1
154 324 1
118 325 1
121 325 1
148 325 1
155 325 1
119 326 1
122 326 1
149 326 1
156 326 1
120 327 1
123 327 1
150 327 1
157 327 1
121 328 1
124 328 1
151 328 1
158 328 1
122 329 1
125 329 1
152 329 1
159 329 1
123 330 1
126 330 1
153 330 1
160 330 1
124 331 1
127 331 1
154 331 1
161 331 1
125 332 1
128 332 1
155 332 1
162 332 1
126 333 1
129 333 1
156 333 1
163 333 1
127 334 1
130 334 1
157 334 1
164 334 1
128 335 1
131 335 1
158 335 1
165 335 1
129 336 1
132 336 1
159 336 1
166 336 1
130 337 1
133 337 1
160 337 1
167 337 1
131 338 1
134 338 1
161 338 1
168 338 1
132 339 1
135 339 1
162 339 1
169 339 1
133 340 1
136 340 1
163 340 1
170 340 1
