%%MatrixMarket matrix coordinate integer general
% Binary matrix; one-based indices; arithmetic over GF(2)
340 340 2040
1 1 1
19 1 1
35 1 1
42 1 1
137 1 1
140 1 1
2 2 1
20 2 1
36 2 1
43 2 1
138 2 1
141 2 1
3 3 1
21 3 1
37 3 1
44 3 1
139 3 1
142 3 1
4 4 1
22 4 1
38 4 1
45 4 1
140 4 1
143 4 1
5 5 1
23 5 1
39 5 1
46 5 1
141 5 1
144 5 1
6 6 1
24 6 1
40 6 1
47 6 1
142 6 1
145 6 1
7 7 1
25 7 1
41 7 1
48 7 1
143 7 1
146 7 1
8 8 1
26 8 1
42 8 1
49 8 1
144 8 1
147 8 1
9 9 1
27 9 1
43 9 1
50 9 1
145 9 1
148 9 1
10 10 1
28 10 1
44 10 1
51 10 1
146 10 1
149 10 1
11 11 1
29 11 1
45 11 1
52 11 1
147 11 1
150 11 1
12 12 1
30 12 1
46 12 1
53 12 1
148 12 1
151 12 1
13 13 1
31 13 1
47 13 1
54 13 1
149 13 1
152 13 1
14 14 1
32 14 1
48 14 1
55 14 1
150 14 1
153 14 1
15 15 1
33 15 1
49 15 1
56 15 1
151 15 1
154 15 1
16 16 1
34 16 1
50 16 1
57 16 1
152 16 1
155 16 1
1 17 1
17 17 1
51 17 1
58 17 1
153 17 1
156 17 1
2 18 1
18 18 1
52 18 1
59 18 1
154 18 1
157 18 1
3 19 1
19 19 1
53 19 1
60 19 1
155 19 1
158 19 1
4 20 1
20 20 1
54 20 1
61 20 1
156 20 1
159 20 1
5 21 1
21 21 1
55 21 1
62 21 1
157 21 1
160 21 1
6 22 1
22 22 1
56 22 1
63 22 1
158 22 1
161 22 1
7 23 1
23 23 1
57 23 1
64 23 1
159 23 1
162 23 1
8 24 1
24 24 1
58 24 1
65 24 1
160 24 1
163 24 1
9 25 1
25 25 1
59 25 1
66 25 1
161 25 1
164 25 1
10 26 1
26 26 1
60 26 1
67 26 1
162 26 1
165 26 1
11 27 1
27 27 1
61 27 1
68 27 1
163 27 1
166 27 1
12 28 1
28 28 1
35 28 1
62 28 1
164 28 1
167 28 1
13 29 1
29 29 1
36 29 1
63 29 1
165 29 1
168 29 1
14 30 1
30 30 1
37 30 1
64 30 1
166 30 1
169 30 1
15 31 1
31 31 1
38 31 1
65 31 1
167 31 1
170 31 1
16 32 1
32 32 1
39 32 1
66 32 1
137 32 1
168 32 1
17 33 1
33 33 1
40 33 1
67 33 1
138 33 1
169 33 1
18 34 1
34 34 1
41 34 1
68 34 1
139 34 1
170 34 1
1 35 1
20 35 1
69 35 1
76 35 1
171 35 1
174 35 1
2 36 1
21 36 1
70 36 1
77 36 1
172 36 1
175 36 1
3 37 1
22 37 1
71 37 1
78 37 1
173 37 1
176 37 1
4 38 1
23 38 1
72 38 1
79 38 1
174 38 1
177 38 1
5 39 1
24 39 1
73 39 1
80 39 1
175 39 1
178 39 1
6 40 1
25 40 1
74 40 1
81 40 1
176 40 1
179 40 1
7 41 1
26 41 1
75 41 1
82 41 1
177 41 1
180 41 1
8 42 1
27 42 1
76 42 1
83 42 1
178 42 1
181 42 1
9 43 1
28 43 1
77 43 1
84 43 1
179 43 1
182 43 1
10 44 1
29 44 1
78 44 1
85 44 1
180 44 1
183 44 1
11 45 1
30 45 1
79 45 1
86 45 1
181 45 1
184 45 1
12 46 1
31 46 1
80 46 1
87 46 1
182 46 1
185 46 1
13 47 1
32 47 1
81 47 1
88 47 1
183 47 1
186 47 1
14 48 1
33 48 1
82 48 1
89 48 1
184 48 1
187 48 1
15 49 1
34 49 1
83 49 1
90 49 1
185 49 1
188 49 1
1 50 1
16 50 1
84 50 1
91 50 1
186 50 1
189 50 1
2 51 1
17 51 1
85 51 1
92 51 1
187 51 1
190 51 1
3 52 1
18 52 1
86 52 1
93 52 1
188 52 1
191 52 1
4 53 1
19 53 1
87 53 1
94 53 1
189 53 1
192 53 1
5 54 1
20 54 1
88 54 1
95 54 1
190 54 1
193 54 1
6 55 1
21 55 1
89 55 1
96 55 1
191 55 1
194 55 1
7 56 1
22 56 1
90 56 1
97 56 1
192 56 1
195 56 1
8 57 1
23 57 1
91 57 1
98 57 1
193 57 1
196 57 1
9 58 1
24 58 1
92 58 1
99 58 1
194 58 1
197 58 1
10 59 1
25 59 1
93 59 1
100 59 1
195 59 1
198 59 1
11 60 1
26 60 1
94 60 1
101 60 1
196 60 1
199 60 1
12 61 1
27 61 1
95 61 1
102 61 1
197 61 1
200 61 1
13 62 1
28 62 1
69 62 1
96 62 1
198 62 1
201 62 1
14 63 1
29 63 1
70 63 1
97 63 1
199 63 1
202 63 1
15 64 1
30 64 1
71 64 1
98 64 1
200 64 1
203 64 1
16 65 1
31 65 1
72 65 1
99 65 1
201 65 1
204 65 1
17 66 1
32 66 1
73 66 1
100 66 1
171 66 1
202 66 1
18 67 1
33 67 1
74 67 1
101 67 1
172 67 1
203 67 1
19 68 1
34 68 1
75 68 1
102 68 1
173 68 1
204 68 1
1 69 1
30 69 1
103 69 1
110 69 1
205 69 1
208 69 1
2 70 1
31 70 1
104 70 1
111 70 1
206 70 1
209 70 1
3 71 1
32 71 1
105 71 1
112 71 1
207 71 1
210 71 1
4 72 1
33 72 1
106 72 1
113 72 1
208 72 1
211 72 1
5 73 1
34 73 1
107 73 1
114 73 1
209 73 1
212 73 1
1 74 1
6 74 1
108 74 1
115 74 1
210 74 1
213 74 1
2 75 1
7 75 1
109 75 1
116 75 1
211 75 1
214 75 1
3 76 1
8 76 1
110 76 1
117 76 1
212 76 1
215 76 1
4 77 1
9 77 1
111 77 1
118 77 1
213 77 1
216 77 1
5 78 1
10 78 1
112 78 1
119 78 1
214 78 1
217 78 1
6 79 1
11 79 1
113 79 1
120 79 1
215 79 1
218 79 1
7 80 1
12 80 1
114 80 1
121 80 1
216 80 1
219 80 1
8 81 1
13 81 1
115 81 1
122 81 1
217 81 1
220 81 1
9 82 1
14 82 1
116 82 1
123 82 1
218 82 1
221 82 1
10 83 1
15 83 1
117 83 1
124 83 1
219 83 1
222 83 1
11 84 1
16 84 1
118 84 1
125 84 1
220 84 1
223 84 1
12 85 1
17 85 1
119 85 1
126 85 1
221 85 1
224 85 1
13 86 1
18 86 1
120 86 1
127 86 1
222 86 1
225 86 1
14 87 1
19 87 1
121 87 1
128 87 1
223 87 1
226 87 1
15 88 1
20 88 1
122 88 1
129 88 1
224 88 1
227 88 1
16 89 1
21 89 1
123 89 1
130 89 1
225 89 1
228 89 1
17 90 1
22 90 1
124 90 1
131 90 1
226 90 1
229 90 1
18 91 1
23 91 1
125 91 1
132 91 1
227 91 1
230 91 1
19 92 1
24 92 1
126 92 1
133 92 1
228 92 1
231 92 1
20 93 1
25 93 1
127 93 1
134 93 1
229 93 1
232 93 1
21 94 1
26 94 1
128 94 1
135 94 1
230 94 1
233 94 1
22 95 1
27 95 1
129 95 1
136 95 1
231 95 1
234 95 1
23 96 1
28 96 1
103 96 1
130 96 1
232 96 1
235 96 1
24 97 1
29 97 1
104 97 1
131 97 1
233 97 1
236 97 1
25 98 1
30 98 1
105 98 1
132 98 1
234 98 1
237 98 1
26 99 1
31 99 1
106 99 1
133 99 1
235 99 1
238 99 1
27 100 1
32 100 1
107 100 1
134 100 1
205 100 1
236 100 1
28 101 1
33 101 1
108 101 1
135 101 1
206 101 1
237 101 1
29 102 1
34 102 1
109 102 1
136 102 1
207 102 1
238 102 1
35 103 1
54 103 1
69 103 1
87 103 1
239 103 1
242 103 1
36 104 1
55 104 1
70 104 1
88 104 1
240 104 1
243 104 1
37 105 1
56 105 1
71 105 1
89 105 1
241 105 1
244 105 1
38 106 1
57 106 1
72 106 1
90 106 1
242 106 1
245 106 1
39 107 1
58 107 1
73 107 1
91 107 1
243 107 1
246 107 1
40 108 1
59 108 1
74 108 1
92 108 1
244 108 1
247 108 1
41 109 1
60 109 1
75 109 1
93 109 1
245 109 1
248 109 1
42 110 1
61 110 1
76 110 1
94 110 1
246 110 1
249 110 1
43 111 1
62 111 1
77 111 1
95 111 1
247 111 1
250 111 1
44 112 1
63 112 1
78 112 1
96 112 1
248 112 1
251 112 1
45 113 1
64 113 1
79 113 1
97 113 1
249 113 1
252 113 1
46 114 1
65 114 1
80 114 1
98 114 1
250 114 1
253 114 1
47 115 1
66 115 1
81 115 1
99 115 1
251 115 1
254 115 1
48 116 1
67 116 1
82 116 1
100 116 1
252 116 1
255 116 1
49 117 1
68 117 1
83 117 1
101 117 1
253 117 1
256 117 1
35 118 1
50 118 1
84 118 1
102 118 1
254 118 1
257 118 1
36 119 1
51 119 1
69 119 1
85 119 1
255 119 1
258 119 1
37 120 1
52 120 1
70 120 1
86 120 1
256 120 1
259 120 1
38 121 1
53 121 1
71 121 1
87 121 1
257 121 1
260 121 1
39 122 1
54 122 1
72 122 1
88 122 1
258 122 1
261 122 1
40 123 1
55 123 1
73 123 1
89 123 1
259 123 1
262 123 1
41 124 1
56 124 1
74 124 1
90 124 1
260 124 1
263 124 1
42 125 1
57 125 1
75 125 1
91 125 1
261 125 1
264 125 1
43 126 1
58 126 1
76 126 1
92 126 1
262 126 1
265 126 1
44 127 1
59 127 1
77 127 1
93 127 1
263 127 1
266 127 1
45 128 1
60 128 1
78 128 1
94 128 1
264 128 1
267 128 1
46 129 1
61 129 1
79 129 1
95 129 1
265 129 1
268 129 1
47 130 1
62 130 1
80 130 1
96 130 1
266 130 1
269 130 1
48 131 1
63 131 1
81 131 1
97 131 1
267 131 1
270 131 1
49 132 1
64 132 1
82 132 1
98 132 1
268 132 1
271 132 1
50 133 1
65 133 1
83 133 1
99 133 1
269 133 1
272 133 1
51 134 1
66 134 1
84 134 1
100 134 1
239 134 1
270 134 1
52 135 1
67 135 1
85 135 1
101 135 1
240 135 1
271 135 1
53 136 1
68 136 1
86 136 1
102 136 1
241 136 1
272 136 1
35 137 1
64 137 1
103 137 1
121 137 1
273 137 1
276 137 1
36 138 1
65 138 1
104 138 1
122 138 1
274 138 1
277 138 1
37 139 1
66 139 1
105 139 1
123 139 1
275 139 1
278 139 1
38 140 1
67 140 1
106 140 1
124 140 1
276 140 1
279 140 1
39 141 1
68 141 1
107 141 1
125 141 1
277 141 1
280 141 1
35 142 1
40 142 1
108 142 1
126 142 1
278 142 1
281 142 1
36 143 1
41 143 1
109 143 1
127 143 1
279 143 1
282 143 1
37 144 1
42 144 1
110 144 1
128 144 1
280 144 1
283 144 1
38 145 1
43 145 1
111 145 1
129 145 1
281 145 1
284 145 1
39 146 1
44 146 1
112 146 1
130 146 1
282 146 1
285 146 1
40 147 1
45 147 1
113 147 1
131 147 1
283 147 1
286 147 1
41 148 1
46 148 1
114 148 1
132 148 1
284 148 1
287 148 1
42 149 1
47 149 1
115 149 1
133 149 1
285 149 1
288 149 1
43 150 1
48 150 1
116 150 1
134 150 1
286 150 1
289 150 1
44 151 1
49 151 1
117 151 1
135 151 1
287 151 1
290 151 1
45 152 1
50 152 1
118 152 1
136 152 1
288 152 1
291 152 1
46 153 1
51 153 1
103 153 1
119 153 1
289 153 1
292 153 1
47 154 1
52 154 1
104 154 1
120 154 1
290 154 1
293 154 1
48 155 1
53 155 1
105 155 1
121 155 1
291 155 1
294 155 1
49 156 1
54 156 1
106 156 1
122 156 1
292 156 1
295 156 1
50 157 1
55 157 1
107 157 1
123 157 1
293 157 1
296 157 1
51 158 1
56 158 1
108 158 1
124 158 1
294 158 1
297 158 1
52 159 1
57 159 1
109 159 1
125 159 1
295 159 1
298 159 1
53 160 1
58 160 1
110 160 1
126 160 1
296 160 1
299 160 1
54 161 1
59 161 1
111 161 1
127 161 1
297 161 1
300 161 1
55 162 1
60 162 1
112 162 1
128 162 1
298 162 1
301 162 1
56 163 1
61 163 1
113 163 1
129 163 1
299 163 1
302 163 1
57 164 1
62 164 1
114 164 1
130 164 1
300 164 1
303 164 1
58 165 1
63 165 1
115 165 1
131 165 1
301 165 1
304 165 1
59 166 1
64 166 1
116 166 1
132 166 1
302 166 1
305 166 1
60 167 1
65 167 1
117 167 1
133 167 1
303 167 1
306 167 1
61 168 1
66 168 1
118 168 1
134 168 1
273 168 1
304 168 1
62 169 1
67 169 1
119 169 1
135 169 1
274 169 1
305 169 1
63 170 1
68 170 1
120 170 1
136 170 1
275 170 1
306 170 1
69 171 1
98 171 1
103 171 1
122 171 1
307 171 1
310 171 1
70 172 1
99 172 1
104 172 1
123 172 1
308 172 1
311 172 1
71 173 1
100 173 1
105 173 1
124 173 1
309 173 1
312 173 1
72 174 1
101 174 1
106 174 1
125 174 1
310 174 1
313 174 1
73 175 1
102 175 1
107 175 1
126 175 1
311 175 1
314 175 1
69 176 1
74 176 1
108 176 1
127 176 1
312 176 1
315 176 1
70 177 1
75 177 1
109 177 1
128 177 1
313 177 1
316 177 1
71 178 1
76 178 1
110 178 1
129 178 1
314 178 1
317 178 1
72 179 1
77 179 1
111 179 1
130 179 1
315 179 1
318 179 1
73 180 1
78 180 1
112 180 1
131 180 1
316 180 1
319 180 1
74 181 1
79 181 1
113 181 1
132 181 1
317 181 1
320 181 1
75 182 1
80 182 1
114 182 1
133 182 1
318 182 1
321 182 1
76 183 1
81 183 1
115 183 1
134 183 1
319 183 1
322 183 1
77 184 1
82 184 1
116 184 1
135 184 1
320 184 1
323 184 1
78 185 1
83 185 1
117 185 1
136 185 1
321 185 1
324 185 1
79 186 1
84 186 1
103 186 1
118 186 1
322 186 1
325 186 1
80 187 1
85 187 1
104 187 1
119 187 1
323 187 1
326 187 1
81 188 1
86 188 1
105 188 1
120 188 1
324 188 1
327 188 1
82 189 1
87 189 1
106 189 1
121 189 1
325 189 1
328 189 1
83 190 1
88 190 1
107 190 1
122 190 1
326 190 1
329 190 1
84 191 1
89 191 1
108 191 1
123 191 1
327 191 1
330 191 1
85 192 1
90 192 1
109 192 1
124 192 1
328 192 1
331 192 1
86 193 1
91 193 1
110 193 1
125 193 1
329 193 1
332 193 1
87 194 1
92 194 1
111 194 1
126 194 1
330 194 1
333 194 1
88 195 1
93 195 1
112 195 1
127 195 1
331 195 1
334 195 1
89 196 1
94 196 1
113 196 1
128 196 1
332 196 1
335 196 1
90 197 1
95 197 1
114 197 1
129 197 1
333 197 1
336 197 1
91 198 1
96 198 1
115 198 1
130 198 1
334 198 1
337 198 1
92 199 1
97 199 1
116 199 1
131 199 1
335 199 1
338 199 1
93 200 1
98 200 1
117 200 1
132 200 1
336 200 1
339 200 1
94 201 1
99 201 1
118 201 1
133 201 1
337 201 1
340 201 1
95 202 1
100 202 1
119 202 1
134 202 1
307 202 1
338 202 1
96 203 1
101 203 1
120 203 1
135 203 1
308 203 1
339 203 1
97 204 1
102 204 1
121 204 1
136 204 1
309 204 1
340 204 1
137 205 1
156 205 1
171 205 1
189 205 1
239 205 1
246 205 1
138 206 1
157 206 1
172 206 1
190 206 1
240 206 1
247 206 1
139 207 1
158 207 1
173 207 1
191 207 1
241 207 1
248 207 1
140 208 1
159 208 1
174 208 1
192 208 1
242 208 1
249 208 1
141 209 1
160 209 1
175 209 1
193 209 1
243 209 1
250 209 1
142 210 1
161 210 1
176 210 1
194 210 1
244 210 1
251 210 1
143 211 1
162 211 1
177 211 1
195 211 1
245 211 1
252 211 1
144 212 1
163 212 1
178 212 1
196 212 1
246 212 1
253 212 1
145 213 1
164 213 1
179 213 1
197 213 1
247 213 1
254 213 1
146 214 1
165 214 1
180 214 1
198 214 1
248 214 1
255 214 1
147 215 1
166 215 1
181 215 1
199 215 1
249 215 1
256 215 1
148 216 1
167 216 1
182 216 1
200 216 1
250 216 1
257 216 1
149 217 1
168 217 1
183 217 1
201 217 1
251 217 1
258 217 1
150 218 1
169 218 1
184 218 1
202 218 1
252 218 1
259 218 1
151 219 1
170 219 1
185 219 1
203 219 1
253 219 1
260 219 1
137 220 1
152 220 1
186 220 1
204 220 1
254 220 1
261 220 1
138 221 1
153 221 1
171 221 1
187 221 1
255 221 1
262 221 1
139 222 1
154 222 1
172 222 1
188 222 1
256 222 1
263 222 1
140 223 1
155 223 1
173 223 1
189 223 1
257 223 1
264 223 1
141 224 1
156 224 1
174 224 1
190 224 1
258 224 1
265 224 1
142 225 1
157 225 1
175 225 1
191 225 1
259 225 1
266 225 1
143 226 1
158 226 1
176 226 1
192 226 1
260 226 1
267 226 1
144 227 1
159 227 1
177 227 1
193 227 1
261 227 1
268 227 1
145 228 1
160 228 1
178 228 1
194 228 1
262 228 1
269 228 1
146 229 1
161 229 1
179 229 1
195 229 1
263 229 1
270 229 1
147 230 1
162 230 1
180 230 1
196 230 1
264 230 1
271 230 1
148 231 1
163 231 1
181 231 1
197 231 1
265 231 1
272 231 1
149 232 1
164 232 1
182 232 1
198 232 1
239 232 1
266 232 1
150 233 1
165 233 1
183 233 1
199 233 1
240 233 1
267 233 1
151 234 1
166 234 1
184 234 1
200 234 1
241 234 1
268 234 1
152 235 1
167 235 1
185 235 1
201 235 1
242 235 1
269 235 1
153 236 1
168 236 1
186 236 1
202 236 1
243 236 1
270 236 1
154 237 1
169 237 1
187 237 1
203 237 1
244 237 1
271 237 1
155 238 1
170 238 1
188 238 1
204 238 1
245 238 1
272 238 1
137 239 1
166 239 1
205 239 1
223 239 1
273 239 1
280 239 1
138 240 1
167 240 1
206 240 1
224 240 1
274 240 1
281 240 1
139 241 1
168 241 1
207 241 1
225 241 1
275 241 1
282 241 1
140 242 1
169 242 1
208 242 1
226 242 1
276 242 1
283 242 1
141 243 1
170 243 1
209 243 1
227 243 1
277 243 1
284 243 1
137 244 1
142 244 1
210 244 1
228 244 1
278 244 1
285 244 1
138 245 1
143 245 1
211 245 1
229 245 1
279 245 1
286 245 1
139 246 1
144 246 1
212 246 1
230 246 1
280 246 1
287 246 1
140 247 1
145 247 1
213 247 1
231 247 1
281 247 1
288 247 1
141 248 1
146 248 1
214 248 1
232 248 1
282 248 1
289 248 1
142 249 1
147 249 1
215 249 1
233 249 1
283 249 1
290 249 1
143 250 1
148 250 1
216 250 1
234 250 1
284 250 1
291 250 1
144 251 1
149 251 1
217 251 1
235 251 1
285 251 1
292 251 1
145 252 1
150 252 1
218 252 1
236 252 1
286 252 1
293 252 1
146 253 1
151 253 1
219 253 1
237 253 1
287 253 1
294 253 1
147 254 1
152 254 1
220 254 1
238 254 1
288 254 1
295 254 1
148 255 1
153 255 1
205 255 1
221 255 1
289 255 1
296 255 1
149 256 1
154 256 1
206 256 1
222 256 1
290 256 1
297 256 1
150 257 1
155 257 1
207 257 1
223 257 1
291 257 1
298 257 1
151 258 1
156 258 1
208 258 1
224 258 1
292 258 1
299 258 1
152 259 1
157 259 1
209 259 1
225 259 1
293 259 1
300 259 1
153 260 1
158 260 1
210 260 1
226 260 1
294 260 1
301 260 1
154 261 1
159 261 1
211 261 1
227 261 1
295 261 1
302 261 1
155 262 1
160 262 1
212 262 1
228 262 1
296 262 1
303 262 1
156 263 1
161 263 1
213 263 1
229 263 1
297 263 1
304 263 1
157 264 1
162 264 1
214 264 1
230 264 1
298 264 1
305 264 1
158 265 1
163 265 1
215 265 1
231 265 1
299 265 1
306 265 1
159 266 1
164 266 1
216 266 1
232 266 1
273 266 1
300 266 1
160 267 1
165 267 1
217 267 1
233 267 1
274 267 1
301 267 1
161 268 1
166 268 1
218 268 1
234 268 1
275 268 1
302 268 1
162 269 1
167 269 1
219 269 1
235 269 1
276 269 1
303 269 1
163 270 1
168 270 1
220 270 1
236 270 1
277 270 1
304 270 1
164 271 1
169 271 1
221 271 1
237 271 1
278 271 1
305 271 1
165 272 1
170 272 1
222 272 1
238 272 1
279 272 1
306 272 1
171 273 1
200 273 1
205 273 1
224 273 1
307 273 1
314 273 1
172 274 1
201 274 1
206 274 1
225 274 1
308 274 1
315 274 1
173 275 1
202 275 1
207 275 1
226 275 1
309 275 1
316 275 1
174 276 1
203 276 1
208 276 1
227 276 1
310 276 1
317 276 1
175 277 1
204 277 1
209 277 1
228 277 1
311 277 1
318 277 1
171 278 1
176 278 1
210 278 1
229 278 1
312 278 1
319 278 1
172 279 1
177 279 1
211 279 1
230 279 1
313 279 1
320 279 1
173 280 1
178 280 1
212 280 1
231 280 1
314 280 1
321 280 1
174 281 1
179 281 1
213 281 1
232 281 1
315 281 1
322 281 1
175 282 1
180 282 1
214 282 1
233 282 1
316 282 1
323 282 1
176 283 1
181 283 1
215 283 1
234 283 1
317 283 1
324 283 1
177 284 1
182 284 1
216 284 1
235 284 1
318 284 1
325 284 1
178 285 1
183 285 1
217 285 1
236 285 1
319 285 1
326 285 1
179 286 1
184 286 1
218 286 1
237 286 1
320 286 1
327 286 1
180 287 1
185 287 1
219 287 1
238 287 1
321 287 1
328 287 1
181 288 1
186 288 1
205 288 1
220 288 1
322 288 1
329 288 1
182 289 1
187 289 1
206 289 1
221 289 1
323 289 1
330 289 1
183 290 1
188 290 1
207 290 1
222 290 1
324 290 1
331 290 1
184 291 1
189 291 1
208 291 1
223 291 1
325 291 1
332 291 1
185 292 1
190 292 1
209 292 1
224 292 1
326 292 1
333 292 1
186 293 1
191 293 1
210 293 1
225 293 1
327 293 1
334 293 1
187 294 1
192 294 1
211 294 1
226 294 1
328 294 1
335 294 1
188 295 1
193 295 1
212 295 1
227 295 1
329 295 1
336 295 1
189 296 1
194 296 1
213 296 1
228 296 1
330 296 1
337 296 1
190 297 1
195 297 1
214 297 1
229 297 1
331 297 1
338 297 1
191 298 1
196 298 1
215 298 1
230 298 1
332 298 1
339 298 1
192 299 1
197 299 1
216 299 1
231 299 1
333 299 1
340 299 1
193 300 1
198 300 1
217 300 1
232 300 1
307 300 1
334 300 1
194 301 1
199 301 1
218 301 1
233 301 1
308 301 1
335 301 1
195 302 1
200 302 1
219 302 1
234 302 1
309 302 1
336 302 1
196 303 1
201 303 1
220 303 1
235 303 1
310 303 1
337 303 1
197 304 1
202 304 1
221 304 1
236 304 1
311 304 1
338 304 1
198 305 1
203 305 1
222 305 1
237 305 1
312 305 1
339 305 1
199 306 1
204 306 1
223 306 1
238 306 1
313 306 1
340 306 1
239 307 1
268 307 1
273 307 1
292 307 1
307 307 1
325 307 1
240 308 1
269 308 1
274 308 1
293 308 1
308 308 1
326 308 1
241 309 1
270 309 1
275 309 1
294 309 1
309 309 1
327 309 1
242 310 1
271 310 1
276 310 1
295 310 1
310 310 1
328 310 1
243 311 1
272 311 1
277 311 1
296 311 1
311 311 1
329 311 1
239 312 1
244 312 1
278 312 1
297 312 1
312 312 1
330 312 1
240 313 1
245 313 1
279 313 1
298 313 1
313 313 1
331 313 1
241 314 1
246 314 1
280 314 1
299 314 1
314 314 1
332 314 1
242 315 1
247 315 1
281 315 1
300 315 1
315 315 1
333 315 1
243 316 1
248 316 1
282 316 1
301 316 1
316 316 1
334 316 1
244 317 1
249 317 1
283 317 1
302 317 1
317 317 1
335 317 1
245 318 1
250 318 1
284 318 1
303 318 1
318 318 1
336 318 1
246 319 1
251 319 1
285 319 1
304 319 1
319 319 1
337 319 1
247 320 1
252 320 1
286 320 1
305 320 1
320 320 1
338 320 1
248 321 1
253 321 1
287 321 1
306 321 1
321 321 1
339 321 1
249 322 1
254 322 1
273 322 1
288 322 1
322 322 1
340 322 1
250 323 1
255 323 1
274 323 1
289 323 1
307 323 1
323 323 1
251 324 1
256 324 1
275 324 1
290 324 1
308 324 1
324 324 1
252 325 1
257 325 1
276 325 1
291 325 1
309 325 1
325 325 1
253 326 1
258 326 1
277 326 1
292 326 1
310 326 1
326 326 1
254 327 1
259 327 1
278 327 1
293 327 1
311 327 1
327 327 1
255 328 1
260 328 1
279 328 1
294 328 1
312 328 1
328 328 1
256 329 1
261 329 1
280 329 1
295 329 1
313 329 1
329 329 1
257 330 1
262 330 1
281 330 1
296 330 1
314 330 1
330 330 1
258 331 1
263 331 1
282 331 1
297 331 1
315 331 1
331 331 1
259 332 1
264 332 1
283 332 1
298 332 1
316 332 1
332 332 1
260 333 1
265 333 1
284 333 1
299 333 1
317 333 1
333 333 1
261 334 1
266 334 1
285 334 1
300 334 1
318 334 1
334 334 1
262 335 1
267 335 1
286 335 1
301 335 1
319 335 1
335 335 1
263 336 1
268 336 1
287 336 1
302 336 1
320 336 1
336 336 1
264 337 1
269 337 1
288 337 1
303 337 1
321 337 1
337 337 1
265 338 1
270 338 1
289 338 1
304 338 1
322 338 1
338 338 1
266 339 1
271 339 1
290 339 1
305 339 1
323 339 1
339 339 1
267 340 1
272 340 1
291 340 1
306 340 1
324 340 1
340 340 1
