%%MatrixMarket matrix coordinate integer general
% Binary matrix; one-based indices; arithmetic over GF(2)
490 490 2940
1 1 1
22 1 1
50 1 1
60 1 1
197 1 1
205 1 1
2 2 1
23 2 1
51 2 1
61 2 1
198 2 1
206 2 1
3 3 1
24 3 1
52 3 1
62 3 1
199 3 1
207 3 1
4 4 1
25 4 1
53 4 1
63 4 1
200 4 1
208 4 1
5 5 1
26 5 1
54 5 1
64 5 1
201 5 1
209 5 1
6 6 1
27 6 1
55 6 1
65 6 1
202 6 1
210 6 1
7 7 1
28 7 1
56 7 1
66 7 1
203 7 1
211 7 1
8 8 1
29 8 1
57 8 1
67 8 1
204 8 1
212 8 1
9 9 1
30 9 1
58 9 1
68 9 1
205 9 1
213 9 1
10 10 1
31 10 1
59 10 1
69 10 1
206 10 1
214 10 1
11 11 1
32 11 1
60 11 1
70 11 1
207 11 1
215 11 1
12 12 1
33 12 1
61 12 1
71 12 1
208 12 1
216 12 1
13 13 1
34 13 1
62 13 1
72 13 1
209 13 1
217 13 1
14 14 1
35 14 1
63 14 1
73 14 1
210 14 1
218 14 1
15 15 1
36 15 1
64 15 1
74 15 1
211 15 1
219 15 1
16 16 1
37 16 1
65 16 1
75 16 1
212 16 1
220 16 1
17 17 1
38 17 1
66 17 1
76 17 1
213 17 1
221 17 1
18 18 1
39 18 1
67 18 1
77 18 1
214 18 1
222 18 1
19 19 1
40 19 1
68 19 1
78 19 1
215 19 1
223 19 1
20 20 1
41 20 1
69 20 1
79 20 1
216 20 1
224 20 1
21 21 1
42 21 1
70 21 1
80 21 1
217 21 1
225 21 1
22 22 1
43 22 1
71 22 1
81 22 1
218 22 1
226 22 1
23 23 1
44 23 1
72 23 1
82 23 1
219 23 1
227 23 1
24 24 1
45 24 1
73 24 1
83 24 1
220 24 1
228 24 1
25 25 1
46 25 1
74 25 1
84 25 1
221 25 1
229 25 1
26 26 1
47 26 1
75 26 1
85 26 1
222 26 1
230 26 1
27 27 1
48 27 1
76 27 1
86 27 1
223 27 1
231 27 1
28 28 1
49 28 1
77 28 1
87 28 1
224 28 1
232 28 1
1 29 1
29 29 1
78 29 1
88 29 1
225 29 1
233 29 1
2 30 1
30 30 1
79 30 1
89 30 1
226 30 1
234 30 1
3 31 1
31 31 1
80 31 1
90 31 1
227 31 1
235 31 1
4 32 1
32 32 1
81 32 1
91 32 1
228 32 1
236 32 1
5 33 1
33 33 1
82 33 1
92 33 1
229 33 1
237 33 1
6 34 1
34 34 1
83 34 1
93 34 1
230 34 1
238 34 1
7 35 1
35 35 1
84 35 1
94 35 1
231 35 1
239 35 1
8 36 1
36 36 1
85 36 1
95 36 1
232 36 1
240 36 1
9 37 1
37 37 1
86 37 1
96 37 1
233 37 1
241 37 1
10 38 1
38 38 1
87 38 1
97 38 1
234 38 1
242 38 1
11 39 1
39 39 1
88 39 1
98 39 1
235 39 1
243 39 1
12 40 1
40 40 1
50 40 1
89 40 1
236 40 1
244 40 1
13 41 1
41 41 1
51 41 1
90 41 1
237 41 1
245 41 1
14 42 1
42 42 1
52 42 1
91 42 1
197 42 1
238 42 1
15 43 1
43 43 1
53 43 1
92 43 1
198 43 1
239 43 1
16 44 1
44 44 1
54 44 1
93 44 1
199 44 1
240 44 1
17 45 1
45 45 1
55 45 1
94 45 1
200 45 1
241 45 1
18 46 1
46 46 1
56 46 1
95 46 1
201 46 1
242 46 1
19 47 1
47 47 1
57 47 1
96 47 1
202 47 1
243 47 1
20 48 1
48 48 1
58 48 1
97 48 1
203 48 1
244 48 1
21 49 1
49 49 1
59 49 1
98 49 1
204 49 1
245 49 1
1 50 1
35 50 1
99 50 1
109 50 1
246 50 1
254 50 1
2 51 1
36 51 1
100 51 1
110 51 1
247 51 1
255 51 1
3 52 1
37 52 1
101 52 1
111 52 1
248 52 1
256 52 1
4 53 1
38 53 1
102 53 1
112 53 1
249 53 1
257 53 1
5 54 1
39 54 1
103 54 1
113 54 1
250 54 1
258 54 1
6 55 1
40 55 1
104 55 1
114 55 1
251 55 1
259 55 1
7 56 1
41 56 1
105 56 1
115 56 1
252 56 1
260 56 1
8 57 1
42 57 1
106 57 1
116 57 1
253 57 1
261 57 1
9 58 1
43 58 1
107 58 1
117 58 1
254 58 1
262 58 1
10 59 1
44 59 1
108 59 1
118 59 1
255 59 1
263 59 1
11 60 1
45 60 1
109 60 1
119 60 1
256 60 1
264 60 1
12 61 1
46 61 1
110 61 1
120 61 1
257 61 1
265 61 1
13 62 1
47 62 1
111 62 1
121 62 1
258 62 1
266 62 1
14 63 1
48 63 1
112 63 1
122 63 1
259 63 1
267 63 1
15 64 1
49 64 1
113 64 1
123 64 1
260 64 1
268 64 1
1 65 1
16 65 1
114 65 1
124 65 1
261 65 1
269 65 1
2 66 1
17 66 1
115 66 1
125 66 1
262 66 1
270 66 1
3 67 1
18 67 1
116 67 1
126 67 1
263 67 1
271 67 1
4 68 1
19 68 1
117 68 1
127 68 1
264 68 1
272 68 1
5 69 1
20 69 1
118 69 1
128 69 1
265 69 1
273 69 1
6 70 1
21 70 1
119 70 1
129 70 1
266 70 1
274 70 1
7 71 1
22 71 1
120 71 1
130 71 1
267 71 1
275 71 1
8 72 1
23 72 1
121 72 1
131 72 1
268 72 1
276 72 1
9 73 1
24 73 1
122 73 1
132 73 1
269 73 1
277 73 1
10 74 1
25 74 1
123 74 1
133 74 1
270 74 1
278 74 1
11 75 1
26 75 1
124 75 1
134 75 1
271 75 1
279 75 1
12 76 1
27 76 1
125 76 1
135 76 1
272 76 1
280 76 1
13 77 1
28 77 1
126 77 1
136 77 1
273 77 1
281 77 1
14 78 1
29 78 1
127 78 1
137 78 1
274 78 1
282 78 1
15 79 1
30 79 1
128 79 1
138 79 1
275 79 1
283 79 1
16 80 1
31 80 1
129 80 1
139 80 1
276 80 1
284 80 1
17 81 1
32 81 1
130 81 1
140 81 1
277 81 1
285 81 1
18 82 1
33 82 1
131 82 1
141 82 1
278 82 1
286 82 1
19 83 1
34 83 1
132 83 1
142 83 1
279 83 1
287 83 1
20 84 1
35 84 1
133 84 1
143 84 1
280 84 1
288 84 1
21 85 1
36 85 1
134 85 1
144 85 1
281 85 1
289 85 1
22 86 1
37 86 1
135 86 1
145 86 1
282 86 1
290 86 1
23 87 1
38 87 1
136 87 1
146 87 1
283 87 1
291 87 1
24 88 1
39 88 1
137 88 1
147 88 1
284 88 1
292 88 1
25 89 1
40 89 1
99 89 1
138 89 1
285 89 1
293 89 1
26 90 1
41 90 1
100 90 1
139 90 1
286 90 1
294 90 1
27 91 1
42 91 1
101 91 1
140 91 1
246 91 1
287 91 1
28 92 1
43 92 1
102 92 1
141 92 1
247 92 1
288 92 1
29 93 1
44 93 1
103 93 1
142 93 1
248 93 1
289 93 1
30 94 1
45 94 1
104 94 1
143 94 1
249 94 1
290 94 1
31 95 1
46 95 1
105 95 1
144 95 1
250 95 1
291 95 1
32 96 1
47 96 1
106 96 1
145 96 1
251 96 1
292 96 1
33 97 1
48 97 1
107 97 1
146 97 1
252 97 1
293 97 1
34 98 1
49 98 1
108 98 1
147 98 1
253 98 1
294 98 1
1 99 1
46 99 1
148 99 1
158 99 1
295 99 1
303 99 1
2 100 1
47 100 1
149 100 1
159 100 1
296 100 1
304 100 1
3 101 1
48 101 1
150 101 1
160 101 1
297 101 1
305 101 1
4 102 1
49 102 1
151 102 1
161 102 1
298 102 1
306 102 1
1 103 1
5 103 1
152 103 1
162 103 1
299 103 1
307 103 1
2 104 1
6 104 1
153 104 1
163 104 1
300 104 1
308 104 1
3 105 1
7 105 1
154 105 1
164 105 1
301 105 1
309 105 1
4 106 1
8 106 1
155 106 1
165 106 1
302 106 1
310 106 1
5 107 1
9 107 1
156 107 1
166 107 1
303 107 1
311 107 1
6 108 1
10 108 1
157 108 1
167 108 1
304 108 1
312 108 1
7 109 1
11 109 1
158 109 1
168 109 1
305 109 1
313 109 1
8 110 1
12 110 1
159 110 1
169 110 1
306 110 1
314 110 1
9 111 1
13 111 1
160 111 1
170 111 1
307 111 1
315 111 1
10 112 1
14 112 1
161 112 1
171 112 1
308 112 1
316 112 1
11 113 1
15 113 1
162 113 1
172 113 1
309 113 1
317 113 1
12 114 1
16 114 1
163 114 1
173 114 1
310 114 1
318 114 1
13 115 1
17 115 1
164 115 1
174 115 1
311 115 1
319 115 1
14 116 1
18 116 1
165 116 1
175 116 1
312 116 1
320 116 1
15 117 1
19 117 1
166 117 1
176 117 1
313 117 1
321 117 1
16 118 1
20 118 1
167 118 1
177 118 1
314 118 1
322 118 1
17 119 1
21 119 1
168 119 1
178 119 1
315 119 1
323 119 1
18 120 1
22 120 1
169 120 1
179 120 1
316 120 1
324 120 1
19 121 1
23 121 1
170 121 1
180 121 1
317 121 1
325 121 1
20 122 1
24 122 1
171 122 1
181 122 1
318 122 1
326 122 1
21 123 1
25 123 1
172 123 1
182 123 1
319 123 1
327 123 1
22 124 1
26 124 1
173 124 1
183 124 1
320 124 1
328 124 1
23 125 1
27 125 1
174 125 1
184 125 1
321 125 1
329 125 1
24 126 1
28 126 1
175 126 1
185 126 1
322 126 1
330 126 1
25 127 1
29 127 1
176 127 1
186 127 1
323 127 1
331 127 1
26 128 1
30 128 1
177 128 1
187 128 1
324 128 1
332 128 1
27 129 1
31 129 1
178 129 1
188 129 1
325 129 1
333 129 1
28 130 1
32 130 1
179 130 1
189 130 1
326 130 1
334 130 1
29 131 1
33 131 1
180 131 1
190 131 1
327 131 1
335 131 1
30 132 1
34 132 1
181 132 1
191 132 1
328 132 1
336 132 1
31 133 1
35 133 1
182 133 1
192 133 1
329 133 1
337 133 1
32 134 1
36 134 1
183 134 1
193 134 1
330 134 1
338 134 1
33 135 1
37 135 1
184 135 1
194 135 1
331 135 1
339 135 1
34 136 1
38 136 1
185 136 1
195 136 1
332 136 1
340 136 1
35 137 1
39 137 1
186 137 1
196 137 1
333 137 1
341 137 1
36 138 1
40 138 1
148 138 1
187 138 1
334 138 1
342 138 1
37 139 1
41 139 1
149 139 1
188 139 1
335 139 1
343 139 1
38 140 1
42 140 1
150 140 1
189 140 1
295 140 1
336 140 1
39 141 1
43 141 1
151 141 1
190 141 1
296 141 1
337 141 1
40 142 1
44 142 1
152 142 1
191 142 1
297 142 1
338 142 1
41 143 1
45 143 1
153 143 1
192 143 1
298 143 1
339 143 1
42 144 1
46 144 1
154 144 1
193 144 1
299 144 1
340 144 1
43 145 1
47 145 1
155 145 1
194 145 1
300 145 1
341 145 1
44 146 1
48 146 1
156 146 1
195 146 1
301 146 1
342 146 1
45 147 1
49 147 1
157 147 1
196 147 1
302 147 1
343 147 1
50 148 1
84 148 1
99 148 1
120 148 1
344 148 1
352 148 1
51 149 1
85 149 1
100 149 1
121 149 1
345 149 1
353 149 1
52 150 1
86 150 1
101 150 1
122 150 1
346 150 1
354 150 1
53 151 1
87 151 1
102 151 1
123 151 1
347 151 1
355 151 1
54 152 1
88 152 1
103 152 1
124 152 1
348 152 1
356 152 1
55 153 1
89 153 1
104 153 1
125 153 1
349 153 1
357 153 1
56 154 1
90 154 1
105 154 1
126 154 1
350 154 1
358 154 1
57 155 1
91 155 1
106 155 1
127 155 1
351 155 1
359 155 1
58 156 1
92 156 1
107 156 1
128 156 1
352 156 1
360 156 1
59 157 1
93 157 1
108 157 1
129 157 1
353 157 1
361 157 1
60 158 1
94 158 1
109 158 1
130 158 1
354 158 1
362 158 1
61 159 1
95 159 1
110 159 1
131 159 1
355 159 1
363 159 1
62 160 1
96 160 1
111 160 1
132 160 1
356 160 1
364 160 1
63 161 1
97 161 1
112 161 1
133 161 1
357 161 1
365 161 1
64 162 1
98 162 1
113 162 1
134 162 1
358 162 1
366 162 1
50 163 1
65 163 1
114 163 1
135 163 1
359 163 1
367 163 1
51 164 1
66 164 1
115 164 1
136 164 1
360 164 1
368 164 1
52 165 1
67 165 1
116 165 1
137 165 1
361 165 1
369 165 1
53 166 1
68 166 1
117 166 1
138 166 1
362 166 1
370 166 1
54 167 1
69 167 1
118 167 1
139 167 1
363 167 1
371 167 1
55 168 1
70 168 1
119 168 1
140 168 1
364 168 1
372 168 1
56 169 1
71 169 1
120 169 1
141 169 1
365 169 1
373 169 1
57 170 1
72 170 1
121 170 1
142 170 1
366 170 1
374 170 1
58 171 1
73 171 1
122 171 1
143 171 1
367 171 1
375 171 1
59 172 1
74 172 1
123 172 1
144 172 1
368 172 1
376 172 1
60 173 1
75 173 1
124 173 1
145 173 1
369 173 1
377 173 1
61 174 1
76 174 1
125 174 1
146 174 1
370 174 1
378 174 1
62 175 1
77 175 1
126 175 1
147 175 1
371 175 1
379 175 1
63 176 1
78 176 1
99 176 1
127 176 1
372 176 1
380 176 1
64 177 1
79 177 1
100 177 1
128 177 1
373 177 1
381 177 1
65 178 1
80 178 1
101 178 1
129 178 1
374 178 1
382 178 1
66 179 1
81 179 1
102 179 1
130 179 1
375 179 1
383 179 1
67 180 1
82 180 1
103 180 1
131 180 1
376 180 1
384 180 1
68 181 1
83 181 1
104 181 1
132 181 1
377 181 1
385 181 1
69 182 1
84 182 1
105 182 1
133 182 1
378 182 1
386 182 1
70 183 1
85 183 1
106 183 1
134 183 1
379 183 1
387 183 1
71 184 1
86 184 1
107 184 1
135 184 1
380 184 1
388 184 1
72 185 1
87 185 1
108 185 1
136 185 1
381 185 1
389 185 1
73 186 1
88 186 1
109 186 1
137 186 1
382 186 1
390 186 1
74 187 1
89 187 1
110 187 1
138 187 1
383 187 1
391 187 1
75 188 1
90 188 1
111 188 1
139 188 1
384 188 1
392 188 1
76 189 1
91 189 1
112 189 1
140 189 1
344 189 1
385 189 1
77 190 1
92 190 1
113 190 1
141 190 1
345 190 1
386 190 1
78 191 1
93 191 1
114 191 1
142 191 1
346 191 1
387 191 1
79 192 1
94 192 1
115 192 1
143 192 1
347 192 1
388 192 1
80 193 1
95 193 1
116 193 1
144 193 1
348 193 1
389 193 1
81 194 1
96 194 1
117 194 1
145 194 1
349 194 1
390 194 1
82 195 1
97 195 1
118 195 1
146 195 1
350 195 1
391 195 1
83 196 1
98 196 1
119 196 1
147 196 1
351 196 1
392 196 1
50 197 1
95 197 1
148 197 1
169 197 1
393 197 1
401 197 1
51 198 1
96 198 1
149 198 1
170 198 1
394 198 1
402 198 1
52 199 1
97 199 1
150 199 1
171 199 1
395 199 1
403 199 1
53 200 1
98 200 1
151 200 1
172 200 1
396 200 1
404 200 1
50 201 1
54 201 1
152 201 1
173 201 1
397 201 1
405 201 1
51 202 1
55 202 1
153 202 1
174 202 1
398 202 1
406 202 1
52 203 1
56 203 1
154 203 1
175 203 1
399 203 1
407 203 1
53 204 1
57 204 1
155 204 1
176 204 1
400 204 1
408 204 1
54 205 1
58 205 1
156 205 1
177 205 1
401 205 1
409 205 1
55 206 1
59 206 1
157 206 1
178 206 1
402 206 1
410 206 1
56 207 1
60 207 1
158 207 1
179 207 1
403 207 1
411 207 1
57 208 1
61 208 1
159 208 1
180 208 1
404 208 1
412 208 1
58 209 1
62 209 1
160 209 1
181 209 1
405 209 1
413 209 1
59 210 1
63 210 1
161 210 1
182 210 1
406 210 1
414 210 1
60 211 1
64 211 1
162 211 1
183 211 1
407 211 1
415 211 1
61 212 1
65 212 1
163 212 1
184 212 1
408 212 1
416 212 1
62 213 1
66 213 1
164 213 1
185 213 1
409 213 1
417 213 1
63 214 1
67 214 1
165 214 1
186 214 1
410 214 1
418 214 1
64 215 1
68 215 1
166 215 1
187 215 1
411 215 1
419 215 1
65 216 1
69 216 1
167 216 1
188 216 1
412 216 1
420 216 1
66 217 1
70 217 1
168 217 1
189 217 1
413 217 1
421 217 1
67 218 1
71 218 1
169 218 1
190 218 1
414 218 1
422 218 1
68 219 1
72 219 1
170 219 1
191 219 1
415 219 1
423 219 1
69 220 1
73 220 1
171 220 1
192 220 1
416 220 1
424 220 1
70 221 1
74 221 1
172 221 1
193 221 1
417 221 1
425 221 1
71 222 1
75 222 1
173 222 1
194 222 1
418 222 1
426 222 1
72 223 1
76 223 1
174 223 1
195 223 1
419 223 1
427 223 1
73 224 1
77 224 1
175 224 1
196 224 1
420 224 1
428 224 1
74 225 1
78 225 1
148 225 1
176 225 1
421 225 1
429 225 1
75 226 1
79 226 1
149 226 1
177 226 1
422 226 1
430 226 1
76 227 1
80 227 1
150 227 1
178 227 1
423 227 1
431 227 1
77 228 1
81 228 1
151 228 1
179 228 1
424 228 1
432 228 1
78 229 1
82 229 1
152 229 1
180 229 1
425 229 1
433 229 1
79 230 1
83 230 1
153 230 1
181 230 1
426 230 1
434 230 1
80 231 1
84 231 1
154 231 1
182 231 1
427 231 1
435 231 1
81 232 1
85 232 1
155 232 1
183 232 1
428 232 1
436 232 1
82 233 1
86 233 1
156 233 1
184 233 1
429 233 1
437 233 1
83 234 1
87 234 1
157 234 1
185 234 1
430 234 1
438 234 1
84 235 1
88 235 1
158 235 1
186 235 1
431 235 1
439 235 1
85 236 1
89 236 1
159 236 1
187 236 1
432 236 1
440 236 1
86 237 1
90 237 1
160 237 1
188 237 1
433 237 1
441 237 1
87 238 1
91 238 1
161 238 1
189 238 1
393 238 1
434 238 1
88 239 1
92 239 1
162 239 1
190 239 1
394 239 1
435 239 1
89 240 1
93 240 1
163 240 1
191 240 1
395 240 1
436 240 1
90 241 1
94 241 1
164 241 1
192 241 1
396 241 1
437 241 1
91 242 1
95 242 1
165 242 1
193 242 1
397 242 1
438 242 1
92 243 1
96 243 1
166 243 1
194 243 1
398 243 1
439 243 1
93 244 1
97 244 1
167 244 1
195 244 1
399 244 1
440 244 1
94 245 1
98 245 1
168 245 1
196 245 1
400 245 1
441 245 1
99 246 1
144 246 1
148 246 1
182 246 1
442 246 1
450 246 1
100 247 1
145 247 1
149 247 1
183 247 1
443 247 1
451 247 1
101 248 1
146 248 1
150 248 1
184 248 1
444 248 1
452 248 1
102 249 1
147 249 1
151 249 1
185 249 1
445 249 1
453 249 1
99 250 1
103 250 1
152 250 1
186 250 1
446 250 1
454 250 1
100 251 1
104 251 1
153 251 1
187 251 1
447 251 1
455 251 1
101 252 1
105 252 1
154 252 1
188 252 1
448 252 1
456 252 1
102 253 1
106 253 1
155 253 1
189 253 1
449 253 1
457 253 1
103 254 1
107 254 1
156 254 1
190 254 1
450 254 1
458 254 1
104 255 1
108 255 1
157 255 1
191 255 1
451 255 1
459 255 1
105 256 1
109 256 1
158 256 1
192 256 1
452 256 1
460 256 1
106 257 1
110 257 1
159 257 1
193 257 1
453 257 1
461 257 1
107 258 1
111 258 1
160 258 1
194 258 1
454 258 1
462 258 1
108 259 1
112 259 1
161 259 1
195 259 1
455 259 1
463 259 1
109 260 1
113 260 1
162 260 1
196 260 1
456 260 1
464 260 1
110 261 1
114 261 1
148 261 1
163 261 1
457 261 1
465 261 1
111 262 1
115 262 1
149 262 1
164 262 1
458 262 1
466 262 1
112 263 1
116 263 1
150 263 1
165 263 1
459 263 1
467 263 1
113 264 1
117 264 1
151 264 1
166 264 1
460 264 1
468 264 1
114 265 1
118 265 1
152 265 1
167 265 1
461 265 1
469 265 1
115 266 1
119 266 1
153 266 1
168 266 1
462 266 1
470 266 1
116 267 1
120 267 1
154 267 1
169 267 1
463 267 1
471 267 1
117 268 1
121 268 1
155 268 1
170 268 1
464 268 1
472 268 1
118 269 1
122 269 1
156 269 1
171 269 1
465 269 1
473 269 1
119 270 1
123 270 1
157 270 1
172 270 1
466 270 1
474 270 1
120 271 1
124 271 1
158 271 1
173 271 1
467 271 1
475 271 1
121 272 1
125 272 1
159 272 1
174 272 1
468 272 1
476 272 1
122 273 1
126 273 1
160 273 1
175 273 1
469 273 1
477 273 1
123 274 1
127 274 1
161 274 1
176 274 1
470 274 1
478 274 1
124 275 1
128 275 1
162 275 1
177 275 1
471 275 1
479 275 1
125 276 1
129 276 1
163 276 1
178 276 1
472 276 1
480 276 1
126 277 1
130 277 1
164 277 1
179 277 1
473 277 1
481 277 1
127 278 1
131 278 1
165 278 1
180 278 1
474 278 1
482 278 1
128 279 1
132 279 1
166 279 1
181 279 1
475 279 1
483 279 1
129 280 1
133 280 1
167 280 1
182 280 1
476 280 1
484 280 1
130 281 1
134 281 1
168 281 1
183 281 1
477 281 1
485 281 1
131 282 1
135 282 1
169 282 1
184 282 1
478 282 1
486 282 1
132 283 1
136 283 1
170 283 1
185 283 1
479 283 1
487 283 1
133 284 1
137 284 1
171 284 1
186 284 1
480 284 1
488 284 1
134 285 1
138 285 1
172 285 1
187 285 1
481 285 1
489 285 1
135 286 1
139 286 1
173 286 1
188 286 1
482 286 1
490 286 1
136 287 1
140 287 1
174 287 1
189 287 1
442 287 1
483 287 1
137 288 1
141 288 1
175 288 1
190 288 1
443 288 1
484 288 1
138 289 1
142 289 1
176 289 1
191 289 1
444 289 1
485 289 1
139 290 1
143 290 1
177 290 1
192 290 1
445 290 1
486 290 1
140 291 1
144 291 1
178 291 1
193 291 1
446 291 1
487 291 1
141 292 1
145 292 1
179 292 1
194 292 1
447 292 1
488 292 1
142 293 1
146 293 1
180 293 1
195 293 1
448 293 1
489 293 1
143 294 1
147 294 1
181 294 1
196 294 1
449 294 1
490 294 1
197 295 1
231 295 1
246 295 1
267 295 1
344 295 1
354 295 1
198 296 1
232 296 1
247 296 1
268 296 1
345 296 1
355 296 1
199 297 1
233 297 1
248 297 1
269 297 1
346 297 1
356 297 1
200 298 1
234 298 1
249 298 1
270 298 1
347 298 1
357 298 1
201 299 1
235 299 1
250 299 1
271 299 1
348 299 1
358 299 1
202 300 1
236 300 1
251 300 1
272 300 1
349 300 1
359 300 1
203 301 1
237 301 1
252 301 1
273 301 1
350 301 1
360 301 1
204 302 1
238 302 1
253 302 1
274 302 1
351 302 1
361 302 1
205 303 1
239 303 1
254 303 1
275 303 1
352 303 1
362 303 1
206 304 1
240 304 1
255 304 1
276 304 1
353 304 1
363 304 1
207 305 1
241 305 1
256 305 1
277 305 1
354 305 1
364 305 1
208 306 1
242 306 1
257 306 1
278 306 1
355 306 1
365 306 1
209 307 1
243 307 1
258 307 1
279 307 1
356 307 1
366 307 1
210 308 1
244 308 1
259 308 1
280 308 1
357 308 1
367 308 1
211 309 1
245 309 1
260 309 1
281 309 1
358 309 1
368 309 1
197 310 1
212 310 1
261 310 1
282 310 1
359 310 1
369 310 1
198 311 1
213 311 1
262 311 1
283 311 1
360 311 1
370 311 1
199 312 1
214 312 1
263 312 1
284 312 1
361 312 1
371 312 1
200 313 1
215 313 1
264 313 1
285 313 1
362 313 1
372 313 1
201 314 1
216 314 1
265 314 1
286 314 1
363 314 1
373 314 1
202 315 1
217 315 1
266 315 1
287 315 1
364 315 1
374 315 1
203 316 1
218 316 1
267 316 1
288 316 1
365 316 1
375 316 1
204 317 1
219 317 1
268 317 1
289 317 1
366 317 1
376 317 1
205 318 1
220 318 1
269 318 1
290 318 1
367 318 1
377 318 1
206 319 1
221 319 1
270 319 1
291 319 1
368 319 1
378 319 1
207 320 1
222 320 1
271 320 1
292 320 1
369 320 1
379 320 1
208 321 1
223 321 1
272 321 1
293 321 1
370 321 1
380 321 1
209 322 1
224 322 1
273 322 1
294 322 1
371 322 1
381 322 1
210 323 1
225 323 1
246 323 1
274 323 1
372 323 1
382 323 1
211 324 1
226 324 1
247 324 1
275 324 1
373 324 1
383 324 1
212 325 1
227 325 1
248 325 1
276 325 1
374 325 1
384 325 1
213 326 1
228 326 1
249 326 1
277 326 1
375 326 1
385 326 1
214 327 1
229 327 1
250 327 1
278 327 1
376 327 1
386 327 1
215 328 1
230 328 1
251 328 1
279 328 1
377 328 1
387 328 1
216 329 1
231 329 1
252 329 1
280 329 1
378 329 1
388 329 1
217 330 1
232 330 1
253 330 1
281 330 1
379 330 1
389 330 1
218 331 1
233 331 1
254 331 1
282 331 1
380 331 1
390 331 1
219 332 1
234 332 1
255 332 1
283 332 1
381 332 1
391 332 1
220 333 1
235 333 1
256 333 1
284 333 1
382 333 1
392 333 1
221 334 1
236 334 1
257 334 1
285 334 1
344 334 1
383 334 1
222 335 1
237 335 1
258 335 1
286 335 1
345 335 1
384 335 1
223 336 1
238 336 1
259 336 1
287 336 1
346 336 1
385 336 1
224 337 1
239 337 1
260 337 1
288 337 1
347 337 1
386 337 1
225 338 1
240 338 1
261 338 1
289 338 1
348 338 1
387 338 1
226 339 1
241 339 1
262 339 1
290 339 1
349 339 1
388 339 1
227 340 1
242 340 1
263 340 1
291 340 1
350 340 1
389 340 1
228 341 1
243 341 1
264 341 1
292 341 1
351 341 1
390 341 1
229 342 1
244 342 1
265 342 1
293 342 1
352 342 1
391 342 1
230 343 1
245 343 1
266 343 1
294 343 1
353 343 1
392 343 1
197 344 1
242 344 1
295 344 1
316 344 1
393 344 1
403 344 1
198 345 1
243 345 1
296 345 1
317 345 1
394 345 1
404 345 1
199 346 1
244 346 1
297 346 1
318 346 1
395 346 1
405 346 1
200 347 1
245 347 1
298 347 1
319 347 1
396 347 1
406 347 1
197 348 1
201 348 1
299 348 1
320 348 1
397 348 1
407 348 1
198 349 1
202 349 1
300 349 1
321 349 1
398 349 1
408 349 1
199 350 1
203 350 1
301 350 1
322 350 1
399 350 1
409 350 1
200 351 1
204 351 1
302 351 1
323 351 1
400 351 1
410 351 1
201 352 1
205 352 1
303 352 1
324 352 1
401 352 1
411 352 1
202 353 1
206 353 1
304 353 1
325 353 1
402 353 1
412 353 1
203 354 1
207 354 1
305 354 1
326 354 1
403 354 1
413 354 1
204 355 1
208 355 1
306 355 1
327 355 1
404 355 1
414 355 1
205 356 1
209 356 1
307 356 1
328 356 1
405 356 1
415 356 1
206 357 1
210 357 1
308 357 1
329 357 1
406 357 1
416 357 1
207 358 1
211 358 1
309 358 1
330 358 1
407 358 1
417 358 1
208 359 1
212 359 1
310 359 1
331 359 1
408 359 1
418 359 1
209 360 1
213 360 1
311 360 1
332 360 1
409 360 1
419 360 1
210 361 1
214 361 1
312 361 1
333 361 1
410 361 1
420 361 1
211 362 1
215 362 1
313 362 1
334 362 1
411 362 1
421 362 1
212 363 1
216 363 1
314 363 1
335 363 1
412 363 1
422 363 1
213 364 1
217 364 1
315 364 1
336 364 1
413 364 1
423 364 1
214 365 1
218 365 1
316 365 1
337 365 1
414 365 1
424 365 1
215 366 1
219 366 1
317 366 1
338 366 1
415 366 1
425 366 1
216 367 1
220 367 1
318 367 1
339 367 1
416 367 1
426 367 1
217 368 1
221 368 1
319 368 1
340 368 1
417 368 1
427 368 1
218 369 1
222 369 1
320 369 1
341 369 1
418 369 1
428 369 1
219 370 1
223 370 1
321 370 1
342 370 1
419 370 1
429 370 1
220 371 1
224 371 1
322 371 1
343 371 1
420 371 1
430 371 1
221 372 1
225 372 1
295 372 1
323 372 1
421 372 1
431 372 1
222 373 1
226 373 1
296 373 1
324 373 1
422 373 1
432 373 1
223 374 1
227 374 1
297 374 1
325 374 1
423 374 1
433 374 1
224 375 1
228 375 1
298 375 1
326 375 1
424 375 1
434 375 1
225 376 1
229 376 1
299 376 1
327 376 1
425 376 1
435 376 1
226 377 1
230 377 1
300 377 1
328 377 1
426 377 1
436 377 1
227 378 1
231 378 1
301 378 1
329 378 1
427 378 1
437 378 1
228 379 1
232 379 1
302 379 1
330 379 1
428 379 1
438 379 1
229 380 1
233 380 1
303 380 1
331 380 1
429 380 1
439 380 1
230 381 1
234 381 1
304 381 1
332 381 1
430 381 1
440 381 1
231 382 1
235 382 1
305 382 1
333 382 1
431 382 1
441 382 1
232 383 1
236 383 1
306 383 1
334 383 1
393 383 1
432 383 1
233 384 1
237 384 1
307 384 1
335 384 1
394 384 1
433 384 1
234 385 1
238 385 1
308 385 1
336 385 1
395 385 1
434 385 1
235 386 1
239 386 1
309 386 1
337 386 1
396 386 1
435 386 1
236 387 1
240 387 1
310 387 1
338 387 1
397 387 1
436 387 1
237 388 1
241 388 1
311 388 1
339 388 1
398 388 1
437 388 1
238 389 1
242 389 1
312 389 1
340 389 1
399 389 1
438 389 1
239 390 1
243 390 1
313 390 1
341 390 1
400 390 1
439 390 1
240 391 1
244 391 1
314 391 1
342 391 1
401 391 1
440 391 1
241 392 1
245 392 1
315 392 1
343 392 1
402 392 1
441 392 1
246 393 1
291 393 1
295 393 1
329 393 1
442 393 1
452 393 1
247 394 1
292 394 1
296 394 1
330 394 1
443 394 1
453 394 1
248 395 1
293 395 1
297 395 1
331 395 1
444 395 1
454 395 1
249 396 1
294 396 1
298 396 1
332 396 1
445 396 1
455 396 1
246 397 1
250 397 1
299 397 1
333 397 1
446 397 1
456 397 1
247 398 1
251 398 1
300 398 1
334 398 1
447 398 1
457 398 1
248 399 1
252 399 1
301 399 1
335 399 1
448 399 1
458 399 1
249 400 1
253 400 1
302 400 1
336 400 1
449 400 1
459 400 1
250 401 1
254 401 1
303 401 1
337 401 1
450 401 1
460 401 1
251 402 1
255 402 1
304 402 1
338 402 1
451 402 1
461 402 1
252 403 1
256 403 1
305 403 1
339 403 1
452 403 1
462 403 1
253 404 1
257 404 1
306 404 1
340 404 1
453 404 1
463 404 1
254 405 1
258 405 1
307 405 1
341 405 1
454 405 1
464 405 1
255 406 1
259 406 1
308 406 1
342 406 1
455 406 1
465 406 1
256 407 1
260 407 1
309 407 1
343 407 1
456 407 1
466 407 1
257 408 1
261 408 1
295 408 1
310 408 1
457 408 1
467 408 1
258 409 1
262 409 1
296 409 1
311 409 1
458 409 1
468 409 1
259 410 1
263 410 1
297 410 1
312 410 1
459 410 1
469 410 1
260 411 1
264 411 1
298 411 1
313 411 1
460 411 1
470 411 1
261 412 1
265 412 1
299 412 1
314 412 1
461 412 1
471 412 1
262 413 1
266 413 1
300 413 1
315 413 1
462 413 1
472 413 1
263 414 1
267 414 1
301 414 1
316 414 1
463 414 1
473 414 1
264 415 1
268 415 1
302 415 1
317 415 1
464 415 1
474 415 1
265 416 1
269 416 1
303 416 1
318 416 1
465 416 1
475 416 1
266 417 1
270 417 1
304 417 1
319 417 1
466 417 1
476 417 1
267 418 1
271 418 1
305 418 1
320 418 1
467 418 1
477 418 1
268 419 1
272 419 1
306 419 1
321 419 1
468 419 1
478 419 1
269 420 1
273 420 1
307 420 1
322 420 1
469 420 1
479 420 1
270 421 1
274 421 1
308 421 1
323 421 1
470 421 1
480 421 1
271 422 1
275 422 1
309 422 1
324 422 1
471 422 1
481 422 1
272 423 1
276 423 1
310 423 1
325 423 1
472 423 1
482 423 1
273 424 1
277 424 1
311 424 1
326 424 1
473 424 1
483 424 1
274 425 1
278 425 1
312 425 1
327 425 1
474 425 1
484 425 1
275 426 1
279 426 1
313 426 1
328 426 1
475 426 1
485 426 1
276 427 1
280 427 1
314 427 1
329 427 1
476 427 1
486 427 1
277 428 1
281 428 1
315 428 1
330 428 1
477 428 1
487 428 1
278 429 1
282 429 1
316 429 1
331 429 1
478 429 1
488 429 1
279 430 1
283 430 1
317 430 1
332 430 1
479 430 1
489 430 1
280 431 1
284 431 1
318 431 1
333 431 1
480 431 1
490 431 1
281 432 1
285 432 1
319 432 1
334 432 1
442 432 1
481 432 1
282 433 1
286 433 1
320 433 1
335 433 1
443 433 1
482 433 1
283 434 1
287 434 1
321 434 1
336 434 1
444 434 1
483 434 1
284 435 1
288 435 1
322 435 1
337 435 1
445 435 1
484 435 1
285 436 1
289 436 1
323 436 1
338 436 1
446 436 1
485 436 1
286 437 1
290 437 1
324 437 1
339 437 1
447 437 1
486 437 1
287 438 1
291 438 1
325 438 1
340 438 1
448 438 1
487 438 1
288 439 1
292 439 1
326 439 1
341 439 1
449 439 1
488 439 1
289 440 1
293 440 1
327 440 1
342 440 1
450 440 1
489 440 1
290 441 1
294 441 1
328 441 1
343 441 1
451 441 1
490 441 1
344 442 1
389 442 1
393 442 1
427 442 1
442 442 1
463 442 1
345 443 1
390 443 1
394 443 1
428 443 1
443 443 1
464 443 1
346 444 1
391 444 1
395 444 1
429 444 1
444 444 1
465 444 1
347 445 1
392 445 1
396 445 1
430 445 1
445 445 1
466 445 1
344 446 1
348 446 1
397 446 1
431 446 1
446 446 1
467 446 1
345 447 1
349 447 1
398 447 1
432 447 1
447 447 1
468 447 1
346 448 1
350 448 1
399 448 1
433 448 1
448 448 1
469 448 1
347 449 1
351 449 1
400 449 1
434 449 1
449 449 1
470 449 1
348 450 1
352 450 1
401 450 1
435 450 1
450 450 1
471 450 1
349 451 1
353 451 1
402 451 1
436 451 1
451 451 1
472 451 1
350 452 1
354 452 1
403 452 1
437 452 1
452 452 1
473 452 1
351 453 1
355 453 1
404 453 1
438 453 1
453 453 1
474 453 1
352 454 1
356 454 1
405 454 1
439 454 1
454 454 1
475 454 1
353 455 1
357 455 1
406 455 1
440 455 1
455 455 1
476 455 1
354 456 1
358 456 1
407 456 1
441 456 1
456 456 1
477 456 1
355 457 1
359 457 1
393 457 1
408 457 1
457 457 1
478 457 1
356 458 1
360 458 1
394 458 1
409 458 1
458 458 1
479 458 1
357 459 1
361 459 1
395 459 1
410 459 1
459 459 1
480 459 1
358 460 1
362 460 1
396 460 1
411 460 1
460 460 1
481 460 1
359 461 1
363 461 1
397 461 1
412 461 1
461 461 1
482 461 1
360 462 1
364 462 1
398 462 1
413 462 1
462 462 1
483 462 1
361 463 1
365 463 1
399 463 1
414 463 1
463 463 1
484 463 1
362 464 1
366 464 1
400 464 1
415 464 1
464 464 1
485 464 1
363 465 1
367 465 1
401 465 1
416 465 1
465 465 1
486 465 1
364 466 1
368 466 1
402 466 1
417 466 1
466 466 1
487 466 1
365 467 1
369 467 1
403 467 1
418 467 1
467 467 1
488 467 1
366 468 1
370 468 1
404 468 1
419 468 1
468 468 1
489 468 1
367 469 1
371 469 1
405 469 1
420 469 1
469 469 1
490 469 1
368 470 1
372 470 1
406 470 1
421 470 1
442 470 1
470 470 1
369 471 1
373 471 1
407 471 1
422 471 1
443 471 1
471 471 1
370 472 1
374 472 1
408 472 1
423 472 1
444 472 1
472 472 1
371 473 1
375 473 1
409 473 1
424 473 1
445 473 1
473 473 1
372 474 1
376 474 1
410 474 1
425 474 1
446 474 1
474 474 1
373 475 1
377 475 1
411 475 1
426 475 1
447 475 1
475 475 1
374 476 1
378 476 1
412 476 1
427 476 1
448 476 1
476 476 1
375 477 1
379 477 1
413 477 1
428 477 1
449 477 1
477 477 1
376 478 1
380 478 1
414 478 1
429 478 1
450 478 1
478 478 1
377 479 1
381 479 1
415 479 1
430 479 1
451 479 1
479 479 1
378 480 1
382 480 1
416 480 1
431 480 1
452 480 1
480 480 1
379 481 1
383 481 1
417 481 1
432 481 1
453 481 1
481 481 1
380 482 1
384 482 1
418 482 1
433 482 1
454 482 1
482 482 1
381 483 1
385 483 1
419 483 1
434 483 1
455 483 1
483 483 1
382 484 1
386 484 1
420 484 1
435 484 1
456 484 1
484 484 1
383 485 1
387 485 1
421 485 1
436 485 1
457 485 1
485 485 1
384 486 1
388 486 1
422 486 1
437 486 1
458 486 1
486 486 1
385 487 1
389 487 1
423 487 1
438 487 1
459 487 1
487 487 1
386 488 1
390 488 1
424 488 1
439 488 1
460 488 1
488 488 1
387 489 1
391 489 1
425 489 1
440 489 1
461 489 1
489 489 1
388 490 1
392 490 1
426 490 1
441 490 1
462 490 1
490 490 1
