%%MatrixMarket matrix coordinate integer general
% Binary matrix; one-based indices; arithmetic over GF(2)
340 510 2040
1 1 1
31 1 1
86 1 1
87 1 1
2 2 1
32 2 1
87 2 1
88 2 1
3 3 1
33 3 1
88 3 1
89 3 1
4 4 1
34 4 1
89 4 1
90 4 1
5 5 1
35 5 1
90 5 1
91 5 1
6 6 1
36 6 1
91 6 1
92 6 1
7 7 1
37 7 1
92 7 1
93 7 1
8 8 1
38 8 1
93 8 1
94 8 1
9 9 1
39 9 1
94 9 1
95 9 1
10 10 1
40 10 1
95 10 1
96 10 1
11 11 1
41 11 1
96 11 1
97 11 1
12 12 1
42 12 1
97 12 1
98 12 1
13 13 1
43 13 1
98 13 1
99 13 1
14 14 1
44 14 1
99 14 1
100 14 1
15 15 1
45 15 1
100 15 1
101 15 1
16 16 1
46 16 1
101 16 1
102 16 1
17 17 1
47 17 1
102 17 1
103 17 1
18 18 1
48 18 1
103 18 1
104 18 1
19 19 1
49 19 1
104 19 1
105 19 1
20 20 1
50 20 1
105 20 1
106 20 1
21 21 1
51 21 1
106 21 1
107 21 1
22 22 1
52 22 1
107 22 1
108 22 1
23 23 1
53 23 1
108 23 1
109 23 1
24 24 1
54 24 1
109 24 1
110 24 1
25 25 1
55 25 1
110 25 1
111 25 1
26 26 1
56 26 1
111 26 1
112 26 1
27 27 1
57 27 1
112 27 1
113 27 1
28 28 1
58 28 1
113 28 1
114 28 1
29 29 1
59 29 1
114 29 1
115 29 1
30 30 1
60 30 1
115 30 1
116 30 1
31 31 1
61 31 1
116 31 1
117 31 1
32 32 1
62 32 1
117 32 1
118 32 1
33 33 1
63 33 1
118 33 1
119 33 1
34 34 1
64 34 1
119 34 1
120 34 1
35 35 1
65 35 1
120 35 1
121 35 1
36 36 1
66 36 1
121 36 1
122 36 1
37 37 1
67 37 1
122 37 1
123 37 1
38 38 1
68 38 1
123 38 1
124 38 1
39 39 1
69 39 1
124 39 1
125 39 1
40 40 1
70 40 1
125 40 1
126 40 1
41 41 1
71 41 1
126 41 1
127 41 1
42 42 1
72 42 1
127 42 1
128 42 1
43 43 1
73 43 1
128 43 1
129 43 1
44 44 1
74 44 1
129 44 1
130 44 1
45 45 1
75 45 1
130 45 1
131 45 1
46 46 1
76 46 1
131 46 1
132 46 1
47 47 1
77 47 1
132 47 1
133 47 1
48 48 1
78 48 1
133 48 1
134 48 1
49 49 1
79 49 1
134 49 1
135 49 1
50 50 1
80 50 1
135 50 1
136 50 1
51 51 1
81 51 1
136 51 1
137 51 1
52 52 1
82 52 1
137 52 1
138 52 1
53 53 1
83 53 1
138 53 1
139 53 1
54 54 1
84 54 1
139 54 1
140 54 1
55 55 1
85 55 1
140 55 1
141 55 1
1 56 1
56 56 1
141 56 1
142 56 1
2 57 1
57 57 1
142 57 1
143 57 1
3 58 1
58 58 1
143 58 1
144 58 1
4 59 1
59 59 1
144 59 1
145 59 1
5 60 1
60 60 1
145 60 1
146 60 1
6 61 1
61 61 1
146 61 1
147 61 1
7 62 1
62 62 1
147 62 1
148 62 1
8 63 1
63 63 1
148 63 1
149 63 1
9 64 1
64 64 1
149 64 1
150 64 1
10 65 1
65 65 1
150 65 1
151 65 1
11 66 1
66 66 1
151 66 1
152 66 1
12 67 1
67 67 1
152 67 1
153 67 1
13 68 1
68 68 1
153 68 1
154 68 1
14 69 1
69 69 1
154 69 1
155 69 1
15 70 1
70 70 1
155 70 1
156 70 1
16 71 1
71 71 1
156 71 1
157 71 1
17 72 1
72 72 1
157 72 1
158 72 1
18 73 1
73 73 1
158 73 1
159 73 1
19 74 1
74 74 1
159 74 1
160 74 1
20 75 1
75 75 1
160 75 1
161 75 1
21 76 1
76 76 1
161 76 1
162 76 1
22 77 1
77 77 1
162 77 1
163 77 1
23 78 1
78 78 1
163 78 1
164 78 1
24 79 1
79 79 1
164 79 1
165 79 1
25 80 1
80 80 1
165 80 1
166 80 1
26 81 1
81 81 1
166 81 1
167 81 1
27 82 1
82 82 1
167 82 1
168 82 1
28 83 1
83 83 1
168 83 1
169 83 1
29 84 1
84 84 1
169 84 1
170 84 1
30 85 1
85 85 1
86 85 1
170 85 1
1 86 1
64 86 1
171 86 1
172 86 1
2 87 1
65 87 1
172 87 1
173 87 1
3 88 1
66 88 1
173 88 1
174 88 1
4 89 1
67 89 1
174 89 1
175 89 1
5 90 1
68 90 1
175 90 1
176 90 1
6 91 1
69 91 1
176 91 1
177 91 1
7 92 1
70 92 1
177 92 1
178 92 1
8 93 1
71 93 1
178 93 1
179 93 1
9 94 1
72 94 1
179 94 1
180 94 1
10 95 1
73 95 1
180 95 1
181 95 1
11 96 1
74 96 1
181 96 1
182 96 1
12 97 1
75 97 1
182 97 1
183 97 1
13 98 1
76 98 1
183 98 1
184 98 1
14 99 1
77 99 1
184 99 1
185 99 1
15 100 1
78 100 1
185 100 1
186 100 1
16 101 1
79 101 1
186 101 1
187 101 1
17 102 1
80 102 1
187 102 1
188 102 1
18 103 1
81 103 1
188 103 1
189 103 1
19 104 1
82 104 1
189 104 1
190 104 1
20 105 1
83 105 1
190 105 1
191 105 1
21 106 1
84 106 1
191 106 1
192 106 1
22 107 1
85 107 1
192 107 1
193 107 1
1 108 1
23 108 1
193 108 1
194 108 1
2 109 1
24 109 1
194 109 1
195 109 1
3 110 1
25 110 1
195 110 1
196 110 1
4 111 1
26 111 1
196 111 1
197 111 1
5 112 1
27 112 1
197 112 1
198 112 1
6 113 1
28 113 1
198 113 1
199 113 1
7 114 1
29 114 1
199 114 1
200 114 1
8 115 1
30 115 1
200 115 1
201 115 1
9 116 1
31 116 1
201 116 1
202 116 1
10 117 1
32 117 1
202 117 1
203 117 1
11 118 1
33 118 1
203 118 1
204 118 1
12 119 1
34 119 1
204 119 1
205 119 1
13 120 1
35 120 1
205 120 1
206 120 1
14 121 1
36 121 1
206 121 1
207 121 1
15 122 1
37 122 1
207 122 1
208 122 1
16 123 1
38 123 1
208 123 1
209 123 1
17 124 1
39 124 1
209 124 1
210 124 1
18 125 1
40 125 1
210 125 1
211 125 1
19 126 1
41 126 1
211 126 1
212 126 1
20 127 1
42 127 1
212 127 1
213 127 1
21 128 1
43 128 1
213 128 1
214 128 1
22 129 1
44 129 1
214 129 1
215 129 1
23 130 1
45 130 1
215 130 1
216 130 1
24 131 1
46 131 1
216 131 1
217 131 1
25 132 1
47 132 1
217 132 1
218 132 1
26 133 1
48 133 1
218 133 1
219 133 1
27 134 1
49 134 1
219 134 1
220 134 1
28 135 1
50 135 1
220 135 1
221 135 1
29 136 1
51 136 1
221 136 1
222 136 1
30 137 1
52 137 1
222 137 1
223 137 1
31 138 1
53 138 1
223 138 1
224 138 1
32 139 1
54 139 1
224 139 1
225 139 1
33 140 1
55 140 1
225 140 1
226 140 1
34 141 1
56 141 1
226 141 1
227 141 1
35 142 1
57 142 1
227 142 1
228 142 1
36 143 1
58 143 1
228 143 1
229 143 1
37 144 1
59 144 1
229 144 1
230 144 1
38 145 1
60 145 1
230 145 1
231 145 1
39 146 1
61 146 1
231 146 1
232 146 1
40 147 1
62 147 1
232 147 1
233 147 1
41 148 1
63 148 1
233 148 1
234 148 1
42 149 1
64 149 1
234 149 1
235 149 1
43 150 1
65 150 1
235 150 1
236 150 1
44 151 1
66 151 1
236 151 1
237 151 1
45 152 1
67 152 1
237 152 1
238 152 1
46 153 1
68 153 1
238 153 1
239 153 1
47 154 1
69 154 1
239 154 1
240 154 1
48 155 1
70 155 1
240 155 1
241 155 1
49 156 1
71 156 1
241 156 1
242 156 1
50 157 1
72 157 1
242 157 1
243 157 1
51 158 1
73 158 1
243 158 1
244 158 1
52 159 1
74 159 1
244 159 1
245 159 1
53 160 1
75 160 1
245 160 1
246 160 1
54 161 1
76 161 1
246 161 1
247 161 1
55 162 1
77 162 1
247 162 1
248 162 1
56 163 1
78 163 1
248 163 1
249 163 1
57 164 1
79 164 1
249 164 1
250 164 1
58 165 1
80 165 1
250 165 1
251 165 1
59 166 1
81 166 1
251 166 1
252 166 1
60 167 1
82 167 1
252 167 1
253 167 1
61 168 1
83 168 1
253 168 1
254 168 1
62 169 1
84 169 1
254 169 1
255 169 1
63 170 1
85 170 1
171 170 1
255 170 1
86 171 1
149 171 1
171 171 1
201 171 1
87 172 1
150 172 1
172 172 1
202 172 1
88 173 1
151 173 1
173 173 1
203 173 1
89 174 1
152 174 1
174 174 1
204 174 1
90 175 1
153 175 1
175 175 1
205 175 1
91 176 1
154 176 1
176 176 1
206 176 1
92 177 1
155 177 1
177 177 1
207 177 1
93 178 1
156 178 1
178 178 1
208 178 1
94 179 1
157 179 1
179 179 1
209 179 1
95 180 1
158 180 1
180 180 1
210 180 1
96 181 1
159 181 1
181 181 1
211 181 1
97 182 1
160 182 1
182 182 1
212 182 1
98 183 1
161 183 1
183 183 1
213 183 1
99 184 1
162 184 1
184 184 1
214 184 1
100 185 1
163 185 1
185 185 1
215 185 1
101 186 1
164 186 1
186 186 1
216 186 1
102 187 1
165 187 1
187 187 1
217 187 1
103 188 1
166 188 1
188 188 1
218 188 1
104 189 1
167 189 1
189 189 1
219 189 1
105 190 1
168 190 1
190 190 1
220 190 1
106 191 1
169 191 1
191 191 1
221 191 1
107 192 1
170 192 1
192 192 1
222 192 1
86 193 1
108 193 1
193 193 1
223 193 1
87 194 1
109 194 1
194 194 1
224 194 1
88 195 1
110 195 1
195 195 1
225 195 1
89 196 1
111 196 1
196 196 1
226 196 1
90 197 1
112 197 1
197 197 1
227 197 1
91 198 1
113 198 1
198 198 1
228 198 1
92 199 1
114 199 1
199 199 1
229 199 1
93 200 1
115 200 1
200 200 1
230 200 1
94 201 1
116 201 1
201 201 1
231 201 1
95 202 1
117 202 1
202 202 1
232 202 1
96 203 1
118 203 1
203 203 1
233 203 1
97 204 1
119 204 1
204 204 1
234 204 1
98 205 1
120 205 1
205 205 1
235 205 1
99 206 1
121 206 1
206 206 1
236 206 1
100 207 1
122 207 1
207 207 1
237 207 1
101 208 1
123 208 1
208 208 1
238 208 1
102 209 1
124 209 1
209 209 1
239 209 1
103 210 1
125 210 1
210 210 1
240 210 1
104 211 1
126 211 1
211 211 1
241 211 1
105 212 1
127 212 1
212 212 1
242 212 1
106 213 1
128 213 1
213 213 1
243 213 1
107 214 1
129 214 1
214 214 1
244 214 1
108 215 1
130 215 1
215 215 1
245 215 1
109 216 1
131 216 1
216 216 1
246 216 1
110 217 1
132 217 1
217 217 1
247 217 1
111 218 1
133 218 1
218 218 1
248 218 1
112 219 1
134 219 1
219 219 1
249 219 1
113 220 1
135 220 1
220 220 1
250 220 1
114 221 1
136 221 1
221 221 1
251 221 1
115 222 1
137 222 1
222 222 1
252 222 1
116 223 1
138 223 1
223 223 1
253 223 1
117 224 1
139 224 1
224 224 1
254 224 1
118 225 1
140 225 1
225 225 1
255 225 1
119 226 1
141 226 1
171 226 1
226 226 1
120 227 1
142 227 1
172 227 1
227 227 1
121 228 1
143 228 1
173 228 1
228 228 1
122 229 1
144 229 1
174 229 1
229 229 1
123 230 1
145 230 1
175 230 1
230 230 1
124 231 1
146 231 1
176 231 1
231 231 1
125 232 1
147 232 1
177 232 1
232 232 1
126 233 1
148 233 1
178 233 1
233 233 1
127 234 1
149 234 1
179 234 1
234 234 1
128 235 1
150 235 1
180 235 1
235 235 1
129 236 1
151 236 1
181 236 1
236 236 1
130 237 1
152 237 1
182 237 1
237 237 1
131 238 1
153 238 1
183 238 1
238 238 1
132 239 1
154 239 1
184 239 1
239 239 1
133 240 1
155 240 1
185 240 1
240 240 1
134 241 1
156 241 1
186 241 1
241 241 1
135 242 1
157 242 1
187 242 1
242 242 1
136 243 1
158 243 1
188 243 1
243 243 1
137 244 1
159 244 1
189 244 1
244 244 1
138 245 1
160 245 1
190 245 1
245 245 1
139 246 1
161 246 1
191 246 1
246 246 1
140 247 1
162 247 1
192 247 1
247 247 1
141 248 1
163 248 1
193 248 1
248 248 1
142 249 1
164 249 1
194 249 1
249 249 1
143 250 1
165 250 1
195 250 1
250 250 1
144 251 1
166 251 1
196 251 1
251 251 1
145 252 1
167 252 1
197 252 1
252 252 1
146 253 1
168 253 1
198 253 1
253 253 1
147 254 1
169 254 1
199 254 1
254 254 1
148 255 1
170 255 1
200 255 1
255 255 1
1 256 1
81 256 1
256 256 1
257 256 1
2 257 1
82 257 1
257 257 1
258 257 1
3 258 1
83 258 1
258 258 1
259 258 1
4 259 1
84 259 1
259 259 1
260 259 1
5 260 1
85 260 1
260 260 1
261 260 1
1 261 1
6 261 1
261 261 1
262 261 1
2 262 1
7 262 1
262 262 1
263 262 1
3 263 1
8 263 1
263 263 1
264 263 1
4 264 1
9 264 1
264 264 1
265 264 1
5 265 1
10 265 1
265 265 1
266 265 1
6 266 1
11 266 1
266 266 1
267 266 1
7 267 1
12 267 1
267 267 1
268 267 1
8 268 1
13 268 1
268 268 1
269 268 1
9 269 1
14 269 1
269 269 1
270 269 1
10 270 1
15 270 1
270 270 1
271 270 1
11 271 1
16 271 1
271 271 1
272 271 1
12 272 1
17 272 1
272 272 1
273 272 1
13 273 1
18 273 1
273 273 1
274 273 1
14 274 1
19 274 1
274 274 1
275 274 1
15 275 1
20 275 1
275 275 1
276 275 1
16 276 1
21 276 1
276 276 1
277 276 1
17 277 1
22 277 1
277 277 1
278 277 1
18 278 1
23 278 1
278 278 1
279 278 1
19 279 1
24 279 1
279 279 1
280 279 1
20 280 1
25 280 1
280 280 1
281 280 1
21 281 1
26 281 1
281 281 1
282 281 1
22 282 1
27 282 1
282 282 1
283 282 1
23 283 1
28 283 1
283 283 1
284 283 1
24 284 1
29 284 1
284 284 1
285 284 1
25 285 1
30 285 1
285 285 1
286 285 1
26 286 1
31 286 1
286 286 1
287 286 1
27 287 1
32 287 1
287 287 1
288 287 1
28 288 1
33 288 1
288 288 1
289 288 1
29 289 1
34 289 1
289 289 1
290 289 1
30 290 1
35 290 1
290 290 1
291 290 1
31 291 1
36 291 1
291 291 1
292 291 1
32 292 1
37 292 1
292 292 1
293 292 1
33 293 1
38 293 1
293 293 1
294 293 1
34 294 1
39 294 1
294 294 1
295 294 1
35 295 1
40 295 1
295 295 1
296 295 1
36 296 1
41 296 1
296 296 1
297 296 1
37 297 1
42 297 1
297 297 1
298 297 1
38 298 1
43 298 1
298 298 1
299 298 1
39 299 1
44 299 1
299 299 1
300 299 1
40 300 1
45 300 1
300 300 1
301 300 1
41 301 1
46 301 1
301 301 1
302 301 1
42 302 1
47 302 1
302 302 1
303 302 1
43 303 1
48 303 1
303 303 1
304 303 1
44 304 1
49 304 1
304 304 1
305 304 1
45 305 1
50 305 1
305 305 1
306 305 1
46 306 1
51 306 1
306 306 1
307 306 1
47 307 1
52 307 1
307 307 1
308 307 1
48 308 1
53 308 1
308 308 1
309 308 1
49 309 1
54 309 1
309 309 1
310 309 1
50 310 1
55 310 1
310 310 1
311 310 1
51 311 1
56 311 1
311 311 1
312 311 1
52 312 1
57 312 1
312 312 1
313 312 1
53 313 1
58 313 1
313 313 1
314 313 1
54 314 1
59 314 1
314 314 1
315 314 1
55 315 1
60 315 1
315 315 1
316 315 1
56 316 1
61 316 1
316 316 1
317 316 1
57 317 1
62 317 1
317 317 1
318 317 1
58 318 1
63 318 1
318 318 1
319 318 1
59 319 1
64 319 1
319 319 1
320 319 1
60 320 1
65 320 1
320 320 1
321 320 1
61 321 1
66 321 1
321 321 1
322 321 1
62 322 1
67 322 1
322 322 1
323 322 1
63 323 1
68 323 1
323 323 1
324 323 1
64 324 1
69 324 1
324 324 1
325 324 1
65 325 1
70 325 1
325 325 1
326 325 1
66 326 1
71 326 1
326 326 1
327 326 1
67 327 1
72 327 1
327 327 1
328 327 1
68 328 1
73 328 1
328 328 1
329 328 1
69 329 1
74 329 1
329 329 1
330 329 1
70 330 1
75 330 1
330 330 1
331 330 1
71 331 1
76 331 1
331 331 1
332 331 1
72 332 1
77 332 1
332 332 1
333 332 1
73 333 1
78 333 1
333 333 1
334 333 1
74 334 1
79 334 1
334 334 1
335 334 1
75 335 1
80 335 1
335 335 1
336 335 1
76 336 1
81 336 1
336 336 1
337 336 1
77 337 1
82 337 1
337 337 1
338 337 1
78 338 1
83 338 1
338 338 1
339 338 1
79 339 1
84 339 1
339 339 1
340 339 1
80 340 1
85 340 1
256 340 1
340 340 1
86 341 1
166 341 1
256 341 1
286 341 1
87 342 1
167 342 1
257 342 1
287 342 1
88 343 1
168 343 1
258 343 1
288 343 1
89 344 1
169 344 1
259 344 1
289 344 1
90 345 1
170 345 1
260 345 1
290 345 1
86 346 1
91 346 1
261 346 1
291 346 1
87 347 1
92 347 1
262 347 1
292 347 1
88 348 1
93 348 1
263 348 1
293 348 1
89 349 1
94 349 1
264 349 1
294 349 1
90 350 1
95 350 1
265 350 1
295 350 1
91 351 1
96 351 1
266 351 1
296 351 1
92 352 1
97 352 1
267 352 1
297 352 1
93 353 1
98 353 1
268 353 1
298 353 1
94 354 1
99 354 1
269 354 1
299 354 1
95 355 1
100 355 1
270 355 1
300 355 1
96 356 1
101 356 1
271 356 1
301 356 1
97 357 1
102 357 1
272 357 1
302 357 1
98 358 1
103 358 1
273 358 1
303 358 1
99 359 1
104 359 1
274 359 1
304 359 1
100 360 1
105 360 1
275 360 1
305 360 1
101 361 1
106 361 1
276 361 1
306 361 1
102 362 1
107 362 1
277 362 1
307 362 1
103 363 1
108 363 1
278 363 1
308 363 1
104 364 1
109 364 1
279 364 1
309 364 1
105 365 1
110 365 1
280 365 1
310 365 1
106 366 1
111 366 1
281 366 1
311 366 1
107 367 1
112 367 1
282 367 1
312 367 1
108 368 1
113 368 1
283 368 1
313 368 1
109 369 1
114 369 1
284 369 1
314 369 1
110 370 1
115 370 1
285 370 1
315 370 1
111 371 1
116 371 1
286 371 1
316 371 1
112 372 1
117 372 1
287 372 1
317 372 1
113 373 1
118 373 1
288 373 1
318 373 1
114 374 1
119 374 1
289 374 1
319 374 1
115 375 1
120 375 1
290 375 1
320 375 1
116 376 1
121 376 1
291 376 1
321 376 1
117 377 1
122 377 1
292 377 1
322 377 1
118 378 1
123 378 1
293 378 1
323 378 1
119 379 1
124 379 1
294 379 1
324 379 1
120 380 1
125 380 1
295 380 1
325 380 1
121 381 1
126 381 1
296 381 1
326 381 1
122 382 1
127 382 1
297 382 1
327 382 1
123 383 1
128 383 1
298 383 1
328 383 1
124 384 1
129 384 1
299 384 1
329 384 1
125 385 1
130 385 1
300 385 1
330 385 1
126 386 1
131 386 1
301 386 1
331 386 1
127 387 1
132 387 1
302 387 1
332 387 1
128 388 1
133 388 1
303 388 1
333 388 1
129 389 1
134 389 1
304 389 1
334 389 1
130 390 1
135 390 1
305 390 1
335 390 1
131 391 1
136 391 1
306 391 1
336 391 1
132 392 1
137 392 1
307 392 1
337 392 1
133 393 1
138 393 1
308 393 1
338 393 1
134 394 1
139 394 1
309 394 1
339 394 1
135 395 1
140 395 1
310 395 1
340 395 1
136 396 1
141 396 1
256 396 1
311 396 1
137 397 1
142 397 1
257 397 1
312 397 1
138 398 1
143 398 1
258 398 1
313 398 1
139 399 1
144 399 1
259 399 1
314 399 1
140 400 1
145 400 1
260 400 1
315 400 1
141 401 1
146 401 1
261 401 1
316 401 1
142 402 1
147 402 1
262 402 1
317 402 1
143 403 1
148 403 1
263 403 1
318 403 1
144 404 1
149 404 1
264 404 1
319 404 1
145 405 1
150 405 1
265 405 1
320 405 1
146 406 1
151 406 1
266 406 1
321 406 1
147 407 1
152 407 1
267 407 1
322 407 1
148 408 1
153 408 1
268 408 1
323 408 1
149 409 1
154 409 1
269 409 1
324 409 1
150 410 1
155 410 1
270 410 1
325 410 1
151 411 1
156 411 1
271 411 1
326 411 1
152 412 1
157 412 1
272 412 1
327 412 1
153 413 1
158 413 1
273 413 1
328 413 1
154 414 1
159 414 1
274 414 1
329 414 1
155 415 1
160 415 1
275 415 1
330 415 1
156 416 1
161 416 1
276 416 1
331 416 1
157 417 1
162 417 1
277 417 1
332 417 1
158 418 1
163 418 1
278 418 1
333 418 1
159 419 1
164 419 1
279 419 1
334 419 1
160 420 1
165 420 1
280 420 1
335 420 1
161 421 1
166 421 1
281 421 1
336 421 1
162 422 1
167 422 1
282 422 1
337 422 1
163 423 1
168 423 1
283 423 1
338 423 1
164 424 1
169 424 1
284 424 1
339 424 1
165 425 1
170 425 1
285 425 1
340 425 1
171 426 1
251 426 1
256 426 1
319 426 1
172 427 1
252 427 1
257 427 1
320 427 1
173 428 1
253 428 1
258 428 1
321 428 1
174 429 1
254 429 1
259 429 1
322 429 1
175 430 1
255 430 1
260 430 1
323 430 1
171 431 1
176 431 1
261 431 1
324 431 1
172 432 1
177 432 1
262 432 1
325 432 1
173 433 1
178 433 1
263 433 1
326 433 1
174 434 1
179 434 1
264 434 1
327 434 1
175 435 1
180 435 1
265 435 1
328 435 1
176 436 1
181 436 1
266 436 1
329 436 1
177 437 1
182 437 1
267 437 1
330 437 1
178 438 1
183 438 1
268 438 1
331 438 1
179 439 1
184 439 1
269 439 1
332 439 1
180 440 1
185 440 1
270 440 1
333 440 1
181 441 1
186 441 1
271 441 1
334 441 1
182 442 1
187 442 1
272 442 1
335 442 1
183 443 1
188 443 1
273 443 1
336 443 1
184 444 1
189 444 1
274 444 1
337 444 1
185 445 1
190 445 1
275 445 1
338 445 1
186 446 1
191 446 1
276 446 1
339 446 1
187 447 1
192 447 1
277 447 1
340 447 1
188 448 1
193 448 1
256 448 1
278 448 1
189 449 1
194 449 1
257 449 1
279 449 1
190 450 1
195 450 1
258 450 1
280 450 1
191 451 1
196 451 1
259 451 1
281 451 1
192 452 1
197 452 1
260 452 1
282 452 1
193 453 1
198 453 1
261 453 1
283 453 1
194 454 1
199 454 1
262 454 1
284 454 1
195 455 1
200 455 1
263 455 1
285 455 1
196 456 1
201 456 1
264 456 1
286 456 1
197 457 1
202 457 1
265 457 1
287 457 1
198 458 1
203 458 1
266 458 1
288 458 1
199 459 1
204 459 1
267 459 1
289 459 1
200 460 1
205 460 1
268 460 1
290 460 1
201 461 1
206 461 1
269 461 1
291 461 1
202 462 1
207 462 1
270 462 1
292 462 1
203 463 1
208 463 1
271 463 1
293 463 1
204 464 1
209 464 1
272 464 1
294 464 1
205 465 1
210 465 1
273 465 1
295 465 1
206 466 1
211 466 1
274 466 1
296 466 1
207 467 1
212 467 1
275 467 1
297 467 1
208 468 1
213 468 1
276 468 1
298 468 1
209 469 1
214 469 1
277 469 1
299 469 1
210 470 1
215 470 1
278 470 1
300 470 1
211 471 1
216 471 1
279 471 1
301 471 1
212 472 1
217 472 1
280 472 1
302 472 1
213 473 1
218 473 1
281 473 1
303 473 1
214 474 1
219 474 1
282 474 1
304 474 1
215 475 1
220 475 1
283 475 1
305 475 1
216 476 1
221 476 1
284 476 1
306 476 1
217 477 1
222 477 1
285 477 1
307 477 1
218 478 1
223 478 1
286 478 1
308 478 1
219 479 1
224 479 1
287 479 1
309 479 1
220 480 1
225 480 1
288 480 1
310 480 1
221 481 1
226 481 1
289 481 1
311 481 1
222 482 1
227 482 1
290 482 1
312 482 1
223 483 1
228 483 1
291 483 1
313 483 1
224 484 1
229 484 1
292 484 1
314 484 1
225 485 1
230 485 1
293 485 1
315 485 1
226 486 1
231 486 1
294 486 1
316 486 1
227 487 1
232 487 1
295 487 1
317 487 1
228 488 1
233 488 1
296 488 1
318 488 1
229 489 1
234 489 1
297 489 1
319 489 1
230 490 1
235 490 1
298 490 1
320 490 1
231 491 1
236 491 1
299 491 1
321 491 1
232 492 1
237 492 1
300 492 1
322 492 1
233 493 1
238 493 1
301 493 1
323 493 1
234 494 1
239 494 1
302 494 1
324 494 1
235 495 1
240 495 1
303 495 1
325 495 1
236 496 1
241 496 1
304 496 1
326 496 1
237 497 1
242 497 1
305 497 1
327 497 1
238 498 1
243 498 1
306 498 1
328 498 1
239 499 1
244 499 1
307 499 1
329 499 1
240 500 1
245 500 1
308 500 1
330 500 1
241 501 1
246 501 1
309 501 1
331 501 1
242 502 1
247 502 1
310 502 1
332 502 1
243 503 1
248 503 1
311 503 1
333 503 1
244 504 1
249 504 1
312 504 1
334 504 1
245 505 1
250 505 1
313 505 1
335 505 1
246 506 1
251 506 1
314 506 1
336 506 1
247 507 1
252 507 1
315 507 1
337 507 1
248 508 1
253 508 1
316 508 1
338 508 1
249 509 1
254 509 1
317 509 1
339 509 1
250 510 1
255 510 1
318 510 1
340 510 1
