%%MatrixMarket matrix coordinate integer general
% Binary matrix; one-based indices; arithmetic over GF(2)
340 510 2040
1 1 1
23 1 1
86 1 1
91 1 1
2 2 1
24 2 1
87 2 1
92 2 1
3 3 1
25 3 1
88 3 1
93 3 1
4 4 1
26 4 1
89 4 1
94 4 1
5 5 1
27 5 1
90 5 1
95 5 1
6 6 1
28 6 1
91 6 1
96 6 1
7 7 1
29 7 1
92 7 1
97 7 1
8 8 1
30 8 1
93 8 1
98 8 1
9 9 1
31 9 1
94 9 1
99 9 1
10 10 1
32 10 1
95 10 1
100 10 1
11 11 1
33 11 1
96 11 1
101 11 1
12 12 1
34 12 1
97 12 1
102 12 1
13 13 1
35 13 1
98 13 1
103 13 1
14 14 1
36 14 1
99 14 1
104 14 1
15 15 1
37 15 1
100 15 1
105 15 1
16 16 1
38 16 1
101 16 1
106 16 1
17 17 1
39 17 1
102 17 1
107 17 1
18 18 1
40 18 1
103 18 1
108 18 1
19 19 1
41 19 1
104 19 1
109 19 1
20 20 1
42 20 1
105 20 1
110 20 1
21 21 1
43 21 1
106 21 1
111 21 1
22 22 1
44 22 1
107 22 1
112 22 1
23 23 1
45 23 1
108 23 1
113 23 1
24 24 1
46 24 1
109 24 1
114 24 1
25 25 1
47 25 1
110 25 1
115 25 1
26 26 1
48 26 1
111 26 1
116 26 1
27 27 1
49 27 1
112 27 1
117 27 1
28 28 1
50 28 1
113 28 1
118 28 1
29 29 1
51 29 1
114 29 1
119 29 1
30 30 1
52 30 1
115 30 1
120 30 1
31 31 1
53 31 1
116 31 1
121 31 1
32 32 1
54 32 1
117 32 1
122 32 1
33 33 1
55 33 1
118 33 1
123 33 1
34 34 1
56 34 1
119 34 1
124 34 1
35 35 1
57 35 1
120 35 1
125 35 1
36 36 1
58 36 1
121 36 1
126 36 1
37 37 1
59 37 1
122 37 1
127 37 1
38 38 1
60 38 1
123 38 1
128 38 1
39 39 1
61 39 1
124 39 1
129 39 1
40 40 1
62 40 1
125 40 1
130 40 1
41 41 1
63 41 1
126 41 1
131 41 1
42 42 1
64 42 1
127 42 1
132 42 1
43 43 1
65 43 1
128 43 1
133 43 1
44 44 1
66 44 1
129 44 1
134 44 1
45 45 1
67 45 1
130 45 1
135 45 1
46 46 1
68 46 1
131 46 1
136 46 1
47 47 1
69 47 1
132 47 1
137 47 1
48 48 1
70 48 1
133 48 1
138 48 1
49 49 1
71 49 1
134 49 1
139 49 1
50 50 1
72 50 1
135 50 1
140 50 1
51 51 1
73 51 1
136 51 1
141 51 1
52 52 1
74 52 1
137 52 1
142 52 1
53 53 1
75 53 1
138 53 1
143 53 1
54 54 1
76 54 1
139 54 1
144 54 1
55 55 1
77 55 1
140 55 1
145 55 1
56 56 1
78 56 1
141 56 1
146 56 1
57 57 1
79 57 1
142 57 1
147 57 1
58 58 1
80 58 1
143 58 1
148 58 1
59 59 1
81 59 1
144 59 1
149 59 1
60 60 1
82 60 1
145 60 1
150 60 1
61 61 1
83 61 1
146 61 1
151 61 1
62 62 1
84 62 1
147 62 1
152 62 1
63 63 1
85 63 1
148 63 1
153 63 1
1 64 1
64 64 1
149 64 1
154 64 1
2 65 1
65 65 1
150 65 1
155 65 1
3 66 1
66 66 1
151 66 1
156 66 1
4 67 1
67 67 1
152 67 1
157 67 1
5 68 1
68 68 1
153 68 1
158 68 1
6 69 1
69 69 1
154 69 1
159 69 1
7 70 1
70 70 1
155 70 1
160 70 1
8 71 1
71 71 1
156 71 1
161 71 1
9 72 1
72 72 1
157 72 1
162 72 1
10 73 1
73 73 1
158 73 1
163 73 1
11 74 1
74 74 1
159 74 1
164 74 1
12 75 1
75 75 1
160 75 1
165 75 1
13 76 1
76 76 1
161 76 1
166 76 1
14 77 1
77 77 1
162 77 1
167 77 1
15 78 1
78 78 1
163 78 1
168 78 1
16 79 1
79 79 1
164 79 1
169 79 1
17 80 1
80 80 1
165 80 1
170 80 1
18 81 1
81 81 1
86 81 1
166 81 1
19 82 1
82 82 1
87 82 1
167 82 1
20 83 1
83 83 1
88 83 1
168 83 1
21 84 1
84 84 1
89 84 1
169 84 1
22 85 1
85 85 1
90 85 1
170 85 1
1 86 1
56 86 1
171 86 1
176 86 1
2 87 1
57 87 1
172 87 1
177 87 1
3 88 1
58 88 1
173 88 1
178 88 1
4 89 1
59 89 1
174 89 1
179 89 1
5 90 1
60 90 1
175 90 1
180 90 1
6 91 1
61 91 1
176 91 1
181 91 1
7 92 1
62 92 1
177 92 1
182 92 1
8 93 1
63 93 1
178 93 1
183 93 1
9 94 1
64 94 1
179 94 1
184 94 1
10 95 1
65 95 1
180 95 1
185 95 1
11 96 1
66 96 1
181 96 1
186 96 1
12 97 1
67 97 1
182 97 1
187 97 1
13 98 1
68 98 1
183 98 1
188 98 1
14 99 1
69 99 1
184 99 1
189 99 1
15 100 1
70 100 1
185 100 1
190 100 1
16 101 1
71 101 1
186 101 1
191 101 1
17 102 1
72 102 1
187 102 1
192 102 1
18 103 1
73 103 1
188 103 1
193 103 1
19 104 1
74 104 1
189 104 1
194 104 1
20 105 1
75 105 1
190 105 1
195 105 1
21 106 1
76 106 1
191 106 1
196 106 1
22 107 1
77 107 1
192 107 1
197 107 1
23 108 1
78 108 1
193 108 1
198 108 1
24 109 1
79 109 1
194 109 1
199 109 1
25 110 1
80 110 1
195 110 1
200 110 1
26 111 1
81 111 1
196 111 1
201 111 1
27 112 1
82 112 1
197 112 1
202 112 1
28 113 1
83 113 1
198 113 1
203 113 1
29 114 1
84 114 1
199 114 1
204 114 1
30 115 1
85 115 1
200 115 1
205 115 1
1 116 1
31 116 1
201 116 1
206 116 1
2 117 1
32 117 1
202 117 1
207 117 1
3 118 1
33 118 1
203 118 1
208 118 1
4 119 1
34 119 1
204 119 1
209 119 1
5 120 1
35 120 1
205 120 1
210 120 1
6 121 1
36 121 1
206 121 1
211 121 1
7 122 1
37 122 1
207 122 1
212 122 1
8 123 1
38 123 1
208 123 1
213 123 1
9 124 1
39 124 1
209 124 1
214 124 1
10 125 1
40 125 1
210 125 1
215 125 1
11 126 1
41 126 1
211 126 1
216 126 1
12 127 1
42 127 1
212 127 1
217 127 1
13 128 1
43 128 1
213 128 1
218 128 1
14 129 1
44 129 1
214 129 1
219 129 1
15 130 1
45 130 1
215 130 1
220 130 1
16 131 1
46 131 1
216 131 1
221 131 1
17 132 1
47 132 1
217 132 1
222 132 1
18 133 1
48 133 1
218 133 1
223 133 1
19 134 1
49 134 1
219 134 1
224 134 1
20 135 1
50 135 1
220 135 1
225 135 1
21 136 1
51 136 1
221 136 1
226 136 1
22 137 1
52 137 1
222 137 1
227 137 1
23 138 1
53 138 1
223 138 1
228 138 1
24 139 1
54 139 1
224 139 1
229 139 1
25 140 1
55 140 1
225 140 1
230 140 1
26 141 1
56 141 1
226 141 1
231 141 1
27 142 1
57 142 1
227 142 1
232 142 1
28 143 1
58 143 1
228 143 1
233 143 1
29 144 1
59 144 1
229 144 1
234 144 1
30 145 1
60 145 1
230 145 1
235 145 1
31 146 1
61 146 1
231 146 1
236 146 1
32 147 1
62 147 1
232 147 1
237 147 1
33 148 1
63 148 1
233 148 1
238 148 1
34 149 1
64 149 1
234 149 1
239 149 1
35 150 1
65 150 1
235 150 1
240 150 1
36 151 1
66 151 1
236 151 1
241 151 1
37 152 1
67 152 1
237 152 1
242 152 1
38 153 1
68 153 1
238 153 1
243 153 1
39 154 1
69 154 1
239 154 1
244 154 1
40 155 1
70 155 1
240 155 1
245 155 1
41 156 1
71 156 1
241 156 1
246 156 1
42 157 1
72 157 1
242 157 1
247 157 1
43 158 1
73 158 1
243 158 1
248 158 1
44 159 1
74 159 1
244 159 1
249 159 1
45 160 1
75 160 1
245 160 1
250 160 1
46 161 1
76 161 1
246 161 1
251 161 1
47 162 1
77 162 1
247 162 1
252 162 1
48 163 1
78 163 1
248 163 1
253 163 1
49 164 1
79 164 1
249 164 1
254 164 1
50 165 1
80 165 1
250 165 1
255 165 1
51 166 1
81 166 1
171 166 1
251 166 1
52 167 1
82 167 1
172 167 1
252 167 1
53 168 1
83 168 1
173 168 1
253 168 1
54 169 1
84 169 1
174 169 1
254 169 1
55 170 1
85 170 1
175 170 1
255 170 1
1 171 1
85 171 1
256 171 1
261 171 1
1 172 1
2 172 1
257 172 1
262 172 1
2 173 1
3 173 1
258 173 1
263 173 1
3 174 1
4 174 1
259 174 1
264 174 1
4 175 1
5 175 1
260 175 1
265 175 1
5 176 1
6 176 1
261 176 1
266 176 1
6 177 1
7 177 1
262 177 1
267 177 1
7 178 1
8 178 1
263 178 1
268 178 1
8 179 1
9 179 1
264 179 1
269 179 1
9 180 1
10 180 1
265 180 1
270 180 1
10 181 1
11 181 1
266 181 1
271 181 1
11 182 1
12 182 1
267 182 1
272 182 1
12 183 1
13 183 1
268 183 1
273 183 1
13 184 1
14 184 1
269 184 1
274 184 1
14 185 1
15 185 1
270 185 1
275 185 1
15 186 1
16 186 1
271 186 1
276 186 1
16 187 1
17 187 1
272 187 1
277 187 1
17 188 1
18 188 1
273 188 1
278 188 1
18 189 1
19 189 1
274 189 1
279 189 1
19 190 1
20 190 1
275 190 1
280 190 1
20 191 1
21 191 1
276 191 1
281 191 1
21 192 1
22 192 1
277 192 1
282 192 1
22 193 1
23 193 1
278 193 1
283 193 1
23 194 1
24 194 1
279 194 1
284 194 1
24 195 1
25 195 1
280 195 1
285 195 1
25 196 1
26 196 1
281 196 1
286 196 1
26 197 1
27 197 1
282 197 1
287 197 1
27 198 1
28 198 1
283 198 1
288 198 1
28 199 1
29 199 1
284 199 1
289 199 1
29 200 1
30 200 1
285 200 1
290 200 1
30 201 1
31 201 1
286 201 1
291 201 1
31 202 1
32 202 1
287 202 1
292 202 1
32 203 1
33 203 1
288 203 1
293 203 1
33 204 1
34 204 1
289 204 1
294 204 1
34 205 1
35 205 1
290 205 1
295 205 1
35 206 1
36 206 1
291 206 1
296 206 1
36 207 1
37 207 1
292 207 1
297 207 1
37 208 1
38 208 1
293 208 1
298 208 1
38 209 1
39 209 1
294 209 1
299 209 1
39 210 1
40 210 1
295 210 1
300 210 1
40 211 1
41 211 1
296 211 1
301 211 1
41 212 1
42 212 1
297 212 1
302 212 1
42 213 1
43 213 1
298 213 1
303 213 1
43 214 1
44 214 1
299 214 1
304 214 1
44 215 1
45 215 1
300 215 1
305 215 1
45 216 1
46 216 1
301 216 1
306 216 1
46 217 1
47 217 1
302 217 1
307 217 1
47 218 1
48 218 1
303 218 1
308 218 1
48 219 1
49 219 1
304 219 1
309 219 1
49 220 1
50 220 1
305 220 1
310 220 1
50 221 1
51 221 1
306 221 1
311 221 1
51 222 1
52 222 1
307 222 1
312 222 1
52 223 1
53 223 1
308 223 1
313 223 1
53 224 1
54 224 1
309 224 1
314 224 1
54 225 1
55 225 1
310 225 1
315 225 1
55 226 1
56 226 1
311 226 1
316 226 1
56 227 1
57 227 1
312 227 1
317 227 1
57 228 1
58 228 1
313 228 1
318 228 1
58 229 1
59 229 1
314 229 1
319 229 1
59 230 1
60 230 1
315 230 1
320 230 1
60 231 1
61 231 1
316 231 1
321 231 1
61 232 1
62 232 1
317 232 1
322 232 1
62 233 1
63 233 1
318 233 1
323 233 1
63 234 1
64 234 1
319 234 1
324 234 1
64 235 1
65 235 1
320 235 1
325 235 1
65 236 1
66 236 1
321 236 1
326 236 1
66 237 1
67 237 1
322 237 1
327 237 1
67 238 1
68 238 1
323 238 1
328 238 1
68 239 1
69 239 1
324 239 1
329 239 1
69 240 1
70 240 1
325 240 1
330 240 1
70 241 1
71 241 1
326 241 1
331 241 1
71 242 1
72 242 1
327 242 1
332 242 1
72 243 1
73 243 1
328 243 1
333 243 1
73 244 1
74 244 1
329 244 1
334 244 1
74 245 1
75 245 1
330 245 1
335 245 1
75 246 1
76 246 1
331 246 1
336 246 1
76 247 1
77 247 1
332 247 1
337 247 1
77 248 1
78 248 1
333 248 1
338 248 1
78 249 1
79 249 1
334 249 1
339 249 1
79 250 1
80 250 1
335 250 1
340 250 1
80 251 1
81 251 1
256 251 1
336 251 1
81 252 1
82 252 1
257 252 1
337 252 1
82 253 1
83 253 1
258 253 1
338 253 1
83 254 1
84 254 1
259 254 1
339 254 1
84 255 1
85 255 1
260 255 1
340 255 1
86 256 1
141 256 1
171 256 1
193 256 1
87 257 1
142 257 1
172 257 1
194 257 1
88 258 1
143 258 1
173 258 1
195 258 1
89 259 1
144 259 1
174 259 1
196 259 1
90 260 1
145 260 1
175 260 1
197 260 1
91 261 1
146 261 1
176 261 1
198 261 1
92 262 1
147 262 1
177 262 1
199 262 1
93 263 1
148 263 1
178 263 1
200 263 1
94 264 1
149 264 1
179 264 1
201 264 1
95 265 1
150 265 1
180 265 1
202 265 1
96 266 1
151 266 1
181 266 1
203 266 1
97 267 1
152 267 1
182 267 1
204 267 1
98 268 1
153 268 1
183 268 1
205 268 1
99 269 1
154 269 1
184 269 1
206 269 1
100 270 1
155 270 1
185 270 1
207 270 1
101 271 1
156 271 1
186 271 1
208 271 1
102 272 1
157 272 1
187 272 1
209 272 1
103 273 1
158 273 1
188 273 1
210 273 1
104 274 1
159 274 1
189 274 1
211 274 1
105 275 1
160 275 1
190 275 1
212 275 1
106 276 1
161 276 1
191 276 1
213 276 1
107 277 1
162 277 1
192 277 1
214 277 1
108 278 1
163 278 1
193 278 1
215 278 1
109 279 1
164 279 1
194 279 1
216 279 1
110 280 1
165 280 1
195 280 1
217 280 1
111 281 1
166 281 1
196 281 1
218 281 1
112 282 1
167 282 1
197 282 1
219 282 1
113 283 1
168 283 1
198 283 1
220 283 1
114 284 1
169 284 1
199 284 1
221 284 1
115 285 1
170 285 1
200 285 1
222 285 1
86 286 1
116 286 1
201 286 1
223 286 1
87 287 1
117 287 1
202 287 1
224 287 1
88 288 1
118 288 1
203 288 1
225 288 1
89 289 1
119 289 1
204 289 1
226 289 1
90 290 1
120 290 1
205 290 1
227 290 1
91 291 1
121 291 1
206 291 1
228 291 1
92 292 1
122 292 1
207 292 1
229 292 1
93 293 1
123 293 1
208 293 1
230 293 1
94 294 1
124 294 1
209 294 1
231 294 1
95 295 1
125 295 1
210 295 1
232 295 1
96 296 1
126 296 1
211 296 1
233 296 1
97 297 1
127 297 1
212 297 1
234 297 1
98 298 1
128 298 1
213 298 1
235 298 1
99 299 1
129 299 1
214 299 1
236 299 1
100 300 1
130 300 1
215 300 1
237 300 1
101 301 1
131 301 1
216 301 1
238 301 1
102 302 1
132 302 1
217 302 1
239 302 1
103 303 1
133 303 1
218 303 1
240 303 1
104 304 1
134 304 1
219 304 1
241 304 1
105 305 1
135 305 1
220 305 1
242 305 1
106 306 1
136 306 1
221 306 1
243 306 1
107 307 1
137 307 1
222 307 1
244 307 1
108 308 1
138 308 1
223 308 1
245 308 1
109 309 1
139 309 1
224 309 1
246 309 1
110 310 1
140 310 1
225 310 1
247 310 1
111 311 1
141 311 1
226 311 1
248 311 1
112 312 1
142 312 1
227 312 1
249 312 1
113 313 1
143 313 1
228 313 1
250 313 1
114 314 1
144 314 1
229 314 1
251 314 1
115 315 1
145 315 1
230 315 1
252 315 1
116 316 1
146 316 1
231 316 1
253 316 1
117 317 1
147 317 1
232 317 1
254 317 1
118 318 1
148 318 1
233 318 1
255 318 1
119 319 1
149 319 1
171 319 1
234 319 1
120 320 1
150 320 1
172 320 1
235 320 1
121 321 1
151 321 1
173 321 1
236 321 1
122 322 1
152 322 1
174 322 1
237 322 1
123 323 1
153 323 1
175 323 1
238 323 1
124 324 1
154 324 1
176 324 1
239 324 1
125 325 1
155 325 1
177 325 1
240 325 1
126 326 1
156 326 1
178 326 1
241 326 1
127 327 1
157 327 1
179 327 1
242 327 1
128 328 1
158 328 1
180 328 1
243 328 1
129 329 1
159 329 1
181 329 1
244 329 1
130 330 1
160 330 1
182 330 1
245 330 1
131 331 1
161 331 1
183 331 1
246 331 1
132 332 1
162 332 1
184 332 1
247 332 1
133 333 1
163 333 1
185 333 1
248 333 1
134 334 1
164 334 1
186 334 1
249 334 1
135 335 1
165 335 1
187 335 1
250 335 1
136 336 1
166 336 1
188 336 1
251 336 1
137 337 1
167 337 1
189 337 1
252 337 1
138 338 1
168 338 1
190 338 1
253 338 1
139 339 1
169 339 1
191 339 1
254 339 1
140 340 1
170 340 1
192 340 1
255 340 1
86 341 1
170 341 1
256 341 1
278 341 1
86 342 1
87 342 1
257 342 1
279 342 1
87 343 1
88 343 1
258 343 1
280 343 1
88 344 1
89 344 1
259 344 1
281 344 1
89 345 1
90 345 1
260 345 1
282 345 1
90 346 1
91 346 1
261 346 1
283 346 1
91 347 1
92 347 1
262 347 1
284 347 1
92 348 1
93 348 1
263 348 1
285 348 1
93 349 1
94 349 1
264 349 1
286 349 1
94 350 1
95 350 1
265 350 1
287 350 1
95 351 1
96 351 1
266 351 1
288 351 1
96 352 1
97 352 1
267 352 1
289 352 1
97 353 1
98 353 1
268 353 1
290 353 1
98 354 1
99 354 1
269 354 1
291 354 1
99 355 1
100 355 1
270 355 1
292 355 1
100 356 1
101 356 1
271 356 1
293 356 1
101 357 1
102 357 1
272 357 1
294 357 1
102 358 1
103 358 1
273 358 1
295 358 1
103 359 1
104 359 1
274 359 1
296 359 1
104 360 1
105 360 1
275 360 1
297 360 1
105 361 1
106 361 1
276 361 1
298 361 1
106 362 1
107 362 1
277 362 1
299 362 1
107 363 1
108 363 1
278 363 1
300 363 1
108 364 1
109 364 1
279 364 1
301 364 1
109 365 1
110 365 1
280 365 1
302 365 1
110 366 1
111 366 1
281 366 1
303 366 1
111 367 1
112 367 1
282 367 1
304 367 1
112 368 1
113 368 1
283 368 1
305 368 1
113 369 1
114 369 1
284 369 1
306 369 1
114 370 1
115 370 1
285 370 1
307 370 1
115 371 1
116 371 1
286 371 1
308 371 1
116 372 1
117 372 1
287 372 1
309 372 1
117 373 1
118 373 1
288 373 1
310 373 1
118 374 1
119 374 1
289 374 1
311 374 1
119 375 1
120 375 1
290 375 1
312 375 1
120 376 1
121 376 1
291 376 1
313 376 1
121 377 1
122 377 1
292 377 1
314 377 1
122 378 1
123 378 1
293 378 1
315 378 1
123 379 1
124 379 1
294 379 1
316 379 1
124 380 1
125 380 1
295 380 1
317 380 1
125 381 1
126 381 1
296 381 1
318 381 1
126 382 1
127 382 1
297 382 1
319 382 1
127 383 1
128 383 1
298 383 1
320 383 1
128 384 1
129 384 1
299 384 1
321 384 1
129 385 1
130 385 1
300 385 1
322 385 1
130 386 1
131 386 1
301 386 1
323 386 1
131 387 1
132 387 1
302 387 1
324 387 1
132 388 1
133 388 1
303 388 1
325 388 1
133 389 1
134 389 1
304 389 1
326 389 1
134 390 1
135 390 1
305 390 1
327 390 1
135 391 1
136 391 1
306 391 1
328 391 1
136 392 1
137 392 1
307 392 1
329 392 1
137 393 1
138 393 1
308 393 1
330 393 1
138 394 1
139 394 1
309 394 1
331 394 1
139 395 1
140 395 1
310 395 1
332 395 1
140 396 1
141 396 1
311 396 1
333 396 1
141 397 1
142 397 1
312 397 1
334 397 1
142 398 1
143 398 1
313 398 1
335 398 1
143 399 1
144 399 1
314 399 1
336 399 1
144 400 1
145 400 1
315 400 1
337 400 1
145 401 1
146 401 1
316 401 1
338 401 1
146 402 1
147 402 1
317 402 1
339 402 1
147 403 1
148 403 1
318 403 1
340 403 1
148 404 1
149 404 1
256 404 1
319 404 1
149 405 1
150 405 1
257 405 1
320 405 1
150 406 1
151 406 1
258 406 1
321 406 1
151 407 1
152 407 1
259 407 1
322 407 1
152 408 1
153 408 1
260 408 1
323 408 1
153 409 1
154 409 1
261 409 1
324 409 1
154 410 1
155 410 1
262 410 1
325 410 1
155 411 1
156 411 1
263 411 1
326 411 1
156 412 1
157 412 1
264 412 1
327 412 1
157 413 1
158 413 1
265 413 1
328 413 1
158 414 1
159 414 1
266 414 1
329 414 1
159 415 1
160 415 1
267 415 1
330 415 1
160 416 1
161 416 1
268 416 1
331 416 1
161 417 1
162 417 1
269 417 1
332 417 1
162 418 1
163 418 1
270 418 1
333 418 1
163 419 1
164 419 1
271 419 1
334 419 1
164 420 1
165 420 1
272 420 1
335 420 1
165 421 1
166 421 1
273 421 1
336 421 1
166 422 1
167 422 1
274 422 1
337 422 1
167 423 1
168 423 1
275 423 1
338 423 1
168 424 1
169 424 1
276 424 1
339 424 1
169 425 1
170 425 1
277 425 1
340 425 1
171 426 1
255 426 1
256 426 1
311 426 1
171 427 1
172 427 1
257 427 1
312 427 1
172 428 1
173 428 1
258 428 1
313 428 1
173 429 1
174 429 1
259 429 1
314 429 1
174 430 1
175 430 1
260 430 1
315 430 1
175 431 1
176 431 1
261 431 1
316 431 1
176 432 1
177 432 1
262 432 1
317 432 1
177 433 1
178 433 1
263 433 1
318 433 1
178 434 1
179 434 1
264 434 1
319 434 1
179 435 1
180 435 1
265 435 1
320 435 1
180 436 1
181 436 1
266 436 1
321 436 1
181 437 1
182 437 1
267 437 1
322 437 1
182 438 1
183 438 1
268 438 1
323 438 1
183 439 1
184 439 1
269 439 1
324 439 1
184 440 1
185 440 1
270 440 1
325 440 1
185 441 1
186 441 1
271 441 1
326 441 1
186 442 1
187 442 1
272 442 1
327 442 1
187 443 1
188 443 1
273 443 1
328 443 1
188 444 1
189 444 1
274 444 1
329 444 1
189 445 1
190 445 1
275 445 1
330 445 1
190 446 1
191 446 1
276 446 1
331 446 1
191 447 1
192 447 1
277 447 1
332 447 1
192 448 1
193 448 1
278 448 1
333 448 1
193 449 1
194 449 1
279 449 1
334 449 1
194 450 1
195 450 1
280 450 1
335 450 1
195 451 1
196 451 1
281 451 1
336 451 1
196 452 1
197 452 1
282 452 1
337 452 1
197 453 1
198 453 1
283 453 1
338 453 1
198 454 1
199 454 1
284 454 1
339 454 1
199 455 1
200 455 1
285 455 1
340 455 1
200 456 1
201 456 1
256 456 1
286 456 1
201 457 1
202 457 1
257 457 1
287 457 1
202 458 1
203 458 1
258 458 1
288 458 1
203 459 1
204 459 1
259 459 1
289 459 1
204 460 1
205 460 1
260 460 1
290 460 1
205 461 1
206 461 1
261 461 1
291 461 1
206 462 1
207 462 1
262 462 1
292 462 1
207 463 1
208 463 1
263 463 1
293 463 1
208 464 1
209 464 1
264 464 1
294 464 1
209 465 1
210 465 1
265 465 1
295 465 1
210 466 1
211 466 1
266 466 1
296 466 1
211 467 1
212 467 1
267 467 1
297 467 1
212 468 1
213 468 1
268 468 1
298 468 1
213 469 1
214 469 1
269 469 1
299 469 1
214 470 1
215 470 1
270 470 1
300 470 1
215 471 1
216 471 1
271 471 1
301 471 1
216 472 1
217 472 1
272 472 1
302 472 1
217 473 1
218 473 1
273 473 1
303 473 1
218 474 1
219 474 1
274 474 1
304 474 1
219 475 1
220 475 1
275 475 1
305 475 1
220 476 1
221 476 1
276 476 1
306 476 1
221 477 1
222 477 1
277 477 1
307 477 1
222 478 1
223 478 1
278 478 1
308 478 1
223 479 1
224 479 1
279 479 1
309 479 1
224 480 1
225 480 1
280 480 1
310 480 1
225 481 1
226 481 1
281 481 1
311 481 1
226 482 1
227 482 1
282 482 1
312 482 1
227 483 1
228 483 1
283 483 1
313 483 1
228 484 1
229 484 1
284 484 1
314 484 1
229 485 1
230 485 1
285 485 1
315 485 1
230 486 1
231 486 1
286 486 1
316 486 1
231 487 1
232 487 1
287 487 1
317 487 1
232 488 1
233 488 1
288 488 1
318 488 1
233 489 1
234 489 1
289 489 1
319 489 1
234 490 1
235 490 1
290 490 1
320 490 1
235 491 1
236 491 1
291 491 1
321 491 1
236 492 1
237 492 1
292 492 1
322 492 1
237 493 1
238 493 1
293 493 1
323 493 1
238 494 1
239 494 1
294 494 1
324 494 1
239 495 1
240 495 1
295 495 1
325 495 1
240 496 1
241 496 1
296 496 1
326 496 1
241 497 1
242 497 1
297 497 1
327 497 1
242 498 1
243 498 1
298 498 1
328 498 1
243 499 1
244 499 1
299 499 1
329 499 1
244 500 1
245 500 1
300 500 1
330 500 1
245 501 1
246 501 1
301 501 1
331 501 1
246 502 1
247 502 1
302 502 1
332 502 1
247 503 1
248 503 1
303 503 1
333 503 1
248 504 1
249 504 1
304 504 1
334 504 1
249 505 1
250 505 1
305 505 1
335 505 1
250 506 1
251 506 1
306 506 1
336 506 1
251 507 1
252 507 1
307 507 1
337 507 1
252 508 1
253 508 1
308 508 1
338 508 1
253 509 1
254 509 1
309 509 1
339 509 1
254 510 1
255 510 1
310 510 1
340 510 1
