%%MatrixMarket matrix coordinate integer general
% Binary matrix; one-based indices; arithmetic over GF(2)
357 595 3570
1 1 1
7 1 1
18 1 1
22 1 1
35 1 1
36 1 1
2 2 1
8 2 1
19 2 1
23 2 1
36 2 1
37 2 1
3 3 1
9 3 1
20 3 1
24 3 1
37 3 1
38 3 1
4 4 1
10 4 1
21 4 1
25 4 1
38 4 1
39 4 1
5 5 1
11 5 1
22 5 1
26 5 1
39 5 1
40 5 1
6 6 1
12 6 1
23 6 1
27 6 1
40 6 1
41 6 1
7 7 1
13 7 1
24 7 1
28 7 1
41 7 1
42 7 1
8 8 1
14 8 1
25 8 1
29 8 1
42 8 1
43 8 1
9 9 1
15 9 1
26 9 1
30 9 1
43 9 1
44 9 1
10 10 1
16 10 1
27 10 1
31 10 1
44 10 1
45 10 1
11 11 1
17 11 1
28 11 1
32 11 1
45 11 1
46 11 1
1 12 1
12 12 1
29 12 1
33 12 1
46 12 1
47 12 1
2 13 1
13 13 1
30 13 1
34 13 1
47 13 1
48 13 1
3 14 1
14 14 1
18 14 1
31 14 1
48 14 1
49 14 1
4 15 1
15 15 1
19 15 1
32 15 1
49 15 1
50 15 1
5 16 1
16 16 1
20 16 1
33 16 1
50 16 1
51 16 1
6 17 1
17 17 1
21 17 1
34 17 1
35 17 1
51 17 1
1 18 1
8 18 1
52 18 1
56 18 1
69 18 1
70 18 1
2 19 1
9 19 1
53 19 1
57 19 1
70 19 1
71 19 1
3 20 1
10 20 1
54 20 1
58 20 1
71 20 1
72 20 1
4 21 1
11 21 1
55 21 1
59 21 1
72 21 1
73 21 1
5 22 1
12 22 1
56 22 1
60 22 1
73 22 1
74 22 1
6 23 1
13 23 1
57 23 1
61 23 1
74 23 1
75 23 1
7 24 1
14 24 1
58 24 1
62 24 1
75 24 1
76 24 1
8 25 1
15 25 1
59 25 1
63 25 1
76 25 1
77 25 1
9 26 1
16 26 1
60 26 1
64 26 1
77 26 1
78 26 1
10 27 1
17 27 1
61 27 1
65 27 1
78 27 1
79 27 1
1 28 1
11 28 1
62 28 1
66 28 1
79 28 1
80 28 1
2 29 1
12 29 1
63 29 1
67 29 1
80 29 1
81 29 1
3 30 1
13 30 1
64 30 1
68 30 1
81 30 1
82 30 1
4 31 1
14 31 1
52 31 1
65 31 1
82 31 1
83 31 1
5 32 1
15 32 1
53 32 1
66 32 1
83 32 1
84 32 1
6 33 1
16 33 1
54 33 1
67 33 1
84 33 1
85 33 1
7 34 1
17 34 1
55 34 1
68 34 1
69 34 1
85 34 1
18 35 1
25 35 1
52 35 1
58 35 1
86 35 1
87 35 1
19 36 1
26 36 1
53 36 1
59 36 1
87 36 1
88 36 1
20 37 1
27 37 1
54 37 1
60 37 1
88 37 1
89 37 1
21 38 1
28 38 1
55 38 1
61 38 1
89 38 1
90 38 1
22 39 1
29 39 1
56 39 1
62 39 1
90 39 1
91 39 1
23 40 1
30 40 1
57 40 1
63 40 1
91 40 1
92 40 1
24 41 1
31 41 1
58 41 1
64 41 1
92 41 1
93 41 1
25 42 1
32 42 1
59 42 1
65 42 1
93 42 1
94 42 1
26 43 1
33 43 1
60 43 1
66 43 1
94 43 1
95 43 1
27 44 1
34 44 1
61 44 1
67 44 1
95 44 1
96 44 1
18 45 1
28 45 1
62 45 1
68 45 1
96 45 1
97 45 1
19 46 1
29 46 1
52 46 1
63 46 1
97 46 1
98 46 1
20 47 1
30 47 1
53 47 1
64 47 1
98 47 1
99 47 1
21 48 1
31 48 1
54 48 1
65 48 1
99 48 1
100 48 1
22 49 1
32 49 1
55 49 1
66 49 1
100 49 1
101 49 1
23 50 1
33 50 1
56 50 1
67 50 1
101 50 1
102 50 1
24 51 1
34 51 1
57 51 1
68 51 1
86 51 1
102 51 1
35 52 1
42 52 1
69 52 1
75 52 1
86 52 1
90 52 1
36 53 1
43 53 1
70 53 1
76 53 1
87 53 1
91 53 1
37 54 1
44 54 1
71 54 1
77 54 1
88 54 1
92 54 1
38 55 1
45 55 1
72 55 1
78 55 1
89 55 1
93 55 1
39 56 1
46 56 1
73 56 1
79 56 1
90 56 1
94 56 1
40 57 1
47 57 1
74 57 1
80 57 1
91 57 1
95 57 1
41 58 1
48 58 1
75 58 1
81 58 1
92 58 1
96 58 1
42 59 1
49 59 1
76 59 1
82 59 1
93 59 1
97 59 1
43 60 1
50 60 1
77 60 1
83 60 1
94 60 1
98 60 1
44 61 1
51 61 1
78 61 1
84 61 1
95 61 1
99 61 1
35 62 1
45 62 1
79 62 1
85 62 1
96 62 1
100 62 1
36 63 1
46 63 1
69 63 1
80 63 1
97 63 1
101 63 1
37 64 1
47 64 1
70 64 1
81 64 1
98 64 1
102 64 1
38 65 1
48 65 1
71 65 1
82 65 1
86 65 1
99 65 1
39 66 1
49 66 1
72 66 1
83 66 1
87 66 1
100 66 1
40 67 1
50 67 1
73 67 1
84 67 1
88 67 1
101 67 1
41 68 1
51 68 1
74 68 1
85 68 1
89 68 1
102 68 1
1 69 1
10 69 1
103 69 1
107 69 1
120 69 1
121 69 1
2 70 1
11 70 1
104 70 1
108 70 1
121 70 1
122 70 1
3 71 1
12 71 1
105 71 1
109 71 1
122 71 1
123 71 1
4 72 1
13 72 1
106 72 1
110 72 1
123 72 1
124 72 1
5 73 1
14 73 1
107 73 1
111 73 1
124 73 1
125 73 1
6 74 1
15 74 1
108 74 1
112 74 1
125 74 1
126 74 1
7 75 1
16 75 1
109 75 1
113 75 1
126 75 1
127 75 1
8 76 1
17 76 1
110 76 1
114 76 1
127 76 1
128 76 1
1 77 1
9 77 1
111 77 1
115 77 1
128 77 1
129 77 1
2 78 1
10 78 1
112 78 1
116 78 1
129 78 1
130 78 1
3 79 1
11 79 1
113 79 1
117 79 1
130 79 1
131 79 1
4 80 1
12 80 1
114 80 1
118 80 1
131 80 1
132 80 1
5 81 1
13 81 1
115 81 1
119 81 1
132 81 1
133 81 1
6 82 1
14 82 1
103 82 1
116 82 1
133 82 1
134 82 1
7 83 1
15 83 1
104 83 1
117 83 1
134 83 1
135 83 1
8 84 1
16 84 1
105 84 1
118 84 1
135 84 1
136 84 1
9 85 1
17 85 1
106 85 1
119 85 1
120 85 1
136 85 1
18 86 1
27 86 1
103 86 1
109 86 1
137 86 1
138 86 1
19 87 1
28 87 1
104 87 1
110 87 1
138 87 1
139 87 1
20 88 1
29 88 1
105 88 1
111 88 1
139 88 1
140 88 1
21 89 1
30 89 1
106 89 1
112 89 1
140 89 1
141 89 1
22 90 1
31 90 1
107 90 1
113 90 1
141 90 1
142 90 1
23 91 1
32 91 1
108 91 1
114 91 1
142 91 1
143 91 1
24 92 1
33 92 1
109 92 1
115 92 1
143 92 1
144 92 1
25 93 1
34 93 1
110 93 1
116 93 1
144 93 1
145 93 1
18 94 1
26 94 1
111 94 1
117 94 1
145 94 1
146 94 1
19 95 1
27 95 1
112 95 1
118 95 1
146 95 1
147 95 1
20 96 1
28 96 1
113 96 1
119 96 1
147 96 1
148 96 1
21 97 1
29 97 1
103 97 1
114 97 1
148 97 1
149 97 1
22 98 1
30 98 1
104 98 1
115 98 1
149 98 1
150 98 1
23 99 1
31 99 1
105 99 1
116 99 1
150 99 1
151 99 1
24 100 1
32 100 1
106 100 1
117 100 1
151 100 1
152 100 1
25 101 1
33 101 1
107 101 1
118 101 1
152 101 1
153 101 1
26 102 1
34 102 1
108 102 1
119 102 1
137 102 1
153 102 1
35 103 1
44 103 1
120 103 1
126 103 1
137 103 1
141 103 1
36 104 1
45 104 1
121 104 1
127 104 1
138 104 1
142 104 1
37 105 1
46 105 1
122 105 1
128 105 1
139 105 1
143 105 1
38 106 1
47 106 1
123 106 1
129 106 1
140 106 1
144 106 1
39 107 1
48 107 1
124 107 1
130 107 1
141 107 1
145 107 1
40 108 1
49 108 1
125 108 1
131 108 1
142 108 1
146 108 1
41 109 1
50 109 1
126 109 1
132 109 1
143 109 1
147 109 1
42 110 1
51 110 1
127 110 1
133 110 1
144 110 1
148 110 1
35 111 1
43 111 1
128 111 1
134 111 1
145 111 1
149 111 1
36 112 1
44 112 1
129 112 1
135 112 1
146 112 1
150 112 1
37 113 1
45 113 1
130 113 1
136 113 1
147 113 1
151 113 1
38 114 1
46 114 1
120 114 1
131 114 1
148 114 1
152 114 1
39 115 1
47 115 1
121 115 1
132 115 1
149 115 1
153 115 1
40 116 1
48 116 1
122 116 1
133 116 1
137 116 1
150 116 1
41 117 1
49 117 1
123 117 1
134 117 1
138 117 1
151 117 1
42 118 1
50 118 1
124 118 1
135 118 1
139 118 1
152 118 1
43 119 1
51 119 1
125 119 1
136 119 1
140 119 1
153 119 1
52 120 1
61 120 1
103 120 1
110 120 1
154 120 1
155 120 1
53 121 1
62 121 1
104 121 1
111 121 1
155 121 1
156 121 1
54 122 1
63 122 1
105 122 1
112 122 1
156 122 1
157 122 1
55 123 1
64 123 1
106 123 1
113 123 1
157 123 1
158 123 1
56 124 1
65 124 1
107 124 1
114 124 1
158 124 1
159 124 1
57 125 1
66 125 1
108 125 1
115 125 1
159 125 1
160 125 1
58 126 1
67 126 1
109 126 1
116 126 1
160 126 1
161 126 1
59 127 1
68 127 1
110 127 1
117 127 1
161 127 1
162 127 1
52 128 1
60 128 1
111 128 1
118 128 1
162 128 1
163 128 1
53 129 1
61 129 1
112 129 1
119 129 1
163 129 1
164 129 1
54 130 1
62 130 1
103 130 1
113 130 1
164 130 1
165 130 1
55 131 1
63 131 1
104 131 1
114 131 1
165 131 1
166 131 1
56 132 1
64 132 1
105 132 1
115 132 1
166 132 1
167 132 1
57 133 1
65 133 1
106 133 1
116 133 1
167 133 1
168 133 1
58 134 1
66 134 1
107 134 1
117 134 1
168 134 1
169 134 1
59 135 1
67 135 1
108 135 1
118 135 1
169 135 1
170 135 1
60 136 1
68 136 1
109 136 1
119 136 1
154 136 1
170 136 1
69 137 1
78 137 1
120 137 1
127 137 1
154 137 1
158 137 1
70 138 1
79 138 1
121 138 1
128 138 1
155 138 1
159 138 1
71 139 1
80 139 1
122 139 1
129 139 1
156 139 1
160 139 1
72 140 1
81 140 1
123 140 1
130 140 1
157 140 1
161 140 1
73 141 1
82 141 1
124 141 1
131 141 1
158 141 1
162 141 1
74 142 1
83 142 1
125 142 1
132 142 1
159 142 1
163 142 1
75 143 1
84 143 1
126 143 1
133 143 1
160 143 1
164 143 1
76 144 1
85 144 1
127 144 1
134 144 1
161 144 1
165 144 1
69 145 1
77 145 1
128 145 1
135 145 1
162 145 1
166 145 1
70 146 1
78 146 1
129 146 1
136 146 1
163 146 1
167 146 1
71 147 1
79 147 1
120 147 1
130 147 1
164 147 1
168 147 1
72 148 1
80 148 1
121 148 1
131 148 1
165 148 1
169 148 1
73 149 1
81 149 1
122 149 1
132 149 1
166 149 1
170 149 1
74 150 1
82 150 1
123 150 1
133 150 1
154 150 1
167 150 1
75 151 1
83 151 1
124 151 1
134 151 1
155 151 1
168 151 1
76 152 1
84 152 1
125 152 1
135 152 1
156 152 1
169 152 1
77 153 1
85 153 1
126 153 1
136 153 1
157 153 1
170 153 1
86 154 1
95 154 1
137 154 1
144 154 1
154 154 1
160 154 1
87 155 1
96 155 1
138 155 1
145 155 1
155 155 1
161 155 1
88 156 1
97 156 1
139 156 1
146 156 1
156 156 1
162 156 1
89 157 1
98 157 1
140 157 1
147 157 1
157 157 1
163 157 1
90 158 1
99 158 1
141 158 1
148 158 1
158 158 1
164 158 1
91 159 1
100 159 1
142 159 1
149 159 1
159 159 1
165 159 1
92 160 1
101 160 1
143 160 1
150 160 1
160 160 1
166 160 1
93 161 1
102 161 1
144 161 1
151 161 1
161 161 1
167 161 1
86 162 1
94 162 1
145 162 1
152 162 1
162 162 1
168 162 1
87 163 1
95 163 1
146 163 1
153 163 1
163 163 1
169 163 1
88 164 1
96 164 1
137 164 1
147 164 1
164 164 1
170 164 1
89 165 1
97 165 1
138 165 1
148 165 1
154 165 1
165 165 1
90 166 1
98 166 1
139 166 1
149 166 1
155 166 1
166 166 1
91 167 1
99 167 1
140 167 1
150 167 1
156 167 1
167 167 1
92 168 1
100 168 1
141 168 1
151 168 1
157 168 1
168 168 1
93 169 1
101 169 1
142 169 1
152 169 1
158 169 1
169 169 1
94 170 1
102 170 1
143 170 1
153 170 1
159 170 1
170 170 1
1 171 1
13 171 1
171 171 1
175 171 1
188 171 1
189 171 1
2 172 1
14 172 1
172 172 1
176 172 1
189 172 1
190 172 1
3 173 1
15 173 1
173 173 1
177 173 1
190 173 1
191 173 1
4 174 1
16 174 1
174 174 1
178 174 1
191 174 1
192 174 1
5 175 1
17 175 1
175 175 1
179 175 1
192 175 1
193 175 1
1 176 1
6 176 1
176 176 1
180 176 1
193 176 1
194 176 1
2 177 1
7 177 1
177 177 1
181 177 1
194 177 1
195 177 1
3 178 1
8 178 1
178 178 1
182 178 1
195 178 1
196 178 1
4 179 1
9 179 1
179 179 1
183 179 1
196 179 1
197 179 1
5 180 1
10 180 1
180 180 1
184 180 1
197 180 1
198 180 1
6 181 1
11 181 1
181 181 1
185 181 1
198 181 1
199 181 1
7 182 1
12 182 1
182 182 1
186 182 1
199 182 1
200 182 1
8 183 1
13 183 1
183 183 1
187 183 1
200 183 1
201 183 1
9 184 1
14 184 1
171 184 1
184 184 1
201 184 1
202 184 1
10 185 1
15 185 1
172 185 1
185 185 1
202 185 1
203 185 1
11 186 1
16 186 1
173 186 1
186 186 1
203 186 1
204 186 1
12 187 1
17 187 1
174 187 1
187 187 1
188 187 1
204 187 1
18 188 1
30 188 1
171 188 1
177 188 1
205 188 1
206 188 1
19 189 1
31 189 1
172 189 1
178 189 1
206 189 1
207 189 1
20 190 1
32 190 1
173 190 1
179 190 1
207 190 1
208 190 1
21 191 1
33 191 1
174 191 1
180 191 1
208 191 1
209 191 1
22 192 1
34 192 1
175 192 1
181 192 1
209 192 1
210 192 1
18 193 1
23 193 1
176 193 1
182 193 1
210 193 1
211 193 1
19 194 1
24 194 1
177 194 1
183 194 1
211 194 1
212 194 1
20 195 1
25 195 1
178 195 1
184 195 1
212 195 1
213 195 1
21 196 1
26 196 1
179 196 1
185 196 1
213 196 1
214 196 1
22 197 1
27 197 1
180 197 1
186 197 1
214 197 1
215 197 1
23 198 1
28 198 1
181 198 1
187 198 1
215 198 1
216 198 1
24 199 1
29 199 1
171 199 1
182 199 1
216 199 1
217 199 1
25 200 1
30 200 1
172 200 1
183 200 1
217 200 1
218 200 1
26 201 1
31 201 1
173 201 1
184 201 1
218 201 1
219 201 1
27 202 1
32 202 1
174 202 1
185 202 1
219 202 1
220 202 1
28 203 1
33 203 1
175 203 1
186 203 1
220 203 1
221 203 1
29 204 1
34 204 1
176 204 1
187 204 1
205 204 1
221 204 1
35 205 1
47 205 1
188 205 1
194 205 1
205 205 1
209 205 1
36 206 1
48 206 1
189 206 1
195 206 1
206 206 1
210 206 1
37 207 1
49 207 1
190 207 1
196 207 1
207 207 1
211 207 1
38 208 1
50 208 1
191 208 1
197 208 1
208 208 1
212 208 1
39 209 1
51 209 1
192 209 1
198 209 1
209 209 1
213 209 1
35 210 1
40 210 1
193 210 1
199 210 1
210 210 1
214 210 1
36 211 1
41 211 1
194 211 1
200 211 1
211 211 1
215 211 1
37 212 1
42 212 1
195 212 1
201 212 1
212 212 1
216 212 1
38 213 1
43 213 1
196 213 1
202 213 1
213 213 1
217 213 1
39 214 1
44 214 1
197 214 1
203 214 1
214 214 1
218 214 1
40 215 1
45 215 1
198 215 1
204 215 1
215 215 1
219 215 1
41 216 1
46 216 1
188 216 1
199 216 1
216 216 1
220 216 1
42 217 1
47 217 1
189 217 1
200 217 1
217 217 1
221 217 1
43 218 1
48 218 1
190 218 1
201 218 1
205 218 1
218 218 1
44 219 1
49 219 1
191 219 1
202 219 1
206 219 1
219 219 1
45 220 1
50 220 1
192 220 1
203 220 1
207 220 1
220 220 1
46 221 1
51 221 1
193 221 1
204 221 1
208 221 1
221 221 1
52 222 1
64 222 1
171 222 1
178 222 1
222 222 1
223 222 1
53 223 1
65 223 1
172 223 1
179 223 1
223 223 1
224 223 1
54 224 1
66 224 1
173 224 1
180 224 1
224 224 1
225 224 1
55 225 1
67 225 1
174 225 1
181 225 1
225 225 1
226 225 1
56 226 1
68 226 1
175 226 1
182 226 1
226 226 1
227 226 1
52 227 1
57 227 1
176 227 1
183 227 1
227 227 1
228 227 1
53 228 1
58 228 1
177 228 1
184 228 1
228 228 1
229 228 1
54 229 1
59 229 1
178 229 1
185 229 1
229 229 1
230 229 1
55 230 1
60 230 1
179 230 1
186 230 1
230 230 1
231 230 1
56 231 1
61 231 1
180 231 1
187 231 1
231 231 1
232 231 1
57 232 1
62 232 1
171 232 1
181 232 1
232 232 1
233 232 1
58 233 1
63 233 1
172 233 1
182 233 1
233 233 1
234 233 1
59 234 1
64 234 1
173 234 1
183 234 1
234 234 1
235 234 1
60 235 1
65 235 1
174 235 1
184 235 1
235 235 1
236 235 1
61 236 1
66 236 1
175 236 1
185 236 1
236 236 1
237 236 1
62 237 1
67 237 1
176 237 1
186 237 1
237 237 1
238 237 1
63 238 1
68 238 1
177 238 1
187 238 1
222 238 1
238 238 1
69 239 1
81 239 1
188 239 1
195 239 1
222 239 1
226 239 1
70 240 1
82 240 1
189 240 1
196 240 1
223 240 1
227 240 1
71 241 1
83 241 1
190 241 1
197 241 1
224 241 1
228 241 1
72 242 1
84 242 1
191 242 1
198 242 1
225 242 1
229 242 1
73 243 1
85 243 1
192 243 1
199 243 1
226 243 1
230 243 1
69 244 1
74 244 1
193 244 1
200 244 1
227 244 1
231 244 1
70 245 1
75 245 1
194 245 1
201 245 1
228 245 1
232 245 1
71 246 1
76 246 1
195 246 1
202 246 1
229 246 1
233 246 1
72 247 1
77 247 1
196 247 1
203 247 1
230 247 1
234 247 1
73 248 1
78 248 1
197 248 1
204 248 1
231 248 1
235 248 1
74 249 1
79 249 1
188 249 1
198 249 1
232 249 1
236 249 1
75 250 1
80 250 1
189 250 1
199 250 1
233 250 1
237 250 1
76 251 1
81 251 1
190 251 1
200 251 1
234 251 1
238 251 1
77 252 1
82 252 1
191 252 1
201 252 1
222 252 1
235 252 1
78 253 1
83 253 1
192 253 1
202 253 1
223 253 1
236 253 1
79 254 1
84 254 1
193 254 1
203 254 1
224 254 1
237 254 1
80 255 1
85 255 1
194 255 1
204 255 1
225 255 1
238 255 1
86 256 1
98 256 1
205 256 1
212 256 1
222 256 1
228 256 1
87 257 1
99 257 1
206 257 1
213 257 1
223 257 1
229 257 1
88 258 1
100 258 1
207 258 1
214 258 1
224 258 1
230 258 1
89 259 1
101 259 1
208 259 1
215 259 1
225 259 1
231 259 1
90 260 1
102 260 1
209 260 1
216 260 1
226 260 1
232 260 1
86 261 1
91 261 1
210 261 1
217 261 1
227 261 1
233 261 1
87 262 1
92 262 1
211 262 1
218 262 1
228 262 1
234 262 1
88 263 1
93 263 1
212 263 1
219 263 1
229 263 1
235 263 1
89 264 1
94 264 1
213 264 1
220 264 1
230 264 1
236 264 1
90 265 1
95 265 1
214 265 1
221 265 1
231 265 1
237 265 1
91 266 1
96 266 1
205 266 1
215 266 1
232 266 1
238 266 1
92 267 1
97 267 1
206 267 1
216 267 1
222 267 1
233 267 1
93 268 1
98 268 1
207 268 1
217 268 1
223 268 1
234 268 1
94 269 1
99 269 1
208 269 1
218 269 1
224 269 1
235 269 1
95 270 1
100 270 1
209 270 1
219 270 1
225 270 1
236 270 1
96 271 1
101 271 1
210 271 1
220 271 1
226 271 1
237 271 1
97 272 1
102 272 1
211 272 1
221 272 1
227 272 1
238 272 1
103 273 1
115 273 1
171 273 1
180 273 1
239 273 1
240 273 1
104 274 1
116 274 1
172 274 1
181 274 1
240 274 1
241 274 1
105 275 1
117 275 1
173 275 1
182 275 1
241 275 1
242 275 1
106 276 1
118 276 1
174 276 1
183 276 1
242 276 1
243 276 1
107 277 1
119 277 1
175 277 1
184 277 1
243 277 1
244 277 1
103 278 1
108 278 1
176 278 1
185 278 1
244 278 1
245 278 1
104 279 1
109 279 1
177 279 1
186 279 1
245 279 1
246 279 1
105 280 1
110 280 1
178 280 1
187 280 1
246 280 1
247 280 1
106 281 1
111 281 1
171 281 1
179 281 1
247 281 1
248 281 1
107 282 1
112 282 1
172 282 1
180 282 1
248 282 1
249 282 1
108 283 1
113 283 1
173 283 1
181 283 1
249 283 1
250 283 1
109 284 1
114 284 1
174 284 1
182 284 1
250 284 1
251 284 1
110 285 1
115 285 1
175 285 1
183 285 1
251 285 1
252 285 1
111 286 1
116 286 1
176 286 1
184 286 1
252 286 1
253 286 1
112 287 1
117 287 1
177 287 1
185 287 1
253 287 1
254 287 1
113 288 1
118 288 1
178 288 1
186 288 1
254 288 1
255 288 1
114 289 1
119 289 1
179 289 1
187 289 1
239 289 1
255 289 1
120 290 1
132 290 1
188 290 1
197 290 1
239 290 1
243 290 1
121 291 1
133 291 1
189 291 1
198 291 1
240 291 1
244 291 1
122 292 1
134 292 1
190 292 1
199 292 1
241 292 1
245 292 1
123 293 1
135 293 1
191 293 1
200 293 1
242 293 1
246 293 1
124 294 1
136 294 1
192 294 1
201 294 1
243 294 1
247 294 1
120 295 1
125 295 1
193 295 1
202 295 1
244 295 1
248 295 1
121 296 1
126 296 1
194 296 1
203 296 1
245 296 1
249 296 1
122 297 1
127 297 1
195 297 1
204 297 1
246 297 1
250 297 1
123 298 1
128 298 1
188 298 1
196 298 1
247 298 1
251 298 1
124 299 1
129 299 1
189 299 1
197 299 1
248 299 1
252 299 1
125 300 1
130 300 1
190 300 1
198 300 1
249 300 1
253 300 1
126 301 1
131 301 1
191 301 1
199 301 1
250 301 1
254 301 1
127 302 1
132 302 1
192 302 1
200 302 1
251 302 1
255 302 1
128 303 1
133 303 1
193 303 1
201 303 1
239 303 1
252 303 1
129 304 1
134 304 1
194 304 1
202 304 1
240 304 1
253 304 1
130 305 1
135 305 1
195 305 1
203 305 1
241 305 1
254 305 1
131 306 1
136 306 1
196 306 1
204 306 1
242 306 1
255 306 1
137 307 1
149 307 1
205 307 1
214 307 1
239 307 1
245 307 1
138 308 1
150 308 1
206 308 1
215 308 1
240 308 1
246 308 1
139 309 1
151 309 1
207 309 1
216 309 1
241 309 1
247 309 1
140 310 1
152 310 1
208 310 1
217 310 1
242 310 1
248 310 1
141 311 1
153 311 1
209 311 1
218 311 1
243 311 1
249 311 1
137 312 1
142 312 1
210 312 1
219 312 1
244 312 1
250 312 1
138 313 1
143 313 1
211 313 1
220 313 1
245 313 1
251 313 1
139 314 1
144 314 1
212 314 1
221 314 1
246 314 1
252 314 1
140 315 1
145 315 1
205 315 1
213 315 1
247 315 1
253 315 1
141 316 1
146 316 1
206 316 1
214 316 1
248 316 1
254 316 1
142 317 1
147 317 1
207 317 1
215 317 1
249 317 1
255 317 1
143 318 1
148 318 1
208 318 1
216 318 1
239 318 1
250 318 1
144 319 1
149 319 1
209 319 1
217 319 1
240 319 1
251 319 1
145 320 1
150 320 1
210 320 1
218 320 1
241 320 1
252 320 1
146 321 1
151 321 1
211 321 1
219 321 1
242 321 1
253 321 1
147 322 1
152 322 1
212 322 1
220 322 1
243 322 1
254 322 1
148 323 1
153 323 1
213 323 1
221 323 1
244 323 1
255 323 1
154 324 1
166 324 1
222 324 1
231 324 1
239 324 1
246 324 1
155 325 1
167 325 1
223 325 1
232 325 1
240 325 1
247 325 1
156 326 1
168 326 1
224 326 1
233 326 1
241 326 1
248 326 1
157 327 1
169 327 1
225 327 1
234 327 1
242 327 1
249 327 1
158 328 1
170 328 1
226 328 1
235 328 1
243 328 1
250 328 1
154 329 1
159 329 1
227 329 1
236 329 1
244 329 1
251 329 1
155 330 1
160 330 1
228 330 1
237 330 1
245 330 1
252 330 1
156 331 1
161 331 1
229 331 1
238 331 1
246 331 1
253 331 1
157 332 1
162 332 1
222 332 1
230 332 1
247 332 1
254 332 1
158 333 1
163 333 1
223 333 1
231 333 1
248 333 1
255 333 1
159 334 1
164 334 1
224 334 1
232 334 1
239 334 1
249 334 1
160 335 1
165 335 1
225 335 1
233 335 1
240 335 1
250 335 1
161 336 1
166 336 1
226 336 1
234 336 1
241 336 1
251 336 1
162 337 1
167 337 1
227 337 1
235 337 1
242 337 1
252 337 1
163 338 1
168 338 1
228 338 1
236 338 1
243 338 1
253 338 1
164 339 1
169 339 1
229 339 1
237 339 1
244 339 1
254 339 1
165 340 1
170 340 1
230 340 1
238 340 1
245 340 1
255 340 1
1 341 1
16 341 1
256 341 1
260 341 1
273 341 1
274 341 1
2 342 1
17 342 1
257 342 1
261 342 1
274 342 1
275 342 1
1 343 1
3 343 1
258 343 1
262 343 1
275 343 1
276 343 1
2 344 1
4 344 1
259 344 1
263 344 1
276 344 1
277 344 1
3 345 1
5 345 1
260 345 1
264 345 1
277 345 1
278 345 1
4 346 1
6 346 1
261 346 1
265 346 1
278 346 1
279 346 1
5 347 1
7 347 1
262 347 1
266 347 1
279 347 1
280 347 1
6 348 1
8 348 1
263 348 1
267 348 1
280 348 1
281 348 1
7 349 1
9 349 1
264 349 1
268 349 1
281 349 1
282 349 1
8 350 1
10 350 1
265 350 1
269 350 1
282 350 1
283 350 1
9 351 1
11 351 1
266 351 1
270 351 1
283 351 1
284 351 1
10 352 1
12 352 1
267 352 1
271 352 1
284 352 1
285 352 1
11 353 1
13 353 1
268 353 1
272 353 1
285 353 1
286 353 1
12 354 1
14 354 1
256 354 1
269 354 1
286 354 1
287 354 1
13 355 1
15 355 1
257 355 1
270 355 1
287 355 1
288 355 1
14 356 1
16 356 1
258 356 1
271 356 1
288 356 1
289 356 1
15 357 1
17 357 1
259 357 1
272 357 1
273 357 1
289 357 1
18 358 1
33 358 1
256 358 1
262 358 1
290 358 1
291 358 1
19 359 1
34 359 1
257 359 1
263 359 1
291 359 1
292 359 1
18 360 1
20 360 1
258 360 1
264 360 1
292 360 1
293 360 1
19 361 1
21 361 1
259 361 1
265 361 1
293 361 1
294 361 1
20 362 1
22 362 1
260 362 1
266 362 1
294 362 1
295 362 1
21 363 1
23 363 1
261 363 1
267 363 1
295 363 1
296 363 1
22 364 1
24 364 1
262 364 1
268 364 1
296 364 1
297 364 1
23 365 1
25 365 1
263 365 1
269 365 1
297 365 1
298 365 1
24 366 1
26 366 1
264 366 1
270 366 1
298 366 1
299 366 1
25 367 1
27 367 1
265 367 1
271 367 1
299 367 1
300 367 1
26 368 1
28 368 1
266 368 1
272 368 1
300 368 1
301 368 1
27 369 1
29 369 1
256 369 1
267 369 1
301 369 1
302 369 1
28 370 1
30 370 1
257 370 1
268 370 1
302 370 1
303 370 1
29 371 1
31 371 1
258 371 1
269 371 1
303 371 1
304 371 1
30 372 1
32 372 1
259 372 1
270 372 1
304 372 1
305 372 1
31 373 1
33 373 1
260 373 1
271 373 1
305 373 1
306 373 1
32 374 1
34 374 1
261 374 1
272 374 1
290 374 1
306 374 1
35 375 1
50 375 1
273 375 1
279 375 1
290 375 1
294 375 1
36 376 1
51 376 1
274 376 1
280 376 1
291 376 1
295 376 1
35 377 1
37 377 1
275 377 1
281 377 1
292 377 1
296 377 1
36 378 1
38 378 1
276 378 1
282 378 1
293 378 1
297 378 1
37 379 1
39 379 1
277 379 1
283 379 1
294 379 1
298 379 1
38 380 1
40 380 1
278 380 1
284 380 1
295 380 1
299 380 1
39 381 1
41 381 1
279 381 1
285 381 1
296 381 1
300 381 1
40 382 1
42 382 1
280 382 1
286 382 1
297 382 1
301 382 1
41 383 1
43 383 1
281 383 1
287 383 1
298 383 1
302 383 1
42 384 1
44 384 1
282 384 1
288 384 1
299 384 1
303 384 1
43 385 1
45 385 1
283 385 1
289 385 1
300 385 1
304 385 1
44 386 1
46 386 1
273 386 1
284 386 1
301 386 1
305 386 1
45 387 1
47 387 1
274 387 1
285 387 1
302 387 1
306 387 1
46 388 1
48 388 1
275 388 1
286 388 1
290 388 1
303 388 1
47 389 1
49 389 1
276 389 1
287 389 1
291 389 1
304 389 1
48 390 1
50 390 1
277 390 1
288 390 1
292 390 1
305 390 1
49 391 1
51 391 1
278 391 1
289 391 1
293 391 1
306 391 1
52 392 1
67 392 1
256 392 1
263 392 1
307 392 1
308 392 1
53 393 1
68 393 1
257 393 1
264 393 1
308 393 1
309 393 1
52 394 1
54 394 1
258 394 1
265 394 1
309 394 1
310 394 1
53 395 1
55 395 1
259 395 1
266 395 1
310 395 1
311 395 1
54 396 1
56 396 1
260 396 1
267 396 1
311 396 1
312 396 1
55 397 1
57 397 1
261 397 1
268 397 1
312 397 1
313 397 1
56 398 1
58 398 1
262 398 1
269 398 1
313 398 1
314 398 1
57 399 1
59 399 1
263 399 1
270 399 1
314 399 1
315 399 1
58 400 1
60 400 1
264 400 1
271 400 1
315 400 1
316 400 1
59 401 1
61 401 1
265 401 1
272 401 1
316 401 1
317 401 1
60 402 1
62 402 1
256 402 1
266 402 1
317 402 1
318 402 1
61 403 1
63 403 1
257 403 1
267 403 1
318 403 1
319 403 1
62 404 1
64 404 1
258 404 1
268 404 1
319 404 1
320 404 1
63 405 1
65 405 1
259 405 1
269 405 1
320 405 1
321 405 1
64 406 1
66 406 1
260 406 1
270 406 1
321 406 1
322 406 1
65 407 1
67 407 1
261 407 1
271 407 1
322 407 1
323 407 1
66 408 1
68 408 1
262 408 1
272 408 1
307 408 1
323 408 1
69 409 1
84 409 1
273 409 1
280 409 1
307 409 1
311 409 1
70 410 1
85 410 1
274 410 1
281 410 1
308 410 1
312 410 1
69 411 1
71 411 1
275 411 1
282 411 1
309 411 1
313 411 1
70 412 1
72 412 1
276 412 1
283 412 1
310 412 1
314 412 1
71 413 1
73 413 1
277 413 1
284 413 1
311 413 1
315 413 1
72 414 1
74 414 1
278 414 1
285 414 1
312 414 1
316 414 1
73 415 1
75 415 1
279 415 1
286 415 1
313 415 1
317 415 1
74 416 1
76 416 1
280 416 1
287 416 1
314 416 1
318 416 1
75 417 1
77 417 1
281 417 1
288 417 1
315 417 1
319 417 1
76 418 1
78 418 1
282 418 1
289 418 1
316 418 1
320 418 1
77 419 1
79 419 1
273 419 1
283 419 1
317 419 1
321 419 1
78 420 1
80 420 1
274 420 1
284 420 1
318 420 1
322 420 1
79 421 1
81 421 1
275 421 1
285 421 1
319 421 1
323 421 1
80 422 1
82 422 1
276 422 1
286 422 1
307 422 1
320 422 1
81 423 1
83 423 1
277 423 1
287 423 1
308 423 1
321 423 1
82 424 1
84 424 1
278 424 1
288 424 1
309 424 1
322 424 1
83 425 1
85 425 1
279 425 1
289 425 1
310 425 1
323 425 1
86 426 1
101 426 1
290 426 1
297 426 1
307 426 1
313 426 1
87 427 1
102 427 1
291 427 1
298 427 1
308 427 1
314 427 1
86 428 1
88 428 1
292 428 1
299 428 1
309 428 1
315 428 1
87 429 1
89 429 1
293 429 1
300 429 1
310 429 1
316 429 1
88 430 1
90 430 1
294 430 1
301 430 1
311 430 1
317 430 1
89 431 1
91 431 1
295 431 1
302 431 1
312 431 1
318 431 1
90 432 1
92 432 1
296 432 1
303 432 1
313 432 1
319 432 1
91 433 1
93 433 1
297 433 1
304 433 1
314 433 1
320 433 1
92 434 1
94 434 1
298 434 1
305 434 1
315 434 1
321 434 1
93 435 1
95 435 1
299 435 1
306 435 1
316 435 1
322 435 1
94 436 1
96 436 1
290 436 1
300 436 1
317 436 1
323 436 1
95 437 1
97 437 1
291 437 1
301 437 1
307 437 1
318 437 1
96 438 1
98 438 1
292 438 1
302 438 1
308 438 1
319 438 1
97 439 1
99 439 1
293 439 1
303 439 1
309 439 1
320 439 1
98 440 1
100 440 1
294 440 1
304 440 1
310 440 1
321 440 1
99 441 1
101 441 1
295 441 1
305 441 1
311 441 1
322 441 1
100 442 1
102 442 1
296 442 1
306 442 1
312 442 1
323 442 1
103 443 1
118 443 1
256 443 1
265 443 1
324 443 1
325 443 1
104 444 1
119 444 1
257 444 1
266 444 1
325 444 1
326 444 1
103 445 1
105 445 1
258 445 1
267 445 1
326 445 1
327 445 1
104 446 1
106 446 1
259 446 1
268 446 1
327 446 1
328 446 1
105 447 1
107 447 1
260 447 1
269 447 1
328 447 1
329 447 1
106 448 1
108 448 1
261 448 1
270 448 1
329 448 1
330 448 1
107 449 1
109 449 1
262 449 1
271 449 1
330 449 1
331 449 1
108 450 1
110 450 1
263 450 1
272 450 1
331 450 1
332 450 1
109 451 1
111 451 1
256 451 1
264 451 1
332 451 1
333 451 1
110 452 1
112 452 1
257 452 1
265 452 1
333 452 1
334 452 1
111 453 1
113 453 1
258 453 1
266 453 1
334 453 1
335 453 1
112 454 1
114 454 1
259 454 1
267 454 1
335 454 1
336 454 1
113 455 1
115 455 1
260 455 1
268 455 1
336 455 1
337 455 1
114 456 1
116 456 1
261 456 1
269 456 1
337 456 1
338 456 1
115 457 1
117 457 1
262 457 1
270 457 1
338 457 1
339 457 1
116 458 1
118 458 1
263 458 1
271 458 1
339 458 1
340 458 1
117 459 1
119 459 1
264 459 1
272 459 1
324 459 1
340 459 1
120 460 1
135 460 1
273 460 1
282 460 1
324 460 1
328 460 1
121 461 1
136 461 1
274 461 1
283 461 1
325 461 1
329 461 1
120 462 1
122 462 1
275 462 1
284 462 1
326 462 1
330 462 1
121 463 1
123 463 1
276 463 1
285 463 1
327 463 1
331 463 1
122 464 1
124 464 1
277 464 1
286 464 1
328 464 1
332 464 1
123 465 1
125 465 1
278 465 1
287 465 1
329 465 1
333 465 1
124 466 1
126 466 1
279 466 1
288 466 1
330 466 1
334 466 1
125 467 1
127 467 1
280 467 1
289 467 1
331 467 1
335 467 1
126 468 1
128 468 1
273 468 1
281 468 1
332 468 1
336 468 1
127 469 1
129 469 1
274 469 1
282 469 1
333 469 1
337 469 1
128 470 1
130 470 1
275 470 1
283 470 1
334 470 1
338 470 1
129 471 1
131 471 1
276 471 1
284 471 1
335 471 1
339 471 1
130 472 1
132 472 1
277 472 1
285 472 1
336 472 1
340 472 1
131 473 1
133 473 1
278 473 1
286 473 1
324 473 1
337 473 1
132 474 1
134 474 1
279 474 1
287 474 1
325 474 1
338 474 1
133 475 1
135 475 1
280 475 1
288 475 1
326 475 1
339 475 1
134 476 1
136 476 1
281 476 1
289 476 1
327 476 1
340 476 1
137 477 1
152 477 1
290 477 1
299 477 1
324 477 1
330 477 1
138 478 1
153 478 1
291 478 1
300 478 1
325 478 1
331 478 1
137 479 1
139 479 1
292 479 1
301 479 1
326 479 1
332 479 1
138 480 1
140 480 1
293 480 1
302 480 1
327 480 1
333 480 1
139 481 1
141 481 1
294 481 1
303 481 1
328 481 1
334 481 1
140 482 1
142 482 1
295 482 1
304 482 1
329 482 1
335 482 1
141 483 1
143 483 1
296 483 1
305 483 1
330 483 1
336 483 1
142 484 1
144 484 1
297 484 1
306 484 1
331 484 1
337 484 1
143 485 1
145 485 1
290 485 1
298 485 1
332 485 1
338 485 1
144 486 1
146 486 1
291 486 1
299 486 1
333 486 1
339 486 1
145 487 1
147 487 1
292 487 1
300 487 1
334 487 1
340 487 1
146 488 1
148 488 1
293 488 1
301 488 1
324 488 1
335 488 1
147 489 1
149 489 1
294 489 1
302 489 1
325 489 1
336 489 1
148 490 1
150 490 1
295 490 1
303 490 1
326 490 1
337 490 1
149 491 1
151 491 1
296 491 1
304 491 1
327 491 1
338 491 1
150 492 1
152 492 1
297 492 1
305 492 1
328 492 1
339 492 1
151 493 1
153 493 1
298 493 1
306 493 1
329 493 1
340 493 1
154 494 1
169 494 1
307 494 1
316 494 1
324 494 1
331 494 1
155 495 1
170 495 1
308 495 1
317 495 1
325 495 1
332 495 1
154 496 1
156 496 1
309 496 1
318 496 1
326 496 1
333 496 1
155 497 1
157 497 1
310 497 1
319 497 1
327 497 1
334 497 1
156 498 1
158 498 1
311 498 1
320 498 1
328 498 1
335 498 1
157 499 1
159 499 1
312 499 1
321 499 1
329 499 1
336 499 1
158 500 1
160 500 1
313 500 1
322 500 1
330 500 1
337 500 1
159 501 1
161 501 1
314 501 1
323 501 1
331 501 1
338 501 1
160 502 1
162 502 1
307 502 1
315 502 1
332 502 1
339 502 1
161 503 1
163 503 1
308 503 1
316 503 1
333 503 1
340 503 1
162 504 1
164 504 1
309 504 1
317 504 1
324 504 1
334 504 1
163 505 1
165 505 1
310 505 1
318 505 1
325 505 1
335 505 1
164 506 1
166 506 1
311 506 1
319 506 1
326 506 1
336 506 1
165 507 1
167 507 1
312 507 1
320 507 1
327 507 1
337 507 1
166 508 1
168 508 1
313 508 1
321 508 1
328 508 1
338 508 1
167 509 1
169 509 1
314 509 1
322 509 1
329 509 1
339 509 1
168 510 1
170 510 1
315 510 1
323 510 1
330 510 1
340 510 1
171 511 1
186 511 1
256 511 1
268 511 1
341 511 1
342 511 1
172 512 1
187 512 1
257 512 1
269 512 1
342 512 1
343 512 1
171 513 1
173 513 1
258 513 1
270 513 1
343 513 1
344 513 1
172 514 1
174 514 1
259 514 1
271 514 1
344 514 1
345 514 1
173 515 1
175 515 1
260 515 1
272 515 1
345 515 1
346 515 1
174 516 1
176 516 1
256 516 1
261 516 1
346 516 1
347 516 1
175 517 1
177 517 1
257 517 1
262 517 1
347 517 1
348 517 1
176 518 1
178 518 1
258 518 1
263 518 1
348 518 1
349 518 1
177 519 1
179 519 1
259 519 1
264 519 1
349 519 1
350 519 1
178 520 1
180 520 1
260 520 1
265 520 1
350 520 1
351 520 1
179 521 1
181 521 1
261 521 1
266 521 1
351 521 1
352 521 1
180 522 1
182 522 1
262 522 1
267 522 1
352 522 1
353 522 1
181 523 1
183 523 1
263 523 1
268 523 1
353 523 1
354 523 1
182 524 1
184 524 1
264 524 1
269 524 1
354 524 1
355 524 1
183 525 1
185 525 1
265 525 1
270 525 1
355 525 1
356 525 1
184 526 1
186 526 1
266 526 1
271 526 1
356 526 1
357 526 1
185 527 1
187 527 1
267 527 1
272 527 1
341 527 1
357 527 1
188 528 1
203 528 1
273 528 1
285 528 1
341 528 1
345 528 1
189 529 1
204 529 1
274 529 1
286 529 1
342 529 1
346 529 1
188 530 1
190 530 1
275 530 1
287 530 1
343 530 1
347 530 1
189 531 1
191 531 1
276 531 1
288 531 1
344 531 1
348 531 1
190 532 1
192 532 1
277 532 1
289 532 1
345 532 1
349 532 1
191 533 1
193 533 1
273 533 1
278 533 1
346 533 1
350 533 1
192 534 1
194 534 1
274 534 1
279 534 1
347 534 1
351 534 1
193 535 1
195 535 1
275 535 1
280 535 1
348 535 1
352 535 1
194 536 1
196 536 1
276 536 1
281 536 1
349 536 1
353 536 1
195 537 1
197 537 1
277 537 1
282 537 1
350 537 1
354 537 1
196 538 1
198 538 1
278 538 1
283 538 1
351 538 1
355 538 1
197 539 1
199 539 1
279 539 1
284 539 1
352 539 1
356 539 1
198 540 1
200 540 1
280 540 1
285 540 1
353 540 1
357 540 1
199 541 1
201 541 1
281 541 1
286 541 1
341 541 1
354 541 1
200 542 1
202 542 1
282 542 1
287 542 1
342 542 1
355 542 1
201 543 1
203 543 1
283 543 1
288 543 1
343 543 1
356 543 1
202 544 1
204 544 1
284 544 1
289 544 1
344 544 1
357 544 1
205 545 1
220 545 1
290 545 1
302 545 1
341 545 1
347 545 1
206 546 1
221 546 1
291 546 1
303 546 1
342 546 1
348 546 1
205 547 1
207 547 1
292 547 1
304 547 1
343 547 1
349 547 1
206 548 1
208 548 1
293 548 1
305 548 1
344 548 1
350 548 1
207 549 1
209 549 1
294 549 1
306 549 1
345 549 1
351 549 1
208 550 1
210 550 1
290 550 1
295 550 1
346 550 1
352 550 1
209 551 1
211 551 1
291 551 1
296 551 1
347 551 1
353 551 1
210 552 1
212 552 1
292 552 1
297 552 1
348 552 1
354 552 1
211 553 1
213 553 1
293 553 1
298 553 1
349 553 1
355 553 1
212 554 1
214 554 1
294 554 1
299 554 1
350 554 1
356 554 1
213 555 1
215 555 1
295 555 1
300 555 1
351 555 1
357 555 1
214 556 1
216 556 1
296 556 1
301 556 1
341 556 1
352 556 1
215 557 1
217 557 1
297 557 1
302 557 1
342 557 1
353 557 1
216 558 1
218 558 1
298 558 1
303 558 1
343 558 1
354 558 1
217 559 1
219 559 1
299 559 1
304 559 1
344 559 1
355 559 1
218 560 1
220 560 1
300 560 1
305 560 1
345 560 1
356 560 1
219 561 1
221 561 1
301 561 1
306 561 1
346 561 1
357 561 1
222 562 1
237 562 1
307 562 1
319 562 1
341 562 1
348 562 1
223 563 1
238 563 1
308 563 1
320 563 1
342 563 1
349 563 1
222 564 1
224 564 1
309 564 1
321 564 1
343 564 1
350 564 1
223 565 1
225 565 1
310 565 1
322 565 1
344 565 1
351 565 1
224 566 1
226 566 1
311 566 1
323 566 1
345 566 1
352 566 1
225 567 1
227 567 1
307 567 1
312 567 1
346 567 1
353 567 1
226 568 1
228 568 1
308 568 1
313 568 1
347 568 1
354 568 1
227 569 1
229 569 1
309 569 1
314 569 1
348 569 1
355 569 1
228 570 1
230 570 1
310 570 1
315 570 1
349 570 1
356 570 1
229 571 1
231 571 1
311 571 1
316 571 1
350 571 1
357 571 1
230 572 1
232 572 1
312 572 1
317 572 1
341 572 1
351 572 1
231 573 1
233 573 1
313 573 1
318 573 1
342 573 1
352 573 1
232 574 1
234 574 1
314 574 1
319 574 1
343 574 1
353 574 1
233 575 1
235 575 1
315 575 1
320 575 1
344 575 1
354 575 1
234 576 1
236 576 1
316 576 1
321 576 1
345 576 1
355 576 1
235 577 1
237 577 1
317 577 1
322 577 1
346 577 1
356 577 1
236 578 1
238 578 1
318 578 1
323 578 1
347 578 1
357 578 1
239 579 1
254 579 1
324 579 1
336 579 1
341 579 1
350 579 1
240 580 1
255 580 1
325 580 1
337 580 1
342 580 1
351 580 1
239 581 1
241 581 1
326 581 1
338 581 1
343 581 1
352 581 1
240 582 1
242 582 1
327 582 1
339 582 1
344 582 1
353 582 1
241 583 1
243 583 1
328 583 1
340 583 1
345 583 1
354 583 1
242 584 1
244 584 1
324 584 1
329 584 1
346 584 1
355 584 1
243 585 1
245 585 1
325 585 1
330 585 1
347 585 1
356 585 1
244 586 1
246 586 1
326 586 1
331 586 1
348 586 1
357 586 1
245 587 1
247 587 1
327 587 1
332 587 1
341 587 1
349 587 1
246 588 1
248 588 1
328 588 1
333 588 1
342 588 1
350 588 1
247 589 1
249 589 1
329 589 1
334 589 1
343 589 1
351 589 1
248 590 1
250 590 1
330 590 1
335 590 1
344 590 1
352 590 1
249 591 1
251 591 1
331 591 1
336 591 1
345 591 1
353 591 1
250 592 1
252 592 1
332 592 1
337 592 1
346 592 1
354 592 1
251 593 1
253 593 1
333 593 1
338 593 1
347 593 1
355 593 1
252 594 1
254 594 1
334 594 1
339 594 1
348 594 1
356 594 1
253 595 1
255 595 1
335 595 1
340 595 1
349 595 1
357 595 1
