%%MatrixMarket matrix coordinate integer general
% Binary matrix; one-based indices; arithmetic over GF(2)
1092 1638 13104
1 1 1
7 1 1
14 1 1
19 1 1
27 1 1
30 1 1
40 1 1
42 1 1
2 2 1
8 2 1
15 2 1
20 2 1
28 2 1
31 2 1
41 2 1
43 2 1
3 3 1
9 3 1
16 3 1
21 3 1
29 3 1
32 3 1
42 3 1
44 3 1
4 4 1
10 4 1
17 4 1
22 4 1
30 4 1
33 4 1
43 4 1
45 4 1
5 5 1
11 5 1
18 5 1
23 5 1
31 5 1
34 5 1
44 5 1
46 5 1
6 6 1
12 6 1
19 6 1
24 6 1
32 6 1
35 6 1
45 6 1
47 6 1
7 7 1
13 7 1
20 7 1
25 7 1
33 7 1
36 7 1
46 7 1
48 7 1
1 8 1
8 8 1
21 8 1
26 8 1
34 8 1
37 8 1
47 8 1
49 8 1
2 9 1
9 9 1
14 9 1
22 9 1
35 9 1
38 9 1
48 9 1
50 9 1
3 10 1
10 10 1
15 10 1
23 10 1
36 10 1
39 10 1
49 10 1
51 10 1
4 11 1
11 11 1
16 11 1
24 11 1
27 11 1
37 11 1
50 11 1
52 11 1
5 12 1
12 12 1
17 12 1
25 12 1
28 12 1
38 12 1
40 12 1
51 12 1
6 13 1
13 13 1
18 13 1
26 13 1
29 13 1
39 13 1
41 13 1
52 13 1
1 14 1
8 14 1
53 14 1
58 14 1
66 14 1
69 14 1
79 14 1
81 14 1
2 15 1
9 15 1
54 15 1
59 15 1
67 15 1
70 15 1
80 15 1
82 15 1
3 16 1
10 16 1
55 16 1
60 16 1
68 16 1
71 16 1
81 16 1
83 16 1
4 17 1
11 17 1
56 17 1
61 17 1
69 17 1
72 17 1
82 17 1
84 17 1
5 18 1
12 18 1
57 18 1
62 18 1
70 18 1
73 18 1
83 18 1
85 18 1
6 19 1
13 19 1
58 19 1
63 19 1
71 19 1
74 19 1
84 19 1
86 19 1
1 20 1
7 20 1
59 20 1
64 20 1
72 20 1
75 20 1
85 20 1
87 20 1
2 21 1
8 21 1
60 21 1
65 21 1
73 21 1
76 21 1
86 21 1
88 21 1
3 22 1
9 22 1
53 22 1
61 22 1
74 22 1
77 22 1
87 22 1
89 22 1
4 23 1
10 23 1
54 23 1
62 23 1
75 23 1
78 23 1
88 23 1
90 23 1
5 24 1
11 24 1
55 24 1
63 24 1
66 24 1
76 24 1
89 24 1
91 24 1
6 25 1
12 25 1
56 25 1
64 25 1
67 25 1
77 25 1
79 25 1
90 25 1
7 26 1
13 26 1
57 26 1
65 26 1
68 26 1
78 26 1
80 26 1
91 26 1
14 27 1
21 27 1
53 27 1
59 27 1
92 27 1
95 27 1
105 27 1
107 27 1
15 28 1
22 28 1
54 28 1
60 28 1
93 28 1
96 28 1
106 28 1
108 28 1
16 29 1
23 29 1
55 29 1
61 29 1
94 29 1
97 29 1
107 29 1
109 29 1
17 30 1
24 30 1
56 30 1
62 30 1
95 30 1
98 30 1
108 30 1
110 30 1
18 31 1
25 31 1
57 31 1
63 31 1
96 31 1
99 31 1
109 31 1
111 31 1
19 32 1
26 32 1
58 32 1
64 32 1
97 32 1
100 32 1
110 32 1
112 32 1
14 33 1
20 33 1
59 33 1
65 33 1
98 33 1
101 33 1
111 33 1
113 33 1
15 34 1
21 34 1
53 34 1
60 34 1
99 34 1
102 34 1
112 34 1
114 34 1
16 35 1
22 35 1
54 35 1
61 35 1
100 35 1
103 35 1
113 35 1
115 35 1
17 36 1
23 36 1
55 36 1
62 36 1
101 36 1
104 36 1
114 36 1
116 36 1
18 37 1
24 37 1
56 37 1
63 37 1
92 37 1
102 37 1
115 37 1
117 37 1
19 38 1
25 38 1
57 38 1
64 38 1
93 38 1
103 38 1
105 38 1
116 38 1
20 39 1
26 39 1
58 39 1
65 39 1
94 39 1
104 39 1
106 39 1
117 39 1
27 40 1
34 40 1
66 40 1
72 40 1
92 40 1
97 40 1
118 40 1
120 40 1
28 41 1
35 41 1
67 41 1
73 41 1
93 41 1
98 41 1
119 41 1
121 41 1
29 42 1
36 42 1
68 42 1
74 42 1
94 42 1
99 42 1
120 42 1
122 42 1
30 43 1
37 43 1
69 43 1
75 43 1
95 43 1
100 43 1
121 43 1
123 43 1
31 44 1
38 44 1
70 44 1
76 44 1
96 44 1
101 44 1
122 44 1
124 44 1
32 45 1
39 45 1
71 45 1
77 45 1
97 45 1
102 45 1
123 45 1
125 45 1
27 46 1
33 46 1
72 46 1
78 46 1
98 46 1
103 46 1
124 46 1
126 46 1
28 47 1
34 47 1
66 47 1
73 47 1
99 47 1
104 47 1
125 47 1
127 47 1
29 48 1
35 48 1
67 48 1
74 48 1
92 48 1
100 48 1
126 48 1
128 48 1
30 49 1
36 49 1
68 49 1
75 49 1
93 49 1
101 49 1
127 49 1
129 49 1
31 50 1
37 50 1
69 50 1
76 50 1
94 50 1
102 50 1
128 50 1
130 50 1
32 51 1
38 51 1
70 51 1
77 51 1
95 51 1
103 51 1
118 51 1
129 51 1
33 52 1
39 52 1
71 52 1
78 52 1
96 52 1
104 52 1
119 52 1
130 52 1
40 53 1
47 53 1
79 53 1
85 53 1
105 53 1
110 53 1
118 53 1
121 53 1
41 54 1
48 54 1
80 54 1
86 54 1
106 54 1
111 54 1
119 54 1
122 54 1
42 55 1
49 55 1
81 55 1
87 55 1
107 55 1
112 55 1
120 55 1
123 55 1
43 56 1
50 56 1
82 56 1
88 56 1
108 56 1
113 56 1
121 56 1
124 56 1
44 57 1
51 57 1
83 57 1
89 57 1
109 57 1
114 57 1
122 57 1
125 57 1
45 58 1
52 58 1
84 58 1
90 58 1
110 58 1
115 58 1
123 58 1
126 58 1
40 59 1
46 59 1
85 59 1
91 59 1
111 59 1
116 59 1
124 59 1
127 59 1
41 60 1
47 60 1
79 60 1
86 60 1
112 60 1
117 60 1
125 60 1
128 60 1
42 61 1
48 61 1
80 61 1
87 61 1
105 61 1
113 61 1
126 61 1
129 61 1
43 62 1
49 62 1
81 62 1
88 62 1
106 62 1
114 62 1
127 62 1
130 62 1
44 63 1
50 63 1
82 63 1
89 63 1
107 63 1
115 63 1
118 63 1
128 63 1
45 64 1
51 64 1
83 64 1
90 64 1
108 64 1
116 64 1
119 64 1
129 64 1
46 65 1
52 65 1
84 65 1
91 65 1
109 65 1
117 65 1
120 65 1
130 65 1
1 66 1
9 66 1
131 66 1
136 66 1
144 66 1
147 66 1
157 66 1
159 66 1
2 67 1
10 67 1
132 67 1
137 67 1
145 67 1
148 67 1
158 67 1
160 67 1
3 68 1
11 68 1
133 68 1
138 68 1
146 68 1
149 68 1
159 68 1
161 68 1
4 69 1
12 69 1
134 69 1
139 69 1
147 69 1
150 69 1
160 69 1
162 69 1
5 70 1
13 70 1
135 70 1
140 70 1
148 70 1
151 70 1
161 70 1
163 70 1
1 71 1
6 71 1
136 71 1
141 71 1
149 71 1
152 71 1
162 71 1
164 71 1
2 72 1
7 72 1
137 72 1
142 72 1
150 72 1
153 72 1
163 72 1
165 72 1
3 73 1
8 73 1
138 73 1
143 73 1
151 73 1
154 73 1
164 73 1
166 73 1
4 74 1
9 74 1
131 74 1
139 74 1
152 74 1
155 74 1
165 74 1
167 74 1
5 75 1
10 75 1
132 75 1
140 75 1
153 75 1
156 75 1
166 75 1
168 75 1
6 76 1
11 76 1
133 76 1
141 76 1
144 76 1
154 76 1
167 76 1
169 76 1
7 77 1
12 77 1
134 77 1
142 77 1
145 77 1
155 77 1
157 77 1
168 77 1
8 78 1
13 78 1
135 78 1
143 78 1
146 78 1
156 78 1
158 78 1
169 78 1
14 79 1
22 79 1
131 79 1
137 79 1
170 79 1
173 79 1
183 79 1
185 79 1
15 80 1
23 80 1
132 80 1
138 80 1
171 80 1
174 80 1
184 80 1
186 80 1
16 81 1
24 81 1
133 81 1
139 81 1
172 81 1
175 81 1
185 81 1
187 81 1
17 82 1
25 82 1
134 82 1
140 82 1
173 82 1
176 82 1
186 82 1
188 82 1
18 83 1
26 83 1
135 83 1
141 83 1
174 83 1
177 83 1
187 83 1
189 83 1
14 84 1
19 84 1
136 84 1
142 84 1
175 84 1
178 84 1
188 84 1
190 84 1
15 85 1
20 85 1
137 85 1
143 85 1
176 85 1
179 85 1
189 85 1
191 85 1
16 86 1
21 86 1
131 86 1
138 86 1
177 86 1
180 86 1
190 86 1
192 86 1
17 87 1
22 87 1
132 87 1
139 87 1
178 87 1
181 87 1
191 87 1
193 87 1
18 88 1
23 88 1
133 88 1
140 88 1
179 88 1
182 88 1
192 88 1
194 88 1
19 89 1
24 89 1
134 89 1
141 89 1
170 89 1
180 89 1
193 89 1
195 89 1
20 90 1
25 90 1
135 90 1
142 90 1
171 90 1
181 90 1
183 90 1
194 90 1
21 91 1
26 91 1
136 91 1
143 91 1
172 91 1
182 91 1
184 91 1
195 91 1
27 92 1
35 92 1
144 92 1
150 92 1
170 92 1
175 92 1
196 92 1
198 92 1
28 93 1
36 93 1
145 93 1
151 93 1
171 93 1
176 93 1
197 93 1
199 93 1
29 94 1
37 94 1
146 94 1
152 94 1
172 94 1
177 94 1
198 94 1
200 94 1
30 95 1
38 95 1
147 95 1
153 95 1
173 95 1
178 95 1
199 95 1
201 95 1
31 96 1
39 96 1
148 96 1
154 96 1
174 96 1
179 96 1
200 96 1
202 96 1
27 97 1
32 97 1
149 97 1
155 97 1
175 97 1
180 97 1
201 97 1
203 97 1
28 98 1
33 98 1
150 98 1
156 98 1
176 98 1
181 98 1
202 98 1
204 98 1
29 99 1
34 99 1
144 99 1
151 99 1
177 99 1
182 99 1
203 99 1
205 99 1
30 100 1
35 100 1
145 100 1
152 100 1
170 100 1
178 100 1
204 100 1
206 100 1
31 101 1
36 101 1
146 101 1
153 101 1
171 101 1
179 101 1
205 101 1
207 101 1
32 102 1
37 102 1
147 102 1
154 102 1
172 102 1
180 102 1
206 102 1
208 102 1
33 103 1
38 103 1
148 103 1
155 103 1
173 103 1
181 103 1
196 103 1
207 103 1
34 104 1
39 104 1
149 104 1
156 104 1
174 104 1
182 104 1
197 104 1
208 104 1
40 105 1
48 105 1
157 105 1
163 105 1
183 105 1
188 105 1
196 105 1
199 105 1
41 106 1
49 106 1
158 106 1
164 106 1
184 106 1
189 106 1
197 106 1
200 106 1
42 107 1
50 107 1
159 107 1
165 107 1
185 107 1
190 107 1
198 107 1
201 107 1
43 108 1
51 108 1
160 108 1
166 108 1
186 108 1
191 108 1
199 108 1
202 108 1
44 109 1
52 109 1
161 109 1
167 109 1
187 109 1
192 109 1
200 109 1
203 109 1
40 110 1
45 110 1
162 110 1
168 110 1
188 110 1
193 110 1
201 110 1
204 110 1
41 111 1
46 111 1
163 111 1
169 111 1
189 111 1
194 111 1
202 111 1
205 111 1
42 112 1
47 112 1
157 112 1
164 112 1
190 112 1
195 112 1
203 112 1
206 112 1
43 113 1
48 113 1
158 113 1
165 113 1
183 113 1
191 113 1
204 113 1
207 113 1
44 114 1
49 114 1
159 114 1
166 114 1
184 114 1
192 114 1
205 114 1
208 114 1
45 115 1
50 115 1
160 115 1
167 115 1
185 115 1
193 115 1
196 115 1
206 115 1
46 116 1
51 116 1
161 116 1
168 116 1
186 116 1
194 116 1
197 116 1
207 116 1
47 117 1
52 117 1
162 117 1
169 117 1
187 117 1
195 117 1
198 117 1
208 117 1
53 118 1
61 118 1
131 118 1
138 118 1
209 118 1
212 118 1
222 118 1
224 118 1
54 119 1
62 119 1
132 119 1
139 119 1
210 119 1
213 119 1
223 119 1
225 119 1
55 120 1
63 120 1
133 120 1
140 120 1
211 120 1
214 120 1
224 120 1
226 120 1
56 121 1
64 121 1
134 121 1
141 121 1
212 121 1
215 121 1
225 121 1
227 121 1
57 122 1
65 122 1
135 122 1
142 122 1
213 122 1
216 122 1
226 122 1
228 122 1
53 123 1
58 123 1
136 123 1
143 123 1
214 123 1
217 123 1
227 123 1
229 123 1
54 124 1
59 124 1
131 124 1
137 124 1
215 124 1
218 124 1
228 124 1
230 124 1
55 125 1
60 125 1
132 125 1
138 125 1
216 125 1
219 125 1
229 125 1
231 125 1
56 126 1
61 126 1
133 126 1
139 126 1
217 126 1
220 126 1
230 126 1
232 126 1
57 127 1
62 127 1
134 127 1
140 127 1
218 127 1
221 127 1
231 127 1
233 127 1
58 128 1
63 128 1
135 128 1
141 128 1
209 128 1
219 128 1
232 128 1
234 128 1
59 129 1
64 129 1
136 129 1
142 129 1
210 129 1
220 129 1
222 129 1
233 129 1
60 130 1
65 130 1
137 130 1
143 130 1
211 130 1
221 130 1
223 130 1
234 130 1
66 131 1
74 131 1
144 131 1
151 131 1
209 131 1
214 131 1
235 131 1
237 131 1
67 132 1
75 132 1
145 132 1
152 132 1
210 132 1
215 132 1
236 132 1
238 132 1
68 133 1
76 133 1
146 133 1
153 133 1
211 133 1
216 133 1
237 133 1
239 133 1
69 134 1
77 134 1
147 134 1
154 134 1
212 134 1
217 134 1
238 134 1
240 134 1
70 135 1
78 135 1
148 135 1
155 135 1
213 135 1
218 135 1
239 135 1
241 135 1
66 136 1
71 136 1
149 136 1
156 136 1
214 136 1
219 136 1
240 136 1
242 136 1
67 137 1
72 137 1
144 137 1
150 137 1
215 137 1
220 137 1
241 137 1
243 137 1
68 138 1
73 138 1
145 138 1
151 138 1
216 138 1
221 138 1
242 138 1
244 138 1
69 139 1
74 139 1
146 139 1
152 139 1
209 139 1
217 139 1
243 139 1
245 139 1
70 140 1
75 140 1
147 140 1
153 140 1
210 140 1
218 140 1
244 140 1
246 140 1
71 141 1
76 141 1
148 141 1
154 141 1
211 141 1
219 141 1
245 141 1
247 141 1
72 142 1
77 142 1
149 142 1
155 142 1
212 142 1
220 142 1
235 142 1
246 142 1
73 143 1
78 143 1
150 143 1
156 143 1
213 143 1
221 143 1
236 143 1
247 143 1
79 144 1
87 144 1
157 144 1
164 144 1
222 144 1
227 144 1
235 144 1
238 144 1
80 145 1
88 145 1
158 145 1
165 145 1
223 145 1
228 145 1
236 145 1
239 145 1
81 146 1
89 146 1
159 146 1
166 146 1
224 146 1
229 146 1
237 146 1
240 146 1
82 147 1
90 147 1
160 147 1
167 147 1
225 147 1
230 147 1
238 147 1
241 147 1
83 148 1
91 148 1
161 148 1
168 148 1
226 148 1
231 148 1
239 148 1
242 148 1
79 149 1
84 149 1
162 149 1
169 149 1
227 149 1
232 149 1
240 149 1
243 149 1
80 150 1
85 150 1
157 150 1
163 150 1
228 150 1
233 150 1
241 150 1
244 150 1
81 151 1
86 151 1
158 151 1
164 151 1
229 151 1
234 151 1
242 151 1
245 151 1
82 152 1
87 152 1
159 152 1
165 152 1
222 152 1
230 152 1
243 152 1
246 152 1
83 153 1
88 153 1
160 153 1
166 153 1
223 153 1
231 153 1
244 153 1
247 153 1
84 154 1
89 154 1
161 154 1
167 154 1
224 154 1
232 154 1
235 154 1
245 154 1
85 155 1
90 155 1
162 155 1
168 155 1
225 155 1
233 155 1
236 155 1
246 155 1
86 156 1
91 156 1
163 156 1
169 156 1
226 156 1
234 156 1
237 156 1
247 156 1
92 157 1
100 157 1
170 157 1
177 157 1
209 157 1
215 157 1
248 157 1
250 157 1
93 158 1
101 158 1
171 158 1
178 158 1
210 158 1
216 158 1
249 158 1
251 158 1
94 159 1
102 159 1
172 159 1
179 159 1
211 159 1
217 159 1
250 159 1
252 159 1
95 160 1
103 160 1
173 160 1
180 160 1
212 160 1
218 160 1
251 160 1
253 160 1
96 161 1
104 161 1
174 161 1
181 161 1
213 161 1
219 161 1
252 161 1
254 161 1
92 162 1
97 162 1
175 162 1
182 162 1
214 162 1
220 162 1
253 162 1
255 162 1
93 163 1
98 163 1
170 163 1
176 163 1
215 163 1
221 163 1
254 163 1
256 163 1
94 164 1
99 164 1
171 164 1
177 164 1
209 164 1
216 164 1
255 164 1
257 164 1
95 165 1
100 165 1
172 165 1
178 165 1
210 165 1
217 165 1
256 165 1
258 165 1
96 166 1
101 166 1
173 166 1
179 166 1
211 166 1
218 166 1
257 166 1
259 166 1
97 167 1
102 167 1
174 167 1
180 167 1
212 167 1
219 167 1
258 167 1
260 167 1
98 168 1
103 168 1
175 168 1
181 168 1
213 168 1
220 168 1
248 168 1
259 168 1
99 169 1
104 169 1
176 169 1
182 169 1
214 169 1
221 169 1
249 169 1
260 169 1
105 170 1
113 170 1
183 170 1
190 170 1
222 170 1
228 170 1
248 170 1
251 170 1
106 171 1
114 171 1
184 171 1
191 171 1
223 171 1
229 171 1
249 171 1
252 171 1
107 172 1
115 172 1
185 172 1
192 172 1
224 172 1
230 172 1
250 172 1
253 172 1
108 173 1
116 173 1
186 173 1
193 173 1
225 173 1
231 173 1
251 173 1
254 173 1
109 174 1
117 174 1
187 174 1
194 174 1
226 174 1
232 174 1
252 174 1
255 174 1
105 175 1
110 175 1
188 175 1
195 175 1
227 175 1
233 175 1
253 175 1
256 175 1
106 176 1
111 176 1
183 176 1
189 176 1
228 176 1
234 176 1
254 176 1
257 176 1
107 177 1
112 177 1
184 177 1
190 177 1
222 177 1
229 177 1
255 177 1
258 177 1
108 178 1
113 178 1
185 178 1
191 178 1
223 178 1
230 178 1
256 178 1
259 178 1
109 179 1
114 179 1
186 179 1
192 179 1
224 179 1
231 179 1
257 179 1
260 179 1
110 180 1
115 180 1
187 180 1
193 180 1
225 180 1
232 180 1
248 180 1
258 180 1
111 181 1
116 181 1
188 181 1
194 181 1
226 181 1
233 181 1
249 181 1
259 181 1
112 182 1
117 182 1
189 182 1
195 182 1
227 182 1
234 182 1
250 182 1
260 182 1
118 183 1
126 183 1
196 183 1
203 183 1
235 183 1
241 183 1
248 183 1
253 183 1
119 184 1
127 184 1
197 184 1
204 184 1
236 184 1
242 184 1
249 184 1
254 184 1
120 185 1
128 185 1
198 185 1
205 185 1
237 185 1
243 185 1
250 185 1
255 185 1
121 186 1
129 186 1
199 186 1
206 186 1
238 186 1
244 186 1
251 186 1
256 186 1
122 187 1
130 187 1
200 187 1
207 187 1
239 187 1
245 187 1
252 187 1
257 187 1
118 188 1
123 188 1
201 188 1
208 188 1
240 188 1
246 188 1
253 188 1
258 188 1
119 189 1
124 189 1
196 189 1
202 189 1
241 189 1
247 189 1
254 189 1
259 189 1
120 190 1
125 190 1
197 190 1
203 190 1
235 190 1
242 190 1
255 190 1
260 190 1
121 191 1
126 191 1
198 191 1
204 191 1
236 191 1
243 191 1
248 191 1
256 191 1
122 192 1
127 192 1
199 192 1
205 192 1
237 192 1
244 192 1
249 192 1
257 192 1
123 193 1
128 193 1
200 193 1
206 193 1
238 193 1
245 193 1
250 193 1
258 193 1
124 194 1
129 194 1
201 194 1
207 194 1
239 194 1
246 194 1
251 194 1
259 194 1
125 195 1
130 195 1
202 195 1
208 195 1
240 195 1
247 195 1
252 195 1
260 195 1
1 196 1
10 196 1
261 196 1
266 196 1
274 196 1
277 196 1
287 196 1
289 196 1
2 197 1
11 197 1
262 197 1
267 197 1
275 197 1
278 197 1
288 197 1
290 197 1
3 198 1
12 198 1
263 198 1
268 198 1
276 198 1
279 198 1
289 198 1
291 198 1
4 199 1
13 199 1
264 199 1
269 199 1
277 199 1
280 199 1
290 199 1
292 199 1
1 200 1
5 200 1
265 200 1
270 200 1
278 200 1
281 200 1
291 200 1
293 200 1
2 201 1
6 201 1
266 201 1
271 201 1
279 201 1
282 201 1
292 201 1
294 201 1
3 202 1
7 202 1
267 202 1
272 202 1
280 202 1
283 202 1
293 202 1
295 202 1
4 203 1
8 203 1
268 203 1
273 203 1
281 203 1
284 203 1
294 203 1
296 203 1
5 204 1
9 204 1
261 204 1
269 204 1
282 204 1
285 204 1
295 204 1
297 204 1
6 205 1
10 205 1
262 205 1
270 205 1
283 205 1
286 205 1
296 205 1
298 205 1
7 206 1
11 206 1
263 206 1
271 206 1
274 206 1
284 206 1
297 206 1
299 206 1
8 207 1
12 207 1
264 207 1
272 207 1
275 207 1
285 207 1
287 207 1
298 207 1
9 208 1
13 208 1
265 208 1
273 208 1
276 208 1
286 208 1
288 208 1
299 208 1
14 209 1
23 209 1
261 209 1
267 209 1
300 209 1
303 209 1
313 209 1
315 209 1
15 210 1
24 210 1
262 210 1
268 210 1
301 210 1
304 210 1
314 210 1
316 210 1
16 211 1
25 211 1
263 211 1
269 211 1
302 211 1
305 211 1
315 211 1
317 211 1
17 212 1
26 212 1
264 212 1
270 212 1
303 212 1
306 212 1
316 212 1
318 212 1
14 213 1
18 213 1
265 213 1
271 213 1
304 213 1
307 213 1
317 213 1
319 213 1
15 214 1
19 214 1
266 214 1
272 214 1
305 214 1
308 214 1
318 214 1
320 214 1
16 215 1
20 215 1
267 215 1
273 215 1
306 215 1
309 215 1
319 215 1
321 215 1
17 216 1
21 216 1
261 216 1
268 216 1
307 216 1
310 216 1
320 216 1
322 216 1
18 217 1
22 217 1
262 217 1
269 217 1
308 217 1
311 217 1
321 217 1
323 217 1
19 218 1
23 218 1
263 218 1
270 218 1
309 218 1
312 218 1
322 218 1
324 218 1
20 219 1
24 219 1
264 219 1
271 219 1
300 219 1
310 219 1
323 219 1
325 219 1
21 220 1
25 220 1
265 220 1
272 220 1
301 220 1
311 220 1
313 220 1
324 220 1
22 221 1
26 221 1
266 221 1
273 221 1
302 221 1
312 221 1
314 221 1
325 221 1
27 222 1
36 222 1
274 222 1
280 222 1
300 222 1
305 222 1
326 222 1
328 222 1
28 223 1
37 223 1
275 223 1
281 223 1
301 223 1
306 223 1
327 223 1
329 223 1
29 224 1
38 224 1
276 224 1
282 224 1
302 224 1
307 224 1
328 224 1
330 224 1
30 225 1
39 225 1
277 225 1
283 225 1
303 225 1
308 225 1
329 225 1
331 225 1
27 226 1
31 226 1
278 226 1
284 226 1
304 226 1
309 226 1
330 226 1
332 226 1
28 227 1
32 227 1
279 227 1
285 227 1
305 227 1
310 227 1
331 227 1
333 227 1
29 228 1
33 228 1
280 228 1
286 228 1
306 228 1
311 228 1
332 228 1
334 228 1
30 229 1
34 229 1
274 229 1
281 229 1
307 229 1
312 229 1
333 229 1
335 229 1
31 230 1
35 230 1
275 230 1
282 230 1
300 230 1
308 230 1
334 230 1
336 230 1
32 231 1
36 231 1
276 231 1
283 231 1
301 231 1
309 231 1
335 231 1
337 231 1
33 232 1
37 232 1
277 232 1
284 232 1
302 232 1
310 232 1
336 232 1
338 232 1
34 233 1
38 233 1
278 233 1
285 233 1
303 233 1
311 233 1
326 233 1
337 233 1
35 234 1
39 234 1
279 234 1
286 234 1
304 234 1
312 234 1
327 234 1
338 234 1
40 235 1
49 235 1
287 235 1
293 235 1
313 235 1
318 235 1
326 235 1
329 235 1
41 236 1
50 236 1
288 236 1
294 236 1
314 236 1
319 236 1
327 236 1
330 236 1
42 237 1
51 237 1
289 237 1
295 237 1
315 237 1
320 237 1
328 237 1
331 237 1
43 238 1
52 238 1
290 238 1
296 238 1
316 238 1
321 238 1
329 238 1
332 238 1
40 239 1
44 239 1
291 239 1
297 239 1
317 239 1
322 239 1
330 239 1
333 239 1
41 240 1
45 240 1
292 240 1
298 240 1
318 240 1
323 240 1
331 240 1
334 240 1
42 241 1
46 241 1
293 241 1
299 241 1
319 241 1
324 241 1
332 241 1
335 241 1
43 242 1
47 242 1
287 242 1
294 242 1
320 242 1
325 242 1
333 242 1
336 242 1
44 243 1
48 243 1
288 243 1
295 243 1
313 243 1
321 243 1
334 243 1
337 243 1
45 244 1
49 244 1
289 244 1
296 244 1
314 244 1
322 244 1
335 244 1
338 244 1
46 245 1
50 245 1
290 245 1
297 245 1
315 245 1
323 245 1
326 245 1
336 245 1
47 246 1
51 246 1
291 246 1
298 246 1
316 246 1
324 246 1
327 246 1
337 246 1
48 247 1
52 247 1
292 247 1
299 247 1
317 247 1
325 247 1
328 247 1
338 247 1
53 248 1
62 248 1
261 248 1
268 248 1
339 248 1
342 248 1
352 248 1
354 248 1
54 249 1
63 249 1
262 249 1
269 249 1
340 249 1
343 249 1
353 249 1
355 249 1
55 250 1
64 250 1
263 250 1
270 250 1
341 250 1
344 250 1
354 250 1
356 250 1
56 251 1
65 251 1
264 251 1
271 251 1
342 251 1
345 251 1
355 251 1
357 251 1
53 252 1
57 252 1
265 252 1
272 252 1
343 252 1
346 252 1
356 252 1
358 252 1
54 253 1
58 253 1
266 253 1
273 253 1
344 253 1
347 253 1
357 253 1
359 253 1
55 254 1
59 254 1
261 254 1
267 254 1
345 254 1
348 254 1
358 254 1
360 254 1
56 255 1
60 255 1
262 255 1
268 255 1
346 255 1
349 255 1
359 255 1
361 255 1
57 256 1
61 256 1
263 256 1
269 256 1
347 256 1
350 256 1
360 256 1
362 256 1
58 257 1
62 257 1
264 257 1
270 257 1
348 257 1
351 257 1
361 257 1
363 257 1
59 258 1
63 258 1
265 258 1
271 258 1
339 258 1
349 258 1
362 258 1
364 258 1
60 259 1
64 259 1
266 259 1
272 259 1
340 259 1
350 259 1
352 259 1
363 259 1
61 260 1
65 260 1
267 260 1
273 260 1
341 260 1
351 260 1
353 260 1
364 260 1
66 261 1
75 261 1
274 261 1
281 261 1
339 261 1
344 261 1
365 261 1
367 261 1
67 262 1
76 262 1
275 262 1
282 262 1
340 262 1
345 262 1
366 262 1
368 262 1
68 263 1
77 263 1
276 263 1
283 263 1
341 263 1
346 263 1
367 263 1
369 263 1
69 264 1
78 264 1
277 264 1
284 264 1
342 264 1
347 264 1
368 264 1
370 264 1
66 265 1
70 265 1
278 265 1
285 265 1
343 265 1
348 265 1
369 265 1
371 265 1
67 266 1
71 266 1
279 266 1
286 266 1
344 266 1
349 266 1
370 266 1
372 266 1
68 267 1
72 267 1
274 267 1
280 267 1
345 267 1
350 267 1
371 267 1
373 267 1
69 268 1
73 268 1
275 268 1
281 268 1
346 268 1
351 268 1
372 268 1
374 268 1
70 269 1
74 269 1
276 269 1
282 269 1
339 269 1
347 269 1
373 269 1
375 269 1
71 270 1
75 270 1
277 270 1
283 270 1
340 270 1
348 270 1
374 270 1
376 270 1
72 271 1
76 271 1
278 271 1
284 271 1
341 271 1
349 271 1
375 271 1
377 271 1
73 272 1
77 272 1
279 272 1
285 272 1
342 272 1
350 272 1
365 272 1
376 272 1
74 273 1
78 273 1
280 273 1
286 273 1
343 273 1
351 273 1
366 273 1
377 273 1
79 274 1
88 274 1
287 274 1
294 274 1
352 274 1
357 274 1
365 274 1
368 274 1
80 275 1
89 275 1
288 275 1
295 275 1
353 275 1
358 275 1
366 275 1
369 275 1
81 276 1
90 276 1
289 276 1
296 276 1
354 276 1
359 276 1
367 276 1
370 276 1
82 277 1
91 277 1
290 277 1
297 277 1
355 277 1
360 277 1
368 277 1
371 277 1
79 278 1
83 278 1
291 278 1
298 278 1
356 278 1
361 278 1
369 278 1
372 278 1
80 279 1
84 279 1
292 279 1
299 279 1
357 279 1
362 279 1
370 279 1
373 279 1
81 280 1
85 280 1
287 280 1
293 280 1
358 280 1
363 280 1
371 280 1
374 280 1
82 281 1
86 281 1
288 281 1
294 281 1
359 281 1
364 281 1
372 281 1
375 281 1
83 282 1
87 282 1
289 282 1
295 282 1
352 282 1
360 282 1
373 282 1
376 282 1
84 283 1
88 283 1
290 283 1
296 283 1
353 283 1
361 283 1
374 283 1
377 283 1
85 284 1
89 284 1
291 284 1
297 284 1
354 284 1
362 284 1
365 284 1
375 284 1
86 285 1
90 285 1
292 285 1
298 285 1
355 285 1
363 285 1
366 285 1
376 285 1
87 286 1
91 286 1
293 286 1
299 286 1
356 286 1
364 286 1
367 286 1
377 286 1
92 287 1
101 287 1
300 287 1
307 287 1
339 287 1
345 287 1
378 287 1
380 287 1
93 288 1
102 288 1
301 288 1
308 288 1
340 288 1
346 288 1
379 288 1
381 288 1
94 289 1
103 289 1
302 289 1
309 289 1
341 289 1
347 289 1
380 289 1
382 289 1
95 290 1
104 290 1
303 290 1
310 290 1
342 290 1
348 290 1
381 290 1
383 290 1
92 291 1
96 291 1
304 291 1
311 291 1
343 291 1
349 291 1
382 291 1
384 291 1
93 292 1
97 292 1
305 292 1
312 292 1
344 292 1
350 292 1
383 292 1
385 292 1
94 293 1
98 293 1
300 293 1
306 293 1
345 293 1
351 293 1
384 293 1
386 293 1
95 294 1
99 294 1
301 294 1
307 294 1
339 294 1
346 294 1
385 294 1
387 294 1
96 295 1
100 295 1
302 295 1
308 295 1
340 295 1
347 295 1
386 295 1
388 295 1
97 296 1
101 296 1
303 296 1
309 296 1
341 296 1
348 296 1
387 296 1
389 296 1
98 297 1
102 297 1
304 297 1
310 297 1
342 297 1
349 297 1
388 297 1
390 297 1
99 298 1
103 298 1
305 298 1
311 298 1
343 298 1
350 298 1
378 298 1
389 298 1
100 299 1
104 299 1
306 299 1
312 299 1
344 299 1
351 299 1
379 299 1
390 299 1
105 300 1
114 300 1
313 300 1
320 300 1
352 300 1
358 300 1
378 300 1
381 300 1
106 301 1
115 301 1
314 301 1
321 301 1
353 301 1
359 301 1
379 301 1
382 301 1
107 302 1
116 302 1
315 302 1
322 302 1
354 302 1
360 302 1
380 302 1
383 302 1
108 303 1
117 303 1
316 303 1
323 303 1
355 303 1
361 303 1
381 303 1
384 303 1
105 304 1
109 304 1
317 304 1
324 304 1
356 304 1
362 304 1
382 304 1
385 304 1
106 305 1
110 305 1
318 305 1
325 305 1
357 305 1
363 305 1
383 305 1
386 305 1
107 306 1
111 306 1
313 306 1
319 306 1
358 306 1
364 306 1
384 306 1
387 306 1
108 307 1
112 307 1
314 307 1
320 307 1
352 307 1
359 307 1
385 307 1
388 307 1
109 308 1
113 308 1
315 308 1
321 308 1
353 308 1
360 308 1
386 308 1
389 308 1
110 309 1
114 309 1
316 309 1
322 309 1
354 309 1
361 309 1
387 309 1
390 309 1
111 310 1
115 310 1
317 310 1
323 310 1
355 310 1
362 310 1
378 310 1
388 310 1
112 311 1
116 311 1
318 311 1
324 311 1
356 311 1
363 311 1
379 311 1
389 311 1
113 312 1
117 312 1
319 312 1
325 312 1
357 312 1
364 312 1
380 312 1
390 312 1
118 313 1
127 313 1
326 313 1
333 313 1
365 313 1
371 313 1
378 313 1
383 313 1
119 314 1
128 314 1
327 314 1
334 314 1
366 314 1
372 314 1
379 314 1
384 314 1
120 315 1
129 315 1
328 315 1
335 315 1
367 315 1
373 315 1
380 315 1
385 315 1
121 316 1
130 316 1
329 316 1
336 316 1
368 316 1
374 316 1
381 316 1
386 316 1
118 317 1
122 317 1
330 317 1
337 317 1
369 317 1
375 317 1
382 317 1
387 317 1
119 318 1
123 318 1
331 318 1
338 318 1
370 318 1
376 318 1
383 318 1
388 318 1
120 319 1
124 319 1
326 319 1
332 319 1
371 319 1
377 319 1
384 319 1
389 319 1
121 320 1
125 320 1
327 320 1
333 320 1
365 320 1
372 320 1
385 320 1
390 320 1
122 321 1
126 321 1
328 321 1
334 321 1
366 321 1
373 321 1
378 321 1
386 321 1
123 322 1
127 322 1
329 322 1
335 322 1
367 322 1
374 322 1
379 322 1
387 322 1
124 323 1
128 323 1
330 323 1
336 323 1
368 323 1
375 323 1
380 323 1
388 323 1
125 324 1
129 324 1
331 324 1
337 324 1
369 324 1
376 324 1
381 324 1
389 324 1
126 325 1
130 325 1
332 325 1
338 325 1
370 325 1
377 325 1
382 325 1
390 325 1
131 326 1
140 326 1
261 326 1
269 326 1
391 326 1
394 326 1
404 326 1
406 326 1
132 327 1
141 327 1
262 327 1
270 327 1
392 327 1
395 327 1
405 327 1
407 327 1
133 328 1
142 328 1
263 328 1
271 328 1
393 328 1
396 328 1
406 328 1
408 328 1
134 329 1
143 329 1
264 329 1
272 329 1
394 329 1
397 329 1
407 329 1
409 329 1
131 330 1
135 330 1
265 330 1
273 330 1
395 330 1
398 330 1
408 330 1
410 330 1
132 331 1
136 331 1
261 331 1
266 331 1
396 331 1
399 331 1
409 331 1
411 331 1
133 332 1
137 332 1
262 332 1
267 332 1
397 332 1
400 332 1
410 332 1
412 332 1
134 333 1
138 333 1
263 333 1
268 333 1
398 333 1
401 333 1
411 333 1
413 333 1
135 334 1
139 334 1
264 334 1
269 334 1
399 334 1
402 334 1
412 334 1
414 334 1
136 335 1
140 335 1
265 335 1
270 335 1
400 335 1
403 335 1
413 335 1
415 335 1
137 336 1
141 336 1
266 336 1
271 336 1
391 336 1
401 336 1
414 336 1
416 336 1
138 337 1
142 337 1
267 337 1
272 337 1
392 337 1
402 337 1
404 337 1
415 337 1
139 338 1
143 338 1
268 338 1
273 338 1
393 338 1
403 338 1
405 338 1
416 338 1
144 339 1
153 339 1
274 339 1
282 339 1
391 339 1
396 339 1
417 339 1
419 339 1
145 340 1
154 340 1
275 340 1
283 340 1
392 340 1
397 340 1
418 340 1
420 340 1
146 341 1
155 341 1
276 341 1
284 341 1
393 341 1
398 341 1
419 341 1
421 341 1
147 342 1
156 342 1
277 342 1
285 342 1
394 342 1
399 342 1
420 342 1
422 342 1
144 343 1
148 343 1
278 343 1
286 343 1
395 343 1
400 343 1
421 343 1
423 343 1
145 344 1
149 344 1
274 344 1
279 344 1
396 344 1
401 344 1
422 344 1
424 344 1
146 345 1
150 345 1
275 345 1
280 345 1
397 345 1
402 345 1
423 345 1
425 345 1
147 346 1
151 346 1
276 346 1
281 346 1
398 346 1
403 346 1
424 346 1
426 346 1
148 347 1
152 347 1
277 347 1
282 347 1
391 347 1
399 347 1
425 347 1
427 347 1
149 348 1
153 348 1
278 348 1
283 348 1
392 348 1
400 348 1
426 348 1
428 348 1
150 349 1
154 349 1
279 349 1
284 349 1
393 349 1
401 349 1
427 349 1
429 349 1
151 350 1
155 350 1
280 350 1
285 350 1
394 350 1
402 350 1
417 350 1
428 350 1
152 351 1
156 351 1
281 351 1
286 351 1
395 351 1
403 351 1
418 351 1
429 351 1
157 352 1
166 352 1
287 352 1
295 352 1
404 352 1
409 352 1
417 352 1
420 352 1
158 353 1
167 353 1
288 353 1
296 353 1
405 353 1
410 353 1
418 353 1
421 353 1
159 354 1
168 354 1
289 354 1
297 354 1
406 354 1
411 354 1
419 354 1
422 354 1
160 355 1
169 355 1
290 355 1
298 355 1
407 355 1
412 355 1
420 355 1
423 355 1
157 356 1
161 356 1
291 356 1
299 356 1
408 356 1
413 356 1
421 356 1
424 356 1
158 357 1
162 357 1
287 357 1
292 357 1
409 357 1
414 357 1
422 357 1
425 357 1
159 358 1
163 358 1
288 358 1
293 358 1
410 358 1
415 358 1
423 358 1
426 358 1
160 359 1
164 359 1
289 359 1
294 359 1
411 359 1
416 359 1
424 359 1
427 359 1
161 360 1
165 360 1
290 360 1
295 360 1
404 360 1
412 360 1
425 360 1
428 360 1
162 361 1
166 361 1
291 361 1
296 361 1
405 361 1
413 361 1
426 361 1
429 361 1
163 362 1
167 362 1
292 362 1
297 362 1
406 362 1
414 362 1
417 362 1
427 362 1
164 363 1
168 363 1
293 363 1
298 363 1
407 363 1
415 363 1
418 363 1
428 363 1
165 364 1
169 364 1
294 364 1
299 364 1
408 364 1
416 364 1
419 364 1
429 364 1
170 365 1
179 365 1
300 365 1
308 365 1
391 365 1
397 365 1
430 365 1
432 365 1
171 366 1
180 366 1
301 366 1
309 366 1
392 366 1
398 366 1
431 366 1
433 366 1
172 367 1
181 367 1
302 367 1
310 367 1
393 367 1
399 367 1
432 367 1
434 367 1
173 368 1
182 368 1
303 368 1
311 368 1
394 368 1
400 368 1
433 368 1
435 368 1
170 369 1
174 369 1
304 369 1
312 369 1
395 369 1
401 369 1
434 369 1
436 369 1
171 370 1
175 370 1
300 370 1
305 370 1
396 370 1
402 370 1
435 370 1
437 370 1
172 371 1
176 371 1
301 371 1
306 371 1
397 371 1
403 371 1
436 371 1
438 371 1
173 372 1
177 372 1
302 372 1
307 372 1
391 372 1
398 372 1
437 372 1
439 372 1
174 373 1
178 373 1
303 373 1
308 373 1
392 373 1
399 373 1
438 373 1
440 373 1
175 374 1
179 374 1
304 374 1
309 374 1
393 374 1
400 374 1
439 374 1
441 374 1
176 375 1
180 375 1
305 375 1
310 375 1
394 375 1
401 375 1
440 375 1
442 375 1
177 376 1
181 376 1
306 376 1
311 376 1
395 376 1
402 376 1
430 376 1
441 376 1
178 377 1
182 377 1
307 377 1
312 377 1
396 377 1
403 377 1
431 377 1
442 377 1
183 378 1
192 378 1
313 378 1
321 378 1
404 378 1
410 378 1
430 378 1
433 378 1
184 379 1
193 379 1
314 379 1
322 379 1
405 379 1
411 379 1
431 379 1
434 379 1
185 380 1
194 380 1
315 380 1
323 380 1
406 380 1
412 380 1
432 380 1
435 380 1
186 381 1
195 381 1
316 381 1
324 381 1
407 381 1
413 381 1
433 381 1
436 381 1
183 382 1
187 382 1
317 382 1
325 382 1
408 382 1
414 382 1
434 382 1
437 382 1
184 383 1
188 383 1
313 383 1
318 383 1
409 383 1
415 383 1
435 383 1
438 383 1
185 384 1
189 384 1
314 384 1
319 384 1
410 384 1
416 384 1
436 384 1
439 384 1
186 385 1
190 385 1
315 385 1
320 385 1
404 385 1
411 385 1
437 385 1
440 385 1
187 386 1
191 386 1
316 386 1
321 386 1
405 386 1
412 386 1
438 386 1
441 386 1
188 387 1
192 387 1
317 387 1
322 387 1
406 387 1
413 387 1
439 387 1
442 387 1
189 388 1
193 388 1
318 388 1
323 388 1
407 388 1
414 388 1
430 388 1
440 388 1
190 389 1
194 389 1
319 389 1
324 389 1
408 389 1
415 389 1
431 389 1
441 389 1
191 390 1
195 390 1
320 390 1
325 390 1
409 390 1
416 390 1
432 390 1
442 390 1
196 391 1
205 391 1
326 391 1
334 391 1
417 391 1
423 391 1
430 391 1
435 391 1
197 392 1
206 392 1
327 392 1
335 392 1
418 392 1
424 392 1
431 392 1
436 392 1
198 393 1
207 393 1
328 393 1
336 393 1
419 393 1
425 393 1
432 393 1
437 393 1
199 394 1
208 394 1
329 394 1
337 394 1
420 394 1
426 394 1
433 394 1
438 394 1
196 395 1
200 395 1
330 395 1
338 395 1
421 395 1
427 395 1
434 395 1
439 395 1
197 396 1
201 396 1
326 396 1
331 396 1
422 396 1
428 396 1
435 396 1
440 396 1
198 397 1
202 397 1
327 397 1
332 397 1
423 397 1
429 397 1
436 397 1
441 397 1
199 398 1
203 398 1
328 398 1
333 398 1
417 398 1
424 398 1
437 398 1
442 398 1
200 399 1
204 399 1
329 399 1
334 399 1
418 399 1
425 399 1
430 399 1
438 399 1
201 400 1
205 400 1
330 400 1
335 400 1
419 400 1
426 400 1
431 400 1
439 400 1
202 401 1
206 401 1
331 401 1
336 401 1
420 401 1
427 401 1
432 401 1
440 401 1
203 402 1
207 402 1
332 402 1
337 402 1
421 402 1
428 402 1
433 402 1
441 402 1
204 403 1
208 403 1
333 403 1
338 403 1
422 403 1
429 403 1
434 403 1
442 403 1
209 404 1
218 404 1
339 404 1
347 404 1
391 404 1
398 404 1
443 404 1
445 404 1
210 405 1
219 405 1
340 405 1
348 405 1
392 405 1
399 405 1
444 405 1
446 405 1
211 406 1
220 406 1
341 406 1
349 406 1
393 406 1
400 406 1
445 406 1
447 406 1
212 407 1
221 407 1
342 407 1
350 407 1
394 407 1
401 407 1
446 407 1
448 407 1
209 408 1
213 408 1
343 408 1
351 408 1
395 408 1
402 408 1
447 408 1
449 408 1
210 409 1
214 409 1
339 409 1
344 409 1
396 409 1
403 409 1
448 409 1
450 409 1
211 410 1
215 410 1
340 410 1
345 410 1
391 410 1
397 410 1
449 410 1
451 410 1
212 411 1
216 411 1
341 411 1
346 411 1
392 411 1
398 411 1
450 411 1
452 411 1
213 412 1
217 412 1
342 412 1
347 412 1
393 412 1
399 412 1
451 412 1
453 412 1
214 413 1
218 413 1
343 413 1
348 413 1
394 413 1
400 413 1
452 413 1
454 413 1
215 414 1
219 414 1
344 414 1
349 414 1
395 414 1
401 414 1
453 414 1
455 414 1
216 415 1
220 415 1
345 415 1
350 415 1
396 415 1
402 415 1
443 415 1
454 415 1
217 416 1
221 416 1
346 416 1
351 416 1
397 416 1
403 416 1
444 416 1
455 416 1
222 417 1
231 417 1
352 417 1
360 417 1
404 417 1
411 417 1
443 417 1
446 417 1
223 418 1
232 418 1
353 418 1
361 418 1
405 418 1
412 418 1
444 418 1
447 418 1
224 419 1
233 419 1
354 419 1
362 419 1
406 419 1
413 419 1
445 419 1
448 419 1
225 420 1
234 420 1
355 420 1
363 420 1
407 420 1
414 420 1
446 420 1
449 420 1
222 421 1
226 421 1
356 421 1
364 421 1
408 421 1
415 421 1
447 421 1
450 421 1
223 422 1
227 422 1
352 422 1
357 422 1
409 422 1
416 422 1
448 422 1
451 422 1
224 423 1
228 423 1
353 423 1
358 423 1
404 423 1
410 423 1
449 423 1
452 423 1
225 424 1
229 424 1
354 424 1
359 424 1
405 424 1
411 424 1
450 424 1
453 424 1
226 425 1
230 425 1
355 425 1
360 425 1
406 425 1
412 425 1
451 425 1
454 425 1
227 426 1
231 426 1
356 426 1
361 426 1
407 426 1
413 426 1
452 426 1
455 426 1
228 427 1
232 427 1
357 427 1
362 427 1
408 427 1
414 427 1
443 427 1
453 427 1
229 428 1
233 428 1
358 428 1
363 428 1
409 428 1
415 428 1
444 428 1
454 428 1
230 429 1
234 429 1
359 429 1
364 429 1
410 429 1
416 429 1
445 429 1
455 429 1
235 430 1
244 430 1
365 430 1
373 430 1
417 430 1
424 430 1
443 430 1
448 430 1
236 431 1
245 431 1
366 431 1
374 431 1
418 431 1
425 431 1
444 431 1
449 431 1
237 432 1
246 432 1
367 432 1
375 432 1
419 432 1
426 432 1
445 432 1
450 432 1
238 433 1
247 433 1
368 433 1
376 433 1
420 433 1
427 433 1
446 433 1
451 433 1
235 434 1
239 434 1
369 434 1
377 434 1
421 434 1
428 434 1
447 434 1
452 434 1
236 435 1
240 435 1
365 435 1
370 435 1
422 435 1
429 435 1
448 435 1
453 435 1
237 436 1
241 436 1
366 436 1
371 436 1
417 436 1
423 436 1
449 436 1
454 436 1
238 437 1
242 437 1
367 437 1
372 437 1
418 437 1
424 437 1
450 437 1
455 437 1
239 438 1
243 438 1
368 438 1
373 438 1
419 438 1
425 438 1
443 438 1
451 438 1
240 439 1
244 439 1
369 439 1
374 439 1
420 439 1
426 439 1
444 439 1
452 439 1
241 440 1
245 440 1
370 440 1
375 440 1
421 440 1
427 440 1
445 440 1
453 440 1
242 441 1
246 441 1
371 441 1
376 441 1
422 441 1
428 441 1
446 441 1
454 441 1
243 442 1
247 442 1
372 442 1
377 442 1
423 442 1
429 442 1
447 442 1
455 442 1
248 443 1
257 443 1
378 443 1
386 443 1
430 443 1
437 443 1
443 443 1
449 443 1
249 444 1
258 444 1
379 444 1
387 444 1
431 444 1
438 444 1
444 444 1
450 444 1
250 445 1
259 445 1
380 445 1
388 445 1
432 445 1
439 445 1
445 445 1
451 445 1
251 446 1
260 446 1
381 446 1
389 446 1
433 446 1
440 446 1
446 446 1
452 446 1
248 447 1
252 447 1
382 447 1
390 447 1
434 447 1
441 447 1
447 447 1
453 447 1
249 448 1
253 448 1
378 448 1
383 448 1
435 448 1
442 448 1
448 448 1
454 448 1
250 449 1
254 449 1
379 449 1
384 449 1
430 449 1
436 449 1
449 449 1
455 449 1
251 450 1
255 450 1
380 450 1
385 450 1
431 450 1
437 450 1
443 450 1
450 450 1
252 451 1
256 451 1
381 451 1
386 451 1
432 451 1
438 451 1
444 451 1
451 451 1
253 452 1
257 452 1
382 452 1
387 452 1
433 452 1
439 452 1
445 452 1
452 452 1
254 453 1
258 453 1
383 453 1
388 453 1
434 453 1
440 453 1
446 453 1
453 453 1
255 454 1
259 454 1
384 454 1
389 454 1
435 454 1
441 454 1
447 454 1
454 454 1
256 455 1
260 455 1
385 455 1
390 455 1
436 455 1
442 455 1
448 455 1
455 455 1
1 456 1
12 456 1
456 456 1
461 456 1
469 456 1
472 456 1
482 456 1
484 456 1
2 457 1
13 457 1
457 457 1
462 457 1
470 457 1
473 457 1
483 457 1
485 457 1
1 458 1
3 458 1
458 458 1
463 458 1
471 458 1
474 458 1
484 458 1
486 458 1
2 459 1
4 459 1
459 459 1
464 459 1
472 459 1
475 459 1
485 459 1
487 459 1
3 460 1
5 460 1
460 460 1
465 460 1
473 460 1
476 460 1
486 460 1
488 460 1
4 461 1
6 461 1
461 461 1
466 461 1
474 461 1
477 461 1
487 461 1
489 461 1
5 462 1
7 462 1
462 462 1
467 462 1
475 462 1
478 462 1
488 462 1
490 462 1
6 463 1
8 463 1
463 463 1
468 463 1
476 463 1
479 463 1
489 463 1
491 463 1
7 464 1
9 464 1
456 464 1
464 464 1
477 464 1
480 464 1
490 464 1
492 464 1
8 465 1
10 465 1
457 465 1
465 465 1
478 465 1
481 465 1
491 465 1
493 465 1
9 466 1
11 466 1
458 466 1
466 466 1
469 466 1
479 466 1
492 466 1
494 466 1
10 467 1
12 467 1
459 467 1
467 467 1
470 467 1
480 467 1
482 467 1
493 467 1
11 468 1
13 468 1
460 468 1
468 468 1
471 468 1
481 468 1
483 468 1
494 468 1
14 469 1
25 469 1
456 469 1
462 469 1
495 469 1
498 469 1
508 469 1
510 469 1
15 470 1
26 470 1
457 470 1
463 470 1
496 470 1
499 470 1
509 470 1
511 470 1
14 471 1
16 471 1
458 471 1
464 471 1
497 471 1
500 471 1
510 471 1
512 471 1
15 472 1
17 472 1
459 472 1
465 472 1
498 472 1
501 472 1
511 472 1
513 472 1
16 473 1
18 473 1
460 473 1
466 473 1
499 473 1
502 473 1
512 473 1
514 473 1
17 474 1
19 474 1
461 474 1
467 474 1
500 474 1
503 474 1
513 474 1
515 474 1
18 475 1
20 475 1
462 475 1
468 475 1
501 475 1
504 475 1
514 475 1
516 475 1
19 476 1
21 476 1
456 476 1
463 476 1
502 476 1
505 476 1
515 476 1
517 476 1
20 477 1
22 477 1
457 477 1
464 477 1
503 477 1
506 477 1
516 477 1
518 477 1
21 478 1
23 478 1
458 478 1
465 478 1
504 478 1
507 478 1
517 478 1
519 478 1
22 479 1
24 479 1
459 479 1
466 479 1
495 479 1
505 479 1
518 479 1
520 479 1
23 480 1
25 480 1
460 480 1
467 480 1
496 480 1
506 480 1
508 480 1
519 480 1
24 481 1
26 481 1
461 481 1
468 481 1
497 481 1
507 481 1
509 481 1
520 481 1
27 482 1
38 482 1
469 482 1
475 482 1
495 482 1
500 482 1
521 482 1
523 482 1
28 483 1
39 483 1
470 483 1
476 483 1
496 483 1
501 483 1
522 483 1
524 483 1
27 484 1
29 484 1
471 484 1
477 484 1
497 484 1
502 484 1
523 484 1
525 484 1
28 485 1
30 485 1
472 485 1
478 485 1
498 485 1
503 485 1
524 485 1
526 485 1
29 486 1
31 486 1
473 486 1
479 486 1
499 486 1
504 486 1
525 486 1
527 486 1
30 487 1
32 487 1
474 487 1
480 487 1
500 487 1
505 487 1
526 487 1
528 487 1
31 488 1
33 488 1
475 488 1
481 488 1
501 488 1
506 488 1
527 488 1
529 488 1
32 489 1
34 489 1
469 489 1
476 489 1
502 489 1
507 489 1
528 489 1
530 489 1
33 490 1
35 490 1
470 490 1
477 490 1
495 490 1
503 490 1
529 490 1
531 490 1
34 491 1
36 491 1
471 491 1
478 491 1
496 491 1
504 491 1
530 491 1
532 491 1
35 492 1
37 492 1
472 492 1
479 492 1
497 492 1
505 492 1
531 492 1
533 492 1
36 493 1
38 493 1
473 493 1
480 493 1
498 493 1
506 493 1
521 493 1
532 493 1
37 494 1
39 494 1
474 494 1
481 494 1
499 494 1
507 494 1
522 494 1
533 494 1
40 495 1
51 495 1
482 495 1
488 495 1
508 495 1
513 495 1
521 495 1
524 495 1
41 496 1
52 496 1
483 496 1
489 496 1
509 496 1
514 496 1
522 496 1
525 496 1
40 497 1
42 497 1
484 497 1
490 497 1
510 497 1
515 497 1
523 497 1
526 497 1
41 498 1
43 498 1
485 498 1
491 498 1
511 498 1
516 498 1
524 498 1
527 498 1
42 499 1
44 499 1
486 499 1
492 499 1
512 499 1
517 499 1
525 499 1
528 499 1
43 500 1
45 500 1
487 500 1
493 500 1
513 500 1
518 500 1
526 500 1
529 500 1
44 501 1
46 501 1
488 501 1
494 501 1
514 501 1
519 501 1
527 501 1
530 501 1
45 502 1
47 502 1
482 502 1
489 502 1
515 502 1
520 502 1
528 502 1
531 502 1
46 503 1
48 503 1
483 503 1
490 503 1
508 503 1
516 503 1
529 503 1
532 503 1
47 504 1
49 504 1
484 504 1
491 504 1
509 504 1
517 504 1
530 504 1
533 504 1
48 505 1
50 505 1
485 505 1
492 505 1
510 505 1
518 505 1
521 505 1
531 505 1
49 506 1
51 506 1
486 506 1
493 506 1
511 506 1
519 506 1
522 506 1
532 506 1
50 507 1
52 507 1
487 507 1
494 507 1
512 507 1
520 507 1
523 507 1
533 507 1
53 508 1
64 508 1
456 508 1
463 508 1
534 508 1
537 508 1
547 508 1
549 508 1
54 509 1
65 509 1
457 509 1
464 509 1
535 509 1
538 509 1
548 509 1
550 509 1
53 510 1
55 510 1
458 510 1
465 510 1
536 510 1
539 510 1
549 510 1
551 510 1
54 511 1
56 511 1
459 511 1
466 511 1
537 511 1
540 511 1
550 511 1
552 511 1
55 512 1
57 512 1
460 512 1
467 512 1
538 512 1
541 512 1
551 512 1
553 512 1
56 513 1
58 513 1
461 513 1
468 513 1
539 513 1
542 513 1
552 513 1
554 513 1
57 514 1
59 514 1
456 514 1
462 514 1
540 514 1
543 514 1
553 514 1
555 514 1
58 515 1
60 515 1
457 515 1
463 515 1
541 515 1
544 515 1
554 515 1
556 515 1
59 516 1
61 516 1
458 516 1
464 516 1
542 516 1
545 516 1
555 516 1
557 516 1
60 517 1
62 517 1
459 517 1
465 517 1
543 517 1
546 517 1
556 517 1
558 517 1
61 518 1
63 518 1
460 518 1
466 518 1
534 518 1
544 518 1
557 518 1
559 518 1
62 519 1
64 519 1
461 519 1
467 519 1
535 519 1
545 519 1
547 519 1
558 519 1
63 520 1
65 520 1
462 520 1
468 520 1
536 520 1
546 520 1
548 520 1
559 520 1
66 521 1
77 521 1
469 521 1
476 521 1
534 521 1
539 521 1
560 521 1
562 521 1
67 522 1
78 522 1
470 522 1
477 522 1
535 522 1
540 522 1
561 522 1
563 522 1
66 523 1
68 523 1
471 523 1
478 523 1
536 523 1
541 523 1
562 523 1
564 523 1
67 524 1
69 524 1
472 524 1
479 524 1
537 524 1
542 524 1
563 524 1
565 524 1
68 525 1
70 525 1
473 525 1
480 525 1
538 525 1
543 525 1
564 525 1
566 525 1
69 526 1
71 526 1
474 526 1
481 526 1
539 526 1
544 526 1
565 526 1
567 526 1
70 527 1
72 527 1
469 527 1
475 527 1
540 527 1
545 527 1
566 527 1
568 527 1
71 528 1
73 528 1
470 528 1
476 528 1
541 528 1
546 528 1
567 528 1
569 528 1
72 529 1
74 529 1
471 529 1
477 529 1
534 529 1
542 529 1
568 529 1
570 529 1
73 530 1
75 530 1
472 530 1
478 530 1
535 530 1
543 530 1
569 530 1
571 530 1
74 531 1
76 531 1
473 531 1
479 531 1
536 531 1
544 531 1
570 531 1
572 531 1
75 532 1
77 532 1
474 532 1
480 532 1
537 532 1
545 532 1
560 532 1
571 532 1
76 533 1
78 533 1
475 533 1
481 533 1
538 533 1
546 533 1
561 533 1
572 533 1
79 534 1
90 534 1
482 534 1
489 534 1
547 534 1
552 534 1
560 534 1
563 534 1
80 535 1
91 535 1
483 535 1
490 535 1
548 535 1
553 535 1
561 535 1
564 535 1
79 536 1
81 536 1
484 536 1
491 536 1
549 536 1
554 536 1
562 536 1
565 536 1
80 537 1
82 537 1
485 537 1
492 537 1
550 537 1
555 537 1
563 537 1
566 537 1
81 538 1
83 538 1
486 538 1
493 538 1
551 538 1
556 538 1
564 538 1
567 538 1
82 539 1
84 539 1
487 539 1
494 539 1
552 539 1
557 539 1
565 539 1
568 539 1
83 540 1
85 540 1
482 540 1
488 540 1
553 540 1
558 540 1
566 540 1
569 540 1
84 541 1
86 541 1
483 541 1
489 541 1
554 541 1
559 541 1
567 541 1
570 541 1
85 542 1
87 542 1
484 542 1
490 542 1
547 542 1
555 542 1
568 542 1
571 542 1
86 543 1
88 543 1
485 543 1
491 543 1
548 543 1
556 543 1
569 543 1
572 543 1
87 544 1
89 544 1
486 544 1
492 544 1
549 544 1
557 544 1
560 544 1
570 544 1
88 545 1
90 545 1
487 545 1
493 545 1
550 545 1
558 545 1
561 545 1
571 545 1
89 546 1
91 546 1
488 546 1
494 546 1
551 546 1
559 546 1
562 546 1
572 546 1
92 547 1
103 547 1
495 547 1
502 547 1
534 547 1
540 547 1
573 547 1
575 547 1
93 548 1
104 548 1
496 548 1
503 548 1
535 548 1
541 548 1
574 548 1
576 548 1
92 549 1
94 549 1
497 549 1
504 549 1
536 549 1
542 549 1
575 549 1
577 549 1
93 550 1
95 550 1
498 550 1
505 550 1
537 550 1
543 550 1
576 550 1
578 550 1
94 551 1
96 551 1
499 551 1
506 551 1
538 551 1
544 551 1
577 551 1
579 551 1
95 552 1
97 552 1
500 552 1
507 552 1
539 552 1
545 552 1
578 552 1
580 552 1
96 553 1
98 553 1
495 553 1
501 553 1
540 553 1
546 553 1
579 553 1
581 553 1
97 554 1
99 554 1
496 554 1
502 554 1
534 554 1
541 554 1
580 554 1
582 554 1
98 555 1
100 555 1
497 555 1
503 555 1
535 555 1
542 555 1
581 555 1
583 555 1
99 556 1
101 556 1
498 556 1
504 556 1
536 556 1
543 556 1
582 556 1
584 556 1
100 557 1
102 557 1
499 557 1
505 557 1
537 557 1
544 557 1
583 557 1
585 557 1
101 558 1
103 558 1
500 558 1
506 558 1
538 558 1
545 558 1
573 558 1
584 558 1
102 559 1
104 559 1
501 559 1
507 559 1
539 559 1
546 559 1
574 559 1
585 559 1
105 560 1
116 560 1
508 560 1
515 560 1
547 560 1
553 560 1
573 560 1
576 560 1
106 561 1
117 561 1
509 561 1
516 561 1
548 561 1
554 561 1
574 561 1
577 561 1
105 562 1
107 562 1
510 562 1
517 562 1
549 562 1
555 562 1
575 562 1
578 562 1
106 563 1
108 563 1
511 563 1
518 563 1
550 563 1
556 563 1
576 563 1
579 563 1
107 564 1
109 564 1
512 564 1
519 564 1
551 564 1
557 564 1
577 564 1
580 564 1
108 565 1
110 565 1
513 565 1
520 565 1
552 565 1
558 565 1
578 565 1
581 565 1
109 566 1
111 566 1
508 566 1
514 566 1
553 566 1
559 566 1
579 566 1
582 566 1
110 567 1
112 567 1
509 567 1
515 567 1
547 567 1
554 567 1
580 567 1
583 567 1
111 568 1
113 568 1
510 568 1
516 568 1
548 568 1
555 568 1
581 568 1
584 568 1
112 569 1
114 569 1
511 569 1
517 569 1
549 569 1
556 569 1
582 569 1
585 569 1
113 570 1
115 570 1
512 570 1
518 570 1
550 570 1
557 570 1
573 570 1
583 570 1
114 571 1
116 571 1
513 571 1
519 571 1
551 571 1
558 571 1
574 571 1
584 571 1
115 572 1
117 572 1
514 572 1
520 572 1
552 572 1
559 572 1
575 572 1
585 572 1
118 573 1
129 573 1
521 573 1
528 573 1
560 573 1
566 573 1
573 573 1
578 573 1
119 574 1
130 574 1
522 574 1
529 574 1
561 574 1
567 574 1
574 574 1
579 574 1
118 575 1
120 575 1
523 575 1
530 575 1
562 575 1
568 575 1
575 575 1
580 575 1
119 576 1
121 576 1
524 576 1
531 576 1
563 576 1
569 576 1
576 576 1
581 576 1
120 577 1
122 577 1
525 577 1
532 577 1
564 577 1
570 577 1
577 577 1
582 577 1
121 578 1
123 578 1
526 578 1
533 578 1
565 578 1
571 578 1
578 578 1
583 578 1
122 579 1
124 579 1
521 579 1
527 579 1
566 579 1
572 579 1
579 579 1
584 579 1
123 580 1
125 580 1
522 580 1
528 580 1
560 580 1
567 580 1
580 580 1
585 580 1
124 581 1
126 581 1
523 581 1
529 581 1
561 581 1
568 581 1
573 581 1
581 581 1
125 582 1
127 582 1
524 582 1
530 582 1
562 582 1
569 582 1
574 582 1
582 582 1
126 583 1
128 583 1
525 583 1
531 583 1
563 583 1
570 583 1
575 583 1
583 583 1
127 584 1
129 584 1
526 584 1
532 584 1
564 584 1
571 584 1
576 584 1
584 584 1
128 585 1
130 585 1
527 585 1
533 585 1
565 585 1
572 585 1
577 585 1
585 585 1
131 586 1
142 586 1
456 586 1
464 586 1
586 586 1
589 586 1
599 586 1
601 586 1
132 587 1
143 587 1
457 587 1
465 587 1
587 587 1
590 587 1
600 587 1
602 587 1
131 588 1
133 588 1
458 588 1
466 588 1
588 588 1
591 588 1
601 588 1
603 588 1
132 589 1
134 589 1
459 589 1
467 589 1
589 589 1
592 589 1
602 589 1
604 589 1
133 590 1
135 590 1
460 590 1
468 590 1
590 590 1
593 590 1
603 590 1
605 590 1
134 591 1
136 591 1
456 591 1
461 591 1
591 591 1
594 591 1
604 591 1
606 591 1
135 592 1
137 592 1
457 592 1
462 592 1
592 592 1
595 592 1
605 592 1
607 592 1
136 593 1
138 593 1
458 593 1
463 593 1
593 593 1
596 593 1
606 593 1
608 593 1
137 594 1
139 594 1
459 594 1
464 594 1
594 594 1
597 594 1
607 594 1
609 594 1
138 595 1
140 595 1
460 595 1
465 595 1
595 595 1
598 595 1
608 595 1
610 595 1
139 596 1
141 596 1
461 596 1
466 596 1
586 596 1
596 596 1
609 596 1
611 596 1
140 597 1
142 597 1
462 597 1
467 597 1
587 597 1
597 597 1
599 597 1
610 597 1
141 598 1
143 598 1
463 598 1
468 598 1
588 598 1
598 598 1
600 598 1
611 598 1
144 599 1
155 599 1
469 599 1
477 599 1
586 599 1
591 599 1
612 599 1
614 599 1
145 600 1
156 600 1
470 600 1
478 600 1
587 600 1
592 600 1
613 600 1
615 600 1
144 601 1
146 601 1
471 601 1
479 601 1
588 601 1
593 601 1
614 601 1
616 601 1
145 602 1
147 602 1
472 602 1
480 602 1
589 602 1
594 602 1
615 602 1
617 602 1
146 603 1
148 603 1
473 603 1
481 603 1
590 603 1
595 603 1
616 603 1
618 603 1
147 604 1
149 604 1
469 604 1
474 604 1
591 604 1
596 604 1
617 604 1
619 604 1
148 605 1
150 605 1
470 605 1
475 605 1
592 605 1
597 605 1
618 605 1
620 605 1
149 606 1
151 606 1
471 606 1
476 606 1
593 606 1
598 606 1
619 606 1
621 606 1
150 607 1
152 607 1
472 607 1
477 607 1
586 607 1
594 607 1
620 607 1
622 607 1
151 608 1
153 608 1
473 608 1
478 608 1
587 608 1
595 608 1
621 608 1
623 608 1
152 609 1
154 609 1
474 609 1
479 609 1
588 609 1
596 609 1
622 609 1
624 609 1
153 610 1
155 610 1
475 610 1
480 610 1
589 610 1
597 610 1
612 610 1
623 610 1
154 611 1
156 611 1
476 611 1
481 611 1
590 611 1
598 611 1
613 611 1
624 611 1
157 612 1
168 612 1
482 612 1
490 612 1
599 612 1
604 612 1
612 612 1
615 612 1
158 613 1
169 613 1
483 613 1
491 613 1
600 613 1
605 613 1
613 613 1
616 613 1
157 614 1
159 614 1
484 614 1
492 614 1
601 614 1
606 614 1
614 614 1
617 614 1
158 615 1
160 615 1
485 615 1
493 615 1
602 615 1
607 615 1
615 615 1
618 615 1
159 616 1
161 616 1
486 616 1
494 616 1
603 616 1
608 616 1
616 616 1
619 616 1
160 617 1
162 617 1
482 617 1
487 617 1
604 617 1
609 617 1
617 617 1
620 617 1
161 618 1
163 618 1
483 618 1
488 618 1
605 618 1
610 618 1
618 618 1
621 618 1
162 619 1
164 619 1
484 619 1
489 619 1
606 619 1
611 619 1
619 619 1
622 619 1
163 620 1
165 620 1
485 620 1
490 620 1
599 620 1
607 620 1
620 620 1
623 620 1
164 621 1
166 621 1
486 621 1
491 621 1
600 621 1
608 621 1
621 621 1
624 621 1
165 622 1
167 622 1
487 622 1
492 622 1
601 622 1
609 622 1
612 622 1
622 622 1
166 623 1
168 623 1
488 623 1
493 623 1
602 623 1
610 623 1
613 623 1
623 623 1
167 624 1
169 624 1
489 624 1
494 624 1
603 624 1
611 624 1
614 624 1
624 624 1
170 625 1
181 625 1
495 625 1
503 625 1
586 625 1
592 625 1
625 625 1
627 625 1
171 626 1
182 626 1
496 626 1
504 626 1
587 626 1
593 626 1
626 626 1
628 626 1
170 627 1
172 627 1
497 627 1
505 627 1
588 627 1
594 627 1
627 627 1
629 627 1
171 628 1
173 628 1
498 628 1
506 628 1
589 628 1
595 628 1
628 628 1
630 628 1
172 629 1
174 629 1
499 629 1
507 629 1
590 629 1
596 629 1
629 629 1
631 629 1
173 630 1
175 630 1
495 630 1
500 630 1
591 630 1
597 630 1
630 630 1
632 630 1
174 631 1
176 631 1
496 631 1
501 631 1
592 631 1
598 631 1
631 631 1
633 631 1
175 632 1
177 632 1
497 632 1
502 632 1
586 632 1
593 632 1
632 632 1
634 632 1
176 633 1
178 633 1
498 633 1
503 633 1
587 633 1
594 633 1
633 633 1
635 633 1
177 634 1
179 634 1
499 634 1
504 634 1
588 634 1
595 634 1
634 634 1
636 634 1
178 635 1
180 635 1
500 635 1
505 635 1
589 635 1
596 635 1
635 635 1
637 635 1
179 636 1
181 636 1
501 636 1
506 636 1
590 636 1
597 636 1
625 636 1
636 636 1
180 637 1
182 637 1
502 637 1
507 637 1
591 637 1
598 637 1
626 637 1
637 637 1
183 638 1
194 638 1
508 638 1
516 638 1
599 638 1
605 638 1
625 638 1
628 638 1
184 639 1
195 639 1
509 639 1
517 639 1
600 639 1
606 639 1
626 639 1
629 639 1
183 640 1
185 640 1
510 640 1
518 640 1
601 640 1
607 640 1
627 640 1
630 640 1
184 641 1
186 641 1
511 641 1
519 641 1
602 641 1
608 641 1
628 641 1
631 641 1
185 642 1
187 642 1
512 642 1
520 642 1
603 642 1
609 642 1
629 642 1
632 642 1
186 643 1
188 643 1
508 643 1
513 643 1
604 643 1
610 643 1
630 643 1
633 643 1
187 644 1
189 644 1
509 644 1
514 644 1
605 644 1
611 644 1
631 644 1
634 644 1
188 645 1
190 645 1
510 645 1
515 645 1
599 645 1
606 645 1
632 645 1
635 645 1
189 646 1
191 646 1
511 646 1
516 646 1
600 646 1
607 646 1
633 646 1
636 646 1
190 647 1
192 647 1
512 647 1
517 647 1
601 647 1
608 647 1
634 647 1
637 647 1
191 648 1
193 648 1
513 648 1
518 648 1
602 648 1
609 648 1
625 648 1
635 648 1
192 649 1
194 649 1
514 649 1
519 649 1
603 649 1
610 649 1
626 649 1
636 649 1
193 650 1
195 650 1
515 650 1
520 650 1
604 650 1
611 650 1
627 650 1
637 650 1
196 651 1
207 651 1
521 651 1
529 651 1
612 651 1
618 651 1
625 651 1
630 651 1
197 652 1
208 652 1
522 652 1
530 652 1
613 652 1
619 652 1
626 652 1
631 652 1
196 653 1
198 653 1
523 653 1
531 653 1
614 653 1
620 653 1
627 653 1
632 653 1
197 654 1
199 654 1
524 654 1
532 654 1
615 654 1
621 654 1
628 654 1
633 654 1
198 655 1
200 655 1
525 655 1
533 655 1
616 655 1
622 655 1
629 655 1
634 655 1
199 656 1
201 656 1
521 656 1
526 656 1
617 656 1
623 656 1
630 656 1
635 656 1
200 657 1
202 657 1
522 657 1
527 657 1
618 657 1
624 657 1
631 657 1
636 657 1
201 658 1
203 658 1
523 658 1
528 658 1
612 658 1
619 658 1
632 658 1
637 658 1
202 659 1
204 659 1
524 659 1
529 659 1
613 659 1
620 659 1
625 659 1
633 659 1
203 660 1
205 660 1
525 660 1
530 660 1
614 660 1
621 660 1
626 660 1
634 660 1
204 661 1
206 661 1
526 661 1
531 661 1
615 661 1
622 661 1
627 661 1
635 661 1
205 662 1
207 662 1
527 662 1
532 662 1
616 662 1
623 662 1
628 662 1
636 662 1
206 663 1
208 663 1
528 663 1
533 663 1
617 663 1
624 663 1
629 663 1
637 663 1
209 664 1
220 664 1
534 664 1
542 664 1
586 664 1
593 664 1
638 664 1
640 664 1
210 665 1
221 665 1
535 665 1
543 665 1
587 665 1
594 665 1
639 665 1
641 665 1
209 666 1
211 666 1
536 666 1
544 666 1
588 666 1
595 666 1
640 666 1
642 666 1
210 667 1
212 667 1
537 667 1
545 667 1
589 667 1
596 667 1
641 667 1
643 667 1
211 668 1
213 668 1
538 668 1
546 668 1
590 668 1
597 668 1
642 668 1
644 668 1
212 669 1
214 669 1
534 669 1
539 669 1
591 669 1
598 669 1
643 669 1
645 669 1
213 670 1
215 670 1
535 670 1
540 670 1
586 670 1
592 670 1
644 670 1
646 670 1
214 671 1
216 671 1
536 671 1
541 671 1
587 671 1
593 671 1
645 671 1
647 671 1
215 672 1
217 672 1
537 672 1
542 672 1
588 672 1
594 672 1
646 672 1
648 672 1
216 673 1
218 673 1
538 673 1
543 673 1
589 673 1
595 673 1
647 673 1
649 673 1
217 674 1
219 674 1
539 674 1
544 674 1
590 674 1
596 674 1
648 674 1
650 674 1
218 675 1
220 675 1
540 675 1
545 675 1
591 675 1
597 675 1
638 675 1
649 675 1
219 676 1
221 676 1
541 676 1
546 676 1
592 676 1
598 676 1
639 676 1
650 676 1
222 677 1
233 677 1
547 677 1
555 677 1
599 677 1
606 677 1
638 677 1
641 677 1
223 678 1
234 678 1
548 678 1
556 678 1
600 678 1
607 678 1
639 678 1
642 678 1
222 679 1
224 679 1
549 679 1
557 679 1
601 679 1
608 679 1
640 679 1
643 679 1
223 680 1
225 680 1
550 680 1
558 680 1
602 680 1
609 680 1
641 680 1
644 680 1
224 681 1
226 681 1
551 681 1
559 681 1
603 681 1
610 681 1
642 681 1
645 681 1
225 682 1
227 682 1
547 682 1
552 682 1
604 682 1
611 682 1
643 682 1
646 682 1
226 683 1
228 683 1
548 683 1
553 683 1
599 683 1
605 683 1
644 683 1
647 683 1
227 684 1
229 684 1
549 684 1
554 684 1
600 684 1
606 684 1
645 684 1
648 684 1
228 685 1
230 685 1
550 685 1
555 685 1
601 685 1
607 685 1
646 685 1
649 685 1
229 686 1
231 686 1
551 686 1
556 686 1
602 686 1
608 686 1
647 686 1
650 686 1
230 687 1
232 687 1
552 687 1
557 687 1
603 687 1
609 687 1
638 687 1
648 687 1
231 688 1
233 688 1
553 688 1
558 688 1
604 688 1
610 688 1
639 688 1
649 688 1
232 689 1
234 689 1
554 689 1
559 689 1
605 689 1
611 689 1
640 689 1
650 689 1
235 690 1
246 690 1
560 690 1
568 690 1
612 690 1
619 690 1
638 690 1
643 690 1
236 691 1
247 691 1
561 691 1
569 691 1
613 691 1
620 691 1
639 691 1
644 691 1
235 692 1
237 692 1
562 692 1
570 692 1
614 692 1
621 692 1
640 692 1
645 692 1
236 693 1
238 693 1
563 693 1
571 693 1
615 693 1
622 693 1
641 693 1
646 693 1
237 694 1
239 694 1
564 694 1
572 694 1
616 694 1
623 694 1
642 694 1
647 694 1
238 695 1
240 695 1
560 695 1
565 695 1
617 695 1
624 695 1
643 695 1
648 695 1
239 696 1
241 696 1
561 696 1
566 696 1
612 696 1
618 696 1
644 696 1
649 696 1
240 697 1
242 697 1
562 697 1
567 697 1
613 697 1
619 697 1
645 697 1
650 697 1
241 698 1
243 698 1
563 698 1
568 698 1
614 698 1
620 698 1
638 698 1
646 698 1
242 699 1
244 699 1
564 699 1
569 699 1
615 699 1
621 699 1
639 699 1
647 699 1
243 700 1
245 700 1
565 700 1
570 700 1
616 700 1
622 700 1
640 700 1
648 700 1
244 701 1
246 701 1
566 701 1
571 701 1
617 701 1
623 701 1
641 701 1
649 701 1
245 702 1
247 702 1
567 702 1
572 702 1
618 702 1
624 702 1
642 702 1
650 702 1
248 703 1
259 703 1
573 703 1
581 703 1
625 703 1
632 703 1
638 703 1
644 703 1
249 704 1
260 704 1
574 704 1
582 704 1
626 704 1
633 704 1
639 704 1
645 704 1
248 705 1
250 705 1
575 705 1
583 705 1
627 705 1
634 705 1
640 705 1
646 705 1
249 706 1
251 706 1
576 706 1
584 706 1
628 706 1
635 706 1
641 706 1
647 706 1
250 707 1
252 707 1
577 707 1
585 707 1
629 707 1
636 707 1
642 707 1
648 707 1
251 708 1
253 708 1
573 708 1
578 708 1
630 708 1
637 708 1
643 708 1
649 708 1
252 709 1
254 709 1
574 709 1
579 709 1
625 709 1
631 709 1
644 709 1
650 709 1
253 710 1
255 710 1
575 710 1
580 710 1
626 710 1
632 710 1
638 710 1
645 710 1
254 711 1
256 711 1
576 711 1
581 711 1
627 711 1
633 711 1
639 711 1
646 711 1
255 712 1
257 712 1
577 712 1
582 712 1
628 712 1
634 712 1
640 712 1
647 712 1
256 713 1
258 713 1
578 713 1
583 713 1
629 713 1
635 713 1
641 713 1
648 713 1
257 714 1
259 714 1
579 714 1
584 714 1
630 714 1
636 714 1
642 714 1
649 714 1
258 715 1
260 715 1
580 715 1
585 715 1
631 715 1
637 715 1
643 715 1
650 715 1
261 716 1
272 716 1
456 716 1
465 716 1
651 716 1
654 716 1
664 716 1
666 716 1
262 717 1
273 717 1
457 717 1
466 717 1
652 717 1
655 717 1
665 717 1
667 717 1
261 718 1
263 718 1
458 718 1
467 718 1
653 718 1
656 718 1
666 718 1
668 718 1
262 719 1
264 719 1
459 719 1
468 719 1
654 719 1
657 719 1
667 719 1
669 719 1
263 720 1
265 720 1
456 720 1
460 720 1
655 720 1
658 720 1
668 720 1
670 720 1
264 721 1
266 721 1
457 721 1
461 721 1
656 721 1
659 721 1
669 721 1
671 721 1
265 722 1
267 722 1
458 722 1
462 722 1
657 722 1
660 722 1
670 722 1
672 722 1
266 723 1
268 723 1
459 723 1
463 723 1
658 723 1
661 723 1
671 723 1
673 723 1
267 724 1
269 724 1
460 724 1
464 724 1
659 724 1
662 724 1
672 724 1
674 724 1
268 725 1
270 725 1
461 725 1
465 725 1
660 725 1
663 725 1
673 725 1
675 725 1
269 726 1
271 726 1
462 726 1
466 726 1
651 726 1
661 726 1
674 726 1
676 726 1
270 727 1
272 727 1
463 727 1
467 727 1
652 727 1
662 727 1
664 727 1
675 727 1
271 728 1
273 728 1
464 728 1
468 728 1
653 728 1
663 728 1
665 728 1
676 728 1
274 729 1
285 729 1
469 729 1
478 729 1
651 729 1
656 729 1
677 729 1
679 729 1
275 730 1
286 730 1
470 730 1
479 730 1
652 730 1
657 730 1
678 730 1
680 730 1
274 731 1
276 731 1
471 731 1
480 731 1
653 731 1
658 731 1
679 731 1
681 731 1
275 732 1
277 732 1
472 732 1
481 732 1
654 732 1
659 732 1
680 732 1
682 732 1
276 733 1
278 733 1
469 733 1
473 733 1
655 733 1
660 733 1
681 733 1
683 733 1
277 734 1
279 734 1
470 734 1
474 734 1
656 734 1
661 734 1
682 734 1
684 734 1
278 735 1
280 735 1
471 735 1
475 735 1
657 735 1
662 735 1
683 735 1
685 735 1
279 736 1
281 736 1
472 736 1
476 736 1
658 736 1
663 736 1
684 736 1
686 736 1
280 737 1
282 737 1
473 737 1
477 737 1
651 737 1
659 737 1
685 737 1
687 737 1
281 738 1
283 738 1
474 738 1
478 738 1
652 738 1
660 738 1
686 738 1
688 738 1
282 739 1
284 739 1
475 739 1
479 739 1
653 739 1
661 739 1
687 739 1
689 739 1
283 740 1
285 740 1
476 740 1
480 740 1
654 740 1
662 740 1
677 740 1
688 740 1
284 741 1
286 741 1
477 741 1
481 741 1
655 741 1
663 741 1
678 741 1
689 741 1
287 742 1
298 742 1
482 742 1
491 742 1
664 742 1
669 742 1
677 742 1
680 742 1
288 743 1
299 743 1
483 743 1
492 743 1
665 743 1
670 743 1
678 743 1
681 743 1
287 744 1
289 744 1
484 744 1
493 744 1
666 744 1
671 744 1
679 744 1
682 744 1
288 745 1
290 745 1
485 745 1
494 745 1
667 745 1
672 745 1
680 745 1
683 745 1
289 746 1
291 746 1
482 746 1
486 746 1
668 746 1
673 746 1
681 746 1
684 746 1
290 747 1
292 747 1
483 747 1
487 747 1
669 747 1
674 747 1
682 747 1
685 747 1
291 748 1
293 748 1
484 748 1
488 748 1
670 748 1
675 748 1
683 748 1
686 748 1
292 749 1
294 749 1
485 749 1
489 749 1
671 749 1
676 749 1
684 749 1
687 749 1
293 750 1
295 750 1
486 750 1
490 750 1
664 750 1
672 750 1
685 750 1
688 750 1
294 751 1
296 751 1
487 751 1
491 751 1
665 751 1
673 751 1
686 751 1
689 751 1
295 752 1
297 752 1
488 752 1
492 752 1
666 752 1
674 752 1
677 752 1
687 752 1
296 753 1
298 753 1
489 753 1
493 753 1
667 753 1
675 753 1
678 753 1
688 753 1
297 754 1
299 754 1
490 754 1
494 754 1
668 754 1
676 754 1
679 754 1
689 754 1
300 755 1
311 755 1
495 755 1
504 755 1
651 755 1
657 755 1
690 755 1
692 755 1
301 756 1
312 756 1
496 756 1
505 756 1
652 756 1
658 756 1
691 756 1
693 756 1
300 757 1
302 757 1
497 757 1
506 757 1
653 757 1
659 757 1
692 757 1
694 757 1
301 758 1
303 758 1
498 758 1
507 758 1
654 758 1
660 758 1
693 758 1
695 758 1
302 759 1
304 759 1
495 759 1
499 759 1
655 759 1
661 759 1
694 759 1
696 759 1
303 760 1
305 760 1
496 760 1
500 760 1
656 760 1
662 760 1
695 760 1
697 760 1
304 761 1
306 761 1
497 761 1
501 761 1
657 761 1
663 761 1
696 761 1
698 761 1
305 762 1
307 762 1
498 762 1
502 762 1
651 762 1
658 762 1
697 762 1
699 762 1
306 763 1
308 763 1
499 763 1
503 763 1
652 763 1
659 763 1
698 763 1
700 763 1
307 764 1
309 764 1
500 764 1
504 764 1
653 764 1
660 764 1
699 764 1
701 764 1
308 765 1
310 765 1
501 765 1
505 765 1
654 765 1
661 765 1
700 765 1
702 765 1
309 766 1
311 766 1
502 766 1
506 766 1
655 766 1
662 766 1
690 766 1
701 766 1
310 767 1
312 767 1
503 767 1
507 767 1
656 767 1
663 767 1
691 767 1
702 767 1
313 768 1
324 768 1
508 768 1
517 768 1
664 768 1
670 768 1
690 768 1
693 768 1
314 769 1
325 769 1
509 769 1
518 769 1
665 769 1
671 769 1
691 769 1
694 769 1
313 770 1
315 770 1
510 770 1
519 770 1
666 770 1
672 770 1
692 770 1
695 770 1
314 771 1
316 771 1
511 771 1
520 771 1
667 771 1
673 771 1
693 771 1
696 771 1
315 772 1
317 772 1
508 772 1
512 772 1
668 772 1
674 772 1
694 772 1
697 772 1
316 773 1
318 773 1
509 773 1
513 773 1
669 773 1
675 773 1
695 773 1
698 773 1
317 774 1
319 774 1
510 774 1
514 774 1
670 774 1
676 774 1
696 774 1
699 774 1
318 775 1
320 775 1
511 775 1
515 775 1
664 775 1
671 775 1
697 775 1
700 775 1
319 776 1
321 776 1
512 776 1
516 776 1
665 776 1
672 776 1
698 776 1
701 776 1
320 777 1
322 777 1
513 777 1
517 777 1
666 777 1
673 777 1
699 777 1
702 777 1
321 778 1
323 778 1
514 778 1
518 778 1
667 778 1
674 778 1
690 778 1
700 778 1
322 779 1
324 779 1
515 779 1
519 779 1
668 779 1
675 779 1
691 779 1
701 779 1
323 780 1
325 780 1
516 780 1
520 780 1
669 780 1
676 780 1
692 780 1
702 780 1
326 781 1
337 781 1
521 781 1
530 781 1
677 781 1
683 781 1
690 781 1
695 781 1
327 782 1
338 782 1
522 782 1
531 782 1
678 782 1
684 782 1
691 782 1
696 782 1
326 783 1
328 783 1
523 783 1
532 783 1
679 783 1
685 783 1
692 783 1
697 783 1
327 784 1
329 784 1
524 784 1
533 784 1
680 784 1
686 784 1
693 784 1
698 784 1
328 785 1
330 785 1
521 785 1
525 785 1
681 785 1
687 785 1
694 785 1
699 785 1
329 786 1
331 786 1
522 786 1
526 786 1
682 786 1
688 786 1
695 786 1
700 786 1
330 787 1
332 787 1
523 787 1
527 787 1
683 787 1
689 787 1
696 787 1
701 787 1
331 788 1
333 788 1
524 788 1
528 788 1
677 788 1
684 788 1
697 788 1
702 788 1
332 789 1
334 789 1
525 789 1
529 789 1
678 789 1
685 789 1
690 789 1
698 789 1
333 790 1
335 790 1
526 790 1
530 790 1
679 790 1
686 790 1
691 790 1
699 790 1
334 791 1
336 791 1
527 791 1
531 791 1
680 791 1
687 791 1
692 791 1
700 791 1
335 792 1
337 792 1
528 792 1
532 792 1
681 792 1
688 792 1
693 792 1
701 792 1
336 793 1
338 793 1
529 793 1
533 793 1
682 793 1
689 793 1
694 793 1
702 793 1
339 794 1
350 794 1
534 794 1
543 794 1
651 794 1
658 794 1
703 794 1
705 794 1
340 795 1
351 795 1
535 795 1
544 795 1
652 795 1
659 795 1
704 795 1
706 795 1
339 796 1
341 796 1
536 796 1
545 796 1
653 796 1
660 796 1
705 796 1
707 796 1
340 797 1
342 797 1
537 797 1
546 797 1
654 797 1
661 797 1
706 797 1
708 797 1
341 798 1
343 798 1
534 798 1
538 798 1
655 798 1
662 798 1
707 798 1
709 798 1
342 799 1
344 799 1
535 799 1
539 799 1
656 799 1
663 799 1
708 799 1
710 799 1
343 800 1
345 800 1
536 800 1
540 800 1
651 800 1
657 800 1
709 800 1
711 800 1
344 801 1
346 801 1
537 801 1
541 801 1
652 801 1
658 801 1
710 801 1
712 801 1
345 802 1
347 802 1
538 802 1
542 802 1
653 802 1
659 802 1
711 802 1
713 802 1
346 803 1
348 803 1
539 803 1
543 803 1
654 803 1
660 803 1
712 803 1
714 803 1
347 804 1
349 804 1
540 804 1
544 804 1
655 804 1
661 804 1
713 804 1
715 804 1
348 805 1
350 805 1
541 805 1
545 805 1
656 805 1
662 805 1
703 805 1
714 805 1
349 806 1
351 806 1
542 806 1
546 806 1
657 806 1
663 806 1
704 806 1
715 806 1
352 807 1
363 807 1
547 807 1
556 807 1
664 807 1
671 807 1
703 807 1
706 807 1
353 808 1
364 808 1
548 808 1
557 808 1
665 808 1
672 808 1
704 808 1
707 808 1
352 809 1
354 809 1
549 809 1
558 809 1
666 809 1
673 809 1
705 809 1
708 809 1
353 810 1
355 810 1
550 810 1
559 810 1
667 810 1
674 810 1
706 810 1
709 810 1
354 811 1
356 811 1
547 811 1
551 811 1
668 811 1
675 811 1
707 811 1
710 811 1
355 812 1
357 812 1
548 812 1
552 812 1
669 812 1
676 812 1
708 812 1
711 812 1
356 813 1
358 813 1
549 813 1
553 813 1
664 813 1
670 813 1
709 813 1
712 813 1
357 814 1
359 814 1
550 814 1
554 814 1
665 814 1
671 814 1
710 814 1
713 814 1
358 815 1
360 815 1
551 815 1
555 815 1
666 815 1
672 815 1
711 815 1
714 815 1
359 816 1
361 816 1
552 816 1
556 816 1
667 816 1
673 816 1
712 816 1
715 816 1
360 817 1
362 817 1
553 817 1
557 817 1
668 817 1
674 817 1
703 817 1
713 817 1
361 818 1
363 818 1
554 818 1
558 818 1
669 818 1
675 818 1
704 818 1
714 818 1
362 819 1
364 819 1
555 819 1
559 819 1
670 819 1
676 819 1
705 819 1
715 819 1
365 820 1
376 820 1
560 820 1
569 820 1
677 820 1
684 820 1
703 820 1
708 820 1
366 821 1
377 821 1
561 821 1
570 821 1
678 821 1
685 821 1
704 821 1
709 821 1
365 822 1
367 822 1
562 822 1
571 822 1
679 822 1
686 822 1
705 822 1
710 822 1
366 823 1
368 823 1
563 823 1
572 823 1
680 823 1
687 823 1
706 823 1
711 823 1
367 824 1
369 824 1
560 824 1
564 824 1
681 824 1
688 824 1
707 824 1
712 824 1
368 825 1
370 825 1
561 825 1
565 825 1
682 825 1
689 825 1
708 825 1
713 825 1
369 826 1
371 826 1
562 826 1
566 826 1
677 826 1
683 826 1
709 826 1
714 826 1
370 827 1
372 827 1
563 827 1
567 827 1
678 827 1
684 827 1
710 827 1
715 827 1
371 828 1
373 828 1
564 828 1
568 828 1
679 828 1
685 828 1
703 828 1
711 828 1
372 829 1
374 829 1
565 829 1
569 829 1
680 829 1
686 829 1
704 829 1
712 829 1
373 830 1
375 830 1
566 830 1
570 830 1
681 830 1
687 830 1
705 830 1
713 830 1
374 831 1
376 831 1
567 831 1
571 831 1
682 831 1
688 831 1
706 831 1
714 831 1
375 832 1
377 832 1
568 832 1
572 832 1
683 832 1
689 832 1
707 832 1
715 832 1
378 833 1
389 833 1
573 833 1
582 833 1
690 833 1
697 833 1
703 833 1
709 833 1
379 834 1
390 834 1
574 834 1
583 834 1
691 834 1
698 834 1
704 834 1
710 834 1
378 835 1
380 835 1
575 835 1
584 835 1
692 835 1
699 835 1
705 835 1
711 835 1
379 836 1
381 836 1
576 836 1
585 836 1
693 836 1
700 836 1
706 836 1
712 836 1
380 837 1
382 837 1
573 837 1
577 837 1
694 837 1
701 837 1
707 837 1
713 837 1
381 838 1
383 838 1
574 838 1
578 838 1
695 838 1
702 838 1
708 838 1
714 838 1
382 839 1
384 839 1
575 839 1
579 839 1
690 839 1
696 839 1
709 839 1
715 839 1
383 840 1
385 840 1
576 840 1
580 840 1
691 840 1
697 840 1
703 840 1
710 840 1
384 841 1
386 841 1
577 841 1
581 841 1
692 841 1
698 841 1
704 841 1
711 841 1
385 842 1
387 842 1
578 842 1
582 842 1
693 842 1
699 842 1
705 842 1
712 842 1
386 843 1
388 843 1
579 843 1
583 843 1
694 843 1
700 843 1
706 843 1
713 843 1
387 844 1
389 844 1
580 844 1
584 844 1
695 844 1
701 844 1
707 844 1
714 844 1
388 845 1
390 845 1
581 845 1
585 845 1
696 845 1
702 845 1
708 845 1
715 845 1
391 846 1
402 846 1
586 846 1
595 846 1
651 846 1
659 846 1
716 846 1
718 846 1
392 847 1
403 847 1
587 847 1
596 847 1
652 847 1
660 847 1
717 847 1
719 847 1
391 848 1
393 848 1
588 848 1
597 848 1
653 848 1
661 848 1
718 848 1
720 848 1
392 849 1
394 849 1
589 849 1
598 849 1
654 849 1
662 849 1
719 849 1
721 849 1
393 850 1
395 850 1
586 850 1
590 850 1
655 850 1
663 850 1
720 850 1
722 850 1
394 851 1
396 851 1
587 851 1
591 851 1
651 851 1
656 851 1
721 851 1
723 851 1
395 852 1
397 852 1
588 852 1
592 852 1
652 852 1
657 852 1
722 852 1
724 852 1
396 853 1
398 853 1
589 853 1
593 853 1
653 853 1
658 853 1
723 853 1
725 853 1
397 854 1
399 854 1
590 854 1
594 854 1
654 854 1
659 854 1
724 854 1
726 854 1
398 855 1
400 855 1
591 855 1
595 855 1
655 855 1
660 855 1
725 855 1
727 855 1
399 856 1
401 856 1
592 856 1
596 856 1
656 856 1
661 856 1
726 856 1
728 856 1
400 857 1
402 857 1
593 857 1
597 857 1
657 857 1
662 857 1
716 857 1
727 857 1
401 858 1
403 858 1
594 858 1
598 858 1
658 858 1
663 858 1
717 858 1
728 858 1
404 859 1
415 859 1
599 859 1
608 859 1
664 859 1
672 859 1
716 859 1
719 859 1
405 860 1
416 860 1
600 860 1
609 860 1
665 860 1
673 860 1
717 860 1
720 860 1
404 861 1
406 861 1
601 861 1
610 861 1
666 861 1
674 861 1
718 861 1
721 861 1
405 862 1
407 862 1
602 862 1
611 862 1
667 862 1
675 862 1
719 862 1
722 862 1
406 863 1
408 863 1
599 863 1
603 863 1
668 863 1
676 863 1
720 863 1
723 863 1
407 864 1
409 864 1
600 864 1
604 864 1
664 864 1
669 864 1
721 864 1
724 864 1
408 865 1
410 865 1
601 865 1
605 865 1
665 865 1
670 865 1
722 865 1
725 865 1
409 866 1
411 866 1
602 866 1
606 866 1
666 866 1
671 866 1
723 866 1
726 866 1
410 867 1
412 867 1
603 867 1
607 867 1
667 867 1
672 867 1
724 867 1
727 867 1
411 868 1
413 868 1
604 868 1
608 868 1
668 868 1
673 868 1
725 868 1
728 868 1
412 869 1
414 869 1
605 869 1
609 869 1
669 869 1
674 869 1
716 869 1
726 869 1
413 870 1
415 870 1
606 870 1
610 870 1
670 870 1
675 870 1
717 870 1
727 870 1
414 871 1
416 871 1
607 871 1
611 871 1
671 871 1
676 871 1
718 871 1
728 871 1
417 872 1
428 872 1
612 872 1
621 872 1
677 872 1
685 872 1
716 872 1
721 872 1
418 873 1
429 873 1
613 873 1
622 873 1
678 873 1
686 873 1
717 873 1
722 873 1
417 874 1
419 874 1
614 874 1
623 874 1
679 874 1
687 874 1
718 874 1
723 874 1
418 875 1
420 875 1
615 875 1
624 875 1
680 875 1
688 875 1
719 875 1
724 875 1
419 876 1
421 876 1
612 876 1
616 876 1
681 876 1
689 876 1
720 876 1
725 876 1
420 877 1
422 877 1
613 877 1
617 877 1
677 877 1
682 877 1
721 877 1
726 877 1
421 878 1
423 878 1
614 878 1
618 878 1
678 878 1
683 878 1
722 878 1
727 878 1
422 879 1
424 879 1
615 879 1
619 879 1
679 879 1
684 879 1
723 879 1
728 879 1
423 880 1
425 880 1
616 880 1
620 880 1
680 880 1
685 880 1
716 880 1
724 880 1
424 881 1
426 881 1
617 881 1
621 881 1
681 881 1
686 881 1
717 881 1
725 881 1
425 882 1
427 882 1
618 882 1
622 882 1
682 882 1
687 882 1
718 882 1
726 882 1
426 883 1
428 883 1
619 883 1
623 883 1
683 883 1
688 883 1
719 883 1
727 883 1
427 884 1
429 884 1
620 884 1
624 884 1
684 884 1
689 884 1
720 884 1
728 884 1
430 885 1
441 885 1
625 885 1
634 885 1
690 885 1
698 885 1
716 885 1
722 885 1
431 886 1
442 886 1
626 886 1
635 886 1
691 886 1
699 886 1
717 886 1
723 886 1
430 887 1
432 887 1
627 887 1
636 887 1
692 887 1
700 887 1
718 887 1
724 887 1
431 888 1
433 888 1
628 888 1
637 888 1
693 888 1
701 888 1
719 888 1
725 888 1
432 889 1
434 889 1
625 889 1
629 889 1
694 889 1
702 889 1
720 889 1
726 889 1
433 890 1
435 890 1
626 890 1
630 890 1
690 890 1
695 890 1
721 890 1
727 890 1
434 891 1
436 891 1
627 891 1
631 891 1
691 891 1
696 891 1
722 891 1
728 891 1
435 892 1
437 892 1
628 892 1
632 892 1
692 892 1
697 892 1
716 892 1
723 892 1
436 893 1
438 893 1
629 893 1
633 893 1
693 893 1
698 893 1
717 893 1
724 893 1
437 894 1
439 894 1
630 894 1
634 894 1
694 894 1
699 894 1
718 894 1
725 894 1
438 895 1
440 895 1
631 895 1
635 895 1
695 895 1
700 895 1
719 895 1
726 895 1
439 896 1
441 896 1
632 896 1
636 896 1
696 896 1
701 896 1
720 896 1
727 896 1
440 897 1
442 897 1
633 897 1
637 897 1
697 897 1
702 897 1
721 897 1
728 897 1
443 898 1
454 898 1
638 898 1
647 898 1
703 898 1
711 898 1
716 898 1
723 898 1
444 899 1
455 899 1
639 899 1
648 899 1
704 899 1
712 899 1
717 899 1
724 899 1
443 900 1
445 900 1
640 900 1
649 900 1
705 900 1
713 900 1
718 900 1
725 900 1
444 901 1
446 901 1
641 901 1
650 901 1
706 901 1
714 901 1
719 901 1
726 901 1
445 902 1
447 902 1
638 902 1
642 902 1
707 902 1
715 902 1
720 902 1
727 902 1
446 903 1
448 903 1
639 903 1
643 903 1
703 903 1
708 903 1
721 903 1
728 903 1
447 904 1
449 904 1
640 904 1
644 904 1
704 904 1
709 904 1
716 904 1
722 904 1
448 905 1
450 905 1
641 905 1
645 905 1
705 905 1
710 905 1
717 905 1
723 905 1
449 906 1
451 906 1
642 906 1
646 906 1
706 906 1
711 906 1
718 906 1
724 906 1
450 907 1
452 907 1
643 907 1
647 907 1
707 907 1
712 907 1
719 907 1
725 907 1
451 908 1
453 908 1
644 908 1
648 908 1
708 908 1
713 908 1
720 908 1
726 908 1
452 909 1
454 909 1
645 909 1
649 909 1
709 909 1
714 909 1
721 909 1
727 909 1
453 910 1
455 910 1
646 910 1
650 910 1
710 910 1
715 910 1
722 910 1
728 910 1
1 911 1
13 911 1
729 911 1
734 911 1
742 911 1
745 911 1
755 911 1
757 911 1
1 912 1
2 912 1
730 912 1
735 912 1
743 912 1
746 912 1
756 912 1
758 912 1
2 913 1
3 913 1
731 913 1
736 913 1
744 913 1
747 913 1
757 913 1
759 913 1
3 914 1
4 914 1
732 914 1
737 914 1
745 914 1
748 914 1
758 914 1
760 914 1
4 915 1
5 915 1
733 915 1
738 915 1
746 915 1
749 915 1
759 915 1
761 915 1
5 916 1
6 916 1
734 916 1
739 916 1
747 916 1
750 916 1
760 916 1
762 916 1
6 917 1
7 917 1
735 917 1
740 917 1
748 917 1
751 917 1
761 917 1
763 917 1
7 918 1
8 918 1
736 918 1
741 918 1
749 918 1
752 918 1
762 918 1
764 918 1
8 919 1
9 919 1
729 919 1
737 919 1
750 919 1
753 919 1
763 919 1
765 919 1
9 920 1
10 920 1
730 920 1
738 920 1
751 920 1
754 920 1
764 920 1
766 920 1
10 921 1
11 921 1
731 921 1
739 921 1
742 921 1
752 921 1
765 921 1
767 921 1
11 922 1
12 922 1
732 922 1
740 922 1
743 922 1
753 922 1
755 922 1
766 922 1
12 923 1
13 923 1
733 923 1
741 923 1
744 923 1
754 923 1
756 923 1
767 923 1
14 924 1
26 924 1
729 924 1
735 924 1
768 924 1
771 924 1
781 924 1
783 924 1
14 925 1
15 925 1
730 925 1
736 925 1
769 925 1
772 925 1
782 925 1
784 925 1
15 926 1
16 926 1
731 926 1
737 926 1
770 926 1
773 926 1
783 926 1
785 926 1
16 927 1
17 927 1
732 927 1
738 927 1
771 927 1
774 927 1
784 927 1
786 927 1
17 928 1
18 928 1
733 928 1
739 928 1
772 928 1
775 928 1
785 928 1
787 928 1
18 929 1
19 929 1
734 929 1
740 929 1
773 929 1
776 929 1
786 929 1
788 929 1
19 930 1
20 930 1
735 930 1
741 930 1
774 930 1
777 930 1
787 930 1
789 930 1
20 931 1
21 931 1
729 931 1
736 931 1
775 931 1
778 931 1
788 931 1
790 931 1
21 932 1
22 932 1
730 932 1
737 932 1
776 932 1
779 932 1
789 932 1
791 932 1
22 933 1
23 933 1
731 933 1
738 933 1
777 933 1
780 933 1
790 933 1
792 933 1
23 934 1
24 934 1
732 934 1
739 934 1
768 934 1
778 934 1
791 934 1
793 934 1
24 935 1
25 935 1
733 935 1
740 935 1
769 935 1
779 935 1
781 935 1
792 935 1
25 936 1
26 936 1
734 936 1
741 936 1
770 936 1
780 936 1
782 936 1
793 936 1
27 937 1
39 937 1
742 937 1
748 937 1
768 937 1
773 937 1
794 937 1
796 937 1
27 938 1
28 938 1
743 938 1
749 938 1
769 938 1
774 938 1
795 938 1
797 938 1
28 939 1
29 939 1
744 939 1
750 939 1
770 939 1
775 939 1
796 939 1
798 939 1
29 940 1
30 940 1
745 940 1
751 940 1
771 940 1
776 940 1
797 940 1
799 940 1
30 941 1
31 941 1
746 941 1
752 941 1
772 941 1
777 941 1
798 941 1
800 941 1
31 942 1
32 942 1
747 942 1
753 942 1
773 942 1
778 942 1
799 942 1
801 942 1
32 943 1
33 943 1
748 943 1
754 943 1
774 943 1
779 943 1
800 943 1
802 943 1
33 944 1
34 944 1
742 944 1
749 944 1
775 944 1
780 944 1
801 944 1
803 944 1
34 945 1
35 945 1
743 945 1
750 945 1
768 945 1
776 945 1
802 945 1
804 945 1
35 946 1
36 946 1
744 946 1
751 946 1
769 946 1
777 946 1
803 946 1
805 946 1
36 947 1
37 947 1
745 947 1
752 947 1
770 947 1
778 947 1
804 947 1
806 947 1
37 948 1
38 948 1
746 948 1
753 948 1
771 948 1
779 948 1
794 948 1
805 948 1
38 949 1
39 949 1
747 949 1
754 949 1
772 949 1
780 949 1
795 949 1
806 949 1
40 950 1
52 950 1
755 950 1
761 950 1
781 950 1
786 950 1
794 950 1
797 950 1
40 951 1
41 951 1
756 951 1
762 951 1
782 951 1
787 951 1
795 951 1
798 951 1
41 952 1
42 952 1
757 952 1
763 952 1
783 952 1
788 952 1
796 952 1
799 952 1
42 953 1
43 953 1
758 953 1
764 953 1
784 953 1
789 953 1
797 953 1
800 953 1
43 954 1
44 954 1
759 954 1
765 954 1
785 954 1
790 954 1
798 954 1
801 954 1
44 955 1
45 955 1
760 955 1
766 955 1
786 955 1
791 955 1
799 955 1
802 955 1
45 956 1
46 956 1
761 956 1
767 956 1
787 956 1
792 956 1
800 956 1
803 956 1
46 957 1
47 957 1
755 957 1
762 957 1
788 957 1
793 957 1
801 957 1
804 957 1
47 958 1
48 958 1
756 958 1
763 958 1
781 958 1
789 958 1
802 958 1
805 958 1
48 959 1
49 959 1
757 959 1
764 959 1
782 959 1
790 959 1
803 959 1
806 959 1
49 960 1
50 960 1
758 960 1
765 960 1
783 960 1
791 960 1
794 960 1
804 960 1
50 961 1
51 961 1
759 961 1
766 961 1
784 961 1
792 961 1
795 961 1
805 961 1
51 962 1
52 962 1
760 962 1
767 962 1
785 962 1
793 962 1
796 962 1
806 962 1
53 963 1
65 963 1
729 963 1
736 963 1
807 963 1
810 963 1
820 963 1
822 963 1
53 964 1
54 964 1
730 964 1
737 964 1
808 964 1
811 964 1
821 964 1
823 964 1
54 965 1
55 965 1
731 965 1
738 965 1
809 965 1
812 965 1
822 965 1
824 965 1
55 966 1
56 966 1
732 966 1
739 966 1
810 966 1
813 966 1
823 966 1
825 966 1
56 967 1
57 967 1
733 967 1
740 967 1
811 967 1
814 967 1
824 967 1
826 967 1
57 968 1
58 968 1
734 968 1
741 968 1
812 968 1
815 968 1
825 968 1
827 968 1
58 969 1
59 969 1
729 969 1
735 969 1
813 969 1
816 969 1
826 969 1
828 969 1
59 970 1
60 970 1
730 970 1
736 970 1
814 970 1
817 970 1
827 970 1
829 970 1
60 971 1
61 971 1
731 971 1
737 971 1
815 971 1
818 971 1
828 971 1
830 971 1
61 972 1
62 972 1
732 972 1
738 972 1
816 972 1
819 972 1
829 972 1
831 972 1
62 973 1
63 973 1
733 973 1
739 973 1
807 973 1
817 973 1
830 973 1
832 973 1
63 974 1
64 974 1
734 974 1
740 974 1
808 974 1
818 974 1
820 974 1
831 974 1
64 975 1
65 975 1
735 975 1
741 975 1
809 975 1
819 975 1
821 975 1
832 975 1
66 976 1
78 976 1
742 976 1
749 976 1
807 976 1
812 976 1
833 976 1
835 976 1
66 977 1
67 977 1
743 977 1
750 977 1
808 977 1
813 977 1
834 977 1
836 977 1
67 978 1
68 978 1
744 978 1
751 978 1
809 978 1
814 978 1
835 978 1
837 978 1
68 979 1
69 979 1
745 979 1
752 979 1
810 979 1
815 979 1
836 979 1
838 979 1
69 980 1
70 980 1
746 980 1
753 980 1
811 980 1
816 980 1
837 980 1
839 980 1
70 981 1
71 981 1
747 981 1
754 981 1
812 981 1
817 981 1
838 981 1
840 981 1
71 982 1
72 982 1
742 982 1
748 982 1
813 982 1
818 982 1
839 982 1
841 982 1
72 983 1
73 983 1
743 983 1
749 983 1
814 983 1
819 983 1
840 983 1
842 983 1
73 984 1
74 984 1
744 984 1
750 984 1
807 984 1
815 984 1
841 984 1
843 984 1
74 985 1
75 985 1
745 985 1
751 985 1
808 985 1
816 985 1
842 985 1
844 985 1
75 986 1
76 986 1
746 986 1
752 986 1
809 986 1
817 986 1
843 986 1
845 986 1
76 987 1
77 987 1
747 987 1
753 987 1
810 987 1
818 987 1
833 987 1
844 987 1
77 988 1
78 988 1
748 988 1
754 988 1
811 988 1
819 988 1
834 988 1
845 988 1
79 989 1
91 989 1
755 989 1
762 989 1
820 989 1
825 989 1
833 989 1
836 989 1
79 990 1
80 990 1
756 990 1
763 990 1
821 990 1
826 990 1
834 990 1
837 990 1
80 991 1
81 991 1
757 991 1
764 991 1
822 991 1
827 991 1
835 991 1
838 991 1
81 992 1
82 992 1
758 992 1
765 992 1
823 992 1
828 992 1
836 992 1
839 992 1
82 993 1
83 993 1
759 993 1
766 993 1
824 993 1
829 993 1
837 993 1
840 993 1
83 994 1
84 994 1
760 994 1
767 994 1
825 994 1
830 994 1
838 994 1
841 994 1
84 995 1
85 995 1
755 995 1
761 995 1
826 995 1
831 995 1
839 995 1
842 995 1
85 996 1
86 996 1
756 996 1
762 996 1
827 996 1
832 996 1
840 996 1
843 996 1
86 997 1
87 997 1
757 997 1
763 997 1
820 997 1
828 997 1
841 997 1
844 997 1
87 998 1
88 998 1
758 998 1
764 998 1
821 998 1
829 998 1
842 998 1
845 998 1
88 999 1
89 999 1
759 999 1
765 999 1
822 999 1
830 999 1
833 999 1
843 999 1
89 1000 1
90 1000 1
760 1000 1
766 1000 1
823 1000 1
831 1000 1
834 1000 1
844 1000 1
90 1001 1
91 1001 1
761 1001 1
767 1001 1
824 1001 1
832 1001 1
835 1001 1
845 1001 1
92 1002 1
104 1002 1
768 1002 1
775 1002 1
807 1002 1
813 1002 1
846 1002 1
848 1002 1
92 1003 1
93 1003 1
769 1003 1
776 1003 1
808 1003 1
814 1003 1
847 1003 1
849 1003 1
93 1004 1
94 1004 1
770 1004 1
777 1004 1
809 1004 1
815 1004 1
848 1004 1
850 1004 1
94 1005 1
95 1005 1
771 1005 1
778 1005 1
810 1005 1
816 1005 1
849 1005 1
851 1005 1
95 1006 1
96 1006 1
772 1006 1
779 1006 1
811 1006 1
817 1006 1
850 1006 1
852 1006 1
96 1007 1
97 1007 1
773 1007 1
780 1007 1
812 1007 1
818 1007 1
851 1007 1
853 1007 1
97 1008 1
98 1008 1
768 1008 1
774 1008 1
813 1008 1
819 1008 1
852 1008 1
854 1008 1
98 1009 1
99 1009 1
769 1009 1
775 1009 1
807 1009 1
814 1009 1
853 1009 1
855 1009 1
99 1010 1
100 1010 1
770 1010 1
776 1010 1
808 1010 1
815 1010 1
854 1010 1
856 1010 1
100 1011 1
101 1011 1
771 1011 1
777 1011 1
809 1011 1
816 1011 1
855 1011 1
857 1011 1
101 1012 1
102 1012 1
772 1012 1
778 1012 1
810 1012 1
817 1012 1
856 1012 1
858 1012 1
102 1013 1
103 1013 1
773 1013 1
779 1013 1
811 1013 1
818 1013 1
846 1013 1
857 1013 1
103 1014 1
104 1014 1
774 1014 1
780 1014 1
812 1014 1
819 1014 1
847 1014 1
858 1014 1
105 1015 1
117 1015 1
781 1015 1
788 1015 1
820 1015 1
826 1015 1
846 1015 1
849 1015 1
105 1016 1
106 1016 1
782 1016 1
789 1016 1
821 1016 1
827 1016 1
847 1016 1
850 1016 1
106 1017 1
107 1017 1
783 1017 1
790 1017 1
822 1017 1
828 1017 1
848 1017 1
851 1017 1
107 1018 1
108 1018 1
784 1018 1
791 1018 1
823 1018 1
829 1018 1
849 1018 1
852 1018 1
108 1019 1
109 1019 1
785 1019 1
792 1019 1
824 1019 1
830 1019 1
850 1019 1
853 1019 1
109 1020 1
110 1020 1
786 1020 1
793 1020 1
825 1020 1
831 1020 1
851 1020 1
854 1020 1
110 1021 1
111 1021 1
781 1021 1
787 1021 1
826 1021 1
832 1021 1
852 1021 1
855 1021 1
111 1022 1
112 1022 1
782 1022 1
788 1022 1
820 1022 1
827 1022 1
853 1022 1
856 1022 1
112 1023 1
113 1023 1
783 1023 1
789 1023 1
821 1023 1
828 1023 1
854 1023 1
857 1023 1
113 1024 1
114 1024 1
784 1024 1
790 1024 1
822 1024 1
829 1024 1
855 1024 1
858 1024 1
114 1025 1
115 1025 1
785 1025 1
791 1025 1
823 1025 1
830 1025 1
846 1025 1
856 1025 1
115 1026 1
116 1026 1
786 1026 1
792 1026 1
824 1026 1
831 1026 1
847 1026 1
857 1026 1
116 1027 1
117 1027 1
787 1027 1
793 1027 1
825 1027 1
832 1027 1
848 1027 1
858 1027 1
118 1028 1
130 1028 1
794 1028 1
801 1028 1
833 1028 1
839 1028 1
846 1028 1
851 1028 1
118 1029 1
119 1029 1
795 1029 1
802 1029 1
834 1029 1
840 1029 1
847 1029 1
852 1029 1
119 1030 1
120 1030 1
796 1030 1
803 1030 1
835 1030 1
841 1030 1
848 1030 1
853 1030 1
120 1031 1
121 1031 1
797 1031 1
804 1031 1
836 1031 1
842 1031 1
849 1031 1
854 1031 1
121 1032 1
122 1032 1
798 1032 1
805 1032 1
837 1032 1
843 1032 1
850 1032 1
855 1032 1
122 1033 1
123 1033 1
799 1033 1
806 1033 1
838 1033 1
844 1033 1
851 1033 1
856 1033 1
123 1034 1
124 1034 1
794 1034 1
800 1034 1
839 1034 1
845 1034 1
852 1034 1
857 1034 1
124 1035 1
125 1035 1
795 1035 1
801 1035 1
833 1035 1
840 1035 1
853 1035 1
858 1035 1
125 1036 1
126 1036 1
796 1036 1
802 1036 1
834 1036 1
841 1036 1
846 1036 1
854 1036 1
126 1037 1
127 1037 1
797 1037 1
803 1037 1
835 1037 1
842 1037 1
847 1037 1
855 1037 1
127 1038 1
128 1038 1
798 1038 1
804 1038 1
836 1038 1
843 1038 1
848 1038 1
856 1038 1
128 1039 1
129 1039 1
799 1039 1
805 1039 1
837 1039 1
844 1039 1
849 1039 1
857 1039 1
129 1040 1
130 1040 1
800 1040 1
806 1040 1
838 1040 1
845 1040 1
850 1040 1
858 1040 1
131 1041 1
143 1041 1
729 1041 1
737 1041 1
859 1041 1
862 1041 1
872 1041 1
874 1041 1
131 1042 1
132 1042 1
730 1042 1
738 1042 1
860 1042 1
863 1042 1
873 1042 1
875 1042 1
132 1043 1
133 1043 1
731 1043 1
739 1043 1
861 1043 1
864 1043 1
874 1043 1
876 1043 1
133 1044 1
134 1044 1
732 1044 1
740 1044 1
862 1044 1
865 1044 1
875 1044 1
877 1044 1
134 1045 1
135 1045 1
733 1045 1
741 1045 1
863 1045 1
866 1045 1
876 1045 1
878 1045 1
135 1046 1
136 1046 1
729 1046 1
734 1046 1
864 1046 1
867 1046 1
877 1046 1
879 1046 1
136 1047 1
137 1047 1
730 1047 1
735 1047 1
865 1047 1
868 1047 1
878 1047 1
880 1047 1
137 1048 1
138 1048 1
731 1048 1
736 1048 1
866 1048 1
869 1048 1
879 1048 1
881 1048 1
138 1049 1
139 1049 1
732 1049 1
737 1049 1
867 1049 1
870 1049 1
880 1049 1
882 1049 1
139 1050 1
140 1050 1
733 1050 1
738 1050 1
868 1050 1
871 1050 1
881 1050 1
883 1050 1
140 1051 1
141 1051 1
734 1051 1
739 1051 1
859 1051 1
869 1051 1
882 1051 1
884 1051 1
141 1052 1
142 1052 1
735 1052 1
740 1052 1
860 1052 1
870 1052 1
872 1052 1
883 1052 1
142 1053 1
143 1053 1
736 1053 1
741 1053 1
861 1053 1
871 1053 1
873 1053 1
884 1053 1
144 1054 1
156 1054 1
742 1054 1
750 1054 1
859 1054 1
864 1054 1
885 1054 1
887 1054 1
144 1055 1
145 1055 1
743 1055 1
751 1055 1
860 1055 1
865 1055 1
886 1055 1
888 1055 1
145 1056 1
146 1056 1
744 1056 1
752 1056 1
861 1056 1
866 1056 1
887 1056 1
889 1056 1
146 1057 1
147 1057 1
745 1057 1
753 1057 1
862 1057 1
867 1057 1
888 1057 1
890 1057 1
147 1058 1
148 1058 1
746 1058 1
754 1058 1
863 1058 1
868 1058 1
889 1058 1
891 1058 1
148 1059 1
149 1059 1
742 1059 1
747 1059 1
864 1059 1
869 1059 1
890 1059 1
892 1059 1
149 1060 1
150 1060 1
743 1060 1
748 1060 1
865 1060 1
870 1060 1
891 1060 1
893 1060 1
150 1061 1
151 1061 1
744 1061 1
749 1061 1
866 1061 1
871 1061 1
892 1061 1
894 1061 1
151 1062 1
152 1062 1
745 1062 1
750 1062 1
859 1062 1
867 1062 1
893 1062 1
895 1062 1
152 1063 1
153 1063 1
746 1063 1
751 1063 1
860 1063 1
868 1063 1
894 1063 1
896 1063 1
153 1064 1
154 1064 1
747 1064 1
752 1064 1
861 1064 1
869 1064 1
895 1064 1
897 1064 1
154 1065 1
155 1065 1
748 1065 1
753 1065 1
862 1065 1
870 1065 1
885 1065 1
896 1065 1
155 1066 1
156 1066 1
749 1066 1
754 1066 1
863 1066 1
871 1066 1
886 1066 1
897 1066 1
157 1067 1
169 1067 1
755 1067 1
763 1067 1
872 1067 1
877 1067 1
885 1067 1
888 1067 1
157 1068 1
158 1068 1
756 1068 1
764 1068 1
873 1068 1
878 1068 1
886 1068 1
889 1068 1
158 1069 1
159 1069 1
757 1069 1
765 1069 1
874 1069 1
879 1069 1
887 1069 1
890 1069 1
159 1070 1
160 1070 1
758 1070 1
766 1070 1
875 1070 1
880 1070 1
888 1070 1
891 1070 1
160 1071 1
161 1071 1
759 1071 1
767 1071 1
876 1071 1
881 1071 1
889 1071 1
892 1071 1
161 1072 1
162 1072 1
755 1072 1
760 1072 1
877 1072 1
882 1072 1
890 1072 1
893 1072 1
162 1073 1
163 1073 1
756 1073 1
761 1073 1
878 1073 1
883 1073 1
891 1073 1
894 1073 1
163 1074 1
164 1074 1
757 1074 1
762 1074 1
879 1074 1
884 1074 1
892 1074 1
895 1074 1
164 1075 1
165 1075 1
758 1075 1
763 1075 1
872 1075 1
880 1075 1
893 1075 1
896 1075 1
165 1076 1
166 1076 1
759 1076 1
764 1076 1
873 1076 1
881 1076 1
894 1076 1
897 1076 1
166 1077 1
167 1077 1
760 1077 1
765 1077 1
874 1077 1
882 1077 1
885 1077 1
895 1077 1
167 1078 1
168 1078 1
761 1078 1
766 1078 1
875 1078 1
883 1078 1
886 1078 1
896 1078 1
168 1079 1
169 1079 1
762 1079 1
767 1079 1
876 1079 1
884 1079 1
887 1079 1
897 1079 1
170 1080 1
182 1080 1
768 1080 1
776 1080 1
859 1080 1
865 1080 1
898 1080 1
900 1080 1
170 1081 1
171 1081 1
769 1081 1
777 1081 1
860 1081 1
866 1081 1
899 1081 1
901 1081 1
171 1082 1
172 1082 1
770 1082 1
778 1082 1
861 1082 1
867 1082 1
900 1082 1
902 1082 1
172 1083 1
173 1083 1
771 1083 1
779 1083 1
862 1083 1
868 1083 1
901 1083 1
903 1083 1
173 1084 1
174 1084 1
772 1084 1
780 1084 1
863 1084 1
869 1084 1
902 1084 1
904 1084 1
174 1085 1
175 1085 1
768 1085 1
773 1085 1
864 1085 1
870 1085 1
903 1085 1
905 1085 1
175 1086 1
176 1086 1
769 1086 1
774 1086 1
865 1086 1
871 1086 1
904 1086 1
906 1086 1
176 1087 1
177 1087 1
770 1087 1
775 1087 1
859 1087 1
866 1087 1
905 1087 1
907 1087 1
177 1088 1
178 1088 1
771 1088 1
776 1088 1
860 1088 1
867 1088 1
906 1088 1
908 1088 1
178 1089 1
179 1089 1
772 1089 1
777 1089 1
861 1089 1
868 1089 1
907 1089 1
909 1089 1
179 1090 1
180 1090 1
773 1090 1
778 1090 1
862 1090 1
869 1090 1
908 1090 1
910 1090 1
180 1091 1
181 1091 1
774 1091 1
779 1091 1
863 1091 1
870 1091 1
898 1091 1
909 1091 1
181 1092 1
182 1092 1
775 1092 1
780 1092 1
864 1092 1
871 1092 1
899 1092 1
910 1092 1
183 1093 1
195 1093 1
781 1093 1
789 1093 1
872 1093 1
878 1093 1
898 1093 1
901 1093 1
183 1094 1
184 1094 1
782 1094 1
790 1094 1
873 1094 1
879 1094 1
899 1094 1
902 1094 1
184 1095 1
185 1095 1
783 1095 1
791 1095 1
874 1095 1
880 1095 1
900 1095 1
903 1095 1
185 1096 1
186 1096 1
784 1096 1
792 1096 1
875 1096 1
881 1096 1
901 1096 1
904 1096 1
186 1097 1
187 1097 1
785 1097 1
793 1097 1
876 1097 1
882 1097 1
902 1097 1
905 1097 1
187 1098 1
188 1098 1
781 1098 1
786 1098 1
877 1098 1
883 1098 1
903 1098 1
906 1098 1
188 1099 1
189 1099 1
782 1099 1
787 1099 1
878 1099 1
884 1099 1
904 1099 1
907 1099 1
189 1100 1
190 1100 1
783 1100 1
788 1100 1
872 1100 1
879 1100 1
905 1100 1
908 1100 1
190 1101 1
191 1101 1
784 1101 1
789 1101 1
873 1101 1
880 1101 1
906 1101 1
909 1101 1
191 1102 1
192 1102 1
785 1102 1
790 1102 1
874 1102 1
881 1102 1
907 1102 1
910 1102 1
192 1103 1
193 1103 1
786 1103 1
791 1103 1
875 1103 1
882 1103 1
898 1103 1
908 1103 1
193 1104 1
194 1104 1
787 1104 1
792 1104 1
876 1104 1
883 1104 1
899 1104 1
909 1104 1
194 1105 1
195 1105 1
788 1105 1
793 1105 1
877 1105 1
884 1105 1
900 1105 1
910 1105 1
196 1106 1
208 1106 1
794 1106 1
802 1106 1
885 1106 1
891 1106 1
898 1106 1
903 1106 1
196 1107 1
197 1107 1
795 1107 1
803 1107 1
886 1107 1
892 1107 1
899 1107 1
904 1107 1
197 1108 1
198 1108 1
796 1108 1
804 1108 1
887 1108 1
893 1108 1
900 1108 1
905 1108 1
198 1109 1
199 1109 1
797 1109 1
805 1109 1
888 1109 1
894 1109 1
901 1109 1
906 1109 1
199 1110 1
200 1110 1
798 1110 1
806 1110 1
889 1110 1
895 1110 1
902 1110 1
907 1110 1
200 1111 1
201 1111 1
794 1111 1
799 1111 1
890 1111 1
896 1111 1
903 1111 1
908 1111 1
201 1112 1
202 1112 1
795 1112 1
800 1112 1
891 1112 1
897 1112 1
904 1112 1
909 1112 1
202 1113 1
203 1113 1
796 1113 1
801 1113 1
885 1113 1
892 1113 1
905 1113 1
910 1113 1
203 1114 1
204 1114 1
797 1114 1
802 1114 1
886 1114 1
893 1114 1
898 1114 1
906 1114 1
204 1115 1
205 1115 1
798 1115 1
803 1115 1
887 1115 1
894 1115 1
899 1115 1
907 1115 1
205 1116 1
206 1116 1
799 1116 1
804 1116 1
888 1116 1
895 1116 1
900 1116 1
908 1116 1
206 1117 1
207 1117 1
800 1117 1
805 1117 1
889 1117 1
896 1117 1
901 1117 1
909 1117 1
207 1118 1
208 1118 1
801 1118 1
806 1118 1
890 1118 1
897 1118 1
902 1118 1
910 1118 1
209 1119 1
221 1119 1
807 1119 1
815 1119 1
859 1119 1
866 1119 1
911 1119 1
913 1119 1
209 1120 1
210 1120 1
808 1120 1
816 1120 1
860 1120 1
867 1120 1
912 1120 1
914 1120 1
210 1121 1
211 1121 1
809 1121 1
817 1121 1
861 1121 1
868 1121 1
913 1121 1
915 1121 1
211 1122 1
212 1122 1
810 1122 1
818 1122 1
862 1122 1
869 1122 1
914 1122 1
916 1122 1
212 1123 1
213 1123 1
811 1123 1
819 1123 1
863 1123 1
870 1123 1
915 1123 1
917 1123 1
213 1124 1
214 1124 1
807 1124 1
812 1124 1
864 1124 1
871 1124 1
916 1124 1
918 1124 1
214 1125 1
215 1125 1
808 1125 1
813 1125 1
859 1125 1
865 1125 1
917 1125 1
919 1125 1
215 1126 1
216 1126 1
809 1126 1
814 1126 1
860 1126 1
866 1126 1
918 1126 1
920 1126 1
216 1127 1
217 1127 1
810 1127 1
815 1127 1
861 1127 1
867 1127 1
919 1127 1
921 1127 1
217 1128 1
218 1128 1
811 1128 1
816 1128 1
862 1128 1
868 1128 1
920 1128 1
922 1128 1
218 1129 1
219 1129 1
812 1129 1
817 1129 1
863 1129 1
869 1129 1
921 1129 1
923 1129 1
219 1130 1
220 1130 1
813 1130 1
818 1130 1
864 1130 1
870 1130 1
911 1130 1
922 1130 1
220 1131 1
221 1131 1
814 1131 1
819 1131 1
865 1131 1
871 1131 1
912 1131 1
923 1131 1
222 1132 1
234 1132 1
820 1132 1
828 1132 1
872 1132 1
879 1132 1
911 1132 1
914 1132 1
222 1133 1
223 1133 1
821 1133 1
829 1133 1
873 1133 1
880 1133 1
912 1133 1
915 1133 1
223 1134 1
224 1134 1
822 1134 1
830 1134 1
874 1134 1
881 1134 1
913 1134 1
916 1134 1
224 1135 1
225 1135 1
823 1135 1
831 1135 1
875 1135 1
882 1135 1
914 1135 1
917 1135 1
225 1136 1
226 1136 1
824 1136 1
832 1136 1
876 1136 1
883 1136 1
915 1136 1
918 1136 1
226 1137 1
227 1137 1
820 1137 1
825 1137 1
877 1137 1
884 1137 1
916 1137 1
919 1137 1
227 1138 1
228 1138 1
821 1138 1
826 1138 1
872 1138 1
878 1138 1
917 1138 1
920 1138 1
228 1139 1
229 1139 1
822 1139 1
827 1139 1
873 1139 1
879 1139 1
918 1139 1
921 1139 1
229 1140 1
230 1140 1
823 1140 1
828 1140 1
874 1140 1
880 1140 1
919 1140 1
922 1140 1
230 1141 1
231 1141 1
824 1141 1
829 1141 1
875 1141 1
881 1141 1
920 1141 1
923 1141 1
231 1142 1
232 1142 1
825 1142 1
830 1142 1
876 1142 1
882 1142 1
911 1142 1
921 1142 1
232 1143 1
233 1143 1
826 1143 1
831 1143 1
877 1143 1
883 1143 1
912 1143 1
922 1143 1
233 1144 1
234 1144 1
827 1144 1
832 1144 1
878 1144 1
884 1144 1
913 1144 1
923 1144 1
235 1145 1
247 1145 1
833 1145 1
841 1145 1
885 1145 1
892 1145 1
911 1145 1
916 1145 1
235 1146 1
236 1146 1
834 1146 1
842 1146 1
886 1146 1
893 1146 1
912 1146 1
917 1146 1
236 1147 1
237 1147 1
835 1147 1
843 1147 1
887 1147 1
894 1147 1
913 1147 1
918 1147 1
237 1148 1
238 1148 1
836 1148 1
844 1148 1
888 1148 1
895 1148 1
914 1148 1
919 1148 1
238 1149 1
239 1149 1
837 1149 1
845 1149 1
889 1149 1
896 1149 1
915 1149 1
920 1149 1
239 1150 1
240 1150 1
833 1150 1
838 1150 1
890 1150 1
897 1150 1
916 1150 1
921 1150 1
240 1151 1
241 1151 1
834 1151 1
839 1151 1
885 1151 1
891 1151 1
917 1151 1
922 1151 1
241 1152 1
242 1152 1
835 1152 1
840 1152 1
886 1152 1
892 1152 1
918 1152 1
923 1152 1
242 1153 1
243 1153 1
836 1153 1
841 1153 1
887 1153 1
893 1153 1
911 1153 1
919 1153 1
243 1154 1
244 1154 1
837 1154 1
842 1154 1
888 1154 1
894 1154 1
912 1154 1
920 1154 1
244 1155 1
245 1155 1
838 1155 1
843 1155 1
889 1155 1
895 1155 1
913 1155 1
921 1155 1
245 1156 1
246 1156 1
839 1156 1
844 1156 1
890 1156 1
896 1156 1
914 1156 1
922 1156 1
246 1157 1
247 1157 1
840 1157 1
845 1157 1
891 1157 1
897 1157 1
915 1157 1
923 1157 1
248 1158 1
260 1158 1
846 1158 1
854 1158 1
898 1158 1
905 1158 1
911 1158 1
917 1158 1
248 1159 1
249 1159 1
847 1159 1
855 1159 1
899 1159 1
906 1159 1
912 1159 1
918 1159 1
249 1160 1
250 1160 1
848 1160 1
856 1160 1
900 1160 1
907 1160 1
913 1160 1
919 1160 1
250 1161 1
251 1161 1
849 1161 1
857 1161 1
901 1161 1
908 1161 1
914 1161 1
920 1161 1
251 1162 1
252 1162 1
850 1162 1
858 1162 1
902 1162 1
909 1162 1
915 1162 1
921 1162 1
252 1163 1
253 1163 1
846 1163 1
851 1163 1
903 1163 1
910 1163 1
916 1163 1
922 1163 1
253 1164 1
254 1164 1
847 1164 1
852 1164 1
898 1164 1
904 1164 1
917 1164 1
923 1164 1
254 1165 1
255 1165 1
848 1165 1
853 1165 1
899 1165 1
905 1165 1
911 1165 1
918 1165 1
255 1166 1
256 1166 1
849 1166 1
854 1166 1
900 1166 1
906 1166 1
912 1166 1
919 1166 1
256 1167 1
257 1167 1
850 1167 1
855 1167 1
901 1167 1
907 1167 1
913 1167 1
920 1167 1
257 1168 1
258 1168 1
851 1168 1
856 1168 1
902 1168 1
908 1168 1
914 1168 1
921 1168 1
258 1169 1
259 1169 1
852 1169 1
857 1169 1
903 1169 1
909 1169 1
915 1169 1
922 1169 1
259 1170 1
260 1170 1
853 1170 1
858 1170 1
904 1170 1
910 1170 1
916 1170 1
923 1170 1
261 1171 1
273 1171 1
729 1171 1
738 1171 1
924 1171 1
927 1171 1
937 1171 1
939 1171 1
261 1172 1
262 1172 1
730 1172 1
739 1172 1
925 1172 1
928 1172 1
938 1172 1
940 1172 1
262 1173 1
263 1173 1
731 1173 1
740 1173 1
926 1173 1
929 1173 1
939 1173 1
941 1173 1
263 1174 1
264 1174 1
732 1174 1
741 1174 1
927 1174 1
930 1174 1
940 1174 1
942 1174 1
264 1175 1
265 1175 1
729 1175 1
733 1175 1
928 1175 1
931 1175 1
941 1175 1
943 1175 1
265 1176 1
266 1176 1
730 1176 1
734 1176 1
929 1176 1
932 1176 1
942 1176 1
944 1176 1
266 1177 1
267 1177 1
731 1177 1
735 1177 1
930 1177 1
933 1177 1
943 1177 1
945 1177 1
267 1178 1
268 1178 1
732 1178 1
736 1178 1
931 1178 1
934 1178 1
944 1178 1
946 1178 1
268 1179 1
269 1179 1
733 1179 1
737 1179 1
932 1179 1
935 1179 1
945 1179 1
947 1179 1
269 1180 1
270 1180 1
734 1180 1
738 1180 1
933 1180 1
936 1180 1
946 1180 1
948 1180 1
270 1181 1
271 1181 1
735 1181 1
739 1181 1
924 1181 1
934 1181 1
947 1181 1
949 1181 1
271 1182 1
272 1182 1
736 1182 1
740 1182 1
925 1182 1
935 1182 1
937 1182 1
948 1182 1
272 1183 1
273 1183 1
737 1183 1
741 1183 1
926 1183 1
936 1183 1
938 1183 1
949 1183 1
274 1184 1
286 1184 1
742 1184 1
751 1184 1
924 1184 1
929 1184 1
950 1184 1
952 1184 1
274 1185 1
275 1185 1
743 1185 1
752 1185 1
925 1185 1
930 1185 1
951 1185 1
953 1185 1
275 1186 1
276 1186 1
744 1186 1
753 1186 1
926 1186 1
931 1186 1
952 1186 1
954 1186 1
276 1187 1
277 1187 1
745 1187 1
754 1187 1
927 1187 1
932 1187 1
953 1187 1
955 1187 1
277 1188 1
278 1188 1
742 1188 1
746 1188 1
928 1188 1
933 1188 1
954 1188 1
956 1188 1
278 1189 1
279 1189 1
743 1189 1
747 1189 1
929 1189 1
934 1189 1
955 1189 1
957 1189 1
279 1190 1
280 1190 1
744 1190 1
748 1190 1
930 1190 1
935 1190 1
956 1190 1
958 1190 1
280 1191 1
281 1191 1
745 1191 1
749 1191 1
931 1191 1
936 1191 1
957 1191 1
959 1191 1
281 1192 1
282 1192 1
746 1192 1
750 1192 1
924 1192 1
932 1192 1
958 1192 1
960 1192 1
282 1193 1
283 1193 1
747 1193 1
751 1193 1
925 1193 1
933 1193 1
959 1193 1
961 1193 1
283 1194 1
284 1194 1
748 1194 1
752 1194 1
926 1194 1
934 1194 1
960 1194 1
962 1194 1
284 1195 1
285 1195 1
749 1195 1
753 1195 1
927 1195 1
935 1195 1
950 1195 1
961 1195 1
285 1196 1
286 1196 1
750 1196 1
754 1196 1
928 1196 1
936 1196 1
951 1196 1
962 1196 1
287 1197 1
299 1197 1
755 1197 1
764 1197 1
937 1197 1
942 1197 1
950 1197 1
953 1197 1
287 1198 1
288 1198 1
756 1198 1
765 1198 1
938 1198 1
943 1198 1
951 1198 1
954 1198 1
288 1199 1
289 1199 1
757 1199 1
766 1199 1
939 1199 1
944 1199 1
952 1199 1
955 1199 1
289 1200 1
290 1200 1
758 1200 1
767 1200 1
940 1200 1
945 1200 1
953 1200 1
956 1200 1
290 1201 1
291 1201 1
755 1201 1
759 1201 1
941 1201 1
946 1201 1
954 1201 1
957 1201 1
291 1202 1
292 1202 1
756 1202 1
760 1202 1
942 1202 1
947 1202 1
955 1202 1
958 1202 1
292 1203 1
293 1203 1
757 1203 1
761 1203 1
943 1203 1
948 1203 1
956 1203 1
959 1203 1
293 1204 1
294 1204 1
758 1204 1
762 1204 1
944 1204 1
949 1204 1
957 1204 1
960 1204 1
294 1205 1
295 1205 1
759 1205 1
763 1205 1
937 1205 1
945 1205 1
958 1205 1
961 1205 1
295 1206 1
296 1206 1
760 1206 1
764 1206 1
938 1206 1
946 1206 1
959 1206 1
962 1206 1
296 1207 1
297 1207 1
761 1207 1
765 1207 1
939 1207 1
947 1207 1
950 1207 1
960 1207 1
297 1208 1
298 1208 1
762 1208 1
766 1208 1
940 1208 1
948 1208 1
951 1208 1
961 1208 1
298 1209 1
299 1209 1
763 1209 1
767 1209 1
941 1209 1
949 1209 1
952 1209 1
962 1209 1
300 1210 1
312 1210 1
768 1210 1
777 1210 1
924 1210 1
930 1210 1
963 1210 1
965 1210 1
300 1211 1
301 1211 1
769 1211 1
778 1211 1
925 1211 1
931 1211 1
964 1211 1
966 1211 1
301 1212 1
302 1212 1
770 1212 1
779 1212 1
926 1212 1
932 1212 1
965 1212 1
967 1212 1
302 1213 1
303 1213 1
771 1213 1
780 1213 1
927 1213 1
933 1213 1
966 1213 1
968 1213 1
303 1214 1
304 1214 1
768 1214 1
772 1214 1
928 1214 1
934 1214 1
967 1214 1
969 1214 1
304 1215 1
305 1215 1
769 1215 1
773 1215 1
929 1215 1
935 1215 1
968 1215 1
970 1215 1
305 1216 1
306 1216 1
770 1216 1
774 1216 1
930 1216 1
936 1216 1
969 1216 1
971 1216 1
306 1217 1
307 1217 1
771 1217 1
775 1217 1
924 1217 1
931 1217 1
970 1217 1
972 1217 1
307 1218 1
308 1218 1
772 1218 1
776 1218 1
925 1218 1
932 1218 1
971 1218 1
973 1218 1
308 1219 1
309 1219 1
773 1219 1
777 1219 1
926 1219 1
933 1219 1
972 1219 1
974 1219 1
309 1220 1
310 1220 1
774 1220 1
778 1220 1
927 1220 1
934 1220 1
973 1220 1
975 1220 1
310 1221 1
311 1221 1
775 1221 1
779 1221 1
928 1221 1
935 1221 1
963 1221 1
974 1221 1
311 1222 1
312 1222 1
776 1222 1
780 1222 1
929 1222 1
936 1222 1
964 1222 1
975 1222 1
313 1223 1
325 1223 1
781 1223 1
790 1223 1
937 1223 1
943 1223 1
963 1223 1
966 1223 1
313 1224 1
314 1224 1
782 1224 1
791 1224 1
938 1224 1
944 1224 1
964 1224 1
967 1224 1
314 1225 1
315 1225 1
783 1225 1
792 1225 1
939 1225 1
945 1225 1
965 1225 1
968 1225 1
315 1226 1
316 1226 1
784 1226 1
793 1226 1
940 1226 1
946 1226 1
966 1226 1
969 1226 1
316 1227 1
317 1227 1
781 1227 1
785 1227 1
941 1227 1
947 1227 1
967 1227 1
970 1227 1
317 1228 1
318 1228 1
782 1228 1
786 1228 1
942 1228 1
948 1228 1
968 1228 1
971 1228 1
318 1229 1
319 1229 1
783 1229 1
787 1229 1
943 1229 1
949 1229 1
969 1229 1
972 1229 1
319 1230 1
320 1230 1
784 1230 1
788 1230 1
937 1230 1
944 1230 1
970 1230 1
973 1230 1
320 1231 1
321 1231 1
785 1231 1
789 1231 1
938 1231 1
945 1231 1
971 1231 1
974 1231 1
321 1232 1
322 1232 1
786 1232 1
790 1232 1
939 1232 1
946 1232 1
972 1232 1
975 1232 1
322 1233 1
323 1233 1
787 1233 1
791 1233 1
940 1233 1
947 1233 1
963 1233 1
973 1233 1
323 1234 1
324 1234 1
788 1234 1
792 1234 1
941 1234 1
948 1234 1
964 1234 1
974 1234 1
324 1235 1
325 1235 1
789 1235 1
793 1235 1
942 1235 1
949 1235 1
965 1235 1
975 1235 1
326 1236 1
338 1236 1
794 1236 1
803 1236 1
950 1236 1
956 1236 1
963 1236 1
968 1236 1
326 1237 1
327 1237 1
795 1237 1
804 1237 1
951 1237 1
957 1237 1
964 1237 1
969 1237 1
327 1238 1
328 1238 1
796 1238 1
805 1238 1
952 1238 1
958 1238 1
965 1238 1
970 1238 1
328 1239 1
329 1239 1
797 1239 1
806 1239 1
953 1239 1
959 1239 1
966 1239 1
971 1239 1
329 1240 1
330 1240 1
794 1240 1
798 1240 1
954 1240 1
960 1240 1
967 1240 1
972 1240 1
330 1241 1
331 1241 1
795 1241 1
799 1241 1
955 1241 1
961 1241 1
968 1241 1
973 1241 1
331 1242 1
332 1242 1
796 1242 1
800 1242 1
956 1242 1
962 1242 1
969 1242 1
974 1242 1
332 1243 1
333 1243 1
797 1243 1
801 1243 1
950 1243 1
957 1243 1
970 1243 1
975 1243 1
333 1244 1
334 1244 1
798 1244 1
802 1244 1
951 1244 1
958 1244 1
963 1244 1
971 1244 1
334 1245 1
335 1245 1
799 1245 1
803 1245 1
952 1245 1
959 1245 1
964 1245 1
972 1245 1
335 1246 1
336 1246 1
800 1246 1
804 1246 1
953 1246 1
960 1246 1
965 1246 1
973 1246 1
336 1247 1
337 1247 1
801 1247 1
805 1247 1
954 1247 1
961 1247 1
966 1247 1
974 1247 1
337 1248 1
338 1248 1
802 1248 1
806 1248 1
955 1248 1
962 1248 1
967 1248 1
975 1248 1
339 1249 1
351 1249 1
807 1249 1
816 1249 1
924 1249 1
931 1249 1
976 1249 1
978 1249 1
339 1250 1
340 1250 1
808 1250 1
817 1250 1
925 1250 1
932 1250 1
977 1250 1
979 1250 1
340 1251 1
341 1251 1
809 1251 1
818 1251 1
926 1251 1
933 1251 1
978 1251 1
980 1251 1
341 1252 1
342 1252 1
810 1252 1
819 1252 1
927 1252 1
934 1252 1
979 1252 1
981 1252 1
342 1253 1
343 1253 1
807 1253 1
811 1253 1
928 1253 1
935 1253 1
980 1253 1
982 1253 1
343 1254 1
344 1254 1
808 1254 1
812 1254 1
929 1254 1
936 1254 1
981 1254 1
983 1254 1
344 1255 1
345 1255 1
809 1255 1
813 1255 1
924 1255 1
930 1255 1
982 1255 1
984 1255 1
345 1256 1
346 1256 1
810 1256 1
814 1256 1
925 1256 1
931 1256 1
983 1256 1
985 1256 1
346 1257 1
347 1257 1
811 1257 1
815 1257 1
926 1257 1
932 1257 1
984 1257 1
986 1257 1
347 1258 1
348 1258 1
812 1258 1
816 1258 1
927 1258 1
933 1258 1
985 1258 1
987 1258 1
348 1259 1
349 1259 1
813 1259 1
817 1259 1
928 1259 1
934 1259 1
986 1259 1
988 1259 1
349 1260 1
350 1260 1
814 1260 1
818 1260 1
929 1260 1
935 1260 1
976 1260 1
987 1260 1
350 1261 1
351 1261 1
815 1261 1
819 1261 1
930 1261 1
936 1261 1
977 1261 1
988 1261 1
352 1262 1
364 1262 1
820 1262 1
829 1262 1
937 1262 1
944 1262 1
976 1262 1
979 1262 1
352 1263 1
353 1263 1
821 1263 1
830 1263 1
938 1263 1
945 1263 1
977 1263 1
980 1263 1
353 1264 1
354 1264 1
822 1264 1
831 1264 1
939 1264 1
946 1264 1
978 1264 1
981 1264 1
354 1265 1
355 1265 1
823 1265 1
832 1265 1
940 1265 1
947 1265 1
979 1265 1
982 1265 1
355 1266 1
356 1266 1
820 1266 1
824 1266 1
941 1266 1
948 1266 1
980 1266 1
983 1266 1
356 1267 1
357 1267 1
821 1267 1
825 1267 1
942 1267 1
949 1267 1
981 1267 1
984 1267 1
357 1268 1
358 1268 1
822 1268 1
826 1268 1
937 1268 1
943 1268 1
982 1268 1
985 1268 1
358 1269 1
359 1269 1
823 1269 1
827 1269 1
938 1269 1
944 1269 1
983 1269 1
986 1269 1
359 1270 1
360 1270 1
824 1270 1
828 1270 1
939 1270 1
945 1270 1
984 1270 1
987 1270 1
360 1271 1
361 1271 1
825 1271 1
829 1271 1
940 1271 1
946 1271 1
985 1271 1
988 1271 1
361 1272 1
362 1272 1
826 1272 1
830 1272 1
941 1272 1
947 1272 1
976 1272 1
986 1272 1
362 1273 1
363 1273 1
827 1273 1
831 1273 1
942 1273 1
948 1273 1
977 1273 1
987 1273 1
363 1274 1
364 1274 1
828 1274 1
832 1274 1
943 1274 1
949 1274 1
978 1274 1
988 1274 1
365 1275 1
377 1275 1
833 1275 1
842 1275 1
950 1275 1
957 1275 1
976 1275 1
981 1275 1
365 1276 1
366 1276 1
834 1276 1
843 1276 1
951 1276 1
958 1276 1
977 1276 1
982 1276 1
366 1277 1
367 1277 1
835 1277 1
844 1277 1
952 1277 1
959 1277 1
978 1277 1
983 1277 1
367 1278 1
368 1278 1
836 1278 1
845 1278 1
953 1278 1
960 1278 1
979 1278 1
984 1278 1
368 1279 1
369 1279 1
833 1279 1
837 1279 1
954 1279 1
961 1279 1
980 1279 1
985 1279 1
369 1280 1
370 1280 1
834 1280 1
838 1280 1
955 1280 1
962 1280 1
981 1280 1
986 1280 1
370 1281 1
371 1281 1
835 1281 1
839 1281 1
950 1281 1
956 1281 1
982 1281 1
987 1281 1
371 1282 1
372 1282 1
836 1282 1
840 1282 1
951 1282 1
957 1282 1
983 1282 1
988 1282 1
372 1283 1
373 1283 1
837 1283 1
841 1283 1
952 1283 1
958 1283 1
976 1283 1
984 1283 1
373 1284 1
374 1284 1
838 1284 1
842 1284 1
953 1284 1
959 1284 1
977 1284 1
985 1284 1
374 1285 1
375 1285 1
839 1285 1
843 1285 1
954 1285 1
960 1285 1
978 1285 1
986 1285 1
375 1286 1
376 1286 1
840 1286 1
844 1286 1
955 1286 1
961 1286 1
979 1286 1
987 1286 1
376 1287 1
377 1287 1
841 1287 1
845 1287 1
956 1287 1
962 1287 1
980 1287 1
988 1287 1
378 1288 1
390 1288 1
846 1288 1
855 1288 1
963 1288 1
970 1288 1
976 1288 1
982 1288 1
378 1289 1
379 1289 1
847 1289 1
856 1289 1
964 1289 1
971 1289 1
977 1289 1
983 1289 1
379 1290 1
380 1290 1
848 1290 1
857 1290 1
965 1290 1
972 1290 1
978 1290 1
984 1290 1
380 1291 1
381 1291 1
849 1291 1
858 1291 1
966 1291 1
973 1291 1
979 1291 1
985 1291 1
381 1292 1
382 1292 1
846 1292 1
850 1292 1
967 1292 1
974 1292 1
980 1292 1
986 1292 1
382 1293 1
383 1293 1
847 1293 1
851 1293 1
968 1293 1
975 1293 1
981 1293 1
987 1293 1
383 1294 1
384 1294 1
848 1294 1
852 1294 1
963 1294 1
969 1294 1
982 1294 1
988 1294 1
384 1295 1
385 1295 1
849 1295 1
853 1295 1
964 1295 1
970 1295 1
976 1295 1
983 1295 1
385 1296 1
386 1296 1
850 1296 1
854 1296 1
965 1296 1
971 1296 1
977 1296 1
984 1296 1
386 1297 1
387 1297 1
851 1297 1
855 1297 1
966 1297 1
972 1297 1
978 1297 1
985 1297 1
387 1298 1
388 1298 1
852 1298 1
856 1298 1
967 1298 1
973 1298 1
979 1298 1
986 1298 1
388 1299 1
389 1299 1
853 1299 1
857 1299 1
968 1299 1
974 1299 1
980 1299 1
987 1299 1
389 1300 1
390 1300 1
854 1300 1
858 1300 1
969 1300 1
975 1300 1
981 1300 1
988 1300 1
391 1301 1
403 1301 1
859 1301 1
868 1301 1
924 1301 1
932 1301 1
989 1301 1
991 1301 1
391 1302 1
392 1302 1
860 1302 1
869 1302 1
925 1302 1
933 1302 1
990 1302 1
992 1302 1
392 1303 1
393 1303 1
861 1303 1
870 1303 1
926 1303 1
934 1303 1
991 1303 1
993 1303 1
393 1304 1
394 1304 1
862 1304 1
871 1304 1
927 1304 1
935 1304 1
992 1304 1
994 1304 1
394 1305 1
395 1305 1
859 1305 1
863 1305 1
928 1305 1
936 1305 1
993 1305 1
995 1305 1
395 1306 1
396 1306 1
860 1306 1
864 1306 1
924 1306 1
929 1306 1
994 1306 1
996 1306 1
396 1307 1
397 1307 1
861 1307 1
865 1307 1
925 1307 1
930 1307 1
995 1307 1
997 1307 1
397 1308 1
398 1308 1
862 1308 1
866 1308 1
926 1308 1
931 1308 1
996 1308 1
998 1308 1
398 1309 1
399 1309 1
863 1309 1
867 1309 1
927 1309 1
932 1309 1
997 1309 1
999 1309 1
399 1310 1
400 1310 1
864 1310 1
868 1310 1
928 1310 1
933 1310 1
998 1310 1
1000 1310 1
400 1311 1
401 1311 1
865 1311 1
869 1311 1
929 1311 1
934 1311 1
999 1311 1
1001 1311 1
401 1312 1
402 1312 1
866 1312 1
870 1312 1
930 1312 1
935 1312 1
989 1312 1
1000 1312 1
402 1313 1
403 1313 1
867 1313 1
871 1313 1
931 1313 1
936 1313 1
990 1313 1
1001 1313 1
404 1314 1
416 1314 1
872 1314 1
881 1314 1
937 1314 1
945 1314 1
989 1314 1
992 1314 1
404 1315 1
405 1315 1
873 1315 1
882 1315 1
938 1315 1
946 1315 1
990 1315 1
993 1315 1
405 1316 1
406 1316 1
874 1316 1
883 1316 1
939 1316 1
947 1316 1
991 1316 1
994 1316 1
406 1317 1
407 1317 1
875 1317 1
884 1317 1
940 1317 1
948 1317 1
992 1317 1
995 1317 1
407 1318 1
408 1318 1
872 1318 1
876 1318 1
941 1318 1
949 1318 1
993 1318 1
996 1318 1
408 1319 1
409 1319 1
873 1319 1
877 1319 1
937 1319 1
942 1319 1
994 1319 1
997 1319 1
409 1320 1
410 1320 1
874 1320 1
878 1320 1
938 1320 1
943 1320 1
995 1320 1
998 1320 1
410 1321 1
411 1321 1
875 1321 1
879 1321 1
939 1321 1
944 1321 1
996 1321 1
999 1321 1
411 1322 1
412 1322 1
876 1322 1
880 1322 1
940 1322 1
945 1322 1
997 1322 1
1000 1322 1
412 1323 1
413 1323 1
877 1323 1
881 1323 1
941 1323 1
946 1323 1
998 1323 1
1001 1323 1
413 1324 1
414 1324 1
878 1324 1
882 1324 1
942 1324 1
947 1324 1
989 1324 1
999 1324 1
414 1325 1
415 1325 1
879 1325 1
883 1325 1
943 1325 1
948 1325 1
990 1325 1
1000 1325 1
415 1326 1
416 1326 1
880 1326 1
884 1326 1
944 1326 1
949 1326 1
991 1326 1
1001 1326 1
417 1327 1
429 1327 1
885 1327 1
894 1327 1
950 1327 1
958 1327 1
989 1327 1
994 1327 1
417 1328 1
418 1328 1
886 1328 1
895 1328 1
951 1328 1
959 1328 1
990 1328 1
995 1328 1
418 1329 1
419 1329 1
887 1329 1
896 1329 1
952 1329 1
960 1329 1
991 1329 1
996 1329 1
419 1330 1
420 1330 1
888 1330 1
897 1330 1
953 1330 1
961 1330 1
992 1330 1
997 1330 1
420 1331 1
421 1331 1
885 1331 1
889 1331 1
954 1331 1
962 1331 1
993 1331 1
998 1331 1
421 1332 1
422 1332 1
886 1332 1
890 1332 1
950 1332 1
955 1332 1
994 1332 1
999 1332 1
422 1333 1
423 1333 1
887 1333 1
891 1333 1
951 1333 1
956 1333 1
995 1333 1
1000 1333 1
423 1334 1
424 1334 1
888 1334 1
892 1334 1
952 1334 1
957 1334 1
996 1334 1
1001 1334 1
424 1335 1
425 1335 1
889 1335 1
893 1335 1
953 1335 1
958 1335 1
989 1335 1
997 1335 1
425 1336 1
426 1336 1
890 1336 1
894 1336 1
954 1336 1
959 1336 1
990 1336 1
998 1336 1
426 1337 1
427 1337 1
891 1337 1
895 1337 1
955 1337 1
960 1337 1
991 1337 1
999 1337 1
427 1338 1
428 1338 1
892 1338 1
896 1338 1
956 1338 1
961 1338 1
992 1338 1
1000 1338 1
428 1339 1
429 1339 1
893 1339 1
897 1339 1
957 1339 1
962 1339 1
993 1339 1
1001 1339 1
430 1340 1
442 1340 1
898 1340 1
907 1340 1
963 1340 1
971 1340 1
989 1340 1
995 1340 1
430 1341 1
431 1341 1
899 1341 1
908 1341 1
964 1341 1
972 1341 1
990 1341 1
996 1341 1
431 1342 1
432 1342 1
900 1342 1
909 1342 1
965 1342 1
973 1342 1
991 1342 1
997 1342 1
432 1343 1
433 1343 1
901 1343 1
910 1343 1
966 1343 1
974 1343 1
992 1343 1
998 1343 1
433 1344 1
434 1344 1
898 1344 1
902 1344 1
967 1344 1
975 1344 1
993 1344 1
999 1344 1
434 1345 1
435 1345 1
899 1345 1
903 1345 1
963 1345 1
968 1345 1
994 1345 1
1000 1345 1
435 1346 1
436 1346 1
900 1346 1
904 1346 1
964 1346 1
969 1346 1
995 1346 1
1001 1346 1
436 1347 1
437 1347 1
901 1347 1
905 1347 1
965 1347 1
970 1347 1
989 1347 1
996 1347 1
437 1348 1
438 1348 1
902 1348 1
906 1348 1
966 1348 1
971 1348 1
990 1348 1
997 1348 1
438 1349 1
439 1349 1
903 1349 1
907 1349 1
967 1349 1
972 1349 1
991 1349 1
998 1349 1
439 1350 1
440 1350 1
904 1350 1
908 1350 1
968 1350 1
973 1350 1
992 1350 1
999 1350 1
440 1351 1
441 1351 1
905 1351 1
909 1351 1
969 1351 1
974 1351 1
993 1351 1
1000 1351 1
441 1352 1
442 1352 1
906 1352 1
910 1352 1
970 1352 1
975 1352 1
994 1352 1
1001 1352 1
443 1353 1
455 1353 1
911 1353 1
920 1353 1
976 1353 1
984 1353 1
989 1353 1
996 1353 1
443 1354 1
444 1354 1
912 1354 1
921 1354 1
977 1354 1
985 1354 1
990 1354 1
997 1354 1
444 1355 1
445 1355 1
913 1355 1
922 1355 1
978 1355 1
986 1355 1
991 1355 1
998 1355 1
445 1356 1
446 1356 1
914 1356 1
923 1356 1
979 1356 1
987 1356 1
992 1356 1
999 1356 1
446 1357 1
447 1357 1
911 1357 1
915 1357 1
980 1357 1
988 1357 1
993 1357 1
1000 1357 1
447 1358 1
448 1358 1
912 1358 1
916 1358 1
976 1358 1
981 1358 1
994 1358 1
1001 1358 1
448 1359 1
449 1359 1
913 1359 1
917 1359 1
977 1359 1
982 1359 1
989 1359 1
995 1359 1
449 1360 1
450 1360 1
914 1360 1
918 1360 1
978 1360 1
983 1360 1
990 1360 1
996 1360 1
450 1361 1
451 1361 1
915 1361 1
919 1361 1
979 1361 1
984 1361 1
991 1361 1
997 1361 1
451 1362 1
452 1362 1
916 1362 1
920 1362 1
980 1362 1
985 1362 1
992 1362 1
998 1362 1
452 1363 1
453 1363 1
917 1363 1
921 1363 1
981 1363 1
986 1363 1
993 1363 1
999 1363 1
453 1364 1
454 1364 1
918 1364 1
922 1364 1
982 1364 1
987 1364 1
994 1364 1
1000 1364 1
454 1365 1
455 1365 1
919 1365 1
923 1365 1
983 1365 1
988 1365 1
995 1365 1
1001 1365 1
456 1366 1
468 1366 1
729 1366 1
740 1366 1
1002 1366 1
1005 1366 1
1015 1366 1
1017 1366 1
456 1367 1
457 1367 1
730 1367 1
741 1367 1
1003 1367 1
1006 1367 1
1016 1367 1
1018 1367 1
457 1368 1
458 1368 1
729 1368 1
731 1368 1
1004 1368 1
1007 1368 1
1017 1368 1
1019 1368 1
458 1369 1
459 1369 1
730 1369 1
732 1369 1
1005 1369 1
1008 1369 1
1018 1369 1
1020 1369 1
459 1370 1
460 1370 1
731 1370 1
733 1370 1
1006 1370 1
1009 1370 1
1019 1370 1
1021 1370 1
460 1371 1
461 1371 1
732 1371 1
734 1371 1
1007 1371 1
1010 1371 1
1020 1371 1
1022 1371 1
461 1372 1
462 1372 1
733 1372 1
735 1372 1
1008 1372 1
1011 1372 1
1021 1372 1
1023 1372 1
462 1373 1
463 1373 1
734 1373 1
736 1373 1
1009 1373 1
1012 1373 1
1022 1373 1
1024 1373 1
463 1374 1
464 1374 1
735 1374 1
737 1374 1
1010 1374 1
1013 1374 1
1023 1374 1
1025 1374 1
464 1375 1
465 1375 1
736 1375 1
738 1375 1
1011 1375 1
1014 1375 1
1024 1375 1
1026 1375 1
465 1376 1
466 1376 1
737 1376 1
739 1376 1
1002 1376 1
1012 1376 1
1025 1376 1
1027 1376 1
466 1377 1
467 1377 1
738 1377 1
740 1377 1
1003 1377 1
1013 1377 1
1015 1377 1
1026 1377 1
467 1378 1
468 1378 1
739 1378 1
741 1378 1
1004 1378 1
1014 1378 1
1016 1378 1
1027 1378 1
469 1379 1
481 1379 1
742 1379 1
753 1379 1
1002 1379 1
1007 1379 1
1028 1379 1
1030 1379 1
469 1380 1
470 1380 1
743 1380 1
754 1380 1
1003 1380 1
1008 1380 1
1029 1380 1
1031 1380 1
470 1381 1
471 1381 1
742 1381 1
744 1381 1
1004 1381 1
1009 1381 1
1030 1381 1
1032 1381 1
471 1382 1
472 1382 1
743 1382 1
745 1382 1
1005 1382 1
1010 1382 1
1031 1382 1
1033 1382 1
472 1383 1
473 1383 1
744 1383 1
746 1383 1
1006 1383 1
1011 1383 1
1032 1383 1
1034 1383 1
473 1384 1
474 1384 1
745 1384 1
747 1384 1
1007 1384 1
1012 1384 1
1033 1384 1
1035 1384 1
474 1385 1
475 1385 1
746 1385 1
748 1385 1
1008 1385 1
1013 1385 1
1034 1385 1
1036 1385 1
475 1386 1
476 1386 1
747 1386 1
749 1386 1
1009 1386 1
1014 1386 1
1035 1386 1
1037 1386 1
476 1387 1
477 1387 1
748 1387 1
750 1387 1
1002 1387 1
1010 1387 1
1036 1387 1
1038 1387 1
477 1388 1
478 1388 1
749 1388 1
751 1388 1
1003 1388 1
1011 1388 1
1037 1388 1
1039 1388 1
478 1389 1
479 1389 1
750 1389 1
752 1389 1
1004 1389 1
1012 1389 1
1038 1389 1
1040 1389 1
479 1390 1
480 1390 1
751 1390 1
753 1390 1
1005 1390 1
1013 1390 1
1028 1390 1
1039 1390 1
480 1391 1
481 1391 1
752 1391 1
754 1391 1
1006 1391 1
1014 1391 1
1029 1391 1
1040 1391 1
482 1392 1
494 1392 1
755 1392 1
766 1392 1
1015 1392 1
1020 1392 1
1028 1392 1
1031 1392 1
482 1393 1
483 1393 1
756 1393 1
767 1393 1
1016 1393 1
1021 1393 1
1029 1393 1
1032 1393 1
483 1394 1
484 1394 1
755 1394 1
757 1394 1
1017 1394 1
1022 1394 1
1030 1394 1
1033 1394 1
484 1395 1
485 1395 1
756 1395 1
758 1395 1
1018 1395 1
1023 1395 1
1031 1395 1
1034 1395 1
485 1396 1
486 1396 1
757 1396 1
759 1396 1
1019 1396 1
1024 1396 1
1032 1396 1
1035 1396 1
486 1397 1
487 1397 1
758 1397 1
760 1397 1
1020 1397 1
1025 1397 1
1033 1397 1
1036 1397 1
487 1398 1
488 1398 1
759 1398 1
761 1398 1
1021 1398 1
1026 1398 1
1034 1398 1
1037 1398 1
488 1399 1
489 1399 1
760 1399 1
762 1399 1
1022 1399 1
1027 1399 1
1035 1399 1
1038 1399 1
489 1400 1
490 1400 1
761 1400 1
763 1400 1
1015 1400 1
1023 1400 1
1036 1400 1
1039 1400 1
490 1401 1
491 1401 1
762 1401 1
764 1401 1
1016 1401 1
1024 1401 1
1037 1401 1
1040 1401 1
491 1402 1
492 1402 1
763 1402 1
765 1402 1
1017 1402 1
1025 1402 1
1028 1402 1
1038 1402 1
492 1403 1
493 1403 1
764 1403 1
766 1403 1
1018 1403 1
1026 1403 1
1029 1403 1
1039 1403 1
493 1404 1
494 1404 1
765 1404 1
767 1404 1
1019 1404 1
1027 1404 1
1030 1404 1
1040 1404 1
495 1405 1
507 1405 1
768 1405 1
779 1405 1
1002 1405 1
1008 1405 1
1041 1405 1
1043 1405 1
495 1406 1
496 1406 1
769 1406 1
780 1406 1
1003 1406 1
1009 1406 1
1042 1406 1
1044 1406 1
496 1407 1
497 1407 1
768 1407 1
770 1407 1
1004 1407 1
1010 1407 1
1043 1407 1
1045 1407 1
497 1408 1
498 1408 1
769 1408 1
771 1408 1
1005 1408 1
1011 1408 1
1044 1408 1
1046 1408 1
498 1409 1
499 1409 1
770 1409 1
772 1409 1
1006 1409 1
1012 1409 1
1045 1409 1
1047 1409 1
499 1410 1
500 1410 1
771 1410 1
773 1410 1
1007 1410 1
1013 1410 1
1046 1410 1
1048 1410 1
500 1411 1
501 1411 1
772 1411 1
774 1411 1
1008 1411 1
1014 1411 1
1047 1411 1
1049 1411 1
501 1412 1
502 1412 1
773 1412 1
775 1412 1
1002 1412 1
1009 1412 1
1048 1412 1
1050 1412 1
502 1413 1
503 1413 1
774 1413 1
776 1413 1
1003 1413 1
1010 1413 1
1049 1413 1
1051 1413 1
503 1414 1
504 1414 1
775 1414 1
777 1414 1
1004 1414 1
1011 1414 1
1050 1414 1
1052 1414 1
504 1415 1
505 1415 1
776 1415 1
778 1415 1
1005 1415 1
1012 1415 1
1051 1415 1
1053 1415 1
505 1416 1
506 1416 1
777 1416 1
779 1416 1
1006 1416 1
1013 1416 1
1041 1416 1
1052 1416 1
506 1417 1
507 1417 1
778 1417 1
780 1417 1
1007 1417 1
1014 1417 1
1042 1417 1
1053 1417 1
508 1418 1
520 1418 1
781 1418 1
792 1418 1
1015 1418 1
1021 1418 1
1041 1418 1
1044 1418 1
508 1419 1
509 1419 1
782 1419 1
793 1419 1
1016 1419 1
1022 1419 1
1042 1419 1
1045 1419 1
509 1420 1
510 1420 1
781 1420 1
783 1420 1
1017 1420 1
1023 1420 1
1043 1420 1
1046 1420 1
510 1421 1
511 1421 1
782 1421 1
784 1421 1
1018 1421 1
1024 1421 1
1044 1421 1
1047 1421 1
511 1422 1
512 1422 1
783 1422 1
785 1422 1
1019 1422 1
1025 1422 1
1045 1422 1
1048 1422 1
512 1423 1
513 1423 1
784 1423 1
786 1423 1
1020 1423 1
1026 1423 1
1046 1423 1
1049 1423 1
513 1424 1
514 1424 1
785 1424 1
787 1424 1
1021 1424 1
1027 1424 1
1047 1424 1
1050 1424 1
514 1425 1
515 1425 1
786 1425 1
788 1425 1
1015 1425 1
1022 1425 1
1048 1425 1
1051 1425 1
515 1426 1
516 1426 1
787 1426 1
789 1426 1
1016 1426 1
1023 1426 1
1049 1426 1
1052 1426 1
516 1427 1
517 1427 1
788 1427 1
790 1427 1
1017 1427 1
1024 1427 1
1050 1427 1
1053 1427 1
517 1428 1
518 1428 1
789 1428 1
791 1428 1
1018 1428 1
1025 1428 1
1041 1428 1
1051 1428 1
518 1429 1
519 1429 1
790 1429 1
792 1429 1
1019 1429 1
1026 1429 1
1042 1429 1
1052 1429 1
519 1430 1
520 1430 1
791 1430 1
793 1430 1
1020 1430 1
1027 1430 1
1043 1430 1
1053 1430 1
521 1431 1
533 1431 1
794 1431 1
805 1431 1
1028 1431 1
1034 1431 1
1041 1431 1
1046 1431 1
521 1432 1
522 1432 1
795 1432 1
806 1432 1
1029 1432 1
1035 1432 1
1042 1432 1
1047 1432 1
522 1433 1
523 1433 1
794 1433 1
796 1433 1
1030 1433 1
1036 1433 1
1043 1433 1
1048 1433 1
523 1434 1
524 1434 1
795 1434 1
797 1434 1
1031 1434 1
1037 1434 1
1044 1434 1
1049 1434 1
524 1435 1
525 1435 1
796 1435 1
798 1435 1
1032 1435 1
1038 1435 1
1045 1435 1
1050 1435 1
525 1436 1
526 1436 1
797 1436 1
799 1436 1
1033 1436 1
1039 1436 1
1046 1436 1
1051 1436 1
526 1437 1
527 1437 1
798 1437 1
800 1437 1
1034 1437 1
1040 1437 1
1047 1437 1
1052 1437 1
527 1438 1
528 1438 1
799 1438 1
801 1438 1
1028 1438 1
1035 1438 1
1048 1438 1
1053 1438 1
528 1439 1
529 1439 1
800 1439 1
802 1439 1
1029 1439 1
1036 1439 1
1041 1439 1
1049 1439 1
529 1440 1
530 1440 1
801 1440 1
803 1440 1
1030 1440 1
1037 1440 1
1042 1440 1
1050 1440 1
530 1441 1
531 1441 1
802 1441 1
804 1441 1
1031 1441 1
1038 1441 1
1043 1441 1
1051 1441 1
531 1442 1
532 1442 1
803 1442 1
805 1442 1
1032 1442 1
1039 1442 1
1044 1442 1
1052 1442 1
532 1443 1
533 1443 1
804 1443 1
806 1443 1
1033 1443 1
1040 1443 1
1045 1443 1
1053 1443 1
534 1444 1
546 1444 1
807 1444 1
818 1444 1
1002 1444 1
1009 1444 1
1054 1444 1
1056 1444 1
534 1445 1
535 1445 1
808 1445 1
819 1445 1
1003 1445 1
1010 1445 1
1055 1445 1
1057 1445 1
535 1446 1
536 1446 1
807 1446 1
809 1446 1
1004 1446 1
1011 1446 1
1056 1446 1
1058 1446 1
536 1447 1
537 1447 1
808 1447 1
810 1447 1
1005 1447 1
1012 1447 1
1057 1447 1
1059 1447 1
537 1448 1
538 1448 1
809 1448 1
811 1448 1
1006 1448 1
1013 1448 1
1058 1448 1
1060 1448 1
538 1449 1
539 1449 1
810 1449 1
812 1449 1
1007 1449 1
1014 1449 1
1059 1449 1
1061 1449 1
539 1450 1
540 1450 1
811 1450 1
813 1450 1
1002 1450 1
1008 1450 1
1060 1450 1
1062 1450 1
540 1451 1
541 1451 1
812 1451 1
814 1451 1
1003 1451 1
1009 1451 1
1061 1451 1
1063 1451 1
541 1452 1
542 1452 1
813 1452 1
815 1452 1
1004 1452 1
1010 1452 1
1062 1452 1
1064 1452 1
542 1453 1
543 1453 1
814 1453 1
816 1453 1
1005 1453 1
1011 1453 1
1063 1453 1
1065 1453 1
543 1454 1
544 1454 1
815 1454 1
817 1454 1
1006 1454 1
1012 1454 1
1064 1454 1
1066 1454 1
544 1455 1
545 1455 1
816 1455 1
818 1455 1
1007 1455 1
1013 1455 1
1054 1455 1
1065 1455 1
545 1456 1
546 1456 1
817 1456 1
819 1456 1
1008 1456 1
1014 1456 1
1055 1456 1
1066 1456 1
547 1457 1
559 1457 1
820 1457 1
831 1457 1
1015 1457 1
1022 1457 1
1054 1457 1
1057 1457 1
547 1458 1
548 1458 1
821 1458 1
832 1458 1
1016 1458 1
1023 1458 1
1055 1458 1
1058 1458 1
548 1459 1
549 1459 1
820 1459 1
822 1459 1
1017 1459 1
1024 1459 1
1056 1459 1
1059 1459 1
549 1460 1
550 1460 1
821 1460 1
823 1460 1
1018 1460 1
1025 1460 1
1057 1460 1
1060 1460 1
550 1461 1
551 1461 1
822 1461 1
824 1461 1
1019 1461 1
1026 1461 1
1058 1461 1
1061 1461 1
551 1462 1
552 1462 1
823 1462 1
825 1462 1
1020 1462 1
1027 1462 1
1059 1462 1
1062 1462 1
552 1463 1
553 1463 1
824 1463 1
826 1463 1
1015 1463 1
1021 1463 1
1060 1463 1
1063 1463 1
553 1464 1
554 1464 1
825 1464 1
827 1464 1
1016 1464 1
1022 1464 1
1061 1464 1
1064 1464 1
554 1465 1
555 1465 1
826 1465 1
828 1465 1
1017 1465 1
1023 1465 1
1062 1465 1
1065 1465 1
555 1466 1
556 1466 1
827 1466 1
829 1466 1
1018 1466 1
1024 1466 1
1063 1466 1
1066 1466 1
556 1467 1
557 1467 1
828 1467 1
830 1467 1
1019 1467 1
1025 1467 1
1054 1467 1
1064 1467 1
557 1468 1
558 1468 1
829 1468 1
831 1468 1
1020 1468 1
1026 1468 1
1055 1468 1
1065 1468 1
558 1469 1
559 1469 1
830 1469 1
832 1469 1
1021 1469 1
1027 1469 1
1056 1469 1
1066 1469 1
560 1470 1
572 1470 1
833 1470 1
844 1470 1
1028 1470 1
1035 1470 1
1054 1470 1
1059 1470 1
560 1471 1
561 1471 1
834 1471 1
845 1471 1
1029 1471 1
1036 1471 1
1055 1471 1
1060 1471 1
561 1472 1
562 1472 1
833 1472 1
835 1472 1
1030 1472 1
1037 1472 1
1056 1472 1
1061 1472 1
562 1473 1
563 1473 1
834 1473 1
836 1473 1
1031 1473 1
1038 1473 1
1057 1473 1
1062 1473 1
563 1474 1
564 1474 1
835 1474 1
837 1474 1
1032 1474 1
1039 1474 1
1058 1474 1
1063 1474 1
564 1475 1
565 1475 1
836 1475 1
838 1475 1
1033 1475 1
1040 1475 1
1059 1475 1
1064 1475 1
565 1476 1
566 1476 1
837 1476 1
839 1476 1
1028 1476 1
1034 1476 1
1060 1476 1
1065 1476 1
566 1477 1
567 1477 1
838 1477 1
840 1477 1
1029 1477 1
1035 1477 1
1061 1477 1
1066 1477 1
567 1478 1
568 1478 1
839 1478 1
841 1478 1
1030 1478 1
1036 1478 1
1054 1478 1
1062 1478 1
568 1479 1
569 1479 1
840 1479 1
842 1479 1
1031 1479 1
1037 1479 1
1055 1479 1
1063 1479 1
569 1480 1
570 1480 1
841 1480 1
843 1480 1
1032 1480 1
1038 1480 1
1056 1480 1
1064 1480 1
570 1481 1
571 1481 1
842 1481 1
844 1481 1
1033 1481 1
1039 1481 1
1057 1481 1
1065 1481 1
571 1482 1
572 1482 1
843 1482 1
845 1482 1
1034 1482 1
1040 1482 1
1058 1482 1
1066 1482 1
573 1483 1
585 1483 1
846 1483 1
857 1483 1
1041 1483 1
1048 1483 1
1054 1483 1
1060 1483 1
573 1484 1
574 1484 1
847 1484 1
858 1484 1
1042 1484 1
1049 1484 1
1055 1484 1
1061 1484 1
574 1485 1
575 1485 1
846 1485 1
848 1485 1
1043 1485 1
1050 1485 1
1056 1485 1
1062 1485 1
575 1486 1
576 1486 1
847 1486 1
849 1486 1
1044 1486 1
1051 1486 1
1057 1486 1
1063 1486 1
576 1487 1
577 1487 1
848 1487 1
850 1487 1
1045 1487 1
1052 1487 1
1058 1487 1
1064 1487 1
577 1488 1
578 1488 1
849 1488 1
851 1488 1
1046 1488 1
1053 1488 1
1059 1488 1
1065 1488 1
578 1489 1
579 1489 1
850 1489 1
852 1489 1
1041 1489 1
1047 1489 1
1060 1489 1
1066 1489 1
579 1490 1
580 1490 1
851 1490 1
853 1490 1
1042 1490 1
1048 1490 1
1054 1490 1
1061 1490 1
580 1491 1
581 1491 1
852 1491 1
854 1491 1
1043 1491 1
1049 1491 1
1055 1491 1
1062 1491 1
581 1492 1
582 1492 1
853 1492 1
855 1492 1
1044 1492 1
1050 1492 1
1056 1492 1
1063 1492 1
582 1493 1
583 1493 1
854 1493 1
856 1493 1
1045 1493 1
1051 1493 1
1057 1493 1
1064 1493 1
583 1494 1
584 1494 1
855 1494 1
857 1494 1
1046 1494 1
1052 1494 1
1058 1494 1
1065 1494 1
584 1495 1
585 1495 1
856 1495 1
858 1495 1
1047 1495 1
1053 1495 1
1059 1495 1
1066 1495 1
586 1496 1
598 1496 1
859 1496 1
870 1496 1
1002 1496 1
1010 1496 1
1067 1496 1
1069 1496 1
586 1497 1
587 1497 1
860 1497 1
871 1497 1
1003 1497 1
1011 1497 1
1068 1497 1
1070 1497 1
587 1498 1
588 1498 1
859 1498 1
861 1498 1
1004 1498 1
1012 1498 1
1069 1498 1
1071 1498 1
588 1499 1
589 1499 1
860 1499 1
862 1499 1
1005 1499 1
1013 1499 1
1070 1499 1
1072 1499 1
589 1500 1
590 1500 1
861 1500 1
863 1500 1
1006 1500 1
1014 1500 1
1071 1500 1
1073 1500 1
590 1501 1
591 1501 1
862 1501 1
864 1501 1
1002 1501 1
1007 1501 1
1072 1501 1
1074 1501 1
591 1502 1
592 1502 1
863 1502 1
865 1502 1
1003 1502 1
1008 1502 1
1073 1502 1
1075 1502 1
592 1503 1
593 1503 1
864 1503 1
866 1503 1
1004 1503 1
1009 1503 1
1074 1503 1
1076 1503 1
593 1504 1
594 1504 1
865 1504 1
867 1504 1
1005 1504 1
1010 1504 1
1075 1504 1
1077 1504 1
594 1505 1
595 1505 1
866 1505 1
868 1505 1
1006 1505 1
1011 1505 1
1076 1505 1
1078 1505 1
595 1506 1
596 1506 1
867 1506 1
869 1506 1
1007 1506 1
1012 1506 1
1077 1506 1
1079 1506 1
596 1507 1
597 1507 1
868 1507 1
870 1507 1
1008 1507 1
1013 1507 1
1067 1507 1
1078 1507 1
597 1508 1
598 1508 1
869 1508 1
871 1508 1
1009 1508 1
1014 1508 1
1068 1508 1
1079 1508 1
599 1509 1
611 1509 1
872 1509 1
883 1509 1
1015 1509 1
1023 1509 1
1067 1509 1
1070 1509 1
599 1510 1
600 1510 1
873 1510 1
884 1510 1
1016 1510 1
1024 1510 1
1068 1510 1
1071 1510 1
600 1511 1
601 1511 1
872 1511 1
874 1511 1
1017 1511 1
1025 1511 1
1069 1511 1
1072 1511 1
601 1512 1
602 1512 1
873 1512 1
875 1512 1
1018 1512 1
1026 1512 1
1070 1512 1
1073 1512 1
602 1513 1
603 1513 1
874 1513 1
876 1513 1
1019 1513 1
1027 1513 1
1071 1513 1
1074 1513 1
603 1514 1
604 1514 1
875 1514 1
877 1514 1
1015 1514 1
1020 1514 1
1072 1514 1
1075 1514 1
604 1515 1
605 1515 1
876 1515 1
878 1515 1
1016 1515 1
1021 1515 1
1073 1515 1
1076 1515 1
605 1516 1
606 1516 1
877 1516 1
879 1516 1
1017 1516 1
1022 1516 1
1074 1516 1
1077 1516 1
606 1517 1
607 1517 1
878 1517 1
880 1517 1
1018 1517 1
1023 1517 1
1075 1517 1
1078 1517 1
607 1518 1
608 1518 1
879 1518 1
881 1518 1
1019 1518 1
1024 1518 1
1076 1518 1
1079 1518 1
608 1519 1
609 1519 1
880 1519 1
882 1519 1
1020 1519 1
1025 1519 1
1067 1519 1
1077 1519 1
609 1520 1
610 1520 1
881 1520 1
883 1520 1
1021 1520 1
1026 1520 1
1068 1520 1
1078 1520 1
610 1521 1
611 1521 1
882 1521 1
884 1521 1
1022 1521 1
1027 1521 1
1069 1521 1
1079 1521 1
612 1522 1
624 1522 1
885 1522 1
896 1522 1
1028 1522 1
1036 1522 1
1067 1522 1
1072 1522 1
612 1523 1
613 1523 1
886 1523 1
897 1523 1
1029 1523 1
1037 1523 1
1068 1523 1
1073 1523 1
613 1524 1
614 1524 1
885 1524 1
887 1524 1
1030 1524 1
1038 1524 1
1069 1524 1
1074 1524 1
614 1525 1
615 1525 1
886 1525 1
888 1525 1
1031 1525 1
1039 1525 1
1070 1525 1
1075 1525 1
615 1526 1
616 1526 1
887 1526 1
889 1526 1
1032 1526 1
1040 1526 1
1071 1526 1
1076 1526 1
616 1527 1
617 1527 1
888 1527 1
890 1527 1
1028 1527 1
1033 1527 1
1072 1527 1
1077 1527 1
617 1528 1
618 1528 1
889 1528 1
891 1528 1
1029 1528 1
1034 1528 1
1073 1528 1
1078 1528 1
618 1529 1
619 1529 1
890 1529 1
892 1529 1
1030 1529 1
1035 1529 1
1074 1529 1
1079 1529 1
619 1530 1
620 1530 1
891 1530 1
893 1530 1
1031 1530 1
1036 1530 1
1067 1530 1
1075 1530 1
620 1531 1
621 1531 1
892 1531 1
894 1531 1
1032 1531 1
1037 1531 1
1068 1531 1
1076 1531 1
621 1532 1
622 1532 1
893 1532 1
895 1532 1
1033 1532 1
1038 1532 1
1069 1532 1
1077 1532 1
622 1533 1
623 1533 1
894 1533 1
896 1533 1
1034 1533 1
1039 1533 1
1070 1533 1
1078 1533 1
623 1534 1
624 1534 1
895 1534 1
897 1534 1
1035 1534 1
1040 1534 1
1071 1534 1
1079 1534 1
625 1535 1
637 1535 1
898 1535 1
909 1535 1
1041 1535 1
1049 1535 1
1067 1535 1
1073 1535 1
625 1536 1
626 1536 1
899 1536 1
910 1536 1
1042 1536 1
1050 1536 1
1068 1536 1
1074 1536 1
626 1537 1
627 1537 1
898 1537 1
900 1537 1
1043 1537 1
1051 1537 1
1069 1537 1
1075 1537 1
627 1538 1
628 1538 1
899 1538 1
901 1538 1
1044 1538 1
1052 1538 1
1070 1538 1
1076 1538 1
628 1539 1
629 1539 1
900 1539 1
902 1539 1
1045 1539 1
1053 1539 1
1071 1539 1
1077 1539 1
629 1540 1
630 1540 1
901 1540 1
903 1540 1
1041 1540 1
1046 1540 1
1072 1540 1
1078 1540 1
630 1541 1
631 1541 1
902 1541 1
904 1541 1
1042 1541 1
1047 1541 1
1073 1541 1
1079 1541 1
631 1542 1
632 1542 1
903 1542 1
905 1542 1
1043 1542 1
1048 1542 1
1067 1542 1
1074 1542 1
632 1543 1
633 1543 1
904 1543 1
906 1543 1
1044 1543 1
1049 1543 1
1068 1543 1
1075 1543 1
633 1544 1
634 1544 1
905 1544 1
907 1544 1
1045 1544 1
1050 1544 1
1069 1544 1
1076 1544 1
634 1545 1
635 1545 1
906 1545 1
908 1545 1
1046 1545 1
1051 1545 1
1070 1545 1
1077 1545 1
635 1546 1
636 1546 1
907 1546 1
909 1546 1
1047 1546 1
1052 1546 1
1071 1546 1
1078 1546 1
636 1547 1
637 1547 1
908 1547 1
910 1547 1
1048 1547 1
1053 1547 1
1072 1547 1
1079 1547 1
638 1548 1
650 1548 1
911 1548 1
922 1548 1
1054 1548 1
1062 1548 1
1067 1548 1
1074 1548 1
638 1549 1
639 1549 1
912 1549 1
923 1549 1
1055 1549 1
1063 1549 1
1068 1549 1
1075 1549 1
639 1550 1
640 1550 1
911 1550 1
913 1550 1
1056 1550 1
1064 1550 1
1069 1550 1
1076 1550 1
640 1551 1
641 1551 1
912 1551 1
914 1551 1
1057 1551 1
1065 1551 1
1070 1551 1
1077 1551 1
641 1552 1
642 1552 1
913 1552 1
915 1552 1
1058 1552 1
1066 1552 1
1071 1552 1
1078 1552 1
642 1553 1
643 1553 1
914 1553 1
916 1553 1
1054 1553 1
1059 1553 1
1072 1553 1
1079 1553 1
643 1554 1
644 1554 1
915 1554 1
917 1554 1
1055 1554 1
1060 1554 1
1067 1554 1
1073 1554 1
644 1555 1
645 1555 1
916 1555 1
918 1555 1
1056 1555 1
1061 1555 1
1068 1555 1
1074 1555 1
645 1556 1
646 1556 1
917 1556 1
919 1556 1
1057 1556 1
1062 1556 1
1069 1556 1
1075 1556 1
646 1557 1
647 1557 1
918 1557 1
920 1557 1
1058 1557 1
1063 1557 1
1070 1557 1
1076 1557 1
647 1558 1
648 1558 1
919 1558 1
921 1558 1
1059 1558 1
1064 1558 1
1071 1558 1
1077 1558 1
648 1559 1
649 1559 1
920 1559 1
922 1559 1
1060 1559 1
1065 1559 1
1072 1559 1
1078 1559 1
649 1560 1
650 1560 1
921 1560 1
923 1560 1
1061 1560 1
1066 1560 1
1073 1560 1
1079 1560 1
651 1561 1
663 1561 1
924 1561 1
935 1561 1
1002 1561 1
1011 1561 1
1080 1561 1
1082 1561 1
651 1562 1
652 1562 1
925 1562 1
936 1562 1
1003 1562 1
1012 1562 1
1081 1562 1
1083 1562 1
652 1563 1
653 1563 1
924 1563 1
926 1563 1
1004 1563 1
1013 1563 1
1082 1563 1
1084 1563 1
653 1564 1
654 1564 1
925 1564 1
927 1564 1
1005 1564 1
1014 1564 1
1083 1564 1
1085 1564 1
654 1565 1
655 1565 1
926 1565 1
928 1565 1
1002 1565 1
1006 1565 1
1084 1565 1
1086 1565 1
655 1566 1
656 1566 1
927 1566 1
929 1566 1
1003 1566 1
1007 1566 1
1085 1566 1
1087 1566 1
656 1567 1
657 1567 1
928 1567 1
930 1567 1
1004 1567 1
1008 1567 1
1086 1567 1
1088 1567 1
657 1568 1
658 1568 1
929 1568 1
931 1568 1
1005 1568 1
1009 1568 1
1087 1568 1
1089 1568 1
658 1569 1
659 1569 1
930 1569 1
932 1569 1
1006 1569 1
1010 1569 1
1088 1569 1
1090 1569 1
659 1570 1
660 1570 1
931 1570 1
933 1570 1
1007 1570 1
1011 1570 1
1089 1570 1
1091 1570 1
660 1571 1
661 1571 1
932 1571 1
934 1571 1
1008 1571 1
1012 1571 1
1090 1571 1
1092 1571 1
661 1572 1
662 1572 1
933 1572 1
935 1572 1
1009 1572 1
1013 1572 1
1080 1572 1
1091 1572 1
662 1573 1
663 1573 1
934 1573 1
936 1573 1
1010 1573 1
1014 1573 1
1081 1573 1
1092 1573 1
664 1574 1
676 1574 1
937 1574 1
948 1574 1
1015 1574 1
1024 1574 1
1080 1574 1
1083 1574 1
664 1575 1
665 1575 1
938 1575 1
949 1575 1
1016 1575 1
1025 1575 1
1081 1575 1
1084 1575 1
665 1576 1
666 1576 1
937 1576 1
939 1576 1
1017 1576 1
1026 1576 1
1082 1576 1
1085 1576 1
666 1577 1
667 1577 1
938 1577 1
940 1577 1
1018 1577 1
1027 1577 1
1083 1577 1
1086 1577 1
667 1578 1
668 1578 1
939 1578 1
941 1578 1
1015 1578 1
1019 1578 1
1084 1578 1
1087 1578 1
668 1579 1
669 1579 1
940 1579 1
942 1579 1
1016 1579 1
1020 1579 1
1085 1579 1
1088 1579 1
669 1580 1
670 1580 1
941 1580 1
943 1580 1
1017 1580 1
1021 1580 1
1086 1580 1
1089 1580 1
670 1581 1
671 1581 1
942 1581 1
944 1581 1
1018 1581 1
1022 1581 1
1087 1581 1
1090 1581 1
671 1582 1
672 1582 1
943 1582 1
945 1582 1
1019 1582 1
1023 1582 1
1088 1582 1
1091 1582 1
672 1583 1
673 1583 1
944 1583 1
946 1583 1
1020 1583 1
1024 1583 1
1089 1583 1
1092 1583 1
673 1584 1
674 1584 1
945 1584 1
947 1584 1
1021 1584 1
1025 1584 1
1080 1584 1
1090 1584 1
674 1585 1
675 1585 1
946 1585 1
948 1585 1
1022 1585 1
1026 1585 1
1081 1585 1
1091 1585 1
675 1586 1
676 1586 1
947 1586 1
949 1586 1
1023 1586 1
1027 1586 1
1082 1586 1
1092 1586 1
677 1587 1
689 1587 1
950 1587 1
961 1587 1
1028 1587 1
1037 1587 1
1080 1587 1
1085 1587 1
677 1588 1
678 1588 1
951 1588 1
962 1588 1
1029 1588 1
1038 1588 1
1081 1588 1
1086 1588 1
678 1589 1
679 1589 1
950 1589 1
952 1589 1
1030 1589 1
1039 1589 1
1082 1589 1
1087 1589 1
679 1590 1
680 1590 1
951 1590 1
953 1590 1
1031 1590 1
1040 1590 1
1083 1590 1
1088 1590 1
680 1591 1
681 1591 1
952 1591 1
954 1591 1
1028 1591 1
1032 1591 1
1084 1591 1
1089 1591 1
681 1592 1
682 1592 1
953 1592 1
955 1592 1
1029 1592 1
1033 1592 1
1085 1592 1
1090 1592 1
682 1593 1
683 1593 1
954 1593 1
956 1593 1
1030 1593 1
1034 1593 1
1086 1593 1
1091 1593 1
683 1594 1
684 1594 1
955 1594 1
957 1594 1
1031 1594 1
1035 1594 1
1087 1594 1
1092 1594 1
684 1595 1
685 1595 1
956 1595 1
958 1595 1
1032 1595 1
1036 1595 1
1080 1595 1
1088 1595 1
685 1596 1
686 1596 1
957 1596 1
959 1596 1
1033 1596 1
1037 1596 1
1081 1596 1
1089 1596 1
686 1597 1
687 1597 1
958 1597 1
960 1597 1
1034 1597 1
1038 1597 1
1082 1597 1
1090 1597 1
687 1598 1
688 1598 1
959 1598 1
961 1598 1
1035 1598 1
1039 1598 1
1083 1598 1
1091 1598 1
688 1599 1
689 1599 1
960 1599 1
962 1599 1
1036 1599 1
1040 1599 1
1084 1599 1
1092 1599 1
690 1600 1
702 1600 1
963 1600 1
974 1600 1
1041 1600 1
1050 1600 1
1080 1600 1
1086 1600 1
690 1601 1
691 1601 1
964 1601 1
975 1601 1
1042 1601 1
1051 1601 1
1081 1601 1
1087 1601 1
691 1602 1
692 1602 1
963 1602 1
965 1602 1
1043 1602 1
1052 1602 1
1082 1602 1
1088 1602 1
692 1603 1
693 1603 1
964 1603 1
966 1603 1
1044 1603 1
1053 1603 1
1083 1603 1
1089 1603 1
693 1604 1
694 1604 1
965 1604 1
967 1604 1
1041 1604 1
1045 1604 1
1084 1604 1
1090 1604 1
694 1605 1
695 1605 1
966 1605 1
968 1605 1
1042 1605 1
1046 1605 1
1085 1605 1
1091 1605 1
695 1606 1
696 1606 1
967 1606 1
969 1606 1
1043 1606 1
1047 1606 1
1086 1606 1
1092 1606 1
696 1607 1
697 1607 1
968 1607 1
970 1607 1
1044 1607 1
1048 1607 1
1080 1607 1
1087 1607 1
697 1608 1
698 1608 1
969 1608 1
971 1608 1
1045 1608 1
1049 1608 1
1081 1608 1
1088 1608 1
698 1609 1
699 1609 1
970 1609 1
972 1609 1
1046 1609 1
1050 1609 1
1082 1609 1
1089 1609 1
699 1610 1
700 1610 1
971 1610 1
973 1610 1
1047 1610 1
1051 1610 1
1083 1610 1
1090 1610 1
700 1611 1
701 1611 1
972 1611 1
974 1611 1
1048 1611 1
1052 1611 1
1084 1611 1
1091 1611 1
701 1612 1
702 1612 1
973 1612 1
975 1612 1
1049 1612 1
1053 1612 1
1085 1612 1
1092 1612 1
703 1613 1
715 1613 1
976 1613 1
987 1613 1
1054 1613 1
1063 1613 1
1080 1613 1
1087 1613 1
703 1614 1
704 1614 1
977 1614 1
988 1614 1
1055 1614 1
1064 1614 1
1081 1614 1
1088 1614 1
704 1615 1
705 1615 1
976 1615 1
978 1615 1
1056 1615 1
1065 1615 1
1082 1615 1
1089 1615 1
705 1616 1
706 1616 1
977 1616 1
979 1616 1
1057 1616 1
1066 1616 1
1083 1616 1
1090 1616 1
706 1617 1
707 1617 1
978 1617 1
980 1617 1
1054 1617 1
1058 1617 1
1084 1617 1
1091 1617 1
707 1618 1
708 1618 1
979 1618 1
981 1618 1
1055 1618 1
1059 1618 1
1085 1618 1
1092 1618 1
708 1619 1
709 1619 1
980 1619 1
982 1619 1
1056 1619 1
1060 1619 1
1080 1619 1
1086 1619 1
709 1620 1
710 1620 1
981 1620 1
983 1620 1
1057 1620 1
1061 1620 1
1081 1620 1
1087 1620 1
710 1621 1
711 1621 1
982 1621 1
984 1621 1
1058 1621 1
1062 1621 1
1082 1621 1
1088 1621 1
711 1622 1
712 1622 1
983 1622 1
985 1622 1
1059 1622 1
1063 1622 1
1083 1622 1
1089 1622 1
712 1623 1
713 1623 1
984 1623 1
986 1623 1
1060 1623 1
1064 1623 1
1084 1623 1
1090 1623 1
713 1624 1
714 1624 1
985 1624 1
987 1624 1
1061 1624 1
1065 1624 1
1085 1624 1
1091 1624 1
714 1625 1
715 1625 1
986 1625 1
988 1625 1
1062 1625 1
1066 1625 1
1086 1625 1
1092 1625 1
716 1626 1
728 1626 1
989 1626 1
1000 1626 1
1067 1626 1
1076 1626 1
1080 1626 1
1088 1626 1
716 1627 1
717 1627 1
990 1627 1
1001 1627 1
1068 1627 1
1077 1627 1
1081 1627 1
1089 1627 1
717 1628 1
718 1628 1
989 1628 1
991 1628 1
1069 1628 1
1078 1628 1
1082 1628 1
1090 1628 1
718 1629 1
719 1629 1
990 1629 1
992 1629 1
1070 1629 1
1079 1629 1
1083 1629 1
1091 1629 1
719 1630 1
720 1630 1
991 1630 1
993 1630 1
1067 1630 1
1071 1630 1
1084 1630 1
1092 1630 1
720 1631 1
721 1631 1
992 1631 1
994 1631 1
1068 1631 1
1072 1631 1
1080 1631 1
1085 1631 1
721 1632 1
722 1632 1
993 1632 1
995 1632 1
1069 1632 1
1073 1632 1
1081 1632 1
1086 1632 1
722 1633 1
723 1633 1
994 1633 1
996 1633 1
1070 1633 1
1074 1633 1
1082 1633 1
1087 1633 1
723 1634 1
724 1634 1
995 1634 1
997 1634 1
1071 1634 1
1075 1634 1
1083 1634 1
1088 1634 1
724 1635 1
725 1635 1
996 1635 1
998 1635 1
1072 1635 1
1076 1635 1
1084 1635 1
1089 1635 1
725 1636 1
726 1636 1
997 1636 1
999 1636 1
1073 1636 1
1077 1636 1
1085 1636 1
1090 1636 1
726 1637 1
727 1637 1
998 1637 1
1000 1637 1
1074 1637 1
1078 1637 1
1086 1637 1
1091 1637 1
727 1638 1
728 1638 1
999 1638 1
1001 1638 1
1075 1638 1
1079 1638 1
1087 1638 1
1092 1638 1
