%%MatrixMarket matrix coordinate integer general
% Binary matrix; one-based indices; arithmetic over GF(2)
1638 1638 16380
1 1 1
7 1 1
14 1 1
19 1 1
79 1 1
83 1 1
274 1 1
276 1 1
729 1 1
730 1 1
2 2 1
8 2 1
15 2 1
20 2 1
80 2 1
84 2 1
275 2 1
277 2 1
730 2 1
731 2 1
3 3 1
9 3 1
16 3 1
21 3 1
81 3 1
85 3 1
276 3 1
278 3 1
731 3 1
732 3 1
4 4 1
10 4 1
17 4 1
22 4 1
82 4 1
86 4 1
277 4 1
279 4 1
732 4 1
733 4 1
5 5 1
11 5 1
18 5 1
23 5 1
83 5 1
87 5 1
278 5 1
280 5 1
733 5 1
734 5 1
6 6 1
12 6 1
19 6 1
24 6 1
84 6 1
88 6 1
279 6 1
281 6 1
734 6 1
735 6 1
7 7 1
13 7 1
20 7 1
25 7 1
85 7 1
89 7 1
280 7 1
282 7 1
735 7 1
736 7 1
1 8 1
8 8 1
21 8 1
26 8 1
86 8 1
90 8 1
281 8 1
283 8 1
736 8 1
737 8 1
2 9 1
9 9 1
14 9 1
22 9 1
87 9 1
91 9 1
282 9 1
284 9 1
737 9 1
738 9 1
3 10 1
10 10 1
15 10 1
23 10 1
79 10 1
88 10 1
283 10 1
285 10 1
738 10 1
739 10 1
4 11 1
11 11 1
16 11 1
24 11 1
80 11 1
89 11 1
284 11 1
286 11 1
739 11 1
740 11 1
5 12 1
12 12 1
17 12 1
25 12 1
81 12 1
90 12 1
274 12 1
285 12 1
740 12 1
741 12 1
6 13 1
13 13 1
18 13 1
26 13 1
82 13 1
91 13 1
275 13 1
286 13 1
729 13 1
741 13 1
1 14 1
8 14 1
27 14 1
32 14 1
92 14 1
96 14 1
287 14 1
289 14 1
742 14 1
743 14 1
2 15 1
9 15 1
28 15 1
33 15 1
93 15 1
97 15 1
288 15 1
290 15 1
743 15 1
744 15 1
3 16 1
10 16 1
29 16 1
34 16 1
94 16 1
98 16 1
289 16 1
291 16 1
744 16 1
745 16 1
4 17 1
11 17 1
30 17 1
35 17 1
95 17 1
99 17 1
290 17 1
292 17 1
745 17 1
746 17 1
5 18 1
12 18 1
31 18 1
36 18 1
96 18 1
100 18 1
291 18 1
293 18 1
746 18 1
747 18 1
6 19 1
13 19 1
32 19 1
37 19 1
97 19 1
101 19 1
292 19 1
294 19 1
747 19 1
748 19 1
1 20 1
7 20 1
33 20 1
38 20 1
98 20 1
102 20 1
293 20 1
295 20 1
748 20 1
749 20 1
2 21 1
8 21 1
34 21 1
39 21 1
99 21 1
103 21 1
294 21 1
296 21 1
749 21 1
750 21 1
3 22 1
9 22 1
27 22 1
35 22 1
100 22 1
104 22 1
295 22 1
297 22 1
750 22 1
751 22 1
4 23 1
10 23 1
28 23 1
36 23 1
92 23 1
101 23 1
296 23 1
298 23 1
751 23 1
752 23 1
5 24 1
11 24 1
29 24 1
37 24 1
93 24 1
102 24 1
297 24 1
299 24 1
752 24 1
753 24 1
6 25 1
12 25 1
30 25 1
38 25 1
94 25 1
103 25 1
287 25 1
298 25 1
753 25 1
754 25 1
7 26 1
13 26 1
31 26 1
39 26 1
95 26 1
104 26 1
288 26 1
299 26 1
742 26 1
754 26 1
1 27 1
9 27 1
40 27 1
45 27 1
105 27 1
109 27 1
300 27 1
302 27 1
755 27 1
756 27 1
2 28 1
10 28 1
41 28 1
46 28 1
106 28 1
110 28 1
301 28 1
303 28 1
756 28 1
757 28 1
3 29 1
11 29 1
42 29 1
47 29 1
107 29 1
111 29 1
302 29 1
304 29 1
757 29 1
758 29 1
4 30 1
12 30 1
43 30 1
48 30 1
108 30 1
112 30 1
303 30 1
305 30 1
758 30 1
759 30 1
5 31 1
13 31 1
44 31 1
49 31 1
109 31 1
113 31 1
304 31 1
306 31 1
759 31 1
760 31 1
1 32 1
6 32 1
45 32 1
50 32 1
110 32 1
114 32 1
305 32 1
307 32 1
760 32 1
761 32 1
2 33 1
7 33 1
46 33 1
51 33 1
111 33 1
115 33 1
306 33 1
308 33 1
761 33 1
762 33 1
3 34 1
8 34 1
47 34 1
52 34 1
112 34 1
116 34 1
307 34 1
309 34 1
762 34 1
763 34 1
4 35 1
9 35 1
40 35 1
48 35 1
113 35 1
117 35 1
308 35 1
310 35 1
763 35 1
764 35 1
5 36 1
10 36 1
41 36 1
49 36 1
105 36 1
114 36 1
309 36 1
311 36 1
764 36 1
765 36 1
6 37 1
11 37 1
42 37 1
50 37 1
106 37 1
115 37 1
310 37 1
312 37 1
765 37 1
766 37 1
7 38 1
12 38 1
43 38 1
51 38 1
107 38 1
116 38 1
300 38 1
311 38 1
766 38 1
767 38 1
8 39 1
13 39 1
44 39 1
52 39 1
108 39 1
117 39 1
301 39 1
312 39 1
755 39 1
767 39 1
1 40 1
11 40 1
53 40 1
58 40 1
118 40 1
122 40 1
313 40 1
315 40 1
768 40 1
769 40 1
2 41 1
12 41 1
54 41 1
59 41 1
119 41 1
123 41 1
314 41 1
316 41 1
769 41 1
770 41 1
3 42 1
13 42 1
55 42 1
60 42 1
120 42 1
124 42 1
315 42 1
317 42 1
770 42 1
771 42 1
1 43 1
4 43 1
56 43 1
61 43 1
121 43 1
125 43 1
316 43 1
318 43 1
771 43 1
772 43 1
2 44 1
5 44 1
57 44 1
62 44 1
122 44 1
126 44 1
317 44 1
319 44 1
772 44 1
773 44 1
3 45 1
6 45 1
58 45 1
63 45 1
123 45 1
127 45 1
318 45 1
320 45 1
773 45 1
774 45 1
4 46 1
7 46 1
59 46 1
64 46 1
124 46 1
128 46 1
319 46 1
321 46 1
774 46 1
775 46 1
5 47 1
8 47 1
60 47 1
65 47 1
125 47 1
129 47 1
320 47 1
322 47 1
775 47 1
776 47 1
6 48 1
9 48 1
53 48 1
61 48 1
126 48 1
130 48 1
321 48 1
323 48 1
776 48 1
777 48 1
7 49 1
10 49 1
54 49 1
62 49 1
118 49 1
127 49 1
322 49 1
324 49 1
777 49 1
778 49 1
8 50 1
11 50 1
55 50 1
63 50 1
119 50 1
128 50 1
323 50 1
325 50 1
778 50 1
779 50 1
9 51 1
12 51 1
56 51 1
64 51 1
120 51 1
129 51 1
313 51 1
324 51 1
779 51 1
780 51 1
10 52 1
13 52 1
57 52 1
65 52 1
121 52 1
130 52 1
314 52 1
325 52 1
768 52 1
780 52 1
1 53 1
12 53 1
66 53 1
71 53 1
131 53 1
135 53 1
326 53 1
328 53 1
781 53 1
782 53 1
2 54 1
13 54 1
67 54 1
72 54 1
132 54 1
136 54 1
327 54 1
329 54 1
782 54 1
783 54 1
1 55 1
3 55 1
68 55 1
73 55 1
133 55 1
137 55 1
328 55 1
330 55 1
783 55 1
784 55 1
2 56 1
4 56 1
69 56 1
74 56 1
134 56 1
138 56 1
329 56 1
331 56 1
784 56 1
785 56 1
3 57 1
5 57 1
70 57 1
75 57 1
135 57 1
139 57 1
330 57 1
332 57 1
785 57 1
786 57 1
4 58 1
6 58 1
71 58 1
76 58 1
136 58 1
140 58 1
331 58 1
333 58 1
786 58 1
787 58 1
5 59 1
7 59 1
72 59 1
77 59 1
137 59 1
141 59 1
332 59 1
334 59 1
787 59 1
788 59 1
6 60 1
8 60 1
73 60 1
78 60 1
138 60 1
142 60 1
333 60 1
335 60 1
788 60 1
789 60 1
7 61 1
9 61 1
66 61 1
74 61 1
139 61 1
143 61 1
334 61 1
336 61 1
789 61 1
790 61 1
8 62 1
10 62 1
67 62 1
75 62 1
131 62 1
140 62 1
335 62 1
337 62 1
790 62 1
791 62 1
9 63 1
11 63 1
68 63 1
76 63 1
132 63 1
141 63 1
336 63 1
338 63 1
791 63 1
792 63 1
10 64 1
12 64 1
69 64 1
77 64 1
133 64 1
142 64 1
326 64 1
337 64 1
792 64 1
793 64 1
11 65 1
13 65 1
70 65 1
78 65 1
134 65 1
143 65 1
327 65 1
338 65 1
781 65 1
793 65 1
14 66 1
21 66 1
27 66 1
33 66 1
144 66 1
148 66 1
339 66 1
341 66 1
794 66 1
795 66 1
15 67 1
22 67 1
28 67 1
34 67 1
145 67 1
149 67 1
340 67 1
342 67 1
795 67 1
796 67 1
16 68 1
23 68 1
29 68 1
35 68 1
146 68 1
150 68 1
341 68 1
343 68 1
796 68 1
797 68 1
17 69 1
24 69 1
30 69 1
36 69 1
147 69 1
151 69 1
342 69 1
344 69 1
797 69 1
798 69 1
18 70 1
25 70 1
31 70 1
37 70 1
148 70 1
152 70 1
343 70 1
345 70 1
798 70 1
799 70 1
19 71 1
26 71 1
32 71 1
38 71 1
149 71 1
153 71 1
344 71 1
346 71 1
799 71 1
800 71 1
14 72 1
20 72 1
33 72 1
39 72 1
150 72 1
154 72 1
345 72 1
347 72 1
800 72 1
801 72 1
15 73 1
21 73 1
27 73 1
34 73 1
151 73 1
155 73 1
346 73 1
348 73 1
801 73 1
802 73 1
16 74 1
22 74 1
28 74 1
35 74 1
152 74 1
156 74 1
347 74 1
349 74 1
802 74 1
803 74 1
17 75 1
23 75 1
29 75 1
36 75 1
144 75 1
153 75 1
348 75 1
350 75 1
803 75 1
804 75 1
18 76 1
24 76 1
30 76 1
37 76 1
145 76 1
154 76 1
349 76 1
351 76 1
804 76 1
805 76 1
19 77 1
25 77 1
31 77 1
38 77 1
146 77 1
155 77 1
339 77 1
350 77 1
805 77 1
806 77 1
20 78 1
26 78 1
32 78 1
39 78 1
147 78 1
156 78 1
340 78 1
351 78 1
794 78 1
806 78 1
14 79 1
22 79 1
40 79 1
46 79 1
157 79 1
161 79 1
352 79 1
354 79 1
807 79 1
808 79 1
15 80 1
23 80 1
41 80 1
47 80 1
158 80 1
162 80 1
353 80 1
355 80 1
808 80 1
809 80 1
16 81 1
24 81 1
42 81 1
48 81 1
159 81 1
163 81 1
354 81 1
356 81 1
809 81 1
810 81 1
17 82 1
25 82 1
43 82 1
49 82 1
160 82 1
164 82 1
355 82 1
357 82 1
810 82 1
811 82 1
18 83 1
26 83 1
44 83 1
50 83 1
161 83 1
165 83 1
356 83 1
358 83 1
811 83 1
812 83 1
14 84 1
19 84 1
45 84 1
51 84 1
162 84 1
166 84 1
357 84 1
359 84 1
812 84 1
813 84 1
15 85 1
20 85 1
46 85 1
52 85 1
163 85 1
167 85 1
358 85 1
360 85 1
813 85 1
814 85 1
16 86 1
21 86 1
40 86 1
47 86 1
164 86 1
168 86 1
359 86 1
361 86 1
814 86 1
815 86 1
17 87 1
22 87 1
41 87 1
48 87 1
165 87 1
169 87 1
360 87 1
362 87 1
815 87 1
816 87 1
18 88 1
23 88 1
42 88 1
49 88 1
157 88 1
166 88 1
361 88 1
363 88 1
816 88 1
817 88 1
19 89 1
24 89 1
43 89 1
50 89 1
158 89 1
167 89 1
362 89 1
364 89 1
817 89 1
818 89 1
20 90 1
25 90 1
44 90 1
51 90 1
159 90 1
168 90 1
352 90 1
363 90 1
818 90 1
819 90 1
21 91 1
26 91 1
45 91 1
52 91 1
160 91 1
169 91 1
353 91 1
364 91 1
807 91 1
819 91 1
14 92 1
24 92 1
53 92 1
59 92 1
170 92 1
174 92 1
365 92 1
367 92 1
820 92 1
821 92 1
15 93 1
25 93 1
54 93 1
60 93 1
171 93 1
175 93 1
366 93 1
368 93 1
821 93 1
822 93 1
16 94 1
26 94 1
55 94 1
61 94 1
172 94 1
176 94 1
367 94 1
369 94 1
822 94 1
823 94 1
14 95 1
17 95 1
56 95 1
62 95 1
173 95 1
177 95 1
368 95 1
370 95 1
823 95 1
824 95 1
15 96 1
18 96 1
57 96 1
63 96 1
174 96 1
178 96 1
369 96 1
371 96 1
824 96 1
825 96 1
16 97 1
19 97 1
58 97 1
64 97 1
175 97 1
179 97 1
370 97 1
372 97 1
825 97 1
826 97 1
17 98 1
20 98 1
59 98 1
65 98 1
176 98 1
180 98 1
371 98 1
373 98 1
826 98 1
827 98 1
18 99 1
21 99 1
53 99 1
60 99 1
177 99 1
181 99 1
372 99 1
374 99 1
827 99 1
828 99 1
19 100 1
22 100 1
54 100 1
61 100 1
178 100 1
182 100 1
373 100 1
375 100 1
828 100 1
829 100 1
20 101 1
23 101 1
55 101 1
62 101 1
170 101 1
179 101 1
374 101 1
376 101 1
829 101 1
830 101 1
21 102 1
24 102 1
56 102 1
63 102 1
171 102 1
180 102 1
375 102 1
377 102 1
830 102 1
831 102 1
22 103 1
25 103 1
57 103 1
64 103 1
172 103 1
181 103 1
365 103 1
376 103 1
831 103 1
832 103 1
23 104 1
26 104 1
58 104 1
65 104 1
173 104 1
182 104 1
366 104 1
377 104 1
820 104 1
832 104 1
14 105 1
25 105 1
66 105 1
72 105 1
183 105 1
187 105 1
378 105 1
380 105 1
833 105 1
834 105 1
15 106 1
26 106 1
67 106 1
73 106 1
184 106 1
188 106 1
379 106 1
381 106 1
834 106 1
835 106 1
14 107 1
16 107 1
68 107 1
74 107 1
185 107 1
189 107 1
380 107 1
382 107 1
835 107 1
836 107 1
15 108 1
17 108 1
69 108 1
75 108 1
186 108 1
190 108 1
381 108 1
383 108 1
836 108 1
837 108 1
16 109 1
18 109 1
70 109 1
76 109 1
187 109 1
191 109 1
382 109 1
384 109 1
837 109 1
838 109 1
17 110 1
19 110 1
71 110 1
77 110 1
188 110 1
192 110 1
383 110 1
385 110 1
838 110 1
839 110 1
18 111 1
20 111 1
72 111 1
78 111 1
189 111 1
193 111 1
384 111 1
386 111 1
839 111 1
840 111 1
19 112 1
21 112 1
66 112 1
73 112 1
190 112 1
194 112 1
385 112 1
387 112 1
840 112 1
841 112 1
20 113 1
22 113 1
67 113 1
74 113 1
191 113 1
195 113 1
386 113 1
388 113 1
841 113 1
842 113 1
21 114 1
23 114 1
68 114 1
75 114 1
183 114 1
192 114 1
387 114 1
389 114 1
842 114 1
843 114 1
22 115 1
24 115 1
69 115 1
76 115 1
184 115 1
193 115 1
388 115 1
390 115 1
843 115 1
844 115 1
23 116 1
25 116 1
70 116 1
77 116 1
185 116 1
194 116 1
378 116 1
389 116 1
844 116 1
845 116 1
24 117 1
26 117 1
71 117 1
78 117 1
186 117 1
195 117 1
379 117 1
390 117 1
833 117 1
845 117 1
27 118 1
35 118 1
40 118 1
47 118 1
196 118 1
200 118 1
391 118 1
393 118 1
846 118 1
847 118 1
28 119 1
36 119 1
41 119 1
48 119 1
197 119 1
201 119 1
392 119 1
394 119 1
847 119 1
848 119 1
29 120 1
37 120 1
42 120 1
49 120 1
198 120 1
202 120 1
393 120 1
395 120 1
848 120 1
849 120 1
30 121 1
38 121 1
43 121 1
50 121 1
199 121 1
203 121 1
394 121 1
396 121 1
849 121 1
850 121 1
31 122 1
39 122 1
44 122 1
51 122 1
200 122 1
204 122 1
395 122 1
397 122 1
850 122 1
851 122 1
27 123 1
32 123 1
45 123 1
52 123 1
201 123 1
205 123 1
396 123 1
398 123 1
851 123 1
852 123 1
28 124 1
33 124 1
40 124 1
46 124 1
202 124 1
206 124 1
397 124 1
399 124 1
852 124 1
853 124 1
29 125 1
34 125 1
41 125 1
47 125 1
203 125 1
207 125 1
398 125 1
400 125 1
853 125 1
854 125 1
30 126 1
35 126 1
42 126 1
48 126 1
204 126 1
208 126 1
399 126 1
401 126 1
854 126 1
855 126 1
31 127 1
36 127 1
43 127 1
49 127 1
196 127 1
205 127 1
400 127 1
402 127 1
855 127 1
856 127 1
32 128 1
37 128 1
44 128 1
50 128 1
197 128 1
206 128 1
401 128 1
403 128 1
856 128 1
857 128 1
33 129 1
38 129 1
45 129 1
51 129 1
198 129 1
207 129 1
391 129 1
402 129 1
857 129 1
858 129 1
34 130 1
39 130 1
46 130 1
52 130 1
199 130 1
208 130 1
392 130 1
403 130 1
846 130 1
858 130 1
27 131 1
37 131 1
53 131 1
60 131 1
209 131 1
213 131 1
404 131 1
406 131 1
859 131 1
860 131 1
28 132 1
38 132 1
54 132 1
61 132 1
210 132 1
214 132 1
405 132 1
407 132 1
860 132 1
861 132 1
29 133 1
39 133 1
55 133 1
62 133 1
211 133 1
215 133 1
406 133 1
408 133 1
861 133 1
862 133 1
27 134 1
30 134 1
56 134 1
63 134 1
212 134 1
216 134 1
407 134 1
409 134 1
862 134 1
863 134 1
28 135 1
31 135 1
57 135 1
64 135 1
213 135 1
217 135 1
408 135 1
410 135 1
863 135 1
864 135 1
29 136 1
32 136 1
58 136 1
65 136 1
214 136 1
218 136 1
409 136 1
411 136 1
864 136 1
865 136 1
30 137 1
33 137 1
53 137 1
59 137 1
215 137 1
219 137 1
410 137 1
412 137 1
865 137 1
866 137 1
31 138 1
34 138 1
54 138 1
60 138 1
216 138 1
220 138 1
411 138 1
413 138 1
866 138 1
867 138 1
32 139 1
35 139 1
55 139 1
61 139 1
217 139 1
221 139 1
412 139 1
414 139 1
867 139 1
868 139 1
33 140 1
36 140 1
56 140 1
62 140 1
209 140 1
218 140 1
413 140 1
415 140 1
868 140 1
869 140 1
34 141 1
37 141 1
57 141 1
63 141 1
210 141 1
219 141 1
414 141 1
416 141 1
869 141 1
870 141 1
35 142 1
38 142 1
58 142 1
64 142 1
211 142 1
220 142 1
404 142 1
415 142 1
870 142 1
871 142 1
36 143 1
39 143 1
59 143 1
65 143 1
212 143 1
221 143 1
405 143 1
416 143 1
859 143 1
871 143 1
27 144 1
38 144 1
66 144 1
73 144 1
222 144 1
226 144 1
417 144 1
419 144 1
872 144 1
873 144 1
28 145 1
39 145 1
67 145 1
74 145 1
223 145 1
227 145 1
418 145 1
420 145 1
873 145 1
874 145 1
27 146 1
29 146 1
68 146 1
75 146 1
224 146 1
228 146 1
419 146 1
421 146 1
874 146 1
875 146 1
28 147 1
30 147 1
69 147 1
76 147 1
225 147 1
229 147 1
420 147 1
422 147 1
875 147 1
876 147 1
29 148 1
31 148 1
70 148 1
77 148 1
226 148 1
230 148 1
421 148 1
423 148 1
876 148 1
877 148 1
30 149 1
32 149 1
71 149 1
78 149 1
227 149 1
231 149 1
422 149 1
424 149 1
877 149 1
878 149 1
31 150 1
33 150 1
66 150 1
72 150 1
228 150 1
232 150 1
423 150 1
425 150 1
878 150 1
879 150 1
32 151 1
34 151 1
67 151 1
73 151 1
229 151 1
233 151 1
424 151 1
426 151 1
879 151 1
880 151 1
33 152 1
35 152 1
68 152 1
74 152 1
230 152 1
234 152 1
425 152 1
427 152 1
880 152 1
881 152 1
34 153 1
36 153 1
69 153 1
75 153 1
222 153 1
231 153 1
426 153 1
428 153 1
881 153 1
882 153 1
35 154 1
37 154 1
70 154 1
76 154 1
223 154 1
232 154 1
427 154 1
429 154 1
882 154 1
883 154 1
36 155 1
38 155 1
71 155 1
77 155 1
224 155 1
233 155 1
417 155 1
428 155 1
883 155 1
884 155 1
37 156 1
39 156 1
72 156 1
78 156 1
225 156 1
234 156 1
418 156 1
429 156 1
872 156 1
884 156 1
40 157 1
50 157 1
53 157 1
61 157 1
235 157 1
239 157 1
430 157 1
432 157 1
885 157 1
886 157 1
41 158 1
51 158 1
54 158 1
62 158 1
236 158 1
240 158 1
431 158 1
433 158 1
886 158 1
887 158 1
42 159 1
52 159 1
55 159 1
63 159 1
237 159 1
241 159 1
432 159 1
434 159 1
887 159 1
888 159 1
40 160 1
43 160 1
56 160 1
64 160 1
238 160 1
242 160 1
433 160 1
435 160 1
888 160 1
889 160 1
41 161 1
44 161 1
57 161 1
65 161 1
239 161 1
243 161 1
434 161 1
436 161 1
889 161 1
890 161 1
42 162 1
45 162 1
53 162 1
58 162 1
240 162 1
244 162 1
435 162 1
437 162 1
890 162 1
891 162 1
43 163 1
46 163 1
54 163 1
59 163 1
241 163 1
245 163 1
436 163 1
438 163 1
891 163 1
892 163 1
44 164 1
47 164 1
55 164 1
60 164 1
242 164 1
246 164 1
437 164 1
439 164 1
892 164 1
893 164 1
45 165 1
48 165 1
56 165 1
61 165 1
243 165 1
247 165 1
438 165 1
440 165 1
893 165 1
894 165 1
46 166 1
49 166 1
57 166 1
62 166 1
235 166 1
244 166 1
439 166 1
441 166 1
894 166 1
895 166 1
47 167 1
50 167 1
58 167 1
63 167 1
236 167 1
245 167 1
440 167 1
442 167 1
895 167 1
896 167 1
48 168 1
51 168 1
59 168 1
64 168 1
237 168 1
246 168 1
430 168 1
441 168 1
896 168 1
897 168 1
49 169 1
52 169 1
60 169 1
65 169 1
238 169 1
247 169 1
431 169 1
442 169 1
885 169 1
897 169 1
40 170 1
51 170 1
66 170 1
74 170 1
248 170 1
252 170 1
443 170 1
445 170 1
898 170 1
899 170 1
41 171 1
52 171 1
67 171 1
75 171 1
249 171 1
253 171 1
444 171 1
446 171 1
899 171 1
900 171 1
40 172 1
42 172 1
68 172 1
76 172 1
250 172 1
254 172 1
445 172 1
447 172 1
900 172 1
901 172 1
41 173 1
43 173 1
69 173 1
77 173 1
251 173 1
255 173 1
446 173 1
448 173 1
901 173 1
902 173 1
42 174 1
44 174 1
70 174 1
78 174 1
252 174 1
256 174 1
447 174 1
449 174 1
902 174 1
903 174 1
43 175 1
45 175 1
66 175 1
71 175 1
253 175 1
257 175 1
448 175 1
450 175 1
903 175 1
904 175 1
44 176 1
46 176 1
67 176 1
72 176 1
254 176 1
258 176 1
449 176 1
451 176 1
904 176 1
905 176 1
45 177 1
47 177 1
68 177 1
73 177 1
255 177 1
259 177 1
450 177 1
452 177 1
905 177 1
906 177 1
46 178 1
48 178 1
69 178 1
74 178 1
256 178 1
260 178 1
451 178 1
453 178 1
906 178 1
907 178 1
47 179 1
49 179 1
70 179 1
75 179 1
248 179 1
257 179 1
452 179 1
454 179 1
907 179 1
908 179 1
48 180 1
50 180 1
71 180 1
76 180 1
249 180 1
258 180 1
453 180 1
455 180 1
908 180 1
909 180 1
49 181 1
51 181 1
72 181 1
77 181 1
250 181 1
259 181 1
443 181 1
454 181 1
909 181 1
910 181 1
50 182 1
52 182 1
73 182 1
78 182 1
251 182 1
260 182 1
444 182 1
455 182 1
898 182 1
910 182 1
53 183 1
64 183 1
66 183 1
76 183 1
261 183 1
265 183 1
456 183 1
458 183 1
911 183 1
912 183 1
54 184 1
65 184 1
67 184 1
77 184 1
262 184 1
266 184 1
457 184 1
459 184 1
912 184 1
913 184 1
53 185 1
55 185 1
68 185 1
78 185 1
263 185 1
267 185 1
458 185 1
460 185 1
913 185 1
914 185 1
54 186 1
56 186 1
66 186 1
69 186 1
264 186 1
268 186 1
459 186 1
461 186 1
914 186 1
915 186 1
55 187 1
57 187 1
67 187 1
70 187 1
265 187 1
269 187 1
460 187 1
462 187 1
915 187 1
916 187 1
56 188 1
58 188 1
68 188 1
71 188 1
266 188 1
270 188 1
461 188 1
463 188 1
916 188 1
917 188 1
57 189 1
59 189 1
69 189 1
72 189 1
267 189 1
271 189 1
462 189 1
464 189 1
917 189 1
918 189 1
58 190 1
60 190 1
70 190 1
73 190 1
268 190 1
272 190 1
463 190 1
465 190 1
918 190 1
919 190 1
59 191 1
61 191 1
71 191 1
74 191 1
269 191 1
273 191 1
464 191 1
466 191 1
919 191 1
920 191 1
60 192 1
62 192 1
72 192 1
75 192 1
261 192 1
270 192 1
465 192 1
467 192 1
920 192 1
921 192 1
61 193 1
63 193 1
73 193 1
76 193 1
262 193 1
271 193 1
466 193 1
468 193 1
921 193 1
922 193 1
62 194 1
64 194 1
74 194 1
77 194 1
263 194 1
272 194 1
456 194 1
467 194 1
922 194 1
923 194 1
63 195 1
65 195 1
75 195 1
78 195 1
264 195 1
273 195 1
457 195 1
468 195 1
911 195 1
923 195 1
79 196 1
86 196 1
92 196 1
98 196 1
144 196 1
149 196 1
469 196 1
471 196 1
924 196 1
925 196 1
80 197 1
87 197 1
93 197 1
99 197 1
145 197 1
150 197 1
470 197 1
472 197 1
925 197 1
926 197 1
81 198 1
88 198 1
94 198 1
100 198 1
146 198 1
151 198 1
471 198 1
473 198 1
926 198 1
927 198 1
82 199 1
89 199 1
95 199 1
101 199 1
147 199 1
152 199 1
472 199 1
474 199 1
927 199 1
928 199 1
83 200 1
90 200 1
96 200 1
102 200 1
148 200 1
153 200 1
473 200 1
475 200 1
928 200 1
929 200 1
84 201 1
91 201 1
97 201 1
103 201 1
149 201 1
154 201 1
474 201 1
476 201 1
929 201 1
930 201 1
79 202 1
85 202 1
98 202 1
104 202 1
150 202 1
155 202 1
475 202 1
477 202 1
930 202 1
931 202 1
80 203 1
86 203 1
92 203 1
99 203 1
151 203 1
156 203 1
476 203 1
478 203 1
931 203 1
932 203 1
81 204 1
87 204 1
93 204 1
100 204 1
144 204 1
152 204 1
477 204 1
479 204 1
932 204 1
933 204 1
82 205 1
88 205 1
94 205 1
101 205 1
145 205 1
153 205 1
478 205 1
480 205 1
933 205 1
934 205 1
83 206 1
89 206 1
95 206 1
102 206 1
146 206 1
154 206 1
479 206 1
481 206 1
934 206 1
935 206 1
84 207 1
90 207 1
96 207 1
103 207 1
147 207 1
155 207 1
469 207 1
480 207 1
935 207 1
936 207 1
85 208 1
91 208 1
97 208 1
104 208 1
148 208 1
156 208 1
470 208 1
481 208 1
924 208 1
936 208 1
79 209 1
87 209 1
105 209 1
111 209 1
157 209 1
162 209 1
482 209 1
484 209 1
937 209 1
938 209 1
80 210 1
88 210 1
106 210 1
112 210 1
158 210 1
163 210 1
483 210 1
485 210 1
938 210 1
939 210 1
81 211 1
89 211 1
107 211 1
113 211 1
159 211 1
164 211 1
484 211 1
486 211 1
939 211 1
940 211 1
82 212 1
90 212 1
108 212 1
114 212 1
160 212 1
165 212 1
485 212 1
487 212 1
940 212 1
941 212 1
83 213 1
91 213 1
109 213 1
115 213 1
161 213 1
166 213 1
486 213 1
488 213 1
941 213 1
942 213 1
79 214 1
84 214 1
110 214 1
116 214 1
162 214 1
167 214 1
487 214 1
489 214 1
942 214 1
943 214 1
80 215 1
85 215 1
111 215 1
117 215 1
163 215 1
168 215 1
488 215 1
490 215 1
943 215 1
944 215 1
81 216 1
86 216 1
105 216 1
112 216 1
164 216 1
169 216 1
489 216 1
491 216 1
944 216 1
945 216 1
82 217 1
87 217 1
106 217 1
113 217 1
157 217 1
165 217 1
490 217 1
492 217 1
945 217 1
946 217 1
83 218 1
88 218 1
107 218 1
114 218 1
158 218 1
166 218 1
491 218 1
493 218 1
946 218 1
947 218 1
84 219 1
89 219 1
108 219 1
115 219 1
159 219 1
167 219 1
492 219 1
494 219 1
947 219 1
948 219 1
85 220 1
90 220 1
109 220 1
116 220 1
160 220 1
168 220 1
482 220 1
493 220 1
948 220 1
949 220 1
86 221 1
91 221 1
110 221 1
117 221 1
161 221 1
169 221 1
483 221 1
494 221 1
937 221 1
949 221 1
79 222 1
89 222 1
118 222 1
124 222 1
170 222 1
175 222 1
495 222 1
497 222 1
950 222 1
951 222 1
80 223 1
90 223 1
119 223 1
125 223 1
171 223 1
176 223 1
496 223 1
498 223 1
951 223 1
952 223 1
81 224 1
91 224 1
120 224 1
126 224 1
172 224 1
177 224 1
497 224 1
499 224 1
952 224 1
953 224 1
79 225 1
82 225 1
121 225 1
127 225 1
173 225 1
178 225 1
498 225 1
500 225 1
953 225 1
954 225 1
80 226 1
83 226 1
122 226 1
128 226 1
174 226 1
179 226 1
499 226 1
501 226 1
954 226 1
955 226 1
81 227 1
84 227 1
123 227 1
129 227 1
175 227 1
180 227 1
500 227 1
502 227 1
955 227 1
956 227 1
82 228 1
85 228 1
124 228 1
130 228 1
176 228 1
181 228 1
501 228 1
503 228 1
956 228 1
957 228 1
83 229 1
86 229 1
118 229 1
125 229 1
177 229 1
182 229 1
502 229 1
504 229 1
957 229 1
958 229 1
84 230 1
87 230 1
119 230 1
126 230 1
170 230 1
178 230 1
503 230 1
505 230 1
958 230 1
959 230 1
85 231 1
88 231 1
120 231 1
127 231 1
171 231 1
179 231 1
504 231 1
506 231 1
959 231 1
960 231 1
86 232 1
89 232 1
121 232 1
128 232 1
172 232 1
180 232 1
505 232 1
507 232 1
960 232 1
961 232 1
87 233 1
90 233 1
122 233 1
129 233 1
173 233 1
181 233 1
495 233 1
506 233 1
961 233 1
962 233 1
88 234 1
91 234 1
123 234 1
130 234 1
174 234 1
182 234 1
496 234 1
507 234 1
950 234 1
962 234 1
79 235 1
90 235 1
131 235 1
137 235 1
183 235 1
188 235 1
508 235 1
510 235 1
963 235 1
964 235 1
80 236 1
91 236 1
132 236 1
138 236 1
184 236 1
189 236 1
509 236 1
511 236 1
964 236 1
965 236 1
79 237 1
81 237 1
133 237 1
139 237 1
185 237 1
190 237 1
510 237 1
512 237 1
965 237 1
966 237 1
80 238 1
82 238 1
134 238 1
140 238 1
186 238 1
191 238 1
511 238 1
513 238 1
966 238 1
967 238 1
81 239 1
83 239 1
135 239 1
141 239 1
187 239 1
192 239 1
512 239 1
514 239 1
967 239 1
968 239 1
82 240 1
84 240 1
136 240 1
142 240 1
188 240 1
193 240 1
513 240 1
515 240 1
968 240 1
969 240 1
83 241 1
85 241 1
137 241 1
143 241 1
189 241 1
194 241 1
514 241 1
516 241 1
969 241 1
970 241 1
84 242 1
86 242 1
131 242 1
138 242 1
190 242 1
195 242 1
515 242 1
517 242 1
970 242 1
971 242 1
85 243 1
87 243 1
132 243 1
139 243 1
183 243 1
191 243 1
516 243 1
518 243 1
971 243 1
972 243 1
86 244 1
88 244 1
133 244 1
140 244 1
184 244 1
192 244 1
517 244 1
519 244 1
972 244 1
973 244 1
87 245 1
89 245 1
134 245 1
141 245 1
185 245 1
193 245 1
518 245 1
520 245 1
973 245 1
974 245 1
88 246 1
90 246 1
135 246 1
142 246 1
186 246 1
194 246 1
508 246 1
519 246 1
974 246 1
975 246 1
89 247 1
91 247 1
136 247 1
143 247 1
187 247 1
195 247 1
509 247 1
520 247 1
963 247 1
975 247 1
92 248 1
100 248 1
105 248 1
112 248 1
196 248 1
201 248 1
521 248 1
523 248 1
976 248 1
977 248 1
93 249 1
101 249 1
106 249 1
113 249 1
197 249 1
202 249 1
522 249 1
524 249 1
977 249 1
978 249 1
94 250 1
102 250 1
107 250 1
114 250 1
198 250 1
203 250 1
523 250 1
525 250 1
978 250 1
979 250 1
95 251 1
103 251 1
108 251 1
115 251 1
199 251 1
204 251 1
524 251 1
526 251 1
979 251 1
980 251 1
96 252 1
104 252 1
109 252 1
116 252 1
200 252 1
205 252 1
525 252 1
527 252 1
980 252 1
981 252 1
92 253 1
97 253 1
110 253 1
117 253 1
201 253 1
206 253 1
526 253 1
528 253 1
981 253 1
982 253 1
93 254 1
98 254 1
105 254 1
111 254 1
202 254 1
207 254 1
527 254 1
529 254 1
982 254 1
983 254 1
94 255 1
99 255 1
106 255 1
112 255 1
203 255 1
208 255 1
528 255 1
530 255 1
983 255 1
984 255 1
95 256 1
100 256 1
107 256 1
113 256 1
196 256 1
204 256 1
529 256 1
531 256 1
984 256 1
985 256 1
96 257 1
101 257 1
108 257 1
114 257 1
197 257 1
205 257 1
530 257 1
532 257 1
985 257 1
986 257 1
97 258 1
102 258 1
109 258 1
115 258 1
198 258 1
206 258 1
531 258 1
533 258 1
986 258 1
987 258 1
98 259 1
103 259 1
110 259 1
116 259 1
199 259 1
207 259 1
521 259 1
532 259 1
987 259 1
988 259 1
99 260 1
104 260 1
111 260 1
117 260 1
200 260 1
208 260 1
522 260 1
533 260 1
976 260 1
988 260 1
92 261 1
102 261 1
118 261 1
125 261 1
209 261 1
214 261 1
534 261 1
536 261 1
989 261 1
990 261 1
93 262 1
103 262 1
119 262 1
126 262 1
210 262 1
215 262 1
535 262 1
537 262 1
990 262 1
991 262 1
94 263 1
104 263 1
120 263 1
127 263 1
211 263 1
216 263 1
536 263 1
538 263 1
991 263 1
992 263 1
92 264 1
95 264 1
121 264 1
128 264 1
212 264 1
217 264 1
537 264 1
539 264 1
992 264 1
993 264 1
93 265 1
96 265 1
122 265 1
129 265 1
213 265 1
218 265 1
538 265 1
540 265 1
993 265 1
994 265 1
94 266 1
97 266 1
123 266 1
130 266 1
214 266 1
219 266 1
539 266 1
541 266 1
994 266 1
995 266 1
95 267 1
98 267 1
118 267 1
124 267 1
215 267 1
220 267 1
540 267 1
542 267 1
995 267 1
996 267 1
96 268 1
99 268 1
119 268 1
125 268 1
216 268 1
221 268 1
541 268 1
543 268 1
996 268 1
997 268 1
97 269 1
100 269 1
120 269 1
126 269 1
209 269 1
217 269 1
542 269 1
544 269 1
997 269 1
998 269 1
98 270 1
101 270 1
121 270 1
127 270 1
210 270 1
218 270 1
543 270 1
545 270 1
998 270 1
999 270 1
99 271 1
102 271 1
122 271 1
128 271 1
211 271 1
219 271 1
544 271 1
546 271 1
999 271 1
1000 271 1
100 272 1
103 272 1
123 272 1
129 272 1
212 272 1
220 272 1
534 272 1
545 272 1
1000 272 1
1001 272 1
101 273 1
104 273 1
124 273 1
130 273 1
213 273 1
221 273 1
535 273 1
546 273 1
989 273 1
1001 273 1
92 274 1
103 274 1
131 274 1
138 274 1
222 274 1
227 274 1
547 274 1
549 274 1
1002 274 1
1003 274 1
93 275 1
104 275 1
132 275 1
139 275 1
223 275 1
228 275 1
548 275 1
550 275 1
1003 275 1
1004 275 1
92 276 1
94 276 1
133 276 1
140 276 1
224 276 1
229 276 1
549 276 1
551 276 1
1004 276 1
1005 276 1
93 277 1
95 277 1
134 277 1
141 277 1
225 277 1
230 277 1
550 277 1
552 277 1
1005 277 1
1006 277 1
94 278 1
96 278 1
135 278 1
142 278 1
226 278 1
231 278 1
551 278 1
553 278 1
1006 278 1
1007 278 1
95 279 1
97 279 1
136 279 1
143 279 1
227 279 1
232 279 1
552 279 1
554 279 1
1007 279 1
1008 279 1
96 280 1
98 280 1
131 280 1
137 280 1
228 280 1
233 280 1
553 280 1
555 280 1
1008 280 1
1009 280 1
97 281 1
99 281 1
132 281 1
138 281 1
229 281 1
234 281 1
554 281 1
556 281 1
1009 281 1
1010 281 1
98 282 1
100 282 1
133 282 1
139 282 1
222 282 1
230 282 1
555 282 1
557 282 1
1010 282 1
1011 282 1
99 283 1
101 283 1
134 283 1
140 283 1
223 283 1
231 283 1
556 283 1
558 283 1
1011 283 1
1012 283 1
100 284 1
102 284 1
135 284 1
141 284 1
224 284 1
232 284 1
557 284 1
559 284 1
1012 284 1
1013 284 1
101 285 1
103 285 1
136 285 1
142 285 1
225 285 1
233 285 1
547 285 1
558 285 1
1013 285 1
1014 285 1
102 286 1
104 286 1
137 286 1
143 286 1
226 286 1
234 286 1
548 286 1
559 286 1
1002 286 1
1014 286 1
105 287 1
115 287 1
118 287 1
126 287 1
235 287 1
240 287 1
560 287 1
562 287 1
1015 287 1
1016 287 1
106 288 1
116 288 1
119 288 1
127 288 1
236 288 1
241 288 1
561 288 1
563 288 1
1016 288 1
1017 288 1
107 289 1
117 289 1
120 289 1
128 289 1
237 289 1
242 289 1
562 289 1
564 289 1
1017 289 1
1018 289 1
105 290 1
108 290 1
121 290 1
129 290 1
238 290 1
243 290 1
563 290 1
565 290 1
1018 290 1
1019 290 1
106 291 1
109 291 1
122 291 1
130 291 1
239 291 1
244 291 1
564 291 1
566 291 1
1019 291 1
1020 291 1
107 292 1
110 292 1
118 292 1
123 292 1
240 292 1
245 292 1
565 292 1
567 292 1
1020 292 1
1021 292 1
108 293 1
111 293 1
119 293 1
124 293 1
241 293 1
246 293 1
566 293 1
568 293 1
1021 293 1
1022 293 1
109 294 1
112 294 1
120 294 1
125 294 1
242 294 1
247 294 1
567 294 1
569 294 1
1022 294 1
1023 294 1
110 295 1
113 295 1
121 295 1
126 295 1
235 295 1
243 295 1
568 295 1
570 295 1
1023 295 1
1024 295 1
111 296 1
114 296 1
122 296 1
127 296 1
236 296 1
244 296 1
569 296 1
571 296 1
1024 296 1
1025 296 1
112 297 1
115 297 1
123 297 1
128 297 1
237 297 1
245 297 1
570 297 1
572 297 1
1025 297 1
1026 297 1
113 298 1
116 298 1
124 298 1
129 298 1
238 298 1
246 298 1
560 298 1
571 298 1
1026 298 1
1027 298 1
114 299 1
117 299 1
125 299 1
130 299 1
239 299 1
247 299 1
561 299 1
572 299 1
1015 299 1
1027 299 1
105 300 1
116 300 1
131 300 1
139 300 1
248 300 1
253 300 1
573 300 1
575 300 1
1028 300 1
1029 300 1
106 301 1
117 301 1
132 301 1
140 301 1
249 301 1
254 301 1
574 301 1
576 301 1
1029 301 1
1030 301 1
105 302 1
107 302 1
133 302 1
141 302 1
250 302 1
255 302 1
575 302 1
577 302 1
1030 302 1
1031 302 1
106 303 1
108 303 1
134 303 1
142 303 1
251 303 1
256 303 1
576 303 1
578 303 1
1031 303 1
1032 303 1
107 304 1
109 304 1
135 304 1
143 304 1
252 304 1
257 304 1
577 304 1
579 304 1
1032 304 1
1033 304 1
108 305 1
110 305 1
131 305 1
136 305 1
253 305 1
258 305 1
578 305 1
580 305 1
1033 305 1
1034 305 1
109 306 1
111 306 1
132 306 1
137 306 1
254 306 1
259 306 1
579 306 1
581 306 1
1034 306 1
1035 306 1
110 307 1
112 307 1
133 307 1
138 307 1
255 307 1
260 307 1
580 307 1
582 307 1
1035 307 1
1036 307 1
111 308 1
113 308 1
134 308 1
139 308 1
248 308 1
256 308 1
581 308 1
583 308 1
1036 308 1
1037 308 1
112 309 1
114 309 1
135 309 1
140 309 1
249 309 1
257 309 1
582 309 1
584 309 1
1037 309 1
1038 309 1
113 310 1
115 310 1
136 310 1
141 310 1
250 310 1
258 310 1
583 310 1
585 310 1
1038 310 1
1039 310 1
114 311 1
116 311 1
137 311 1
142 311 1
251 311 1
259 311 1
573 311 1
584 311 1
1039 311 1
1040 311 1
115 312 1
117 312 1
138 312 1
143 312 1
252 312 1
260 312 1
574 312 1
585 312 1
1028 312 1
1040 312 1
118 313 1
129 313 1
131 313 1
141 313 1
261 313 1
266 313 1
586 313 1
588 313 1
1041 313 1
1042 313 1
119 314 1
130 314 1
132 314 1
142 314 1
262 314 1
267 314 1
587 314 1
589 314 1
1042 314 1
1043 314 1
118 315 1
120 315 1
133 315 1
143 315 1
263 315 1
268 315 1
588 315 1
590 315 1
1043 315 1
1044 315 1
119 316 1
121 316 1
131 316 1
134 316 1
264 316 1
269 316 1
589 316 1
591 316 1
1044 316 1
1045 316 1
120 317 1
122 317 1
132 317 1
135 317 1
265 317 1
270 317 1
590 317 1
592 317 1
1045 317 1
1046 317 1
121 318 1
123 318 1
133 318 1
136 318 1
266 318 1
271 318 1
591 318 1
593 318 1
1046 318 1
1047 318 1
122 319 1
124 319 1
134 319 1
137 319 1
267 319 1
272 319 1
592 319 1
594 319 1
1047 319 1
1048 319 1
123 320 1
125 320 1
135 320 1
138 320 1
268 320 1
273 320 1
593 320 1
595 320 1
1048 320 1
1049 320 1
124 321 1
126 321 1
136 321 1
139 321 1
261 321 1
269 321 1
594 321 1
596 321 1
1049 321 1
1050 321 1
125 322 1
127 322 1
137 322 1
140 322 1
262 322 1
270 322 1
595 322 1
597 322 1
1050 322 1
1051 322 1
126 323 1
128 323 1
138 323 1
141 323 1
263 323 1
271 323 1
596 323 1
598 323 1
1051 323 1
1052 323 1
127 324 1
129 324 1
139 324 1
142 324 1
264 324 1
272 324 1
586 324 1
597 324 1
1052 324 1
1053 324 1
128 325 1
130 325 1
140 325 1
143 325 1
265 325 1
273 325 1
587 325 1
598 325 1
1041 325 1
1053 325 1
144 326 1
152 326 1
157 326 1
164 326 1
196 326 1
202 326 1
599 326 1
601 326 1
1054 326 1
1055 326 1
145 327 1
153 327 1
158 327 1
165 327 1
197 327 1
203 327 1
600 327 1
602 327 1
1055 327 1
1056 327 1
146 328 1
154 328 1
159 328 1
166 328 1
198 328 1
204 328 1
601 328 1
603 328 1
1056 328 1
1057 328 1
147 329 1
155 329 1
160 329 1
167 329 1
199 329 1
205 329 1
602 329 1
604 329 1
1057 329 1
1058 329 1
148 330 1
156 330 1
161 330 1
168 330 1
200 330 1
206 330 1
603 330 1
605 330 1
1058 330 1
1059 330 1
144 331 1
149 331 1
162 331 1
169 331 1
201 331 1
207 331 1
604 331 1
606 331 1
1059 331 1
1060 331 1
145 332 1
150 332 1
157 332 1
163 332 1
202 332 1
208 332 1
605 332 1
607 332 1
1060 332 1
1061 332 1
146 333 1
151 333 1
158 333 1
164 333 1
196 333 1
203 333 1
606 333 1
608 333 1
1061 333 1
1062 333 1
147 334 1
152 334 1
159 334 1
165 334 1
197 334 1
204 334 1
607 334 1
609 334 1
1062 334 1
1063 334 1
148 335 1
153 335 1
160 335 1
166 335 1
198 335 1
205 335 1
608 335 1
610 335 1
1063 335 1
1064 335 1
149 336 1
154 336 1
161 336 1
167 336 1
199 336 1
206 336 1
609 336 1
611 336 1
1064 336 1
1065 336 1
150 337 1
155 337 1
162 337 1
168 337 1
200 337 1
207 337 1
599 337 1
610 337 1
1065 337 1
1066 337 1
151 338 1
156 338 1
163 338 1
169 338 1
201 338 1
208 338 1
600 338 1
611 338 1
1054 338 1
1066 338 1
144 339 1
154 339 1
170 339 1
177 339 1
209 339 1
215 339 1
612 339 1
614 339 1
1067 339 1
1068 339 1
145 340 1
155 340 1
171 340 1
178 340 1
210 340 1
216 340 1
613 340 1
615 340 1
1068 340 1
1069 340 1
146 341 1
156 341 1
172 341 1
179 341 1
211 341 1
217 341 1
614 341 1
616 341 1
1069 341 1
1070 341 1
144 342 1
147 342 1
173 342 1
180 342 1
212 342 1
218 342 1
615 342 1
617 342 1
1070 342 1
1071 342 1
145 343 1
148 343 1
174 343 1
181 343 1
213 343 1
219 343 1
616 343 1
618 343 1
1071 343 1
1072 343 1
146 344 1
149 344 1
175 344 1
182 344 1
214 344 1
220 344 1
617 344 1
619 344 1
1072 344 1
1073 344 1
147 345 1
150 345 1
170 345 1
176 345 1
215 345 1
221 345 1
618 345 1
620 345 1
1073 345 1
1074 345 1
148 346 1
151 346 1
171 346 1
177 346 1
209 346 1
216 346 1
619 346 1
621 346 1
1074 346 1
1075 346 1
149 347 1
152 347 1
172 347 1
178 347 1
210 347 1
217 347 1
620 347 1
622 347 1
1075 347 1
1076 347 1
150 348 1
153 348 1
173 348 1
179 348 1
211 348 1
218 348 1
621 348 1
623 348 1
1076 348 1
1077 348 1
151 349 1
154 349 1
174 349 1
180 349 1
212 349 1
219 349 1
622 349 1
624 349 1
1077 349 1
1078 349 1
152 350 1
155 350 1
175 350 1
181 350 1
213 350 1
220 350 1
612 350 1
623 350 1
1078 350 1
1079 350 1
153 351 1
156 351 1
176 351 1
182 351 1
214 351 1
221 351 1
613 351 1
624 351 1
1067 351 1
1079 351 1
144 352 1
155 352 1
183 352 1
190 352 1
222 352 1
228 352 1
625 352 1
627 352 1
1080 352 1
1081 352 1
145 353 1
156 353 1
184 353 1
191 353 1
223 353 1
229 353 1
626 353 1
628 353 1
1081 353 1
1082 353 1
144 354 1
146 354 1
185 354 1
192 354 1
224 354 1
230 354 1
627 354 1
629 354 1
1082 354 1
1083 354 1
145 355 1
147 355 1
186 355 1
193 355 1
225 355 1
231 355 1
628 355 1
630 355 1
1083 355 1
1084 355 1
146 356 1
148 356 1
187 356 1
194 356 1
226 356 1
232 356 1
629 356 1
631 356 1
1084 356 1
1085 356 1
147 357 1
149 357 1
188 357 1
195 357 1
227 357 1
233 357 1
630 357 1
632 357 1
1085 357 1
1086 357 1
148 358 1
150 358 1
183 358 1
189 358 1
228 358 1
234 358 1
631 358 1
633 358 1
1086 358 1
1087 358 1
149 359 1
151 359 1
184 359 1
190 359 1
222 359 1
229 359 1
632 359 1
634 359 1
1087 359 1
1088 359 1
150 360 1
152 360 1
185 360 1
191 360 1
223 360 1
230 360 1
633 360 1
635 360 1
1088 360 1
1089 360 1
151 361 1
153 361 1
186 361 1
192 361 1
224 361 1
231 361 1
634 361 1
636 361 1
1089 361 1
1090 361 1
152 362 1
154 362 1
187 362 1
193 362 1
225 362 1
232 362 1
635 362 1
637 362 1
1090 362 1
1091 362 1
153 363 1
155 363 1
188 363 1
194 363 1
226 363 1
233 363 1
625 363 1
636 363 1
1091 363 1
1092 363 1
154 364 1
156 364 1
189 364 1
195 364 1
227 364 1
234 364 1
626 364 1
637 364 1
1080 364 1
1092 364 1
157 365 1
167 365 1
170 365 1
178 365 1
235 365 1
241 365 1
638 365 1
640 365 1
1093 365 1
1094 365 1
158 366 1
168 366 1
171 366 1
179 366 1
236 366 1
242 366 1
639 366 1
641 366 1
1094 366 1
1095 366 1
159 367 1
169 367 1
172 367 1
180 367 1
237 367 1
243 367 1
640 367 1
642 367 1
1095 367 1
1096 367 1
157 368 1
160 368 1
173 368 1
181 368 1
238 368 1
244 368 1
641 368 1
643 368 1
1096 368 1
1097 368 1
158 369 1
161 369 1
174 369 1
182 369 1
239 369 1
245 369 1
642 369 1
644 369 1
1097 369 1
1098 369 1
159 370 1
162 370 1
170 370 1
175 370 1
240 370 1
246 370 1
643 370 1
645 370 1
1098 370 1
1099 370 1
160 371 1
163 371 1
171 371 1
176 371 1
241 371 1
247 371 1
644 371 1
646 371 1
1099 371 1
1100 371 1
161 372 1
164 372 1
172 372 1
177 372 1
235 372 1
242 372 1
645 372 1
647 372 1
1100 372 1
1101 372 1
162 373 1
165 373 1
173 373 1
178 373 1
236 373 1
243 373 1
646 373 1
648 373 1
1101 373 1
1102 373 1
163 374 1
166 374 1
174 374 1
179 374 1
237 374 1
244 374 1
647 374 1
649 374 1
1102 374 1
1103 374 1
164 375 1
167 375 1
175 375 1
180 375 1
238 375 1
245 375 1
648 375 1
650 375 1
1103 375 1
1104 375 1
165 376 1
168 376 1
176 376 1
181 376 1
239 376 1
246 376 1
638 376 1
649 376 1
1104 376 1
1105 376 1
166 377 1
169 377 1
177 377 1
182 377 1
240 377 1
247 377 1
639 377 1
650 377 1
1093 377 1
1105 377 1
157 378 1
168 378 1
183 378 1
191 378 1
248 378 1
254 378 1
651 378 1
653 378 1
1106 378 1
1107 378 1
158 379 1
169 379 1
184 379 1
192 379 1
249 379 1
255 379 1
652 379 1
654 379 1
1107 379 1
1108 379 1
157 380 1
159 380 1
185 380 1
193 380 1
250 380 1
256 380 1
653 380 1
655 380 1
1108 380 1
1109 380 1
158 381 1
160 381 1
186 381 1
194 381 1
251 381 1
257 381 1
654 381 1
656 381 1
1109 381 1
1110 381 1
159 382 1
161 382 1
187 382 1
195 382 1
252 382 1
258 382 1
655 382 1
657 382 1
1110 382 1
1111 382 1
160 383 1
162 383 1
183 383 1
188 383 1
253 383 1
259 383 1
656 383 1
658 383 1
1111 383 1
1112 383 1
161 384 1
163 384 1
184 384 1
189 384 1
254 384 1
260 384 1
657 384 1
659 384 1
1112 384 1
1113 384 1
162 385 1
164 385 1
185 385 1
190 385 1
248 385 1
255 385 1
658 385 1
660 385 1
1113 385 1
1114 385 1
163 386 1
165 386 1
186 386 1
191 386 1
249 386 1
256 386 1
659 386 1
661 386 1
1114 386 1
1115 386 1
164 387 1
166 387 1
187 387 1
192 387 1
250 387 1
257 387 1
660 387 1
662 387 1
1115 387 1
1116 387 1
165 388 1
167 388 1
188 388 1
193 388 1
251 388 1
258 388 1
661 388 1
663 388 1
1116 388 1
1117 388 1
166 389 1
168 389 1
189 389 1
194 389 1
252 389 1
259 389 1
651 389 1
662 389 1
1117 389 1
1118 389 1
167 390 1
169 390 1
190 390 1
195 390 1
253 390 1
260 390 1
652 390 1
663 390 1
1106 390 1
1118 390 1
170 391 1
181 391 1
183 391 1
193 391 1
261 391 1
267 391 1
664 391 1
666 391 1
1119 391 1
1120 391 1
171 392 1
182 392 1
184 392 1
194 392 1
262 392 1
268 392 1
665 392 1
667 392 1
1120 392 1
1121 392 1
170 393 1
172 393 1
185 393 1
195 393 1
263 393 1
269 393 1
666 393 1
668 393 1
1121 393 1
1122 393 1
171 394 1
173 394 1
183 394 1
186 394 1
264 394 1
270 394 1
667 394 1
669 394 1
1122 394 1
1123 394 1
172 395 1
174 395 1
184 395 1
187 395 1
265 395 1
271 395 1
668 395 1
670 395 1
1123 395 1
1124 395 1
173 396 1
175 396 1
185 396 1
188 396 1
266 396 1
272 396 1
669 396 1
671 396 1
1124 396 1
1125 396 1
174 397 1
176 397 1
186 397 1
189 397 1
267 397 1
273 397 1
670 397 1
672 397 1
1125 397 1
1126 397 1
175 398 1
177 398 1
187 398 1
190 398 1
261 398 1
268 398 1
671 398 1
673 398 1
1126 398 1
1127 398 1
176 399 1
178 399 1
188 399 1
191 399 1
262 399 1
269 399 1
672 399 1
674 399 1
1127 399 1
1128 399 1
177 400 1
179 400 1
189 400 1
192 400 1
263 400 1
270 400 1
673 400 1
675 400 1
1128 400 1
1129 400 1
178 401 1
180 401 1
190 401 1
193 401 1
264 401 1
271 401 1
674 401 1
676 401 1
1129 401 1
1130 401 1
179 402 1
181 402 1
191 402 1
194 402 1
265 402 1
272 402 1
664 402 1
675 402 1
1130 402 1
1131 402 1
180 403 1
182 403 1
192 403 1
195 403 1
266 403 1
273 403 1
665 403 1
676 403 1
1119 403 1
1131 403 1
196 404 1
206 404 1
209 404 1
217 404 1
235 404 1
242 404 1
677 404 1
679 404 1
1132 404 1
1133 404 1
197 405 1
207 405 1
210 405 1
218 405 1
236 405 1
243 405 1
678 405 1
680 405 1
1133 405 1
1134 405 1
198 406 1
208 406 1
211 406 1
219 406 1
237 406 1
244 406 1
679 406 1
681 406 1
1134 406 1
1135 406 1
196 407 1
199 407 1
212 407 1
220 407 1
238 407 1
245 407 1
680 407 1
682 407 1
1135 407 1
1136 407 1
197 408 1
200 408 1
213 408 1
221 408 1
239 408 1
246 408 1
681 408 1
683 408 1
1136 408 1
1137 408 1
198 409 1
201 409 1
209 409 1
214 409 1
240 409 1
247 409 1
682 409 1
684 409 1
1137 409 1
1138 409 1
199 410 1
202 410 1
210 410 1
215 410 1
235 410 1
241 410 1
683 410 1
685 410 1
1138 410 1
1139 410 1
200 411 1
203 411 1
211 411 1
216 411 1
236 411 1
242 411 1
684 411 1
686 411 1
1139 411 1
1140 411 1
201 412 1
204 412 1
212 412 1
217 412 1
237 412 1
243 412 1
685 412 1
687 412 1
1140 412 1
1141 412 1
202 413 1
205 413 1
213 413 1
218 413 1
238 413 1
244 413 1
686 413 1
688 413 1
1141 413 1
1142 413 1
203 414 1
206 414 1
214 414 1
219 414 1
239 414 1
245 414 1
687 414 1
689 414 1
1142 414 1
1143 414 1
204 415 1
207 415 1
215 415 1
220 415 1
240 415 1
246 415 1
677 415 1
688 415 1
1143 415 1
1144 415 1
205 416 1
208 416 1
216 416 1
221 416 1
241 416 1
247 416 1
678 416 1
689 416 1
1132 416 1
1144 416 1
196 417 1
207 417 1
222 417 1
230 417 1
248 417 1
255 417 1
690 417 1
692 417 1
1145 417 1
1146 417 1
197 418 1
208 418 1
223 418 1
231 418 1
249 418 1
256 418 1
691 418 1
693 418 1
1146 418 1
1147 418 1
196 419 1
198 419 1
224 419 1
232 419 1
250 419 1
257 419 1
692 419 1
694 419 1
1147 419 1
1148 419 1
197 420 1
199 420 1
225 420 1
233 420 1
251 420 1
258 420 1
693 420 1
695 420 1
1148 420 1
1149 420 1
198 421 1
200 421 1
226 421 1
234 421 1
252 421 1
259 421 1
694 421 1
696 421 1
1149 421 1
1150 421 1
199 422 1
201 422 1
222 422 1
227 422 1
253 422 1
260 422 1
695 422 1
697 422 1
1150 422 1
1151 422 1
200 423 1
202 423 1
223 423 1
228 423 1
248 423 1
254 423 1
696 423 1
698 423 1
1151 423 1
1152 423 1
201 424 1
203 424 1
224 424 1
229 424 1
249 424 1
255 424 1
697 424 1
699 424 1
1152 424 1
1153 424 1
202 425 1
204 425 1
225 425 1
230 425 1
250 425 1
256 425 1
698 425 1
700 425 1
1153 425 1
1154 425 1
203 426 1
205 426 1
226 426 1
231 426 1
251 426 1
257 426 1
699 426 1
701 426 1
1154 426 1
1155 426 1
204 427 1
206 427 1
227 427 1
232 427 1
252 427 1
258 427 1
700 427 1
702 427 1
1155 427 1
1156 427 1
205 428 1
207 428 1
228 428 1
233 428 1
253 428 1
259 428 1
690 428 1
701 428 1
1156 428 1
1157 428 1
206 429 1
208 429 1
229 429 1
234 429 1
254 429 1
260 429 1
691 429 1
702 429 1
1145 429 1
1157 429 1
209 430 1
220 430 1
222 430 1
232 430 1
261 430 1
268 430 1
703 430 1
705 430 1
1158 430 1
1159 430 1
210 431 1
221 431 1
223 431 1
233 431 1
262 431 1
269 431 1
704 431 1
706 431 1
1159 431 1
1160 431 1
209 432 1
211 432 1
224 432 1
234 432 1
263 432 1
270 432 1
705 432 1
707 432 1
1160 432 1
1161 432 1
210 433 1
212 433 1
222 433 1
225 433 1
264 433 1
271 433 1
706 433 1
708 433 1
1161 433 1
1162 433 1
211 434 1
213 434 1
223 434 1
226 434 1
265 434 1
272 434 1
707 434 1
709 434 1
1162 434 1
1163 434 1
212 435 1
214 435 1
224 435 1
227 435 1
266 435 1
273 435 1
708 435 1
710 435 1
1163 435 1
1164 435 1
213 436 1
215 436 1
225 436 1
228 436 1
261 436 1
267 436 1
709 436 1
711 436 1
1164 436 1
1165 436 1
214 437 1
216 437 1
226 437 1
229 437 1
262 437 1
268 437 1
710 437 1
712 437 1
1165 437 1
1166 437 1
215 438 1
217 438 1
227 438 1
230 438 1
263 438 1
269 438 1
711 438 1
713 438 1
1166 438 1
1167 438 1
216 439 1
218 439 1
228 439 1
231 439 1
264 439 1
270 439 1
712 439 1
714 439 1
1167 439 1
1168 439 1
217 440 1
219 440 1
229 440 1
232 440 1
265 440 1
271 440 1
713 440 1
715 440 1
1168 440 1
1169 440 1
218 441 1
220 441 1
230 441 1
233 441 1
266 441 1
272 441 1
703 441 1
714 441 1
1169 441 1
1170 441 1
219 442 1
221 442 1
231 442 1
234 442 1
267 442 1
273 442 1
704 442 1
715 442 1
1158 442 1
1170 442 1
235 443 1
246 443 1
248 443 1
258 443 1
261 443 1
269 443 1
716 443 1
718 443 1
1171 443 1
1172 443 1
236 444 1
247 444 1
249 444 1
259 444 1
262 444 1
270 444 1
717 444 1
719 444 1
1172 444 1
1173 444 1
235 445 1
237 445 1
250 445 1
260 445 1
263 445 1
271 445 1
718 445 1
720 445 1
1173 445 1
1174 445 1
236 446 1
238 446 1
248 446 1
251 446 1
264 446 1
272 446 1
719 446 1
721 446 1
1174 446 1
1175 446 1
237 447 1
239 447 1
249 447 1
252 447 1
265 447 1
273 447 1
720 447 1
722 447 1
1175 447 1
1176 447 1
238 448 1
240 448 1
250 448 1
253 448 1
261 448 1
266 448 1
721 448 1
723 448 1
1176 448 1
1177 448 1
239 449 1
241 449 1
251 449 1
254 449 1
262 449 1
267 449 1
722 449 1
724 449 1
1177 449 1
1178 449 1
240 450 1
242 450 1
252 450 1
255 450 1
263 450 1
268 450 1
723 450 1
725 450 1
1178 450 1
1179 450 1
241 451 1
243 451 1
253 451 1
256 451 1
264 451 1
269 451 1
724 451 1
726 451 1
1179 451 1
1180 451 1
242 452 1
244 452 1
254 452 1
257 452 1
265 452 1
270 452 1
725 452 1
727 452 1
1180 452 1
1181 452 1
243 453 1
245 453 1
255 453 1
258 453 1
266 453 1
271 453 1
726 453 1
728 453 1
1181 453 1
1182 453 1
244 454 1
246 454 1
256 454 1
259 454 1
267 454 1
272 454 1
716 454 1
727 454 1
1182 454 1
1183 454 1
245 455 1
247 455 1
257 455 1
260 455 1
268 455 1
273 455 1
717 455 1
728 455 1
1171 455 1
1183 455 1
274 456 1
281 456 1
287 456 1
293 456 1
339 456 1
344 456 1
469 456 1
473 456 1
1184 456 1
1185 456 1
275 457 1
282 457 1
288 457 1
294 457 1
340 457 1
345 457 1
470 457 1
474 457 1
1185 457 1
1186 457 1
276 458 1
283 458 1
289 458 1
295 458 1
341 458 1
346 458 1
471 458 1
475 458 1
1186 458 1
1187 458 1
277 459 1
284 459 1
290 459 1
296 459 1
342 459 1
347 459 1
472 459 1
476 459 1
1187 459 1
1188 459 1
278 460 1
285 460 1
291 460 1
297 460 1
343 460 1
348 460 1
473 460 1
477 460 1
1188 460 1
1189 460 1
279 461 1
286 461 1
292 461 1
298 461 1
344 461 1
349 461 1
474 461 1
478 461 1
1189 461 1
1190 461 1
274 462 1
280 462 1
293 462 1
299 462 1
345 462 1
350 462 1
475 462 1
479 462 1
1190 462 1
1191 462 1
275 463 1
281 463 1
287 463 1
294 463 1
346 463 1
351 463 1
476 463 1
480 463 1
1191 463 1
1192 463 1
276 464 1
282 464 1
288 464 1
295 464 1
339 464 1
347 464 1
477 464 1
481 464 1
1192 464 1
1193 464 1
277 465 1
283 465 1
289 465 1
296 465 1
340 465 1
348 465 1
469 465 1
478 465 1
1193 465 1
1194 465 1
278 466 1
284 466 1
290 466 1
297 466 1
341 466 1
349 466 1
470 466 1
479 466 1
1194 466 1
1195 466 1
279 467 1
285 467 1
291 467 1
298 467 1
342 467 1
350 467 1
471 467 1
480 467 1
1195 467 1
1196 467 1
280 468 1
286 468 1
292 468 1
299 468 1
343 468 1
351 468 1
472 468 1
481 468 1
1184 468 1
1196 468 1
274 469 1
282 469 1
300 469 1
306 469 1
352 469 1
357 469 1
482 469 1
486 469 1
1197 469 1
1198 469 1
275 470 1
283 470 1
301 470 1
307 470 1
353 470 1
358 470 1
483 470 1
487 470 1
1198 470 1
1199 470 1
276 471 1
284 471 1
302 471 1
308 471 1
354 471 1
359 471 1
484 471 1
488 471 1
1199 471 1
1200 471 1
277 472 1
285 472 1
303 472 1
309 472 1
355 472 1
360 472 1
485 472 1
489 472 1
1200 472 1
1201 472 1
278 473 1
286 473 1
304 473 1
310 473 1
356 473 1
361 473 1
486 473 1
490 473 1
1201 473 1
1202 473 1
274 474 1
279 474 1
305 474 1
311 474 1
357 474 1
362 474 1
487 474 1
491 474 1
1202 474 1
1203 474 1
275 475 1
280 475 1
306 475 1
312 475 1
358 475 1
363 475 1
488 475 1
492 475 1
1203 475 1
1204 475 1
276 476 1
281 476 1
300 476 1
307 476 1
359 476 1
364 476 1
489 476 1
493 476 1
1204 476 1
1205 476 1
277 477 1
282 477 1
301 477 1
308 477 1
352 477 1
360 477 1
490 477 1
494 477 1
1205 477 1
1206 477 1
278 478 1
283 478 1
302 478 1
309 478 1
353 478 1
361 478 1
482 478 1
491 478 1
1206 478 1
1207 478 1
279 479 1
284 479 1
303 479 1
310 479 1
354 479 1
362 479 1
483 479 1
492 479 1
1207 479 1
1208 479 1
280 480 1
285 480 1
304 480 1
311 480 1
355 480 1
363 480 1
484 480 1
493 480 1
1208 480 1
1209 480 1
281 481 1
286 481 1
305 481 1
312 481 1
356 481 1
364 481 1
485 481 1
494 481 1
1197 481 1
1209 481 1
274 482 1
284 482 1
313 482 1
319 482 1
365 482 1
370 482 1
495 482 1
499 482 1
1210 482 1
1211 482 1
275 483 1
285 483 1
314 483 1
320 483 1
366 483 1
371 483 1
496 483 1
500 483 1
1211 483 1
1212 483 1
276 484 1
286 484 1
315 484 1
321 484 1
367 484 1
372 484 1
497 484 1
501 484 1
1212 484 1
1213 484 1
274 485 1
277 485 1
316 485 1
322 485 1
368 485 1
373 485 1
498 485 1
502 485 1
1213 485 1
1214 485 1
275 486 1
278 486 1
317 486 1
323 486 1
369 486 1
374 486 1
499 486 1
503 486 1
1214 486 1
1215 486 1
276 487 1
279 487 1
318 487 1
324 487 1
370 487 1
375 487 1
500 487 1
504 487 1
1215 487 1
1216 487 1
277 488 1
280 488 1
319 488 1
325 488 1
371 488 1
376 488 1
501 488 1
505 488 1
1216 488 1
1217 488 1
278 489 1
281 489 1
313 489 1
320 489 1
372 489 1
377 489 1
502 489 1
506 489 1
1217 489 1
1218 489 1
279 490 1
282 490 1
314 490 1
321 490 1
365 490 1
373 490 1
503 490 1
507 490 1
1218 490 1
1219 490 1
280 491 1
283 491 1
315 491 1
322 491 1
366 491 1
374 491 1
495 491 1
504 491 1
1219 491 1
1220 491 1
281 492 1
284 492 1
316 492 1
323 492 1
367 492 1
375 492 1
496 492 1
505 492 1
1220 492 1
1221 492 1
282 493 1
285 493 1
317 493 1
324 493 1
368 493 1
376 493 1
497 493 1
506 493 1
1221 493 1
1222 493 1
283 494 1
286 494 1
318 494 1
325 494 1
369 494 1
377 494 1
498 494 1
507 494 1
1210 494 1
1222 494 1
274 495 1
285 495 1
326 495 1
332 495 1
378 495 1
383 495 1
508 495 1
512 495 1
1223 495 1
1224 495 1
275 496 1
286 496 1
327 496 1
333 496 1
379 496 1
384 496 1
509 496 1
513 496 1
1224 496 1
1225 496 1
274 497 1
276 497 1
328 497 1
334 497 1
380 497 1
385 497 1
510 497 1
514 497 1
1225 497 1
1226 497 1
275 498 1
277 498 1
329 498 1
335 498 1
381 498 1
386 498 1
511 498 1
515 498 1
1226 498 1
1227 498 1
276 499 1
278 499 1
330 499 1
336 499 1
382 499 1
387 499 1
512 499 1
516 499 1
1227 499 1
1228 499 1
277 500 1
279 500 1
331 500 1
337 500 1
383 500 1
388 500 1
513 500 1
517 500 1
1228 500 1
1229 500 1
278 501 1
280 501 1
332 501 1
338 501 1
384 501 1
389 501 1
514 501 1
518 501 1
1229 501 1
1230 501 1
279 502 1
281 502 1
326 502 1
333 502 1
385 502 1
390 502 1
515 502 1
519 502 1
1230 502 1
1231 502 1
280 503 1
282 503 1
327 503 1
334 503 1
378 503 1
386 503 1
516 503 1
520 503 1
1231 503 1
1232 503 1
281 504 1
283 504 1
328 504 1
335 504 1
379 504 1
387 504 1
508 504 1
517 504 1
1232 504 1
1233 504 1
282 505 1
284 505 1
329 505 1
336 505 1
380 505 1
388 505 1
509 505 1
518 505 1
1233 505 1
1234 505 1
283 506 1
285 506 1
330 506 1
337 506 1
381 506 1
389 506 1
510 506 1
519 506 1
1234 506 1
1235 506 1
284 507 1
286 507 1
331 507 1
338 507 1
382 507 1
390 507 1
511 507 1
520 507 1
1223 507 1
1235 507 1
287 508 1
295 508 1
300 508 1
307 508 1
391 508 1
396 508 1
521 508 1
525 508 1
1236 508 1
1237 508 1
288 509 1
296 509 1
301 509 1
308 509 1
392 509 1
397 509 1
522 509 1
526 509 1
1237 509 1
1238 509 1
289 510 1
297 510 1
302 510 1
309 510 1
393 510 1
398 510 1
523 510 1
527 510 1
1238 510 1
1239 510 1
290 511 1
298 511 1
303 511 1
310 511 1
394 511 1
399 511 1
524 511 1
528 511 1
1239 511 1
1240 511 1
291 512 1
299 512 1
304 512 1
311 512 1
395 512 1
400 512 1
525 512 1
529 512 1
1240 512 1
1241 512 1
287 513 1
292 513 1
305 513 1
312 513 1
396 513 1
401 513 1
526 513 1
530 513 1
1241 513 1
1242 513 1
288 514 1
293 514 1
300 514 1
306 514 1
397 514 1
402 514 1
527 514 1
531 514 1
1242 514 1
1243 514 1
289 515 1
294 515 1
301 515 1
307 515 1
398 515 1
403 515 1
528 515 1
532 515 1
1243 515 1
1244 515 1
290 516 1
295 516 1
302 516 1
308 516 1
391 516 1
399 516 1
529 516 1
533 516 1
1244 516 1
1245 516 1
291 517 1
296 517 1
303 517 1
309 517 1
392 517 1
400 517 1
521 517 1
530 517 1
1245 517 1
1246 517 1
292 518 1
297 518 1
304 518 1
310 518 1
393 518 1
401 518 1
522 518 1
531 518 1
1246 518 1
1247 518 1
293 519 1
298 519 1
305 519 1
311 519 1
394 519 1
402 519 1
523 519 1
532 519 1
1247 519 1
1248 519 1
294 520 1
299 520 1
306 520 1
312 520 1
395 520 1
403 520 1
524 520 1
533 520 1
1236 520 1
1248 520 1
287 521 1
297 521 1
313 521 1
320 521 1
404 521 1
409 521 1
534 521 1
538 521 1
1249 521 1
1250 521 1
288 522 1
298 522 1
314 522 1
321 522 1
405 522 1
410 522 1
535 522 1
539 522 1
1250 522 1
1251 522 1
289 523 1
299 523 1
315 523 1
322 523 1
406 523 1
411 523 1
536 523 1
540 523 1
1251 523 1
1252 523 1
287 524 1
290 524 1
316 524 1
323 524 1
407 524 1
412 524 1
537 524 1
541 524 1
1252 524 1
1253 524 1
288 525 1
291 525 1
317 525 1
324 525 1
408 525 1
413 525 1
538 525 1
542 525 1
1253 525 1
1254 525 1
289 526 1
292 526 1
318 526 1
325 526 1
409 526 1
414 526 1
539 526 1
543 526 1
1254 526 1
1255 526 1
290 527 1
293 527 1
313 527 1
319 527 1
410 527 1
415 527 1
540 527 1
544 527 1
1255 527 1
1256 527 1
291 528 1
294 528 1
314 528 1
320 528 1
411 528 1
416 528 1
541 528 1
545 528 1
1256 528 1
1257 528 1
292 529 1
295 529 1
315 529 1
321 529 1
404 529 1
412 529 1
542 529 1
546 529 1
1257 529 1
1258 529 1
293 530 1
296 530 1
316 530 1
322 530 1
405 530 1
413 530 1
534 530 1
543 530 1
1258 530 1
1259 530 1
294 531 1
297 531 1
317 531 1
323 531 1
406 531 1
414 531 1
535 531 1
544 531 1
1259 531 1
1260 531 1
295 532 1
298 532 1
318 532 1
324 532 1
407 532 1
415 532 1
536 532 1
545 532 1
1260 532 1
1261 532 1
296 533 1
299 533 1
319 533 1
325 533 1
408 533 1
416 533 1
537 533 1
546 533 1
1249 533 1
1261 533 1
287 534 1
298 534 1
326 534 1
333 534 1
417 534 1
422 534 1
547 534 1
551 534 1
1262 534 1
1263 534 1
288 535 1
299 535 1
327 535 1
334 535 1
418 535 1
423 535 1
548 535 1
552 535 1
1263 535 1
1264 535 1
287 536 1
289 536 1
328 536 1
335 536 1
419 536 1
424 536 1
549 536 1
553 536 1
1264 536 1
1265 536 1
288 537 1
290 537 1
329 537 1
336 537 1
420 537 1
425 537 1
550 537 1
554 537 1
1265 537 1
1266 537 1
289 538 1
291 538 1
330 538 1
337 538 1
421 538 1
426 538 1
551 538 1
555 538 1
1266 538 1
1267 538 1
290 539 1
292 539 1
331 539 1
338 539 1
422 539 1
427 539 1
552 539 1
556 539 1
1267 539 1
1268 539 1
291 540 1
293 540 1
326 540 1
332 540 1
423 540 1
428 540 1
553 540 1
557 540 1
1268 540 1
1269 540 1
292 541 1
294 541 1
327 541 1
333 541 1
424 541 1
429 541 1
554 541 1
558 541 1
1269 541 1
1270 541 1
293 542 1
295 542 1
328 542 1
334 542 1
417 542 1
425 542 1
555 542 1
559 542 1
1270 542 1
1271 542 1
294 543 1
296 543 1
329 543 1
335 543 1
418 543 1
426 543 1
547 543 1
556 543 1
1271 543 1
1272 543 1
295 544 1
297 544 1
330 544 1
336 544 1
419 544 1
427 544 1
548 544 1
557 544 1
1272 544 1
1273 544 1
296 545 1
298 545 1
331 545 1
337 545 1
420 545 1
428 545 1
549 545 1
558 545 1
1273 545 1
1274 545 1
297 546 1
299 546 1
332 546 1
338 546 1
421 546 1
429 546 1
550 546 1
559 546 1
1262 546 1
1274 546 1
300 547 1
310 547 1
313 547 1
321 547 1
430 547 1
435 547 1
560 547 1
564 547 1
1275 547 1
1276 547 1
301 548 1
311 548 1
314 548 1
322 548 1
431 548 1
436 548 1
561 548 1
565 548 1
1276 548 1
1277 548 1
302 549 1
312 549 1
315 549 1
323 549 1
432 549 1
437 549 1
562 549 1
566 549 1
1277 549 1
1278 549 1
300 550 1
303 550 1
316 550 1
324 550 1
433 550 1
438 550 1
563 550 1
567 550 1
1278 550 1
1279 550 1
301 551 1
304 551 1
317 551 1
325 551 1
434 551 1
439 551 1
564 551 1
568 551 1
1279 551 1
1280 551 1
302 552 1
305 552 1
313 552 1
318 552 1
435 552 1
440 552 1
565 552 1
569 552 1
1280 552 1
1281 552 1
303 553 1
306 553 1
314 553 1
319 553 1
436 553 1
441 553 1
566 553 1
570 553 1
1281 553 1
1282 553 1
304 554 1
307 554 1
315 554 1
320 554 1
437 554 1
442 554 1
567 554 1
571 554 1
1282 554 1
1283 554 1
305 555 1
308 555 1
316 555 1
321 555 1
430 555 1
438 555 1
568 555 1
572 555 1
1283 555 1
1284 555 1
306 556 1
309 556 1
317 556 1
322 556 1
431 556 1
439 556 1
560 556 1
569 556 1
1284 556 1
1285 556 1
307 557 1
310 557 1
318 557 1
323 557 1
432 557 1
440 557 1
561 557 1
570 557 1
1285 557 1
1286 557 1
308 558 1
311 558 1
319 558 1
324 558 1
433 558 1
441 558 1
562 558 1
571 558 1
1286 558 1
1287 558 1
309 559 1
312 559 1
320 559 1
325 559 1
434 559 1
442 559 1
563 559 1
572 559 1
1275 559 1
1287 559 1
300 560 1
311 560 1
326 560 1
334 560 1
443 560 1
448 560 1
573 560 1
577 560 1
1288 560 1
1289 560 1
301 561 1
312 561 1
327 561 1
335 561 1
444 561 1
449 561 1
574 561 1
578 561 1
1289 561 1
1290 561 1
300 562 1
302 562 1
328 562 1
336 562 1
445 562 1
450 562 1
575 562 1
579 562 1
1290 562 1
1291 562 1
301 563 1
303 563 1
329 563 1
337 563 1
446 563 1
451 563 1
576 563 1
580 563 1
1291 563 1
1292 563 1
302 564 1
304 564 1
330 564 1
338 564 1
447 564 1
452 564 1
577 564 1
581 564 1
1292 564 1
1293 564 1
303 565 1
305 565 1
326 565 1
331 565 1
448 565 1
453 565 1
578 565 1
582 565 1
1293 565 1
1294 565 1
304 566 1
306 566 1
327 566 1
332 566 1
449 566 1
454 566 1
579 566 1
583 566 1
1294 566 1
1295 566 1
305 567 1
307 567 1
328 567 1
333 567 1
450 567 1
455 567 1
580 567 1
584 567 1
1295 567 1
1296 567 1
306 568 1
308 568 1
329 568 1
334 568 1
443 568 1
451 568 1
581 568 1
585 568 1
1296 568 1
1297 568 1
307 569 1
309 569 1
330 569 1
335 569 1
444 569 1
452 569 1
573 569 1
582 569 1
1297 569 1
1298 569 1
308 570 1
310 570 1
331 570 1
336 570 1
445 570 1
453 570 1
574 570 1
583 570 1
1298 570 1
1299 570 1
309 571 1
311 571 1
332 571 1
337 571 1
446 571 1
454 571 1
575 571 1
584 571 1
1299 571 1
1300 571 1
310 572 1
312 572 1
333 572 1
338 572 1
447 572 1
455 572 1
576 572 1
585 572 1
1288 572 1
1300 572 1
313 573 1
324 573 1
326 573 1
336 573 1
456 573 1
461 573 1
586 573 1
590 573 1
1301 573 1
1302 573 1
314 574 1
325 574 1
327 574 1
337 574 1
457 574 1
462 574 1
587 574 1
591 574 1
1302 574 1
1303 574 1
313 575 1
315 575 1
328 575 1
338 575 1
458 575 1
463 575 1
588 575 1
592 575 1
1303 575 1
1304 575 1
314 576 1
316 576 1
326 576 1
329 576 1
459 576 1
464 576 1
589 576 1
593 576 1
1304 576 1
1305 576 1
315 577 1
317 577 1
327 577 1
330 577 1
460 577 1
465 577 1
590 577 1
594 577 1
1305 577 1
1306 577 1
316 578 1
318 578 1
328 578 1
331 578 1
461 578 1
466 578 1
591 578 1
595 578 1
1306 578 1
1307 578 1
317 579 1
319 579 1
329 579 1
332 579 1
462 579 1
467 579 1
592 579 1
596 579 1
1307 579 1
1308 579 1
318 580 1
320 580 1
330 580 1
333 580 1
463 580 1
468 580 1
593 580 1
597 580 1
1308 580 1
1309 580 1
319 581 1
321 581 1
331 581 1
334 581 1
456 581 1
464 581 1
594 581 1
598 581 1
1309 581 1
1310 581 1
320 582 1
322 582 1
332 582 1
335 582 1
457 582 1
465 582 1
586 582 1
595 582 1
1310 582 1
1311 582 1
321 583 1
323 583 1
333 583 1
336 583 1
458 583 1
466 583 1
587 583 1
596 583 1
1311 583 1
1312 583 1
322 584 1
324 584 1
334 584 1
337 584 1
459 584 1
467 584 1
588 584 1
597 584 1
1312 584 1
1313 584 1
323 585 1
325 585 1
335 585 1
338 585 1
460 585 1
468 585 1
589 585 1
598 585 1
1301 585 1
1313 585 1
339 586 1
347 586 1
352 586 1
359 586 1
391 586 1
397 586 1
599 586 1
603 586 1
1314 586 1
1315 586 1
340 587 1
348 587 1
353 587 1
360 587 1
392 587 1
398 587 1
600 587 1
604 587 1
1315 587 1
1316 587 1
341 588 1
349 588 1
354 588 1
361 588 1
393 588 1
399 588 1
601 588 1
605 588 1
1316 588 1
1317 588 1
342 589 1
350 589 1
355 589 1
362 589 1
394 589 1
400 589 1
602 589 1
606 589 1
1317 589 1
1318 589 1
343 590 1
351 590 1
356 590 1
363 590 1
395 590 1
401 590 1
603 590 1
607 590 1
1318 590 1
1319 590 1
339 591 1
344 591 1
357 591 1
364 591 1
396 591 1
402 591 1
604 591 1
608 591 1
1319 591 1
1320 591 1
340 592 1
345 592 1
352 592 1
358 592 1
397 592 1
403 592 1
605 592 1
609 592 1
1320 592 1
1321 592 1
341 593 1
346 593 1
353 593 1
359 593 1
391 593 1
398 593 1
606 593 1
610 593 1
1321 593 1
1322 593 1
342 594 1
347 594 1
354 594 1
360 594 1
392 594 1
399 594 1
607 594 1
611 594 1
1322 594 1
1323 594 1
343 595 1
348 595 1
355 595 1
361 595 1
393 595 1
400 595 1
599 595 1
608 595 1
1323 595 1
1324 595 1
344 596 1
349 596 1
356 596 1
362 596 1
394 596 1
401 596 1
600 596 1
609 596 1
1324 596 1
1325 596 1
345 597 1
350 597 1
357 597 1
363 597 1
395 597 1
402 597 1
601 597 1
610 597 1
1325 597 1
1326 597 1
346 598 1
351 598 1
358 598 1
364 598 1
396 598 1
403 598 1
602 598 1
611 598 1
1314 598 1
1326 598 1
339 599 1
349 599 1
365 599 1
372 599 1
404 599 1
410 599 1
612 599 1
616 599 1
1327 599 1
1328 599 1
340 600 1
350 600 1
366 600 1
373 600 1
405 600 1
411 600 1
613 600 1
617 600 1
1328 600 1
1329 600 1
341 601 1
351 601 1
367 601 1
374 601 1
406 601 1
412 601 1
614 601 1
618 601 1
1329 601 1
1330 601 1
339 602 1
342 602 1
368 602 1
375 602 1
407 602 1
413 602 1
615 602 1
619 602 1
1330 602 1
1331 602 1
340 603 1
343 603 1
369 603 1
376 603 1
408 603 1
414 603 1
616 603 1
620 603 1
1331 603 1
1332 603 1
341 604 1
344 604 1
370 604 1
377 604 1
409 604 1
415 604 1
617 604 1
621 604 1
1332 604 1
1333 604 1
342 605 1
345 605 1
365 605 1
371 605 1
410 605 1
416 605 1
618 605 1
622 605 1
1333 605 1
1334 605 1
343 606 1
346 606 1
366 606 1
372 606 1
404 606 1
411 606 1
619 606 1
623 606 1
1334 606 1
1335 606 1
344 607 1
347 607 1
367 607 1
373 607 1
405 607 1
412 607 1
620 607 1
624 607 1
1335 607 1
1336 607 1
345 608 1
348 608 1
368 608 1
374 608 1
406 608 1
413 608 1
612 608 1
621 608 1
1336 608 1
1337 608 1
346 609 1
349 609 1
369 609 1
375 609 1
407 609 1
414 609 1
613 609 1
622 609 1
1337 609 1
1338 609 1
347 610 1
350 610 1
370 610 1
376 610 1
408 610 1
415 610 1
614 610 1
623 610 1
1338 610 1
1339 610 1
348 611 1
351 611 1
371 611 1
377 611 1
409 611 1
416 611 1
615 611 1
624 611 1
1327 611 1
1339 611 1
339 612 1
350 612 1
378 612 1
385 612 1
417 612 1
423 612 1
625 612 1
629 612 1
1340 612 1
1341 612 1
340 613 1
351 613 1
379 613 1
386 613 1
418 613 1
424 613 1
626 613 1
630 613 1
1341 613 1
1342 613 1
339 614 1
341 614 1
380 614 1
387 614 1
419 614 1
425 614 1
627 614 1
631 614 1
1342 614 1
1343 614 1
340 615 1
342 615 1
381 615 1
388 615 1
420 615 1
426 615 1
628 615 1
632 615 1
1343 615 1
1344 615 1
341 616 1
343 616 1
382 616 1
389 616 1
421 616 1
427 616 1
629 616 1
633 616 1
1344 616 1
1345 616 1
342 617 1
344 617 1
383 617 1
390 617 1
422 617 1
428 617 1
630 617 1
634 617 1
1345 617 1
1346 617 1
343 618 1
345 618 1
378 618 1
384 618 1
423 618 1
429 618 1
631 618 1
635 618 1
1346 618 1
1347 618 1
344 619 1
346 619 1
379 619 1
385 619 1
417 619 1
424 619 1
632 619 1
636 619 1
1347 619 1
1348 619 1
345 620 1
347 620 1
380 620 1
386 620 1
418 620 1
425 620 1
633 620 1
637 620 1
1348 620 1
1349 620 1
346 621 1
348 621 1
381 621 1
387 621 1
419 621 1
426 621 1
625 621 1
634 621 1
1349 621 1
1350 621 1
347 622 1
349 622 1
382 622 1
388 622 1
420 622 1
427 622 1
626 622 1
635 622 1
1350 622 1
1351 622 1
348 623 1
350 623 1
383 623 1
389 623 1
421 623 1
428 623 1
627 623 1
636 623 1
1351 623 1
1352 623 1
349 624 1
351 624 1
384 624 1
390 624 1
422 624 1
429 624 1
628 624 1
637 624 1
1340 624 1
1352 624 1
352 625 1
362 625 1
365 625 1
373 625 1
430 625 1
436 625 1
638 625 1
642 625 1
1353 625 1
1354 625 1
353 626 1
363 626 1
366 626 1
374 626 1
431 626 1
437 626 1
639 626 1
643 626 1
1354 626 1
1355 626 1
354 627 1
364 627 1
367 627 1
375 627 1
432 627 1
438 627 1
640 627 1
644 627 1
1355 627 1
1356 627 1
352 628 1
355 628 1
368 628 1
376 628 1
433 628 1
439 628 1
641 628 1
645 628 1
1356 628 1
1357 628 1
353 629 1
356 629 1
369 629 1
377 629 1
434 629 1
440 629 1
642 629 1
646 629 1
1357 629 1
1358 629 1
354 630 1
357 630 1
365 630 1
370 630 1
435 630 1
441 630 1
643 630 1
647 630 1
1358 630 1
1359 630 1
355 631 1
358 631 1
366 631 1
371 631 1
436 631 1
442 631 1
644 631 1
648 631 1
1359 631 1
1360 631 1
356 632 1
359 632 1
367 632 1
372 632 1
430 632 1
437 632 1
645 632 1
649 632 1
1360 632 1
1361 632 1
357 633 1
360 633 1
368 633 1
373 633 1
431 633 1
438 633 1
646 633 1
650 633 1
1361 633 1
1362 633 1
358 634 1
361 634 1
369 634 1
374 634 1
432 634 1
439 634 1
638 634 1
647 634 1
1362 634 1
1363 634 1
359 635 1
362 635 1
370 635 1
375 635 1
433 635 1
440 635 1
639 635 1
648 635 1
1363 635 1
1364 635 1
360 636 1
363 636 1
371 636 1
376 636 1
434 636 1
441 636 1
640 636 1
649 636 1
1364 636 1
1365 636 1
361 637 1
364 637 1
372 637 1
377 637 1
435 637 1
442 637 1
641 637 1
650 637 1
1353 637 1
1365 637 1
352 638 1
363 638 1
378 638 1
386 638 1
443 638 1
449 638 1
651 638 1
655 638 1
1366 638 1
1367 638 1
353 639 1
364 639 1
379 639 1
387 639 1
444 639 1
450 639 1
652 639 1
656 639 1
1367 639 1
1368 639 1
352 640 1
354 640 1
380 640 1
388 640 1
445 640 1
451 640 1
653 640 1
657 640 1
1368 640 1
1369 640 1
353 641 1
355 641 1
381 641 1
389 641 1
446 641 1
452 641 1
654 641 1
658 641 1
1369 641 1
1370 641 1
354 642 1
356 642 1
382 642 1
390 642 1
447 642 1
453 642 1
655 642 1
659 642 1
1370 642 1
1371 642 1
355 643 1
357 643 1
378 643 1
383 643 1
448 643 1
454 643 1
656 643 1
660 643 1
1371 643 1
1372 643 1
356 644 1
358 644 1
379 644 1
384 644 1
449 644 1
455 644 1
657 644 1
661 644 1
1372 644 1
1373 644 1
357 645 1
359 645 1
380 645 1
385 645 1
443 645 1
450 645 1
658 645 1
662 645 1
1373 645 1
1374 645 1
358 646 1
360 646 1
381 646 1
386 646 1
444 646 1
451 646 1
659 646 1
663 646 1
1374 646 1
1375 646 1
359 647 1
361 647 1
382 647 1
387 647 1
445 647 1
452 647 1
651 647 1
660 647 1
1375 647 1
1376 647 1
360 648 1
362 648 1
383 648 1
388 648 1
446 648 1
453 648 1
652 648 1
661 648 1
1376 648 1
1377 648 1
361 649 1
363 649 1
384 649 1
389 649 1
447 649 1
454 649 1
653 649 1
662 649 1
1377 649 1
1378 649 1
362 650 1
364 650 1
385 650 1
390 650 1
448 650 1
455 650 1
654 650 1
663 650 1
1366 650 1
1378 650 1
365 651 1
376 651 1
378 651 1
388 651 1
456 651 1
462 651 1
664 651 1
668 651 1
1379 651 1
1380 651 1
366 652 1
377 652 1
379 652 1
389 652 1
457 652 1
463 652 1
665 652 1
669 652 1
1380 652 1
1381 652 1
365 653 1
367 653 1
380 653 1
390 653 1
458 653 1
464 653 1
666 653 1
670 653 1
1381 653 1
1382 653 1
366 654 1
368 654 1
378 654 1
381 654 1
459 654 1
465 654 1
667 654 1
671 654 1
1382 654 1
1383 654 1
367 655 1
369 655 1
379 655 1
382 655 1
460 655 1
466 655 1
668 655 1
672 655 1
1383 655 1
1384 655 1
368 656 1
370 656 1
380 656 1
383 656 1
461 656 1
467 656 1
669 656 1
673 656 1
1384 656 1
1385 656 1
369 657 1
371 657 1
381 657 1
384 657 1
462 657 1
468 657 1
670 657 1
674 657 1
1385 657 1
1386 657 1
370 658 1
372 658 1
382 658 1
385 658 1
456 658 1
463 658 1
671 658 1
675 658 1
1386 658 1
1387 658 1
371 659 1
373 659 1
383 659 1
386 659 1
457 659 1
464 659 1
672 659 1
676 659 1
1387 659 1
1388 659 1
372 660 1
374 660 1
384 660 1
387 660 1
458 660 1
465 660 1
664 660 1
673 660 1
1388 660 1
1389 660 1
373 661 1
375 661 1
385 661 1
388 661 1
459 661 1
466 661 1
665 661 1
674 661 1
1389 661 1
1390 661 1
374 662 1
376 662 1
386 662 1
389 662 1
460 662 1
467 662 1
666 662 1
675 662 1
1390 662 1
1391 662 1
375 663 1
377 663 1
387 663 1
390 663 1
461 663 1
468 663 1
667 663 1
676 663 1
1379 663 1
1391 663 1
391 664 1
401 664 1
404 664 1
412 664 1
430 664 1
437 664 1
677 664 1
681 664 1
1392 664 1
1393 664 1
392 665 1
402 665 1
405 665 1
413 665 1
431 665 1
438 665 1
678 665 1
682 665 1
1393 665 1
1394 665 1
393 666 1
403 666 1
406 666 1
414 666 1
432 666 1
439 666 1
679 666 1
683 666 1
1394 666 1
1395 666 1
391 667 1
394 667 1
407 667 1
415 667 1
433 667 1
440 667 1
680 667 1
684 667 1
1395 667 1
1396 667 1
392 668 1
395 668 1
408 668 1
416 668 1
434 668 1
441 668 1
681 668 1
685 668 1
1396 668 1
1397 668 1
393 669 1
396 669 1
404 669 1
409 669 1
435 669 1
442 669 1
682 669 1
686 669 1
1397 669 1
1398 669 1
394 670 1
397 670 1
405 670 1
410 670 1
430 670 1
436 670 1
683 670 1
687 670 1
1398 670 1
1399 670 1
395 671 1
398 671 1
406 671 1
411 671 1
431 671 1
437 671 1
684 671 1
688 671 1
1399 671 1
1400 671 1
396 672 1
399 672 1
407 672 1
412 672 1
432 672 1
438 672 1
685 672 1
689 672 1
1400 672 1
1401 672 1
397 673 1
400 673 1
408 673 1
413 673 1
433 673 1
439 673 1
677 673 1
686 673 1
1401 673 1
1402 673 1
398 674 1
401 674 1
409 674 1
414 674 1
434 674 1
440 674 1
678 674 1
687 674 1
1402 674 1
1403 674 1
399 675 1
402 675 1
410 675 1
415 675 1
435 675 1
441 675 1
679 675 1
688 675 1
1403 675 1
1404 675 1
400 676 1
403 676 1
411 676 1
416 676 1
436 676 1
442 676 1
680 676 1
689 676 1
1392 676 1
1404 676 1
391 677 1
402 677 1
417 677 1
425 677 1
443 677 1
450 677 1
690 677 1
694 677 1
1405 677 1
1406 677 1
392 678 1
403 678 1
418 678 1
426 678 1
444 678 1
451 678 1
691 678 1
695 678 1
1406 678 1
1407 678 1
391 679 1
393 679 1
419 679 1
427 679 1
445 679 1
452 679 1
692 679 1
696 679 1
1407 679 1
1408 679 1
392 680 1
394 680 1
420 680 1
428 680 1
446 680 1
453 680 1
693 680 1
697 680 1
1408 680 1
1409 680 1
393 681 1
395 681 1
421 681 1
429 681 1
447 681 1
454 681 1
694 681 1
698 681 1
1409 681 1
1410 681 1
394 682 1
396 682 1
417 682 1
422 682 1
448 682 1
455 682 1
695 682 1
699 682 1
1410 682 1
1411 682 1
395 683 1
397 683 1
418 683 1
423 683 1
443 683 1
449 683 1
696 683 1
700 683 1
1411 683 1
1412 683 1
396 684 1
398 684 1
419 684 1
424 684 1
444 684 1
450 684 1
697 684 1
701 684 1
1412 684 1
1413 684 1
397 685 1
399 685 1
420 685 1
425 685 1
445 685 1
451 685 1
698 685 1
702 685 1
1413 685 1
1414 685 1
398 686 1
400 686 1
421 686 1
426 686 1
446 686 1
452 686 1
690 686 1
699 686 1
1414 686 1
1415 686 1
399 687 1
401 687 1
422 687 1
427 687 1
447 687 1
453 687 1
691 687 1
700 687 1
1415 687 1
1416 687 1
400 688 1
402 688 1
423 688 1
428 688 1
448 688 1
454 688 1
692 688 1
701 688 1
1416 688 1
1417 688 1
401 689 1
403 689 1
424 689 1
429 689 1
449 689 1
455 689 1
693 689 1
702 689 1
1405 689 1
1417 689 1
404 690 1
415 690 1
417 690 1
427 690 1
456 690 1
463 690 1
703 690 1
707 690 1
1418 690 1
1419 690 1
405 691 1
416 691 1
418 691 1
428 691 1
457 691 1
464 691 1
704 691 1
708 691 1
1419 691 1
1420 691 1
404 692 1
406 692 1
419 692 1
429 692 1
458 692 1
465 692 1
705 692 1
709 692 1
1420 692 1
1421 692 1
405 693 1
407 693 1
417 693 1
420 693 1
459 693 1
466 693 1
706 693 1
710 693 1
1421 693 1
1422 693 1
406 694 1
408 694 1
418 694 1
421 694 1
460 694 1
467 694 1
707 694 1
711 694 1
1422 694 1
1423 694 1
407 695 1
409 695 1
419 695 1
422 695 1
461 695 1
468 695 1
708 695 1
712 695 1
1423 695 1
1424 695 1
408 696 1
410 696 1
420 696 1
423 696 1
456 696 1
462 696 1
709 696 1
713 696 1
1424 696 1
1425 696 1
409 697 1
411 697 1
421 697 1
424 697 1
457 697 1
463 697 1
710 697 1
714 697 1
1425 697 1
1426 697 1
410 698 1
412 698 1
422 698 1
425 698 1
458 698 1
464 698 1
711 698 1
715 698 1
1426 698 1
1427 698 1
411 699 1
413 699 1
423 699 1
426 699 1
459 699 1
465 699 1
703 699 1
712 699 1
1427 699 1
1428 699 1
412 700 1
414 700 1
424 700 1
427 700 1
460 700 1
466 700 1
704 700 1
713 700 1
1428 700 1
1429 700 1
413 701 1
415 701 1
425 701 1
428 701 1
461 701 1
467 701 1
705 701 1
714 701 1
1429 701 1
1430 701 1
414 702 1
416 702 1
426 702 1
429 702 1
462 702 1
468 702 1
706 702 1
715 702 1
1418 702 1
1430 702 1
430 703 1
441 703 1
443 703 1
453 703 1
456 703 1
464 703 1
716 703 1
720 703 1
1431 703 1
1432 703 1
431 704 1
442 704 1
444 704 1
454 704 1
457 704 1
465 704 1
717 704 1
721 704 1
1432 704 1
1433 704 1
430 705 1
432 705 1
445 705 1
455 705 1
458 705 1
466 705 1
718 705 1
722 705 1
1433 705 1
1434 705 1
431 706 1
433 706 1
443 706 1
446 706 1
459 706 1
467 706 1
719 706 1
723 706 1
1434 706 1
1435 706 1
432 707 1
434 707 1
444 707 1
447 707 1
460 707 1
468 707 1
720 707 1
724 707 1
1435 707 1
1436 707 1
433 708 1
435 708 1
445 708 1
448 708 1
456 708 1
461 708 1
721 708 1
725 708 1
1436 708 1
1437 708 1
434 709 1
436 709 1
446 709 1
449 709 1
457 709 1
462 709 1
722 709 1
726 709 1
1437 709 1
1438 709 1
435 710 1
437 710 1
447 710 1
450 710 1
458 710 1
463 710 1
723 710 1
727 710 1
1438 710 1
1439 710 1
436 711 1
438 711 1
448 711 1
451 711 1
459 711 1
464 711 1
724 711 1
728 711 1
1439 711 1
1440 711 1
437 712 1
439 712 1
449 712 1
452 712 1
460 712 1
465 712 1
716 712 1
725 712 1
1440 712 1
1441 712 1
438 713 1
440 713 1
450 713 1
453 713 1
461 713 1
466 713 1
717 713 1
726 713 1
1441 713 1
1442 713 1
439 714 1
441 714 1
451 714 1
454 714 1
462 714 1
467 714 1
718 714 1
727 714 1
1442 714 1
1443 714 1
440 715 1
442 715 1
452 715 1
455 715 1
463 715 1
468 715 1
719 715 1
728 715 1
1431 715 1
1443 715 1
469 716 1
477 716 1
482 716 1
489 716 1
521 716 1
527 716 1
599 716 1
604 716 1
1444 716 1
1445 716 1
470 717 1
478 717 1
483 717 1
490 717 1
522 717 1
528 717 1
600 717 1
605 717 1
1445 717 1
1446 717 1
471 718 1
479 718 1
484 718 1
491 718 1
523 718 1
529 718 1
601 718 1
606 718 1
1446 718 1
1447 718 1
472 719 1
480 719 1
485 719 1
492 719 1
524 719 1
530 719 1
602 719 1
607 719 1
1447 719 1
1448 719 1
473 720 1
481 720 1
486 720 1
493 720 1
525 720 1
531 720 1
603 720 1
608 720 1
1448 720 1
1449 720 1
469 721 1
474 721 1
487 721 1
494 721 1
526 721 1
532 721 1
604 721 1
609 721 1
1449 721 1
1450 721 1
470 722 1
475 722 1
482 722 1
488 722 1
527 722 1
533 722 1
605 722 1
610 722 1
1450 722 1
1451 722 1
471 723 1
476 723 1
483 723 1
489 723 1
521 723 1
528 723 1
606 723 1
611 723 1
1451 723 1
1452 723 1
472 724 1
477 724 1
484 724 1
490 724 1
522 724 1
529 724 1
599 724 1
607 724 1
1452 724 1
1453 724 1
473 725 1
478 725 1
485 725 1
491 725 1
523 725 1
530 725 1
600 725 1
608 725 1
1453 725 1
1454 725 1
474 726 1
479 726 1
486 726 1
492 726 1
524 726 1
531 726 1
601 726 1
609 726 1
1454 726 1
1455 726 1
475 727 1
480 727 1
487 727 1
493 727 1
525 727 1
532 727 1
602 727 1
610 727 1
1455 727 1
1456 727 1
476 728 1
481 728 1
488 728 1
494 728 1
526 728 1
533 728 1
603 728 1
611 728 1
1444 728 1
1456 728 1
469 729 1
479 729 1
495 729 1
502 729 1
534 729 1
540 729 1
612 729 1
617 729 1
1457 729 1
1458 729 1
470 730 1
480 730 1
496 730 1
503 730 1
535 730 1
541 730 1
613 730 1
618 730 1
1458 730 1
1459 730 1
471 731 1
481 731 1
497 731 1
504 731 1
536 731 1
542 731 1
614 731 1
619 731 1
1459 731 1
1460 731 1
469 732 1
472 732 1
498 732 1
505 732 1
537 732 1
543 732 1
615 732 1
620 732 1
1460 732 1
1461 732 1
470 733 1
473 733 1
499 733 1
506 733 1
538 733 1
544 733 1
616 733 1
621 733 1
1461 733 1
1462 733 1
471 734 1
474 734 1
500 734 1
507 734 1
539 734 1
545 734 1
617 734 1
622 734 1
1462 734 1
1463 734 1
472 735 1
475 735 1
495 735 1
501 735 1
540 735 1
546 735 1
618 735 1
623 735 1
1463 735 1
1464 735 1
473 736 1
476 736 1
496 736 1
502 736 1
534 736 1
541 736 1
619 736 1
624 736 1
1464 736 1
1465 736 1
474 737 1
477 737 1
497 737 1
503 737 1
535 737 1
542 737 1
612 737 1
620 737 1
1465 737 1
1466 737 1
475 738 1
478 738 1
498 738 1
504 738 1
536 738 1
543 738 1
613 738 1
621 738 1
1466 738 1
1467 738 1
476 739 1
479 739 1
499 739 1
505 739 1
537 739 1
544 739 1
614 739 1
622 739 1
1467 739 1
1468 739 1
477 740 1
480 740 1
500 740 1
506 740 1
538 740 1
545 740 1
615 740 1
623 740 1
1468 740 1
1469 740 1
478 741 1
481 741 1
501 741 1
507 741 1
539 741 1
546 741 1
616 741 1
624 741 1
1457 741 1
1469 741 1
469 742 1
480 742 1
508 742 1
515 742 1
547 742 1
553 742 1
625 742 1
630 742 1
1470 742 1
1471 742 1
470 743 1
481 743 1
509 743 1
516 743 1
548 743 1
554 743 1
626 743 1
631 743 1
1471 743 1
1472 743 1
469 744 1
471 744 1
510 744 1
517 744 1
549 744 1
555 744 1
627 744 1
632 744 1
1472 744 1
1473 744 1
470 745 1
472 745 1
511 745 1
518 745 1
550 745 1
556 745 1
628 745 1
633 745 1
1473 745 1
1474 745 1
471 746 1
473 746 1
512 746 1
519 746 1
551 746 1
557 746 1
629 746 1
634 746 1
1474 746 1
1475 746 1
472 747 1
474 747 1
513 747 1
520 747 1
552 747 1
558 747 1
630 747 1
635 747 1
1475 747 1
1476 747 1
473 748 1
475 748 1
508 748 1
514 748 1
553 748 1
559 748 1
631 748 1
636 748 1
1476 748 1
1477 748 1
474 749 1
476 749 1
509 749 1
515 749 1
547 749 1
554 749 1
632 749 1
637 749 1
1477 749 1
1478 749 1
475 750 1
477 750 1
510 750 1
516 750 1
548 750 1
555 750 1
625 750 1
633 750 1
1478 750 1
1479 750 1
476 751 1
478 751 1
511 751 1
517 751 1
549 751 1
556 751 1
626 751 1
634 751 1
1479 751 1
1480 751 1
477 752 1
479 752 1
512 752 1
518 752 1
550 752 1
557 752 1
627 752 1
635 752 1
1480 752 1
1481 752 1
478 753 1
480 753 1
513 753 1
519 753 1
551 753 1
558 753 1
628 753 1
636 753 1
1481 753 1
1482 753 1
479 754 1
481 754 1
514 754 1
520 754 1
552 754 1
559 754 1
629 754 1
637 754 1
1470 754 1
1482 754 1
482 755 1
492 755 1
495 755 1
503 755 1
560 755 1
566 755 1
638 755 1
643 755 1
1483 755 1
1484 755 1
483 756 1
493 756 1
496 756 1
504 756 1
561 756 1
567 756 1
639 756 1
644 756 1
1484 756 1
1485 756 1
484 757 1
494 757 1
497 757 1
505 757 1
562 757 1
568 757 1
640 757 1
645 757 1
1485 757 1
1486 757 1
482 758 1
485 758 1
498 758 1
506 758 1
563 758 1
569 758 1
641 758 1
646 758 1
1486 758 1
1487 758 1
483 759 1
486 759 1
499 759 1
507 759 1
564 759 1
570 759 1
642 759 1
647 759 1
1487 759 1
1488 759 1
484 760 1
487 760 1
495 760 1
500 760 1
565 760 1
571 760 1
643 760 1
648 760 1
1488 760 1
1489 760 1
485 761 1
488 761 1
496 761 1
501 761 1
566 761 1
572 761 1
644 761 1
649 761 1
1489 761 1
1490 761 1
486 762 1
489 762 1
497 762 1
502 762 1
560 762 1
567 762 1
645 762 1
650 762 1
1490 762 1
1491 762 1
487 763 1
490 763 1
498 763 1
503 763 1
561 763 1
568 763 1
638 763 1
646 763 1
1491 763 1
1492 763 1
488 764 1
491 764 1
499 764 1
504 764 1
562 764 1
569 764 1
639 764 1
647 764 1
1492 764 1
1493 764 1
489 765 1
492 765 1
500 765 1
505 765 1
563 765 1
570 765 1
640 765 1
648 765 1
1493 765 1
1494 765 1
490 766 1
493 766 1
501 766 1
506 766 1
564 766 1
571 766 1
641 766 1
649 766 1
1494 766 1
1495 766 1
491 767 1
494 767 1
502 767 1
507 767 1
565 767 1
572 767 1
642 767 1
650 767 1
1483 767 1
1495 767 1
482 768 1
493 768 1
508 768 1
516 768 1
573 768 1
579 768 1
651 768 1
656 768 1
1496 768 1
1497 768 1
483 769 1
494 769 1
509 769 1
517 769 1
574 769 1
580 769 1
652 769 1
657 769 1
1497 769 1
1498 769 1
482 770 1
484 770 1
510 770 1
518 770 1
575 770 1
581 770 1
653 770 1
658 770 1
1498 770 1
1499 770 1
483 771 1
485 771 1
511 771 1
519 771 1
576 771 1
582 771 1
654 771 1
659 771 1
1499 771 1
1500 771 1
484 772 1
486 772 1
512 772 1
520 772 1
577 772 1
583 772 1
655 772 1
660 772 1
1500 772 1
1501 772 1
485 773 1
487 773 1
508 773 1
513 773 1
578 773 1
584 773 1
656 773 1
661 773 1
1501 773 1
1502 773 1
486 774 1
488 774 1
509 774 1
514 774 1
579 774 1
585 774 1
657 774 1
662 774 1
1502 774 1
1503 774 1
487 775 1
489 775 1
510 775 1
515 775 1
573 775 1
580 775 1
658 775 1
663 775 1
1503 775 1
1504 775 1
488 776 1
490 776 1
511 776 1
516 776 1
574 776 1
581 776 1
651 776 1
659 776 1
1504 776 1
1505 776 1
489 777 1
491 777 1
512 777 1
517 777 1
575 777 1
582 777 1
652 777 1
660 777 1
1505 777 1
1506 777 1
490 778 1
492 778 1
513 778 1
518 778 1
576 778 1
583 778 1
653 778 1
661 778 1
1506 778 1
1507 778 1
491 779 1
493 779 1
514 779 1
519 779 1
577 779 1
584 779 1
654 779 1
662 779 1
1507 779 1
1508 779 1
492 780 1
494 780 1
515 780 1
520 780 1
578 780 1
585 780 1
655 780 1
663 780 1
1496 780 1
1508 780 1
495 781 1
506 781 1
508 781 1
518 781 1
586 781 1
592 781 1
664 781 1
669 781 1
1509 781 1
1510 781 1
496 782 1
507 782 1
509 782 1
519 782 1
587 782 1
593 782 1
665 782 1
670 782 1
1510 782 1
1511 782 1
495 783 1
497 783 1
510 783 1
520 783 1
588 783 1
594 783 1
666 783 1
671 783 1
1511 783 1
1512 783 1
496 784 1
498 784 1
508 784 1
511 784 1
589 784 1
595 784 1
667 784 1
672 784 1
1512 784 1
1513 784 1
497 785 1
499 785 1
509 785 1
512 785 1
590 785 1
596 785 1
668 785 1
673 785 1
1513 785 1
1514 785 1
498 786 1
500 786 1
510 786 1
513 786 1
591 786 1
597 786 1
669 786 1
674 786 1
1514 786 1
1515 786 1
499 787 1
501 787 1
511 787 1
514 787 1
592 787 1
598 787 1
670 787 1
675 787 1
1515 787 1
1516 787 1
500 788 1
502 788 1
512 788 1
515 788 1
586 788 1
593 788 1
671 788 1
676 788 1
1516 788 1
1517 788 1
501 789 1
503 789 1
513 789 1
516 789 1
587 789 1
594 789 1
664 789 1
672 789 1
1517 789 1
1518 789 1
502 790 1
504 790 1
514 790 1
517 790 1
588 790 1
595 790 1
665 790 1
673 790 1
1518 790 1
1519 790 1
503 791 1
505 791 1
515 791 1
518 791 1
589 791 1
596 791 1
666 791 1
674 791 1
1519 791 1
1520 791 1
504 792 1
506 792 1
516 792 1
519 792 1
590 792 1
597 792 1
667 792 1
675 792 1
1520 792 1
1521 792 1
505 793 1
507 793 1
517 793 1
520 793 1
591 793 1
598 793 1
668 793 1
676 793 1
1509 793 1
1521 793 1
521 794 1
531 794 1
534 794 1
542 794 1
560 794 1
567 794 1
677 794 1
682 794 1
1522 794 1
1523 794 1
522 795 1
532 795 1
535 795 1
543 795 1
561 795 1
568 795 1
678 795 1
683 795 1
1523 795 1
1524 795 1
523 796 1
533 796 1
536 796 1
544 796 1
562 796 1
569 796 1
679 796 1
684 796 1
1524 796 1
1525 796 1
521 797 1
524 797 1
537 797 1
545 797 1
563 797 1
570 797 1
680 797 1
685 797 1
1525 797 1
1526 797 1
522 798 1
525 798 1
538 798 1
546 798 1
564 798 1
571 798 1
681 798 1
686 798 1
1526 798 1
1527 798 1
523 799 1
526 799 1
534 799 1
539 799 1
565 799 1
572 799 1
682 799 1
687 799 1
1527 799 1
1528 799 1
524 800 1
527 800 1
535 800 1
540 800 1
560 800 1
566 800 1
683 800 1
688 800 1
1528 800 1
1529 800 1
525 801 1
528 801 1
536 801 1
541 801 1
561 801 1
567 801 1
684 801 1
689 801 1
1529 801 1
1530 801 1
526 802 1
529 802 1
537 802 1
542 802 1
562 802 1
568 802 1
677 802 1
685 802 1
1530 802 1
1531 802 1
527 803 1
530 803 1
538 803 1
543 803 1
563 803 1
569 803 1
678 803 1
686 803 1
1531 803 1
1532 803 1
528 804 1
531 804 1
539 804 1
544 804 1
564 804 1
570 804 1
679 804 1
687 804 1
1532 804 1
1533 804 1
529 805 1
532 805 1
540 805 1
545 805 1
565 805 1
571 805 1
680 805 1
688 805 1
1533 805 1
1534 805 1
530 806 1
533 806 1
541 806 1
546 806 1
566 806 1
572 806 1
681 806 1
689 806 1
1522 806 1
1534 806 1
521 807 1
532 807 1
547 807 1
555 807 1
573 807 1
580 807 1
690 807 1
695 807 1
1535 807 1
1536 807 1
522 808 1
533 808 1
548 808 1
556 808 1
574 808 1
581 808 1
691 808 1
696 808 1
1536 808 1
1537 808 1
521 809 1
523 809 1
549 809 1
557 809 1
575 809 1
582 809 1
692 809 1
697 809 1
1537 809 1
1538 809 1
522 810 1
524 810 1
550 810 1
558 810 1
576 810 1
583 810 1
693 810 1
698 810 1
1538 810 1
1539 810 1
523 811 1
525 811 1
551 811 1
559 811 1
577 811 1
584 811 1
694 811 1
699 811 1
1539 811 1
1540 811 1
524 812 1
526 812 1
547 812 1
552 812 1
578 812 1
585 812 1
695 812 1
700 812 1
1540 812 1
1541 812 1
525 813 1
527 813 1
548 813 1
553 813 1
573 813 1
579 813 1
696 813 1
701 813 1
1541 813 1
1542 813 1
526 814 1
528 814 1
549 814 1
554 814 1
574 814 1
580 814 1
697 814 1
702 814 1
1542 814 1
1543 814 1
527 815 1
529 815 1
550 815 1
555 815 1
575 815 1
581 815 1
690 815 1
698 815 1
1543 815 1
1544 815 1
528 816 1
530 816 1
551 816 1
556 816 1
576 816 1
582 816 1
691 816 1
699 816 1
1544 816 1
1545 816 1
529 817 1
531 817 1
552 817 1
557 817 1
577 817 1
583 817 1
692 817 1
700 817 1
1545 817 1
1546 817 1
530 818 1
532 818 1
553 818 1
558 818 1
578 818 1
584 818 1
693 818 1
701 818 1
1546 818 1
1547 818 1
531 819 1
533 819 1
554 819 1
559 819 1
579 819 1
585 819 1
694 819 1
702 819 1
1535 819 1
1547 819 1
534 820 1
545 820 1
547 820 1
557 820 1
586 820 1
593 820 1
703 820 1
708 820 1
1548 820 1
1549 820 1
535 821 1
546 821 1
548 821 1
558 821 1
587 821 1
594 821 1
704 821 1
709 821 1
1549 821 1
1550 821 1
534 822 1
536 822 1
549 822 1
559 822 1
588 822 1
595 822 1
705 822 1
710 822 1
1550 822 1
1551 822 1
535 823 1
537 823 1
547 823 1
550 823 1
589 823 1
596 823 1
706 823 1
711 823 1
1551 823 1
1552 823 1
536 824 1
538 824 1
548 824 1
551 824 1
590 824 1
597 824 1
707 824 1
712 824 1
1552 824 1
1553 824 1
537 825 1
539 825 1
549 825 1
552 825 1
591 825 1
598 825 1
708 825 1
713 825 1
1553 825 1
1554 825 1
538 826 1
540 826 1
550 826 1
553 826 1
586 826 1
592 826 1
709 826 1
714 826 1
1554 826 1
1555 826 1
539 827 1
541 827 1
551 827 1
554 827 1
587 827 1
593 827 1
710 827 1
715 827 1
1555 827 1
1556 827 1
540 828 1
542 828 1
552 828 1
555 828 1
588 828 1
594 828 1
703 828 1
711 828 1
1556 828 1
1557 828 1
541 829 1
543 829 1
553 829 1
556 829 1
589 829 1
595 829 1
704 829 1
712 829 1
1557 829 1
1558 829 1
542 830 1
544 830 1
554 830 1
557 830 1
590 830 1
596 830 1
705 830 1
713 830 1
1558 830 1
1559 830 1
543 831 1
545 831 1
555 831 1
558 831 1
591 831 1
597 831 1
706 831 1
714 831 1
1559 831 1
1560 831 1
544 832 1
546 832 1
556 832 1
559 832 1
592 832 1
598 832 1
707 832 1
715 832 1
1548 832 1
1560 832 1
560 833 1
571 833 1
573 833 1
583 833 1
586 833 1
594 833 1
716 833 1
721 833 1
1561 833 1
1562 833 1
561 834 1
572 834 1
574 834 1
584 834 1
587 834 1
595 834 1
717 834 1
722 834 1
1562 834 1
1563 834 1
560 835 1
562 835 1
575 835 1
585 835 1
588 835 1
596 835 1
718 835 1
723 835 1
1563 835 1
1564 835 1
561 836 1
563 836 1
573 836 1
576 836 1
589 836 1
597 836 1
719 836 1
724 836 1
1564 836 1
1565 836 1
562 837 1
564 837 1
574 837 1
577 837 1
590 837 1
598 837 1
720 837 1
725 837 1
1565 837 1
1566 837 1
563 838 1
565 838 1
575 838 1
578 838 1
586 838 1
591 838 1
721 838 1
726 838 1
1566 838 1
1567 838 1
564 839 1
566 839 1
576 839 1
579 839 1
587 839 1
592 839 1
722 839 1
727 839 1
1567 839 1
1568 839 1
565 840 1
567 840 1
577 840 1
580 840 1
588 840 1
593 840 1
723 840 1
728 840 1
1568 840 1
1569 840 1
566 841 1
568 841 1
578 841 1
581 841 1
589 841 1
594 841 1
716 841 1
724 841 1
1569 841 1
1570 841 1
567 842 1
569 842 1
579 842 1
582 842 1
590 842 1
595 842 1
717 842 1
725 842 1
1570 842 1
1571 842 1
568 843 1
570 843 1
580 843 1
583 843 1
591 843 1
596 843 1
718 843 1
726 843 1
1571 843 1
1572 843 1
569 844 1
571 844 1
581 844 1
584 844 1
592 844 1
597 844 1
719 844 1
727 844 1
1572 844 1
1573 844 1
570 845 1
572 845 1
582 845 1
585 845 1
593 845 1
598 845 1
720 845 1
728 845 1
1561 845 1
1573 845 1
599 846 1
609 846 1
612 846 1
620 846 1
638 846 1
645 846 1
677 846 1
683 846 1
1574 846 1
1575 846 1
600 847 1
610 847 1
613 847 1
621 847 1
639 847 1
646 847 1
678 847 1
684 847 1
1575 847 1
1576 847 1
601 848 1
611 848 1
614 848 1
622 848 1
640 848 1
647 848 1
679 848 1
685 848 1
1576 848 1
1577 848 1
599 849 1
602 849 1
615 849 1
623 849 1
641 849 1
648 849 1
680 849 1
686 849 1
1577 849 1
1578 849 1
600 850 1
603 850 1
616 850 1
624 850 1
642 850 1
649 850 1
681 850 1
687 850 1
1578 850 1
1579 850 1
601 851 1
604 851 1
612 851 1
617 851 1
643 851 1
650 851 1
682 851 1
688 851 1
1579 851 1
1580 851 1
602 852 1
605 852 1
613 852 1
618 852 1
638 852 1
644 852 1
683 852 1
689 852 1
1580 852 1
1581 852 1
603 853 1
606 853 1
614 853 1
619 853 1
639 853 1
645 853 1
677 853 1
684 853 1
1581 853 1
1582 853 1
604 854 1
607 854 1
615 854 1
620 854 1
640 854 1
646 854 1
678 854 1
685 854 1
1582 854 1
1583 854 1
605 855 1
608 855 1
616 855 1
621 855 1
641 855 1
647 855 1
679 855 1
686 855 1
1583 855 1
1584 855 1
606 856 1
609 856 1
617 856 1
622 856 1
642 856 1
648 856 1
680 856 1
687 856 1
1584 856 1
1585 856 1
607 857 1
610 857 1
618 857 1
623 857 1
643 857 1
649 857 1
681 857 1
688 857 1
1585 857 1
1586 857 1
608 858 1
611 858 1
619 858 1
624 858 1
644 858 1
650 858 1
682 858 1
689 858 1
1574 858 1
1586 858 1
599 859 1
610 859 1
625 859 1
633 859 1
651 859 1
658 859 1
690 859 1
696 859 1
1587 859 1
1588 859 1
600 860 1
611 860 1
626 860 1
634 860 1
652 860 1
659 860 1
691 860 1
697 860 1
1588 860 1
1589 860 1
599 861 1
601 861 1
627 861 1
635 861 1
653 861 1
660 861 1
692 861 1
698 861 1
1589 861 1
1590 861 1
600 862 1
602 862 1
628 862 1
636 862 1
654 862 1
661 862 1
693 862 1
699 862 1
1590 862 1
1591 862 1
601 863 1
603 863 1
629 863 1
637 863 1
655 863 1
662 863 1
694 863 1
700 863 1
1591 863 1
1592 863 1
602 864 1
604 864 1
625 864 1
630 864 1
656 864 1
663 864 1
695 864 1
701 864 1
1592 864 1
1593 864 1
603 865 1
605 865 1
626 865 1
631 865 1
651 865 1
657 865 1
696 865 1
702 865 1
1593 865 1
1594 865 1
604 866 1
606 866 1
627 866 1
632 866 1
652 866 1
658 866 1
690 866 1
697 866 1
1594 866 1
1595 866 1
605 867 1
607 867 1
628 867 1
633 867 1
653 867 1
659 867 1
691 867 1
698 867 1
1595 867 1
1596 867 1
606 868 1
608 868 1
629 868 1
634 868 1
654 868 1
660 868 1
692 868 1
699 868 1
1596 868 1
1597 868 1
607 869 1
609 869 1
630 869 1
635 869 1
655 869 1
661 869 1
693 869 1
700 869 1
1597 869 1
1598 869 1
608 870 1
610 870 1
631 870 1
636 870 1
656 870 1
662 870 1
694 870 1
701 870 1
1598 870 1
1599 870 1
609 871 1
611 871 1
632 871 1
637 871 1
657 871 1
663 871 1
695 871 1
702 871 1
1587 871 1
1599 871 1
612 872 1
623 872 1
625 872 1
635 872 1
664 872 1
671 872 1
703 872 1
709 872 1
1600 872 1
1601 872 1
613 873 1
624 873 1
626 873 1
636 873 1
665 873 1
672 873 1
704 873 1
710 873 1
1601 873 1
1602 873 1
612 874 1
614 874 1
627 874 1
637 874 1
666 874 1
673 874 1
705 874 1
711 874 1
1602 874 1
1603 874 1
613 875 1
615 875 1
625 875 1
628 875 1
667 875 1
674 875 1
706 875 1
712 875 1
1603 875 1
1604 875 1
614 876 1
616 876 1
626 876 1
629 876 1
668 876 1
675 876 1
707 876 1
713 876 1
1604 876 1
1605 876 1
615 877 1
617 877 1
627 877 1
630 877 1
669 877 1
676 877 1
708 877 1
714 877 1
1605 877 1
1606 877 1
616 878 1
618 878 1
628 878 1
631 878 1
664 878 1
670 878 1
709 878 1
715 878 1
1606 878 1
1607 878 1
617 879 1
619 879 1
629 879 1
632 879 1
665 879 1
671 879 1
703 879 1
710 879 1
1607 879 1
1608 879 1
618 880 1
620 880 1
630 880 1
633 880 1
666 880 1
672 880 1
704 880 1
711 880 1
1608 880 1
1609 880 1
619 881 1
621 881 1
631 881 1
634 881 1
667 881 1
673 881 1
705 881 1
712 881 1
1609 881 1
1610 881 1
620 882 1
622 882 1
632 882 1
635 882 1
668 882 1
674 882 1
706 882 1
713 882 1
1610 882 1
1611 882 1
621 883 1
623 883 1
633 883 1
636 883 1
669 883 1
675 883 1
707 883 1
714 883 1
1611 883 1
1612 883 1
622 884 1
624 884 1
634 884 1
637 884 1
670 884 1
676 884 1
708 884 1
715 884 1
1600 884 1
1612 884 1
638 885 1
649 885 1
651 885 1
661 885 1
664 885 1
672 885 1
716 885 1
722 885 1
1613 885 1
1614 885 1
639 886 1
650 886 1
652 886 1
662 886 1
665 886 1
673 886 1
717 886 1
723 886 1
1614 886 1
1615 886 1
638 887 1
640 887 1
653 887 1
663 887 1
666 887 1
674 887 1
718 887 1
724 887 1
1615 887 1
1616 887 1
639 888 1
641 888 1
651 888 1
654 888 1
667 888 1
675 888 1
719 888 1
725 888 1
1616 888 1
1617 888 1
640 889 1
642 889 1
652 889 1
655 889 1
668 889 1
676 889 1
720 889 1
726 889 1
1617 889 1
1618 889 1
641 890 1
643 890 1
653 890 1
656 890 1
664 890 1
669 890 1
721 890 1
727 890 1
1618 890 1
1619 890 1
642 891 1
644 891 1
654 891 1
657 891 1
665 891 1
670 891 1
722 891 1
728 891 1
1619 891 1
1620 891 1
643 892 1
645 892 1
655 892 1
658 892 1
666 892 1
671 892 1
716 892 1
723 892 1
1620 892 1
1621 892 1
644 893 1
646 893 1
656 893 1
659 893 1
667 893 1
672 893 1
717 893 1
724 893 1
1621 893 1
1622 893 1
645 894 1
647 894 1
657 894 1
660 894 1
668 894 1
673 894 1
718 894 1
725 894 1
1622 894 1
1623 894 1
646 895 1
648 895 1
658 895 1
661 895 1
669 895 1
674 895 1
719 895 1
726 895 1
1623 895 1
1624 895 1
647 896 1
649 896 1
659 896 1
662 896 1
670 896 1
675 896 1
720 896 1
727 896 1
1624 896 1
1625 896 1
648 897 1
650 897 1
660 897 1
663 897 1
671 897 1
676 897 1
721 897 1
728 897 1
1613 897 1
1625 897 1
677 898 1
688 898 1
690 898 1
700 898 1
703 898 1
711 898 1
716 898 1
723 898 1
1626 898 1
1627 898 1
678 899 1
689 899 1
691 899 1
701 899 1
704 899 1
712 899 1
717 899 1
724 899 1
1627 899 1
1628 899 1
677 900 1
679 900 1
692 900 1
702 900 1
705 900 1
713 900 1
718 900 1
725 900 1
1628 900 1
1629 900 1
678 901 1
680 901 1
690 901 1
693 901 1
706 901 1
714 901 1
719 901 1
726 901 1
1629 901 1
1630 901 1
679 902 1
681 902 1
691 902 1
694 902 1
707 902 1
715 902 1
720 902 1
727 902 1
1630 902 1
1631 902 1
680 903 1
682 903 1
692 903 1
695 903 1
703 903 1
708 903 1
721 903 1
728 903 1
1631 903 1
1632 903 1
681 904 1
683 904 1
693 904 1
696 904 1
704 904 1
709 904 1
716 904 1
722 904 1
1632 904 1
1633 904 1
682 905 1
684 905 1
694 905 1
697 905 1
705 905 1
710 905 1
717 905 1
723 905 1
1633 905 1
1634 905 1
683 906 1
685 906 1
695 906 1
698 906 1
706 906 1
711 906 1
718 906 1
724 906 1
1634 906 1
1635 906 1
684 907 1
686 907 1
696 907 1
699 907 1
707 907 1
712 907 1
719 907 1
725 907 1
1635 907 1
1636 907 1
685 908 1
687 908 1
697 908 1
700 908 1
708 908 1
713 908 1
720 908 1
726 908 1
1636 908 1
1637 908 1
686 909 1
688 909 1
698 909 1
701 909 1
709 909 1
714 909 1
721 909 1
727 909 1
1637 909 1
1638 909 1
687 910 1
689 910 1
699 910 1
702 910 1
710 910 1
715 910 1
722 910 1
728 910 1
1626 910 1
1638 910 1
729 911 1
736 911 1
742 911 1
748 911 1
794 911 1
799 911 1
924 911 1
928 911 1
1184 911 1
1186 911 1
730 912 1
737 912 1
743 912 1
749 912 1
795 912 1
800 912 1
925 912 1
929 912 1
1185 912 1
1187 912 1
731 913 1
738 913 1
744 913 1
750 913 1
796 913 1
801 913 1
926 913 1
930 913 1
1186 913 1
1188 913 1
732 914 1
739 914 1
745 914 1
751 914 1
797 914 1
802 914 1
927 914 1
931 914 1
1187 914 1
1189 914 1
733 915 1
740 915 1
746 915 1
752 915 1
798 915 1
803 915 1
928 915 1
932 915 1
1188 915 1
1190 915 1
734 916 1
741 916 1
747 916 1
753 916 1
799 916 1
804 916 1
929 916 1
933 916 1
1189 916 1
1191 916 1
729 917 1
735 917 1
748 917 1
754 917 1
800 917 1
805 917 1
930 917 1
934 917 1
1190 917 1
1192 917 1
730 918 1
736 918 1
742 918 1
749 918 1
801 918 1
806 918 1
931 918 1
935 918 1
1191 918 1
1193 918 1
731 919 1
737 919 1
743 919 1
750 919 1
794 919 1
802 919 1
932 919 1
936 919 1
1192 919 1
1194 919 1
732 920 1
738 920 1
744 920 1
751 920 1
795 920 1
803 920 1
924 920 1
933 920 1
1193 920 1
1195 920 1
733 921 1
739 921 1
745 921 1
752 921 1
796 921 1
804 921 1
925 921 1
934 921 1
1194 921 1
1196 921 1
734 922 1
740 922 1
746 922 1
753 922 1
797 922 1
805 922 1
926 922 1
935 922 1
1184 922 1
1195 922 1
735 923 1
741 923 1
747 923 1
754 923 1
798 923 1
806 923 1
927 923 1
936 923 1
1185 923 1
1196 923 1
729 924 1
737 924 1
755 924 1
761 924 1
807 924 1
812 924 1
937 924 1
941 924 1
1197 924 1
1199 924 1
730 925 1
738 925 1
756 925 1
762 925 1
808 925 1
813 925 1
938 925 1
942 925 1
1198 925 1
1200 925 1
731 926 1
739 926 1
757 926 1
763 926 1
809 926 1
814 926 1
939 926 1
943 926 1
1199 926 1
1201 926 1
732 927 1
740 927 1
758 927 1
764 927 1
810 927 1
815 927 1
940 927 1
944 927 1
1200 927 1
1202 927 1
733 928 1
741 928 1
759 928 1
765 928 1
811 928 1
816 928 1
941 928 1
945 928 1
1201 928 1
1203 928 1
729 929 1
734 929 1
760 929 1
766 929 1
812 929 1
817 929 1
942 929 1
946 929 1
1202 929 1
1204 929 1
730 930 1
735 930 1
761 930 1
767 930 1
813 930 1
818 930 1
943 930 1
947 930 1
1203 930 1
1205 930 1
731 931 1
736 931 1
755 931 1
762 931 1
814 931 1
819 931 1
944 931 1
948 931 1
1204 931 1
1206 931 1
732 932 1
737 932 1
756 932 1
763 932 1
807 932 1
815 932 1
945 932 1
949 932 1
1205 932 1
1207 932 1
733 933 1
738 933 1
757 933 1
764 933 1
808 933 1
816 933 1
937 933 1
946 933 1
1206 933 1
1208 933 1
734 934 1
739 934 1
758 934 1
765 934 1
809 934 1
817 934 1
938 934 1
947 934 1
1207 934 1
1209 934 1
735 935 1
740 935 1
759 935 1
766 935 1
810 935 1
818 935 1
939 935 1
948 935 1
1197 935 1
1208 935 1
736 936 1
741 936 1
760 936 1
767 936 1
811 936 1
819 936 1
940 936 1
949 936 1
1198 936 1
1209 936 1
729 937 1
739 937 1
768 937 1
774 937 1
820 937 1
825 937 1
950 937 1
954 937 1
1210 937 1
1212 937 1
730 938 1
740 938 1
769 938 1
775 938 1
821 938 1
826 938 1
951 938 1
955 938 1
1211 938 1
1213 938 1
731 939 1
741 939 1
770 939 1
776 939 1
822 939 1
827 939 1
952 939 1
956 939 1
1212 939 1
1214 939 1
729 940 1
732 940 1
771 940 1
777 940 1
823 940 1
828 940 1
953 940 1
957 940 1
1213 940 1
1215 940 1
730 941 1
733 941 1
772 941 1
778 941 1
824 941 1
829 941 1
954 941 1
958 941 1
1214 941 1
1216 941 1
731 942 1
734 942 1
773 942 1
779 942 1
825 942 1
830 942 1
955 942 1
959 942 1
1215 942 1
1217 942 1
732 943 1
735 943 1
774 943 1
780 943 1
826 943 1
831 943 1
956 943 1
960 943 1
1216 943 1
1218 943 1
733 944 1
736 944 1
768 944 1
775 944 1
827 944 1
832 944 1
957 944 1
961 944 1
1217 944 1
1219 944 1
734 945 1
737 945 1
769 945 1
776 945 1
820 945 1
828 945 1
958 945 1
962 945 1
1218 945 1
1220 945 1
735 946 1
738 946 1
770 946 1
777 946 1
821 946 1
829 946 1
950 946 1
959 946 1
1219 946 1
1221 946 1
736 947 1
739 947 1
771 947 1
778 947 1
822 947 1
830 947 1
951 947 1
960 947 1
1220 947 1
1222 947 1
737 948 1
740 948 1
772 948 1
779 948 1
823 948 1
831 948 1
952 948 1
961 948 1
1210 948 1
1221 948 1
738 949 1
741 949 1
773 949 1
780 949 1
824 949 1
832 949 1
953 949 1
962 949 1
1211 949 1
1222 949 1
729 950 1
740 950 1
781 950 1
787 950 1
833 950 1
838 950 1
963 950 1
967 950 1
1223 950 1
1225 950 1
730 951 1
741 951 1
782 951 1
788 951 1
834 951 1
839 951 1
964 951 1
968 951 1
1224 951 1
1226 951 1
729 952 1
731 952 1
783 952 1
789 952 1
835 952 1
840 952 1
965 952 1
969 952 1
1225 952 1
1227 952 1
730 953 1
732 953 1
784 953 1
790 953 1
836 953 1
841 953 1
966 953 1
970 953 1
1226 953 1
1228 953 1
731 954 1
733 954 1
785 954 1
791 954 1
837 954 1
842 954 1
967 954 1
971 954 1
1227 954 1
1229 954 1
732 955 1
734 955 1
786 955 1
792 955 1
838 955 1
843 955 1
968 955 1
972 955 1
1228 955 1
1230 955 1
733 956 1
735 956 1
787 956 1
793 956 1
839 956 1
844 956 1
969 956 1
973 956 1
1229 956 1
1231 956 1
734 957 1
736 957 1
781 957 1
788 957 1
840 957 1
845 957 1
970 957 1
974 957 1
1230 957 1
1232 957 1
735 958 1
737 958 1
782 958 1
789 958 1
833 958 1
841 958 1
971 958 1
975 958 1
1231 958 1
1233 958 1
736 959 1
738 959 1
783 959 1
790 959 1
834 959 1
842 959 1
963 959 1
972 959 1
1232 959 1
1234 959 1
737 960 1
739 960 1
784 960 1
791 960 1
835 960 1
843 960 1
964 960 1
973 960 1
1233 960 1
1235 960 1
738 961 1
740 961 1
785 961 1
792 961 1
836 961 1
844 961 1
965 961 1
974 961 1
1223 961 1
1234 961 1
739 962 1
741 962 1
786 962 1
793 962 1
837 962 1
845 962 1
966 962 1
975 962 1
1224 962 1
1235 962 1
742 963 1
750 963 1
755 963 1
762 963 1
846 963 1
851 963 1
976 963 1
980 963 1
1236 963 1
1238 963 1
743 964 1
751 964 1
756 964 1
763 964 1
847 964 1
852 964 1
977 964 1
981 964 1
1237 964 1
1239 964 1
744 965 1
752 965 1
757 965 1
764 965 1
848 965 1
853 965 1
978 965 1
982 965 1
1238 965 1
1240 965 1
745 966 1
753 966 1
758 966 1
765 966 1
849 966 1
854 966 1
979 966 1
983 966 1
1239 966 1
1241 966 1
746 967 1
754 967 1
759 967 1
766 967 1
850 967 1
855 967 1
980 967 1
984 967 1
1240 967 1
1242 967 1
742 968 1
747 968 1
760 968 1
767 968 1
851 968 1
856 968 1
981 968 1
985 968 1
1241 968 1
1243 968 1
743 969 1
748 969 1
755 969 1
761 969 1
852 969 1
857 969 1
982 969 1
986 969 1
1242 969 1
1244 969 1
744 970 1
749 970 1
756 970 1
762 970 1
853 970 1
858 970 1
983 970 1
987 970 1
1243 970 1
1245 970 1
745 971 1
750 971 1
757 971 1
763 971 1
846 971 1
854 971 1
984 971 1
988 971 1
1244 971 1
1246 971 1
746 972 1
751 972 1
758 972 1
764 972 1
847 972 1
855 972 1
976 972 1
985 972 1
1245 972 1
1247 972 1
747 973 1
752 973 1
759 973 1
765 973 1
848 973 1
856 973 1
977 973 1
986 973 1
1246 973 1
1248 973 1
748 974 1
753 974 1
760 974 1
766 974 1
849 974 1
857 974 1
978 974 1
987 974 1
1236 974 1
1247 974 1
749 975 1
754 975 1
761 975 1
767 975 1
850 975 1
858 975 1
979 975 1
988 975 1
1237 975 1
1248 975 1
742 976 1
752 976 1
768 976 1
775 976 1
859 976 1
864 976 1
989 976 1
993 976 1
1249 976 1
1251 976 1
743 977 1
753 977 1
769 977 1
776 977 1
860 977 1
865 977 1
990 977 1
994 977 1
1250 977 1
1252 977 1
744 978 1
754 978 1
770 978 1
777 978 1
861 978 1
866 978 1
991 978 1
995 978 1
1251 978 1
1253 978 1
742 979 1
745 979 1
771 979 1
778 979 1
862 979 1
867 979 1
992 979 1
996 979 1
1252 979 1
1254 979 1
743 980 1
746 980 1
772 980 1
779 980 1
863 980 1
868 980 1
993 980 1
997 980 1
1253 980 1
1255 980 1
744 981 1
747 981 1
773 981 1
780 981 1
864 981 1
869 981 1
994 981 1
998 981 1
1254 981 1
1256 981 1
745 982 1
748 982 1
768 982 1
774 982 1
865 982 1
870 982 1
995 982 1
999 982 1
1255 982 1
1257 982 1
746 983 1
749 983 1
769 983 1
775 983 1
866 983 1
871 983 1
996 983 1
1000 983 1
1256 983 1
1258 983 1
747 984 1
750 984 1
770 984 1
776 984 1
859 984 1
867 984 1
997 984 1
1001 984 1
1257 984 1
1259 984 1
748 985 1
751 985 1
771 985 1
777 985 1
860 985 1
868 985 1
989 985 1
998 985 1
1258 985 1
1260 985 1
749 986 1
752 986 1
772 986 1
778 986 1
861 986 1
869 986 1
990 986 1
999 986 1
1259 986 1
1261 986 1
750 987 1
753 987 1
773 987 1
779 987 1
862 987 1
870 987 1
991 987 1
1000 987 1
1249 987 1
1260 987 1
751 988 1
754 988 1
774 988 1
780 988 1
863 988 1
871 988 1
992 988 1
1001 988 1
1250 988 1
1261 988 1
742 989 1
753 989 1
781 989 1
788 989 1
872 989 1
877 989 1
1002 989 1
1006 989 1
1262 989 1
1264 989 1
743 990 1
754 990 1
782 990 1
789 990 1
873 990 1
878 990 1
1003 990 1
1007 990 1
1263 990 1
1265 990 1
742 991 1
744 991 1
783 991 1
790 991 1
874 991 1
879 991 1
1004 991 1
1008 991 1
1264 991 1
1266 991 1
743 992 1
745 992 1
784 992 1
791 992 1
875 992 1
880 992 1
1005 992 1
1009 992 1
1265 992 1
1267 992 1
744 993 1
746 993 1
785 993 1
792 993 1
876 993 1
881 993 1
1006 993 1
1010 993 1
1266 993 1
1268 993 1
745 994 1
747 994 1
786 994 1
793 994 1
877 994 1
882 994 1
1007 994 1
1011 994 1
1267 994 1
1269 994 1
746 995 1
748 995 1
781 995 1
787 995 1
878 995 1
883 995 1
1008 995 1
1012 995 1
1268 995 1
1270 995 1
747 996 1
749 996 1
782 996 1
788 996 1
879 996 1
884 996 1
1009 996 1
1013 996 1
1269 996 1
1271 996 1
748 997 1
750 997 1
783 997 1
789 997 1
872 997 1
880 997 1
1010 997 1
1014 997 1
1270 997 1
1272 997 1
749 998 1
751 998 1
784 998 1
790 998 1
873 998 1
881 998 1
1002 998 1
1011 998 1
1271 998 1
1273 998 1
750 999 1
752 999 1
785 999 1
791 999 1
874 999 1
882 999 1
1003 999 1
1012 999 1
1272 999 1
1274 999 1
751 1000 1
753 1000 1
786 1000 1
792 1000 1
875 1000 1
883 1000 1
1004 1000 1
1013 1000 1
1262 1000 1
1273 1000 1
752 1001 1
754 1001 1
787 1001 1
793 1001 1
876 1001 1
884 1001 1
1005 1001 1
1014 1001 1
1263 1001 1
1274 1001 1
755 1002 1
765 1002 1
768 1002 1
776 1002 1
885 1002 1
890 1002 1
1015 1002 1
1019 1002 1
1275 1002 1
1277 1002 1
756 1003 1
766 1003 1
769 1003 1
777 1003 1
886 1003 1
891 1003 1
1016 1003 1
1020 1003 1
1276 1003 1
1278 1003 1
757 1004 1
767 1004 1
770 1004 1
778 1004 1
887 1004 1
892 1004 1
1017 1004 1
1021 1004 1
1277 1004 1
1279 1004 1
755 1005 1
758 1005 1
771 1005 1
779 1005 1
888 1005 1
893 1005 1
1018 1005 1
1022 1005 1
1278 1005 1
1280 1005 1
756 1006 1
759 1006 1
772 1006 1
780 1006 1
889 1006 1
894 1006 1
1019 1006 1
1023 1006 1
1279 1006 1
1281 1006 1
757 1007 1
760 1007 1
768 1007 1
773 1007 1
890 1007 1
895 1007 1
1020 1007 1
1024 1007 1
1280 1007 1
1282 1007 1
758 1008 1
761 1008 1
769 1008 1
774 1008 1
891 1008 1
896 1008 1
1021 1008 1
1025 1008 1
1281 1008 1
1283 1008 1
759 1009 1
762 1009 1
770 1009 1
775 1009 1
892 1009 1
897 1009 1
1022 1009 1
1026 1009 1
1282 1009 1
1284 1009 1
760 1010 1
763 1010 1
771 1010 1
776 1010 1
885 1010 1
893 1010 1
1023 1010 1
1027 1010 1
1283 1010 1
1285 1010 1
761 1011 1
764 1011 1
772 1011 1
777 1011 1
886 1011 1
894 1011 1
1015 1011 1
1024 1011 1
1284 1011 1
1286 1011 1
762 1012 1
765 1012 1
773 1012 1
778 1012 1
887 1012 1
895 1012 1
1016 1012 1
1025 1012 1
1285 1012 1
1287 1012 1
763 1013 1
766 1013 1
774 1013 1
779 1013 1
888 1013 1
896 1013 1
1017 1013 1
1026 1013 1
1275 1013 1
1286 1013 1
764 1014 1
767 1014 1
775 1014 1
780 1014 1
889 1014 1
897 1014 1
1018 1014 1
1027 1014 1
1276 1014 1
1287 1014 1
755 1015 1
766 1015 1
781 1015 1
789 1015 1
898 1015 1
903 1015 1
1028 1015 1
1032 1015 1
1288 1015 1
1290 1015 1
756 1016 1
767 1016 1
782 1016 1
790 1016 1
899 1016 1
904 1016 1
1029 1016 1
1033 1016 1
1289 1016 1
1291 1016 1
755 1017 1
757 1017 1
783 1017 1
791 1017 1
900 1017 1
905 1017 1
1030 1017 1
1034 1017 1
1290 1017 1
1292 1017 1
756 1018 1
758 1018 1
784 1018 1
792 1018 1
901 1018 1
906 1018 1
1031 1018 1
1035 1018 1
1291 1018 1
1293 1018 1
757 1019 1
759 1019 1
785 1019 1
793 1019 1
902 1019 1
907 1019 1
1032 1019 1
1036 1019 1
1292 1019 1
1294 1019 1
758 1020 1
760 1020 1
781 1020 1
786 1020 1
903 1020 1
908 1020 1
1033 1020 1
1037 1020 1
1293 1020 1
1295 1020 1
759 1021 1
761 1021 1
782 1021 1
787 1021 1
904 1021 1
909 1021 1
1034 1021 1
1038 1021 1
1294 1021 1
1296 1021 1
760 1022 1
762 1022 1
783 1022 1
788 1022 1
905 1022 1
910 1022 1
1035 1022 1
1039 1022 1
1295 1022 1
1297 1022 1
761 1023 1
763 1023 1
784 1023 1
789 1023 1
898 1023 1
906 1023 1
1036 1023 1
1040 1023 1
1296 1023 1
1298 1023 1
762 1024 1
764 1024 1
785 1024 1
790 1024 1
899 1024 1
907 1024 1
1028 1024 1
1037 1024 1
1297 1024 1
1299 1024 1
763 1025 1
765 1025 1
786 1025 1
791 1025 1
900 1025 1
908 1025 1
1029 1025 1
1038 1025 1
1298 1025 1
1300 1025 1
764 1026 1
766 1026 1
787 1026 1
792 1026 1
901 1026 1
909 1026 1
1030 1026 1
1039 1026 1
1288 1026 1
1299 1026 1
765 1027 1
767 1027 1
788 1027 1
793 1027 1
902 1027 1
910 1027 1
1031 1027 1
1040 1027 1
1289 1027 1
1300 1027 1
768 1028 1
779 1028 1
781 1028 1
791 1028 1
911 1028 1
916 1028 1
1041 1028 1
1045 1028 1
1301 1028 1
1303 1028 1
769 1029 1
780 1029 1
782 1029 1
792 1029 1
912 1029 1
917 1029 1
1042 1029 1
1046 1029 1
1302 1029 1
1304 1029 1
768 1030 1
770 1030 1
783 1030 1
793 1030 1
913 1030 1
918 1030 1
1043 1030 1
1047 1030 1
1303 1030 1
1305 1030 1
769 1031 1
771 1031 1
781 1031 1
784 1031 1
914 1031 1
919 1031 1
1044 1031 1
1048 1031 1
1304 1031 1
1306 1031 1
770 1032 1
772 1032 1
782 1032 1
785 1032 1
915 1032 1
920 1032 1
1045 1032 1
1049 1032 1
1305 1032 1
1307 1032 1
771 1033 1
773 1033 1
783 1033 1
786 1033 1
916 1033 1
921 1033 1
1046 1033 1
1050 1033 1
1306 1033 1
1308 1033 1
772 1034 1
774 1034 1
784 1034 1
787 1034 1
917 1034 1
922 1034 1
1047 1034 1
1051 1034 1
1307 1034 1
1309 1034 1
773 1035 1
775 1035 1
785 1035 1
788 1035 1
918 1035 1
923 1035 1
1048 1035 1
1052 1035 1
1308 1035 1
1310 1035 1
774 1036 1
776 1036 1
786 1036 1
789 1036 1
911 1036 1
919 1036 1
1049 1036 1
1053 1036 1
1309 1036 1
1311 1036 1
775 1037 1
777 1037 1
787 1037 1
790 1037 1
912 1037 1
920 1037 1
1041 1037 1
1050 1037 1
1310 1037 1
1312 1037 1
776 1038 1
778 1038 1
788 1038 1
791 1038 1
913 1038 1
921 1038 1
1042 1038 1
1051 1038 1
1311 1038 1
1313 1038 1
777 1039 1
779 1039 1
789 1039 1
792 1039 1
914 1039 1
922 1039 1
1043 1039 1
1052 1039 1
1301 1039 1
1312 1039 1
778 1040 1
780 1040 1
790 1040 1
793 1040 1
915 1040 1
923 1040 1
1044 1040 1
1053 1040 1
1302 1040 1
1313 1040 1
794 1041 1
802 1041 1
807 1041 1
814 1041 1
846 1041 1
852 1041 1
1054 1041 1
1058 1041 1
1314 1041 1
1316 1041 1
795 1042 1
803 1042 1
808 1042 1
815 1042 1
847 1042 1
853 1042 1
1055 1042 1
1059 1042 1
1315 1042 1
1317 1042 1
796 1043 1
804 1043 1
809 1043 1
816 1043 1
848 1043 1
854 1043 1
1056 1043 1
1060 1043 1
1316 1043 1
1318 1043 1
797 1044 1
805 1044 1
810 1044 1
817 1044 1
849 1044 1
855 1044 1
1057 1044 1
1061 1044 1
1317 1044 1
1319 1044 1
798 1045 1
806 1045 1
811 1045 1
818 1045 1
850 1045 1
856 1045 1
1058 1045 1
1062 1045 1
1318 1045 1
1320 1045 1
794 1046 1
799 1046 1
812 1046 1
819 1046 1
851 1046 1
857 1046 1
1059 1046 1
1063 1046 1
1319 1046 1
1321 1046 1
795 1047 1
800 1047 1
807 1047 1
813 1047 1
852 1047 1
858 1047 1
1060 1047 1
1064 1047 1
1320 1047 1
1322 1047 1
796 1048 1
801 1048 1
808 1048 1
814 1048 1
846 1048 1
853 1048 1
1061 1048 1
1065 1048 1
1321 1048 1
1323 1048 1
797 1049 1
802 1049 1
809 1049 1
815 1049 1
847 1049 1
854 1049 1
1062 1049 1
1066 1049 1
1322 1049 1
1324 1049 1
798 1050 1
803 1050 1
810 1050 1
816 1050 1
848 1050 1
855 1050 1
1054 1050 1
1063 1050 1
1323 1050 1
1325 1050 1
799 1051 1
804 1051 1
811 1051 1
817 1051 1
849 1051 1
856 1051 1
1055 1051 1
1064 1051 1
1324 1051 1
1326 1051 1
800 1052 1
805 1052 1
812 1052 1
818 1052 1
850 1052 1
857 1052 1
1056 1052 1
1065 1052 1
1314 1052 1
1325 1052 1
801 1053 1
806 1053 1
813 1053 1
819 1053 1
851 1053 1
858 1053 1
1057 1053 1
1066 1053 1
1315 1053 1
1326 1053 1
794 1054 1
804 1054 1
820 1054 1
827 1054 1
859 1054 1
865 1054 1
1067 1054 1
1071 1054 1
1327 1054 1
1329 1054 1
795 1055 1
805 1055 1
821 1055 1
828 1055 1
860 1055 1
866 1055 1
1068 1055 1
1072 1055 1
1328 1055 1
1330 1055 1
796 1056 1
806 1056 1
822 1056 1
829 1056 1
861 1056 1
867 1056 1
1069 1056 1
1073 1056 1
1329 1056 1
1331 1056 1
794 1057 1
797 1057 1
823 1057 1
830 1057 1
862 1057 1
868 1057 1
1070 1057 1
1074 1057 1
1330 1057 1
1332 1057 1
795 1058 1
798 1058 1
824 1058 1
831 1058 1
863 1058 1
869 1058 1
1071 1058 1
1075 1058 1
1331 1058 1
1333 1058 1
796 1059 1
799 1059 1
825 1059 1
832 1059 1
864 1059 1
870 1059 1
1072 1059 1
1076 1059 1
1332 1059 1
1334 1059 1
797 1060 1
800 1060 1
820 1060 1
826 1060 1
865 1060 1
871 1060 1
1073 1060 1
1077 1060 1
1333 1060 1
1335 1060 1
798 1061 1
801 1061 1
821 1061 1
827 1061 1
859 1061 1
866 1061 1
1074 1061 1
1078 1061 1
1334 1061 1
1336 1061 1
799 1062 1
802 1062 1
822 1062 1
828 1062 1
860 1062 1
867 1062 1
1075 1062 1
1079 1062 1
1335 1062 1
1337 1062 1
800 1063 1
803 1063 1
823 1063 1
829 1063 1
861 1063 1
868 1063 1
1067 1063 1
1076 1063 1
1336 1063 1
1338 1063 1
801 1064 1
804 1064 1
824 1064 1
830 1064 1
862 1064 1
869 1064 1
1068 1064 1
1077 1064 1
1337 1064 1
1339 1064 1
802 1065 1
805 1065 1
825 1065 1
831 1065 1
863 1065 1
870 1065 1
1069 1065 1
1078 1065 1
1327 1065 1
1338 1065 1
803 1066 1
806 1066 1
826 1066 1
832 1066 1
864 1066 1
871 1066 1
1070 1066 1
1079 1066 1
1328 1066 1
1339 1066 1
794 1067 1
805 1067 1
833 1067 1
840 1067 1
872 1067 1
878 1067 1
1080 1067 1
1084 1067 1
1340 1067 1
1342 1067 1
795 1068 1
806 1068 1
834 1068 1
841 1068 1
873 1068 1
879 1068 1
1081 1068 1
1085 1068 1
1341 1068 1
1343 1068 1
794 1069 1
796 1069 1
835 1069 1
842 1069 1
874 1069 1
880 1069 1
1082 1069 1
1086 1069 1
1342 1069 1
1344 1069 1
795 1070 1
797 1070 1
836 1070 1
843 1070 1
875 1070 1
881 1070 1
1083 1070 1
1087 1070 1
1343 1070 1
1345 1070 1
796 1071 1
798 1071 1
837 1071 1
844 1071 1
876 1071 1
882 1071 1
1084 1071 1
1088 1071 1
1344 1071 1
1346 1071 1
797 1072 1
799 1072 1
838 1072 1
845 1072 1
877 1072 1
883 1072 1
1085 1072 1
1089 1072 1
1345 1072 1
1347 1072 1
798 1073 1
800 1073 1
833 1073 1
839 1073 1
878 1073 1
884 1073 1
1086 1073 1
1090 1073 1
1346 1073 1
1348 1073 1
799 1074 1
801 1074 1
834 1074 1
840 1074 1
872 1074 1
879 1074 1
1087 1074 1
1091 1074 1
1347 1074 1
1349 1074 1
800 1075 1
802 1075 1
835 1075 1
841 1075 1
873 1075 1
880 1075 1
1088 1075 1
1092 1075 1
1348 1075 1
1350 1075 1
801 1076 1
803 1076 1
836 1076 1
842 1076 1
874 1076 1
881 1076 1
1080 1076 1
1089 1076 1
1349 1076 1
1351 1076 1
802 1077 1
804 1077 1
837 1077 1
843 1077 1
875 1077 1
882 1077 1
1081 1077 1
1090 1077 1
1350 1077 1
1352 1077 1
803 1078 1
805 1078 1
838 1078 1
844 1078 1
876 1078 1
883 1078 1
1082 1078 1
1091 1078 1
1340 1078 1
1351 1078 1
804 1079 1
806 1079 1
839 1079 1
845 1079 1
877 1079 1
884 1079 1
1083 1079 1
1092 1079 1
1341 1079 1
1352 1079 1
807 1080 1
817 1080 1
820 1080 1
828 1080 1
885 1080 1
891 1080 1
1093 1080 1
1097 1080 1
1353 1080 1
1355 1080 1
808 1081 1
818 1081 1
821 1081 1
829 1081 1
886 1081 1
892 1081 1
1094 1081 1
1098 1081 1
1354 1081 1
1356 1081 1
809 1082 1
819 1082 1
822 1082 1
830 1082 1
887 1082 1
893 1082 1
1095 1082 1
1099 1082 1
1355 1082 1
1357 1082 1
807 1083 1
810 1083 1
823 1083 1
831 1083 1
888 1083 1
894 1083 1
1096 1083 1
1100 1083 1
1356 1083 1
1358 1083 1
808 1084 1
811 1084 1
824 1084 1
832 1084 1
889 1084 1
895 1084 1
1097 1084 1
1101 1084 1
1357 1084 1
1359 1084 1
809 1085 1
812 1085 1
820 1085 1
825 1085 1
890 1085 1
896 1085 1
1098 1085 1
1102 1085 1
1358 1085 1
1360 1085 1
810 1086 1
813 1086 1
821 1086 1
826 1086 1
891 1086 1
897 1086 1
1099 1086 1
1103 1086 1
1359 1086 1
1361 1086 1
811 1087 1
814 1087 1
822 1087 1
827 1087 1
885 1087 1
892 1087 1
1100 1087 1
1104 1087 1
1360 1087 1
1362 1087 1
812 1088 1
815 1088 1
823 1088 1
828 1088 1
886 1088 1
893 1088 1
1101 1088 1
1105 1088 1
1361 1088 1
1363 1088 1
813 1089 1
816 1089 1
824 1089 1
829 1089 1
887 1089 1
894 1089 1
1093 1089 1
1102 1089 1
1362 1089 1
1364 1089 1
814 1090 1
817 1090 1
825 1090 1
830 1090 1
888 1090 1
895 1090 1
1094 1090 1
1103 1090 1
1363 1090 1
1365 1090 1
815 1091 1
818 1091 1
826 1091 1
831 1091 1
889 1091 1
896 1091 1
1095 1091 1
1104 1091 1
1353 1091 1
1364 1091 1
816 1092 1
819 1092 1
827 1092 1
832 1092 1
890 1092 1
897 1092 1
1096 1092 1
1105 1092 1
1354 1092 1
1365 1092 1
807 1093 1
818 1093 1
833 1093 1
841 1093 1
898 1093 1
904 1093 1
1106 1093 1
1110 1093 1
1366 1093 1
1368 1093 1
808 1094 1
819 1094 1
834 1094 1
842 1094 1
899 1094 1
905 1094 1
1107 1094 1
1111 1094 1
1367 1094 1
1369 1094 1
807 1095 1
809 1095 1
835 1095 1
843 1095 1
900 1095 1
906 1095 1
1108 1095 1
1112 1095 1
1368 1095 1
1370 1095 1
808 1096 1
810 1096 1
836 1096 1
844 1096 1
901 1096 1
907 1096 1
1109 1096 1
1113 1096 1
1369 1096 1
1371 1096 1
809 1097 1
811 1097 1
837 1097 1
845 1097 1
902 1097 1
908 1097 1
1110 1097 1
1114 1097 1
1370 1097 1
1372 1097 1
810 1098 1
812 1098 1
833 1098 1
838 1098 1
903 1098 1
909 1098 1
1111 1098 1
1115 1098 1
1371 1098 1
1373 1098 1
811 1099 1
813 1099 1
834 1099 1
839 1099 1
904 1099 1
910 1099 1
1112 1099 1
1116 1099 1
1372 1099 1
1374 1099 1
812 1100 1
814 1100 1
835 1100 1
840 1100 1
898 1100 1
905 1100 1
1113 1100 1
1117 1100 1
1373 1100 1
1375 1100 1
813 1101 1
815 1101 1
836 1101 1
841 1101 1
899 1101 1
906 1101 1
1114 1101 1
1118 1101 1
1374 1101 1
1376 1101 1
814 1102 1
816 1102 1
837 1102 1
842 1102 1
900 1102 1
907 1102 1
1106 1102 1
1115 1102 1
1375 1102 1
1377 1102 1
815 1103 1
817 1103 1
838 1103 1
843 1103 1
901 1103 1
908 1103 1
1107 1103 1
1116 1103 1
1376 1103 1
1378 1103 1
816 1104 1
818 1104 1
839 1104 1
844 1104 1
902 1104 1
909 1104 1
1108 1104 1
1117 1104 1
1366 1104 1
1377 1104 1
817 1105 1
819 1105 1
840 1105 1
845 1105 1
903 1105 1
910 1105 1
1109 1105 1
1118 1105 1
1367 1105 1
1378 1105 1
820 1106 1
831 1106 1
833 1106 1
843 1106 1
911 1106 1
917 1106 1
1119 1106 1
1123 1106 1
1379 1106 1
1381 1106 1
821 1107 1
832 1107 1
834 1107 1
844 1107 1
912 1107 1
918 1107 1
1120 1107 1
1124 1107 1
1380 1107 1
1382 1107 1
820 1108 1
822 1108 1
835 1108 1
845 1108 1
913 1108 1
919 1108 1
1121 1108 1
1125 1108 1
1381 1108 1
1383 1108 1
821 1109 1
823 1109 1
833 1109 1
836 1109 1
914 1109 1
920 1109 1
1122 1109 1
1126 1109 1
1382 1109 1
1384 1109 1
822 1110 1
824 1110 1
834 1110 1
837 1110 1
915 1110 1
921 1110 1
1123 1110 1
1127 1110 1
1383 1110 1
1385 1110 1
823 1111 1
825 1111 1
835 1111 1
838 1111 1
916 1111 1
922 1111 1
1124 1111 1
1128 1111 1
1384 1111 1
1386 1111 1
824 1112 1
826 1112 1
836 1112 1
839 1112 1
917 1112 1
923 1112 1
1125 1112 1
1129 1112 1
1385 1112 1
1387 1112 1
825 1113 1
827 1113 1
837 1113 1
840 1113 1
911 1113 1
918 1113 1
1126 1113 1
1130 1113 1
1386 1113 1
1388 1113 1
826 1114 1
828 1114 1
838 1114 1
841 1114 1
912 1114 1
919 1114 1
1127 1114 1
1131 1114 1
1387 1114 1
1389 1114 1
827 1115 1
829 1115 1
839 1115 1
842 1115 1
913 1115 1
920 1115 1
1119 1115 1
1128 1115 1
1388 1115 1
1390 1115 1
828 1116 1
830 1116 1
840 1116 1
843 1116 1
914 1116 1
921 1116 1
1120 1116 1
1129 1116 1
1389 1116 1
1391 1116 1
829 1117 1
831 1117 1
841 1117 1
844 1117 1
915 1117 1
922 1117 1
1121 1117 1
1130 1117 1
1379 1117 1
1390 1117 1
830 1118 1
832 1118 1
842 1118 1
845 1118 1
916 1118 1
923 1118 1
1122 1118 1
1131 1118 1
1380 1118 1
1391 1118 1
846 1119 1
856 1119 1
859 1119 1
867 1119 1
885 1119 1
892 1119 1
1132 1119 1
1136 1119 1
1392 1119 1
1394 1119 1
847 1120 1
857 1120 1
860 1120 1
868 1120 1
886 1120 1
893 1120 1
1133 1120 1
1137 1120 1
1393 1120 1
1395 1120 1
848 1121 1
858 1121 1
861 1121 1
869 1121 1
887 1121 1
894 1121 1
1134 1121 1
1138 1121 1
1394 1121 1
1396 1121 1
846 1122 1
849 1122 1
862 1122 1
870 1122 1
888 1122 1
895 1122 1
1135 1122 1
1139 1122 1
1395 1122 1
1397 1122 1
847 1123 1
850 1123 1
863 1123 1
871 1123 1
889 1123 1
896 1123 1
1136 1123 1
1140 1123 1
1396 1123 1
1398 1123 1
848 1124 1
851 1124 1
859 1124 1
864 1124 1
890 1124 1
897 1124 1
1137 1124 1
1141 1124 1
1397 1124 1
1399 1124 1
849 1125 1
852 1125 1
860 1125 1
865 1125 1
885 1125 1
891 1125 1
1138 1125 1
1142 1125 1
1398 1125 1
1400 1125 1
850 1126 1
853 1126 1
861 1126 1
866 1126 1
886 1126 1
892 1126 1
1139 1126 1
1143 1126 1
1399 1126 1
1401 1126 1
851 1127 1
854 1127 1
862 1127 1
867 1127 1
887 1127 1
893 1127 1
1140 1127 1
1144 1127 1
1400 1127 1
1402 1127 1
852 1128 1
855 1128 1
863 1128 1
868 1128 1
888 1128 1
894 1128 1
1132 1128 1
1141 1128 1
1401 1128 1
1403 1128 1
853 1129 1
856 1129 1
864 1129 1
869 1129 1
889 1129 1
895 1129 1
1133 1129 1
1142 1129 1
1402 1129 1
1404 1129 1
854 1130 1
857 1130 1
865 1130 1
870 1130 1
890 1130 1
896 1130 1
1134 1130 1
1143 1130 1
1392 1130 1
1403 1130 1
855 1131 1
858 1131 1
866 1131 1
871 1131 1
891 1131 1
897 1131 1
1135 1131 1
1144 1131 1
1393 1131 1
1404 1131 1
846 1132 1
857 1132 1
872 1132 1
880 1132 1
898 1132 1
905 1132 1
1145 1132 1
1149 1132 1
1405 1132 1
1407 1132 1
847 1133 1
858 1133 1
873 1133 1
881 1133 1
899 1133 1
906 1133 1
1146 1133 1
1150 1133 1
1406 1133 1
1408 1133 1
846 1134 1
848 1134 1
874 1134 1
882 1134 1
900 1134 1
907 1134 1
1147 1134 1
1151 1134 1
1407 1134 1
1409 1134 1
847 1135 1
849 1135 1
875 1135 1
883 1135 1
901 1135 1
908 1135 1
1148 1135 1
1152 1135 1
1408 1135 1
1410 1135 1
848 1136 1
850 1136 1
876 1136 1
884 1136 1
902 1136 1
909 1136 1
1149 1136 1
1153 1136 1
1409 1136 1
1411 1136 1
849 1137 1
851 1137 1
872 1137 1
877 1137 1
903 1137 1
910 1137 1
1150 1137 1
1154 1137 1
1410 1137 1
1412 1137 1
850 1138 1
852 1138 1
873 1138 1
878 1138 1
898 1138 1
904 1138 1
1151 1138 1
1155 1138 1
1411 1138 1
1413 1138 1
851 1139 1
853 1139 1
874 1139 1
879 1139 1
899 1139 1
905 1139 1
1152 1139 1
1156 1139 1
1412 1139 1
1414 1139 1
852 1140 1
854 1140 1
875 1140 1
880 1140 1
900 1140 1
906 1140 1
1153 1140 1
1157 1140 1
1413 1140 1
1415 1140 1
853 1141 1
855 1141 1
876 1141 1
881 1141 1
901 1141 1
907 1141 1
1145 1141 1
1154 1141 1
1414 1141 1
1416 1141 1
854 1142 1
856 1142 1
877 1142 1
882 1142 1
902 1142 1
908 1142 1
1146 1142 1
1155 1142 1
1415 1142 1
1417 1142 1
855 1143 1
857 1143 1
878 1143 1
883 1143 1
903 1143 1
909 1143 1
1147 1143 1
1156 1143 1
1405 1143 1
1416 1143 1
856 1144 1
858 1144 1
879 1144 1
884 1144 1
904 1144 1
910 1144 1
1148 1144 1
1157 1144 1
1406 1144 1
1417 1144 1
859 1145 1
870 1145 1
872 1145 1
882 1145 1
911 1145 1
918 1145 1
1158 1145 1
1162 1145 1
1418 1145 1
1420 1145 1
860 1146 1
871 1146 1
873 1146 1
883 1146 1
912 1146 1
919 1146 1
1159 1146 1
1163 1146 1
1419 1146 1
1421 1146 1
859 1147 1
861 1147 1
874 1147 1
884 1147 1
913 1147 1
920 1147 1
1160 1147 1
1164 1147 1
1420 1147 1
1422 1147 1
860 1148 1
862 1148 1
872 1148 1
875 1148 1
914 1148 1
921 1148 1
1161 1148 1
1165 1148 1
1421 1148 1
1423 1148 1
861 1149 1
863 1149 1
873 1149 1
876 1149 1
915 1149 1
922 1149 1
1162 1149 1
1166 1149 1
1422 1149 1
1424 1149 1
862 1150 1
864 1150 1
874 1150 1
877 1150 1
916 1150 1
923 1150 1
1163 1150 1
1167 1150 1
1423 1150 1
1425 1150 1
863 1151 1
865 1151 1
875 1151 1
878 1151 1
911 1151 1
917 1151 1
1164 1151 1
1168 1151 1
1424 1151 1
1426 1151 1
864 1152 1
866 1152 1
876 1152 1
879 1152 1
912 1152 1
918 1152 1
1165 1152 1
1169 1152 1
1425 1152 1
1427 1152 1
865 1153 1
867 1153 1
877 1153 1
880 1153 1
913 1153 1
919 1153 1
1166 1153 1
1170 1153 1
1426 1153 1
1428 1153 1
866 1154 1
868 1154 1
878 1154 1
881 1154 1
914 1154 1
920 1154 1
1158 1154 1
1167 1154 1
1427 1154 1
1429 1154 1
867 1155 1
869 1155 1
879 1155 1
882 1155 1
915 1155 1
921 1155 1
1159 1155 1
1168 1155 1
1428 1155 1
1430 1155 1
868 1156 1
870 1156 1
880 1156 1
883 1156 1
916 1156 1
922 1156 1
1160 1156 1
1169 1156 1
1418 1156 1
1429 1156 1
869 1157 1
871 1157 1
881 1157 1
884 1157 1
917 1157 1
923 1157 1
1161 1157 1
1170 1157 1
1419 1157 1
1430 1157 1
885 1158 1
896 1158 1
898 1158 1
908 1158 1
911 1158 1
919 1158 1
1171 1158 1
1175 1158 1
1431 1158 1
1433 1158 1
886 1159 1
897 1159 1
899 1159 1
909 1159 1
912 1159 1
920 1159 1
1172 1159 1
1176 1159 1
1432 1159 1
1434 1159 1
885 1160 1
887 1160 1
900 1160 1
910 1160 1
913 1160 1
921 1160 1
1173 1160 1
1177 1160 1
1433 1160 1
1435 1160 1
886 1161 1
888 1161 1
898 1161 1
901 1161 1
914 1161 1
922 1161 1
1174 1161 1
1178 1161 1
1434 1161 1
1436 1161 1
887 1162 1
889 1162 1
899 1162 1
902 1162 1
915 1162 1
923 1162 1
1175 1162 1
1179 1162 1
1435 1162 1
1437 1162 1
888 1163 1
890 1163 1
900 1163 1
903 1163 1
911 1163 1
916 1163 1
1176 1163 1
1180 1163 1
1436 1163 1
1438 1163 1
889 1164 1
891 1164 1
901 1164 1
904 1164 1
912 1164 1
917 1164 1
1177 1164 1
1181 1164 1
1437 1164 1
1439 1164 1
890 1165 1
892 1165 1
902 1165 1
905 1165 1
913 1165 1
918 1165 1
1178 1165 1
1182 1165 1
1438 1165 1
1440 1165 1
891 1166 1
893 1166 1
903 1166 1
906 1166 1
914 1166 1
919 1166 1
1179 1166 1
1183 1166 1
1439 1166 1
1441 1166 1
892 1167 1
894 1167 1
904 1167 1
907 1167 1
915 1167 1
920 1167 1
1171 1167 1
1180 1167 1
1440 1167 1
1442 1167 1
893 1168 1
895 1168 1
905 1168 1
908 1168 1
916 1168 1
921 1168 1
1172 1168 1
1181 1168 1
1441 1168 1
1443 1168 1
894 1169 1
896 1169 1
906 1169 1
909 1169 1
917 1169 1
922 1169 1
1173 1169 1
1182 1169 1
1431 1169 1
1442 1169 1
895 1170 1
897 1170 1
907 1170 1
910 1170 1
918 1170 1
923 1170 1
1174 1170 1
1183 1170 1
1432 1170 1
1443 1170 1
924 1171 1
932 1171 1
937 1171 1
944 1171 1
976 1171 1
982 1171 1
1054 1171 1
1059 1171 1
1444 1171 1
1446 1171 1
925 1172 1
933 1172 1
938 1172 1
945 1172 1
977 1172 1
983 1172 1
1055 1172 1
1060 1172 1
1445 1172 1
1447 1172 1
926 1173 1
934 1173 1
939 1173 1
946 1173 1
978 1173 1
984 1173 1
1056 1173 1
1061 1173 1
1446 1173 1
1448 1173 1
927 1174 1
935 1174 1
940 1174 1
947 1174 1
979 1174 1
985 1174 1
1057 1174 1
1062 1174 1
1447 1174 1
1449 1174 1
928 1175 1
936 1175 1
941 1175 1
948 1175 1
980 1175 1
986 1175 1
1058 1175 1
1063 1175 1
1448 1175 1
1450 1175 1
924 1176 1
929 1176 1
942 1176 1
949 1176 1
981 1176 1
987 1176 1
1059 1176 1
1064 1176 1
1449 1176 1
1451 1176 1
925 1177 1
930 1177 1
937 1177 1
943 1177 1
982 1177 1
988 1177 1
1060 1177 1
1065 1177 1
1450 1177 1
1452 1177 1
926 1178 1
931 1178 1
938 1178 1
944 1178 1
976 1178 1
983 1178 1
1061 1178 1
1066 1178 1
1451 1178 1
1453 1178 1
927 1179 1
932 1179 1
939 1179 1
945 1179 1
977 1179 1
984 1179 1
1054 1179 1
1062 1179 1
1452 1179 1
1454 1179 1
928 1180 1
933 1180 1
940 1180 1
946 1180 1
978 1180 1
985 1180 1
1055 1180 1
1063 1180 1
1453 1180 1
1455 1180 1
929 1181 1
934 1181 1
941 1181 1
947 1181 1
979 1181 1
986 1181 1
1056 1181 1
1064 1181 1
1454 1181 1
1456 1181 1
930 1182 1
935 1182 1
942 1182 1
948 1182 1
980 1182 1
987 1182 1
1057 1182 1
1065 1182 1
1444 1182 1
1455 1182 1
931 1183 1
936 1183 1
943 1183 1
949 1183 1
981 1183 1
988 1183 1
1058 1183 1
1066 1183 1
1445 1183 1
1456 1183 1
924 1184 1
934 1184 1
950 1184 1
957 1184 1
989 1184 1
995 1184 1
1067 1184 1
1072 1184 1
1457 1184 1
1459 1184 1
925 1185 1
935 1185 1
951 1185 1
958 1185 1
990 1185 1
996 1185 1
1068 1185 1
1073 1185 1
1458 1185 1
1460 1185 1
926 1186 1
936 1186 1
952 1186 1
959 1186 1
991 1186 1
997 1186 1
1069 1186 1
1074 1186 1
1459 1186 1
1461 1186 1
924 1187 1
927 1187 1
953 1187 1
960 1187 1
992 1187 1
998 1187 1
1070 1187 1
1075 1187 1
1460 1187 1
1462 1187 1
925 1188 1
928 1188 1
954 1188 1
961 1188 1
993 1188 1
999 1188 1
1071 1188 1
1076 1188 1
1461 1188 1
1463 1188 1
926 1189 1
929 1189 1
955 1189 1
962 1189 1
994 1189 1
1000 1189 1
1072 1189 1
1077 1189 1
1462 1189 1
1464 1189 1
927 1190 1
930 1190 1
950 1190 1
956 1190 1
995 1190 1
1001 1190 1
1073 1190 1
1078 1190 1
1463 1190 1
1465 1190 1
928 1191 1
931 1191 1
951 1191 1
957 1191 1
989 1191 1
996 1191 1
1074 1191 1
1079 1191 1
1464 1191 1
1466 1191 1
929 1192 1
932 1192 1
952 1192 1
958 1192 1
990 1192 1
997 1192 1
1067 1192 1
1075 1192 1
1465 1192 1
1467 1192 1
930 1193 1
933 1193 1
953 1193 1
959 1193 1
991 1193 1
998 1193 1
1068 1193 1
1076 1193 1
1466 1193 1
1468 1193 1
931 1194 1
934 1194 1
954 1194 1
960 1194 1
992 1194 1
999 1194 1
1069 1194 1
1077 1194 1
1467 1194 1
1469 1194 1
932 1195 1
935 1195 1
955 1195 1
961 1195 1
993 1195 1
1000 1195 1
1070 1195 1
1078 1195 1
1457 1195 1
1468 1195 1
933 1196 1
936 1196 1
956 1196 1
962 1196 1
994 1196 1
1001 1196 1
1071 1196 1
1079 1196 1
1458 1196 1
1469 1196 1
924 1197 1
935 1197 1
963 1197 1
970 1197 1
1002 1197 1
1008 1197 1
1080 1197 1
1085 1197 1
1470 1197 1
1472 1197 1
925 1198 1
936 1198 1
964 1198 1
971 1198 1
1003 1198 1
1009 1198 1
1081 1198 1
1086 1198 1
1471 1198 1
1473 1198 1
924 1199 1
926 1199 1
965 1199 1
972 1199 1
1004 1199 1
1010 1199 1
1082 1199 1
1087 1199 1
1472 1199 1
1474 1199 1
925 1200 1
927 1200 1
966 1200 1
973 1200 1
1005 1200 1
1011 1200 1
1083 1200 1
1088 1200 1
1473 1200 1
1475 1200 1
926 1201 1
928 1201 1
967 1201 1
974 1201 1
1006 1201 1
1012 1201 1
1084 1201 1
1089 1201 1
1474 1201 1
1476 1201 1
927 1202 1
929 1202 1
968 1202 1
975 1202 1
1007 1202 1
1013 1202 1
1085 1202 1
1090 1202 1
1475 1202 1
1477 1202 1
928 1203 1
930 1203 1
963 1203 1
969 1203 1
1008 1203 1
1014 1203 1
1086 1203 1
1091 1203 1
1476 1203 1
1478 1203 1
929 1204 1
931 1204 1
964 1204 1
970 1204 1
1002 1204 1
1009 1204 1
1087 1204 1
1092 1204 1
1477 1204 1
1479 1204 1
930 1205 1
932 1205 1
965 1205 1
971 1205 1
1003 1205 1
1010 1205 1
1080 1205 1
1088 1205 1
1478 1205 1
1480 1205 1
931 1206 1
933 1206 1
966 1206 1
972 1206 1
1004 1206 1
1011 1206 1
1081 1206 1
1089 1206 1
1479 1206 1
1481 1206 1
932 1207 1
934 1207 1
967 1207 1
973 1207 1
1005 1207 1
1012 1207 1
1082 1207 1
1090 1207 1
1480 1207 1
1482 1207 1
933 1208 1
935 1208 1
968 1208 1
974 1208 1
1006 1208 1
1013 1208 1
1083 1208 1
1091 1208 1
1470 1208 1
1481 1208 1
934 1209 1
936 1209 1
969 1209 1
975 1209 1
1007 1209 1
1014 1209 1
1084 1209 1
1092 1209 1
1471 1209 1
1482 1209 1
937 1210 1
947 1210 1
950 1210 1
958 1210 1
1015 1210 1
1021 1210 1
1093 1210 1
1098 1210 1
1483 1210 1
1485 1210 1
938 1211 1
948 1211 1
951 1211 1
959 1211 1
1016 1211 1
1022 1211 1
1094 1211 1
1099 1211 1
1484 1211 1
1486 1211 1
939 1212 1
949 1212 1
952 1212 1
960 1212 1
1017 1212 1
1023 1212 1
1095 1212 1
1100 1212 1
1485 1212 1
1487 1212 1
937 1213 1
940 1213 1
953 1213 1
961 1213 1
1018 1213 1
1024 1213 1
1096 1213 1
1101 1213 1
1486 1213 1
1488 1213 1
938 1214 1
941 1214 1
954 1214 1
962 1214 1
1019 1214 1
1025 1214 1
1097 1214 1
1102 1214 1
1487 1214 1
1489 1214 1
939 1215 1
942 1215 1
950 1215 1
955 1215 1
1020 1215 1
1026 1215 1
1098 1215 1
1103 1215 1
1488 1215 1
1490 1215 1
940 1216 1
943 1216 1
951 1216 1
956 1216 1
1021 1216 1
1027 1216 1
1099 1216 1
1104 1216 1
1489 1216 1
1491 1216 1
941 1217 1
944 1217 1
952 1217 1
957 1217 1
1015 1217 1
1022 1217 1
1100 1217 1
1105 1217 1
1490 1217 1
1492 1217 1
942 1218 1
945 1218 1
953 1218 1
958 1218 1
1016 1218 1
1023 1218 1
1093 1218 1
1101 1218 1
1491 1218 1
1493 1218 1
943 1219 1
946 1219 1
954 1219 1
959 1219 1
1017 1219 1
1024 1219 1
1094 1219 1
1102 1219 1
1492 1219 1
1494 1219 1
944 1220 1
947 1220 1
955 1220 1
960 1220 1
1018 1220 1
1025 1220 1
1095 1220 1
1103 1220 1
1493 1220 1
1495 1220 1
945 1221 1
948 1221 1
956 1221 1
961 1221 1
1019 1221 1
1026 1221 1
1096 1221 1
1104 1221 1
1483 1221 1
1494 1221 1
946 1222 1
949 1222 1
957 1222 1
962 1222 1
1020 1222 1
1027 1222 1
1097 1222 1
1105 1222 1
1484 1222 1
1495 1222 1
937 1223 1
948 1223 1
963 1223 1
971 1223 1
1028 1223 1
1034 1223 1
1106 1223 1
1111 1223 1
1496 1223 1
1498 1223 1
938 1224 1
949 1224 1
964 1224 1
972 1224 1
1029 1224 1
1035 1224 1
1107 1224 1
1112 1224 1
1497 1224 1
1499 1224 1
937 1225 1
939 1225 1
965 1225 1
973 1225 1
1030 1225 1
1036 1225 1
1108 1225 1
1113 1225 1
1498 1225 1
1500 1225 1
938 1226 1
940 1226 1
966 1226 1
974 1226 1
1031 1226 1
1037 1226 1
1109 1226 1
1114 1226 1
1499 1226 1
1501 1226 1
939 1227 1
941 1227 1
967 1227 1
975 1227 1
1032 1227 1
1038 1227 1
1110 1227 1
1115 1227 1
1500 1227 1
1502 1227 1
940 1228 1
942 1228 1
963 1228 1
968 1228 1
1033 1228 1
1039 1228 1
1111 1228 1
1116 1228 1
1501 1228 1
1503 1228 1
941 1229 1
943 1229 1
964 1229 1
969 1229 1
1034 1229 1
1040 1229 1
1112 1229 1
1117 1229 1
1502 1229 1
1504 1229 1
942 1230 1
944 1230 1
965 1230 1
970 1230 1
1028 1230 1
1035 1230 1
1113 1230 1
1118 1230 1
1503 1230 1
1505 1230 1
943 1231 1
945 1231 1
966 1231 1
971 1231 1
1029 1231 1
1036 1231 1
1106 1231 1
1114 1231 1
1504 1231 1
1506 1231 1
944 1232 1
946 1232 1
967 1232 1
972 1232 1
1030 1232 1
1037 1232 1
1107 1232 1
1115 1232 1
1505 1232 1
1507 1232 1
945 1233 1
947 1233 1
968 1233 1
973 1233 1
1031 1233 1
1038 1233 1
1108 1233 1
1116 1233 1
1506 1233 1
1508 1233 1
946 1234 1
948 1234 1
969 1234 1
974 1234 1
1032 1234 1
1039 1234 1
1109 1234 1
1117 1234 1
1496 1234 1
1507 1234 1
947 1235 1
949 1235 1
970 1235 1
975 1235 1
1033 1235 1
1040 1235 1
1110 1235 1
1118 1235 1
1497 1235 1
1508 1235 1
950 1236 1
961 1236 1
963 1236 1
973 1236 1
1041 1236 1
1047 1236 1
1119 1236 1
1124 1236 1
1509 1236 1
1511 1236 1
951 1237 1
962 1237 1
964 1237 1
974 1237 1
1042 1237 1
1048 1237 1
1120 1237 1
1125 1237 1
1510 1237 1
1512 1237 1
950 1238 1
952 1238 1
965 1238 1
975 1238 1
1043 1238 1
1049 1238 1
1121 1238 1
1126 1238 1
1511 1238 1
1513 1238 1
951 1239 1
953 1239 1
963 1239 1
966 1239 1
1044 1239 1
1050 1239 1
1122 1239 1
1127 1239 1
1512 1239 1
1514 1239 1
952 1240 1
954 1240 1
964 1240 1
967 1240 1
1045 1240 1
1051 1240 1
1123 1240 1
1128 1240 1
1513 1240 1
1515 1240 1
953 1241 1
955 1241 1
965 1241 1
968 1241 1
1046 1241 1
1052 1241 1
1124 1241 1
1129 1241 1
1514 1241 1
1516 1241 1
954 1242 1
956 1242 1
966 1242 1
969 1242 1
1047 1242 1
1053 1242 1
1125 1242 1
1130 1242 1
1515 1242 1
1517 1242 1
955 1243 1
957 1243 1
967 1243 1
970 1243 1
1041 1243 1
1048 1243 1
1126 1243 1
1131 1243 1
1516 1243 1
1518 1243 1
956 1244 1
958 1244 1
968 1244 1
971 1244 1
1042 1244 1
1049 1244 1
1119 1244 1
1127 1244 1
1517 1244 1
1519 1244 1
957 1245 1
959 1245 1
969 1245 1
972 1245 1
1043 1245 1
1050 1245 1
1120 1245 1
1128 1245 1
1518 1245 1
1520 1245 1
958 1246 1
960 1246 1
970 1246 1
973 1246 1
1044 1246 1
1051 1246 1
1121 1246 1
1129 1246 1
1519 1246 1
1521 1246 1
959 1247 1
961 1247 1
971 1247 1
974 1247 1
1045 1247 1
1052 1247 1
1122 1247 1
1130 1247 1
1509 1247 1
1520 1247 1
960 1248 1
962 1248 1
972 1248 1
975 1248 1
1046 1248 1
1053 1248 1
1123 1248 1
1131 1248 1
1510 1248 1
1521 1248 1
976 1249 1
986 1249 1
989 1249 1
997 1249 1
1015 1249 1
1022 1249 1
1132 1249 1
1137 1249 1
1522 1249 1
1524 1249 1
977 1250 1
987 1250 1
990 1250 1
998 1250 1
1016 1250 1
1023 1250 1
1133 1250 1
1138 1250 1
1523 1250 1
1525 1250 1
978 1251 1
988 1251 1
991 1251 1
999 1251 1
1017 1251 1
1024 1251 1
1134 1251 1
1139 1251 1
1524 1251 1
1526 1251 1
976 1252 1
979 1252 1
992 1252 1
1000 1252 1
1018 1252 1
1025 1252 1
1135 1252 1
1140 1252 1
1525 1252 1
1527 1252 1
977 1253 1
980 1253 1
993 1253 1
1001 1253 1
1019 1253 1
1026 1253 1
1136 1253 1
1141 1253 1
1526 1253 1
1528 1253 1
978 1254 1
981 1254 1
989 1254 1
994 1254 1
1020 1254 1
1027 1254 1
1137 1254 1
1142 1254 1
1527 1254 1
1529 1254 1
979 1255 1
982 1255 1
990 1255 1
995 1255 1
1015 1255 1
1021 1255 1
1138 1255 1
1143 1255 1
1528 1255 1
1530 1255 1
980 1256 1
983 1256 1
991 1256 1
996 1256 1
1016 1256 1
1022 1256 1
1139 1256 1
1144 1256 1
1529 1256 1
1531 1256 1
981 1257 1
984 1257 1
992 1257 1
997 1257 1
1017 1257 1
1023 1257 1
1132 1257 1
1140 1257 1
1530 1257 1
1532 1257 1
982 1258 1
985 1258 1
993 1258 1
998 1258 1
1018 1258 1
1024 1258 1
1133 1258 1
1141 1258 1
1531 1258 1
1533 1258 1
983 1259 1
986 1259 1
994 1259 1
999 1259 1
1019 1259 1
1025 1259 1
1134 1259 1
1142 1259 1
1532 1259 1
1534 1259 1
984 1260 1
987 1260 1
995 1260 1
1000 1260 1
1020 1260 1
1026 1260 1
1135 1260 1
1143 1260 1
1522 1260 1
1533 1260 1
985 1261 1
988 1261 1
996 1261 1
1001 1261 1
1021 1261 1
1027 1261 1
1136 1261 1
1144 1261 1
1523 1261 1
1534 1261 1
976 1262 1
987 1262 1
1002 1262 1
1010 1262 1
1028 1262 1
1035 1262 1
1145 1262 1
1150 1262 1
1535 1262 1
1537 1262 1
977 1263 1
988 1263 1
1003 1263 1
1011 1263 1
1029 1263 1
1036 1263 1
1146 1263 1
1151 1263 1
1536 1263 1
1538 1263 1
976 1264 1
978 1264 1
1004 1264 1
1012 1264 1
1030 1264 1
1037 1264 1
1147 1264 1
1152 1264 1
1537 1264 1
1539 1264 1
977 1265 1
979 1265 1
1005 1265 1
1013 1265 1
1031 1265 1
1038 1265 1
1148 1265 1
1153 1265 1
1538 1265 1
1540 1265 1
978 1266 1
980 1266 1
1006 1266 1
1014 1266 1
1032 1266 1
1039 1266 1
1149 1266 1
1154 1266 1
1539 1266 1
1541 1266 1
979 1267 1
981 1267 1
1002 1267 1
1007 1267 1
1033 1267 1
1040 1267 1
1150 1267 1
1155 1267 1
1540 1267 1
1542 1267 1
980 1268 1
982 1268 1
1003 1268 1
1008 1268 1
1028 1268 1
1034 1268 1
1151 1268 1
1156 1268 1
1541 1268 1
1543 1268 1
981 1269 1
983 1269 1
1004 1269 1
1009 1269 1
1029 1269 1
1035 1269 1
1152 1269 1
1157 1269 1
1542 1269 1
1544 1269 1
982 1270 1
984 1270 1
1005 1270 1
1010 1270 1
1030 1270 1
1036 1270 1
1145 1270 1
1153 1270 1
1543 1270 1
1545 1270 1
983 1271 1
985 1271 1
1006 1271 1
1011 1271 1
1031 1271 1
1037 1271 1
1146 1271 1
1154 1271 1
1544 1271 1
1546 1271 1
984 1272 1
986 1272 1
1007 1272 1
1012 1272 1
1032 1272 1
1038 1272 1
1147 1272 1
1155 1272 1
1545 1272 1
1547 1272 1
985 1273 1
987 1273 1
1008 1273 1
1013 1273 1
1033 1273 1
1039 1273 1
1148 1273 1
1156 1273 1
1535 1273 1
1546 1273 1
986 1274 1
988 1274 1
1009 1274 1
1014 1274 1
1034 1274 1
1040 1274 1
1149 1274 1
1157 1274 1
1536 1274 1
1547 1274 1
989 1275 1
1000 1275 1
1002 1275 1
1012 1275 1
1041 1275 1
1048 1275 1
1158 1275 1
1163 1275 1
1548 1275 1
1550 1275 1
990 1276 1
1001 1276 1
1003 1276 1
1013 1276 1
1042 1276 1
1049 1276 1
1159 1276 1
1164 1276 1
1549 1276 1
1551 1276 1
989 1277 1
991 1277 1
1004 1277 1
1014 1277 1
1043 1277 1
1050 1277 1
1160 1277 1
1165 1277 1
1550 1277 1
1552 1277 1
990 1278 1
992 1278 1
1002 1278 1
1005 1278 1
1044 1278 1
1051 1278 1
1161 1278 1
1166 1278 1
1551 1278 1
1553 1278 1
991 1279 1
993 1279 1
1003 1279 1
1006 1279 1
1045 1279 1
1052 1279 1
1162 1279 1
1167 1279 1
1552 1279 1
1554 1279 1
992 1280 1
994 1280 1
1004 1280 1
1007 1280 1
1046 1280 1
1053 1280 1
1163 1280 1
1168 1280 1
1553 1280 1
1555 1280 1
993 1281 1
995 1281 1
1005 1281 1
1008 1281 1
1041 1281 1
1047 1281 1
1164 1281 1
1169 1281 1
1554 1281 1
1556 1281 1
994 1282 1
996 1282 1
1006 1282 1
1009 1282 1
1042 1282 1
1048 1282 1
1165 1282 1
1170 1282 1
1555 1282 1
1557 1282 1
995 1283 1
997 1283 1
1007 1283 1
1010 1283 1
1043 1283 1
1049 1283 1
1158 1283 1
1166 1283 1
1556 1283 1
1558 1283 1
996 1284 1
998 1284 1
1008 1284 1
1011 1284 1
1044 1284 1
1050 1284 1
1159 1284 1
1167 1284 1
1557 1284 1
1559 1284 1
997 1285 1
999 1285 1
1009 1285 1
1012 1285 1
1045 1285 1
1051 1285 1
1160 1285 1
1168 1285 1
1558 1285 1
1560 1285 1
998 1286 1
1000 1286 1
1010 1286 1
1013 1286 1
1046 1286 1
1052 1286 1
1161 1286 1
1169 1286 1
1548 1286 1
1559 1286 1
999 1287 1
1001 1287 1
1011 1287 1
1014 1287 1
1047 1287 1
1053 1287 1
1162 1287 1
1170 1287 1
1549 1287 1
1560 1287 1
1015 1288 1
1026 1288 1
1028 1288 1
1038 1288 1
1041 1288 1
1049 1288 1
1171 1288 1
1176 1288 1
1561 1288 1
1563 1288 1
1016 1289 1
1027 1289 1
1029 1289 1
1039 1289 1
1042 1289 1
1050 1289 1
1172 1289 1
1177 1289 1
1562 1289 1
1564 1289 1
1015 1290 1
1017 1290 1
1030 1290 1
1040 1290 1
1043 1290 1
1051 1290 1
1173 1290 1
1178 1290 1
1563 1290 1
1565 1290 1
1016 1291 1
1018 1291 1
1028 1291 1
1031 1291 1
1044 1291 1
1052 1291 1
1174 1291 1
1179 1291 1
1564 1291 1
1566 1291 1
1017 1292 1
1019 1292 1
1029 1292 1
1032 1292 1
1045 1292 1
1053 1292 1
1175 1292 1
1180 1292 1
1565 1292 1
1567 1292 1
1018 1293 1
1020 1293 1
1030 1293 1
1033 1293 1
1041 1293 1
1046 1293 1
1176 1293 1
1181 1293 1
1566 1293 1
1568 1293 1
1019 1294 1
1021 1294 1
1031 1294 1
1034 1294 1
1042 1294 1
1047 1294 1
1177 1294 1
1182 1294 1
1567 1294 1
1569 1294 1
1020 1295 1
1022 1295 1
1032 1295 1
1035 1295 1
1043 1295 1
1048 1295 1
1178 1295 1
1183 1295 1
1568 1295 1
1570 1295 1
1021 1296 1
1023 1296 1
1033 1296 1
1036 1296 1
1044 1296 1
1049 1296 1
1171 1296 1
1179 1296 1
1569 1296 1
1571 1296 1
1022 1297 1
1024 1297 1
1034 1297 1
1037 1297 1
1045 1297 1
1050 1297 1
1172 1297 1
1180 1297 1
1570 1297 1
1572 1297 1
1023 1298 1
1025 1298 1
1035 1298 1
1038 1298 1
1046 1298 1
1051 1298 1
1173 1298 1
1181 1298 1
1571 1298 1
1573 1298 1
1024 1299 1
1026 1299 1
1036 1299 1
1039 1299 1
1047 1299 1
1052 1299 1
1174 1299 1
1182 1299 1
1561 1299 1
1572 1299 1
1025 1300 1
1027 1300 1
1037 1300 1
1040 1300 1
1048 1300 1
1053 1300 1
1175 1300 1
1183 1300 1
1562 1300 1
1573 1300 1
1054 1301 1
1064 1301 1
1067 1301 1
1075 1301 1
1093 1301 1
1100 1301 1
1132 1301 1
1138 1301 1
1574 1301 1
1576 1301 1
1055 1302 1
1065 1302 1
1068 1302 1
1076 1302 1
1094 1302 1
1101 1302 1
1133 1302 1
1139 1302 1
1575 1302 1
1577 1302 1
1056 1303 1
1066 1303 1
1069 1303 1
1077 1303 1
1095 1303 1
1102 1303 1
1134 1303 1
1140 1303 1
1576 1303 1
1578 1303 1
1054 1304 1
1057 1304 1
1070 1304 1
1078 1304 1
1096 1304 1
1103 1304 1
1135 1304 1
1141 1304 1
1577 1304 1
1579 1304 1
1055 1305 1
1058 1305 1
1071 1305 1
1079 1305 1
1097 1305 1
1104 1305 1
1136 1305 1
1142 1305 1
1578 1305 1
1580 1305 1
1056 1306 1
1059 1306 1
1067 1306 1
1072 1306 1
1098 1306 1
1105 1306 1
1137 1306 1
1143 1306 1
1579 1306 1
1581 1306 1
1057 1307 1
1060 1307 1
1068 1307 1
1073 1307 1
1093 1307 1
1099 1307 1
1138 1307 1
1144 1307 1
1580 1307 1
1582 1307 1
1058 1308 1
1061 1308 1
1069 1308 1
1074 1308 1
1094 1308 1
1100 1308 1
1132 1308 1
1139 1308 1
1581 1308 1
1583 1308 1
1059 1309 1
1062 1309 1
1070 1309 1
1075 1309 1
1095 1309 1
1101 1309 1
1133 1309 1
1140 1309 1
1582 1309 1
1584 1309 1
1060 1310 1
1063 1310 1
1071 1310 1
1076 1310 1
1096 1310 1
1102 1310 1
1134 1310 1
1141 1310 1
1583 1310 1
1585 1310 1
1061 1311 1
1064 1311 1
1072 1311 1
1077 1311 1
1097 1311 1
1103 1311 1
1135 1311 1
1142 1311 1
1584 1311 1
1586 1311 1
1062 1312 1
1065 1312 1
1073 1312 1
1078 1312 1
1098 1312 1
1104 1312 1
1136 1312 1
1143 1312 1
1574 1312 1
1585 1312 1
1063 1313 1
1066 1313 1
1074 1313 1
1079 1313 1
1099 1313 1
1105 1313 1
1137 1313 1
1144 1313 1
1575 1313 1
1586 1313 1
1054 1314 1
1065 1314 1
1080 1314 1
1088 1314 1
1106 1314 1
1113 1314 1
1145 1314 1
1151 1314 1
1587 1314 1
1589 1314 1
1055 1315 1
1066 1315 1
1081 1315 1
1089 1315 1
1107 1315 1
1114 1315 1
1146 1315 1
1152 1315 1
1588 1315 1
1590 1315 1
1054 1316 1
1056 1316 1
1082 1316 1
1090 1316 1
1108 1316 1
1115 1316 1
1147 1316 1
1153 1316 1
1589 1316 1
1591 1316 1
1055 1317 1
1057 1317 1
1083 1317 1
1091 1317 1
1109 1317 1
1116 1317 1
1148 1317 1
1154 1317 1
1590 1317 1
1592 1317 1
1056 1318 1
1058 1318 1
1084 1318 1
1092 1318 1
1110 1318 1
1117 1318 1
1149 1318 1
1155 1318 1
1591 1318 1
1593 1318 1
1057 1319 1
1059 1319 1
1080 1319 1
1085 1319 1
1111 1319 1
1118 1319 1
1150 1319 1
1156 1319 1
1592 1319 1
1594 1319 1
1058 1320 1
1060 1320 1
1081 1320 1
1086 1320 1
1106 1320 1
1112 1320 1
1151 1320 1
1157 1320 1
1593 1320 1
1595 1320 1
1059 1321 1
1061 1321 1
1082 1321 1
1087 1321 1
1107 1321 1
1113 1321 1
1145 1321 1
1152 1321 1
1594 1321 1
1596 1321 1
1060 1322 1
1062 1322 1
1083 1322 1
1088 1322 1
1108 1322 1
1114 1322 1
1146 1322 1
1153 1322 1
1595 1322 1
1597 1322 1
1061 1323 1
1063 1323 1
1084 1323 1
1089 1323 1
1109 1323 1
1115 1323 1
1147 1323 1
1154 1323 1
1596 1323 1
1598 1323 1
1062 1324 1
1064 1324 1
1085 1324 1
1090 1324 1
1110 1324 1
1116 1324 1
1148 1324 1
1155 1324 1
1597 1324 1
1599 1324 1
1063 1325 1
1065 1325 1
1086 1325 1
1091 1325 1
1111 1325 1
1117 1325 1
1149 1325 1
1156 1325 1
1587 1325 1
1598 1325 1
1064 1326 1
1066 1326 1
1087 1326 1
1092 1326 1
1112 1326 1
1118 1326 1
1150 1326 1
1157 1326 1
1588 1326 1
1599 1326 1
1067 1327 1
1078 1327 1
1080 1327 1
1090 1327 1
1119 1327 1
1126 1327 1
1158 1327 1
1164 1327 1
1600 1327 1
1602 1327 1
1068 1328 1
1079 1328 1
1081 1328 1
1091 1328 1
1120 1328 1
1127 1328 1
1159 1328 1
1165 1328 1
1601 1328 1
1603 1328 1
1067 1329 1
1069 1329 1
1082 1329 1
1092 1329 1
1121 1329 1
1128 1329 1
1160 1329 1
1166 1329 1
1602 1329 1
1604 1329 1
1068 1330 1
1070 1330 1
1080 1330 1
1083 1330 1
1122 1330 1
1129 1330 1
1161 1330 1
1167 1330 1
1603 1330 1
1605 1330 1
1069 1331 1
1071 1331 1
1081 1331 1
1084 1331 1
1123 1331 1
1130 1331 1
1162 1331 1
1168 1331 1
1604 1331 1
1606 1331 1
1070 1332 1
1072 1332 1
1082 1332 1
1085 1332 1
1124 1332 1
1131 1332 1
1163 1332 1
1169 1332 1
1605 1332 1
1607 1332 1
1071 1333 1
1073 1333 1
1083 1333 1
1086 1333 1
1119 1333 1
1125 1333 1
1164 1333 1
1170 1333 1
1606 1333 1
1608 1333 1
1072 1334 1
1074 1334 1
1084 1334 1
1087 1334 1
1120 1334 1
1126 1334 1
1158 1334 1
1165 1334 1
1607 1334 1
1609 1334 1
1073 1335 1
1075 1335 1
1085 1335 1
1088 1335 1
1121 1335 1
1127 1335 1
1159 1335 1
1166 1335 1
1608 1335 1
1610 1335 1
1074 1336 1
1076 1336 1
1086 1336 1
1089 1336 1
1122 1336 1
1128 1336 1
1160 1336 1
1167 1336 1
1609 1336 1
1611 1336 1
1075 1337 1
1077 1337 1
1087 1337 1
1090 1337 1
1123 1337 1
1129 1337 1
1161 1337 1
1168 1337 1
1610 1337 1
1612 1337 1
1076 1338 1
1078 1338 1
1088 1338 1
1091 1338 1
1124 1338 1
1130 1338 1
1162 1338 1
1169 1338 1
1600 1338 1
1611 1338 1
1077 1339 1
1079 1339 1
1089 1339 1
1092 1339 1
1125 1339 1
1131 1339 1
1163 1339 1
1170 1339 1
1601 1339 1
1612 1339 1
1093 1340 1
1104 1340 1
1106 1340 1
1116 1340 1
1119 1340 1
1127 1340 1
1171 1340 1
1177 1340 1
1613 1340 1
1615 1340 1
1094 1341 1
1105 1341 1
1107 1341 1
1117 1341 1
1120 1341 1
1128 1341 1
1172 1341 1
1178 1341 1
1614 1341 1
1616 1341 1
1093 1342 1
1095 1342 1
1108 1342 1
1118 1342 1
1121 1342 1
1129 1342 1
1173 1342 1
1179 1342 1
1615 1342 1
1617 1342 1
1094 1343 1
1096 1343 1
1106 1343 1
1109 1343 1
1122 1343 1
1130 1343 1
1174 1343 1
1180 1343 1
1616 1343 1
1618 1343 1
1095 1344 1
1097 1344 1
1107 1344 1
1110 1344 1
1123 1344 1
1131 1344 1
1175 1344 1
1181 1344 1
1617 1344 1
1619 1344 1
1096 1345 1
1098 1345 1
1108 1345 1
1111 1345 1
1119 1345 1
1124 1345 1
1176 1345 1
1182 1345 1
1618 1345 1
1620 1345 1
1097 1346 1
1099 1346 1
1109 1346 1
1112 1346 1
1120 1346 1
1125 1346 1
1177 1346 1
1183 1346 1
1619 1346 1
1621 1346 1
1098 1347 1
1100 1347 1
1110 1347 1
1113 1347 1
1121 1347 1
1126 1347 1
1171 1347 1
1178 1347 1
1620 1347 1
1622 1347 1
1099 1348 1
1101 1348 1
1111 1348 1
1114 1348 1
1122 1348 1
1127 1348 1
1172 1348 1
1179 1348 1
1621 1348 1
1623 1348 1
1100 1349 1
1102 1349 1
1112 1349 1
1115 1349 1
1123 1349 1
1128 1349 1
1173 1349 1
1180 1349 1
1622 1349 1
1624 1349 1
1101 1350 1
1103 1350 1
1113 1350 1
1116 1350 1
1124 1350 1
1129 1350 1
1174 1350 1
1181 1350 1
1623 1350 1
1625 1350 1
1102 1351 1
1104 1351 1
1114 1351 1
1117 1351 1
1125 1351 1
1130 1351 1
1175 1351 1
1182 1351 1
1613 1351 1
1624 1351 1
1103 1352 1
1105 1352 1
1115 1352 1
1118 1352 1
1126 1352 1
1131 1352 1
1176 1352 1
1183 1352 1
1614 1352 1
1625 1352 1
1132 1353 1
1143 1353 1
1145 1353 1
1155 1353 1
1158 1353 1
1166 1353 1
1171 1353 1
1178 1353 1
1626 1353 1
1628 1353 1
1133 1354 1
1144 1354 1
1146 1354 1
1156 1354 1
1159 1354 1
1167 1354 1
1172 1354 1
1179 1354 1
1627 1354 1
1629 1354 1
1132 1355 1
1134 1355 1
1147 1355 1
1157 1355 1
1160 1355 1
1168 1355 1
1173 1355 1
1180 1355 1
1628 1355 1
1630 1355 1
1133 1356 1
1135 1356 1
1145 1356 1
1148 1356 1
1161 1356 1
1169 1356 1
1174 1356 1
1181 1356 1
1629 1356 1
1631 1356 1
1134 1357 1
1136 1357 1
1146 1357 1
1149 1357 1
1162 1357 1
1170 1357 1
1175 1357 1
1182 1357 1
1630 1357 1
1632 1357 1
1135 1358 1
1137 1358 1
1147 1358 1
1150 1358 1
1158 1358 1
1163 1358 1
1176 1358 1
1183 1358 1
1631 1358 1
1633 1358 1
1136 1359 1
1138 1359 1
1148 1359 1
1151 1359 1
1159 1359 1
1164 1359 1
1171 1359 1
1177 1359 1
1632 1359 1
1634 1359 1
1137 1360 1
1139 1360 1
1149 1360 1
1152 1360 1
1160 1360 1
1165 1360 1
1172 1360 1
1178 1360 1
1633 1360 1
1635 1360 1
1138 1361 1
1140 1361 1
1150 1361 1
1153 1361 1
1161 1361 1
1166 1361 1
1173 1361 1
1179 1361 1
1634 1361 1
1636 1361 1
1139 1362 1
1141 1362 1
1151 1362 1
1154 1362 1
1162 1362 1
1167 1362 1
1174 1362 1
1180 1362 1
1635 1362 1
1637 1362 1
1140 1363 1
1142 1363 1
1152 1363 1
1155 1363 1
1163 1363 1
1168 1363 1
1175 1363 1
1181 1363 1
1636 1363 1
1638 1363 1
1141 1364 1
1143 1364 1
1153 1364 1
1156 1364 1
1164 1364 1
1169 1364 1
1176 1364 1
1182 1364 1
1626 1364 1
1637 1364 1
1142 1365 1
1144 1365 1
1154 1365 1
1157 1365 1
1165 1365 1
1170 1365 1
1177 1365 1
1183 1365 1
1627 1365 1
1638 1365 1
1184 1366 1
1192 1366 1
1197 1366 1
1204 1366 1
1236 1366 1
1242 1366 1
1314 1366 1
1319 1366 1
1444 1366 1
1448 1366 1
1185 1367 1
1193 1367 1
1198 1367 1
1205 1367 1
1237 1367 1
1243 1367 1
1315 1367 1
1320 1367 1
1445 1367 1
1449 1367 1
1186 1368 1
1194 1368 1
1199 1368 1
1206 1368 1
1238 1368 1
1244 1368 1
1316 1368 1
1321 1368 1
1446 1368 1
1450 1368 1
1187 1369 1
1195 1369 1
1200 1369 1
1207 1369 1
1239 1369 1
1245 1369 1
1317 1369 1
1322 1369 1
1447 1369 1
1451 1369 1
1188 1370 1
1196 1370 1
1201 1370 1
1208 1370 1
1240 1370 1
1246 1370 1
1318 1370 1
1323 1370 1
1448 1370 1
1452 1370 1
1184 1371 1
1189 1371 1
1202 1371 1
1209 1371 1
1241 1371 1
1247 1371 1
1319 1371 1
1324 1371 1
1449 1371 1
1453 1371 1
1185 1372 1
1190 1372 1
1197 1372 1
1203 1372 1
1242 1372 1
1248 1372 1
1320 1372 1
1325 1372 1
1450 1372 1
1454 1372 1
1186 1373 1
1191 1373 1
1198 1373 1
1204 1373 1
1236 1373 1
1243 1373 1
1321 1373 1
1326 1373 1
1451 1373 1
1455 1373 1
1187 1374 1
1192 1374 1
1199 1374 1
1205 1374 1
1237 1374 1
1244 1374 1
1314 1374 1
1322 1374 1
1452 1374 1
1456 1374 1
1188 1375 1
1193 1375 1
1200 1375 1
1206 1375 1
1238 1375 1
1245 1375 1
1315 1375 1
1323 1375 1
1444 1375 1
1453 1375 1
1189 1376 1
1194 1376 1
1201 1376 1
1207 1376 1
1239 1376 1
1246 1376 1
1316 1376 1
1324 1376 1
1445 1376 1
1454 1376 1
1190 1377 1
1195 1377 1
1202 1377 1
1208 1377 1
1240 1377 1
1247 1377 1
1317 1377 1
1325 1377 1
1446 1377 1
1455 1377 1
1191 1378 1
1196 1378 1
1203 1378 1
1209 1378 1
1241 1378 1
1248 1378 1
1318 1378 1
1326 1378 1
1447 1378 1
1456 1378 1
1184 1379 1
1194 1379 1
1210 1379 1
1217 1379 1
1249 1379 1
1255 1379 1
1327 1379 1
1332 1379 1
1457 1379 1
1461 1379 1
1185 1380 1
1195 1380 1
1211 1380 1
1218 1380 1
1250 1380 1
1256 1380 1
1328 1380 1
1333 1380 1
1458 1380 1
1462 1380 1
1186 1381 1
1196 1381 1
1212 1381 1
1219 1381 1
1251 1381 1
1257 1381 1
1329 1381 1
1334 1381 1
1459 1381 1
1463 1381 1
1184 1382 1
1187 1382 1
1213 1382 1
1220 1382 1
1252 1382 1
1258 1382 1
1330 1382 1
1335 1382 1
1460 1382 1
1464 1382 1
1185 1383 1
1188 1383 1
1214 1383 1
1221 1383 1
1253 1383 1
1259 1383 1
1331 1383 1
1336 1383 1
1461 1383 1
1465 1383 1
1186 1384 1
1189 1384 1
1215 1384 1
1222 1384 1
1254 1384 1
1260 1384 1
1332 1384 1
1337 1384 1
1462 1384 1
1466 1384 1
1187 1385 1
1190 1385 1
1210 1385 1
1216 1385 1
1255 1385 1
1261 1385 1
1333 1385 1
1338 1385 1
1463 1385 1
1467 1385 1
1188 1386 1
1191 1386 1
1211 1386 1
1217 1386 1
1249 1386 1
1256 1386 1
1334 1386 1
1339 1386 1
1464 1386 1
1468 1386 1
1189 1387 1
1192 1387 1
1212 1387 1
1218 1387 1
1250 1387 1
1257 1387 1
1327 1387 1
1335 1387 1
1465 1387 1
1469 1387 1
1190 1388 1
1193 1388 1
1213 1388 1
1219 1388 1
1251 1388 1
1258 1388 1
1328 1388 1
1336 1388 1
1457 1388 1
1466 1388 1
1191 1389 1
1194 1389 1
1214 1389 1
1220 1389 1
1252 1389 1
1259 1389 1
1329 1389 1
1337 1389 1
1458 1389 1
1467 1389 1
1192 1390 1
1195 1390 1
1215 1390 1
1221 1390 1
1253 1390 1
1260 1390 1
1330 1390 1
1338 1390 1
1459 1390 1
1468 1390 1
1193 1391 1
1196 1391 1
1216 1391 1
1222 1391 1
1254 1391 1
1261 1391 1
1331 1391 1
1339 1391 1
1460 1391 1
1469 1391 1
1184 1392 1
1195 1392 1
1223 1392 1
1230 1392 1
1262 1392 1
1268 1392 1
1340 1392 1
1345 1392 1
1470 1392 1
1474 1392 1
1185 1393 1
1196 1393 1
1224 1393 1
1231 1393 1
1263 1393 1
1269 1393 1
1341 1393 1
1346 1393 1
1471 1393 1
1475 1393 1
1184 1394 1
1186 1394 1
1225 1394 1
1232 1394 1
1264 1394 1
1270 1394 1
1342 1394 1
1347 1394 1
1472 1394 1
1476 1394 1
1185 1395 1
1187 1395 1
1226 1395 1
1233 1395 1
1265 1395 1
1271 1395 1
1343 1395 1
1348 1395 1
1473 1395 1
1477 1395 1
1186 1396 1
1188 1396 1
1227 1396 1
1234 1396 1
1266 1396 1
1272 1396 1
1344 1396 1
1349 1396 1
1474 1396 1
1478 1396 1
1187 1397 1
1189 1397 1
1228 1397 1
1235 1397 1
1267 1397 1
1273 1397 1
1345 1397 1
1350 1397 1
1475 1397 1
1479 1397 1
1188 1398 1
1190 1398 1
1223 1398 1
1229 1398 1
1268 1398 1
1274 1398 1
1346 1398 1
1351 1398 1
1476 1398 1
1480 1398 1
1189 1399 1
1191 1399 1
1224 1399 1
1230 1399 1
1262 1399 1
1269 1399 1
1347 1399 1
1352 1399 1
1477 1399 1
1481 1399 1
1190 1400 1
1192 1400 1
1225 1400 1
1231 1400 1
1263 1400 1
1270 1400 1
1340 1400 1
1348 1400 1
1478 1400 1
1482 1400 1
1191 1401 1
1193 1401 1
1226 1401 1
1232 1401 1
1264 1401 1
1271 1401 1
1341 1401 1
1349 1401 1
1470 1401 1
1479 1401 1
1192 1402 1
1194 1402 1
1227 1402 1
1233 1402 1
1265 1402 1
1272 1402 1
1342 1402 1
1350 1402 1
1471 1402 1
1480 1402 1
1193 1403 1
1195 1403 1
1228 1403 1
1234 1403 1
1266 1403 1
1273 1403 1
1343 1403 1
1351 1403 1
1472 1403 1
1481 1403 1
1194 1404 1
1196 1404 1
1229 1404 1
1235 1404 1
1267 1404 1
1274 1404 1
1344 1404 1
1352 1404 1
1473 1404 1
1482 1404 1
1197 1405 1
1207 1405 1
1210 1405 1
1218 1405 1
1275 1405 1
1281 1405 1
1353 1405 1
1358 1405 1
1483 1405 1
1487 1405 1
1198 1406 1
1208 1406 1
1211 1406 1
1219 1406 1
1276 1406 1
1282 1406 1
1354 1406 1
1359 1406 1
1484 1406 1
1488 1406 1
1199 1407 1
1209 1407 1
1212 1407 1
1220 1407 1
1277 1407 1
1283 1407 1
1355 1407 1
1360 1407 1
1485 1407 1
1489 1407 1
1197 1408 1
1200 1408 1
1213 1408 1
1221 1408 1
1278 1408 1
1284 1408 1
1356 1408 1
1361 1408 1
1486 1408 1
1490 1408 1
1198 1409 1
1201 1409 1
1214 1409 1
1222 1409 1
1279 1409 1
1285 1409 1
1357 1409 1
1362 1409 1
1487 1409 1
1491 1409 1
1199 1410 1
1202 1410 1
1210 1410 1
1215 1410 1
1280 1410 1
1286 1410 1
1358 1410 1
1363 1410 1
1488 1410 1
1492 1410 1
1200 1411 1
1203 1411 1
1211 1411 1
1216 1411 1
1281 1411 1
1287 1411 1
1359 1411 1
1364 1411 1
1489 1411 1
1493 1411 1
1201 1412 1
1204 1412 1
1212 1412 1
1217 1412 1
1275 1412 1
1282 1412 1
1360 1412 1
1365 1412 1
1490 1412 1
1494 1412 1
1202 1413 1
1205 1413 1
1213 1413 1
1218 1413 1
1276 1413 1
1283 1413 1
1353 1413 1
1361 1413 1
1491 1413 1
1495 1413 1
1203 1414 1
1206 1414 1
1214 1414 1
1219 1414 1
1277 1414 1
1284 1414 1
1354 1414 1
1362 1414 1
1483 1414 1
1492 1414 1
1204 1415 1
1207 1415 1
1215 1415 1
1220 1415 1
1278 1415 1
1285 1415 1
1355 1415 1
1363 1415 1
1484 1415 1
1493 1415 1
1205 1416 1
1208 1416 1
1216 1416 1
1221 1416 1
1279 1416 1
1286 1416 1
1356 1416 1
1364 1416 1
1485 1416 1
1494 1416 1
1206 1417 1
1209 1417 1
1217 1417 1
1222 1417 1
1280 1417 1
1287 1417 1
1357 1417 1
1365 1417 1
1486 1417 1
1495 1417 1
1197 1418 1
1208 1418 1
1223 1418 1
1231 1418 1
1288 1418 1
1294 1418 1
1366 1418 1
1371 1418 1
1496 1418 1
1500 1418 1
1198 1419 1
1209 1419 1
1224 1419 1
1232 1419 1
1289 1419 1
1295 1419 1
1367 1419 1
1372 1419 1
1497 1419 1
1501 1419 1
1197 1420 1
1199 1420 1
1225 1420 1
1233 1420 1
1290 1420 1
1296 1420 1
1368 1420 1
1373 1420 1
1498 1420 1
1502 1420 1
1198 1421 1
1200 1421 1
1226 1421 1
1234 1421 1
1291 1421 1
1297 1421 1
1369 1421 1
1374 1421 1
1499 1421 1
1503 1421 1
1199 1422 1
1201 1422 1
1227 1422 1
1235 1422 1
1292 1422 1
1298 1422 1
1370 1422 1
1375 1422 1
1500 1422 1
1504 1422 1
1200 1423 1
1202 1423 1
1223 1423 1
1228 1423 1
1293 1423 1
1299 1423 1
1371 1423 1
1376 1423 1
1501 1423 1
1505 1423 1
1201 1424 1
1203 1424 1
1224 1424 1
1229 1424 1
1294 1424 1
1300 1424 1
1372 1424 1
1377 1424 1
1502 1424 1
1506 1424 1
1202 1425 1
1204 1425 1
1225 1425 1
1230 1425 1
1288 1425 1
1295 1425 1
1373 1425 1
1378 1425 1
1503 1425 1
1507 1425 1
1203 1426 1
1205 1426 1
1226 1426 1
1231 1426 1
1289 1426 1
1296 1426 1
1366 1426 1
1374 1426 1
1504 1426 1
1508 1426 1
1204 1427 1
1206 1427 1
1227 1427 1
1232 1427 1
1290 1427 1
1297 1427 1
1367 1427 1
1375 1427 1
1496 1427 1
1505 1427 1
1205 1428 1
1207 1428 1
1228 1428 1
1233 1428 1
1291 1428 1
1298 1428 1
1368 1428 1
1376 1428 1
1497 1428 1
1506 1428 1
1206 1429 1
1208 1429 1
1229 1429 1
1234 1429 1
1292 1429 1
1299 1429 1
1369 1429 1
1377 1429 1
1498 1429 1
1507 1429 1
1207 1430 1
1209 1430 1
1230 1430 1
1235 1430 1
1293 1430 1
1300 1430 1
1370 1430 1
1378 1430 1
1499 1430 1
1508 1430 1
1210 1431 1
1221 1431 1
1223 1431 1
1233 1431 1
1301 1431 1
1307 1431 1
1379 1431 1
1384 1431 1
1509 1431 1
1513 1431 1
1211 1432 1
1222 1432 1
1224 1432 1
1234 1432 1
1302 1432 1
1308 1432 1
1380 1432 1
1385 1432 1
1510 1432 1
1514 1432 1
1210 1433 1
1212 1433 1
1225 1433 1
1235 1433 1
1303 1433 1
1309 1433 1
1381 1433 1
1386 1433 1
1511 1433 1
1515 1433 1
1211 1434 1
1213 1434 1
1223 1434 1
1226 1434 1
1304 1434 1
1310 1434 1
1382 1434 1
1387 1434 1
1512 1434 1
1516 1434 1
1212 1435 1
1214 1435 1
1224 1435 1
1227 1435 1
1305 1435 1
1311 1435 1
1383 1435 1
1388 1435 1
1513 1435 1
1517 1435 1
1213 1436 1
1215 1436 1
1225 1436 1
1228 1436 1
1306 1436 1
1312 1436 1
1384 1436 1
1389 1436 1
1514 1436 1
1518 1436 1
1214 1437 1
1216 1437 1
1226 1437 1
1229 1437 1
1307 1437 1
1313 1437 1
1385 1437 1
1390 1437 1
1515 1437 1
1519 1437 1
1215 1438 1
1217 1438 1
1227 1438 1
1230 1438 1
1301 1438 1
1308 1438 1
1386 1438 1
1391 1438 1
1516 1438 1
1520 1438 1
1216 1439 1
1218 1439 1
1228 1439 1
1231 1439 1
1302 1439 1
1309 1439 1
1379 1439 1
1387 1439 1
1517 1439 1
1521 1439 1
1217 1440 1
1219 1440 1
1229 1440 1
1232 1440 1
1303 1440 1
1310 1440 1
1380 1440 1
1388 1440 1
1509 1440 1
1518 1440 1
1218 1441 1
1220 1441 1
1230 1441 1
1233 1441 1
1304 1441 1
1311 1441 1
1381 1441 1
1389 1441 1
1510 1441 1
1519 1441 1
1219 1442 1
1221 1442 1
1231 1442 1
1234 1442 1
1305 1442 1
1312 1442 1
1382 1442 1
1390 1442 1
1511 1442 1
1520 1442 1
1220 1443 1
1222 1443 1
1232 1443 1
1235 1443 1
1306 1443 1
1313 1443 1
1383 1443 1
1391 1443 1
1512 1443 1
1521 1443 1
1236 1444 1
1246 1444 1
1249 1444 1
1257 1444 1
1275 1444 1
1282 1444 1
1392 1444 1
1397 1444 1
1522 1444 1
1526 1444 1
1237 1445 1
1247 1445 1
1250 1445 1
1258 1445 1
1276 1445 1
1283 1445 1
1393 1445 1
1398 1445 1
1523 1445 1
1527 1445 1
1238 1446 1
1248 1446 1
1251 1446 1
1259 1446 1
1277 1446 1
1284 1446 1
1394 1446 1
1399 1446 1
1524 1446 1
1528 1446 1
1236 1447 1
1239 1447 1
1252 1447 1
1260 1447 1
1278 1447 1
1285 1447 1
1395 1447 1
1400 1447 1
1525 1447 1
1529 1447 1
1237 1448 1
1240 1448 1
1253 1448 1
1261 1448 1
1279 1448 1
1286 1448 1
1396 1448 1
1401 1448 1
1526 1448 1
1530 1448 1
1238 1449 1
1241 1449 1
1249 1449 1
1254 1449 1
1280 1449 1
1287 1449 1
1397 1449 1
1402 1449 1
1527 1449 1
1531 1449 1
1239 1450 1
1242 1450 1
1250 1450 1
1255 1450 1
1275 1450 1
1281 1450 1
1398 1450 1
1403 1450 1
1528 1450 1
1532 1450 1
1240 1451 1
1243 1451 1
1251 1451 1
1256 1451 1
1276 1451 1
1282 1451 1
1399 1451 1
1404 1451 1
1529 1451 1
1533 1451 1
1241 1452 1
1244 1452 1
1252 1452 1
1257 1452 1
1277 1452 1
1283 1452 1
1392 1452 1
1400 1452 1
1530 1452 1
1534 1452 1
1242 1453 1
1245 1453 1
1253 1453 1
1258 1453 1
1278 1453 1
1284 1453 1
1393 1453 1
1401 1453 1
1522 1453 1
1531 1453 1
1243 1454 1
1246 1454 1
1254 1454 1
1259 1454 1
1279 1454 1
1285 1454 1
1394 1454 1
1402 1454 1
1523 1454 1
1532 1454 1
1244 1455 1
1247 1455 1
1255 1455 1
1260 1455 1
1280 1455 1
1286 1455 1
1395 1455 1
1403 1455 1
1524 1455 1
1533 1455 1
1245 1456 1
1248 1456 1
1256 1456 1
1261 1456 1
1281 1456 1
1287 1456 1
1396 1456 1
1404 1456 1
1525 1456 1
1534 1456 1
1236 1457 1
1247 1457 1
1262 1457 1
1270 1457 1
1288 1457 1
1295 1457 1
1405 1457 1
1410 1457 1
1535 1457 1
1539 1457 1
1237 1458 1
1248 1458 1
1263 1458 1
1271 1458 1
1289 1458 1
1296 1458 1
1406 1458 1
1411 1458 1
1536 1458 1
1540 1458 1
1236 1459 1
1238 1459 1
1264 1459 1
1272 1459 1
1290 1459 1
1297 1459 1
1407 1459 1
1412 1459 1
1537 1459 1
1541 1459 1
1237 1460 1
1239 1460 1
1265 1460 1
1273 1460 1
1291 1460 1
1298 1460 1
1408 1460 1
1413 1460 1
1538 1460 1
1542 1460 1
1238 1461 1
1240 1461 1
1266 1461 1
1274 1461 1
1292 1461 1
1299 1461 1
1409 1461 1
1414 1461 1
1539 1461 1
1543 1461 1
1239 1462 1
1241 1462 1
1262 1462 1
1267 1462 1
1293 1462 1
1300 1462 1
1410 1462 1
1415 1462 1
1540 1462 1
1544 1462 1
1240 1463 1
1242 1463 1
1263 1463 1
1268 1463 1
1288 1463 1
1294 1463 1
1411 1463 1
1416 1463 1
1541 1463 1
1545 1463 1
1241 1464 1
1243 1464 1
1264 1464 1
1269 1464 1
1289 1464 1
1295 1464 1
1412 1464 1
1417 1464 1
1542 1464 1
1546 1464 1
1242 1465 1
1244 1465 1
1265 1465 1
1270 1465 1
1290 1465 1
1296 1465 1
1405 1465 1
1413 1465 1
1543 1465 1
1547 1465 1
1243 1466 1
1245 1466 1
1266 1466 1
1271 1466 1
1291 1466 1
1297 1466 1
1406 1466 1
1414 1466 1
1535 1466 1
1544 1466 1
1244 1467 1
1246 1467 1
1267 1467 1
1272 1467 1
1292 1467 1
1298 1467 1
1407 1467 1
1415 1467 1
1536 1467 1
1545 1467 1
1245 1468 1
1247 1468 1
1268 1468 1
1273 1468 1
1293 1468 1
1299 1468 1
1408 1468 1
1416 1468 1
1537 1468 1
1546 1468 1
1246 1469 1
1248 1469 1
1269 1469 1
1274 1469 1
1294 1469 1
1300 1469 1
1409 1469 1
1417 1469 1
1538 1469 1
1547 1469 1
1249 1470 1
1260 1470 1
1262 1470 1
1272 1470 1
1301 1470 1
1308 1470 1
1418 1470 1
1423 1470 1
1548 1470 1
1552 1470 1
1250 1471 1
1261 1471 1
1263 1471 1
1273 1471 1
1302 1471 1
1309 1471 1
1419 1471 1
1424 1471 1
1549 1471 1
1553 1471 1
1249 1472 1
1251 1472 1
1264 1472 1
1274 1472 1
1303 1472 1
1310 1472 1
1420 1472 1
1425 1472 1
1550 1472 1
1554 1472 1
1250 1473 1
1252 1473 1
1262 1473 1
1265 1473 1
1304 1473 1
1311 1473 1
1421 1473 1
1426 1473 1
1551 1473 1
1555 1473 1
1251 1474 1
1253 1474 1
1263 1474 1
1266 1474 1
1305 1474 1
1312 1474 1
1422 1474 1
1427 1474 1
1552 1474 1
1556 1474 1
1252 1475 1
1254 1475 1
1264 1475 1
1267 1475 1
1306 1475 1
1313 1475 1
1423 1475 1
1428 1475 1
1553 1475 1
1557 1475 1
1253 1476 1
1255 1476 1
1265 1476 1
1268 1476 1
1301 1476 1
1307 1476 1
1424 1476 1
1429 1476 1
1554 1476 1
1558 1476 1
1254 1477 1
1256 1477 1
1266 1477 1
1269 1477 1
1302 1477 1
1308 1477 1
1425 1477 1
1430 1477 1
1555 1477 1
1559 1477 1
1255 1478 1
1257 1478 1
1267 1478 1
1270 1478 1
1303 1478 1
1309 1478 1
1418 1478 1
1426 1478 1
1556 1478 1
1560 1478 1
1256 1479 1
1258 1479 1
1268 1479 1
1271 1479 1
1304 1479 1
1310 1479 1
1419 1479 1
1427 1479 1
1548 1479 1
1557 1479 1
1257 1480 1
1259 1480 1
1269 1480 1
1272 1480 1
1305 1480 1
1311 1480 1
1420 1480 1
1428 1480 1
1549 1480 1
1558 1480 1
1258 1481 1
1260 1481 1
1270 1481 1
1273 1481 1
1306 1481 1
1312 1481 1
1421 1481 1
1429 1481 1
1550 1481 1
1559 1481 1
1259 1482 1
1261 1482 1
1271 1482 1
1274 1482 1
1307 1482 1
1313 1482 1
1422 1482 1
1430 1482 1
1551 1482 1
1560 1482 1
1275 1483 1
1286 1483 1
1288 1483 1
1298 1483 1
1301 1483 1
1309 1483 1
1431 1483 1
1436 1483 1
1561 1483 1
1565 1483 1
1276 1484 1
1287 1484 1
1289 1484 1
1299 1484 1
1302 1484 1
1310 1484 1
1432 1484 1
1437 1484 1
1562 1484 1
1566 1484 1
1275 1485 1
1277 1485 1
1290 1485 1
1300 1485 1
1303 1485 1
1311 1485 1
1433 1485 1
1438 1485 1
1563 1485 1
1567 1485 1
1276 1486 1
1278 1486 1
1288 1486 1
1291 1486 1
1304 1486 1
1312 1486 1
1434 1486 1
1439 1486 1
1564 1486 1
1568 1486 1
1277 1487 1
1279 1487 1
1289 1487 1
1292 1487 1
1305 1487 1
1313 1487 1
1435 1487 1
1440 1487 1
1565 1487 1
1569 1487 1
1278 1488 1
1280 1488 1
1290 1488 1
1293 1488 1
1301 1488 1
1306 1488 1
1436 1488 1
1441 1488 1
1566 1488 1
1570 1488 1
1279 1489 1
1281 1489 1
1291 1489 1
1294 1489 1
1302 1489 1
1307 1489 1
1437 1489 1
1442 1489 1
1567 1489 1
1571 1489 1
1280 1490 1
1282 1490 1
1292 1490 1
1295 1490 1
1303 1490 1
1308 1490 1
1438 1490 1
1443 1490 1
1568 1490 1
1572 1490 1
1281 1491 1
1283 1491 1
1293 1491 1
1296 1491 1
1304 1491 1
1309 1491 1
1431 1491 1
1439 1491 1
1569 1491 1
1573 1491 1
1282 1492 1
1284 1492 1
1294 1492 1
1297 1492 1
1305 1492 1
1310 1492 1
1432 1492 1
1440 1492 1
1561 1492 1
1570 1492 1
1283 1493 1
1285 1493 1
1295 1493 1
1298 1493 1
1306 1493 1
1311 1493 1
1433 1493 1
1441 1493 1
1562 1493 1
1571 1493 1
1284 1494 1
1286 1494 1
1296 1494 1
1299 1494 1
1307 1494 1
1312 1494 1
1434 1494 1
1442 1494 1
1563 1494 1
1572 1494 1
1285 1495 1
1287 1495 1
1297 1495 1
1300 1495 1
1308 1495 1
1313 1495 1
1435 1495 1
1443 1495 1
1564 1495 1
1573 1495 1
1314 1496 1
1324 1496 1
1327 1496 1
1335 1496 1
1353 1496 1
1360 1496 1
1392 1496 1
1398 1496 1
1574 1496 1
1578 1496 1
1315 1497 1
1325 1497 1
1328 1497 1
1336 1497 1
1354 1497 1
1361 1497 1
1393 1497 1
1399 1497 1
1575 1497 1
1579 1497 1
1316 1498 1
1326 1498 1
1329 1498 1
1337 1498 1
1355 1498 1
1362 1498 1
1394 1498 1
1400 1498 1
1576 1498 1
1580 1498 1
1314 1499 1
1317 1499 1
1330 1499 1
1338 1499 1
1356 1499 1
1363 1499 1
1395 1499 1
1401 1499 1
1577 1499 1
1581 1499 1
1315 1500 1
1318 1500 1
1331 1500 1
1339 1500 1
1357 1500 1
1364 1500 1
1396 1500 1
1402 1500 1
1578 1500 1
1582 1500 1
1316 1501 1
1319 1501 1
1327 1501 1
1332 1501 1
1358 1501 1
1365 1501 1
1397 1501 1
1403 1501 1
1579 1501 1
1583 1501 1
1317 1502 1
1320 1502 1
1328 1502 1
1333 1502 1
1353 1502 1
1359 1502 1
1398 1502 1
1404 1502 1
1580 1502 1
1584 1502 1
1318 1503 1
1321 1503 1
1329 1503 1
1334 1503 1
1354 1503 1
1360 1503 1
1392 1503 1
1399 1503 1
1581 1503 1
1585 1503 1
1319 1504 1
1322 1504 1
1330 1504 1
1335 1504 1
1355 1504 1
1361 1504 1
1393 1504 1
1400 1504 1
1582 1504 1
1586 1504 1
1320 1505 1
1323 1505 1
1331 1505 1
1336 1505 1
1356 1505 1
1362 1505 1
1394 1505 1
1401 1505 1
1574 1505 1
1583 1505 1
1321 1506 1
1324 1506 1
1332 1506 1
1337 1506 1
1357 1506 1
1363 1506 1
1395 1506 1
1402 1506 1
1575 1506 1
1584 1506 1
1322 1507 1
1325 1507 1
1333 1507 1
1338 1507 1
1358 1507 1
1364 1507 1
1396 1507 1
1403 1507 1
1576 1507 1
1585 1507 1
1323 1508 1
1326 1508 1
1334 1508 1
1339 1508 1
1359 1508 1
1365 1508 1
1397 1508 1
1404 1508 1
1577 1508 1
1586 1508 1
1314 1509 1
1325 1509 1
1340 1509 1
1348 1509 1
1366 1509 1
1373 1509 1
1405 1509 1
1411 1509 1
1587 1509 1
1591 1509 1
1315 1510 1
1326 1510 1
1341 1510 1
1349 1510 1
1367 1510 1
1374 1510 1
1406 1510 1
1412 1510 1
1588 1510 1
1592 1510 1
1314 1511 1
1316 1511 1
1342 1511 1
1350 1511 1
1368 1511 1
1375 1511 1
1407 1511 1
1413 1511 1
1589 1511 1
1593 1511 1
1315 1512 1
1317 1512 1
1343 1512 1
1351 1512 1
1369 1512 1
1376 1512 1
1408 1512 1
1414 1512 1
1590 1512 1
1594 1512 1
1316 1513 1
1318 1513 1
1344 1513 1
1352 1513 1
1370 1513 1
1377 1513 1
1409 1513 1
1415 1513 1
1591 1513 1
1595 1513 1
1317 1514 1
1319 1514 1
1340 1514 1
1345 1514 1
1371 1514 1
1378 1514 1
1410 1514 1
1416 1514 1
1592 1514 1
1596 1514 1
1318 1515 1
1320 1515 1
1341 1515 1
1346 1515 1
1366 1515 1
1372 1515 1
1411 1515 1
1417 1515 1
1593 1515 1
1597 1515 1
1319 1516 1
1321 1516 1
1342 1516 1
1347 1516 1
1367 1516 1
1373 1516 1
1405 1516 1
1412 1516 1
1594 1516 1
1598 1516 1
1320 1517 1
1322 1517 1
1343 1517 1
1348 1517 1
1368 1517 1
1374 1517 1
1406 1517 1
1413 1517 1
1595 1517 1
1599 1517 1
1321 1518 1
1323 1518 1
1344 1518 1
1349 1518 1
1369 1518 1
1375 1518 1
1407 1518 1
1414 1518 1
1587 1518 1
1596 1518 1
1322 1519 1
1324 1519 1
1345 1519 1
1350 1519 1
1370 1519 1
1376 1519 1
1408 1519 1
1415 1519 1
1588 1519 1
1597 1519 1
1323 1520 1
1325 1520 1
1346 1520 1
1351 1520 1
1371 1520 1
1377 1520 1
1409 1520 1
1416 1520 1
1589 1520 1
1598 1520 1
1324 1521 1
1326 1521 1
1347 1521 1
1352 1521 1
1372 1521 1
1378 1521 1
1410 1521 1
1417 1521 1
1590 1521 1
1599 1521 1
1327 1522 1
1338 1522 1
1340 1522 1
1350 1522 1
1379 1522 1
1386 1522 1
1418 1522 1
1424 1522 1
1600 1522 1
1604 1522 1
1328 1523 1
1339 1523 1
1341 1523 1
1351 1523 1
1380 1523 1
1387 1523 1
1419 1523 1
1425 1523 1
1601 1523 1
1605 1523 1
1327 1524 1
1329 1524 1
1342 1524 1
1352 1524 1
1381 1524 1
1388 1524 1
1420 1524 1
1426 1524 1
1602 1524 1
1606 1524 1
1328 1525 1
1330 1525 1
1340 1525 1
1343 1525 1
1382 1525 1
1389 1525 1
1421 1525 1
1427 1525 1
1603 1525 1
1607 1525 1
1329 1526 1
1331 1526 1
1341 1526 1
1344 1526 1
1383 1526 1
1390 1526 1
1422 1526 1
1428 1526 1
1604 1526 1
1608 1526 1
1330 1527 1
1332 1527 1
1342 1527 1
1345 1527 1
1384 1527 1
1391 1527 1
1423 1527 1
1429 1527 1
1605 1527 1
1609 1527 1
1331 1528 1
1333 1528 1
1343 1528 1
1346 1528 1
1379 1528 1
1385 1528 1
1424 1528 1
1430 1528 1
1606 1528 1
1610 1528 1
1332 1529 1
1334 1529 1
1344 1529 1
1347 1529 1
1380 1529 1
1386 1529 1
1418 1529 1
1425 1529 1
1607 1529 1
1611 1529 1
1333 1530 1
1335 1530 1
1345 1530 1
1348 1530 1
1381 1530 1
1387 1530 1
1419 1530 1
1426 1530 1
1608 1530 1
1612 1530 1
1334 1531 1
1336 1531 1
1346 1531 1
1349 1531 1
1382 1531 1
1388 1531 1
1420 1531 1
1427 1531 1
1600 1531 1
1609 1531 1
1335 1532 1
1337 1532 1
1347 1532 1
1350 1532 1
1383 1532 1
1389 1532 1
1421 1532 1
1428 1532 1
1601 1532 1
1610 1532 1
1336 1533 1
1338 1533 1
1348 1533 1
1351 1533 1
1384 1533 1
1390 1533 1
1422 1533 1
1429 1533 1
1602 1533 1
1611 1533 1
1337 1534 1
1339 1534 1
1349 1534 1
1352 1534 1
1385 1534 1
1391 1534 1
1423 1534 1
1430 1534 1
1603 1534 1
1612 1534 1
1353 1535 1
1364 1535 1
1366 1535 1
1376 1535 1
1379 1535 1
1387 1535 1
1431 1535 1
1437 1535 1
1613 1535 1
1617 1535 1
1354 1536 1
1365 1536 1
1367 1536 1
1377 1536 1
1380 1536 1
1388 1536 1
1432 1536 1
1438 1536 1
1614 1536 1
1618 1536 1
1353 1537 1
1355 1537 1
1368 1537 1
1378 1537 1
1381 1537 1
1389 1537 1
1433 1537 1
1439 1537 1
1615 1537 1
1619 1537 1
1354 1538 1
1356 1538 1
1366 1538 1
1369 1538 1
1382 1538 1
1390 1538 1
1434 1538 1
1440 1538 1
1616 1538 1
1620 1538 1
1355 1539 1
1357 1539 1
1367 1539 1
1370 1539 1
1383 1539 1
1391 1539 1
1435 1539 1
1441 1539 1
1617 1539 1
1621 1539 1
1356 1540 1
1358 1540 1
1368 1540 1
1371 1540 1
1379 1540 1
1384 1540 1
1436 1540 1
1442 1540 1
1618 1540 1
1622 1540 1
1357 1541 1
1359 1541 1
1369 1541 1
1372 1541 1
1380 1541 1
1385 1541 1
1437 1541 1
1443 1541 1
1619 1541 1
1623 1541 1
1358 1542 1
1360 1542 1
1370 1542 1
1373 1542 1
1381 1542 1
1386 1542 1
1431 1542 1
1438 1542 1
1620 1542 1
1624 1542 1
1359 1543 1
1361 1543 1
1371 1543 1
1374 1543 1
1382 1543 1
1387 1543 1
1432 1543 1
1439 1543 1
1621 1543 1
1625 1543 1
1360 1544 1
1362 1544 1
1372 1544 1
1375 1544 1
1383 1544 1
1388 1544 1
1433 1544 1
1440 1544 1
1613 1544 1
1622 1544 1
1361 1545 1
1363 1545 1
1373 1545 1
1376 1545 1
1384 1545 1
1389 1545 1
1434 1545 1
1441 1545 1
1614 1545 1
1623 1545 1
1362 1546 1
1364 1546 1
1374 1546 1
1377 1546 1
1385 1546 1
1390 1546 1
1435 1546 1
1442 1546 1
1615 1546 1
1624 1546 1
1363 1547 1
1365 1547 1
1375 1547 1
1378 1547 1
1386 1547 1
1391 1547 1
1436 1547 1
1443 1547 1
1616 1547 1
1625 1547 1
1392 1548 1
1403 1548 1
1405 1548 1
1415 1548 1
1418 1548 1
1426 1548 1
1431 1548 1
1438 1548 1
1626 1548 1
1630 1548 1
1393 1549 1
1404 1549 1
1406 1549 1
1416 1549 1
1419 1549 1
1427 1549 1
1432 1549 1
1439 1549 1
1627 1549 1
1631 1549 1
1392 1550 1
1394 1550 1
1407 1550 1
1417 1550 1
1420 1550 1
1428 1550 1
1433 1550 1
1440 1550 1
1628 1550 1
1632 1550 1
1393 1551 1
1395 1551 1
1405 1551 1
1408 1551 1
1421 1551 1
1429 1551 1
1434 1551 1
1441 1551 1
1629 1551 1
1633 1551 1
1394 1552 1
1396 1552 1
1406 1552 1
1409 1552 1
1422 1552 1
1430 1552 1
1435 1552 1
1442 1552 1
1630 1552 1
1634 1552 1
1395 1553 1
1397 1553 1
1407 1553 1
1410 1553 1
1418 1553 1
1423 1553 1
1436 1553 1
1443 1553 1
1631 1553 1
1635 1553 1
1396 1554 1
1398 1554 1
1408 1554 1
1411 1554 1
1419 1554 1
1424 1554 1
1431 1554 1
1437 1554 1
1632 1554 1
1636 1554 1
1397 1555 1
1399 1555 1
1409 1555 1
1412 1555 1
1420 1555 1
1425 1555 1
1432 1555 1
1438 1555 1
1633 1555 1
1637 1555 1
1398 1556 1
1400 1556 1
1410 1556 1
1413 1556 1
1421 1556 1
1426 1556 1
1433 1556 1
1439 1556 1
1634 1556 1
1638 1556 1
1399 1557 1
1401 1557 1
1411 1557 1
1414 1557 1
1422 1557 1
1427 1557 1
1434 1557 1
1440 1557 1
1626 1557 1
1635 1557 1
1400 1558 1
1402 1558 1
1412 1558 1
1415 1558 1
1423 1558 1
1428 1558 1
1435 1558 1
1441 1558 1
1627 1558 1
1636 1558 1
1401 1559 1
1403 1559 1
1413 1559 1
1416 1559 1
1424 1559 1
1429 1559 1
1436 1559 1
1442 1559 1
1628 1559 1
1637 1559 1
1402 1560 1
1404 1560 1
1414 1560 1
1417 1560 1
1425 1560 1
1430 1560 1
1437 1560 1
1443 1560 1
1629 1560 1
1638 1560 1
1444 1561 1
1454 1561 1
1457 1561 1
1465 1561 1
1483 1561 1
1490 1561 1
1522 1561 1
1528 1561 1
1574 1561 1
1579 1561 1
1445 1562 1
1455 1562 1
1458 1562 1
1466 1562 1
1484 1562 1
1491 1562 1
1523 1562 1
1529 1562 1
1575 1562 1
1580 1562 1
1446 1563 1
1456 1563 1
1459 1563 1
1467 1563 1
1485 1563 1
1492 1563 1
1524 1563 1
1530 1563 1
1576 1563 1
1581 1563 1
1444 1564 1
1447 1564 1
1460 1564 1
1468 1564 1
1486 1564 1
1493 1564 1
1525 1564 1
1531 1564 1
1577 1564 1
1582 1564 1
1445 1565 1
1448 1565 1
1461 1565 1
1469 1565 1
1487 1565 1
1494 1565 1
1526 1565 1
1532 1565 1
1578 1565 1
1583 1565 1
1446 1566 1
1449 1566 1
1457 1566 1
1462 1566 1
1488 1566 1
1495 1566 1
1527 1566 1
1533 1566 1
1579 1566 1
1584 1566 1
1447 1567 1
1450 1567 1
1458 1567 1
1463 1567 1
1483 1567 1
1489 1567 1
1528 1567 1
1534 1567 1
1580 1567 1
1585 1567 1
1448 1568 1
1451 1568 1
1459 1568 1
1464 1568 1
1484 1568 1
1490 1568 1
1522 1568 1
1529 1568 1
1581 1568 1
1586 1568 1
1449 1569 1
1452 1569 1
1460 1569 1
1465 1569 1
1485 1569 1
1491 1569 1
1523 1569 1
1530 1569 1
1574 1569 1
1582 1569 1
1450 1570 1
1453 1570 1
1461 1570 1
1466 1570 1
1486 1570 1
1492 1570 1
1524 1570 1
1531 1570 1
1575 1570 1
1583 1570 1
1451 1571 1
1454 1571 1
1462 1571 1
1467 1571 1
1487 1571 1
1493 1571 1
1525 1571 1
1532 1571 1
1576 1571 1
1584 1571 1
1452 1572 1
1455 1572 1
1463 1572 1
1468 1572 1
1488 1572 1
1494 1572 1
1526 1572 1
1533 1572 1
1577 1572 1
1585 1572 1
1453 1573 1
1456 1573 1
1464 1573 1
1469 1573 1
1489 1573 1
1495 1573 1
1527 1573 1
1534 1573 1
1578 1573 1
1586 1573 1
1444 1574 1
1455 1574 1
1470 1574 1
1478 1574 1
1496 1574 1
1503 1574 1
1535 1574 1
1541 1574 1
1587 1574 1
1592 1574 1
1445 1575 1
1456 1575 1
1471 1575 1
1479 1575 1
1497 1575 1
1504 1575 1
1536 1575 1
1542 1575 1
1588 1575 1
1593 1575 1
1444 1576 1
1446 1576 1
1472 1576 1
1480 1576 1
1498 1576 1
1505 1576 1
1537 1576 1
1543 1576 1
1589 1576 1
1594 1576 1
1445 1577 1
1447 1577 1
1473 1577 1
1481 1577 1
1499 1577 1
1506 1577 1
1538 1577 1
1544 1577 1
1590 1577 1
1595 1577 1
1446 1578 1
1448 1578 1
1474 1578 1
1482 1578 1
1500 1578 1
1507 1578 1
1539 1578 1
1545 1578 1
1591 1578 1
1596 1578 1
1447 1579 1
1449 1579 1
1470 1579 1
1475 1579 1
1501 1579 1
1508 1579 1
1540 1579 1
1546 1579 1
1592 1579 1
1597 1579 1
1448 1580 1
1450 1580 1
1471 1580 1
1476 1580 1
1496 1580 1
1502 1580 1
1541 1580 1
1547 1580 1
1593 1580 1
1598 1580 1
1449 1581 1
1451 1581 1
1472 1581 1
1477 1581 1
1497 1581 1
1503 1581 1
1535 1581 1
1542 1581 1
1594 1581 1
1599 1581 1
1450 1582 1
1452 1582 1
1473 1582 1
1478 1582 1
1498 1582 1
1504 1582 1
1536 1582 1
1543 1582 1
1587 1582 1
1595 1582 1
1451 1583 1
1453 1583 1
1474 1583 1
1479 1583 1
1499 1583 1
1505 1583 1
1537 1583 1
1544 1583 1
1588 1583 1
1596 1583 1
1452 1584 1
1454 1584 1
1475 1584 1
1480 1584 1
1500 1584 1
1506 1584 1
1538 1584 1
1545 1584 1
1589 1584 1
1597 1584 1
1453 1585 1
1455 1585 1
1476 1585 1
1481 1585 1
1501 1585 1
1507 1585 1
1539 1585 1
1546 1585 1
1590 1585 1
1598 1585 1
1454 1586 1
1456 1586 1
1477 1586 1
1482 1586 1
1502 1586 1
1508 1586 1
1540 1586 1
1547 1586 1
1591 1586 1
1599 1586 1
1457 1587 1
1468 1587 1
1470 1587 1
1480 1587 1
1509 1587 1
1516 1587 1
1548 1587 1
1554 1587 1
1600 1587 1
1605 1587 1
1458 1588 1
1469 1588 1
1471 1588 1
1481 1588 1
1510 1588 1
1517 1588 1
1549 1588 1
1555 1588 1
1601 1588 1
1606 1588 1
1457 1589 1
1459 1589 1
1472 1589 1
1482 1589 1
1511 1589 1
1518 1589 1
1550 1589 1
1556 1589 1
1602 1589 1
1607 1589 1
1458 1590 1
1460 1590 1
1470 1590 1
1473 1590 1
1512 1590 1
1519 1590 1
1551 1590 1
1557 1590 1
1603 1590 1
1608 1590 1
1459 1591 1
1461 1591 1
1471 1591 1
1474 1591 1
1513 1591 1
1520 1591 1
1552 1591 1
1558 1591 1
1604 1591 1
1609 1591 1
1460 1592 1
1462 1592 1
1472 1592 1
1475 1592 1
1514 1592 1
1521 1592 1
1553 1592 1
1559 1592 1
1605 1592 1
1610 1592 1
1461 1593 1
1463 1593 1
1473 1593 1
1476 1593 1
1509 1593 1
1515 1593 1
1554 1593 1
1560 1593 1
1606 1593 1
1611 1593 1
1462 1594 1
1464 1594 1
1474 1594 1
1477 1594 1
1510 1594 1
1516 1594 1
1548 1594 1
1555 1594 1
1607 1594 1
1612 1594 1
1463 1595 1
1465 1595 1
1475 1595 1
1478 1595 1
1511 1595 1
1517 1595 1
1549 1595 1
1556 1595 1
1600 1595 1
1608 1595 1
1464 1596 1
1466 1596 1
1476 1596 1
1479 1596 1
1512 1596 1
1518 1596 1
1550 1596 1
1557 1596 1
1601 1596 1
1609 1596 1
1465 1597 1
1467 1597 1
1477 1597 1
1480 1597 1
1513 1597 1
1519 1597 1
1551 1597 1
1558 1597 1
1602 1597 1
1610 1597 1
1466 1598 1
1468 1598 1
1478 1598 1
1481 1598 1
1514 1598 1
1520 1598 1
1552 1598 1
1559 1598 1
1603 1598 1
1611 1598 1
1467 1599 1
1469 1599 1
1479 1599 1
1482 1599 1
1515 1599 1
1521 1599 1
1553 1599 1
1560 1599 1
1604 1599 1
1612 1599 1
1483 1600 1
1494 1600 1
1496 1600 1
1506 1600 1
1509 1600 1
1517 1600 1
1561 1600 1
1567 1600 1
1613 1600 1
1618 1600 1
1484 1601 1
1495 1601 1
1497 1601 1
1507 1601 1
1510 1601 1
1518 1601 1
1562 1601 1
1568 1601 1
1614 1601 1
1619 1601 1
1483 1602 1
1485 1602 1
1498 1602 1
1508 1602 1
1511 1602 1
1519 1602 1
1563 1602 1
1569 1602 1
1615 1602 1
1620 1602 1
1484 1603 1
1486 1603 1
1496 1603 1
1499 1603 1
1512 1603 1
1520 1603 1
1564 1603 1
1570 1603 1
1616 1603 1
1621 1603 1
1485 1604 1
1487 1604 1
1497 1604 1
1500 1604 1
1513 1604 1
1521 1604 1
1565 1604 1
1571 1604 1
1617 1604 1
1622 1604 1
1486 1605 1
1488 1605 1
1498 1605 1
1501 1605 1
1509 1605 1
1514 1605 1
1566 1605 1
1572 1605 1
1618 1605 1
1623 1605 1
1487 1606 1
1489 1606 1
1499 1606 1
1502 1606 1
1510 1606 1
1515 1606 1
1567 1606 1
1573 1606 1
1619 1606 1
1624 1606 1
1488 1607 1
1490 1607 1
1500 1607 1
1503 1607 1
1511 1607 1
1516 1607 1
1561 1607 1
1568 1607 1
1620 1607 1
1625 1607 1
1489 1608 1
1491 1608 1
1501 1608 1
1504 1608 1
1512 1608 1
1517 1608 1
1562 1608 1
1569 1608 1
1613 1608 1
1621 1608 1
1490 1609 1
1492 1609 1
1502 1609 1
1505 1609 1
1513 1609 1
1518 1609 1
1563 1609 1
1570 1609 1
1614 1609 1
1622 1609 1
1491 1610 1
1493 1610 1
1503 1610 1
1506 1610 1
1514 1610 1
1519 1610 1
1564 1610 1
1571 1610 1
1615 1610 1
1623 1610 1
1492 1611 1
1494 1611 1
1504 1611 1
1507 1611 1
1515 1611 1
1520 1611 1
1565 1611 1
1572 1611 1
1616 1611 1
1624 1611 1
1493 1612 1
1495 1612 1
1505 1612 1
1508 1612 1
1516 1612 1
1521 1612 1
1566 1612 1
1573 1612 1
1617 1612 1
1625 1612 1
1522 1613 1
1533 1613 1
1535 1613 1
1545 1613 1
1548 1613 1
1556 1613 1
1561 1613 1
1568 1613 1
1626 1613 1
1631 1613 1
1523 1614 1
1534 1614 1
1536 1614 1
1546 1614 1
1549 1614 1
1557 1614 1
1562 1614 1
1569 1614 1
1627 1614 1
1632 1614 1
1522 1615 1
1524 1615 1
1537 1615 1
1547 1615 1
1550 1615 1
1558 1615 1
1563 1615 1
1570 1615 1
1628 1615 1
1633 1615 1
1523 1616 1
1525 1616 1
1535 1616 1
1538 1616 1
1551 1616 1
1559 1616 1
1564 1616 1
1571 1616 1
1629 1616 1
1634 1616 1
1524 1617 1
1526 1617 1
1536 1617 1
1539 1617 1
1552 1617 1
1560 1617 1
1565 1617 1
1572 1617 1
1630 1617 1
1635 1617 1
1525 1618 1
1527 1618 1
1537 1618 1
1540 1618 1
1548 1618 1
1553 1618 1
1566 1618 1
1573 1618 1
1631 1618 1
1636 1618 1
1526 1619 1
1528 1619 1
1538 1619 1
1541 1619 1
1549 1619 1
1554 1619 1
1561 1619 1
1567 1619 1
1632 1619 1
1637 1619 1
1527 1620 1
1529 1620 1
1539 1620 1
1542 1620 1
1550 1620 1
1555 1620 1
1562 1620 1
1568 1620 1
1633 1620 1
1638 1620 1
1528 1621 1
1530 1621 1
1540 1621 1
1543 1621 1
1551 1621 1
1556 1621 1
1563 1621 1
1569 1621 1
1626 1621 1
1634 1621 1
1529 1622 1
1531 1622 1
1541 1622 1
1544 1622 1
1552 1622 1
1557 1622 1
1564 1622 1
1570 1622 1
1627 1622 1
1635 1622 1
1530 1623 1
1532 1623 1
1542 1623 1
1545 1623 1
1553 1623 1
1558 1623 1
1565 1623 1
1571 1623 1
1628 1623 1
1636 1623 1
1531 1624 1
1533 1624 1
1543 1624 1
1546 1624 1
1554 1624 1
1559 1624 1
1566 1624 1
1572 1624 1
1629 1624 1
1637 1624 1
1532 1625 1
1534 1625 1
1544 1625 1
1547 1625 1
1555 1625 1
1560 1625 1
1567 1625 1
1573 1625 1
1630 1625 1
1638 1625 1
1574 1626 1
1585 1626 1
1587 1626 1
1597 1626 1
1600 1626 1
1608 1626 1
1613 1626 1
1620 1626 1
1626 1626 1
1632 1626 1
1575 1627 1
1586 1627 1
1588 1627 1
1598 1627 1
1601 1627 1
1609 1627 1
1614 1627 1
1621 1627 1
1627 1627 1
1633 1627 1
1574 1628 1
1576 1628 1
1589 1628 1
1599 1628 1
1602 1628 1
1610 1628 1
1615 1628 1
1622 1628 1
1628 1628 1
1634 1628 1
1575 1629 1
1577 1629 1
1587 1629 1
1590 1629 1
1603 1629 1
1611 1629 1
1616 1629 1
1623 1629 1
1629 1629 1
1635 1629 1
1576 1630 1
1578 1630 1
1588 1630 1
1591 1630 1
1604 1630 1
1612 1630 1
1617 1630 1
1624 1630 1
1630 1630 1
1636 1630 1
1577 1631 1
1579 1631 1
1589 1631 1
1592 1631 1
1600 1631 1
1605 1631 1
1618 1631 1
1625 1631 1
1631 1631 1
1637 1631 1
1578 1632 1
1580 1632 1
1590 1632 1
1593 1632 1
1601 1632 1
1606 1632 1
1613 1632 1
1619 1632 1
1632 1632 1
1638 1632 1
1579 1633 1
1581 1633 1
1591 1633 1
1594 1633 1
1602 1633 1
1607 1633 1
1614 1633 1
1620 1633 1
1626 1633 1
1633 1633 1
1580 1634 1
1582 1634 1
1592 1634 1
1595 1634 1
1603 1634 1
1608 1634 1
1615 1634 1
1621 1634 1
1627 1634 1
1634 1634 1
1581 1635 1
1583 1635 1
1593 1635 1
1596 1635 1
1604 1635 1
1609 1635 1
1616 1635 1
1622 1635 1
1628 1635 1
1635 1635 1
1582 1636 1
1584 1636 1
1594 1636 1
1597 1636 1
1605 1636 1
1610 1636 1
1617 1636 1
1623 1636 1
1629 1636 1
1636 1636 1
1583 1637 1
1585 1637 1
1595 1637 1
1598 1637 1
1606 1637 1
1611 1637 1
1618 1637 1
1624 1637 1
1630 1637 1
1637 1637 1
1584 1638 1
1586 1638 1
1596 1638 1
1599 1638 1
1607 1638 1
1612 1638 1
1619 1638 1
1625 1638 1
1631 1638 1
1638 1638 1
