%%MatrixMarket matrix coordinate integer general
% Binary matrix; one-based indices; arithmetic over GF(2)
225 450 1350
1 1 1
12 1 1
15 1 1
1 2 1
2 2 1
13 2 1
2 3 1
3 3 1
14 3 1
3 4 1
4 4 1
15 4 1
1 5 1
4 5 1
5 5 1
2 6 1
5 6 1
6 6 1
3 7 1
6 7 1
7 7 1
4 8 1
7 8 1
8 8 1
5 9 1
8 9 1
9 9 1
6 10 1
9 10 1
10 10 1
7 11 1
10 11 1
11 11 1
8 12 1
11 12 1
12 12 1
9 13 1
12 13 1
13 13 1
10 14 1
13 14 1
14 14 1
11 15 1
14 15 1
15 15 1
16 16 1
27 16 1
30 16 1
16 17 1
17 17 1
28 17 1
17 18 1
18 18 1
29 18 1
18 19 1
19 19 1
30 19 1
16 20 1
19 20 1
20 20 1
17 21 1
20 21 1
21 21 1
18 22 1
21 22 1
22 22 1
19 23 1
22 23 1
23 23 1
20 24 1
23 24 1
24 24 1
21 25 1
24 25 1
25 25 1
22 26 1
25 26 1
26 26 1
23 27 1
26 27 1
27 27 1
24 28 1
27 28 1
28 28 1
25 29 1
28 29 1
29 29 1
26 30 1
29 30 1
30 30 1
31 31 1
42 31 1
45 31 1
31 32 1
32 32 1
43 32 1
32 33 1
33 33 1
44 33 1
33 34 1
34 34 1
45 34 1
31 35 1
34 35 1
35 35 1
32 36 1
35 36 1
36 36 1
33 37 1
36 37 1
37 37 1
34 38 1
37 38 1
38 38 1
35 39 1
38 39 1
39 39 1
36 40 1
39 40 1
40 40 1
37 41 1
40 41 1
41 41 1
38 42 1
41 42 1
42 42 1
39 43 1
42 43 1
43 43 1
40 44 1
43 44 1
44 44 1
41 45 1
44 45 1
45 45 1
46 46 1
57 46 1
60 46 1
46 47 1
47 47 1
58 47 1
47 48 1
48 48 1
59 48 1
48 49 1
49 49 1
60 49 1
46 50 1
49 50 1
50 50 1
47 51 1
50 51 1
51 51 1
48 52 1
51 52 1
52 52 1
49 53 1
52 53 1
53 53 1
50 54 1
53 54 1
54 54 1
51 55 1
54 55 1
55 55 1
52 56 1
55 56 1
56 56 1
53 57 1
56 57 1
57 57 1
54 58 1
57 58 1
58 58 1
55 59 1
58 59 1
59 59 1
56 60 1
59 60 1
60 60 1
61 61 1
72 61 1
75 61 1
61 62 1
62 62 1
73 62 1
62 63 1
63 63 1
74 63 1
63 64 1
64 64 1
75 64 1
61 65 1
64 65 1
65 65 1
62 66 1
65 66 1
66 66 1
63 67 1
66 67 1
67 67 1
64 68 1
67 68 1
68 68 1
65 69 1
68 69 1
69 69 1
66 70 1
69 70 1
70 70 1
67 71 1
70 71 1
71 71 1
68 72 1
71 72 1
72 72 1
69 73 1
72 73 1
73 73 1
70 74 1
73 74 1
74 74 1
71 75 1
74 75 1
75 75 1
76 76 1
87 76 1
90 76 1
76 77 1
77 77 1
88 77 1
77 78 1
78 78 1
89 78 1
78 79 1
79 79 1
90 79 1
76 80 1
79 80 1
80 80 1
77 81 1
80 81 1
81 81 1
78 82 1
81 82 1
82 82 1
79 83 1
82 83 1
83 83 1
80 84 1
83 84 1
84 84 1
81 85 1
84 85 1
85 85 1
82 86 1
85 86 1
86 86 1
83 87 1
86 87 1
87 87 1
84 88 1
87 88 1
88 88 1
85 89 1
88 89 1
89 89 1
86 90 1
89 90 1
90 90 1
91 91 1
102 91 1
105 91 1
91 92 1
92 92 1
103 92 1
92 93 1
93 93 1
104 93 1
93 94 1
94 94 1
105 94 1
91 95 1
94 95 1
95 95 1
92 96 1
95 96 1
96 96 1
93 97 1
96 97 1
97 97 1
94 98 1
97 98 1
98 98 1
95 99 1
98 99 1
99 99 1
96 100 1
99 100 1
100 100 1
97 101 1
100 101 1
101 101 1
98 102 1
101 102 1
102 102 1
99 103 1
102 103 1
103 103 1
100 104 1
103 104 1
104 104 1
101 105 1
104 105 1
105 105 1
106 106 1
117 106 1
120 106 1
106 107 1
107 107 1
118 107 1
107 108 1
108 108 1
119 108 1
108 109 1
109 109 1
120 109 1
106 110 1
109 110 1
110 110 1
107 111 1
110 111 1
111 111 1
108 112 1
111 112 1
112 112 1
109 113 1
112 113 1
113 113 1
110 114 1
113 114 1
114 114 1
111 115 1
114 115 1
115 115 1
112 116 1
115 116 1
116 116 1
113 117 1
116 117 1
117 117 1
114 118 1
117 118 1
118 118 1
115 119 1
118 119 1
119 119 1
116 120 1
119 120 1
120 120 1
121 121 1
132 121 1
135 121 1
121 122 1
122 122 1
133 122 1
122 123 1
123 123 1
134 123 1
123 124 1
124 124 1
135 124 1
121 125 1
124 125 1
125 125 1
122 126 1
125 126 1
126 126 1
123 127 1
126 127 1
127 127 1
124 128 1
127 128 1
128 128 1
125 129 1
128 129 1
129 129 1
126 130 1
129 130 1
130 130 1
127 131 1
130 131 1
131 131 1
128 132 1
131 132 1
132 132 1
129 133 1
132 133 1
133 133 1
130 134 1
133 134 1
134 134 1
131 135 1
134 135 1
135 135 1
136 136 1
147 136 1
150 136 1
136 137 1
137 137 1
148 137 1
137 138 1
138 138 1
149 138 1
138 139 1
139 139 1
150 139 1
136 140 1
139 140 1
140 140 1
137 141 1
140 141 1
141 141 1
138 142 1
141 142 1
142 142 1
139 143 1
142 143 1
143 143 1
140 144 1
143 144 1
144 144 1
141 145 1
144 145 1
145 145 1
142 146 1
145 146 1
146 146 1
143 147 1
146 147 1
147 147 1
144 148 1
147 148 1
148 148 1
145 149 1
148 149 1
149 149 1
146 150 1
149 150 1
150 150 1
151 151 1
162 151 1
165 151 1
151 152 1
152 152 1
163 152 1
152 153 1
153 153 1
164 153 1
153 154 1
154 154 1
165 154 1
151 155 1
154 155 1
155 155 1
152 156 1
155 156 1
156 156 1
153 157 1
156 157 1
157 157 1
154 158 1
157 158 1
158 158 1
155 159 1
158 159 1
159 159 1
156 160 1
159 160 1
160 160 1
157 161 1
160 161 1
161 161 1
158 162 1
161 162 1
162 162 1
159 163 1
162 163 1
163 163 1
160 164 1
163 164 1
164 164 1
161 165 1
164 165 1
165 165 1
166 166 1
177 166 1
180 166 1
166 167 1
167 167 1
178 167 1
167 168 1
168 168 1
179 168 1
168 169 1
169 169 1
180 169 1
166 170 1
169 170 1
170 170 1
167 171 1
170 171 1
171 171 1
168 172 1
171 172 1
172 172 1
169 173 1
172 173 1
173 173 1
170 174 1
173 174 1
174 174 1
171 175 1
174 175 1
175 175 1
172 176 1
175 176 1
176 176 1
173 177 1
176 177 1
177 177 1
174 178 1
177 178 1
178 178 1
175 179 1
178 179 1
179 179 1
176 180 1
179 180 1
180 180 1
181 181 1
192 181 1
195 181 1
181 182 1
182 182 1
193 182 1
182 183 1
183 183 1
194 183 1
183 184 1
184 184 1
195 184 1
181 185 1
184 185 1
185 185 1
182 186 1
185 186 1
186 186 1
183 187 1
186 187 1
187 187 1
184 188 1
187 188 1
188 188 1
185 189 1
188 189 1
189 189 1
186 190 1
189 190 1
190 190 1
187 191 1
190 191 1
191 191 1
188 192 1
191 192 1
192 192 1
189 193 1
192 193 1
193 193 1
190 194 1
193 194 1
194 194 1
191 195 1
194 195 1
195 195 1
196 196 1
207 196 1
210 196 1
196 197 1
197 197 1
208 197 1
197 198 1
198 198 1
209 198 1
198 199 1
199 199 1
210 199 1
196 200 1
199 200 1
200 200 1
197 201 1
200 201 1
201 201 1
198 202 1
201 202 1
202 202 1
199 203 1
202 203 1
203 203 1
200 204 1
203 204 1
204 204 1
201 205 1
204 205 1
205 205 1
202 206 1
205 206 1
206 206 1
203 207 1
206 207 1
207 207 1
204 208 1
207 208 1
208 208 1
205 209 1
208 209 1
209 209 1
206 210 1
209 210 1
210 210 1
211 211 1
222 211 1
225 211 1
211 212 1
212 212 1
223 212 1
212 213 1
213 213 1
224 213 1
213 214 1
214 214 1
225 214 1
211 215 1
214 215 1
215 215 1
212 216 1
215 216 1
216 216 1
213 217 1
216 217 1
217 217 1
214 218 1
217 218 1
218 218 1
215 219 1
218 219 1
219 219 1
216 220 1
219 220 1
220 220 1
217 221 1
220 221 1
221 221 1
218 222 1
221 222 1
222 222 1
219 223 1
222 223 1
223 223 1
220 224 1
223 224 1
224 224 1
221 225 1
224 225 1
225 225 1
1 226 1
166 226 1
211 226 1
2 227 1
167 227 1
212 227 1
3 228 1
168 228 1
213 228 1
4 229 1
169 229 1
214 229 1
5 230 1
170 230 1
215 230 1
6 231 1
171 231 1
216 231 1
7 232 1
172 232 1
217 232 1
8 233 1
173 233 1
218 233 1
9 234 1
174 234 1
219 234 1
10 235 1
175 235 1
220 235 1
11 236 1
176 236 1
221 236 1
12 237 1
177 237 1
222 237 1
13 238 1
178 238 1
223 238 1
14 239 1
179 239 1
224 239 1
15 240 1
180 240 1
225 240 1
1 241 1
16 241 1
181 241 1
2 242 1
17 242 1
182 242 1
3 243 1
18 243 1
183 243 1
4 244 1
19 244 1
184 244 1
5 245 1
20 245 1
185 245 1
6 246 1
21 246 1
186 246 1
7 247 1
22 247 1
187 247 1
8 248 1
23 248 1
188 248 1
9 249 1
24 249 1
189 249 1
10 250 1
25 250 1
190 250 1
11 251 1
26 251 1
191 251 1
12 252 1
27 252 1
192 252 1
13 253 1
28 253 1
193 253 1
14 254 1
29 254 1
194 254 1
15 255 1
30 255 1
195 255 1
16 256 1
31 256 1
196 256 1
17 257 1
32 257 1
197 257 1
18 258 1
33 258 1
198 258 1
19 259 1
34 259 1
199 259 1
20 260 1
35 260 1
200 260 1
21 261 1
36 261 1
201 261 1
22 262 1
37 262 1
202 262 1
23 263 1
38 263 1
203 263 1
24 264 1
39 264 1
204 264 1
25 265 1
40 265 1
205 265 1
26 266 1
41 266 1
206 266 1
27 267 1
42 267 1
207 267 1
28 268 1
43 268 1
208 268 1
29 269 1
44 269 1
209 269 1
30 270 1
45 270 1
210 270 1
31 271 1
46 271 1
211 271 1
32 272 1
47 272 1
212 272 1
33 273 1
48 273 1
213 273 1
34 274 1
49 274 1
214 274 1
35 275 1
50 275 1
215 275 1
36 276 1
51 276 1
216 276 1
37 277 1
52 277 1
217 277 1
38 278 1
53 278 1
218 278 1
39 279 1
54 279 1
219 279 1
40 280 1
55 280 1
220 280 1
41 281 1
56 281 1
221 281 1
42 282 1
57 282 1
222 282 1
43 283 1
58 283 1
223 283 1
44 284 1
59 284 1
224 284 1
45 285 1
60 285 1
225 285 1
1 286 1
46 286 1
61 286 1
2 287 1
47 287 1
62 287 1
3 288 1
48 288 1
63 288 1
4 289 1
49 289 1
64 289 1
5 290 1
50 290 1
65 290 1
6 291 1
51 291 1
66 291 1
7 292 1
52 292 1
67 292 1
8 293 1
53 293 1
68 293 1
9 294 1
54 294 1
69 294 1
10 295 1
55 295 1
70 295 1
11 296 1
56 296 1
71 296 1
12 297 1
57 297 1
72 297 1
13 298 1
58 298 1
73 298 1
14 299 1
59 299 1
74 299 1
15 300 1
60 300 1
75 300 1
16 301 1
61 301 1
76 301 1
17 302 1
62 302 1
77 302 1
18 303 1
63 303 1
78 303 1
19 304 1
64 304 1
79 304 1
20 305 1
65 305 1
80 305 1
21 306 1
66 306 1
81 306 1
22 307 1
67 307 1
82 307 1
23 308 1
68 308 1
83 308 1
24 309 1
69 309 1
84 309 1
25 310 1
70 310 1
85 310 1
26 311 1
71 311 1
86 311 1
27 312 1
72 312 1
87 312 1
28 313 1
73 313 1
88 313 1
29 314 1
74 314 1
89 314 1
30 315 1
75 315 1
90 315 1
31 316 1
76 316 1
91 316 1
32 317 1
77 317 1
92 317 1
33 318 1
78 318 1
93 318 1
34 319 1
79 319 1
94 319 1
35 320 1
80 320 1
95 320 1
36 321 1
81 321 1
96 321 1
37 322 1
82 322 1
97 322 1
38 323 1
83 323 1
98 323 1
39 324 1
84 324 1
99 324 1
40 325 1
85 325 1
100 325 1
41 326 1
86 326 1
101 326 1
42 327 1
87 327 1
102 327 1
43 328 1
88 328 1
103 328 1
44 329 1
89 329 1
104 329 1
45 330 1
90 330 1
105 330 1
46 331 1
91 331 1
106 331 1
47 332 1
92 332 1
107 332 1
48 333 1
93 333 1
108 333 1
49 334 1
94 334 1
109 334 1
50 335 1
95 335 1
110 335 1
51 336 1
96 336 1
111 336 1
52 337 1
97 337 1
112 337 1
53 338 1
98 338 1
113 338 1
54 339 1
99 339 1
114 339 1
55 340 1
100 340 1
115 340 1
56 341 1
101 341 1
116 341 1
57 342 1
102 342 1
117 342 1
58 343 1
103 343 1
118 343 1
59 344 1
104 344 1
119 344 1
60 345 1
105 345 1
120 345 1
61 346 1
106 346 1
121 346 1
62 347 1
107 347 1
122 347 1
63 348 1
108 348 1
123 348 1
64 349 1
109 349 1
124 349 1
65 350 1
110 350 1
125 350 1
66 351 1
111 351 1
126 351 1
67 352 1
112 352 1
127 352 1
68 353 1
113 353 1
128 353 1
69 354 1
114 354 1
129 354 1
70 355 1
115 355 1
130 355 1
71 356 1
116 356 1
131 356 1
72 357 1
117 357 1
132 357 1
73 358 1
118 358 1
133 358 1
74 359 1
119 359 1
134 359 1
75 360 1
120 360 1
135 360 1
76 361 1
121 361 1
136 361 1
77 362 1
122 362 1
137 362 1
78 363 1
123 363 1
138 363 1
79 364 1
124 364 1
139 364 1
80 365 1
125 365 1
140 365 1
81 366 1
126 366 1
141 366 1
82 367 1
127 367 1
142 367 1
83 368 1
128 368 1
143 368 1
84 369 1
129 369 1
144 369 1
85 370 1
130 370 1
145 370 1
86 371 1
131 371 1
146 371 1
87 372 1
132 372 1
147 372 1
88 373 1
133 373 1
148 373 1
89 374 1
134 374 1
149 374 1
90 375 1
135 375 1
150 375 1
91 376 1
136 376 1
151 376 1
92 377 1
137 377 1
152 377 1
93 378 1
138 378 1
153 378 1
94 379 1
139 379 1
154 379 1
95 380 1
140 380 1
155 380 1
96 381 1
141 381 1
156 381 1
97 382 1
142 382 1
157 382 1
98 383 1
143 383 1
158 383 1
99 384 1
144 384 1
159 384 1
100 385 1
145 385 1
160 385 1
101 386 1
146 386 1
161 386 1
102 387 1
147 387 1
162 387 1
103 388 1
148 388 1
163 388 1
104 389 1
149 389 1
164 389 1
105 390 1
150 390 1
165 390 1
106 391 1
151 391 1
166 391 1
107 392 1
152 392 1
167 392 1
108 393 1
153 393 1
168 393 1
109 394 1
154 394 1
169 394 1
110 395 1
155 395 1
170 395 1
111 396 1
156 396 1
171 396 1
112 397 1
157 397 1
172 397 1
113 398 1
158 398 1
173 398 1
114 399 1
159 399 1
174 399 1
115 400 1
160 400 1
175 400 1
116 401 1
161 401 1
176 401 1
117 402 1
162 402 1
177 402 1
118 403 1
163 403 1
178 403 1
119 404 1
164 404 1
179 404 1
120 405 1
165 405 1
180 405 1
121 406 1
166 406 1
181 406 1
122 407 1
167 407 1
182 407 1
123 408 1
168 408 1
183 408 1
124 409 1
169 409 1
184 409 1
125 410 1
170 410 1
185 410 1
126 411 1
171 411 1
186 411 1
127 412 1
172 412 1
187 412 1
128 413 1
173 413 1
188 413 1
129 414 1
174 414 1
189 414 1
130 415 1
175 415 1
190 415 1
131 416 1
176 416 1
191 416 1
132 417 1
177 417 1
192 417 1
133 418 1
178 418 1
193 418 1
134 419 1
179 419 1
194 419 1
135 420 1
180 420 1
195 420 1
136 421 1
181 421 1
196 421 1
137 422 1
182 422 1
197 422 1
138 423 1
183 423 1
198 423 1
139 424 1
184 424 1
199 424 1
140 425 1
185 425 1
200 425 1
141 426 1
186 426 1
201 426 1
142 427 1
187 427 1
202 427 1
143 428 1
188 428 1
203 428 1
144 429 1
189 429 1
204 429 1
145 430 1
190 430 1
205 430 1
146 431 1
191 431 1
206 431 1
147 432 1
192 432 1
207 432 1
148 433 1
193 433 1
208 433 1
149 434 1
194 434 1
209 434 1
150 435 1
195 435 1
210 435 1
151 436 1
196 436 1
211 436 1
152 437 1
197 437 1
212 437 1
153 438 1
198 438 1
213 438 1
154 439 1
199 439 1
214 439 1
155 440 1
200 440 1
215 440 1
156 441 1
201 441 1
216 441 1
157 442 1
202 442 1
217 442 1
158 443 1
203 443 1
218 443 1
159 444 1
204 444 1
219 444 1
160 445 1
205 445 1
220 445 1
161 446 1
206 446 1
221 446 1
162 447 1
207 447 1
222 447 1
163 448 1
208 448 1
223 448 1
164 449 1
209 449 1
224 449 1
165 450 1
210 450 1
225 450 1
