%%MatrixMarket matrix coordinate integer general
% Binary matrix; one-based indices; arithmetic over GF(2)
225 450 1350
1 1 1
16 1 1
61 1 1
2 2 1
17 2 1
62 2 1
3 3 1
18 3 1
63 3 1
4 4 1
19 4 1
64 4 1
5 5 1
20 5 1
65 5 1
6 6 1
21 6 1
66 6 1
7 7 1
22 7 1
67 7 1
8 8 1
23 8 1
68 8 1
9 9 1
24 9 1
69 9 1
10 10 1
25 10 1
70 10 1
11 11 1
26 11 1
71 11 1
12 12 1
27 12 1
72 12 1
13 13 1
28 13 1
73 13 1
14 14 1
29 14 1
74 14 1
15 15 1
30 15 1
75 15 1
16 16 1
31 16 1
76 16 1
17 17 1
32 17 1
77 17 1
18 18 1
33 18 1
78 18 1
19 19 1
34 19 1
79 19 1
20 20 1
35 20 1
80 20 1
21 21 1
36 21 1
81 21 1
22 22 1
37 22 1
82 22 1
23 23 1
38 23 1
83 23 1
24 24 1
39 24 1
84 24 1
25 25 1
40 25 1
85 25 1
26 26 1
41 26 1
86 26 1
27 27 1
42 27 1
87 27 1
28 28 1
43 28 1
88 28 1
29 29 1
44 29 1
89 29 1
30 30 1
45 30 1
90 30 1
31 31 1
46 31 1
91 31 1
32 32 1
47 32 1
92 32 1
33 33 1
48 33 1
93 33 1
34 34 1
49 34 1
94 34 1
35 35 1
50 35 1
95 35 1
36 36 1
51 36 1
96 36 1
37 37 1
52 37 1
97 37 1
38 38 1
53 38 1
98 38 1
39 39 1
54 39 1
99 39 1
40 40 1
55 40 1
100 40 1
41 41 1
56 41 1
101 41 1
42 42 1
57 42 1
102 42 1
43 43 1
58 43 1
103 43 1
44 44 1
59 44 1
104 44 1
45 45 1
60 45 1
105 45 1
46 46 1
61 46 1
106 46 1
47 47 1
62 47 1
107 47 1
48 48 1
63 48 1
108 48 1
49 49 1
64 49 1
109 49 1
50 50 1
65 50 1
110 50 1
51 51 1
66 51 1
111 51 1
52 52 1
67 52 1
112 52 1
53 53 1
68 53 1
113 53 1
54 54 1
69 54 1
114 54 1
55 55 1
70 55 1
115 55 1
56 56 1
71 56 1
116 56 1
57 57 1
72 57 1
117 57 1
58 58 1
73 58 1
118 58 1
59 59 1
74 59 1
119 59 1
60 60 1
75 60 1
120 60 1
61 61 1
76 61 1
121 61 1
62 62 1
77 62 1
122 62 1
63 63 1
78 63 1
123 63 1
64 64 1
79 64 1
124 64 1
65 65 1
80 65 1
125 65 1
66 66 1
81 66 1
126 66 1
67 67 1
82 67 1
127 67 1
68 68 1
83 68 1
128 68 1
69 69 1
84 69 1
129 69 1
70 70 1
85 70 1
130 70 1
71 71 1
86 71 1
131 71 1
72 72 1
87 72 1
132 72 1
73 73 1
88 73 1
133 73 1
74 74 1
89 74 1
134 74 1
75 75 1
90 75 1
135 75 1
76 76 1
91 76 1
136 76 1
77 77 1
92 77 1
137 77 1
78 78 1
93 78 1
138 78 1
79 79 1
94 79 1
139 79 1
80 80 1
95 80 1
140 80 1
81 81 1
96 81 1
141 81 1
82 82 1
97 82 1
142 82 1
83 83 1
98 83 1
143 83 1
84 84 1
99 84 1
144 84 1
85 85 1
100 85 1
145 85 1
86 86 1
101 86 1
146 86 1
87 87 1
102 87 1
147 87 1
88 88 1
103 88 1
148 88 1
89 89 1
104 89 1
149 89 1
90 90 1
105 90 1
150 90 1
91 91 1
106 91 1
151 91 1
92 92 1
107 92 1
152 92 1
93 93 1
108 93 1
153 93 1
94 94 1
109 94 1
154 94 1
95 95 1
110 95 1
155 95 1
96 96 1
111 96 1
156 96 1
97 97 1
112 97 1
157 97 1
98 98 1
113 98 1
158 98 1
99 99 1
114 99 1
159 99 1
100 100 1
115 100 1
160 100 1
101 101 1
116 101 1
161 101 1
102 102 1
117 102 1
162 102 1
103 103 1
118 103 1
163 103 1
104 104 1
119 104 1
164 104 1
105 105 1
120 105 1
165 105 1
106 106 1
121 106 1
166 106 1
107 107 1
122 107 1
167 107 1
108 108 1
123 108 1
168 108 1
109 109 1
124 109 1
169 109 1
110 110 1
125 110 1
170 110 1
111 111 1
126 111 1
171 111 1
112 112 1
127 112 1
172 112 1
113 113 1
128 113 1
173 113 1
114 114 1
129 114 1
174 114 1
115 115 1
130 115 1
175 115 1
116 116 1
131 116 1
176 116 1
117 117 1
132 117 1
177 117 1
118 118 1
133 118 1
178 118 1
119 119 1
134 119 1
179 119 1
120 120 1
135 120 1
180 120 1
121 121 1
136 121 1
181 121 1
122 122 1
137 122 1
182 122 1
123 123 1
138 123 1
183 123 1
124 124 1
139 124 1
184 124 1
125 125 1
140 125 1
185 125 1
126 126 1
141 126 1
186 126 1
127 127 1
142 127 1
187 127 1
128 128 1
143 128 1
188 128 1
129 129 1
144 129 1
189 129 1
130 130 1
145 130 1
190 130 1
131 131 1
146 131 1
191 131 1
132 132 1
147 132 1
192 132 1
133 133 1
148 133 1
193 133 1
134 134 1
149 134 1
194 134 1
135 135 1
150 135 1
195 135 1
136 136 1
151 136 1
196 136 1
137 137 1
152 137 1
197 137 1
138 138 1
153 138 1
198 138 1
139 139 1
154 139 1
199 139 1
140 140 1
155 140 1
200 140 1
141 141 1
156 141 1
201 141 1
142 142 1
157 142 1
202 142 1
143 143 1
158 143 1
203 143 1
144 144 1
159 144 1
204 144 1
145 145 1
160 145 1
205 145 1
146 146 1
161 146 1
206 146 1
147 147 1
162 147 1
207 147 1
148 148 1
163 148 1
208 148 1
149 149 1
164 149 1
209 149 1
150 150 1
165 150 1
210 150 1
151 151 1
166 151 1
211 151 1
152 152 1
167 152 1
212 152 1
153 153 1
168 153 1
213 153 1
154 154 1
169 154 1
214 154 1
155 155 1
170 155 1
215 155 1
156 156 1
171 156 1
216 156 1
157 157 1
172 157 1
217 157 1
158 158 1
173 158 1
218 158 1
159 159 1
174 159 1
219 159 1
160 160 1
175 160 1
220 160 1
161 161 1
176 161 1
221 161 1
162 162 1
177 162 1
222 162 1
163 163 1
178 163 1
223 163 1
164 164 1
179 164 1
224 164 1
165 165 1
180 165 1
225 165 1
1 166 1
166 166 1
181 166 1
2 167 1
167 167 1
182 167 1
3 168 1
168 168 1
183 168 1
4 169 1
169 169 1
184 169 1
5 170 1
170 170 1
185 170 1
6 171 1
171 171 1
186 171 1
7 172 1
172 172 1
187 172 1
8 173 1
173 173 1
188 173 1
9 174 1
174 174 1
189 174 1
10 175 1
175 175 1
190 175 1
11 176 1
176 176 1
191 176 1
12 177 1
177 177 1
192 177 1
13 178 1
178 178 1
193 178 1
14 179 1
179 179 1
194 179 1
15 180 1
180 180 1
195 180 1
16 181 1
181 181 1
196 181 1
17 182 1
182 182 1
197 182 1
18 183 1
183 183 1
198 183 1
19 184 1
184 184 1
199 184 1
20 185 1
185 185 1
200 185 1
21 186 1
186 186 1
201 186 1
22 187 1
187 187 1
202 187 1
23 188 1
188 188 1
203 188 1
24 189 1
189 189 1
204 189 1
25 190 1
190 190 1
205 190 1
26 191 1
191 191 1
206 191 1
27 192 1
192 192 1
207 192 1
28 193 1
193 193 1
208 193 1
29 194 1
194 194 1
209 194 1
30 195 1
195 195 1
210 195 1
31 196 1
196 196 1
211 196 1
32 197 1
197 197 1
212 197 1
33 198 1
198 198 1
213 198 1
34 199 1
199 199 1
214 199 1
35 200 1
200 200 1
215 200 1
36 201 1
201 201 1
216 201 1
37 202 1
202 202 1
217 202 1
38 203 1
203 203 1
218 203 1
39 204 1
204 204 1
219 204 1
40 205 1
205 205 1
220 205 1
41 206 1
206 206 1
221 206 1
42 207 1
207 207 1
222 207 1
43 208 1
208 208 1
223 208 1
44 209 1
209 209 1
224 209 1
45 210 1
210 210 1
225 210 1
1 211 1
46 211 1
211 211 1
2 212 1
47 212 1
212 212 1
3 213 1
48 213 1
213 213 1
4 214 1
49 214 1
214 214 1
5 215 1
50 215 1
215 215 1
6 216 1
51 216 1
216 216 1
7 217 1
52 217 1
217 217 1
8 218 1
53 218 1
218 218 1
9 219 1
54 219 1
219 219 1
10 220 1
55 220 1
220 220 1
11 221 1
56 221 1
221 221 1
12 222 1
57 222 1
222 222 1
13 223 1
58 223 1
223 223 1
14 224 1
59 224 1
224 224 1
15 225 1
60 225 1
225 225 1
1 226 1
2 226 1
5 226 1
2 227 1
3 227 1
6 227 1
3 228 1
4 228 1
7 228 1
4 229 1
5 229 1
8 229 1
5 230 1
6 230 1
9 230 1
6 231 1
7 231 1
10 231 1
7 232 1
8 232 1
11 232 1
8 233 1
9 233 1
12 233 1
9 234 1
10 234 1
13 234 1
10 235 1
11 235 1
14 235 1
11 236 1
12 236 1
15 236 1
1 237 1
12 237 1
13 237 1
2 238 1
13 238 1
14 238 1
3 239 1
14 239 1
15 239 1
1 240 1
4 240 1
15 240 1
16 241 1
17 241 1
20 241 1
17 242 1
18 242 1
21 242 1
18 243 1
19 243 1
22 243 1
19 244 1
20 244 1
23 244 1
20 245 1
21 245 1
24 245 1
21 246 1
22 246 1
25 246 1
22 247 1
23 247 1
26 247 1
23 248 1
24 248 1
27 248 1
24 249 1
25 249 1
28 249 1
25 250 1
26 250 1
29 250 1
26 251 1
27 251 1
30 251 1
16 252 1
27 252 1
28 252 1
17 253 1
28 253 1
29 253 1
18 254 1
29 254 1
30 254 1
16 255 1
19 255 1
30 255 1
31 256 1
32 256 1
35 256 1
32 257 1
33 257 1
36 257 1
33 258 1
34 258 1
37 258 1
34 259 1
35 259 1
38 259 1
35 260 1
36 260 1
39 260 1
36 261 1
37 261 1
40 261 1
37 262 1
38 262 1
41 262 1
38 263 1
39 263 1
42 263 1
39 264 1
40 264 1
43 264 1
40 265 1
41 265 1
44 265 1
41 266 1
42 266 1
45 266 1
31 267 1
42 267 1
43 267 1
32 268 1
43 268 1
44 268 1
33 269 1
44 269 1
45 269 1
31 270 1
34 270 1
45 270 1
46 271 1
47 271 1
50 271 1
47 272 1
48 272 1
51 272 1
48 273 1
49 273 1
52 273 1
49 274 1
50 274 1
53 274 1
50 275 1
51 275 1
54 275 1
51 276 1
52 276 1
55 276 1
52 277 1
53 277 1
56 277 1
53 278 1
54 278 1
57 278 1
54 279 1
55 279 1
58 279 1
55 280 1
56 280 1
59 280 1
56 281 1
57 281 1
60 281 1
46 282 1
57 282 1
58 282 1
47 283 1
58 283 1
59 283 1
48 284 1
59 284 1
60 284 1
46 285 1
49 285 1
60 285 1
61 286 1
62 286 1
65 286 1
62 287 1
63 287 1
66 287 1
63 288 1
64 288 1
67 288 1
64 289 1
65 289 1
68 289 1
65 290 1
66 290 1
69 290 1
66 291 1
67 291 1
70 291 1
67 292 1
68 292 1
71 292 1
68 293 1
69 293 1
72 293 1
69 294 1
70 294 1
73 294 1
70 295 1
71 295 1
74 295 1
71 296 1
72 296 1
75 296 1
61 297 1
72 297 1
73 297 1
62 298 1
73 298 1
74 298 1
63 299 1
74 299 1
75 299 1
61 300 1
64 300 1
75 300 1
76 301 1
77 301 1
80 301 1
77 302 1
78 302 1
81 302 1
78 303 1
79 303 1
82 303 1
79 304 1
80 304 1
83 304 1
80 305 1
81 305 1
84 305 1
81 306 1
82 306 1
85 306 1
82 307 1
83 307 1
86 307 1
83 308 1
84 308 1
87 308 1
84 309 1
85 309 1
88 309 1
85 310 1
86 310 1
89 310 1
86 311 1
87 311 1
90 311 1
76 312 1
87 312 1
88 312 1
77 313 1
88 313 1
89 313 1
78 314 1
89 314 1
90 314 1
76 315 1
79 315 1
90 315 1
91 316 1
92 316 1
95 316 1
92 317 1
93 317 1
96 317 1
93 318 1
94 318 1
97 318 1
94 319 1
95 319 1
98 319 1
95 320 1
96 320 1
99 320 1
96 321 1
97 321 1
100 321 1
97 322 1
98 322 1
101 322 1
98 323 1
99 323 1
102 323 1
99 324 1
100 324 1
103 324 1
100 325 1
101 325 1
104 325 1
101 326 1
102 326 1
105 326 1
91 327 1
102 327 1
103 327 1
92 328 1
103 328 1
104 328 1
93 329 1
104 329 1
105 329 1
91 330 1
94 330 1
105 330 1
106 331 1
107 331 1
110 331 1
107 332 1
108 332 1
111 332 1
108 333 1
109 333 1
112 333 1
109 334 1
110 334 1
113 334 1
110 335 1
111 335 1
114 335 1
111 336 1
112 336 1
115 336 1
112 337 1
113 337 1
116 337 1
113 338 1
114 338 1
117 338 1
114 339 1
115 339 1
118 339 1
115 340 1
116 340 1
119 340 1
116 341 1
117 341 1
120 341 1
106 342 1
117 342 1
118 342 1
107 343 1
118 343 1
119 343 1
108 344 1
119 344 1
120 344 1
106 345 1
109 345 1
120 345 1
121 346 1
122 346 1
125 346 1
122 347 1
123 347 1
126 347 1
123 348 1
124 348 1
127 348 1
124 349 1
125 349 1
128 349 1
125 350 1
126 350 1
129 350 1
126 351 1
127 351 1
130 351 1
127 352 1
128 352 1
131 352 1
128 353 1
129 353 1
132 353 1
129 354 1
130 354 1
133 354 1
130 355 1
131 355 1
134 355 1
131 356 1
132 356 1
135 356 1
121 357 1
132 357 1
133 357 1
122 358 1
133 358 1
134 358 1
123 359 1
134 359 1
135 359 1
121 360 1
124 360 1
135 360 1
136 361 1
137 361 1
140 361 1
137 362 1
138 362 1
141 362 1
138 363 1
139 363 1
142 363 1
139 364 1
140 364 1
143 364 1
140 365 1
141 365 1
144 365 1
141 366 1
142 366 1
145 366 1
142 367 1
143 367 1
146 367 1
143 368 1
144 368 1
147 368 1
144 369 1
145 369 1
148 369 1
145 370 1
146 370 1
149 370 1
146 371 1
147 371 1
150 371 1
136 372 1
147 372 1
148 372 1
137 373 1
148 373 1
149 373 1
138 374 1
149 374 1
150 374 1
136 375 1
139 375 1
150 375 1
151 376 1
152 376 1
155 376 1
152 377 1
153 377 1
156 377 1
153 378 1
154 378 1
157 378 1
154 379 1
155 379 1
158 379 1
155 380 1
156 380 1
159 380 1
156 381 1
157 381 1
160 381 1
157 382 1
158 382 1
161 382 1
158 383 1
159 383 1
162 383 1
159 384 1
160 384 1
163 384 1
160 385 1
161 385 1
164 385 1
161 386 1
162 386 1
165 386 1
151 387 1
162 387 1
163 387 1
152 388 1
163 388 1
164 388 1
153 389 1
164 389 1
165 389 1
151 390 1
154 390 1
165 390 1
166 391 1
167 391 1
170 391 1
167 392 1
168 392 1
171 392 1
168 393 1
169 393 1
172 393 1
169 394 1
170 394 1
173 394 1
170 395 1
171 395 1
174 395 1
171 396 1
172 396 1
175 396 1
172 397 1
173 397 1
176 397 1
173 398 1
174 398 1
177 398 1
174 399 1
175 399 1
178 399 1
175 400 1
176 400 1
179 400 1
176 401 1
177 401 1
180 401 1
166 402 1
177 402 1
178 402 1
167 403 1
178 403 1
179 403 1
168 404 1
179 404 1
180 404 1
166 405 1
169 405 1
180 405 1
181 406 1
182 406 1
185 406 1
182 407 1
183 407 1
186 407 1
183 408 1
184 408 1
187 408 1
184 409 1
185 409 1
188 409 1
185 410 1
186 410 1
189 410 1
186 411 1
187 411 1
190 411 1
187 412 1
188 412 1
191 412 1
188 413 1
189 413 1
192 413 1
189 414 1
190 414 1
193 414 1
190 415 1
191 415 1
194 415 1
191 416 1
192 416 1
195 416 1
181 417 1
192 417 1
193 417 1
182 418 1
193 418 1
194 418 1
183 419 1
194 419 1
195 419 1
181 420 1
184 420 1
195 420 1
196 421 1
197 421 1
200 421 1
197 422 1
198 422 1
201 422 1
198 423 1
199 423 1
202 423 1
199 424 1
200 424 1
203 424 1
200 425 1
201 425 1
204 425 1
201 426 1
202 426 1
205 426 1
202 427 1
203 427 1
206 427 1
203 428 1
204 428 1
207 428 1
204 429 1
205 429 1
208 429 1
205 430 1
206 430 1
209 430 1
206 431 1
207 431 1
210 431 1
196 432 1
207 432 1
208 432 1
197 433 1
208 433 1
209 433 1
198 434 1
209 434 1
210 434 1
196 435 1
199 435 1
210 435 1
211 436 1
212 436 1
215 436 1
212 437 1
213 437 1
216 437 1
213 438 1
214 438 1
217 438 1
214 439 1
215 439 1
218 439 1
215 440 1
216 440 1
219 440 1
216 441 1
217 441 1
220 441 1
217 442 1
218 442 1
221 442 1
218 443 1
219 443 1
222 443 1
219 444 1
220 444 1
223 444 1
220 445 1
221 445 1
224 445 1
221 446 1
222 446 1
225 446 1
211 447 1
222 447 1
223 447 1
212 448 1
223 448 1
224 448 1
213 449 1
224 449 1
225 449 1
211 450 1
214 450 1
225 450 1
