%%MatrixMarket matrix coordinate integer general
% Binary matrix; one-based indices; arithmetic over GF(2)
176 264 1056
1 1 1
24 1 1
45 1 1
63 1 1
2 2 1
25 2 1
46 2 1
64 2 1
3 3 1
26 3 1
47 3 1
65 3 1
4 4 1
27 4 1
48 4 1
66 4 1
5 5 1
28 5 1
49 5 1
67 5 1
6 6 1
29 6 1
50 6 1
68 6 1
7 7 1
30 7 1
51 7 1
69 7 1
8 8 1
31 8 1
52 8 1
70 8 1
9 9 1
32 9 1
53 9 1
71 9 1
10 10 1
33 10 1
54 10 1
72 10 1
11 11 1
34 11 1
55 11 1
73 11 1
12 12 1
35 12 1
56 12 1
74 12 1
13 13 1
36 13 1
57 13 1
75 13 1
14 14 1
37 14 1
58 14 1
76 14 1
15 15 1
38 15 1
59 15 1
77 15 1
16 16 1
39 16 1
60 16 1
78 16 1
17 17 1
40 17 1
61 17 1
79 17 1
18 18 1
41 18 1
62 18 1
80 18 1
19 19 1
42 19 1
63 19 1
81 19 1
20 20 1
43 20 1
64 20 1
82 20 1
21 21 1
44 21 1
65 21 1
83 21 1
1 22 1
22 22 1
66 22 1
84 22 1
2 23 1
23 23 1
67 23 1
85 23 1
3 24 1
24 24 1
68 24 1
86 24 1
4 25 1
25 25 1
69 25 1
87 25 1
5 26 1
26 26 1
70 26 1
88 26 1
6 27 1
27 27 1
45 27 1
71 27 1
7 28 1
28 28 1
46 28 1
72 28 1
8 29 1
29 29 1
47 29 1
73 29 1
9 30 1
30 30 1
48 30 1
74 30 1
10 31 1
31 31 1
49 31 1
75 31 1
11 32 1
32 32 1
50 32 1
76 32 1
12 33 1
33 33 1
51 33 1
77 33 1
13 34 1
34 34 1
52 34 1
78 34 1
14 35 1
35 35 1
53 35 1
79 35 1
15 36 1
36 36 1
54 36 1
80 36 1
16 37 1
37 37 1
55 37 1
81 37 1
17 38 1
38 38 1
56 38 1
82 38 1
18 39 1
39 39 1
57 39 1
83 39 1
19 40 1
40 40 1
58 40 1
84 40 1
20 41 1
41 41 1
59 41 1
85 41 1
21 42 1
42 42 1
60 42 1
86 42 1
22 43 1
43 43 1
61 43 1
87 43 1
23 44 1
44 44 1
62 44 1
88 44 1
1 45 1
38 45 1
89 45 1
107 45 1
2 46 1
39 46 1
90 46 1
108 46 1
3 47 1
40 47 1
91 47 1
109 47 1
4 48 1
41 48 1
92 48 1
110 48 1
5 49 1
42 49 1
93 49 1
111 49 1
6 50 1
43 50 1
94 50 1
112 50 1
7 51 1
44 51 1
95 51 1
113 51 1
1 52 1
8 52 1
96 52 1
114 52 1
2 53 1
9 53 1
97 53 1
115 53 1
3 54 1
10 54 1
98 54 1
116 54 1
4 55 1
11 55 1
99 55 1
117 55 1
5 56 1
12 56 1
100 56 1
118 56 1
6 57 1
13 57 1
101 57 1
119 57 1
7 58 1
14 58 1
102 58 1
120 58 1
8 59 1
15 59 1
103 59 1
121 59 1
9 60 1
16 60 1
104 60 1
122 60 1
10 61 1
17 61 1
105 61 1
123 61 1
11 62 1
18 62 1
106 62 1
124 62 1
12 63 1
19 63 1
107 63 1
125 63 1
13 64 1
20 64 1
108 64 1
126 64 1
14 65 1
21 65 1
109 65 1
127 65 1
15 66 1
22 66 1
110 66 1
128 66 1
16 67 1
23 67 1
111 67 1
129 67 1
17 68 1
24 68 1
112 68 1
130 68 1
18 69 1
25 69 1
113 69 1
131 69 1
19 70 1
26 70 1
114 70 1
132 70 1
20 71 1
27 71 1
89 71 1
115 71 1
21 72 1
28 72 1
90 72 1
116 72 1
22 73 1
29 73 1
91 73 1
117 73 1
23 74 1
30 74 1
92 74 1
118 74 1
24 75 1
31 75 1
93 75 1
119 75 1
25 76 1
32 76 1
94 76 1
120 76 1
26 77 1
33 77 1
95 77 1
121 77 1
27 78 1
34 78 1
96 78 1
122 78 1
28 79 1
35 79 1
97 79 1
123 79 1
29 80 1
36 80 1
98 80 1
124 80 1
30 81 1
37 81 1
99 81 1
125 81 1
31 82 1
38 82 1
100 82 1
126 82 1
32 83 1
39 83 1
101 83 1
127 83 1
33 84 1
40 84 1
102 84 1
128 84 1
34 85 1
41 85 1
103 85 1
129 85 1
35 86 1
42 86 1
104 86 1
130 86 1
36 87 1
43 87 1
105 87 1
131 87 1
37 88 1
44 88 1
106 88 1
132 88 1
45 89 1
82 89 1
89 89 1
112 89 1
46 90 1
83 90 1
90 90 1
113 90 1
47 91 1
84 91 1
91 91 1
114 91 1
48 92 1
85 92 1
92 92 1
115 92 1
49 93 1
86 93 1
93 93 1
116 93 1
50 94 1
87 94 1
94 94 1
117 94 1
51 95 1
88 95 1
95 95 1
118 95 1
45 96 1
52 96 1
96 96 1
119 96 1
46 97 1
53 97 1
97 97 1
120 97 1
47 98 1
54 98 1
98 98 1
121 98 1
48 99 1
55 99 1
99 99 1
122 99 1
49 100 1
56 100 1
100 100 1
123 100 1
50 101 1
57 101 1
101 101 1
124 101 1
51 102 1
58 102 1
102 102 1
125 102 1
52 103 1
59 103 1
103 103 1
126 103 1
53 104 1
60 104 1
104 104 1
127 104 1
54 105 1
61 105 1
105 105 1
128 105 1
55 106 1
62 106 1
106 106 1
129 106 1
56 107 1
63 107 1
107 107 1
130 107 1
57 108 1
64 108 1
108 108 1
131 108 1
58 109 1
65 109 1
109 109 1
132 109 1
59 110 1
66 110 1
89 110 1
110 110 1
60 111 1
67 111 1
90 111 1
111 111 1
61 112 1
68 112 1
91 112 1
112 112 1
62 113 1
69 113 1
92 113 1
113 113 1
63 114 1
70 114 1
93 114 1
114 114 1
64 115 1
71 115 1
94 115 1
115 115 1
65 116 1
72 116 1
95 116 1
116 116 1
66 117 1
73 117 1
96 117 1
117 117 1
67 118 1
74 118 1
97 118 1
118 118 1
68 119 1
75 119 1
98 119 1
119 119 1
69 120 1
76 120 1
99 120 1
120 120 1
70 121 1
77 121 1
100 121 1
121 121 1
71 122 1
78 122 1
101 122 1
122 122 1
72 123 1
79 123 1
102 123 1
123 123 1
73 124 1
80 124 1
103 124 1
124 124 1
74 125 1
81 125 1
104 125 1
125 125 1
75 126 1
82 126 1
105 126 1
126 126 1
76 127 1
83 127 1
106 127 1
127 127 1
77 128 1
84 128 1
107 128 1
128 128 1
78 129 1
85 129 1
108 129 1
129 129 1
79 130 1
86 130 1
109 130 1
130 130 1
80 131 1
87 131 1
110 131 1
131 131 1
81 132 1
88 132 1
111 132 1
132 132 1
1 133 1
39 133 1
133 133 1
151 133 1
2 134 1
40 134 1
134 134 1
152 134 1
3 135 1
41 135 1
135 135 1
153 135 1
4 136 1
42 136 1
136 136 1
154 136 1
5 137 1
43 137 1
137 137 1
155 137 1
6 138 1
44 138 1
138 138 1
156 138 1
1 139 1
7 139 1
139 139 1
157 139 1
2 140 1
8 140 1
140 140 1
158 140 1
3 141 1
9 141 1
141 141 1
159 141 1
4 142 1
10 142 1
142 142 1
160 142 1
5 143 1
11 143 1
143 143 1
161 143 1
6 144 1
12 144 1
144 144 1
162 144 1
7 145 1
13 145 1
145 145 1
163 145 1
8 146 1
14 146 1
146 146 1
164 146 1
9 147 1
15 147 1
147 147 1
165 147 1
10 148 1
16 148 1
148 148 1
166 148 1
11 149 1
17 149 1
149 149 1
167 149 1
12 150 1
18 150 1
150 150 1
168 150 1
13 151 1
19 151 1
151 151 1
169 151 1
14 152 1
20 152 1
152 152 1
170 152 1
15 153 1
21 153 1
153 153 1
171 153 1
16 154 1
22 154 1
154 154 1
172 154 1
17 155 1
23 155 1
155 155 1
173 155 1
18 156 1
24 156 1
156 156 1
174 156 1
19 157 1
25 157 1
157 157 1
175 157 1
20 158 1
26 158 1
158 158 1
176 158 1
21 159 1
27 159 1
133 159 1
159 159 1
22 160 1
28 160 1
134 160 1
160 160 1
23 161 1
29 161 1
135 161 1
161 161 1
24 162 1
30 162 1
136 162 1
162 162 1
25 163 1
31 163 1
137 163 1
163 163 1
26 164 1
32 164 1
138 164 1
164 164 1
27 165 1
33 165 1
139 165 1
165 165 1
28 166 1
34 166 1
140 166 1
166 166 1
29 167 1
35 167 1
141 167 1
167 167 1
30 168 1
36 168 1
142 168 1
168 168 1
31 169 1
37 169 1
143 169 1
169 169 1
32 170 1
38 170 1
144 170 1
170 170 1
33 171 1
39 171 1
145 171 1
171 171 1
34 172 1
40 172 1
146 172 1
172 172 1
35 173 1
41 173 1
147 173 1
173 173 1
36 174 1
42 174 1
148 174 1
174 174 1
37 175 1
43 175 1
149 175 1
175 175 1
38 176 1
44 176 1
150 176 1
176 176 1
45 177 1
83 177 1
133 177 1
156 177 1
46 178 1
84 178 1
134 178 1
157 178 1
47 179 1
85 179 1
135 179 1
158 179 1
48 180 1
86 180 1
136 180 1
159 180 1
49 181 1
87 181 1
137 181 1
160 181 1
50 182 1
88 182 1
138 182 1
161 182 1
45 183 1
51 183 1
139 183 1
162 183 1
46 184 1
52 184 1
140 184 1
163 184 1
47 185 1
53 185 1
141 185 1
164 185 1
48 186 1
54 186 1
142 186 1
165 186 1
49 187 1
55 187 1
143 187 1
166 187 1
50 188 1
56 188 1
144 188 1
167 188 1
51 189 1
57 189 1
145 189 1
168 189 1
52 190 1
58 190 1
146 190 1
169 190 1
53 191 1
59 191 1
147 191 1
170 191 1
54 192 1
60 192 1
148 192 1
171 192 1
55 193 1
61 193 1
149 193 1
172 193 1
56 194 1
62 194 1
150 194 1
173 194 1
57 195 1
63 195 1
151 195 1
174 195 1
58 196 1
64 196 1
152 196 1
175 196 1
59 197 1
65 197 1
153 197 1
176 197 1
60 198 1
66 198 1
133 198 1
154 198 1
61 199 1
67 199 1
134 199 1
155 199 1
62 200 1
68 200 1
135 200 1
156 200 1
63 201 1
69 201 1
136 201 1
157 201 1
64 202 1
70 202 1
137 202 1
158 202 1
65 203 1
71 203 1
138 203 1
159 203 1
66 204 1
72 204 1
139 204 1
160 204 1
67 205 1
73 205 1
140 205 1
161 205 1
68 206 1
74 206 1
141 206 1
162 206 1
69 207 1
75 207 1
142 207 1
163 207 1
70 208 1
76 208 1
143 208 1
164 208 1
71 209 1
77 209 1
144 209 1
165 209 1
72 210 1
78 210 1
145 210 1
166 210 1
73 211 1
79 211 1
146 211 1
167 211 1
74 212 1
80 212 1
147 212 1
168 212 1
75 213 1
81 213 1
148 213 1
169 213 1
76 214 1
82 214 1
149 214 1
170 214 1
77 215 1
83 215 1
150 215 1
171 215 1
78 216 1
84 216 1
151 216 1
172 216 1
79 217 1
85 217 1
152 217 1
173 217 1
80 218 1
86 218 1
153 218 1
174 218 1
81 219 1
87 219 1
154 219 1
175 219 1
82 220 1
88 220 1
155 220 1
176 220 1
89 221 1
127 221 1
133 221 1
170 221 1
90 222 1
128 222 1
134 222 1
171 222 1
91 223 1
129 223 1
135 223 1
172 223 1
92 224 1
130 224 1
136 224 1
173 224 1
93 225 1
131 225 1
137 225 1
174 225 1
94 226 1
132 226 1
138 226 1
175 226 1
89 227 1
95 227 1
139 227 1
176 227 1
90 228 1
96 228 1
133 228 1
140 228 1
91 229 1
97 229 1
134 229 1
141 229 1
92 230 1
98 230 1
135 230 1
142 230 1
93 231 1
99 231 1
136 231 1
143 231 1
94 232 1
100 232 1
137 232 1
144 232 1
95 233 1
101 233 1
138 233 1
145 233 1
96 234 1
102 234 1
139 234 1
146 234 1
97 235 1
103 235 1
140 235 1
147 235 1
98 236 1
104 236 1
141 236 1
148 236 1
99 237 1
105 237 1
142 237 1
149 237 1
100 238 1
106 238 1
143 238 1
150 238 1
101 239 1
107 239 1
144 239 1
151 239 1
102 240 1
108 240 1
145 240 1
152 240 1
103 241 1
109 241 1
146 241 1
153 241 1
104 242 1
110 242 1
147 242 1
154 242 1
105 243 1
111 243 1
148 243 1
155 243 1
106 244 1
112 244 1
149 244 1
156 244 1
107 245 1
113 245 1
150 245 1
157 245 1
108 246 1
114 246 1
151 246 1
158 246 1
109 247 1
115 247 1
152 247 1
159 247 1
110 248 1
116 248 1
153 248 1
160 248 1
111 249 1
117 249 1
154 249 1
161 249 1
112 250 1
118 250 1
155 250 1
162 250 1
113 251 1
119 251 1
156 251 1
163 251 1
114 252 1
120 252 1
157 252 1
164 252 1
115 253 1
121 253 1
158 253 1
165 253 1
116 254 1
122 254 1
159 254 1
166 254 1
117 255 1
123 255 1
160 255 1
167 255 1
118 256 1
124 256 1
161 256 1
168 256 1
119 257 1
125 257 1
162 257 1
169 257 1
120 258 1
126 258 1
163 258 1
170 258 1
121 259 1
127 259 1
164 259 1
171 259 1
122 260 1
128 260 1
165 260 1
172 260 1
123 261 1
129 261 1
166 261 1
173 261 1
124 262 1
130 262 1
167 262 1
174 262 1
125 263 1
131 263 1
168 263 1
175 263 1
126 264 1
132 264 1
169 264 1
176 264 1
