%%MatrixMarket matrix coordinate integer general
% Binary matrix; one-based indices; arithmetic over GF(2)
90 90 540
1 1 1
6 1 1
10 1 1
12 1 1
37 1 1
38 1 1
2 2 1
7 2 1
11 2 1
13 2 1
38 2 1
39 2 1
3 3 1
8 3 1
12 3 1
14 3 1
39 3 1
40 3 1
4 4 1
9 4 1
13 4 1
15 4 1
40 4 1
41 4 1
1 5 1
5 5 1
14 5 1
16 5 1
41 5 1
42 5 1
2 6 1
6 6 1
15 6 1
17 6 1
42 6 1
43 6 1
3 7 1
7 7 1
16 7 1
18 7 1
43 7 1
44 7 1
4 8 1
8 8 1
10 8 1
17 8 1
44 8 1
45 8 1
5 9 1
9 9 1
11 9 1
18 9 1
37 9 1
45 9 1
1 10 1
8 10 1
19 10 1
21 10 1
46 10 1
47 10 1
2 11 1
9 11 1
20 11 1
22 11 1
47 11 1
48 11 1
1 12 1
3 12 1
21 12 1
23 12 1
48 12 1
49 12 1
2 13 1
4 13 1
22 13 1
24 13 1
49 13 1
50 13 1
3 14 1
5 14 1
23 14 1
25 14 1
50 14 1
51 14 1
4 15 1
6 15 1
24 15 1
26 15 1
51 15 1
52 15 1
5 16 1
7 16 1
25 16 1
27 16 1
52 16 1
53 16 1
6 17 1
8 17 1
19 17 1
26 17 1
53 17 1
54 17 1
7 18 1
9 18 1
20 18 1
27 18 1
46 18 1
54 18 1
1 19 1
9 19 1
28 19 1
30 19 1
55 19 1
56 19 1
1 20 1
2 20 1
29 20 1
31 20 1
56 20 1
57 20 1
2 21 1
3 21 1
30 21 1
32 21 1
57 21 1
58 21 1
3 22 1
4 22 1
31 22 1
33 22 1
58 22 1
59 22 1
4 23 1
5 23 1
32 23 1
34 23 1
59 23 1
60 23 1
5 24 1
6 24 1
33 24 1
35 24 1
60 24 1
61 24 1
6 25 1
7 25 1
34 25 1
36 25 1
61 25 1
62 25 1
7 26 1
8 26 1
28 26 1
35 26 1
62 26 1
63 26 1
8 27 1
9 27 1
29 27 1
36 27 1
55 27 1
63 27 1
10 28 1
17 28 1
19 28 1
24 28 1
64 28 1
65 28 1
11 29 1
18 29 1
20 29 1
25 29 1
65 29 1
66 29 1
10 30 1
12 30 1
21 30 1
26 30 1
66 30 1
67 30 1
11 31 1
13 31 1
22 31 1
27 31 1
67 31 1
68 31 1
12 32 1
14 32 1
19 32 1
23 32 1
68 32 1
69 32 1
13 33 1
15 33 1
20 33 1
24 33 1
69 33 1
70 33 1
14 34 1
16 34 1
21 34 1
25 34 1
70 34 1
71 34 1
15 35 1
17 35 1
22 35 1
26 35 1
71 35 1
72 35 1
16 36 1
18 36 1
23 36 1
27 36 1
64 36 1
72 36 1
10 37 1
18 37 1
28 37 1
33 37 1
73 37 1
74 37 1
10 38 1
11 38 1
29 38 1
34 38 1
74 38 1
75 38 1
11 39 1
12 39 1
30 39 1
35 39 1
75 39 1
76 39 1
12 40 1
13 40 1
31 40 1
36 40 1
76 40 1
77 40 1
13 41 1
14 41 1
28 41 1
32 41 1
77 41 1
78 41 1
14 42 1
15 42 1
29 42 1
33 42 1
78 42 1
79 42 1
15 43 1
16 43 1
30 43 1
34 43 1
79 43 1
80 43 1
16 44 1
17 44 1
31 44 1
35 44 1
80 44 1
81 44 1
17 45 1
18 45 1
32 45 1
36 45 1
73 45 1
81 45 1
19 46 1
27 46 1
28 46 1
35 46 1
82 46 1
83 46 1
19 47 1
20 47 1
29 47 1
36 47 1
83 47 1
84 47 1
20 48 1
21 48 1
28 48 1
30 48 1
84 48 1
85 48 1
21 49 1
22 49 1
29 49 1
31 49 1
85 49 1
86 49 1
22 50 1
23 50 1
30 50 1
32 50 1
86 50 1
87 50 1
23 51 1
24 51 1
31 51 1
33 51 1
87 51 1
88 51 1
24 52 1
25 52 1
32 52 1
34 52 1
88 52 1
89 52 1
25 53 1
26 53 1
33 53 1
35 53 1
89 53 1
90 53 1
26 54 1
27 54 1
34 54 1
36 54 1
82 54 1
90 54 1
37 55 1
44 55 1
46 55 1
51 55 1
64 55 1
66 55 1
38 56 1
45 56 1
47 56 1
52 56 1
65 56 1
67 56 1
37 57 1
39 57 1
48 57 1
53 57 1
66 57 1
68 57 1
38 58 1
40 58 1
49 58 1
54 58 1
67 58 1
69 58 1
39 59 1
41 59 1
46 59 1
50 59 1
68 59 1
70 59 1
40 60 1
42 60 1
47 60 1
51 60 1
69 60 1
71 60 1
41 61 1
43 61 1
48 61 1
52 61 1
70 61 1
72 61 1
42 62 1
44 62 1
49 62 1
53 62 1
64 62 1
71 62 1
43 63 1
45 63 1
50 63 1
54 63 1
65 63 1
72 63 1
37 64 1
45 64 1
55 64 1
60 64 1
73 64 1
75 64 1
37 65 1
38 65 1
56 65 1
61 65 1
74 65 1
76 65 1
38 66 1
39 66 1
57 66 1
62 66 1
75 66 1
77 66 1
39 67 1
40 67 1
58 67 1
63 67 1
76 67 1
78 67 1
40 68 1
41 68 1
55 68 1
59 68 1
77 68 1
79 68 1
41 69 1
42 69 1
56 69 1
60 69 1
78 69 1
80 69 1
42 70 1
43 70 1
57 70 1
61 70 1
79 70 1
81 70 1
43 71 1
44 71 1
58 71 1
62 71 1
73 71 1
80 71 1
44 72 1
45 72 1
59 72 1
63 72 1
74 72 1
81 72 1
46 73 1
54 73 1
55 73 1
62 73 1
82 73 1
84 73 1
46 74 1
47 74 1
56 74 1
63 74 1
83 74 1
85 74 1
47 75 1
48 75 1
55 75 1
57 75 1
84 75 1
86 75 1
48 76 1
49 76 1
56 76 1
58 76 1
85 76 1
87 76 1
49 77 1
50 77 1
57 77 1
59 77 1
86 77 1
88 77 1
50 78 1
51 78 1
58 78 1
60 78 1
87 78 1
89 78 1
51 79 1
52 79 1
59 79 1
61 79 1
88 79 1
90 79 1
52 80 1
53 80 1
60 80 1
62 80 1
82 80 1
89 80 1
53 81 1
54 81 1
61 81 1
63 81 1
83 81 1
90 81 1
64 82 1
72 82 1
73 82 1
80 82 1
82 82 1
87 82 1
64 83 1
65 83 1
74 83 1
81 83 1
83 83 1
88 83 1
65 84 1
66 84 1
73 84 1
75 84 1
84 84 1
89 84 1
66 85 1
67 85 1
74 85 1
76 85 1
85 85 1
90 85 1
67 86 1
68 86 1
75 86 1
77 86 1
82 86 1
86 86 1
68 87 1
69 87 1
76 87 1
78 87 1
83 87 1
87 87 1
69 88 1
70 88 1
77 88 1
79 88 1
84 88 1
88 88 1
70 89 1
71 89 1
78 89 1
80 89 1
85 89 1
89 89 1
71 90 1
72 90 1
79 90 1
81 90 1
86 90 1
90 90 1
