%%MatrixMarket matrix coordinate integer general
% Binary matrix; one-based indices; arithmetic over GF(2)
975 1300 7800
1 1 1
23 1 1
66 1 1
86 1 1
326 1 1
338 1 1
2 2 1
24 2 1
67 2 1
87 2 1
327 2 1
339 2 1
3 3 1
25 3 1
68 3 1
88 3 1
328 3 1
340 3 1
4 4 1
26 4 1
69 4 1
89 4 1
329 4 1
341 4 1
5 5 1
27 5 1
70 5 1
90 5 1
330 5 1
342 5 1
6 6 1
28 6 1
71 6 1
91 6 1
331 6 1
343 6 1
7 7 1
29 7 1
72 7 1
92 7 1
332 7 1
344 7 1
8 8 1
30 8 1
73 8 1
93 8 1
333 8 1
345 8 1
9 9 1
31 9 1
74 9 1
94 9 1
334 9 1
346 9 1
10 10 1
32 10 1
75 10 1
95 10 1
335 10 1
347 10 1
11 11 1
33 11 1
76 11 1
96 11 1
336 11 1
348 11 1
12 12 1
34 12 1
77 12 1
97 12 1
337 12 1
349 12 1
13 13 1
35 13 1
78 13 1
98 13 1
338 13 1
350 13 1
14 14 1
36 14 1
79 14 1
99 14 1
339 14 1
351 14 1
15 15 1
37 15 1
80 15 1
100 15 1
340 15 1
352 15 1
16 16 1
38 16 1
81 16 1
101 16 1
341 16 1
353 16 1
17 17 1
39 17 1
82 17 1
102 17 1
342 17 1
354 17 1
18 18 1
40 18 1
83 18 1
103 18 1
343 18 1
355 18 1
19 19 1
41 19 1
84 19 1
104 19 1
344 19 1
356 19 1
20 20 1
42 20 1
85 20 1
105 20 1
345 20 1
357 20 1
21 21 1
43 21 1
86 21 1
106 21 1
346 21 1
358 21 1
22 22 1
44 22 1
87 22 1
107 22 1
347 22 1
359 22 1
23 23 1
45 23 1
88 23 1
108 23 1
348 23 1
360 23 1
24 24 1
46 24 1
89 24 1
109 24 1
349 24 1
361 24 1
25 25 1
47 25 1
90 25 1
110 25 1
350 25 1
362 25 1
26 26 1
48 26 1
91 26 1
111 26 1
351 26 1
363 26 1
27 27 1
49 27 1
92 27 1
112 27 1
352 27 1
364 27 1
28 28 1
50 28 1
93 28 1
113 28 1
353 28 1
365 28 1
29 29 1
51 29 1
94 29 1
114 29 1
354 29 1
366 29 1
30 30 1
52 30 1
95 30 1
115 30 1
355 30 1
367 30 1
31 31 1
53 31 1
96 31 1
116 31 1
356 31 1
368 31 1
32 32 1
54 32 1
97 32 1
117 32 1
357 32 1
369 32 1
33 33 1
55 33 1
98 33 1
118 33 1
358 33 1
370 33 1
34 34 1
56 34 1
99 34 1
119 34 1
359 34 1
371 34 1
35 35 1
57 35 1
100 35 1
120 35 1
360 35 1
372 35 1
36 36 1
58 36 1
101 36 1
121 36 1
361 36 1
373 36 1
37 37 1
59 37 1
102 37 1
122 37 1
362 37 1
374 37 1
38 38 1
60 38 1
103 38 1
123 38 1
363 38 1
375 38 1
39 39 1
61 39 1
104 39 1
124 39 1
364 39 1
376 39 1
40 40 1
62 40 1
105 40 1
125 40 1
365 40 1
377 40 1
41 41 1
63 41 1
106 41 1
126 41 1
366 41 1
378 41 1
42 42 1
64 42 1
107 42 1
127 42 1
367 42 1
379 42 1
43 43 1
65 43 1
108 43 1
128 43 1
368 43 1
380 43 1
1 44 1
44 44 1
109 44 1
129 44 1
369 44 1
381 44 1
2 45 1
45 45 1
110 45 1
130 45 1
370 45 1
382 45 1
3 46 1
46 46 1
66 46 1
111 46 1
371 46 1
383 46 1
4 47 1
47 47 1
67 47 1
112 47 1
372 47 1
384 47 1
5 48 1
48 48 1
68 48 1
113 48 1
373 48 1
385 48 1
6 49 1
49 49 1
69 49 1
114 49 1
374 49 1
386 49 1
7 50 1
50 50 1
70 50 1
115 50 1
375 50 1
387 50 1
8 51 1
51 51 1
71 51 1
116 51 1
376 51 1
388 51 1
9 52 1
52 52 1
72 52 1
117 52 1
377 52 1
389 52 1
10 53 1
53 53 1
73 53 1
118 53 1
378 53 1
390 53 1
11 54 1
54 54 1
74 54 1
119 54 1
326 54 1
379 54 1
12 55 1
55 55 1
75 55 1
120 55 1
327 55 1
380 55 1
13 56 1
56 56 1
76 56 1
121 56 1
328 56 1
381 56 1
14 57 1
57 57 1
77 57 1
122 57 1
329 57 1
382 57 1
15 58 1
58 58 1
78 58 1
123 58 1
330 58 1
383 58 1
16 59 1
59 59 1
79 59 1
124 59 1
331 59 1
384 59 1
17 60 1
60 60 1
80 60 1
125 60 1
332 60 1
385 60 1
18 61 1
61 61 1
81 61 1
126 61 1
333 61 1
386 61 1
19 62 1
62 62 1
82 62 1
127 62 1
334 62 1
387 62 1
20 63 1
63 63 1
83 63 1
128 63 1
335 63 1
388 63 1
21 64 1
64 64 1
84 64 1
129 64 1
336 64 1
389 64 1
22 65 1
65 65 1
85 65 1
130 65 1
337 65 1
390 65 1
1 66 1
25 66 1
131 66 1
151 66 1
391 66 1
403 66 1
2 67 1
26 67 1
132 67 1
152 67 1
392 67 1
404 67 1
3 68 1
27 68 1
133 68 1
153 68 1
393 68 1
405 68 1
4 69 1
28 69 1
134 69 1
154 69 1
394 69 1
406 69 1
5 70 1
29 70 1
135 70 1
155 70 1
395 70 1
407 70 1
6 71 1
30 71 1
136 71 1
156 71 1
396 71 1
408 71 1
7 72 1
31 72 1
137 72 1
157 72 1
397 72 1
409 72 1
8 73 1
32 73 1
138 73 1
158 73 1
398 73 1
410 73 1
9 74 1
33 74 1
139 74 1
159 74 1
399 74 1
411 74 1
10 75 1
34 75 1
140 75 1
160 75 1
400 75 1
412 75 1
11 76 1
35 76 1
141 76 1
161 76 1
401 76 1
413 76 1
12 77 1
36 77 1
142 77 1
162 77 1
402 77 1
414 77 1
13 78 1
37 78 1
143 78 1
163 78 1
403 78 1
415 78 1
14 79 1
38 79 1
144 79 1
164 79 1
404 79 1
416 79 1
15 80 1
39 80 1
145 80 1
165 80 1
405 80 1
417 80 1
16 81 1
40 81 1
146 81 1
166 81 1
406 81 1
418 81 1
17 82 1
41 82 1
147 82 1
167 82 1
407 82 1
419 82 1
18 83 1
42 83 1
148 83 1
168 83 1
408 83 1
420 83 1
19 84 1
43 84 1
149 84 1
169 84 1
409 84 1
421 84 1
20 85 1
44 85 1
150 85 1
170 85 1
410 85 1
422 85 1
21 86 1
45 86 1
151 86 1
171 86 1
411 86 1
423 86 1
22 87 1
46 87 1
152 87 1
172 87 1
412 87 1
424 87 1
23 88 1
47 88 1
153 88 1
173 88 1
413 88 1
425 88 1
24 89 1
48 89 1
154 89 1
174 89 1
414 89 1
426 89 1
25 90 1
49 90 1
155 90 1
175 90 1
415 90 1
427 90 1
26 91 1
50 91 1
156 91 1
176 91 1
416 91 1
428 91 1
27 92 1
51 92 1
157 92 1
177 92 1
417 92 1
429 92 1
28 93 1
52 93 1
158 93 1
178 93 1
418 93 1
430 93 1
29 94 1
53 94 1
159 94 1
179 94 1
419 94 1
431 94 1
30 95 1
54 95 1
160 95 1
180 95 1
420 95 1
432 95 1
31 96 1
55 96 1
161 96 1
181 96 1
421 96 1
433 96 1
32 97 1
56 97 1
162 97 1
182 97 1
422 97 1
434 97 1
33 98 1
57 98 1
163 98 1
183 98 1
423 98 1
435 98 1
34 99 1
58 99 1
164 99 1
184 99 1
424 99 1
436 99 1
35 100 1
59 100 1
165 100 1
185 100 1
425 100 1
437 100 1
36 101 1
60 101 1
166 101 1
186 101 1
426 101 1
438 101 1
37 102 1
61 102 1
167 102 1
187 102 1
427 102 1
439 102 1
38 103 1
62 103 1
168 103 1
188 103 1
428 103 1
440 103 1
39 104 1
63 104 1
169 104 1
189 104 1
429 104 1
441 104 1
40 105 1
64 105 1
170 105 1
190 105 1
430 105 1
442 105 1
41 106 1
65 106 1
171 106 1
191 106 1
431 106 1
443 106 1
1 107 1
42 107 1
172 107 1
192 107 1
432 107 1
444 107 1
2 108 1
43 108 1
173 108 1
193 108 1
433 108 1
445 108 1
3 109 1
44 109 1
174 109 1
194 109 1
434 109 1
446 109 1
4 110 1
45 110 1
175 110 1
195 110 1
435 110 1
447 110 1
5 111 1
46 111 1
131 111 1
176 111 1
436 111 1
448 111 1
6 112 1
47 112 1
132 112 1
177 112 1
437 112 1
449 112 1
7 113 1
48 113 1
133 113 1
178 113 1
438 113 1
450 113 1
8 114 1
49 114 1
134 114 1
179 114 1
439 114 1
451 114 1
9 115 1
50 115 1
135 115 1
180 115 1
440 115 1
452 115 1
10 116 1
51 116 1
136 116 1
181 116 1
441 116 1
453 116 1
11 117 1
52 117 1
137 117 1
182 117 1
442 117 1
454 117 1
12 118 1
53 118 1
138 118 1
183 118 1
443 118 1
455 118 1
13 119 1
54 119 1
139 119 1
184 119 1
391 119 1
444 119 1
14 120 1
55 120 1
140 120 1
185 120 1
392 120 1
445 120 1
15 121 1
56 121 1
141 121 1
186 121 1
393 121 1
446 121 1
16 122 1
57 122 1
142 122 1
187 122 1
394 122 1
447 122 1
17 123 1
58 123 1
143 123 1
188 123 1
395 123 1
448 123 1
18 124 1
59 124 1
144 124 1
189 124 1
396 124 1
449 124 1
19 125 1
60 125 1
145 125 1
190 125 1
397 125 1
450 125 1
20 126 1
61 126 1
146 126 1
191 126 1
398 126 1
451 126 1
21 127 1
62 127 1
147 127 1
192 127 1
399 127 1
452 127 1
22 128 1
63 128 1
148 128 1
193 128 1
400 128 1
453 128 1
23 129 1
64 129 1
149 129 1
194 129 1
401 129 1
454 129 1
24 130 1
65 130 1
150 130 1
195 130 1
402 130 1
455 130 1
1 131 1
27 131 1
196 131 1
216 131 1
456 131 1
468 131 1
2 132 1
28 132 1
197 132 1
217 132 1
457 132 1
469 132 1
3 133 1
29 133 1
198 133 1
218 133 1
458 133 1
470 133 1
4 134 1
30 134 1
199 134 1
219 134 1
459 134 1
471 134 1
5 135 1
31 135 1
200 135 1
220 135 1
460 135 1
472 135 1
6 136 1
32 136 1
201 136 1
221 136 1
461 136 1
473 136 1
7 137 1
33 137 1
202 137 1
222 137 1
462 137 1
474 137 1
8 138 1
34 138 1
203 138 1
223 138 1
463 138 1
475 138 1
9 139 1
35 139 1
204 139 1
224 139 1
464 139 1
476 139 1
10 140 1
36 140 1
205 140 1
225 140 1
465 140 1
477 140 1
11 141 1
37 141 1
206 141 1
226 141 1
466 141 1
478 141 1
12 142 1
38 142 1
207 142 1
227 142 1
467 142 1
479 142 1
13 143 1
39 143 1
208 143 1
228 143 1
468 143 1
480 143 1
14 144 1
40 144 1
209 144 1
229 144 1
469 144 1
481 144 1
15 145 1
41 145 1
210 145 1
230 145 1
470 145 1
482 145 1
16 146 1
42 146 1
211 146 1
231 146 1
471 146 1
483 146 1
17 147 1
43 147 1
212 147 1
232 147 1
472 147 1
484 147 1
18 148 1
44 148 1
213 148 1
233 148 1
473 148 1
485 148 1
19 149 1
45 149 1
214 149 1
234 149 1
474 149 1
486 149 1
20 150 1
46 150 1
215 150 1
235 150 1
475 150 1
487 150 1
21 151 1
47 151 1
216 151 1
236 151 1
476 151 1
488 151 1
22 152 1
48 152 1
217 152 1
237 152 1
477 152 1
489 152 1
23 153 1
49 153 1
218 153 1
238 153 1
478 153 1
490 153 1
24 154 1
50 154 1
219 154 1
239 154 1
479 154 1
491 154 1
25 155 1
51 155 1
220 155 1
240 155 1
480 155 1
492 155 1
26 156 1
52 156 1
221 156 1
241 156 1
481 156 1
493 156 1
27 157 1
53 157 1
222 157 1
242 157 1
482 157 1
494 157 1
28 158 1
54 158 1
223 158 1
243 158 1
483 158 1
495 158 1
29 159 1
55 159 1
224 159 1
244 159 1
484 159 1
496 159 1
30 160 1
56 160 1
225 160 1
245 160 1
485 160 1
497 160 1
31 161 1
57 161 1
226 161 1
246 161 1
486 161 1
498 161 1
32 162 1
58 162 1
227 162 1
247 162 1
487 162 1
499 162 1
33 163 1
59 163 1
228 163 1
248 163 1
488 163 1
500 163 1
34 164 1
60 164 1
229 164 1
249 164 1
489 164 1
501 164 1
35 165 1
61 165 1
230 165 1
250 165 1
490 165 1
502 165 1
36 166 1
62 166 1
231 166 1
251 166 1
491 166 1
503 166 1
37 167 1
63 167 1
232 167 1
252 167 1
492 167 1
504 167 1
38 168 1
64 168 1
233 168 1
253 168 1
493 168 1
505 168 1
39 169 1
65 169 1
234 169 1
254 169 1
494 169 1
506 169 1
1 170 1
40 170 1
235 170 1
255 170 1
495 170 1
507 170 1
2 171 1
41 171 1
236 171 1
256 171 1
496 171 1
508 171 1
3 172 1
42 172 1
237 172 1
257 172 1
497 172 1
509 172 1
4 173 1
43 173 1
238 173 1
258 173 1
498 173 1
510 173 1
5 174 1
44 174 1
239 174 1
259 174 1
499 174 1
511 174 1
6 175 1
45 175 1
240 175 1
260 175 1
500 175 1
512 175 1
7 176 1
46 176 1
196 176 1
241 176 1
501 176 1
513 176 1
8 177 1
47 177 1
197 177 1
242 177 1
502 177 1
514 177 1
9 178 1
48 178 1
198 178 1
243 178 1
503 178 1
515 178 1
10 179 1
49 179 1
199 179 1
244 179 1
504 179 1
516 179 1
11 180 1
50 180 1
200 180 1
245 180 1
505 180 1
517 180 1
12 181 1
51 181 1
201 181 1
246 181 1
506 181 1
518 181 1
13 182 1
52 182 1
202 182 1
247 182 1
507 182 1
519 182 1
14 183 1
53 183 1
203 183 1
248 183 1
508 183 1
520 183 1
15 184 1
54 184 1
204 184 1
249 184 1
456 184 1
509 184 1
16 185 1
55 185 1
205 185 1
250 185 1
457 185 1
510 185 1
17 186 1
56 186 1
206 186 1
251 186 1
458 186 1
511 186 1
18 187 1
57 187 1
207 187 1
252 187 1
459 187 1
512 187 1
19 188 1
58 188 1
208 188 1
253 188 1
460 188 1
513 188 1
20 189 1
59 189 1
209 189 1
254 189 1
461 189 1
514 189 1
21 190 1
60 190 1
210 190 1
255 190 1
462 190 1
515 190 1
22 191 1
61 191 1
211 191 1
256 191 1
463 191 1
516 191 1
23 192 1
62 192 1
212 192 1
257 192 1
464 192 1
517 192 1
24 193 1
63 193 1
213 193 1
258 193 1
465 193 1
518 193 1
25 194 1
64 194 1
214 194 1
259 194 1
466 194 1
519 194 1
26 195 1
65 195 1
215 195 1
260 195 1
467 195 1
520 195 1
1 196 1
36 196 1
261 196 1
281 196 1
521 196 1
533 196 1
2 197 1
37 197 1
262 197 1
282 197 1
522 197 1
534 197 1
3 198 1
38 198 1
263 198 1
283 198 1
523 198 1
535 198 1
4 199 1
39 199 1
264 199 1
284 199 1
524 199 1
536 199 1
5 200 1
40 200 1
265 200 1
285 200 1
525 200 1
537 200 1
6 201 1
41 201 1
266 201 1
286 201 1
526 201 1
538 201 1
7 202 1
42 202 1
267 202 1
287 202 1
527 202 1
539 202 1
8 203 1
43 203 1
268 203 1
288 203 1
528 203 1
540 203 1
9 204 1
44 204 1
269 204 1
289 204 1
529 204 1
541 204 1
10 205 1
45 205 1
270 205 1
290 205 1
530 205 1
542 205 1
11 206 1
46 206 1
271 206 1
291 206 1
531 206 1
543 206 1
12 207 1
47 207 1
272 207 1
292 207 1
532 207 1
544 207 1
13 208 1
48 208 1
273 208 1
293 208 1
533 208 1
545 208 1
14 209 1
49 209 1
274 209 1
294 209 1
534 209 1
546 209 1
15 210 1
50 210 1
275 210 1
295 210 1
535 210 1
547 210 1
16 211 1
51 211 1
276 211 1
296 211 1
536 211 1
548 211 1
17 212 1
52 212 1
277 212 1
297 212 1
537 212 1
549 212 1
18 213 1
53 213 1
278 213 1
298 213 1
538 213 1
550 213 1
19 214 1
54 214 1
279 214 1
299 214 1
539 214 1
551 214 1
20 215 1
55 215 1
280 215 1
300 215 1
540 215 1
552 215 1
21 216 1
56 216 1
281 216 1
301 216 1
541 216 1
553 216 1
22 217 1
57 217 1
282 217 1
302 217 1
542 217 1
554 217 1
23 218 1
58 218 1
283 218 1
303 218 1
543 218 1
555 218 1
24 219 1
59 219 1
284 219 1
304 219 1
544 219 1
556 219 1
25 220 1
60 220 1
285 220 1
305 220 1
545 220 1
557 220 1
26 221 1
61 221 1
286 221 1
306 221 1
546 221 1
558 221 1
27 222 1
62 222 1
287 222 1
307 222 1
547 222 1
559 222 1
28 223 1
63 223 1
288 223 1
308 223 1
548 223 1
560 223 1
29 224 1
64 224 1
289 224 1
309 224 1
549 224 1
561 224 1
30 225 1
65 225 1
290 225 1
310 225 1
550 225 1
562 225 1
1 226 1
31 226 1
291 226 1
311 226 1
551 226 1
563 226 1
2 227 1
32 227 1
292 227 1
312 227 1
552 227 1
564 227 1
3 228 1
33 228 1
293 228 1
313 228 1
553 228 1
565 228 1
4 229 1
34 229 1
294 229 1
314 229 1
554 229 1
566 229 1
5 230 1
35 230 1
295 230 1
315 230 1
555 230 1
567 230 1
6 231 1
36 231 1
296 231 1
316 231 1
556 231 1
568 231 1
7 232 1
37 232 1
297 232 1
317 232 1
557 232 1
569 232 1
8 233 1
38 233 1
298 233 1
318 233 1
558 233 1
570 233 1
9 234 1
39 234 1
299 234 1
319 234 1
559 234 1
571 234 1
10 235 1
40 235 1
300 235 1
320 235 1
560 235 1
572 235 1
11 236 1
41 236 1
301 236 1
321 236 1
561 236 1
573 236 1
12 237 1
42 237 1
302 237 1
322 237 1
562 237 1
574 237 1
13 238 1
43 238 1
303 238 1
323 238 1
563 238 1
575 238 1
14 239 1
44 239 1
304 239 1
324 239 1
564 239 1
576 239 1
15 240 1
45 240 1
305 240 1
325 240 1
565 240 1
577 240 1
16 241 1
46 241 1
261 241 1
306 241 1
566 241 1
578 241 1
17 242 1
47 242 1
262 242 1
307 242 1
567 242 1
579 242 1
18 243 1
48 243 1
263 243 1
308 243 1
568 243 1
580 243 1
19 244 1
49 244 1
264 244 1
309 244 1
569 244 1
581 244 1
20 245 1
50 245 1
265 245 1
310 245 1
570 245 1
582 245 1
21 246 1
51 246 1
266 246 1
311 246 1
571 246 1
583 246 1
22 247 1
52 247 1
267 247 1
312 247 1
572 247 1
584 247 1
23 248 1
53 248 1
268 248 1
313 248 1
573 248 1
585 248 1
24 249 1
54 249 1
269 249 1
314 249 1
521 249 1
574 249 1
25 250 1
55 250 1
270 250 1
315 250 1
522 250 1
575 250 1
26 251 1
56 251 1
271 251 1
316 251 1
523 251 1
576 251 1
27 252 1
57 252 1
272 252 1
317 252 1
524 252 1
577 252 1
28 253 1
58 253 1
273 253 1
318 253 1
525 253 1
578 253 1
29 254 1
59 254 1
274 254 1
319 254 1
526 254 1
579 254 1
30 255 1
60 255 1
275 255 1
320 255 1
527 255 1
580 255 1
31 256 1
61 256 1
276 256 1
321 256 1
528 256 1
581 256 1
32 257 1
62 257 1
277 257 1
322 257 1
529 257 1
582 257 1
33 258 1
63 258 1
278 258 1
323 258 1
530 258 1
583 258 1
34 259 1
64 259 1
279 259 1
324 259 1
531 259 1
584 259 1
35 260 1
65 260 1
280 260 1
325 260 1
532 260 1
585 260 1
66 261 1
90 261 1
131 261 1
153 261 1
586 261 1
598 261 1
67 262 1
91 262 1
132 262 1
154 262 1
587 262 1
599 262 1
68 263 1
92 263 1
133 263 1
155 263 1
588 263 1
600 263 1
69 264 1
93 264 1
134 264 1
156 264 1
589 264 1
601 264 1
70 265 1
94 265 1
135 265 1
157 265 1
590 265 1
602 265 1
71 266 1
95 266 1
136 266 1
158 266 1
591 266 1
603 266 1
72 267 1
96 267 1
137 267 1
159 267 1
592 267 1
604 267 1
73 268 1
97 268 1
138 268 1
160 268 1
593 268 1
605 268 1
74 269 1
98 269 1
139 269 1
161 269 1
594 269 1
606 269 1
75 270 1
99 270 1
140 270 1
162 270 1
595 270 1
607 270 1
76 271 1
100 271 1
141 271 1
163 271 1
596 271 1
608 271 1
77 272 1
101 272 1
142 272 1
164 272 1
597 272 1
609 272 1
78 273 1
102 273 1
143 273 1
165 273 1
598 273 1
610 273 1
79 274 1
103 274 1
144 274 1
166 274 1
599 274 1
611 274 1
80 275 1
104 275 1
145 275 1
167 275 1
600 275 1
612 275 1
81 276 1
105 276 1
146 276 1
168 276 1
601 276 1
613 276 1
82 277 1
106 277 1
147 277 1
169 277 1
602 277 1
614 277 1
83 278 1
107 278 1
148 278 1
170 278 1
603 278 1
615 278 1
84 279 1
108 279 1
149 279 1
171 279 1
604 279 1
616 279 1
85 280 1
109 280 1
150 280 1
172 280 1
605 280 1
617 280 1
86 281 1
110 281 1
151 281 1
173 281 1
606 281 1
618 281 1
87 282 1
111 282 1
152 282 1
174 282 1
607 282 1
619 282 1
88 283 1
112 283 1
153 283 1
175 283 1
608 283 1
620 283 1
89 284 1
113 284 1
154 284 1
176 284 1
609 284 1
621 284 1
90 285 1
114 285 1
155 285 1
177 285 1
610 285 1
622 285 1
91 286 1
115 286 1
156 286 1
178 286 1
611 286 1
623 286 1
92 287 1
116 287 1
157 287 1
179 287 1
612 287 1
624 287 1
93 288 1
117 288 1
158 288 1
180 288 1
613 288 1
625 288 1
94 289 1
118 289 1
159 289 1
181 289 1
614 289 1
626 289 1
95 290 1
119 290 1
160 290 1
182 290 1
615 290 1
627 290 1
96 291 1
120 291 1
161 291 1
183 291 1
616 291 1
628 291 1
97 292 1
121 292 1
162 292 1
184 292 1
617 292 1
629 292 1
98 293 1
122 293 1
163 293 1
185 293 1
618 293 1
630 293 1
99 294 1
123 294 1
164 294 1
186 294 1
619 294 1
631 294 1
100 295 1
124 295 1
165 295 1
187 295 1
620 295 1
632 295 1
101 296 1
125 296 1
166 296 1
188 296 1
621 296 1
633 296 1
102 297 1
126 297 1
167 297 1
189 297 1
622 297 1
634 297 1
103 298 1
127 298 1
168 298 1
190 298 1
623 298 1
635 298 1
104 299 1
128 299 1
169 299 1
191 299 1
624 299 1
636 299 1
105 300 1
129 300 1
170 300 1
192 300 1
625 300 1
637 300 1
106 301 1
130 301 1
171 301 1
193 301 1
626 301 1
638 301 1
66 302 1
107 302 1
172 302 1
194 302 1
627 302 1
639 302 1
67 303 1
108 303 1
173 303 1
195 303 1
628 303 1
640 303 1
68 304 1
109 304 1
131 304 1
174 304 1
629 304 1
641 304 1
69 305 1
110 305 1
132 305 1
175 305 1
630 305 1
642 305 1
70 306 1
111 306 1
133 306 1
176 306 1
631 306 1
643 306 1
71 307 1
112 307 1
134 307 1
177 307 1
632 307 1
644 307 1
72 308 1
113 308 1
135 308 1
178 308 1
633 308 1
645 308 1
73 309 1
114 309 1
136 309 1
179 309 1
634 309 1
646 309 1
74 310 1
115 310 1
137 310 1
180 310 1
635 310 1
647 310 1
75 311 1
116 311 1
138 311 1
181 311 1
636 311 1
648 311 1
76 312 1
117 312 1
139 312 1
182 312 1
637 312 1
649 312 1
77 313 1
118 313 1
140 313 1
183 313 1
638 313 1
650 313 1
78 314 1
119 314 1
141 314 1
184 314 1
586 314 1
639 314 1
79 315 1
120 315 1
142 315 1
185 315 1
587 315 1
640 315 1
80 316 1
121 316 1
143 316 1
186 316 1
588 316 1
641 316 1
81 317 1
122 317 1
144 317 1
187 317 1
589 317 1
642 317 1
82 318 1
123 318 1
145 318 1
188 318 1
590 318 1
643 318 1
83 319 1
124 319 1
146 319 1
189 319 1
591 319 1
644 319 1
84 320 1
125 320 1
147 320 1
190 320 1
592 320 1
645 320 1
85 321 1
126 321 1
148 321 1
191 321 1
593 321 1
646 321 1
86 322 1
127 322 1
149 322 1
192 322 1
594 322 1
647 322 1
87 323 1
128 323 1
150 323 1
193 323 1
595 323 1
648 323 1
88 324 1
129 324 1
151 324 1
194 324 1
596 324 1
649 324 1
89 325 1
130 325 1
152 325 1
195 325 1
597 325 1
650 325 1
66 326 1
92 326 1
196 326 1
218 326 1
651 326 1
663 326 1
67 327 1
93 327 1
197 327 1
219 327 1
652 327 1
664 327 1
68 328 1
94 328 1
198 328 1
220 328 1
653 328 1
665 328 1
69 329 1
95 329 1
199 329 1
221 329 1
654 329 1
666 329 1
70 330 1
96 330 1
200 330 1
222 330 1
655 330 1
667 330 1
71 331 1
97 331 1
201 331 1
223 331 1
656 331 1
668 331 1
72 332 1
98 332 1
202 332 1
224 332 1
657 332 1
669 332 1
73 333 1
99 333 1
203 333 1
225 333 1
658 333 1
670 333 1
74 334 1
100 334 1
204 334 1
226 334 1
659 334 1
671 334 1
75 335 1
101 335 1
205 335 1
227 335 1
660 335 1
672 335 1
76 336 1
102 336 1
206 336 1
228 336 1
661 336 1
673 336 1
77 337 1
103 337 1
207 337 1
229 337 1
662 337 1
674 337 1
78 338 1
104 338 1
208 338 1
230 338 1
663 338 1
675 338 1
79 339 1
105 339 1
209 339 1
231 339 1
664 339 1
676 339 1
80 340 1
106 340 1
210 340 1
232 340 1
665 340 1
677 340 1
81 341 1
107 341 1
211 341 1
233 341 1
666 341 1
678 341 1
82 342 1
108 342 1
212 342 1
234 342 1
667 342 1
679 342 1
83 343 1
109 343 1
213 343 1
235 343 1
668 343 1
680 343 1
84 344 1
110 344 1
214 344 1
236 344 1
669 344 1
681 344 1
85 345 1
111 345 1
215 345 1
237 345 1
670 345 1
682 345 1
86 346 1
112 346 1
216 346 1
238 346 1
671 346 1
683 346 1
87 347 1
113 347 1
217 347 1
239 347 1
672 347 1
684 347 1
88 348 1
114 348 1
218 348 1
240 348 1
673 348 1
685 348 1
89 349 1
115 349 1
219 349 1
241 349 1
674 349 1
686 349 1
90 350 1
116 350 1
220 350 1
242 350 1
675 350 1
687 350 1
91 351 1
117 351 1
221 351 1
243 351 1
676 351 1
688 351 1
92 352 1
118 352 1
222 352 1
244 352 1
677 352 1
689 352 1
93 353 1
119 353 1
223 353 1
245 353 1
678 353 1
690 353 1
94 354 1
120 354 1
224 354 1
246 354 1
679 354 1
691 354 1
95 355 1
121 355 1
225 355 1
247 355 1
680 355 1
692 355 1
96 356 1
122 356 1
226 356 1
248 356 1
681 356 1
693 356 1
97 357 1
123 357 1
227 357 1
249 357 1
682 357 1
694 357 1
98 358 1
124 358 1
228 358 1
250 358 1
683 358 1
695 358 1
99 359 1
125 359 1
229 359 1
251 359 1
684 359 1
696 359 1
100 360 1
126 360 1
230 360 1
252 360 1
685 360 1
697 360 1
101 361 1
127 361 1
231 361 1
253 361 1
686 361 1
698 361 1
102 362 1
128 362 1
232 362 1
254 362 1
687 362 1
699 362 1
103 363 1
129 363 1
233 363 1
255 363 1
688 363 1
700 363 1
104 364 1
130 364 1
234 364 1
256 364 1
689 364 1
701 364 1
66 365 1
105 365 1
235 365 1
257 365 1
690 365 1
702 365 1
67 366 1
106 366 1
236 366 1
258 366 1
691 366 1
703 366 1
68 367 1
107 367 1
237 367 1
259 367 1
692 367 1
704 367 1
69 368 1
108 368 1
238 368 1
260 368 1
693 368 1
705 368 1
70 369 1
109 369 1
196 369 1
239 369 1
694 369 1
706 369 1
71 370 1
110 370 1
197 370 1
240 370 1
695 370 1
707 370 1
72 371 1
111 371 1
198 371 1
241 371 1
696 371 1
708 371 1
73 372 1
112 372 1
199 372 1
242 372 1
697 372 1
709 372 1
74 373 1
113 373 1
200 373 1
243 373 1
698 373 1
710 373 1
75 374 1
114 374 1
201 374 1
244 374 1
699 374 1
711 374 1
76 375 1
115 375 1
202 375 1
245 375 1
700 375 1
712 375 1
77 376 1
116 376 1
203 376 1
246 376 1
701 376 1
713 376 1
78 377 1
117 377 1
204 377 1
247 377 1
702 377 1
714 377 1
79 378 1
118 378 1
205 378 1
248 378 1
703 378 1
715 378 1
80 379 1
119 379 1
206 379 1
249 379 1
651 379 1
704 379 1
81 380 1
120 380 1
207 380 1
250 380 1
652 380 1
705 380 1
82 381 1
121 381 1
208 381 1
251 381 1
653 381 1
706 381 1
83 382 1
122 382 1
209 382 1
252 382 1
654 382 1
707 382 1
84 383 1
123 383 1
210 383 1
253 383 1
655 383 1
708 383 1
85 384 1
124 384 1
211 384 1
254 384 1
656 384 1
709 384 1
86 385 1
125 385 1
212 385 1
255 385 1
657 385 1
710 385 1
87 386 1
126 386 1
213 386 1
256 386 1
658 386 1
711 386 1
88 387 1
127 387 1
214 387 1
257 387 1
659 387 1
712 387 1
89 388 1
128 388 1
215 388 1
258 388 1
660 388 1
713 388 1
90 389 1
129 389 1
216 389 1
259 389 1
661 389 1
714 389 1
91 390 1
130 390 1
217 390 1
260 390 1
662 390 1
715 390 1
66 391 1
101 391 1
261 391 1
283 391 1
716 391 1
728 391 1
67 392 1
102 392 1
262 392 1
284 392 1
717 392 1
729 392 1
68 393 1
103 393 1
263 393 1
285 393 1
718 393 1
730 393 1
69 394 1
104 394 1
264 394 1
286 394 1
719 394 1
731 394 1
70 395 1
105 395 1
265 395 1
287 395 1
720 395 1
732 395 1
71 396 1
106 396 1
266 396 1
288 396 1
721 396 1
733 396 1
72 397 1
107 397 1
267 397 1
289 397 1
722 397 1
734 397 1
73 398 1
108 398 1
268 398 1
290 398 1
723 398 1
735 398 1
74 399 1
109 399 1
269 399 1
291 399 1
724 399 1
736 399 1
75 400 1
110 400 1
270 400 1
292 400 1
725 400 1
737 400 1
76 401 1
111 401 1
271 401 1
293 401 1
726 401 1
738 401 1
77 402 1
112 402 1
272 402 1
294 402 1
727 402 1
739 402 1
78 403 1
113 403 1
273 403 1
295 403 1
728 403 1
740 403 1
79 404 1
114 404 1
274 404 1
296 404 1
729 404 1
741 404 1
80 405 1
115 405 1
275 405 1
297 405 1
730 405 1
742 405 1
81 406 1
116 406 1
276 406 1
298 406 1
731 406 1
743 406 1
82 407 1
117 407 1
277 407 1
299 407 1
732 407 1
744 407 1
83 408 1
118 408 1
278 408 1
300 408 1
733 408 1
745 408 1
84 409 1
119 409 1
279 409 1
301 409 1
734 409 1
746 409 1
85 410 1
120 410 1
280 410 1
302 410 1
735 410 1
747 410 1
86 411 1
121 411 1
281 411 1
303 411 1
736 411 1
748 411 1
87 412 1
122 412 1
282 412 1
304 412 1
737 412 1
749 412 1
88 413 1
123 413 1
283 413 1
305 413 1
738 413 1
750 413 1
89 414 1
124 414 1
284 414 1
306 414 1
739 414 1
751 414 1
90 415 1
125 415 1
285 415 1
307 415 1
740 415 1
752 415 1
91 416 1
126 416 1
286 416 1
308 416 1
741 416 1
753 416 1
92 417 1
127 417 1
287 417 1
309 417 1
742 417 1
754 417 1
93 418 1
128 418 1
288 418 1
310 418 1
743 418 1
755 418 1
94 419 1
129 419 1
289 419 1
311 419 1
744 419 1
756 419 1
95 420 1
130 420 1
290 420 1
312 420 1
745 420 1
757 420 1
66 421 1
96 421 1
291 421 1
313 421 1
746 421 1
758 421 1
67 422 1
97 422 1
292 422 1
314 422 1
747 422 1
759 422 1
68 423 1
98 423 1
293 423 1
315 423 1
748 423 1
760 423 1
69 424 1
99 424 1
294 424 1
316 424 1
749 424 1
761 424 1
70 425 1
100 425 1
295 425 1
317 425 1
750 425 1
762 425 1
71 426 1
101 426 1
296 426 1
318 426 1
751 426 1
763 426 1
72 427 1
102 427 1
297 427 1
319 427 1
752 427 1
764 427 1
73 428 1
103 428 1
298 428 1
320 428 1
753 428 1
765 428 1
74 429 1
104 429 1
299 429 1
321 429 1
754 429 1
766 429 1
75 430 1
105 430 1
300 430 1
322 430 1
755 430 1
767 430 1
76 431 1
106 431 1
301 431 1
323 431 1
756 431 1
768 431 1
77 432 1
107 432 1
302 432 1
324 432 1
757 432 1
769 432 1
78 433 1
108 433 1
303 433 1
325 433 1
758 433 1
770 433 1
79 434 1
109 434 1
261 434 1
304 434 1
759 434 1
771 434 1
80 435 1
110 435 1
262 435 1
305 435 1
760 435 1
772 435 1
81 436 1
111 436 1
263 436 1
306 436 1
761 436 1
773 436 1
82 437 1
112 437 1
264 437 1
307 437 1
762 437 1
774 437 1
83 438 1
113 438 1
265 438 1
308 438 1
763 438 1
775 438 1
84 439 1
114 439 1
266 439 1
309 439 1
764 439 1
776 439 1
85 440 1
115 440 1
267 440 1
310 440 1
765 440 1
777 440 1
86 441 1
116 441 1
268 441 1
311 441 1
766 441 1
778 441 1
87 442 1
117 442 1
269 442 1
312 442 1
767 442 1
779 442 1
88 443 1
118 443 1
270 443 1
313 443 1
768 443 1
780 443 1
89 444 1
119 444 1
271 444 1
314 444 1
716 444 1
769 444 1
90 445 1
120 445 1
272 445 1
315 445 1
717 445 1
770 445 1
91 446 1
121 446 1
273 446 1
316 446 1
718 446 1
771 446 1
92 447 1
122 447 1
274 447 1
317 447 1
719 447 1
772 447 1
93 448 1
123 448 1
275 448 1
318 448 1
720 448 1
773 448 1
94 449 1
124 449 1
276 449 1
319 449 1
721 449 1
774 449 1
95 450 1
125 450 1
277 450 1
320 450 1
722 450 1
775 450 1
96 451 1
126 451 1
278 451 1
321 451 1
723 451 1
776 451 1
97 452 1
127 452 1
279 452 1
322 452 1
724 452 1
777 452 1
98 453 1
128 453 1
280 453 1
323 453 1
725 453 1
778 453 1
99 454 1
129 454 1
281 454 1
324 454 1
726 454 1
779 454 1
100 455 1
130 455 1
282 455 1
325 455 1
727 455 1
780 455 1
131 456 1
157 456 1
196 456 1
220 456 1
781 456 1
793 456 1
132 457 1
158 457 1
197 457 1
221 457 1
782 457 1
794 457 1
133 458 1
159 458 1
198 458 1
222 458 1
783 458 1
795 458 1
134 459 1
160 459 1
199 459 1
223 459 1
784 459 1
796 459 1
135 460 1
161 460 1
200 460 1
224 460 1
785 460 1
797 460 1
136 461 1
162 461 1
201 461 1
225 461 1
786 461 1
798 461 1
137 462 1
163 462 1
202 462 1
226 462 1
787 462 1
799 462 1
138 463 1
164 463 1
203 463 1
227 463 1
788 463 1
800 463 1
139 464 1
165 464 1
204 464 1
228 464 1
789 464 1
801 464 1
140 465 1
166 465 1
205 465 1
229 465 1
790 465 1
802 465 1
141 466 1
167 466 1
206 466 1
230 466 1
791 466 1
803 466 1
142 467 1
168 467 1
207 467 1
231 467 1
792 467 1
804 467 1
143 468 1
169 468 1
208 468 1
232 468 1
793 468 1
805 468 1
144 469 1
170 469 1
209 469 1
233 469 1
794 469 1
806 469 1
145 470 1
171 470 1
210 470 1
234 470 1
795 470 1
807 470 1
146 471 1
172 471 1
211 471 1
235 471 1
796 471 1
808 471 1
147 472 1
173 472 1
212 472 1
236 472 1
797 472 1
809 472 1
148 473 1
174 473 1
213 473 1
237 473 1
798 473 1
810 473 1
149 474 1
175 474 1
214 474 1
238 474 1
799 474 1
811 474 1
150 475 1
176 475 1
215 475 1
239 475 1
800 475 1
812 475 1
151 476 1
177 476 1
216 476 1
240 476 1
801 476 1
813 476 1
152 477 1
178 477 1
217 477 1
241 477 1
802 477 1
814 477 1
153 478 1
179 478 1
218 478 1
242 478 1
803 478 1
815 478 1
154 479 1
180 479 1
219 479 1
243 479 1
804 479 1
816 479 1
155 480 1
181 480 1
220 480 1
244 480 1
805 480 1
817 480 1
156 481 1
182 481 1
221 481 1
245 481 1
806 481 1
818 481 1
157 482 1
183 482 1
222 482 1
246 482 1
807 482 1
819 482 1
158 483 1
184 483 1
223 483 1
247 483 1
808 483 1
820 483 1
159 484 1
185 484 1
224 484 1
248 484 1
809 484 1
821 484 1
160 485 1
186 485 1
225 485 1
249 485 1
810 485 1
822 485 1
161 486 1
187 486 1
226 486 1
250 486 1
811 486 1
823 486 1
162 487 1
188 487 1
227 487 1
251 487 1
812 487 1
824 487 1
163 488 1
189 488 1
228 488 1
252 488 1
813 488 1
825 488 1
164 489 1
190 489 1
229 489 1
253 489 1
814 489 1
826 489 1
165 490 1
191 490 1
230 490 1
254 490 1
815 490 1
827 490 1
166 491 1
192 491 1
231 491 1
255 491 1
816 491 1
828 491 1
167 492 1
193 492 1
232 492 1
256 492 1
817 492 1
829 492 1
168 493 1
194 493 1
233 493 1
257 493 1
818 493 1
830 493 1
169 494 1
195 494 1
234 494 1
258 494 1
819 494 1
831 494 1
131 495 1
170 495 1
235 495 1
259 495 1
820 495 1
832 495 1
132 496 1
171 496 1
236 496 1
260 496 1
821 496 1
833 496 1
133 497 1
172 497 1
196 497 1
237 497 1
822 497 1
834 497 1
134 498 1
173 498 1
197 498 1
238 498 1
823 498 1
835 498 1
135 499 1
174 499 1
198 499 1
239 499 1
824 499 1
836 499 1
136 500 1
175 500 1
199 500 1
240 500 1
825 500 1
837 500 1
137 501 1
176 501 1
200 501 1
241 501 1
826 501 1
838 501 1
138 502 1
177 502 1
201 502 1
242 502 1
827 502 1
839 502 1
139 503 1
178 503 1
202 503 1
243 503 1
828 503 1
840 503 1
140 504 1
179 504 1
203 504 1
244 504 1
829 504 1
841 504 1
141 505 1
180 505 1
204 505 1
245 505 1
830 505 1
842 505 1
142 506 1
181 506 1
205 506 1
246 506 1
831 506 1
843 506 1
143 507 1
182 507 1
206 507 1
247 507 1
832 507 1
844 507 1
144 508 1
183 508 1
207 508 1
248 508 1
833 508 1
845 508 1
145 509 1
184 509 1
208 509 1
249 509 1
781 509 1
834 509 1
146 510 1
185 510 1
209 510 1
250 510 1
782 510 1
835 510 1
147 511 1
186 511 1
210 511 1
251 511 1
783 511 1
836 511 1
148 512 1
187 512 1
211 512 1
252 512 1
784 512 1
837 512 1
149 513 1
188 513 1
212 513 1
253 513 1
785 513 1
838 513 1
150 514 1
189 514 1
213 514 1
254 514 1
786 514 1
839 514 1
151 515 1
190 515 1
214 515 1
255 515 1
787 515 1
840 515 1
152 516 1
191 516 1
215 516 1
256 516 1
788 516 1
841 516 1
153 517 1
192 517 1
216 517 1
257 517 1
789 517 1
842 517 1
154 518 1
193 518 1
217 518 1
258 518 1
790 518 1
843 518 1
155 519 1
194 519 1
218 519 1
259 519 1
791 519 1
844 519 1
156 520 1
195 520 1
219 520 1
260 520 1
792 520 1
845 520 1
131 521 1
166 521 1
261 521 1
285 521 1
846 521 1
858 521 1
132 522 1
167 522 1
262 522 1
286 522 1
847 522 1
859 522 1
133 523 1
168 523 1
263 523 1
287 523 1
848 523 1
860 523 1
134 524 1
169 524 1
264 524 1
288 524 1
849 524 1
861 524 1
135 525 1
170 525 1
265 525 1
289 525 1
850 525 1
862 525 1
136 526 1
171 526 1
266 526 1
290 526 1
851 526 1
863 526 1
137 527 1
172 527 1
267 527 1
291 527 1
852 527 1
864 527 1
138 528 1
173 528 1
268 528 1
292 528 1
853 528 1
865 528 1
139 529 1
174 529 1
269 529 1
293 529 1
854 529 1
866 529 1
140 530 1
175 530 1
270 530 1
294 530 1
855 530 1
867 530 1
141 531 1
176 531 1
271 531 1
295 531 1
856 531 1
868 531 1
142 532 1
177 532 1
272 532 1
296 532 1
857 532 1
869 532 1
143 533 1
178 533 1
273 533 1
297 533 1
858 533 1
870 533 1
144 534 1
179 534 1
274 534 1
298 534 1
859 534 1
871 534 1
145 535 1
180 535 1
275 535 1
299 535 1
860 535 1
872 535 1
146 536 1
181 536 1
276 536 1
300 536 1
861 536 1
873 536 1
147 537 1
182 537 1
277 537 1
301 537 1
862 537 1
874 537 1
148 538 1
183 538 1
278 538 1
302 538 1
863 538 1
875 538 1
149 539 1
184 539 1
279 539 1
303 539 1
864 539 1
876 539 1
150 540 1
185 540 1
280 540 1
304 540 1
865 540 1
877 540 1
151 541 1
186 541 1
281 541 1
305 541 1
866 541 1
878 541 1
152 542 1
187 542 1
282 542 1
306 542 1
867 542 1
879 542 1
153 543 1
188 543 1
283 543 1
307 543 1
868 543 1
880 543 1
154 544 1
189 544 1
284 544 1
308 544 1
869 544 1
881 544 1
155 545 1
190 545 1
285 545 1
309 545 1
870 545 1
882 545 1
156 546 1
191 546 1
286 546 1
310 546 1
871 546 1
883 546 1
157 547 1
192 547 1
287 547 1
311 547 1
872 547 1
884 547 1
158 548 1
193 548 1
288 548 1
312 548 1
873 548 1
885 548 1
159 549 1
194 549 1
289 549 1
313 549 1
874 549 1
886 549 1
160 550 1
195 550 1
290 550 1
314 550 1
875 550 1
887 550 1
131 551 1
161 551 1
291 551 1
315 551 1
876 551 1
888 551 1
132 552 1
162 552 1
292 552 1
316 552 1
877 552 1
889 552 1
133 553 1
163 553 1
293 553 1
317 553 1
878 553 1
890 553 1
134 554 1
164 554 1
294 554 1
318 554 1
879 554 1
891 554 1
135 555 1
165 555 1
295 555 1
319 555 1
880 555 1
892 555 1
136 556 1
166 556 1
296 556 1
320 556 1
881 556 1
893 556 1
137 557 1
167 557 1
297 557 1
321 557 1
882 557 1
894 557 1
138 558 1
168 558 1
298 558 1
322 558 1
883 558 1
895 558 1
139 559 1
169 559 1
299 559 1
323 559 1
884 559 1
896 559 1
140 560 1
170 560 1
300 560 1
324 560 1
885 560 1
897 560 1
141 561 1
171 561 1
301 561 1
325 561 1
886 561 1
898 561 1
142 562 1
172 562 1
261 562 1
302 562 1
887 562 1
899 562 1
143 563 1
173 563 1
262 563 1
303 563 1
888 563 1
900 563 1
144 564 1
174 564 1
263 564 1
304 564 1
889 564 1
901 564 1
145 565 1
175 565 1
264 565 1
305 565 1
890 565 1
902 565 1
146 566 1
176 566 1
265 566 1
306 566 1
891 566 1
903 566 1
147 567 1
177 567 1
266 567 1
307 567 1
892 567 1
904 567 1
148 568 1
178 568 1
267 568 1
308 568 1
893 568 1
905 568 1
149 569 1
179 569 1
268 569 1
309 569 1
894 569 1
906 569 1
150 570 1
180 570 1
269 570 1
310 570 1
895 570 1
907 570 1
151 571 1
181 571 1
270 571 1
311 571 1
896 571 1
908 571 1
152 572 1
182 572 1
271 572 1
312 572 1
897 572 1
909 572 1
153 573 1
183 573 1
272 573 1
313 573 1
898 573 1
910 573 1
154 574 1
184 574 1
273 574 1
314 574 1
846 574 1
899 574 1
155 575 1
185 575 1
274 575 1
315 575 1
847 575 1
900 575 1
156 576 1
186 576 1
275 576 1
316 576 1
848 576 1
901 576 1
157 577 1
187 577 1
276 577 1
317 577 1
849 577 1
902 577 1
158 578 1
188 578 1
277 578 1
318 578 1
850 578 1
903 578 1
159 579 1
189 579 1
278 579 1
319 579 1
851 579 1
904 579 1
160 580 1
190 580 1
279 580 1
320 580 1
852 580 1
905 580 1
161 581 1
191 581 1
280 581 1
321 581 1
853 581 1
906 581 1
162 582 1
192 582 1
281 582 1
322 582 1
854 582 1
907 582 1
163 583 1
193 583 1
282 583 1
323 583 1
855 583 1
908 583 1
164 584 1
194 584 1
283 584 1
324 584 1
856 584 1
909 584 1
165 585 1
195 585 1
284 585 1
325 585 1
857 585 1
910 585 1
196 586 1
231 586 1
261 586 1
287 586 1
911 586 1
923 586 1
197 587 1
232 587 1
262 587 1
288 587 1
912 587 1
924 587 1
198 588 1
233 588 1
263 588 1
289 588 1
913 588 1
925 588 1
199 589 1
234 589 1
264 589 1
290 589 1
914 589 1
926 589 1
200 590 1
235 590 1
265 590 1
291 590 1
915 590 1
927 590 1
201 591 1
236 591 1
266 591 1
292 591 1
916 591 1
928 591 1
202 592 1
237 592 1
267 592 1
293 592 1
917 592 1
929 592 1
203 593 1
238 593 1
268 593 1
294 593 1
918 593 1
930 593 1
204 594 1
239 594 1
269 594 1
295 594 1
919 594 1
931 594 1
205 595 1
240 595 1
270 595 1
296 595 1
920 595 1
932 595 1
206 596 1
241 596 1
271 596 1
297 596 1
921 596 1
933 596 1
207 597 1
242 597 1
272 597 1
298 597 1
922 597 1
934 597 1
208 598 1
243 598 1
273 598 1
299 598 1
923 598 1
935 598 1
209 599 1
244 599 1
274 599 1
300 599 1
924 599 1
936 599 1
210 600 1
245 600 1
275 600 1
301 600 1
925 600 1
937 600 1
211 601 1
246 601 1
276 601 1
302 601 1
926 601 1
938 601 1
212 602 1
247 602 1
277 602 1
303 602 1
927 602 1
939 602 1
213 603 1
248 603 1
278 603 1
304 603 1
928 603 1
940 603 1
214 604 1
249 604 1
279 604 1
305 604 1
929 604 1
941 604 1
215 605 1
250 605 1
280 605 1
306 605 1
930 605 1
942 605 1
216 606 1
251 606 1
281 606 1
307 606 1
931 606 1
943 606 1
217 607 1
252 607 1
282 607 1
308 607 1
932 607 1
944 607 1
218 608 1
253 608 1
283 608 1
309 608 1
933 608 1
945 608 1
219 609 1
254 609 1
284 609 1
310 609 1
934 609 1
946 609 1
220 610 1
255 610 1
285 610 1
311 610 1
935 610 1
947 610 1
221 611 1
256 611 1
286 611 1
312 611 1
936 611 1
948 611 1
222 612 1
257 612 1
287 612 1
313 612 1
937 612 1
949 612 1
223 613 1
258 613 1
288 613 1
314 613 1
938 613 1
950 613 1
224 614 1
259 614 1
289 614 1
315 614 1
939 614 1
951 614 1
225 615 1
260 615 1
290 615 1
316 615 1
940 615 1
952 615 1
196 616 1
226 616 1
291 616 1
317 616 1
941 616 1
953 616 1
197 617 1
227 617 1
292 617 1
318 617 1
942 617 1
954 617 1
198 618 1
228 618 1
293 618 1
319 618 1
943 618 1
955 618 1
199 619 1
229 619 1
294 619 1
320 619 1
944 619 1
956 619 1
200 620 1
230 620 1
295 620 1
321 620 1
945 620 1
957 620 1
201 621 1
231 621 1
296 621 1
322 621 1
946 621 1
958 621 1
202 622 1
232 622 1
297 622 1
323 622 1
947 622 1
959 622 1
203 623 1
233 623 1
298 623 1
324 623 1
948 623 1
960 623 1
204 624 1
234 624 1
299 624 1
325 624 1
949 624 1
961 624 1
205 625 1
235 625 1
261 625 1
300 625 1
950 625 1
962 625 1
206 626 1
236 626 1
262 626 1
301 626 1
951 626 1
963 626 1
207 627 1
237 627 1
263 627 1
302 627 1
952 627 1
964 627 1
208 628 1
238 628 1
264 628 1
303 628 1
953 628 1
965 628 1
209 629 1
239 629 1
265 629 1
304 629 1
954 629 1
966 629 1
210 630 1
240 630 1
266 630 1
305 630 1
955 630 1
967 630 1
211 631 1
241 631 1
267 631 1
306 631 1
956 631 1
968 631 1
212 632 1
242 632 1
268 632 1
307 632 1
957 632 1
969 632 1
213 633 1
243 633 1
269 633 1
308 633 1
958 633 1
970 633 1
214 634 1
244 634 1
270 634 1
309 634 1
959 634 1
971 634 1
215 635 1
245 635 1
271 635 1
310 635 1
960 635 1
972 635 1
216 636 1
246 636 1
272 636 1
311 636 1
961 636 1
973 636 1
217 637 1
247 637 1
273 637 1
312 637 1
962 637 1
974 637 1
218 638 1
248 638 1
274 638 1
313 638 1
963 638 1
975 638 1
219 639 1
249 639 1
275 639 1
314 639 1
911 639 1
964 639 1
220 640 1
250 640 1
276 640 1
315 640 1
912 640 1
965 640 1
221 641 1
251 641 1
277 641 1
316 641 1
913 641 1
966 641 1
222 642 1
252 642 1
278 642 1
317 642 1
914 642 1
967 642 1
223 643 1
253 643 1
279 643 1
318 643 1
915 643 1
968 643 1
224 644 1
254 644 1
280 644 1
319 644 1
916 644 1
969 644 1
225 645 1
255 645 1
281 645 1
320 645 1
917 645 1
970 645 1
226 646 1
256 646 1
282 646 1
321 646 1
918 646 1
971 646 1
227 647 1
257 647 1
283 647 1
322 647 1
919 647 1
972 647 1
228 648 1
258 648 1
284 648 1
323 648 1
920 648 1
973 648 1
229 649 1
259 649 1
285 649 1
324 649 1
921 649 1
974 649 1
230 650 1
260 650 1
286 650 1
325 650 1
922 650 1
975 650 1
326 651 1
350 651 1
391 651 1
413 651 1
586 651 1
606 651 1
327 652 1
351 652 1
392 652 1
414 652 1
587 652 1
607 652 1
328 653 1
352 653 1
393 653 1
415 653 1
588 653 1
608 653 1
329 654 1
353 654 1
394 654 1
416 654 1
589 654 1
609 654 1
330 655 1
354 655 1
395 655 1
417 655 1
590 655 1
610 655 1
331 656 1
355 656 1
396 656 1
418 656 1
591 656 1
611 656 1
332 657 1
356 657 1
397 657 1
419 657 1
592 657 1
612 657 1
333 658 1
357 658 1
398 658 1
420 658 1
593 658 1
613 658 1
334 659 1
358 659 1
399 659 1
421 659 1
594 659 1
614 659 1
335 660 1
359 660 1
400 660 1
422 660 1
595 660 1
615 660 1
336 661 1
360 661 1
401 661 1
423 661 1
596 661 1
616 661 1
337 662 1
361 662 1
402 662 1
424 662 1
597 662 1
617 662 1
338 663 1
362 663 1
403 663 1
425 663 1
598 663 1
618 663 1
339 664 1
363 664 1
404 664 1
426 664 1
599 664 1
619 664 1
340 665 1
364 665 1
405 665 1
427 665 1
600 665 1
620 665 1
341 666 1
365 666 1
406 666 1
428 666 1
601 666 1
621 666 1
342 667 1
366 667 1
407 667 1
429 667 1
602 667 1
622 667 1
343 668 1
367 668 1
408 668 1
430 668 1
603 668 1
623 668 1
344 669 1
368 669 1
409 669 1
431 669 1
604 669 1
624 669 1
345 670 1
369 670 1
410 670 1
432 670 1
605 670 1
625 670 1
346 671 1
370 671 1
411 671 1
433 671 1
606 671 1
626 671 1
347 672 1
371 672 1
412 672 1
434 672 1
607 672 1
627 672 1
348 673 1
372 673 1
413 673 1
435 673 1
608 673 1
628 673 1
349 674 1
373 674 1
414 674 1
436 674 1
609 674 1
629 674 1
350 675 1
374 675 1
415 675 1
437 675 1
610 675 1
630 675 1
351 676 1
375 676 1
416 676 1
438 676 1
611 676 1
631 676 1
352 677 1
376 677 1
417 677 1
439 677 1
612 677 1
632 677 1
353 678 1
377 678 1
418 678 1
440 678 1
613 678 1
633 678 1
354 679 1
378 679 1
419 679 1
441 679 1
614 679 1
634 679 1
355 680 1
379 680 1
420 680 1
442 680 1
615 680 1
635 680 1
356 681 1
380 681 1
421 681 1
443 681 1
616 681 1
636 681 1
357 682 1
381 682 1
422 682 1
444 682 1
617 682 1
637 682 1
358 683 1
382 683 1
423 683 1
445 683 1
618 683 1
638 683 1
359 684 1
383 684 1
424 684 1
446 684 1
619 684 1
639 684 1
360 685 1
384 685 1
425 685 1
447 685 1
620 685 1
640 685 1
361 686 1
385 686 1
426 686 1
448 686 1
621 686 1
641 686 1
362 687 1
386 687 1
427 687 1
449 687 1
622 687 1
642 687 1
363 688 1
387 688 1
428 688 1
450 688 1
623 688 1
643 688 1
364 689 1
388 689 1
429 689 1
451 689 1
624 689 1
644 689 1
365 690 1
389 690 1
430 690 1
452 690 1
625 690 1
645 690 1
366 691 1
390 691 1
431 691 1
453 691 1
626 691 1
646 691 1
326 692 1
367 692 1
432 692 1
454 692 1
627 692 1
647 692 1
327 693 1
368 693 1
433 693 1
455 693 1
628 693 1
648 693 1
328 694 1
369 694 1
391 694 1
434 694 1
629 694 1
649 694 1
329 695 1
370 695 1
392 695 1
435 695 1
630 695 1
650 695 1
330 696 1
371 696 1
393 696 1
436 696 1
586 696 1
631 696 1
331 697 1
372 697 1
394 697 1
437 697 1
587 697 1
632 697 1
332 698 1
373 698 1
395 698 1
438 698 1
588 698 1
633 698 1
333 699 1
374 699 1
396 699 1
439 699 1
589 699 1
634 699 1
334 700 1
375 700 1
397 700 1
440 700 1
590 700 1
635 700 1
335 701 1
376 701 1
398 701 1
441 701 1
591 701 1
636 701 1
336 702 1
377 702 1
399 702 1
442 702 1
592 702 1
637 702 1
337 703 1
378 703 1
400 703 1
443 703 1
593 703 1
638 703 1
338 704 1
379 704 1
401 704 1
444 704 1
594 704 1
639 704 1
339 705 1
380 705 1
402 705 1
445 705 1
595 705 1
640 705 1
340 706 1
381 706 1
403 706 1
446 706 1
596 706 1
641 706 1
341 707 1
382 707 1
404 707 1
447 707 1
597 707 1
642 707 1
342 708 1
383 708 1
405 708 1
448 708 1
598 708 1
643 708 1
343 709 1
384 709 1
406 709 1
449 709 1
599 709 1
644 709 1
344 710 1
385 710 1
407 710 1
450 710 1
600 710 1
645 710 1
345 711 1
386 711 1
408 711 1
451 711 1
601 711 1
646 711 1
346 712 1
387 712 1
409 712 1
452 712 1
602 712 1
647 712 1
347 713 1
388 713 1
410 713 1
453 713 1
603 713 1
648 713 1
348 714 1
389 714 1
411 714 1
454 714 1
604 714 1
649 714 1
349 715 1
390 715 1
412 715 1
455 715 1
605 715 1
650 715 1
326 716 1
352 716 1
456 716 1
478 716 1
651 716 1
671 716 1
327 717 1
353 717 1
457 717 1
479 717 1
652 717 1
672 717 1
328 718 1
354 718 1
458 718 1
480 718 1
653 718 1
673 718 1
329 719 1
355 719 1
459 719 1
481 719 1
654 719 1
674 719 1
330 720 1
356 720 1
460 720 1
482 720 1
655 720 1
675 720 1
331 721 1
357 721 1
461 721 1
483 721 1
656 721 1
676 721 1
332 722 1
358 722 1
462 722 1
484 722 1
657 722 1
677 722 1
333 723 1
359 723 1
463 723 1
485 723 1
658 723 1
678 723 1
334 724 1
360 724 1
464 724 1
486 724 1
659 724 1
679 724 1
335 725 1
361 725 1
465 725 1
487 725 1
660 725 1
680 725 1
336 726 1
362 726 1
466 726 1
488 726 1
661 726 1
681 726 1
337 727 1
363 727 1
467 727 1
489 727 1
662 727 1
682 727 1
338 728 1
364 728 1
468 728 1
490 728 1
663 728 1
683 728 1
339 729 1
365 729 1
469 729 1
491 729 1
664 729 1
684 729 1
340 730 1
366 730 1
470 730 1
492 730 1
665 730 1
685 730 1
341 731 1
367 731 1
471 731 1
493 731 1
666 731 1
686 731 1
342 732 1
368 732 1
472 732 1
494 732 1
667 732 1
687 732 1
343 733 1
369 733 1
473 733 1
495 733 1
668 733 1
688 733 1
344 734 1
370 734 1
474 734 1
496 734 1
669 734 1
689 734 1
345 735 1
371 735 1
475 735 1
497 735 1
670 735 1
690 735 1
346 736 1
372 736 1
476 736 1
498 736 1
671 736 1
691 736 1
347 737 1
373 737 1
477 737 1
499 737 1
672 737 1
692 737 1
348 738 1
374 738 1
478 738 1
500 738 1
673 738 1
693 738 1
349 739 1
375 739 1
479 739 1
501 739 1
674 739 1
694 739 1
350 740 1
376 740 1
480 740 1
502 740 1
675 740 1
695 740 1
351 741 1
377 741 1
481 741 1
503 741 1
676 741 1
696 741 1
352 742 1
378 742 1
482 742 1
504 742 1
677 742 1
697 742 1
353 743 1
379 743 1
483 743 1
505 743 1
678 743 1
698 743 1
354 744 1
380 744 1
484 744 1
506 744 1
679 744 1
699 744 1
355 745 1
381 745 1
485 745 1
507 745 1
680 745 1
700 745 1
356 746 1
382 746 1
486 746 1
508 746 1
681 746 1
701 746 1
357 747 1
383 747 1
487 747 1
509 747 1
682 747 1
702 747 1
358 748 1
384 748 1
488 748 1
510 748 1
683 748 1
703 748 1
359 749 1
385 749 1
489 749 1
511 749 1
684 749 1
704 749 1
360 750 1
386 750 1
490 750 1
512 750 1
685 750 1
705 750 1
361 751 1
387 751 1
491 751 1
513 751 1
686 751 1
706 751 1
362 752 1
388 752 1
492 752 1
514 752 1
687 752 1
707 752 1
363 753 1
389 753 1
493 753 1
515 753 1
688 753 1
708 753 1
364 754 1
390 754 1
494 754 1
516 754 1
689 754 1
709 754 1
326 755 1
365 755 1
495 755 1
517 755 1
690 755 1
710 755 1
327 756 1
366 756 1
496 756 1
518 756 1
691 756 1
711 756 1
328 757 1
367 757 1
497 757 1
519 757 1
692 757 1
712 757 1
329 758 1
368 758 1
498 758 1
520 758 1
693 758 1
713 758 1
330 759 1
369 759 1
456 759 1
499 759 1
694 759 1
714 759 1
331 760 1
370 760 1
457 760 1
500 760 1
695 760 1
715 760 1
332 761 1
371 761 1
458 761 1
501 761 1
651 761 1
696 761 1
333 762 1
372 762 1
459 762 1
502 762 1
652 762 1
697 762 1
334 763 1
373 763 1
460 763 1
503 763 1
653 763 1
698 763 1
335 764 1
374 764 1
461 764 1
504 764 1
654 764 1
699 764 1
336 765 1
375 765 1
462 765 1
505 765 1
655 765 1
700 765 1
337 766 1
376 766 1
463 766 1
506 766 1
656 766 1
701 766 1
338 767 1
377 767 1
464 767 1
507 767 1
657 767 1
702 767 1
339 768 1
378 768 1
465 768 1
508 768 1
658 768 1
703 768 1
340 769 1
379 769 1
466 769 1
509 769 1
659 769 1
704 769 1
341 770 1
380 770 1
467 770 1
510 770 1
660 770 1
705 770 1
342 771 1
381 771 1
468 771 1
511 771 1
661 771 1
706 771 1
343 772 1
382 772 1
469 772 1
512 772 1
662 772 1
707 772 1
344 773 1
383 773 1
470 773 1
513 773 1
663 773 1
708 773 1
345 774 1
384 774 1
471 774 1
514 774 1
664 774 1
709 774 1
346 775 1
385 775 1
472 775 1
515 775 1
665 775 1
710 775 1
347 776 1
386 776 1
473 776 1
516 776 1
666 776 1
711 776 1
348 777 1
387 777 1
474 777 1
517 777 1
667 777 1
712 777 1
349 778 1
388 778 1
475 778 1
518 778 1
668 778 1
713 778 1
350 779 1
389 779 1
476 779 1
519 779 1
669 779 1
714 779 1
351 780 1
390 780 1
477 780 1
520 780 1
670 780 1
715 780 1
326 781 1
361 781 1
521 781 1
543 781 1
716 781 1
736 781 1
327 782 1
362 782 1
522 782 1
544 782 1
717 782 1
737 782 1
328 783 1
363 783 1
523 783 1
545 783 1
718 783 1
738 783 1
329 784 1
364 784 1
524 784 1
546 784 1
719 784 1
739 784 1
330 785 1
365 785 1
525 785 1
547 785 1
720 785 1
740 785 1
331 786 1
366 786 1
526 786 1
548 786 1
721 786 1
741 786 1
332 787 1
367 787 1
527 787 1
549 787 1
722 787 1
742 787 1
333 788 1
368 788 1
528 788 1
550 788 1
723 788 1
743 788 1
334 789 1
369 789 1
529 789 1
551 789 1
724 789 1
744 789 1
335 790 1
370 790 1
530 790 1
552 790 1
725 790 1
745 790 1
336 791 1
371 791 1
531 791 1
553 791 1
726 791 1
746 791 1
337 792 1
372 792 1
532 792 1
554 792 1
727 792 1
747 792 1
338 793 1
373 793 1
533 793 1
555 793 1
728 793 1
748 793 1
339 794 1
374 794 1
534 794 1
556 794 1
729 794 1
749 794 1
340 795 1
375 795 1
535 795 1
557 795 1
730 795 1
750 795 1
341 796 1
376 796 1
536 796 1
558 796 1
731 796 1
751 796 1
342 797 1
377 797 1
537 797 1
559 797 1
732 797 1
752 797 1
343 798 1
378 798 1
538 798 1
560 798 1
733 798 1
753 798 1
344 799 1
379 799 1
539 799 1
561 799 1
734 799 1
754 799 1
345 800 1
380 800 1
540 800 1
562 800 1
735 800 1
755 800 1
346 801 1
381 801 1
541 801 1
563 801 1
736 801 1
756 801 1
347 802 1
382 802 1
542 802 1
564 802 1
737 802 1
757 802 1
348 803 1
383 803 1
543 803 1
565 803 1
738 803 1
758 803 1
349 804 1
384 804 1
544 804 1
566 804 1
739 804 1
759 804 1
350 805 1
385 805 1
545 805 1
567 805 1
740 805 1
760 805 1
351 806 1
386 806 1
546 806 1
568 806 1
741 806 1
761 806 1
352 807 1
387 807 1
547 807 1
569 807 1
742 807 1
762 807 1
353 808 1
388 808 1
548 808 1
570 808 1
743 808 1
763 808 1
354 809 1
389 809 1
549 809 1
571 809 1
744 809 1
764 809 1
355 810 1
390 810 1
550 810 1
572 810 1
745 810 1
765 810 1
326 811 1
356 811 1
551 811 1
573 811 1
746 811 1
766 811 1
327 812 1
357 812 1
552 812 1
574 812 1
747 812 1
767 812 1
328 813 1
358 813 1
553 813 1
575 813 1
748 813 1
768 813 1
329 814 1
359 814 1
554 814 1
576 814 1
749 814 1
769 814 1
330 815 1
360 815 1
555 815 1
577 815 1
750 815 1
770 815 1
331 816 1
361 816 1
556 816 1
578 816 1
751 816 1
771 816 1
332 817 1
362 817 1
557 817 1
579 817 1
752 817 1
772 817 1
333 818 1
363 818 1
558 818 1
580 818 1
753 818 1
773 818 1
334 819 1
364 819 1
559 819 1
581 819 1
754 819 1
774 819 1
335 820 1
365 820 1
560 820 1
582 820 1
755 820 1
775 820 1
336 821 1
366 821 1
561 821 1
583 821 1
756 821 1
776 821 1
337 822 1
367 822 1
562 822 1
584 822 1
757 822 1
777 822 1
338 823 1
368 823 1
563 823 1
585 823 1
758 823 1
778 823 1
339 824 1
369 824 1
521 824 1
564 824 1
759 824 1
779 824 1
340 825 1
370 825 1
522 825 1
565 825 1
760 825 1
780 825 1
341 826 1
371 826 1
523 826 1
566 826 1
716 826 1
761 826 1
342 827 1
372 827 1
524 827 1
567 827 1
717 827 1
762 827 1
343 828 1
373 828 1
525 828 1
568 828 1
718 828 1
763 828 1
344 829 1
374 829 1
526 829 1
569 829 1
719 829 1
764 829 1
345 830 1
375 830 1
527 830 1
570 830 1
720 830 1
765 830 1
346 831 1
376 831 1
528 831 1
571 831 1
721 831 1
766 831 1
347 832 1
377 832 1
529 832 1
572 832 1
722 832 1
767 832 1
348 833 1
378 833 1
530 833 1
573 833 1
723 833 1
768 833 1
349 834 1
379 834 1
531 834 1
574 834 1
724 834 1
769 834 1
350 835 1
380 835 1
532 835 1
575 835 1
725 835 1
770 835 1
351 836 1
381 836 1
533 836 1
576 836 1
726 836 1
771 836 1
352 837 1
382 837 1
534 837 1
577 837 1
727 837 1
772 837 1
353 838 1
383 838 1
535 838 1
578 838 1
728 838 1
773 838 1
354 839 1
384 839 1
536 839 1
579 839 1
729 839 1
774 839 1
355 840 1
385 840 1
537 840 1
580 840 1
730 840 1
775 840 1
356 841 1
386 841 1
538 841 1
581 841 1
731 841 1
776 841 1
357 842 1
387 842 1
539 842 1
582 842 1
732 842 1
777 842 1
358 843 1
388 843 1
540 843 1
583 843 1
733 843 1
778 843 1
359 844 1
389 844 1
541 844 1
584 844 1
734 844 1
779 844 1
360 845 1
390 845 1
542 845 1
585 845 1
735 845 1
780 845 1
391 846 1
417 846 1
456 846 1
480 846 1
781 846 1
801 846 1
392 847 1
418 847 1
457 847 1
481 847 1
782 847 1
802 847 1
393 848 1
419 848 1
458 848 1
482 848 1
783 848 1
803 848 1
394 849 1
420 849 1
459 849 1
483 849 1
784 849 1
804 849 1
395 850 1
421 850 1
460 850 1
484 850 1
785 850 1
805 850 1
396 851 1
422 851 1
461 851 1
485 851 1
786 851 1
806 851 1
397 852 1
423 852 1
462 852 1
486 852 1
787 852 1
807 852 1
398 853 1
424 853 1
463 853 1
487 853 1
788 853 1
808 853 1
399 854 1
425 854 1
464 854 1
488 854 1
789 854 1
809 854 1
400 855 1
426 855 1
465 855 1
489 855 1
790 855 1
810 855 1
401 856 1
427 856 1
466 856 1
490 856 1
791 856 1
811 856 1
402 857 1
428 857 1
467 857 1
491 857 1
792 857 1
812 857 1
403 858 1
429 858 1
468 858 1
492 858 1
793 858 1
813 858 1
404 859 1
430 859 1
469 859 1
493 859 1
794 859 1
814 859 1
405 860 1
431 860 1
470 860 1
494 860 1
795 860 1
815 860 1
406 861 1
432 861 1
471 861 1
495 861 1
796 861 1
816 861 1
407 862 1
433 862 1
472 862 1
496 862 1
797 862 1
817 862 1
408 863 1
434 863 1
473 863 1
497 863 1
798 863 1
818 863 1
409 864 1
435 864 1
474 864 1
498 864 1
799 864 1
819 864 1
410 865 1
436 865 1
475 865 1
499 865 1
800 865 1
820 865 1
411 866 1
437 866 1
476 866 1
500 866 1
801 866 1
821 866 1
412 867 1
438 867 1
477 867 1
501 867 1
802 867 1
822 867 1
413 868 1
439 868 1
478 868 1
502 868 1
803 868 1
823 868 1
414 869 1
440 869 1
479 869 1
503 869 1
804 869 1
824 869 1
415 870 1
441 870 1
480 870 1
504 870 1
805 870 1
825 870 1
416 871 1
442 871 1
481 871 1
505 871 1
806 871 1
826 871 1
417 872 1
443 872 1
482 872 1
506 872 1
807 872 1
827 872 1
418 873 1
444 873 1
483 873 1
507 873 1
808 873 1
828 873 1
419 874 1
445 874 1
484 874 1
508 874 1
809 874 1
829 874 1
420 875 1
446 875 1
485 875 1
509 875 1
810 875 1
830 875 1
421 876 1
447 876 1
486 876 1
510 876 1
811 876 1
831 876 1
422 877 1
448 877 1
487 877 1
511 877 1
812 877 1
832 877 1
423 878 1
449 878 1
488 878 1
512 878 1
813 878 1
833 878 1
424 879 1
450 879 1
489 879 1
513 879 1
814 879 1
834 879 1
425 880 1
451 880 1
490 880 1
514 880 1
815 880 1
835 880 1
426 881 1
452 881 1
491 881 1
515 881 1
816 881 1
836 881 1
427 882 1
453 882 1
492 882 1
516 882 1
817 882 1
837 882 1
428 883 1
454 883 1
493 883 1
517 883 1
818 883 1
838 883 1
429 884 1
455 884 1
494 884 1
518 884 1
819 884 1
839 884 1
391 885 1
430 885 1
495 885 1
519 885 1
820 885 1
840 885 1
392 886 1
431 886 1
496 886 1
520 886 1
821 886 1
841 886 1
393 887 1
432 887 1
456 887 1
497 887 1
822 887 1
842 887 1
394 888 1
433 888 1
457 888 1
498 888 1
823 888 1
843 888 1
395 889 1
434 889 1
458 889 1
499 889 1
824 889 1
844 889 1
396 890 1
435 890 1
459 890 1
500 890 1
825 890 1
845 890 1
397 891 1
436 891 1
460 891 1
501 891 1
781 891 1
826 891 1
398 892 1
437 892 1
461 892 1
502 892 1
782 892 1
827 892 1
399 893 1
438 893 1
462 893 1
503 893 1
783 893 1
828 893 1
400 894 1
439 894 1
463 894 1
504 894 1
784 894 1
829 894 1
401 895 1
440 895 1
464 895 1
505 895 1
785 895 1
830 895 1
402 896 1
441 896 1
465 896 1
506 896 1
786 896 1
831 896 1
403 897 1
442 897 1
466 897 1
507 897 1
787 897 1
832 897 1
404 898 1
443 898 1
467 898 1
508 898 1
788 898 1
833 898 1
405 899 1
444 899 1
468 899 1
509 899 1
789 899 1
834 899 1
406 900 1
445 900 1
469 900 1
510 900 1
790 900 1
835 900 1
407 901 1
446 901 1
470 901 1
511 901 1
791 901 1
836 901 1
408 902 1
447 902 1
471 902 1
512 902 1
792 902 1
837 902 1
409 903 1
448 903 1
472 903 1
513 903 1
793 903 1
838 903 1
410 904 1
449 904 1
473 904 1
514 904 1
794 904 1
839 904 1
411 905 1
450 905 1
474 905 1
515 905 1
795 905 1
840 905 1
412 906 1
451 906 1
475 906 1
516 906 1
796 906 1
841 906 1
413 907 1
452 907 1
476 907 1
517 907 1
797 907 1
842 907 1
414 908 1
453 908 1
477 908 1
518 908 1
798 908 1
843 908 1
415 909 1
454 909 1
478 909 1
519 909 1
799 909 1
844 909 1
416 910 1
455 910 1
479 910 1
520 910 1
800 910 1
845 910 1
391 911 1
426 911 1
521 911 1
545 911 1
846 911 1
866 911 1
392 912 1
427 912 1
522 912 1
546 912 1
847 912 1
867 912 1
393 913 1
428 913 1
523 913 1
547 913 1
848 913 1
868 913 1
394 914 1
429 914 1
524 914 1
548 914 1
849 914 1
869 914 1
395 915 1
430 915 1
525 915 1
549 915 1
850 915 1
870 915 1
396 916 1
431 916 1
526 916 1
550 916 1
851 916 1
871 916 1
397 917 1
432 917 1
527 917 1
551 917 1
852 917 1
872 917 1
398 918 1
433 918 1
528 918 1
552 918 1
853 918 1
873 918 1
399 919 1
434 919 1
529 919 1
553 919 1
854 919 1
874 919 1
400 920 1
435 920 1
530 920 1
554 920 1
855 920 1
875 920 1
401 921 1
436 921 1
531 921 1
555 921 1
856 921 1
876 921 1
402 922 1
437 922 1
532 922 1
556 922 1
857 922 1
877 922 1
403 923 1
438 923 1
533 923 1
557 923 1
858 923 1
878 923 1
404 924 1
439 924 1
534 924 1
558 924 1
859 924 1
879 924 1
405 925 1
440 925 1
535 925 1
559 925 1
860 925 1
880 925 1
406 926 1
441 926 1
536 926 1
560 926 1
861 926 1
881 926 1
407 927 1
442 927 1
537 927 1
561 927 1
862 927 1
882 927 1
408 928 1
443 928 1
538 928 1
562 928 1
863 928 1
883 928 1
409 929 1
444 929 1
539 929 1
563 929 1
864 929 1
884 929 1
410 930 1
445 930 1
540 930 1
564 930 1
865 930 1
885 930 1
411 931 1
446 931 1
541 931 1
565 931 1
866 931 1
886 931 1
412 932 1
447 932 1
542 932 1
566 932 1
867 932 1
887 932 1
413 933 1
448 933 1
543 933 1
567 933 1
868 933 1
888 933 1
414 934 1
449 934 1
544 934 1
568 934 1
869 934 1
889 934 1
415 935 1
450 935 1
545 935 1
569 935 1
870 935 1
890 935 1
416 936 1
451 936 1
546 936 1
570 936 1
871 936 1
891 936 1
417 937 1
452 937 1
547 937 1
571 937 1
872 937 1
892 937 1
418 938 1
453 938 1
548 938 1
572 938 1
873 938 1
893 938 1
419 939 1
454 939 1
549 939 1
573 939 1
874 939 1
894 939 1
420 940 1
455 940 1
550 940 1
574 940 1
875 940 1
895 940 1
391 941 1
421 941 1
551 941 1
575 941 1
876 941 1
896 941 1
392 942 1
422 942 1
552 942 1
576 942 1
877 942 1
897 942 1
393 943 1
423 943 1
553 943 1
577 943 1
878 943 1
898 943 1
394 944 1
424 944 1
554 944 1
578 944 1
879 944 1
899 944 1
395 945 1
425 945 1
555 945 1
579 945 1
880 945 1
900 945 1
396 946 1
426 946 1
556 946 1
580 946 1
881 946 1
901 946 1
397 947 1
427 947 1
557 947 1
581 947 1
882 947 1
902 947 1
398 948 1
428 948 1
558 948 1
582 948 1
883 948 1
903 948 1
399 949 1
429 949 1
559 949 1
583 949 1
884 949 1
904 949 1
400 950 1
430 950 1
560 950 1
584 950 1
885 950 1
905 950 1
401 951 1
431 951 1
561 951 1
585 951 1
886 951 1
906 951 1
402 952 1
432 952 1
521 952 1
562 952 1
887 952 1
907 952 1
403 953 1
433 953 1
522 953 1
563 953 1
888 953 1
908 953 1
404 954 1
434 954 1
523 954 1
564 954 1
889 954 1
909 954 1
405 955 1
435 955 1
524 955 1
565 955 1
890 955 1
910 955 1
406 956 1
436 956 1
525 956 1
566 956 1
846 956 1
891 956 1
407 957 1
437 957 1
526 957 1
567 957 1
847 957 1
892 957 1
408 958 1
438 958 1
527 958 1
568 958 1
848 958 1
893 958 1
409 959 1
439 959 1
528 959 1
569 959 1
849 959 1
894 959 1
410 960 1
440 960 1
529 960 1
570 960 1
850 960 1
895 960 1
411 961 1
441 961 1
530 961 1
571 961 1
851 961 1
896 961 1
412 962 1
442 962 1
531 962 1
572 962 1
852 962 1
897 962 1
413 963 1
443 963 1
532 963 1
573 963 1
853 963 1
898 963 1
414 964 1
444 964 1
533 964 1
574 964 1
854 964 1
899 964 1
415 965 1
445 965 1
534 965 1
575 965 1
855 965 1
900 965 1
416 966 1
446 966 1
535 966 1
576 966 1
856 966 1
901 966 1
417 967 1
447 967 1
536 967 1
577 967 1
857 967 1
902 967 1
418 968 1
448 968 1
537 968 1
578 968 1
858 968 1
903 968 1
419 969 1
449 969 1
538 969 1
579 969 1
859 969 1
904 969 1
420 970 1
450 970 1
539 970 1
580 970 1
860 970 1
905 970 1
421 971 1
451 971 1
540 971 1
581 971 1
861 971 1
906 971 1
422 972 1
452 972 1
541 972 1
582 972 1
862 972 1
907 972 1
423 973 1
453 973 1
542 973 1
583 973 1
863 973 1
908 973 1
424 974 1
454 974 1
543 974 1
584 974 1
864 974 1
909 974 1
425 975 1
455 975 1
544 975 1
585 975 1
865 975 1
910 975 1
456 976 1
491 976 1
521 976 1
547 976 1
911 976 1
931 976 1
457 977 1
492 977 1
522 977 1
548 977 1
912 977 1
932 977 1
458 978 1
493 978 1
523 978 1
549 978 1
913 978 1
933 978 1
459 979 1
494 979 1
524 979 1
550 979 1
914 979 1
934 979 1
460 980 1
495 980 1
525 980 1
551 980 1
915 980 1
935 980 1
461 981 1
496 981 1
526 981 1
552 981 1
916 981 1
936 981 1
462 982 1
497 982 1
527 982 1
553 982 1
917 982 1
937 982 1
463 983 1
498 983 1
528 983 1
554 983 1
918 983 1
938 983 1
464 984 1
499 984 1
529 984 1
555 984 1
919 984 1
939 984 1
465 985 1
500 985 1
530 985 1
556 985 1
920 985 1
940 985 1
466 986 1
501 986 1
531 986 1
557 986 1
921 986 1
941 986 1
467 987 1
502 987 1
532 987 1
558 987 1
922 987 1
942 987 1
468 988 1
503 988 1
533 988 1
559 988 1
923 988 1
943 988 1
469 989 1
504 989 1
534 989 1
560 989 1
924 989 1
944 989 1
470 990 1
505 990 1
535 990 1
561 990 1
925 990 1
945 990 1
471 991 1
506 991 1
536 991 1
562 991 1
926 991 1
946 991 1
472 992 1
507 992 1
537 992 1
563 992 1
927 992 1
947 992 1
473 993 1
508 993 1
538 993 1
564 993 1
928 993 1
948 993 1
474 994 1
509 994 1
539 994 1
565 994 1
929 994 1
949 994 1
475 995 1
510 995 1
540 995 1
566 995 1
930 995 1
950 995 1
476 996 1
511 996 1
541 996 1
567 996 1
931 996 1
951 996 1
477 997 1
512 997 1
542 997 1
568 997 1
932 997 1
952 997 1
478 998 1
513 998 1
543 998 1
569 998 1
933 998 1
953 998 1
479 999 1
514 999 1
544 999 1
570 999 1
934 999 1
954 999 1
480 1000 1
515 1000 1
545 1000 1
571 1000 1
935 1000 1
955 1000 1
481 1001 1
516 1001 1
546 1001 1
572 1001 1
936 1001 1
956 1001 1
482 1002 1
517 1002 1
547 1002 1
573 1002 1
937 1002 1
957 1002 1
483 1003 1
518 1003 1
548 1003 1
574 1003 1
938 1003 1
958 1003 1
484 1004 1
519 1004 1
549 1004 1
575 1004 1
939 1004 1
959 1004 1
485 1005 1
520 1005 1
550 1005 1
576 1005 1
940 1005 1
960 1005 1
456 1006 1
486 1006 1
551 1006 1
577 1006 1
941 1006 1
961 1006 1
457 1007 1
487 1007 1
552 1007 1
578 1007 1
942 1007 1
962 1007 1
458 1008 1
488 1008 1
553 1008 1
579 1008 1
943 1008 1
963 1008 1
459 1009 1
489 1009 1
554 1009 1
580 1009 1
944 1009 1
964 1009 1
460 1010 1
490 1010 1
555 1010 1
581 1010 1
945 1010 1
965 1010 1
461 1011 1
491 1011 1
556 1011 1
582 1011 1
946 1011 1
966 1011 1
462 1012 1
492 1012 1
557 1012 1
583 1012 1
947 1012 1
967 1012 1
463 1013 1
493 1013 1
558 1013 1
584 1013 1
948 1013 1
968 1013 1
464 1014 1
494 1014 1
559 1014 1
585 1014 1
949 1014 1
969 1014 1
465 1015 1
495 1015 1
521 1015 1
560 1015 1
950 1015 1
970 1015 1
466 1016 1
496 1016 1
522 1016 1
561 1016 1
951 1016 1
971 1016 1
467 1017 1
497 1017 1
523 1017 1
562 1017 1
952 1017 1
972 1017 1
468 1018 1
498 1018 1
524 1018 1
563 1018 1
953 1018 1
973 1018 1
469 1019 1
499 1019 1
525 1019 1
564 1019 1
954 1019 1
974 1019 1
470 1020 1
500 1020 1
526 1020 1
565 1020 1
955 1020 1
975 1020 1
471 1021 1
501 1021 1
527 1021 1
566 1021 1
911 1021 1
956 1021 1
472 1022 1
502 1022 1
528 1022 1
567 1022 1
912 1022 1
957 1022 1
473 1023 1
503 1023 1
529 1023 1
568 1023 1
913 1023 1
958 1023 1
474 1024 1
504 1024 1
530 1024 1
569 1024 1
914 1024 1
959 1024 1
475 1025 1
505 1025 1
531 1025 1
570 1025 1
915 1025 1
960 1025 1
476 1026 1
506 1026 1
532 1026 1
571 1026 1
916 1026 1
961 1026 1
477 1027 1
507 1027 1
533 1027 1
572 1027 1
917 1027 1
962 1027 1
478 1028 1
508 1028 1
534 1028 1
573 1028 1
918 1028 1
963 1028 1
479 1029 1
509 1029 1
535 1029 1
574 1029 1
919 1029 1
964 1029 1
480 1030 1
510 1030 1
536 1030 1
575 1030 1
920 1030 1
965 1030 1
481 1031 1
511 1031 1
537 1031 1
576 1031 1
921 1031 1
966 1031 1
482 1032 1
512 1032 1
538 1032 1
577 1032 1
922 1032 1
967 1032 1
483 1033 1
513 1033 1
539 1033 1
578 1033 1
923 1033 1
968 1033 1
484 1034 1
514 1034 1
540 1034 1
579 1034 1
924 1034 1
969 1034 1
485 1035 1
515 1035 1
541 1035 1
580 1035 1
925 1035 1
970 1035 1
486 1036 1
516 1036 1
542 1036 1
581 1036 1
926 1036 1
971 1036 1
487 1037 1
517 1037 1
543 1037 1
582 1037 1
927 1037 1
972 1037 1
488 1038 1
518 1038 1
544 1038 1
583 1038 1
928 1038 1
973 1038 1
489 1039 1
519 1039 1
545 1039 1
584 1039 1
929 1039 1
974 1039 1
490 1040 1
520 1040 1
546 1040 1
585 1040 1
930 1040 1
975 1040 1
586 1041 1
612 1041 1
651 1041 1
675 1041 1
781 1041 1
803 1041 1
587 1042 1
613 1042 1
652 1042 1
676 1042 1
782 1042 1
804 1042 1
588 1043 1
614 1043 1
653 1043 1
677 1043 1
783 1043 1
805 1043 1
589 1044 1
615 1044 1
654 1044 1
678 1044 1
784 1044 1
806 1044 1
590 1045 1
616 1045 1
655 1045 1
679 1045 1
785 1045 1
807 1045 1
591 1046 1
617 1046 1
656 1046 1
680 1046 1
786 1046 1
808 1046 1
592 1047 1
618 1047 1
657 1047 1
681 1047 1
787 1047 1
809 1047 1
593 1048 1
619 1048 1
658 1048 1
682 1048 1
788 1048 1
810 1048 1
594 1049 1
620 1049 1
659 1049 1
683 1049 1
789 1049 1
811 1049 1
595 1050 1
621 1050 1
660 1050 1
684 1050 1
790 1050 1
812 1050 1
596 1051 1
622 1051 1
661 1051 1
685 1051 1
791 1051 1
813 1051 1
597 1052 1
623 1052 1
662 1052 1
686 1052 1
792 1052 1
814 1052 1
598 1053 1
624 1053 1
663 1053 1
687 1053 1
793 1053 1
815 1053 1
599 1054 1
625 1054 1
664 1054 1
688 1054 1
794 1054 1
816 1054 1
600 1055 1
626 1055 1
665 1055 1
689 1055 1
795 1055 1
817 1055 1
601 1056 1
627 1056 1
666 1056 1
690 1056 1
796 1056 1
818 1056 1
602 1057 1
628 1057 1
667 1057 1
691 1057 1
797 1057 1
819 1057 1
603 1058 1
629 1058 1
668 1058 1
692 1058 1
798 1058 1
820 1058 1
604 1059 1
630 1059 1
669 1059 1
693 1059 1
799 1059 1
821 1059 1
605 1060 1
631 1060 1
670 1060 1
694 1060 1
800 1060 1
822 1060 1
606 1061 1
632 1061 1
671 1061 1
695 1061 1
801 1061 1
823 1061 1
607 1062 1
633 1062 1
672 1062 1
696 1062 1
802 1062 1
824 1062 1
608 1063 1
634 1063 1
673 1063 1
697 1063 1
803 1063 1
825 1063 1
609 1064 1
635 1064 1
674 1064 1
698 1064 1
804 1064 1
826 1064 1
610 1065 1
636 1065 1
675 1065 1
699 1065 1
805 1065 1
827 1065 1
611 1066 1
637 1066 1
676 1066 1
700 1066 1
806 1066 1
828 1066 1
612 1067 1
638 1067 1
677 1067 1
701 1067 1
807 1067 1
829 1067 1
613 1068 1
639 1068 1
678 1068 1
702 1068 1
808 1068 1
830 1068 1
614 1069 1
640 1069 1
679 1069 1
703 1069 1
809 1069 1
831 1069 1
615 1070 1
641 1070 1
680 1070 1
704 1070 1
810 1070 1
832 1070 1
616 1071 1
642 1071 1
681 1071 1
705 1071 1
811 1071 1
833 1071 1
617 1072 1
643 1072 1
682 1072 1
706 1072 1
812 1072 1
834 1072 1
618 1073 1
644 1073 1
683 1073 1
707 1073 1
813 1073 1
835 1073 1
619 1074 1
645 1074 1
684 1074 1
708 1074 1
814 1074 1
836 1074 1
620 1075 1
646 1075 1
685 1075 1
709 1075 1
815 1075 1
837 1075 1
621 1076 1
647 1076 1
686 1076 1
710 1076 1
816 1076 1
838 1076 1
622 1077 1
648 1077 1
687 1077 1
711 1077 1
817 1077 1
839 1077 1
623 1078 1
649 1078 1
688 1078 1
712 1078 1
818 1078 1
840 1078 1
624 1079 1
650 1079 1
689 1079 1
713 1079 1
819 1079 1
841 1079 1
586 1080 1
625 1080 1
690 1080 1
714 1080 1
820 1080 1
842 1080 1
587 1081 1
626 1081 1
691 1081 1
715 1081 1
821 1081 1
843 1081 1
588 1082 1
627 1082 1
651 1082 1
692 1082 1
822 1082 1
844 1082 1
589 1083 1
628 1083 1
652 1083 1
693 1083 1
823 1083 1
845 1083 1
590 1084 1
629 1084 1
653 1084 1
694 1084 1
781 1084 1
824 1084 1
591 1085 1
630 1085 1
654 1085 1
695 1085 1
782 1085 1
825 1085 1
592 1086 1
631 1086 1
655 1086 1
696 1086 1
783 1086 1
826 1086 1
593 1087 1
632 1087 1
656 1087 1
697 1087 1
784 1087 1
827 1087 1
594 1088 1
633 1088 1
657 1088 1
698 1088 1
785 1088 1
828 1088 1
595 1089 1
634 1089 1
658 1089 1
699 1089 1
786 1089 1
829 1089 1
596 1090 1
635 1090 1
659 1090 1
700 1090 1
787 1090 1
830 1090 1
597 1091 1
636 1091 1
660 1091 1
701 1091 1
788 1091 1
831 1091 1
598 1092 1
637 1092 1
661 1092 1
702 1092 1
789 1092 1
832 1092 1
599 1093 1
638 1093 1
662 1093 1
703 1093 1
790 1093 1
833 1093 1
600 1094 1
639 1094 1
663 1094 1
704 1094 1
791 1094 1
834 1094 1
601 1095 1
640 1095 1
664 1095 1
705 1095 1
792 1095 1
835 1095 1
602 1096 1
641 1096 1
665 1096 1
706 1096 1
793 1096 1
836 1096 1
603 1097 1
642 1097 1
666 1097 1
707 1097 1
794 1097 1
837 1097 1
604 1098 1
643 1098 1
667 1098 1
708 1098 1
795 1098 1
838 1098 1
605 1099 1
644 1099 1
668 1099 1
709 1099 1
796 1099 1
839 1099 1
606 1100 1
645 1100 1
669 1100 1
710 1100 1
797 1100 1
840 1100 1
607 1101 1
646 1101 1
670 1101 1
711 1101 1
798 1101 1
841 1101 1
608 1102 1
647 1102 1
671 1102 1
712 1102 1
799 1102 1
842 1102 1
609 1103 1
648 1103 1
672 1103 1
713 1103 1
800 1103 1
843 1103 1
610 1104 1
649 1104 1
673 1104 1
714 1104 1
801 1104 1
844 1104 1
611 1105 1
650 1105 1
674 1105 1
715 1105 1
802 1105 1
845 1105 1
586 1106 1
621 1106 1
716 1106 1
740 1106 1
846 1106 1
868 1106 1
587 1107 1
622 1107 1
717 1107 1
741 1107 1
847 1107 1
869 1107 1
588 1108 1
623 1108 1
718 1108 1
742 1108 1
848 1108 1
870 1108 1
589 1109 1
624 1109 1
719 1109 1
743 1109 1
849 1109 1
871 1109 1
590 1110 1
625 1110 1
720 1110 1
744 1110 1
850 1110 1
872 1110 1
591 1111 1
626 1111 1
721 1111 1
745 1111 1
851 1111 1
873 1111 1
592 1112 1
627 1112 1
722 1112 1
746 1112 1
852 1112 1
874 1112 1
593 1113 1
628 1113 1
723 1113 1
747 1113 1
853 1113 1
875 1113 1
594 1114 1
629 1114 1
724 1114 1
748 1114 1
854 1114 1
876 1114 1
595 1115 1
630 1115 1
725 1115 1
749 1115 1
855 1115 1
877 1115 1
596 1116 1
631 1116 1
726 1116 1
750 1116 1
856 1116 1
878 1116 1
597 1117 1
632 1117 1
727 1117 1
751 1117 1
857 1117 1
879 1117 1
598 1118 1
633 1118 1
728 1118 1
752 1118 1
858 1118 1
880 1118 1
599 1119 1
634 1119 1
729 1119 1
753 1119 1
859 1119 1
881 1119 1
600 1120 1
635 1120 1
730 1120 1
754 1120 1
860 1120 1
882 1120 1
601 1121 1
636 1121 1
731 1121 1
755 1121 1
861 1121 1
883 1121 1
602 1122 1
637 1122 1
732 1122 1
756 1122 1
862 1122 1
884 1122 1
603 1123 1
638 1123 1
733 1123 1
757 1123 1
863 1123 1
885 1123 1
604 1124 1
639 1124 1
734 1124 1
758 1124 1
864 1124 1
886 1124 1
605 1125 1
640 1125 1
735 1125 1
759 1125 1
865 1125 1
887 1125 1
606 1126 1
641 1126 1
736 1126 1
760 1126 1
866 1126 1
888 1126 1
607 1127 1
642 1127 1
737 1127 1
761 1127 1
867 1127 1
889 1127 1
608 1128 1
643 1128 1
738 1128 1
762 1128 1
868 1128 1
890 1128 1
609 1129 1
644 1129 1
739 1129 1
763 1129 1
869 1129 1
891 1129 1
610 1130 1
645 1130 1
740 1130 1
764 1130 1
870 1130 1
892 1130 1
611 1131 1
646 1131 1
741 1131 1
765 1131 1
871 1131 1
893 1131 1
612 1132 1
647 1132 1
742 1132 1
766 1132 1
872 1132 1
894 1132 1
613 1133 1
648 1133 1
743 1133 1
767 1133 1
873 1133 1
895 1133 1
614 1134 1
649 1134 1
744 1134 1
768 1134 1
874 1134 1
896 1134 1
615 1135 1
650 1135 1
745 1135 1
769 1135 1
875 1135 1
897 1135 1
586 1136 1
616 1136 1
746 1136 1
770 1136 1
876 1136 1
898 1136 1
587 1137 1
617 1137 1
747 1137 1
771 1137 1
877 1137 1
899 1137 1
588 1138 1
618 1138 1
748 1138 1
772 1138 1
878 1138 1
900 1138 1
589 1139 1
619 1139 1
749 1139 1
773 1139 1
879 1139 1
901 1139 1
590 1140 1
620 1140 1
750 1140 1
774 1140 1
880 1140 1
902 1140 1
591 1141 1
621 1141 1
751 1141 1
775 1141 1
881 1141 1
903 1141 1
592 1142 1
622 1142 1
752 1142 1
776 1142 1
882 1142 1
904 1142 1
593 1143 1
623 1143 1
753 1143 1
777 1143 1
883 1143 1
905 1143 1
594 1144 1
624 1144 1
754 1144 1
778 1144 1
884 1144 1
906 1144 1
595 1145 1
625 1145 1
755 1145 1
779 1145 1
885 1145 1
907 1145 1
596 1146 1
626 1146 1
756 1146 1
780 1146 1
886 1146 1
908 1146 1
597 1147 1
627 1147 1
716 1147 1
757 1147 1
887 1147 1
909 1147 1
598 1148 1
628 1148 1
717 1148 1
758 1148 1
888 1148 1
910 1148 1
599 1149 1
629 1149 1
718 1149 1
759 1149 1
846 1149 1
889 1149 1
600 1150 1
630 1150 1
719 1150 1
760 1150 1
847 1150 1
890 1150 1
601 1151 1
631 1151 1
720 1151 1
761 1151 1
848 1151 1
891 1151 1
602 1152 1
632 1152 1
721 1152 1
762 1152 1
849 1152 1
892 1152 1
603 1153 1
633 1153 1
722 1153 1
763 1153 1
850 1153 1
893 1153 1
604 1154 1
634 1154 1
723 1154 1
764 1154 1
851 1154 1
894 1154 1
605 1155 1
635 1155 1
724 1155 1
765 1155 1
852 1155 1
895 1155 1
606 1156 1
636 1156 1
725 1156 1
766 1156 1
853 1156 1
896 1156 1
607 1157 1
637 1157 1
726 1157 1
767 1157 1
854 1157 1
897 1157 1
608 1158 1
638 1158 1
727 1158 1
768 1158 1
855 1158 1
898 1158 1
609 1159 1
639 1159 1
728 1159 1
769 1159 1
856 1159 1
899 1159 1
610 1160 1
640 1160 1
729 1160 1
770 1160 1
857 1160 1
900 1160 1
611 1161 1
641 1161 1
730 1161 1
771 1161 1
858 1161 1
901 1161 1
612 1162 1
642 1162 1
731 1162 1
772 1162 1
859 1162 1
902 1162 1
613 1163 1
643 1163 1
732 1163 1
773 1163 1
860 1163 1
903 1163 1
614 1164 1
644 1164 1
733 1164 1
774 1164 1
861 1164 1
904 1164 1
615 1165 1
645 1165 1
734 1165 1
775 1165 1
862 1165 1
905 1165 1
616 1166 1
646 1166 1
735 1166 1
776 1166 1
863 1166 1
906 1166 1
617 1167 1
647 1167 1
736 1167 1
777 1167 1
864 1167 1
907 1167 1
618 1168 1
648 1168 1
737 1168 1
778 1168 1
865 1168 1
908 1168 1
619 1169 1
649 1169 1
738 1169 1
779 1169 1
866 1169 1
909 1169 1
620 1170 1
650 1170 1
739 1170 1
780 1170 1
867 1170 1
910 1170 1
651 1171 1
686 1171 1
716 1171 1
742 1171 1
911 1171 1
933 1171 1
652 1172 1
687 1172 1
717 1172 1
743 1172 1
912 1172 1
934 1172 1
653 1173 1
688 1173 1
718 1173 1
744 1173 1
913 1173 1
935 1173 1
654 1174 1
689 1174 1
719 1174 1
745 1174 1
914 1174 1
936 1174 1
655 1175 1
690 1175 1
720 1175 1
746 1175 1
915 1175 1
937 1175 1
656 1176 1
691 1176 1
721 1176 1
747 1176 1
916 1176 1
938 1176 1
657 1177 1
692 1177 1
722 1177 1
748 1177 1
917 1177 1
939 1177 1
658 1178 1
693 1178 1
723 1178 1
749 1178 1
918 1178 1
940 1178 1
659 1179 1
694 1179 1
724 1179 1
750 1179 1
919 1179 1
941 1179 1
660 1180 1
695 1180 1
725 1180 1
751 1180 1
920 1180 1
942 1180 1
661 1181 1
696 1181 1
726 1181 1
752 1181 1
921 1181 1
943 1181 1
662 1182 1
697 1182 1
727 1182 1
753 1182 1
922 1182 1
944 1182 1
663 1183 1
698 1183 1
728 1183 1
754 1183 1
923 1183 1
945 1183 1
664 1184 1
699 1184 1
729 1184 1
755 1184 1
924 1184 1
946 1184 1
665 1185 1
700 1185 1
730 1185 1
756 1185 1
925 1185 1
947 1185 1
666 1186 1
701 1186 1
731 1186 1
757 1186 1
926 1186 1
948 1186 1
667 1187 1
702 1187 1
732 1187 1
758 1187 1
927 1187 1
949 1187 1
668 1188 1
703 1188 1
733 1188 1
759 1188 1
928 1188 1
950 1188 1
669 1189 1
704 1189 1
734 1189 1
760 1189 1
929 1189 1
951 1189 1
670 1190 1
705 1190 1
735 1190 1
761 1190 1
930 1190 1
952 1190 1
671 1191 1
706 1191 1
736 1191 1
762 1191 1
931 1191 1
953 1191 1
672 1192 1
707 1192 1
737 1192 1
763 1192 1
932 1192 1
954 1192 1
673 1193 1
708 1193 1
738 1193 1
764 1193 1
933 1193 1
955 1193 1
674 1194 1
709 1194 1
739 1194 1
765 1194 1
934 1194 1
956 1194 1
675 1195 1
710 1195 1
740 1195 1
766 1195 1
935 1195 1
957 1195 1
676 1196 1
711 1196 1
741 1196 1
767 1196 1
936 1196 1
958 1196 1
677 1197 1
712 1197 1
742 1197 1
768 1197 1
937 1197 1
959 1197 1
678 1198 1
713 1198 1
743 1198 1
769 1198 1
938 1198 1
960 1198 1
679 1199 1
714 1199 1
744 1199 1
770 1199 1
939 1199 1
961 1199 1
680 1200 1
715 1200 1
745 1200 1
771 1200 1
940 1200 1
962 1200 1
651 1201 1
681 1201 1
746 1201 1
772 1201 1
941 1201 1
963 1201 1
652 1202 1
682 1202 1
747 1202 1
773 1202 1
942 1202 1
964 1202 1
653 1203 1
683 1203 1
748 1203 1
774 1203 1
943 1203 1
965 1203 1
654 1204 1
684 1204 1
749 1204 1
775 1204 1
944 1204 1
966 1204 1
655 1205 1
685 1205 1
750 1205 1
776 1205 1
945 1205 1
967 1205 1
656 1206 1
686 1206 1
751 1206 1
777 1206 1
946 1206 1
968 1206 1
657 1207 1
687 1207 1
752 1207 1
778 1207 1
947 1207 1
969 1207 1
658 1208 1
688 1208 1
753 1208 1
779 1208 1
948 1208 1
970 1208 1
659 1209 1
689 1209 1
754 1209 1
780 1209 1
949 1209 1
971 1209 1
660 1210 1
690 1210 1
716 1210 1
755 1210 1
950 1210 1
972 1210 1
661 1211 1
691 1211 1
717 1211 1
756 1211 1
951 1211 1
973 1211 1
662 1212 1
692 1212 1
718 1212 1
757 1212 1
952 1212 1
974 1212 1
663 1213 1
693 1213 1
719 1213 1
758 1213 1
953 1213 1
975 1213 1
664 1214 1
694 1214 1
720 1214 1
759 1214 1
911 1214 1
954 1214 1
665 1215 1
695 1215 1
721 1215 1
760 1215 1
912 1215 1
955 1215 1
666 1216 1
696 1216 1
722 1216 1
761 1216 1
913 1216 1
956 1216 1
667 1217 1
697 1217 1
723 1217 1
762 1217 1
914 1217 1
957 1217 1
668 1218 1
698 1218 1
724 1218 1
763 1218 1
915 1218 1
958 1218 1
669 1219 1
699 1219 1
725 1219 1
764 1219 1
916 1219 1
959 1219 1
670 1220 1
700 1220 1
726 1220 1
765 1220 1
917 1220 1
960 1220 1
671 1221 1
701 1221 1
727 1221 1
766 1221 1
918 1221 1
961 1221 1
672 1222 1
702 1222 1
728 1222 1
767 1222 1
919 1222 1
962 1222 1
673 1223 1
703 1223 1
729 1223 1
768 1223 1
920 1223 1
963 1223 1
674 1224 1
704 1224 1
730 1224 1
769 1224 1
921 1224 1
964 1224 1
675 1225 1
705 1225 1
731 1225 1
770 1225 1
922 1225 1
965 1225 1
676 1226 1
706 1226 1
732 1226 1
771 1226 1
923 1226 1
966 1226 1
677 1227 1
707 1227 1
733 1227 1
772 1227 1
924 1227 1
967 1227 1
678 1228 1
708 1228 1
734 1228 1
773 1228 1
925 1228 1
968 1228 1
679 1229 1
709 1229 1
735 1229 1
774 1229 1
926 1229 1
969 1229 1
680 1230 1
710 1230 1
736 1230 1
775 1230 1
927 1230 1
970 1230 1
681 1231 1
711 1231 1
737 1231 1
776 1231 1
928 1231 1
971 1231 1
682 1232 1
712 1232 1
738 1232 1
777 1232 1
929 1232 1
972 1232 1
683 1233 1
713 1233 1
739 1233 1
778 1233 1
930 1233 1
973 1233 1
684 1234 1
714 1234 1
740 1234 1
779 1234 1
931 1234 1
974 1234 1
685 1235 1
715 1235 1
741 1235 1
780 1235 1
932 1235 1
975 1235 1
781 1236 1
816 1236 1
846 1236 1
872 1236 1
911 1236 1
935 1236 1
782 1237 1
817 1237 1
847 1237 1
873 1237 1
912 1237 1
936 1237 1
783 1238 1
818 1238 1
848 1238 1
874 1238 1
913 1238 1
937 1238 1
784 1239 1
819 1239 1
849 1239 1
875 1239 1
914 1239 1
938 1239 1
785 1240 1
820 1240 1
850 1240 1
876 1240 1
915 1240 1
939 1240 1
786 1241 1
821 1241 1
851 1241 1
877 1241 1
916 1241 1
940 1241 1
787 1242 1
822 1242 1
852 1242 1
878 1242 1
917 1242 1
941 1242 1
788 1243 1
823 1243 1
853 1243 1
879 1243 1
918 1243 1
942 1243 1
789 1244 1
824 1244 1
854 1244 1
880 1244 1
919 1244 1
943 1244 1
790 1245 1
825 1245 1
855 1245 1
881 1245 1
920 1245 1
944 1245 1
791 1246 1
826 1246 1
856 1246 1
882 1246 1
921 1246 1
945 1246 1
792 1247 1
827 1247 1
857 1247 1
883 1247 1
922 1247 1
946 1247 1
793 1248 1
828 1248 1
858 1248 1
884 1248 1
923 1248 1
947 1248 1
794 1249 1
829 1249 1
859 1249 1
885 1249 1
924 1249 1
948 1249 1
795 1250 1
830 1250 1
860 1250 1
886 1250 1
925 1250 1
949 1250 1
796 1251 1
831 1251 1
861 1251 1
887 1251 1
926 1251 1
950 1251 1
797 1252 1
832 1252 1
862 1252 1
888 1252 1
927 1252 1
951 1252 1
798 1253 1
833 1253 1
863 1253 1
889 1253 1
928 1253 1
952 1253 1
799 1254 1
834 1254 1
864 1254 1
890 1254 1
929 1254 1
953 1254 1
800 1255 1
835 1255 1
865 1255 1
891 1255 1
930 1255 1
954 1255 1
801 1256 1
836 1256 1
866 1256 1
892 1256 1
931 1256 1
955 1256 1
802 1257 1
837 1257 1
867 1257 1
893 1257 1
932 1257 1
956 1257 1
803 1258 1
838 1258 1
868 1258 1
894 1258 1
933 1258 1
957 1258 1
804 1259 1
839 1259 1
869 1259 1
895 1259 1
934 1259 1
958 1259 1
805 1260 1
840 1260 1
870 1260 1
896 1260 1
935 1260 1
959 1260 1
806 1261 1
841 1261 1
871 1261 1
897 1261 1
936 1261 1
960 1261 1
807 1262 1
842 1262 1
872 1262 1
898 1262 1
937 1262 1
961 1262 1
808 1263 1
843 1263 1
873 1263 1
899 1263 1
938 1263 1
962 1263 1
809 1264 1
844 1264 1
874 1264 1
900 1264 1
939 1264 1
963 1264 1
810 1265 1
845 1265 1
875 1265 1
901 1265 1
940 1265 1
964 1265 1
781 1266 1
811 1266 1
876 1266 1
902 1266 1
941 1266 1
965 1266 1
782 1267 1
812 1267 1
877 1267 1
903 1267 1
942 1267 1
966 1267 1
783 1268 1
813 1268 1
878 1268 1
904 1268 1
943 1268 1
967 1268 1
784 1269 1
814 1269 1
879 1269 1
905 1269 1
944 1269 1
968 1269 1
785 1270 1
815 1270 1
880 1270 1
906 1270 1
945 1270 1
969 1270 1
786 1271 1
816 1271 1
881 1271 1
907 1271 1
946 1271 1
970 1271 1
787 1272 1
817 1272 1
882 1272 1
908 1272 1
947 1272 1
971 1272 1
788 1273 1
818 1273 1
883 1273 1
909 1273 1
948 1273 1
972 1273 1
789 1274 1
819 1274 1
884 1274 1
910 1274 1
949 1274 1
973 1274 1
790 1275 1
820 1275 1
846 1275 1
885 1275 1
950 1275 1
974 1275 1
791 1276 1
821 1276 1
847 1276 1
886 1276 1
951 1276 1
975 1276 1
792 1277 1
822 1277 1
848 1277 1
887 1277 1
911 1277 1
952 1277 1
793 1278 1
823 1278 1
849 1278 1
888 1278 1
912 1278 1
953 1278 1
794 1279 1
824 1279 1
850 1279 1
889 1279 1
913 1279 1
954 1279 1
795 1280 1
825 1280 1
851 1280 1
890 1280 1
914 1280 1
955 1280 1
796 1281 1
826 1281 1
852 1281 1
891 1281 1
915 1281 1
956 1281 1
797 1282 1
827 1282 1
853 1282 1
892 1282 1
916 1282 1
957 1282 1
798 1283 1
828 1283 1
854 1283 1
893 1283 1
917 1283 1
958 1283 1
799 1284 1
829 1284 1
855 1284 1
894 1284 1
918 1284 1
959 1284 1
800 1285 1
830 1285 1
856 1285 1
895 1285 1
919 1285 1
960 1285 1
801 1286 1
831 1286 1
857 1286 1
896 1286 1
920 1286 1
961 1286 1
802 1287 1
832 1287 1
858 1287 1
897 1287 1
921 1287 1
962 1287 1
803 1288 1
833 1288 1
859 1288 1
898 1288 1
922 1288 1
963 1288 1
804 1289 1
834 1289 1
860 1289 1
899 1289 1
923 1289 1
964 1289 1
805 1290 1
835 1290 1
861 1290 1
900 1290 1
924 1290 1
965 1290 1
806 1291 1
836 1291 1
862 1291 1
901 1291 1
925 1291 1
966 1291 1
807 1292 1
837 1292 1
863 1292 1
902 1292 1
926 1292 1
967 1292 1
808 1293 1
838 1293 1
864 1293 1
903 1293 1
927 1293 1
968 1293 1
809 1294 1
839 1294 1
865 1294 1
904 1294 1
928 1294 1
969 1294 1
810 1295 1
840 1295 1
866 1295 1
905 1295 1
929 1295 1
970 1295 1
811 1296 1
841 1296 1
867 1296 1
906 1296 1
930 1296 1
971 1296 1
812 1297 1
842 1297 1
868 1297 1
907 1297 1
931 1297 1
972 1297 1
813 1298 1
843 1298 1
869 1298 1
908 1298 1
932 1298 1
973 1298 1
814 1299 1
844 1299 1
870 1299 1
909 1299 1
933 1299 1
974 1299 1
815 1300 1
845 1300 1
871 1300 1
910 1300 1
934 1300 1
975 1300 1
