%%MatrixMarket matrix coordinate integer general
% Binary matrix; one-based indices; arithmetic over GF(2)
480 720 2880
10 1 1
116 1 1
161 1 1
227 1 1
11 2 1
117 2 1
162 2 1
228 2 1
12 3 1
118 3 1
157 3 1
223 3 1
7 4 1
119 4 1
158 4 1
224 4 1
8 5 1
120 5 1
159 5 1
225 5 1
9 6 1
115 6 1
160 6 1
226 6 1
16 7 1
92 7 1
167 7 1
233 7 1
17 8 1
93 8 1
168 8 1
234 8 1
18 9 1
94 9 1
163 9 1
229 9 1
13 10 1
95 10 1
164 10 1
230 10 1
14 11 1
96 11 1
165 11 1
231 11 1
15 12 1
91 12 1
166 12 1
232 12 1
22 13 1
98 13 1
173 13 1
239 13 1
23 14 1
99 14 1
174 14 1
240 14 1
24 15 1
100 15 1
169 15 1
235 15 1
19 16 1
101 16 1
170 16 1
236 16 1
20 17 1
102 17 1
171 17 1
237 17 1
21 18 1
97 18 1
172 18 1
238 18 1
28 19 1
104 19 1
179 19 1
215 19 1
29 20 1
105 20 1
180 20 1
216 20 1
30 21 1
106 21 1
175 21 1
211 21 1
25 22 1
107 22 1
176 22 1
212 22 1
26 23 1
108 23 1
177 23 1
213 23 1
27 24 1
103 24 1
178 24 1
214 24 1
4 25 1
110 25 1
155 25 1
221 25 1
5 26 1
111 26 1
156 26 1
222 26 1
6 27 1
112 27 1
151 27 1
217 27 1
1 28 1
113 28 1
152 28 1
218 28 1
2 29 1
114 29 1
153 29 1
219 29 1
3 30 1
109 30 1
154 30 1
220 30 1
40 31 1
86 31 1
131 31 1
197 31 1
41 32 1
87 32 1
132 32 1
198 32 1
42 33 1
88 33 1
127 33 1
193 33 1
37 34 1
89 34 1
128 34 1
194 34 1
38 35 1
90 35 1
129 35 1
195 35 1
39 36 1
85 36 1
130 36 1
196 36 1
46 37 1
62 37 1
137 37 1
203 37 1
47 38 1
63 38 1
138 38 1
204 38 1
48 39 1
64 39 1
133 39 1
199 39 1
43 40 1
65 40 1
134 40 1
200 40 1
44 41 1
66 41 1
135 41 1
201 41 1
45 42 1
61 42 1
136 42 1
202 42 1
52 43 1
68 43 1
143 43 1
209 43 1
53 44 1
69 44 1
144 44 1
210 44 1
54 45 1
70 45 1
139 45 1
205 45 1
49 46 1
71 46 1
140 46 1
206 46 1
50 47 1
72 47 1
141 47 1
207 47 1
51 48 1
67 48 1
142 48 1
208 48 1
58 49 1
74 49 1
149 49 1
185 49 1
59 50 1
75 50 1
150 50 1
186 50 1
60 51 1
76 51 1
145 51 1
181 51 1
55 52 1
77 52 1
146 52 1
182 52 1
56 53 1
78 53 1
147 53 1
183 53 1
57 54 1
73 54 1
148 54 1
184 54 1
34 55 1
80 55 1
125 55 1
191 55 1
35 56 1
81 56 1
126 56 1
192 56 1
36 57 1
82 57 1
121 57 1
187 57 1
31 58 1
83 58 1
122 58 1
188 58 1
32 59 1
84 59 1
123 59 1
189 59 1
33 60 1
79 60 1
124 60 1
190 60 1
56 61 1
70 61 1
167 61 1
221 61 1
57 62 1
71 62 1
168 62 1
222 62 1
58 63 1
72 63 1
163 63 1
217 63 1
59 64 1
67 64 1
164 64 1
218 64 1
60 65 1
68 65 1
165 65 1
219 65 1
55 66 1
69 66 1
166 66 1
220 66 1
32 67 1
76 67 1
173 67 1
227 67 1
33 68 1
77 68 1
174 68 1
228 68 1
34 69 1
78 69 1
169 69 1
223 69 1
35 70 1
73 70 1
170 70 1
224 70 1
36 71 1
74 71 1
171 71 1
225 71 1
31 72 1
75 72 1
172 72 1
226 72 1
38 73 1
82 73 1
179 73 1
233 73 1
39 74 1
83 74 1
180 74 1
234 74 1
40 75 1
84 75 1
175 75 1
229 75 1
41 76 1
79 76 1
176 76 1
230 76 1
42 77 1
80 77 1
177 77 1
231 77 1
37 78 1
81 78 1
178 78 1
232 78 1
44 79 1
88 79 1
155 79 1
239 79 1
45 80 1
89 80 1
156 80 1
240 80 1
46 81 1
90 81 1
151 81 1
235 81 1
47 82 1
85 82 1
152 82 1
236 82 1
48 83 1
86 83 1
153 83 1
237 83 1
43 84 1
87 84 1
154 84 1
238 84 1
50 85 1
64 85 1
161 85 1
215 85 1
51 86 1
65 86 1
162 86 1
216 86 1
52 87 1
66 87 1
157 87 1
211 87 1
53 88 1
61 88 1
158 88 1
212 88 1
54 89 1
62 89 1
159 89 1
213 89 1
49 90 1
63 90 1
160 90 1
214 90 1
26 91 1
100 91 1
137 91 1
191 91 1
27 92 1
101 92 1
138 92 1
192 92 1
28 93 1
102 93 1
133 93 1
187 93 1
29 94 1
97 94 1
134 94 1
188 94 1
30 95 1
98 95 1
135 95 1
189 95 1
25 96 1
99 96 1
136 96 1
190 96 1
2 97 1
106 97 1
143 97 1
197 97 1
3 98 1
107 98 1
144 98 1
198 98 1
4 99 1
108 99 1
139 99 1
193 99 1
5 100 1
103 100 1
140 100 1
194 100 1
6 101 1
104 101 1
141 101 1
195 101 1
1 102 1
105 102 1
142 102 1
196 102 1
8 103 1
112 103 1
149 103 1
203 103 1
9 104 1
113 104 1
150 104 1
204 104 1
10 105 1
114 105 1
145 105 1
199 105 1
11 106 1
109 106 1
146 106 1
200 106 1
12 107 1
110 107 1
147 107 1
201 107 1
7 108 1
111 108 1
148 108 1
202 108 1
14 109 1
118 109 1
125 109 1
209 109 1
15 110 1
119 110 1
126 110 1
210 110 1
16 111 1
120 111 1
121 111 1
205 111 1
17 112 1
115 112 1
122 112 1
206 112 1
18 113 1
116 113 1
123 113 1
207 113 1
13 114 1
117 114 1
124 114 1
208 114 1
20 115 1
94 115 1
131 115 1
185 115 1
21 116 1
95 116 1
132 116 1
186 116 1
22 117 1
96 117 1
127 117 1
181 117 1
23 118 1
91 118 1
128 118 1
182 118 1
24 119 1
92 119 1
129 119 1
183 119 1
19 120 1
93 120 1
130 120 1
184 120 1
41 121 1
102 121 1
281 121 1
347 121 1
42 122 1
97 122 1
282 122 1
348 122 1
37 123 1
98 123 1
277 123 1
343 123 1
38 124 1
99 124 1
278 124 1
344 124 1
39 125 1
100 125 1
279 125 1
345 125 1
40 126 1
101 126 1
280 126 1
346 126 1
47 127 1
108 127 1
287 127 1
353 127 1
48 128 1
103 128 1
288 128 1
354 128 1
43 129 1
104 129 1
283 129 1
349 129 1
44 130 1
105 130 1
284 130 1
350 130 1
45 131 1
106 131 1
285 131 1
351 131 1
46 132 1
107 132 1
286 132 1
352 132 1
53 133 1
114 133 1
293 133 1
359 133 1
54 134 1
109 134 1
294 134 1
360 134 1
49 135 1
110 135 1
289 135 1
355 135 1
50 136 1
111 136 1
290 136 1
356 136 1
51 137 1
112 137 1
291 137 1
357 137 1
52 138 1
113 138 1
292 138 1
358 138 1
59 139 1
120 139 1
299 139 1
335 139 1
60 140 1
115 140 1
300 140 1
336 140 1
55 141 1
116 141 1
295 141 1
331 141 1
56 142 1
117 142 1
296 142 1
332 142 1
57 143 1
118 143 1
297 143 1
333 143 1
58 144 1
119 144 1
298 144 1
334 144 1
35 145 1
96 145 1
275 145 1
341 145 1
36 146 1
91 146 1
276 146 1
342 146 1
31 147 1
92 147 1
271 147 1
337 147 1
32 148 1
93 148 1
272 148 1
338 148 1
33 149 1
94 149 1
273 149 1
339 149 1
34 150 1
95 150 1
274 150 1
340 150 1
11 151 1
72 151 1
251 151 1
317 151 1
12 152 1
67 152 1
252 152 1
318 152 1
7 153 1
68 153 1
247 153 1
313 153 1
8 154 1
69 154 1
248 154 1
314 154 1
9 155 1
70 155 1
249 155 1
315 155 1
10 156 1
71 156 1
250 156 1
316 156 1
17 157 1
78 157 1
257 157 1
323 157 1
18 158 1
73 158 1
258 158 1
324 158 1
13 159 1
74 159 1
253 159 1
319 159 1
14 160 1
75 160 1
254 160 1
320 160 1
15 161 1
76 161 1
255 161 1
321 161 1
16 162 1
77 162 1
256 162 1
322 162 1
23 163 1
84 163 1
263 163 1
329 163 1
24 164 1
79 164 1
264 164 1
330 164 1
19 165 1
80 165 1
259 165 1
325 165 1
20 166 1
81 166 1
260 166 1
326 166 1
21 167 1
82 167 1
261 167 1
327 167 1
22 168 1
83 168 1
262 168 1
328 168 1
29 169 1
90 169 1
269 169 1
305 169 1
30 170 1
85 170 1
270 170 1
306 170 1
25 171 1
86 171 1
265 171 1
301 171 1
26 172 1
87 172 1
266 172 1
302 172 1
27 173 1
88 173 1
267 173 1
303 173 1
28 174 1
89 174 1
268 174 1
304 174 1
5 175 1
66 175 1
245 175 1
311 175 1
6 176 1
61 176 1
246 176 1
312 176 1
1 177 1
62 177 1
241 177 1
307 177 1
2 178 1
63 178 1
242 178 1
308 178 1
3 179 1
64 179 1
243 179 1
309 179 1
4 180 1
65 180 1
244 180 1
310 180 1
42 181 1
101 181 1
287 181 1
341 181 1
37 182 1
102 182 1
288 182 1
342 182 1
38 183 1
97 183 1
283 183 1
337 183 1
39 184 1
98 184 1
284 184 1
338 184 1
40 185 1
99 185 1
285 185 1
339 185 1
41 186 1
100 186 1
286 186 1
340 186 1
48 187 1
107 187 1
293 187 1
347 187 1
43 188 1
108 188 1
294 188 1
348 188 1
44 189 1
103 189 1
289 189 1
343 189 1
45 190 1
104 190 1
290 190 1
344 190 1
46 191 1
105 191 1
291 191 1
345 191 1
47 192 1
106 192 1
292 192 1
346 192 1
54 193 1
113 193 1
299 193 1
353 193 1
49 194 1
114 194 1
300 194 1
354 194 1
50 195 1
109 195 1
295 195 1
349 195 1
51 196 1
110 196 1
296 196 1
350 196 1
52 197 1
111 197 1
297 197 1
351 197 1
53 198 1
112 198 1
298 198 1
352 198 1
60 199 1
119 199 1
275 199 1
359 199 1
55 200 1
120 200 1
276 200 1
360 200 1
56 201 1
115 201 1
271 201 1
355 201 1
57 202 1
116 202 1
272 202 1
356 202 1
58 203 1
117 203 1
273 203 1
357 203 1
59 204 1
118 204 1
274 204 1
358 204 1
36 205 1
95 205 1
281 205 1
335 205 1
31 206 1
96 206 1
282 206 1
336 206 1
32 207 1
91 207 1
277 207 1
331 207 1
33 208 1
92 208 1
278 208 1
332 208 1
34 209 1
93 209 1
279 209 1
333 209 1
35 210 1
94 210 1
280 210 1
334 210 1
12 211 1
71 211 1
257 211 1
311 211 1
7 212 1
72 212 1
258 212 1
312 212 1
8 213 1
67 213 1
253 213 1
307 213 1
9 214 1
68 214 1
254 214 1
308 214 1
10 215 1
69 215 1
255 215 1
309 215 1
11 216 1
70 216 1
256 216 1
310 216 1
18 217 1
77 217 1
263 217 1
317 217 1
13 218 1
78 218 1
264 218 1
318 218 1
14 219 1
73 219 1
259 219 1
313 219 1
15 220 1
74 220 1
260 220 1
314 220 1
16 221 1
75 221 1
261 221 1
315 221 1
17 222 1
76 222 1
262 222 1
316 222 1
24 223 1
83 223 1
269 223 1
323 223 1
19 224 1
84 224 1
270 224 1
324 224 1
20 225 1
79 225 1
265 225 1
319 225 1
21 226 1
80 226 1
266 226 1
320 226 1
22 227 1
81 227 1
267 227 1
321 227 1
23 228 1
82 228 1
268 228 1
322 228 1
30 229 1
89 229 1
245 229 1
329 229 1
25 230 1
90 230 1
246 230 1
330 230 1
26 231 1
85 231 1
241 231 1
325 231 1
27 232 1
86 232 1
242 232 1
326 232 1
28 233 1
87 233 1
243 233 1
327 233 1
29 234 1
88 234 1
244 234 1
328 234 1
6 235 1
65 235 1
251 235 1
305 235 1
1 236 1
66 236 1
252 236 1
306 236 1
2 237 1
61 237 1
247 237 1
301 237 1
3 238 1
62 238 1
248 238 1
302 238 1
4 239 1
63 239 1
249 239 1
303 239 1
5 240 1
64 240 1
250 240 1
304 240 1
8 241 1
106 241 1
401 241 1
467 241 1
9 242 1
107 242 1
402 242 1
468 242 1
10 243 1
108 243 1
397 243 1
463 243 1
11 244 1
103 244 1
398 244 1
464 244 1
12 245 1
104 245 1
399 245 1
465 245 1
7 246 1
105 246 1
400 246 1
466 246 1
14 247 1
112 247 1
407 247 1
473 247 1
15 248 1
113 248 1
408 248 1
474 248 1
16 249 1
114 249 1
403 249 1
469 249 1
17 250 1
109 250 1
404 250 1
470 250 1
18 251 1
110 251 1
405 251 1
471 251 1
13 252 1
111 252 1
406 252 1
472 252 1
20 253 1
118 253 1
413 253 1
479 253 1
21 254 1
119 254 1
414 254 1
480 254 1
22 255 1
120 255 1
409 255 1
475 255 1
23 256 1
115 256 1
410 256 1
476 256 1
24 257 1
116 257 1
411 257 1
477 257 1
19 258 1
117 258 1
412 258 1
478 258 1
26 259 1
94 259 1
419 259 1
455 259 1
27 260 1
95 260 1
420 260 1
456 260 1
28 261 1
96 261 1
415 261 1
451 261 1
29 262 1
91 262 1
416 262 1
452 262 1
30 263 1
92 263 1
417 263 1
453 263 1
25 264 1
93 264 1
418 264 1
454 264 1
2 265 1
100 265 1
395 265 1
461 265 1
3 266 1
101 266 1
396 266 1
462 266 1
4 267 1
102 267 1
391 267 1
457 267 1
5 268 1
97 268 1
392 268 1
458 268 1
6 269 1
98 269 1
393 269 1
459 269 1
1 270 1
99 270 1
394 270 1
460 270 1
38 271 1
76 271 1
371 271 1
437 271 1
39 272 1
77 272 1
372 272 1
438 272 1
40 273 1
78 273 1
367 273 1
433 273 1
41 274 1
73 274 1
368 274 1
434 274 1
42 275 1
74 275 1
369 275 1
435 275 1
37 276 1
75 276 1
370 276 1
436 276 1
44 277 1
82 277 1
377 277 1
443 277 1
45 278 1
83 278 1
378 278 1
444 278 1
46 279 1
84 279 1
373 279 1
439 279 1
47 280 1
79 280 1
374 280 1
440 280 1
48 281 1
80 281 1
375 281 1
441 281 1
43 282 1
81 282 1
376 282 1
442 282 1
50 283 1
88 283 1
383 283 1
449 283 1
51 284 1
89 284 1
384 284 1
450 284 1
52 285 1
90 285 1
379 285 1
445 285 1
53 286 1
85 286 1
380 286 1
446 286 1
54 287 1
86 287 1
381 287 1
447 287 1
49 288 1
87 288 1
382 288 1
448 288 1
56 289 1
64 289 1
389 289 1
425 289 1
57 290 1
65 290 1
390 290 1
426 290 1
58 291 1
66 291 1
385 291 1
421 291 1
59 292 1
61 292 1
386 292 1
422 292 1
60 293 1
62 293 1
387 293 1
423 293 1
55 294 1
63 294 1
388 294 1
424 294 1
32 295 1
70 295 1
365 295 1
431 295 1
33 296 1
71 296 1
366 296 1
432 296 1
34 297 1
72 297 1
361 297 1
427 297 1
35 298 1
67 298 1
362 298 1
428 298 1
36 299 1
68 299 1
363 299 1
429 299 1
31 300 1
69 300 1
364 300 1
430 300 1
46 301 1
68 301 1
407 301 1
461 301 1
47 302 1
69 302 1
408 302 1
462 302 1
48 303 1
70 303 1
403 303 1
457 303 1
43 304 1
71 304 1
404 304 1
458 304 1
44 305 1
72 305 1
405 305 1
459 305 1
45 306 1
67 306 1
406 306 1
460 306 1
52 307 1
74 307 1
413 307 1
467 307 1
53 308 1
75 308 1
414 308 1
468 308 1
54 309 1
76 309 1
409 309 1
463 309 1
49 310 1
77 310 1
410 310 1
464 310 1
50 311 1
78 311 1
411 311 1
465 311 1
51 312 1
73 312 1
412 312 1
466 312 1
58 313 1
80 313 1
419 313 1
473 313 1
59 314 1
81 314 1
420 314 1
474 314 1
60 315 1
82 315 1
415 315 1
469 315 1
55 316 1
83 316 1
416 316 1
470 316 1
56 317 1
84 317 1
417 317 1
471 317 1
57 318 1
79 318 1
418 318 1
472 318 1
34 319 1
86 319 1
395 319 1
479 319 1
35 320 1
87 320 1
396 320 1
480 320 1
36 321 1
88 321 1
391 321 1
475 321 1
31 322 1
89 322 1
392 322 1
476 322 1
32 323 1
90 323 1
393 323 1
477 323 1
33 324 1
85 324 1
394 324 1
478 324 1
40 325 1
62 325 1
401 325 1
455 325 1
41 326 1
63 326 1
402 326 1
456 326 1
42 327 1
64 327 1
397 327 1
451 327 1
37 328 1
65 328 1
398 328 1
452 328 1
38 329 1
66 329 1
399 329 1
453 329 1
39 330 1
61 330 1
400 330 1
454 330 1
16 331 1
98 331 1
377 331 1
431 331 1
17 332 1
99 332 1
378 332 1
432 332 1
18 333 1
100 333 1
373 333 1
427 333 1
13 334 1
101 334 1
374 334 1
428 334 1
14 335 1
102 335 1
375 335 1
429 335 1
15 336 1
97 336 1
376 336 1
430 336 1
22 337 1
104 337 1
383 337 1
437 337 1
23 338 1
105 338 1
384 338 1
438 338 1
24 339 1
106 339 1
379 339 1
433 339 1
19 340 1
107 340 1
380 340 1
434 340 1
20 341 1
108 341 1
381 341 1
435 341 1
21 342 1
103 342 1
382 342 1
436 342 1
28 343 1
110 343 1
389 343 1
443 343 1
29 344 1
111 344 1
390 344 1
444 344 1
30 345 1
112 345 1
385 345 1
439 345 1
25 346 1
113 346 1
386 346 1
440 346 1
26 347 1
114 347 1
387 347 1
441 347 1
27 348 1
109 348 1
388 348 1
442 348 1
4 349 1
116 349 1
365 349 1
449 349 1
5 350 1
117 350 1
366 350 1
450 350 1
6 351 1
118 351 1
361 351 1
445 351 1
1 352 1
119 352 1
362 352 1
446 352 1
2 353 1
120 353 1
363 353 1
447 353 1
3 354 1
115 354 1
364 354 1
448 354 1
10 355 1
92 355 1
371 355 1
425 355 1
11 356 1
93 356 1
372 356 1
426 356 1
12 357 1
94 357 1
367 357 1
421 357 1
7 358 1
95 358 1
368 358 1
422 358 1
8 359 1
96 359 1
369 359 1
423 359 1
9 360 1
91 360 1
370 360 1
424 360 1
161 361 1
222 361 1
250 361 1
356 361 1
162 362 1
217 362 1
251 362 1
357 362 1
157 363 1
218 363 1
252 363 1
358 363 1
158 364 1
219 364 1
247 364 1
359 364 1
159 365 1
220 365 1
248 365 1
360 365 1
160 366 1
221 366 1
249 366 1
355 366 1
167 367 1
228 367 1
256 367 1
332 367 1
168 368 1
223 368 1
257 368 1
333 368 1
163 369 1
224 369 1
258 369 1
334 369 1
164 370 1
225 370 1
253 370 1
335 370 1
165 371 1
226 371 1
254 371 1
336 371 1
166 372 1
227 372 1
255 372 1
331 372 1
173 373 1
234 373 1
262 373 1
338 373 1
174 374 1
229 374 1
263 374 1
339 374 1
169 375 1
230 375 1
264 375 1
340 375 1
170 376 1
231 376 1
259 376 1
341 376 1
171 377 1
232 377 1
260 377 1
342 377 1
172 378 1
233 378 1
261 378 1
337 378 1
179 379 1
240 379 1
268 379 1
344 379 1
180 380 1
235 380 1
269 380 1
345 380 1
175 381 1
236 381 1
270 381 1
346 381 1
176 382 1
237 382 1
265 382 1
347 382 1
177 383 1
238 383 1
266 383 1
348 383 1
178 384 1
239 384 1
267 384 1
343 384 1
155 385 1
216 385 1
244 385 1
350 385 1
156 386 1
211 386 1
245 386 1
351 386 1
151 387 1
212 387 1
246 387 1
352 387 1
152 388 1
213 388 1
241 388 1
353 388 1
153 389 1
214 389 1
242 389 1
354 389 1
154 390 1
215 390 1
243 390 1
349 390 1
131 391 1
192 391 1
280 391 1
326 391 1
132 392 1
187 392 1
281 392 1
327 392 1
127 393 1
188 393 1
282 393 1
328 393 1
128 394 1
189 394 1
277 394 1
329 394 1
129 395 1
190 395 1
278 395 1
330 395 1
130 396 1
191 396 1
279 396 1
325 396 1
137 397 1
198 397 1
286 397 1
302 397 1
138 398 1
193 398 1
287 398 1
303 398 1
133 399 1
194 399 1
288 399 1
304 399 1
134 400 1
195 400 1
283 400 1
305 400 1
135 401 1
196 401 1
284 401 1
306 401 1
136 402 1
197 402 1
285 402 1
301 402 1
143 403 1
204 403 1
292 403 1
308 403 1
144 404 1
199 404 1
293 404 1
309 404 1
139 405 1
200 405 1
294 405 1
310 405 1
140 406 1
201 406 1
289 406 1
311 406 1
141 407 1
202 407 1
290 407 1
312 407 1
142 408 1
203 408 1
291 408 1
307 408 1
149 409 1
210 409 1
298 409 1
314 409 1
150 410 1
205 410 1
299 410 1
315 410 1
145 411 1
206 411 1
300 411 1
316 411 1
146 412 1
207 412 1
295 412 1
317 412 1
147 413 1
208 413 1
296 413 1
318 413 1
148 414 1
209 414 1
297 414 1
313 414 1
125 415 1
186 415 1
274 415 1
320 415 1
126 416 1
181 416 1
275 416 1
321 416 1
121 417 1
182 417 1
276 417 1
322 417 1
122 418 1
183 418 1
271 418 1
323 418 1
123 419 1
184 419 1
272 419 1
324 419 1
124 420 1
185 420 1
273 420 1
319 420 1
162 421 1
221 421 1
296 421 1
310 421 1
157 422 1
222 422 1
297 422 1
311 422 1
158 423 1
217 423 1
298 423 1
312 423 1
159 424 1
218 424 1
299 424 1
307 424 1
160 425 1
219 425 1
300 425 1
308 425 1
161 426 1
220 426 1
295 426 1
309 426 1
168 427 1
227 427 1
272 427 1
316 427 1
163 428 1
228 428 1
273 428 1
317 428 1
164 429 1
223 429 1
274 429 1
318 429 1
165 430 1
224 430 1
275 430 1
313 430 1
166 431 1
225 431 1
276 431 1
314 431 1
167 432 1
226 432 1
271 432 1
315 432 1
174 433 1
233 433 1
278 433 1
322 433 1
169 434 1
234 434 1
279 434 1
323 434 1
170 435 1
229 435 1
280 435 1
324 435 1
171 436 1
230 436 1
281 436 1
319 436 1
172 437 1
231 437 1
282 437 1
320 437 1
173 438 1
232 438 1
277 438 1
321 438 1
180 439 1
239 439 1
284 439 1
328 439 1
175 440 1
240 440 1
285 440 1
329 440 1
176 441 1
235 441 1
286 441 1
330 441 1
177 442 1
236 442 1
287 442 1
325 442 1
178 443 1
237 443 1
288 443 1
326 443 1
179 444 1
238 444 1
283 444 1
327 444 1
156 445 1
215 445 1
290 445 1
304 445 1
151 446 1
216 446 1
291 446 1
305 446 1
152 447 1
211 447 1
292 447 1
306 447 1
153 448 1
212 448 1
293 448 1
301 448 1
154 449 1
213 449 1
294 449 1
302 449 1
155 450 1
214 450 1
289 450 1
303 450 1
132 451 1
191 451 1
266 451 1
340 451 1
127 452 1
192 452 1
267 452 1
341 452 1
128 453 1
187 453 1
268 453 1
342 453 1
129 454 1
188 454 1
269 454 1
337 454 1
130 455 1
189 455 1
270 455 1
338 455 1
131 456 1
190 456 1
265 456 1
339 456 1
138 457 1
197 457 1
242 457 1
346 457 1
133 458 1
198 458 1
243 458 1
347 458 1
134 459 1
193 459 1
244 459 1
348 459 1
135 460 1
194 460 1
245 460 1
343 460 1
136 461 1
195 461 1
246 461 1
344 461 1
137 462 1
196 462 1
241 462 1
345 462 1
144 463 1
203 463 1
248 463 1
352 463 1
139 464 1
204 464 1
249 464 1
353 464 1
140 465 1
199 465 1
250 465 1
354 465 1
141 466 1
200 466 1
251 466 1
349 466 1
142 467 1
201 467 1
252 467 1
350 467 1
143 468 1
202 468 1
247 468 1
351 468 1
150 469 1
209 469 1
254 469 1
358 469 1
145 470 1
210 470 1
255 470 1
359 470 1
146 471 1
205 471 1
256 471 1
360 471 1
147 472 1
206 472 1
257 472 1
355 472 1
148 473 1
207 473 1
258 473 1
356 473 1
149 474 1
208 474 1
253 474 1
357 474 1
126 475 1
185 475 1
260 475 1
334 475 1
121 476 1
186 476 1
261 476 1
335 476 1
122 477 1
181 477 1
262 477 1
336 477 1
123 478 1
182 478 1
263 478 1
331 478 1
124 479 1
183 479 1
264 479 1
332 479 1
125 480 1
184 480 1
259 480 1
333 480 1
128 481 1
226 481 1
370 481 1
476 481 1
129 482 1
227 482 1
371 482 1
477 482 1
130 483 1
228 483 1
372 483 1
478 483 1
131 484 1
223 484 1
367 484 1
479 484 1
132 485 1
224 485 1
368 485 1
480 485 1
127 486 1
225 486 1
369 486 1
475 486 1
134 487 1
232 487 1
376 487 1
452 487 1
135 488 1
233 488 1
377 488 1
453 488 1
136 489 1
234 489 1
378 489 1
454 489 1
137 490 1
229 490 1
373 490 1
455 490 1
138 491 1
230 491 1
374 491 1
456 491 1
133 492 1
231 492 1
375 492 1
451 492 1
140 493 1
238 493 1
382 493 1
458 493 1
141 494 1
239 494 1
383 494 1
459 494 1
142 495 1
240 495 1
384 495 1
460 495 1
143 496 1
235 496 1
379 496 1
461 496 1
144 497 1
236 497 1
380 497 1
462 497 1
139 498 1
237 498 1
381 498 1
457 498 1
146 499 1
214 499 1
388 499 1
464 499 1
147 500 1
215 500 1
389 500 1
465 500 1
148 501 1
216 501 1
390 501 1
466 501 1
149 502 1
211 502 1
385 502 1
467 502 1
150 503 1
212 503 1
386 503 1
468 503 1
145 504 1
213 504 1
387 504 1
463 504 1
122 505 1
220 505 1
364 505 1
470 505 1
123 506 1
221 506 1
365 506 1
471 506 1
124 507 1
222 507 1
366 507 1
472 507 1
125 508 1
217 508 1
361 508 1
473 508 1
126 509 1
218 509 1
362 509 1
474 509 1
121 510 1
219 510 1
363 510 1
469 510 1
158 511 1
196 511 1
400 511 1
446 511 1
159 512 1
197 512 1
401 512 1
447 512 1
160 513 1
198 513 1
402 513 1
448 513 1
161 514 1
193 514 1
397 514 1
449 514 1
162 515 1
194 515 1
398 515 1
450 515 1
157 516 1
195 516 1
399 516 1
445 516 1
164 517 1
202 517 1
406 517 1
422 517 1
165 518 1
203 518 1
407 518 1
423 518 1
166 519 1
204 519 1
408 519 1
424 519 1
167 520 1
199 520 1
403 520 1
425 520 1
168 521 1
200 521 1
404 521 1
426 521 1
163 522 1
201 522 1
405 522 1
421 522 1
170 523 1
208 523 1
412 523 1
428 523 1
171 524 1
209 524 1
413 524 1
429 524 1
172 525 1
210 525 1
414 525 1
430 525 1
173 526 1
205 526 1
409 526 1
431 526 1
174 527 1
206 527 1
410 527 1
432 527 1
169 528 1
207 528 1
411 528 1
427 528 1
176 529 1
184 529 1
418 529 1
434 529 1
177 530 1
185 530 1
419 530 1
435 530 1
178 531 1
186 531 1
420 531 1
436 531 1
179 532 1
181 532 1
415 532 1
437 532 1
180 533 1
182 533 1
416 533 1
438 533 1
175 534 1
183 534 1
417 534 1
433 534 1
152 535 1
190 535 1
394 535 1
440 535 1
153 536 1
191 536 1
395 536 1
441 536 1
154 537 1
192 537 1
396 537 1
442 537 1
155 538 1
187 538 1
391 538 1
443 538 1
156 539 1
188 539 1
392 539 1
444 539 1
151 540 1
189 540 1
393 540 1
439 540 1
166 541 1
188 541 1
416 541 1
430 541 1
167 542 1
189 542 1
417 542 1
431 542 1
168 543 1
190 543 1
418 543 1
432 543 1
163 544 1
191 544 1
419 544 1
427 544 1
164 545 1
192 545 1
420 545 1
428 545 1
165 546 1
187 546 1
415 546 1
429 546 1
172 547 1
194 547 1
392 547 1
436 547 1
173 548 1
195 548 1
393 548 1
437 548 1
174 549 1
196 549 1
394 549 1
438 549 1
169 550 1
197 550 1
395 550 1
433 550 1
170 551 1
198 551 1
396 551 1
434 551 1
171 552 1
193 552 1
391 552 1
435 552 1
178 553 1
200 553 1
398 553 1
442 553 1
179 554 1
201 554 1
399 554 1
443 554 1
180 555 1
202 555 1
400 555 1
444 555 1
175 556 1
203 556 1
401 556 1
439 556 1
176 557 1
204 557 1
402 557 1
440 557 1
177 558 1
199 558 1
397 558 1
441 558 1
154 559 1
206 559 1
404 559 1
448 559 1
155 560 1
207 560 1
405 560 1
449 560 1
156 561 1
208 561 1
406 561 1
450 561 1
151 562 1
209 562 1
407 562 1
445 562 1
152 563 1
210 563 1
408 563 1
446 563 1
153 564 1
205 564 1
403 564 1
447 564 1
160 565 1
182 565 1
410 565 1
424 565 1
161 566 1
183 566 1
411 566 1
425 566 1
162 567 1
184 567 1
412 567 1
426 567 1
157 568 1
185 568 1
413 568 1
421 568 1
158 569 1
186 569 1
414 569 1
422 569 1
159 570 1
181 570 1
409 570 1
423 570 1
136 571 1
218 571 1
386 571 1
460 571 1
137 572 1
219 572 1
387 572 1
461 572 1
138 573 1
220 573 1
388 573 1
462 573 1
133 574 1
221 574 1
389 574 1
457 574 1
134 575 1
222 575 1
390 575 1
458 575 1
135 576 1
217 576 1
385 576 1
459 576 1
142 577 1
224 577 1
362 577 1
466 577 1
143 578 1
225 578 1
363 578 1
467 578 1
144 579 1
226 579 1
364 579 1
468 579 1
139 580 1
227 580 1
365 580 1
463 580 1
140 581 1
228 581 1
366 581 1
464 581 1
141 582 1
223 582 1
361 582 1
465 582 1
148 583 1
230 583 1
368 583 1
472 583 1
149 584 1
231 584 1
369 584 1
473 584 1
150 585 1
232 585 1
370 585 1
474 585 1
145 586 1
233 586 1
371 586 1
469 586 1
146 587 1
234 587 1
372 587 1
470 587 1
147 588 1
229 588 1
367 588 1
471 588 1
124 589 1
236 589 1
374 589 1
478 589 1
125 590 1
237 590 1
375 590 1
479 590 1
126 591 1
238 591 1
376 591 1
480 591 1
121 592 1
239 592 1
377 592 1
475 592 1
122 593 1
240 593 1
378 593 1
476 593 1
123 594 1
235 594 1
373 594 1
477 594 1
130 595 1
212 595 1
380 595 1
454 595 1
131 596 1
213 596 1
381 596 1
455 596 1
132 597 1
214 597 1
382 597 1
456 597 1
127 598 1
215 598 1
383 598 1
451 598 1
128 599 1
216 599 1
384 599 1
452 599 1
129 600 1
211 600 1
379 600 1
453 600 1
248 601 1
346 601 1
401 601 1
462 601 1
249 602 1
347 602 1
402 602 1
457 602 1
250 603 1
348 603 1
397 603 1
458 603 1
251 604 1
343 604 1
398 604 1
459 604 1
252 605 1
344 605 1
399 605 1
460 605 1
247 606 1
345 606 1
400 606 1
461 606 1
254 607 1
352 607 1
407 607 1
468 607 1
255 608 1
353 608 1
408 608 1
463 608 1
256 609 1
354 609 1
403 609 1
464 609 1
257 610 1
349 610 1
404 610 1
465 610 1
258 611 1
350 611 1
405 611 1
466 611 1
253 612 1
351 612 1
406 612 1
467 612 1
260 613 1
358 613 1
413 613 1
474 613 1
261 614 1
359 614 1
414 614 1
469 614 1
262 615 1
360 615 1
409 615 1
470 615 1
263 616 1
355 616 1
410 616 1
471 616 1
264 617 1
356 617 1
411 617 1
472 617 1
259 618 1
357 618 1
412 618 1
473 618 1
266 619 1
334 619 1
419 619 1
480 619 1
267 620 1
335 620 1
420 620 1
475 620 1
268 621 1
336 621 1
415 621 1
476 621 1
269 622 1
331 622 1
416 622 1
477 622 1
270 623 1
332 623 1
417 623 1
478 623 1
265 624 1
333 624 1
418 624 1
479 624 1
242 625 1
340 625 1
395 625 1
456 625 1
243 626 1
341 626 1
396 626 1
451 626 1
244 627 1
342 627 1
391 627 1
452 627 1
245 628 1
337 628 1
392 628 1
453 628 1
246 629 1
338 629 1
393 629 1
454 629 1
241 630 1
339 630 1
394 630 1
455 630 1
278 631 1
316 631 1
371 631 1
432 631 1
279 632 1
317 632 1
372 632 1
427 632 1
280 633 1
318 633 1
367 633 1
428 633 1
281 634 1
313 634 1
368 634 1
429 634 1
282 635 1
314 635 1
369 635 1
430 635 1
277 636 1
315 636 1
370 636 1
431 636 1
284 637 1
322 637 1
377 637 1
438 637 1
285 638 1
323 638 1
378 638 1
433 638 1
286 639 1
324 639 1
373 639 1
434 639 1
287 640 1
319 640 1
374 640 1
435 640 1
288 641 1
320 641 1
375 641 1
436 641 1
283 642 1
321 642 1
376 642 1
437 642 1
290 643 1
328 643 1
383 643 1
444 643 1
291 644 1
329 644 1
384 644 1
439 644 1
292 645 1
330 645 1
379 645 1
440 645 1
293 646 1
325 646 1
380 646 1
441 646 1
294 647 1
326 647 1
381 647 1
442 647 1
289 648 1
327 648 1
382 648 1
443 648 1
296 649 1
304 649 1
389 649 1
450 649 1
297 650 1
305 650 1
390 650 1
445 650 1
298 651 1
306 651 1
385 651 1
446 651 1
299 652 1
301 652 1
386 652 1
447 652 1
300 653 1
302 653 1
387 653 1
448 653 1
295 654 1
303 654 1
388 654 1
449 654 1
272 655 1
310 655 1
365 655 1
426 655 1
273 656 1
311 656 1
366 656 1
421 656 1
274 657 1
312 657 1
361 657 1
422 657 1
275 658 1
307 658 1
362 658 1
423 658 1
276 659 1
308 659 1
363 659 1
424 659 1
271 660 1
309 660 1
364 660 1
425 660 1
286 661 1
308 661 1
402 661 1
461 661 1
287 662 1
309 662 1
397 662 1
462 662 1
288 663 1
310 663 1
398 663 1
457 663 1
283 664 1
311 664 1
399 664 1
458 664 1
284 665 1
312 665 1
400 665 1
459 665 1
285 666 1
307 666 1
401 666 1
460 666 1
292 667 1
314 667 1
408 667 1
467 667 1
293 668 1
315 668 1
403 668 1
468 668 1
294 669 1
316 669 1
404 669 1
463 669 1
289 670 1
317 670 1
405 670 1
464 670 1
290 671 1
318 671 1
406 671 1
465 671 1
291 672 1
313 672 1
407 672 1
466 672 1
298 673 1
320 673 1
414 673 1
473 673 1
299 674 1
321 674 1
409 674 1
474 674 1
300 675 1
322 675 1
410 675 1
469 675 1
295 676 1
323 676 1
411 676 1
470 676 1
296 677 1
324 677 1
412 677 1
471 677 1
297 678 1
319 678 1
413 678 1
472 678 1
274 679 1
326 679 1
420 679 1
479 679 1
275 680 1
327 680 1
415 680 1
480 680 1
276 681 1
328 681 1
416 681 1
475 681 1
271 682 1
329 682 1
417 682 1
476 682 1
272 683 1
330 683 1
418 683 1
477 683 1
273 684 1
325 684 1
419 684 1
478 684 1
280 685 1
302 685 1
396 685 1
455 685 1
281 686 1
303 686 1
391 686 1
456 686 1
282 687 1
304 687 1
392 687 1
451 687 1
277 688 1
305 688 1
393 688 1
452 688 1
278 689 1
306 689 1
394 689 1
453 689 1
279 690 1
301 690 1
395 690 1
454 690 1
256 691 1
338 691 1
372 691 1
431 691 1
257 692 1
339 692 1
367 692 1
432 692 1
258 693 1
340 693 1
368 693 1
427 693 1
253 694 1
341 694 1
369 694 1
428 694 1
254 695 1
342 695 1
370 695 1
429 695 1
255 696 1
337 696 1
371 696 1
430 696 1
262 697 1
344 697 1
378 697 1
437 697 1
263 698 1
345 698 1
373 698 1
438 698 1
264 699 1
346 699 1
374 699 1
433 699 1
259 700 1
347 700 1
375 700 1
434 700 1
260 701 1
348 701 1
376 701 1
435 701 1
261 702 1
343 702 1
377 702 1
436 702 1
268 703 1
350 703 1
384 703 1
443 703 1
269 704 1
351 704 1
379 704 1
444 704 1
270 705 1
352 705 1
380 705 1
439 705 1
265 706 1
353 706 1
381 706 1
440 706 1
266 707 1
354 707 1
382 707 1
441 707 1
267 708 1
349 708 1
383 708 1
442 708 1
244 709 1
356 709 1
390 709 1
449 709 1
245 710 1
357 710 1
385 710 1
450 710 1
246 711 1
358 711 1
386 711 1
445 711 1
241 712 1
359 712 1
387 712 1
446 712 1
242 713 1
360 713 1
388 713 1
447 713 1
243 714 1
355 714 1
389 714 1
448 714 1
250 715 1
332 715 1
366 715 1
425 715 1
251 716 1
333 716 1
361 716 1
426 716 1
252 717 1
334 717 1
362 717 1
421 717 1
247 718 1
335 718 1
363 718 1
422 718 1
248 719 1
336 719 1
364 719 1
423 719 1
249 720 1
331 720 1
365 720 1
424 720 1
