%%MatrixMarket matrix coordinate integer general
% Binary matrix; one-based indices; arithmetic over GF(2)
648 972 3888
5 1 1
41 1 1
253 1 1
280 1 1
6 2 1
42 2 1
254 2 1
281 2 1
7 3 1
43 3 1
255 3 1
282 3 1
8 4 1
44 4 1
256 4 1
283 4 1
9 5 1
45 5 1
257 5 1
284 5 1
1 6 1
37 6 1
258 6 1
285 6 1
2 7 1
38 7 1
259 7 1
286 7 1
3 8 1
39 8 1
260 8 1
287 8 1
4 9 1
40 9 1
261 9 1
288 9 1
14 10 1
50 10 1
262 10 1
289 10 1
15 11 1
51 11 1
263 11 1
290 11 1
16 12 1
52 12 1
264 12 1
291 12 1
17 13 1
53 13 1
265 13 1
292 13 1
18 14 1
54 14 1
266 14 1
293 14 1
10 15 1
46 15 1
267 15 1
294 15 1
11 16 1
47 16 1
268 16 1
295 16 1
12 17 1
48 17 1
269 17 1
296 17 1
13 18 1
49 18 1
270 18 1
297 18 1
23 19 1
32 19 1
244 19 1
271 19 1
24 20 1
33 20 1
245 20 1
272 20 1
25 21 1
34 21 1
246 21 1
273 21 1
26 22 1
35 22 1
247 22 1
274 22 1
27 23 1
36 23 1
248 23 1
275 23 1
19 24 1
28 24 1
249 24 1
276 24 1
20 25 1
29 25 1
250 25 1
277 25 1
21 26 1
30 26 1
251 26 1
278 26 1
22 27 1
31 27 1
252 27 1
279 27 1
32 28 1
68 28 1
280 28 1
307 28 1
33 29 1
69 29 1
281 29 1
308 29 1
34 30 1
70 30 1
282 30 1
309 30 1
35 31 1
71 31 1
283 31 1
310 31 1
36 32 1
72 32 1
284 32 1
311 32 1
28 33 1
64 33 1
285 33 1
312 33 1
29 34 1
65 34 1
286 34 1
313 34 1
30 35 1
66 35 1
287 35 1
314 35 1
31 36 1
67 36 1
288 36 1
315 36 1
41 37 1
77 37 1
289 37 1
316 37 1
42 38 1
78 38 1
290 38 1
317 38 1
43 39 1
79 39 1
291 39 1
318 39 1
44 40 1
80 40 1
292 40 1
319 40 1
45 41 1
81 41 1
293 41 1
320 41 1
37 42 1
73 42 1
294 42 1
321 42 1
38 43 1
74 43 1
295 43 1
322 43 1
39 44 1
75 44 1
296 44 1
323 44 1
40 45 1
76 45 1
297 45 1
324 45 1
50 46 1
59 46 1
271 46 1
298 46 1
51 47 1
60 47 1
272 47 1
299 47 1
52 48 1
61 48 1
273 48 1
300 48 1
53 49 1
62 49 1
274 49 1
301 49 1
54 50 1
63 50 1
275 50 1
302 50 1
46 51 1
55 51 1
276 51 1
303 51 1
47 52 1
56 52 1
277 52 1
304 52 1
48 53 1
57 53 1
278 53 1
305 53 1
49 54 1
58 54 1
279 54 1
306 54 1
14 55 1
59 55 1
253 55 1
307 55 1
15 56 1
60 56 1
254 56 1
308 56 1
16 57 1
61 57 1
255 57 1
309 57 1
17 58 1
62 58 1
256 58 1
310 58 1
18 59 1
63 59 1
257 59 1
311 59 1
10 60 1
55 60 1
258 60 1
312 60 1
11 61 1
56 61 1
259 61 1
313 61 1
12 62 1
57 62 1
260 62 1
314 62 1
13 63 1
58 63 1
261 63 1
315 63 1
23 64 1
68 64 1
262 64 1
316 64 1
24 65 1
69 65 1
263 65 1
317 65 1
25 66 1
70 66 1
264 66 1
318 66 1
26 67 1
71 67 1
265 67 1
319 67 1
27 68 1
72 68 1
266 68 1
320 68 1
19 69 1
64 69 1
267 69 1
321 69 1
20 70 1
65 70 1
268 70 1
322 70 1
21 71 1
66 71 1
269 71 1
323 71 1
22 72 1
67 72 1
270 72 1
324 72 1
5 73 1
77 73 1
244 73 1
298 73 1
6 74 1
78 74 1
245 74 1
299 74 1
7 75 1
79 75 1
246 75 1
300 75 1
8 76 1
80 76 1
247 76 1
301 76 1
9 77 1
81 77 1
248 77 1
302 77 1
1 78 1
73 78 1
249 78 1
303 78 1
2 79 1
74 79 1
250 79 1
304 79 1
3 80 1
75 80 1
251 80 1
305 80 1
4 81 1
76 81 1
252 81 1
306 81 1
86 82 1
122 82 1
172 82 1
199 82 1
87 83 1
123 83 1
173 83 1
200 83 1
88 84 1
124 84 1
174 84 1
201 84 1
89 85 1
125 85 1
175 85 1
202 85 1
90 86 1
126 86 1
176 86 1
203 86 1
82 87 1
118 87 1
177 87 1
204 87 1
83 88 1
119 88 1
178 88 1
205 88 1
84 89 1
120 89 1
179 89 1
206 89 1
85 90 1
121 90 1
180 90 1
207 90 1
95 91 1
131 91 1
181 91 1
208 91 1
96 92 1
132 92 1
182 92 1
209 92 1
97 93 1
133 93 1
183 93 1
210 93 1
98 94 1
134 94 1
184 94 1
211 94 1
99 95 1
135 95 1
185 95 1
212 95 1
91 96 1
127 96 1
186 96 1
213 96 1
92 97 1
128 97 1
187 97 1
214 97 1
93 98 1
129 98 1
188 98 1
215 98 1
94 99 1
130 99 1
189 99 1
216 99 1
104 100 1
113 100 1
163 100 1
190 100 1
105 101 1
114 101 1
164 101 1
191 101 1
106 102 1
115 102 1
165 102 1
192 102 1
107 103 1
116 103 1
166 103 1
193 103 1
108 104 1
117 104 1
167 104 1
194 104 1
100 105 1
109 105 1
168 105 1
195 105 1
101 106 1
110 106 1
169 106 1
196 106 1
102 107 1
111 107 1
170 107 1
197 107 1
103 108 1
112 108 1
171 108 1
198 108 1
113 109 1
149 109 1
199 109 1
226 109 1
114 110 1
150 110 1
200 110 1
227 110 1
115 111 1
151 111 1
201 111 1
228 111 1
116 112 1
152 112 1
202 112 1
229 112 1
117 113 1
153 113 1
203 113 1
230 113 1
109 114 1
145 114 1
204 114 1
231 114 1
110 115 1
146 115 1
205 115 1
232 115 1
111 116 1
147 116 1
206 116 1
233 116 1
112 117 1
148 117 1
207 117 1
234 117 1
122 118 1
158 118 1
208 118 1
235 118 1
123 119 1
159 119 1
209 119 1
236 119 1
124 120 1
160 120 1
210 120 1
237 120 1
125 121 1
161 121 1
211 121 1
238 121 1
126 122 1
162 122 1
212 122 1
239 122 1
118 123 1
154 123 1
213 123 1
240 123 1
119 124 1
155 124 1
214 124 1
241 124 1
120 125 1
156 125 1
215 125 1
242 125 1
121 126 1
157 126 1
216 126 1
243 126 1
131 127 1
140 127 1
190 127 1
217 127 1
132 128 1
141 128 1
191 128 1
218 128 1
133 129 1
142 129 1
192 129 1
219 129 1
134 130 1
143 130 1
193 130 1
220 130 1
135 131 1
144 131 1
194 131 1
221 131 1
127 132 1
136 132 1
195 132 1
222 132 1
128 133 1
137 133 1
196 133 1
223 133 1
129 134 1
138 134 1
197 134 1
224 134 1
130 135 1
139 135 1
198 135 1
225 135 1
95 136 1
140 136 1
172 136 1
226 136 1
96 137 1
141 137 1
173 137 1
227 137 1
97 138 1
142 138 1
174 138 1
228 138 1
98 139 1
143 139 1
175 139 1
229 139 1
99 140 1
144 140 1
176 140 1
230 140 1
91 141 1
136 141 1
177 141 1
231 141 1
92 142 1
137 142 1
178 142 1
232 142 1
93 143 1
138 143 1
179 143 1
233 143 1
94 144 1
139 144 1
180 144 1
234 144 1
104 145 1
149 145 1
181 145 1
235 145 1
105 146 1
150 146 1
182 146 1
236 146 1
106 147 1
151 147 1
183 147 1
237 147 1
107 148 1
152 148 1
184 148 1
238 148 1
108 149 1
153 149 1
185 149 1
239 149 1
100 150 1
145 150 1
186 150 1
240 150 1
101 151 1
146 151 1
187 151 1
241 151 1
102 152 1
147 152 1
188 152 1
242 152 1
103 153 1
148 153 1
189 153 1
243 153 1
86 154 1
158 154 1
163 154 1
217 154 1
87 155 1
159 155 1
164 155 1
218 155 1
88 156 1
160 156 1
165 156 1
219 156 1
89 157 1
161 157 1
166 157 1
220 157 1
90 158 1
162 158 1
167 158 1
221 158 1
82 159 1
154 159 1
168 159 1
222 159 1
83 160 1
155 160 1
169 160 1
223 160 1
84 161 1
156 161 1
170 161 1
224 161 1
85 162 1
157 162 1
171 162 1
225 162 1
106 163 1
139 163 1
415 163 1
442 163 1
107 164 1
140 164 1
416 164 1
443 164 1
108 165 1
141 165 1
417 165 1
444 165 1
100 166 1
142 166 1
418 166 1
445 166 1
101 167 1
143 167 1
419 167 1
446 167 1
102 168 1
144 168 1
420 168 1
447 168 1
103 169 1
136 169 1
421 169 1
448 169 1
104 170 1
137 170 1
422 170 1
449 170 1
105 171 1
138 171 1
423 171 1
450 171 1
88 172 1
148 172 1
424 172 1
451 172 1
89 173 1
149 173 1
425 173 1
452 173 1
90 174 1
150 174 1
426 174 1
453 174 1
82 175 1
151 175 1
427 175 1
454 175 1
83 176 1
152 176 1
428 176 1
455 176 1
84 177 1
153 177 1
429 177 1
456 177 1
85 178 1
145 178 1
430 178 1
457 178 1
86 179 1
146 179 1
431 179 1
458 179 1
87 180 1
147 180 1
432 180 1
459 180 1
97 181 1
157 181 1
406 181 1
433 181 1
98 182 1
158 182 1
407 182 1
434 182 1
99 183 1
159 183 1
408 183 1
435 183 1
91 184 1
160 184 1
409 184 1
436 184 1
92 185 1
161 185 1
410 185 1
437 185 1
93 186 1
162 186 1
411 186 1
438 186 1
94 187 1
154 187 1
412 187 1
439 187 1
95 188 1
155 188 1
413 188 1
440 188 1
96 189 1
156 189 1
414 189 1
441 189 1
85 190 1
133 190 1
442 190 1
469 190 1
86 191 1
134 191 1
443 191 1
470 191 1
87 192 1
135 192 1
444 192 1
471 192 1
88 193 1
127 193 1
445 193 1
472 193 1
89 194 1
128 194 1
446 194 1
473 194 1
90 195 1
129 195 1
447 195 1
474 195 1
82 196 1
130 196 1
448 196 1
475 196 1
83 197 1
131 197 1
449 197 1
476 197 1
84 198 1
132 198 1
450 198 1
477 198 1
94 199 1
115 199 1
451 199 1
478 199 1
95 200 1
116 200 1
452 200 1
479 200 1
96 201 1
117 201 1
453 201 1
480 201 1
97 202 1
109 202 1
454 202 1
481 202 1
98 203 1
110 203 1
455 203 1
482 203 1
99 204 1
111 204 1
456 204 1
483 204 1
91 205 1
112 205 1
457 205 1
484 205 1
92 206 1
113 206 1
458 206 1
485 206 1
93 207 1
114 207 1
459 207 1
486 207 1
103 208 1
124 208 1
433 208 1
460 208 1
104 209 1
125 209 1
434 209 1
461 209 1
105 210 1
126 210 1
435 210 1
462 210 1
106 211 1
118 211 1
436 211 1
463 211 1
107 212 1
119 212 1
437 212 1
464 212 1
108 213 1
120 213 1
438 213 1
465 213 1
100 214 1
121 214 1
439 214 1
466 214 1
101 215 1
122 215 1
440 215 1
467 215 1
102 216 1
123 216 1
441 216 1
468 216 1
112 217 1
160 217 1
415 217 1
469 217 1
113 218 1
161 218 1
416 218 1
470 218 1
114 219 1
162 219 1
417 219 1
471 219 1
115 220 1
154 220 1
418 220 1
472 220 1
116 221 1
155 221 1
419 221 1
473 221 1
117 222 1
156 222 1
420 222 1
474 222 1
109 223 1
157 223 1
421 223 1
475 223 1
110 224 1
158 224 1
422 224 1
476 224 1
111 225 1
159 225 1
423 225 1
477 225 1
121 226 1
142 226 1
424 226 1
478 226 1
122 227 1
143 227 1
425 227 1
479 227 1
123 228 1
144 228 1
426 228 1
480 228 1
124 229 1
136 229 1
427 229 1
481 229 1
125 230 1
137 230 1
428 230 1
482 230 1
126 231 1
138 231 1
429 231 1
483 231 1
118 232 1
139 232 1
430 232 1
484 232 1
119 233 1
140 233 1
431 233 1
485 233 1
120 234 1
141 234 1
432 234 1
486 234 1
130 235 1
151 235 1
406 235 1
460 235 1
131 236 1
152 236 1
407 236 1
461 236 1
132 237 1
153 237 1
408 237 1
462 237 1
133 238 1
145 238 1
409 238 1
463 238 1
134 239 1
146 239 1
410 239 1
464 239 1
135 240 1
147 240 1
411 240 1
465 240 1
127 241 1
148 241 1
412 241 1
466 241 1
128 242 1
149 242 1
413 242 1
467 242 1
129 243 1
150 243 1
414 243 1
468 243 1
25 244 1
58 244 1
334 244 1
361 244 1
26 245 1
59 245 1
335 245 1
362 245 1
27 246 1
60 246 1
336 246 1
363 246 1
19 247 1
61 247 1
337 247 1
364 247 1
20 248 1
62 248 1
338 248 1
365 248 1
21 249 1
63 249 1
339 249 1
366 249 1
22 250 1
55 250 1
340 250 1
367 250 1
23 251 1
56 251 1
341 251 1
368 251 1
24 252 1
57 252 1
342 252 1
369 252 1
7 253 1
67 253 1
343 253 1
370 253 1
8 254 1
68 254 1
344 254 1
371 254 1
9 255 1
69 255 1
345 255 1
372 255 1
1 256 1
70 256 1
346 256 1
373 256 1
2 257 1
71 257 1
347 257 1
374 257 1
3 258 1
72 258 1
348 258 1
375 258 1
4 259 1
64 259 1
349 259 1
376 259 1
5 260 1
65 260 1
350 260 1
377 260 1
6 261 1
66 261 1
351 261 1
378 261 1
16 262 1
76 262 1
325 262 1
352 262 1
17 263 1
77 263 1
326 263 1
353 263 1
18 264 1
78 264 1
327 264 1
354 264 1
10 265 1
79 265 1
328 265 1
355 265 1
11 266 1
80 266 1
329 266 1
356 266 1
12 267 1
81 267 1
330 267 1
357 267 1
13 268 1
73 268 1
331 268 1
358 268 1
14 269 1
74 269 1
332 269 1
359 269 1
15 270 1
75 270 1
333 270 1
360 270 1
4 271 1
52 271 1
361 271 1
388 271 1
5 272 1
53 272 1
362 272 1
389 272 1
6 273 1
54 273 1
363 273 1
390 273 1
7 274 1
46 274 1
364 274 1
391 274 1
8 275 1
47 275 1
365 275 1
392 275 1
9 276 1
48 276 1
366 276 1
393 276 1
1 277 1
49 277 1
367 277 1
394 277 1
2 278 1
50 278 1
368 278 1
395 278 1
3 279 1
51 279 1
369 279 1
396 279 1
13 280 1
34 280 1
370 280 1
397 280 1
14 281 1
35 281 1
371 281 1
398 281 1
15 282 1
36 282 1
372 282 1
399 282 1
16 283 1
28 283 1
373 283 1
400 283 1
17 284 1
29 284 1
374 284 1
401 284 1
18 285 1
30 285 1
375 285 1
402 285 1
10 286 1
31 286 1
376 286 1
403 286 1
11 287 1
32 287 1
377 287 1
404 287 1
12 288 1
33 288 1
378 288 1
405 288 1
22 289 1
43 289 1
352 289 1
379 289 1
23 290 1
44 290 1
353 290 1
380 290 1
24 291 1
45 291 1
354 291 1
381 291 1
25 292 1
37 292 1
355 292 1
382 292 1
26 293 1
38 293 1
356 293 1
383 293 1
27 294 1
39 294 1
357 294 1
384 294 1
19 295 1
40 295 1
358 295 1
385 295 1
20 296 1
41 296 1
359 296 1
386 296 1
21 297 1
42 297 1
360 297 1
387 297 1
31 298 1
79 298 1
334 298 1
388 298 1
32 299 1
80 299 1
335 299 1
389 299 1
33 300 1
81 300 1
336 300 1
390 300 1
34 301 1
73 301 1
337 301 1
391 301 1
35 302 1
74 302 1
338 302 1
392 302 1
36 303 1
75 303 1
339 303 1
393 303 1
28 304 1
76 304 1
340 304 1
394 304 1
29 305 1
77 305 1
341 305 1
395 305 1
30 306 1
78 306 1
342 306 1
396 306 1
40 307 1
61 307 1
343 307 1
397 307 1
41 308 1
62 308 1
344 308 1
398 308 1
42 309 1
63 309 1
345 309 1
399 309 1
43 310 1
55 310 1
346 310 1
400 310 1
44 311 1
56 311 1
347 311 1
401 311 1
45 312 1
57 312 1
348 312 1
402 312 1
37 313 1
58 313 1
349 313 1
403 313 1
38 314 1
59 314 1
350 314 1
404 314 1
39 315 1
60 315 1
351 315 1
405 315 1
49 316 1
70 316 1
325 316 1
379 316 1
50 317 1
71 317 1
326 317 1
380 317 1
51 318 1
72 318 1
327 318 1
381 318 1
52 319 1
64 319 1
328 319 1
382 319 1
53 320 1
65 320 1
329 320 1
383 320 1
54 321 1
66 321 1
330 321 1
384 321 1
46 322 1
67 322 1
331 322 1
385 322 1
47 323 1
68 323 1
332 323 1
386 323 1
48 324 1
69 324 1
333 324 1
387 324 1
268 325 1
301 325 1
329 325 1
365 325 1
269 326 1
302 326 1
330 326 1
366 326 1
270 327 1
303 327 1
331 327 1
367 327 1
262 328 1
304 328 1
332 328 1
368 328 1
263 329 1
305 329 1
333 329 1
369 329 1
264 330 1
306 330 1
325 330 1
361 330 1
265 331 1
298 331 1
326 331 1
362 331 1
266 332 1
299 332 1
327 332 1
363 332 1
267 333 1
300 333 1
328 333 1
364 333 1
250 334 1
310 334 1
338 334 1
374 334 1
251 335 1
311 335 1
339 335 1
375 335 1
252 336 1
312 336 1
340 336 1
376 336 1
244 337 1
313 337 1
341 337 1
377 337 1
245 338 1
314 338 1
342 338 1
378 338 1
246 339 1
315 339 1
334 339 1
370 339 1
247 340 1
307 340 1
335 340 1
371 340 1
248 341 1
308 341 1
336 341 1
372 341 1
249 342 1
309 342 1
337 342 1
373 342 1
259 343 1
319 343 1
347 343 1
356 343 1
260 344 1
320 344 1
348 344 1
357 344 1
261 345 1
321 345 1
349 345 1
358 345 1
253 346 1
322 346 1
350 346 1
359 346 1
254 347 1
323 347 1
351 347 1
360 347 1
255 348 1
324 348 1
343 348 1
352 348 1
256 349 1
316 349 1
344 349 1
353 349 1
257 350 1
317 350 1
345 350 1
354 350 1
258 351 1
318 351 1
346 351 1
355 351 1
247 352 1
295 352 1
356 352 1
392 352 1
248 353 1
296 353 1
357 353 1
393 353 1
249 354 1
297 354 1
358 354 1
394 354 1
250 355 1
289 355 1
359 355 1
395 355 1
251 356 1
290 356 1
360 356 1
396 356 1
252 357 1
291 357 1
352 357 1
388 357 1
244 358 1
292 358 1
353 358 1
389 358 1
245 359 1
293 359 1
354 359 1
390 359 1
246 360 1
294 360 1
355 360 1
391 360 1
256 361 1
277 361 1
365 361 1
401 361 1
257 362 1
278 362 1
366 362 1
402 362 1
258 363 1
279 363 1
367 363 1
403 363 1
259 364 1
271 364 1
368 364 1
404 364 1
260 365 1
272 365 1
369 365 1
405 365 1
261 366 1
273 366 1
361 366 1
397 366 1
253 367 1
274 367 1
362 367 1
398 367 1
254 368 1
275 368 1
363 368 1
399 368 1
255 369 1
276 369 1
364 369 1
400 369 1
265 370 1
286 370 1
374 370 1
383 370 1
266 371 1
287 371 1
375 371 1
384 371 1
267 372 1
288 372 1
376 372 1
385 372 1
268 373 1
280 373 1
377 373 1
386 373 1
269 374 1
281 374 1
378 374 1
387 374 1
270 375 1
282 375 1
370 375 1
379 375 1
262 376 1
283 376 1
371 376 1
380 376 1
263 377 1
284 377 1
372 377 1
381 377 1
264 378 1
285 378 1
373 378 1
382 378 1
274 379 1
322 379 1
338 379 1
383 379 1
275 380 1
323 380 1
339 380 1
384 380 1
276 381 1
324 381 1
340 381 1
385 381 1
277 382 1
316 382 1
341 382 1
386 382 1
278 383 1
317 383 1
342 383 1
387 383 1
279 384 1
318 384 1
334 384 1
379 384 1
271 385 1
319 385 1
335 385 1
380 385 1
272 386 1
320 386 1
336 386 1
381 386 1
273 387 1
321 387 1
337 387 1
382 387 1
283 388 1
304 388 1
347 388 1
392 388 1
284 389 1
305 389 1
348 389 1
393 389 1
285 390 1
306 390 1
349 390 1
394 390 1
286 391 1
298 391 1
350 391 1
395 391 1
287 392 1
299 392 1
351 392 1
396 392 1
288 393 1
300 393 1
343 393 1
388 393 1
280 394 1
301 394 1
344 394 1
389 394 1
281 395 1
302 395 1
345 395 1
390 395 1
282 396 1
303 396 1
346 396 1
391 396 1
292 397 1
313 397 1
329 397 1
401 397 1
293 398 1
314 398 1
330 398 1
402 398 1
294 399 1
315 399 1
331 399 1
403 399 1
295 400 1
307 400 1
332 400 1
404 400 1
296 401 1
308 401 1
333 401 1
405 401 1
297 402 1
309 402 1
325 402 1
397 402 1
289 403 1
310 403 1
326 403 1
398 403 1
290 404 1
311 404 1
327 404 1
399 404 1
291 405 1
312 405 1
328 405 1
400 405 1
187 406 1
220 406 1
410 406 1
446 406 1
188 407 1
221 407 1
411 407 1
447 407 1
189 408 1
222 408 1
412 408 1
448 408 1
181 409 1
223 409 1
413 409 1
449 409 1
182 410 1
224 410 1
414 410 1
450 410 1
183 411 1
225 411 1
406 411 1
442 411 1
184 412 1
217 412 1
407 412 1
443 412 1
185 413 1
218 413 1
408 413 1
444 413 1
186 414 1
219 414 1
409 414 1
445 414 1
169 415 1
229 415 1
419 415 1
455 415 1
170 416 1
230 416 1
420 416 1
456 416 1
171 417 1
231 417 1
421 417 1
457 417 1
163 418 1
232 418 1
422 418 1
458 418 1
164 419 1
233 419 1
423 419 1
459 419 1
165 420 1
234 420 1
415 420 1
451 420 1
166 421 1
226 421 1
416 421 1
452 421 1
167 422 1
227 422 1
417 422 1
453 422 1
168 423 1
228 423 1
418 423 1
454 423 1
178 424 1
238 424 1
428 424 1
437 424 1
179 425 1
239 425 1
429 425 1
438 425 1
180 426 1
240 426 1
430 426 1
439 426 1
172 427 1
241 427 1
431 427 1
440 427 1
173 428 1
242 428 1
432 428 1
441 428 1
174 429 1
243 429 1
424 429 1
433 429 1
175 430 1
235 430 1
425 430 1
434 430 1
176 431 1
236 431 1
426 431 1
435 431 1
177 432 1
237 432 1
427 432 1
436 432 1
166 433 1
214 433 1
437 433 1
473 433 1
167 434 1
215 434 1
438 434 1
474 434 1
168 435 1
216 435 1
439 435 1
475 435 1
169 436 1
208 436 1
440 436 1
476 436 1
170 437 1
209 437 1
441 437 1
477 437 1
171 438 1
210 438 1
433 438 1
469 438 1
163 439 1
211 439 1
434 439 1
470 439 1
164 440 1
212 440 1
435 440 1
471 440 1
165 441 1
213 441 1
436 441 1
472 441 1
175 442 1
196 442 1
446 442 1
482 442 1
176 443 1
197 443 1
447 443 1
483 443 1
177 444 1
198 444 1
448 444 1
484 444 1
178 445 1
190 445 1
449 445 1
485 445 1
179 446 1
191 446 1
450 446 1
486 446 1
180 447 1
192 447 1
442 447 1
478 447 1
172 448 1
193 448 1
443 448 1
479 448 1
173 449 1
194 449 1
444 449 1
480 449 1
174 450 1
195 450 1
445 450 1
481 450 1
184 451 1
205 451 1
455 451 1
464 451 1
185 452 1
206 452 1
456 452 1
465 452 1
186 453 1
207 453 1
457 453 1
466 453 1
187 454 1
199 454 1
458 454 1
467 454 1
188 455 1
200 455 1
459 455 1
468 455 1
189 456 1
201 456 1
451 456 1
460 456 1
181 457 1
202 457 1
452 457 1
461 457 1
182 458 1
203 458 1
453 458 1
462 458 1
183 459 1
204 459 1
454 459 1
463 459 1
193 460 1
241 460 1
419 460 1
464 460 1
194 461 1
242 461 1
420 461 1
465 461 1
195 462 1
243 462 1
421 462 1
466 462 1
196 463 1
235 463 1
422 463 1
467 463 1
197 464 1
236 464 1
423 464 1
468 464 1
198 465 1
237 465 1
415 465 1
460 465 1
190 466 1
238 466 1
416 466 1
461 466 1
191 467 1
239 467 1
417 467 1
462 467 1
192 468 1
240 468 1
418 468 1
463 468 1
202 469 1
223 469 1
428 469 1
473 469 1
203 470 1
224 470 1
429 470 1
474 470 1
204 471 1
225 471 1
430 471 1
475 471 1
205 472 1
217 472 1
431 472 1
476 472 1
206 473 1
218 473 1
432 473 1
477 473 1
207 474 1
219 474 1
424 474 1
469 474 1
199 475 1
220 475 1
425 475 1
470 475 1
200 476 1
221 476 1
426 476 1
471 476 1
201 477 1
222 477 1
427 477 1
472 477 1
211 478 1
232 478 1
410 478 1
482 478 1
212 479 1
233 479 1
411 479 1
483 479 1
213 480 1
234 480 1
412 480 1
484 480 1
214 481 1
226 481 1
413 481 1
485 481 1
215 482 1
227 482 1
414 482 1
486 482 1
216 483 1
228 483 1
406 483 1
478 483 1
208 484 1
229 484 1
407 484 1
479 484 1
209 485 1
230 485 1
408 485 1
480 485 1
210 486 1
231 486 1
409 486 1
481 486 1
110 487 1
149 487 1
577 487 1
604 487 1
111 488 1
150 488 1
578 488 1
605 488 1
112 489 1
151 489 1
579 489 1
606 489 1
113 490 1
152 490 1
580 490 1
607 490 1
114 491 1
153 491 1
581 491 1
608 491 1
115 492 1
145 492 1
582 492 1
609 492 1
116 493 1
146 493 1
583 493 1
610 493 1
117 494 1
147 494 1
584 494 1
611 494 1
109 495 1
148 495 1
585 495 1
612 495 1
119 496 1
158 496 1
586 496 1
613 496 1
120 497 1
159 497 1
587 497 1
614 497 1
121 498 1
160 498 1
588 498 1
615 498 1
122 499 1
161 499 1
589 499 1
616 499 1
123 500 1
162 500 1
590 500 1
617 500 1
124 501 1
154 501 1
591 501 1
618 501 1
125 502 1
155 502 1
592 502 1
619 502 1
126 503 1
156 503 1
593 503 1
620 503 1
118 504 1
157 504 1
594 504 1
621 504 1
128 505 1
140 505 1
568 505 1
595 505 1
129 506 1
141 506 1
569 506 1
596 506 1
130 507 1
142 507 1
570 507 1
597 507 1
131 508 1
143 508 1
571 508 1
598 508 1
132 509 1
144 509 1
572 509 1
599 509 1
133 510 1
136 510 1
573 510 1
600 510 1
134 511 1
137 511 1
574 511 1
601 511 1
135 512 1
138 512 1
575 512 1
602 512 1
127 513 1
139 513 1
576 513 1
603 513 1
95 514 1
137 514 1
604 514 1
631 514 1
96 515 1
138 515 1
605 515 1
632 515 1
97 516 1
139 516 1
606 516 1
633 516 1
98 517 1
140 517 1
607 517 1
634 517 1
99 518 1
141 518 1
608 518 1
635 518 1
91 519 1
142 519 1
609 519 1
636 519 1
92 520 1
143 520 1
610 520 1
637 520 1
93 521 1
144 521 1
611 521 1
638 521 1
94 522 1
136 522 1
612 522 1
639 522 1
104 523 1
146 523 1
613 523 1
640 523 1
105 524 1
147 524 1
614 524 1
641 524 1
106 525 1
148 525 1
615 525 1
642 525 1
107 526 1
149 526 1
616 526 1
643 526 1
108 527 1
150 527 1
617 527 1
644 527 1
100 528 1
151 528 1
618 528 1
645 528 1
101 529 1
152 529 1
619 529 1
646 529 1
102 530 1
153 530 1
620 530 1
647 530 1
103 531 1
145 531 1
621 531 1
648 531 1
86 532 1
155 532 1
595 532 1
622 532 1
87 533 1
156 533 1
596 533 1
623 533 1
88 534 1
157 534 1
597 534 1
624 534 1
89 535 1
158 535 1
598 535 1
625 535 1
90 536 1
159 536 1
599 536 1
626 536 1
82 537 1
160 537 1
600 537 1
627 537 1
83 538 1
161 538 1
601 538 1
628 538 1
84 539 1
162 539 1
602 539 1
629 539 1
85 540 1
154 540 1
603 540 1
630 540 1
83 541 1
122 541 1
577 541 1
631 541 1
84 542 1
123 542 1
578 542 1
632 542 1
85 543 1
124 543 1
579 543 1
633 543 1
86 544 1
125 544 1
580 544 1
634 544 1
87 545 1
126 545 1
581 545 1
635 545 1
88 546 1
118 546 1
582 546 1
636 546 1
89 547 1
119 547 1
583 547 1
637 547 1
90 548 1
120 548 1
584 548 1
638 548 1
82 549 1
121 549 1
585 549 1
639 549 1
92 550 1
131 550 1
586 550 1
640 550 1
93 551 1
132 551 1
587 551 1
641 551 1
94 552 1
133 552 1
588 552 1
642 552 1
95 553 1
134 553 1
589 553 1
643 553 1
96 554 1
135 554 1
590 554 1
644 554 1
97 555 1
127 555 1
591 555 1
645 555 1
98 556 1
128 556 1
592 556 1
646 556 1
99 557 1
129 557 1
593 557 1
647 557 1
91 558 1
130 558 1
594 558 1
648 558 1
101 559 1
113 559 1
568 559 1
622 559 1
102 560 1
114 560 1
569 560 1
623 560 1
103 561 1
115 561 1
570 561 1
624 561 1
104 562 1
116 562 1
571 562 1
625 562 1
105 563 1
117 563 1
572 563 1
626 563 1
106 564 1
109 564 1
573 564 1
627 564 1
107 565 1
110 565 1
574 565 1
628 565 1
108 566 1
111 566 1
575 566 1
629 566 1
100 567 1
112 567 1
576 567 1
630 567 1
29 568 1
68 568 1
496 568 1
523 568 1
30 569 1
69 569 1
497 569 1
524 569 1
31 570 1
70 570 1
498 570 1
525 570 1
32 571 1
71 571 1
499 571 1
526 571 1
33 572 1
72 572 1
500 572 1
527 572 1
34 573 1
64 573 1
501 573 1
528 573 1
35 574 1
65 574 1
502 574 1
529 574 1
36 575 1
66 575 1
503 575 1
530 575 1
28 576 1
67 576 1
504 576 1
531 576 1
38 577 1
77 577 1
505 577 1
532 577 1
39 578 1
78 578 1
506 578 1
533 578 1
40 579 1
79 579 1
507 579 1
534 579 1
41 580 1
80 580 1
508 580 1
535 580 1
42 581 1
81 581 1
509 581 1
536 581 1
43 582 1
73 582 1
510 582 1
537 582 1
44 583 1
74 583 1
511 583 1
538 583 1
45 584 1
75 584 1
512 584 1
539 584 1
37 585 1
76 585 1
513 585 1
540 585 1
47 586 1
59 586 1
487 586 1
514 586 1
48 587 1
60 587 1
488 587 1
515 587 1
49 588 1
61 588 1
489 588 1
516 588 1
50 589 1
62 589 1
490 589 1
517 589 1
51 590 1
63 590 1
491 590 1
518 590 1
52 591 1
55 591 1
492 591 1
519 591 1
53 592 1
56 592 1
493 592 1
520 592 1
54 593 1
57 593 1
494 593 1
521 593 1
46 594 1
58 594 1
495 594 1
522 594 1
14 595 1
56 595 1
523 595 1
550 595 1
15 596 1
57 596 1
524 596 1
551 596 1
16 597 1
58 597 1
525 597 1
552 597 1
17 598 1
59 598 1
526 598 1
553 598 1
18 599 1
60 599 1
527 599 1
554 599 1
10 600 1
61 600 1
528 600 1
555 600 1
11 601 1
62 601 1
529 601 1
556 601 1
12 602 1
63 602 1
530 602 1
557 602 1
13 603 1
55 603 1
531 603 1
558 603 1
23 604 1
65 604 1
532 604 1
559 604 1
24 605 1
66 605 1
533 605 1
560 605 1
25 606 1
67 606 1
534 606 1
561 606 1
26 607 1
68 607 1
535 607 1
562 607 1
27 608 1
69 608 1
536 608 1
563 608 1
19 609 1
70 609 1
537 609 1
564 609 1
20 610 1
71 610 1
538 610 1
565 610 1
21 611 1
72 611 1
539 611 1
566 611 1
22 612 1
64 612 1
540 612 1
567 612 1
5 613 1
74 613 1
514 613 1
541 613 1
6 614 1
75 614 1
515 614 1
542 614 1
7 615 1
76 615 1
516 615 1
543 615 1
8 616 1
77 616 1
517 616 1
544 616 1
9 617 1
78 617 1
518 617 1
545 617 1
1 618 1
79 618 1
519 618 1
546 618 1
2 619 1
80 619 1
520 619 1
547 619 1
3 620 1
81 620 1
521 620 1
548 620 1
4 621 1
73 621 1
522 621 1
549 621 1
2 622 1
41 622 1
496 622 1
550 622 1
3 623 1
42 623 1
497 623 1
551 623 1
4 624 1
43 624 1
498 624 1
552 624 1
5 625 1
44 625 1
499 625 1
553 625 1
6 626 1
45 626 1
500 626 1
554 626 1
7 627 1
37 627 1
501 627 1
555 627 1
8 628 1
38 628 1
502 628 1
556 628 1
9 629 1
39 629 1
503 629 1
557 629 1
1 630 1
40 630 1
504 630 1
558 630 1
11 631 1
50 631 1
505 631 1
559 631 1
12 632 1
51 632 1
506 632 1
560 632 1
13 633 1
52 633 1
507 633 1
561 633 1
14 634 1
53 634 1
508 634 1
562 634 1
15 635 1
54 635 1
509 635 1
563 635 1
16 636 1
46 636 1
510 636 1
564 636 1
17 637 1
47 637 1
511 637 1
565 637 1
18 638 1
48 638 1
512 638 1
566 638 1
10 639 1
49 639 1
513 639 1
567 639 1
20 640 1
32 640 1
487 640 1
541 640 1
21 641 1
33 641 1
488 641 1
542 641 1
22 642 1
34 642 1
489 642 1
543 642 1
23 643 1
35 643 1
490 643 1
544 643 1
24 644 1
36 644 1
491 644 1
545 644 1
25 645 1
28 645 1
492 645 1
546 645 1
26 646 1
29 646 1
493 646 1
547 646 1
27 647 1
30 647 1
494 647 1
548 647 1
19 648 1
31 648 1
495 648 1
549 648 1
272 649 1
311 649 1
491 649 1
527 649 1
273 650 1
312 650 1
492 650 1
528 650 1
274 651 1
313 651 1
493 651 1
529 651 1
275 652 1
314 652 1
494 652 1
530 652 1
276 653 1
315 653 1
495 653 1
531 653 1
277 654 1
307 654 1
487 654 1
523 654 1
278 655 1
308 655 1
488 655 1
524 655 1
279 656 1
309 656 1
489 656 1
525 656 1
271 657 1
310 657 1
490 657 1
526 657 1
281 658 1
320 658 1
500 658 1
536 658 1
282 659 1
321 659 1
501 659 1
537 659 1
283 660 1
322 660 1
502 660 1
538 660 1
284 661 1
323 661 1
503 661 1
539 661 1
285 662 1
324 662 1
504 662 1
540 662 1
286 663 1
316 663 1
496 663 1
532 663 1
287 664 1
317 664 1
497 664 1
533 664 1
288 665 1
318 665 1
498 665 1
534 665 1
280 666 1
319 666 1
499 666 1
535 666 1
290 667 1
302 667 1
509 667 1
518 667 1
291 668 1
303 668 1
510 668 1
519 668 1
292 669 1
304 669 1
511 669 1
520 669 1
293 670 1
305 670 1
512 670 1
521 670 1
294 671 1
306 671 1
513 671 1
522 671 1
295 672 1
298 672 1
505 672 1
514 672 1
296 673 1
299 673 1
506 673 1
515 673 1
297 674 1
300 674 1
507 674 1
516 674 1
289 675 1
301 675 1
508 675 1
517 675 1
257 676 1
299 676 1
518 676 1
554 676 1
258 677 1
300 677 1
519 677 1
555 677 1
259 678 1
301 678 1
520 678 1
556 678 1
260 679 1
302 679 1
521 679 1
557 679 1
261 680 1
303 680 1
522 680 1
558 680 1
253 681 1
304 681 1
514 681 1
550 681 1
254 682 1
305 682 1
515 682 1
551 682 1
255 683 1
306 683 1
516 683 1
552 683 1
256 684 1
298 684 1
517 684 1
553 684 1
266 685 1
308 685 1
527 685 1
563 685 1
267 686 1
309 686 1
528 686 1
564 686 1
268 687 1
310 687 1
529 687 1
565 687 1
269 688 1
311 688 1
530 688 1
566 688 1
270 689 1
312 689 1
531 689 1
567 689 1
262 690 1
313 690 1
523 690 1
559 690 1
263 691 1
314 691 1
524 691 1
560 691 1
264 692 1
315 692 1
525 692 1
561 692 1
265 693 1
307 693 1
526 693 1
562 693 1
248 694 1
317 694 1
536 694 1
545 694 1
249 695 1
318 695 1
537 695 1
546 695 1
250 696 1
319 696 1
538 696 1
547 696 1
251 697 1
320 697 1
539 697 1
548 697 1
252 698 1
321 698 1
540 698 1
549 698 1
244 699 1
322 699 1
532 699 1
541 699 1
245 700 1
323 700 1
533 700 1
542 700 1
246 701 1
324 701 1
534 701 1
543 701 1
247 702 1
316 702 1
535 702 1
544 702 1
245 703 1
284 703 1
500 703 1
545 703 1
246 704 1
285 704 1
501 704 1
546 704 1
247 705 1
286 705 1
502 705 1
547 705 1
248 706 1
287 706 1
503 706 1
548 706 1
249 707 1
288 707 1
504 707 1
549 707 1
250 708 1
280 708 1
496 708 1
541 708 1
251 709 1
281 709 1
497 709 1
542 709 1
252 710 1
282 710 1
498 710 1
543 710 1
244 711 1
283 711 1
499 711 1
544 711 1
254 712 1
293 712 1
509 712 1
554 712 1
255 713 1
294 713 1
510 713 1
555 713 1
256 714 1
295 714 1
511 714 1
556 714 1
257 715 1
296 715 1
512 715 1
557 715 1
258 716 1
297 716 1
513 716 1
558 716 1
259 717 1
289 717 1
505 717 1
550 717 1
260 718 1
290 718 1
506 718 1
551 718 1
261 719 1
291 719 1
507 719 1
552 719 1
253 720 1
292 720 1
508 720 1
553 720 1
263 721 1
275 721 1
491 721 1
563 721 1
264 722 1
276 722 1
492 722 1
564 722 1
265 723 1
277 723 1
493 723 1
565 723 1
266 724 1
278 724 1
494 724 1
566 724 1
267 725 1
279 725 1
495 725 1
567 725 1
268 726 1
271 726 1
487 726 1
559 726 1
269 727 1
272 727 1
488 727 1
560 727 1
270 728 1
273 728 1
489 728 1
561 728 1
262 729 1
274 729 1
490 729 1
562 729 1
191 730 1
230 730 1
572 730 1
608 730 1
192 731 1
231 731 1
573 731 1
609 731 1
193 732 1
232 732 1
574 732 1
610 732 1
194 733 1
233 733 1
575 733 1
611 733 1
195 734 1
234 734 1
576 734 1
612 734 1
196 735 1
226 735 1
568 735 1
604 735 1
197 736 1
227 736 1
569 736 1
605 736 1
198 737 1
228 737 1
570 737 1
606 737 1
190 738 1
229 738 1
571 738 1
607 738 1
200 739 1
239 739 1
581 739 1
617 739 1
201 740 1
240 740 1
582 740 1
618 740 1
202 741 1
241 741 1
583 741 1
619 741 1
203 742 1
242 742 1
584 742 1
620 742 1
204 743 1
243 743 1
585 743 1
621 743 1
205 744 1
235 744 1
577 744 1
613 744 1
206 745 1
236 745 1
578 745 1
614 745 1
207 746 1
237 746 1
579 746 1
615 746 1
199 747 1
238 747 1
580 747 1
616 747 1
209 748 1
221 748 1
590 748 1
599 748 1
210 749 1
222 749 1
591 749 1
600 749 1
211 750 1
223 750 1
592 750 1
601 750 1
212 751 1
224 751 1
593 751 1
602 751 1
213 752 1
225 752 1
594 752 1
603 752 1
214 753 1
217 753 1
586 753 1
595 753 1
215 754 1
218 754 1
587 754 1
596 754 1
216 755 1
219 755 1
588 755 1
597 755 1
208 756 1
220 756 1
589 756 1
598 756 1
176 757 1
218 757 1
599 757 1
635 757 1
177 758 1
219 758 1
600 758 1
636 758 1
178 759 1
220 759 1
601 759 1
637 759 1
179 760 1
221 760 1
602 760 1
638 760 1
180 761 1
222 761 1
603 761 1
639 761 1
172 762 1
223 762 1
595 762 1
631 762 1
173 763 1
224 763 1
596 763 1
632 763 1
174 764 1
225 764 1
597 764 1
633 764 1
175 765 1
217 765 1
598 765 1
634 765 1
185 766 1
227 766 1
608 766 1
644 766 1
186 767 1
228 767 1
609 767 1
645 767 1
187 768 1
229 768 1
610 768 1
646 768 1
188 769 1
230 769 1
611 769 1
647 769 1
189 770 1
231 770 1
612 770 1
648 770 1
181 771 1
232 771 1
604 771 1
640 771 1
182 772 1
233 772 1
605 772 1
641 772 1
183 773 1
234 773 1
606 773 1
642 773 1
184 774 1
226 774 1
607 774 1
643 774 1
167 775 1
236 775 1
617 775 1
626 775 1
168 776 1
237 776 1
618 776 1
627 776 1
169 777 1
238 777 1
619 777 1
628 777 1
170 778 1
239 778 1
620 778 1
629 778 1
171 779 1
240 779 1
621 779 1
630 779 1
163 780 1
241 780 1
613 780 1
622 780 1
164 781 1
242 781 1
614 781 1
623 781 1
165 782 1
243 782 1
615 782 1
624 782 1
166 783 1
235 783 1
616 783 1
625 783 1
164 784 1
203 784 1
581 784 1
626 784 1
165 785 1
204 785 1
582 785 1
627 785 1
166 786 1
205 786 1
583 786 1
628 786 1
167 787 1
206 787 1
584 787 1
629 787 1
168 788 1
207 788 1
585 788 1
630 788 1
169 789 1
199 789 1
577 789 1
622 789 1
170 790 1
200 790 1
578 790 1
623 790 1
171 791 1
201 791 1
579 791 1
624 791 1
163 792 1
202 792 1
580 792 1
625 792 1
173 793 1
212 793 1
590 793 1
635 793 1
174 794 1
213 794 1
591 794 1
636 794 1
175 795 1
214 795 1
592 795 1
637 795 1
176 796 1
215 796 1
593 796 1
638 796 1
177 797 1
216 797 1
594 797 1
639 797 1
178 798 1
208 798 1
586 798 1
631 798 1
179 799 1
209 799 1
587 799 1
632 799 1
180 800 1
210 800 1
588 800 1
633 800 1
172 801 1
211 801 1
589 801 1
634 801 1
182 802 1
194 802 1
572 802 1
644 802 1
183 803 1
195 803 1
573 803 1
645 803 1
184 804 1
196 804 1
574 804 1
646 804 1
185 805 1
197 805 1
575 805 1
647 805 1
186 806 1
198 806 1
576 806 1
648 806 1
187 807 1
190 807 1
568 807 1
640 807 1
188 808 1
191 808 1
569 808 1
641 808 1
189 809 1
192 809 1
570 809 1
642 809 1
181 810 1
193 810 1
571 810 1
643 810 1
434 811 1
473 811 1
592 811 1
625 811 1
435 812 1
474 812 1
593 812 1
626 812 1
436 813 1
475 813 1
594 813 1
627 813 1
437 814 1
476 814 1
586 814 1
628 814 1
438 815 1
477 815 1
587 815 1
629 815 1
439 816 1
469 816 1
588 816 1
630 816 1
440 817 1
470 817 1
589 817 1
622 817 1
441 818 1
471 818 1
590 818 1
623 818 1
433 819 1
472 819 1
591 819 1
624 819 1
443 820 1
482 820 1
574 820 1
634 820 1
444 821 1
483 821 1
575 821 1
635 821 1
445 822 1
484 822 1
576 822 1
636 822 1
446 823 1
485 823 1
568 823 1
637 823 1
447 824 1
486 824 1
569 824 1
638 824 1
448 825 1
478 825 1
570 825 1
639 825 1
449 826 1
479 826 1
571 826 1
631 826 1
450 827 1
480 827 1
572 827 1
632 827 1
442 828 1
481 828 1
573 828 1
633 828 1
452 829 1
464 829 1
583 829 1
643 829 1
453 830 1
465 830 1
584 830 1
644 830 1
454 831 1
466 831 1
585 831 1
645 831 1
455 832 1
467 832 1
577 832 1
646 832 1
456 833 1
468 833 1
578 833 1
647 833 1
457 834 1
460 834 1
579 834 1
648 834 1
458 835 1
461 835 1
580 835 1
640 835 1
459 836 1
462 836 1
581 836 1
641 836 1
451 837 1
463 837 1
582 837 1
642 837 1
419 838 1
461 838 1
571 838 1
619 838 1
420 839 1
462 839 1
572 839 1
620 839 1
421 840 1
463 840 1
573 840 1
621 840 1
422 841 1
464 841 1
574 841 1
613 841 1
423 842 1
465 842 1
575 842 1
614 842 1
415 843 1
466 843 1
576 843 1
615 843 1
416 844 1
467 844 1
568 844 1
616 844 1
417 845 1
468 845 1
569 845 1
617 845 1
418 846 1
460 846 1
570 846 1
618 846 1
428 847 1
470 847 1
580 847 1
601 847 1
429 848 1
471 848 1
581 848 1
602 848 1
430 849 1
472 849 1
582 849 1
603 849 1
431 850 1
473 850 1
583 850 1
595 850 1
432 851 1
474 851 1
584 851 1
596 851 1
424 852 1
475 852 1
585 852 1
597 852 1
425 853 1
476 853 1
577 853 1
598 853 1
426 854 1
477 854 1
578 854 1
599 854 1
427 855 1
469 855 1
579 855 1
600 855 1
410 856 1
479 856 1
589 856 1
610 856 1
411 857 1
480 857 1
590 857 1
611 857 1
412 858 1
481 858 1
591 858 1
612 858 1
413 859 1
482 859 1
592 859 1
604 859 1
414 860 1
483 860 1
593 860 1
605 860 1
406 861 1
484 861 1
594 861 1
606 861 1
407 862 1
485 862 1
586 862 1
607 862 1
408 863 1
486 863 1
587 863 1
608 863 1
409 864 1
478 864 1
588 864 1
609 864 1
407 865 1
446 865 1
598 865 1
646 865 1
408 866 1
447 866 1
599 866 1
647 866 1
409 867 1
448 867 1
600 867 1
648 867 1
410 868 1
449 868 1
601 868 1
640 868 1
411 869 1
450 869 1
602 869 1
641 869 1
412 870 1
442 870 1
603 870 1
642 870 1
413 871 1
443 871 1
595 871 1
643 871 1
414 872 1
444 872 1
596 872 1
644 872 1
406 873 1
445 873 1
597 873 1
645 873 1
416 874 1
455 874 1
607 874 1
628 874 1
417 875 1
456 875 1
608 875 1
629 875 1
418 876 1
457 876 1
609 876 1
630 876 1
419 877 1
458 877 1
610 877 1
622 877 1
420 878 1
459 878 1
611 878 1
623 878 1
421 879 1
451 879 1
612 879 1
624 879 1
422 880 1
452 880 1
604 880 1
625 880 1
423 881 1
453 881 1
605 881 1
626 881 1
415 882 1
454 882 1
606 882 1
627 882 1
425 883 1
437 883 1
616 883 1
637 883 1
426 884 1
438 884 1
617 884 1
638 884 1
427 885 1
439 885 1
618 885 1
639 885 1
428 886 1
440 886 1
619 886 1
631 886 1
429 887 1
441 887 1
620 887 1
632 887 1
430 888 1
433 888 1
621 888 1
633 888 1
431 889 1
434 889 1
613 889 1
634 889 1
432 890 1
435 890 1
614 890 1
635 890 1
424 891 1
436 891 1
615 891 1
636 891 1
353 892 1
392 892 1
511 892 1
544 892 1
354 893 1
393 893 1
512 893 1
545 893 1
355 894 1
394 894 1
513 894 1
546 894 1
356 895 1
395 895 1
505 895 1
547 895 1
357 896 1
396 896 1
506 896 1
548 896 1
358 897 1
388 897 1
507 897 1
549 897 1
359 898 1
389 898 1
508 898 1
541 898 1
360 899 1
390 899 1
509 899 1
542 899 1
352 900 1
391 900 1
510 900 1
543 900 1
362 901 1
401 901 1
493 901 1
553 901 1
363 902 1
402 902 1
494 902 1
554 902 1
364 903 1
403 903 1
495 903 1
555 903 1
365 904 1
404 904 1
487 904 1
556 904 1
366 905 1
405 905 1
488 905 1
557 905 1
367 906 1
397 906 1
489 906 1
558 906 1
368 907 1
398 907 1
490 907 1
550 907 1
369 908 1
399 908 1
491 908 1
551 908 1
361 909 1
400 909 1
492 909 1
552 909 1
371 910 1
383 910 1
502 910 1
562 910 1
372 911 1
384 911 1
503 911 1
563 911 1
373 912 1
385 912 1
504 912 1
564 912 1
374 913 1
386 913 1
496 913 1
565 913 1
375 914 1
387 914 1
497 914 1
566 914 1
376 915 1
379 915 1
498 915 1
567 915 1
377 916 1
380 916 1
499 916 1
559 916 1
378 917 1
381 917 1
500 917 1
560 917 1
370 918 1
382 918 1
501 918 1
561 918 1
338 919 1
380 919 1
490 919 1
538 919 1
339 920 1
381 920 1
491 920 1
539 920 1
340 921 1
382 921 1
492 921 1
540 921 1
341 922 1
383 922 1
493 922 1
532 922 1
342 923 1
384 923 1
494 923 1
533 923 1
334 924 1
385 924 1
495 924 1
534 924 1
335 925 1
386 925 1
487 925 1
535 925 1
336 926 1
387 926 1
488 926 1
536 926 1
337 927 1
379 927 1
489 927 1
537 927 1
347 928 1
389 928 1
499 928 1
520 928 1
348 929 1
390 929 1
500 929 1
521 929 1
349 930 1
391 930 1
501 930 1
522 930 1
350 931 1
392 931 1
502 931 1
514 931 1
351 932 1
393 932 1
503 932 1
515 932 1
343 933 1
394 933 1
504 933 1
516 933 1
344 934 1
395 934 1
496 934 1
517 934 1
345 935 1
396 935 1
497 935 1
518 935 1
346 936 1
388 936 1
498 936 1
519 936 1
329 937 1
398 937 1
508 937 1
529 937 1
330 938 1
399 938 1
509 938 1
530 938 1
331 939 1
400 939 1
510 939 1
531 939 1
332 940 1
401 940 1
511 940 1
523 940 1
333 941 1
402 941 1
512 941 1
524 941 1
325 942 1
403 942 1
513 942 1
525 942 1
326 943 1
404 943 1
505 943 1
526 943 1
327 944 1
405 944 1
506 944 1
527 944 1
328 945 1
397 945 1
507 945 1
528 945 1
326 946 1
365 946 1
517 946 1
565 946 1
327 947 1
366 947 1
518 947 1
566 947 1
328 948 1
367 948 1
519 948 1
567 948 1
329 949 1
368 949 1
520 949 1
559 949 1
330 950 1
369 950 1
521 950 1
560 950 1
331 951 1
361 951 1
522 951 1
561 951 1
332 952 1
362 952 1
514 952 1
562 952 1
333 953 1
363 953 1
515 953 1
563 953 1
325 954 1
364 954 1
516 954 1
564 954 1
335 955 1
374 955 1
526 955 1
547 955 1
336 956 1
375 956 1
527 956 1
548 956 1
337 957 1
376 957 1
528 957 1
549 957 1
338 958 1
377 958 1
529 958 1
541 958 1
339 959 1
378 959 1
530 959 1
542 959 1
340 960 1
370 960 1
531 960 1
543 960 1
341 961 1
371 961 1
523 961 1
544 961 1
342 962 1
372 962 1
524 962 1
545 962 1
334 963 1
373 963 1
525 963 1
546 963 1
344 964 1
356 964 1
535 964 1
556 964 1
345 965 1
357 965 1
536 965 1
557 965 1
346 966 1
358 966 1
537 966 1
558 966 1
347 967 1
359 967 1
538 967 1
550 967 1
348 968 1
360 968 1
539 968 1
551 968 1
349 969 1
352 969 1
540 969 1
552 969 1
350 970 1
353 970 1
532 970 1
553 970 1
351 971 1
354 971 1
533 971 1
554 971 1
343 972 1
355 972 1
534 972 1
555 972 1
