%%MatrixMarket matrix coordinate integer general
% Binary matrix; one-based indices; arithmetic over GF(2)
144 216 1296
11 1 1
17 1 1
32 1 1
51 1 1
55 1 1
57 1 1
12 2 1
18 2 1
33 2 1
49 2 1
55 2 1
56 2 1
10 3 1
16 3 1
31 3 1
50 3 1
56 3 1
57 3 1
11 4 1
14 4 1
35 4 1
54 4 1
58 4 1
60 4 1
12 5 1
15 5 1
36 5 1
52 5 1
58 5 1
59 5 1
10 6 1
13 6 1
34 6 1
53 6 1
59 6 1
60 6 1
14 7 1
17 7 1
29 7 1
48 7 1
61 7 1
63 7 1
15 8 1
18 8 1
30 8 1
46 8 1
61 8 1
62 8 1
13 9 1
16 9 1
28 9 1
47 9 1
62 9 1
63 9 1
2 10 1
8 10 1
23 10 1
42 10 1
64 10 1
66 10 1
3 11 1
9 11 1
24 11 1
40 11 1
64 11 1
65 11 1
1 12 1
7 12 1
22 12 1
41 12 1
65 12 1
66 12 1
2 13 1
5 13 1
26 13 1
45 13 1
67 13 1
69 13 1
3 14 1
6 14 1
27 14 1
43 14 1
67 14 1
68 14 1
1 15 1
4 15 1
25 15 1
44 15 1
68 15 1
69 15 1
5 16 1
8 16 1
20 16 1
39 16 1
70 16 1
72 16 1
6 17 1
9 17 1
21 17 1
37 17 1
70 17 1
71 17 1
4 18 1
7 18 1
19 18 1
38 18 1
71 18 1
72 18 1
14 19 1
29 19 1
35 19 1
37 19 1
39 19 1
69 19 1
15 20 1
30 20 1
36 20 1
37 20 1
38 20 1
67 20 1
13 21 1
28 21 1
34 21 1
38 21 1
39 21 1
68 21 1
17 22 1
29 22 1
32 22 1
40 22 1
42 22 1
72 22 1
18 23 1
30 23 1
33 23 1
40 23 1
41 23 1
70 23 1
16 24 1
28 24 1
31 24 1
41 24 1
42 24 1
71 24 1
11 25 1
32 25 1
35 25 1
43 25 1
45 25 1
66 25 1
12 26 1
33 26 1
36 26 1
43 26 1
44 26 1
64 26 1
10 27 1
31 27 1
34 27 1
44 27 1
45 27 1
65 27 1
5 28 1
20 28 1
26 28 1
46 28 1
48 28 1
60 28 1
6 29 1
21 29 1
27 29 1
46 29 1
47 29 1
58 29 1
4 30 1
19 30 1
25 30 1
47 30 1
48 30 1
59 30 1
8 31 1
20 31 1
23 31 1
49 31 1
51 31 1
63 31 1
9 32 1
21 32 1
24 32 1
49 32 1
50 32 1
61 32 1
7 33 1
19 33 1
22 33 1
50 33 1
51 33 1
62 33 1
2 34 1
23 34 1
26 34 1
52 34 1
54 34 1
57 34 1
3 35 1
24 35 1
27 35 1
52 35 1
53 35 1
55 35 1
1 36 1
22 36 1
25 36 1
53 36 1
54 36 1
56 36 1
10 37 1
24 37 1
35 37 1
87 37 1
91 37 1
93 37 1
11 38 1
22 38 1
36 38 1
85 38 1
91 38 1
92 38 1
12 39 1
23 39 1
34 39 1
86 39 1
92 39 1
93 39 1
13 40 1
27 40 1
29 40 1
90 40 1
94 40 1
96 40 1
14 41 1
25 41 1
30 41 1
88 41 1
94 41 1
95 41 1
15 42 1
26 42 1
28 42 1
89 42 1
95 42 1
96 42 1
16 43 1
21 43 1
32 43 1
84 43 1
97 43 1
99 43 1
17 44 1
19 44 1
33 44 1
82 44 1
97 44 1
98 44 1
18 45 1
20 45 1
31 45 1
83 45 1
98 45 1
99 45 1
1 46 1
26 46 1
33 46 1
78 46 1
100 46 1
102 46 1
2 47 1
27 47 1
31 47 1
76 47 1
100 47 1
101 47 1
3 48 1
25 48 1
32 48 1
77 48 1
101 48 1
102 48 1
4 49 1
20 49 1
36 49 1
81 49 1
103 49 1
105 49 1
5 50 1
21 50 1
34 50 1
79 50 1
103 50 1
104 50 1
6 51 1
19 51 1
35 51 1
80 51 1
104 51 1
105 51 1
7 52 1
23 52 1
30 52 1
75 52 1
106 52 1
108 52 1
8 53 1
24 53 1
28 53 1
73 53 1
106 53 1
107 53 1
9 54 1
22 54 1
29 54 1
74 54 1
107 54 1
108 54 1
6 55 1
17 55 1
28 55 1
73 55 1
75 55 1
105 55 1
4 56 1
18 56 1
29 56 1
73 56 1
74 56 1
103 56 1
5 57 1
16 57 1
30 57 1
74 57 1
75 57 1
104 57 1
9 58 1
11 58 1
31 58 1
76 58 1
78 58 1
108 58 1
7 59 1
12 59 1
32 59 1
76 59 1
77 59 1
106 59 1
8 60 1
10 60 1
33 60 1
77 60 1
78 60 1
107 60 1
3 61 1
14 61 1
34 61 1
79 61 1
81 61 1
102 61 1
1 62 1
15 62 1
35 62 1
79 62 1
80 62 1
100 62 1
2 63 1
13 63 1
36 63 1
80 63 1
81 63 1
101 63 1
8 64 1
15 64 1
19 64 1
82 64 1
84 64 1
96 64 1
9 65 1
13 65 1
20 65 1
82 65 1
83 65 1
94 65 1
7 66 1
14 66 1
21 66 1
83 66 1
84 66 1
95 66 1
2 67 1
18 67 1
22 67 1
85 67 1
87 67 1
99 67 1
3 68 1
16 68 1
23 68 1
85 68 1
86 68 1
97 68 1
1 69 1
17 69 1
24 69 1
86 69 1
87 69 1
98 69 1
5 70 1
12 70 1
25 70 1
88 70 1
90 70 1
93 70 1
6 71 1
10 71 1
26 71 1
88 71 1
89 71 1
91 71 1
4 72 1
11 72 1
27 72 1
89 72 1
90 72 1
92 72 1
46 73 1
60 73 1
71 73 1
83 73 1
89 73 1
104 73 1
47 74 1
58 74 1
72 74 1
84 74 1
90 74 1
105 74 1
48 75 1
59 75 1
70 75 1
82 75 1
88 75 1
103 75 1
49 76 1
63 76 1
65 76 1
83 76 1
86 76 1
107 76 1
50 77 1
61 77 1
66 77 1
84 77 1
87 77 1
108 77 1
51 78 1
62 78 1
64 78 1
82 78 1
85 78 1
106 78 1
52 79 1
57 79 1
68 79 1
86 79 1
89 79 1
101 79 1
53 80 1
55 80 1
69 80 1
87 80 1
90 80 1
102 80 1
54 81 1
56 81 1
67 81 1
85 81 1
88 81 1
100 81 1
37 82 1
62 82 1
69 82 1
74 82 1
80 82 1
95 82 1
38 83 1
63 83 1
67 83 1
75 83 1
81 83 1
96 83 1
39 84 1
61 84 1
68 84 1
73 84 1
79 84 1
94 84 1
40 85 1
56 85 1
72 85 1
74 85 1
77 85 1
98 85 1
41 86 1
57 86 1
70 86 1
75 86 1
78 86 1
99 86 1
42 87 1
55 87 1
71 87 1
73 87 1
76 87 1
97 87 1
43 88 1
59 88 1
66 88 1
77 88 1
80 88 1
92 88 1
44 89 1
60 89 1
64 89 1
78 89 1
81 89 1
93 89 1
45 90 1
58 90 1
65 90 1
76 90 1
79 90 1
91 90 1
42 91 1
53 91 1
64 91 1
86 91 1
101 91 1
107 91 1
40 92 1
54 92 1
65 92 1
87 92 1
102 92 1
108 92 1
41 93 1
52 93 1
66 93 1
85 93 1
100 93 1
106 93 1
45 94 1
47 94 1
67 94 1
89 94 1
101 94 1
104 94 1
43 95 1
48 95 1
68 95 1
90 95 1
102 95 1
105 95 1
44 96 1
46 96 1
69 96 1
88 96 1
100 96 1
103 96 1
39 97 1
50 97 1
70 97 1
83 97 1
104 97 1
107 97 1
37 98 1
51 98 1
71 98 1
84 98 1
105 98 1
108 98 1
38 99 1
49 99 1
72 99 1
82 99 1
103 99 1
106 99 1
44 100 1
51 100 1
55 100 1
77 100 1
92 100 1
98 100 1
45 101 1
49 101 1
56 101 1
78 101 1
93 101 1
99 101 1
43 102 1
50 102 1
57 102 1
76 102 1
91 102 1
97 102 1
38 103 1
54 103 1
58 103 1
80 103 1
92 103 1
95 103 1
39 104 1
52 104 1
59 104 1
81 104 1
93 104 1
96 104 1
37 105 1
53 105 1
60 105 1
79 105 1
91 105 1
94 105 1
41 106 1
48 106 1
61 106 1
74 106 1
95 106 1
98 106 1
42 107 1
46 107 1
62 107 1
75 107 1
96 107 1
99 107 1
40 108 1
47 108 1
63 108 1
73 108 1
94 108 1
97 108 1
10 109 1
20 109 1
31 109 1
123 109 1
127 109 1
129 109 1
11 110 1
21 110 1
32 110 1
121 110 1
127 110 1
128 110 1
12 111 1
19 111 1
33 111 1
122 111 1
128 111 1
129 111 1
13 112 1
23 112 1
34 112 1
126 112 1
130 112 1
132 112 1
14 113 1
24 113 1
35 113 1
124 113 1
130 113 1
131 113 1
15 114 1
22 114 1
36 114 1
125 114 1
131 114 1
132 114 1
16 115 1
26 115 1
28 115 1
120 115 1
133 115 1
135 115 1
17 116 1
27 116 1
29 116 1
118 116 1
133 116 1
134 116 1
18 117 1
25 117 1
30 117 1
119 117 1
134 117 1
135 117 1
1 118 1
22 118 1
29 118 1
114 118 1
136 118 1
138 118 1
2 119 1
23 119 1
30 119 1
112 119 1
136 119 1
137 119 1
3 120 1
24 120 1
28 120 1
113 120 1
137 120 1
138 120 1
4 121 1
25 121 1
32 121 1
117 121 1
139 121 1
141 121 1
5 122 1
26 122 1
33 122 1
115 122 1
139 122 1
140 122 1
6 123 1
27 123 1
31 123 1
116 123 1
140 123 1
141 123 1
7 124 1
19 124 1
35 124 1
111 124 1
142 124 1
144 124 1
8 125 1
20 125 1
36 125 1
109 125 1
142 125 1
143 125 1
9 126 1
21 126 1
34 126 1
110 126 1
143 126 1
144 126 1
2 127 1
13 127 1
28 127 1
109 127 1
111 127 1
141 127 1
3 128 1
14 128 1
29 128 1
109 128 1
110 128 1
139 128 1
1 129 1
15 129 1
30 129 1
110 129 1
111 129 1
140 129 1
5 130 1
16 130 1
31 130 1
112 130 1
114 130 1
144 130 1
6 131 1
17 131 1
32 131 1
112 131 1
113 131 1
142 131 1
4 132 1
18 132 1
33 132 1
113 132 1
114 132 1
143 132 1
8 133 1
10 133 1
34 133 1
115 133 1
117 133 1
138 133 1
9 134 1
11 134 1
35 134 1
115 134 1
116 134 1
136 134 1
7 135 1
12 135 1
36 135 1
116 135 1
117 135 1
137 135 1
4 136 1
11 136 1
19 136 1
118 136 1
120 136 1
132 136 1
5 137 1
12 137 1
20 137 1
118 137 1
119 137 1
130 137 1
6 138 1
10 138 1
21 138 1
119 138 1
120 138 1
131 138 1
7 139 1
14 139 1
22 139 1
121 139 1
123 139 1
135 139 1
8 140 1
15 140 1
23 140 1
121 140 1
122 140 1
133 140 1
9 141 1
13 141 1
24 141 1
122 141 1
123 141 1
134 141 1
1 142 1
17 142 1
25 142 1
124 142 1
126 142 1
129 142 1
2 143 1
18 143 1
26 143 1
124 143 1
125 143 1
127 143 1
3 144 1
16 144 1
27 144 1
125 144 1
126 144 1
128 144 1
46 145 1
56 145 1
67 145 1
119 145 1
125 145 1
140 145 1
47 146 1
57 146 1
68 146 1
120 146 1
126 146 1
141 146 1
48 147 1
55 147 1
69 147 1
118 147 1
124 147 1
139 147 1
49 148 1
59 148 1
70 148 1
119 148 1
122 148 1
143 148 1
50 149 1
60 149 1
71 149 1
120 149 1
123 149 1
144 149 1
51 150 1
58 150 1
72 150 1
118 150 1
121 150 1
142 150 1
52 151 1
62 151 1
64 151 1
122 151 1
125 151 1
137 151 1
53 152 1
63 152 1
65 152 1
123 152 1
126 152 1
138 152 1
54 153 1
61 153 1
66 153 1
121 153 1
124 153 1
136 153 1
37 154 1
58 154 1
65 154 1
110 154 1
116 154 1
131 154 1
38 155 1
59 155 1
66 155 1
111 155 1
117 155 1
132 155 1
39 156 1
60 156 1
64 156 1
109 156 1
115 156 1
130 156 1
40 157 1
61 157 1
68 157 1
110 157 1
113 157 1
134 157 1
41 158 1
62 158 1
69 158 1
111 158 1
114 158 1
135 158 1
42 159 1
63 159 1
67 159 1
109 159 1
112 159 1
133 159 1
43 160 1
55 160 1
71 160 1
113 160 1
116 160 1
128 160 1
44 161 1
56 161 1
72 161 1
114 161 1
117 161 1
129 161 1
45 162 1
57 162 1
70 162 1
112 162 1
115 162 1
127 162 1
38 163 1
49 163 1
64 163 1
122 163 1
137 163 1
143 163 1
39 164 1
50 164 1
65 164 1
123 164 1
138 164 1
144 164 1
37 165 1
51 165 1
66 165 1
121 165 1
136 165 1
142 165 1
41 166 1
52 166 1
67 166 1
125 166 1
137 166 1
140 166 1
42 167 1
53 167 1
68 167 1
126 167 1
138 167 1
141 167 1
40 168 1
54 168 1
69 168 1
124 168 1
136 168 1
139 168 1
44 169 1
46 169 1
70 169 1
119 169 1
140 169 1
143 169 1
45 170 1
47 170 1
71 170 1
120 170 1
141 170 1
144 170 1
43 171 1
48 171 1
72 171 1
118 171 1
139 171 1
142 171 1
40 172 1
47 172 1
55 172 1
113 172 1
128 172 1
134 172 1
41 173 1
48 173 1
56 173 1
114 173 1
129 173 1
135 173 1
42 174 1
46 174 1
57 174 1
112 174 1
127 174 1
133 174 1
43 175 1
50 175 1
58 175 1
116 175 1
128 175 1
131 175 1
44 176 1
51 176 1
59 176 1
117 176 1
129 176 1
132 176 1
45 177 1
49 177 1
60 177 1
115 177 1
127 177 1
130 177 1
37 178 1
53 178 1
61 178 1
110 178 1
131 178 1
134 178 1
38 179 1
54 179 1
62 179 1
111 179 1
132 179 1
135 179 1
39 180 1
52 180 1
63 180 1
109 180 1
130 180 1
133 180 1
82 181 1
92 181 1
103 181 1
118 181 1
132 181 1
143 181 1
83 182 1
93 182 1
104 182 1
119 182 1
130 182 1
144 182 1
84 183 1
91 183 1
105 183 1
120 183 1
131 183 1
142 183 1
85 184 1
95 184 1
106 184 1
121 184 1
135 184 1
137 184 1
86 185 1
96 185 1
107 185 1
122 185 1
133 185 1
138 185 1
87 186 1
94 186 1
108 186 1
123 186 1
134 186 1
136 186 1
88 187 1
98 187 1
100 187 1
124 187 1
129 187 1
140 187 1
89 188 1
99 188 1
101 188 1
125 188 1
127 188 1
141 188 1
90 189 1
97 189 1
102 189 1
126 189 1
128 189 1
139 189 1
73 190 1
94 190 1
101 190 1
109 190 1
134 190 1
141 190 1
74 191 1
95 191 1
102 191 1
110 191 1
135 191 1
139 191 1
75 192 1
96 192 1
100 192 1
111 192 1
133 192 1
140 192 1
76 193 1
97 193 1
104 193 1
112 193 1
128 193 1
144 193 1
77 194 1
98 194 1
105 194 1
113 194 1
129 194 1
142 194 1
78 195 1
99 195 1
103 195 1
114 195 1
127 195 1
143 195 1
79 196 1
91 196 1
107 196 1
115 196 1
131 196 1
138 196 1
80 197 1
92 197 1
108 197 1
116 197 1
132 197 1
136 197 1
81 198 1
93 198 1
106 198 1
117 198 1
130 198 1
137 198 1
74 199 1
85 199 1
100 199 1
114 199 1
125 199 1
136 199 1
75 200 1
86 200 1
101 200 1
112 200 1
126 200 1
137 200 1
73 201 1
87 201 1
102 201 1
113 201 1
124 201 1
138 201 1
77 202 1
88 202 1
103 202 1
117 202 1
119 202 1
139 202 1
78 203 1
89 203 1
104 203 1
115 203 1
120 203 1
140 203 1
76 204 1
90 204 1
105 204 1
116 204 1
118 204 1
141 204 1
80 205 1
82 205 1
106 205 1
111 205 1
122 205 1
142 205 1
81 206 1
83 206 1
107 206 1
109 206 1
123 206 1
143 206 1
79 207 1
84 207 1
108 207 1
110 207 1
121 207 1
144 207 1
76 208 1
83 208 1
91 208 1
116 208 1
123 208 1
127 208 1
77 209 1
84 209 1
92 209 1
117 209 1
121 209 1
128 209 1
78 210 1
82 210 1
93 210 1
115 210 1
122 210 1
129 210 1
79 211 1
86 211 1
94 211 1
110 211 1
126 211 1
130 211 1
80 212 1
87 212 1
95 212 1
111 212 1
124 212 1
131 212 1
81 213 1
85 213 1
96 213 1
109 213 1
125 213 1
132 213 1
73 214 1
89 214 1
97 214 1
113 214 1
120 214 1
133 214 1
74 215 1
90 215 1
98 215 1
114 215 1
118 215 1
134 215 1
75 216 1
88 216 1
99 216 1
112 216 1
119 216 1
135 216 1
