%%MatrixMarket matrix coordinate integer general
% Binary matrix; one-based indices; arithmetic over GF(2)
528 792 3168
35 1 1
47 1 1
226 1 1
227 1 1
36 2 1
48 2 1
227 2 1
228 2 1
37 3 1
49 3 1
228 3 1
229 3 1
38 4 1
50 4 1
229 4 1
230 4 1
39 5 1
51 5 1
230 5 1
231 5 1
40 6 1
52 6 1
221 6 1
231 6 1
41 7 1
53 7 1
221 7 1
222 7 1
42 8 1
54 8 1
222 8 1
223 8 1
43 9 1
55 9 1
223 9 1
224 9 1
44 10 1
45 10 1
224 10 1
225 10 1
34 11 1
46 11 1
225 11 1
226 11 1
46 12 1
58 12 1
204 12 1
205 12 1
47 13 1
59 13 1
205 13 1
206 13 1
48 14 1
60 14 1
206 14 1
207 14 1
49 15 1
61 15 1
207 15 1
208 15 1
50 16 1
62 16 1
208 16 1
209 16 1
51 17 1
63 17 1
199 17 1
209 17 1
52 18 1
64 18 1
199 18 1
200 18 1
53 19 1
65 19 1
200 19 1
201 19 1
54 20 1
66 20 1
201 20 1
202 20 1
55 21 1
56 21 1
202 21 1
203 21 1
45 22 1
57 22 1
203 22 1
204 22 1
36 23 1
57 23 1
215 23 1
216 23 1
37 24 1
58 24 1
216 24 1
217 24 1
38 25 1
59 25 1
217 25 1
218 25 1
39 26 1
60 26 1
218 26 1
219 26 1
40 27 1
61 27 1
219 27 1
220 27 1
41 28 1
62 28 1
210 28 1
220 28 1
42 29 1
63 29 1
210 29 1
211 29 1
43 30 1
64 30 1
211 30 1
212 30 1
44 31 1
65 31 1
212 31 1
213 31 1
34 32 1
66 32 1
213 32 1
214 32 1
35 33 1
56 33 1
214 33 1
215 33 1
2 34 1
14 34 1
259 34 1
260 34 1
3 35 1
15 35 1
260 35 1
261 35 1
4 36 1
16 36 1
261 36 1
262 36 1
5 37 1
17 37 1
262 37 1
263 37 1
6 38 1
18 38 1
263 38 1
264 38 1
7 39 1
19 39 1
254 39 1
264 39 1
8 40 1
20 40 1
254 40 1
255 40 1
9 41 1
21 41 1
255 41 1
256 41 1
10 42 1
22 42 1
256 42 1
257 42 1
11 43 1
12 43 1
257 43 1
258 43 1
1 44 1
13 44 1
258 44 1
259 44 1
13 45 1
25 45 1
237 45 1
238 45 1
14 46 1
26 46 1
238 46 1
239 46 1
15 47 1
27 47 1
239 47 1
240 47 1
16 48 1
28 48 1
240 48 1
241 48 1
17 49 1
29 49 1
241 49 1
242 49 1
18 50 1
30 50 1
232 50 1
242 50 1
19 51 1
31 51 1
232 51 1
233 51 1
20 52 1
32 52 1
233 52 1
234 52 1
21 53 1
33 53 1
234 53 1
235 53 1
22 54 1
23 54 1
235 54 1
236 54 1
12 55 1
24 55 1
236 55 1
237 55 1
3 56 1
24 56 1
248 56 1
249 56 1
4 57 1
25 57 1
249 57 1
250 57 1
5 58 1
26 58 1
250 58 1
251 58 1
6 59 1
27 59 1
251 59 1
252 59 1
7 60 1
28 60 1
252 60 1
253 60 1
8 61 1
29 61 1
243 61 1
253 61 1
9 62 1
30 62 1
243 62 1
244 62 1
10 63 1
31 63 1
244 63 1
245 63 1
11 64 1
32 64 1
245 64 1
246 64 1
1 65 1
33 65 1
246 65 1
247 65 1
2 66 1
23 66 1
247 66 1
248 66 1
101 67 1
113 67 1
160 67 1
161 67 1
102 68 1
114 68 1
161 68 1
162 68 1
103 69 1
115 69 1
162 69 1
163 69 1
104 70 1
116 70 1
163 70 1
164 70 1
105 71 1
117 71 1
164 71 1
165 71 1
106 72 1
118 72 1
155 72 1
165 72 1
107 73 1
119 73 1
155 73 1
156 73 1
108 74 1
120 74 1
156 74 1
157 74 1
109 75 1
121 75 1
157 75 1
158 75 1
110 76 1
111 76 1
158 76 1
159 76 1
100 77 1
112 77 1
159 77 1
160 77 1
112 78 1
124 78 1
138 78 1
139 78 1
113 79 1
125 79 1
139 79 1
140 79 1
114 80 1
126 80 1
140 80 1
141 80 1
115 81 1
127 81 1
141 81 1
142 81 1
116 82 1
128 82 1
142 82 1
143 82 1
117 83 1
129 83 1
133 83 1
143 83 1
118 84 1
130 84 1
133 84 1
134 84 1
119 85 1
131 85 1
134 85 1
135 85 1
120 86 1
132 86 1
135 86 1
136 86 1
121 87 1
122 87 1
136 87 1
137 87 1
111 88 1
123 88 1
137 88 1
138 88 1
102 89 1
123 89 1
149 89 1
150 89 1
103 90 1
124 90 1
150 90 1
151 90 1
104 91 1
125 91 1
151 91 1
152 91 1
105 92 1
126 92 1
152 92 1
153 92 1
106 93 1
127 93 1
153 93 1
154 93 1
107 94 1
128 94 1
144 94 1
154 94 1
108 95 1
129 95 1
144 95 1
145 95 1
109 96 1
130 96 1
145 96 1
146 96 1
110 97 1
131 97 1
146 97 1
147 97 1
100 98 1
132 98 1
147 98 1
148 98 1
101 99 1
122 99 1
148 99 1
149 99 1
68 100 1
80 100 1
193 100 1
194 100 1
69 101 1
81 101 1
194 101 1
195 101 1
70 102 1
82 102 1
195 102 1
196 102 1
71 103 1
83 103 1
196 103 1
197 103 1
72 104 1
84 104 1
197 104 1
198 104 1
73 105 1
85 105 1
188 105 1
198 105 1
74 106 1
86 106 1
188 106 1
189 106 1
75 107 1
87 107 1
189 107 1
190 107 1
76 108 1
88 108 1
190 108 1
191 108 1
77 109 1
78 109 1
191 109 1
192 109 1
67 110 1
79 110 1
192 110 1
193 110 1
79 111 1
91 111 1
171 111 1
172 111 1
80 112 1
92 112 1
172 112 1
173 112 1
81 113 1
93 113 1
173 113 1
174 113 1
82 114 1
94 114 1
174 114 1
175 114 1
83 115 1
95 115 1
175 115 1
176 115 1
84 116 1
96 116 1
166 116 1
176 116 1
85 117 1
97 117 1
166 117 1
167 117 1
86 118 1
98 118 1
167 118 1
168 118 1
87 119 1
99 119 1
168 119 1
169 119 1
88 120 1
89 120 1
169 120 1
170 120 1
78 121 1
90 121 1
170 121 1
171 121 1
69 122 1
90 122 1
182 122 1
183 122 1
70 123 1
91 123 1
183 123 1
184 123 1
71 124 1
92 124 1
184 124 1
185 124 1
72 125 1
93 125 1
185 125 1
186 125 1
73 126 1
94 126 1
186 126 1
187 126 1
74 127 1
95 127 1
177 127 1
187 127 1
75 128 1
96 128 1
177 128 1
178 128 1
76 129 1
97 129 1
178 129 1
179 129 1
77 130 1
98 130 1
179 130 1
180 130 1
67 131 1
99 131 1
180 131 1
181 131 1
68 132 1
89 132 1
181 132 1
182 132 1
60 133 1
118 133 1
358 133 1
359 133 1
61 134 1
119 134 1
359 134 1
360 134 1
62 135 1
120 135 1
360 135 1
361 135 1
63 136 1
121 136 1
361 136 1
362 136 1
64 137 1
111 137 1
362 137 1
363 137 1
65 138 1
112 138 1
353 138 1
363 138 1
66 139 1
113 139 1
353 139 1
354 139 1
56 140 1
114 140 1
354 140 1
355 140 1
57 141 1
115 141 1
355 141 1
356 141 1
58 142 1
116 142 1
356 142 1
357 142 1
59 143 1
117 143 1
357 143 1
358 143 1
38 144 1
129 144 1
336 144 1
337 144 1
39 145 1
130 145 1
337 145 1
338 145 1
40 146 1
131 146 1
338 146 1
339 146 1
41 147 1
132 147 1
339 147 1
340 147 1
42 148 1
122 148 1
340 148 1
341 148 1
43 149 1
123 149 1
331 149 1
341 149 1
44 150 1
124 150 1
331 150 1
332 150 1
34 151 1
125 151 1
332 151 1
333 151 1
35 152 1
126 152 1
333 152 1
334 152 1
36 153 1
127 153 1
334 153 1
335 153 1
37 154 1
128 154 1
335 154 1
336 154 1
49 155 1
107 155 1
347 155 1
348 155 1
50 156 1
108 156 1
348 156 1
349 156 1
51 157 1
109 157 1
349 157 1
350 157 1
52 158 1
110 158 1
350 158 1
351 158 1
53 159 1
100 159 1
351 159 1
352 159 1
54 160 1
101 160 1
342 160 1
352 160 1
55 161 1
102 161 1
342 161 1
343 161 1
45 162 1
103 162 1
343 162 1
344 162 1
46 163 1
104 163 1
344 163 1
345 163 1
47 164 1
105 164 1
345 164 1
346 164 1
48 165 1
106 165 1
346 165 1
347 165 1
27 166 1
85 166 1
391 166 1
392 166 1
28 167 1
86 167 1
392 167 1
393 167 1
29 168 1
87 168 1
393 168 1
394 168 1
30 169 1
88 169 1
394 169 1
395 169 1
31 170 1
78 170 1
395 170 1
396 170 1
32 171 1
79 171 1
386 171 1
396 171 1
33 172 1
80 172 1
386 172 1
387 172 1
23 173 1
81 173 1
387 173 1
388 173 1
24 174 1
82 174 1
388 174 1
389 174 1
25 175 1
83 175 1
389 175 1
390 175 1
26 176 1
84 176 1
390 176 1
391 176 1
5 177 1
96 177 1
369 177 1
370 177 1
6 178 1
97 178 1
370 178 1
371 178 1
7 179 1
98 179 1
371 179 1
372 179 1
8 180 1
99 180 1
372 180 1
373 180 1
9 181 1
89 181 1
373 181 1
374 181 1
10 182 1
90 182 1
364 182 1
374 182 1
11 183 1
91 183 1
364 183 1
365 183 1
1 184 1
92 184 1
365 184 1
366 184 1
2 185 1
93 185 1
366 185 1
367 185 1
3 186 1
94 186 1
367 186 1
368 186 1
4 187 1
95 187 1
368 187 1
369 187 1
16 188 1
74 188 1
380 188 1
381 188 1
17 189 1
75 189 1
381 189 1
382 189 1
18 190 1
76 190 1
382 190 1
383 190 1
19 191 1
77 191 1
383 191 1
384 191 1
20 192 1
67 192 1
384 192 1
385 192 1
21 193 1
68 193 1
375 193 1
385 193 1
22 194 1
69 194 1
375 194 1
376 194 1
12 195 1
70 195 1
376 195 1
377 195 1
13 196 1
71 196 1
377 196 1
378 196 1
14 197 1
72 197 1
378 197 1
379 197 1
15 198 1
73 198 1
379 198 1
380 198 1
52 199 1
126 199 1
292 199 1
293 199 1
53 200 1
127 200 1
293 200 1
294 200 1
54 201 1
128 201 1
294 201 1
295 201 1
55 202 1
129 202 1
295 202 1
296 202 1
45 203 1
130 203 1
296 203 1
297 203 1
46 204 1
131 204 1
287 204 1
297 204 1
47 205 1
132 205 1
287 205 1
288 205 1
48 206 1
122 206 1
288 206 1
289 206 1
49 207 1
123 207 1
289 207 1
290 207 1
50 208 1
124 208 1
290 208 1
291 208 1
51 209 1
125 209 1
291 209 1
292 209 1
63 210 1
104 210 1
270 210 1
271 210 1
64 211 1
105 211 1
271 211 1
272 211 1
65 212 1
106 212 1
272 212 1
273 212 1
66 213 1
107 213 1
273 213 1
274 213 1
56 214 1
108 214 1
274 214 1
275 214 1
57 215 1
109 215 1
265 215 1
275 215 1
58 216 1
110 216 1
265 216 1
266 216 1
59 217 1
100 217 1
266 217 1
267 217 1
60 218 1
101 218 1
267 218 1
268 218 1
61 219 1
102 219 1
268 219 1
269 219 1
62 220 1
103 220 1
269 220 1
270 220 1
41 221 1
115 221 1
281 221 1
282 221 1
42 222 1
116 222 1
282 222 1
283 222 1
43 223 1
117 223 1
283 223 1
284 223 1
44 224 1
118 224 1
284 224 1
285 224 1
34 225 1
119 225 1
285 225 1
286 225 1
35 226 1
120 226 1
276 226 1
286 226 1
36 227 1
121 227 1
276 227 1
277 227 1
37 228 1
111 228 1
277 228 1
278 228 1
38 229 1
112 229 1
278 229 1
279 229 1
39 230 1
113 230 1
279 230 1
280 230 1
40 231 1
114 231 1
280 231 1
281 231 1
19 232 1
93 232 1
325 232 1
326 232 1
20 233 1
94 233 1
326 233 1
327 233 1
21 234 1
95 234 1
327 234 1
328 234 1
22 235 1
96 235 1
328 235 1
329 235 1
12 236 1
97 236 1
329 236 1
330 236 1
13 237 1
98 237 1
320 237 1
330 237 1
14 238 1
99 238 1
320 238 1
321 238 1
15 239 1
89 239 1
321 239 1
322 239 1
16 240 1
90 240 1
322 240 1
323 240 1
17 241 1
91 241 1
323 241 1
324 241 1
18 242 1
92 242 1
324 242 1
325 242 1
30 243 1
71 243 1
303 243 1
304 243 1
31 244 1
72 244 1
304 244 1
305 244 1
32 245 1
73 245 1
305 245 1
306 245 1
33 246 1
74 246 1
306 246 1
307 246 1
23 247 1
75 247 1
307 247 1
308 247 1
24 248 1
76 248 1
298 248 1
308 248 1
25 249 1
77 249 1
298 249 1
299 249 1
26 250 1
67 250 1
299 250 1
300 250 1
27 251 1
68 251 1
300 251 1
301 251 1
28 252 1
69 252 1
301 252 1
302 252 1
29 253 1
70 253 1
302 253 1
303 253 1
8 254 1
82 254 1
314 254 1
315 254 1
9 255 1
83 255 1
315 255 1
316 255 1
10 256 1
84 256 1
316 256 1
317 256 1
11 257 1
85 257 1
317 257 1
318 257 1
1 258 1
86 258 1
318 258 1
319 258 1
2 259 1
87 259 1
309 259 1
319 259 1
3 260 1
88 260 1
309 260 1
310 260 1
4 261 1
78 261 1
310 261 1
311 261 1
5 262 1
79 262 1
311 262 1
312 262 1
6 263 1
80 263 1
312 263 1
313 263 1
7 264 1
81 264 1
313 264 1
314 264 1
192 265 1
250 265 1
299 265 1
311 265 1
193 266 1
251 266 1
300 266 1
312 266 1
194 267 1
252 267 1
301 267 1
313 267 1
195 268 1
253 268 1
302 268 1
314 268 1
196 269 1
243 269 1
303 269 1
315 269 1
197 270 1
244 270 1
304 270 1
316 270 1
198 271 1
245 271 1
305 271 1
317 271 1
188 272 1
246 272 1
306 272 1
318 272 1
189 273 1
247 273 1
307 273 1
319 273 1
190 274 1
248 274 1
308 274 1
309 274 1
191 275 1
249 275 1
298 275 1
310 275 1
170 276 1
261 276 1
310 276 1
322 276 1
171 277 1
262 277 1
311 277 1
323 277 1
172 278 1
263 278 1
312 278 1
324 278 1
173 279 1
264 279 1
313 279 1
325 279 1
174 280 1
254 280 1
314 280 1
326 280 1
175 281 1
255 281 1
315 281 1
327 281 1
176 282 1
256 282 1
316 282 1
328 282 1
166 283 1
257 283 1
317 283 1
329 283 1
167 284 1
258 284 1
318 284 1
330 284 1
168 285 1
259 285 1
319 285 1
320 285 1
169 286 1
260 286 1
309 286 1
321 286 1
181 287 1
239 287 1
300 287 1
321 287 1
182 288 1
240 288 1
301 288 1
322 288 1
183 289 1
241 289 1
302 289 1
323 289 1
184 290 1
242 290 1
303 290 1
324 290 1
185 291 1
232 291 1
304 291 1
325 291 1
186 292 1
233 292 1
305 292 1
326 292 1
187 293 1
234 293 1
306 293 1
327 293 1
177 294 1
235 294 1
307 294 1
328 294 1
178 295 1
236 295 1
308 295 1
329 295 1
179 296 1
237 296 1
298 296 1
330 296 1
180 297 1
238 297 1
299 297 1
320 297 1
159 298 1
217 298 1
266 298 1
278 298 1
160 299 1
218 299 1
267 299 1
279 299 1
161 300 1
219 300 1
268 300 1
280 300 1
162 301 1
220 301 1
269 301 1
281 301 1
163 302 1
210 302 1
270 302 1
282 302 1
164 303 1
211 303 1
271 303 1
283 303 1
165 304 1
212 304 1
272 304 1
284 304 1
155 305 1
213 305 1
273 305 1
285 305 1
156 306 1
214 306 1
274 306 1
286 306 1
157 307 1
215 307 1
275 307 1
276 307 1
158 308 1
216 308 1
265 308 1
277 308 1
137 309 1
228 309 1
277 309 1
289 309 1
138 310 1
229 310 1
278 310 1
290 310 1
139 311 1
230 311 1
279 311 1
291 311 1
140 312 1
231 312 1
280 312 1
292 312 1
141 313 1
221 313 1
281 313 1
293 313 1
142 314 1
222 314 1
282 314 1
294 314 1
143 315 1
223 315 1
283 315 1
295 315 1
133 316 1
224 316 1
284 316 1
296 316 1
134 317 1
225 317 1
285 317 1
297 317 1
135 318 1
226 318 1
286 318 1
287 318 1
136 319 1
227 319 1
276 319 1
288 319 1
148 320 1
206 320 1
267 320 1
288 320 1
149 321 1
207 321 1
268 321 1
289 321 1
150 322 1
208 322 1
269 322 1
290 322 1
151 323 1
209 323 1
270 323 1
291 323 1
152 324 1
199 324 1
271 324 1
292 324 1
153 325 1
200 325 1
272 325 1
293 325 1
154 326 1
201 326 1
273 326 1
294 326 1
144 327 1
202 327 1
274 327 1
295 327 1
145 328 1
203 328 1
275 328 1
296 328 1
146 329 1
204 329 1
265 329 1
297 329 1
147 330 1
205 330 1
266 330 1
287 330 1
184 331 1
258 331 1
365 331 1
377 331 1
185 332 1
259 332 1
366 332 1
378 332 1
186 333 1
260 333 1
367 333 1
379 333 1
187 334 1
261 334 1
368 334 1
380 334 1
177 335 1
262 335 1
369 335 1
381 335 1
178 336 1
263 336 1
370 336 1
382 336 1
179 337 1
264 337 1
371 337 1
383 337 1
180 338 1
254 338 1
372 338 1
384 338 1
181 339 1
255 339 1
373 339 1
385 339 1
182 340 1
256 340 1
374 340 1
375 340 1
183 341 1
257 341 1
364 341 1
376 341 1
195 342 1
236 342 1
376 342 1
388 342 1
196 343 1
237 343 1
377 343 1
389 343 1
197 344 1
238 344 1
378 344 1
390 344 1
198 345 1
239 345 1
379 345 1
391 345 1
188 346 1
240 346 1
380 346 1
392 346 1
189 347 1
241 347 1
381 347 1
393 347 1
190 348 1
242 348 1
382 348 1
394 348 1
191 349 1
232 349 1
383 349 1
395 349 1
192 350 1
233 350 1
384 350 1
396 350 1
193 351 1
234 351 1
385 351 1
386 351 1
194 352 1
235 352 1
375 352 1
387 352 1
173 353 1
247 353 1
366 353 1
387 353 1
174 354 1
248 354 1
367 354 1
388 354 1
175 355 1
249 355 1
368 355 1
389 355 1
176 356 1
250 356 1
369 356 1
390 356 1
166 357 1
251 357 1
370 357 1
391 357 1
167 358 1
252 358 1
371 358 1
392 358 1
168 359 1
253 359 1
372 359 1
393 359 1
169 360 1
243 360 1
373 360 1
394 360 1
170 361 1
244 361 1
374 361 1
395 361 1
171 362 1
245 362 1
364 362 1
396 362 1
172 363 1
246 363 1
365 363 1
386 363 1
151 364 1
225 364 1
332 364 1
344 364 1
152 365 1
226 365 1
333 365 1
345 365 1
153 366 1
227 366 1
334 366 1
346 366 1
154 367 1
228 367 1
335 367 1
347 367 1
144 368 1
229 368 1
336 368 1
348 368 1
145 369 1
230 369 1
337 369 1
349 369 1
146 370 1
231 370 1
338 370 1
350 370 1
147 371 1
221 371 1
339 371 1
351 371 1
148 372 1
222 372 1
340 372 1
352 372 1
149 373 1
223 373 1
341 373 1
342 373 1
150 374 1
224 374 1
331 374 1
343 374 1
162 375 1
203 375 1
343 375 1
355 375 1
163 376 1
204 376 1
344 376 1
356 376 1
164 377 1
205 377 1
345 377 1
357 377 1
165 378 1
206 378 1
346 378 1
358 378 1
155 379 1
207 379 1
347 379 1
359 379 1
156 380 1
208 380 1
348 380 1
360 380 1
157 381 1
209 381 1
349 381 1
361 381 1
158 382 1
199 382 1
350 382 1
362 382 1
159 383 1
200 383 1
351 383 1
363 383 1
160 384 1
201 384 1
352 384 1
353 384 1
161 385 1
202 385 1
342 385 1
354 385 1
140 386 1
214 386 1
333 386 1
354 386 1
141 387 1
215 387 1
334 387 1
355 387 1
142 388 1
216 388 1
335 388 1
356 388 1
143 389 1
217 389 1
336 389 1
357 389 1
133 390 1
218 390 1
337 390 1
358 390 1
134 391 1
219 391 1
338 391 1
359 391 1
135 392 1
220 392 1
339 392 1
360 392 1
136 393 1
210 393 1
340 393 1
361 393 1
137 394 1
211 394 1
341 394 1
362 394 1
138 395 1
212 395 1
331 395 1
363 395 1
139 396 1
213 396 1
332 396 1
353 396 1
2 397 1
77 397 1
490 397 1
491 397 1
3 398 1
67 398 1
491 398 1
492 398 1
4 399 1
68 399 1
492 399 1
493 399 1
5 400 1
69 400 1
493 400 1
494 400 1
6 401 1
70 401 1
494 401 1
495 401 1
7 402 1
71 402 1
485 402 1
495 402 1
8 403 1
72 403 1
485 403 1
486 403 1
9 404 1
73 404 1
486 404 1
487 404 1
10 405 1
74 405 1
487 405 1
488 405 1
11 406 1
75 406 1
488 406 1
489 406 1
1 407 1
76 407 1
489 407 1
490 407 1
13 408 1
88 408 1
468 408 1
469 408 1
14 409 1
78 409 1
469 409 1
470 409 1
15 410 1
79 410 1
470 410 1
471 410 1
16 411 1
80 411 1
471 411 1
472 411 1
17 412 1
81 412 1
472 412 1
473 412 1
18 413 1
82 413 1
463 413 1
473 413 1
19 414 1
83 414 1
463 414 1
464 414 1
20 415 1
84 415 1
464 415 1
465 415 1
21 416 1
85 416 1
465 416 1
466 416 1
22 417 1
86 417 1
466 417 1
467 417 1
12 418 1
87 418 1
467 418 1
468 418 1
24 419 1
99 419 1
479 419 1
480 419 1
25 420 1
89 420 1
480 420 1
481 420 1
26 421 1
90 421 1
481 421 1
482 421 1
27 422 1
91 422 1
482 422 1
483 422 1
28 423 1
92 423 1
483 423 1
484 423 1
29 424 1
93 424 1
474 424 1
484 424 1
30 425 1
94 425 1
474 425 1
475 425 1
31 426 1
95 426 1
475 426 1
476 426 1
32 427 1
96 427 1
476 427 1
477 427 1
33 428 1
97 428 1
477 428 1
478 428 1
23 429 1
98 429 1
478 429 1
479 429 1
35 430 1
110 430 1
523 430 1
524 430 1
36 431 1
100 431 1
524 431 1
525 431 1
37 432 1
101 432 1
525 432 1
526 432 1
38 433 1
102 433 1
526 433 1
527 433 1
39 434 1
103 434 1
527 434 1
528 434 1
40 435 1
104 435 1
518 435 1
528 435 1
41 436 1
105 436 1
518 436 1
519 436 1
42 437 1
106 437 1
519 437 1
520 437 1
43 438 1
107 438 1
520 438 1
521 438 1
44 439 1
108 439 1
521 439 1
522 439 1
34 440 1
109 440 1
522 440 1
523 440 1
46 441 1
121 441 1
501 441 1
502 441 1
47 442 1
111 442 1
502 442 1
503 442 1
48 443 1
112 443 1
503 443 1
504 443 1
49 444 1
113 444 1
504 444 1
505 444 1
50 445 1
114 445 1
505 445 1
506 445 1
51 446 1
115 446 1
496 446 1
506 446 1
52 447 1
116 447 1
496 447 1
497 447 1
53 448 1
117 448 1
497 448 1
498 448 1
54 449 1
118 449 1
498 449 1
499 449 1
55 450 1
119 450 1
499 450 1
500 450 1
45 451 1
120 451 1
500 451 1
501 451 1
57 452 1
132 452 1
512 452 1
513 452 1
58 453 1
122 453 1
513 453 1
514 453 1
59 454 1
123 454 1
514 454 1
515 454 1
60 455 1
124 455 1
515 455 1
516 455 1
61 456 1
125 456 1
516 456 1
517 456 1
62 457 1
126 457 1
507 457 1
517 457 1
63 458 1
127 458 1
507 458 1
508 458 1
64 459 1
128 459 1
508 459 1
509 459 1
65 460 1
129 460 1
509 460 1
510 460 1
66 461 1
130 461 1
510 461 1
511 461 1
56 462 1
131 462 1
511 462 1
512 462 1
11 463 1
68 463 1
424 463 1
425 463 1
1 464 1
69 464 1
425 464 1
426 464 1
2 465 1
70 465 1
426 465 1
427 465 1
3 466 1
71 466 1
427 466 1
428 466 1
4 467 1
72 467 1
428 467 1
429 467 1
5 468 1
73 468 1
419 468 1
429 468 1
6 469 1
74 469 1
419 469 1
420 469 1
7 470 1
75 470 1
420 470 1
421 470 1
8 471 1
76 471 1
421 471 1
422 471 1
9 472 1
77 472 1
422 472 1
423 472 1
10 473 1
67 473 1
423 473 1
424 473 1
22 474 1
79 474 1
402 474 1
403 474 1
12 475 1
80 475 1
403 475 1
404 475 1
13 476 1
81 476 1
404 476 1
405 476 1
14 477 1
82 477 1
405 477 1
406 477 1
15 478 1
83 478 1
406 478 1
407 478 1
16 479 1
84 479 1
397 479 1
407 479 1
17 480 1
85 480 1
397 480 1
398 480 1
18 481 1
86 481 1
398 481 1
399 481 1
19 482 1
87 482 1
399 482 1
400 482 1
20 483 1
88 483 1
400 483 1
401 483 1
21 484 1
78 484 1
401 484 1
402 484 1
33 485 1
90 485 1
413 485 1
414 485 1
23 486 1
91 486 1
414 486 1
415 486 1
24 487 1
92 487 1
415 487 1
416 487 1
25 488 1
93 488 1
416 488 1
417 488 1
26 489 1
94 489 1
417 489 1
418 489 1
27 490 1
95 490 1
408 490 1
418 490 1
28 491 1
96 491 1
408 491 1
409 491 1
29 492 1
97 492 1
409 492 1
410 492 1
30 493 1
98 493 1
410 493 1
411 493 1
31 494 1
99 494 1
411 494 1
412 494 1
32 495 1
89 495 1
412 495 1
413 495 1
44 496 1
101 496 1
457 496 1
458 496 1
34 497 1
102 497 1
458 497 1
459 497 1
35 498 1
103 498 1
459 498 1
460 498 1
36 499 1
104 499 1
460 499 1
461 499 1
37 500 1
105 500 1
461 500 1
462 500 1
38 501 1
106 501 1
452 501 1
462 501 1
39 502 1
107 502 1
452 502 1
453 502 1
40 503 1
108 503 1
453 503 1
454 503 1
41 504 1
109 504 1
454 504 1
455 504 1
42 505 1
110 505 1
455 505 1
456 505 1
43 506 1
100 506 1
456 506 1
457 506 1
55 507 1
112 507 1
435 507 1
436 507 1
45 508 1
113 508 1
436 508 1
437 508 1
46 509 1
114 509 1
437 509 1
438 509 1
47 510 1
115 510 1
438 510 1
439 510 1
48 511 1
116 511 1
439 511 1
440 511 1
49 512 1
117 512 1
430 512 1
440 512 1
50 513 1
118 513 1
430 513 1
431 513 1
51 514 1
119 514 1
431 514 1
432 514 1
52 515 1
120 515 1
432 515 1
433 515 1
53 516 1
121 516 1
433 516 1
434 516 1
54 517 1
111 517 1
434 517 1
435 517 1
66 518 1
123 518 1
446 518 1
447 518 1
56 519 1
124 519 1
447 519 1
448 519 1
57 520 1
125 520 1
448 520 1
449 520 1
58 521 1
126 521 1
449 521 1
450 521 1
59 522 1
127 522 1
450 522 1
451 522 1
60 523 1
128 523 1
441 523 1
451 523 1
61 524 1
129 524 1
441 524 1
442 524 1
62 525 1
130 525 1
442 525 1
443 525 1
63 526 1
131 526 1
443 526 1
444 526 1
64 527 1
132 527 1
444 527 1
445 527 1
65 528 1
122 528 1
445 528 1
446 528 1
134 529 1
209 529 1
431 529 1
443 529 1
135 530 1
199 530 1
432 530 1
444 530 1
136 531 1
200 531 1
433 531 1
445 531 1
137 532 1
201 532 1
434 532 1
446 532 1
138 533 1
202 533 1
435 533 1
447 533 1
139 534 1
203 534 1
436 534 1
448 534 1
140 535 1
204 535 1
437 535 1
449 535 1
141 536 1
205 536 1
438 536 1
450 536 1
142 537 1
206 537 1
439 537 1
451 537 1
143 538 1
207 538 1
440 538 1
441 538 1
133 539 1
208 539 1
430 539 1
442 539 1
145 540 1
220 540 1
442 540 1
454 540 1
146 541 1
210 541 1
443 541 1
455 541 1
147 542 1
211 542 1
444 542 1
456 542 1
148 543 1
212 543 1
445 543 1
457 543 1
149 544 1
213 544 1
446 544 1
458 544 1
150 545 1
214 545 1
447 545 1
459 545 1
151 546 1
215 546 1
448 546 1
460 546 1
152 547 1
216 547 1
449 547 1
461 547 1
153 548 1
217 548 1
450 548 1
462 548 1
154 549 1
218 549 1
451 549 1
452 549 1
144 550 1
219 550 1
441 550 1
453 550 1
156 551 1
231 551 1
432 551 1
453 551 1
157 552 1
221 552 1
433 552 1
454 552 1
158 553 1
222 553 1
434 553 1
455 553 1
159 554 1
223 554 1
435 554 1
456 554 1
160 555 1
224 555 1
436 555 1
457 555 1
161 556 1
225 556 1
437 556 1
458 556 1
162 557 1
226 557 1
438 557 1
459 557 1
163 558 1
227 558 1
439 558 1
460 558 1
164 559 1
228 559 1
440 559 1
461 559 1
165 560 1
229 560 1
430 560 1
462 560 1
155 561 1
230 561 1
431 561 1
452 561 1
167 562 1
242 562 1
398 562 1
410 562 1
168 563 1
232 563 1
399 563 1
411 563 1
169 564 1
233 564 1
400 564 1
412 564 1
170 565 1
234 565 1
401 565 1
413 565 1
171 566 1
235 566 1
402 566 1
414 566 1
172 567 1
236 567 1
403 567 1
415 567 1
173 568 1
237 568 1
404 568 1
416 568 1
174 569 1
238 569 1
405 569 1
417 569 1
175 570 1
239 570 1
406 570 1
418 570 1
176 571 1
240 571 1
407 571 1
408 571 1
166 572 1
241 572 1
397 572 1
409 572 1
178 573 1
253 573 1
409 573 1
421 573 1
179 574 1
243 574 1
410 574 1
422 574 1
180 575 1
244 575 1
411 575 1
423 575 1
181 576 1
245 576 1
412 576 1
424 576 1
182 577 1
246 577 1
413 577 1
425 577 1
183 578 1
247 578 1
414 578 1
426 578 1
184 579 1
248 579 1
415 579 1
427 579 1
185 580 1
249 580 1
416 580 1
428 580 1
186 581 1
250 581 1
417 581 1
429 581 1
187 582 1
251 582 1
418 582 1
419 582 1
177 583 1
252 583 1
408 583 1
420 583 1
189 584 1
264 584 1
399 584 1
420 584 1
190 585 1
254 585 1
400 585 1
421 585 1
191 586 1
255 586 1
401 586 1
422 586 1
192 587 1
256 587 1
402 587 1
423 587 1
193 588 1
257 588 1
403 588 1
424 588 1
194 589 1
258 589 1
404 589 1
425 589 1
195 590 1
259 590 1
405 590 1
426 590 1
196 591 1
260 591 1
406 591 1
427 591 1
197 592 1
261 592 1
407 592 1
428 592 1
198 593 1
262 593 1
397 593 1
429 593 1
188 594 1
263 594 1
398 594 1
419 594 1
143 595 1
200 595 1
497 595 1
509 595 1
133 596 1
201 596 1
498 596 1
510 596 1
134 597 1
202 597 1
499 597 1
511 597 1
135 598 1
203 598 1
500 598 1
512 598 1
136 599 1
204 599 1
501 599 1
513 599 1
137 600 1
205 600 1
502 600 1
514 600 1
138 601 1
206 601 1
503 601 1
515 601 1
139 602 1
207 602 1
504 602 1
516 602 1
140 603 1
208 603 1
505 603 1
517 603 1
141 604 1
209 604 1
506 604 1
507 604 1
142 605 1
199 605 1
496 605 1
508 605 1
154 606 1
211 606 1
508 606 1
520 606 1
144 607 1
212 607 1
509 607 1
521 607 1
145 608 1
213 608 1
510 608 1
522 608 1
146 609 1
214 609 1
511 609 1
523 609 1
147 610 1
215 610 1
512 610 1
524 610 1
148 611 1
216 611 1
513 611 1
525 611 1
149 612 1
217 612 1
514 612 1
526 612 1
150 613 1
218 613 1
515 613 1
527 613 1
151 614 1
219 614 1
516 614 1
528 614 1
152 615 1
220 615 1
517 615 1
518 615 1
153 616 1
210 616 1
507 616 1
519 616 1
165 617 1
222 617 1
498 617 1
519 617 1
155 618 1
223 618 1
499 618 1
520 618 1
156 619 1
224 619 1
500 619 1
521 619 1
157 620 1
225 620 1
501 620 1
522 620 1
158 621 1
226 621 1
502 621 1
523 621 1
159 622 1
227 622 1
503 622 1
524 622 1
160 623 1
228 623 1
504 623 1
525 623 1
161 624 1
229 624 1
505 624 1
526 624 1
162 625 1
230 625 1
506 625 1
527 625 1
163 626 1
231 626 1
496 626 1
528 626 1
164 627 1
221 627 1
497 627 1
518 627 1
176 628 1
233 628 1
464 628 1
476 628 1
166 629 1
234 629 1
465 629 1
477 629 1
167 630 1
235 630 1
466 630 1
478 630 1
168 631 1
236 631 1
467 631 1
479 631 1
169 632 1
237 632 1
468 632 1
480 632 1
170 633 1
238 633 1
469 633 1
481 633 1
171 634 1
239 634 1
470 634 1
482 634 1
172 635 1
240 635 1
471 635 1
483 635 1
173 636 1
241 636 1
472 636 1
484 636 1
174 637 1
242 637 1
473 637 1
474 637 1
175 638 1
232 638 1
463 638 1
475 638 1
187 639 1
244 639 1
475 639 1
487 639 1
177 640 1
245 640 1
476 640 1
488 640 1
178 641 1
246 641 1
477 641 1
489 641 1
179 642 1
247 642 1
478 642 1
490 642 1
180 643 1
248 643 1
479 643 1
491 643 1
181 644 1
249 644 1
480 644 1
492 644 1
182 645 1
250 645 1
481 645 1
493 645 1
183 646 1
251 646 1
482 646 1
494 646 1
184 647 1
252 647 1
483 647 1
495 647 1
185 648 1
253 648 1
484 648 1
485 648 1
186 649 1
243 649 1
474 649 1
486 649 1
198 650 1
255 650 1
465 650 1
486 650 1
188 651 1
256 651 1
466 651 1
487 651 1
189 652 1
257 652 1
467 652 1
488 652 1
190 653 1
258 653 1
468 653 1
489 653 1
191 654 1
259 654 1
469 654 1
490 654 1
192 655 1
260 655 1
470 655 1
491 655 1
193 656 1
261 656 1
471 656 1
492 656 1
194 657 1
262 657 1
472 657 1
493 657 1
195 658 1
263 658 1
473 658 1
494 658 1
196 659 1
264 659 1
463 659 1
495 659 1
197 660 1
254 660 1
464 660 1
485 660 1
266 661 1
341 661 1
456 661 1
514 661 1
267 662 1
331 662 1
457 662 1
515 662 1
268 663 1
332 663 1
458 663 1
516 663 1
269 664 1
333 664 1
459 664 1
517 664 1
270 665 1
334 665 1
460 665 1
507 665 1
271 666 1
335 666 1
461 666 1
508 666 1
272 667 1
336 667 1
462 667 1
509 667 1
273 668 1
337 668 1
452 668 1
510 668 1
274 669 1
338 669 1
453 669 1
511 669 1
275 670 1
339 670 1
454 670 1
512 670 1
265 671 1
340 671 1
455 671 1
513 671 1
277 672 1
352 672 1
434 672 1
525 672 1
278 673 1
342 673 1
435 673 1
526 673 1
279 674 1
343 674 1
436 674 1
527 674 1
280 675 1
344 675 1
437 675 1
528 675 1
281 676 1
345 676 1
438 676 1
518 676 1
282 677 1
346 677 1
439 677 1
519 677 1
283 678 1
347 678 1
440 678 1
520 678 1
284 679 1
348 679 1
430 679 1
521 679 1
285 680 1
349 680 1
431 680 1
522 680 1
286 681 1
350 681 1
432 681 1
523 681 1
276 682 1
351 682 1
433 682 1
524 682 1
288 683 1
363 683 1
445 683 1
503 683 1
289 684 1
353 684 1
446 684 1
504 684 1
290 685 1
354 685 1
447 685 1
505 685 1
291 686 1
355 686 1
448 686 1
506 686 1
292 687 1
356 687 1
449 687 1
496 687 1
293 688 1
357 688 1
450 688 1
497 688 1
294 689 1
358 689 1
451 689 1
498 689 1
295 690 1
359 690 1
441 690 1
499 690 1
296 691 1
360 691 1
442 691 1
500 691 1
297 692 1
361 692 1
443 692 1
501 692 1
287 693 1
362 693 1
444 693 1
502 693 1
299 694 1
374 694 1
423 694 1
481 694 1
300 695 1
364 695 1
424 695 1
482 695 1
301 696 1
365 696 1
425 696 1
483 696 1
302 697 1
366 697 1
426 697 1
484 697 1
303 698 1
367 698 1
427 698 1
474 698 1
304 699 1
368 699 1
428 699 1
475 699 1
305 700 1
369 700 1
429 700 1
476 700 1
306 701 1
370 701 1
419 701 1
477 701 1
307 702 1
371 702 1
420 702 1
478 702 1
308 703 1
372 703 1
421 703 1
479 703 1
298 704 1
373 704 1
422 704 1
480 704 1
310 705 1
385 705 1
401 705 1
492 705 1
311 706 1
375 706 1
402 706 1
493 706 1
312 707 1
376 707 1
403 707 1
494 707 1
313 708 1
377 708 1
404 708 1
495 708 1
314 709 1
378 709 1
405 709 1
485 709 1
315 710 1
379 710 1
406 710 1
486 710 1
316 711 1
380 711 1
407 711 1
487 711 1
317 712 1
381 712 1
397 712 1
488 712 1
318 713 1
382 713 1
398 713 1
489 713 1
319 714 1
383 714 1
399 714 1
490 714 1
309 715 1
384 715 1
400 715 1
491 715 1
321 716 1
396 716 1
412 716 1
470 716 1
322 717 1
386 717 1
413 717 1
471 717 1
323 718 1
387 718 1
414 718 1
472 718 1
324 719 1
388 719 1
415 719 1
473 719 1
325 720 1
389 720 1
416 720 1
463 720 1
326 721 1
390 721 1
417 721 1
464 721 1
327 722 1
391 722 1
418 722 1
465 722 1
328 723 1
392 723 1
408 723 1
466 723 1
329 724 1
393 724 1
409 724 1
467 724 1
330 725 1
394 725 1
410 725 1
468 725 1
320 726 1
395 726 1
411 726 1
469 726 1
275 727 1
332 727 1
448 727 1
522 727 1
265 728 1
333 728 1
449 728 1
523 728 1
266 729 1
334 729 1
450 729 1
524 729 1
267 730 1
335 730 1
451 730 1
525 730 1
268 731 1
336 731 1
441 731 1
526 731 1
269 732 1
337 732 1
442 732 1
527 732 1
270 733 1
338 733 1
443 733 1
528 733 1
271 734 1
339 734 1
444 734 1
518 734 1
272 735 1
340 735 1
445 735 1
519 735 1
273 736 1
341 736 1
446 736 1
520 736 1
274 737 1
331 737 1
447 737 1
521 737 1
286 738 1
343 738 1
459 738 1
500 738 1
276 739 1
344 739 1
460 739 1
501 739 1
277 740 1
345 740 1
461 740 1
502 740 1
278 741 1
346 741 1
462 741 1
503 741 1
279 742 1
347 742 1
452 742 1
504 742 1
280 743 1
348 743 1
453 743 1
505 743 1
281 744 1
349 744 1
454 744 1
506 744 1
282 745 1
350 745 1
455 745 1
496 745 1
283 746 1
351 746 1
456 746 1
497 746 1
284 747 1
352 747 1
457 747 1
498 747 1
285 748 1
342 748 1
458 748 1
499 748 1
297 749 1
354 749 1
437 749 1
511 749 1
287 750 1
355 750 1
438 750 1
512 750 1
288 751 1
356 751 1
439 751 1
513 751 1
289 752 1
357 752 1
440 752 1
514 752 1
290 753 1
358 753 1
430 753 1
515 753 1
291 754 1
359 754 1
431 754 1
516 754 1
292 755 1
360 755 1
432 755 1
517 755 1
293 756 1
361 756 1
433 756 1
507 756 1
294 757 1
362 757 1
434 757 1
508 757 1
295 758 1
363 758 1
435 758 1
509 758 1
296 759 1
353 759 1
436 759 1
510 759 1
308 760 1
365 760 1
415 760 1
489 760 1
298 761 1
366 761 1
416 761 1
490 761 1
299 762 1
367 762 1
417 762 1
491 762 1
300 763 1
368 763 1
418 763 1
492 763 1
301 764 1
369 764 1
408 764 1
493 764 1
302 765 1
370 765 1
409 765 1
494 765 1
303 766 1
371 766 1
410 766 1
495 766 1
304 767 1
372 767 1
411 767 1
485 767 1
305 768 1
373 768 1
412 768 1
486 768 1
306 769 1
374 769 1
413 769 1
487 769 1
307 770 1
364 770 1
414 770 1
488 770 1
319 771 1
376 771 1
426 771 1
467 771 1
309 772 1
377 772 1
427 772 1
468 772 1
310 773 1
378 773 1
428 773 1
469 773 1
311 774 1
379 774 1
429 774 1
470 774 1
312 775 1
380 775 1
419 775 1
471 775 1
313 776 1
381 776 1
420 776 1
472 776 1
314 777 1
382 777 1
421 777 1
473 777 1
315 778 1
383 778 1
422 778 1
463 778 1
316 779 1
384 779 1
423 779 1
464 779 1
317 780 1
385 780 1
424 780 1
465 780 1
318 781 1
375 781 1
425 781 1
466 781 1
330 782 1
387 782 1
404 782 1
478 782 1
320 783 1
388 783 1
405 783 1
479 783 1
321 784 1
389 784 1
406 784 1
480 784 1
322 785 1
390 785 1
407 785 1
481 785 1
323 786 1
391 786 1
397 786 1
482 786 1
324 787 1
392 787 1
398 787 1
483 787 1
325 788 1
393 788 1
399 788 1
484 788 1
326 789 1
394 789 1
400 789 1
474 789 1
327 790 1
395 790 1
401 790 1
475 790 1
328 791 1
396 791 1
402 791 1
476 791 1
329 792 1
386 792 1
403 792 1
477 792 1
