%%MatrixMarket matrix coordinate integer general
% Binary matrix; one-based indices; arithmetic over GF(2)
265 530 2120
1 1 1
15 1 1
54 1 1
67 1 1
2 2 1
16 2 1
55 2 1
68 2 1
3 3 1
17 3 1
56 3 1
69 3 1
4 4 1
18 4 1
57 4 1
70 4 1
5 5 1
19 5 1
58 5 1
71 5 1
6 6 1
20 6 1
59 6 1
72 6 1
7 7 1
21 7 1
60 7 1
73 7 1
8 8 1
22 8 1
61 8 1
74 8 1
9 9 1
23 9 1
62 9 1
75 9 1
10 10 1
24 10 1
63 10 1
76 10 1
11 11 1
25 11 1
64 11 1
77 11 1
12 12 1
26 12 1
65 12 1
78 12 1
13 13 1
27 13 1
66 13 1
79 13 1
14 14 1
28 14 1
67 14 1
80 14 1
15 15 1
29 15 1
68 15 1
81 15 1
16 16 1
30 16 1
69 16 1
82 16 1
17 17 1
31 17 1
70 17 1
83 17 1
18 18 1
32 18 1
71 18 1
84 18 1
19 19 1
33 19 1
72 19 1
85 19 1
20 20 1
34 20 1
73 20 1
86 20 1
21 21 1
35 21 1
74 21 1
87 21 1
22 22 1
36 22 1
75 22 1
88 22 1
23 23 1
37 23 1
76 23 1
89 23 1
24 24 1
38 24 1
77 24 1
90 24 1
25 25 1
39 25 1
78 25 1
91 25 1
26 26 1
40 26 1
79 26 1
92 26 1
27 27 1
41 27 1
80 27 1
93 27 1
28 28 1
42 28 1
81 28 1
94 28 1
29 29 1
43 29 1
82 29 1
95 29 1
30 30 1
44 30 1
83 30 1
96 30 1
31 31 1
45 31 1
84 31 1
97 31 1
32 32 1
46 32 1
85 32 1
98 32 1
33 33 1
47 33 1
86 33 1
99 33 1
34 34 1
48 34 1
87 34 1
100 34 1
35 35 1
49 35 1
88 35 1
101 35 1
36 36 1
50 36 1
89 36 1
102 36 1
37 37 1
51 37 1
90 37 1
103 37 1
38 38 1
52 38 1
91 38 1
104 38 1
39 39 1
53 39 1
92 39 1
105 39 1
1 40 1
40 40 1
93 40 1
106 40 1
2 41 1
41 41 1
54 41 1
94 41 1
3 42 1
42 42 1
55 42 1
95 42 1
4 43 1
43 43 1
56 43 1
96 43 1
5 44 1
44 44 1
57 44 1
97 44 1
6 45 1
45 45 1
58 45 1
98 45 1
7 46 1
46 46 1
59 46 1
99 46 1
8 47 1
47 47 1
60 47 1
100 47 1
9 48 1
48 48 1
61 48 1
101 48 1
10 49 1
49 49 1
62 49 1
102 49 1
11 50 1
50 50 1
63 50 1
103 50 1
12 51 1
51 51 1
64 51 1
104 51 1
13 52 1
52 52 1
65 52 1
105 52 1
14 53 1
53 53 1
66 53 1
106 53 1
1 54 1
25 54 1
107 54 1
120 54 1
2 55 1
26 55 1
108 55 1
121 55 1
3 56 1
27 56 1
109 56 1
122 56 1
4 57 1
28 57 1
110 57 1
123 57 1
5 58 1
29 58 1
111 58 1
124 58 1
6 59 1
30 59 1
112 59 1
125 59 1
7 60 1
31 60 1
113 60 1
126 60 1
8 61 1
32 61 1
114 61 1
127 61 1
9 62 1
33 62 1
115 62 1
128 62 1
10 63 1
34 63 1
116 63 1
129 63 1
11 64 1
35 64 1
117 64 1
130 64 1
12 65 1
36 65 1
118 65 1
131 65 1
13 66 1
37 66 1
119 66 1
132 66 1
14 67 1
38 67 1
120 67 1
133 67 1
15 68 1
39 68 1
121 68 1
134 68 1
16 69 1
40 69 1
122 69 1
135 69 1
17 70 1
41 70 1
123 70 1
136 70 1
18 71 1
42 71 1
124 71 1
137 71 1
19 72 1
43 72 1
125 72 1
138 72 1
20 73 1
44 73 1
126 73 1
139 73 1
21 74 1
45 74 1
127 74 1
140 74 1
22 75 1
46 75 1
128 75 1
141 75 1
23 76 1
47 76 1
129 76 1
142 76 1
24 77 1
48 77 1
130 77 1
143 77 1
25 78 1
49 78 1
131 78 1
144 78 1
26 79 1
50 79 1
132 79 1
145 79 1
27 80 1
51 80 1
133 80 1
146 80 1
28 81 1
52 81 1
134 81 1
147 81 1
29 82 1
53 82 1
135 82 1
148 82 1
1 83 1
30 83 1
136 83 1
149 83 1
2 84 1
31 84 1
137 84 1
150 84 1
3 85 1
32 85 1
138 85 1
151 85 1
4 86 1
33 86 1
139 86 1
152 86 1
5 87 1
34 87 1
140 87 1
153 87 1
6 88 1
35 88 1
141 88 1
154 88 1
7 89 1
36 89 1
142 89 1
155 89 1
8 90 1
37 90 1
143 90 1
156 90 1
9 91 1
38 91 1
144 91 1
157 91 1
10 92 1
39 92 1
145 92 1
158 92 1
11 93 1
40 93 1
146 93 1
159 93 1
12 94 1
41 94 1
107 94 1
147 94 1
13 95 1
42 95 1
108 95 1
148 95 1
14 96 1
43 96 1
109 96 1
149 96 1
15 97 1
44 97 1
110 97 1
150 97 1
16 98 1
45 98 1
111 98 1
151 98 1
17 99 1
46 99 1
112 99 1
152 99 1
18 100 1
47 100 1
113 100 1
153 100 1
19 101 1
48 101 1
114 101 1
154 101 1
20 102 1
49 102 1
115 102 1
155 102 1
21 103 1
50 103 1
116 103 1
156 103 1
22 104 1
51 104 1
117 104 1
157 104 1
23 105 1
52 105 1
118 105 1
158 105 1
24 106 1
53 106 1
119 106 1
159 106 1
54 107 1
78 107 1
107 107 1
121 107 1
55 108 1
79 108 1
108 108 1
122 108 1
56 109 1
80 109 1
109 109 1
123 109 1
57 110 1
81 110 1
110 110 1
124 110 1
58 111 1
82 111 1
111 111 1
125 111 1
59 112 1
83 112 1
112 112 1
126 112 1
60 113 1
84 113 1
113 113 1
127 113 1
61 114 1
85 114 1
114 114 1
128 114 1
62 115 1
86 115 1
115 115 1
129 115 1
63 116 1
87 116 1
116 116 1
130 116 1
64 117 1
88 117 1
117 117 1
131 117 1
65 118 1
89 118 1
118 118 1
132 118 1
66 119 1
90 119 1
119 119 1
133 119 1
67 120 1
91 120 1
120 120 1
134 120 1
68 121 1
92 121 1
121 121 1
135 121 1
69 122 1
93 122 1
122 122 1
136 122 1
70 123 1
94 123 1
123 123 1
137 123 1
71 124 1
95 124 1
124 124 1
138 124 1
72 125 1
96 125 1
125 125 1
139 125 1
73 126 1
97 126 1
126 126 1
140 126 1
74 127 1
98 127 1
127 127 1
141 127 1
75 128 1
99 128 1
128 128 1
142 128 1
76 129 1
100 129 1
129 129 1
143 129 1
77 130 1
101 130 1
130 130 1
144 130 1
78 131 1
102 131 1
131 131 1
145 131 1
79 132 1
103 132 1
132 132 1
146 132 1
80 133 1
104 133 1
133 133 1
147 133 1
81 134 1
105 134 1
134 134 1
148 134 1
82 135 1
106 135 1
135 135 1
149 135 1
54 136 1
83 136 1
136 136 1
150 136 1
55 137 1
84 137 1
137 137 1
151 137 1
56 138 1
85 138 1
138 138 1
152 138 1
57 139 1
86 139 1
139 139 1
153 139 1
58 140 1
87 140 1
140 140 1
154 140 1
59 141 1
88 141 1
141 141 1
155 141 1
60 142 1
89 142 1
142 142 1
156 142 1
61 143 1
90 143 1
143 143 1
157 143 1
62 144 1
91 144 1
144 144 1
158 144 1
63 145 1
92 145 1
145 145 1
159 145 1
64 146 1
93 146 1
107 146 1
146 146 1
65 147 1
94 147 1
108 147 1
147 147 1
66 148 1
95 148 1
109 148 1
148 148 1
67 149 1
96 149 1
110 149 1
149 149 1
68 150 1
97 150 1
111 150 1
150 150 1
69 151 1
98 151 1
112 151 1
151 151 1
70 152 1
99 152 1
113 152 1
152 152 1
71 153 1
100 153 1
114 153 1
153 153 1
72 154 1
101 154 1
115 154 1
154 154 1
73 155 1
102 155 1
116 155 1
155 155 1
74 156 1
103 156 1
117 156 1
156 156 1
75 157 1
104 157 1
118 157 1
157 157 1
76 158 1
105 158 1
119 158 1
158 158 1
77 159 1
106 159 1
120 159 1
159 159 1
1 160 1
33 160 1
160 160 1
173 160 1
2 161 1
34 161 1
161 161 1
174 161 1
3 162 1
35 162 1
162 162 1
175 162 1
4 163 1
36 163 1
163 163 1
176 163 1
5 164 1
37 164 1
164 164 1
177 164 1
6 165 1
38 165 1
165 165 1
178 165 1
7 166 1
39 166 1
166 166 1
179 166 1
8 167 1
40 167 1
167 167 1
180 167 1
9 168 1
41 168 1
168 168 1
181 168 1
10 169 1
42 169 1
169 169 1
182 169 1
11 170 1
43 170 1
170 170 1
183 170 1
12 171 1
44 171 1
171 171 1
184 171 1
13 172 1
45 172 1
172 172 1
185 172 1
14 173 1
46 173 1
173 173 1
186 173 1
15 174 1
47 174 1
174 174 1
187 174 1
16 175 1
48 175 1
175 175 1
188 175 1
17 176 1
49 176 1
176 176 1
189 176 1
18 177 1
50 177 1
177 177 1
190 177 1
19 178 1
51 178 1
178 178 1
191 178 1
20 179 1
52 179 1
179 179 1
192 179 1
21 180 1
53 180 1
180 180 1
193 180 1
1 181 1
22 181 1
181 181 1
194 181 1
2 182 1
23 182 1
182 182 1
195 182 1
3 183 1
24 183 1
183 183 1
196 183 1
4 184 1
25 184 1
184 184 1
197 184 1
5 185 1
26 185 1
185 185 1
198 185 1
6 186 1
27 186 1
186 186 1
199 186 1
7 187 1
28 187 1
187 187 1
200 187 1
8 188 1
29 188 1
188 188 1
201 188 1
9 189 1
30 189 1
189 189 1
202 189 1
10 190 1
31 190 1
190 190 1
203 190 1
11 191 1
32 191 1
191 191 1
204 191 1
12 192 1
33 192 1
192 192 1
205 192 1
13 193 1
34 193 1
193 193 1
206 193 1
14 194 1
35 194 1
194 194 1
207 194 1
15 195 1
36 195 1
195 195 1
208 195 1
16 196 1
37 196 1
196 196 1
209 196 1
17 197 1
38 197 1
197 197 1
210 197 1
18 198 1
39 198 1
198 198 1
211 198 1
19 199 1
40 199 1
199 199 1
212 199 1
20 200 1
41 200 1
160 200 1
200 200 1
21 201 1
42 201 1
161 201 1
201 201 1
22 202 1
43 202 1
162 202 1
202 202 1
23 203 1
44 203 1
163 203 1
203 203 1
24 204 1
45 204 1
164 204 1
204 204 1
25 205 1
46 205 1
165 205 1
205 205 1
26 206 1
47 206 1
166 206 1
206 206 1
27 207 1
48 207 1
167 207 1
207 207 1
28 208 1
49 208 1
168 208 1
208 208 1
29 209 1
50 209 1
169 209 1
209 209 1
30 210 1
51 210 1
170 210 1
210 210 1
31 211 1
52 211 1
171 211 1
211 211 1
32 212 1
53 212 1
172 212 1
212 212 1
54 213 1
86 213 1
160 213 1
174 213 1
55 214 1
87 214 1
161 214 1
175 214 1
56 215 1
88 215 1
162 215 1
176 215 1
57 216 1
89 216 1
163 216 1
177 216 1
58 217 1
90 217 1
164 217 1
178 217 1
59 218 1
91 218 1
165 218 1
179 218 1
60 219 1
92 219 1
166 219 1
180 219 1
61 220 1
93 220 1
167 220 1
181 220 1
62 221 1
94 221 1
168 221 1
182 221 1
63 222 1
95 222 1
169 222 1
183 222 1
64 223 1
96 223 1
170 223 1
184 223 1
65 224 1
97 224 1
171 224 1
185 224 1
66 225 1
98 225 1
172 225 1
186 225 1
67 226 1
99 226 1
173 226 1
187 226 1
68 227 1
100 227 1
174 227 1
188 227 1
69 228 1
101 228 1
175 228 1
189 228 1
70 229 1
102 229 1
176 229 1
190 229 1
71 230 1
103 230 1
177 230 1
191 230 1
72 231 1
104 231 1
178 231 1
192 231 1
73 232 1
105 232 1
179 232 1
193 232 1
74 233 1
106 233 1
180 233 1
194 233 1
54 234 1
75 234 1
181 234 1
195 234 1
55 235 1
76 235 1
182 235 1
196 235 1
56 236 1
77 236 1
183 236 1
197 236 1
57 237 1
78 237 1
184 237 1
198 237 1
58 238 1
79 238 1
185 238 1
199 238 1
59 239 1
80 239 1
186 239 1
200 239 1
60 240 1
81 240 1
187 240 1
201 240 1
61 241 1
82 241 1
188 241 1
202 241 1
62 242 1
83 242 1
189 242 1
203 242 1
63 243 1
84 243 1
190 243 1
204 243 1
64 244 1
85 244 1
191 244 1
205 244 1
65 245 1
86 245 1
192 245 1
206 245 1
66 246 1
87 246 1
193 246 1
207 246 1
67 247 1
88 247 1
194 247 1
208 247 1
68 248 1
89 248 1
195 248 1
209 248 1
69 249 1
90 249 1
196 249 1
210 249 1
70 250 1
91 250 1
197 250 1
211 250 1
71 251 1
92 251 1
198 251 1
212 251 1
72 252 1
93 252 1
160 252 1
199 252 1
73 253 1
94 253 1
161 253 1
200 253 1
74 254 1
95 254 1
162 254 1
201 254 1
75 255 1
96 255 1
163 255 1
202 255 1
76 256 1
97 256 1
164 256 1
203 256 1
77 257 1
98 257 1
165 257 1
204 257 1
78 258 1
99 258 1
166 258 1
205 258 1
79 259 1
100 259 1
167 259 1
206 259 1
80 260 1
101 260 1
168 260 1
207 260 1
81 261 1
102 261 1
169 261 1
208 261 1
82 262 1
103 262 1
170 262 1
209 262 1
83 263 1
104 263 1
171 263 1
210 263 1
84 264 1
105 264 1
172 264 1
211 264 1
85 265 1
106 265 1
173 265 1
212 265 1
107 266 1
139 266 1
160 266 1
184 266 1
108 267 1
140 267 1
161 267 1
185 267 1
109 268 1
141 268 1
162 268 1
186 268 1
110 269 1
142 269 1
163 269 1
187 269 1
111 270 1
143 270 1
164 270 1
188 270 1
112 271 1
144 271 1
165 271 1
189 271 1
113 272 1
145 272 1
166 272 1
190 272 1
114 273 1
146 273 1
167 273 1
191 273 1
115 274 1
147 274 1
168 274 1
192 274 1
116 275 1
148 275 1
169 275 1
193 275 1
117 276 1
149 276 1
170 276 1
194 276 1
118 277 1
150 277 1
171 277 1
195 277 1
119 278 1
151 278 1
172 278 1
196 278 1
120 279 1
152 279 1
173 279 1
197 279 1
121 280 1
153 280 1
174 280 1
198 280 1
122 281 1
154 281 1
175 281 1
199 281 1
123 282 1
155 282 1
176 282 1
200 282 1
124 283 1
156 283 1
177 283 1
201 283 1
125 284 1
157 284 1
178 284 1
202 284 1
126 285 1
158 285 1
179 285 1
203 285 1
127 286 1
159 286 1
180 286 1
204 286 1
107 287 1
128 287 1
181 287 1
205 287 1
108 288 1
129 288 1
182 288 1
206 288 1
109 289 1
130 289 1
183 289 1
207 289 1
110 290 1
131 290 1
184 290 1
208 290 1
111 291 1
132 291 1
185 291 1
209 291 1
112 292 1
133 292 1
186 292 1
210 292 1
113 293 1
134 293 1
187 293 1
211 293 1
114 294 1
135 294 1
188 294 1
212 294 1
115 295 1
136 295 1
160 295 1
189 295 1
116 296 1
137 296 1
161 296 1
190 296 1
117 297 1
138 297 1
162 297 1
191 297 1
118 298 1
139 298 1
163 298 1
192 298 1
119 299 1
140 299 1
164 299 1
193 299 1
120 300 1
141 300 1
165 300 1
194 300 1
121 301 1
142 301 1
166 301 1
195 301 1
122 302 1
143 302 1
167 302 1
196 302 1
123 303 1
144 303 1
168 303 1
197 303 1
124 304 1
145 304 1
169 304 1
198 304 1
125 305 1
146 305 1
170 305 1
199 305 1
126 306 1
147 306 1
171 306 1
200 306 1
127 307 1
148 307 1
172 307 1
201 307 1
128 308 1
149 308 1
173 308 1
202 308 1
129 309 1
150 309 1
174 309 1
203 309 1
130 310 1
151 310 1
175 310 1
204 310 1
131 311 1
152 311 1
176 311 1
205 311 1
132 312 1
153 312 1
177 312 1
206 312 1
133 313 1
154 313 1
178 313 1
207 313 1
134 314 1
155 314 1
179 314 1
208 314 1
135 315 1
156 315 1
180 315 1
209 315 1
136 316 1
157 316 1
181 316 1
210 316 1
137 317 1
158 317 1
182 317 1
211 317 1
138 318 1
159 318 1
183 318 1
212 318 1
1 319 1
46 319 1
213 319 1
226 319 1
2 320 1
47 320 1
214 320 1
227 320 1
3 321 1
48 321 1
215 321 1
228 321 1
4 322 1
49 322 1
216 322 1
229 322 1
5 323 1
50 323 1
217 323 1
230 323 1
6 324 1
51 324 1
218 324 1
231 324 1
7 325 1
52 325 1
219 325 1
232 325 1
8 326 1
53 326 1
220 326 1
233 326 1
1 327 1
9 327 1
221 327 1
234 327 1
2 328 1
10 328 1
222 328 1
235 328 1
3 329 1
11 329 1
223 329 1
236 329 1
4 330 1
12 330 1
224 330 1
237 330 1
5 331 1
13 331 1
225 331 1
238 331 1
6 332 1
14 332 1
226 332 1
239 332 1
7 333 1
15 333 1
227 333 1
240 333 1
8 334 1
16 334 1
228 334 1
241 334 1
9 335 1
17 335 1
229 335 1
242 335 1
10 336 1
18 336 1
230 336 1
243 336 1
11 337 1
19 337 1
231 337 1
244 337 1
12 338 1
20 338 1
232 338 1
245 338 1
13 339 1
21 339 1
233 339 1
246 339 1
14 340 1
22 340 1
234 340 1
247 340 1
15 341 1
23 341 1
235 341 1
248 341 1
16 342 1
24 342 1
236 342 1
249 342 1
17 343 1
25 343 1
237 343 1
250 343 1
18 344 1
26 344 1
238 344 1
251 344 1
19 345 1
27 345 1
239 345 1
252 345 1
20 346 1
28 346 1
240 346 1
253 346 1
21 347 1
29 347 1
241 347 1
254 347 1
22 348 1
30 348 1
242 348 1
255 348 1
23 349 1
31 349 1
243 349 1
256 349 1
24 350 1
32 350 1
244 350 1
257 350 1
25 351 1
33 351 1
245 351 1
258 351 1
26 352 1
34 352 1
246 352 1
259 352 1
27 353 1
35 353 1
247 353 1
260 353 1
28 354 1
36 354 1
248 354 1
261 354 1
29 355 1
37 355 1
249 355 1
262 355 1
30 356 1
38 356 1
250 356 1
263 356 1
31 357 1
39 357 1
251 357 1
264 357 1
32 358 1
40 358 1
252 358 1
265 358 1
33 359 1
41 359 1
213 359 1
253 359 1
34 360 1
42 360 1
214 360 1
254 360 1
35 361 1
43 361 1
215 361 1
255 361 1
36 362 1
44 362 1
216 362 1
256 362 1
37 363 1
45 363 1
217 363 1
257 363 1
38 364 1
46 364 1
218 364 1
258 364 1
39 365 1
47 365 1
219 365 1
259 365 1
40 366 1
48 366 1
220 366 1
260 366 1
41 367 1
49 367 1
221 367 1
261 367 1
42 368 1
50 368 1
222 368 1
262 368 1
43 369 1
51 369 1
223 369 1
263 369 1
44 370 1
52 370 1
224 370 1
264 370 1
45 371 1
53 371 1
225 371 1
265 371 1
54 372 1
99 372 1
213 372 1
227 372 1
55 373 1
100 373 1
214 373 1
228 373 1
56 374 1
101 374 1
215 374 1
229 374 1
57 375 1
102 375 1
216 375 1
230 375 1
58 376 1
103 376 1
217 376 1
231 376 1
59 377 1
104 377 1
218 377 1
232 377 1
60 378 1
105 378 1
219 378 1
233 378 1
61 379 1
106 379 1
220 379 1
234 379 1
54 380 1
62 380 1
221 380 1
235 380 1
55 381 1
63 381 1
222 381 1
236 381 1
56 382 1
64 382 1
223 382 1
237 382 1
57 383 1
65 383 1
224 383 1
238 383 1
58 384 1
66 384 1
225 384 1
239 384 1
59 385 1
67 385 1
226 385 1
240 385 1
60 386 1
68 386 1
227 386 1
241 386 1
61 387 1
69 387 1
228 387 1
242 387 1
62 388 1
70 388 1
229 388 1
243 388 1
63 389 1
71 389 1
230 389 1
244 389 1
64 390 1
72 390 1
231 390 1
245 390 1
65 391 1
73 391 1
232 391 1
246 391 1
66 392 1
74 392 1
233 392 1
247 392 1
67 393 1
75 393 1
234 393 1
248 393 1
68 394 1
76 394 1
235 394 1
249 394 1
69 395 1
77 395 1
236 395 1
250 395 1
70 396 1
78 396 1
237 396 1
251 396 1
71 397 1
79 397 1
238 397 1
252 397 1
72 398 1
80 398 1
239 398 1
253 398 1
73 399 1
81 399 1
240 399 1
254 399 1
74 400 1
82 400 1
241 400 1
255 400 1
75 401 1
83 401 1
242 401 1
256 401 1
76 402 1
84 402 1
243 402 1
257 402 1
77 403 1
85 403 1
244 403 1
258 403 1
78 404 1
86 404 1
245 404 1
259 404 1
79 405 1
87 405 1
246 405 1
260 405 1
80 406 1
88 406 1
247 406 1
261 406 1
81 407 1
89 407 1
248 407 1
262 407 1
82 408 1
90 408 1
249 408 1
263 408 1
83 409 1
91 409 1
250 409 1
264 409 1
84 410 1
92 410 1
251 410 1
265 410 1
85 411 1
93 411 1
213 411 1
252 411 1
86 412 1
94 412 1
214 412 1
253 412 1
87 413 1
95 413 1
215 413 1
254 413 1
88 414 1
96 414 1
216 414 1
255 414 1
89 415 1
97 415 1
217 415 1
256 415 1
90 416 1
98 416 1
218 416 1
257 416 1
91 417 1
99 417 1
219 417 1
258 417 1
92 418 1
100 418 1
220 418 1
259 418 1
93 419 1
101 419 1
221 419 1
260 419 1
94 420 1
102 420 1
222 420 1
261 420 1
95 421 1
103 421 1
223 421 1
262 421 1
96 422 1
104 422 1
224 422 1
263 422 1
97 423 1
105 423 1
225 423 1
264 423 1
98 424 1
106 424 1
226 424 1
265 424 1
107 425 1
152 425 1
213 425 1
237 425 1
108 426 1
153 426 1
214 426 1
238 426 1
109 427 1
154 427 1
215 427 1
239 427 1
110 428 1
155 428 1
216 428 1
240 428 1
111 429 1
156 429 1
217 429 1
241 429 1
112 430 1
157 430 1
218 430 1
242 430 1
113 431 1
158 431 1
219 431 1
243 431 1
114 432 1
159 432 1
220 432 1
244 432 1
107 433 1
115 433 1
221 433 1
245 433 1
108 434 1
116 434 1
222 434 1
246 434 1
109 435 1
117 435 1
223 435 1
247 435 1
110 436 1
118 436 1
224 436 1
248 436 1
111 437 1
119 437 1
225 437 1
249 437 1
112 438 1
120 438 1
226 438 1
250 438 1
113 439 1
121 439 1
227 439 1
251 439 1
114 440 1
122 440 1
228 440 1
252 440 1
115 441 1
123 441 1
229 441 1
253 441 1
116 442 1
124 442 1
230 442 1
254 442 1
117 443 1
125 443 1
231 443 1
255 443 1
118 444 1
126 444 1
232 444 1
256 444 1
119 445 1
127 445 1
233 445 1
257 445 1
120 446 1
128 446 1
234 446 1
258 446 1
121 447 1
129 447 1
235 447 1
259 447 1
122 448 1
130 448 1
236 448 1
260 448 1
123 449 1
131 449 1
237 449 1
261 449 1
124 450 1
132 450 1
238 450 1
262 450 1
125 451 1
133 451 1
239 451 1
263 451 1
126 452 1
134 452 1
240 452 1
264 452 1
127 453 1
135 453 1
241 453 1
265 453 1
128 454 1
136 454 1
213 454 1
242 454 1
129 455 1
137 455 1
214 455 1
243 455 1
130 456 1
138 456 1
215 456 1
244 456 1
131 457 1
139 457 1
216 457 1
245 457 1
132 458 1
140 458 1
217 458 1
246 458 1
133 459 1
141 459 1
218 459 1
247 459 1
134 460 1
142 460 1
219 460 1
248 460 1
135 461 1
143 461 1
220 461 1
249 461 1
136 462 1
144 462 1
221 462 1
250 462 1
137 463 1
145 463 1
222 463 1
251 463 1
138 464 1
146 464 1
223 464 1
252 464 1
139 465 1
147 465 1
224 465 1
253 465 1
140 466 1
148 466 1
225 466 1
254 466 1
141 467 1
149 467 1
226 467 1
255 467 1
142 468 1
150 468 1
227 468 1
256 468 1
143 469 1
151 469 1
228 469 1
257 469 1
144 470 1
152 470 1
229 470 1
258 470 1
145 471 1
153 471 1
230 471 1
259 471 1
146 472 1
154 472 1
231 472 1
260 472 1
147 473 1
155 473 1
232 473 1
261 473 1
148 474 1
156 474 1
233 474 1
262 474 1
149 475 1
157 475 1
234 475 1
263 475 1
150 476 1
158 476 1
235 476 1
264 476 1
151 477 1
159 477 1
236 477 1
265 477 1
160 478 1
205 478 1
213 478 1
245 478 1
161 479 1
206 479 1
214 479 1
246 479 1
162 480 1
207 480 1
215 480 1
247 480 1
163 481 1
208 481 1
216 481 1
248 481 1
164 482 1
209 482 1
217 482 1
249 482 1
165 483 1
210 483 1
218 483 1
250 483 1
166 484 1
211 484 1
219 484 1
251 484 1
167 485 1
212 485 1
220 485 1
252 485 1
160 486 1
168 486 1
221 486 1
253 486 1
161 487 1
169 487 1
222 487 1
254 487 1
162 488 1
170 488 1
223 488 1
255 488 1
163 489 1
171 489 1
224 489 1
256 489 1
164 490 1
172 490 1
225 490 1
257 490 1
165 491 1
173 491 1
226 491 1
258 491 1
166 492 1
174 492 1
227 492 1
259 492 1
167 493 1
175 493 1
228 493 1
260 493 1
168 494 1
176 494 1
229 494 1
261 494 1
169 495 1
177 495 1
230 495 1
262 495 1
170 496 1
178 496 1
231 496 1
263 496 1
171 497 1
179 497 1
232 497 1
264 497 1
172 498 1
180 498 1
233 498 1
265 498 1
173 499 1
181 499 1
213 499 1
234 499 1
174 500 1
182 500 1
214 500 1
235 500 1
175 501 1
183 501 1
215 501 1
236 501 1
176 502 1
184 502 1
216 502 1
237 502 1
177 503 1
185 503 1
217 503 1
238 503 1
178 504 1
186 504 1
218 504 1
239 504 1
179 505 1
187 505 1
219 505 1
240 505 1
180 506 1
188 506 1
220 506 1
241 506 1
181 507 1
189 507 1
221 507 1
242 507 1
182 508 1
190 508 1
222 508 1
243 508 1
183 509 1
191 509 1
223 509 1
244 509 1
184 510 1
192 510 1
224 510 1
245 510 1
185 511 1
193 511 1
225 511 1
246 511 1
186 512 1
194 512 1
226 512 1
247 512 1
187 513 1
195 513 1
227 513 1
248 513 1
188 514 1
196 514 1
228 514 1
249 514 1
189 515 1
197 515 1
229 515 1
250 515 1
190 516 1
198 516 1
230 516 1
251 516 1
191 517 1
199 517 1
231 517 1
252 517 1
192 518 1
200 518 1
232 518 1
253 518 1
193 519 1
201 519 1
233 519 1
254 519 1
194 520 1
202 520 1
234 520 1
255 520 1
195 521 1
203 521 1
235 521 1
256 521 1
196 522 1
204 522 1
236 522 1
257 522 1
197 523 1
205 523 1
237 523 1
258 523 1
198 524 1
206 524 1
238 524 1
259 524 1
199 525 1
207 525 1
239 525 1
260 525 1
200 526 1
208 526 1
240 526 1
261 526 1
201 527 1
209 527 1
241 527 1
262 527 1
202 528 1
210 528 1
242 528 1
263 528 1
203 529 1
211 529 1
243 529 1
264 529 1
204 530 1
212 530 1
244 530 1
265 530 1
