%%MatrixMarket matrix coordinate integer general
% Binary matrix; one-based indices; arithmetic over GF(2)
630 1050 6300
1 1 1
10 1 1
31 1 1
37 1 1
61 1 1
62 1 1
2 2 1
11 2 1
32 2 1
38 2 1
62 2 1
63 2 1
3 3 1
12 3 1
33 3 1
39 3 1
63 3 1
64 3 1
4 4 1
13 4 1
34 4 1
40 4 1
64 4 1
65 4 1
5 5 1
14 5 1
35 5 1
41 5 1
65 5 1
66 5 1
6 6 1
15 6 1
36 6 1
42 6 1
66 6 1
67 6 1
7 7 1
16 7 1
37 7 1
43 7 1
67 7 1
68 7 1
8 8 1
17 8 1
38 8 1
44 8 1
68 8 1
69 8 1
9 9 1
18 9 1
39 9 1
45 9 1
69 9 1
70 9 1
10 10 1
19 10 1
40 10 1
46 10 1
70 10 1
71 10 1
11 11 1
20 11 1
41 11 1
47 11 1
71 11 1
72 11 1
12 12 1
21 12 1
42 12 1
48 12 1
72 12 1
73 12 1
13 13 1
22 13 1
43 13 1
49 13 1
73 13 1
74 13 1
14 14 1
23 14 1
44 14 1
50 14 1
74 14 1
75 14 1
15 15 1
24 15 1
45 15 1
51 15 1
75 15 1
76 15 1
16 16 1
25 16 1
46 16 1
52 16 1
76 16 1
77 16 1
17 17 1
26 17 1
47 17 1
53 17 1
77 17 1
78 17 1
18 18 1
27 18 1
48 18 1
54 18 1
78 18 1
79 18 1
19 19 1
28 19 1
49 19 1
55 19 1
79 19 1
80 19 1
20 20 1
29 20 1
50 20 1
56 20 1
80 20 1
81 20 1
21 21 1
30 21 1
51 21 1
57 21 1
81 21 1
82 21 1
1 22 1
22 22 1
52 22 1
58 22 1
82 22 1
83 22 1
2 23 1
23 23 1
53 23 1
59 23 1
83 23 1
84 23 1
3 24 1
24 24 1
54 24 1
60 24 1
84 24 1
85 24 1
4 25 1
25 25 1
31 25 1
55 25 1
85 25 1
86 25 1
5 26 1
26 26 1
32 26 1
56 26 1
86 26 1
87 26 1
6 27 1
27 27 1
33 27 1
57 27 1
87 27 1
88 27 1
7 28 1
28 28 1
34 28 1
58 28 1
88 28 1
89 28 1
8 29 1
29 29 1
35 29 1
59 29 1
89 29 1
90 29 1
9 30 1
30 30 1
36 30 1
60 30 1
61 30 1
90 30 1
1 31 1
18 31 1
91 31 1
97 31 1
121 31 1
122 31 1
2 32 1
19 32 1
92 32 1
98 32 1
122 32 1
123 32 1
3 33 1
20 33 1
93 33 1
99 33 1
123 33 1
124 33 1
4 34 1
21 34 1
94 34 1
100 34 1
124 34 1
125 34 1
5 35 1
22 35 1
95 35 1
101 35 1
125 35 1
126 35 1
6 36 1
23 36 1
96 36 1
102 36 1
126 36 1
127 36 1
7 37 1
24 37 1
97 37 1
103 37 1
127 37 1
128 37 1
8 38 1
25 38 1
98 38 1
104 38 1
128 38 1
129 38 1
9 39 1
26 39 1
99 39 1
105 39 1
129 39 1
130 39 1
10 40 1
27 40 1
100 40 1
106 40 1
130 40 1
131 40 1
11 41 1
28 41 1
101 41 1
107 41 1
131 41 1
132 41 1
12 42 1
29 42 1
102 42 1
108 42 1
132 42 1
133 42 1
13 43 1
30 43 1
103 43 1
109 43 1
133 43 1
134 43 1
1 44 1
14 44 1
104 44 1
110 44 1
134 44 1
135 44 1
2 45 1
15 45 1
105 45 1
111 45 1
135 45 1
136 45 1
3 46 1
16 46 1
106 46 1
112 46 1
136 46 1
137 46 1
4 47 1
17 47 1
107 47 1
113 47 1
137 47 1
138 47 1
5 48 1
18 48 1
108 48 1
114 48 1
138 48 1
139 48 1
6 49 1
19 49 1
109 49 1
115 49 1
139 49 1
140 49 1
7 50 1
20 50 1
110 50 1
116 50 1
140 50 1
141 50 1
8 51 1
21 51 1
111 51 1
117 51 1
141 51 1
142 51 1
9 52 1
22 52 1
112 52 1
118 52 1
142 52 1
143 52 1
10 53 1
23 53 1
113 53 1
119 53 1
143 53 1
144 53 1
11 54 1
24 54 1
114 54 1
120 54 1
144 54 1
145 54 1
12 55 1
25 55 1
91 55 1
115 55 1
145 55 1
146 55 1
13 56 1
26 56 1
92 56 1
116 56 1
146 56 1
147 56 1
14 57 1
27 57 1
93 57 1
117 57 1
147 57 1
148 57 1
15 58 1
28 58 1
94 58 1
118 58 1
148 58 1
149 58 1
16 59 1
29 59 1
95 59 1
119 59 1
149 59 1
150 59 1
17 60 1
30 60 1
96 60 1
120 60 1
121 60 1
150 60 1
31 61 1
48 61 1
91 61 1
100 61 1
151 61 1
152 61 1
32 62 1
49 62 1
92 62 1
101 62 1
152 62 1
153 62 1
33 63 1
50 63 1
93 63 1
102 63 1
153 63 1
154 63 1
34 64 1
51 64 1
94 64 1
103 64 1
154 64 1
155 64 1
35 65 1
52 65 1
95 65 1
104 65 1
155 65 1
156 65 1
36 66 1
53 66 1
96 66 1
105 66 1
156 66 1
157 66 1
37 67 1
54 67 1
97 67 1
106 67 1
157 67 1
158 67 1
38 68 1
55 68 1
98 68 1
107 68 1
158 68 1
159 68 1
39 69 1
56 69 1
99 69 1
108 69 1
159 69 1
160 69 1
40 70 1
57 70 1
100 70 1
109 70 1
160 70 1
161 70 1
41 71 1
58 71 1
101 71 1
110 71 1
161 71 1
162 71 1
42 72 1
59 72 1
102 72 1
111 72 1
162 72 1
163 72 1
43 73 1
60 73 1
103 73 1
112 73 1
163 73 1
164 73 1
31 74 1
44 74 1
104 74 1
113 74 1
164 74 1
165 74 1
32 75 1
45 75 1
105 75 1
114 75 1
165 75 1
166 75 1
33 76 1
46 76 1
106 76 1
115 76 1
166 76 1
167 76 1
34 77 1
47 77 1
107 77 1
116 77 1
167 77 1
168 77 1
35 78 1
48 78 1
108 78 1
117 78 1
168 78 1
169 78 1
36 79 1
49 79 1
109 79 1
118 79 1
169 79 1
170 79 1
37 80 1
50 80 1
110 80 1
119 80 1
170 80 1
171 80 1
38 81 1
51 81 1
111 81 1
120 81 1
171 81 1
172 81 1
39 82 1
52 82 1
91 82 1
112 82 1
172 82 1
173 82 1
40 83 1
53 83 1
92 83 1
113 83 1
173 83 1
174 83 1
41 84 1
54 84 1
93 84 1
114 84 1
174 84 1
175 84 1
42 85 1
55 85 1
94 85 1
115 85 1
175 85 1
176 85 1
43 86 1
56 86 1
95 86 1
116 86 1
176 86 1
177 86 1
44 87 1
57 87 1
96 87 1
117 87 1
177 87 1
178 87 1
45 88 1
58 88 1
97 88 1
118 88 1
178 88 1
179 88 1
46 89 1
59 89 1
98 89 1
119 89 1
179 89 1
180 89 1
47 90 1
60 90 1
99 90 1
120 90 1
151 90 1
180 90 1
61 91 1
78 91 1
121 91 1
130 91 1
151 91 1
157 91 1
62 92 1
79 92 1
122 92 1
131 92 1
152 92 1
158 92 1
63 93 1
80 93 1
123 93 1
132 93 1
153 93 1
159 93 1
64 94 1
81 94 1
124 94 1
133 94 1
154 94 1
160 94 1
65 95 1
82 95 1
125 95 1
134 95 1
155 95 1
161 95 1
66 96 1
83 96 1
126 96 1
135 96 1
156 96 1
162 96 1
67 97 1
84 97 1
127 97 1
136 97 1
157 97 1
163 97 1
68 98 1
85 98 1
128 98 1
137 98 1
158 98 1
164 98 1
69 99 1
86 99 1
129 99 1
138 99 1
159 99 1
165 99 1
70 100 1
87 100 1
130 100 1
139 100 1
160 100 1
166 100 1
71 101 1
88 101 1
131 101 1
140 101 1
161 101 1
167 101 1
72 102 1
89 102 1
132 102 1
141 102 1
162 102 1
168 102 1
73 103 1
90 103 1
133 103 1
142 103 1
163 103 1
169 103 1
61 104 1
74 104 1
134 104 1
143 104 1
164 104 1
170 104 1
62 105 1
75 105 1
135 105 1
144 105 1
165 105 1
171 105 1
63 106 1
76 106 1
136 106 1
145 106 1
166 106 1
172 106 1
64 107 1
77 107 1
137 107 1
146 107 1
167 107 1
173 107 1
65 108 1
78 108 1
138 108 1
147 108 1
168 108 1
174 108 1
66 109 1
79 109 1
139 109 1
148 109 1
169 109 1
175 109 1
67 110 1
80 110 1
140 110 1
149 110 1
170 110 1
176 110 1
68 111 1
81 111 1
141 111 1
150 111 1
171 111 1
177 111 1
69 112 1
82 112 1
121 112 1
142 112 1
172 112 1
178 112 1
70 113 1
83 113 1
122 113 1
143 113 1
173 113 1
179 113 1
71 114 1
84 114 1
123 114 1
144 114 1
174 114 1
180 114 1
72 115 1
85 115 1
124 115 1
145 115 1
151 115 1
175 115 1
73 116 1
86 116 1
125 116 1
146 116 1
152 116 1
176 116 1
74 117 1
87 117 1
126 117 1
147 117 1
153 117 1
177 117 1
75 118 1
88 118 1
127 118 1
148 118 1
154 118 1
178 118 1
76 119 1
89 119 1
128 119 1
149 119 1
155 119 1
179 119 1
77 120 1
90 120 1
129 120 1
150 120 1
156 120 1
180 120 1
1 121 1
24 121 1
181 121 1
187 121 1
211 121 1
212 121 1
2 122 1
25 122 1
182 122 1
188 122 1
212 122 1
213 122 1
3 123 1
26 123 1
183 123 1
189 123 1
213 123 1
214 123 1
4 124 1
27 124 1
184 124 1
190 124 1
214 124 1
215 124 1
5 125 1
28 125 1
185 125 1
191 125 1
215 125 1
216 125 1
6 126 1
29 126 1
186 126 1
192 126 1
216 126 1
217 126 1
7 127 1
30 127 1
187 127 1
193 127 1
217 127 1
218 127 1
1 128 1
8 128 1
188 128 1
194 128 1
218 128 1
219 128 1
2 129 1
9 129 1
189 129 1
195 129 1
219 129 1
220 129 1
3 130 1
10 130 1
190 130 1
196 130 1
220 130 1
221 130 1
4 131 1
11 131 1
191 131 1
197 131 1
221 131 1
222 131 1
5 132 1
12 132 1
192 132 1
198 132 1
222 132 1
223 132 1
6 133 1
13 133 1
193 133 1
199 133 1
223 133 1
224 133 1
7 134 1
14 134 1
194 134 1
200 134 1
224 134 1
225 134 1
8 135 1
15 135 1
195 135 1
201 135 1
225 135 1
226 135 1
9 136 1
16 136 1
196 136 1
202 136 1
226 136 1
227 136 1
10 137 1
17 137 1
197 137 1
203 137 1
227 137 1
228 137 1
11 138 1
18 138 1
198 138 1
204 138 1
228 138 1
229 138 1
12 139 1
19 139 1
199 139 1
205 139 1
229 139 1
230 139 1
13 140 1
20 140 1
200 140 1
206 140 1
230 140 1
231 140 1
14 141 1
21 141 1
201 141 1
207 141 1
231 141 1
232 141 1
15 142 1
22 142 1
202 142 1
208 142 1
232 142 1
233 142 1
16 143 1
23 143 1
203 143 1
209 143 1
233 143 1
234 143 1
17 144 1
24 144 1
204 144 1
210 144 1
234 144 1
235 144 1
18 145 1
25 145 1
181 145 1
205 145 1
235 145 1
236 145 1
19 146 1
26 146 1
182 146 1
206 146 1
236 146 1
237 146 1
20 147 1
27 147 1
183 147 1
207 147 1
237 147 1
238 147 1
21 148 1
28 148 1
184 148 1
208 148 1
238 148 1
239 148 1
22 149 1
29 149 1
185 149 1
209 149 1
239 149 1
240 149 1
23 150 1
30 150 1
186 150 1
210 150 1
211 150 1
240 150 1
31 151 1
54 151 1
181 151 1
190 151 1
241 151 1
242 151 1
32 152 1
55 152 1
182 152 1
191 152 1
242 152 1
243 152 1
33 153 1
56 153 1
183 153 1
192 153 1
243 153 1
244 153 1
34 154 1
57 154 1
184 154 1
193 154 1
244 154 1
245 154 1
35 155 1
58 155 1
185 155 1
194 155 1
245 155 1
246 155 1
36 156 1
59 156 1
186 156 1
195 156 1
246 156 1
247 156 1
37 157 1
60 157 1
187 157 1
196 157 1
247 157 1
248 157 1
31 158 1
38 158 1
188 158 1
197 158 1
248 158 1
249 158 1
32 159 1
39 159 1
189 159 1
198 159 1
249 159 1
250 159 1
33 160 1
40 160 1
190 160 1
199 160 1
250 160 1
251 160 1
34 161 1
41 161 1
191 161 1
200 161 1
251 161 1
252 161 1
35 162 1
42 162 1
192 162 1
201 162 1
252 162 1
253 162 1
36 163 1
43 163 1
193 163 1
202 163 1
253 163 1
254 163 1
37 164 1
44 164 1
194 164 1
203 164 1
254 164 1
255 164 1
38 165 1
45 165 1
195 165 1
204 165 1
255 165 1
256 165 1
39 166 1
46 166 1
196 166 1
205 166 1
256 166 1
257 166 1
40 167 1
47 167 1
197 167 1
206 167 1
257 167 1
258 167 1
41 168 1
48 168 1
198 168 1
207 168 1
258 168 1
259 168 1
42 169 1
49 169 1
199 169 1
208 169 1
259 169 1
260 169 1
43 170 1
50 170 1
200 170 1
209 170 1
260 170 1
261 170 1
44 171 1
51 171 1
201 171 1
210 171 1
261 171 1
262 171 1
45 172 1
52 172 1
181 172 1
202 172 1
262 172 1
263 172 1
46 173 1
53 173 1
182 173 1
203 173 1
263 173 1
264 173 1
47 174 1
54 174 1
183 174 1
204 174 1
264 174 1
265 174 1
48 175 1
55 175 1
184 175 1
205 175 1
265 175 1
266 175 1
49 176 1
56 176 1
185 176 1
206 176 1
266 176 1
267 176 1
50 177 1
57 177 1
186 177 1
207 177 1
267 177 1
268 177 1
51 178 1
58 178 1
187 178 1
208 178 1
268 178 1
269 178 1
52 179 1
59 179 1
188 179 1
209 179 1
269 179 1
270 179 1
53 180 1
60 180 1
189 180 1
210 180 1
241 180 1
270 180 1
61 181 1
84 181 1
211 181 1
220 181 1
241 181 1
247 181 1
62 182 1
85 182 1
212 182 1
221 182 1
242 182 1
248 182 1
63 183 1
86 183 1
213 183 1
222 183 1
243 183 1
249 183 1
64 184 1
87 184 1
214 184 1
223 184 1
244 184 1
250 184 1
65 185 1
88 185 1
215 185 1
224 185 1
245 185 1
251 185 1
66 186 1
89 186 1
216 186 1
225 186 1
246 186 1
252 186 1
67 187 1
90 187 1
217 187 1
226 187 1
247 187 1
253 187 1
61 188 1
68 188 1
218 188 1
227 188 1
248 188 1
254 188 1
62 189 1
69 189 1
219 189 1
228 189 1
249 189 1
255 189 1
63 190 1
70 190 1
220 190 1
229 190 1
250 190 1
256 190 1
64 191 1
71 191 1
221 191 1
230 191 1
251 191 1
257 191 1
65 192 1
72 192 1
222 192 1
231 192 1
252 192 1
258 192 1
66 193 1
73 193 1
223 193 1
232 193 1
253 193 1
259 193 1
67 194 1
74 194 1
224 194 1
233 194 1
254 194 1
260 194 1
68 195 1
75 195 1
225 195 1
234 195 1
255 195 1
261 195 1
69 196 1
76 196 1
226 196 1
235 196 1
256 196 1
262 196 1
70 197 1
77 197 1
227 197 1
236 197 1
257 197 1
263 197 1
71 198 1
78 198 1
228 198 1
237 198 1
258 198 1
264 198 1
72 199 1
79 199 1
229 199 1
238 199 1
259 199 1
265 199 1
73 200 1
80 200 1
230 200 1
239 200 1
260 200 1
266 200 1
74 201 1
81 201 1
231 201 1
240 201 1
261 201 1
267 201 1
75 202 1
82 202 1
211 202 1
232 202 1
262 202 1
268 202 1
76 203 1
83 203 1
212 203 1
233 203 1
263 203 1
269 203 1
77 204 1
84 204 1
213 204 1
234 204 1
264 204 1
270 204 1
78 205 1
85 205 1
214 205 1
235 205 1
241 205 1
265 205 1
79 206 1
86 206 1
215 206 1
236 206 1
242 206 1
266 206 1
80 207 1
87 207 1
216 207 1
237 207 1
243 207 1
267 207 1
81 208 1
88 208 1
217 208 1
238 208 1
244 208 1
268 208 1
82 209 1
89 209 1
218 209 1
239 209 1
245 209 1
269 209 1
83 210 1
90 210 1
219 210 1
240 210 1
246 210 1
270 210 1
91 211 1
114 211 1
181 211 1
198 211 1
271 211 1
272 211 1
92 212 1
115 212 1
182 212 1
199 212 1
272 212 1
273 212 1
93 213 1
116 213 1
183 213 1
200 213 1
273 213 1
274 213 1
94 214 1
117 214 1
184 214 1
201 214 1
274 214 1
275 214 1
95 215 1
118 215 1
185 215 1
202 215 1
275 215 1
276 215 1
96 216 1
119 216 1
186 216 1
203 216 1
276 216 1
277 216 1
97 217 1
120 217 1
187 217 1
204 217 1
277 217 1
278 217 1
91 218 1
98 218 1
188 218 1
205 218 1
278 218 1
279 218 1
92 219 1
99 219 1
189 219 1
206 219 1
279 219 1
280 219 1
93 220 1
100 220 1
190 220 1
207 220 1
280 220 1
281 220 1
94 221 1
101 221 1
191 221 1
208 221 1
281 221 1
282 221 1
95 222 1
102 222 1
192 222 1
209 222 1
282 222 1
283 222 1
96 223 1
103 223 1
193 223 1
210 223 1
283 223 1
284 223 1
97 224 1
104 224 1
181 224 1
194 224 1
284 224 1
285 224 1
98 225 1
105 225 1
182 225 1
195 225 1
285 225 1
286 225 1
99 226 1
106 226 1
183 226 1
196 226 1
286 226 1
287 226 1
100 227 1
107 227 1
184 227 1
197 227 1
287 227 1
288 227 1
101 228 1
108 228 1
185 228 1
198 228 1
288 228 1
289 228 1
102 229 1
109 229 1
186 229 1
199 229 1
289 229 1
290 229 1
103 230 1
110 230 1
187 230 1
200 230 1
290 230 1
291 230 1
104 231 1
111 231 1
188 231 1
201 231 1
291 231 1
292 231 1
105 232 1
112 232 1
189 232 1
202 232 1
292 232 1
293 232 1
106 233 1
113 233 1
190 233 1
203 233 1
293 233 1
294 233 1
107 234 1
114 234 1
191 234 1
204 234 1
294 234 1
295 234 1
108 235 1
115 235 1
192 235 1
205 235 1
295 235 1
296 235 1
109 236 1
116 236 1
193 236 1
206 236 1
296 236 1
297 236 1
110 237 1
117 237 1
194 237 1
207 237 1
297 237 1
298 237 1
111 238 1
118 238 1
195 238 1
208 238 1
298 238 1
299 238 1
112 239 1
119 239 1
196 239 1
209 239 1
299 239 1
300 239 1
113 240 1
120 240 1
197 240 1
210 240 1
271 240 1
300 240 1
121 241 1
144 241 1
211 241 1
228 241 1
271 241 1
277 241 1
122 242 1
145 242 1
212 242 1
229 242 1
272 242 1
278 242 1
123 243 1
146 243 1
213 243 1
230 243 1
273 243 1
279 243 1
124 244 1
147 244 1
214 244 1
231 244 1
274 244 1
280 244 1
125 245 1
148 245 1
215 245 1
232 245 1
275 245 1
281 245 1
126 246 1
149 246 1
216 246 1
233 246 1
276 246 1
282 246 1
127 247 1
150 247 1
217 247 1
234 247 1
277 247 1
283 247 1
121 248 1
128 248 1
218 248 1
235 248 1
278 248 1
284 248 1
122 249 1
129 249 1
219 249 1
236 249 1
279 249 1
285 249 1
123 250 1
130 250 1
220 250 1
237 250 1
280 250 1
286 250 1
124 251 1
131 251 1
221 251 1
238 251 1
281 251 1
287 251 1
125 252 1
132 252 1
222 252 1
239 252 1
282 252 1
288 252 1
126 253 1
133 253 1
223 253 1
240 253 1
283 253 1
289 253 1
127 254 1
134 254 1
211 254 1
224 254 1
284 254 1
290 254 1
128 255 1
135 255 1
212 255 1
225 255 1
285 255 1
291 255 1
129 256 1
136 256 1
213 256 1
226 256 1
286 256 1
292 256 1
130 257 1
137 257 1
214 257 1
227 257 1
287 257 1
293 257 1
131 258 1
138 258 1
215 258 1
228 258 1
288 258 1
294 258 1
132 259 1
139 259 1
216 259 1
229 259 1
289 259 1
295 259 1
133 260 1
140 260 1
217 260 1
230 260 1
290 260 1
296 260 1
134 261 1
141 261 1
218 261 1
231 261 1
291 261 1
297 261 1
135 262 1
142 262 1
219 262 1
232 262 1
292 262 1
298 262 1
136 263 1
143 263 1
220 263 1
233 263 1
293 263 1
299 263 1
137 264 1
144 264 1
221 264 1
234 264 1
294 264 1
300 264 1
138 265 1
145 265 1
222 265 1
235 265 1
271 265 1
295 265 1
139 266 1
146 266 1
223 266 1
236 266 1
272 266 1
296 266 1
140 267 1
147 267 1
224 267 1
237 267 1
273 267 1
297 267 1
141 268 1
148 268 1
225 268 1
238 268 1
274 268 1
298 268 1
142 269 1
149 269 1
226 269 1
239 269 1
275 269 1
299 269 1
143 270 1
150 270 1
227 270 1
240 270 1
276 270 1
300 270 1
151 271 1
174 271 1
241 271 1
258 271 1
271 271 1
280 271 1
152 272 1
175 272 1
242 272 1
259 272 1
272 272 1
281 272 1
153 273 1
176 273 1
243 273 1
260 273 1
273 273 1
282 273 1
154 274 1
177 274 1
244 274 1
261 274 1
274 274 1
283 274 1
155 275 1
178 275 1
245 275 1
262 275 1
275 275 1
284 275 1
156 276 1
179 276 1
246 276 1
263 276 1
276 276 1
285 276 1
157 277 1
180 277 1
247 277 1
264 277 1
277 277 1
286 277 1
151 278 1
158 278 1
248 278 1
265 278 1
278 278 1
287 278 1
152 279 1
159 279 1
249 279 1
266 279 1
279 279 1
288 279 1
153 280 1
160 280 1
250 280 1
267 280 1
280 280 1
289 280 1
154 281 1
161 281 1
251 281 1
268 281 1
281 281 1
290 281 1
155 282 1
162 282 1
252 282 1
269 282 1
282 282 1
291 282 1
156 283 1
163 283 1
253 283 1
270 283 1
283 283 1
292 283 1
157 284 1
164 284 1
241 284 1
254 284 1
284 284 1
293 284 1
158 285 1
165 285 1
242 285 1
255 285 1
285 285 1
294 285 1
159 286 1
166 286 1
243 286 1
256 286 1
286 286 1
295 286 1
160 287 1
167 287 1
244 287 1
257 287 1
287 287 1
296 287 1
161 288 1
168 288 1
245 288 1
258 288 1
288 288 1
297 288 1
162 289 1
169 289 1
246 289 1
259 289 1
289 289 1
298 289 1
163 290 1
170 290 1
247 290 1
260 290 1
290 290 1
299 290 1
164 291 1
171 291 1
248 291 1
261 291 1
291 291 1
300 291 1
165 292 1
172 292 1
249 292 1
262 292 1
271 292 1
292 292 1
166 293 1
173 293 1
250 293 1
263 293 1
272 293 1
293 293 1
167 294 1
174 294 1
251 294 1
264 294 1
273 294 1
294 294 1
168 295 1
175 295 1
252 295 1
265 295 1
274 295 1
295 295 1
169 296 1
176 296 1
253 296 1
266 296 1
275 296 1
296 296 1
170 297 1
177 297 1
254 297 1
267 297 1
276 297 1
297 297 1
171 298 1
178 298 1
255 298 1
268 298 1
277 298 1
298 298 1
172 299 1
179 299 1
256 299 1
269 299 1
278 299 1
299 299 1
173 300 1
180 300 1
257 300 1
270 300 1
279 300 1
300 300 1
1 301 1
26 301 1
301 301 1
307 301 1
331 301 1
332 301 1
2 302 1
27 302 1
302 302 1
308 302 1
332 302 1
333 302 1
3 303 1
28 303 1
303 303 1
309 303 1
333 303 1
334 303 1
4 304 1
29 304 1
304 304 1
310 304 1
334 304 1
335 304 1
5 305 1
30 305 1
305 305 1
311 305 1
335 305 1
336 305 1
1 306 1
6 306 1
306 306 1
312 306 1
336 306 1
337 306 1
2 307 1
7 307 1
307 307 1
313 307 1
337 307 1
338 307 1
3 308 1
8 308 1
308 308 1
314 308 1
338 308 1
339 308 1
4 309 1
9 309 1
309 309 1
315 309 1
339 309 1
340 309 1
5 310 1
10 310 1
310 310 1
316 310 1
340 310 1
341 310 1
6 311 1
11 311 1
311 311 1
317 311 1
341 311 1
342 311 1
7 312 1
12 312 1
312 312 1
318 312 1
342 312 1
343 312 1
8 313 1
13 313 1
313 313 1
319 313 1
343 313 1
344 313 1
9 314 1
14 314 1
314 314 1
320 314 1
344 314 1
345 314 1
10 315 1
15 315 1
315 315 1
321 315 1
345 315 1
346 315 1
11 316 1
16 316 1
316 316 1
322 316 1
346 316 1
347 316 1
12 317 1
17 317 1
317 317 1
323 317 1
347 317 1
348 317 1
13 318 1
18 318 1
318 318 1
324 318 1
348 318 1
349 318 1
14 319 1
19 319 1
319 319 1
325 319 1
349 319 1
350 319 1
15 320 1
20 320 1
320 320 1
326 320 1
350 320 1
351 320 1
16 321 1
21 321 1
321 321 1
327 321 1
351 321 1
352 321 1
17 322 1
22 322 1
322 322 1
328 322 1
352 322 1
353 322 1
18 323 1
23 323 1
323 323 1
329 323 1
353 323 1
354 323 1
19 324 1
24 324 1
324 324 1
330 324 1
354 324 1
355 324 1
20 325 1
25 325 1
301 325 1
325 325 1
355 325 1
356 325 1
21 326 1
26 326 1
302 326 1
326 326 1
356 326 1
357 326 1
22 327 1
27 327 1
303 327 1
327 327 1
357 327 1
358 327 1
23 328 1
28 328 1
304 328 1
328 328 1
358 328 1
359 328 1
24 329 1
29 329 1
305 329 1
329 329 1
359 329 1
360 329 1
25 330 1
30 330 1
306 330 1
330 330 1
331 330 1
360 330 1
31 331 1
56 331 1
301 331 1
310 331 1
361 331 1
362 331 1
32 332 1
57 332 1
302 332 1
311 332 1
362 332 1
363 332 1
33 333 1
58 333 1
303 333 1
312 333 1
363 333 1
364 333 1
34 334 1
59 334 1
304 334 1
313 334 1
364 334 1
365 334 1
35 335 1
60 335 1
305 335 1
314 335 1
365 335 1
366 335 1
31 336 1
36 336 1
306 336 1
315 336 1
366 336 1
367 336 1
32 337 1
37 337 1
307 337 1
316 337 1
367 337 1
368 337 1
33 338 1
38 338 1
308 338 1
317 338 1
368 338 1
369 338 1
34 339 1
39 339 1
309 339 1
318 339 1
369 339 1
370 339 1
35 340 1
40 340 1
310 340 1
319 340 1
370 340 1
371 340 1
36 341 1
41 341 1
311 341 1
320 341 1
371 341 1
372 341 1
37 342 1
42 342 1
312 342 1
321 342 1
372 342 1
373 342 1
38 343 1
43 343 1
313 343 1
322 343 1
373 343 1
374 343 1
39 344 1
44 344 1
314 344 1
323 344 1
374 344 1
375 344 1
40 345 1
45 345 1
315 345 1
324 345 1
375 345 1
376 345 1
41 346 1
46 346 1
316 346 1
325 346 1
376 346 1
377 346 1
42 347 1
47 347 1
317 347 1
326 347 1
377 347 1
378 347 1
43 348 1
48 348 1
318 348 1
327 348 1
378 348 1
379 348 1
44 349 1
49 349 1
319 349 1
328 349 1
379 349 1
380 349 1
45 350 1
50 350 1
320 350 1
329 350 1
380 350 1
381 350 1
46 351 1
51 351 1
321 351 1
330 351 1
381 351 1
382 351 1
47 352 1
52 352 1
301 352 1
322 352 1
382 352 1
383 352 1
48 353 1
53 353 1
302 353 1
323 353 1
383 353 1
384 353 1
49 354 1
54 354 1
303 354 1
324 354 1
384 354 1
385 354 1
50 355 1
55 355 1
304 355 1
325 355 1
385 355 1
386 355 1
51 356 1
56 356 1
305 356 1
326 356 1
386 356 1
387 356 1
52 357 1
57 357 1
306 357 1
327 357 1
387 357 1
388 357 1
53 358 1
58 358 1
307 358 1
328 358 1
388 358 1
389 358 1
54 359 1
59 359 1
308 359 1
329 359 1
389 359 1
390 359 1
55 360 1
60 360 1
309 360 1
330 360 1
361 360 1
390 360 1
61 361 1
86 361 1
331 361 1
340 361 1
361 361 1
367 361 1
62 362 1
87 362 1
332 362 1
341 362 1
362 362 1
368 362 1
63 363 1
88 363 1
333 363 1
342 363 1
363 363 1
369 363 1
64 364 1
89 364 1
334 364 1
343 364 1
364 364 1
370 364 1
65 365 1
90 365 1
335 365 1
344 365 1
365 365 1
371 365 1
61 366 1
66 366 1
336 366 1
345 366 1
366 366 1
372 366 1
62 367 1
67 367 1
337 367 1
346 367 1
367 367 1
373 367 1
63 368 1
68 368 1
338 368 1
347 368 1
368 368 1
374 368 1
64 369 1
69 369 1
339 369 1
348 369 1
369 369 1
375 369 1
65 370 1
70 370 1
340 370 1
349 370 1
370 370 1
376 370 1
66 371 1
71 371 1
341 371 1
350 371 1
371 371 1
377 371 1
67 372 1
72 372 1
342 372 1
351 372 1
372 372 1
378 372 1
68 373 1
73 373 1
343 373 1
352 373 1
373 373 1
379 373 1
69 374 1
74 374 1
344 374 1
353 374 1
374 374 1
380 374 1
70 375 1
75 375 1
345 375 1
354 375 1
375 375 1
381 375 1
71 376 1
76 376 1
346 376 1
355 376 1
376 376 1
382 376 1
72 377 1
77 377 1
347 377 1
356 377 1
377 377 1
383 377 1
73 378 1
78 378 1
348 378 1
357 378 1
378 378 1
384 378 1
74 379 1
79 379 1
349 379 1
358 379 1
379 379 1
385 379 1
75 380 1
80 380 1
350 380 1
359 380 1
380 380 1
386 380 1
76 381 1
81 381 1
351 381 1
360 381 1
381 381 1
387 381 1
77 382 1
82 382 1
331 382 1
352 382 1
382 382 1
388 382 1
78 383 1
83 383 1
332 383 1
353 383 1
383 383 1
389 383 1
79 384 1
84 384 1
333 384 1
354 384 1
384 384 1
390 384 1
80 385 1
85 385 1
334 385 1
355 385 1
361 385 1
385 385 1
81 386 1
86 386 1
335 386 1
356 386 1
362 386 1
386 386 1
82 387 1
87 387 1
336 387 1
357 387 1
363 387 1
387 387 1
83 388 1
88 388 1
337 388 1
358 388 1
364 388 1
388 388 1
84 389 1
89 389 1
338 389 1
359 389 1
365 389 1
389 389 1
85 390 1
90 390 1
339 390 1
360 390 1
366 390 1
390 390 1
91 391 1
116 391 1
301 391 1
318 391 1
391 391 1
392 391 1
92 392 1
117 392 1
302 392 1
319 392 1
392 392 1
393 392 1
93 393 1
118 393 1
303 393 1
320 393 1
393 393 1
394 393 1
94 394 1
119 394 1
304 394 1
321 394 1
394 394 1
395 394 1
95 395 1
120 395 1
305 395 1
322 395 1
395 395 1
396 395 1
91 396 1
96 396 1
306 396 1
323 396 1
396 396 1
397 396 1
92 397 1
97 397 1
307 397 1
324 397 1
397 397 1
398 397 1
93 398 1
98 398 1
308 398 1
325 398 1
398 398 1
399 398 1
94 399 1
99 399 1
309 399 1
326 399 1
399 399 1
400 399 1
95 400 1
100 400 1
310 400 1
327 400 1
400 400 1
401 400 1
96 401 1
101 401 1
311 401 1
328 401 1
401 401 1
402 401 1
97 402 1
102 402 1
312 402 1
329 402 1
402 402 1
403 402 1
98 403 1
103 403 1
313 403 1
330 403 1
403 403 1
404 403 1
99 404 1
104 404 1
301 404 1
314 404 1
404 404 1
405 404 1
100 405 1
105 405 1
302 405 1
315 405 1
405 405 1
406 405 1
101 406 1
106 406 1
303 406 1
316 406 1
406 406 1
407 406 1
102 407 1
107 407 1
304 407 1
317 407 1
407 407 1
408 407 1
103 408 1
108 408 1
305 408 1
318 408 1
408 408 1
409 408 1
104 409 1
109 409 1
306 409 1
319 409 1
409 409 1
410 409 1
105 410 1
110 410 1
307 410 1
320 410 1
410 410 1
411 410 1
106 411 1
111 411 1
308 411 1
321 411 1
411 411 1
412 411 1
107 412 1
112 412 1
309 412 1
322 412 1
412 412 1
413 412 1
108 413 1
113 413 1
310 413 1
323 413 1
413 413 1
414 413 1
109 414 1
114 414 1
311 414 1
324 414 1
414 414 1
415 414 1
110 415 1
115 415 1
312 415 1
325 415 1
415 415 1
416 415 1
111 416 1
116 416 1
313 416 1
326 416 1
416 416 1
417 416 1
112 417 1
117 417 1
314 417 1
327 417 1
417 417 1
418 417 1
113 418 1
118 418 1
315 418 1
328 418 1
418 418 1
419 418 1
114 419 1
119 419 1
316 419 1
329 419 1
419 419 1
420 419 1
115 420 1
120 420 1
317 420 1
330 420 1
391 420 1
420 420 1
121 421 1
146 421 1
331 421 1
348 421 1
391 421 1
397 421 1
122 422 1
147 422 1
332 422 1
349 422 1
392 422 1
398 422 1
123 423 1
148 423 1
333 423 1
350 423 1
393 423 1
399 423 1
124 424 1
149 424 1
334 424 1
351 424 1
394 424 1
400 424 1
125 425 1
150 425 1
335 425 1
352 425 1
395 425 1
401 425 1
121 426 1
126 426 1
336 426 1
353 426 1
396 426 1
402 426 1
122 427 1
127 427 1
337 427 1
354 427 1
397 427 1
403 427 1
123 428 1
128 428 1
338 428 1
355 428 1
398 428 1
404 428 1
124 429 1
129 429 1
339 429 1
356 429 1
399 429 1
405 429 1
125 430 1
130 430 1
340 430 1
357 430 1
400 430 1
406 430 1
126 431 1
131 431 1
341 431 1
358 431 1
401 431 1
407 431 1
127 432 1
132 432 1
342 432 1
359 432 1
402 432 1
408 432 1
128 433 1
133 433 1
343 433 1
360 433 1
403 433 1
409 433 1
129 434 1
134 434 1
331 434 1
344 434 1
404 434 1
410 434 1
130 435 1
135 435 1
332 435 1
345 435 1
405 435 1
411 435 1
131 436 1
136 436 1
333 436 1
346 436 1
406 436 1
412 436 1
132 437 1
137 437 1
334 437 1
347 437 1
407 437 1
413 437 1
133 438 1
138 438 1
335 438 1
348 438 1
408 438 1
414 438 1
134 439 1
139 439 1
336 439 1
349 439 1
409 439 1
415 439 1
135 440 1
140 440 1
337 440 1
350 440 1
410 440 1
416 440 1
136 441 1
141 441 1
338 441 1
351 441 1
411 441 1
417 441 1
137 442 1
142 442 1
339 442 1
352 442 1
412 442 1
418 442 1
138 443 1
143 443 1
340 443 1
353 443 1
413 443 1
419 443 1
139 444 1
144 444 1
341 444 1
354 444 1
414 444 1
420 444 1
140 445 1
145 445 1
342 445 1
355 445 1
391 445 1
415 445 1
141 446 1
146 446 1
343 446 1
356 446 1
392 446 1
416 446 1
142 447 1
147 447 1
344 447 1
357 447 1
393 447 1
417 447 1
143 448 1
148 448 1
345 448 1
358 448 1
394 448 1
418 448 1
144 449 1
149 449 1
346 449 1
359 449 1
395 449 1
419 449 1
145 450 1
150 450 1
347 450 1
360 450 1
396 450 1
420 450 1
151 451 1
176 451 1
361 451 1
378 451 1
391 451 1
400 451 1
152 452 1
177 452 1
362 452 1
379 452 1
392 452 1
401 452 1
153 453 1
178 453 1
363 453 1
380 453 1
393 453 1
402 453 1
154 454 1
179 454 1
364 454 1
381 454 1
394 454 1
403 454 1
155 455 1
180 455 1
365 455 1
382 455 1
395 455 1
404 455 1
151 456 1
156 456 1
366 456 1
383 456 1
396 456 1
405 456 1
152 457 1
157 457 1
367 457 1
384 457 1
397 457 1
406 457 1
153 458 1
158 458 1
368 458 1
385 458 1
398 458 1
407 458 1
154 459 1
159 459 1
369 459 1
386 459 1
399 459 1
408 459 1
155 460 1
160 460 1
370 460 1
387 460 1
400 460 1
409 460 1
156 461 1
161 461 1
371 461 1
388 461 1
401 461 1
410 461 1
157 462 1
162 462 1
372 462 1
389 462 1
402 462 1
411 462 1
158 463 1
163 463 1
373 463 1
390 463 1
403 463 1
412 463 1
159 464 1
164 464 1
361 464 1
374 464 1
404 464 1
413 464 1
160 465 1
165 465 1
362 465 1
375 465 1
405 465 1
414 465 1
161 466 1
166 466 1
363 466 1
376 466 1
406 466 1
415 466 1
162 467 1
167 467 1
364 467 1
377 467 1
407 467 1
416 467 1
163 468 1
168 468 1
365 468 1
378 468 1
408 468 1
417 468 1
164 469 1
169 469 1
366 469 1
379 469 1
409 469 1
418 469 1
165 470 1
170 470 1
367 470 1
380 470 1
410 470 1
419 470 1
166 471 1
171 471 1
368 471 1
381 471 1
411 471 1
420 471 1
167 472 1
172 472 1
369 472 1
382 472 1
391 472 1
412 472 1
168 473 1
173 473 1
370 473 1
383 473 1
392 473 1
413 473 1
169 474 1
174 474 1
371 474 1
384 474 1
393 474 1
414 474 1
170 475 1
175 475 1
372 475 1
385 475 1
394 475 1
415 475 1
171 476 1
176 476 1
373 476 1
386 476 1
395 476 1
416 476 1
172 477 1
177 477 1
374 477 1
387 477 1
396 477 1
417 477 1
173 478 1
178 478 1
375 478 1
388 478 1
397 478 1
418 478 1
174 479 1
179 479 1
376 479 1
389 479 1
398 479 1
419 479 1
175 480 1
180 480 1
377 480 1
390 480 1
399 480 1
420 480 1
181 481 1
206 481 1
301 481 1
324 481 1
421 481 1
422 481 1
182 482 1
207 482 1
302 482 1
325 482 1
422 482 1
423 482 1
183 483 1
208 483 1
303 483 1
326 483 1
423 483 1
424 483 1
184 484 1
209 484 1
304 484 1
327 484 1
424 484 1
425 484 1
185 485 1
210 485 1
305 485 1
328 485 1
425 485 1
426 485 1
181 486 1
186 486 1
306 486 1
329 486 1
426 486 1
427 486 1
182 487 1
187 487 1
307 487 1
330 487 1
427 487 1
428 487 1
183 488 1
188 488 1
301 488 1
308 488 1
428 488 1
429 488 1
184 489 1
189 489 1
302 489 1
309 489 1
429 489 1
430 489 1
185 490 1
190 490 1
303 490 1
310 490 1
430 490 1
431 490 1
186 491 1
191 491 1
304 491 1
311 491 1
431 491 1
432 491 1
187 492 1
192 492 1
305 492 1
312 492 1
432 492 1
433 492 1
188 493 1
193 493 1
306 493 1
313 493 1
433 493 1
434 493 1
189 494 1
194 494 1
307 494 1
314 494 1
434 494 1
435 494 1
190 495 1
195 495 1
308 495 1
315 495 1
435 495 1
436 495 1
191 496 1
196 496 1
309 496 1
316 496 1
436 496 1
437 496 1
192 497 1
197 497 1
310 497 1
317 497 1
437 497 1
438 497 1
193 498 1
198 498 1
311 498 1
318 498 1
438 498 1
439 498 1
194 499 1
199 499 1
312 499 1
319 499 1
439 499 1
440 499 1
195 500 1
200 500 1
313 500 1
320 500 1
440 500 1
441 500 1
196 501 1
201 501 1
314 501 1
321 501 1
441 501 1
442 501 1
197 502 1
202 502 1
315 502 1
322 502 1
442 502 1
443 502 1
198 503 1
203 503 1
316 503 1
323 503 1
443 503 1
444 503 1
199 504 1
204 504 1
317 504 1
324 504 1
444 504 1
445 504 1
200 505 1
205 505 1
318 505 1
325 505 1
445 505 1
446 505 1
201 506 1
206 506 1
319 506 1
326 506 1
446 506 1
447 506 1
202 507 1
207 507 1
320 507 1
327 507 1
447 507 1
448 507 1
203 508 1
208 508 1
321 508 1
328 508 1
448 508 1
449 508 1
204 509 1
209 509 1
322 509 1
329 509 1
449 509 1
450 509 1
205 510 1
210 510 1
323 510 1
330 510 1
421 510 1
450 510 1
211 511 1
236 511 1
331 511 1
354 511 1
421 511 1
427 511 1
212 512 1
237 512 1
332 512 1
355 512 1
422 512 1
428 512 1
213 513 1
238 513 1
333 513 1
356 513 1
423 513 1
429 513 1
214 514 1
239 514 1
334 514 1
357 514 1
424 514 1
430 514 1
215 515 1
240 515 1
335 515 1
358 515 1
425 515 1
431 515 1
211 516 1
216 516 1
336 516 1
359 516 1
426 516 1
432 516 1
212 517 1
217 517 1
337 517 1
360 517 1
427 517 1
433 517 1
213 518 1
218 518 1
331 518 1
338 518 1
428 518 1
434 518 1
214 519 1
219 519 1
332 519 1
339 519 1
429 519 1
435 519 1
215 520 1
220 520 1
333 520 1
340 520 1
430 520 1
436 520 1
216 521 1
221 521 1
334 521 1
341 521 1
431 521 1
437 521 1
217 522 1
222 522 1
335 522 1
342 522 1
432 522 1
438 522 1
218 523 1
223 523 1
336 523 1
343 523 1
433 523 1
439 523 1
219 524 1
224 524 1
337 524 1
344 524 1
434 524 1
440 524 1
220 525 1
225 525 1
338 525 1
345 525 1
435 525 1
441 525 1
221 526 1
226 526 1
339 526 1
346 526 1
436 526 1
442 526 1
222 527 1
227 527 1
340 527 1
347 527 1
437 527 1
443 527 1
223 528 1
228 528 1
341 528 1
348 528 1
438 528 1
444 528 1
224 529 1
229 529 1
342 529 1
349 529 1
439 529 1
445 529 1
225 530 1
230 530 1
343 530 1
350 530 1
440 530 1
446 530 1
226 531 1
231 531 1
344 531 1
351 531 1
441 531 1
447 531 1
227 532 1
232 532 1
345 532 1
352 532 1
442 532 1
448 532 1
228 533 1
233 533 1
346 533 1
353 533 1
443 533 1
449 533 1
229 534 1
234 534 1
347 534 1
354 534 1
444 534 1
450 534 1
230 535 1
235 535 1
348 535 1
355 535 1
421 535 1
445 535 1
231 536 1
236 536 1
349 536 1
356 536 1
422 536 1
446 536 1
232 537 1
237 537 1
350 537 1
357 537 1
423 537 1
447 537 1
233 538 1
238 538 1
351 538 1
358 538 1
424 538 1
448 538 1
234 539 1
239 539 1
352 539 1
359 539 1
425 539 1
449 539 1
235 540 1
240 540 1
353 540 1
360 540 1
426 540 1
450 540 1
241 541 1
266 541 1
361 541 1
384 541 1
421 541 1
430 541 1
242 542 1
267 542 1
362 542 1
385 542 1
422 542 1
431 542 1
243 543 1
268 543 1
363 543 1
386 543 1
423 543 1
432 543 1
244 544 1
269 544 1
364 544 1
387 544 1
424 544 1
433 544 1
245 545 1
270 545 1
365 545 1
388 545 1
425 545 1
434 545 1
241 546 1
246 546 1
366 546 1
389 546 1
426 546 1
435 546 1
242 547 1
247 547 1
367 547 1
390 547 1
427 547 1
436 547 1
243 548 1
248 548 1
361 548 1
368 548 1
428 548 1
437 548 1
244 549 1
249 549 1
362 549 1
369 549 1
429 549 1
438 549 1
245 550 1
250 550 1
363 550 1
370 550 1
430 550 1
439 550 1
246 551 1
251 551 1
364 551 1
371 551 1
431 551 1
440 551 1
247 552 1
252 552 1
365 552 1
372 552 1
432 552 1
441 552 1
248 553 1
253 553 1
366 553 1
373 553 1
433 553 1
442 553 1
249 554 1
254 554 1
367 554 1
374 554 1
434 554 1
443 554 1
250 555 1
255 555 1
368 555 1
375 555 1
435 555 1
444 555 1
251 556 1
256 556 1
369 556 1
376 556 1
436 556 1
445 556 1
252 557 1
257 557 1
370 557 1
377 557 1
437 557 1
446 557 1
253 558 1
258 558 1
371 558 1
378 558 1
438 558 1
447 558 1
254 559 1
259 559 1
372 559 1
379 559 1
439 559 1
448 559 1
255 560 1
260 560 1
373 560 1
380 560 1
440 560 1
449 560 1
256 561 1
261 561 1
374 561 1
381 561 1
441 561 1
450 561 1
257 562 1
262 562 1
375 562 1
382 562 1
421 562 1
442 562 1
258 563 1
263 563 1
376 563 1
383 563 1
422 563 1
443 563 1
259 564 1
264 564 1
377 564 1
384 564 1
423 564 1
444 564 1
260 565 1
265 565 1
378 565 1
385 565 1
424 565 1
445 565 1
261 566 1
266 566 1
379 566 1
386 566 1
425 566 1
446 566 1
262 567 1
267 567 1
380 567 1
387 567 1
426 567 1
447 567 1
263 568 1
268 568 1
381 568 1
388 568 1
427 568 1
448 568 1
264 569 1
269 569 1
382 569 1
389 569 1
428 569 1
449 569 1
265 570 1
270 570 1
383 570 1
390 570 1
429 570 1
450 570 1
271 571 1
296 571 1
391 571 1
414 571 1
421 571 1
438 571 1
272 572 1
297 572 1
392 572 1
415 572 1
422 572 1
439 572 1
273 573 1
298 573 1
393 573 1
416 573 1
423 573 1
440 573 1
274 574 1
299 574 1
394 574 1
417 574 1
424 574 1
441 574 1
275 575 1
300 575 1
395 575 1
418 575 1
425 575 1
442 575 1
271 576 1
276 576 1
396 576 1
419 576 1
426 576 1
443 576 1
272 577 1
277 577 1
397 577 1
420 577 1
427 577 1
444 577 1
273 578 1
278 578 1
391 578 1
398 578 1
428 578 1
445 578 1
274 579 1
279 579 1
392 579 1
399 579 1
429 579 1
446 579 1
275 580 1
280 580 1
393 580 1
400 580 1
430 580 1
447 580 1
276 581 1
281 581 1
394 581 1
401 581 1
431 581 1
448 581 1
277 582 1
282 582 1
395 582 1
402 582 1
432 582 1
449 582 1
278 583 1
283 583 1
396 583 1
403 583 1
433 583 1
450 583 1
279 584 1
284 584 1
397 584 1
404 584 1
421 584 1
434 584 1
280 585 1
285 585 1
398 585 1
405 585 1
422 585 1
435 585 1
281 586 1
286 586 1
399 586 1
406 586 1
423 586 1
436 586 1
282 587 1
287 587 1
400 587 1
407 587 1
424 587 1
437 587 1
283 588 1
288 588 1
401 588 1
408 588 1
425 588 1
438 588 1
284 589 1
289 589 1
402 589 1
409 589 1
426 589 1
439 589 1
285 590 1
290 590 1
403 590 1
410 590 1
427 590 1
440 590 1
286 591 1
291 591 1
404 591 1
411 591 1
428 591 1
441 591 1
287 592 1
292 592 1
405 592 1
412 592 1
429 592 1
442 592 1
288 593 1
293 593 1
406 593 1
413 593 1
430 593 1
443 593 1
289 594 1
294 594 1
407 594 1
414 594 1
431 594 1
444 594 1
290 595 1
295 595 1
408 595 1
415 595 1
432 595 1
445 595 1
291 596 1
296 596 1
409 596 1
416 596 1
433 596 1
446 596 1
292 597 1
297 597 1
410 597 1
417 597 1
434 597 1
447 597 1
293 598 1
298 598 1
411 598 1
418 598 1
435 598 1
448 598 1
294 599 1
299 599 1
412 599 1
419 599 1
436 599 1
449 599 1
295 600 1
300 600 1
413 600 1
420 600 1
437 600 1
450 600 1
1 601 1
29 601 1
451 601 1
457 601 1
481 601 1
482 601 1
2 602 1
30 602 1
452 602 1
458 602 1
482 602 1
483 602 1
1 603 1
3 603 1
453 603 1
459 603 1
483 603 1
484 603 1
2 604 1
4 604 1
454 604 1
460 604 1
484 604 1
485 604 1
3 605 1
5 605 1
455 605 1
461 605 1
485 605 1
486 605 1
4 606 1
6 606 1
456 606 1
462 606 1
486 606 1
487 606 1
5 607 1
7 607 1
457 607 1
463 607 1
487 607 1
488 607 1
6 608 1
8 608 1
458 608 1
464 608 1
488 608 1
489 608 1
7 609 1
9 609 1
459 609 1
465 609 1
489 609 1
490 609 1
8 610 1
10 610 1
460 610 1
466 610 1
490 610 1
491 610 1
9 611 1
11 611 1
461 611 1
467 611 1
491 611 1
492 611 1
10 612 1
12 612 1
462 612 1
468 612 1
492 612 1
493 612 1
11 613 1
13 613 1
463 613 1
469 613 1
493 613 1
494 613 1
12 614 1
14 614 1
464 614 1
470 614 1
494 614 1
495 614 1
13 615 1
15 615 1
465 615 1
471 615 1
495 615 1
496 615 1
14 616 1
16 616 1
466 616 1
472 616 1
496 616 1
497 616 1
15 617 1
17 617 1
467 617 1
473 617 1
497 617 1
498 617 1
16 618 1
18 618 1
468 618 1
474 618 1
498 618 1
499 618 1
17 619 1
19 619 1
469 619 1
475 619 1
499 619 1
500 619 1
18 620 1
20 620 1
470 620 1
476 620 1
500 620 1
501 620 1
19 621 1
21 621 1
471 621 1
477 621 1
501 621 1
502 621 1
20 622 1
22 622 1
472 622 1
478 622 1
502 622 1
503 622 1
21 623 1
23 623 1
473 623 1
479 623 1
503 623 1
504 623 1
22 624 1
24 624 1
474 624 1
480 624 1
504 624 1
505 624 1
23 625 1
25 625 1
451 625 1
475 625 1
505 625 1
506 625 1
24 626 1
26 626 1
452 626 1
476 626 1
506 626 1
507 626 1
25 627 1
27 627 1
453 627 1
477 627 1
507 627 1
508 627 1
26 628 1
28 628 1
454 628 1
478 628 1
508 628 1
509 628 1
27 629 1
29 629 1
455 629 1
479 629 1
509 629 1
510 629 1
28 630 1
30 630 1
456 630 1
480 630 1
481 630 1
510 630 1
31 631 1
59 631 1
451 631 1
460 631 1
511 631 1
512 631 1
32 632 1
60 632 1
452 632 1
461 632 1
512 632 1
513 632 1
31 633 1
33 633 1
453 633 1
462 633 1
513 633 1
514 633 1
32 634 1
34 634 1
454 634 1
463 634 1
514 634 1
515 634 1
33 635 1
35 635 1
455 635 1
464 635 1
515 635 1
516 635 1
34 636 1
36 636 1
456 636 1
465 636 1
516 636 1
517 636 1
35 637 1
37 637 1
457 637 1
466 637 1
517 637 1
518 637 1
36 638 1
38 638 1
458 638 1
467 638 1
518 638 1
519 638 1
37 639 1
39 639 1
459 639 1
468 639 1
519 639 1
520 639 1
38 640 1
40 640 1
460 640 1
469 640 1
520 640 1
521 640 1
39 641 1
41 641 1
461 641 1
470 641 1
521 641 1
522 641 1
40 642 1
42 642 1
462 642 1
471 642 1
522 642 1
523 642 1
41 643 1
43 643 1
463 643 1
472 643 1
523 643 1
524 643 1
42 644 1
44 644 1
464 644 1
473 644 1
524 644 1
525 644 1
43 645 1
45 645 1
465 645 1
474 645 1
525 645 1
526 645 1
44 646 1
46 646 1
466 646 1
475 646 1
526 646 1
527 646 1
45 647 1
47 647 1
467 647 1
476 647 1
527 647 1
528 647 1
46 648 1
48 648 1
468 648 1
477 648 1
528 648 1
529 648 1
47 649 1
49 649 1
469 649 1
478 649 1
529 649 1
530 649 1
48 650 1
50 650 1
470 650 1
479 650 1
530 650 1
531 650 1
49 651 1
51 651 1
471 651 1
480 651 1
531 651 1
532 651 1
50 652 1
52 652 1
451 652 1
472 652 1
532 652 1
533 652 1
51 653 1
53 653 1
452 653 1
473 653 1
533 653 1
534 653 1
52 654 1
54 654 1
453 654 1
474 654 1
534 654 1
535 654 1
53 655 1
55 655 1
454 655 1
475 655 1
535 655 1
536 655 1
54 656 1
56 656 1
455 656 1
476 656 1
536 656 1
537 656 1
55 657 1
57 657 1
456 657 1
477 657 1
537 657 1
538 657 1
56 658 1
58 658 1
457 658 1
478 658 1
538 658 1
539 658 1
57 659 1
59 659 1
458 659 1
479 659 1
539 659 1
540 659 1
58 660 1
60 660 1
459 660 1
480 660 1
511 660 1
540 660 1
61 661 1
89 661 1
481 661 1
490 661 1
511 661 1
517 661 1
62 662 1
90 662 1
482 662 1
491 662 1
512 662 1
518 662 1
61 663 1
63 663 1
483 663 1
492 663 1
513 663 1
519 663 1
62 664 1
64 664 1
484 664 1
493 664 1
514 664 1
520 664 1
63 665 1
65 665 1
485 665 1
494 665 1
515 665 1
521 665 1
64 666 1
66 666 1
486 666 1
495 666 1
516 666 1
522 666 1
65 667 1
67 667 1
487 667 1
496 667 1
517 667 1
523 667 1
66 668 1
68 668 1
488 668 1
497 668 1
518 668 1
524 668 1
67 669 1
69 669 1
489 669 1
498 669 1
519 669 1
525 669 1
68 670 1
70 670 1
490 670 1
499 670 1
520 670 1
526 670 1
69 671 1
71 671 1
491 671 1
500 671 1
521 671 1
527 671 1
70 672 1
72 672 1
492 672 1
501 672 1
522 672 1
528 672 1
71 673 1
73 673 1
493 673 1
502 673 1
523 673 1
529 673 1
72 674 1
74 674 1
494 674 1
503 674 1
524 674 1
530 674 1
73 675 1
75 675 1
495 675 1
504 675 1
525 675 1
531 675 1
74 676 1
76 676 1
496 676 1
505 676 1
526 676 1
532 676 1
75 677 1
77 677 1
497 677 1
506 677 1
527 677 1
533 677 1
76 678 1
78 678 1
498 678 1
507 678 1
528 678 1
534 678 1
77 679 1
79 679 1
499 679 1
508 679 1
529 679 1
535 679 1
78 680 1
80 680 1
500 680 1
509 680 1
530 680 1
536 680 1
79 681 1
81 681 1
501 681 1
510 681 1
531 681 1
537 681 1
80 682 1
82 682 1
481 682 1
502 682 1
532 682 1
538 682 1
81 683 1
83 683 1
482 683 1
503 683 1
533 683 1
539 683 1
82 684 1
84 684 1
483 684 1
504 684 1
534 684 1
540 684 1
83 685 1
85 685 1
484 685 1
505 685 1
511 685 1
535 685 1
84 686 1
86 686 1
485 686 1
506 686 1
512 686 1
536 686 1
85 687 1
87 687 1
486 687 1
507 687 1
513 687 1
537 687 1
86 688 1
88 688 1
487 688 1
508 688 1
514 688 1
538 688 1
87 689 1
89 689 1
488 689 1
509 689 1
515 689 1
539 689 1
88 690 1
90 690 1
489 690 1
510 690 1
516 690 1
540 690 1
91 691 1
119 691 1
451 691 1
468 691 1
541 691 1
542 691 1
92 692 1
120 692 1
452 692 1
469 692 1
542 692 1
543 692 1
91 693 1
93 693 1
453 693 1
470 693 1
543 693 1
544 693 1
92 694 1
94 694 1
454 694 1
471 694 1
544 694 1
545 694 1
93 695 1
95 695 1
455 695 1
472 695 1
545 695 1
546 695 1
94 696 1
96 696 1
456 696 1
473 696 1
546 696 1
547 696 1
95 697 1
97 697 1
457 697 1
474 697 1
547 697 1
548 697 1
96 698 1
98 698 1
458 698 1
475 698 1
548 698 1
549 698 1
97 699 1
99 699 1
459 699 1
476 699 1
549 699 1
550 699 1
98 700 1
100 700 1
460 700 1
477 700 1
550 700 1
551 700 1
99 701 1
101 701 1
461 701 1
478 701 1
551 701 1
552 701 1
100 702 1
102 702 1
462 702 1
479 702 1
552 702 1
553 702 1
101 703 1
103 703 1
463 703 1
480 703 1
553 703 1
554 703 1
102 704 1
104 704 1
451 704 1
464 704 1
554 704 1
555 704 1
103 705 1
105 705 1
452 705 1
465 705 1
555 705 1
556 705 1
104 706 1
106 706 1
453 706 1
466 706 1
556 706 1
557 706 1
105 707 1
107 707 1
454 707 1
467 707 1
557 707 1
558 707 1
106 708 1
108 708 1
455 708 1
468 708 1
558 708 1
559 708 1
107 709 1
109 709 1
456 709 1
469 709 1
559 709 1
560 709 1
108 710 1
110 710 1
457 710 1
470 710 1
560 710 1
561 710 1
109 711 1
111 711 1
458 711 1
471 711 1
561 711 1
562 711 1
110 712 1
112 712 1
459 712 1
472 712 1
562 712 1
563 712 1
111 713 1
113 713 1
460 713 1
473 713 1
563 713 1
564 713 1
112 714 1
114 714 1
461 714 1
474 714 1
564 714 1
565 714 1
113 715 1
115 715 1
462 715 1
475 715 1
565 715 1
566 715 1
114 716 1
116 716 1
463 716 1
476 716 1
566 716 1
567 716 1
115 717 1
117 717 1
464 717 1
477 717 1
567 717 1
568 717 1
116 718 1
118 718 1
465 718 1
478 718 1
568 718 1
569 718 1
117 719 1
119 719 1
466 719 1
479 719 1
569 719 1
570 719 1
118 720 1
120 720 1
467 720 1
480 720 1
541 720 1
570 720 1
121 721 1
149 721 1
481 721 1
498 721 1
541 721 1
547 721 1
122 722 1
150 722 1
482 722 1
499 722 1
542 722 1
548 722 1
121 723 1
123 723 1
483 723 1
500 723 1
543 723 1
549 723 1
122 724 1
124 724 1
484 724 1
501 724 1
544 724 1
550 724 1
123 725 1
125 725 1
485 725 1
502 725 1
545 725 1
551 725 1
124 726 1
126 726 1
486 726 1
503 726 1
546 726 1
552 726 1
125 727 1
127 727 1
487 727 1
504 727 1
547 727 1
553 727 1
126 728 1
128 728 1
488 728 1
505 728 1
548 728 1
554 728 1
127 729 1
129 729 1
489 729 1
506 729 1
549 729 1
555 729 1
128 730 1
130 730 1
490 730 1
507 730 1
550 730 1
556 730 1
129 731 1
131 731 1
491 731 1
508 731 1
551 731 1
557 731 1
130 732 1
132 732 1
492 732 1
509 732 1
552 732 1
558 732 1
131 733 1
133 733 1
493 733 1
510 733 1
553 733 1
559 733 1
132 734 1
134 734 1
481 734 1
494 734 1
554 734 1
560 734 1
133 735 1
135 735 1
482 735 1
495 735 1
555 735 1
561 735 1
134 736 1
136 736 1
483 736 1
496 736 1
556 736 1
562 736 1
135 737 1
137 737 1
484 737 1
497 737 1
557 737 1
563 737 1
136 738 1
138 738 1
485 738 1
498 738 1
558 738 1
564 738 1
137 739 1
139 739 1
486 739 1
499 739 1
559 739 1
565 739 1
138 740 1
140 740 1
487 740 1
500 740 1
560 740 1
566 740 1
139 741 1
141 741 1
488 741 1
501 741 1
561 741 1
567 741 1
140 742 1
142 742 1
489 742 1
502 742 1
562 742 1
568 742 1
141 743 1
143 743 1
490 743 1
503 743 1
563 743 1
569 743 1
142 744 1
144 744 1
491 744 1
504 744 1
564 744 1
570 744 1
143 745 1
145 745 1
492 745 1
505 745 1
541 745 1
565 745 1
144 746 1
146 746 1
493 746 1
506 746 1
542 746 1
566 746 1
145 747 1
147 747 1
494 747 1
507 747 1
543 747 1
567 747 1
146 748 1
148 748 1
495 748 1
508 748 1
544 748 1
568 748 1
147 749 1
149 749 1
496 749 1
509 749 1
545 749 1
569 749 1
148 750 1
150 750 1
497 750 1
510 750 1
546 750 1
570 750 1
151 751 1
179 751 1
511 751 1
528 751 1
541 751 1
550 751 1
152 752 1
180 752 1
512 752 1
529 752 1
542 752 1
551 752 1
151 753 1
153 753 1
513 753 1
530 753 1
543 753 1
552 753 1
152 754 1
154 754 1
514 754 1
531 754 1
544 754 1
553 754 1
153 755 1
155 755 1
515 755 1
532 755 1
545 755 1
554 755 1
154 756 1
156 756 1
516 756 1
533 756 1
546 756 1
555 756 1
155 757 1
157 757 1
517 757 1
534 757 1
547 757 1
556 757 1
156 758 1
158 758 1
518 758 1
535 758 1
548 758 1
557 758 1
157 759 1
159 759 1
519 759 1
536 759 1
549 759 1
558 759 1
158 760 1
160 760 1
520 760 1
537 760 1
550 760 1
559 760 1
159 761 1
161 761 1
521 761 1
538 761 1
551 761 1
560 761 1
160 762 1
162 762 1
522 762 1
539 762 1
552 762 1
561 762 1
161 763 1
163 763 1
523 763 1
540 763 1
553 763 1
562 763 1
162 764 1
164 764 1
511 764 1
524 764 1
554 764 1
563 764 1
163 765 1
165 765 1
512 765 1
525 765 1
555 765 1
564 765 1
164 766 1
166 766 1
513 766 1
526 766 1
556 766 1
565 766 1
165 767 1
167 767 1
514 767 1
527 767 1
557 767 1
566 767 1
166 768 1
168 768 1
515 768 1
528 768 1
558 768 1
567 768 1
167 769 1
169 769 1
516 769 1
529 769 1
559 769 1
568 769 1
168 770 1
170 770 1
517 770 1
530 770 1
560 770 1
569 770 1
169 771 1
171 771 1
518 771 1
531 771 1
561 771 1
570 771 1
170 772 1
172 772 1
519 772 1
532 772 1
541 772 1
562 772 1
171 773 1
173 773 1
520 773 1
533 773 1
542 773 1
563 773 1
172 774 1
174 774 1
521 774 1
534 774 1
543 774 1
564 774 1
173 775 1
175 775 1
522 775 1
535 775 1
544 775 1
565 775 1
174 776 1
176 776 1
523 776 1
536 776 1
545 776 1
566 776 1
175 777 1
177 777 1
524 777 1
537 777 1
546 777 1
567 777 1
176 778 1
178 778 1
525 778 1
538 778 1
547 778 1
568 778 1
177 779 1
179 779 1
526 779 1
539 779 1
548 779 1
569 779 1
178 780 1
180 780 1
527 780 1
540 780 1
549 780 1
570 780 1
181 781 1
209 781 1
451 781 1
474 781 1
571 781 1
572 781 1
182 782 1
210 782 1
452 782 1
475 782 1
572 782 1
573 782 1
181 783 1
183 783 1
453 783 1
476 783 1
573 783 1
574 783 1
182 784 1
184 784 1
454 784 1
477 784 1
574 784 1
575 784 1
183 785 1
185 785 1
455 785 1
478 785 1
575 785 1
576 785 1
184 786 1
186 786 1
456 786 1
479 786 1
576 786 1
577 786 1
185 787 1
187 787 1
457 787 1
480 787 1
577 787 1
578 787 1
186 788 1
188 788 1
451 788 1
458 788 1
578 788 1
579 788 1
187 789 1
189 789 1
452 789 1
459 789 1
579 789 1
580 789 1
188 790 1
190 790 1
453 790 1
460 790 1
580 790 1
581 790 1
189 791 1
191 791 1
454 791 1
461 791 1
581 791 1
582 791 1
190 792 1
192 792 1
455 792 1
462 792 1
582 792 1
583 792 1
191 793 1
193 793 1
456 793 1
463 793 1
583 793 1
584 793 1
192 794 1
194 794 1
457 794 1
464 794 1
584 794 1
585 794 1
193 795 1
195 795 1
458 795 1
465 795 1
585 795 1
586 795 1
194 796 1
196 796 1
459 796 1
466 796 1
586 796 1
587 796 1
195 797 1
197 797 1
460 797 1
467 797 1
587 797 1
588 797 1
196 798 1
198 798 1
461 798 1
468 798 1
588 798 1
589 798 1
197 799 1
199 799 1
462 799 1
469 799 1
589 799 1
590 799 1
198 800 1
200 800 1
463 800 1
470 800 1
590 800 1
591 800 1
199 801 1
201 801 1
464 801 1
471 801 1
591 801 1
592 801 1
200 802 1
202 802 1
465 802 1
472 802 1
592 802 1
593 802 1
201 803 1
203 803 1
466 803 1
473 803 1
593 803 1
594 803 1
202 804 1
204 804 1
467 804 1
474 804 1
594 804 1
595 804 1
203 805 1
205 805 1
468 805 1
475 805 1
595 805 1
596 805 1
204 806 1
206 806 1
469 806 1
476 806 1
596 806 1
597 806 1
205 807 1
207 807 1
470 807 1
477 807 1
597 807 1
598 807 1
206 808 1
208 808 1
471 808 1
478 808 1
598 808 1
599 808 1
207 809 1
209 809 1
472 809 1
479 809 1
599 809 1
600 809 1
208 810 1
210 810 1
473 810 1
480 810 1
571 810 1
600 810 1
211 811 1
239 811 1
481 811 1
504 811 1
571 811 1
577 811 1
212 812 1
240 812 1
482 812 1
505 812 1
572 812 1
578 812 1
211 813 1
213 813 1
483 813 1
506 813 1
573 813 1
579 813 1
212 814 1
214 814 1
484 814 1
507 814 1
574 814 1
580 814 1
213 815 1
215 815 1
485 815 1
508 815 1
575 815 1
581 815 1
214 816 1
216 816 1
486 816 1
509 816 1
576 816 1
582 816 1
215 817 1
217 817 1
487 817 1
510 817 1
577 817 1
583 817 1
216 818 1
218 818 1
481 818 1
488 818 1
578 818 1
584 818 1
217 819 1
219 819 1
482 819 1
489 819 1
579 819 1
585 819 1
218 820 1
220 820 1
483 820 1
490 820 1
580 820 1
586 820 1
219 821 1
221 821 1
484 821 1
491 821 1
581 821 1
587 821 1
220 822 1
222 822 1
485 822 1
492 822 1
582 822 1
588 822 1
221 823 1
223 823 1
486 823 1
493 823 1
583 823 1
589 823 1
222 824 1
224 824 1
487 824 1
494 824 1
584 824 1
590 824 1
223 825 1
225 825 1
488 825 1
495 825 1
585 825 1
591 825 1
224 826 1
226 826 1
489 826 1
496 826 1
586 826 1
592 826 1
225 827 1
227 827 1
490 827 1
497 827 1
587 827 1
593 827 1
226 828 1
228 828 1
491 828 1
498 828 1
588 828 1
594 828 1
227 829 1
229 829 1
492 829 1
499 829 1
589 829 1
595 829 1
228 830 1
230 830 1
493 830 1
500 830 1
590 830 1
596 830 1
229 831 1
231 831 1
494 831 1
501 831 1
591 831 1
597 831 1
230 832 1
232 832 1
495 832 1
502 832 1
592 832 1
598 832 1
231 833 1
233 833 1
496 833 1
503 833 1
593 833 1
599 833 1
232 834 1
234 834 1
497 834 1
504 834 1
594 834 1
600 834 1
233 835 1
235 835 1
498 835 1
505 835 1
571 835 1
595 835 1
234 836 1
236 836 1
499 836 1
506 836 1
572 836 1
596 836 1
235 837 1
237 837 1
500 837 1
507 837 1
573 837 1
597 837 1
236 838 1
238 838 1
501 838 1
508 838 1
574 838 1
598 838 1
237 839 1
239 839 1
502 839 1
509 839 1
575 839 1
599 839 1
238 840 1
240 840 1
503 840 1
510 840 1
576 840 1
600 840 1
241 841 1
269 841 1
511 841 1
534 841 1
571 841 1
580 841 1
242 842 1
270 842 1
512 842 1
535 842 1
572 842 1
581 842 1
241 843 1
243 843 1
513 843 1
536 843 1
573 843 1
582 843 1
242 844 1
244 844 1
514 844 1
537 844 1
574 844 1
583 844 1
243 845 1
245 845 1
515 845 1
538 845 1
575 845 1
584 845 1
244 846 1
246 846 1
516 846 1
539 846 1
576 846 1
585 846 1
245 847 1
247 847 1
517 847 1
540 847 1
577 847 1
586 847 1
246 848 1
248 848 1
511 848 1
518 848 1
578 848 1
587 848 1
247 849 1
249 849 1
512 849 1
519 849 1
579 849 1
588 849 1
248 850 1
250 850 1
513 850 1
520 850 1
580 850 1
589 850 1
249 851 1
251 851 1
514 851 1
521 851 1
581 851 1
590 851 1
250 852 1
252 852 1
515 852 1
522 852 1
582 852 1
591 852 1
251 853 1
253 853 1
516 853 1
523 853 1
583 853 1
592 853 1
252 854 1
254 854 1
517 854 1
524 854 1
584 854 1
593 854 1
253 855 1
255 855 1
518 855 1
525 855 1
585 855 1
594 855 1
254 856 1
256 856 1
519 856 1
526 856 1
586 856 1
595 856 1
255 857 1
257 857 1
520 857 1
527 857 1
587 857 1
596 857 1
256 858 1
258 858 1
521 858 1
528 858 1
588 858 1
597 858 1
257 859 1
259 859 1
522 859 1
529 859 1
589 859 1
598 859 1
258 860 1
260 860 1
523 860 1
530 860 1
590 860 1
599 860 1
259 861 1
261 861 1
524 861 1
531 861 1
591 861 1
600 861 1
260 862 1
262 862 1
525 862 1
532 862 1
571 862 1
592 862 1
261 863 1
263 863 1
526 863 1
533 863 1
572 863 1
593 863 1
262 864 1
264 864 1
527 864 1
534 864 1
573 864 1
594 864 1
263 865 1
265 865 1
528 865 1
535 865 1
574 865 1
595 865 1
264 866 1
266 866 1
529 866 1
536 866 1
575 866 1
596 866 1
265 867 1
267 867 1
530 867 1
537 867 1
576 867 1
597 867 1
266 868 1
268 868 1
531 868 1
538 868 1
577 868 1
598 868 1
267 869 1
269 869 1
532 869 1
539 869 1
578 869 1
599 869 1
268 870 1
270 870 1
533 870 1
540 870 1
579 870 1
600 870 1
271 871 1
299 871 1
541 871 1
564 871 1
571 871 1
588 871 1
272 872 1
300 872 1
542 872 1
565 872 1
572 872 1
589 872 1
271 873 1
273 873 1
543 873 1
566 873 1
573 873 1
590 873 1
272 874 1
274 874 1
544 874 1
567 874 1
574 874 1
591 874 1
273 875 1
275 875 1
545 875 1
568 875 1
575 875 1
592 875 1
274 876 1
276 876 1
546 876 1
569 876 1
576 876 1
593 876 1
275 877 1
277 877 1
547 877 1
570 877 1
577 877 1
594 877 1
276 878 1
278 878 1
541 878 1
548 878 1
578 878 1
595 878 1
277 879 1
279 879 1
542 879 1
549 879 1
579 879 1
596 879 1
278 880 1
280 880 1
543 880 1
550 880 1
580 880 1
597 880 1
279 881 1
281 881 1
544 881 1
551 881 1
581 881 1
598 881 1
280 882 1
282 882 1
545 882 1
552 882 1
582 882 1
599 882 1
281 883 1
283 883 1
546 883 1
553 883 1
583 883 1
600 883 1
282 884 1
284 884 1
547 884 1
554 884 1
571 884 1
584 884 1
283 885 1
285 885 1
548 885 1
555 885 1
572 885 1
585 885 1
284 886 1
286 886 1
549 886 1
556 886 1
573 886 1
586 886 1
285 887 1
287 887 1
550 887 1
557 887 1
574 887 1
587 887 1
286 888 1
288 888 1
551 888 1
558 888 1
575 888 1
588 888 1
287 889 1
289 889 1
552 889 1
559 889 1
576 889 1
589 889 1
288 890 1
290 890 1
553 890 1
560 890 1
577 890 1
590 890 1
289 891 1
291 891 1
554 891 1
561 891 1
578 891 1
591 891 1
290 892 1
292 892 1
555 892 1
562 892 1
579 892 1
592 892 1
291 893 1
293 893 1
556 893 1
563 893 1
580 893 1
593 893 1
292 894 1
294 894 1
557 894 1
564 894 1
581 894 1
594 894 1
293 895 1
295 895 1
558 895 1
565 895 1
582 895 1
595 895 1
294 896 1
296 896 1
559 896 1
566 896 1
583 896 1
596 896 1
295 897 1
297 897 1
560 897 1
567 897 1
584 897 1
597 897 1
296 898 1
298 898 1
561 898 1
568 898 1
585 898 1
598 898 1
297 899 1
299 899 1
562 899 1
569 899 1
586 899 1
599 899 1
298 900 1
300 900 1
563 900 1
570 900 1
587 900 1
600 900 1
301 901 1
329 901 1
451 901 1
476 901 1
601 901 1
602 901 1
302 902 1
330 902 1
452 902 1
477 902 1
602 902 1
603 902 1
301 903 1
303 903 1
453 903 1
478 903 1
603 903 1
604 903 1
302 904 1
304 904 1
454 904 1
479 904 1
604 904 1
605 904 1
303 905 1
305 905 1
455 905 1
480 905 1
605 905 1
606 905 1
304 906 1
306 906 1
451 906 1
456 906 1
606 906 1
607 906 1
305 907 1
307 907 1
452 907 1
457 907 1
607 907 1
608 907 1
306 908 1
308 908 1
453 908 1
458 908 1
608 908 1
609 908 1
307 909 1
309 909 1
454 909 1
459 909 1
609 909 1
610 909 1
308 910 1
310 910 1
455 910 1
460 910 1
610 910 1
611 910 1
309 911 1
311 911 1
456 911 1
461 911 1
611 911 1
612 911 1
310 912 1
312 912 1
457 912 1
462 912 1
612 912 1
613 912 1
311 913 1
313 913 1
458 913 1
463 913 1
613 913 1
614 913 1
312 914 1
314 914 1
459 914 1
464 914 1
614 914 1
615 914 1
313 915 1
315 915 1
460 915 1
465 915 1
615 915 1
616 915 1
314 916 1
316 916 1
461 916 1
466 916 1
616 916 1
617 916 1
315 917 1
317 917 1
462 917 1
467 917 1
617 917 1
618 917 1
316 918 1
318 918 1
463 918 1
468 918 1
618 918 1
619 918 1
317 919 1
319 919 1
464 919 1
469 919 1
619 919 1
620 919 1
318 920 1
320 920 1
465 920 1
470 920 1
620 920 1
621 920 1
319 921 1
321 921 1
466 921 1
471 921 1
621 921 1
622 921 1
320 922 1
322 922 1
467 922 1
472 922 1
622 922 1
623 922 1
321 923 1
323 923 1
468 923 1
473 923 1
623 923 1
624 923 1
322 924 1
324 924 1
469 924 1
474 924 1
624 924 1
625 924 1
323 925 1
325 925 1
470 925 1
475 925 1
625 925 1
626 925 1
324 926 1
326 926 1
471 926 1
476 926 1
626 926 1
627 926 1
325 927 1
327 927 1
472 927 1
477 927 1
627 927 1
628 927 1
326 928 1
328 928 1
473 928 1
478 928 1
628 928 1
629 928 1
327 929 1
329 929 1
474 929 1
479 929 1
629 929 1
630 929 1
328 930 1
330 930 1
475 930 1
480 930 1
601 930 1
630 930 1
331 931 1
359 931 1
481 931 1
506 931 1
601 931 1
607 931 1
332 932 1
360 932 1
482 932 1
507 932 1
602 932 1
608 932 1
331 933 1
333 933 1
483 933 1
508 933 1
603 933 1
609 933 1
332 934 1
334 934 1
484 934 1
509 934 1
604 934 1
610 934 1
333 935 1
335 935 1
485 935 1
510 935 1
605 935 1
611 935 1
334 936 1
336 936 1
481 936 1
486 936 1
606 936 1
612 936 1
335 937 1
337 937 1
482 937 1
487 937 1
607 937 1
613 937 1
336 938 1
338 938 1
483 938 1
488 938 1
608 938 1
614 938 1
337 939 1
339 939 1
484 939 1
489 939 1
609 939 1
615 939 1
338 940 1
340 940 1
485 940 1
490 940 1
610 940 1
616 940 1
339 941 1
341 941 1
486 941 1
491 941 1
611 941 1
617 941 1
340 942 1
342 942 1
487 942 1
492 942 1
612 942 1
618 942 1
341 943 1
343 943 1
488 943 1
493 943 1
613 943 1
619 943 1
342 944 1
344 944 1
489 944 1
494 944 1
614 944 1
620 944 1
343 945 1
345 945 1
490 945 1
495 945 1
615 945 1
621 945 1
344 946 1
346 946 1
491 946 1
496 946 1
616 946 1
622 946 1
345 947 1
347 947 1
492 947 1
497 947 1
617 947 1
623 947 1
346 948 1
348 948 1
493 948 1
498 948 1
618 948 1
624 948 1
347 949 1
349 949 1
494 949 1
499 949 1
619 949 1
625 949 1
348 950 1
350 950 1
495 950 1
500 950 1
620 950 1
626 950 1
349 951 1
351 951 1
496 951 1
501 951 1
621 951 1
627 951 1
350 952 1
352 952 1
497 952 1
502 952 1
622 952 1
628 952 1
351 953 1
353 953 1
498 953 1
503 953 1
623 953 1
629 953 1
352 954 1
354 954 1
499 954 1
504 954 1
624 954 1
630 954 1
353 955 1
355 955 1
500 955 1
505 955 1
601 955 1
625 955 1
354 956 1
356 956 1
501 956 1
506 956 1
602 956 1
626 956 1
355 957 1
357 957 1
502 957 1
507 957 1
603 957 1
627 957 1
356 958 1
358 958 1
503 958 1
508 958 1
604 958 1
628 958 1
357 959 1
359 959 1
504 959 1
509 959 1
605 959 1
629 959 1
358 960 1
360 960 1
505 960 1
510 960 1
606 960 1
630 960 1
361 961 1
389 961 1
511 961 1
536 961 1
601 961 1
610 961 1
362 962 1
390 962 1
512 962 1
537 962 1
602 962 1
611 962 1
361 963 1
363 963 1
513 963 1
538 963 1
603 963 1
612 963 1
362 964 1
364 964 1
514 964 1
539 964 1
604 964 1
613 964 1
363 965 1
365 965 1
515 965 1
540 965 1
605 965 1
614 965 1
364 966 1
366 966 1
511 966 1
516 966 1
606 966 1
615 966 1
365 967 1
367 967 1
512 967 1
517 967 1
607 967 1
616 967 1
366 968 1
368 968 1
513 968 1
518 968 1
608 968 1
617 968 1
367 969 1
369 969 1
514 969 1
519 969 1
609 969 1
618 969 1
368 970 1
370 970 1
515 970 1
520 970 1
610 970 1
619 970 1
369 971 1
371 971 1
516 971 1
521 971 1
611 971 1
620 971 1
370 972 1
372 972 1
517 972 1
522 972 1
612 972 1
621 972 1
371 973 1
373 973 1
518 973 1
523 973 1
613 973 1
622 973 1
372 974 1
374 974 1
519 974 1
524 974 1
614 974 1
623 974 1
373 975 1
375 975 1
520 975 1
525 975 1
615 975 1
624 975 1
374 976 1
376 976 1
521 976 1
526 976 1
616 976 1
625 976 1
375 977 1
377 977 1
522 977 1
527 977 1
617 977 1
626 977 1
376 978 1
378 978 1
523 978 1
528 978 1
618 978 1
627 978 1
377 979 1
379 979 1
524 979 1
529 979 1
619 979 1
628 979 1
378 980 1
380 980 1
525 980 1
530 980 1
620 980 1
629 980 1
379 981 1
381 981 1
526 981 1
531 981 1
621 981 1
630 981 1
380 982 1
382 982 1
527 982 1
532 982 1
601 982 1
622 982 1
381 983 1
383 983 1
528 983 1
533 983 1
602 983 1
623 983 1
382 984 1
384 984 1
529 984 1
534 984 1
603 984 1
624 984 1
383 985 1
385 985 1
530 985 1
535 985 1
604 985 1
625 985 1
384 986 1
386 986 1
531 986 1
536 986 1
605 986 1
626 986 1
385 987 1
387 987 1
532 987 1
537 987 1
606 987 1
627 987 1
386 988 1
388 988 1
533 988 1
538 988 1
607 988 1
628 988 1
387 989 1
389 989 1
534 989 1
539 989 1
608 989 1
629 989 1
388 990 1
390 990 1
535 990 1
540 990 1
609 990 1
630 990 1
391 991 1
419 991 1
541 991 1
566 991 1
601 991 1
618 991 1
392 992 1
420 992 1
542 992 1
567 992 1
602 992 1
619 992 1
391 993 1
393 993 1
543 993 1
568 993 1
603 993 1
620 993 1
392 994 1
394 994 1
544 994 1
569 994 1
604 994 1
621 994 1
393 995 1
395 995 1
545 995 1
570 995 1
605 995 1
622 995 1
394 996 1
396 996 1
541 996 1
546 996 1
606 996 1
623 996 1
395 997 1
397 997 1
542 997 1
547 997 1
607 997 1
624 997 1
396 998 1
398 998 1
543 998 1
548 998 1
608 998 1
625 998 1
397 999 1
399 999 1
544 999 1
549 999 1
609 999 1
626 999 1
398 1000 1
400 1000 1
545 1000 1
550 1000 1
610 1000 1
627 1000 1
399 1001 1
401 1001 1
546 1001 1
551 1001 1
611 1001 1
628 1001 1
400 1002 1
402 1002 1
547 1002 1
552 1002 1
612 1002 1
629 1002 1
401 1003 1
403 1003 1
548 1003 1
553 1003 1
613 1003 1
630 1003 1
402 1004 1
404 1004 1
549 1004 1
554 1004 1
601 1004 1
614 1004 1
403 1005 1
405 1005 1
550 1005 1
555 1005 1
602 1005 1
615 1005 1
404 1006 1
406 1006 1
551 1006 1
556 1006 1
603 1006 1
616 1006 1
405 1007 1
407 1007 1
552 1007 1
557 1007 1
604 1007 1
617 1007 1
406 1008 1
408 1008 1
553 1008 1
558 1008 1
605 1008 1
618 1008 1
407 1009 1
409 1009 1
554 1009 1
559 1009 1
606 1009 1
619 1009 1
408 1010 1
410 1010 1
555 1010 1
560 1010 1
607 1010 1
620 1010 1
409 1011 1
411 1011 1
556 1011 1
561 1011 1
608 1011 1
621 1011 1
410 1012 1
412 1012 1
557 1012 1
562 1012 1
609 1012 1
622 1012 1
411 1013 1
413 1013 1
558 1013 1
563 1013 1
610 1013 1
623 1013 1
412 1014 1
414 1014 1
559 1014 1
564 1014 1
611 1014 1
624 1014 1
413 1015 1
415 1015 1
560 1015 1
565 1015 1
612 1015 1
625 1015 1
414 1016 1
416 1016 1
561 1016 1
566 1016 1
613 1016 1
626 1016 1
415 1017 1
417 1017 1
562 1017 1
567 1017 1
614 1017 1
627 1017 1
416 1018 1
418 1018 1
563 1018 1
568 1018 1
615 1018 1
628 1018 1
417 1019 1
419 1019 1
564 1019 1
569 1019 1
616 1019 1
629 1019 1
418 1020 1
420 1020 1
565 1020 1
570 1020 1
617 1020 1
630 1020 1
421 1021 1
449 1021 1
571 1021 1
596 1021 1
601 1021 1
624 1021 1
422 1022 1
450 1022 1
572 1022 1
597 1022 1
602 1022 1
625 1022 1
421 1023 1
423 1023 1
573 1023 1
598 1023 1
603 1023 1
626 1023 1
422 1024 1
424 1024 1
574 1024 1
599 1024 1
604 1024 1
627 1024 1
423 1025 1
425 1025 1
575 1025 1
600 1025 1
605 1025 1
628 1025 1
424 1026 1
426 1026 1
571 1026 1
576 1026 1
606 1026 1
629 1026 1
425 1027 1
427 1027 1
572 1027 1
577 1027 1
607 1027 1
630 1027 1
426 1028 1
428 1028 1
573 1028 1
578 1028 1
601 1028 1
608 1028 1
427 1029 1
429 1029 1
574 1029 1
579 1029 1
602 1029 1
609 1029 1
428 1030 1
430 1030 1
575 1030 1
580 1030 1
603 1030 1
610 1030 1
429 1031 1
431 1031 1
576 1031 1
581 1031 1
604 1031 1
611 1031 1
430 1032 1
432 1032 1
577 1032 1
582 1032 1
605 1032 1
612 1032 1
431 1033 1
433 1033 1
578 1033 1
583 1033 1
606 1033 1
613 1033 1
432 1034 1
434 1034 1
579 1034 1
584 1034 1
607 1034 1
614 1034 1
433 1035 1
435 1035 1
580 1035 1
585 1035 1
608 1035 1
615 1035 1
434 1036 1
436 1036 1
581 1036 1
586 1036 1
609 1036 1
616 1036 1
435 1037 1
437 1037 1
582 1037 1
587 1037 1
610 1037 1
617 1037 1
436 1038 1
438 1038 1
583 1038 1
588 1038 1
611 1038 1
618 1038 1
437 1039 1
439 1039 1
584 1039 1
589 1039 1
612 1039 1
619 1039 1
438 1040 1
440 1040 1
585 1040 1
590 1040 1
613 1040 1
620 1040 1
439 1041 1
441 1041 1
586 1041 1
591 1041 1
614 1041 1
621 1041 1
440 1042 1
442 1042 1
587 1042 1
592 1042 1
615 1042 1
622 1042 1
441 1043 1
443 1043 1
588 1043 1
593 1043 1
616 1043 1
623 1043 1
442 1044 1
444 1044 1
589 1044 1
594 1044 1
617 1044 1
624 1044 1
443 1045 1
445 1045 1
590 1045 1
595 1045 1
618 1045 1
625 1045 1
444 1046 1
446 1046 1
591 1046 1
596 1046 1
619 1046 1
626 1046 1
445 1047 1
447 1047 1
592 1047 1
597 1047 1
620 1047 1
627 1047 1
446 1048 1
448 1048 1
593 1048 1
598 1048 1
621 1048 1
628 1048 1
447 1049 1
449 1049 1
594 1049 1
599 1049 1
622 1049 1
629 1049 1
448 1050 1
450 1050 1
595 1050 1
600 1050 1
623 1050 1
630 1050 1
