%%MatrixMarket matrix coordinate integer general
% Binary matrix; one-based indices; arithmetic over GF(2)
1568 1960 15680
1 1 1
11 1 1
29 1 1
37 1 1
57 1 1
62 1 1
85 1 1
87 1 1
2 2 1
12 2 1
30 2 1
38 2 1
58 2 1
63 2 1
86 2 1
88 2 1
3 3 1
13 3 1
31 3 1
39 3 1
59 3 1
64 3 1
87 3 1
89 3 1
4 4 1
14 4 1
32 4 1
40 4 1
60 4 1
65 4 1
88 4 1
90 4 1
5 5 1
15 5 1
33 5 1
41 5 1
61 5 1
66 5 1
89 5 1
91 5 1
6 6 1
16 6 1
34 6 1
42 6 1
62 6 1
67 6 1
90 6 1
92 6 1
7 7 1
17 7 1
35 7 1
43 7 1
63 7 1
68 7 1
91 7 1
93 7 1
8 8 1
18 8 1
36 8 1
44 8 1
64 8 1
69 8 1
92 8 1
94 8 1
9 9 1
19 9 1
37 9 1
45 9 1
65 9 1
70 9 1
93 9 1
95 9 1
10 10 1
20 10 1
38 10 1
46 10 1
66 10 1
71 10 1
94 10 1
96 10 1
11 11 1
21 11 1
39 11 1
47 11 1
67 11 1
72 11 1
95 11 1
97 11 1
12 12 1
22 12 1
40 12 1
48 12 1
68 12 1
73 12 1
96 12 1
98 12 1
13 13 1
23 13 1
41 13 1
49 13 1
69 13 1
74 13 1
97 13 1
99 13 1
14 14 1
24 14 1
42 14 1
50 14 1
70 14 1
75 14 1
98 14 1
100 14 1
15 15 1
25 15 1
43 15 1
51 15 1
71 15 1
76 15 1
99 15 1
101 15 1
16 16 1
26 16 1
44 16 1
52 16 1
72 16 1
77 16 1
100 16 1
102 16 1
17 17 1
27 17 1
45 17 1
53 17 1
73 17 1
78 17 1
101 17 1
103 17 1
18 18 1
28 18 1
46 18 1
54 18 1
74 18 1
79 18 1
102 18 1
104 18 1
1 19 1
19 19 1
47 19 1
55 19 1
75 19 1
80 19 1
103 19 1
105 19 1
2 20 1
20 20 1
48 20 1
56 20 1
76 20 1
81 20 1
104 20 1
106 20 1
3 21 1
21 21 1
29 21 1
49 21 1
77 21 1
82 21 1
105 21 1
107 21 1
4 22 1
22 22 1
30 22 1
50 22 1
78 22 1
83 22 1
106 22 1
108 22 1
5 23 1
23 23 1
31 23 1
51 23 1
79 23 1
84 23 1
107 23 1
109 23 1
6 24 1
24 24 1
32 24 1
52 24 1
57 24 1
80 24 1
108 24 1
110 24 1
7 25 1
25 25 1
33 25 1
53 25 1
58 25 1
81 25 1
109 25 1
111 25 1
8 26 1
26 26 1
34 26 1
54 26 1
59 26 1
82 26 1
110 26 1
112 26 1
9 27 1
27 27 1
35 27 1
55 27 1
60 27 1
83 27 1
85 27 1
111 27 1
10 28 1
28 28 1
36 28 1
56 28 1
61 28 1
84 28 1
86 28 1
112 28 1
1 29 1
12 29 1
113 29 1
121 29 1
141 29 1
146 29 1
169 29 1
171 29 1
2 30 1
13 30 1
114 30 1
122 30 1
142 30 1
147 30 1
170 30 1
172 30 1
3 31 1
14 31 1
115 31 1
123 31 1
143 31 1
148 31 1
171 31 1
173 31 1
4 32 1
15 32 1
116 32 1
124 32 1
144 32 1
149 32 1
172 32 1
174 32 1
5 33 1
16 33 1
117 33 1
125 33 1
145 33 1
150 33 1
173 33 1
175 33 1
6 34 1
17 34 1
118 34 1
126 34 1
146 34 1
151 34 1
174 34 1
176 34 1
7 35 1
18 35 1
119 35 1
127 35 1
147 35 1
152 35 1
175 35 1
177 35 1
8 36 1
19 36 1
120 36 1
128 36 1
148 36 1
153 36 1
176 36 1
178 36 1
9 37 1
20 37 1
121 37 1
129 37 1
149 37 1
154 37 1
177 37 1
179 37 1
10 38 1
21 38 1
122 38 1
130 38 1
150 38 1
155 38 1
178 38 1
180 38 1
11 39 1
22 39 1
123 39 1
131 39 1
151 39 1
156 39 1
179 39 1
181 39 1
12 40 1
23 40 1
124 40 1
132 40 1
152 40 1
157 40 1
180 40 1
182 40 1
13 41 1
24 41 1
125 41 1
133 41 1
153 41 1
158 41 1
181 41 1
183 41 1
14 42 1
25 42 1
126 42 1
134 42 1
154 42 1
159 42 1
182 42 1
184 42 1
15 43 1
26 43 1
127 43 1
135 43 1
155 43 1
160 43 1
183 43 1
185 43 1
16 44 1
27 44 1
128 44 1
136 44 1
156 44 1
161 44 1
184 44 1
186 44 1
17 45 1
28 45 1
129 45 1
137 45 1
157 45 1
162 45 1
185 45 1
187 45 1
1 46 1
18 46 1
130 46 1
138 46 1
158 46 1
163 46 1
186 46 1
188 46 1
2 47 1
19 47 1
131 47 1
139 47 1
159 47 1
164 47 1
187 47 1
189 47 1
3 48 1
20 48 1
132 48 1
140 48 1
160 48 1
165 48 1
188 48 1
190 48 1
4 49 1
21 49 1
113 49 1
133 49 1
161 49 1
166 49 1
189 49 1
191 49 1
5 50 1
22 50 1
114 50 1
134 50 1
162 50 1
167 50 1
190 50 1
192 50 1
6 51 1
23 51 1
115 51 1
135 51 1
163 51 1
168 51 1
191 51 1
193 51 1
7 52 1
24 52 1
116 52 1
136 52 1
141 52 1
164 52 1
192 52 1
194 52 1
8 53 1
25 53 1
117 53 1
137 53 1
142 53 1
165 53 1
193 53 1
195 53 1
9 54 1
26 54 1
118 54 1
138 54 1
143 54 1
166 54 1
194 54 1
196 54 1
10 55 1
27 55 1
119 55 1
139 55 1
144 55 1
167 55 1
169 55 1
195 55 1
11 56 1
28 56 1
120 56 1
140 56 1
145 56 1
168 56 1
170 56 1
196 56 1
29 57 1
40 57 1
113 57 1
123 57 1
197 57 1
202 57 1
225 57 1
227 57 1
30 58 1
41 58 1
114 58 1
124 58 1
198 58 1
203 58 1
226 58 1
228 58 1
31 59 1
42 59 1
115 59 1
125 59 1
199 59 1
204 59 1
227 59 1
229 59 1
32 60 1
43 60 1
116 60 1
126 60 1
200 60 1
205 60 1
228 60 1
230 60 1
33 61 1
44 61 1
117 61 1
127 61 1
201 61 1
206 61 1
229 61 1
231 61 1
34 62 1
45 62 1
118 62 1
128 62 1
202 62 1
207 62 1
230 62 1
232 62 1
35 63 1
46 63 1
119 63 1
129 63 1
203 63 1
208 63 1
231 63 1
233 63 1
36 64 1
47 64 1
120 64 1
130 64 1
204 64 1
209 64 1
232 64 1
234 64 1
37 65 1
48 65 1
121 65 1
131 65 1
205 65 1
210 65 1
233 65 1
235 65 1
38 66 1
49 66 1
122 66 1
132 66 1
206 66 1
211 66 1
234 66 1
236 66 1
39 67 1
50 67 1
123 67 1
133 67 1
207 67 1
212 67 1
235 67 1
237 67 1
40 68 1
51 68 1
124 68 1
134 68 1
208 68 1
213 68 1
236 68 1
238 68 1
41 69 1
52 69 1
125 69 1
135 69 1
209 69 1
214 69 1
237 69 1
239 69 1
42 70 1
53 70 1
126 70 1
136 70 1
210 70 1
215 70 1
238 70 1
240 70 1
43 71 1
54 71 1
127 71 1
137 71 1
211 71 1
216 71 1
239 71 1
241 71 1
44 72 1
55 72 1
128 72 1
138 72 1
212 72 1
217 72 1
240 72 1
242 72 1
45 73 1
56 73 1
129 73 1
139 73 1
213 73 1
218 73 1
241 73 1
243 73 1
29 74 1
46 74 1
130 74 1
140 74 1
214 74 1
219 74 1
242 74 1
244 74 1
30 75 1
47 75 1
113 75 1
131 75 1
215 75 1
220 75 1
243 75 1
245 75 1
31 76 1
48 76 1
114 76 1
132 76 1
216 76 1
221 76 1
244 76 1
246 76 1
32 77 1
49 77 1
115 77 1
133 77 1
217 77 1
222 77 1
245 77 1
247 77 1
33 78 1
50 78 1
116 78 1
134 78 1
218 78 1
223 78 1
246 78 1
248 78 1
34 79 1
51 79 1
117 79 1
135 79 1
219 79 1
224 79 1
247 79 1
249 79 1
35 80 1
52 80 1
118 80 1
136 80 1
197 80 1
220 80 1
248 80 1
250 80 1
36 81 1
53 81 1
119 81 1
137 81 1
198 81 1
221 81 1
249 81 1
251 81 1
37 82 1
54 82 1
120 82 1
138 82 1
199 82 1
222 82 1
250 82 1
252 82 1
38 83 1
55 83 1
121 83 1
139 83 1
200 83 1
223 83 1
225 83 1
251 83 1
39 84 1
56 84 1
122 84 1
140 84 1
201 84 1
224 84 1
226 84 1
252 84 1
57 85 1
68 85 1
141 85 1
151 85 1
197 85 1
205 85 1
253 85 1
255 85 1
58 86 1
69 86 1
142 86 1
152 86 1
198 86 1
206 86 1
254 86 1
256 86 1
59 87 1
70 87 1
143 87 1
153 87 1
199 87 1
207 87 1
255 87 1
257 87 1
60 88 1
71 88 1
144 88 1
154 88 1
200 88 1
208 88 1
256 88 1
258 88 1
61 89 1
72 89 1
145 89 1
155 89 1
201 89 1
209 89 1
257 89 1
259 89 1
62 90 1
73 90 1
146 90 1
156 90 1
202 90 1
210 90 1
258 90 1
260 90 1
63 91 1
74 91 1
147 91 1
157 91 1
203 91 1
211 91 1
259 91 1
261 91 1
64 92 1
75 92 1
148 92 1
158 92 1
204 92 1
212 92 1
260 92 1
262 92 1
65 93 1
76 93 1
149 93 1
159 93 1
205 93 1
213 93 1
261 93 1
263 93 1
66 94 1
77 94 1
150 94 1
160 94 1
206 94 1
214 94 1
262 94 1
264 94 1
67 95 1
78 95 1
151 95 1
161 95 1
207 95 1
215 95 1
263 95 1
265 95 1
68 96 1
79 96 1
152 96 1
162 96 1
208 96 1
216 96 1
264 96 1
266 96 1
69 97 1
80 97 1
153 97 1
163 97 1
209 97 1
217 97 1
265 97 1
267 97 1
70 98 1
81 98 1
154 98 1
164 98 1
210 98 1
218 98 1
266 98 1
268 98 1
71 99 1
82 99 1
155 99 1
165 99 1
211 99 1
219 99 1
267 99 1
269 99 1
72 100 1
83 100 1
156 100 1
166 100 1
212 100 1
220 100 1
268 100 1
270 100 1
73 101 1
84 101 1
157 101 1
167 101 1
213 101 1
221 101 1
269 101 1
271 101 1
57 102 1
74 102 1
158 102 1
168 102 1
214 102 1
222 102 1
270 102 1
272 102 1
58 103 1
75 103 1
141 103 1
159 103 1
215 103 1
223 103 1
271 103 1
273 103 1
59 104 1
76 104 1
142 104 1
160 104 1
216 104 1
224 104 1
272 104 1
274 104 1
60 105 1
77 105 1
143 105 1
161 105 1
197 105 1
217 105 1
273 105 1
275 105 1
61 106 1
78 106 1
144 106 1
162 106 1
198 106 1
218 106 1
274 106 1
276 106 1
62 107 1
79 107 1
145 107 1
163 107 1
199 107 1
219 107 1
275 107 1
277 107 1
63 108 1
80 108 1
146 108 1
164 108 1
200 108 1
220 108 1
276 108 1
278 108 1
64 109 1
81 109 1
147 109 1
165 109 1
201 109 1
221 109 1
277 109 1
279 109 1
65 110 1
82 110 1
148 110 1
166 110 1
202 110 1
222 110 1
278 110 1
280 110 1
66 111 1
83 111 1
149 111 1
167 111 1
203 111 1
223 111 1
253 111 1
279 111 1
67 112 1
84 112 1
150 112 1
168 112 1
204 112 1
224 112 1
254 112 1
280 112 1
85 113 1
96 113 1
169 113 1
179 113 1
225 113 1
233 113 1
253 113 1
258 113 1
86 114 1
97 114 1
170 114 1
180 114 1
226 114 1
234 114 1
254 114 1
259 114 1
87 115 1
98 115 1
171 115 1
181 115 1
227 115 1
235 115 1
255 115 1
260 115 1
88 116 1
99 116 1
172 116 1
182 116 1
228 116 1
236 116 1
256 116 1
261 116 1
89 117 1
100 117 1
173 117 1
183 117 1
229 117 1
237 117 1
257 117 1
262 117 1
90 118 1
101 118 1
174 118 1
184 118 1
230 118 1
238 118 1
258 118 1
263 118 1
91 119 1
102 119 1
175 119 1
185 119 1
231 119 1
239 119 1
259 119 1
264 119 1
92 120 1
103 120 1
176 120 1
186 120 1
232 120 1
240 120 1
260 120 1
265 120 1
93 121 1
104 121 1
177 121 1
187 121 1
233 121 1
241 121 1
261 121 1
266 121 1
94 122 1
105 122 1
178 122 1
188 122 1
234 122 1
242 122 1
262 122 1
267 122 1
95 123 1
106 123 1
179 123 1
189 123 1
235 123 1
243 123 1
263 123 1
268 123 1
96 124 1
107 124 1
180 124 1
190 124 1
236 124 1
244 124 1
264 124 1
269 124 1
97 125 1
108 125 1
181 125 1
191 125 1
237 125 1
245 125 1
265 125 1
270 125 1
98 126 1
109 126 1
182 126 1
192 126 1
238 126 1
246 126 1
266 126 1
271 126 1
99 127 1
110 127 1
183 127 1
193 127 1
239 127 1
247 127 1
267 127 1
272 127 1
100 128 1
111 128 1
184 128 1
194 128 1
240 128 1
248 128 1
268 128 1
273 128 1
101 129 1
112 129 1
185 129 1
195 129 1
241 129 1
249 129 1
269 129 1
274 129 1
85 130 1
102 130 1
186 130 1
196 130 1
242 130 1
250 130 1
270 130 1
275 130 1
86 131 1
103 131 1
169 131 1
187 131 1
243 131 1
251 131 1
271 131 1
276 131 1
87 132 1
104 132 1
170 132 1
188 132 1
244 132 1
252 132 1
272 132 1
277 132 1
88 133 1
105 133 1
171 133 1
189 133 1
225 133 1
245 133 1
273 133 1
278 133 1
89 134 1
106 134 1
172 134 1
190 134 1
226 134 1
246 134 1
274 134 1
279 134 1
90 135 1
107 135 1
173 135 1
191 135 1
227 135 1
247 135 1
275 135 1
280 135 1
91 136 1
108 136 1
174 136 1
192 136 1
228 136 1
248 136 1
253 136 1
276 136 1
92 137 1
109 137 1
175 137 1
193 137 1
229 137 1
249 137 1
254 137 1
277 137 1
93 138 1
110 138 1
176 138 1
194 138 1
230 138 1
250 138 1
255 138 1
278 138 1
94 139 1
111 139 1
177 139 1
195 139 1
231 139 1
251 139 1
256 139 1
279 139 1
95 140 1
112 140 1
178 140 1
196 140 1
232 140 1
252 140 1
257 140 1
280 140 1
1 141 1
17 141 1
281 141 1
289 141 1
309 141 1
314 141 1
337 141 1
339 141 1
2 142 1
18 142 1
282 142 1
290 142 1
310 142 1
315 142 1
338 142 1
340 142 1
3 143 1
19 143 1
283 143 1
291 143 1
311 143 1
316 143 1
339 143 1
341 143 1
4 144 1
20 144 1
284 144 1
292 144 1
312 144 1
317 144 1
340 144 1
342 144 1
5 145 1
21 145 1
285 145 1
293 145 1
313 145 1
318 145 1
341 145 1
343 145 1
6 146 1
22 146 1
286 146 1
294 146 1
314 146 1
319 146 1
342 146 1
344 146 1
7 147 1
23 147 1
287 147 1
295 147 1
315 147 1
320 147 1
343 147 1
345 147 1
8 148 1
24 148 1
288 148 1
296 148 1
316 148 1
321 148 1
344 148 1
346 148 1
9 149 1
25 149 1
289 149 1
297 149 1
317 149 1
322 149 1
345 149 1
347 149 1
10 150 1
26 150 1
290 150 1
298 150 1
318 150 1
323 150 1
346 150 1
348 150 1
11 151 1
27 151 1
291 151 1
299 151 1
319 151 1
324 151 1
347 151 1
349 151 1
12 152 1
28 152 1
292 152 1
300 152 1
320 152 1
325 152 1
348 152 1
350 152 1
1 153 1
13 153 1
293 153 1
301 153 1
321 153 1
326 153 1
349 153 1
351 153 1
2 154 1
14 154 1
294 154 1
302 154 1
322 154 1
327 154 1
350 154 1
352 154 1
3 155 1
15 155 1
295 155 1
303 155 1
323 155 1
328 155 1
351 155 1
353 155 1
4 156 1
16 156 1
296 156 1
304 156 1
324 156 1
329 156 1
352 156 1
354 156 1
5 157 1
17 157 1
297 157 1
305 157 1
325 157 1
330 157 1
353 157 1
355 157 1
6 158 1
18 158 1
298 158 1
306 158 1
326 158 1
331 158 1
354 158 1
356 158 1
7 159 1
19 159 1
299 159 1
307 159 1
327 159 1
332 159 1
355 159 1
357 159 1
8 160 1
20 160 1
300 160 1
308 160 1
328 160 1
333 160 1
356 160 1
358 160 1
9 161 1
21 161 1
281 161 1
301 161 1
329 161 1
334 161 1
357 161 1
359 161 1
10 162 1
22 162 1
282 162 1
302 162 1
330 162 1
335 162 1
358 162 1
360 162 1
11 163 1
23 163 1
283 163 1
303 163 1
331 163 1
336 163 1
359 163 1
361 163 1
12 164 1
24 164 1
284 164 1
304 164 1
309 164 1
332 164 1
360 164 1
362 164 1
13 165 1
25 165 1
285 165 1
305 165 1
310 165 1
333 165 1
361 165 1
363 165 1
14 166 1
26 166 1
286 166 1
306 166 1
311 166 1
334 166 1
362 166 1
364 166 1
15 167 1
27 167 1
287 167 1
307 167 1
312 167 1
335 167 1
337 167 1
363 167 1
16 168 1
28 168 1
288 168 1
308 168 1
313 168 1
336 168 1
338 168 1
364 168 1
29 169 1
45 169 1
281 169 1
291 169 1
365 169 1
370 169 1
393 169 1
395 169 1
30 170 1
46 170 1
282 170 1
292 170 1
366 170 1
371 170 1
394 170 1
396 170 1
31 171 1
47 171 1
283 171 1
293 171 1
367 171 1
372 171 1
395 171 1
397 171 1
32 172 1
48 172 1
284 172 1
294 172 1
368 172 1
373 172 1
396 172 1
398 172 1
33 173 1
49 173 1
285 173 1
295 173 1
369 173 1
374 173 1
397 173 1
399 173 1
34 174 1
50 174 1
286 174 1
296 174 1
370 174 1
375 174 1
398 174 1
400 174 1
35 175 1
51 175 1
287 175 1
297 175 1
371 175 1
376 175 1
399 175 1
401 175 1
36 176 1
52 176 1
288 176 1
298 176 1
372 176 1
377 176 1
400 176 1
402 176 1
37 177 1
53 177 1
289 177 1
299 177 1
373 177 1
378 177 1
401 177 1
403 177 1
38 178 1
54 178 1
290 178 1
300 178 1
374 178 1
379 178 1
402 178 1
404 178 1
39 179 1
55 179 1
291 179 1
301 179 1
375 179 1
380 179 1
403 179 1
405 179 1
40 180 1
56 180 1
292 180 1
302 180 1
376 180 1
381 180 1
404 180 1
406 180 1
29 181 1
41 181 1
293 181 1
303 181 1
377 181 1
382 181 1
405 181 1
407 181 1
30 182 1
42 182 1
294 182 1
304 182 1
378 182 1
383 182 1
406 182 1
408 182 1
31 183 1
43 183 1
295 183 1
305 183 1
379 183 1
384 183 1
407 183 1
409 183 1
32 184 1
44 184 1
296 184 1
306 184 1
380 184 1
385 184 1
408 184 1
410 184 1
33 185 1
45 185 1
297 185 1
307 185 1
381 185 1
386 185 1
409 185 1
411 185 1
34 186 1
46 186 1
298 186 1
308 186 1
382 186 1
387 186 1
410 186 1
412 186 1
35 187 1
47 187 1
281 187 1
299 187 1
383 187 1
388 187 1
411 187 1
413 187 1
36 188 1
48 188 1
282 188 1
300 188 1
384 188 1
389 188 1
412 188 1
414 188 1
37 189 1
49 189 1
283 189 1
301 189 1
385 189 1
390 189 1
413 189 1
415 189 1
38 190 1
50 190 1
284 190 1
302 190 1
386 190 1
391 190 1
414 190 1
416 190 1
39 191 1
51 191 1
285 191 1
303 191 1
387 191 1
392 191 1
415 191 1
417 191 1
40 192 1
52 192 1
286 192 1
304 192 1
365 192 1
388 192 1
416 192 1
418 192 1
41 193 1
53 193 1
287 193 1
305 193 1
366 193 1
389 193 1
417 193 1
419 193 1
42 194 1
54 194 1
288 194 1
306 194 1
367 194 1
390 194 1
418 194 1
420 194 1
43 195 1
55 195 1
289 195 1
307 195 1
368 195 1
391 195 1
393 195 1
419 195 1
44 196 1
56 196 1
290 196 1
308 196 1
369 196 1
392 196 1
394 196 1
420 196 1
57 197 1
73 197 1
309 197 1
319 197 1
365 197 1
373 197 1
421 197 1
423 197 1
58 198 1
74 198 1
310 198 1
320 198 1
366 198 1
374 198 1
422 198 1
424 198 1
59 199 1
75 199 1
311 199 1
321 199 1
367 199 1
375 199 1
423 199 1
425 199 1
60 200 1
76 200 1
312 200 1
322 200 1
368 200 1
376 200 1
424 200 1
426 200 1
61 201 1
77 201 1
313 201 1
323 201 1
369 201 1
377 201 1
425 201 1
427 201 1
62 202 1
78 202 1
314 202 1
324 202 1
370 202 1
378 202 1
426 202 1
428 202 1
63 203 1
79 203 1
315 203 1
325 203 1
371 203 1
379 203 1
427 203 1
429 203 1
64 204 1
80 204 1
316 204 1
326 204 1
372 204 1
380 204 1
428 204 1
430 204 1
65 205 1
81 205 1
317 205 1
327 205 1
373 205 1
381 205 1
429 205 1
431 205 1
66 206 1
82 206 1
318 206 1
328 206 1
374 206 1
382 206 1
430 206 1
432 206 1
67 207 1
83 207 1
319 207 1
329 207 1
375 207 1
383 207 1
431 207 1
433 207 1
68 208 1
84 208 1
320 208 1
330 208 1
376 208 1
384 208 1
432 208 1
434 208 1
57 209 1
69 209 1
321 209 1
331 209 1
377 209 1
385 209 1
433 209 1
435 209 1
58 210 1
70 210 1
322 210 1
332 210 1
378 210 1
386 210 1
434 210 1
436 210 1
59 211 1
71 211 1
323 211 1
333 211 1
379 211 1
387 211 1
435 211 1
437 211 1
60 212 1
72 212 1
324 212 1
334 212 1
380 212 1
388 212 1
436 212 1
438 212 1
61 213 1
73 213 1
325 213 1
335 213 1
381 213 1
389 213 1
437 213 1
439 213 1
62 214 1
74 214 1
326 214 1
336 214 1
382 214 1
390 214 1
438 214 1
440 214 1
63 215 1
75 215 1
309 215 1
327 215 1
383 215 1
391 215 1
439 215 1
441 215 1
64 216 1
76 216 1
310 216 1
328 216 1
384 216 1
392 216 1
440 216 1
442 216 1
65 217 1
77 217 1
311 217 1
329 217 1
365 217 1
385 217 1
441 217 1
443 217 1
66 218 1
78 218 1
312 218 1
330 218 1
366 218 1
386 218 1
442 218 1
444 218 1
67 219 1
79 219 1
313 219 1
331 219 1
367 219 1
387 219 1
443 219 1
445 219 1
68 220 1
80 220 1
314 220 1
332 220 1
368 220 1
388 220 1
444 220 1
446 220 1
69 221 1
81 221 1
315 221 1
333 221 1
369 221 1
389 221 1
445 221 1
447 221 1
70 222 1
82 222 1
316 222 1
334 222 1
370 222 1
390 222 1
446 222 1
448 222 1
71 223 1
83 223 1
317 223 1
335 223 1
371 223 1
391 223 1
421 223 1
447 223 1
72 224 1
84 224 1
318 224 1
336 224 1
372 224 1
392 224 1
422 224 1
448 224 1
85 225 1
101 225 1
337 225 1
347 225 1
393 225 1
401 225 1
421 225 1
426 225 1
86 226 1
102 226 1
338 226 1
348 226 1
394 226 1
402 226 1
422 226 1
427 226 1
87 227 1
103 227 1
339 227 1
349 227 1
395 227 1
403 227 1
423 227 1
428 227 1
88 228 1
104 228 1
340 228 1
350 228 1
396 228 1
404 228 1
424 228 1
429 228 1
89 229 1
105 229 1
341 229 1
351 229 1
397 229 1
405 229 1
425 229 1
430 229 1
90 230 1
106 230 1
342 230 1
352 230 1
398 230 1
406 230 1
426 230 1
431 230 1
91 231 1
107 231 1
343 231 1
353 231 1
399 231 1
407 231 1
427 231 1
432 231 1
92 232 1
108 232 1
344 232 1
354 232 1
400 232 1
408 232 1
428 232 1
433 232 1
93 233 1
109 233 1
345 233 1
355 233 1
401 233 1
409 233 1
429 233 1
434 233 1
94 234 1
110 234 1
346 234 1
356 234 1
402 234 1
410 234 1
430 234 1
435 234 1
95 235 1
111 235 1
347 235 1
357 235 1
403 235 1
411 235 1
431 235 1
436 235 1
96 236 1
112 236 1
348 236 1
358 236 1
404 236 1
412 236 1
432 236 1
437 236 1
85 237 1
97 237 1
349 237 1
359 237 1
405 237 1
413 237 1
433 237 1
438 237 1
86 238 1
98 238 1
350 238 1
360 238 1
406 238 1
414 238 1
434 238 1
439 238 1
87 239 1
99 239 1
351 239 1
361 239 1
407 239 1
415 239 1
435 239 1
440 239 1
88 240 1
100 240 1
352 240 1
362 240 1
408 240 1
416 240 1
436 240 1
441 240 1
89 241 1
101 241 1
353 241 1
363 241 1
409 241 1
417 241 1
437 241 1
442 241 1
90 242 1
102 242 1
354 242 1
364 242 1
410 242 1
418 242 1
438 242 1
443 242 1
91 243 1
103 243 1
337 243 1
355 243 1
411 243 1
419 243 1
439 243 1
444 243 1
92 244 1
104 244 1
338 244 1
356 244 1
412 244 1
420 244 1
440 244 1
445 244 1
93 245 1
105 245 1
339 245 1
357 245 1
393 245 1
413 245 1
441 245 1
446 245 1
94 246 1
106 246 1
340 246 1
358 246 1
394 246 1
414 246 1
442 246 1
447 246 1
95 247 1
107 247 1
341 247 1
359 247 1
395 247 1
415 247 1
443 247 1
448 247 1
96 248 1
108 248 1
342 248 1
360 248 1
396 248 1
416 248 1
421 248 1
444 248 1
97 249 1
109 249 1
343 249 1
361 249 1
397 249 1
417 249 1
422 249 1
445 249 1
98 250 1
110 250 1
344 250 1
362 250 1
398 250 1
418 250 1
423 250 1
446 250 1
99 251 1
111 251 1
345 251 1
363 251 1
399 251 1
419 251 1
424 251 1
447 251 1
100 252 1
112 252 1
346 252 1
364 252 1
400 252 1
420 252 1
425 252 1
448 252 1
113 253 1
129 253 1
281 253 1
292 253 1
449 253 1
454 253 1
477 253 1
479 253 1
114 254 1
130 254 1
282 254 1
293 254 1
450 254 1
455 254 1
478 254 1
480 254 1
115 255 1
131 255 1
283 255 1
294 255 1
451 255 1
456 255 1
479 255 1
481 255 1
116 256 1
132 256 1
284 256 1
295 256 1
452 256 1
457 256 1
480 256 1
482 256 1
117 257 1
133 257 1
285 257 1
296 257 1
453 257 1
458 257 1
481 257 1
483 257 1
118 258 1
134 258 1
286 258 1
297 258 1
454 258 1
459 258 1
482 258 1
484 258 1
119 259 1
135 259 1
287 259 1
298 259 1
455 259 1
460 259 1
483 259 1
485 259 1
120 260 1
136 260 1
288 260 1
299 260 1
456 260 1
461 260 1
484 260 1
486 260 1
121 261 1
137 261 1
289 261 1
300 261 1
457 261 1
462 261 1
485 261 1
487 261 1
122 262 1
138 262 1
290 262 1
301 262 1
458 262 1
463 262 1
486 262 1
488 262 1
123 263 1
139 263 1
291 263 1
302 263 1
459 263 1
464 263 1
487 263 1
489 263 1
124 264 1
140 264 1
292 264 1
303 264 1
460 264 1
465 264 1
488 264 1
490 264 1
113 265 1
125 265 1
293 265 1
304 265 1
461 265 1
466 265 1
489 265 1
491 265 1
114 266 1
126 266 1
294 266 1
305 266 1
462 266 1
467 266 1
490 266 1
492 266 1
115 267 1
127 267 1
295 267 1
306 267 1
463 267 1
468 267 1
491 267 1
493 267 1
116 268 1
128 268 1
296 268 1
307 268 1
464 268 1
469 268 1
492 268 1
494 268 1
117 269 1
129 269 1
297 269 1
308 269 1
465 269 1
470 269 1
493 269 1
495 269 1
118 270 1
130 270 1
281 270 1
298 270 1
466 270 1
471 270 1
494 270 1
496 270 1
119 271 1
131 271 1
282 271 1
299 271 1
467 271 1
472 271 1
495 271 1
497 271 1
120 272 1
132 272 1
283 272 1
300 272 1
468 272 1
473 272 1
496 272 1
498 272 1
121 273 1
133 273 1
284 273 1
301 273 1
469 273 1
474 273 1
497 273 1
499 273 1
122 274 1
134 274 1
285 274 1
302 274 1
470 274 1
475 274 1
498 274 1
500 274 1
123 275 1
135 275 1
286 275 1
303 275 1
471 275 1
476 275 1
499 275 1
501 275 1
124 276 1
136 276 1
287 276 1
304 276 1
449 276 1
472 276 1
500 276 1
502 276 1
125 277 1
137 277 1
288 277 1
305 277 1
450 277 1
473 277 1
501 277 1
503 277 1
126 278 1
138 278 1
289 278 1
306 278 1
451 278 1
474 278 1
502 278 1
504 278 1
127 279 1
139 279 1
290 279 1
307 279 1
452 279 1
475 279 1
477 279 1
503 279 1
128 280 1
140 280 1
291 280 1
308 280 1
453 280 1
476 280 1
478 280 1
504 280 1
141 281 1
157 281 1
309 281 1
320 281 1
449 281 1
457 281 1
505 281 1
507 281 1
142 282 1
158 282 1
310 282 1
321 282 1
450 282 1
458 282 1
506 282 1
508 282 1
143 283 1
159 283 1
311 283 1
322 283 1
451 283 1
459 283 1
507 283 1
509 283 1
144 284 1
160 284 1
312 284 1
323 284 1
452 284 1
460 284 1
508 284 1
510 284 1
145 285 1
161 285 1
313 285 1
324 285 1
453 285 1
461 285 1
509 285 1
511 285 1
146 286 1
162 286 1
314 286 1
325 286 1
454 286 1
462 286 1
510 286 1
512 286 1
147 287 1
163 287 1
315 287 1
326 287 1
455 287 1
463 287 1
511 287 1
513 287 1
148 288 1
164 288 1
316 288 1
327 288 1
456 288 1
464 288 1
512 288 1
514 288 1
149 289 1
165 289 1
317 289 1
328 289 1
457 289 1
465 289 1
513 289 1
515 289 1
150 290 1
166 290 1
318 290 1
329 290 1
458 290 1
466 290 1
514 290 1
516 290 1
151 291 1
167 291 1
319 291 1
330 291 1
459 291 1
467 291 1
515 291 1
517 291 1
152 292 1
168 292 1
320 292 1
331 292 1
460 292 1
468 292 1
516 292 1
518 292 1
141 293 1
153 293 1
321 293 1
332 293 1
461 293 1
469 293 1
517 293 1
519 293 1
142 294 1
154 294 1
322 294 1
333 294 1
462 294 1
470 294 1
518 294 1
520 294 1
143 295 1
155 295 1
323 295 1
334 295 1
463 295 1
471 295 1
519 295 1
521 295 1
144 296 1
156 296 1
324 296 1
335 296 1
464 296 1
472 296 1
520 296 1
522 296 1
145 297 1
157 297 1
325 297 1
336 297 1
465 297 1
473 297 1
521 297 1
523 297 1
146 298 1
158 298 1
309 298 1
326 298 1
466 298 1
474 298 1
522 298 1
524 298 1
147 299 1
159 299 1
310 299 1
327 299 1
467 299 1
475 299 1
523 299 1
525 299 1
148 300 1
160 300 1
311 300 1
328 300 1
468 300 1
476 300 1
524 300 1
526 300 1
149 301 1
161 301 1
312 301 1
329 301 1
449 301 1
469 301 1
525 301 1
527 301 1
150 302 1
162 302 1
313 302 1
330 302 1
450 302 1
470 302 1
526 302 1
528 302 1
151 303 1
163 303 1
314 303 1
331 303 1
451 303 1
471 303 1
527 303 1
529 303 1
152 304 1
164 304 1
315 304 1
332 304 1
452 304 1
472 304 1
528 304 1
530 304 1
153 305 1
165 305 1
316 305 1
333 305 1
453 305 1
473 305 1
529 305 1
531 305 1
154 306 1
166 306 1
317 306 1
334 306 1
454 306 1
474 306 1
530 306 1
532 306 1
155 307 1
167 307 1
318 307 1
335 307 1
455 307 1
475 307 1
505 307 1
531 307 1
156 308 1
168 308 1
319 308 1
336 308 1
456 308 1
476 308 1
506 308 1
532 308 1
169 309 1
185 309 1
337 309 1
348 309 1
477 309 1
485 309 1
505 309 1
510 309 1
170 310 1
186 310 1
338 310 1
349 310 1
478 310 1
486 310 1
506 310 1
511 310 1
171 311 1
187 311 1
339 311 1
350 311 1
479 311 1
487 311 1
507 311 1
512 311 1
172 312 1
188 312 1
340 312 1
351 312 1
480 312 1
488 312 1
508 312 1
513 312 1
173 313 1
189 313 1
341 313 1
352 313 1
481 313 1
489 313 1
509 313 1
514 313 1
174 314 1
190 314 1
342 314 1
353 314 1
482 314 1
490 314 1
510 314 1
515 314 1
175 315 1
191 315 1
343 315 1
354 315 1
483 315 1
491 315 1
511 315 1
516 315 1
176 316 1
192 316 1
344 316 1
355 316 1
484 316 1
492 316 1
512 316 1
517 316 1
177 317 1
193 317 1
345 317 1
356 317 1
485 317 1
493 317 1
513 317 1
518 317 1
178 318 1
194 318 1
346 318 1
357 318 1
486 318 1
494 318 1
514 318 1
519 318 1
179 319 1
195 319 1
347 319 1
358 319 1
487 319 1
495 319 1
515 319 1
520 319 1
180 320 1
196 320 1
348 320 1
359 320 1
488 320 1
496 320 1
516 320 1
521 320 1
169 321 1
181 321 1
349 321 1
360 321 1
489 321 1
497 321 1
517 321 1
522 321 1
170 322 1
182 322 1
350 322 1
361 322 1
490 322 1
498 322 1
518 322 1
523 322 1
171 323 1
183 323 1
351 323 1
362 323 1
491 323 1
499 323 1
519 323 1
524 323 1
172 324 1
184 324 1
352 324 1
363 324 1
492 324 1
500 324 1
520 324 1
525 324 1
173 325 1
185 325 1
353 325 1
364 325 1
493 325 1
501 325 1
521 325 1
526 325 1
174 326 1
186 326 1
337 326 1
354 326 1
494 326 1
502 326 1
522 326 1
527 326 1
175 327 1
187 327 1
338 327 1
355 327 1
495 327 1
503 327 1
523 327 1
528 327 1
176 328 1
188 328 1
339 328 1
356 328 1
496 328 1
504 328 1
524 328 1
529 328 1
177 329 1
189 329 1
340 329 1
357 329 1
477 329 1
497 329 1
525 329 1
530 329 1
178 330 1
190 330 1
341 330 1
358 330 1
478 330 1
498 330 1
526 330 1
531 330 1
179 331 1
191 331 1
342 331 1
359 331 1
479 331 1
499 331 1
527 331 1
532 331 1
180 332 1
192 332 1
343 332 1
360 332 1
480 332 1
500 332 1
505 332 1
528 332 1
181 333 1
193 333 1
344 333 1
361 333 1
481 333 1
501 333 1
506 333 1
529 333 1
182 334 1
194 334 1
345 334 1
362 334 1
482 334 1
502 334 1
507 334 1
530 334 1
183 335 1
195 335 1
346 335 1
363 335 1
483 335 1
503 335 1
508 335 1
531 335 1
184 336 1
196 336 1
347 336 1
364 336 1
484 336 1
504 336 1
509 336 1
532 336 1
197 337 1
213 337 1
365 337 1
376 337 1
449 337 1
459 337 1
533 337 1
535 337 1
198 338 1
214 338 1
366 338 1
377 338 1
450 338 1
460 338 1
534 338 1
536 338 1
199 339 1
215 339 1
367 339 1
378 339 1
451 339 1
461 339 1
535 339 1
537 339 1
200 340 1
216 340 1
368 340 1
379 340 1
452 340 1
462 340 1
536 340 1
538 340 1
201 341 1
217 341 1
369 341 1
380 341 1
453 341 1
463 341 1
537 341 1
539 341 1
202 342 1
218 342 1
370 342 1
381 342 1
454 342 1
464 342 1
538 342 1
540 342 1
203 343 1
219 343 1
371 343 1
382 343 1
455 343 1
465 343 1
539 343 1
541 343 1
204 344 1
220 344 1
372 344 1
383 344 1
456 344 1
466 344 1
540 344 1
542 344 1
205 345 1
221 345 1
373 345 1
384 345 1
457 345 1
467 345 1
541 345 1
543 345 1
206 346 1
222 346 1
374 346 1
385 346 1
458 346 1
468 346 1
542 346 1
544 346 1
207 347 1
223 347 1
375 347 1
386 347 1
459 347 1
469 347 1
543 347 1
545 347 1
208 348 1
224 348 1
376 348 1
387 348 1
460 348 1
470 348 1
544 348 1
546 348 1
197 349 1
209 349 1
377 349 1
388 349 1
461 349 1
471 349 1
545 349 1
547 349 1
198 350 1
210 350 1
378 350 1
389 350 1
462 350 1
472 350 1
546 350 1
548 350 1
199 351 1
211 351 1
379 351 1
390 351 1
463 351 1
473 351 1
547 351 1
549 351 1
200 352 1
212 352 1
380 352 1
391 352 1
464 352 1
474 352 1
548 352 1
550 352 1
201 353 1
213 353 1
381 353 1
392 353 1
465 353 1
475 353 1
549 353 1
551 353 1
202 354 1
214 354 1
365 354 1
382 354 1
466 354 1
476 354 1
550 354 1
552 354 1
203 355 1
215 355 1
366 355 1
383 355 1
449 355 1
467 355 1
551 355 1
553 355 1
204 356 1
216 356 1
367 356 1
384 356 1
450 356 1
468 356 1
552 356 1
554 356 1
205 357 1
217 357 1
368 357 1
385 357 1
451 357 1
469 357 1
553 357 1
555 357 1
206 358 1
218 358 1
369 358 1
386 358 1
452 358 1
470 358 1
554 358 1
556 358 1
207 359 1
219 359 1
370 359 1
387 359 1
453 359 1
471 359 1
555 359 1
557 359 1
208 360 1
220 360 1
371 360 1
388 360 1
454 360 1
472 360 1
556 360 1
558 360 1
209 361 1
221 361 1
372 361 1
389 361 1
455 361 1
473 361 1
557 361 1
559 361 1
210 362 1
222 362 1
373 362 1
390 362 1
456 362 1
474 362 1
558 362 1
560 362 1
211 363 1
223 363 1
374 363 1
391 363 1
457 363 1
475 363 1
533 363 1
559 363 1
212 364 1
224 364 1
375 364 1
392 364 1
458 364 1
476 364 1
534 364 1
560 364 1
225 365 1
241 365 1
393 365 1
404 365 1
477 365 1
487 365 1
533 365 1
538 365 1
226 366 1
242 366 1
394 366 1
405 366 1
478 366 1
488 366 1
534 366 1
539 366 1
227 367 1
243 367 1
395 367 1
406 367 1
479 367 1
489 367 1
535 367 1
540 367 1
228 368 1
244 368 1
396 368 1
407 368 1
480 368 1
490 368 1
536 368 1
541 368 1
229 369 1
245 369 1
397 369 1
408 369 1
481 369 1
491 369 1
537 369 1
542 369 1
230 370 1
246 370 1
398 370 1
409 370 1
482 370 1
492 370 1
538 370 1
543 370 1
231 371 1
247 371 1
399 371 1
410 371 1
483 371 1
493 371 1
539 371 1
544 371 1
232 372 1
248 372 1
400 372 1
411 372 1
484 372 1
494 372 1
540 372 1
545 372 1
233 373 1
249 373 1
401 373 1
412 373 1
485 373 1
495 373 1
541 373 1
546 373 1
234 374 1
250 374 1
402 374 1
413 374 1
486 374 1
496 374 1
542 374 1
547 374 1
235 375 1
251 375 1
403 375 1
414 375 1
487 375 1
497 375 1
543 375 1
548 375 1
236 376 1
252 376 1
404 376 1
415 376 1
488 376 1
498 376 1
544 376 1
549 376 1
225 377 1
237 377 1
405 377 1
416 377 1
489 377 1
499 377 1
545 377 1
550 377 1
226 378 1
238 378 1
406 378 1
417 378 1
490 378 1
500 378 1
546 378 1
551 378 1
227 379 1
239 379 1
407 379 1
418 379 1
491 379 1
501 379 1
547 379 1
552 379 1
228 380 1
240 380 1
408 380 1
419 380 1
492 380 1
502 380 1
548 380 1
553 380 1
229 381 1
241 381 1
409 381 1
420 381 1
493 381 1
503 381 1
549 381 1
554 381 1
230 382 1
242 382 1
393 382 1
410 382 1
494 382 1
504 382 1
550 382 1
555 382 1
231 383 1
243 383 1
394 383 1
411 383 1
477 383 1
495 383 1
551 383 1
556 383 1
232 384 1
244 384 1
395 384 1
412 384 1
478 384 1
496 384 1
552 384 1
557 384 1
233 385 1
245 385 1
396 385 1
413 385 1
479 385 1
497 385 1
553 385 1
558 385 1
234 386 1
246 386 1
397 386 1
414 386 1
480 386 1
498 386 1
554 386 1
559 386 1
235 387 1
247 387 1
398 387 1
415 387 1
481 387 1
499 387 1
555 387 1
560 387 1
236 388 1
248 388 1
399 388 1
416 388 1
482 388 1
500 388 1
533 388 1
556 388 1
237 389 1
249 389 1
400 389 1
417 389 1
483 389 1
501 389 1
534 389 1
557 389 1
238 390 1
250 390 1
401 390 1
418 390 1
484 390 1
502 390 1
535 390 1
558 390 1
239 391 1
251 391 1
402 391 1
419 391 1
485 391 1
503 391 1
536 391 1
559 391 1
240 392 1
252 392 1
403 392 1
420 392 1
486 392 1
504 392 1
537 392 1
560 392 1
253 393 1
269 393 1
421 393 1
432 393 1
505 393 1
515 393 1
533 393 1
541 393 1
254 394 1
270 394 1
422 394 1
433 394 1
506 394 1
516 394 1
534 394 1
542 394 1
255 395 1
271 395 1
423 395 1
434 395 1
507 395 1
517 395 1
535 395 1
543 395 1
256 396 1
272 396 1
424 396 1
435 396 1
508 396 1
518 396 1
536 396 1
544 396 1
257 397 1
273 397 1
425 397 1
436 397 1
509 397 1
519 397 1
537 397 1
545 397 1
258 398 1
274 398 1
426 398 1
437 398 1
510 398 1
520 398 1
538 398 1
546 398 1
259 399 1
275 399 1
427 399 1
438 399 1
511 399 1
521 399 1
539 399 1
547 399 1
260 400 1
276 400 1
428 400 1
439 400 1
512 400 1
522 400 1
540 400 1
548 400 1
261 401 1
277 401 1
429 401 1
440 401 1
513 401 1
523 401 1
541 401 1
549 401 1
262 402 1
278 402 1
430 402 1
441 402 1
514 402 1
524 402 1
542 402 1
550 402 1
263 403 1
279 403 1
431 403 1
442 403 1
515 403 1
525 403 1
543 403 1
551 403 1
264 404 1
280 404 1
432 404 1
443 404 1
516 404 1
526 404 1
544 404 1
552 404 1
253 405 1
265 405 1
433 405 1
444 405 1
517 405 1
527 405 1
545 405 1
553 405 1
254 406 1
266 406 1
434 406 1
445 406 1
518 406 1
528 406 1
546 406 1
554 406 1
255 407 1
267 407 1
435 407 1
446 407 1
519 407 1
529 407 1
547 407 1
555 407 1
256 408 1
268 408 1
436 408 1
447 408 1
520 408 1
530 408 1
548 408 1
556 408 1
257 409 1
269 409 1
437 409 1
448 409 1
521 409 1
531 409 1
549 409 1
557 409 1
258 410 1
270 410 1
421 410 1
438 410 1
522 410 1
532 410 1
550 410 1
558 410 1
259 411 1
271 411 1
422 411 1
439 411 1
505 411 1
523 411 1
551 411 1
559 411 1
260 412 1
272 412 1
423 412 1
440 412 1
506 412 1
524 412 1
552 412 1
560 412 1
261 413 1
273 413 1
424 413 1
441 413 1
507 413 1
525 413 1
533 413 1
553 413 1
262 414 1
274 414 1
425 414 1
442 414 1
508 414 1
526 414 1
534 414 1
554 414 1
263 415 1
275 415 1
426 415 1
443 415 1
509 415 1
527 415 1
535 415 1
555 415 1
264 416 1
276 416 1
427 416 1
444 416 1
510 416 1
528 416 1
536 416 1
556 416 1
265 417 1
277 417 1
428 417 1
445 417 1
511 417 1
529 417 1
537 417 1
557 417 1
266 418 1
278 418 1
429 418 1
446 418 1
512 418 1
530 418 1
538 418 1
558 418 1
267 419 1
279 419 1
430 419 1
447 419 1
513 419 1
531 419 1
539 419 1
559 419 1
268 420 1
280 420 1
431 420 1
448 420 1
514 420 1
532 420 1
540 420 1
560 420 1
1 421 1
18 421 1
561 421 1
569 421 1
589 421 1
594 421 1
617 421 1
619 421 1
2 422 1
19 422 1
562 422 1
570 422 1
590 422 1
595 422 1
618 422 1
620 422 1
3 423 1
20 423 1
563 423 1
571 423 1
591 423 1
596 423 1
619 423 1
621 423 1
4 424 1
21 424 1
564 424 1
572 424 1
592 424 1
597 424 1
620 424 1
622 424 1
5 425 1
22 425 1
565 425 1
573 425 1
593 425 1
598 425 1
621 425 1
623 425 1
6 426 1
23 426 1
566 426 1
574 426 1
594 426 1
599 426 1
622 426 1
624 426 1
7 427 1
24 427 1
567 427 1
575 427 1
595 427 1
600 427 1
623 427 1
625 427 1
8 428 1
25 428 1
568 428 1
576 428 1
596 428 1
601 428 1
624 428 1
626 428 1
9 429 1
26 429 1
569 429 1
577 429 1
597 429 1
602 429 1
625 429 1
627 429 1
10 430 1
27 430 1
570 430 1
578 430 1
598 430 1
603 430 1
626 430 1
628 430 1
11 431 1
28 431 1
571 431 1
579 431 1
599 431 1
604 431 1
627 431 1
629 431 1
1 432 1
12 432 1
572 432 1
580 432 1
600 432 1
605 432 1
628 432 1
630 432 1
2 433 1
13 433 1
573 433 1
581 433 1
601 433 1
606 433 1
629 433 1
631 433 1
3 434 1
14 434 1
574 434 1
582 434 1
602 434 1
607 434 1
630 434 1
632 434 1
4 435 1
15 435 1
575 435 1
583 435 1
603 435 1
608 435 1
631 435 1
633 435 1
5 436 1
16 436 1
576 436 1
584 436 1
604 436 1
609 436 1
632 436 1
634 436 1
6 437 1
17 437 1
577 437 1
585 437 1
605 437 1
610 437 1
633 437 1
635 437 1
7 438 1
18 438 1
578 438 1
586 438 1
606 438 1
611 438 1
634 438 1
636 438 1
8 439 1
19 439 1
579 439 1
587 439 1
607 439 1
612 439 1
635 439 1
637 439 1
9 440 1
20 440 1
580 440 1
588 440 1
608 440 1
613 440 1
636 440 1
638 440 1
10 441 1
21 441 1
561 441 1
581 441 1
609 441 1
614 441 1
637 441 1
639 441 1
11 442 1
22 442 1
562 442 1
582 442 1
610 442 1
615 442 1
638 442 1
640 442 1
12 443 1
23 443 1
563 443 1
583 443 1
611 443 1
616 443 1
639 443 1
641 443 1
13 444 1
24 444 1
564 444 1
584 444 1
589 444 1
612 444 1
640 444 1
642 444 1
14 445 1
25 445 1
565 445 1
585 445 1
590 445 1
613 445 1
641 445 1
643 445 1
15 446 1
26 446 1
566 446 1
586 446 1
591 446 1
614 446 1
642 446 1
644 446 1
16 447 1
27 447 1
567 447 1
587 447 1
592 447 1
615 447 1
617 447 1
643 447 1
17 448 1
28 448 1
568 448 1
588 448 1
593 448 1
616 448 1
618 448 1
644 448 1
29 449 1
46 449 1
561 449 1
571 449 1
645 449 1
650 449 1
673 449 1
675 449 1
30 450 1
47 450 1
562 450 1
572 450 1
646 450 1
651 450 1
674 450 1
676 450 1
31 451 1
48 451 1
563 451 1
573 451 1
647 451 1
652 451 1
675 451 1
677 451 1
32 452 1
49 452 1
564 452 1
574 452 1
648 452 1
653 452 1
676 452 1
678 452 1
33 453 1
50 453 1
565 453 1
575 453 1
649 453 1
654 453 1
677 453 1
679 453 1
34 454 1
51 454 1
566 454 1
576 454 1
650 454 1
655 454 1
678 454 1
680 454 1
35 455 1
52 455 1
567 455 1
577 455 1
651 455 1
656 455 1
679 455 1
681 455 1
36 456 1
53 456 1
568 456 1
578 456 1
652 456 1
657 456 1
680 456 1
682 456 1
37 457 1
54 457 1
569 457 1
579 457 1
653 457 1
658 457 1
681 457 1
683 457 1
38 458 1
55 458 1
570 458 1
580 458 1
654 458 1
659 458 1
682 458 1
684 458 1
39 459 1
56 459 1
571 459 1
581 459 1
655 459 1
660 459 1
683 459 1
685 459 1
29 460 1
40 460 1
572 460 1
582 460 1
656 460 1
661 460 1
684 460 1
686 460 1
30 461 1
41 461 1
573 461 1
583 461 1
657 461 1
662 461 1
685 461 1
687 461 1
31 462 1
42 462 1
574 462 1
584 462 1
658 462 1
663 462 1
686 462 1
688 462 1
32 463 1
43 463 1
575 463 1
585 463 1
659 463 1
664 463 1
687 463 1
689 463 1
33 464 1
44 464 1
576 464 1
586 464 1
660 464 1
665 464 1
688 464 1
690 464 1
34 465 1
45 465 1
577 465 1
587 465 1
661 465 1
666 465 1
689 465 1
691 465 1
35 466 1
46 466 1
578 466 1
588 466 1
662 466 1
667 466 1
690 466 1
692 466 1
36 467 1
47 467 1
561 467 1
579 467 1
663 467 1
668 467 1
691 467 1
693 467 1
37 468 1
48 468 1
562 468 1
580 468 1
664 468 1
669 468 1
692 468 1
694 468 1
38 469 1
49 469 1
563 469 1
581 469 1
665 469 1
670 469 1
693 469 1
695 469 1
39 470 1
50 470 1
564 470 1
582 470 1
666 470 1
671 470 1
694 470 1
696 470 1
40 471 1
51 471 1
565 471 1
583 471 1
667 471 1
672 471 1
695 471 1
697 471 1
41 472 1
52 472 1
566 472 1
584 472 1
645 472 1
668 472 1
696 472 1
698 472 1
42 473 1
53 473 1
567 473 1
585 473 1
646 473 1
669 473 1
697 473 1
699 473 1
43 474 1
54 474 1
568 474 1
586 474 1
647 474 1
670 474 1
698 474 1
700 474 1
44 475 1
55 475 1
569 475 1
587 475 1
648 475 1
671 475 1
673 475 1
699 475 1
45 476 1
56 476 1
570 476 1
588 476 1
649 476 1
672 476 1
674 476 1
700 476 1
57 477 1
74 477 1
589 477 1
599 477 1
645 477 1
653 477 1
701 477 1
703 477 1
58 478 1
75 478 1
590 478 1
600 478 1
646 478 1
654 478 1
702 478 1
704 478 1
59 479 1
76 479 1
591 479 1
601 479 1
647 479 1
655 479 1
703 479 1
705 479 1
60 480 1
77 480 1
592 480 1
602 480 1
648 480 1
656 480 1
704 480 1
706 480 1
61 481 1
78 481 1
593 481 1
603 481 1
649 481 1
657 481 1
705 481 1
707 481 1
62 482 1
79 482 1
594 482 1
604 482 1
650 482 1
658 482 1
706 482 1
708 482 1
63 483 1
80 483 1
595 483 1
605 483 1
651 483 1
659 483 1
707 483 1
709 483 1
64 484 1
81 484 1
596 484 1
606 484 1
652 484 1
660 484 1
708 484 1
710 484 1
65 485 1
82 485 1
597 485 1
607 485 1
653 485 1
661 485 1
709 485 1
711 485 1
66 486 1
83 486 1
598 486 1
608 486 1
654 486 1
662 486 1
710 486 1
712 486 1
67 487 1
84 487 1
599 487 1
609 487 1
655 487 1
663 487 1
711 487 1
713 487 1
57 488 1
68 488 1
600 488 1
610 488 1
656 488 1
664 488 1
712 488 1
714 488 1
58 489 1
69 489 1
601 489 1
611 489 1
657 489 1
665 489 1
713 489 1
715 489 1
59 490 1
70 490 1
602 490 1
612 490 1
658 490 1
666 490 1
714 490 1
716 490 1
60 491 1
71 491 1
603 491 1
613 491 1
659 491 1
667 491 1
715 491 1
717 491 1
61 492 1
72 492 1
604 492 1
614 492 1
660 492 1
668 492 1
716 492 1
718 492 1
62 493 1
73 493 1
605 493 1
615 493 1
661 493 1
669 493 1
717 493 1
719 493 1
63 494 1
74 494 1
606 494 1
616 494 1
662 494 1
670 494 1
718 494 1
720 494 1
64 495 1
75 495 1
589 495 1
607 495 1
663 495 1
671 495 1
719 495 1
721 495 1
65 496 1
76 496 1
590 496 1
608 496 1
664 496 1
672 496 1
720 496 1
722 496 1
66 497 1
77 497 1
591 497 1
609 497 1
645 497 1
665 497 1
721 497 1
723 497 1
67 498 1
78 498 1
592 498 1
610 498 1
646 498 1
666 498 1
722 498 1
724 498 1
68 499 1
79 499 1
593 499 1
611 499 1
647 499 1
667 499 1
723 499 1
725 499 1
69 500 1
80 500 1
594 500 1
612 500 1
648 500 1
668 500 1
724 500 1
726 500 1
70 501 1
81 501 1
595 501 1
613 501 1
649 501 1
669 501 1
725 501 1
727 501 1
71 502 1
82 502 1
596 502 1
614 502 1
650 502 1
670 502 1
726 502 1
728 502 1
72 503 1
83 503 1
597 503 1
615 503 1
651 503 1
671 503 1
701 503 1
727 503 1
73 504 1
84 504 1
598 504 1
616 504 1
652 504 1
672 504 1
702 504 1
728 504 1
85 505 1
102 505 1
617 505 1
627 505 1
673 505 1
681 505 1
701 505 1
706 505 1
86 506 1
103 506 1
618 506 1
628 506 1
674 506 1
682 506 1
702 506 1
707 506 1
87 507 1
104 507 1
619 507 1
629 507 1
675 507 1
683 507 1
703 507 1
708 507 1
88 508 1
105 508 1
620 508 1
630 508 1
676 508 1
684 508 1
704 508 1
709 508 1
89 509 1
106 509 1
621 509 1
631 509 1
677 509 1
685 509 1
705 509 1
710 509 1
90 510 1
107 510 1
622 510 1
632 510 1
678 510 1
686 510 1
706 510 1
711 510 1
91 511 1
108 511 1
623 511 1
633 511 1
679 511 1
687 511 1
707 511 1
712 511 1
92 512 1
109 512 1
624 512 1
634 512 1
680 512 1
688 512 1
708 512 1
713 512 1
93 513 1
110 513 1
625 513 1
635 513 1
681 513 1
689 513 1
709 513 1
714 513 1
94 514 1
111 514 1
626 514 1
636 514 1
682 514 1
690 514 1
710 514 1
715 514 1
95 515 1
112 515 1
627 515 1
637 515 1
683 515 1
691 515 1
711 515 1
716 515 1
85 516 1
96 516 1
628 516 1
638 516 1
684 516 1
692 516 1
712 516 1
717 516 1
86 517 1
97 517 1
629 517 1
639 517 1
685 517 1
693 517 1
713 517 1
718 517 1
87 518 1
98 518 1
630 518 1
640 518 1
686 518 1
694 518 1
714 518 1
719 518 1
88 519 1
99 519 1
631 519 1
641 519 1
687 519 1
695 519 1
715 519 1
720 519 1
89 520 1
100 520 1
632 520 1
642 520 1
688 520 1
696 520 1
716 520 1
721 520 1
90 521 1
101 521 1
633 521 1
643 521 1
689 521 1
697 521 1
717 521 1
722 521 1
91 522 1
102 522 1
634 522 1
644 522 1
690 522 1
698 522 1
718 522 1
723 522 1
92 523 1
103 523 1
617 523 1
635 523 1
691 523 1
699 523 1
719 523 1
724 523 1
93 524 1
104 524 1
618 524 1
636 524 1
692 524 1
700 524 1
720 524 1
725 524 1
94 525 1
105 525 1
619 525 1
637 525 1
673 525 1
693 525 1
721 525 1
726 525 1
95 526 1
106 526 1
620 526 1
638 526 1
674 526 1
694 526 1
722 526 1
727 526 1
96 527 1
107 527 1
621 527 1
639 527 1
675 527 1
695 527 1
723 527 1
728 527 1
97 528 1
108 528 1
622 528 1
640 528 1
676 528 1
696 528 1
701 528 1
724 528 1
98 529 1
109 529 1
623 529 1
641 529 1
677 529 1
697 529 1
702 529 1
725 529 1
99 530 1
110 530 1
624 530 1
642 530 1
678 530 1
698 530 1
703 530 1
726 530 1
100 531 1
111 531 1
625 531 1
643 531 1
679 531 1
699 531 1
704 531 1
727 531 1
101 532 1
112 532 1
626 532 1
644 532 1
680 532 1
700 532 1
705 532 1
728 532 1
113 533 1
130 533 1
561 533 1
572 533 1
729 533 1
734 533 1
757 533 1
759 533 1
114 534 1
131 534 1
562 534 1
573 534 1
730 534 1
735 534 1
758 534 1
760 534 1
115 535 1
132 535 1
563 535 1
574 535 1
731 535 1
736 535 1
759 535 1
761 535 1
116 536 1
133 536 1
564 536 1
575 536 1
732 536 1
737 536 1
760 536 1
762 536 1
117 537 1
134 537 1
565 537 1
576 537 1
733 537 1
738 537 1
761 537 1
763 537 1
118 538 1
135 538 1
566 538 1
577 538 1
734 538 1
739 538 1
762 538 1
764 538 1
119 539 1
136 539 1
567 539 1
578 539 1
735 539 1
740 539 1
763 539 1
765 539 1
120 540 1
137 540 1
568 540 1
579 540 1
736 540 1
741 540 1
764 540 1
766 540 1
121 541 1
138 541 1
569 541 1
580 541 1
737 541 1
742 541 1
765 541 1
767 541 1
122 542 1
139 542 1
570 542 1
581 542 1
738 542 1
743 542 1
766 542 1
768 542 1
123 543 1
140 543 1
571 543 1
582 543 1
739 543 1
744 543 1
767 543 1
769 543 1
113 544 1
124 544 1
572 544 1
583 544 1
740 544 1
745 544 1
768 544 1
770 544 1
114 545 1
125 545 1
573 545 1
584 545 1
741 545 1
746 545 1
769 545 1
771 545 1
115 546 1
126 546 1
574 546 1
585 546 1
742 546 1
747 546 1
770 546 1
772 546 1
116 547 1
127 547 1
575 547 1
586 547 1
743 547 1
748 547 1
771 547 1
773 547 1
117 548 1
128 548 1
576 548 1
587 548 1
744 548 1
749 548 1
772 548 1
774 548 1
118 549 1
129 549 1
577 549 1
588 549 1
745 549 1
750 549 1
773 549 1
775 549 1
119 550 1
130 550 1
561 550 1
578 550 1
746 550 1
751 550 1
774 550 1
776 550 1
120 551 1
131 551 1
562 551 1
579 551 1
747 551 1
752 551 1
775 551 1
777 551 1
121 552 1
132 552 1
563 552 1
580 552 1
748 552 1
753 552 1
776 552 1
778 552 1
122 553 1
133 553 1
564 553 1
581 553 1
749 553 1
754 553 1
777 553 1
779 553 1
123 554 1
134 554 1
565 554 1
582 554 1
750 554 1
755 554 1
778 554 1
780 554 1
124 555 1
135 555 1
566 555 1
583 555 1
751 555 1
756 555 1
779 555 1
781 555 1
125 556 1
136 556 1
567 556 1
584 556 1
729 556 1
752 556 1
780 556 1
782 556 1
126 557 1
137 557 1
568 557 1
585 557 1
730 557 1
753 557 1
781 557 1
783 557 1
127 558 1
138 558 1
569 558 1
586 558 1
731 558 1
754 558 1
782 558 1
784 558 1
128 559 1
139 559 1
570 559 1
587 559 1
732 559 1
755 559 1
757 559 1
783 559 1
129 560 1
140 560 1
571 560 1
588 560 1
733 560 1
756 560 1
758 560 1
784 560 1
141 561 1
158 561 1
589 561 1
600 561 1
729 561 1
737 561 1
785 561 1
787 561 1
142 562 1
159 562 1
590 562 1
601 562 1
730 562 1
738 562 1
786 562 1
788 562 1
143 563 1
160 563 1
591 563 1
602 563 1
731 563 1
739 563 1
787 563 1
789 563 1
144 564 1
161 564 1
592 564 1
603 564 1
732 564 1
740 564 1
788 564 1
790 564 1
145 565 1
162 565 1
593 565 1
604 565 1
733 565 1
741 565 1
789 565 1
791 565 1
146 566 1
163 566 1
594 566 1
605 566 1
734 566 1
742 566 1
790 566 1
792 566 1
147 567 1
164 567 1
595 567 1
606 567 1
735 567 1
743 567 1
791 567 1
793 567 1
148 568 1
165 568 1
596 568 1
607 568 1
736 568 1
744 568 1
792 568 1
794 568 1
149 569 1
166 569 1
597 569 1
608 569 1
737 569 1
745 569 1
793 569 1
795 569 1
150 570 1
167 570 1
598 570 1
609 570 1
738 570 1
746 570 1
794 570 1
796 570 1
151 571 1
168 571 1
599 571 1
610 571 1
739 571 1
747 571 1
795 571 1
797 571 1
141 572 1
152 572 1
600 572 1
611 572 1
740 572 1
748 572 1
796 572 1
798 572 1
142 573 1
153 573 1
601 573 1
612 573 1
741 573 1
749 573 1
797 573 1
799 573 1
143 574 1
154 574 1
602 574 1
613 574 1
742 574 1
750 574 1
798 574 1
800 574 1
144 575 1
155 575 1
603 575 1
614 575 1
743 575 1
751 575 1
799 575 1
801 575 1
145 576 1
156 576 1
604 576 1
615 576 1
744 576 1
752 576 1
800 576 1
802 576 1
146 577 1
157 577 1
605 577 1
616 577 1
745 577 1
753 577 1
801 577 1
803 577 1
147 578 1
158 578 1
589 578 1
606 578 1
746 578 1
754 578 1
802 578 1
804 578 1
148 579 1
159 579 1
590 579 1
607 579 1
747 579 1
755 579 1
803 579 1
805 579 1
149 580 1
160 580 1
591 580 1
608 580 1
748 580 1
756 580 1
804 580 1
806 580 1
150 581 1
161 581 1
592 581 1
609 581 1
729 581 1
749 581 1
805 581 1
807 581 1
151 582 1
162 582 1
593 582 1
610 582 1
730 582 1
750 582 1
806 582 1
808 582 1
152 583 1
163 583 1
594 583 1
611 583 1
731 583 1
751 583 1
807 583 1
809 583 1
153 584 1
164 584 1
595 584 1
612 584 1
732 584 1
752 584 1
808 584 1
810 584 1
154 585 1
165 585 1
596 585 1
613 585 1
733 585 1
753 585 1
809 585 1
811 585 1
155 586 1
166 586 1
597 586 1
614 586 1
734 586 1
754 586 1
810 586 1
812 586 1
156 587 1
167 587 1
598 587 1
615 587 1
735 587 1
755 587 1
785 587 1
811 587 1
157 588 1
168 588 1
599 588 1
616 588 1
736 588 1
756 588 1
786 588 1
812 588 1
169 589 1
186 589 1
617 589 1
628 589 1
757 589 1
765 589 1
785 589 1
790 589 1
170 590 1
187 590 1
618 590 1
629 590 1
758 590 1
766 590 1
786 590 1
791 590 1
171 591 1
188 591 1
619 591 1
630 591 1
759 591 1
767 591 1
787 591 1
792 591 1
172 592 1
189 592 1
620 592 1
631 592 1
760 592 1
768 592 1
788 592 1
793 592 1
173 593 1
190 593 1
621 593 1
632 593 1
761 593 1
769 593 1
789 593 1
794 593 1
174 594 1
191 594 1
622 594 1
633 594 1
762 594 1
770 594 1
790 594 1
795 594 1
175 595 1
192 595 1
623 595 1
634 595 1
763 595 1
771 595 1
791 595 1
796 595 1
176 596 1
193 596 1
624 596 1
635 596 1
764 596 1
772 596 1
792 596 1
797 596 1
177 597 1
194 597 1
625 597 1
636 597 1
765 597 1
773 597 1
793 597 1
798 597 1
178 598 1
195 598 1
626 598 1
637 598 1
766 598 1
774 598 1
794 598 1
799 598 1
179 599 1
196 599 1
627 599 1
638 599 1
767 599 1
775 599 1
795 599 1
800 599 1
169 600 1
180 600 1
628 600 1
639 600 1
768 600 1
776 600 1
796 600 1
801 600 1
170 601 1
181 601 1
629 601 1
640 601 1
769 601 1
777 601 1
797 601 1
802 601 1
171 602 1
182 602 1
630 602 1
641 602 1
770 602 1
778 602 1
798 602 1
803 602 1
172 603 1
183 603 1
631 603 1
642 603 1
771 603 1
779 603 1
799 603 1
804 603 1
173 604 1
184 604 1
632 604 1
643 604 1
772 604 1
780 604 1
800 604 1
805 604 1
174 605 1
185 605 1
633 605 1
644 605 1
773 605 1
781 605 1
801 605 1
806 605 1
175 606 1
186 606 1
617 606 1
634 606 1
774 606 1
782 606 1
802 606 1
807 606 1
176 607 1
187 607 1
618 607 1
635 607 1
775 607 1
783 607 1
803 607 1
808 607 1
177 608 1
188 608 1
619 608 1
636 608 1
776 608 1
784 608 1
804 608 1
809 608 1
178 609 1
189 609 1
620 609 1
637 609 1
757 609 1
777 609 1
805 609 1
810 609 1
179 610 1
190 610 1
621 610 1
638 610 1
758 610 1
778 610 1
806 610 1
811 610 1
180 611 1
191 611 1
622 611 1
639 611 1
759 611 1
779 611 1
807 611 1
812 611 1
181 612 1
192 612 1
623 612 1
640 612 1
760 612 1
780 612 1
785 612 1
808 612 1
182 613 1
193 613 1
624 613 1
641 613 1
761 613 1
781 613 1
786 613 1
809 613 1
183 614 1
194 614 1
625 614 1
642 614 1
762 614 1
782 614 1
787 614 1
810 614 1
184 615 1
195 615 1
626 615 1
643 615 1
763 615 1
783 615 1
788 615 1
811 615 1
185 616 1
196 616 1
627 616 1
644 616 1
764 616 1
784 616 1
789 616 1
812 616 1
197 617 1
214 617 1
645 617 1
656 617 1
729 617 1
739 617 1
813 617 1
815 617 1
198 618 1
215 618 1
646 618 1
657 618 1
730 618 1
740 618 1
814 618 1
816 618 1
199 619 1
216 619 1
647 619 1
658 619 1
731 619 1
741 619 1
815 619 1
817 619 1
200 620 1
217 620 1
648 620 1
659 620 1
732 620 1
742 620 1
816 620 1
818 620 1
201 621 1
218 621 1
649 621 1
660 621 1
733 621 1
743 621 1
817 621 1
819 621 1
202 622 1
219 622 1
650 622 1
661 622 1
734 622 1
744 622 1
818 622 1
820 622 1
203 623 1
220 623 1
651 623 1
662 623 1
735 623 1
745 623 1
819 623 1
821 623 1
204 624 1
221 624 1
652 624 1
663 624 1
736 624 1
746 624 1
820 624 1
822 624 1
205 625 1
222 625 1
653 625 1
664 625 1
737 625 1
747 625 1
821 625 1
823 625 1
206 626 1
223 626 1
654 626 1
665 626 1
738 626 1
748 626 1
822 626 1
824 626 1
207 627 1
224 627 1
655 627 1
666 627 1
739 627 1
749 627 1
823 627 1
825 627 1
197 628 1
208 628 1
656 628 1
667 628 1
740 628 1
750 628 1
824 628 1
826 628 1
198 629 1
209 629 1
657 629 1
668 629 1
741 629 1
751 629 1
825 629 1
827 629 1
199 630 1
210 630 1
658 630 1
669 630 1
742 630 1
752 630 1
826 630 1
828 630 1
200 631 1
211 631 1
659 631 1
670 631 1
743 631 1
753 631 1
827 631 1
829 631 1
201 632 1
212 632 1
660 632 1
671 632 1
744 632 1
754 632 1
828 632 1
830 632 1
202 633 1
213 633 1
661 633 1
672 633 1
745 633 1
755 633 1
829 633 1
831 633 1
203 634 1
214 634 1
645 634 1
662 634 1
746 634 1
756 634 1
830 634 1
832 634 1
204 635 1
215 635 1
646 635 1
663 635 1
729 635 1
747 635 1
831 635 1
833 635 1
205 636 1
216 636 1
647 636 1
664 636 1
730 636 1
748 636 1
832 636 1
834 636 1
206 637 1
217 637 1
648 637 1
665 637 1
731 637 1
749 637 1
833 637 1
835 637 1
207 638 1
218 638 1
649 638 1
666 638 1
732 638 1
750 638 1
834 638 1
836 638 1
208 639 1
219 639 1
650 639 1
667 639 1
733 639 1
751 639 1
835 639 1
837 639 1
209 640 1
220 640 1
651 640 1
668 640 1
734 640 1
752 640 1
836 640 1
838 640 1
210 641 1
221 641 1
652 641 1
669 641 1
735 641 1
753 641 1
837 641 1
839 641 1
211 642 1
222 642 1
653 642 1
670 642 1
736 642 1
754 642 1
838 642 1
840 642 1
212 643 1
223 643 1
654 643 1
671 643 1
737 643 1
755 643 1
813 643 1
839 643 1
213 644 1
224 644 1
655 644 1
672 644 1
738 644 1
756 644 1
814 644 1
840 644 1
225 645 1
242 645 1
673 645 1
684 645 1
757 645 1
767 645 1
813 645 1
818 645 1
226 646 1
243 646 1
674 646 1
685 646 1
758 646 1
768 646 1
814 646 1
819 646 1
227 647 1
244 647 1
675 647 1
686 647 1
759 647 1
769 647 1
815 647 1
820 647 1
228 648 1
245 648 1
676 648 1
687 648 1
760 648 1
770 648 1
816 648 1
821 648 1
229 649 1
246 649 1
677 649 1
688 649 1
761 649 1
771 649 1
817 649 1
822 649 1
230 650 1
247 650 1
678 650 1
689 650 1
762 650 1
772 650 1
818 650 1
823 650 1
231 651 1
248 651 1
679 651 1
690 651 1
763 651 1
773 651 1
819 651 1
824 651 1
232 652 1
249 652 1
680 652 1
691 652 1
764 652 1
774 652 1
820 652 1
825 652 1
233 653 1
250 653 1
681 653 1
692 653 1
765 653 1
775 653 1
821 653 1
826 653 1
234 654 1
251 654 1
682 654 1
693 654 1
766 654 1
776 654 1
822 654 1
827 654 1
235 655 1
252 655 1
683 655 1
694 655 1
767 655 1
777 655 1
823 655 1
828 655 1
225 656 1
236 656 1
684 656 1
695 656 1
768 656 1
778 656 1
824 656 1
829 656 1
226 657 1
237 657 1
685 657 1
696 657 1
769 657 1
779 657 1
825 657 1
830 657 1
227 658 1
238 658 1
686 658 1
697 658 1
770 658 1
780 658 1
826 658 1
831 658 1
228 659 1
239 659 1
687 659 1
698 659 1
771 659 1
781 659 1
827 659 1
832 659 1
229 660 1
240 660 1
688 660 1
699 660 1
772 660 1
782 660 1
828 660 1
833 660 1
230 661 1
241 661 1
689 661 1
700 661 1
773 661 1
783 661 1
829 661 1
834 661 1
231 662 1
242 662 1
673 662 1
690 662 1
774 662 1
784 662 1
830 662 1
835 662 1
232 663 1
243 663 1
674 663 1
691 663 1
757 663 1
775 663 1
831 663 1
836 663 1
233 664 1
244 664 1
675 664 1
692 664 1
758 664 1
776 664 1
832 664 1
837 664 1
234 665 1
245 665 1
676 665 1
693 665 1
759 665 1
777 665 1
833 665 1
838 665 1
235 666 1
246 666 1
677 666 1
694 666 1
760 666 1
778 666 1
834 666 1
839 666 1
236 667 1
247 667 1
678 667 1
695 667 1
761 667 1
779 667 1
835 667 1
840 667 1
237 668 1
248 668 1
679 668 1
696 668 1
762 668 1
780 668 1
813 668 1
836 668 1
238 669 1
249 669 1
680 669 1
697 669 1
763 669 1
781 669 1
814 669 1
837 669 1
239 670 1
250 670 1
681 670 1
698 670 1
764 670 1
782 670 1
815 670 1
838 670 1
240 671 1
251 671 1
682 671 1
699 671 1
765 671 1
783 671 1
816 671 1
839 671 1
241 672 1
252 672 1
683 672 1
700 672 1
766 672 1
784 672 1
817 672 1
840 672 1
253 673 1
270 673 1
701 673 1
712 673 1
785 673 1
795 673 1
813 673 1
821 673 1
254 674 1
271 674 1
702 674 1
713 674 1
786 674 1
796 674 1
814 674 1
822 674 1
255 675 1
272 675 1
703 675 1
714 675 1
787 675 1
797 675 1
815 675 1
823 675 1
256 676 1
273 676 1
704 676 1
715 676 1
788 676 1
798 676 1
816 676 1
824 676 1
257 677 1
274 677 1
705 677 1
716 677 1
789 677 1
799 677 1
817 677 1
825 677 1
258 678 1
275 678 1
706 678 1
717 678 1
790 678 1
800 678 1
818 678 1
826 678 1
259 679 1
276 679 1
707 679 1
718 679 1
791 679 1
801 679 1
819 679 1
827 679 1
260 680 1
277 680 1
708 680 1
719 680 1
792 680 1
802 680 1
820 680 1
828 680 1
261 681 1
278 681 1
709 681 1
720 681 1
793 681 1
803 681 1
821 681 1
829 681 1
262 682 1
279 682 1
710 682 1
721 682 1
794 682 1
804 682 1
822 682 1
830 682 1
263 683 1
280 683 1
711 683 1
722 683 1
795 683 1
805 683 1
823 683 1
831 683 1
253 684 1
264 684 1
712 684 1
723 684 1
796 684 1
806 684 1
824 684 1
832 684 1
254 685 1
265 685 1
713 685 1
724 685 1
797 685 1
807 685 1
825 685 1
833 685 1
255 686 1
266 686 1
714 686 1
725 686 1
798 686 1
808 686 1
826 686 1
834 686 1
256 687 1
267 687 1
715 687 1
726 687 1
799 687 1
809 687 1
827 687 1
835 687 1
257 688 1
268 688 1
716 688 1
727 688 1
800 688 1
810 688 1
828 688 1
836 688 1
258 689 1
269 689 1
717 689 1
728 689 1
801 689 1
811 689 1
829 689 1
837 689 1
259 690 1
270 690 1
701 690 1
718 690 1
802 690 1
812 690 1
830 690 1
838 690 1
260 691 1
271 691 1
702 691 1
719 691 1
785 691 1
803 691 1
831 691 1
839 691 1
261 692 1
272 692 1
703 692 1
720 692 1
786 692 1
804 692 1
832 692 1
840 692 1
262 693 1
273 693 1
704 693 1
721 693 1
787 693 1
805 693 1
813 693 1
833 693 1
263 694 1
274 694 1
705 694 1
722 694 1
788 694 1
806 694 1
814 694 1
834 694 1
264 695 1
275 695 1
706 695 1
723 695 1
789 695 1
807 695 1
815 695 1
835 695 1
265 696 1
276 696 1
707 696 1
724 696 1
790 696 1
808 696 1
816 696 1
836 696 1
266 697 1
277 697 1
708 697 1
725 697 1
791 697 1
809 697 1
817 697 1
837 697 1
267 698 1
278 698 1
709 698 1
726 698 1
792 698 1
810 698 1
818 698 1
838 698 1
268 699 1
279 699 1
710 699 1
727 699 1
793 699 1
811 699 1
819 699 1
839 699 1
269 700 1
280 700 1
711 700 1
728 700 1
794 700 1
812 700 1
820 700 1
840 700 1
281 701 1
298 701 1
561 701 1
577 701 1
841 701 1
846 701 1
869 701 1
871 701 1
282 702 1
299 702 1
562 702 1
578 702 1
842 702 1
847 702 1
870 702 1
872 702 1
283 703 1
300 703 1
563 703 1
579 703 1
843 703 1
848 703 1
871 703 1
873 703 1
284 704 1
301 704 1
564 704 1
580 704 1
844 704 1
849 704 1
872 704 1
874 704 1
285 705 1
302 705 1
565 705 1
581 705 1
845 705 1
850 705 1
873 705 1
875 705 1
286 706 1
303 706 1
566 706 1
582 706 1
846 706 1
851 706 1
874 706 1
876 706 1
287 707 1
304 707 1
567 707 1
583 707 1
847 707 1
852 707 1
875 707 1
877 707 1
288 708 1
305 708 1
568 708 1
584 708 1
848 708 1
853 708 1
876 708 1
878 708 1
289 709 1
306 709 1
569 709 1
585 709 1
849 709 1
854 709 1
877 709 1
879 709 1
290 710 1
307 710 1
570 710 1
586 710 1
850 710 1
855 710 1
878 710 1
880 710 1
291 711 1
308 711 1
571 711 1
587 711 1
851 711 1
856 711 1
879 711 1
881 711 1
281 712 1
292 712 1
572 712 1
588 712 1
852 712 1
857 712 1
880 712 1
882 712 1
282 713 1
293 713 1
561 713 1
573 713 1
853 713 1
858 713 1
881 713 1
883 713 1
283 714 1
294 714 1
562 714 1
574 714 1
854 714 1
859 714 1
882 714 1
884 714 1
284 715 1
295 715 1
563 715 1
575 715 1
855 715 1
860 715 1
883 715 1
885 715 1
285 716 1
296 716 1
564 716 1
576 716 1
856 716 1
861 716 1
884 716 1
886 716 1
286 717 1
297 717 1
565 717 1
577 717 1
857 717 1
862 717 1
885 717 1
887 717 1
287 718 1
298 718 1
566 718 1
578 718 1
858 718 1
863 718 1
886 718 1
888 718 1
288 719 1
299 719 1
567 719 1
579 719 1
859 719 1
864 719 1
887 719 1
889 719 1
289 720 1
300 720 1
568 720 1
580 720 1
860 720 1
865 720 1
888 720 1
890 720 1
290 721 1
301 721 1
569 721 1
581 721 1
861 721 1
866 721 1
889 721 1
891 721 1
291 722 1
302 722 1
570 722 1
582 722 1
862 722 1
867 722 1
890 722 1
892 722 1
292 723 1
303 723 1
571 723 1
583 723 1
863 723 1
868 723 1
891 723 1
893 723 1
293 724 1
304 724 1
572 724 1
584 724 1
841 724 1
864 724 1
892 724 1
894 724 1
294 725 1
305 725 1
573 725 1
585 725 1
842 725 1
865 725 1
893 725 1
895 725 1
295 726 1
306 726 1
574 726 1
586 726 1
843 726 1
866 726 1
894 726 1
896 726 1
296 727 1
307 727 1
575 727 1
587 727 1
844 727 1
867 727 1
869 727 1
895 727 1
297 728 1
308 728 1
576 728 1
588 728 1
845 728 1
868 728 1
870 728 1
896 728 1
309 729 1
326 729 1
589 729 1
605 729 1
841 729 1
849 729 1
897 729 1
899 729 1
310 730 1
327 730 1
590 730 1
606 730 1
842 730 1
850 730 1
898 730 1
900 730 1
311 731 1
328 731 1
591 731 1
607 731 1
843 731 1
851 731 1
899 731 1
901 731 1
312 732 1
329 732 1
592 732 1
608 732 1
844 732 1
852 732 1
900 732 1
902 732 1
313 733 1
330 733 1
593 733 1
609 733 1
845 733 1
853 733 1
901 733 1
903 733 1
314 734 1
331 734 1
594 734 1
610 734 1
846 734 1
854 734 1
902 734 1
904 734 1
315 735 1
332 735 1
595 735 1
611 735 1
847 735 1
855 735 1
903 735 1
905 735 1
316 736 1
333 736 1
596 736 1
612 736 1
848 736 1
856 736 1
904 736 1
906 736 1
317 737 1
334 737 1
597 737 1
613 737 1
849 737 1
857 737 1
905 737 1
907 737 1
318 738 1
335 738 1
598 738 1
614 738 1
850 738 1
858 738 1
906 738 1
908 738 1
319 739 1
336 739 1
599 739 1
615 739 1
851 739 1
859 739 1
907 739 1
909 739 1
309 740 1
320 740 1
600 740 1
616 740 1
852 740 1
860 740 1
908 740 1
910 740 1
310 741 1
321 741 1
589 741 1
601 741 1
853 741 1
861 741 1
909 741 1
911 741 1
311 742 1
322 742 1
590 742 1
602 742 1
854 742 1
862 742 1
910 742 1
912 742 1
312 743 1
323 743 1
591 743 1
603 743 1
855 743 1
863 743 1
911 743 1
913 743 1
313 744 1
324 744 1
592 744 1
604 744 1
856 744 1
864 744 1
912 744 1
914 744 1
314 745 1
325 745 1
593 745 1
605 745 1
857 745 1
865 745 1
913 745 1
915 745 1
315 746 1
326 746 1
594 746 1
606 746 1
858 746 1
866 746 1
914 746 1
916 746 1
316 747 1
327 747 1
595 747 1
607 747 1
859 747 1
867 747 1
915 747 1
917 747 1
317 748 1
328 748 1
596 748 1
608 748 1
860 748 1
868 748 1
916 748 1
918 748 1
318 749 1
329 749 1
597 749 1
609 749 1
841 749 1
861 749 1
917 749 1
919 749 1
319 750 1
330 750 1
598 750 1
610 750 1
842 750 1
862 750 1
918 750 1
920 750 1
320 751 1
331 751 1
599 751 1
611 751 1
843 751 1
863 751 1
919 751 1
921 751 1
321 752 1
332 752 1
600 752 1
612 752 1
844 752 1
864 752 1
920 752 1
922 752 1
322 753 1
333 753 1
601 753 1
613 753 1
845 753 1
865 753 1
921 753 1
923 753 1
323 754 1
334 754 1
602 754 1
614 754 1
846 754 1
866 754 1
922 754 1
924 754 1
324 755 1
335 755 1
603 755 1
615 755 1
847 755 1
867 755 1
897 755 1
923 755 1
325 756 1
336 756 1
604 756 1
616 756 1
848 756 1
868 756 1
898 756 1
924 756 1
337 757 1
354 757 1
617 757 1
633 757 1
869 757 1
877 757 1
897 757 1
902 757 1
338 758 1
355 758 1
618 758 1
634 758 1
870 758 1
878 758 1
898 758 1
903 758 1
339 759 1
356 759 1
619 759 1
635 759 1
871 759 1
879 759 1
899 759 1
904 759 1
340 760 1
357 760 1
620 760 1
636 760 1
872 760 1
880 760 1
900 760 1
905 760 1
341 761 1
358 761 1
621 761 1
637 761 1
873 761 1
881 761 1
901 761 1
906 761 1
342 762 1
359 762 1
622 762 1
638 762 1
874 762 1
882 762 1
902 762 1
907 762 1
343 763 1
360 763 1
623 763 1
639 763 1
875 763 1
883 763 1
903 763 1
908 763 1
344 764 1
361 764 1
624 764 1
640 764 1
876 764 1
884 764 1
904 764 1
909 764 1
345 765 1
362 765 1
625 765 1
641 765 1
877 765 1
885 765 1
905 765 1
910 765 1
346 766 1
363 766 1
626 766 1
642 766 1
878 766 1
886 766 1
906 766 1
911 766 1
347 767 1
364 767 1
627 767 1
643 767 1
879 767 1
887 767 1
907 767 1
912 767 1
337 768 1
348 768 1
628 768 1
644 768 1
880 768 1
888 768 1
908 768 1
913 768 1
338 769 1
349 769 1
617 769 1
629 769 1
881 769 1
889 769 1
909 769 1
914 769 1
339 770 1
350 770 1
618 770 1
630 770 1
882 770 1
890 770 1
910 770 1
915 770 1
340 771 1
351 771 1
619 771 1
631 771 1
883 771 1
891 771 1
911 771 1
916 771 1
341 772 1
352 772 1
620 772 1
632 772 1
884 772 1
892 772 1
912 772 1
917 772 1
342 773 1
353 773 1
621 773 1
633 773 1
885 773 1
893 773 1
913 773 1
918 773 1
343 774 1
354 774 1
622 774 1
634 774 1
886 774 1
894 774 1
914 774 1
919 774 1
344 775 1
355 775 1
623 775 1
635 775 1
887 775 1
895 775 1
915 775 1
920 775 1
345 776 1
356 776 1
624 776 1
636 776 1
888 776 1
896 776 1
916 776 1
921 776 1
346 777 1
357 777 1
625 777 1
637 777 1
869 777 1
889 777 1
917 777 1
922 777 1
347 778 1
358 778 1
626 778 1
638 778 1
870 778 1
890 778 1
918 778 1
923 778 1
348 779 1
359 779 1
627 779 1
639 779 1
871 779 1
891 779 1
919 779 1
924 779 1
349 780 1
360 780 1
628 780 1
640 780 1
872 780 1
892 780 1
897 780 1
920 780 1
350 781 1
361 781 1
629 781 1
641 781 1
873 781 1
893 781 1
898 781 1
921 781 1
351 782 1
362 782 1
630 782 1
642 782 1
874 782 1
894 782 1
899 782 1
922 782 1
352 783 1
363 783 1
631 783 1
643 783 1
875 783 1
895 783 1
900 783 1
923 783 1
353 784 1
364 784 1
632 784 1
644 784 1
876 784 1
896 784 1
901 784 1
924 784 1
365 785 1
382 785 1
645 785 1
661 785 1
841 785 1
851 785 1
925 785 1
927 785 1
366 786 1
383 786 1
646 786 1
662 786 1
842 786 1
852 786 1
926 786 1
928 786 1
367 787 1
384 787 1
647 787 1
663 787 1
843 787 1
853 787 1
927 787 1
929 787 1
368 788 1
385 788 1
648 788 1
664 788 1
844 788 1
854 788 1
928 788 1
930 788 1
369 789 1
386 789 1
649 789 1
665 789 1
845 789 1
855 789 1
929 789 1
931 789 1
370 790 1
387 790 1
650 790 1
666 790 1
846 790 1
856 790 1
930 790 1
932 790 1
371 791 1
388 791 1
651 791 1
667 791 1
847 791 1
857 791 1
931 791 1
933 791 1
372 792 1
389 792 1
652 792 1
668 792 1
848 792 1
858 792 1
932 792 1
934 792 1
373 793 1
390 793 1
653 793 1
669 793 1
849 793 1
859 793 1
933 793 1
935 793 1
374 794 1
391 794 1
654 794 1
670 794 1
850 794 1
860 794 1
934 794 1
936 794 1
375 795 1
392 795 1
655 795 1
671 795 1
851 795 1
861 795 1
935 795 1
937 795 1
365 796 1
376 796 1
656 796 1
672 796 1
852 796 1
862 796 1
936 796 1
938 796 1
366 797 1
377 797 1
645 797 1
657 797 1
853 797 1
863 797 1
937 797 1
939 797 1
367 798 1
378 798 1
646 798 1
658 798 1
854 798 1
864 798 1
938 798 1
940 798 1
368 799 1
379 799 1
647 799 1
659 799 1
855 799 1
865 799 1
939 799 1
941 799 1
369 800 1
380 800 1
648 800 1
660 800 1
856 800 1
866 800 1
940 800 1
942 800 1
370 801 1
381 801 1
649 801 1
661 801 1
857 801 1
867 801 1
941 801 1
943 801 1
371 802 1
382 802 1
650 802 1
662 802 1
858 802 1
868 802 1
942 802 1
944 802 1
372 803 1
383 803 1
651 803 1
663 803 1
841 803 1
859 803 1
943 803 1
945 803 1
373 804 1
384 804 1
652 804 1
664 804 1
842 804 1
860 804 1
944 804 1
946 804 1
374 805 1
385 805 1
653 805 1
665 805 1
843 805 1
861 805 1
945 805 1
947 805 1
375 806 1
386 806 1
654 806 1
666 806 1
844 806 1
862 806 1
946 806 1
948 806 1
376 807 1
387 807 1
655 807 1
667 807 1
845 807 1
863 807 1
947 807 1
949 807 1
377 808 1
388 808 1
656 808 1
668 808 1
846 808 1
864 808 1
948 808 1
950 808 1
378 809 1
389 809 1
657 809 1
669 809 1
847 809 1
865 809 1
949 809 1
951 809 1
379 810 1
390 810 1
658 810 1
670 810 1
848 810 1
866 810 1
950 810 1
952 810 1
380 811 1
391 811 1
659 811 1
671 811 1
849 811 1
867 811 1
925 811 1
951 811 1
381 812 1
392 812 1
660 812 1
672 812 1
850 812 1
868 812 1
926 812 1
952 812 1
393 813 1
410 813 1
673 813 1
689 813 1
869 813 1
879 813 1
925 813 1
930 813 1
394 814 1
411 814 1
674 814 1
690 814 1
870 814 1
880 814 1
926 814 1
931 814 1
395 815 1
412 815 1
675 815 1
691 815 1
871 815 1
881 815 1
927 815 1
932 815 1
396 816 1
413 816 1
676 816 1
692 816 1
872 816 1
882 816 1
928 816 1
933 816 1
397 817 1
414 817 1
677 817 1
693 817 1
873 817 1
883 817 1
929 817 1
934 817 1
398 818 1
415 818 1
678 818 1
694 818 1
874 818 1
884 818 1
930 818 1
935 818 1
399 819 1
416 819 1
679 819 1
695 819 1
875 819 1
885 819 1
931 819 1
936 819 1
400 820 1
417 820 1
680 820 1
696 820 1
876 820 1
886 820 1
932 820 1
937 820 1
401 821 1
418 821 1
681 821 1
697 821 1
877 821 1
887 821 1
933 821 1
938 821 1
402 822 1
419 822 1
682 822 1
698 822 1
878 822 1
888 822 1
934 822 1
939 822 1
403 823 1
420 823 1
683 823 1
699 823 1
879 823 1
889 823 1
935 823 1
940 823 1
393 824 1
404 824 1
684 824 1
700 824 1
880 824 1
890 824 1
936 824 1
941 824 1
394 825 1
405 825 1
673 825 1
685 825 1
881 825 1
891 825 1
937 825 1
942 825 1
395 826 1
406 826 1
674 826 1
686 826 1
882 826 1
892 826 1
938 826 1
943 826 1
396 827 1
407 827 1
675 827 1
687 827 1
883 827 1
893 827 1
939 827 1
944 827 1
397 828 1
408 828 1
676 828 1
688 828 1
884 828 1
894 828 1
940 828 1
945 828 1
398 829 1
409 829 1
677 829 1
689 829 1
885 829 1
895 829 1
941 829 1
946 829 1
399 830 1
410 830 1
678 830 1
690 830 1
886 830 1
896 830 1
942 830 1
947 830 1
400 831 1
411 831 1
679 831 1
691 831 1
869 831 1
887 831 1
943 831 1
948 831 1
401 832 1
412 832 1
680 832 1
692 832 1
870 832 1
888 832 1
944 832 1
949 832 1
402 833 1
413 833 1
681 833 1
693 833 1
871 833 1
889 833 1
945 833 1
950 833 1
403 834 1
414 834 1
682 834 1
694 834 1
872 834 1
890 834 1
946 834 1
951 834 1
404 835 1
415 835 1
683 835 1
695 835 1
873 835 1
891 835 1
947 835 1
952 835 1
405 836 1
416 836 1
684 836 1
696 836 1
874 836 1
892 836 1
925 836 1
948 836 1
406 837 1
417 837 1
685 837 1
697 837 1
875 837 1
893 837 1
926 837 1
949 837 1
407 838 1
418 838 1
686 838 1
698 838 1
876 838 1
894 838 1
927 838 1
950 838 1
408 839 1
419 839 1
687 839 1
699 839 1
877 839 1
895 839 1
928 839 1
951 839 1
409 840 1
420 840 1
688 840 1
700 840 1
878 840 1
896 840 1
929 840 1
952 840 1
421 841 1
438 841 1
701 841 1
717 841 1
897 841 1
907 841 1
925 841 1
933 841 1
422 842 1
439 842 1
702 842 1
718 842 1
898 842 1
908 842 1
926 842 1
934 842 1
423 843 1
440 843 1
703 843 1
719 843 1
899 843 1
909 843 1
927 843 1
935 843 1
424 844 1
441 844 1
704 844 1
720 844 1
900 844 1
910 844 1
928 844 1
936 844 1
425 845 1
442 845 1
705 845 1
721 845 1
901 845 1
911 845 1
929 845 1
937 845 1
426 846 1
443 846 1
706 846 1
722 846 1
902 846 1
912 846 1
930 846 1
938 846 1
427 847 1
444 847 1
707 847 1
723 847 1
903 847 1
913 847 1
931 847 1
939 847 1
428 848 1
445 848 1
708 848 1
724 848 1
904 848 1
914 848 1
932 848 1
940 848 1
429 849 1
446 849 1
709 849 1
725 849 1
905 849 1
915 849 1
933 849 1
941 849 1
430 850 1
447 850 1
710 850 1
726 850 1
906 850 1
916 850 1
934 850 1
942 850 1
431 851 1
448 851 1
711 851 1
727 851 1
907 851 1
917 851 1
935 851 1
943 851 1
421 852 1
432 852 1
712 852 1
728 852 1
908 852 1
918 852 1
936 852 1
944 852 1
422 853 1
433 853 1
701 853 1
713 853 1
909 853 1
919 853 1
937 853 1
945 853 1
423 854 1
434 854 1
702 854 1
714 854 1
910 854 1
920 854 1
938 854 1
946 854 1
424 855 1
435 855 1
703 855 1
715 855 1
911 855 1
921 855 1
939 855 1
947 855 1
425 856 1
436 856 1
704 856 1
716 856 1
912 856 1
922 856 1
940 856 1
948 856 1
426 857 1
437 857 1
705 857 1
717 857 1
913 857 1
923 857 1
941 857 1
949 857 1
427 858 1
438 858 1
706 858 1
718 858 1
914 858 1
924 858 1
942 858 1
950 858 1
428 859 1
439 859 1
707 859 1
719 859 1
897 859 1
915 859 1
943 859 1
951 859 1
429 860 1
440 860 1
708 860 1
720 860 1
898 860 1
916 860 1
944 860 1
952 860 1
430 861 1
441 861 1
709 861 1
721 861 1
899 861 1
917 861 1
925 861 1
945 861 1
431 862 1
442 862 1
710 862 1
722 862 1
900 862 1
918 862 1
926 862 1
946 862 1
432 863 1
443 863 1
711 863 1
723 863 1
901 863 1
919 863 1
927 863 1
947 863 1
433 864 1
444 864 1
712 864 1
724 864 1
902 864 1
920 864 1
928 864 1
948 864 1
434 865 1
445 865 1
713 865 1
725 865 1
903 865 1
921 865 1
929 865 1
949 865 1
435 866 1
446 866 1
714 866 1
726 866 1
904 866 1
922 866 1
930 866 1
950 866 1
436 867 1
447 867 1
715 867 1
727 867 1
905 867 1
923 867 1
931 867 1
951 867 1
437 868 1
448 868 1
716 868 1
728 868 1
906 868 1
924 868 1
932 868 1
952 868 1
449 869 1
466 869 1
729 869 1
745 869 1
841 869 1
852 869 1
953 869 1
955 869 1
450 870 1
467 870 1
730 870 1
746 870 1
842 870 1
853 870 1
954 870 1
956 870 1
451 871 1
468 871 1
731 871 1
747 871 1
843 871 1
854 871 1
955 871 1
957 871 1
452 872 1
469 872 1
732 872 1
748 872 1
844 872 1
855 872 1
956 872 1
958 872 1
453 873 1
470 873 1
733 873 1
749 873 1
845 873 1
856 873 1
957 873 1
959 873 1
454 874 1
471 874 1
734 874 1
750 874 1
846 874 1
857 874 1
958 874 1
960 874 1
455 875 1
472 875 1
735 875 1
751 875 1
847 875 1
858 875 1
959 875 1
961 875 1
456 876 1
473 876 1
736 876 1
752 876 1
848 876 1
859 876 1
960 876 1
962 876 1
457 877 1
474 877 1
737 877 1
753 877 1
849 877 1
860 877 1
961 877 1
963 877 1
458 878 1
475 878 1
738 878 1
754 878 1
850 878 1
861 878 1
962 878 1
964 878 1
459 879 1
476 879 1
739 879 1
755 879 1
851 879 1
862 879 1
963 879 1
965 879 1
449 880 1
460 880 1
740 880 1
756 880 1
852 880 1
863 880 1
964 880 1
966 880 1
450 881 1
461 881 1
729 881 1
741 881 1
853 881 1
864 881 1
965 881 1
967 881 1
451 882 1
462 882 1
730 882 1
742 882 1
854 882 1
865 882 1
966 882 1
968 882 1
452 883 1
463 883 1
731 883 1
743 883 1
855 883 1
866 883 1
967 883 1
969 883 1
453 884 1
464 884 1
732 884 1
744 884 1
856 884 1
867 884 1
968 884 1
970 884 1
454 885 1
465 885 1
733 885 1
745 885 1
857 885 1
868 885 1
969 885 1
971 885 1
455 886 1
466 886 1
734 886 1
746 886 1
841 886 1
858 886 1
970 886 1
972 886 1
456 887 1
467 887 1
735 887 1
747 887 1
842 887 1
859 887 1
971 887 1
973 887 1
457 888 1
468 888 1
736 888 1
748 888 1
843 888 1
860 888 1
972 888 1
974 888 1
458 889 1
469 889 1
737 889 1
749 889 1
844 889 1
861 889 1
973 889 1
975 889 1
459 890 1
470 890 1
738 890 1
750 890 1
845 890 1
862 890 1
974 890 1
976 890 1
460 891 1
471 891 1
739 891 1
751 891 1
846 891 1
863 891 1
975 891 1
977 891 1
461 892 1
472 892 1
740 892 1
752 892 1
847 892 1
864 892 1
976 892 1
978 892 1
462 893 1
473 893 1
741 893 1
753 893 1
848 893 1
865 893 1
977 893 1
979 893 1
463 894 1
474 894 1
742 894 1
754 894 1
849 894 1
866 894 1
978 894 1
980 894 1
464 895 1
475 895 1
743 895 1
755 895 1
850 895 1
867 895 1
953 895 1
979 895 1
465 896 1
476 896 1
744 896 1
756 896 1
851 896 1
868 896 1
954 896 1
980 896 1
477 897 1
494 897 1
757 897 1
773 897 1
869 897 1
880 897 1
953 897 1
958 897 1
478 898 1
495 898 1
758 898 1
774 898 1
870 898 1
881 898 1
954 898 1
959 898 1
479 899 1
496 899 1
759 899 1
775 899 1
871 899 1
882 899 1
955 899 1
960 899 1
480 900 1
497 900 1
760 900 1
776 900 1
872 900 1
883 900 1
956 900 1
961 900 1
481 901 1
498 901 1
761 901 1
777 901 1
873 901 1
884 901 1
957 901 1
962 901 1
482 902 1
499 902 1
762 902 1
778 902 1
874 902 1
885 902 1
958 902 1
963 902 1
483 903 1
500 903 1
763 903 1
779 903 1
875 903 1
886 903 1
959 903 1
964 903 1
484 904 1
501 904 1
764 904 1
780 904 1
876 904 1
887 904 1
960 904 1
965 904 1
485 905 1
502 905 1
765 905 1
781 905 1
877 905 1
888 905 1
961 905 1
966 905 1
486 906 1
503 906 1
766 906 1
782 906 1
878 906 1
889 906 1
962 906 1
967 906 1
487 907 1
504 907 1
767 907 1
783 907 1
879 907 1
890 907 1
963 907 1
968 907 1
477 908 1
488 908 1
768 908 1
784 908 1
880 908 1
891 908 1
964 908 1
969 908 1
478 909 1
489 909 1
757 909 1
769 909 1
881 909 1
892 909 1
965 909 1
970 909 1
479 910 1
490 910 1
758 910 1
770 910 1
882 910 1
893 910 1
966 910 1
971 910 1
480 911 1
491 911 1
759 911 1
771 911 1
883 911 1
894 911 1
967 911 1
972 911 1
481 912 1
492 912 1
760 912 1
772 912 1
884 912 1
895 912 1
968 912 1
973 912 1
482 913 1
493 913 1
761 913 1
773 913 1
885 913 1
896 913 1
969 913 1
974 913 1
483 914 1
494 914 1
762 914 1
774 914 1
869 914 1
886 914 1
970 914 1
975 914 1
484 915 1
495 915 1
763 915 1
775 915 1
870 915 1
887 915 1
971 915 1
976 915 1
485 916 1
496 916 1
764 916 1
776 916 1
871 916 1
888 916 1
972 916 1
977 916 1
486 917 1
497 917 1
765 917 1
777 917 1
872 917 1
889 917 1
973 917 1
978 917 1
487 918 1
498 918 1
766 918 1
778 918 1
873 918 1
890 918 1
974 918 1
979 918 1
488 919 1
499 919 1
767 919 1
779 919 1
874 919 1
891 919 1
975 919 1
980 919 1
489 920 1
500 920 1
768 920 1
780 920 1
875 920 1
892 920 1
953 920 1
976 920 1
490 921 1
501 921 1
769 921 1
781 921 1
876 921 1
893 921 1
954 921 1
977 921 1
491 922 1
502 922 1
770 922 1
782 922 1
877 922 1
894 922 1
955 922 1
978 922 1
492 923 1
503 923 1
771 923 1
783 923 1
878 923 1
895 923 1
956 923 1
979 923 1
493 924 1
504 924 1
772 924 1
784 924 1
879 924 1
896 924 1
957 924 1
980 924 1
505 925 1
522 925 1
785 925 1
801 925 1
897 925 1
908 925 1
953 925 1
961 925 1
506 926 1
523 926 1
786 926 1
802 926 1
898 926 1
909 926 1
954 926 1
962 926 1
507 927 1
524 927 1
787 927 1
803 927 1
899 927 1
910 927 1
955 927 1
963 927 1
508 928 1
525 928 1
788 928 1
804 928 1
900 928 1
911 928 1
956 928 1
964 928 1
509 929 1
526 929 1
789 929 1
805 929 1
901 929 1
912 929 1
957 929 1
965 929 1
510 930 1
527 930 1
790 930 1
806 930 1
902 930 1
913 930 1
958 930 1
966 930 1
511 931 1
528 931 1
791 931 1
807 931 1
903 931 1
914 931 1
959 931 1
967 931 1
512 932 1
529 932 1
792 932 1
808 932 1
904 932 1
915 932 1
960 932 1
968 932 1
513 933 1
530 933 1
793 933 1
809 933 1
905 933 1
916 933 1
961 933 1
969 933 1
514 934 1
531 934 1
794 934 1
810 934 1
906 934 1
917 934 1
962 934 1
970 934 1
515 935 1
532 935 1
795 935 1
811 935 1
907 935 1
918 935 1
963 935 1
971 935 1
505 936 1
516 936 1
796 936 1
812 936 1
908 936 1
919 936 1
964 936 1
972 936 1
506 937 1
517 937 1
785 937 1
797 937 1
909 937 1
920 937 1
965 937 1
973 937 1
507 938 1
518 938 1
786 938 1
798 938 1
910 938 1
921 938 1
966 938 1
974 938 1
508 939 1
519 939 1
787 939 1
799 939 1
911 939 1
922 939 1
967 939 1
975 939 1
509 940 1
520 940 1
788 940 1
800 940 1
912 940 1
923 940 1
968 940 1
976 940 1
510 941 1
521 941 1
789 941 1
801 941 1
913 941 1
924 941 1
969 941 1
977 941 1
511 942 1
522 942 1
790 942 1
802 942 1
897 942 1
914 942 1
970 942 1
978 942 1
512 943 1
523 943 1
791 943 1
803 943 1
898 943 1
915 943 1
971 943 1
979 943 1
513 944 1
524 944 1
792 944 1
804 944 1
899 944 1
916 944 1
972 944 1
980 944 1
514 945 1
525 945 1
793 945 1
805 945 1
900 945 1
917 945 1
953 945 1
973 945 1
515 946 1
526 946 1
794 946 1
806 946 1
901 946 1
918 946 1
954 946 1
974 946 1
516 947 1
527 947 1
795 947 1
807 947 1
902 947 1
919 947 1
955 947 1
975 947 1
517 948 1
528 948 1
796 948 1
808 948 1
903 948 1
920 948 1
956 948 1
976 948 1
518 949 1
529 949 1
797 949 1
809 949 1
904 949 1
921 949 1
957 949 1
977 949 1
519 950 1
530 950 1
798 950 1
810 950 1
905 950 1
922 950 1
958 950 1
978 950 1
520 951 1
531 951 1
799 951 1
811 951 1
906 951 1
923 951 1
959 951 1
979 951 1
521 952 1
532 952 1
800 952 1
812 952 1
907 952 1
924 952 1
960 952 1
980 952 1
533 953 1
550 953 1
813 953 1
829 953 1
925 953 1
936 953 1
953 953 1
963 953 1
534 954 1
551 954 1
814 954 1
830 954 1
926 954 1
937 954 1
954 954 1
964 954 1
535 955 1
552 955 1
815 955 1
831 955 1
927 955 1
938 955 1
955 955 1
965 955 1
536 956 1
553 956 1
816 956 1
832 956 1
928 956 1
939 956 1
956 956 1
966 956 1
537 957 1
554 957 1
817 957 1
833 957 1
929 957 1
940 957 1
957 957 1
967 957 1
538 958 1
555 958 1
818 958 1
834 958 1
930 958 1
941 958 1
958 958 1
968 958 1
539 959 1
556 959 1
819 959 1
835 959 1
931 959 1
942 959 1
959 959 1
969 959 1
540 960 1
557 960 1
820 960 1
836 960 1
932 960 1
943 960 1
960 960 1
970 960 1
541 961 1
558 961 1
821 961 1
837 961 1
933 961 1
944 961 1
961 961 1
971 961 1
542 962 1
559 962 1
822 962 1
838 962 1
934 962 1
945 962 1
962 962 1
972 962 1
543 963 1
560 963 1
823 963 1
839 963 1
935 963 1
946 963 1
963 963 1
973 963 1
533 964 1
544 964 1
824 964 1
840 964 1
936 964 1
947 964 1
964 964 1
974 964 1
534 965 1
545 965 1
813 965 1
825 965 1
937 965 1
948 965 1
965 965 1
975 965 1
535 966 1
546 966 1
814 966 1
826 966 1
938 966 1
949 966 1
966 966 1
976 966 1
536 967 1
547 967 1
815 967 1
827 967 1
939 967 1
950 967 1
967 967 1
977 967 1
537 968 1
548 968 1
816 968 1
828 968 1
940 968 1
951 968 1
968 968 1
978 968 1
538 969 1
549 969 1
817 969 1
829 969 1
941 969 1
952 969 1
969 969 1
979 969 1
539 970 1
550 970 1
818 970 1
830 970 1
925 970 1
942 970 1
970 970 1
980 970 1
540 971 1
551 971 1
819 971 1
831 971 1
926 971 1
943 971 1
953 971 1
971 971 1
541 972 1
552 972 1
820 972 1
832 972 1
927 972 1
944 972 1
954 972 1
972 972 1
542 973 1
553 973 1
821 973 1
833 973 1
928 973 1
945 973 1
955 973 1
973 973 1
543 974 1
554 974 1
822 974 1
834 974 1
929 974 1
946 974 1
956 974 1
974 974 1
544 975 1
555 975 1
823 975 1
835 975 1
930 975 1
947 975 1
957 975 1
975 975 1
545 976 1
556 976 1
824 976 1
836 976 1
931 976 1
948 976 1
958 976 1
976 976 1
546 977 1
557 977 1
825 977 1
837 977 1
932 977 1
949 977 1
959 977 1
977 977 1
547 978 1
558 978 1
826 978 1
838 978 1
933 978 1
950 978 1
960 978 1
978 978 1
548 979 1
559 979 1
827 979 1
839 979 1
934 979 1
951 979 1
961 979 1
979 979 1
549 980 1
560 980 1
828 980 1
840 980 1
935 980 1
952 980 1
962 980 1
980 980 1
1 981 1
26 981 1
981 981 1
989 981 1
1009 981 1
1014 981 1
1037 981 1
1039 981 1
2 982 1
27 982 1
982 982 1
990 982 1
1010 982 1
1015 982 1
1038 982 1
1040 982 1
3 983 1
28 983 1
983 983 1
991 983 1
1011 983 1
1016 983 1
1039 983 1
1041 983 1
1 984 1
4 984 1
984 984 1
992 984 1
1012 984 1
1017 984 1
1040 984 1
1042 984 1
2 985 1
5 985 1
985 985 1
993 985 1
1013 985 1
1018 985 1
1041 985 1
1043 985 1
3 986 1
6 986 1
986 986 1
994 986 1
1014 986 1
1019 986 1
1042 986 1
1044 986 1
4 987 1
7 987 1
987 987 1
995 987 1
1015 987 1
1020 987 1
1043 987 1
1045 987 1
5 988 1
8 988 1
988 988 1
996 988 1
1016 988 1
1021 988 1
1044 988 1
1046 988 1
6 989 1
9 989 1
989 989 1
997 989 1
1017 989 1
1022 989 1
1045 989 1
1047 989 1
7 990 1
10 990 1
990 990 1
998 990 1
1018 990 1
1023 990 1
1046 990 1
1048 990 1
8 991 1
11 991 1
991 991 1
999 991 1
1019 991 1
1024 991 1
1047 991 1
1049 991 1
9 992 1
12 992 1
992 992 1
1000 992 1
1020 992 1
1025 992 1
1048 992 1
1050 992 1
10 993 1
13 993 1
993 993 1
1001 993 1
1021 993 1
1026 993 1
1049 993 1
1051 993 1
11 994 1
14 994 1
994 994 1
1002 994 1
1022 994 1
1027 994 1
1050 994 1
1052 994 1
12 995 1
15 995 1
995 995 1
1003 995 1
1023 995 1
1028 995 1
1051 995 1
1053 995 1
13 996 1
16 996 1
996 996 1
1004 996 1
1024 996 1
1029 996 1
1052 996 1
1054 996 1
14 997 1
17 997 1
997 997 1
1005 997 1
1025 997 1
1030 997 1
1053 997 1
1055 997 1
15 998 1
18 998 1
998 998 1
1006 998 1
1026 998 1
1031 998 1
1054 998 1
1056 998 1
16 999 1
19 999 1
999 999 1
1007 999 1
1027 999 1
1032 999 1
1055 999 1
1057 999 1
17 1000 1
20 1000 1
1000 1000 1
1008 1000 1
1028 1000 1
1033 1000 1
1056 1000 1
1058 1000 1
18 1001 1
21 1001 1
981 1001 1
1001 1001 1
1029 1001 1
1034 1001 1
1057 1001 1
1059 1001 1
19 1002 1
22 1002 1
982 1002 1
1002 1002 1
1030 1002 1
1035 1002 1
1058 1002 1
1060 1002 1
20 1003 1
23 1003 1
983 1003 1
1003 1003 1
1031 1003 1
1036 1003 1
1059 1003 1
1061 1003 1
21 1004 1
24 1004 1
984 1004 1
1004 1004 1
1009 1004 1
1032 1004 1
1060 1004 1
1062 1004 1
22 1005 1
25 1005 1
985 1005 1
1005 1005 1
1010 1005 1
1033 1005 1
1061 1005 1
1063 1005 1
23 1006 1
26 1006 1
986 1006 1
1006 1006 1
1011 1006 1
1034 1006 1
1062 1006 1
1064 1006 1
24 1007 1
27 1007 1
987 1007 1
1007 1007 1
1012 1007 1
1035 1007 1
1037 1007 1
1063 1007 1
25 1008 1
28 1008 1
988 1008 1
1008 1008 1
1013 1008 1
1036 1008 1
1038 1008 1
1064 1008 1
29 1009 1
54 1009 1
981 1009 1
991 1009 1
1065 1009 1
1070 1009 1
1093 1009 1
1095 1009 1
30 1010 1
55 1010 1
982 1010 1
992 1010 1
1066 1010 1
1071 1010 1
1094 1010 1
1096 1010 1
31 1011 1
56 1011 1
983 1011 1
993 1011 1
1067 1011 1
1072 1011 1
1095 1011 1
1097 1011 1
29 1012 1
32 1012 1
984 1012 1
994 1012 1
1068 1012 1
1073 1012 1
1096 1012 1
1098 1012 1
30 1013 1
33 1013 1
985 1013 1
995 1013 1
1069 1013 1
1074 1013 1
1097 1013 1
1099 1013 1
31 1014 1
34 1014 1
986 1014 1
996 1014 1
1070 1014 1
1075 1014 1
1098 1014 1
1100 1014 1
32 1015 1
35 1015 1
987 1015 1
997 1015 1
1071 1015 1
1076 1015 1
1099 1015 1
1101 1015 1
33 1016 1
36 1016 1
988 1016 1
998 1016 1
1072 1016 1
1077 1016 1
1100 1016 1
1102 1016 1
34 1017 1
37 1017 1
989 1017 1
999 1017 1
1073 1017 1
1078 1017 1
1101 1017 1
1103 1017 1
35 1018 1
38 1018 1
990 1018 1
1000 1018 1
1074 1018 1
1079 1018 1
1102 1018 1
1104 1018 1
36 1019 1
39 1019 1
991 1019 1
1001 1019 1
1075 1019 1
1080 1019 1
1103 1019 1
1105 1019 1
37 1020 1
40 1020 1
992 1020 1
1002 1020 1
1076 1020 1
1081 1020 1
1104 1020 1
1106 1020 1
38 1021 1
41 1021 1
993 1021 1
1003 1021 1
1077 1021 1
1082 1021 1
1105 1021 1
1107 1021 1
39 1022 1
42 1022 1
994 1022 1
1004 1022 1
1078 1022 1
1083 1022 1
1106 1022 1
1108 1022 1
40 1023 1
43 1023 1
995 1023 1
1005 1023 1
1079 1023 1
1084 1023 1
1107 1023 1
1109 1023 1
41 1024 1
44 1024 1
996 1024 1
1006 1024 1
1080 1024 1
1085 1024 1
1108 1024 1
1110 1024 1
42 1025 1
45 1025 1
997 1025 1
1007 1025 1
1081 1025 1
1086 1025 1
1109 1025 1
1111 1025 1
43 1026 1
46 1026 1
998 1026 1
1008 1026 1
1082 1026 1
1087 1026 1
1110 1026 1
1112 1026 1
44 1027 1
47 1027 1
981 1027 1
999 1027 1
1083 1027 1
1088 1027 1
1111 1027 1
1113 1027 1
45 1028 1
48 1028 1
982 1028 1
1000 1028 1
1084 1028 1
1089 1028 1
1112 1028 1
1114 1028 1
46 1029 1
49 1029 1
983 1029 1
1001 1029 1
1085 1029 1
1090 1029 1
1113 1029 1
1115 1029 1
47 1030 1
50 1030 1
984 1030 1
1002 1030 1
1086 1030 1
1091 1030 1
1114 1030 1
1116 1030 1
48 1031 1
51 1031 1
985 1031 1
1003 1031 1
1087 1031 1
1092 1031 1
1115 1031 1
1117 1031 1
49 1032 1
52 1032 1
986 1032 1
1004 1032 1
1065 1032 1
1088 1032 1
1116 1032 1
1118 1032 1
50 1033 1
53 1033 1
987 1033 1
1005 1033 1
1066 1033 1
1089 1033 1
1117 1033 1
1119 1033 1
51 1034 1
54 1034 1
988 1034 1
1006 1034 1
1067 1034 1
1090 1034 1
1118 1034 1
1120 1034 1
52 1035 1
55 1035 1
989 1035 1
1007 1035 1
1068 1035 1
1091 1035 1
1093 1035 1
1119 1035 1
53 1036 1
56 1036 1
990 1036 1
1008 1036 1
1069 1036 1
1092 1036 1
1094 1036 1
1120 1036 1
57 1037 1
82 1037 1
1009 1037 1
1019 1037 1
1065 1037 1
1073 1037 1
1121 1037 1
1123 1037 1
58 1038 1
83 1038 1
1010 1038 1
1020 1038 1
1066 1038 1
1074 1038 1
1122 1038 1
1124 1038 1
59 1039 1
84 1039 1
1011 1039 1
1021 1039 1
1067 1039 1
1075 1039 1
1123 1039 1
1125 1039 1
57 1040 1
60 1040 1
1012 1040 1
1022 1040 1
1068 1040 1
1076 1040 1
1124 1040 1
1126 1040 1
58 1041 1
61 1041 1
1013 1041 1
1023 1041 1
1069 1041 1
1077 1041 1
1125 1041 1
1127 1041 1
59 1042 1
62 1042 1
1014 1042 1
1024 1042 1
1070 1042 1
1078 1042 1
1126 1042 1
1128 1042 1
60 1043 1
63 1043 1
1015 1043 1
1025 1043 1
1071 1043 1
1079 1043 1
1127 1043 1
1129 1043 1
61 1044 1
64 1044 1
1016 1044 1
1026 1044 1
1072 1044 1
1080 1044 1
1128 1044 1
1130 1044 1
62 1045 1
65 1045 1
1017 1045 1
1027 1045 1
1073 1045 1
1081 1045 1
1129 1045 1
1131 1045 1
63 1046 1
66 1046 1
1018 1046 1
1028 1046 1
1074 1046 1
1082 1046 1
1130 1046 1
1132 1046 1
64 1047 1
67 1047 1
1019 1047 1
1029 1047 1
1075 1047 1
1083 1047 1
1131 1047 1
1133 1047 1
65 1048 1
68 1048 1
1020 1048 1
1030 1048 1
1076 1048 1
1084 1048 1
1132 1048 1
1134 1048 1
66 1049 1
69 1049 1
1021 1049 1
1031 1049 1
1077 1049 1
1085 1049 1
1133 1049 1
1135 1049 1
67 1050 1
70 1050 1
1022 1050 1
1032 1050 1
1078 1050 1
1086 1050 1
1134 1050 1
1136 1050 1
68 1051 1
71 1051 1
1023 1051 1
1033 1051 1
1079 1051 1
1087 1051 1
1135 1051 1
1137 1051 1
69 1052 1
72 1052 1
1024 1052 1
1034 1052 1
1080 1052 1
1088 1052 1
1136 1052 1
1138 1052 1
70 1053 1
73 1053 1
1025 1053 1
1035 1053 1
1081 1053 1
1089 1053 1
1137 1053 1
1139 1053 1
71 1054 1
74 1054 1
1026 1054 1
1036 1054 1
1082 1054 1
1090 1054 1
1138 1054 1
1140 1054 1
72 1055 1
75 1055 1
1009 1055 1
1027 1055 1
1083 1055 1
1091 1055 1
1139 1055 1
1141 1055 1
73 1056 1
76 1056 1
1010 1056 1
1028 1056 1
1084 1056 1
1092 1056 1
1140 1056 1
1142 1056 1
74 1057 1
77 1057 1
1011 1057 1
1029 1057 1
1065 1057 1
1085 1057 1
1141 1057 1
1143 1057 1
75 1058 1
78 1058 1
1012 1058 1
1030 1058 1
1066 1058 1
1086 1058 1
1142 1058 1
1144 1058 1
76 1059 1
79 1059 1
1013 1059 1
1031 1059 1
1067 1059 1
1087 1059 1
1143 1059 1
1145 1059 1
77 1060 1
80 1060 1
1014 1060 1
1032 1060 1
1068 1060 1
1088 1060 1
1144 1060 1
1146 1060 1
78 1061 1
81 1061 1
1015 1061 1
1033 1061 1
1069 1061 1
1089 1061 1
1145 1061 1
1147 1061 1
79 1062 1
82 1062 1
1016 1062 1
1034 1062 1
1070 1062 1
1090 1062 1
1146 1062 1
1148 1062 1
80 1063 1
83 1063 1
1017 1063 1
1035 1063 1
1071 1063 1
1091 1063 1
1121 1063 1
1147 1063 1
81 1064 1
84 1064 1
1018 1064 1
1036 1064 1
1072 1064 1
1092 1064 1
1122 1064 1
1148 1064 1
85 1065 1
110 1065 1
1037 1065 1
1047 1065 1
1093 1065 1
1101 1065 1
1121 1065 1
1126 1065 1
86 1066 1
111 1066 1
1038 1066 1
1048 1066 1
1094 1066 1
1102 1066 1
1122 1066 1
1127 1066 1
87 1067 1
112 1067 1
1039 1067 1
1049 1067 1
1095 1067 1
1103 1067 1
1123 1067 1
1128 1067 1
85 1068 1
88 1068 1
1040 1068 1
1050 1068 1
1096 1068 1
1104 1068 1
1124 1068 1
1129 1068 1
86 1069 1
89 1069 1
1041 1069 1
1051 1069 1
1097 1069 1
1105 1069 1
1125 1069 1
1130 1069 1
87 1070 1
90 1070 1
1042 1070 1
1052 1070 1
1098 1070 1
1106 1070 1
1126 1070 1
1131 1070 1
88 1071 1
91 1071 1
1043 1071 1
1053 1071 1
1099 1071 1
1107 1071 1
1127 1071 1
1132 1071 1
89 1072 1
92 1072 1
1044 1072 1
1054 1072 1
1100 1072 1
1108 1072 1
1128 1072 1
1133 1072 1
90 1073 1
93 1073 1
1045 1073 1
1055 1073 1
1101 1073 1
1109 1073 1
1129 1073 1
1134 1073 1
91 1074 1
94 1074 1
1046 1074 1
1056 1074 1
1102 1074 1
1110 1074 1
1130 1074 1
1135 1074 1
92 1075 1
95 1075 1
1047 1075 1
1057 1075 1
1103 1075 1
1111 1075 1
1131 1075 1
1136 1075 1
93 1076 1
96 1076 1
1048 1076 1
1058 1076 1
1104 1076 1
1112 1076 1
1132 1076 1
1137 1076 1
94 1077 1
97 1077 1
1049 1077 1
1059 1077 1
1105 1077 1
1113 1077 1
1133 1077 1
1138 1077 1
95 1078 1
98 1078 1
1050 1078 1
1060 1078 1
1106 1078 1
1114 1078 1
1134 1078 1
1139 1078 1
96 1079 1
99 1079 1
1051 1079 1
1061 1079 1
1107 1079 1
1115 1079 1
1135 1079 1
1140 1079 1
97 1080 1
100 1080 1
1052 1080 1
1062 1080 1
1108 1080 1
1116 1080 1
1136 1080 1
1141 1080 1
98 1081 1
101 1081 1
1053 1081 1
1063 1081 1
1109 1081 1
1117 1081 1
1137 1081 1
1142 1081 1
99 1082 1
102 1082 1
1054 1082 1
1064 1082 1
1110 1082 1
1118 1082 1
1138 1082 1
1143 1082 1
100 1083 1
103 1083 1
1037 1083 1
1055 1083 1
1111 1083 1
1119 1083 1
1139 1083 1
1144 1083 1
101 1084 1
104 1084 1
1038 1084 1
1056 1084 1
1112 1084 1
1120 1084 1
1140 1084 1
1145 1084 1
102 1085 1
105 1085 1
1039 1085 1
1057 1085 1
1093 1085 1
1113 1085 1
1141 1085 1
1146 1085 1
103 1086 1
106 1086 1
1040 1086 1
1058 1086 1
1094 1086 1
1114 1086 1
1142 1086 1
1147 1086 1
104 1087 1
107 1087 1
1041 1087 1
1059 1087 1
1095 1087 1
1115 1087 1
1143 1087 1
1148 1087 1
105 1088 1
108 1088 1
1042 1088 1
1060 1088 1
1096 1088 1
1116 1088 1
1121 1088 1
1144 1088 1
106 1089 1
109 1089 1
1043 1089 1
1061 1089 1
1097 1089 1
1117 1089 1
1122 1089 1
1145 1089 1
107 1090 1
110 1090 1
1044 1090 1
1062 1090 1
1098 1090 1
1118 1090 1
1123 1090 1
1146 1090 1
108 1091 1
111 1091 1
1045 1091 1
1063 1091 1
1099 1091 1
1119 1091 1
1124 1091 1
1147 1091 1
109 1092 1
112 1092 1
1046 1092 1
1064 1092 1
1100 1092 1
1120 1092 1
1125 1092 1
1148 1092 1
113 1093 1
138 1093 1
981 1093 1
992 1093 1
1149 1093 1
1154 1093 1
1177 1093 1
1179 1093 1
114 1094 1
139 1094 1
982 1094 1
993 1094 1
1150 1094 1
1155 1094 1
1178 1094 1
1180 1094 1
115 1095 1
140 1095 1
983 1095 1
994 1095 1
1151 1095 1
1156 1095 1
1179 1095 1
1181 1095 1
113 1096 1
116 1096 1
984 1096 1
995 1096 1
1152 1096 1
1157 1096 1
1180 1096 1
1182 1096 1
114 1097 1
117 1097 1
985 1097 1
996 1097 1
1153 1097 1
1158 1097 1
1181 1097 1
1183 1097 1
115 1098 1
118 1098 1
986 1098 1
997 1098 1
1154 1098 1
1159 1098 1
1182 1098 1
1184 1098 1
116 1099 1
119 1099 1
987 1099 1
998 1099 1
1155 1099 1
1160 1099 1
1183 1099 1
1185 1099 1
117 1100 1
120 1100 1
988 1100 1
999 1100 1
1156 1100 1
1161 1100 1
1184 1100 1
1186 1100 1
118 1101 1
121 1101 1
989 1101 1
1000 1101 1
1157 1101 1
1162 1101 1
1185 1101 1
1187 1101 1
119 1102 1
122 1102 1
990 1102 1
1001 1102 1
1158 1102 1
1163 1102 1
1186 1102 1
1188 1102 1
120 1103 1
123 1103 1
991 1103 1
1002 1103 1
1159 1103 1
1164 1103 1
1187 1103 1
1189 1103 1
121 1104 1
124 1104 1
992 1104 1
1003 1104 1
1160 1104 1
1165 1104 1
1188 1104 1
1190 1104 1
122 1105 1
125 1105 1
993 1105 1
1004 1105 1
1161 1105 1
1166 1105 1
1189 1105 1
1191 1105 1
123 1106 1
126 1106 1
994 1106 1
1005 1106 1
1162 1106 1
1167 1106 1
1190 1106 1
1192 1106 1
124 1107 1
127 1107 1
995 1107 1
1006 1107 1
1163 1107 1
1168 1107 1
1191 1107 1
1193 1107 1
125 1108 1
128 1108 1
996 1108 1
1007 1108 1
1164 1108 1
1169 1108 1
1192 1108 1
1194 1108 1
126 1109 1
129 1109 1
997 1109 1
1008 1109 1
1165 1109 1
1170 1109 1
1193 1109 1
1195 1109 1
127 1110 1
130 1110 1
981 1110 1
998 1110 1
1166 1110 1
1171 1110 1
1194 1110 1
1196 1110 1
128 1111 1
131 1111 1
982 1111 1
999 1111 1
1167 1111 1
1172 1111 1
1195 1111 1
1197 1111 1
129 1112 1
132 1112 1
983 1112 1
1000 1112 1
1168 1112 1
1173 1112 1
1196 1112 1
1198 1112 1
130 1113 1
133 1113 1
984 1113 1
1001 1113 1
1169 1113 1
1174 1113 1
1197 1113 1
1199 1113 1
131 1114 1
134 1114 1
985 1114 1
1002 1114 1
1170 1114 1
1175 1114 1
1198 1114 1
1200 1114 1
132 1115 1
135 1115 1
986 1115 1
1003 1115 1
1171 1115 1
1176 1115 1
1199 1115 1
1201 1115 1
133 1116 1
136 1116 1
987 1116 1
1004 1116 1
1149 1116 1
1172 1116 1
1200 1116 1
1202 1116 1
134 1117 1
137 1117 1
988 1117 1
1005 1117 1
1150 1117 1
1173 1117 1
1201 1117 1
1203 1117 1
135 1118 1
138 1118 1
989 1118 1
1006 1118 1
1151 1118 1
1174 1118 1
1202 1118 1
1204 1118 1
136 1119 1
139 1119 1
990 1119 1
1007 1119 1
1152 1119 1
1175 1119 1
1177 1119 1
1203 1119 1
137 1120 1
140 1120 1
991 1120 1
1008 1120 1
1153 1120 1
1176 1120 1
1178 1120 1
1204 1120 1
141 1121 1
166 1121 1
1009 1121 1
1020 1121 1
1149 1121 1
1157 1121 1
1205 1121 1
1207 1121 1
142 1122 1
167 1122 1
1010 1122 1
1021 1122 1
1150 1122 1
1158 1122 1
1206 1122 1
1208 1122 1
143 1123 1
168 1123 1
1011 1123 1
1022 1123 1
1151 1123 1
1159 1123 1
1207 1123 1
1209 1123 1
141 1124 1
144 1124 1
1012 1124 1
1023 1124 1
1152 1124 1
1160 1124 1
1208 1124 1
1210 1124 1
142 1125 1
145 1125 1
1013 1125 1
1024 1125 1
1153 1125 1
1161 1125 1
1209 1125 1
1211 1125 1
143 1126 1
146 1126 1
1014 1126 1
1025 1126 1
1154 1126 1
1162 1126 1
1210 1126 1
1212 1126 1
144 1127 1
147 1127 1
1015 1127 1
1026 1127 1
1155 1127 1
1163 1127 1
1211 1127 1
1213 1127 1
145 1128 1
148 1128 1
1016 1128 1
1027 1128 1
1156 1128 1
1164 1128 1
1212 1128 1
1214 1128 1
146 1129 1
149 1129 1
1017 1129 1
1028 1129 1
1157 1129 1
1165 1129 1
1213 1129 1
1215 1129 1
147 1130 1
150 1130 1
1018 1130 1
1029 1130 1
1158 1130 1
1166 1130 1
1214 1130 1
1216 1130 1
148 1131 1
151 1131 1
1019 1131 1
1030 1131 1
1159 1131 1
1167 1131 1
1215 1131 1
1217 1131 1
149 1132 1
152 1132 1
1020 1132 1
1031 1132 1
1160 1132 1
1168 1132 1
1216 1132 1
1218 1132 1
150 1133 1
153 1133 1
1021 1133 1
1032 1133 1
1161 1133 1
1169 1133 1
1217 1133 1
1219 1133 1
151 1134 1
154 1134 1
1022 1134 1
1033 1134 1
1162 1134 1
1170 1134 1
1218 1134 1
1220 1134 1
152 1135 1
155 1135 1
1023 1135 1
1034 1135 1
1163 1135 1
1171 1135 1
1219 1135 1
1221 1135 1
153 1136 1
156 1136 1
1024 1136 1
1035 1136 1
1164 1136 1
1172 1136 1
1220 1136 1
1222 1136 1
154 1137 1
157 1137 1
1025 1137 1
1036 1137 1
1165 1137 1
1173 1137 1
1221 1137 1
1223 1137 1
155 1138 1
158 1138 1
1009 1138 1
1026 1138 1
1166 1138 1
1174 1138 1
1222 1138 1
1224 1138 1
156 1139 1
159 1139 1
1010 1139 1
1027 1139 1
1167 1139 1
1175 1139 1
1223 1139 1
1225 1139 1
157 1140 1
160 1140 1
1011 1140 1
1028 1140 1
1168 1140 1
1176 1140 1
1224 1140 1
1226 1140 1
158 1141 1
161 1141 1
1012 1141 1
1029 1141 1
1149 1141 1
1169 1141 1
1225 1141 1
1227 1141 1
159 1142 1
162 1142 1
1013 1142 1
1030 1142 1
1150 1142 1
1170 1142 1
1226 1142 1
1228 1142 1
160 1143 1
163 1143 1
1014 1143 1
1031 1143 1
1151 1143 1
1171 1143 1
1227 1143 1
1229 1143 1
161 1144 1
164 1144 1
1015 1144 1
1032 1144 1
1152 1144 1
1172 1144 1
1228 1144 1
1230 1144 1
162 1145 1
165 1145 1
1016 1145 1
1033 1145 1
1153 1145 1
1173 1145 1
1229 1145 1
1231 1145 1
163 1146 1
166 1146 1
1017 1146 1
1034 1146 1
1154 1146 1
1174 1146 1
1230 1146 1
1232 1146 1
164 1147 1
167 1147 1
1018 1147 1
1035 1147 1
1155 1147 1
1175 1147 1
1205 1147 1
1231 1147 1
165 1148 1
168 1148 1
1019 1148 1
1036 1148 1
1156 1148 1
1176 1148 1
1206 1148 1
1232 1148 1
169 1149 1
194 1149 1
1037 1149 1
1048 1149 1
1177 1149 1
1185 1149 1
1205 1149 1
1210 1149 1
170 1150 1
195 1150 1
1038 1150 1
1049 1150 1
1178 1150 1
1186 1150 1
1206 1150 1
1211 1150 1
171 1151 1
196 1151 1
1039 1151 1
1050 1151 1
1179 1151 1
1187 1151 1
1207 1151 1
1212 1151 1
169 1152 1
172 1152 1
1040 1152 1
1051 1152 1
1180 1152 1
1188 1152 1
1208 1152 1
1213 1152 1
170 1153 1
173 1153 1
1041 1153 1
1052 1153 1
1181 1153 1
1189 1153 1
1209 1153 1
1214 1153 1
171 1154 1
174 1154 1
1042 1154 1
1053 1154 1
1182 1154 1
1190 1154 1
1210 1154 1
1215 1154 1
172 1155 1
175 1155 1
1043 1155 1
1054 1155 1
1183 1155 1
1191 1155 1
1211 1155 1
1216 1155 1
173 1156 1
176 1156 1
1044 1156 1
1055 1156 1
1184 1156 1
1192 1156 1
1212 1156 1
1217 1156 1
174 1157 1
177 1157 1
1045 1157 1
1056 1157 1
1185 1157 1
1193 1157 1
1213 1157 1
1218 1157 1
175 1158 1
178 1158 1
1046 1158 1
1057 1158 1
1186 1158 1
1194 1158 1
1214 1158 1
1219 1158 1
176 1159 1
179 1159 1
1047 1159 1
1058 1159 1
1187 1159 1
1195 1159 1
1215 1159 1
1220 1159 1
177 1160 1
180 1160 1
1048 1160 1
1059 1160 1
1188 1160 1
1196 1160 1
1216 1160 1
1221 1160 1
178 1161 1
181 1161 1
1049 1161 1
1060 1161 1
1189 1161 1
1197 1161 1
1217 1161 1
1222 1161 1
179 1162 1
182 1162 1
1050 1162 1
1061 1162 1
1190 1162 1
1198 1162 1
1218 1162 1
1223 1162 1
180 1163 1
183 1163 1
1051 1163 1
1062 1163 1
1191 1163 1
1199 1163 1
1219 1163 1
1224 1163 1
181 1164 1
184 1164 1
1052 1164 1
1063 1164 1
1192 1164 1
1200 1164 1
1220 1164 1
1225 1164 1
182 1165 1
185 1165 1
1053 1165 1
1064 1165 1
1193 1165 1
1201 1165 1
1221 1165 1
1226 1165 1
183 1166 1
186 1166 1
1037 1166 1
1054 1166 1
1194 1166 1
1202 1166 1
1222 1166 1
1227 1166 1
184 1167 1
187 1167 1
1038 1167 1
1055 1167 1
1195 1167 1
1203 1167 1
1223 1167 1
1228 1167 1
185 1168 1
188 1168 1
1039 1168 1
1056 1168 1
1196 1168 1
1204 1168 1
1224 1168 1
1229 1168 1
186 1169 1
189 1169 1
1040 1169 1
1057 1169 1
1177 1169 1
1197 1169 1
1225 1169 1
1230 1169 1
187 1170 1
190 1170 1
1041 1170 1
1058 1170 1
1178 1170 1
1198 1170 1
1226 1170 1
1231 1170 1
188 1171 1
191 1171 1
1042 1171 1
1059 1171 1
1179 1171 1
1199 1171 1
1227 1171 1
1232 1171 1
189 1172 1
192 1172 1
1043 1172 1
1060 1172 1
1180 1172 1
1200 1172 1
1205 1172 1
1228 1172 1
190 1173 1
193 1173 1
1044 1173 1
1061 1173 1
1181 1173 1
1201 1173 1
1206 1173 1
1229 1173 1
191 1174 1
194 1174 1
1045 1174 1
1062 1174 1
1182 1174 1
1202 1174 1
1207 1174 1
1230 1174 1
192 1175 1
195 1175 1
1046 1175 1
1063 1175 1
1183 1175 1
1203 1175 1
1208 1175 1
1231 1175 1
193 1176 1
196 1176 1
1047 1176 1
1064 1176 1
1184 1176 1
1204 1176 1
1209 1176 1
1232 1176 1
197 1177 1
222 1177 1
1065 1177 1
1076 1177 1
1149 1177 1
1159 1177 1
1233 1177 1
1235 1177 1
198 1178 1
223 1178 1
1066 1178 1
1077 1178 1
1150 1178 1
1160 1178 1
1234 1178 1
1236 1178 1
199 1179 1
224 1179 1
1067 1179 1
1078 1179 1
1151 1179 1
1161 1179 1
1235 1179 1
1237 1179 1
197 1180 1
200 1180 1
1068 1180 1
1079 1180 1
1152 1180 1
1162 1180 1
1236 1180 1
1238 1180 1
198 1181 1
201 1181 1
1069 1181 1
1080 1181 1
1153 1181 1
1163 1181 1
1237 1181 1
1239 1181 1
199 1182 1
202 1182 1
1070 1182 1
1081 1182 1
1154 1182 1
1164 1182 1
1238 1182 1
1240 1182 1
200 1183 1
203 1183 1
1071 1183 1
1082 1183 1
1155 1183 1
1165 1183 1
1239 1183 1
1241 1183 1
201 1184 1
204 1184 1
1072 1184 1
1083 1184 1
1156 1184 1
1166 1184 1
1240 1184 1
1242 1184 1
202 1185 1
205 1185 1
1073 1185 1
1084 1185 1
1157 1185 1
1167 1185 1
1241 1185 1
1243 1185 1
203 1186 1
206 1186 1
1074 1186 1
1085 1186 1
1158 1186 1
1168 1186 1
1242 1186 1
1244 1186 1
204 1187 1
207 1187 1
1075 1187 1
1086 1187 1
1159 1187 1
1169 1187 1
1243 1187 1
1245 1187 1
205 1188 1
208 1188 1
1076 1188 1
1087 1188 1
1160 1188 1
1170 1188 1
1244 1188 1
1246 1188 1
206 1189 1
209 1189 1
1077 1189 1
1088 1189 1
1161 1189 1
1171 1189 1
1245 1189 1
1247 1189 1
207 1190 1
210 1190 1
1078 1190 1
1089 1190 1
1162 1190 1
1172 1190 1
1246 1190 1
1248 1190 1
208 1191 1
211 1191 1
1079 1191 1
1090 1191 1
1163 1191 1
1173 1191 1
1247 1191 1
1249 1191 1
209 1192 1
212 1192 1
1080 1192 1
1091 1192 1
1164 1192 1
1174 1192 1
1248 1192 1
1250 1192 1
210 1193 1
213 1193 1
1081 1193 1
1092 1193 1
1165 1193 1
1175 1193 1
1249 1193 1
1251 1193 1
211 1194 1
214 1194 1
1065 1194 1
1082 1194 1
1166 1194 1
1176 1194 1
1250 1194 1
1252 1194 1
212 1195 1
215 1195 1
1066 1195 1
1083 1195 1
1149 1195 1
1167 1195 1
1251 1195 1
1253 1195 1
213 1196 1
216 1196 1
1067 1196 1
1084 1196 1
1150 1196 1
1168 1196 1
1252 1196 1
1254 1196 1
214 1197 1
217 1197 1
1068 1197 1
1085 1197 1
1151 1197 1
1169 1197 1
1253 1197 1
1255 1197 1
215 1198 1
218 1198 1
1069 1198 1
1086 1198 1
1152 1198 1
1170 1198 1
1254 1198 1
1256 1198 1
216 1199 1
219 1199 1
1070 1199 1
1087 1199 1
1153 1199 1
1171 1199 1
1255 1199 1
1257 1199 1
217 1200 1
220 1200 1
1071 1200 1
1088 1200 1
1154 1200 1
1172 1200 1
1256 1200 1
1258 1200 1
218 1201 1
221 1201 1
1072 1201 1
1089 1201 1
1155 1201 1
1173 1201 1
1257 1201 1
1259 1201 1
219 1202 1
222 1202 1
1073 1202 1
1090 1202 1
1156 1202 1
1174 1202 1
1258 1202 1
1260 1202 1
220 1203 1
223 1203 1
1074 1203 1
1091 1203 1
1157 1203 1
1175 1203 1
1233 1203 1
1259 1203 1
221 1204 1
224 1204 1
1075 1204 1
1092 1204 1
1158 1204 1
1176 1204 1
1234 1204 1
1260 1204 1
225 1205 1
250 1205 1
1093 1205 1
1104 1205 1
1177 1205 1
1187 1205 1
1233 1205 1
1238 1205 1
226 1206 1
251 1206 1
1094 1206 1
1105 1206 1
1178 1206 1
1188 1206 1
1234 1206 1
1239 1206 1
227 1207 1
252 1207 1
1095 1207 1
1106 1207 1
1179 1207 1
1189 1207 1
1235 1207 1
1240 1207 1
225 1208 1
228 1208 1
1096 1208 1
1107 1208 1
1180 1208 1
1190 1208 1
1236 1208 1
1241 1208 1
226 1209 1
229 1209 1
1097 1209 1
1108 1209 1
1181 1209 1
1191 1209 1
1237 1209 1
1242 1209 1
227 1210 1
230 1210 1
1098 1210 1
1109 1210 1
1182 1210 1
1192 1210 1
1238 1210 1
1243 1210 1
228 1211 1
231 1211 1
1099 1211 1
1110 1211 1
1183 1211 1
1193 1211 1
1239 1211 1
1244 1211 1
229 1212 1
232 1212 1
1100 1212 1
1111 1212 1
1184 1212 1
1194 1212 1
1240 1212 1
1245 1212 1
230 1213 1
233 1213 1
1101 1213 1
1112 1213 1
1185 1213 1
1195 1213 1
1241 1213 1
1246 1213 1
231 1214 1
234 1214 1
1102 1214 1
1113 1214 1
1186 1214 1
1196 1214 1
1242 1214 1
1247 1214 1
232 1215 1
235 1215 1
1103 1215 1
1114 1215 1
1187 1215 1
1197 1215 1
1243 1215 1
1248 1215 1
233 1216 1
236 1216 1
1104 1216 1
1115 1216 1
1188 1216 1
1198 1216 1
1244 1216 1
1249 1216 1
234 1217 1
237 1217 1
1105 1217 1
1116 1217 1
1189 1217 1
1199 1217 1
1245 1217 1
1250 1217 1
235 1218 1
238 1218 1
1106 1218 1
1117 1218 1
1190 1218 1
1200 1218 1
1246 1218 1
1251 1218 1
236 1219 1
239 1219 1
1107 1219 1
1118 1219 1
1191 1219 1
1201 1219 1
1247 1219 1
1252 1219 1
237 1220 1
240 1220 1
1108 1220 1
1119 1220 1
1192 1220 1
1202 1220 1
1248 1220 1
1253 1220 1
238 1221 1
241 1221 1
1109 1221 1
1120 1221 1
1193 1221 1
1203 1221 1
1249 1221 1
1254 1221 1
239 1222 1
242 1222 1
1093 1222 1
1110 1222 1
1194 1222 1
1204 1222 1
1250 1222 1
1255 1222 1
240 1223 1
243 1223 1
1094 1223 1
1111 1223 1
1177 1223 1
1195 1223 1
1251 1223 1
1256 1223 1
241 1224 1
244 1224 1
1095 1224 1
1112 1224 1
1178 1224 1
1196 1224 1
1252 1224 1
1257 1224 1
242 1225 1
245 1225 1
1096 1225 1
1113 1225 1
1179 1225 1
1197 1225 1
1253 1225 1
1258 1225 1
243 1226 1
246 1226 1
1097 1226 1
1114 1226 1
1180 1226 1
1198 1226 1
1254 1226 1
1259 1226 1
244 1227 1
247 1227 1
1098 1227 1
1115 1227 1
1181 1227 1
1199 1227 1
1255 1227 1
1260 1227 1
245 1228 1
248 1228 1
1099 1228 1
1116 1228 1
1182 1228 1
1200 1228 1
1233 1228 1
1256 1228 1
246 1229 1
249 1229 1
1100 1229 1
1117 1229 1
1183 1229 1
1201 1229 1
1234 1229 1
1257 1229 1
247 1230 1
250 1230 1
1101 1230 1
1118 1230 1
1184 1230 1
1202 1230 1
1235 1230 1
1258 1230 1
248 1231 1
251 1231 1
1102 1231 1
1119 1231 1
1185 1231 1
1203 1231 1
1236 1231 1
1259 1231 1
249 1232 1
252 1232 1
1103 1232 1
1120 1232 1
1186 1232 1
1204 1232 1
1237 1232 1
1260 1232 1
253 1233 1
278 1233 1
1121 1233 1
1132 1233 1
1205 1233 1
1215 1233 1
1233 1233 1
1241 1233 1
254 1234 1
279 1234 1
1122 1234 1
1133 1234 1
1206 1234 1
1216 1234 1
1234 1234 1
1242 1234 1
255 1235 1
280 1235 1
1123 1235 1
1134 1235 1
1207 1235 1
1217 1235 1
1235 1235 1
1243 1235 1
253 1236 1
256 1236 1
1124 1236 1
1135 1236 1
1208 1236 1
1218 1236 1
1236 1236 1
1244 1236 1
254 1237 1
257 1237 1
1125 1237 1
1136 1237 1
1209 1237 1
1219 1237 1
1237 1237 1
1245 1237 1
255 1238 1
258 1238 1
1126 1238 1
1137 1238 1
1210 1238 1
1220 1238 1
1238 1238 1
1246 1238 1
256 1239 1
259 1239 1
1127 1239 1
1138 1239 1
1211 1239 1
1221 1239 1
1239 1239 1
1247 1239 1
257 1240 1
260 1240 1
1128 1240 1
1139 1240 1
1212 1240 1
1222 1240 1
1240 1240 1
1248 1240 1
258 1241 1
261 1241 1
1129 1241 1
1140 1241 1
1213 1241 1
1223 1241 1
1241 1241 1
1249 1241 1
259 1242 1
262 1242 1
1130 1242 1
1141 1242 1
1214 1242 1
1224 1242 1
1242 1242 1
1250 1242 1
260 1243 1
263 1243 1
1131 1243 1
1142 1243 1
1215 1243 1
1225 1243 1
1243 1243 1
1251 1243 1
261 1244 1
264 1244 1
1132 1244 1
1143 1244 1
1216 1244 1
1226 1244 1
1244 1244 1
1252 1244 1
262 1245 1
265 1245 1
1133 1245 1
1144 1245 1
1217 1245 1
1227 1245 1
1245 1245 1
1253 1245 1
263 1246 1
266 1246 1
1134 1246 1
1145 1246 1
1218 1246 1
1228 1246 1
1246 1246 1
1254 1246 1
264 1247 1
267 1247 1
1135 1247 1
1146 1247 1
1219 1247 1
1229 1247 1
1247 1247 1
1255 1247 1
265 1248 1
268 1248 1
1136 1248 1
1147 1248 1
1220 1248 1
1230 1248 1
1248 1248 1
1256 1248 1
266 1249 1
269 1249 1
1137 1249 1
1148 1249 1
1221 1249 1
1231 1249 1
1249 1249 1
1257 1249 1
267 1250 1
270 1250 1
1121 1250 1
1138 1250 1
1222 1250 1
1232 1250 1
1250 1250 1
1258 1250 1
268 1251 1
271 1251 1
1122 1251 1
1139 1251 1
1205 1251 1
1223 1251 1
1251 1251 1
1259 1251 1
269 1252 1
272 1252 1
1123 1252 1
1140 1252 1
1206 1252 1
1224 1252 1
1252 1252 1
1260 1252 1
270 1253 1
273 1253 1
1124 1253 1
1141 1253 1
1207 1253 1
1225 1253 1
1233 1253 1
1253 1253 1
271 1254 1
274 1254 1
1125 1254 1
1142 1254 1
1208 1254 1
1226 1254 1
1234 1254 1
1254 1254 1
272 1255 1
275 1255 1
1126 1255 1
1143 1255 1
1209 1255 1
1227 1255 1
1235 1255 1
1255 1255 1
273 1256 1
276 1256 1
1127 1256 1
1144 1256 1
1210 1256 1
1228 1256 1
1236 1256 1
1256 1256 1
274 1257 1
277 1257 1
1128 1257 1
1145 1257 1
1211 1257 1
1229 1257 1
1237 1257 1
1257 1257 1
275 1258 1
278 1258 1
1129 1258 1
1146 1258 1
1212 1258 1
1230 1258 1
1238 1258 1
1258 1258 1
276 1259 1
279 1259 1
1130 1259 1
1147 1259 1
1213 1259 1
1231 1259 1
1239 1259 1
1259 1259 1
277 1260 1
280 1260 1
1131 1260 1
1148 1260 1
1214 1260 1
1232 1260 1
1240 1260 1
1260 1260 1
281 1261 1
306 1261 1
981 1261 1
997 1261 1
1261 1261 1
1266 1261 1
1289 1261 1
1291 1261 1
282 1262 1
307 1262 1
982 1262 1
998 1262 1
1262 1262 1
1267 1262 1
1290 1262 1
1292 1262 1
283 1263 1
308 1263 1
983 1263 1
999 1263 1
1263 1263 1
1268 1263 1
1291 1263 1
1293 1263 1
281 1264 1
284 1264 1
984 1264 1
1000 1264 1
1264 1264 1
1269 1264 1
1292 1264 1
1294 1264 1
282 1265 1
285 1265 1
985 1265 1
1001 1265 1
1265 1265 1
1270 1265 1
1293 1265 1
1295 1265 1
283 1266 1
286 1266 1
986 1266 1
1002 1266 1
1266 1266 1
1271 1266 1
1294 1266 1
1296 1266 1
284 1267 1
287 1267 1
987 1267 1
1003 1267 1
1267 1267 1
1272 1267 1
1295 1267 1
1297 1267 1
285 1268 1
288 1268 1
988 1268 1
1004 1268 1
1268 1268 1
1273 1268 1
1296 1268 1
1298 1268 1
286 1269 1
289 1269 1
989 1269 1
1005 1269 1
1269 1269 1
1274 1269 1
1297 1269 1
1299 1269 1
287 1270 1
290 1270 1
990 1270 1
1006 1270 1
1270 1270 1
1275 1270 1
1298 1270 1
1300 1270 1
288 1271 1
291 1271 1
991 1271 1
1007 1271 1
1271 1271 1
1276 1271 1
1299 1271 1
1301 1271 1
289 1272 1
292 1272 1
992 1272 1
1008 1272 1
1272 1272 1
1277 1272 1
1300 1272 1
1302 1272 1
290 1273 1
293 1273 1
981 1273 1
993 1273 1
1273 1273 1
1278 1273 1
1301 1273 1
1303 1273 1
291 1274 1
294 1274 1
982 1274 1
994 1274 1
1274 1274 1
1279 1274 1
1302 1274 1
1304 1274 1
292 1275 1
295 1275 1
983 1275 1
995 1275 1
1275 1275 1
1280 1275 1
1303 1275 1
1305 1275 1
293 1276 1
296 1276 1
984 1276 1
996 1276 1
1276 1276 1
1281 1276 1
1304 1276 1
1306 1276 1
294 1277 1
297 1277 1
985 1277 1
997 1277 1
1277 1277 1
1282 1277 1
1305 1277 1
1307 1277 1
295 1278 1
298 1278 1
986 1278 1
998 1278 1
1278 1278 1
1283 1278 1
1306 1278 1
1308 1278 1
296 1279 1
299 1279 1
987 1279 1
999 1279 1
1279 1279 1
1284 1279 1
1307 1279 1
1309 1279 1
297 1280 1
300 1280 1
988 1280 1
1000 1280 1
1280 1280 1
1285 1280 1
1308 1280 1
1310 1280 1
298 1281 1
301 1281 1
989 1281 1
1001 1281 1
1281 1281 1
1286 1281 1
1309 1281 1
1311 1281 1
299 1282 1
302 1282 1
990 1282 1
1002 1282 1
1282 1282 1
1287 1282 1
1310 1282 1
1312 1282 1
300 1283 1
303 1283 1
991 1283 1
1003 1283 1
1283 1283 1
1288 1283 1
1311 1283 1
1313 1283 1
301 1284 1
304 1284 1
992 1284 1
1004 1284 1
1261 1284 1
1284 1284 1
1312 1284 1
1314 1284 1
302 1285 1
305 1285 1
993 1285 1
1005 1285 1
1262 1285 1
1285 1285 1
1313 1285 1
1315 1285 1
303 1286 1
306 1286 1
994 1286 1
1006 1286 1
1263 1286 1
1286 1286 1
1314 1286 1
1316 1286 1
304 1287 1
307 1287 1
995 1287 1
1007 1287 1
1264 1287 1
1287 1287 1
1289 1287 1
1315 1287 1
305 1288 1
308 1288 1
996 1288 1
1008 1288 1
1265 1288 1
1288 1288 1
1290 1288 1
1316 1288 1
309 1289 1
334 1289 1
1009 1289 1
1025 1289 1
1261 1289 1
1269 1289 1
1317 1289 1
1319 1289 1
310 1290 1
335 1290 1
1010 1290 1
1026 1290 1
1262 1290 1
1270 1290 1
1318 1290 1
1320 1290 1
311 1291 1
336 1291 1
1011 1291 1
1027 1291 1
1263 1291 1
1271 1291 1
1319 1291 1
1321 1291 1
309 1292 1
312 1292 1
1012 1292 1
1028 1292 1
1264 1292 1
1272 1292 1
1320 1292 1
1322 1292 1
310 1293 1
313 1293 1
1013 1293 1
1029 1293 1
1265 1293 1
1273 1293 1
1321 1293 1
1323 1293 1
311 1294 1
314 1294 1
1014 1294 1
1030 1294 1
1266 1294 1
1274 1294 1
1322 1294 1
1324 1294 1
312 1295 1
315 1295 1
1015 1295 1
1031 1295 1
1267 1295 1
1275 1295 1
1323 1295 1
1325 1295 1
313 1296 1
316 1296 1
1016 1296 1
1032 1296 1
1268 1296 1
1276 1296 1
1324 1296 1
1326 1296 1
314 1297 1
317 1297 1
1017 1297 1
1033 1297 1
1269 1297 1
1277 1297 1
1325 1297 1
1327 1297 1
315 1298 1
318 1298 1
1018 1298 1
1034 1298 1
1270 1298 1
1278 1298 1
1326 1298 1
1328 1298 1
316 1299 1
319 1299 1
1019 1299 1
1035 1299 1
1271 1299 1
1279 1299 1
1327 1299 1
1329 1299 1
317 1300 1
320 1300 1
1020 1300 1
1036 1300 1
1272 1300 1
1280 1300 1
1328 1300 1
1330 1300 1
318 1301 1
321 1301 1
1009 1301 1
1021 1301 1
1273 1301 1
1281 1301 1
1329 1301 1
1331 1301 1
319 1302 1
322 1302 1
1010 1302 1
1022 1302 1
1274 1302 1
1282 1302 1
1330 1302 1
1332 1302 1
320 1303 1
323 1303 1
1011 1303 1
1023 1303 1
1275 1303 1
1283 1303 1
1331 1303 1
1333 1303 1
321 1304 1
324 1304 1
1012 1304 1
1024 1304 1
1276 1304 1
1284 1304 1
1332 1304 1
1334 1304 1
322 1305 1
325 1305 1
1013 1305 1
1025 1305 1
1277 1305 1
1285 1305 1
1333 1305 1
1335 1305 1
323 1306 1
326 1306 1
1014 1306 1
1026 1306 1
1278 1306 1
1286 1306 1
1334 1306 1
1336 1306 1
324 1307 1
327 1307 1
1015 1307 1
1027 1307 1
1279 1307 1
1287 1307 1
1335 1307 1
1337 1307 1
325 1308 1
328 1308 1
1016 1308 1
1028 1308 1
1280 1308 1
1288 1308 1
1336 1308 1
1338 1308 1
326 1309 1
329 1309 1
1017 1309 1
1029 1309 1
1261 1309 1
1281 1309 1
1337 1309 1
1339 1309 1
327 1310 1
330 1310 1
1018 1310 1
1030 1310 1
1262 1310 1
1282 1310 1
1338 1310 1
1340 1310 1
328 1311 1
331 1311 1
1019 1311 1
1031 1311 1
1263 1311 1
1283 1311 1
1339 1311 1
1341 1311 1
329 1312 1
332 1312 1
1020 1312 1
1032 1312 1
1264 1312 1
1284 1312 1
1340 1312 1
1342 1312 1
330 1313 1
333 1313 1
1021 1313 1
1033 1313 1
1265 1313 1
1285 1313 1
1341 1313 1
1343 1313 1
331 1314 1
334 1314 1
1022 1314 1
1034 1314 1
1266 1314 1
1286 1314 1
1342 1314 1
1344 1314 1
332 1315 1
335 1315 1
1023 1315 1
1035 1315 1
1267 1315 1
1287 1315 1
1317 1315 1
1343 1315 1
333 1316 1
336 1316 1
1024 1316 1
1036 1316 1
1268 1316 1
1288 1316 1
1318 1316 1
1344 1316 1
337 1317 1
362 1317 1
1037 1317 1
1053 1317 1
1289 1317 1
1297 1317 1
1317 1317 1
1322 1317 1
338 1318 1
363 1318 1
1038 1318 1
1054 1318 1
1290 1318 1
1298 1318 1
1318 1318 1
1323 1318 1
339 1319 1
364 1319 1
1039 1319 1
1055 1319 1
1291 1319 1
1299 1319 1
1319 1319 1
1324 1319 1
337 1320 1
340 1320 1
1040 1320 1
1056 1320 1
1292 1320 1
1300 1320 1
1320 1320 1
1325 1320 1
338 1321 1
341 1321 1
1041 1321 1
1057 1321 1
1293 1321 1
1301 1321 1
1321 1321 1
1326 1321 1
339 1322 1
342 1322 1
1042 1322 1
1058 1322 1
1294 1322 1
1302 1322 1
1322 1322 1
1327 1322 1
340 1323 1
343 1323 1
1043 1323 1
1059 1323 1
1295 1323 1
1303 1323 1
1323 1323 1
1328 1323 1
341 1324 1
344 1324 1
1044 1324 1
1060 1324 1
1296 1324 1
1304 1324 1
1324 1324 1
1329 1324 1
342 1325 1
345 1325 1
1045 1325 1
1061 1325 1
1297 1325 1
1305 1325 1
1325 1325 1
1330 1325 1
343 1326 1
346 1326 1
1046 1326 1
1062 1326 1
1298 1326 1
1306 1326 1
1326 1326 1
1331 1326 1
344 1327 1
347 1327 1
1047 1327 1
1063 1327 1
1299 1327 1
1307 1327 1
1327 1327 1
1332 1327 1
345 1328 1
348 1328 1
1048 1328 1
1064 1328 1
1300 1328 1
1308 1328 1
1328 1328 1
1333 1328 1
346 1329 1
349 1329 1
1037 1329 1
1049 1329 1
1301 1329 1
1309 1329 1
1329 1329 1
1334 1329 1
347 1330 1
350 1330 1
1038 1330 1
1050 1330 1
1302 1330 1
1310 1330 1
1330 1330 1
1335 1330 1
348 1331 1
351 1331 1
1039 1331 1
1051 1331 1
1303 1331 1
1311 1331 1
1331 1331 1
1336 1331 1
349 1332 1
352 1332 1
1040 1332 1
1052 1332 1
1304 1332 1
1312 1332 1
1332 1332 1
1337 1332 1
350 1333 1
353 1333 1
1041 1333 1
1053 1333 1
1305 1333 1
1313 1333 1
1333 1333 1
1338 1333 1
351 1334 1
354 1334 1
1042 1334 1
1054 1334 1
1306 1334 1
1314 1334 1
1334 1334 1
1339 1334 1
352 1335 1
355 1335 1
1043 1335 1
1055 1335 1
1307 1335 1
1315 1335 1
1335 1335 1
1340 1335 1
353 1336 1
356 1336 1
1044 1336 1
1056 1336 1
1308 1336 1
1316 1336 1
1336 1336 1
1341 1336 1
354 1337 1
357 1337 1
1045 1337 1
1057 1337 1
1289 1337 1
1309 1337 1
1337 1337 1
1342 1337 1
355 1338 1
358 1338 1
1046 1338 1
1058 1338 1
1290 1338 1
1310 1338 1
1338 1338 1
1343 1338 1
356 1339 1
359 1339 1
1047 1339 1
1059 1339 1
1291 1339 1
1311 1339 1
1339 1339 1
1344 1339 1
357 1340 1
360 1340 1
1048 1340 1
1060 1340 1
1292 1340 1
1312 1340 1
1317 1340 1
1340 1340 1
358 1341 1
361 1341 1
1049 1341 1
1061 1341 1
1293 1341 1
1313 1341 1
1318 1341 1
1341 1341 1
359 1342 1
362 1342 1
1050 1342 1
1062 1342 1
1294 1342 1
1314 1342 1
1319 1342 1
1342 1342 1
360 1343 1
363 1343 1
1051 1343 1
1063 1343 1
1295 1343 1
1315 1343 1
1320 1343 1
1343 1343 1
361 1344 1
364 1344 1
1052 1344 1
1064 1344 1
1296 1344 1
1316 1344 1
1321 1344 1
1344 1344 1
365 1345 1
390 1345 1
1065 1345 1
1081 1345 1
1261 1345 1
1271 1345 1
1345 1345 1
1347 1345 1
366 1346 1
391 1346 1
1066 1346 1
1082 1346 1
1262 1346 1
1272 1346 1
1346 1346 1
1348 1346 1
367 1347 1
392 1347 1
1067 1347 1
1083 1347 1
1263 1347 1
1273 1347 1
1347 1347 1
1349 1347 1
365 1348 1
368 1348 1
1068 1348 1
1084 1348 1
1264 1348 1
1274 1348 1
1348 1348 1
1350 1348 1
366 1349 1
369 1349 1
1069 1349 1
1085 1349 1
1265 1349 1
1275 1349 1
1349 1349 1
1351 1349 1
367 1350 1
370 1350 1
1070 1350 1
1086 1350 1
1266 1350 1
1276 1350 1
1350 1350 1
1352 1350 1
368 1351 1
371 1351 1
1071 1351 1
1087 1351 1
1267 1351 1
1277 1351 1
1351 1351 1
1353 1351 1
369 1352 1
372 1352 1
1072 1352 1
1088 1352 1
1268 1352 1
1278 1352 1
1352 1352 1
1354 1352 1
370 1353 1
373 1353 1
1073 1353 1
1089 1353 1
1269 1353 1
1279 1353 1
1353 1353 1
1355 1353 1
371 1354 1
374 1354 1
1074 1354 1
1090 1354 1
1270 1354 1
1280 1354 1
1354 1354 1
1356 1354 1
372 1355 1
375 1355 1
1075 1355 1
1091 1355 1
1271 1355 1
1281 1355 1
1355 1355 1
1357 1355 1
373 1356 1
376 1356 1
1076 1356 1
1092 1356 1
1272 1356 1
1282 1356 1
1356 1356 1
1358 1356 1
374 1357 1
377 1357 1
1065 1357 1
1077 1357 1
1273 1357 1
1283 1357 1
1357 1357 1
1359 1357 1
375 1358 1
378 1358 1
1066 1358 1
1078 1358 1
1274 1358 1
1284 1358 1
1358 1358 1
1360 1358 1
376 1359 1
379 1359 1
1067 1359 1
1079 1359 1
1275 1359 1
1285 1359 1
1359 1359 1
1361 1359 1
377 1360 1
380 1360 1
1068 1360 1
1080 1360 1
1276 1360 1
1286 1360 1
1360 1360 1
1362 1360 1
378 1361 1
381 1361 1
1069 1361 1
1081 1361 1
1277 1361 1
1287 1361 1
1361 1361 1
1363 1361 1
379 1362 1
382 1362 1
1070 1362 1
1082 1362 1
1278 1362 1
1288 1362 1
1362 1362 1
1364 1362 1
380 1363 1
383 1363 1
1071 1363 1
1083 1363 1
1261 1363 1
1279 1363 1
1363 1363 1
1365 1363 1
381 1364 1
384 1364 1
1072 1364 1
1084 1364 1
1262 1364 1
1280 1364 1
1364 1364 1
1366 1364 1
382 1365 1
385 1365 1
1073 1365 1
1085 1365 1
1263 1365 1
1281 1365 1
1365 1365 1
1367 1365 1
383 1366 1
386 1366 1
1074 1366 1
1086 1366 1
1264 1366 1
1282 1366 1
1366 1366 1
1368 1366 1
384 1367 1
387 1367 1
1075 1367 1
1087 1367 1
1265 1367 1
1283 1367 1
1367 1367 1
1369 1367 1
385 1368 1
388 1368 1
1076 1368 1
1088 1368 1
1266 1368 1
1284 1368 1
1368 1368 1
1370 1368 1
386 1369 1
389 1369 1
1077 1369 1
1089 1369 1
1267 1369 1
1285 1369 1
1369 1369 1
1371 1369 1
387 1370 1
390 1370 1
1078 1370 1
1090 1370 1
1268 1370 1
1286 1370 1
1370 1370 1
1372 1370 1
388 1371 1
391 1371 1
1079 1371 1
1091 1371 1
1269 1371 1
1287 1371 1
1345 1371 1
1371 1371 1
389 1372 1
392 1372 1
1080 1372 1
1092 1372 1
1270 1372 1
1288 1372 1
1346 1372 1
1372 1372 1
393 1373 1
418 1373 1
1093 1373 1
1109 1373 1
1289 1373 1
1299 1373 1
1345 1373 1
1350 1373 1
394 1374 1
419 1374 1
1094 1374 1
1110 1374 1
1290 1374 1
1300 1374 1
1346 1374 1
1351 1374 1
395 1375 1
420 1375 1
1095 1375 1
1111 1375 1
1291 1375 1
1301 1375 1
1347 1375 1
1352 1375 1
393 1376 1
396 1376 1
1096 1376 1
1112 1376 1
1292 1376 1
1302 1376 1
1348 1376 1
1353 1376 1
394 1377 1
397 1377 1
1097 1377 1
1113 1377 1
1293 1377 1
1303 1377 1
1349 1377 1
1354 1377 1
395 1378 1
398 1378 1
1098 1378 1
1114 1378 1
1294 1378 1
1304 1378 1
1350 1378 1
1355 1378 1
396 1379 1
399 1379 1
1099 1379 1
1115 1379 1
1295 1379 1
1305 1379 1
1351 1379 1
1356 1379 1
397 1380 1
400 1380 1
1100 1380 1
1116 1380 1
1296 1380 1
1306 1380 1
1352 1380 1
1357 1380 1
398 1381 1
401 1381 1
1101 1381 1
1117 1381 1
1297 1381 1
1307 1381 1
1353 1381 1
1358 1381 1
399 1382 1
402 1382 1
1102 1382 1
1118 1382 1
1298 1382 1
1308 1382 1
1354 1382 1
1359 1382 1
400 1383 1
403 1383 1
1103 1383 1
1119 1383 1
1299 1383 1
1309 1383 1
1355 1383 1
1360 1383 1
401 1384 1
404 1384 1
1104 1384 1
1120 1384 1
1300 1384 1
1310 1384 1
1356 1384 1
1361 1384 1
402 1385 1
405 1385 1
1093 1385 1
1105 1385 1
1301 1385 1
1311 1385 1
1357 1385 1
1362 1385 1
403 1386 1
406 1386 1
1094 1386 1
1106 1386 1
1302 1386 1
1312 1386 1
1358 1386 1
1363 1386 1
404 1387 1
407 1387 1
1095 1387 1
1107 1387 1
1303 1387 1
1313 1387 1
1359 1387 1
1364 1387 1
405 1388 1
408 1388 1
1096 1388 1
1108 1388 1
1304 1388 1
1314 1388 1
1360 1388 1
1365 1388 1
406 1389 1
409 1389 1
1097 1389 1
1109 1389 1
1305 1389 1
1315 1389 1
1361 1389 1
1366 1389 1
407 1390 1
410 1390 1
1098 1390 1
1110 1390 1
1306 1390 1
1316 1390 1
1362 1390 1
1367 1390 1
408 1391 1
411 1391 1
1099 1391 1
1111 1391 1
1289 1391 1
1307 1391 1
1363 1391 1
1368 1391 1
409 1392 1
412 1392 1
1100 1392 1
1112 1392 1
1290 1392 1
1308 1392 1
1364 1392 1
1369 1392 1
410 1393 1
413 1393 1
1101 1393 1
1113 1393 1
1291 1393 1
1309 1393 1
1365 1393 1
1370 1393 1
411 1394 1
414 1394 1
1102 1394 1
1114 1394 1
1292 1394 1
1310 1394 1
1366 1394 1
1371 1394 1
412 1395 1
415 1395 1
1103 1395 1
1115 1395 1
1293 1395 1
1311 1395 1
1367 1395 1
1372 1395 1
413 1396 1
416 1396 1
1104 1396 1
1116 1396 1
1294 1396 1
1312 1396 1
1345 1396 1
1368 1396 1
414 1397 1
417 1397 1
1105 1397 1
1117 1397 1
1295 1397 1
1313 1397 1
1346 1397 1
1369 1397 1
415 1398 1
418 1398 1
1106 1398 1
1118 1398 1
1296 1398 1
1314 1398 1
1347 1398 1
1370 1398 1
416 1399 1
419 1399 1
1107 1399 1
1119 1399 1
1297 1399 1
1315 1399 1
1348 1399 1
1371 1399 1
417 1400 1
420 1400 1
1108 1400 1
1120 1400 1
1298 1400 1
1316 1400 1
1349 1400 1
1372 1400 1
421 1401 1
446 1401 1
1121 1401 1
1137 1401 1
1317 1401 1
1327 1401 1
1345 1401 1
1353 1401 1
422 1402 1
447 1402 1
1122 1402 1
1138 1402 1
1318 1402 1
1328 1402 1
1346 1402 1
1354 1402 1
423 1403 1
448 1403 1
1123 1403 1
1139 1403 1
1319 1403 1
1329 1403 1
1347 1403 1
1355 1403 1
421 1404 1
424 1404 1
1124 1404 1
1140 1404 1
1320 1404 1
1330 1404 1
1348 1404 1
1356 1404 1
422 1405 1
425 1405 1
1125 1405 1
1141 1405 1
1321 1405 1
1331 1405 1
1349 1405 1
1357 1405 1
423 1406 1
426 1406 1
1126 1406 1
1142 1406 1
1322 1406 1
1332 1406 1
1350 1406 1
1358 1406 1
424 1407 1
427 1407 1
1127 1407 1
1143 1407 1
1323 1407 1
1333 1407 1
1351 1407 1
1359 1407 1
425 1408 1
428 1408 1
1128 1408 1
1144 1408 1
1324 1408 1
1334 1408 1
1352 1408 1
1360 1408 1
426 1409 1
429 1409 1
1129 1409 1
1145 1409 1
1325 1409 1
1335 1409 1
1353 1409 1
1361 1409 1
427 1410 1
430 1410 1
1130 1410 1
1146 1410 1
1326 1410 1
1336 1410 1
1354 1410 1
1362 1410 1
428 1411 1
431 1411 1
1131 1411 1
1147 1411 1
1327 1411 1
1337 1411 1
1355 1411 1
1363 1411 1
429 1412 1
432 1412 1
1132 1412 1
1148 1412 1
1328 1412 1
1338 1412 1
1356 1412 1
1364 1412 1
430 1413 1
433 1413 1
1121 1413 1
1133 1413 1
1329 1413 1
1339 1413 1
1357 1413 1
1365 1413 1
431 1414 1
434 1414 1
1122 1414 1
1134 1414 1
1330 1414 1
1340 1414 1
1358 1414 1
1366 1414 1
432 1415 1
435 1415 1
1123 1415 1
1135 1415 1
1331 1415 1
1341 1415 1
1359 1415 1
1367 1415 1
433 1416 1
436 1416 1
1124 1416 1
1136 1416 1
1332 1416 1
1342 1416 1
1360 1416 1
1368 1416 1
434 1417 1
437 1417 1
1125 1417 1
1137 1417 1
1333 1417 1
1343 1417 1
1361 1417 1
1369 1417 1
435 1418 1
438 1418 1
1126 1418 1
1138 1418 1
1334 1418 1
1344 1418 1
1362 1418 1
1370 1418 1
436 1419 1
439 1419 1
1127 1419 1
1139 1419 1
1317 1419 1
1335 1419 1
1363 1419 1
1371 1419 1
437 1420 1
440 1420 1
1128 1420 1
1140 1420 1
1318 1420 1
1336 1420 1
1364 1420 1
1372 1420 1
438 1421 1
441 1421 1
1129 1421 1
1141 1421 1
1319 1421 1
1337 1421 1
1345 1421 1
1365 1421 1
439 1422 1
442 1422 1
1130 1422 1
1142 1422 1
1320 1422 1
1338 1422 1
1346 1422 1
1366 1422 1
440 1423 1
443 1423 1
1131 1423 1
1143 1423 1
1321 1423 1
1339 1423 1
1347 1423 1
1367 1423 1
441 1424 1
444 1424 1
1132 1424 1
1144 1424 1
1322 1424 1
1340 1424 1
1348 1424 1
1368 1424 1
442 1425 1
445 1425 1
1133 1425 1
1145 1425 1
1323 1425 1
1341 1425 1
1349 1425 1
1369 1425 1
443 1426 1
446 1426 1
1134 1426 1
1146 1426 1
1324 1426 1
1342 1426 1
1350 1426 1
1370 1426 1
444 1427 1
447 1427 1
1135 1427 1
1147 1427 1
1325 1427 1
1343 1427 1
1351 1427 1
1371 1427 1
445 1428 1
448 1428 1
1136 1428 1
1148 1428 1
1326 1428 1
1344 1428 1
1352 1428 1
1372 1428 1
449 1429 1
474 1429 1
1149 1429 1
1165 1429 1
1261 1429 1
1272 1429 1
1373 1429 1
1375 1429 1
450 1430 1
475 1430 1
1150 1430 1
1166 1430 1
1262 1430 1
1273 1430 1
1374 1430 1
1376 1430 1
451 1431 1
476 1431 1
1151 1431 1
1167 1431 1
1263 1431 1
1274 1431 1
1375 1431 1
1377 1431 1
449 1432 1
452 1432 1
1152 1432 1
1168 1432 1
1264 1432 1
1275 1432 1
1376 1432 1
1378 1432 1
450 1433 1
453 1433 1
1153 1433 1
1169 1433 1
1265 1433 1
1276 1433 1
1377 1433 1
1379 1433 1
451 1434 1
454 1434 1
1154 1434 1
1170 1434 1
1266 1434 1
1277 1434 1
1378 1434 1
1380 1434 1
452 1435 1
455 1435 1
1155 1435 1
1171 1435 1
1267 1435 1
1278 1435 1
1379 1435 1
1381 1435 1
453 1436 1
456 1436 1
1156 1436 1
1172 1436 1
1268 1436 1
1279 1436 1
1380 1436 1
1382 1436 1
454 1437 1
457 1437 1
1157 1437 1
1173 1437 1
1269 1437 1
1280 1437 1
1381 1437 1
1383 1437 1
455 1438 1
458 1438 1
1158 1438 1
1174 1438 1
1270 1438 1
1281 1438 1
1382 1438 1
1384 1438 1
456 1439 1
459 1439 1
1159 1439 1
1175 1439 1
1271 1439 1
1282 1439 1
1383 1439 1
1385 1439 1
457 1440 1
460 1440 1
1160 1440 1
1176 1440 1
1272 1440 1
1283 1440 1
1384 1440 1
1386 1440 1
458 1441 1
461 1441 1
1149 1441 1
1161 1441 1
1273 1441 1
1284 1441 1
1385 1441 1
1387 1441 1
459 1442 1
462 1442 1
1150 1442 1
1162 1442 1
1274 1442 1
1285 1442 1
1386 1442 1
1388 1442 1
460 1443 1
463 1443 1
1151 1443 1
1163 1443 1
1275 1443 1
1286 1443 1
1387 1443 1
1389 1443 1
461 1444 1
464 1444 1
1152 1444 1
1164 1444 1
1276 1444 1
1287 1444 1
1388 1444 1
1390 1444 1
462 1445 1
465 1445 1
1153 1445 1
1165 1445 1
1277 1445 1
1288 1445 1
1389 1445 1
1391 1445 1
463 1446 1
466 1446 1
1154 1446 1
1166 1446 1
1261 1446 1
1278 1446 1
1390 1446 1
1392 1446 1
464 1447 1
467 1447 1
1155 1447 1
1167 1447 1
1262 1447 1
1279 1447 1
1391 1447 1
1393 1447 1
465 1448 1
468 1448 1
1156 1448 1
1168 1448 1
1263 1448 1
1280 1448 1
1392 1448 1
1394 1448 1
466 1449 1
469 1449 1
1157 1449 1
1169 1449 1
1264 1449 1
1281 1449 1
1393 1449 1
1395 1449 1
467 1450 1
470 1450 1
1158 1450 1
1170 1450 1
1265 1450 1
1282 1450 1
1394 1450 1
1396 1450 1
468 1451 1
471 1451 1
1159 1451 1
1171 1451 1
1266 1451 1
1283 1451 1
1395 1451 1
1397 1451 1
469 1452 1
472 1452 1
1160 1452 1
1172 1452 1
1267 1452 1
1284 1452 1
1396 1452 1
1398 1452 1
470 1453 1
473 1453 1
1161 1453 1
1173 1453 1
1268 1453 1
1285 1453 1
1397 1453 1
1399 1453 1
471 1454 1
474 1454 1
1162 1454 1
1174 1454 1
1269 1454 1
1286 1454 1
1398 1454 1
1400 1454 1
472 1455 1
475 1455 1
1163 1455 1
1175 1455 1
1270 1455 1
1287 1455 1
1373 1455 1
1399 1455 1
473 1456 1
476 1456 1
1164 1456 1
1176 1456 1
1271 1456 1
1288 1456 1
1374 1456 1
1400 1456 1
477 1457 1
502 1457 1
1177 1457 1
1193 1457 1
1289 1457 1
1300 1457 1
1373 1457 1
1378 1457 1
478 1458 1
503 1458 1
1178 1458 1
1194 1458 1
1290 1458 1
1301 1458 1
1374 1458 1
1379 1458 1
479 1459 1
504 1459 1
1179 1459 1
1195 1459 1
1291 1459 1
1302 1459 1
1375 1459 1
1380 1459 1
477 1460 1
480 1460 1
1180 1460 1
1196 1460 1
1292 1460 1
1303 1460 1
1376 1460 1
1381 1460 1
478 1461 1
481 1461 1
1181 1461 1
1197 1461 1
1293 1461 1
1304 1461 1
1377 1461 1
1382 1461 1
479 1462 1
482 1462 1
1182 1462 1
1198 1462 1
1294 1462 1
1305 1462 1
1378 1462 1
1383 1462 1
480 1463 1
483 1463 1
1183 1463 1
1199 1463 1
1295 1463 1
1306 1463 1
1379 1463 1
1384 1463 1
481 1464 1
484 1464 1
1184 1464 1
1200 1464 1
1296 1464 1
1307 1464 1
1380 1464 1
1385 1464 1
482 1465 1
485 1465 1
1185 1465 1
1201 1465 1
1297 1465 1
1308 1465 1
1381 1465 1
1386 1465 1
483 1466 1
486 1466 1
1186 1466 1
1202 1466 1
1298 1466 1
1309 1466 1
1382 1466 1
1387 1466 1
484 1467 1
487 1467 1
1187 1467 1
1203 1467 1
1299 1467 1
1310 1467 1
1383 1467 1
1388 1467 1
485 1468 1
488 1468 1
1188 1468 1
1204 1468 1
1300 1468 1
1311 1468 1
1384 1468 1
1389 1468 1
486 1469 1
489 1469 1
1177 1469 1
1189 1469 1
1301 1469 1
1312 1469 1
1385 1469 1
1390 1469 1
487 1470 1
490 1470 1
1178 1470 1
1190 1470 1
1302 1470 1
1313 1470 1
1386 1470 1
1391 1470 1
488 1471 1
491 1471 1
1179 1471 1
1191 1471 1
1303 1471 1
1314 1471 1
1387 1471 1
1392 1471 1
489 1472 1
492 1472 1
1180 1472 1
1192 1472 1
1304 1472 1
1315 1472 1
1388 1472 1
1393 1472 1
490 1473 1
493 1473 1
1181 1473 1
1193 1473 1
1305 1473 1
1316 1473 1
1389 1473 1
1394 1473 1
491 1474 1
494 1474 1
1182 1474 1
1194 1474 1
1289 1474 1
1306 1474 1
1390 1474 1
1395 1474 1
492 1475 1
495 1475 1
1183 1475 1
1195 1475 1
1290 1475 1
1307 1475 1
1391 1475 1
1396 1475 1
493 1476 1
496 1476 1
1184 1476 1
1196 1476 1
1291 1476 1
1308 1476 1
1392 1476 1
1397 1476 1
494 1477 1
497 1477 1
1185 1477 1
1197 1477 1
1292 1477 1
1309 1477 1
1393 1477 1
1398 1477 1
495 1478 1
498 1478 1
1186 1478 1
1198 1478 1
1293 1478 1
1310 1478 1
1394 1478 1
1399 1478 1
496 1479 1
499 1479 1
1187 1479 1
1199 1479 1
1294 1479 1
1311 1479 1
1395 1479 1
1400 1479 1
497 1480 1
500 1480 1
1188 1480 1
1200 1480 1
1295 1480 1
1312 1480 1
1373 1480 1
1396 1480 1
498 1481 1
501 1481 1
1189 1481 1
1201 1481 1
1296 1481 1
1313 1481 1
1374 1481 1
1397 1481 1
499 1482 1
502 1482 1
1190 1482 1
1202 1482 1
1297 1482 1
1314 1482 1
1375 1482 1
1398 1482 1
500 1483 1
503 1483 1
1191 1483 1
1203 1483 1
1298 1483 1
1315 1483 1
1376 1483 1
1399 1483 1
501 1484 1
504 1484 1
1192 1484 1
1204 1484 1
1299 1484 1
1316 1484 1
1377 1484 1
1400 1484 1
505 1485 1
530 1485 1
1205 1485 1
1221 1485 1
1317 1485 1
1328 1485 1
1373 1485 1
1381 1485 1
506 1486 1
531 1486 1
1206 1486 1
1222 1486 1
1318 1486 1
1329 1486 1
1374 1486 1
1382 1486 1
507 1487 1
532 1487 1
1207 1487 1
1223 1487 1
1319 1487 1
1330 1487 1
1375 1487 1
1383 1487 1
505 1488 1
508 1488 1
1208 1488 1
1224 1488 1
1320 1488 1
1331 1488 1
1376 1488 1
1384 1488 1
506 1489 1
509 1489 1
1209 1489 1
1225 1489 1
1321 1489 1
1332 1489 1
1377 1489 1
1385 1489 1
507 1490 1
510 1490 1
1210 1490 1
1226 1490 1
1322 1490 1
1333 1490 1
1378 1490 1
1386 1490 1
508 1491 1
511 1491 1
1211 1491 1
1227 1491 1
1323 1491 1
1334 1491 1
1379 1491 1
1387 1491 1
509 1492 1
512 1492 1
1212 1492 1
1228 1492 1
1324 1492 1
1335 1492 1
1380 1492 1
1388 1492 1
510 1493 1
513 1493 1
1213 1493 1
1229 1493 1
1325 1493 1
1336 1493 1
1381 1493 1
1389 1493 1
511 1494 1
514 1494 1
1214 1494 1
1230 1494 1
1326 1494 1
1337 1494 1
1382 1494 1
1390 1494 1
512 1495 1
515 1495 1
1215 1495 1
1231 1495 1
1327 1495 1
1338 1495 1
1383 1495 1
1391 1495 1
513 1496 1
516 1496 1
1216 1496 1
1232 1496 1
1328 1496 1
1339 1496 1
1384 1496 1
1392 1496 1
514 1497 1
517 1497 1
1205 1497 1
1217 1497 1
1329 1497 1
1340 1497 1
1385 1497 1
1393 1497 1
515 1498 1
518 1498 1
1206 1498 1
1218 1498 1
1330 1498 1
1341 1498 1
1386 1498 1
1394 1498 1
516 1499 1
519 1499 1
1207 1499 1
1219 1499 1
1331 1499 1
1342 1499 1
1387 1499 1
1395 1499 1
517 1500 1
520 1500 1
1208 1500 1
1220 1500 1
1332 1500 1
1343 1500 1
1388 1500 1
1396 1500 1
518 1501 1
521 1501 1
1209 1501 1
1221 1501 1
1333 1501 1
1344 1501 1
1389 1501 1
1397 1501 1
519 1502 1
522 1502 1
1210 1502 1
1222 1502 1
1317 1502 1
1334 1502 1
1390 1502 1
1398 1502 1
520 1503 1
523 1503 1
1211 1503 1
1223 1503 1
1318 1503 1
1335 1503 1
1391 1503 1
1399 1503 1
521 1504 1
524 1504 1
1212 1504 1
1224 1504 1
1319 1504 1
1336 1504 1
1392 1504 1
1400 1504 1
522 1505 1
525 1505 1
1213 1505 1
1225 1505 1
1320 1505 1
1337 1505 1
1373 1505 1
1393 1505 1
523 1506 1
526 1506 1
1214 1506 1
1226 1506 1
1321 1506 1
1338 1506 1
1374 1506 1
1394 1506 1
524 1507 1
527 1507 1
1215 1507 1
1227 1507 1
1322 1507 1
1339 1507 1
1375 1507 1
1395 1507 1
525 1508 1
528 1508 1
1216 1508 1
1228 1508 1
1323 1508 1
1340 1508 1
1376 1508 1
1396 1508 1
526 1509 1
529 1509 1
1217 1509 1
1229 1509 1
1324 1509 1
1341 1509 1
1377 1509 1
1397 1509 1
527 1510 1
530 1510 1
1218 1510 1
1230 1510 1
1325 1510 1
1342 1510 1
1378 1510 1
1398 1510 1
528 1511 1
531 1511 1
1219 1511 1
1231 1511 1
1326 1511 1
1343 1511 1
1379 1511 1
1399 1511 1
529 1512 1
532 1512 1
1220 1512 1
1232 1512 1
1327 1512 1
1344 1512 1
1380 1512 1
1400 1512 1
533 1513 1
558 1513 1
1233 1513 1
1249 1513 1
1345 1513 1
1356 1513 1
1373 1513 1
1383 1513 1
534 1514 1
559 1514 1
1234 1514 1
1250 1514 1
1346 1514 1
1357 1514 1
1374 1514 1
1384 1514 1
535 1515 1
560 1515 1
1235 1515 1
1251 1515 1
1347 1515 1
1358 1515 1
1375 1515 1
1385 1515 1
533 1516 1
536 1516 1
1236 1516 1
1252 1516 1
1348 1516 1
1359 1516 1
1376 1516 1
1386 1516 1
534 1517 1
537 1517 1
1237 1517 1
1253 1517 1
1349 1517 1
1360 1517 1
1377 1517 1
1387 1517 1
535 1518 1
538 1518 1
1238 1518 1
1254 1518 1
1350 1518 1
1361 1518 1
1378 1518 1
1388 1518 1
536 1519 1
539 1519 1
1239 1519 1
1255 1519 1
1351 1519 1
1362 1519 1
1379 1519 1
1389 1519 1
537 1520 1
540 1520 1
1240 1520 1
1256 1520 1
1352 1520 1
1363 1520 1
1380 1520 1
1390 1520 1
538 1521 1
541 1521 1
1241 1521 1
1257 1521 1
1353 1521 1
1364 1521 1
1381 1521 1
1391 1521 1
539 1522 1
542 1522 1
1242 1522 1
1258 1522 1
1354 1522 1
1365 1522 1
1382 1522 1
1392 1522 1
540 1523 1
543 1523 1
1243 1523 1
1259 1523 1
1355 1523 1
1366 1523 1
1383 1523 1
1393 1523 1
541 1524 1
544 1524 1
1244 1524 1
1260 1524 1
1356 1524 1
1367 1524 1
1384 1524 1
1394 1524 1
542 1525 1
545 1525 1
1233 1525 1
1245 1525 1
1357 1525 1
1368 1525 1
1385 1525 1
1395 1525 1
543 1526 1
546 1526 1
1234 1526 1
1246 1526 1
1358 1526 1
1369 1526 1
1386 1526 1
1396 1526 1
544 1527 1
547 1527 1
1235 1527 1
1247 1527 1
1359 1527 1
1370 1527 1
1387 1527 1
1397 1527 1
545 1528 1
548 1528 1
1236 1528 1
1248 1528 1
1360 1528 1
1371 1528 1
1388 1528 1
1398 1528 1
546 1529 1
549 1529 1
1237 1529 1
1249 1529 1
1361 1529 1
1372 1529 1
1389 1529 1
1399 1529 1
547 1530 1
550 1530 1
1238 1530 1
1250 1530 1
1345 1530 1
1362 1530 1
1390 1530 1
1400 1530 1
548 1531 1
551 1531 1
1239 1531 1
1251 1531 1
1346 1531 1
1363 1531 1
1373 1531 1
1391 1531 1
549 1532 1
552 1532 1
1240 1532 1
1252 1532 1
1347 1532 1
1364 1532 1
1374 1532 1
1392 1532 1
550 1533 1
553 1533 1
1241 1533 1
1253 1533 1
1348 1533 1
1365 1533 1
1375 1533 1
1393 1533 1
551 1534 1
554 1534 1
1242 1534 1
1254 1534 1
1349 1534 1
1366 1534 1
1376 1534 1
1394 1534 1
552 1535 1
555 1535 1
1243 1535 1
1255 1535 1
1350 1535 1
1367 1535 1
1377 1535 1
1395 1535 1
553 1536 1
556 1536 1
1244 1536 1
1256 1536 1
1351 1536 1
1368 1536 1
1378 1536 1
1396 1536 1
554 1537 1
557 1537 1
1245 1537 1
1257 1537 1
1352 1537 1
1369 1537 1
1379 1537 1
1397 1537 1
555 1538 1
558 1538 1
1246 1538 1
1258 1538 1
1353 1538 1
1370 1538 1
1380 1538 1
1398 1538 1
556 1539 1
559 1539 1
1247 1539 1
1259 1539 1
1354 1539 1
1371 1539 1
1381 1539 1
1399 1539 1
557 1540 1
560 1540 1
1248 1540 1
1260 1540 1
1355 1540 1
1372 1540 1
1382 1540 1
1400 1540 1
561 1541 1
586 1541 1
981 1541 1
998 1541 1
1401 1541 1
1406 1541 1
1429 1541 1
1431 1541 1
562 1542 1
587 1542 1
982 1542 1
999 1542 1
1402 1542 1
1407 1542 1
1430 1542 1
1432 1542 1
563 1543 1
588 1543 1
983 1543 1
1000 1543 1
1403 1543 1
1408 1543 1
1431 1543 1
1433 1543 1
561 1544 1
564 1544 1
984 1544 1
1001 1544 1
1404 1544 1
1409 1544 1
1432 1544 1
1434 1544 1
562 1545 1
565 1545 1
985 1545 1
1002 1545 1
1405 1545 1
1410 1545 1
1433 1545 1
1435 1545 1
563 1546 1
566 1546 1
986 1546 1
1003 1546 1
1406 1546 1
1411 1546 1
1434 1546 1
1436 1546 1
564 1547 1
567 1547 1
987 1547 1
1004 1547 1
1407 1547 1
1412 1547 1
1435 1547 1
1437 1547 1
565 1548 1
568 1548 1
988 1548 1
1005 1548 1
1408 1548 1
1413 1548 1
1436 1548 1
1438 1548 1
566 1549 1
569 1549 1
989 1549 1
1006 1549 1
1409 1549 1
1414 1549 1
1437 1549 1
1439 1549 1
567 1550 1
570 1550 1
990 1550 1
1007 1550 1
1410 1550 1
1415 1550 1
1438 1550 1
1440 1550 1
568 1551 1
571 1551 1
991 1551 1
1008 1551 1
1411 1551 1
1416 1551 1
1439 1551 1
1441 1551 1
569 1552 1
572 1552 1
981 1552 1
992 1552 1
1412 1552 1
1417 1552 1
1440 1552 1
1442 1552 1
570 1553 1
573 1553 1
982 1553 1
993 1553 1
1413 1553 1
1418 1553 1
1441 1553 1
1443 1553 1
571 1554 1
574 1554 1
983 1554 1
994 1554 1
1414 1554 1
1419 1554 1
1442 1554 1
1444 1554 1
572 1555 1
575 1555 1
984 1555 1
995 1555 1
1415 1555 1
1420 1555 1
1443 1555 1
1445 1555 1
573 1556 1
576 1556 1
985 1556 1
996 1556 1
1416 1556 1
1421 1556 1
1444 1556 1
1446 1556 1
574 1557 1
577 1557 1
986 1557 1
997 1557 1
1417 1557 1
1422 1557 1
1445 1557 1
1447 1557 1
575 1558 1
578 1558 1
987 1558 1
998 1558 1
1418 1558 1
1423 1558 1
1446 1558 1
1448 1558 1
576 1559 1
579 1559 1
988 1559 1
999 1559 1
1419 1559 1
1424 1559 1
1447 1559 1
1449 1559 1
577 1560 1
580 1560 1
989 1560 1
1000 1560 1
1420 1560 1
1425 1560 1
1448 1560 1
1450 1560 1
578 1561 1
581 1561 1
990 1561 1
1001 1561 1
1421 1561 1
1426 1561 1
1449 1561 1
1451 1561 1
579 1562 1
582 1562 1
991 1562 1
1002 1562 1
1422 1562 1
1427 1562 1
1450 1562 1
1452 1562 1
580 1563 1
583 1563 1
992 1563 1
1003 1563 1
1423 1563 1
1428 1563 1
1451 1563 1
1453 1563 1
581 1564 1
584 1564 1
993 1564 1
1004 1564 1
1401 1564 1
1424 1564 1
1452 1564 1
1454 1564 1
582 1565 1
585 1565 1
994 1565 1
1005 1565 1
1402 1565 1
1425 1565 1
1453 1565 1
1455 1565 1
583 1566 1
586 1566 1
995 1566 1
1006 1566 1
1403 1566 1
1426 1566 1
1454 1566 1
1456 1566 1
584 1567 1
587 1567 1
996 1567 1
1007 1567 1
1404 1567 1
1427 1567 1
1429 1567 1
1455 1567 1
585 1568 1
588 1568 1
997 1568 1
1008 1568 1
1405 1568 1
1428 1568 1
1430 1568 1
1456 1568 1
589 1569 1
614 1569 1
1009 1569 1
1026 1569 1
1401 1569 1
1409 1569 1
1457 1569 1
1459 1569 1
590 1570 1
615 1570 1
1010 1570 1
1027 1570 1
1402 1570 1
1410 1570 1
1458 1570 1
1460 1570 1
591 1571 1
616 1571 1
1011 1571 1
1028 1571 1
1403 1571 1
1411 1571 1
1459 1571 1
1461 1571 1
589 1572 1
592 1572 1
1012 1572 1
1029 1572 1
1404 1572 1
1412 1572 1
1460 1572 1
1462 1572 1
590 1573 1
593 1573 1
1013 1573 1
1030 1573 1
1405 1573 1
1413 1573 1
1461 1573 1
1463 1573 1
591 1574 1
594 1574 1
1014 1574 1
1031 1574 1
1406 1574 1
1414 1574 1
1462 1574 1
1464 1574 1
592 1575 1
595 1575 1
1015 1575 1
1032 1575 1
1407 1575 1
1415 1575 1
1463 1575 1
1465 1575 1
593 1576 1
596 1576 1
1016 1576 1
1033 1576 1
1408 1576 1
1416 1576 1
1464 1576 1
1466 1576 1
594 1577 1
597 1577 1
1017 1577 1
1034 1577 1
1409 1577 1
1417 1577 1
1465 1577 1
1467 1577 1
595 1578 1
598 1578 1
1018 1578 1
1035 1578 1
1410 1578 1
1418 1578 1
1466 1578 1
1468 1578 1
596 1579 1
599 1579 1
1019 1579 1
1036 1579 1
1411 1579 1
1419 1579 1
1467 1579 1
1469 1579 1
597 1580 1
600 1580 1
1009 1580 1
1020 1580 1
1412 1580 1
1420 1580 1
1468 1580 1
1470 1580 1
598 1581 1
601 1581 1
1010 1581 1
1021 1581 1
1413 1581 1
1421 1581 1
1469 1581 1
1471 1581 1
599 1582 1
602 1582 1
1011 1582 1
1022 1582 1
1414 1582 1
1422 1582 1
1470 1582 1
1472 1582 1
600 1583 1
603 1583 1
1012 1583 1
1023 1583 1
1415 1583 1
1423 1583 1
1471 1583 1
1473 1583 1
601 1584 1
604 1584 1
1013 1584 1
1024 1584 1
1416 1584 1
1424 1584 1
1472 1584 1
1474 1584 1
602 1585 1
605 1585 1
1014 1585 1
1025 1585 1
1417 1585 1
1425 1585 1
1473 1585 1
1475 1585 1
603 1586 1
606 1586 1
1015 1586 1
1026 1586 1
1418 1586 1
1426 1586 1
1474 1586 1
1476 1586 1
604 1587 1
607 1587 1
1016 1587 1
1027 1587 1
1419 1587 1
1427 1587 1
1475 1587 1
1477 1587 1
605 1588 1
608 1588 1
1017 1588 1
1028 1588 1
1420 1588 1
1428 1588 1
1476 1588 1
1478 1588 1
606 1589 1
609 1589 1
1018 1589 1
1029 1589 1
1401 1589 1
1421 1589 1
1477 1589 1
1479 1589 1
607 1590 1
610 1590 1
1019 1590 1
1030 1590 1
1402 1590 1
1422 1590 1
1478 1590 1
1480 1590 1
608 1591 1
611 1591 1
1020 1591 1
1031 1591 1
1403 1591 1
1423 1591 1
1479 1591 1
1481 1591 1
609 1592 1
612 1592 1
1021 1592 1
1032 1592 1
1404 1592 1
1424 1592 1
1480 1592 1
1482 1592 1
610 1593 1
613 1593 1
1022 1593 1
1033 1593 1
1405 1593 1
1425 1593 1
1481 1593 1
1483 1593 1
611 1594 1
614 1594 1
1023 1594 1
1034 1594 1
1406 1594 1
1426 1594 1
1482 1594 1
1484 1594 1
612 1595 1
615 1595 1
1024 1595 1
1035 1595 1
1407 1595 1
1427 1595 1
1457 1595 1
1483 1595 1
613 1596 1
616 1596 1
1025 1596 1
1036 1596 1
1408 1596 1
1428 1596 1
1458 1596 1
1484 1596 1
617 1597 1
642 1597 1
1037 1597 1
1054 1597 1
1429 1597 1
1437 1597 1
1457 1597 1
1462 1597 1
618 1598 1
643 1598 1
1038 1598 1
1055 1598 1
1430 1598 1
1438 1598 1
1458 1598 1
1463 1598 1
619 1599 1
644 1599 1
1039 1599 1
1056 1599 1
1431 1599 1
1439 1599 1
1459 1599 1
1464 1599 1
617 1600 1
620 1600 1
1040 1600 1
1057 1600 1
1432 1600 1
1440 1600 1
1460 1600 1
1465 1600 1
618 1601 1
621 1601 1
1041 1601 1
1058 1601 1
1433 1601 1
1441 1601 1
1461 1601 1
1466 1601 1
619 1602 1
622 1602 1
1042 1602 1
1059 1602 1
1434 1602 1
1442 1602 1
1462 1602 1
1467 1602 1
620 1603 1
623 1603 1
1043 1603 1
1060 1603 1
1435 1603 1
1443 1603 1
1463 1603 1
1468 1603 1
621 1604 1
624 1604 1
1044 1604 1
1061 1604 1
1436 1604 1
1444 1604 1
1464 1604 1
1469 1604 1
622 1605 1
625 1605 1
1045 1605 1
1062 1605 1
1437 1605 1
1445 1605 1
1465 1605 1
1470 1605 1
623 1606 1
626 1606 1
1046 1606 1
1063 1606 1
1438 1606 1
1446 1606 1
1466 1606 1
1471 1606 1
624 1607 1
627 1607 1
1047 1607 1
1064 1607 1
1439 1607 1
1447 1607 1
1467 1607 1
1472 1607 1
625 1608 1
628 1608 1
1037 1608 1
1048 1608 1
1440 1608 1
1448 1608 1
1468 1608 1
1473 1608 1
626 1609 1
629 1609 1
1038 1609 1
1049 1609 1
1441 1609 1
1449 1609 1
1469 1609 1
1474 1609 1
627 1610 1
630 1610 1
1039 1610 1
1050 1610 1
1442 1610 1
1450 1610 1
1470 1610 1
1475 1610 1
628 1611 1
631 1611 1
1040 1611 1
1051 1611 1
1443 1611 1
1451 1611 1
1471 1611 1
1476 1611 1
629 1612 1
632 1612 1
1041 1612 1
1052 1612 1
1444 1612 1
1452 1612 1
1472 1612 1
1477 1612 1
630 1613 1
633 1613 1
1042 1613 1
1053 1613 1
1445 1613 1
1453 1613 1
1473 1613 1
1478 1613 1
631 1614 1
634 1614 1
1043 1614 1
1054 1614 1
1446 1614 1
1454 1614 1
1474 1614 1
1479 1614 1
632 1615 1
635 1615 1
1044 1615 1
1055 1615 1
1447 1615 1
1455 1615 1
1475 1615 1
1480 1615 1
633 1616 1
636 1616 1
1045 1616 1
1056 1616 1
1448 1616 1
1456 1616 1
1476 1616 1
1481 1616 1
634 1617 1
637 1617 1
1046 1617 1
1057 1617 1
1429 1617 1
1449 1617 1
1477 1617 1
1482 1617 1
635 1618 1
638 1618 1
1047 1618 1
1058 1618 1
1430 1618 1
1450 1618 1
1478 1618 1
1483 1618 1
636 1619 1
639 1619 1
1048 1619 1
1059 1619 1
1431 1619 1
1451 1619 1
1479 1619 1
1484 1619 1
637 1620 1
640 1620 1
1049 1620 1
1060 1620 1
1432 1620 1
1452 1620 1
1457 1620 1
1480 1620 1
638 1621 1
641 1621 1
1050 1621 1
1061 1621 1
1433 1621 1
1453 1621 1
1458 1621 1
1481 1621 1
639 1622 1
642 1622 1
1051 1622 1
1062 1622 1
1434 1622 1
1454 1622 1
1459 1622 1
1482 1622 1
640 1623 1
643 1623 1
1052 1623 1
1063 1623 1
1435 1623 1
1455 1623 1
1460 1623 1
1483 1623 1
641 1624 1
644 1624 1
1053 1624 1
1064 1624 1
1436 1624 1
1456 1624 1
1461 1624 1
1484 1624 1
645 1625 1
670 1625 1
1065 1625 1
1082 1625 1
1401 1625 1
1411 1625 1
1485 1625 1
1487 1625 1
646 1626 1
671 1626 1
1066 1626 1
1083 1626 1
1402 1626 1
1412 1626 1
1486 1626 1
1488 1626 1
647 1627 1
672 1627 1
1067 1627 1
1084 1627 1
1403 1627 1
1413 1627 1
1487 1627 1
1489 1627 1
645 1628 1
648 1628 1
1068 1628 1
1085 1628 1
1404 1628 1
1414 1628 1
1488 1628 1
1490 1628 1
646 1629 1
649 1629 1
1069 1629 1
1086 1629 1
1405 1629 1
1415 1629 1
1489 1629 1
1491 1629 1
647 1630 1
650 1630 1
1070 1630 1
1087 1630 1
1406 1630 1
1416 1630 1
1490 1630 1
1492 1630 1
648 1631 1
651 1631 1
1071 1631 1
1088 1631 1
1407 1631 1
1417 1631 1
1491 1631 1
1493 1631 1
649 1632 1
652 1632 1
1072 1632 1
1089 1632 1
1408 1632 1
1418 1632 1
1492 1632 1
1494 1632 1
650 1633 1
653 1633 1
1073 1633 1
1090 1633 1
1409 1633 1
1419 1633 1
1493 1633 1
1495 1633 1
651 1634 1
654 1634 1
1074 1634 1
1091 1634 1
1410 1634 1
1420 1634 1
1494 1634 1
1496 1634 1
652 1635 1
655 1635 1
1075 1635 1
1092 1635 1
1411 1635 1
1421 1635 1
1495 1635 1
1497 1635 1
653 1636 1
656 1636 1
1065 1636 1
1076 1636 1
1412 1636 1
1422 1636 1
1496 1636 1
1498 1636 1
654 1637 1
657 1637 1
1066 1637 1
1077 1637 1
1413 1637 1
1423 1637 1
1497 1637 1
1499 1637 1
655 1638 1
658 1638 1
1067 1638 1
1078 1638 1
1414 1638 1
1424 1638 1
1498 1638 1
1500 1638 1
656 1639 1
659 1639 1
1068 1639 1
1079 1639 1
1415 1639 1
1425 1639 1
1499 1639 1
1501 1639 1
657 1640 1
660 1640 1
1069 1640 1
1080 1640 1
1416 1640 1
1426 1640 1
1500 1640 1
1502 1640 1
658 1641 1
661 1641 1
1070 1641 1
1081 1641 1
1417 1641 1
1427 1641 1
1501 1641 1
1503 1641 1
659 1642 1
662 1642 1
1071 1642 1
1082 1642 1
1418 1642 1
1428 1642 1
1502 1642 1
1504 1642 1
660 1643 1
663 1643 1
1072 1643 1
1083 1643 1
1401 1643 1
1419 1643 1
1503 1643 1
1505 1643 1
661 1644 1
664 1644 1
1073 1644 1
1084 1644 1
1402 1644 1
1420 1644 1
1504 1644 1
1506 1644 1
662 1645 1
665 1645 1
1074 1645 1
1085 1645 1
1403 1645 1
1421 1645 1
1505 1645 1
1507 1645 1
663 1646 1
666 1646 1
1075 1646 1
1086 1646 1
1404 1646 1
1422 1646 1
1506 1646 1
1508 1646 1
664 1647 1
667 1647 1
1076 1647 1
1087 1647 1
1405 1647 1
1423 1647 1
1507 1647 1
1509 1647 1
665 1648 1
668 1648 1
1077 1648 1
1088 1648 1
1406 1648 1
1424 1648 1
1508 1648 1
1510 1648 1
666 1649 1
669 1649 1
1078 1649 1
1089 1649 1
1407 1649 1
1425 1649 1
1509 1649 1
1511 1649 1
667 1650 1
670 1650 1
1079 1650 1
1090 1650 1
1408 1650 1
1426 1650 1
1510 1650 1
1512 1650 1
668 1651 1
671 1651 1
1080 1651 1
1091 1651 1
1409 1651 1
1427 1651 1
1485 1651 1
1511 1651 1
669 1652 1
672 1652 1
1081 1652 1
1092 1652 1
1410 1652 1
1428 1652 1
1486 1652 1
1512 1652 1
673 1653 1
698 1653 1
1093 1653 1
1110 1653 1
1429 1653 1
1439 1653 1
1485 1653 1
1490 1653 1
674 1654 1
699 1654 1
1094 1654 1
1111 1654 1
1430 1654 1
1440 1654 1
1486 1654 1
1491 1654 1
675 1655 1
700 1655 1
1095 1655 1
1112 1655 1
1431 1655 1
1441 1655 1
1487 1655 1
1492 1655 1
673 1656 1
676 1656 1
1096 1656 1
1113 1656 1
1432 1656 1
1442 1656 1
1488 1656 1
1493 1656 1
674 1657 1
677 1657 1
1097 1657 1
1114 1657 1
1433 1657 1
1443 1657 1
1489 1657 1
1494 1657 1
675 1658 1
678 1658 1
1098 1658 1
1115 1658 1
1434 1658 1
1444 1658 1
1490 1658 1
1495 1658 1
676 1659 1
679 1659 1
1099 1659 1
1116 1659 1
1435 1659 1
1445 1659 1
1491 1659 1
1496 1659 1
677 1660 1
680 1660 1
1100 1660 1
1117 1660 1
1436 1660 1
1446 1660 1
1492 1660 1
1497 1660 1
678 1661 1
681 1661 1
1101 1661 1
1118 1661 1
1437 1661 1
1447 1661 1
1493 1661 1
1498 1661 1
679 1662 1
682 1662 1
1102 1662 1
1119 1662 1
1438 1662 1
1448 1662 1
1494 1662 1
1499 1662 1
680 1663 1
683 1663 1
1103 1663 1
1120 1663 1
1439 1663 1
1449 1663 1
1495 1663 1
1500 1663 1
681 1664 1
684 1664 1
1093 1664 1
1104 1664 1
1440 1664 1
1450 1664 1
1496 1664 1
1501 1664 1
682 1665 1
685 1665 1
1094 1665 1
1105 1665 1
1441 1665 1
1451 1665 1
1497 1665 1
1502 1665 1
683 1666 1
686 1666 1
1095 1666 1
1106 1666 1
1442 1666 1
1452 1666 1
1498 1666 1
1503 1666 1
684 1667 1
687 1667 1
1096 1667 1
1107 1667 1
1443 1667 1
1453 1667 1
1499 1667 1
1504 1667 1
685 1668 1
688 1668 1
1097 1668 1
1108 1668 1
1444 1668 1
1454 1668 1
1500 1668 1
1505 1668 1
686 1669 1
689 1669 1
1098 1669 1
1109 1669 1
1445 1669 1
1455 1669 1
1501 1669 1
1506 1669 1
687 1670 1
690 1670 1
1099 1670 1
1110 1670 1
1446 1670 1
1456 1670 1
1502 1670 1
1507 1670 1
688 1671 1
691 1671 1
1100 1671 1
1111 1671 1
1429 1671 1
1447 1671 1
1503 1671 1
1508 1671 1
689 1672 1
692 1672 1
1101 1672 1
1112 1672 1
1430 1672 1
1448 1672 1
1504 1672 1
1509 1672 1
690 1673 1
693 1673 1
1102 1673 1
1113 1673 1
1431 1673 1
1449 1673 1
1505 1673 1
1510 1673 1
691 1674 1
694 1674 1
1103 1674 1
1114 1674 1
1432 1674 1
1450 1674 1
1506 1674 1
1511 1674 1
692 1675 1
695 1675 1
1104 1675 1
1115 1675 1
1433 1675 1
1451 1675 1
1507 1675 1
1512 1675 1
693 1676 1
696 1676 1
1105 1676 1
1116 1676 1
1434 1676 1
1452 1676 1
1485 1676 1
1508 1676 1
694 1677 1
697 1677 1
1106 1677 1
1117 1677 1
1435 1677 1
1453 1677 1
1486 1677 1
1509 1677 1
695 1678 1
698 1678 1
1107 1678 1
1118 1678 1
1436 1678 1
1454 1678 1
1487 1678 1
1510 1678 1
696 1679 1
699 1679 1
1108 1679 1
1119 1679 1
1437 1679 1
1455 1679 1
1488 1679 1
1511 1679 1
697 1680 1
700 1680 1
1109 1680 1
1120 1680 1
1438 1680 1
1456 1680 1
1489 1680 1
1512 1680 1
701 1681 1
726 1681 1
1121 1681 1
1138 1681 1
1457 1681 1
1467 1681 1
1485 1681 1
1493 1681 1
702 1682 1
727 1682 1
1122 1682 1
1139 1682 1
1458 1682 1
1468 1682 1
1486 1682 1
1494 1682 1
703 1683 1
728 1683 1
1123 1683 1
1140 1683 1
1459 1683 1
1469 1683 1
1487 1683 1
1495 1683 1
701 1684 1
704 1684 1
1124 1684 1
1141 1684 1
1460 1684 1
1470 1684 1
1488 1684 1
1496 1684 1
702 1685 1
705 1685 1
1125 1685 1
1142 1685 1
1461 1685 1
1471 1685 1
1489 1685 1
1497 1685 1
703 1686 1
706 1686 1
1126 1686 1
1143 1686 1
1462 1686 1
1472 1686 1
1490 1686 1
1498 1686 1
704 1687 1
707 1687 1
1127 1687 1
1144 1687 1
1463 1687 1
1473 1687 1
1491 1687 1
1499 1687 1
705 1688 1
708 1688 1
1128 1688 1
1145 1688 1
1464 1688 1
1474 1688 1
1492 1688 1
1500 1688 1
706 1689 1
709 1689 1
1129 1689 1
1146 1689 1
1465 1689 1
1475 1689 1
1493 1689 1
1501 1689 1
707 1690 1
710 1690 1
1130 1690 1
1147 1690 1
1466 1690 1
1476 1690 1
1494 1690 1
1502 1690 1
708 1691 1
711 1691 1
1131 1691 1
1148 1691 1
1467 1691 1
1477 1691 1
1495 1691 1
1503 1691 1
709 1692 1
712 1692 1
1121 1692 1
1132 1692 1
1468 1692 1
1478 1692 1
1496 1692 1
1504 1692 1
710 1693 1
713 1693 1
1122 1693 1
1133 1693 1
1469 1693 1
1479 1693 1
1497 1693 1
1505 1693 1
711 1694 1
714 1694 1
1123 1694 1
1134 1694 1
1470 1694 1
1480 1694 1
1498 1694 1
1506 1694 1
712 1695 1
715 1695 1
1124 1695 1
1135 1695 1
1471 1695 1
1481 1695 1
1499 1695 1
1507 1695 1
713 1696 1
716 1696 1
1125 1696 1
1136 1696 1
1472 1696 1
1482 1696 1
1500 1696 1
1508 1696 1
714 1697 1
717 1697 1
1126 1697 1
1137 1697 1
1473 1697 1
1483 1697 1
1501 1697 1
1509 1697 1
715 1698 1
718 1698 1
1127 1698 1
1138 1698 1
1474 1698 1
1484 1698 1
1502 1698 1
1510 1698 1
716 1699 1
719 1699 1
1128 1699 1
1139 1699 1
1457 1699 1
1475 1699 1
1503 1699 1
1511 1699 1
717 1700 1
720 1700 1
1129 1700 1
1140 1700 1
1458 1700 1
1476 1700 1
1504 1700 1
1512 1700 1
718 1701 1
721 1701 1
1130 1701 1
1141 1701 1
1459 1701 1
1477 1701 1
1485 1701 1
1505 1701 1
719 1702 1
722 1702 1
1131 1702 1
1142 1702 1
1460 1702 1
1478 1702 1
1486 1702 1
1506 1702 1
720 1703 1
723 1703 1
1132 1703 1
1143 1703 1
1461 1703 1
1479 1703 1
1487 1703 1
1507 1703 1
721 1704 1
724 1704 1
1133 1704 1
1144 1704 1
1462 1704 1
1480 1704 1
1488 1704 1
1508 1704 1
722 1705 1
725 1705 1
1134 1705 1
1145 1705 1
1463 1705 1
1481 1705 1
1489 1705 1
1509 1705 1
723 1706 1
726 1706 1
1135 1706 1
1146 1706 1
1464 1706 1
1482 1706 1
1490 1706 1
1510 1706 1
724 1707 1
727 1707 1
1136 1707 1
1147 1707 1
1465 1707 1
1483 1707 1
1491 1707 1
1511 1707 1
725 1708 1
728 1708 1
1137 1708 1
1148 1708 1
1466 1708 1
1484 1708 1
1492 1708 1
1512 1708 1
729 1709 1
754 1709 1
1149 1709 1
1166 1709 1
1401 1709 1
1412 1709 1
1513 1709 1
1515 1709 1
730 1710 1
755 1710 1
1150 1710 1
1167 1710 1
1402 1710 1
1413 1710 1
1514 1710 1
1516 1710 1
731 1711 1
756 1711 1
1151 1711 1
1168 1711 1
1403 1711 1
1414 1711 1
1515 1711 1
1517 1711 1
729 1712 1
732 1712 1
1152 1712 1
1169 1712 1
1404 1712 1
1415 1712 1
1516 1712 1
1518 1712 1
730 1713 1
733 1713 1
1153 1713 1
1170 1713 1
1405 1713 1
1416 1713 1
1517 1713 1
1519 1713 1
731 1714 1
734 1714 1
1154 1714 1
1171 1714 1
1406 1714 1
1417 1714 1
1518 1714 1
1520 1714 1
732 1715 1
735 1715 1
1155 1715 1
1172 1715 1
1407 1715 1
1418 1715 1
1519 1715 1
1521 1715 1
733 1716 1
736 1716 1
1156 1716 1
1173 1716 1
1408 1716 1
1419 1716 1
1520 1716 1
1522 1716 1
734 1717 1
737 1717 1
1157 1717 1
1174 1717 1
1409 1717 1
1420 1717 1
1521 1717 1
1523 1717 1
735 1718 1
738 1718 1
1158 1718 1
1175 1718 1
1410 1718 1
1421 1718 1
1522 1718 1
1524 1718 1
736 1719 1
739 1719 1
1159 1719 1
1176 1719 1
1411 1719 1
1422 1719 1
1523 1719 1
1525 1719 1
737 1720 1
740 1720 1
1149 1720 1
1160 1720 1
1412 1720 1
1423 1720 1
1524 1720 1
1526 1720 1
738 1721 1
741 1721 1
1150 1721 1
1161 1721 1
1413 1721 1
1424 1721 1
1525 1721 1
1527 1721 1
739 1722 1
742 1722 1
1151 1722 1
1162 1722 1
1414 1722 1
1425 1722 1
1526 1722 1
1528 1722 1
740 1723 1
743 1723 1
1152 1723 1
1163 1723 1
1415 1723 1
1426 1723 1
1527 1723 1
1529 1723 1
741 1724 1
744 1724 1
1153 1724 1
1164 1724 1
1416 1724 1
1427 1724 1
1528 1724 1
1530 1724 1
742 1725 1
745 1725 1
1154 1725 1
1165 1725 1
1417 1725 1
1428 1725 1
1529 1725 1
1531 1725 1
743 1726 1
746 1726 1
1155 1726 1
1166 1726 1
1401 1726 1
1418 1726 1
1530 1726 1
1532 1726 1
744 1727 1
747 1727 1
1156 1727 1
1167 1727 1
1402 1727 1
1419 1727 1
1531 1727 1
1533 1727 1
745 1728 1
748 1728 1
1157 1728 1
1168 1728 1
1403 1728 1
1420 1728 1
1532 1728 1
1534 1728 1
746 1729 1
749 1729 1
1158 1729 1
1169 1729 1
1404 1729 1
1421 1729 1
1533 1729 1
1535 1729 1
747 1730 1
750 1730 1
1159 1730 1
1170 1730 1
1405 1730 1
1422 1730 1
1534 1730 1
1536 1730 1
748 1731 1
751 1731 1
1160 1731 1
1171 1731 1
1406 1731 1
1423 1731 1
1535 1731 1
1537 1731 1
749 1732 1
752 1732 1
1161 1732 1
1172 1732 1
1407 1732 1
1424 1732 1
1536 1732 1
1538 1732 1
750 1733 1
753 1733 1
1162 1733 1
1173 1733 1
1408 1733 1
1425 1733 1
1537 1733 1
1539 1733 1
751 1734 1
754 1734 1
1163 1734 1
1174 1734 1
1409 1734 1
1426 1734 1
1538 1734 1
1540 1734 1
752 1735 1
755 1735 1
1164 1735 1
1175 1735 1
1410 1735 1
1427 1735 1
1513 1735 1
1539 1735 1
753 1736 1
756 1736 1
1165 1736 1
1176 1736 1
1411 1736 1
1428 1736 1
1514 1736 1
1540 1736 1
757 1737 1
782 1737 1
1177 1737 1
1194 1737 1
1429 1737 1
1440 1737 1
1513 1737 1
1518 1737 1
758 1738 1
783 1738 1
1178 1738 1
1195 1738 1
1430 1738 1
1441 1738 1
1514 1738 1
1519 1738 1
759 1739 1
784 1739 1
1179 1739 1
1196 1739 1
1431 1739 1
1442 1739 1
1515 1739 1
1520 1739 1
757 1740 1
760 1740 1
1180 1740 1
1197 1740 1
1432 1740 1
1443 1740 1
1516 1740 1
1521 1740 1
758 1741 1
761 1741 1
1181 1741 1
1198 1741 1
1433 1741 1
1444 1741 1
1517 1741 1
1522 1741 1
759 1742 1
762 1742 1
1182 1742 1
1199 1742 1
1434 1742 1
1445 1742 1
1518 1742 1
1523 1742 1
760 1743 1
763 1743 1
1183 1743 1
1200 1743 1
1435 1743 1
1446 1743 1
1519 1743 1
1524 1743 1
761 1744 1
764 1744 1
1184 1744 1
1201 1744 1
1436 1744 1
1447 1744 1
1520 1744 1
1525 1744 1
762 1745 1
765 1745 1
1185 1745 1
1202 1745 1
1437 1745 1
1448 1745 1
1521 1745 1
1526 1745 1
763 1746 1
766 1746 1
1186 1746 1
1203 1746 1
1438 1746 1
1449 1746 1
1522 1746 1
1527 1746 1
764 1747 1
767 1747 1
1187 1747 1
1204 1747 1
1439 1747 1
1450 1747 1
1523 1747 1
1528 1747 1
765 1748 1
768 1748 1
1177 1748 1
1188 1748 1
1440 1748 1
1451 1748 1
1524 1748 1
1529 1748 1
766 1749 1
769 1749 1
1178 1749 1
1189 1749 1
1441 1749 1
1452 1749 1
1525 1749 1
1530 1749 1
767 1750 1
770 1750 1
1179 1750 1
1190 1750 1
1442 1750 1
1453 1750 1
1526 1750 1
1531 1750 1
768 1751 1
771 1751 1
1180 1751 1
1191 1751 1
1443 1751 1
1454 1751 1
1527 1751 1
1532 1751 1
769 1752 1
772 1752 1
1181 1752 1
1192 1752 1
1444 1752 1
1455 1752 1
1528 1752 1
1533 1752 1
770 1753 1
773 1753 1
1182 1753 1
1193 1753 1
1445 1753 1
1456 1753 1
1529 1753 1
1534 1753 1
771 1754 1
774 1754 1
1183 1754 1
1194 1754 1
1429 1754 1
1446 1754 1
1530 1754 1
1535 1754 1
772 1755 1
775 1755 1
1184 1755 1
1195 1755 1
1430 1755 1
1447 1755 1
1531 1755 1
1536 1755 1
773 1756 1
776 1756 1
1185 1756 1
1196 1756 1
1431 1756 1
1448 1756 1
1532 1756 1
1537 1756 1
774 1757 1
777 1757 1
1186 1757 1
1197 1757 1
1432 1757 1
1449 1757 1
1533 1757 1
1538 1757 1
775 1758 1
778 1758 1
1187 1758 1
1198 1758 1
1433 1758 1
1450 1758 1
1534 1758 1
1539 1758 1
776 1759 1
779 1759 1
1188 1759 1
1199 1759 1
1434 1759 1
1451 1759 1
1535 1759 1
1540 1759 1
777 1760 1
780 1760 1
1189 1760 1
1200 1760 1
1435 1760 1
1452 1760 1
1513 1760 1
1536 1760 1
778 1761 1
781 1761 1
1190 1761 1
1201 1761 1
1436 1761 1
1453 1761 1
1514 1761 1
1537 1761 1
779 1762 1
782 1762 1
1191 1762 1
1202 1762 1
1437 1762 1
1454 1762 1
1515 1762 1
1538 1762 1
780 1763 1
783 1763 1
1192 1763 1
1203 1763 1
1438 1763 1
1455 1763 1
1516 1763 1
1539 1763 1
781 1764 1
784 1764 1
1193 1764 1
1204 1764 1
1439 1764 1
1456 1764 1
1517 1764 1
1540 1764 1
785 1765 1
810 1765 1
1205 1765 1
1222 1765 1
1457 1765 1
1468 1765 1
1513 1765 1
1521 1765 1
786 1766 1
811 1766 1
1206 1766 1
1223 1766 1
1458 1766 1
1469 1766 1
1514 1766 1
1522 1766 1
787 1767 1
812 1767 1
1207 1767 1
1224 1767 1
1459 1767 1
1470 1767 1
1515 1767 1
1523 1767 1
785 1768 1
788 1768 1
1208 1768 1
1225 1768 1
1460 1768 1
1471 1768 1
1516 1768 1
1524 1768 1
786 1769 1
789 1769 1
1209 1769 1
1226 1769 1
1461 1769 1
1472 1769 1
1517 1769 1
1525 1769 1
787 1770 1
790 1770 1
1210 1770 1
1227 1770 1
1462 1770 1
1473 1770 1
1518 1770 1
1526 1770 1
788 1771 1
791 1771 1
1211 1771 1
1228 1771 1
1463 1771 1
1474 1771 1
1519 1771 1
1527 1771 1
789 1772 1
792 1772 1
1212 1772 1
1229 1772 1
1464 1772 1
1475 1772 1
1520 1772 1
1528 1772 1
790 1773 1
793 1773 1
1213 1773 1
1230 1773 1
1465 1773 1
1476 1773 1
1521 1773 1
1529 1773 1
791 1774 1
794 1774 1
1214 1774 1
1231 1774 1
1466 1774 1
1477 1774 1
1522 1774 1
1530 1774 1
792 1775 1
795 1775 1
1215 1775 1
1232 1775 1
1467 1775 1
1478 1775 1
1523 1775 1
1531 1775 1
793 1776 1
796 1776 1
1205 1776 1
1216 1776 1
1468 1776 1
1479 1776 1
1524 1776 1
1532 1776 1
794 1777 1
797 1777 1
1206 1777 1
1217 1777 1
1469 1777 1
1480 1777 1
1525 1777 1
1533 1777 1
795 1778 1
798 1778 1
1207 1778 1
1218 1778 1
1470 1778 1
1481 1778 1
1526 1778 1
1534 1778 1
796 1779 1
799 1779 1
1208 1779 1
1219 1779 1
1471 1779 1
1482 1779 1
1527 1779 1
1535 1779 1
797 1780 1
800 1780 1
1209 1780 1
1220 1780 1
1472 1780 1
1483 1780 1
1528 1780 1
1536 1780 1
798 1781 1
801 1781 1
1210 1781 1
1221 1781 1
1473 1781 1
1484 1781 1
1529 1781 1
1537 1781 1
799 1782 1
802 1782 1
1211 1782 1
1222 1782 1
1457 1782 1
1474 1782 1
1530 1782 1
1538 1782 1
800 1783 1
803 1783 1
1212 1783 1
1223 1783 1
1458 1783 1
1475 1783 1
1531 1783 1
1539 1783 1
801 1784 1
804 1784 1
1213 1784 1
1224 1784 1
1459 1784 1
1476 1784 1
1532 1784 1
1540 1784 1
802 1785 1
805 1785 1
1214 1785 1
1225 1785 1
1460 1785 1
1477 1785 1
1513 1785 1
1533 1785 1
803 1786 1
806 1786 1
1215 1786 1
1226 1786 1
1461 1786 1
1478 1786 1
1514 1786 1
1534 1786 1
804 1787 1
807 1787 1
1216 1787 1
1227 1787 1
1462 1787 1
1479 1787 1
1515 1787 1
1535 1787 1
805 1788 1
808 1788 1
1217 1788 1
1228 1788 1
1463 1788 1
1480 1788 1
1516 1788 1
1536 1788 1
806 1789 1
809 1789 1
1218 1789 1
1229 1789 1
1464 1789 1
1481 1789 1
1517 1789 1
1537 1789 1
807 1790 1
810 1790 1
1219 1790 1
1230 1790 1
1465 1790 1
1482 1790 1
1518 1790 1
1538 1790 1
808 1791 1
811 1791 1
1220 1791 1
1231 1791 1
1466 1791 1
1483 1791 1
1519 1791 1
1539 1791 1
809 1792 1
812 1792 1
1221 1792 1
1232 1792 1
1467 1792 1
1484 1792 1
1520 1792 1
1540 1792 1
813 1793 1
838 1793 1
1233 1793 1
1250 1793 1
1485 1793 1
1496 1793 1
1513 1793 1
1523 1793 1
814 1794 1
839 1794 1
1234 1794 1
1251 1794 1
1486 1794 1
1497 1794 1
1514 1794 1
1524 1794 1
815 1795 1
840 1795 1
1235 1795 1
1252 1795 1
1487 1795 1
1498 1795 1
1515 1795 1
1525 1795 1
813 1796 1
816 1796 1
1236 1796 1
1253 1796 1
1488 1796 1
1499 1796 1
1516 1796 1
1526 1796 1
814 1797 1
817 1797 1
1237 1797 1
1254 1797 1
1489 1797 1
1500 1797 1
1517 1797 1
1527 1797 1
815 1798 1
818 1798 1
1238 1798 1
1255 1798 1
1490 1798 1
1501 1798 1
1518 1798 1
1528 1798 1
816 1799 1
819 1799 1
1239 1799 1
1256 1799 1
1491 1799 1
1502 1799 1
1519 1799 1
1529 1799 1
817 1800 1
820 1800 1
1240 1800 1
1257 1800 1
1492 1800 1
1503 1800 1
1520 1800 1
1530 1800 1
818 1801 1
821 1801 1
1241 1801 1
1258 1801 1
1493 1801 1
1504 1801 1
1521 1801 1
1531 1801 1
819 1802 1
822 1802 1
1242 1802 1
1259 1802 1
1494 1802 1
1505 1802 1
1522 1802 1
1532 1802 1
820 1803 1
823 1803 1
1243 1803 1
1260 1803 1
1495 1803 1
1506 1803 1
1523 1803 1
1533 1803 1
821 1804 1
824 1804 1
1233 1804 1
1244 1804 1
1496 1804 1
1507 1804 1
1524 1804 1
1534 1804 1
822 1805 1
825 1805 1
1234 1805 1
1245 1805 1
1497 1805 1
1508 1805 1
1525 1805 1
1535 1805 1
823 1806 1
826 1806 1
1235 1806 1
1246 1806 1
1498 1806 1
1509 1806 1
1526 1806 1
1536 1806 1
824 1807 1
827 1807 1
1236 1807 1
1247 1807 1
1499 1807 1
1510 1807 1
1527 1807 1
1537 1807 1
825 1808 1
828 1808 1
1237 1808 1
1248 1808 1
1500 1808 1
1511 1808 1
1528 1808 1
1538 1808 1
826 1809 1
829 1809 1
1238 1809 1
1249 1809 1
1501 1809 1
1512 1809 1
1529 1809 1
1539 1809 1
827 1810 1
830 1810 1
1239 1810 1
1250 1810 1
1485 1810 1
1502 1810 1
1530 1810 1
1540 1810 1
828 1811 1
831 1811 1
1240 1811 1
1251 1811 1
1486 1811 1
1503 1811 1
1513 1811 1
1531 1811 1
829 1812 1
832 1812 1
1241 1812 1
1252 1812 1
1487 1812 1
1504 1812 1
1514 1812 1
1532 1812 1
830 1813 1
833 1813 1
1242 1813 1
1253 1813 1
1488 1813 1
1505 1813 1
1515 1813 1
1533 1813 1
831 1814 1
834 1814 1
1243 1814 1
1254 1814 1
1489 1814 1
1506 1814 1
1516 1814 1
1534 1814 1
832 1815 1
835 1815 1
1244 1815 1
1255 1815 1
1490 1815 1
1507 1815 1
1517 1815 1
1535 1815 1
833 1816 1
836 1816 1
1245 1816 1
1256 1816 1
1491 1816 1
1508 1816 1
1518 1816 1
1536 1816 1
834 1817 1
837 1817 1
1246 1817 1
1257 1817 1
1492 1817 1
1509 1817 1
1519 1817 1
1537 1817 1
835 1818 1
838 1818 1
1247 1818 1
1258 1818 1
1493 1818 1
1510 1818 1
1520 1818 1
1538 1818 1
836 1819 1
839 1819 1
1248 1819 1
1259 1819 1
1494 1819 1
1511 1819 1
1521 1819 1
1539 1819 1
837 1820 1
840 1820 1
1249 1820 1
1260 1820 1
1495 1820 1
1512 1820 1
1522 1820 1
1540 1820 1
841 1821 1
866 1821 1
1261 1821 1
1278 1821 1
1401 1821 1
1417 1821 1
1541 1821 1
1543 1821 1
842 1822 1
867 1822 1
1262 1822 1
1279 1822 1
1402 1822 1
1418 1822 1
1542 1822 1
1544 1822 1
843 1823 1
868 1823 1
1263 1823 1
1280 1823 1
1403 1823 1
1419 1823 1
1543 1823 1
1545 1823 1
841 1824 1
844 1824 1
1264 1824 1
1281 1824 1
1404 1824 1
1420 1824 1
1544 1824 1
1546 1824 1
842 1825 1
845 1825 1
1265 1825 1
1282 1825 1
1405 1825 1
1421 1825 1
1545 1825 1
1547 1825 1
843 1826 1
846 1826 1
1266 1826 1
1283 1826 1
1406 1826 1
1422 1826 1
1546 1826 1
1548 1826 1
844 1827 1
847 1827 1
1267 1827 1
1284 1827 1
1407 1827 1
1423 1827 1
1547 1827 1
1549 1827 1
845 1828 1
848 1828 1
1268 1828 1
1285 1828 1
1408 1828 1
1424 1828 1
1548 1828 1
1550 1828 1
846 1829 1
849 1829 1
1269 1829 1
1286 1829 1
1409 1829 1
1425 1829 1
1549 1829 1
1551 1829 1
847 1830 1
850 1830 1
1270 1830 1
1287 1830 1
1410 1830 1
1426 1830 1
1550 1830 1
1552 1830 1
848 1831 1
851 1831 1
1271 1831 1
1288 1831 1
1411 1831 1
1427 1831 1
1551 1831 1
1553 1831 1
849 1832 1
852 1832 1
1261 1832 1
1272 1832 1
1412 1832 1
1428 1832 1
1552 1832 1
1554 1832 1
850 1833 1
853 1833 1
1262 1833 1
1273 1833 1
1401 1833 1
1413 1833 1
1553 1833 1
1555 1833 1
851 1834 1
854 1834 1
1263 1834 1
1274 1834 1
1402 1834 1
1414 1834 1
1554 1834 1
1556 1834 1
852 1835 1
855 1835 1
1264 1835 1
1275 1835 1
1403 1835 1
1415 1835 1
1555 1835 1
1557 1835 1
853 1836 1
856 1836 1
1265 1836 1
1276 1836 1
1404 1836 1
1416 1836 1
1556 1836 1
1558 1836 1
854 1837 1
857 1837 1
1266 1837 1
1277 1837 1
1405 1837 1
1417 1837 1
1557 1837 1
1559 1837 1
855 1838 1
858 1838 1
1267 1838 1
1278 1838 1
1406 1838 1
1418 1838 1
1558 1838 1
1560 1838 1
856 1839 1
859 1839 1
1268 1839 1
1279 1839 1
1407 1839 1
1419 1839 1
1559 1839 1
1561 1839 1
857 1840 1
860 1840 1
1269 1840 1
1280 1840 1
1408 1840 1
1420 1840 1
1560 1840 1
1562 1840 1
858 1841 1
861 1841 1
1270 1841 1
1281 1841 1
1409 1841 1
1421 1841 1
1561 1841 1
1563 1841 1
859 1842 1
862 1842 1
1271 1842 1
1282 1842 1
1410 1842 1
1422 1842 1
1562 1842 1
1564 1842 1
860 1843 1
863 1843 1
1272 1843 1
1283 1843 1
1411 1843 1
1423 1843 1
1563 1843 1
1565 1843 1
861 1844 1
864 1844 1
1273 1844 1
1284 1844 1
1412 1844 1
1424 1844 1
1564 1844 1
1566 1844 1
862 1845 1
865 1845 1
1274 1845 1
1285 1845 1
1413 1845 1
1425 1845 1
1565 1845 1
1567 1845 1
863 1846 1
866 1846 1
1275 1846 1
1286 1846 1
1414 1846 1
1426 1846 1
1566 1846 1
1568 1846 1
864 1847 1
867 1847 1
1276 1847 1
1287 1847 1
1415 1847 1
1427 1847 1
1541 1847 1
1567 1847 1
865 1848 1
868 1848 1
1277 1848 1
1288 1848 1
1416 1848 1
1428 1848 1
1542 1848 1
1568 1848 1
869 1849 1
894 1849 1
1289 1849 1
1306 1849 1
1429 1849 1
1445 1849 1
1541 1849 1
1546 1849 1
870 1850 1
895 1850 1
1290 1850 1
1307 1850 1
1430 1850 1
1446 1850 1
1542 1850 1
1547 1850 1
871 1851 1
896 1851 1
1291 1851 1
1308 1851 1
1431 1851 1
1447 1851 1
1543 1851 1
1548 1851 1
869 1852 1
872 1852 1
1292 1852 1
1309 1852 1
1432 1852 1
1448 1852 1
1544 1852 1
1549 1852 1
870 1853 1
873 1853 1
1293 1853 1
1310 1853 1
1433 1853 1
1449 1853 1
1545 1853 1
1550 1853 1
871 1854 1
874 1854 1
1294 1854 1
1311 1854 1
1434 1854 1
1450 1854 1
1546 1854 1
1551 1854 1
872 1855 1
875 1855 1
1295 1855 1
1312 1855 1
1435 1855 1
1451 1855 1
1547 1855 1
1552 1855 1
873 1856 1
876 1856 1
1296 1856 1
1313 1856 1
1436 1856 1
1452 1856 1
1548 1856 1
1553 1856 1
874 1857 1
877 1857 1
1297 1857 1
1314 1857 1
1437 1857 1
1453 1857 1
1549 1857 1
1554 1857 1
875 1858 1
878 1858 1
1298 1858 1
1315 1858 1
1438 1858 1
1454 1858 1
1550 1858 1
1555 1858 1
876 1859 1
879 1859 1
1299 1859 1
1316 1859 1
1439 1859 1
1455 1859 1
1551 1859 1
1556 1859 1
877 1860 1
880 1860 1
1289 1860 1
1300 1860 1
1440 1860 1
1456 1860 1
1552 1860 1
1557 1860 1
878 1861 1
881 1861 1
1290 1861 1
1301 1861 1
1429 1861 1
1441 1861 1
1553 1861 1
1558 1861 1
879 1862 1
882 1862 1
1291 1862 1
1302 1862 1
1430 1862 1
1442 1862 1
1554 1862 1
1559 1862 1
880 1863 1
883 1863 1
1292 1863 1
1303 1863 1
1431 1863 1
1443 1863 1
1555 1863 1
1560 1863 1
881 1864 1
884 1864 1
1293 1864 1
1304 1864 1
1432 1864 1
1444 1864 1
1556 1864 1
1561 1864 1
882 1865 1
885 1865 1
1294 1865 1
1305 1865 1
1433 1865 1
1445 1865 1
1557 1865 1
1562 1865 1
883 1866 1
886 1866 1
1295 1866 1
1306 1866 1
1434 1866 1
1446 1866 1
1558 1866 1
1563 1866 1
884 1867 1
887 1867 1
1296 1867 1
1307 1867 1
1435 1867 1
1447 1867 1
1559 1867 1
1564 1867 1
885 1868 1
888 1868 1
1297 1868 1
1308 1868 1
1436 1868 1
1448 1868 1
1560 1868 1
1565 1868 1
886 1869 1
889 1869 1
1298 1869 1
1309 1869 1
1437 1869 1
1449 1869 1
1561 1869 1
1566 1869 1
887 1870 1
890 1870 1
1299 1870 1
1310 1870 1
1438 1870 1
1450 1870 1
1562 1870 1
1567 1870 1
888 1871 1
891 1871 1
1300 1871 1
1311 1871 1
1439 1871 1
1451 1871 1
1563 1871 1
1568 1871 1
889 1872 1
892 1872 1
1301 1872 1
1312 1872 1
1440 1872 1
1452 1872 1
1541 1872 1
1564 1872 1
890 1873 1
893 1873 1
1302 1873 1
1313 1873 1
1441 1873 1
1453 1873 1
1542 1873 1
1565 1873 1
891 1874 1
894 1874 1
1303 1874 1
1314 1874 1
1442 1874 1
1454 1874 1
1543 1874 1
1566 1874 1
892 1875 1
895 1875 1
1304 1875 1
1315 1875 1
1443 1875 1
1455 1875 1
1544 1875 1
1567 1875 1
893 1876 1
896 1876 1
1305 1876 1
1316 1876 1
1444 1876 1
1456 1876 1
1545 1876 1
1568 1876 1
897 1877 1
922 1877 1
1317 1877 1
1334 1877 1
1457 1877 1
1473 1877 1
1541 1877 1
1549 1877 1
898 1878 1
923 1878 1
1318 1878 1
1335 1878 1
1458 1878 1
1474 1878 1
1542 1878 1
1550 1878 1
899 1879 1
924 1879 1
1319 1879 1
1336 1879 1
1459 1879 1
1475 1879 1
1543 1879 1
1551 1879 1
897 1880 1
900 1880 1
1320 1880 1
1337 1880 1
1460 1880 1
1476 1880 1
1544 1880 1
1552 1880 1
898 1881 1
901 1881 1
1321 1881 1
1338 1881 1
1461 1881 1
1477 1881 1
1545 1881 1
1553 1881 1
899 1882 1
902 1882 1
1322 1882 1
1339 1882 1
1462 1882 1
1478 1882 1
1546 1882 1
1554 1882 1
900 1883 1
903 1883 1
1323 1883 1
1340 1883 1
1463 1883 1
1479 1883 1
1547 1883 1
1555 1883 1
901 1884 1
904 1884 1
1324 1884 1
1341 1884 1
1464 1884 1
1480 1884 1
1548 1884 1
1556 1884 1
902 1885 1
905 1885 1
1325 1885 1
1342 1885 1
1465 1885 1
1481 1885 1
1549 1885 1
1557 1885 1
903 1886 1
906 1886 1
1326 1886 1
1343 1886 1
1466 1886 1
1482 1886 1
1550 1886 1
1558 1886 1
904 1887 1
907 1887 1
1327 1887 1
1344 1887 1
1467 1887 1
1483 1887 1
1551 1887 1
1559 1887 1
905 1888 1
908 1888 1
1317 1888 1
1328 1888 1
1468 1888 1
1484 1888 1
1552 1888 1
1560 1888 1
906 1889 1
909 1889 1
1318 1889 1
1329 1889 1
1457 1889 1
1469 1889 1
1553 1889 1
1561 1889 1
907 1890 1
910 1890 1
1319 1890 1
1330 1890 1
1458 1890 1
1470 1890 1
1554 1890 1
1562 1890 1
908 1891 1
911 1891 1
1320 1891 1
1331 1891 1
1459 1891 1
1471 1891 1
1555 1891 1
1563 1891 1
909 1892 1
912 1892 1
1321 1892 1
1332 1892 1
1460 1892 1
1472 1892 1
1556 1892 1
1564 1892 1
910 1893 1
913 1893 1
1322 1893 1
1333 1893 1
1461 1893 1
1473 1893 1
1557 1893 1
1565 1893 1
911 1894 1
914 1894 1
1323 1894 1
1334 1894 1
1462 1894 1
1474 1894 1
1558 1894 1
1566 1894 1
912 1895 1
915 1895 1
1324 1895 1
1335 1895 1
1463 1895 1
1475 1895 1
1559 1895 1
1567 1895 1
913 1896 1
916 1896 1
1325 1896 1
1336 1896 1
1464 1896 1
1476 1896 1
1560 1896 1
1568 1896 1
914 1897 1
917 1897 1
1326 1897 1
1337 1897 1
1465 1897 1
1477 1897 1
1541 1897 1
1561 1897 1
915 1898 1
918 1898 1
1327 1898 1
1338 1898 1
1466 1898 1
1478 1898 1
1542 1898 1
1562 1898 1
916 1899 1
919 1899 1
1328 1899 1
1339 1899 1
1467 1899 1
1479 1899 1
1543 1899 1
1563 1899 1
917 1900 1
920 1900 1
1329 1900 1
1340 1900 1
1468 1900 1
1480 1900 1
1544 1900 1
1564 1900 1
918 1901 1
921 1901 1
1330 1901 1
1341 1901 1
1469 1901 1
1481 1901 1
1545 1901 1
1565 1901 1
919 1902 1
922 1902 1
1331 1902 1
1342 1902 1
1470 1902 1
1482 1902 1
1546 1902 1
1566 1902 1
920 1903 1
923 1903 1
1332 1903 1
1343 1903 1
1471 1903 1
1483 1903 1
1547 1903 1
1567 1903 1
921 1904 1
924 1904 1
1333 1904 1
1344 1904 1
1472 1904 1
1484 1904 1
1548 1904 1
1568 1904 1
925 1905 1
950 1905 1
1345 1905 1
1362 1905 1
1485 1905 1
1501 1905 1
1541 1905 1
1551 1905 1
926 1906 1
951 1906 1
1346 1906 1
1363 1906 1
1486 1906 1
1502 1906 1
1542 1906 1
1552 1906 1
927 1907 1
952 1907 1
1347 1907 1
1364 1907 1
1487 1907 1
1503 1907 1
1543 1907 1
1553 1907 1
925 1908 1
928 1908 1
1348 1908 1
1365 1908 1
1488 1908 1
1504 1908 1
1544 1908 1
1554 1908 1
926 1909 1
929 1909 1
1349 1909 1
1366 1909 1
1489 1909 1
1505 1909 1
1545 1909 1
1555 1909 1
927 1910 1
930 1910 1
1350 1910 1
1367 1910 1
1490 1910 1
1506 1910 1
1546 1910 1
1556 1910 1
928 1911 1
931 1911 1
1351 1911 1
1368 1911 1
1491 1911 1
1507 1911 1
1547 1911 1
1557 1911 1
929 1912 1
932 1912 1
1352 1912 1
1369 1912 1
1492 1912 1
1508 1912 1
1548 1912 1
1558 1912 1
930 1913 1
933 1913 1
1353 1913 1
1370 1913 1
1493 1913 1
1509 1913 1
1549 1913 1
1559 1913 1
931 1914 1
934 1914 1
1354 1914 1
1371 1914 1
1494 1914 1
1510 1914 1
1550 1914 1
1560 1914 1
932 1915 1
935 1915 1
1355 1915 1
1372 1915 1
1495 1915 1
1511 1915 1
1551 1915 1
1561 1915 1
933 1916 1
936 1916 1
1345 1916 1
1356 1916 1
1496 1916 1
1512 1916 1
1552 1916 1
1562 1916 1
934 1917 1
937 1917 1
1346 1917 1
1357 1917 1
1485 1917 1
1497 1917 1
1553 1917 1
1563 1917 1
935 1918 1
938 1918 1
1347 1918 1
1358 1918 1
1486 1918 1
1498 1918 1
1554 1918 1
1564 1918 1
936 1919 1
939 1919 1
1348 1919 1
1359 1919 1
1487 1919 1
1499 1919 1
1555 1919 1
1565 1919 1
937 1920 1
940 1920 1
1349 1920 1
1360 1920 1
1488 1920 1
1500 1920 1
1556 1920 1
1566 1920 1
938 1921 1
941 1921 1
1350 1921 1
1361 1921 1
1489 1921 1
1501 1921 1
1557 1921 1
1567 1921 1
939 1922 1
942 1922 1
1351 1922 1
1362 1922 1
1490 1922 1
1502 1922 1
1558 1922 1
1568 1922 1
940 1923 1
943 1923 1
1352 1923 1
1363 1923 1
1491 1923 1
1503 1923 1
1541 1923 1
1559 1923 1
941 1924 1
944 1924 1
1353 1924 1
1364 1924 1
1492 1924 1
1504 1924 1
1542 1924 1
1560 1924 1
942 1925 1
945 1925 1
1354 1925 1
1365 1925 1
1493 1925 1
1505 1925 1
1543 1925 1
1561 1925 1
943 1926 1
946 1926 1
1355 1926 1
1366 1926 1
1494 1926 1
1506 1926 1
1544 1926 1
1562 1926 1
944 1927 1
947 1927 1
1356 1927 1
1367 1927 1
1495 1927 1
1507 1927 1
1545 1927 1
1563 1927 1
945 1928 1
948 1928 1
1357 1928 1
1368 1928 1
1496 1928 1
1508 1928 1
1546 1928 1
1564 1928 1
946 1929 1
949 1929 1
1358 1929 1
1369 1929 1
1497 1929 1
1509 1929 1
1547 1929 1
1565 1929 1
947 1930 1
950 1930 1
1359 1930 1
1370 1930 1
1498 1930 1
1510 1930 1
1548 1930 1
1566 1930 1
948 1931 1
951 1931 1
1360 1931 1
1371 1931 1
1499 1931 1
1511 1931 1
1549 1931 1
1567 1931 1
949 1932 1
952 1932 1
1361 1932 1
1372 1932 1
1500 1932 1
1512 1932 1
1550 1932 1
1568 1932 1
953 1933 1
978 1933 1
1373 1933 1
1390 1933 1
1513 1933 1
1529 1933 1
1541 1933 1
1552 1933 1
954 1934 1
979 1934 1
1374 1934 1
1391 1934 1
1514 1934 1
1530 1934 1
1542 1934 1
1553 1934 1
955 1935 1
980 1935 1
1375 1935 1
1392 1935 1
1515 1935 1
1531 1935 1
1543 1935 1
1554 1935 1
953 1936 1
956 1936 1
1376 1936 1
1393 1936 1
1516 1936 1
1532 1936 1
1544 1936 1
1555 1936 1
954 1937 1
957 1937 1
1377 1937 1
1394 1937 1
1517 1937 1
1533 1937 1
1545 1937 1
1556 1937 1
955 1938 1
958 1938 1
1378 1938 1
1395 1938 1
1518 1938 1
1534 1938 1
1546 1938 1
1557 1938 1
956 1939 1
959 1939 1
1379 1939 1
1396 1939 1
1519 1939 1
1535 1939 1
1547 1939 1
1558 1939 1
957 1940 1
960 1940 1
1380 1940 1
1397 1940 1
1520 1940 1
1536 1940 1
1548 1940 1
1559 1940 1
958 1941 1
961 1941 1
1381 1941 1
1398 1941 1
1521 1941 1
1537 1941 1
1549 1941 1
1560 1941 1
959 1942 1
962 1942 1
1382 1942 1
1399 1942 1
1522 1942 1
1538 1942 1
1550 1942 1
1561 1942 1
960 1943 1
963 1943 1
1383 1943 1
1400 1943 1
1523 1943 1
1539 1943 1
1551 1943 1
1562 1943 1
961 1944 1
964 1944 1
1373 1944 1
1384 1944 1
1524 1944 1
1540 1944 1
1552 1944 1
1563 1944 1
962 1945 1
965 1945 1
1374 1945 1
1385 1945 1
1513 1945 1
1525 1945 1
1553 1945 1
1564 1945 1
963 1946 1
966 1946 1
1375 1946 1
1386 1946 1
1514 1946 1
1526 1946 1
1554 1946 1
1565 1946 1
964 1947 1
967 1947 1
1376 1947 1
1387 1947 1
1515 1947 1
1527 1947 1
1555 1947 1
1566 1947 1
965 1948 1
968 1948 1
1377 1948 1
1388 1948 1
1516 1948 1
1528 1948 1
1556 1948 1
1567 1948 1
966 1949 1
969 1949 1
1378 1949 1
1389 1949 1
1517 1949 1
1529 1949 1
1557 1949 1
1568 1949 1
967 1950 1
970 1950 1
1379 1950 1
1390 1950 1
1518 1950 1
1530 1950 1
1541 1950 1
1558 1950 1
968 1951 1
971 1951 1
1380 1951 1
1391 1951 1
1519 1951 1
1531 1951 1
1542 1951 1
1559 1951 1
969 1952 1
972 1952 1
1381 1952 1
1392 1952 1
1520 1952 1
1532 1952 1
1543 1952 1
1560 1952 1
970 1953 1
973 1953 1
1382 1953 1
1393 1953 1
1521 1953 1
1533 1953 1
1544 1953 1
1561 1953 1
971 1954 1
974 1954 1
1383 1954 1
1394 1954 1
1522 1954 1
1534 1954 1
1545 1954 1
1562 1954 1
972 1955 1
975 1955 1
1384 1955 1
1395 1955 1
1523 1955 1
1535 1955 1
1546 1955 1
1563 1955 1
973 1956 1
976 1956 1
1385 1956 1
1396 1956 1
1524 1956 1
1536 1956 1
1547 1956 1
1564 1956 1
974 1957 1
977 1957 1
1386 1957 1
1397 1957 1
1525 1957 1
1537 1957 1
1548 1957 1
1565 1957 1
975 1958 1
978 1958 1
1387 1958 1
1398 1958 1
1526 1958 1
1538 1958 1
1549 1958 1
1566 1958 1
976 1959 1
979 1959 1
1388 1959 1
1399 1959 1
1527 1959 1
1539 1959 1
1550 1959 1
1567 1959 1
977 1960 1
980 1960 1
1389 1960 1
1400 1960 1
1528 1960 1
1540 1960 1
1551 1960 1
1568 1960 1
