%%MatrixMarket matrix coordinate integer general
% Binary matrix; one-based indices; arithmetic over GF(2)
1568 1960 15680
1 1 1
18 1 1
29 1 1
41 1 1
169 1 1
180 1 1
589 1 1
592 1 1
2 2 1
19 2 1
30 2 1
42 2 1
170 2 1
181 2 1
590 2 1
593 2 1
3 3 1
20 3 1
31 3 1
43 3 1
171 3 1
182 3 1
591 3 1
594 3 1
4 4 1
21 4 1
32 4 1
44 4 1
172 4 1
183 4 1
592 4 1
595 4 1
5 5 1
22 5 1
33 5 1
45 5 1
173 5 1
184 5 1
593 5 1
596 5 1
6 6 1
23 6 1
34 6 1
46 6 1
174 6 1
185 6 1
594 6 1
597 6 1
7 7 1
24 7 1
35 7 1
47 7 1
175 7 1
186 7 1
595 7 1
598 7 1
8 8 1
25 8 1
36 8 1
48 8 1
176 8 1
187 8 1
596 8 1
599 8 1
9 9 1
26 9 1
37 9 1
49 9 1
177 9 1
188 9 1
597 9 1
600 9 1
10 10 1
27 10 1
38 10 1
50 10 1
178 10 1
189 10 1
598 10 1
601 10 1
11 11 1
28 11 1
39 11 1
51 11 1
179 11 1
190 11 1
599 11 1
602 11 1
1 12 1
12 12 1
40 12 1
52 12 1
180 12 1
191 12 1
600 12 1
603 12 1
2 13 1
13 13 1
41 13 1
53 13 1
181 13 1
192 13 1
601 13 1
604 13 1
3 14 1
14 14 1
42 14 1
54 14 1
182 14 1
193 14 1
602 14 1
605 14 1
4 15 1
15 15 1
43 15 1
55 15 1
183 15 1
194 15 1
603 15 1
606 15 1
5 16 1
16 16 1
44 16 1
56 16 1
184 16 1
195 16 1
604 16 1
607 16 1
6 17 1
17 17 1
29 17 1
45 17 1
185 17 1
196 17 1
605 17 1
608 17 1
7 18 1
18 18 1
30 18 1
46 18 1
169 18 1
186 18 1
606 18 1
609 18 1
8 19 1
19 19 1
31 19 1
47 19 1
170 19 1
187 19 1
607 19 1
610 19 1
9 20 1
20 20 1
32 20 1
48 20 1
171 20 1
188 20 1
608 20 1
611 20 1
10 21 1
21 21 1
33 21 1
49 21 1
172 21 1
189 21 1
609 21 1
612 21 1
11 22 1
22 22 1
34 22 1
50 22 1
173 22 1
190 22 1
610 22 1
613 22 1
12 23 1
23 23 1
35 23 1
51 23 1
174 23 1
191 23 1
611 23 1
614 23 1
13 24 1
24 24 1
36 24 1
52 24 1
175 24 1
192 24 1
612 24 1
615 24 1
14 25 1
25 25 1
37 25 1
53 25 1
176 25 1
193 25 1
613 25 1
616 25 1
15 26 1
26 26 1
38 26 1
54 26 1
177 26 1
194 26 1
589 26 1
614 26 1
16 27 1
27 27 1
39 27 1
55 27 1
178 27 1
195 27 1
590 27 1
615 27 1
17 28 1
28 28 1
40 28 1
56 28 1
179 28 1
196 28 1
591 28 1
616 28 1
1 29 1
19 29 1
57 29 1
69 29 1
197 29 1
208 29 1
617 29 1
620 29 1
2 30 1
20 30 1
58 30 1
70 30 1
198 30 1
209 30 1
618 30 1
621 30 1
3 31 1
21 31 1
59 31 1
71 31 1
199 31 1
210 31 1
619 31 1
622 31 1
4 32 1
22 32 1
60 32 1
72 32 1
200 32 1
211 32 1
620 32 1
623 32 1
5 33 1
23 33 1
61 33 1
73 33 1
201 33 1
212 33 1
621 33 1
624 33 1
6 34 1
24 34 1
62 34 1
74 34 1
202 34 1
213 34 1
622 34 1
625 34 1
7 35 1
25 35 1
63 35 1
75 35 1
203 35 1
214 35 1
623 35 1
626 35 1
8 36 1
26 36 1
64 36 1
76 36 1
204 36 1
215 36 1
624 36 1
627 36 1
9 37 1
27 37 1
65 37 1
77 37 1
205 37 1
216 37 1
625 37 1
628 37 1
10 38 1
28 38 1
66 38 1
78 38 1
206 38 1
217 38 1
626 38 1
629 38 1
1 39 1
11 39 1
67 39 1
79 39 1
207 39 1
218 39 1
627 39 1
630 39 1
2 40 1
12 40 1
68 40 1
80 40 1
208 40 1
219 40 1
628 40 1
631 40 1
3 41 1
13 41 1
69 41 1
81 41 1
209 41 1
220 41 1
629 41 1
632 41 1
4 42 1
14 42 1
70 42 1
82 42 1
210 42 1
221 42 1
630 42 1
633 42 1
5 43 1
15 43 1
71 43 1
83 43 1
211 43 1
222 43 1
631 43 1
634 43 1
6 44 1
16 44 1
72 44 1
84 44 1
212 44 1
223 44 1
632 44 1
635 44 1
7 45 1
17 45 1
57 45 1
73 45 1
213 45 1
224 45 1
633 45 1
636 45 1
8 46 1
18 46 1
58 46 1
74 46 1
197 46 1
214 46 1
634 46 1
637 46 1
9 47 1
19 47 1
59 47 1
75 47 1
198 47 1
215 47 1
635 47 1
638 47 1
10 48 1
20 48 1
60 48 1
76 48 1
199 48 1
216 48 1
636 48 1
639 48 1
11 49 1
21 49 1
61 49 1
77 49 1
200 49 1
217 49 1
637 49 1
640 49 1
12 50 1
22 50 1
62 50 1
78 50 1
201 50 1
218 50 1
638 50 1
641 50 1
13 51 1
23 51 1
63 51 1
79 51 1
202 51 1
219 51 1
639 51 1
642 51 1
14 52 1
24 52 1
64 52 1
80 52 1
203 52 1
220 52 1
640 52 1
643 52 1
15 53 1
25 53 1
65 53 1
81 53 1
204 53 1
221 53 1
641 53 1
644 53 1
16 54 1
26 54 1
66 54 1
82 54 1
205 54 1
222 54 1
617 54 1
642 54 1
17 55 1
27 55 1
67 55 1
83 55 1
206 55 1
223 55 1
618 55 1
643 55 1
18 56 1
28 56 1
68 56 1
84 56 1
207 56 1
224 56 1
619 56 1
644 56 1
1 57 1
21 57 1
85 57 1
97 57 1
225 57 1
236 57 1
645 57 1
648 57 1
2 58 1
22 58 1
86 58 1
98 58 1
226 58 1
237 58 1
646 58 1
649 58 1
3 59 1
23 59 1
87 59 1
99 59 1
227 59 1
238 59 1
647 59 1
650 59 1
4 60 1
24 60 1
88 60 1
100 60 1
228 60 1
239 60 1
648 60 1
651 60 1
5 61 1
25 61 1
89 61 1
101 61 1
229 61 1
240 61 1
649 61 1
652 61 1
6 62 1
26 62 1
90 62 1
102 62 1
230 62 1
241 62 1
650 62 1
653 62 1
7 63 1
27 63 1
91 63 1
103 63 1
231 63 1
242 63 1
651 63 1
654 63 1
8 64 1
28 64 1
92 64 1
104 64 1
232 64 1
243 64 1
652 64 1
655 64 1
1 65 1
9 65 1
93 65 1
105 65 1
233 65 1
244 65 1
653 65 1
656 65 1
2 66 1
10 66 1
94 66 1
106 66 1
234 66 1
245 66 1
654 66 1
657 66 1
3 67 1
11 67 1
95 67 1
107 67 1
235 67 1
246 67 1
655 67 1
658 67 1
4 68 1
12 68 1
96 68 1
108 68 1
236 68 1
247 68 1
656 68 1
659 68 1
5 69 1
13 69 1
97 69 1
109 69 1
237 69 1
248 69 1
657 69 1
660 69 1
6 70 1
14 70 1
98 70 1
110 70 1
238 70 1
249 70 1
658 70 1
661 70 1
7 71 1
15 71 1
99 71 1
111 71 1
239 71 1
250 71 1
659 71 1
662 71 1
8 72 1
16 72 1
100 72 1
112 72 1
240 72 1
251 72 1
660 72 1
663 72 1
9 73 1
17 73 1
85 73 1
101 73 1
241 73 1
252 73 1
661 73 1
664 73 1
10 74 1
18 74 1
86 74 1
102 74 1
225 74 1
242 74 1
662 74 1
665 74 1
11 75 1
19 75 1
87 75 1
103 75 1
226 75 1
243 75 1
663 75 1
666 75 1
12 76 1
20 76 1
88 76 1
104 76 1
227 76 1
244 76 1
664 76 1
667 76 1
13 77 1
21 77 1
89 77 1
105 77 1
228 77 1
245 77 1
665 77 1
668 77 1
14 78 1
22 78 1
90 78 1
106 78 1
229 78 1
246 78 1
666 78 1
669 78 1
15 79 1
23 79 1
91 79 1
107 79 1
230 79 1
247 79 1
667 79 1
670 79 1
16 80 1
24 80 1
92 80 1
108 80 1
231 80 1
248 80 1
668 80 1
671 80 1
17 81 1
25 81 1
93 81 1
109 81 1
232 81 1
249 81 1
669 81 1
672 81 1
18 82 1
26 82 1
94 82 1
110 82 1
233 82 1
250 82 1
645 82 1
670 82 1
19 83 1
27 83 1
95 83 1
111 83 1
234 83 1
251 83 1
646 83 1
671 83 1
20 84 1
28 84 1
96 84 1
112 84 1
235 84 1
252 84 1
647 84 1
672 84 1
1 85 1
24 85 1
113 85 1
125 85 1
253 85 1
264 85 1
673 85 1
676 85 1
2 86 1
25 86 1
114 86 1
126 86 1
254 86 1
265 86 1
674 86 1
677 86 1
3 87 1
26 87 1
115 87 1
127 87 1
255 87 1
266 87 1
675 87 1
678 87 1
4 88 1
27 88 1
116 88 1
128 88 1
256 88 1
267 88 1
676 88 1
679 88 1
5 89 1
28 89 1
117 89 1
129 89 1
257 89 1
268 89 1
677 89 1
680 89 1
1 90 1
6 90 1
118 90 1
130 90 1
258 90 1
269 90 1
678 90 1
681 90 1
2 91 1
7 91 1
119 91 1
131 91 1
259 91 1
270 91 1
679 91 1
682 91 1
3 92 1
8 92 1
120 92 1
132 92 1
260 92 1
271 92 1
680 92 1
683 92 1
4 93 1
9 93 1
121 93 1
133 93 1
261 93 1
272 93 1
681 93 1
684 93 1
5 94 1
10 94 1
122 94 1
134 94 1
262 94 1
273 94 1
682 94 1
685 94 1
6 95 1
11 95 1
123 95 1
135 95 1
263 95 1
274 95 1
683 95 1
686 95 1
7 96 1
12 96 1
124 96 1
136 96 1
264 96 1
275 96 1
684 96 1
687 96 1
8 97 1
13 97 1
125 97 1
137 97 1
265 97 1
276 97 1
685 97 1
688 97 1
9 98 1
14 98 1
126 98 1
138 98 1
266 98 1
277 98 1
686 98 1
689 98 1
10 99 1
15 99 1
127 99 1
139 99 1
267 99 1
278 99 1
687 99 1
690 99 1
11 100 1
16 100 1
128 100 1
140 100 1
268 100 1
279 100 1
688 100 1
691 100 1
12 101 1
17 101 1
113 101 1
129 101 1
269 101 1
280 101 1
689 101 1
692 101 1
13 102 1
18 102 1
114 102 1
130 102 1
253 102 1
270 102 1
690 102 1
693 102 1
14 103 1
19 103 1
115 103 1
131 103 1
254 103 1
271 103 1
691 103 1
694 103 1
15 104 1
20 104 1
116 104 1
132 104 1
255 104 1
272 104 1
692 104 1
695 104 1
16 105 1
21 105 1
117 105 1
133 105 1
256 105 1
273 105 1
693 105 1
696 105 1
17 106 1
22 106 1
118 106 1
134 106 1
257 106 1
274 106 1
694 106 1
697 106 1
18 107 1
23 107 1
119 107 1
135 107 1
258 107 1
275 107 1
695 107 1
698 107 1
19 108 1
24 108 1
120 108 1
136 108 1
259 108 1
276 108 1
696 108 1
699 108 1
20 109 1
25 109 1
121 109 1
137 109 1
260 109 1
277 109 1
697 109 1
700 109 1
21 110 1
26 110 1
122 110 1
138 110 1
261 110 1
278 110 1
673 110 1
698 110 1
22 111 1
27 111 1
123 111 1
139 111 1
262 111 1
279 111 1
674 111 1
699 111 1
23 112 1
28 112 1
124 112 1
140 112 1
263 112 1
280 112 1
675 112 1
700 112 1
1 113 1
27 113 1
141 113 1
153 113 1
281 113 1
292 113 1
701 113 1
704 113 1
2 114 1
28 114 1
142 114 1
154 114 1
282 114 1
293 114 1
702 114 1
705 114 1
1 115 1
3 115 1
143 115 1
155 115 1
283 115 1
294 115 1
703 115 1
706 115 1
2 116 1
4 116 1
144 116 1
156 116 1
284 116 1
295 116 1
704 116 1
707 116 1
3 117 1
5 117 1
145 117 1
157 117 1
285 117 1
296 117 1
705 117 1
708 117 1
4 118 1
6 118 1
146 118 1
158 118 1
286 118 1
297 118 1
706 118 1
709 118 1
5 119 1
7 119 1
147 119 1
159 119 1
287 119 1
298 119 1
707 119 1
710 119 1
6 120 1
8 120 1
148 120 1
160 120 1
288 120 1
299 120 1
708 120 1
711 120 1
7 121 1
9 121 1
149 121 1
161 121 1
289 121 1
300 121 1
709 121 1
712 121 1
8 122 1
10 122 1
150 122 1
162 122 1
290 122 1
301 122 1
710 122 1
713 122 1
9 123 1
11 123 1
151 123 1
163 123 1
291 123 1
302 123 1
711 123 1
714 123 1
10 124 1
12 124 1
152 124 1
164 124 1
292 124 1
303 124 1
712 124 1
715 124 1
11 125 1
13 125 1
153 125 1
165 125 1
293 125 1
304 125 1
713 125 1
716 125 1
12 126 1
14 126 1
154 126 1
166 126 1
294 126 1
305 126 1
714 126 1
717 126 1
13 127 1
15 127 1
155 127 1
167 127 1
295 127 1
306 127 1
715 127 1
718 127 1
14 128 1
16 128 1
156 128 1
168 128 1
296 128 1
307 128 1
716 128 1
719 128 1
15 129 1
17 129 1
141 129 1
157 129 1
297 129 1
308 129 1
717 129 1
720 129 1
16 130 1
18 130 1
142 130 1
158 130 1
281 130 1
298 130 1
718 130 1
721 130 1
17 131 1
19 131 1
143 131 1
159 131 1
282 131 1
299 131 1
719 131 1
722 131 1
18 132 1
20 132 1
144 132 1
160 132 1
283 132 1
300 132 1
720 132 1
723 132 1
19 133 1
21 133 1
145 133 1
161 133 1
284 133 1
301 133 1
721 133 1
724 133 1
20 134 1
22 134 1
146 134 1
162 134 1
285 134 1
302 134 1
722 134 1
725 134 1
21 135 1
23 135 1
147 135 1
163 135 1
286 135 1
303 135 1
723 135 1
726 135 1
22 136 1
24 136 1
148 136 1
164 136 1
287 136 1
304 136 1
724 136 1
727 136 1
23 137 1
25 137 1
149 137 1
165 137 1
288 137 1
305 137 1
725 137 1
728 137 1
24 138 1
26 138 1
150 138 1
166 138 1
289 138 1
306 138 1
701 138 1
726 138 1
25 139 1
27 139 1
151 139 1
167 139 1
290 139 1
307 139 1
702 139 1
727 139 1
26 140 1
28 140 1
152 140 1
168 140 1
291 140 1
308 140 1
703 140 1
728 140 1
29 141 1
47 141 1
57 141 1
74 141 1
309 141 1
320 141 1
729 141 1
732 141 1
30 142 1
48 142 1
58 142 1
75 142 1
310 142 1
321 142 1
730 142 1
733 142 1
31 143 1
49 143 1
59 143 1
76 143 1
311 143 1
322 143 1
731 143 1
734 143 1
32 144 1
50 144 1
60 144 1
77 144 1
312 144 1
323 144 1
732 144 1
735 144 1
33 145 1
51 145 1
61 145 1
78 145 1
313 145 1
324 145 1
733 145 1
736 145 1
34 146 1
52 146 1
62 146 1
79 146 1
314 146 1
325 146 1
734 146 1
737 146 1
35 147 1
53 147 1
63 147 1
80 147 1
315 147 1
326 147 1
735 147 1
738 147 1
36 148 1
54 148 1
64 148 1
81 148 1
316 148 1
327 148 1
736 148 1
739 148 1
37 149 1
55 149 1
65 149 1
82 149 1
317 149 1
328 149 1
737 149 1
740 149 1
38 150 1
56 150 1
66 150 1
83 150 1
318 150 1
329 150 1
738 150 1
741 150 1
29 151 1
39 151 1
67 151 1
84 151 1
319 151 1
330 151 1
739 151 1
742 151 1
30 152 1
40 152 1
57 152 1
68 152 1
320 152 1
331 152 1
740 152 1
743 152 1
31 153 1
41 153 1
58 153 1
69 153 1
321 153 1
332 153 1
741 153 1
744 153 1
32 154 1
42 154 1
59 154 1
70 154 1
322 154 1
333 154 1
742 154 1
745 154 1
33 155 1
43 155 1
60 155 1
71 155 1
323 155 1
334 155 1
743 155 1
746 155 1
34 156 1
44 156 1
61 156 1
72 156 1
324 156 1
335 156 1
744 156 1
747 156 1
35 157 1
45 157 1
62 157 1
73 157 1
325 157 1
336 157 1
745 157 1
748 157 1
36 158 1
46 158 1
63 158 1
74 158 1
309 158 1
326 158 1
746 158 1
749 158 1
37 159 1
47 159 1
64 159 1
75 159 1
310 159 1
327 159 1
747 159 1
750 159 1
38 160 1
48 160 1
65 160 1
76 160 1
311 160 1
328 160 1
748 160 1
751 160 1
39 161 1
49 161 1
66 161 1
77 161 1
312 161 1
329 161 1
749 161 1
752 161 1
40 162 1
50 162 1
67 162 1
78 162 1
313 162 1
330 162 1
750 162 1
753 162 1
41 163 1
51 163 1
68 163 1
79 163 1
314 163 1
331 163 1
751 163 1
754 163 1
42 164 1
52 164 1
69 164 1
80 164 1
315 164 1
332 164 1
752 164 1
755 164 1
43 165 1
53 165 1
70 165 1
81 165 1
316 165 1
333 165 1
753 165 1
756 165 1
44 166 1
54 166 1
71 166 1
82 166 1
317 166 1
334 166 1
729 166 1
754 166 1
45 167 1
55 167 1
72 167 1
83 167 1
318 167 1
335 167 1
730 167 1
755 167 1
46 168 1
56 168 1
73 168 1
84 168 1
319 168 1
336 168 1
731 168 1
756 168 1
29 169 1
49 169 1
85 169 1
102 169 1
337 169 1
348 169 1
757 169 1
760 169 1
30 170 1
50 170 1
86 170 1
103 170 1
338 170 1
349 170 1
758 170 1
761 170 1
31 171 1
51 171 1
87 171 1
104 171 1
339 171 1
350 171 1
759 171 1
762 171 1
32 172 1
52 172 1
88 172 1
105 172 1
340 172 1
351 172 1
760 172 1
763 172 1
33 173 1
53 173 1
89 173 1
106 173 1
341 173 1
352 173 1
761 173 1
764 173 1
34 174 1
54 174 1
90 174 1
107 174 1
342 174 1
353 174 1
762 174 1
765 174 1
35 175 1
55 175 1
91 175 1
108 175 1
343 175 1
354 175 1
763 175 1
766 175 1
36 176 1
56 176 1
92 176 1
109 176 1
344 176 1
355 176 1
764 176 1
767 176 1
29 177 1
37 177 1
93 177 1
110 177 1
345 177 1
356 177 1
765 177 1
768 177 1
30 178 1
38 178 1
94 178 1
111 178 1
346 178 1
357 178 1
766 178 1
769 178 1
31 179 1
39 179 1
95 179 1
112 179 1
347 179 1
358 179 1
767 179 1
770 179 1
32 180 1
40 180 1
85 180 1
96 180 1
348 180 1
359 180 1
768 180 1
771 180 1
33 181 1
41 181 1
86 181 1
97 181 1
349 181 1
360 181 1
769 181 1
772 181 1
34 182 1
42 182 1
87 182 1
98 182 1
350 182 1
361 182 1
770 182 1
773 182 1
35 183 1
43 183 1
88 183 1
99 183 1
351 183 1
362 183 1
771 183 1
774 183 1
36 184 1
44 184 1
89 184 1
100 184 1
352 184 1
363 184 1
772 184 1
775 184 1
37 185 1
45 185 1
90 185 1
101 185 1
353 185 1
364 185 1
773 185 1
776 185 1
38 186 1
46 186 1
91 186 1
102 186 1
337 186 1
354 186 1
774 186 1
777 186 1
39 187 1
47 187 1
92 187 1
103 187 1
338 187 1
355 187 1
775 187 1
778 187 1
40 188 1
48 188 1
93 188 1
104 188 1
339 188 1
356 188 1
776 188 1
779 188 1
41 189 1
49 189 1
94 189 1
105 189 1
340 189 1
357 189 1
777 189 1
780 189 1
42 190 1
50 190 1
95 190 1
106 190 1
341 190 1
358 190 1
778 190 1
781 190 1
43 191 1
51 191 1
96 191 1
107 191 1
342 191 1
359 191 1
779 191 1
782 191 1
44 192 1
52 192 1
97 192 1
108 192 1
343 192 1
360 192 1
780 192 1
783 192 1
45 193 1
53 193 1
98 193 1
109 193 1
344 193 1
361 193 1
781 193 1
784 193 1
46 194 1
54 194 1
99 194 1
110 194 1
345 194 1
362 194 1
757 194 1
782 194 1
47 195 1
55 195 1
100 195 1
111 195 1
346 195 1
363 195 1
758 195 1
783 195 1
48 196 1
56 196 1
101 196 1
112 196 1
347 196 1
364 196 1
759 196 1
784 196 1
29 197 1
52 197 1
113 197 1
130 197 1
365 197 1
376 197 1
785 197 1
788 197 1
30 198 1
53 198 1
114 198 1
131 198 1
366 198 1
377 198 1
786 198 1
789 198 1
31 199 1
54 199 1
115 199 1
132 199 1
367 199 1
378 199 1
787 199 1
790 199 1
32 200 1
55 200 1
116 200 1
133 200 1
368 200 1
379 200 1
788 200 1
791 200 1
33 201 1
56 201 1
117 201 1
134 201 1
369 201 1
380 201 1
789 201 1
792 201 1
29 202 1
34 202 1
118 202 1
135 202 1
370 202 1
381 202 1
790 202 1
793 202 1
30 203 1
35 203 1
119 203 1
136 203 1
371 203 1
382 203 1
791 203 1
794 203 1
31 204 1
36 204 1
120 204 1
137 204 1
372 204 1
383 204 1
792 204 1
795 204 1
32 205 1
37 205 1
121 205 1
138 205 1
373 205 1
384 205 1
793 205 1
796 205 1
33 206 1
38 206 1
122 206 1
139 206 1
374 206 1
385 206 1
794 206 1
797 206 1
34 207 1
39 207 1
123 207 1
140 207 1
375 207 1
386 207 1
795 207 1
798 207 1
35 208 1
40 208 1
113 208 1
124 208 1
376 208 1
387 208 1
796 208 1
799 208 1
36 209 1
41 209 1
114 209 1
125 209 1
377 209 1
388 209 1
797 209 1
800 209 1
37 210 1
42 210 1
115 210 1
126 210 1
378 210 1
389 210 1
798 210 1
801 210 1
38 211 1
43 211 1
116 211 1
127 211 1
379 211 1
390 211 1
799 211 1
802 211 1
39 212 1
44 212 1
117 212 1
128 212 1
380 212 1
391 212 1
800 212 1
803 212 1
40 213 1
45 213 1
118 213 1
129 213 1
381 213 1
392 213 1
801 213 1
804 213 1
41 214 1
46 214 1
119 214 1
130 214 1
365 214 1
382 214 1
802 214 1
805 214 1
42 215 1
47 215 1
120 215 1
131 215 1
366 215 1
383 215 1
803 215 1
806 215 1
43 216 1
48 216 1
121 216 1
132 216 1
367 216 1
384 216 1
804 216 1
807 216 1
44 217 1
49 217 1
122 217 1
133 217 1
368 217 1
385 217 1
805 217 1
808 217 1
45 218 1
50 218 1
123 218 1
134 218 1
369 218 1
386 218 1
806 218 1
809 218 1
46 219 1
51 219 1
124 219 1
135 219 1
370 219 1
387 219 1
807 219 1
810 219 1
47 220 1
52 220 1
125 220 1
136 220 1
371 220 1
388 220 1
808 220 1
811 220 1
48 221 1
53 221 1
126 221 1
137 221 1
372 221 1
389 221 1
809 221 1
812 221 1
49 222 1
54 222 1
127 222 1
138 222 1
373 222 1
390 222 1
785 222 1
810 222 1
50 223 1
55 223 1
128 223 1
139 223 1
374 223 1
391 223 1
786 223 1
811 223 1
51 224 1
56 224 1
129 224 1
140 224 1
375 224 1
392 224 1
787 224 1
812 224 1
29 225 1
55 225 1
141 225 1
158 225 1
393 225 1
404 225 1
813 225 1
816 225 1
30 226 1
56 226 1
142 226 1
159 226 1
394 226 1
405 226 1
814 226 1
817 226 1
29 227 1
31 227 1
143 227 1
160 227 1
395 227 1
406 227 1
815 227 1
818 227 1
30 228 1
32 228 1
144 228 1
161 228 1
396 228 1
407 228 1
816 228 1
819 228 1
31 229 1
33 229 1
145 229 1
162 229 1
397 229 1
408 229 1
817 229 1
820 229 1
32 230 1
34 230 1
146 230 1
163 230 1
398 230 1
409 230 1
818 230 1
821 230 1
33 231 1
35 231 1
147 231 1
164 231 1
399 231 1
410 231 1
819 231 1
822 231 1
34 232 1
36 232 1
148 232 1
165 232 1
400 232 1
411 232 1
820 232 1
823 232 1
35 233 1
37 233 1
149 233 1
166 233 1
401 233 1
412 233 1
821 233 1
824 233 1
36 234 1
38 234 1
150 234 1
167 234 1
402 234 1
413 234 1
822 234 1
825 234 1
37 235 1
39 235 1
151 235 1
168 235 1
403 235 1
414 235 1
823 235 1
826 235 1
38 236 1
40 236 1
141 236 1
152 236 1
404 236 1
415 236 1
824 236 1
827 236 1
39 237 1
41 237 1
142 237 1
153 237 1
405 237 1
416 237 1
825 237 1
828 237 1
40 238 1
42 238 1
143 238 1
154 238 1
406 238 1
417 238 1
826 238 1
829 238 1
41 239 1
43 239 1
144 239 1
155 239 1
407 239 1
418 239 1
827 239 1
830 239 1
42 240 1
44 240 1
145 240 1
156 240 1
408 240 1
419 240 1
828 240 1
831 240 1
43 241 1
45 241 1
146 241 1
157 241 1
409 241 1
420 241 1
829 241 1
832 241 1
44 242 1
46 242 1
147 242 1
158 242 1
393 242 1
410 242 1
830 242 1
833 242 1
45 243 1
47 243 1
148 243 1
159 243 1
394 243 1
411 243 1
831 243 1
834 243 1
46 244 1
48 244 1
149 244 1
160 244 1
395 244 1
412 244 1
832 244 1
835 244 1
47 245 1
49 245 1
150 245 1
161 245 1
396 245 1
413 245 1
833 245 1
836 245 1
48 246 1
50 246 1
151 246 1
162 246 1
397 246 1
414 246 1
834 246 1
837 246 1
49 247 1
51 247 1
152 247 1
163 247 1
398 247 1
415 247 1
835 247 1
838 247 1
50 248 1
52 248 1
153 248 1
164 248 1
399 248 1
416 248 1
836 248 1
839 248 1
51 249 1
53 249 1
154 249 1
165 249 1
400 249 1
417 249 1
837 249 1
840 249 1
52 250 1
54 250 1
155 250 1
166 250 1
401 250 1
418 250 1
813 250 1
838 250 1
53 251 1
55 251 1
156 251 1
167 251 1
402 251 1
419 251 1
814 251 1
839 251 1
54 252 1
56 252 1
157 252 1
168 252 1
403 252 1
420 252 1
815 252 1
840 252 1
57 253 1
77 253 1
85 253 1
103 253 1
421 253 1
432 253 1
841 253 1
844 253 1
58 254 1
78 254 1
86 254 1
104 254 1
422 254 1
433 254 1
842 254 1
845 254 1
59 255 1
79 255 1
87 255 1
105 255 1
423 255 1
434 255 1
843 255 1
846 255 1
60 256 1
80 256 1
88 256 1
106 256 1
424 256 1
435 256 1
844 256 1
847 256 1
61 257 1
81 257 1
89 257 1
107 257 1
425 257 1
436 257 1
845 257 1
848 257 1
62 258 1
82 258 1
90 258 1
108 258 1
426 258 1
437 258 1
846 258 1
849 258 1
63 259 1
83 259 1
91 259 1
109 259 1
427 259 1
438 259 1
847 259 1
850 259 1
64 260 1
84 260 1
92 260 1
110 260 1
428 260 1
439 260 1
848 260 1
851 260 1
57 261 1
65 261 1
93 261 1
111 261 1
429 261 1
440 261 1
849 261 1
852 261 1
58 262 1
66 262 1
94 262 1
112 262 1
430 262 1
441 262 1
850 262 1
853 262 1
59 263 1
67 263 1
85 263 1
95 263 1
431 263 1
442 263 1
851 263 1
854 263 1
60 264 1
68 264 1
86 264 1
96 264 1
432 264 1
443 264 1
852 264 1
855 264 1
61 265 1
69 265 1
87 265 1
97 265 1
433 265 1
444 265 1
853 265 1
856 265 1
62 266 1
70 266 1
88 266 1
98 266 1
434 266 1
445 266 1
854 266 1
857 266 1
63 267 1
71 267 1
89 267 1
99 267 1
435 267 1
446 267 1
855 267 1
858 267 1
64 268 1
72 268 1
90 268 1
100 268 1
436 268 1
447 268 1
856 268 1
859 268 1
65 269 1
73 269 1
91 269 1
101 269 1
437 269 1
448 269 1
857 269 1
860 269 1
66 270 1
74 270 1
92 270 1
102 270 1
421 270 1
438 270 1
858 270 1
861 270 1
67 271 1
75 271 1
93 271 1
103 271 1
422 271 1
439 271 1
859 271 1
862 271 1
68 272 1
76 272 1
94 272 1
104 272 1
423 272 1
440 272 1
860 272 1
863 272 1
69 273 1
77 273 1
95 273 1
105 273 1
424 273 1
441 273 1
861 273 1
864 273 1
70 274 1
78 274 1
96 274 1
106 274 1
425 274 1
442 274 1
862 274 1
865 274 1
71 275 1
79 275 1
97 275 1
107 275 1
426 275 1
443 275 1
863 275 1
866 275 1
72 276 1
80 276 1
98 276 1
108 276 1
427 276 1
444 276 1
864 276 1
867 276 1
73 277 1
81 277 1
99 277 1
109 277 1
428 277 1
445 277 1
865 277 1
868 277 1
74 278 1
82 278 1
100 278 1
110 278 1
429 278 1
446 278 1
841 278 1
866 278 1
75 279 1
83 279 1
101 279 1
111 279 1
430 279 1
447 279 1
842 279 1
867 279 1
76 280 1
84 280 1
102 280 1
112 280 1
431 280 1
448 280 1
843 280 1
868 280 1
57 281 1
80 281 1
113 281 1
131 281 1
449 281 1
460 281 1
869 281 1
872 281 1
58 282 1
81 282 1
114 282 1
132 282 1
450 282 1
461 282 1
870 282 1
873 282 1
59 283 1
82 283 1
115 283 1
133 283 1
451 283 1
462 283 1
871 283 1
874 283 1
60 284 1
83 284 1
116 284 1
134 284 1
452 284 1
463 284 1
872 284 1
875 284 1
61 285 1
84 285 1
117 285 1
135 285 1
453 285 1
464 285 1
873 285 1
876 285 1
57 286 1
62 286 1
118 286 1
136 286 1
454 286 1
465 286 1
874 286 1
877 286 1
58 287 1
63 287 1
119 287 1
137 287 1
455 287 1
466 287 1
875 287 1
878 287 1
59 288 1
64 288 1
120 288 1
138 288 1
456 288 1
467 288 1
876 288 1
879 288 1
60 289 1
65 289 1
121 289 1
139 289 1
457 289 1
468 289 1
877 289 1
880 289 1
61 290 1
66 290 1
122 290 1
140 290 1
458 290 1
469 290 1
878 290 1
881 290 1
62 291 1
67 291 1
113 291 1
123 291 1
459 291 1
470 291 1
879 291 1
882 291 1
63 292 1
68 292 1
114 292 1
124 292 1
460 292 1
471 292 1
880 292 1
883 292 1
64 293 1
69 293 1
115 293 1
125 293 1
461 293 1
472 293 1
881 293 1
884 293 1
65 294 1
70 294 1
116 294 1
126 294 1
462 294 1
473 294 1
882 294 1
885 294 1
66 295 1
71 295 1
117 295 1
127 295 1
463 295 1
474 295 1
883 295 1
886 295 1
67 296 1
72 296 1
118 296 1
128 296 1
464 296 1
475 296 1
884 296 1
887 296 1
68 297 1
73 297 1
119 297 1
129 297 1
465 297 1
476 297 1
885 297 1
888 297 1
69 298 1
74 298 1
120 298 1
130 298 1
449 298 1
466 298 1
886 298 1
889 298 1
70 299 1
75 299 1
121 299 1
131 299 1
450 299 1
467 299 1
887 299 1
890 299 1
71 300 1
76 300 1
122 300 1
132 300 1
451 300 1
468 300 1
888 300 1
891 300 1
72 301 1
77 301 1
123 301 1
133 301 1
452 301 1
469 301 1
889 301 1
892 301 1
73 302 1
78 302 1
124 302 1
134 302 1
453 302 1
470 302 1
890 302 1
893 302 1
74 303 1
79 303 1
125 303 1
135 303 1
454 303 1
471 303 1
891 303 1
894 303 1
75 304 1
80 304 1
126 304 1
136 304 1
455 304 1
472 304 1
892 304 1
895 304 1
76 305 1
81 305 1
127 305 1
137 305 1
456 305 1
473 305 1
893 305 1
896 305 1
77 306 1
82 306 1
128 306 1
138 306 1
457 306 1
474 306 1
869 306 1
894 306 1
78 307 1
83 307 1
129 307 1
139 307 1
458 307 1
475 307 1
870 307 1
895 307 1
79 308 1
84 308 1
130 308 1
140 308 1
459 308 1
476 308 1
871 308 1
896 308 1
57 309 1
83 309 1
141 309 1
159 309 1
477 309 1
488 309 1
897 309 1
900 309 1
58 310 1
84 310 1
142 310 1
160 310 1
478 310 1
489 310 1
898 310 1
901 310 1
57 311 1
59 311 1
143 311 1
161 311 1
479 311 1
490 311 1
899 311 1
902 311 1
58 312 1
60 312 1
144 312 1
162 312 1
480 312 1
491 312 1
900 312 1
903 312 1
59 313 1
61 313 1
145 313 1
163 313 1
481 313 1
492 313 1
901 313 1
904 313 1
60 314 1
62 314 1
146 314 1
164 314 1
482 314 1
493 314 1
902 314 1
905 314 1
61 315 1
63 315 1
147 315 1
165 315 1
483 315 1
494 315 1
903 315 1
906 315 1
62 316 1
64 316 1
148 316 1
166 316 1
484 316 1
495 316 1
904 316 1
907 316 1
63 317 1
65 317 1
149 317 1
167 317 1
485 317 1
496 317 1
905 317 1
908 317 1
64 318 1
66 318 1
150 318 1
168 318 1
486 318 1
497 318 1
906 318 1
909 318 1
65 319 1
67 319 1
141 319 1
151 319 1
487 319 1
498 319 1
907 319 1
910 319 1
66 320 1
68 320 1
142 320 1
152 320 1
488 320 1
499 320 1
908 320 1
911 320 1
67 321 1
69 321 1
143 321 1
153 321 1
489 321 1
500 321 1
909 321 1
912 321 1
68 322 1
70 322 1
144 322 1
154 322 1
490 322 1
501 322 1
910 322 1
913 322 1
69 323 1
71 323 1
145 323 1
155 323 1
491 323 1
502 323 1
911 323 1
914 323 1
70 324 1
72 324 1
146 324 1
156 324 1
492 324 1
503 324 1
912 324 1
915 324 1
71 325 1
73 325 1
147 325 1
157 325 1
493 325 1
504 325 1
913 325 1
916 325 1
72 326 1
74 326 1
148 326 1
158 326 1
477 326 1
494 326 1
914 326 1
917 326 1
73 327 1
75 327 1
149 327 1
159 327 1
478 327 1
495 327 1
915 327 1
918 327 1
74 328 1
76 328 1
150 328 1
160 328 1
479 328 1
496 328 1
916 328 1
919 328 1
75 329 1
77 329 1
151 329 1
161 329 1
480 329 1
497 329 1
917 329 1
920 329 1
76 330 1
78 330 1
152 330 1
162 330 1
481 330 1
498 330 1
918 330 1
921 330 1
77 331 1
79 331 1
153 331 1
163 331 1
482 331 1
499 331 1
919 331 1
922 331 1
78 332 1
80 332 1
154 332 1
164 332 1
483 332 1
500 332 1
920 332 1
923 332 1
79 333 1
81 333 1
155 333 1
165 333 1
484 333 1
501 333 1
921 333 1
924 333 1
80 334 1
82 334 1
156 334 1
166 334 1
485 334 1
502 334 1
897 334 1
922 334 1
81 335 1
83 335 1
157 335 1
167 335 1
486 335 1
503 335 1
898 335 1
923 335 1
82 336 1
84 336 1
158 336 1
168 336 1
487 336 1
504 336 1
899 336 1
924 336 1
85 337 1
108 337 1
113 337 1
133 337 1
505 337 1
516 337 1
925 337 1
928 337 1
86 338 1
109 338 1
114 338 1
134 338 1
506 338 1
517 338 1
926 338 1
929 338 1
87 339 1
110 339 1
115 339 1
135 339 1
507 339 1
518 339 1
927 339 1
930 339 1
88 340 1
111 340 1
116 340 1
136 340 1
508 340 1
519 340 1
928 340 1
931 340 1
89 341 1
112 341 1
117 341 1
137 341 1
509 341 1
520 341 1
929 341 1
932 341 1
85 342 1
90 342 1
118 342 1
138 342 1
510 342 1
521 342 1
930 342 1
933 342 1
86 343 1
91 343 1
119 343 1
139 343 1
511 343 1
522 343 1
931 343 1
934 343 1
87 344 1
92 344 1
120 344 1
140 344 1
512 344 1
523 344 1
932 344 1
935 344 1
88 345 1
93 345 1
113 345 1
121 345 1
513 345 1
524 345 1
933 345 1
936 345 1
89 346 1
94 346 1
114 346 1
122 346 1
514 346 1
525 346 1
934 346 1
937 346 1
90 347 1
95 347 1
115 347 1
123 347 1
515 347 1
526 347 1
935 347 1
938 347 1
91 348 1
96 348 1
116 348 1
124 348 1
516 348 1
527 348 1
936 348 1
939 348 1
92 349 1
97 349 1
117 349 1
125 349 1
517 349 1
528 349 1
937 349 1
940 349 1
93 350 1
98 350 1
118 350 1
126 350 1
518 350 1
529 350 1
938 350 1
941 350 1
94 351 1
99 351 1
119 351 1
127 351 1
519 351 1
530 351 1
939 351 1
942 351 1
95 352 1
100 352 1
120 352 1
128 352 1
520 352 1
531 352 1
940 352 1
943 352 1
96 353 1
101 353 1
121 353 1
129 353 1
521 353 1
532 353 1
941 353 1
944 353 1
97 354 1
102 354 1
122 354 1
130 354 1
505 354 1
522 354 1
942 354 1
945 354 1
98 355 1
103 355 1
123 355 1
131 355 1
506 355 1
523 355 1
943 355 1
946 355 1
99 356 1
104 356 1
124 356 1
132 356 1
507 356 1
524 356 1
944 356 1
947 356 1
100 357 1
105 357 1
125 357 1
133 357 1
508 357 1
525 357 1
945 357 1
948 357 1
101 358 1
106 358 1
126 358 1
134 358 1
509 358 1
526 358 1
946 358 1
949 358 1
102 359 1
107 359 1
127 359 1
135 359 1
510 359 1
527 359 1
947 359 1
950 359 1
103 360 1
108 360 1
128 360 1
136 360 1
511 360 1
528 360 1
948 360 1
951 360 1
104 361 1
109 361 1
129 361 1
137 361 1
512 361 1
529 361 1
949 361 1
952 361 1
105 362 1
110 362 1
130 362 1
138 362 1
513 362 1
530 362 1
925 362 1
950 362 1
106 363 1
111 363 1
131 363 1
139 363 1
514 363 1
531 363 1
926 363 1
951 363 1
107 364 1
112 364 1
132 364 1
140 364 1
515 364 1
532 364 1
927 364 1
952 364 1
85 365 1
111 365 1
141 365 1
161 365 1
533 365 1
544 365 1
953 365 1
956 365 1
86 366 1
112 366 1
142 366 1
162 366 1
534 366 1
545 366 1
954 366 1
957 366 1
85 367 1
87 367 1
143 367 1
163 367 1
535 367 1
546 367 1
955 367 1
958 367 1
86 368 1
88 368 1
144 368 1
164 368 1
536 368 1
547 368 1
956 368 1
959 368 1
87 369 1
89 369 1
145 369 1
165 369 1
537 369 1
548 369 1
957 369 1
960 369 1
88 370 1
90 370 1
146 370 1
166 370 1
538 370 1
549 370 1
958 370 1
961 370 1
89 371 1
91 371 1
147 371 1
167 371 1
539 371 1
550 371 1
959 371 1
962 371 1
90 372 1
92 372 1
148 372 1
168 372 1
540 372 1
551 372 1
960 372 1
963 372 1
91 373 1
93 373 1
141 373 1
149 373 1
541 373 1
552 373 1
961 373 1
964 373 1
92 374 1
94 374 1
142 374 1
150 374 1
542 374 1
553 374 1
962 374 1
965 374 1
93 375 1
95 375 1
143 375 1
151 375 1
543 375 1
554 375 1
963 375 1
966 375 1
94 376 1
96 376 1
144 376 1
152 376 1
544 376 1
555 376 1
964 376 1
967 376 1
95 377 1
97 377 1
145 377 1
153 377 1
545 377 1
556 377 1
965 377 1
968 377 1
96 378 1
98 378 1
146 378 1
154 378 1
546 378 1
557 378 1
966 378 1
969 378 1
97 379 1
99 379 1
147 379 1
155 379 1
547 379 1
558 379 1
967 379 1
970 379 1
98 380 1
100 380 1
148 380 1
156 380 1
548 380 1
559 380 1
968 380 1
971 380 1
99 381 1
101 381 1
149 381 1
157 381 1
549 381 1
560 381 1
969 381 1
972 381 1
100 382 1
102 382 1
150 382 1
158 382 1
533 382 1
550 382 1
970 382 1
973 382 1
101 383 1
103 383 1
151 383 1
159 383 1
534 383 1
551 383 1
971 383 1
974 383 1
102 384 1
104 384 1
152 384 1
160 384 1
535 384 1
552 384 1
972 384 1
975 384 1
103 385 1
105 385 1
153 385 1
161 385 1
536 385 1
553 385 1
973 385 1
976 385 1
104 386 1
106 386 1
154 386 1
162 386 1
537 386 1
554 386 1
974 386 1
977 386 1
105 387 1
107 387 1
155 387 1
163 387 1
538 387 1
555 387 1
975 387 1
978 387 1
106 388 1
108 388 1
156 388 1
164 388 1
539 388 1
556 388 1
976 388 1
979 388 1
107 389 1
109 389 1
157 389 1
165 389 1
540 389 1
557 389 1
977 389 1
980 389 1
108 390 1
110 390 1
158 390 1
166 390 1
541 390 1
558 390 1
953 390 1
978 390 1
109 391 1
111 391 1
159 391 1
167 391 1
542 391 1
559 391 1
954 391 1
979 391 1
110 392 1
112 392 1
160 392 1
168 392 1
543 392 1
560 392 1
955 392 1
980 392 1
113 393 1
139 393 1
141 393 1
164 393 1
561 393 1
572 393 1
981 393 1
984 393 1
114 394 1
140 394 1
142 394 1
165 394 1
562 394 1
573 394 1
982 394 1
985 394 1
113 395 1
115 395 1
143 395 1
166 395 1
563 395 1
574 395 1
983 395 1
986 395 1
114 396 1
116 396 1
144 396 1
167 396 1
564 396 1
575 396 1
984 396 1
987 396 1
115 397 1
117 397 1
145 397 1
168 397 1
565 397 1
576 397 1
985 397 1
988 397 1
116 398 1
118 398 1
141 398 1
146 398 1
566 398 1
577 398 1
986 398 1
989 398 1
117 399 1
119 399 1
142 399 1
147 399 1
567 399 1
578 399 1
987 399 1
990 399 1
118 400 1
120 400 1
143 400 1
148 400 1
568 400 1
579 400 1
988 400 1
991 400 1
119 401 1
121 401 1
144 401 1
149 401 1
569 401 1
580 401 1
989 401 1
992 401 1
120 402 1
122 402 1
145 402 1
150 402 1
570 402 1
581 402 1
990 402 1
993 402 1
121 403 1
123 403 1
146 403 1
151 403 1
571 403 1
582 403 1
991 403 1
994 403 1
122 404 1
124 404 1
147 404 1
152 404 1
572 404 1
583 404 1
992 404 1
995 404 1
123 405 1
125 405 1
148 405 1
153 405 1
573 405 1
584 405 1
993 405 1
996 405 1
124 406 1
126 406 1
149 406 1
154 406 1
574 406 1
585 406 1
994 406 1
997 406 1
125 407 1
127 407 1
150 407 1
155 407 1
575 407 1
586 407 1
995 407 1
998 407 1
126 408 1
128 408 1
151 408 1
156 408 1
576 408 1
587 408 1
996 408 1
999 408 1
127 409 1
129 409 1
152 409 1
157 409 1
577 409 1
588 409 1
997 409 1
1000 409 1
128 410 1
130 410 1
153 410 1
158 410 1
561 410 1
578 410 1
998 410 1
1001 410 1
129 411 1
131 411 1
154 411 1
159 411 1
562 411 1
579 411 1
999 411 1
1002 411 1
130 412 1
132 412 1
155 412 1
160 412 1
563 412 1
580 412 1
1000 412 1
1003 412 1
131 413 1
133 413 1
156 413 1
161 413 1
564 413 1
581 413 1
1001 413 1
1004 413 1
132 414 1
134 414 1
157 414 1
162 414 1
565 414 1
582 414 1
1002 414 1
1005 414 1
133 415 1
135 415 1
158 415 1
163 415 1
566 415 1
583 415 1
1003 415 1
1006 415 1
134 416 1
136 416 1
159 416 1
164 416 1
567 416 1
584 416 1
1004 416 1
1007 416 1
135 417 1
137 417 1
160 417 1
165 417 1
568 417 1
585 417 1
1005 417 1
1008 417 1
136 418 1
138 418 1
161 418 1
166 418 1
569 418 1
586 418 1
981 418 1
1006 418 1
137 419 1
139 419 1
162 419 1
167 419 1
570 419 1
587 419 1
982 419 1
1007 419 1
138 420 1
140 420 1
163 420 1
168 420 1
571 420 1
588 420 1
983 420 1
1008 420 1
169 421 1
187 421 1
197 421 1
214 421 1
309 421 1
321 421 1
1009 421 1
1012 421 1
170 422 1
188 422 1
198 422 1
215 422 1
310 422 1
322 422 1
1010 422 1
1013 422 1
171 423 1
189 423 1
199 423 1
216 423 1
311 423 1
323 423 1
1011 423 1
1014 423 1
172 424 1
190 424 1
200 424 1
217 424 1
312 424 1
324 424 1
1012 424 1
1015 424 1
173 425 1
191 425 1
201 425 1
218 425 1
313 425 1
325 425 1
1013 425 1
1016 425 1
174 426 1
192 426 1
202 426 1
219 426 1
314 426 1
326 426 1
1014 426 1
1017 426 1
175 427 1
193 427 1
203 427 1
220 427 1
315 427 1
327 427 1
1015 427 1
1018 427 1
176 428 1
194 428 1
204 428 1
221 428 1
316 428 1
328 428 1
1016 428 1
1019 428 1
177 429 1
195 429 1
205 429 1
222 429 1
317 429 1
329 429 1
1017 429 1
1020 429 1
178 430 1
196 430 1
206 430 1
223 430 1
318 430 1
330 430 1
1018 430 1
1021 430 1
169 431 1
179 431 1
207 431 1
224 431 1
319 431 1
331 431 1
1019 431 1
1022 431 1
170 432 1
180 432 1
197 432 1
208 432 1
320 432 1
332 432 1
1020 432 1
1023 432 1
171 433 1
181 433 1
198 433 1
209 433 1
321 433 1
333 433 1
1021 433 1
1024 433 1
172 434 1
182 434 1
199 434 1
210 434 1
322 434 1
334 434 1
1022 434 1
1025 434 1
173 435 1
183 435 1
200 435 1
211 435 1
323 435 1
335 435 1
1023 435 1
1026 435 1
174 436 1
184 436 1
201 436 1
212 436 1
324 436 1
336 436 1
1024 436 1
1027 436 1
175 437 1
185 437 1
202 437 1
213 437 1
309 437 1
325 437 1
1025 437 1
1028 437 1
176 438 1
186 438 1
203 438 1
214 438 1
310 438 1
326 438 1
1026 438 1
1029 438 1
177 439 1
187 439 1
204 439 1
215 439 1
311 439 1
327 439 1
1027 439 1
1030 439 1
178 440 1
188 440 1
205 440 1
216 440 1
312 440 1
328 440 1
1028 440 1
1031 440 1
179 441 1
189 441 1
206 441 1
217 441 1
313 441 1
329 441 1
1029 441 1
1032 441 1
180 442 1
190 442 1
207 442 1
218 442 1
314 442 1
330 442 1
1030 442 1
1033 442 1
181 443 1
191 443 1
208 443 1
219 443 1
315 443 1
331 443 1
1031 443 1
1034 443 1
182 444 1
192 444 1
209 444 1
220 444 1
316 444 1
332 444 1
1032 444 1
1035 444 1
183 445 1
193 445 1
210 445 1
221 445 1
317 445 1
333 445 1
1033 445 1
1036 445 1
184 446 1
194 446 1
211 446 1
222 446 1
318 446 1
334 446 1
1009 446 1
1034 446 1
185 447 1
195 447 1
212 447 1
223 447 1
319 447 1
335 447 1
1010 447 1
1035 447 1
186 448 1
196 448 1
213 448 1
224 448 1
320 448 1
336 448 1
1011 448 1
1036 448 1
169 449 1
189 449 1
225 449 1
242 449 1
337 449 1
349 449 1
1037 449 1
1040 449 1
170 450 1
190 450 1
226 450 1
243 450 1
338 450 1
350 450 1
1038 450 1
1041 450 1
171 451 1
191 451 1
227 451 1
244 451 1
339 451 1
351 451 1
1039 451 1
1042 451 1
172 452 1
192 452 1
228 452 1
245 452 1
340 452 1
352 452 1
1040 452 1
1043 452 1
173 453 1
193 453 1
229 453 1
246 453 1
341 453 1
353 453 1
1041 453 1
1044 453 1
174 454 1
194 454 1
230 454 1
247 454 1
342 454 1
354 454 1
1042 454 1
1045 454 1
175 455 1
195 455 1
231 455 1
248 455 1
343 455 1
355 455 1
1043 455 1
1046 455 1
176 456 1
196 456 1
232 456 1
249 456 1
344 456 1
356 456 1
1044 456 1
1047 456 1
169 457 1
177 457 1
233 457 1
250 457 1
345 457 1
357 457 1
1045 457 1
1048 457 1
170 458 1
178 458 1
234 458 1
251 458 1
346 458 1
358 458 1
1046 458 1
1049 458 1
171 459 1
179 459 1
235 459 1
252 459 1
347 459 1
359 459 1
1047 459 1
1050 459 1
172 460 1
180 460 1
225 460 1
236 460 1
348 460 1
360 460 1
1048 460 1
1051 460 1
173 461 1
181 461 1
226 461 1
237 461 1
349 461 1
361 461 1
1049 461 1
1052 461 1
174 462 1
182 462 1
227 462 1
238 462 1
350 462 1
362 462 1
1050 462 1
1053 462 1
175 463 1
183 463 1
228 463 1
239 463 1
351 463 1
363 463 1
1051 463 1
1054 463 1
176 464 1
184 464 1
229 464 1
240 464 1
352 464 1
364 464 1
1052 464 1
1055 464 1
177 465 1
185 465 1
230 465 1
241 465 1
337 465 1
353 465 1
1053 465 1
1056 465 1
178 466 1
186 466 1
231 466 1
242 466 1
338 466 1
354 466 1
1054 466 1
1057 466 1
179 467 1
187 467 1
232 467 1
243 467 1
339 467 1
355 467 1
1055 467 1
1058 467 1
180 468 1
188 468 1
233 468 1
244 468 1
340 468 1
356 468 1
1056 468 1
1059 468 1
181 469 1
189 469 1
234 469 1
245 469 1
341 469 1
357 469 1
1057 469 1
1060 469 1
182 470 1
190 470 1
235 470 1
246 470 1
342 470 1
358 470 1
1058 470 1
1061 470 1
183 471 1
191 471 1
236 471 1
247 471 1
343 471 1
359 471 1
1059 471 1
1062 471 1
184 472 1
192 472 1
237 472 1
248 472 1
344 472 1
360 472 1
1060 472 1
1063 472 1
185 473 1
193 473 1
238 473 1
249 473 1
345 473 1
361 473 1
1061 473 1
1064 473 1
186 474 1
194 474 1
239 474 1
250 474 1
346 474 1
362 474 1
1037 474 1
1062 474 1
187 475 1
195 475 1
240 475 1
251 475 1
347 475 1
363 475 1
1038 475 1
1063 475 1
188 476 1
196 476 1
241 476 1
252 476 1
348 476 1
364 476 1
1039 476 1
1064 476 1
169 477 1
192 477 1
253 477 1
270 477 1
365 477 1
377 477 1
1065 477 1
1068 477 1
170 478 1
193 478 1
254 478 1
271 478 1
366 478 1
378 478 1
1066 478 1
1069 478 1
171 479 1
194 479 1
255 479 1
272 479 1
367 479 1
379 479 1
1067 479 1
1070 479 1
172 480 1
195 480 1
256 480 1
273 480 1
368 480 1
380 480 1
1068 480 1
1071 480 1
173 481 1
196 481 1
257 481 1
274 481 1
369 481 1
381 481 1
1069 481 1
1072 481 1
169 482 1
174 482 1
258 482 1
275 482 1
370 482 1
382 482 1
1070 482 1
1073 482 1
170 483 1
175 483 1
259 483 1
276 483 1
371 483 1
383 483 1
1071 483 1
1074 483 1
171 484 1
176 484 1
260 484 1
277 484 1
372 484 1
384 484 1
1072 484 1
1075 484 1
172 485 1
177 485 1
261 485 1
278 485 1
373 485 1
385 485 1
1073 485 1
1076 485 1
173 486 1
178 486 1
262 486 1
279 486 1
374 486 1
386 486 1
1074 486 1
1077 486 1
174 487 1
179 487 1
263 487 1
280 487 1
375 487 1
387 487 1
1075 487 1
1078 487 1
175 488 1
180 488 1
253 488 1
264 488 1
376 488 1
388 488 1
1076 488 1
1079 488 1
176 489 1
181 489 1
254 489 1
265 489 1
377 489 1
389 489 1
1077 489 1
1080 489 1
177 490 1
182 490 1
255 490 1
266 490 1
378 490 1
390 490 1
1078 490 1
1081 490 1
178 491 1
183 491 1
256 491 1
267 491 1
379 491 1
391 491 1
1079 491 1
1082 491 1
179 492 1
184 492 1
257 492 1
268 492 1
380 492 1
392 492 1
1080 492 1
1083 492 1
180 493 1
185 493 1
258 493 1
269 493 1
365 493 1
381 493 1
1081 493 1
1084 493 1
181 494 1
186 494 1
259 494 1
270 494 1
366 494 1
382 494 1
1082 494 1
1085 494 1
182 495 1
187 495 1
260 495 1
271 495 1
367 495 1
383 495 1
1083 495 1
1086 495 1
183 496 1
188 496 1
261 496 1
272 496 1
368 496 1
384 496 1
1084 496 1
1087 496 1
184 497 1
189 497 1
262 497 1
273 497 1
369 497 1
385 497 1
1085 497 1
1088 497 1
185 498 1
190 498 1
263 498 1
274 498 1
370 498 1
386 498 1
1086 498 1
1089 498 1
186 499 1
191 499 1
264 499 1
275 499 1
371 499 1
387 499 1
1087 499 1
1090 499 1
187 500 1
192 500 1
265 500 1
276 500 1
372 500 1
388 500 1
1088 500 1
1091 500 1
188 501 1
193 501 1
266 501 1
277 501 1
373 501 1
389 501 1
1089 501 1
1092 501 1
189 502 1
194 502 1
267 502 1
278 502 1
374 502 1
390 502 1
1065 502 1
1090 502 1
190 503 1
195 503 1
268 503 1
279 503 1
375 503 1
391 503 1
1066 503 1
1091 503 1
191 504 1
196 504 1
269 504 1
280 504 1
376 504 1
392 504 1
1067 504 1
1092 504 1
169 505 1
195 505 1
281 505 1
298 505 1
393 505 1
405 505 1
1093 505 1
1096 505 1
170 506 1
196 506 1
282 506 1
299 506 1
394 506 1
406 506 1
1094 506 1
1097 506 1
169 507 1
171 507 1
283 507 1
300 507 1
395 507 1
407 507 1
1095 507 1
1098 507 1
170 508 1
172 508 1
284 508 1
301 508 1
396 508 1
408 508 1
1096 508 1
1099 508 1
171 509 1
173 509 1
285 509 1
302 509 1
397 509 1
409 509 1
1097 509 1
1100 509 1
172 510 1
174 510 1
286 510 1
303 510 1
398 510 1
410 510 1
1098 510 1
1101 510 1
173 511 1
175 511 1
287 511 1
304 511 1
399 511 1
411 511 1
1099 511 1
1102 511 1
174 512 1
176 512 1
288 512 1
305 512 1
400 512 1
412 512 1
1100 512 1
1103 512 1
175 513 1
177 513 1
289 513 1
306 513 1
401 513 1
413 513 1
1101 513 1
1104 513 1
176 514 1
178 514 1
290 514 1
307 514 1
402 514 1
414 514 1
1102 514 1
1105 514 1
177 515 1
179 515 1
291 515 1
308 515 1
403 515 1
415 515 1
1103 515 1
1106 515 1
178 516 1
180 516 1
281 516 1
292 516 1
404 516 1
416 516 1
1104 516 1
1107 516 1
179 517 1
181 517 1
282 517 1
293 517 1
405 517 1
417 517 1
1105 517 1
1108 517 1
180 518 1
182 518 1
283 518 1
294 518 1
406 518 1
418 518 1
1106 518 1
1109 518 1
181 519 1
183 519 1
284 519 1
295 519 1
407 519 1
419 519 1
1107 519 1
1110 519 1
182 520 1
184 520 1
285 520 1
296 520 1
408 520 1
420 520 1
1108 520 1
1111 520 1
183 521 1
185 521 1
286 521 1
297 521 1
393 521 1
409 521 1
1109 521 1
1112 521 1
184 522 1
186 522 1
287 522 1
298 522 1
394 522 1
410 522 1
1110 522 1
1113 522 1
185 523 1
187 523 1
288 523 1
299 523 1
395 523 1
411 523 1
1111 523 1
1114 523 1
186 524 1
188 524 1
289 524 1
300 524 1
396 524 1
412 524 1
1112 524 1
1115 524 1
187 525 1
189 525 1
290 525 1
301 525 1
397 525 1
413 525 1
1113 525 1
1116 525 1
188 526 1
190 526 1
291 526 1
302 526 1
398 526 1
414 526 1
1114 526 1
1117 526 1
189 527 1
191 527 1
292 527 1
303 527 1
399 527 1
415 527 1
1115 527 1
1118 527 1
190 528 1
192 528 1
293 528 1
304 528 1
400 528 1
416 528 1
1116 528 1
1119 528 1
191 529 1
193 529 1
294 529 1
305 529 1
401 529 1
417 529 1
1117 529 1
1120 529 1
192 530 1
194 530 1
295 530 1
306 530 1
402 530 1
418 530 1
1093 530 1
1118 530 1
193 531 1
195 531 1
296 531 1
307 531 1
403 531 1
419 531 1
1094 531 1
1119 531 1
194 532 1
196 532 1
297 532 1
308 532 1
404 532 1
420 532 1
1095 532 1
1120 532 1
197 533 1
217 533 1
225 533 1
243 533 1
421 533 1
433 533 1
1121 533 1
1124 533 1
198 534 1
218 534 1
226 534 1
244 534 1
422 534 1
434 534 1
1122 534 1
1125 534 1
199 535 1
219 535 1
227 535 1
245 535 1
423 535 1
435 535 1
1123 535 1
1126 535 1
200 536 1
220 536 1
228 536 1
246 536 1
424 536 1
436 536 1
1124 536 1
1127 536 1
201 537 1
221 537 1
229 537 1
247 537 1
425 537 1
437 537 1
1125 537 1
1128 537 1
202 538 1
222 538 1
230 538 1
248 538 1
426 538 1
438 538 1
1126 538 1
1129 538 1
203 539 1
223 539 1
231 539 1
249 539 1
427 539 1
439 539 1
1127 539 1
1130 539 1
204 540 1
224 540 1
232 540 1
250 540 1
428 540 1
440 540 1
1128 540 1
1131 540 1
197 541 1
205 541 1
233 541 1
251 541 1
429 541 1
441 541 1
1129 541 1
1132 541 1
198 542 1
206 542 1
234 542 1
252 542 1
430 542 1
442 542 1
1130 542 1
1133 542 1
199 543 1
207 543 1
225 543 1
235 543 1
431 543 1
443 543 1
1131 543 1
1134 543 1
200 544 1
208 544 1
226 544 1
236 544 1
432 544 1
444 544 1
1132 544 1
1135 544 1
201 545 1
209 545 1
227 545 1
237 545 1
433 545 1
445 545 1
1133 545 1
1136 545 1
202 546 1
210 546 1
228 546 1
238 546 1
434 546 1
446 546 1
1134 546 1
1137 546 1
203 547 1
211 547 1
229 547 1
239 547 1
435 547 1
447 547 1
1135 547 1
1138 547 1
204 548 1
212 548 1
230 548 1
240 548 1
436 548 1
448 548 1
1136 548 1
1139 548 1
205 549 1
213 549 1
231 549 1
241 549 1
421 549 1
437 549 1
1137 549 1
1140 549 1
206 550 1
214 550 1
232 550 1
242 550 1
422 550 1
438 550 1
1138 550 1
1141 550 1
207 551 1
215 551 1
233 551 1
243 551 1
423 551 1
439 551 1
1139 551 1
1142 551 1
208 552 1
216 552 1
234 552 1
244 552 1
424 552 1
440 552 1
1140 552 1
1143 552 1
209 553 1
217 553 1
235 553 1
245 553 1
425 553 1
441 553 1
1141 553 1
1144 553 1
210 554 1
218 554 1
236 554 1
246 554 1
426 554 1
442 554 1
1142 554 1
1145 554 1
211 555 1
219 555 1
237 555 1
247 555 1
427 555 1
443 555 1
1143 555 1
1146 555 1
212 556 1
220 556 1
238 556 1
248 556 1
428 556 1
444 556 1
1144 556 1
1147 556 1
213 557 1
221 557 1
239 557 1
249 557 1
429 557 1
445 557 1
1145 557 1
1148 557 1
214 558 1
222 558 1
240 558 1
250 558 1
430 558 1
446 558 1
1121 558 1
1146 558 1
215 559 1
223 559 1
241 559 1
251 559 1
431 559 1
447 559 1
1122 559 1
1147 559 1
216 560 1
224 560 1
242 560 1
252 560 1
432 560 1
448 560 1
1123 560 1
1148 560 1
197 561 1
220 561 1
253 561 1
271 561 1
449 561 1
461 561 1
1149 561 1
1152 561 1
198 562 1
221 562 1
254 562 1
272 562 1
450 562 1
462 562 1
1150 562 1
1153 562 1
199 563 1
222 563 1
255 563 1
273 563 1
451 563 1
463 563 1
1151 563 1
1154 563 1
200 564 1
223 564 1
256 564 1
274 564 1
452 564 1
464 564 1
1152 564 1
1155 564 1
201 565 1
224 565 1
257 565 1
275 565 1
453 565 1
465 565 1
1153 565 1
1156 565 1
197 566 1
202 566 1
258 566 1
276 566 1
454 566 1
466 566 1
1154 566 1
1157 566 1
198 567 1
203 567 1
259 567 1
277 567 1
455 567 1
467 567 1
1155 567 1
1158 567 1
199 568 1
204 568 1
260 568 1
278 568 1
456 568 1
468 568 1
1156 568 1
1159 568 1
200 569 1
205 569 1
261 569 1
279 569 1
457 569 1
469 569 1
1157 569 1
1160 569 1
201 570 1
206 570 1
262 570 1
280 570 1
458 570 1
470 570 1
1158 570 1
1161 570 1
202 571 1
207 571 1
253 571 1
263 571 1
459 571 1
471 571 1
1159 571 1
1162 571 1
203 572 1
208 572 1
254 572 1
264 572 1
460 572 1
472 572 1
1160 572 1
1163 572 1
204 573 1
209 573 1
255 573 1
265 573 1
461 573 1
473 573 1
1161 573 1
1164 573 1
205 574 1
210 574 1
256 574 1
266 574 1
462 574 1
474 574 1
1162 574 1
1165 574 1
206 575 1
211 575 1
257 575 1
267 575 1
463 575 1
475 575 1
1163 575 1
1166 575 1
207 576 1
212 576 1
258 576 1
268 576 1
464 576 1
476 576 1
1164 576 1
1167 576 1
208 577 1
213 577 1
259 577 1
269 577 1
449 577 1
465 577 1
1165 577 1
1168 577 1
209 578 1
214 578 1
260 578 1
270 578 1
450 578 1
466 578 1
1166 578 1
1169 578 1
210 579 1
215 579 1
261 579 1
271 579 1
451 579 1
467 579 1
1167 579 1
1170 579 1
211 580 1
216 580 1
262 580 1
272 580 1
452 580 1
468 580 1
1168 580 1
1171 580 1
212 581 1
217 581 1
263 581 1
273 581 1
453 581 1
469 581 1
1169 581 1
1172 581 1
213 582 1
218 582 1
264 582 1
274 582 1
454 582 1
470 582 1
1170 582 1
1173 582 1
214 583 1
219 583 1
265 583 1
275 583 1
455 583 1
471 583 1
1171 583 1
1174 583 1
215 584 1
220 584 1
266 584 1
276 584 1
456 584 1
472 584 1
1172 584 1
1175 584 1
216 585 1
221 585 1
267 585 1
277 585 1
457 585 1
473 585 1
1173 585 1
1176 585 1
217 586 1
222 586 1
268 586 1
278 586 1
458 586 1
474 586 1
1149 586 1
1174 586 1
218 587 1
223 587 1
269 587 1
279 587 1
459 587 1
475 587 1
1150 587 1
1175 587 1
219 588 1
224 588 1
270 588 1
280 588 1
460 588 1
476 588 1
1151 588 1
1176 588 1
197 589 1
223 589 1
281 589 1
299 589 1
477 589 1
489 589 1
1177 589 1
1180 589 1
198 590 1
224 590 1
282 590 1
300 590 1
478 590 1
490 590 1
1178 590 1
1181 590 1
197 591 1
199 591 1
283 591 1
301 591 1
479 591 1
491 591 1
1179 591 1
1182 591 1
198 592 1
200 592 1
284 592 1
302 592 1
480 592 1
492 592 1
1180 592 1
1183 592 1
199 593 1
201 593 1
285 593 1
303 593 1
481 593 1
493 593 1
1181 593 1
1184 593 1
200 594 1
202 594 1
286 594 1
304 594 1
482 594 1
494 594 1
1182 594 1
1185 594 1
201 595 1
203 595 1
287 595 1
305 595 1
483 595 1
495 595 1
1183 595 1
1186 595 1
202 596 1
204 596 1
288 596 1
306 596 1
484 596 1
496 596 1
1184 596 1
1187 596 1
203 597 1
205 597 1
289 597 1
307 597 1
485 597 1
497 597 1
1185 597 1
1188 597 1
204 598 1
206 598 1
290 598 1
308 598 1
486 598 1
498 598 1
1186 598 1
1189 598 1
205 599 1
207 599 1
281 599 1
291 599 1
487 599 1
499 599 1
1187 599 1
1190 599 1
206 600 1
208 600 1
282 600 1
292 600 1
488 600 1
500 600 1
1188 600 1
1191 600 1
207 601 1
209 601 1
283 601 1
293 601 1
489 601 1
501 601 1
1189 601 1
1192 601 1
208 602 1
210 602 1
284 602 1
294 602 1
490 602 1
502 602 1
1190 602 1
1193 602 1
209 603 1
211 603 1
285 603 1
295 603 1
491 603 1
503 603 1
1191 603 1
1194 603 1
210 604 1
212 604 1
286 604 1
296 604 1
492 604 1
504 604 1
1192 604 1
1195 604 1
211 605 1
213 605 1
287 605 1
297 605 1
477 605 1
493 605 1
1193 605 1
1196 605 1
212 606 1
214 606 1
288 606 1
298 606 1
478 606 1
494 606 1
1194 606 1
1197 606 1
213 607 1
215 607 1
289 607 1
299 607 1
479 607 1
495 607 1
1195 607 1
1198 607 1
214 608 1
216 608 1
290 608 1
300 608 1
480 608 1
496 608 1
1196 608 1
1199 608 1
215 609 1
217 609 1
291 609 1
301 609 1
481 609 1
497 609 1
1197 609 1
1200 609 1
216 610 1
218 610 1
292 610 1
302 610 1
482 610 1
498 610 1
1198 610 1
1201 610 1
217 611 1
219 611 1
293 611 1
303 611 1
483 611 1
499 611 1
1199 611 1
1202 611 1
218 612 1
220 612 1
294 612 1
304 612 1
484 612 1
500 612 1
1200 612 1
1203 612 1
219 613 1
221 613 1
295 613 1
305 613 1
485 613 1
501 613 1
1201 613 1
1204 613 1
220 614 1
222 614 1
296 614 1
306 614 1
486 614 1
502 614 1
1177 614 1
1202 614 1
221 615 1
223 615 1
297 615 1
307 615 1
487 615 1
503 615 1
1178 615 1
1203 615 1
222 616 1
224 616 1
298 616 1
308 616 1
488 616 1
504 616 1
1179 616 1
1204 616 1
225 617 1
248 617 1
253 617 1
273 617 1
505 617 1
517 617 1
1205 617 1
1208 617 1
226 618 1
249 618 1
254 618 1
274 618 1
506 618 1
518 618 1
1206 618 1
1209 618 1
227 619 1
250 619 1
255 619 1
275 619 1
507 619 1
519 619 1
1207 619 1
1210 619 1
228 620 1
251 620 1
256 620 1
276 620 1
508 620 1
520 620 1
1208 620 1
1211 620 1
229 621 1
252 621 1
257 621 1
277 621 1
509 621 1
521 621 1
1209 621 1
1212 621 1
225 622 1
230 622 1
258 622 1
278 622 1
510 622 1
522 622 1
1210 622 1
1213 622 1
226 623 1
231 623 1
259 623 1
279 623 1
511 623 1
523 623 1
1211 623 1
1214 623 1
227 624 1
232 624 1
260 624 1
280 624 1
512 624 1
524 624 1
1212 624 1
1215 624 1
228 625 1
233 625 1
253 625 1
261 625 1
513 625 1
525 625 1
1213 625 1
1216 625 1
229 626 1
234 626 1
254 626 1
262 626 1
514 626 1
526 626 1
1214 626 1
1217 626 1
230 627 1
235 627 1
255 627 1
263 627 1
515 627 1
527 627 1
1215 627 1
1218 627 1
231 628 1
236 628 1
256 628 1
264 628 1
516 628 1
528 628 1
1216 628 1
1219 628 1
232 629 1
237 629 1
257 629 1
265 629 1
517 629 1
529 629 1
1217 629 1
1220 629 1
233 630 1
238 630 1
258 630 1
266 630 1
518 630 1
530 630 1
1218 630 1
1221 630 1
234 631 1
239 631 1
259 631 1
267 631 1
519 631 1
531 631 1
1219 631 1
1222 631 1
235 632 1
240 632 1
260 632 1
268 632 1
520 632 1
532 632 1
1220 632 1
1223 632 1
236 633 1
241 633 1
261 633 1
269 633 1
505 633 1
521 633 1
1221 633 1
1224 633 1
237 634 1
242 634 1
262 634 1
270 634 1
506 634 1
522 634 1
1222 634 1
1225 634 1
238 635 1
243 635 1
263 635 1
271 635 1
507 635 1
523 635 1
1223 635 1
1226 635 1
239 636 1
244 636 1
264 636 1
272 636 1
508 636 1
524 636 1
1224 636 1
1227 636 1
240 637 1
245 637 1
265 637 1
273 637 1
509 637 1
525 637 1
1225 637 1
1228 637 1
241 638 1
246 638 1
266 638 1
274 638 1
510 638 1
526 638 1
1226 638 1
1229 638 1
242 639 1
247 639 1
267 639 1
275 639 1
511 639 1
527 639 1
1227 639 1
1230 639 1
243 640 1
248 640 1
268 640 1
276 640 1
512 640 1
528 640 1
1228 640 1
1231 640 1
244 641 1
249 641 1
269 641 1
277 641 1
513 641 1
529 641 1
1229 641 1
1232 641 1
245 642 1
250 642 1
270 642 1
278 642 1
514 642 1
530 642 1
1205 642 1
1230 642 1
246 643 1
251 643 1
271 643 1
279 643 1
515 643 1
531 643 1
1206 643 1
1231 643 1
247 644 1
252 644 1
272 644 1
280 644 1
516 644 1
532 644 1
1207 644 1
1232 644 1
225 645 1
251 645 1
281 645 1
301 645 1
533 645 1
545 645 1
1233 645 1
1236 645 1
226 646 1
252 646 1
282 646 1
302 646 1
534 646 1
546 646 1
1234 646 1
1237 646 1
225 647 1
227 647 1
283 647 1
303 647 1
535 647 1
547 647 1
1235 647 1
1238 647 1
226 648 1
228 648 1
284 648 1
304 648 1
536 648 1
548 648 1
1236 648 1
1239 648 1
227 649 1
229 649 1
285 649 1
305 649 1
537 649 1
549 649 1
1237 649 1
1240 649 1
228 650 1
230 650 1
286 650 1
306 650 1
538 650 1
550 650 1
1238 650 1
1241 650 1
229 651 1
231 651 1
287 651 1
307 651 1
539 651 1
551 651 1
1239 651 1
1242 651 1
230 652 1
232 652 1
288 652 1
308 652 1
540 652 1
552 652 1
1240 652 1
1243 652 1
231 653 1
233 653 1
281 653 1
289 653 1
541 653 1
553 653 1
1241 653 1
1244 653 1
232 654 1
234 654 1
282 654 1
290 654 1
542 654 1
554 654 1
1242 654 1
1245 654 1
233 655 1
235 655 1
283 655 1
291 655 1
543 655 1
555 655 1
1243 655 1
1246 655 1
234 656 1
236 656 1
284 656 1
292 656 1
544 656 1
556 656 1
1244 656 1
1247 656 1
235 657 1
237 657 1
285 657 1
293 657 1
545 657 1
557 657 1
1245 657 1
1248 657 1
236 658 1
238 658 1
286 658 1
294 658 1
546 658 1
558 658 1
1246 658 1
1249 658 1
237 659 1
239 659 1
287 659 1
295 659 1
547 659 1
559 659 1
1247 659 1
1250 659 1
238 660 1
240 660 1
288 660 1
296 660 1
548 660 1
560 660 1
1248 660 1
1251 660 1
239 661 1
241 661 1
289 661 1
297 661 1
533 661 1
549 661 1
1249 661 1
1252 661 1
240 662 1
242 662 1
290 662 1
298 662 1
534 662 1
550 662 1
1250 662 1
1253 662 1
241 663 1
243 663 1
291 663 1
299 663 1
535 663 1
551 663 1
1251 663 1
1254 663 1
242 664 1
244 664 1
292 664 1
300 664 1
536 664 1
552 664 1
1252 664 1
1255 664 1
243 665 1
245 665 1
293 665 1
301 665 1
537 665 1
553 665 1
1253 665 1
1256 665 1
244 666 1
246 666 1
294 666 1
302 666 1
538 666 1
554 666 1
1254 666 1
1257 666 1
245 667 1
247 667 1
295 667 1
303 667 1
539 667 1
555 667 1
1255 667 1
1258 667 1
246 668 1
248 668 1
296 668 1
304 668 1
540 668 1
556 668 1
1256 668 1
1259 668 1
247 669 1
249 669 1
297 669 1
305 669 1
541 669 1
557 669 1
1257 669 1
1260 669 1
248 670 1
250 670 1
298 670 1
306 670 1
542 670 1
558 670 1
1233 670 1
1258 670 1
249 671 1
251 671 1
299 671 1
307 671 1
543 671 1
559 671 1
1234 671 1
1259 671 1
250 672 1
252 672 1
300 672 1
308 672 1
544 672 1
560 672 1
1235 672 1
1260 672 1
253 673 1
279 673 1
281 673 1
304 673 1
561 673 1
573 673 1
1261 673 1
1264 673 1
254 674 1
280 674 1
282 674 1
305 674 1
562 674 1
574 674 1
1262 674 1
1265 674 1
253 675 1
255 675 1
283 675 1
306 675 1
563 675 1
575 675 1
1263 675 1
1266 675 1
254 676 1
256 676 1
284 676 1
307 676 1
564 676 1
576 676 1
1264 676 1
1267 676 1
255 677 1
257 677 1
285 677 1
308 677 1
565 677 1
577 677 1
1265 677 1
1268 677 1
256 678 1
258 678 1
281 678 1
286 678 1
566 678 1
578 678 1
1266 678 1
1269 678 1
257 679 1
259 679 1
282 679 1
287 679 1
567 679 1
579 679 1
1267 679 1
1270 679 1
258 680 1
260 680 1
283 680 1
288 680 1
568 680 1
580 680 1
1268 680 1
1271 680 1
259 681 1
261 681 1
284 681 1
289 681 1
569 681 1
581 681 1
1269 681 1
1272 681 1
260 682 1
262 682 1
285 682 1
290 682 1
570 682 1
582 682 1
1270 682 1
1273 682 1
261 683 1
263 683 1
286 683 1
291 683 1
571 683 1
583 683 1
1271 683 1
1274 683 1
262 684 1
264 684 1
287 684 1
292 684 1
572 684 1
584 684 1
1272 684 1
1275 684 1
263 685 1
265 685 1
288 685 1
293 685 1
573 685 1
585 685 1
1273 685 1
1276 685 1
264 686 1
266 686 1
289 686 1
294 686 1
574 686 1
586 686 1
1274 686 1
1277 686 1
265 687 1
267 687 1
290 687 1
295 687 1
575 687 1
587 687 1
1275 687 1
1278 687 1
266 688 1
268 688 1
291 688 1
296 688 1
576 688 1
588 688 1
1276 688 1
1279 688 1
267 689 1
269 689 1
292 689 1
297 689 1
561 689 1
577 689 1
1277 689 1
1280 689 1
268 690 1
270 690 1
293 690 1
298 690 1
562 690 1
578 690 1
1278 690 1
1281 690 1
269 691 1
271 691 1
294 691 1
299 691 1
563 691 1
579 691 1
1279 691 1
1282 691 1
270 692 1
272 692 1
295 692 1
300 692 1
564 692 1
580 692 1
1280 692 1
1283 692 1
271 693 1
273 693 1
296 693 1
301 693 1
565 693 1
581 693 1
1281 693 1
1284 693 1
272 694 1
274 694 1
297 694 1
302 694 1
566 694 1
582 694 1
1282 694 1
1285 694 1
273 695 1
275 695 1
298 695 1
303 695 1
567 695 1
583 695 1
1283 695 1
1286 695 1
274 696 1
276 696 1
299 696 1
304 696 1
568 696 1
584 696 1
1284 696 1
1287 696 1
275 697 1
277 697 1
300 697 1
305 697 1
569 697 1
585 697 1
1285 697 1
1288 697 1
276 698 1
278 698 1
301 698 1
306 698 1
570 698 1
586 698 1
1261 698 1
1286 698 1
277 699 1
279 699 1
302 699 1
307 699 1
571 699 1
587 699 1
1262 699 1
1287 699 1
278 700 1
280 700 1
303 700 1
308 700 1
572 700 1
588 700 1
1263 700 1
1288 700 1
309 701 1
329 701 1
337 701 1
355 701 1
421 701 1
438 701 1
1289 701 1
1292 701 1
310 702 1
330 702 1
338 702 1
356 702 1
422 702 1
439 702 1
1290 702 1
1293 702 1
311 703 1
331 703 1
339 703 1
357 703 1
423 703 1
440 703 1
1291 703 1
1294 703 1
312 704 1
332 704 1
340 704 1
358 704 1
424 704 1
441 704 1
1292 704 1
1295 704 1
313 705 1
333 705 1
341 705 1
359 705 1
425 705 1
442 705 1
1293 705 1
1296 705 1
314 706 1
334 706 1
342 706 1
360 706 1
426 706 1
443 706 1
1294 706 1
1297 706 1
315 707 1
335 707 1
343 707 1
361 707 1
427 707 1
444 707 1
1295 707 1
1298 707 1
316 708 1
336 708 1
344 708 1
362 708 1
428 708 1
445 708 1
1296 708 1
1299 708 1
309 709 1
317 709 1
345 709 1
363 709 1
429 709 1
446 709 1
1297 709 1
1300 709 1
310 710 1
318 710 1
346 710 1
364 710 1
430 710 1
447 710 1
1298 710 1
1301 710 1
311 711 1
319 711 1
337 711 1
347 711 1
431 711 1
448 711 1
1299 711 1
1302 711 1
312 712 1
320 712 1
338 712 1
348 712 1
421 712 1
432 712 1
1300 712 1
1303 712 1
313 713 1
321 713 1
339 713 1
349 713 1
422 713 1
433 713 1
1301 713 1
1304 713 1
314 714 1
322 714 1
340 714 1
350 714 1
423 714 1
434 714 1
1302 714 1
1305 714 1
315 715 1
323 715 1
341 715 1
351 715 1
424 715 1
435 715 1
1303 715 1
1306 715 1
316 716 1
324 716 1
342 716 1
352 716 1
425 716 1
436 716 1
1304 716 1
1307 716 1
317 717 1
325 717 1
343 717 1
353 717 1
426 717 1
437 717 1
1305 717 1
1308 717 1
318 718 1
326 718 1
344 718 1
354 718 1
427 718 1
438 718 1
1306 718 1
1309 718 1
319 719 1
327 719 1
345 719 1
355 719 1
428 719 1
439 719 1
1307 719 1
1310 719 1
320 720 1
328 720 1
346 720 1
356 720 1
429 720 1
440 720 1
1308 720 1
1311 720 1
321 721 1
329 721 1
347 721 1
357 721 1
430 721 1
441 721 1
1309 721 1
1312 721 1
322 722 1
330 722 1
348 722 1
358 722 1
431 722 1
442 722 1
1310 722 1
1313 722 1
323 723 1
331 723 1
349 723 1
359 723 1
432 723 1
443 723 1
1311 723 1
1314 723 1
324 724 1
332 724 1
350 724 1
360 724 1
433 724 1
444 724 1
1312 724 1
1315 724 1
325 725 1
333 725 1
351 725 1
361 725 1
434 725 1
445 725 1
1313 725 1
1316 725 1
326 726 1
334 726 1
352 726 1
362 726 1
435 726 1
446 726 1
1289 726 1
1314 726 1
327 727 1
335 727 1
353 727 1
363 727 1
436 727 1
447 727 1
1290 727 1
1315 727 1
328 728 1
336 728 1
354 728 1
364 728 1
437 728 1
448 728 1
1291 728 1
1316 728 1
309 729 1
332 729 1
365 729 1
383 729 1
449 729 1
466 729 1
1317 729 1
1320 729 1
310 730 1
333 730 1
366 730 1
384 730 1
450 730 1
467 730 1
1318 730 1
1321 730 1
311 731 1
334 731 1
367 731 1
385 731 1
451 731 1
468 731 1
1319 731 1
1322 731 1
312 732 1
335 732 1
368 732 1
386 732 1
452 732 1
469 732 1
1320 732 1
1323 732 1
313 733 1
336 733 1
369 733 1
387 733 1
453 733 1
470 733 1
1321 733 1
1324 733 1
309 734 1
314 734 1
370 734 1
388 734 1
454 734 1
471 734 1
1322 734 1
1325 734 1
310 735 1
315 735 1
371 735 1
389 735 1
455 735 1
472 735 1
1323 735 1
1326 735 1
311 736 1
316 736 1
372 736 1
390 736 1
456 736 1
473 736 1
1324 736 1
1327 736 1
312 737 1
317 737 1
373 737 1
391 737 1
457 737 1
474 737 1
1325 737 1
1328 737 1
313 738 1
318 738 1
374 738 1
392 738 1
458 738 1
475 738 1
1326 738 1
1329 738 1
314 739 1
319 739 1
365 739 1
375 739 1
459 739 1
476 739 1
1327 739 1
1330 739 1
315 740 1
320 740 1
366 740 1
376 740 1
449 740 1
460 740 1
1328 740 1
1331 740 1
316 741 1
321 741 1
367 741 1
377 741 1
450 741 1
461 741 1
1329 741 1
1332 741 1
317 742 1
322 742 1
368 742 1
378 742 1
451 742 1
462 742 1
1330 742 1
1333 742 1
318 743 1
323 743 1
369 743 1
379 743 1
452 743 1
463 743 1
1331 743 1
1334 743 1
319 744 1
324 744 1
370 744 1
380 744 1
453 744 1
464 744 1
1332 744 1
1335 744 1
320 745 1
325 745 1
371 745 1
381 745 1
454 745 1
465 745 1
1333 745 1
1336 745 1
321 746 1
326 746 1
372 746 1
382 746 1
455 746 1
466 746 1
1334 746 1
1337 746 1
322 747 1
327 747 1
373 747 1
383 747 1
456 747 1
467 747 1
1335 747 1
1338 747 1
323 748 1
328 748 1
374 748 1
384 748 1
457 748 1
468 748 1
1336 748 1
1339 748 1
324 749 1
329 749 1
375 749 1
385 749 1
458 749 1
469 749 1
1337 749 1
1340 749 1
325 750 1
330 750 1
376 750 1
386 750 1
459 750 1
470 750 1
1338 750 1
1341 750 1
326 751 1
331 751 1
377 751 1
387 751 1
460 751 1
471 751 1
1339 751 1
1342 751 1
327 752 1
332 752 1
378 752 1
388 752 1
461 752 1
472 752 1
1340 752 1
1343 752 1
328 753 1
333 753 1
379 753 1
389 753 1
462 753 1
473 753 1
1341 753 1
1344 753 1
329 754 1
334 754 1
380 754 1
390 754 1
463 754 1
474 754 1
1317 754 1
1342 754 1
330 755 1
335 755 1
381 755 1
391 755 1
464 755 1
475 755 1
1318 755 1
1343 755 1
331 756 1
336 756 1
382 756 1
392 756 1
465 756 1
476 756 1
1319 756 1
1344 756 1
309 757 1
335 757 1
393 757 1
411 757 1
477 757 1
494 757 1
1345 757 1
1348 757 1
310 758 1
336 758 1
394 758 1
412 758 1
478 758 1
495 758 1
1346 758 1
1349 758 1
309 759 1
311 759 1
395 759 1
413 759 1
479 759 1
496 759 1
1347 759 1
1350 759 1
310 760 1
312 760 1
396 760 1
414 760 1
480 760 1
497 760 1
1348 760 1
1351 760 1
311 761 1
313 761 1
397 761 1
415 761 1
481 761 1
498 761 1
1349 761 1
1352 761 1
312 762 1
314 762 1
398 762 1
416 762 1
482 762 1
499 762 1
1350 762 1
1353 762 1
313 763 1
315 763 1
399 763 1
417 763 1
483 763 1
500 763 1
1351 763 1
1354 763 1
314 764 1
316 764 1
400 764 1
418 764 1
484 764 1
501 764 1
1352 764 1
1355 764 1
315 765 1
317 765 1
401 765 1
419 765 1
485 765 1
502 765 1
1353 765 1
1356 765 1
316 766 1
318 766 1
402 766 1
420 766 1
486 766 1
503 766 1
1354 766 1
1357 766 1
317 767 1
319 767 1
393 767 1
403 767 1
487 767 1
504 767 1
1355 767 1
1358 767 1
318 768 1
320 768 1
394 768 1
404 768 1
477 768 1
488 768 1
1356 768 1
1359 768 1
319 769 1
321 769 1
395 769 1
405 769 1
478 769 1
489 769 1
1357 769 1
1360 769 1
320 770 1
322 770 1
396 770 1
406 770 1
479 770 1
490 770 1
1358 770 1
1361 770 1
321 771 1
323 771 1
397 771 1
407 771 1
480 771 1
491 771 1
1359 771 1
1362 771 1
322 772 1
324 772 1
398 772 1
408 772 1
481 772 1
492 772 1
1360 772 1
1363 772 1
323 773 1
325 773 1
399 773 1
409 773 1
482 773 1
493 773 1
1361 773 1
1364 773 1
324 774 1
326 774 1
400 774 1
410 774 1
483 774 1
494 774 1
1362 774 1
1365 774 1
325 775 1
327 775 1
401 775 1
411 775 1
484 775 1
495 775 1
1363 775 1
1366 775 1
326 776 1
328 776 1
402 776 1
412 776 1
485 776 1
496 776 1
1364 776 1
1367 776 1
327 777 1
329 777 1
403 777 1
413 777 1
486 777 1
497 777 1
1365 777 1
1368 777 1
328 778 1
330 778 1
404 778 1
414 778 1
487 778 1
498 778 1
1366 778 1
1369 778 1
329 779 1
331 779 1
405 779 1
415 779 1
488 779 1
499 779 1
1367 779 1
1370 779 1
330 780 1
332 780 1
406 780 1
416 780 1
489 780 1
500 780 1
1368 780 1
1371 780 1
331 781 1
333 781 1
407 781 1
417 781 1
490 781 1
501 781 1
1369 781 1
1372 781 1
332 782 1
334 782 1
408 782 1
418 782 1
491 782 1
502 782 1
1345 782 1
1370 782 1
333 783 1
335 783 1
409 783 1
419 783 1
492 783 1
503 783 1
1346 783 1
1371 783 1
334 784 1
336 784 1
410 784 1
420 784 1
493 784 1
504 784 1
1347 784 1
1372 784 1
337 785 1
360 785 1
365 785 1
385 785 1
505 785 1
522 785 1
1373 785 1
1376 785 1
338 786 1
361 786 1
366 786 1
386 786 1
506 786 1
523 786 1
1374 786 1
1377 786 1
339 787 1
362 787 1
367 787 1
387 787 1
507 787 1
524 787 1
1375 787 1
1378 787 1
340 788 1
363 788 1
368 788 1
388 788 1
508 788 1
525 788 1
1376 788 1
1379 788 1
341 789 1
364 789 1
369 789 1
389 789 1
509 789 1
526 789 1
1377 789 1
1380 789 1
337 790 1
342 790 1
370 790 1
390 790 1
510 790 1
527 790 1
1378 790 1
1381 790 1
338 791 1
343 791 1
371 791 1
391 791 1
511 791 1
528 791 1
1379 791 1
1382 791 1
339 792 1
344 792 1
372 792 1
392 792 1
512 792 1
529 792 1
1380 792 1
1383 792 1
340 793 1
345 793 1
365 793 1
373 793 1
513 793 1
530 793 1
1381 793 1
1384 793 1
341 794 1
346 794 1
366 794 1
374 794 1
514 794 1
531 794 1
1382 794 1
1385 794 1
342 795 1
347 795 1
367 795 1
375 795 1
515 795 1
532 795 1
1383 795 1
1386 795 1
343 796 1
348 796 1
368 796 1
376 796 1
505 796 1
516 796 1
1384 796 1
1387 796 1
344 797 1
349 797 1
369 797 1
377 797 1
506 797 1
517 797 1
1385 797 1
1388 797 1
345 798 1
350 798 1
370 798 1
378 798 1
507 798 1
518 798 1
1386 798 1
1389 798 1
346 799 1
351 799 1
371 799 1
379 799 1
508 799 1
519 799 1
1387 799 1
1390 799 1
347 800 1
352 800 1
372 800 1
380 800 1
509 800 1
520 800 1
1388 800 1
1391 800 1
348 801 1
353 801 1
373 801 1
381 801 1
510 801 1
521 801 1
1389 801 1
1392 801 1
349 802 1
354 802 1
374 802 1
382 802 1
511 802 1
522 802 1
1390 802 1
1393 802 1
350 803 1
355 803 1
375 803 1
383 803 1
512 803 1
523 803 1
1391 803 1
1394 803 1
351 804 1
356 804 1
376 804 1
384 804 1
513 804 1
524 804 1
1392 804 1
1395 804 1
352 805 1
357 805 1
377 805 1
385 805 1
514 805 1
525 805 1
1393 805 1
1396 805 1
353 806 1
358 806 1
378 806 1
386 806 1
515 806 1
526 806 1
1394 806 1
1397 806 1
354 807 1
359 807 1
379 807 1
387 807 1
516 807 1
527 807 1
1395 807 1
1398 807 1
355 808 1
360 808 1
380 808 1
388 808 1
517 808 1
528 808 1
1396 808 1
1399 808 1
356 809 1
361 809 1
381 809 1
389 809 1
518 809 1
529 809 1
1397 809 1
1400 809 1
357 810 1
362 810 1
382 810 1
390 810 1
519 810 1
530 810 1
1373 810 1
1398 810 1
358 811 1
363 811 1
383 811 1
391 811 1
520 811 1
531 811 1
1374 811 1
1399 811 1
359 812 1
364 812 1
384 812 1
392 812 1
521 812 1
532 812 1
1375 812 1
1400 812 1
337 813 1
363 813 1
393 813 1
413 813 1
533 813 1
550 813 1
1401 813 1
1404 813 1
338 814 1
364 814 1
394 814 1
414 814 1
534 814 1
551 814 1
1402 814 1
1405 814 1
337 815 1
339 815 1
395 815 1
415 815 1
535 815 1
552 815 1
1403 815 1
1406 815 1
338 816 1
340 816 1
396 816 1
416 816 1
536 816 1
553 816 1
1404 816 1
1407 816 1
339 817 1
341 817 1
397 817 1
417 817 1
537 817 1
554 817 1
1405 817 1
1408 817 1
340 818 1
342 818 1
398 818 1
418 818 1
538 818 1
555 818 1
1406 818 1
1409 818 1
341 819 1
343 819 1
399 819 1
419 819 1
539 819 1
556 819 1
1407 819 1
1410 819 1
342 820 1
344 820 1
400 820 1
420 820 1
540 820 1
557 820 1
1408 820 1
1411 820 1
343 821 1
345 821 1
393 821 1
401 821 1
541 821 1
558 821 1
1409 821 1
1412 821 1
344 822 1
346 822 1
394 822 1
402 822 1
542 822 1
559 822 1
1410 822 1
1413 822 1
345 823 1
347 823 1
395 823 1
403 823 1
543 823 1
560 823 1
1411 823 1
1414 823 1
346 824 1
348 824 1
396 824 1
404 824 1
533 824 1
544 824 1
1412 824 1
1415 824 1
347 825 1
349 825 1
397 825 1
405 825 1
534 825 1
545 825 1
1413 825 1
1416 825 1
348 826 1
350 826 1
398 826 1
406 826 1
535 826 1
546 826 1
1414 826 1
1417 826 1
349 827 1
351 827 1
399 827 1
407 827 1
536 827 1
547 827 1
1415 827 1
1418 827 1
350 828 1
352 828 1
400 828 1
408 828 1
537 828 1
548 828 1
1416 828 1
1419 828 1
351 829 1
353 829 1
401 829 1
409 829 1
538 829 1
549 829 1
1417 829 1
1420 829 1
352 830 1
354 830 1
402 830 1
410 830 1
539 830 1
550 830 1
1418 830 1
1421 830 1
353 831 1
355 831 1
403 831 1
411 831 1
540 831 1
551 831 1
1419 831 1
1422 831 1
354 832 1
356 832 1
404 832 1
412 832 1
541 832 1
552 832 1
1420 832 1
1423 832 1
355 833 1
357 833 1
405 833 1
413 833 1
542 833 1
553 833 1
1421 833 1
1424 833 1
356 834 1
358 834 1
406 834 1
414 834 1
543 834 1
554 834 1
1422 834 1
1425 834 1
357 835 1
359 835 1
407 835 1
415 835 1
544 835 1
555 835 1
1423 835 1
1426 835 1
358 836 1
360 836 1
408 836 1
416 836 1
545 836 1
556 836 1
1424 836 1
1427 836 1
359 837 1
361 837 1
409 837 1
417 837 1
546 837 1
557 837 1
1425 837 1
1428 837 1
360 838 1
362 838 1
410 838 1
418 838 1
547 838 1
558 838 1
1401 838 1
1426 838 1
361 839 1
363 839 1
411 839 1
419 839 1
548 839 1
559 839 1
1402 839 1
1427 839 1
362 840 1
364 840 1
412 840 1
420 840 1
549 840 1
560 840 1
1403 840 1
1428 840 1
365 841 1
391 841 1
393 841 1
416 841 1
561 841 1
578 841 1
1429 841 1
1432 841 1
366 842 1
392 842 1
394 842 1
417 842 1
562 842 1
579 842 1
1430 842 1
1433 842 1
365 843 1
367 843 1
395 843 1
418 843 1
563 843 1
580 843 1
1431 843 1
1434 843 1
366 844 1
368 844 1
396 844 1
419 844 1
564 844 1
581 844 1
1432 844 1
1435 844 1
367 845 1
369 845 1
397 845 1
420 845 1
565 845 1
582 845 1
1433 845 1
1436 845 1
368 846 1
370 846 1
393 846 1
398 846 1
566 846 1
583 846 1
1434 846 1
1437 846 1
369 847 1
371 847 1
394 847 1
399 847 1
567 847 1
584 847 1
1435 847 1
1438 847 1
370 848 1
372 848 1
395 848 1
400 848 1
568 848 1
585 848 1
1436 848 1
1439 848 1
371 849 1
373 849 1
396 849 1
401 849 1
569 849 1
586 849 1
1437 849 1
1440 849 1
372 850 1
374 850 1
397 850 1
402 850 1
570 850 1
587 850 1
1438 850 1
1441 850 1
373 851 1
375 851 1
398 851 1
403 851 1
571 851 1
588 851 1
1439 851 1
1442 851 1
374 852 1
376 852 1
399 852 1
404 852 1
561 852 1
572 852 1
1440 852 1
1443 852 1
375 853 1
377 853 1
400 853 1
405 853 1
562 853 1
573 853 1
1441 853 1
1444 853 1
376 854 1
378 854 1
401 854 1
406 854 1
563 854 1
574 854 1
1442 854 1
1445 854 1
377 855 1
379 855 1
402 855 1
407 855 1
564 855 1
575 855 1
1443 855 1
1446 855 1
378 856 1
380 856 1
403 856 1
408 856 1
565 856 1
576 856 1
1444 856 1
1447 856 1
379 857 1
381 857 1
404 857 1
409 857 1
566 857 1
577 857 1
1445 857 1
1448 857 1
380 858 1
382 858 1
405 858 1
410 858 1
567 858 1
578 858 1
1446 858 1
1449 858 1
381 859 1
383 859 1
406 859 1
411 859 1
568 859 1
579 859 1
1447 859 1
1450 859 1
382 860 1
384 860 1
407 860 1
412 860 1
569 860 1
580 860 1
1448 860 1
1451 860 1
383 861 1
385 861 1
408 861 1
413 861 1
570 861 1
581 861 1
1449 861 1
1452 861 1
384 862 1
386 862 1
409 862 1
414 862 1
571 862 1
582 862 1
1450 862 1
1453 862 1
385 863 1
387 863 1
410 863 1
415 863 1
572 863 1
583 863 1
1451 863 1
1454 863 1
386 864 1
388 864 1
411 864 1
416 864 1
573 864 1
584 864 1
1452 864 1
1455 864 1
387 865 1
389 865 1
412 865 1
417 865 1
574 865 1
585 865 1
1453 865 1
1456 865 1
388 866 1
390 866 1
413 866 1
418 866 1
575 866 1
586 866 1
1429 866 1
1454 866 1
389 867 1
391 867 1
414 867 1
419 867 1
576 867 1
587 867 1
1430 867 1
1455 867 1
390 868 1
392 868 1
415 868 1
420 868 1
577 868 1
588 868 1
1431 868 1
1456 868 1
421 869 1
444 869 1
449 869 1
469 869 1
505 869 1
523 869 1
1457 869 1
1460 869 1
422 870 1
445 870 1
450 870 1
470 870 1
506 870 1
524 870 1
1458 870 1
1461 870 1
423 871 1
446 871 1
451 871 1
471 871 1
507 871 1
525 871 1
1459 871 1
1462 871 1
424 872 1
447 872 1
452 872 1
472 872 1
508 872 1
526 872 1
1460 872 1
1463 872 1
425 873 1
448 873 1
453 873 1
473 873 1
509 873 1
527 873 1
1461 873 1
1464 873 1
421 874 1
426 874 1
454 874 1
474 874 1
510 874 1
528 874 1
1462 874 1
1465 874 1
422 875 1
427 875 1
455 875 1
475 875 1
511 875 1
529 875 1
1463 875 1
1466 875 1
423 876 1
428 876 1
456 876 1
476 876 1
512 876 1
530 876 1
1464 876 1
1467 876 1
424 877 1
429 877 1
449 877 1
457 877 1
513 877 1
531 877 1
1465 877 1
1468 877 1
425 878 1
430 878 1
450 878 1
458 878 1
514 878 1
532 878 1
1466 878 1
1469 878 1
426 879 1
431 879 1
451 879 1
459 879 1
505 879 1
515 879 1
1467 879 1
1470 879 1
427 880 1
432 880 1
452 880 1
460 880 1
506 880 1
516 880 1
1468 880 1
1471 880 1
428 881 1
433 881 1
453 881 1
461 881 1
507 881 1
517 881 1
1469 881 1
1472 881 1
429 882 1
434 882 1
454 882 1
462 882 1
508 882 1
518 882 1
1470 882 1
1473 882 1
430 883 1
435 883 1
455 883 1
463 883 1
509 883 1
519 883 1
1471 883 1
1474 883 1
431 884 1
436 884 1
456 884 1
464 884 1
510 884 1
520 884 1
1472 884 1
1475 884 1
432 885 1
437 885 1
457 885 1
465 885 1
511 885 1
521 885 1
1473 885 1
1476 885 1
433 886 1
438 886 1
458 886 1
466 886 1
512 886 1
522 886 1
1474 886 1
1477 886 1
434 887 1
439 887 1
459 887 1
467 887 1
513 887 1
523 887 1
1475 887 1
1478 887 1
435 888 1
440 888 1
460 888 1
468 888 1
514 888 1
524 888 1
1476 888 1
1479 888 1
436 889 1
441 889 1
461 889 1
469 889 1
515 889 1
525 889 1
1477 889 1
1480 889 1
437 890 1
442 890 1
462 890 1
470 890 1
516 890 1
526 890 1
1478 890 1
1481 890 1
438 891 1
443 891 1
463 891 1
471 891 1
517 891 1
527 891 1
1479 891 1
1482 891 1
439 892 1
444 892 1
464 892 1
472 892 1
518 892 1
528 892 1
1480 892 1
1483 892 1
440 893 1
445 893 1
465 893 1
473 893 1
519 893 1
529 893 1
1481 893 1
1484 893 1
441 894 1
446 894 1
466 894 1
474 894 1
520 894 1
530 894 1
1457 894 1
1482 894 1
442 895 1
447 895 1
467 895 1
475 895 1
521 895 1
531 895 1
1458 895 1
1483 895 1
443 896 1
448 896 1
468 896 1
476 896 1
522 896 1
532 896 1
1459 896 1
1484 896 1
421 897 1
447 897 1
477 897 1
497 897 1
533 897 1
551 897 1
1485 897 1
1488 897 1
422 898 1
448 898 1
478 898 1
498 898 1
534 898 1
552 898 1
1486 898 1
1489 898 1
421 899 1
423 899 1
479 899 1
499 899 1
535 899 1
553 899 1
1487 899 1
1490 899 1
422 900 1
424 900 1
480 900 1
500 900 1
536 900 1
554 900 1
1488 900 1
1491 900 1
423 901 1
425 901 1
481 901 1
501 901 1
537 901 1
555 901 1
1489 901 1
1492 901 1
424 902 1
426 902 1
482 902 1
502 902 1
538 902 1
556 902 1
1490 902 1
1493 902 1
425 903 1
427 903 1
483 903 1
503 903 1
539 903 1
557 903 1
1491 903 1
1494 903 1
426 904 1
428 904 1
484 904 1
504 904 1
540 904 1
558 904 1
1492 904 1
1495 904 1
427 905 1
429 905 1
477 905 1
485 905 1
541 905 1
559 905 1
1493 905 1
1496 905 1
428 906 1
430 906 1
478 906 1
486 906 1
542 906 1
560 906 1
1494 906 1
1497 906 1
429 907 1
431 907 1
479 907 1
487 907 1
533 907 1
543 907 1
1495 907 1
1498 907 1
430 908 1
432 908 1
480 908 1
488 908 1
534 908 1
544 908 1
1496 908 1
1499 908 1
431 909 1
433 909 1
481 909 1
489 909 1
535 909 1
545 909 1
1497 909 1
1500 909 1
432 910 1
434 910 1
482 910 1
490 910 1
536 910 1
546 910 1
1498 910 1
1501 910 1
433 911 1
435 911 1
483 911 1
491 911 1
537 911 1
547 911 1
1499 911 1
1502 911 1
434 912 1
436 912 1
484 912 1
492 912 1
538 912 1
548 912 1
1500 912 1
1503 912 1
435 913 1
437 913 1
485 913 1
493 913 1
539 913 1
549 913 1
1501 913 1
1504 913 1
436 914 1
438 914 1
486 914 1
494 914 1
540 914 1
550 914 1
1502 914 1
1505 914 1
437 915 1
439 915 1
487 915 1
495 915 1
541 915 1
551 915 1
1503 915 1
1506 915 1
438 916 1
440 916 1
488 916 1
496 916 1
542 916 1
552 916 1
1504 916 1
1507 916 1
439 917 1
441 917 1
489 917 1
497 917 1
543 917 1
553 917 1
1505 917 1
1508 917 1
440 918 1
442 918 1
490 918 1
498 918 1
544 918 1
554 918 1
1506 918 1
1509 918 1
441 919 1
443 919 1
491 919 1
499 919 1
545 919 1
555 919 1
1507 919 1
1510 919 1
442 920 1
444 920 1
492 920 1
500 920 1
546 920 1
556 920 1
1508 920 1
1511 920 1
443 921 1
445 921 1
493 921 1
501 921 1
547 921 1
557 921 1
1509 921 1
1512 921 1
444 922 1
446 922 1
494 922 1
502 922 1
548 922 1
558 922 1
1485 922 1
1510 922 1
445 923 1
447 923 1
495 923 1
503 923 1
549 923 1
559 923 1
1486 923 1
1511 923 1
446 924 1
448 924 1
496 924 1
504 924 1
550 924 1
560 924 1
1487 924 1
1512 924 1
449 925 1
475 925 1
477 925 1
500 925 1
561 925 1
579 925 1
1513 925 1
1516 925 1
450 926 1
476 926 1
478 926 1
501 926 1
562 926 1
580 926 1
1514 926 1
1517 926 1
449 927 1
451 927 1
479 927 1
502 927 1
563 927 1
581 927 1
1515 927 1
1518 927 1
450 928 1
452 928 1
480 928 1
503 928 1
564 928 1
582 928 1
1516 928 1
1519 928 1
451 929 1
453 929 1
481 929 1
504 929 1
565 929 1
583 929 1
1517 929 1
1520 929 1
452 930 1
454 930 1
477 930 1
482 930 1
566 930 1
584 930 1
1518 930 1
1521 930 1
453 931 1
455 931 1
478 931 1
483 931 1
567 931 1
585 931 1
1519 931 1
1522 931 1
454 932 1
456 932 1
479 932 1
484 932 1
568 932 1
586 932 1
1520 932 1
1523 932 1
455 933 1
457 933 1
480 933 1
485 933 1
569 933 1
587 933 1
1521 933 1
1524 933 1
456 934 1
458 934 1
481 934 1
486 934 1
570 934 1
588 934 1
1522 934 1
1525 934 1
457 935 1
459 935 1
482 935 1
487 935 1
561 935 1
571 935 1
1523 935 1
1526 935 1
458 936 1
460 936 1
483 936 1
488 936 1
562 936 1
572 936 1
1524 936 1
1527 936 1
459 937 1
461 937 1
484 937 1
489 937 1
563 937 1
573 937 1
1525 937 1
1528 937 1
460 938 1
462 938 1
485 938 1
490 938 1
564 938 1
574 938 1
1526 938 1
1529 938 1
461 939 1
463 939 1
486 939 1
491 939 1
565 939 1
575 939 1
1527 939 1
1530 939 1
462 940 1
464 940 1
487 940 1
492 940 1
566 940 1
576 940 1
1528 940 1
1531 940 1
463 941 1
465 941 1
488 941 1
493 941 1
567 941 1
577 941 1
1529 941 1
1532 941 1
464 942 1
466 942 1
489 942 1
494 942 1
568 942 1
578 942 1
1530 942 1
1533 942 1
465 943 1
467 943 1
490 943 1
495 943 1
569 943 1
579 943 1
1531 943 1
1534 943 1
466 944 1
468 944 1
491 944 1
496 944 1
570 944 1
580 944 1
1532 944 1
1535 944 1
467 945 1
469 945 1
492 945 1
497 945 1
571 945 1
581 945 1
1533 945 1
1536 945 1
468 946 1
470 946 1
493 946 1
498 946 1
572 946 1
582 946 1
1534 946 1
1537 946 1
469 947 1
471 947 1
494 947 1
499 947 1
573 947 1
583 947 1
1535 947 1
1538 947 1
470 948 1
472 948 1
495 948 1
500 948 1
574 948 1
584 948 1
1536 948 1
1539 948 1
471 949 1
473 949 1
496 949 1
501 949 1
575 949 1
585 949 1
1537 949 1
1540 949 1
472 950 1
474 950 1
497 950 1
502 950 1
576 950 1
586 950 1
1513 950 1
1538 950 1
473 951 1
475 951 1
498 951 1
503 951 1
577 951 1
587 951 1
1514 951 1
1539 951 1
474 952 1
476 952 1
499 952 1
504 952 1
578 952 1
588 952 1
1515 952 1
1540 952 1
505 953 1
531 953 1
533 953 1
556 953 1
561 953 1
581 953 1
1541 953 1
1544 953 1
506 954 1
532 954 1
534 954 1
557 954 1
562 954 1
582 954 1
1542 954 1
1545 954 1
505 955 1
507 955 1
535 955 1
558 955 1
563 955 1
583 955 1
1543 955 1
1546 955 1
506 956 1
508 956 1
536 956 1
559 956 1
564 956 1
584 956 1
1544 956 1
1547 956 1
507 957 1
509 957 1
537 957 1
560 957 1
565 957 1
585 957 1
1545 957 1
1548 957 1
508 958 1
510 958 1
533 958 1
538 958 1
566 958 1
586 958 1
1546 958 1
1549 958 1
509 959 1
511 959 1
534 959 1
539 959 1
567 959 1
587 959 1
1547 959 1
1550 959 1
510 960 1
512 960 1
535 960 1
540 960 1
568 960 1
588 960 1
1548 960 1
1551 960 1
511 961 1
513 961 1
536 961 1
541 961 1
561 961 1
569 961 1
1549 961 1
1552 961 1
512 962 1
514 962 1
537 962 1
542 962 1
562 962 1
570 962 1
1550 962 1
1553 962 1
513 963 1
515 963 1
538 963 1
543 963 1
563 963 1
571 963 1
1551 963 1
1554 963 1
514 964 1
516 964 1
539 964 1
544 964 1
564 964 1
572 964 1
1552 964 1
1555 964 1
515 965 1
517 965 1
540 965 1
545 965 1
565 965 1
573 965 1
1553 965 1
1556 965 1
516 966 1
518 966 1
541 966 1
546 966 1
566 966 1
574 966 1
1554 966 1
1557 966 1
517 967 1
519 967 1
542 967 1
547 967 1
567 967 1
575 967 1
1555 967 1
1558 967 1
518 968 1
520 968 1
543 968 1
548 968 1
568 968 1
576 968 1
1556 968 1
1559 968 1
519 969 1
521 969 1
544 969 1
549 969 1
569 969 1
577 969 1
1557 969 1
1560 969 1
520 970 1
522 970 1
545 970 1
550 970 1
570 970 1
578 970 1
1558 970 1
1561 970 1
521 971 1
523 971 1
546 971 1
551 971 1
571 971 1
579 971 1
1559 971 1
1562 971 1
522 972 1
524 972 1
547 972 1
552 972 1
572 972 1
580 972 1
1560 972 1
1563 972 1
523 973 1
525 973 1
548 973 1
553 973 1
573 973 1
581 973 1
1561 973 1
1564 973 1
524 974 1
526 974 1
549 974 1
554 974 1
574 974 1
582 974 1
1562 974 1
1565 974 1
525 975 1
527 975 1
550 975 1
555 975 1
575 975 1
583 975 1
1563 975 1
1566 975 1
526 976 1
528 976 1
551 976 1
556 976 1
576 976 1
584 976 1
1564 976 1
1567 976 1
527 977 1
529 977 1
552 977 1
557 977 1
577 977 1
585 977 1
1565 977 1
1568 977 1
528 978 1
530 978 1
553 978 1
558 978 1
578 978 1
586 978 1
1541 978 1
1566 978 1
529 979 1
531 979 1
554 979 1
559 979 1
579 979 1
587 979 1
1542 979 1
1567 979 1
530 980 1
532 980 1
555 980 1
560 980 1
580 980 1
588 980 1
1543 980 1
1568 980 1
589 981 1
607 981 1
617 981 1
634 981 1
729 981 1
741 981 1
1009 981 1
1020 981 1
590 982 1
608 982 1
618 982 1
635 982 1
730 982 1
742 982 1
1010 982 1
1021 982 1
591 983 1
609 983 1
619 983 1
636 983 1
731 983 1
743 983 1
1011 983 1
1022 983 1
592 984 1
610 984 1
620 984 1
637 984 1
732 984 1
744 984 1
1012 984 1
1023 984 1
593 985 1
611 985 1
621 985 1
638 985 1
733 985 1
745 985 1
1013 985 1
1024 985 1
594 986 1
612 986 1
622 986 1
639 986 1
734 986 1
746 986 1
1014 986 1
1025 986 1
595 987 1
613 987 1
623 987 1
640 987 1
735 987 1
747 987 1
1015 987 1
1026 987 1
596 988 1
614 988 1
624 988 1
641 988 1
736 988 1
748 988 1
1016 988 1
1027 988 1
597 989 1
615 989 1
625 989 1
642 989 1
737 989 1
749 989 1
1017 989 1
1028 989 1
598 990 1
616 990 1
626 990 1
643 990 1
738 990 1
750 990 1
1018 990 1
1029 990 1
589 991 1
599 991 1
627 991 1
644 991 1
739 991 1
751 991 1
1019 991 1
1030 991 1
590 992 1
600 992 1
617 992 1
628 992 1
740 992 1
752 992 1
1020 992 1
1031 992 1
591 993 1
601 993 1
618 993 1
629 993 1
741 993 1
753 993 1
1021 993 1
1032 993 1
592 994 1
602 994 1
619 994 1
630 994 1
742 994 1
754 994 1
1022 994 1
1033 994 1
593 995 1
603 995 1
620 995 1
631 995 1
743 995 1
755 995 1
1023 995 1
1034 995 1
594 996 1
604 996 1
621 996 1
632 996 1
744 996 1
756 996 1
1024 996 1
1035 996 1
595 997 1
605 997 1
622 997 1
633 997 1
729 997 1
745 997 1
1025 997 1
1036 997 1
596 998 1
606 998 1
623 998 1
634 998 1
730 998 1
746 998 1
1009 998 1
1026 998 1
597 999 1
607 999 1
624 999 1
635 999 1
731 999 1
747 999 1
1010 999 1
1027 999 1
598 1000 1
608 1000 1
625 1000 1
636 1000 1
732 1000 1
748 1000 1
1011 1000 1
1028 1000 1
599 1001 1
609 1001 1
626 1001 1
637 1001 1
733 1001 1
749 1001 1
1012 1001 1
1029 1001 1
600 1002 1
610 1002 1
627 1002 1
638 1002 1
734 1002 1
750 1002 1
1013 1002 1
1030 1002 1
601 1003 1
611 1003 1
628 1003 1
639 1003 1
735 1003 1
751 1003 1
1014 1003 1
1031 1003 1
602 1004 1
612 1004 1
629 1004 1
640 1004 1
736 1004 1
752 1004 1
1015 1004 1
1032 1004 1
603 1005 1
613 1005 1
630 1005 1
641 1005 1
737 1005 1
753 1005 1
1016 1005 1
1033 1005 1
604 1006 1
614 1006 1
631 1006 1
642 1006 1
738 1006 1
754 1006 1
1017 1006 1
1034 1006 1
605 1007 1
615 1007 1
632 1007 1
643 1007 1
739 1007 1
755 1007 1
1018 1007 1
1035 1007 1
606 1008 1
616 1008 1
633 1008 1
644 1008 1
740 1008 1
756 1008 1
1019 1008 1
1036 1008 1
589 1009 1
609 1009 1
645 1009 1
662 1009 1
757 1009 1
769 1009 1
1037 1009 1
1048 1009 1
590 1010 1
610 1010 1
646 1010 1
663 1010 1
758 1010 1
770 1010 1
1038 1010 1
1049 1010 1
591 1011 1
611 1011 1
647 1011 1
664 1011 1
759 1011 1
771 1011 1
1039 1011 1
1050 1011 1
592 1012 1
612 1012 1
648 1012 1
665 1012 1
760 1012 1
772 1012 1
1040 1012 1
1051 1012 1
593 1013 1
613 1013 1
649 1013 1
666 1013 1
761 1013 1
773 1013 1
1041 1013 1
1052 1013 1
594 1014 1
614 1014 1
650 1014 1
667 1014 1
762 1014 1
774 1014 1
1042 1014 1
1053 1014 1
595 1015 1
615 1015 1
651 1015 1
668 1015 1
763 1015 1
775 1015 1
1043 1015 1
1054 1015 1
596 1016 1
616 1016 1
652 1016 1
669 1016 1
764 1016 1
776 1016 1
1044 1016 1
1055 1016 1
589 1017 1
597 1017 1
653 1017 1
670 1017 1
765 1017 1
777 1017 1
1045 1017 1
1056 1017 1
590 1018 1
598 1018 1
654 1018 1
671 1018 1
766 1018 1
778 1018 1
1046 1018 1
1057 1018 1
591 1019 1
599 1019 1
655 1019 1
672 1019 1
767 1019 1
779 1019 1
1047 1019 1
1058 1019 1
592 1020 1
600 1020 1
645 1020 1
656 1020 1
768 1020 1
780 1020 1
1048 1020 1
1059 1020 1
593 1021 1
601 1021 1
646 1021 1
657 1021 1
769 1021 1
781 1021 1
1049 1021 1
1060 1021 1
594 1022 1
602 1022 1
647 1022 1
658 1022 1
770 1022 1
782 1022 1
1050 1022 1
1061 1022 1
595 1023 1
603 1023 1
648 1023 1
659 1023 1
771 1023 1
783 1023 1
1051 1023 1
1062 1023 1
596 1024 1
604 1024 1
649 1024 1
660 1024 1
772 1024 1
784 1024 1
1052 1024 1
1063 1024 1
597 1025 1
605 1025 1
650 1025 1
661 1025 1
757 1025 1
773 1025 1
1053 1025 1
1064 1025 1
598 1026 1
606 1026 1
651 1026 1
662 1026 1
758 1026 1
774 1026 1
1037 1026 1
1054 1026 1
599 1027 1
607 1027 1
652 1027 1
663 1027 1
759 1027 1
775 1027 1
1038 1027 1
1055 1027 1
600 1028 1
608 1028 1
653 1028 1
664 1028 1
760 1028 1
776 1028 1
1039 1028 1
1056 1028 1
601 1029 1
609 1029 1
654 1029 1
665 1029 1
761 1029 1
777 1029 1
1040 1029 1
1057 1029 1
602 1030 1
610 1030 1
655 1030 1
666 1030 1
762 1030 1
778 1030 1
1041 1030 1
1058 1030 1
603 1031 1
611 1031 1
656 1031 1
667 1031 1
763 1031 1
779 1031 1
1042 1031 1
1059 1031 1
604 1032 1
612 1032 1
657 1032 1
668 1032 1
764 1032 1
780 1032 1
1043 1032 1
1060 1032 1
605 1033 1
613 1033 1
658 1033 1
669 1033 1
765 1033 1
781 1033 1
1044 1033 1
1061 1033 1
606 1034 1
614 1034 1
659 1034 1
670 1034 1
766 1034 1
782 1034 1
1045 1034 1
1062 1034 1
607 1035 1
615 1035 1
660 1035 1
671 1035 1
767 1035 1
783 1035 1
1046 1035 1
1063 1035 1
608 1036 1
616 1036 1
661 1036 1
672 1036 1
768 1036 1
784 1036 1
1047 1036 1
1064 1036 1
589 1037 1
612 1037 1
673 1037 1
690 1037 1
785 1037 1
797 1037 1
1065 1037 1
1076 1037 1
590 1038 1
613 1038 1
674 1038 1
691 1038 1
786 1038 1
798 1038 1
1066 1038 1
1077 1038 1
591 1039 1
614 1039 1
675 1039 1
692 1039 1
787 1039 1
799 1039 1
1067 1039 1
1078 1039 1
592 1040 1
615 1040 1
676 1040 1
693 1040 1
788 1040 1
800 1040 1
1068 1040 1
1079 1040 1
593 1041 1
616 1041 1
677 1041 1
694 1041 1
789 1041 1
801 1041 1
1069 1041 1
1080 1041 1
589 1042 1
594 1042 1
678 1042 1
695 1042 1
790 1042 1
802 1042 1
1070 1042 1
1081 1042 1
590 1043 1
595 1043 1
679 1043 1
696 1043 1
791 1043 1
803 1043 1
1071 1043 1
1082 1043 1
591 1044 1
596 1044 1
680 1044 1
697 1044 1
792 1044 1
804 1044 1
1072 1044 1
1083 1044 1
592 1045 1
597 1045 1
681 1045 1
698 1045 1
793 1045 1
805 1045 1
1073 1045 1
1084 1045 1
593 1046 1
598 1046 1
682 1046 1
699 1046 1
794 1046 1
806 1046 1
1074 1046 1
1085 1046 1
594 1047 1
599 1047 1
683 1047 1
700 1047 1
795 1047 1
807 1047 1
1075 1047 1
1086 1047 1
595 1048 1
600 1048 1
673 1048 1
684 1048 1
796 1048 1
808 1048 1
1076 1048 1
1087 1048 1
596 1049 1
601 1049 1
674 1049 1
685 1049 1
797 1049 1
809 1049 1
1077 1049 1
1088 1049 1
597 1050 1
602 1050 1
675 1050 1
686 1050 1
798 1050 1
810 1050 1
1078 1050 1
1089 1050 1
598 1051 1
603 1051 1
676 1051 1
687 1051 1
799 1051 1
811 1051 1
1079 1051 1
1090 1051 1
599 1052 1
604 1052 1
677 1052 1
688 1052 1
800 1052 1
812 1052 1
1080 1052 1
1091 1052 1
600 1053 1
605 1053 1
678 1053 1
689 1053 1
785 1053 1
801 1053 1
1081 1053 1
1092 1053 1
601 1054 1
606 1054 1
679 1054 1
690 1054 1
786 1054 1
802 1054 1
1065 1054 1
1082 1054 1
602 1055 1
607 1055 1
680 1055 1
691 1055 1
787 1055 1
803 1055 1
1066 1055 1
1083 1055 1
603 1056 1
608 1056 1
681 1056 1
692 1056 1
788 1056 1
804 1056 1
1067 1056 1
1084 1056 1
604 1057 1
609 1057 1
682 1057 1
693 1057 1
789 1057 1
805 1057 1
1068 1057 1
1085 1057 1
605 1058 1
610 1058 1
683 1058 1
694 1058 1
790 1058 1
806 1058 1
1069 1058 1
1086 1058 1
606 1059 1
611 1059 1
684 1059 1
695 1059 1
791 1059 1
807 1059 1
1070 1059 1
1087 1059 1
607 1060 1
612 1060 1
685 1060 1
696 1060 1
792 1060 1
808 1060 1
1071 1060 1
1088 1060 1
608 1061 1
613 1061 1
686 1061 1
697 1061 1
793 1061 1
809 1061 1
1072 1061 1
1089 1061 1
609 1062 1
614 1062 1
687 1062 1
698 1062 1
794 1062 1
810 1062 1
1073 1062 1
1090 1062 1
610 1063 1
615 1063 1
688 1063 1
699 1063 1
795 1063 1
811 1063 1
1074 1063 1
1091 1063 1
611 1064 1
616 1064 1
689 1064 1
700 1064 1
796 1064 1
812 1064 1
1075 1064 1
1092 1064 1
589 1065 1
615 1065 1
701 1065 1
718 1065 1
813 1065 1
825 1065 1
1093 1065 1
1104 1065 1
590 1066 1
616 1066 1
702 1066 1
719 1066 1
814 1066 1
826 1066 1
1094 1066 1
1105 1066 1
589 1067 1
591 1067 1
703 1067 1
720 1067 1
815 1067 1
827 1067 1
1095 1067 1
1106 1067 1
590 1068 1
592 1068 1
704 1068 1
721 1068 1
816 1068 1
828 1068 1
1096 1068 1
1107 1068 1
591 1069 1
593 1069 1
705 1069 1
722 1069 1
817 1069 1
829 1069 1
1097 1069 1
1108 1069 1
592 1070 1
594 1070 1
706 1070 1
723 1070 1
818 1070 1
830 1070 1
1098 1070 1
1109 1070 1
593 1071 1
595 1071 1
707 1071 1
724 1071 1
819 1071 1
831 1071 1
1099 1071 1
1110 1071 1
594 1072 1
596 1072 1
708 1072 1
725 1072 1
820 1072 1
832 1072 1
1100 1072 1
1111 1072 1
595 1073 1
597 1073 1
709 1073 1
726 1073 1
821 1073 1
833 1073 1
1101 1073 1
1112 1073 1
596 1074 1
598 1074 1
710 1074 1
727 1074 1
822 1074 1
834 1074 1
1102 1074 1
1113 1074 1
597 1075 1
599 1075 1
711 1075 1
728 1075 1
823 1075 1
835 1075 1
1103 1075 1
1114 1075 1
598 1076 1
600 1076 1
701 1076 1
712 1076 1
824 1076 1
836 1076 1
1104 1076 1
1115 1076 1
599 1077 1
601 1077 1
702 1077 1
713 1077 1
825 1077 1
837 1077 1
1105 1077 1
1116 1077 1
600 1078 1
602 1078 1
703 1078 1
714 1078 1
826 1078 1
838 1078 1
1106 1078 1
1117 1078 1
601 1079 1
603 1079 1
704 1079 1
715 1079 1
827 1079 1
839 1079 1
1107 1079 1
1118 1079 1
602 1080 1
604 1080 1
705 1080 1
716 1080 1
828 1080 1
840 1080 1
1108 1080 1
1119 1080 1
603 1081 1
605 1081 1
706 1081 1
717 1081 1
813 1081 1
829 1081 1
1109 1081 1
1120 1081 1
604 1082 1
606 1082 1
707 1082 1
718 1082 1
814 1082 1
830 1082 1
1093 1082 1
1110 1082 1
605 1083 1
607 1083 1
708 1083 1
719 1083 1
815 1083 1
831 1083 1
1094 1083 1
1111 1083 1
606 1084 1
608 1084 1
709 1084 1
720 1084 1
816 1084 1
832 1084 1
1095 1084 1
1112 1084 1
607 1085 1
609 1085 1
710 1085 1
721 1085 1
817 1085 1
833 1085 1
1096 1085 1
1113 1085 1
608 1086 1
610 1086 1
711 1086 1
722 1086 1
818 1086 1
834 1086 1
1097 1086 1
1114 1086 1
609 1087 1
611 1087 1
712 1087 1
723 1087 1
819 1087 1
835 1087 1
1098 1087 1
1115 1087 1
610 1088 1
612 1088 1
713 1088 1
724 1088 1
820 1088 1
836 1088 1
1099 1088 1
1116 1088 1
611 1089 1
613 1089 1
714 1089 1
725 1089 1
821 1089 1
837 1089 1
1100 1089 1
1117 1089 1
612 1090 1
614 1090 1
715 1090 1
726 1090 1
822 1090 1
838 1090 1
1101 1090 1
1118 1090 1
613 1091 1
615 1091 1
716 1091 1
727 1091 1
823 1091 1
839 1091 1
1102 1091 1
1119 1091 1
614 1092 1
616 1092 1
717 1092 1
728 1092 1
824 1092 1
840 1092 1
1103 1092 1
1120 1092 1
617 1093 1
637 1093 1
645 1093 1
663 1093 1
841 1093 1
853 1093 1
1121 1093 1
1132 1093 1
618 1094 1
638 1094 1
646 1094 1
664 1094 1
842 1094 1
854 1094 1
1122 1094 1
1133 1094 1
619 1095 1
639 1095 1
647 1095 1
665 1095 1
843 1095 1
855 1095 1
1123 1095 1
1134 1095 1
620 1096 1
640 1096 1
648 1096 1
666 1096 1
844 1096 1
856 1096 1
1124 1096 1
1135 1096 1
621 1097 1
641 1097 1
649 1097 1
667 1097 1
845 1097 1
857 1097 1
1125 1097 1
1136 1097 1
622 1098 1
642 1098 1
650 1098 1
668 1098 1
846 1098 1
858 1098 1
1126 1098 1
1137 1098 1
623 1099 1
643 1099 1
651 1099 1
669 1099 1
847 1099 1
859 1099 1
1127 1099 1
1138 1099 1
624 1100 1
644 1100 1
652 1100 1
670 1100 1
848 1100 1
860 1100 1
1128 1100 1
1139 1100 1
617 1101 1
625 1101 1
653 1101 1
671 1101 1
849 1101 1
861 1101 1
1129 1101 1
1140 1101 1
618 1102 1
626 1102 1
654 1102 1
672 1102 1
850 1102 1
862 1102 1
1130 1102 1
1141 1102 1
619 1103 1
627 1103 1
645 1103 1
655 1103 1
851 1103 1
863 1103 1
1131 1103 1
1142 1103 1
620 1104 1
628 1104 1
646 1104 1
656 1104 1
852 1104 1
864 1104 1
1132 1104 1
1143 1104 1
621 1105 1
629 1105 1
647 1105 1
657 1105 1
853 1105 1
865 1105 1
1133 1105 1
1144 1105 1
622 1106 1
630 1106 1
648 1106 1
658 1106 1
854 1106 1
866 1106 1
1134 1106 1
1145 1106 1
623 1107 1
631 1107 1
649 1107 1
659 1107 1
855 1107 1
867 1107 1
1135 1107 1
1146 1107 1
624 1108 1
632 1108 1
650 1108 1
660 1108 1
856 1108 1
868 1108 1
1136 1108 1
1147 1108 1
625 1109 1
633 1109 1
651 1109 1
661 1109 1
841 1109 1
857 1109 1
1137 1109 1
1148 1109 1
626 1110 1
634 1110 1
652 1110 1
662 1110 1
842 1110 1
858 1110 1
1121 1110 1
1138 1110 1
627 1111 1
635 1111 1
653 1111 1
663 1111 1
843 1111 1
859 1111 1
1122 1111 1
1139 1111 1
628 1112 1
636 1112 1
654 1112 1
664 1112 1
844 1112 1
860 1112 1
1123 1112 1
1140 1112 1
629 1113 1
637 1113 1
655 1113 1
665 1113 1
845 1113 1
861 1113 1
1124 1113 1
1141 1113 1
630 1114 1
638 1114 1
656 1114 1
666 1114 1
846 1114 1
862 1114 1
1125 1114 1
1142 1114 1
631 1115 1
639 1115 1
657 1115 1
667 1115 1
847 1115 1
863 1115 1
1126 1115 1
1143 1115 1
632 1116 1
640 1116 1
658 1116 1
668 1116 1
848 1116 1
864 1116 1
1127 1116 1
1144 1116 1
633 1117 1
641 1117 1
659 1117 1
669 1117 1
849 1117 1
865 1117 1
1128 1117 1
1145 1117 1
634 1118 1
642 1118 1
660 1118 1
670 1118 1
850 1118 1
866 1118 1
1129 1118 1
1146 1118 1
635 1119 1
643 1119 1
661 1119 1
671 1119 1
851 1119 1
867 1119 1
1130 1119 1
1147 1119 1
636 1120 1
644 1120 1
662 1120 1
672 1120 1
852 1120 1
868 1120 1
1131 1120 1
1148 1120 1
617 1121 1
640 1121 1
673 1121 1
691 1121 1
869 1121 1
881 1121 1
1149 1121 1
1160 1121 1
618 1122 1
641 1122 1
674 1122 1
692 1122 1
870 1122 1
882 1122 1
1150 1122 1
1161 1122 1
619 1123 1
642 1123 1
675 1123 1
693 1123 1
871 1123 1
883 1123 1
1151 1123 1
1162 1123 1
620 1124 1
643 1124 1
676 1124 1
694 1124 1
872 1124 1
884 1124 1
1152 1124 1
1163 1124 1
621 1125 1
644 1125 1
677 1125 1
695 1125 1
873 1125 1
885 1125 1
1153 1125 1
1164 1125 1
617 1126 1
622 1126 1
678 1126 1
696 1126 1
874 1126 1
886 1126 1
1154 1126 1
1165 1126 1
618 1127 1
623 1127 1
679 1127 1
697 1127 1
875 1127 1
887 1127 1
1155 1127 1
1166 1127 1
619 1128 1
624 1128 1
680 1128 1
698 1128 1
876 1128 1
888 1128 1
1156 1128 1
1167 1128 1
620 1129 1
625 1129 1
681 1129 1
699 1129 1
877 1129 1
889 1129 1
1157 1129 1
1168 1129 1
621 1130 1
626 1130 1
682 1130 1
700 1130 1
878 1130 1
890 1130 1
1158 1130 1
1169 1130 1
622 1131 1
627 1131 1
673 1131 1
683 1131 1
879 1131 1
891 1131 1
1159 1131 1
1170 1131 1
623 1132 1
628 1132 1
674 1132 1
684 1132 1
880 1132 1
892 1132 1
1160 1132 1
1171 1132 1
624 1133 1
629 1133 1
675 1133 1
685 1133 1
881 1133 1
893 1133 1
1161 1133 1
1172 1133 1
625 1134 1
630 1134 1
676 1134 1
686 1134 1
882 1134 1
894 1134 1
1162 1134 1
1173 1134 1
626 1135 1
631 1135 1
677 1135 1
687 1135 1
883 1135 1
895 1135 1
1163 1135 1
1174 1135 1
627 1136 1
632 1136 1
678 1136 1
688 1136 1
884 1136 1
896 1136 1
1164 1136 1
1175 1136 1
628 1137 1
633 1137 1
679 1137 1
689 1137 1
869 1137 1
885 1137 1
1165 1137 1
1176 1137 1
629 1138 1
634 1138 1
680 1138 1
690 1138 1
870 1138 1
886 1138 1
1149 1138 1
1166 1138 1
630 1139 1
635 1139 1
681 1139 1
691 1139 1
871 1139 1
887 1139 1
1150 1139 1
1167 1139 1
631 1140 1
636 1140 1
682 1140 1
692 1140 1
872 1140 1
888 1140 1
1151 1140 1
1168 1140 1
632 1141 1
637 1141 1
683 1141 1
693 1141 1
873 1141 1
889 1141 1
1152 1141 1
1169 1141 1
633 1142 1
638 1142 1
684 1142 1
694 1142 1
874 1142 1
890 1142 1
1153 1142 1
1170 1142 1
634 1143 1
639 1143 1
685 1143 1
695 1143 1
875 1143 1
891 1143 1
1154 1143 1
1171 1143 1
635 1144 1
640 1144 1
686 1144 1
696 1144 1
876 1144 1
892 1144 1
1155 1144 1
1172 1144 1
636 1145 1
641 1145 1
687 1145 1
697 1145 1
877 1145 1
893 1145 1
1156 1145 1
1173 1145 1
637 1146 1
642 1146 1
688 1146 1
698 1146 1
878 1146 1
894 1146 1
1157 1146 1
1174 1146 1
638 1147 1
643 1147 1
689 1147 1
699 1147 1
879 1147 1
895 1147 1
1158 1147 1
1175 1147 1
639 1148 1
644 1148 1
690 1148 1
700 1148 1
880 1148 1
896 1148 1
1159 1148 1
1176 1148 1
617 1149 1
643 1149 1
701 1149 1
719 1149 1
897 1149 1
909 1149 1
1177 1149 1
1188 1149 1
618 1150 1
644 1150 1
702 1150 1
720 1150 1
898 1150 1
910 1150 1
1178 1150 1
1189 1150 1
617 1151 1
619 1151 1
703 1151 1
721 1151 1
899 1151 1
911 1151 1
1179 1151 1
1190 1151 1
618 1152 1
620 1152 1
704 1152 1
722 1152 1
900 1152 1
912 1152 1
1180 1152 1
1191 1152 1
619 1153 1
621 1153 1
705 1153 1
723 1153 1
901 1153 1
913 1153 1
1181 1153 1
1192 1153 1
620 1154 1
622 1154 1
706 1154 1
724 1154 1
902 1154 1
914 1154 1
1182 1154 1
1193 1154 1
621 1155 1
623 1155 1
707 1155 1
725 1155 1
903 1155 1
915 1155 1
1183 1155 1
1194 1155 1
622 1156 1
624 1156 1
708 1156 1
726 1156 1
904 1156 1
916 1156 1
1184 1156 1
1195 1156 1
623 1157 1
625 1157 1
709 1157 1
727 1157 1
905 1157 1
917 1157 1
1185 1157 1
1196 1157 1
624 1158 1
626 1158 1
710 1158 1
728 1158 1
906 1158 1
918 1158 1
1186 1158 1
1197 1158 1
625 1159 1
627 1159 1
701 1159 1
711 1159 1
907 1159 1
919 1159 1
1187 1159 1
1198 1159 1
626 1160 1
628 1160 1
702 1160 1
712 1160 1
908 1160 1
920 1160 1
1188 1160 1
1199 1160 1
627 1161 1
629 1161 1
703 1161 1
713 1161 1
909 1161 1
921 1161 1
1189 1161 1
1200 1161 1
628 1162 1
630 1162 1
704 1162 1
714 1162 1
910 1162 1
922 1162 1
1190 1162 1
1201 1162 1
629 1163 1
631 1163 1
705 1163 1
715 1163 1
911 1163 1
923 1163 1
1191 1163 1
1202 1163 1
630 1164 1
632 1164 1
706 1164 1
716 1164 1
912 1164 1
924 1164 1
1192 1164 1
1203 1164 1
631 1165 1
633 1165 1
707 1165 1
717 1165 1
897 1165 1
913 1165 1
1193 1165 1
1204 1165 1
632 1166 1
634 1166 1
708 1166 1
718 1166 1
898 1166 1
914 1166 1
1177 1166 1
1194 1166 1
633 1167 1
635 1167 1
709 1167 1
719 1167 1
899 1167 1
915 1167 1
1178 1167 1
1195 1167 1
634 1168 1
636 1168 1
710 1168 1
720 1168 1
900 1168 1
916 1168 1
1179 1168 1
1196 1168 1
635 1169 1
637 1169 1
711 1169 1
721 1169 1
901 1169 1
917 1169 1
1180 1169 1
1197 1169 1
636 1170 1
638 1170 1
712 1170 1
722 1170 1
902 1170 1
918 1170 1
1181 1170 1
1198 1170 1
637 1171 1
639 1171 1
713 1171 1
723 1171 1
903 1171 1
919 1171 1
1182 1171 1
1199 1171 1
638 1172 1
640 1172 1
714 1172 1
724 1172 1
904 1172 1
920 1172 1
1183 1172 1
1200 1172 1
639 1173 1
641 1173 1
715 1173 1
725 1173 1
905 1173 1
921 1173 1
1184 1173 1
1201 1173 1
640 1174 1
642 1174 1
716 1174 1
726 1174 1
906 1174 1
922 1174 1
1185 1174 1
1202 1174 1
641 1175 1
643 1175 1
717 1175 1
727 1175 1
907 1175 1
923 1175 1
1186 1175 1
1203 1175 1
642 1176 1
644 1176 1
718 1176 1
728 1176 1
908 1176 1
924 1176 1
1187 1176 1
1204 1176 1
645 1177 1
668 1177 1
673 1177 1
693 1177 1
925 1177 1
937 1177 1
1205 1177 1
1216 1177 1
646 1178 1
669 1178 1
674 1178 1
694 1178 1
926 1178 1
938 1178 1
1206 1178 1
1217 1178 1
647 1179 1
670 1179 1
675 1179 1
695 1179 1
927 1179 1
939 1179 1
1207 1179 1
1218 1179 1
648 1180 1
671 1180 1
676 1180 1
696 1180 1
928 1180 1
940 1180 1
1208 1180 1
1219 1180 1
649 1181 1
672 1181 1
677 1181 1
697 1181 1
929 1181 1
941 1181 1
1209 1181 1
1220 1181 1
645 1182 1
650 1182 1
678 1182 1
698 1182 1
930 1182 1
942 1182 1
1210 1182 1
1221 1182 1
646 1183 1
651 1183 1
679 1183 1
699 1183 1
931 1183 1
943 1183 1
1211 1183 1
1222 1183 1
647 1184 1
652 1184 1
680 1184 1
700 1184 1
932 1184 1
944 1184 1
1212 1184 1
1223 1184 1
648 1185 1
653 1185 1
673 1185 1
681 1185 1
933 1185 1
945 1185 1
1213 1185 1
1224 1185 1
649 1186 1
654 1186 1
674 1186 1
682 1186 1
934 1186 1
946 1186 1
1214 1186 1
1225 1186 1
650 1187 1
655 1187 1
675 1187 1
683 1187 1
935 1187 1
947 1187 1
1215 1187 1
1226 1187 1
651 1188 1
656 1188 1
676 1188 1
684 1188 1
936 1188 1
948 1188 1
1216 1188 1
1227 1188 1
652 1189 1
657 1189 1
677 1189 1
685 1189 1
937 1189 1
949 1189 1
1217 1189 1
1228 1189 1
653 1190 1
658 1190 1
678 1190 1
686 1190 1
938 1190 1
950 1190 1
1218 1190 1
1229 1190 1
654 1191 1
659 1191 1
679 1191 1
687 1191 1
939 1191 1
951 1191 1
1219 1191 1
1230 1191 1
655 1192 1
660 1192 1
680 1192 1
688 1192 1
940 1192 1
952 1192 1
1220 1192 1
1231 1192 1
656 1193 1
661 1193 1
681 1193 1
689 1193 1
925 1193 1
941 1193 1
1221 1193 1
1232 1193 1
657 1194 1
662 1194 1
682 1194 1
690 1194 1
926 1194 1
942 1194 1
1205 1194 1
1222 1194 1
658 1195 1
663 1195 1
683 1195 1
691 1195 1
927 1195 1
943 1195 1
1206 1195 1
1223 1195 1
659 1196 1
664 1196 1
684 1196 1
692 1196 1
928 1196 1
944 1196 1
1207 1196 1
1224 1196 1
660 1197 1
665 1197 1
685 1197 1
693 1197 1
929 1197 1
945 1197 1
1208 1197 1
1225 1197 1
661 1198 1
666 1198 1
686 1198 1
694 1198 1
930 1198 1
946 1198 1
1209 1198 1
1226 1198 1
662 1199 1
667 1199 1
687 1199 1
695 1199 1
931 1199 1
947 1199 1
1210 1199 1
1227 1199 1
663 1200 1
668 1200 1
688 1200 1
696 1200 1
932 1200 1
948 1200 1
1211 1200 1
1228 1200 1
664 1201 1
669 1201 1
689 1201 1
697 1201 1
933 1201 1
949 1201 1
1212 1201 1
1229 1201 1
665 1202 1
670 1202 1
690 1202 1
698 1202 1
934 1202 1
950 1202 1
1213 1202 1
1230 1202 1
666 1203 1
671 1203 1
691 1203 1
699 1203 1
935 1203 1
951 1203 1
1214 1203 1
1231 1203 1
667 1204 1
672 1204 1
692 1204 1
700 1204 1
936 1204 1
952 1204 1
1215 1204 1
1232 1204 1
645 1205 1
671 1205 1
701 1205 1
721 1205 1
953 1205 1
965 1205 1
1233 1205 1
1244 1205 1
646 1206 1
672 1206 1
702 1206 1
722 1206 1
954 1206 1
966 1206 1
1234 1206 1
1245 1206 1
645 1207 1
647 1207 1
703 1207 1
723 1207 1
955 1207 1
967 1207 1
1235 1207 1
1246 1207 1
646 1208 1
648 1208 1
704 1208 1
724 1208 1
956 1208 1
968 1208 1
1236 1208 1
1247 1208 1
647 1209 1
649 1209 1
705 1209 1
725 1209 1
957 1209 1
969 1209 1
1237 1209 1
1248 1209 1
648 1210 1
650 1210 1
706 1210 1
726 1210 1
958 1210 1
970 1210 1
1238 1210 1
1249 1210 1
649 1211 1
651 1211 1
707 1211 1
727 1211 1
959 1211 1
971 1211 1
1239 1211 1
1250 1211 1
650 1212 1
652 1212 1
708 1212 1
728 1212 1
960 1212 1
972 1212 1
1240 1212 1
1251 1212 1
651 1213 1
653 1213 1
701 1213 1
709 1213 1
961 1213 1
973 1213 1
1241 1213 1
1252 1213 1
652 1214 1
654 1214 1
702 1214 1
710 1214 1
962 1214 1
974 1214 1
1242 1214 1
1253 1214 1
653 1215 1
655 1215 1
703 1215 1
711 1215 1
963 1215 1
975 1215 1
1243 1215 1
1254 1215 1
654 1216 1
656 1216 1
704 1216 1
712 1216 1
964 1216 1
976 1216 1
1244 1216 1
1255 1216 1
655 1217 1
657 1217 1
705 1217 1
713 1217 1
965 1217 1
977 1217 1
1245 1217 1
1256 1217 1
656 1218 1
658 1218 1
706 1218 1
714 1218 1
966 1218 1
978 1218 1
1246 1218 1
1257 1218 1
657 1219 1
659 1219 1
707 1219 1
715 1219 1
967 1219 1
979 1219 1
1247 1219 1
1258 1219 1
658 1220 1
660 1220 1
708 1220 1
716 1220 1
968 1220 1
980 1220 1
1248 1220 1
1259 1220 1
659 1221 1
661 1221 1
709 1221 1
717 1221 1
953 1221 1
969 1221 1
1249 1221 1
1260 1221 1
660 1222 1
662 1222 1
710 1222 1
718 1222 1
954 1222 1
970 1222 1
1233 1222 1
1250 1222 1
661 1223 1
663 1223 1
711 1223 1
719 1223 1
955 1223 1
971 1223 1
1234 1223 1
1251 1223 1
662 1224 1
664 1224 1
712 1224 1
720 1224 1
956 1224 1
972 1224 1
1235 1224 1
1252 1224 1
663 1225 1
665 1225 1
713 1225 1
721 1225 1
957 1225 1
973 1225 1
1236 1225 1
1253 1225 1
664 1226 1
666 1226 1
714 1226 1
722 1226 1
958 1226 1
974 1226 1
1237 1226 1
1254 1226 1
665 1227 1
667 1227 1
715 1227 1
723 1227 1
959 1227 1
975 1227 1
1238 1227 1
1255 1227 1
666 1228 1
668 1228 1
716 1228 1
724 1228 1
960 1228 1
976 1228 1
1239 1228 1
1256 1228 1
667 1229 1
669 1229 1
717 1229 1
725 1229 1
961 1229 1
977 1229 1
1240 1229 1
1257 1229 1
668 1230 1
670 1230 1
718 1230 1
726 1230 1
962 1230 1
978 1230 1
1241 1230 1
1258 1230 1
669 1231 1
671 1231 1
719 1231 1
727 1231 1
963 1231 1
979 1231 1
1242 1231 1
1259 1231 1
670 1232 1
672 1232 1
720 1232 1
728 1232 1
964 1232 1
980 1232 1
1243 1232 1
1260 1232 1
673 1233 1
699 1233 1
701 1233 1
724 1233 1
981 1233 1
993 1233 1
1261 1233 1
1272 1233 1
674 1234 1
700 1234 1
702 1234 1
725 1234 1
982 1234 1
994 1234 1
1262 1234 1
1273 1234 1
673 1235 1
675 1235 1
703 1235 1
726 1235 1
983 1235 1
995 1235 1
1263 1235 1
1274 1235 1
674 1236 1
676 1236 1
704 1236 1
727 1236 1
984 1236 1
996 1236 1
1264 1236 1
1275 1236 1
675 1237 1
677 1237 1
705 1237 1
728 1237 1
985 1237 1
997 1237 1
1265 1237 1
1276 1237 1
676 1238 1
678 1238 1
701 1238 1
706 1238 1
986 1238 1
998 1238 1
1266 1238 1
1277 1238 1
677 1239 1
679 1239 1
702 1239 1
707 1239 1
987 1239 1
999 1239 1
1267 1239 1
1278 1239 1
678 1240 1
680 1240 1
703 1240 1
708 1240 1
988 1240 1
1000 1240 1
1268 1240 1
1279 1240 1
679 1241 1
681 1241 1
704 1241 1
709 1241 1
989 1241 1
1001 1241 1
1269 1241 1
1280 1241 1
680 1242 1
682 1242 1
705 1242 1
710 1242 1
990 1242 1
1002 1242 1
1270 1242 1
1281 1242 1
681 1243 1
683 1243 1
706 1243 1
711 1243 1
991 1243 1
1003 1243 1
1271 1243 1
1282 1243 1
682 1244 1
684 1244 1
707 1244 1
712 1244 1
992 1244 1
1004 1244 1
1272 1244 1
1283 1244 1
683 1245 1
685 1245 1
708 1245 1
713 1245 1
993 1245 1
1005 1245 1
1273 1245 1
1284 1245 1
684 1246 1
686 1246 1
709 1246 1
714 1246 1
994 1246 1
1006 1246 1
1274 1246 1
1285 1246 1
685 1247 1
687 1247 1
710 1247 1
715 1247 1
995 1247 1
1007 1247 1
1275 1247 1
1286 1247 1
686 1248 1
688 1248 1
711 1248 1
716 1248 1
996 1248 1
1008 1248 1
1276 1248 1
1287 1248 1
687 1249 1
689 1249 1
712 1249 1
717 1249 1
981 1249 1
997 1249 1
1277 1249 1
1288 1249 1
688 1250 1
690 1250 1
713 1250 1
718 1250 1
982 1250 1
998 1250 1
1261 1250 1
1278 1250 1
689 1251 1
691 1251 1
714 1251 1
719 1251 1
983 1251 1
999 1251 1
1262 1251 1
1279 1251 1
690 1252 1
692 1252 1
715 1252 1
720 1252 1
984 1252 1
1000 1252 1
1263 1252 1
1280 1252 1
691 1253 1
693 1253 1
716 1253 1
721 1253 1
985 1253 1
1001 1253 1
1264 1253 1
1281 1253 1
692 1254 1
694 1254 1
717 1254 1
722 1254 1
986 1254 1
1002 1254 1
1265 1254 1
1282 1254 1
693 1255 1
695 1255 1
718 1255 1
723 1255 1
987 1255 1
1003 1255 1
1266 1255 1
1283 1255 1
694 1256 1
696 1256 1
719 1256 1
724 1256 1
988 1256 1
1004 1256 1
1267 1256 1
1284 1256 1
695 1257 1
697 1257 1
720 1257 1
725 1257 1
989 1257 1
1005 1257 1
1268 1257 1
1285 1257 1
696 1258 1
698 1258 1
721 1258 1
726 1258 1
990 1258 1
1006 1258 1
1269 1258 1
1286 1258 1
697 1259 1
699 1259 1
722 1259 1
727 1259 1
991 1259 1
1007 1259 1
1270 1259 1
1287 1259 1
698 1260 1
700 1260 1
723 1260 1
728 1260 1
992 1260 1
1008 1260 1
1271 1260 1
1288 1260 1
729 1261 1
749 1261 1
757 1261 1
775 1261 1
841 1261 1
858 1261 1
1289 1261 1
1300 1261 1
730 1262 1
750 1262 1
758 1262 1
776 1262 1
842 1262 1
859 1262 1
1290 1262 1
1301 1262 1
731 1263 1
751 1263 1
759 1263 1
777 1263 1
843 1263 1
860 1263 1
1291 1263 1
1302 1263 1
732 1264 1
752 1264 1
760 1264 1
778 1264 1
844 1264 1
861 1264 1
1292 1264 1
1303 1264 1
733 1265 1
753 1265 1
761 1265 1
779 1265 1
845 1265 1
862 1265 1
1293 1265 1
1304 1265 1
734 1266 1
754 1266 1
762 1266 1
780 1266 1
846 1266 1
863 1266 1
1294 1266 1
1305 1266 1
735 1267 1
755 1267 1
763 1267 1
781 1267 1
847 1267 1
864 1267 1
1295 1267 1
1306 1267 1
736 1268 1
756 1268 1
764 1268 1
782 1268 1
848 1268 1
865 1268 1
1296 1268 1
1307 1268 1
729 1269 1
737 1269 1
765 1269 1
783 1269 1
849 1269 1
866 1269 1
1297 1269 1
1308 1269 1
730 1270 1
738 1270 1
766 1270 1
784 1270 1
850 1270 1
867 1270 1
1298 1270 1
1309 1270 1
731 1271 1
739 1271 1
757 1271 1
767 1271 1
851 1271 1
868 1271 1
1299 1271 1
1310 1271 1
732 1272 1
740 1272 1
758 1272 1
768 1272 1
841 1272 1
852 1272 1
1300 1272 1
1311 1272 1
733 1273 1
741 1273 1
759 1273 1
769 1273 1
842 1273 1
853 1273 1
1301 1273 1
1312 1273 1
734 1274 1
742 1274 1
760 1274 1
770 1274 1
843 1274 1
854 1274 1
1302 1274 1
1313 1274 1
735 1275 1
743 1275 1
761 1275 1
771 1275 1
844 1275 1
855 1275 1
1303 1275 1
1314 1275 1
736 1276 1
744 1276 1
762 1276 1
772 1276 1
845 1276 1
856 1276 1
1304 1276 1
1315 1276 1
737 1277 1
745 1277 1
763 1277 1
773 1277 1
846 1277 1
857 1277 1
1305 1277 1
1316 1277 1
738 1278 1
746 1278 1
764 1278 1
774 1278 1
847 1278 1
858 1278 1
1289 1278 1
1306 1278 1
739 1279 1
747 1279 1
765 1279 1
775 1279 1
848 1279 1
859 1279 1
1290 1279 1
1307 1279 1
740 1280 1
748 1280 1
766 1280 1
776 1280 1
849 1280 1
860 1280 1
1291 1280 1
1308 1280 1
741 1281 1
749 1281 1
767 1281 1
777 1281 1
850 1281 1
861 1281 1
1292 1281 1
1309 1281 1
742 1282 1
750 1282 1
768 1282 1
778 1282 1
851 1282 1
862 1282 1
1293 1282 1
1310 1282 1
743 1283 1
751 1283 1
769 1283 1
779 1283 1
852 1283 1
863 1283 1
1294 1283 1
1311 1283 1
744 1284 1
752 1284 1
770 1284 1
780 1284 1
853 1284 1
864 1284 1
1295 1284 1
1312 1284 1
745 1285 1
753 1285 1
771 1285 1
781 1285 1
854 1285 1
865 1285 1
1296 1285 1
1313 1285 1
746 1286 1
754 1286 1
772 1286 1
782 1286 1
855 1286 1
866 1286 1
1297 1286 1
1314 1286 1
747 1287 1
755 1287 1
773 1287 1
783 1287 1
856 1287 1
867 1287 1
1298 1287 1
1315 1287 1
748 1288 1
756 1288 1
774 1288 1
784 1288 1
857 1288 1
868 1288 1
1299 1288 1
1316 1288 1
729 1289 1
752 1289 1
785 1289 1
803 1289 1
869 1289 1
886 1289 1
1317 1289 1
1328 1289 1
730 1290 1
753 1290 1
786 1290 1
804 1290 1
870 1290 1
887 1290 1
1318 1290 1
1329 1290 1
731 1291 1
754 1291 1
787 1291 1
805 1291 1
871 1291 1
888 1291 1
1319 1291 1
1330 1291 1
732 1292 1
755 1292 1
788 1292 1
806 1292 1
872 1292 1
889 1292 1
1320 1292 1
1331 1292 1
733 1293 1
756 1293 1
789 1293 1
807 1293 1
873 1293 1
890 1293 1
1321 1293 1
1332 1293 1
729 1294 1
734 1294 1
790 1294 1
808 1294 1
874 1294 1
891 1294 1
1322 1294 1
1333 1294 1
730 1295 1
735 1295 1
791 1295 1
809 1295 1
875 1295 1
892 1295 1
1323 1295 1
1334 1295 1
731 1296 1
736 1296 1
792 1296 1
810 1296 1
876 1296 1
893 1296 1
1324 1296 1
1335 1296 1
732 1297 1
737 1297 1
793 1297 1
811 1297 1
877 1297 1
894 1297 1
1325 1297 1
1336 1297 1
733 1298 1
738 1298 1
794 1298 1
812 1298 1
878 1298 1
895 1298 1
1326 1298 1
1337 1298 1
734 1299 1
739 1299 1
785 1299 1
795 1299 1
879 1299 1
896 1299 1
1327 1299 1
1338 1299 1
735 1300 1
740 1300 1
786 1300 1
796 1300 1
869 1300 1
880 1300 1
1328 1300 1
1339 1300 1
736 1301 1
741 1301 1
787 1301 1
797 1301 1
870 1301 1
881 1301 1
1329 1301 1
1340 1301 1
737 1302 1
742 1302 1
788 1302 1
798 1302 1
871 1302 1
882 1302 1
1330 1302 1
1341 1302 1
738 1303 1
743 1303 1
789 1303 1
799 1303 1
872 1303 1
883 1303 1
1331 1303 1
1342 1303 1
739 1304 1
744 1304 1
790 1304 1
800 1304 1
873 1304 1
884 1304 1
1332 1304 1
1343 1304 1
740 1305 1
745 1305 1
791 1305 1
801 1305 1
874 1305 1
885 1305 1
1333 1305 1
1344 1305 1
741 1306 1
746 1306 1
792 1306 1
802 1306 1
875 1306 1
886 1306 1
1317 1306 1
1334 1306 1
742 1307 1
747 1307 1
793 1307 1
803 1307 1
876 1307 1
887 1307 1
1318 1307 1
1335 1307 1
743 1308 1
748 1308 1
794 1308 1
804 1308 1
877 1308 1
888 1308 1
1319 1308 1
1336 1308 1
744 1309 1
749 1309 1
795 1309 1
805 1309 1
878 1309 1
889 1309 1
1320 1309 1
1337 1309 1
745 1310 1
750 1310 1
796 1310 1
806 1310 1
879 1310 1
890 1310 1
1321 1310 1
1338 1310 1
746 1311 1
751 1311 1
797 1311 1
807 1311 1
880 1311 1
891 1311 1
1322 1311 1
1339 1311 1
747 1312 1
752 1312 1
798 1312 1
808 1312 1
881 1312 1
892 1312 1
1323 1312 1
1340 1312 1
748 1313 1
753 1313 1
799 1313 1
809 1313 1
882 1313 1
893 1313 1
1324 1313 1
1341 1313 1
749 1314 1
754 1314 1
800 1314 1
810 1314 1
883 1314 1
894 1314 1
1325 1314 1
1342 1314 1
750 1315 1
755 1315 1
801 1315 1
811 1315 1
884 1315 1
895 1315 1
1326 1315 1
1343 1315 1
751 1316 1
756 1316 1
802 1316 1
812 1316 1
885 1316 1
896 1316 1
1327 1316 1
1344 1316 1
729 1317 1
755 1317 1
813 1317 1
831 1317 1
897 1317 1
914 1317 1
1345 1317 1
1356 1317 1
730 1318 1
756 1318 1
814 1318 1
832 1318 1
898 1318 1
915 1318 1
1346 1318 1
1357 1318 1
729 1319 1
731 1319 1
815 1319 1
833 1319 1
899 1319 1
916 1319 1
1347 1319 1
1358 1319 1
730 1320 1
732 1320 1
816 1320 1
834 1320 1
900 1320 1
917 1320 1
1348 1320 1
1359 1320 1
731 1321 1
733 1321 1
817 1321 1
835 1321 1
901 1321 1
918 1321 1
1349 1321 1
1360 1321 1
732 1322 1
734 1322 1
818 1322 1
836 1322 1
902 1322 1
919 1322 1
1350 1322 1
1361 1322 1
733 1323 1
735 1323 1
819 1323 1
837 1323 1
903 1323 1
920 1323 1
1351 1323 1
1362 1323 1
734 1324 1
736 1324 1
820 1324 1
838 1324 1
904 1324 1
921 1324 1
1352 1324 1
1363 1324 1
735 1325 1
737 1325 1
821 1325 1
839 1325 1
905 1325 1
922 1325 1
1353 1325 1
1364 1325 1
736 1326 1
738 1326 1
822 1326 1
840 1326 1
906 1326 1
923 1326 1
1354 1326 1
1365 1326 1
737 1327 1
739 1327 1
813 1327 1
823 1327 1
907 1327 1
924 1327 1
1355 1327 1
1366 1327 1
738 1328 1
740 1328 1
814 1328 1
824 1328 1
897 1328 1
908 1328 1
1356 1328 1
1367 1328 1
739 1329 1
741 1329 1
815 1329 1
825 1329 1
898 1329 1
909 1329 1
1357 1329 1
1368 1329 1
740 1330 1
742 1330 1
816 1330 1
826 1330 1
899 1330 1
910 1330 1
1358 1330 1
1369 1330 1
741 1331 1
743 1331 1
817 1331 1
827 1331 1
900 1331 1
911 1331 1
1359 1331 1
1370 1331 1
742 1332 1
744 1332 1
818 1332 1
828 1332 1
901 1332 1
912 1332 1
1360 1332 1
1371 1332 1
743 1333 1
745 1333 1
819 1333 1
829 1333 1
902 1333 1
913 1333 1
1361 1333 1
1372 1333 1
744 1334 1
746 1334 1
820 1334 1
830 1334 1
903 1334 1
914 1334 1
1345 1334 1
1362 1334 1
745 1335 1
747 1335 1
821 1335 1
831 1335 1
904 1335 1
915 1335 1
1346 1335 1
1363 1335 1
746 1336 1
748 1336 1
822 1336 1
832 1336 1
905 1336 1
916 1336 1
1347 1336 1
1364 1336 1
747 1337 1
749 1337 1
823 1337 1
833 1337 1
906 1337 1
917 1337 1
1348 1337 1
1365 1337 1
748 1338 1
750 1338 1
824 1338 1
834 1338 1
907 1338 1
918 1338 1
1349 1338 1
1366 1338 1
749 1339 1
751 1339 1
825 1339 1
835 1339 1
908 1339 1
919 1339 1
1350 1339 1
1367 1339 1
750 1340 1
752 1340 1
826 1340 1
836 1340 1
909 1340 1
920 1340 1
1351 1340 1
1368 1340 1
751 1341 1
753 1341 1
827 1341 1
837 1341 1
910 1341 1
921 1341 1
1352 1341 1
1369 1341 1
752 1342 1
754 1342 1
828 1342 1
838 1342 1
911 1342 1
922 1342 1
1353 1342 1
1370 1342 1
753 1343 1
755 1343 1
829 1343 1
839 1343 1
912 1343 1
923 1343 1
1354 1343 1
1371 1343 1
754 1344 1
756 1344 1
830 1344 1
840 1344 1
913 1344 1
924 1344 1
1355 1344 1
1372 1344 1
757 1345 1
780 1345 1
785 1345 1
805 1345 1
925 1345 1
942 1345 1
1373 1345 1
1384 1345 1
758 1346 1
781 1346 1
786 1346 1
806 1346 1
926 1346 1
943 1346 1
1374 1346 1
1385 1346 1
759 1347 1
782 1347 1
787 1347 1
807 1347 1
927 1347 1
944 1347 1
1375 1347 1
1386 1347 1
760 1348 1
783 1348 1
788 1348 1
808 1348 1
928 1348 1
945 1348 1
1376 1348 1
1387 1348 1
761 1349 1
784 1349 1
789 1349 1
809 1349 1
929 1349 1
946 1349 1
1377 1349 1
1388 1349 1
757 1350 1
762 1350 1
790 1350 1
810 1350 1
930 1350 1
947 1350 1
1378 1350 1
1389 1350 1
758 1351 1
763 1351 1
791 1351 1
811 1351 1
931 1351 1
948 1351 1
1379 1351 1
1390 1351 1
759 1352 1
764 1352 1
792 1352 1
812 1352 1
932 1352 1
949 1352 1
1380 1352 1
1391 1352 1
760 1353 1
765 1353 1
785 1353 1
793 1353 1
933 1353 1
950 1353 1
1381 1353 1
1392 1353 1
761 1354 1
766 1354 1
786 1354 1
794 1354 1
934 1354 1
951 1354 1
1382 1354 1
1393 1354 1
762 1355 1
767 1355 1
787 1355 1
795 1355 1
935 1355 1
952 1355 1
1383 1355 1
1394 1355 1
763 1356 1
768 1356 1
788 1356 1
796 1356 1
925 1356 1
936 1356 1
1384 1356 1
1395 1356 1
764 1357 1
769 1357 1
789 1357 1
797 1357 1
926 1357 1
937 1357 1
1385 1357 1
1396 1357 1
765 1358 1
770 1358 1
790 1358 1
798 1358 1
927 1358 1
938 1358 1
1386 1358 1
1397 1358 1
766 1359 1
771 1359 1
791 1359 1
799 1359 1
928 1359 1
939 1359 1
1387 1359 1
1398 1359 1
767 1360 1
772 1360 1
792 1360 1
800 1360 1
929 1360 1
940 1360 1
1388 1360 1
1399 1360 1
768 1361 1
773 1361 1
793 1361 1
801 1361 1
930 1361 1
941 1361 1
1389 1361 1
1400 1361 1
769 1362 1
774 1362 1
794 1362 1
802 1362 1
931 1362 1
942 1362 1
1373 1362 1
1390 1362 1
770 1363 1
775 1363 1
795 1363 1
803 1363 1
932 1363 1
943 1363 1
1374 1363 1
1391 1363 1
771 1364 1
776 1364 1
796 1364 1
804 1364 1
933 1364 1
944 1364 1
1375 1364 1
1392 1364 1
772 1365 1
777 1365 1
797 1365 1
805 1365 1
934 1365 1
945 1365 1
1376 1365 1
1393 1365 1
773 1366 1
778 1366 1
798 1366 1
806 1366 1
935 1366 1
946 1366 1
1377 1366 1
1394 1366 1
774 1367 1
779 1367 1
799 1367 1
807 1367 1
936 1367 1
947 1367 1
1378 1367 1
1395 1367 1
775 1368 1
780 1368 1
800 1368 1
808 1368 1
937 1368 1
948 1368 1
1379 1368 1
1396 1368 1
776 1369 1
781 1369 1
801 1369 1
809 1369 1
938 1369 1
949 1369 1
1380 1369 1
1397 1369 1
777 1370 1
782 1370 1
802 1370 1
810 1370 1
939 1370 1
950 1370 1
1381 1370 1
1398 1370 1
778 1371 1
783 1371 1
803 1371 1
811 1371 1
940 1371 1
951 1371 1
1382 1371 1
1399 1371 1
779 1372 1
784 1372 1
804 1372 1
812 1372 1
941 1372 1
952 1372 1
1383 1372 1
1400 1372 1
757 1373 1
783 1373 1
813 1373 1
833 1373 1
953 1373 1
970 1373 1
1401 1373 1
1412 1373 1
758 1374 1
784 1374 1
814 1374 1
834 1374 1
954 1374 1
971 1374 1
1402 1374 1
1413 1374 1
757 1375 1
759 1375 1
815 1375 1
835 1375 1
955 1375 1
972 1375 1
1403 1375 1
1414 1375 1
758 1376 1
760 1376 1
816 1376 1
836 1376 1
956 1376 1
973 1376 1
1404 1376 1
1415 1376 1
759 1377 1
761 1377 1
817 1377 1
837 1377 1
957 1377 1
974 1377 1
1405 1377 1
1416 1377 1
760 1378 1
762 1378 1
818 1378 1
838 1378 1
958 1378 1
975 1378 1
1406 1378 1
1417 1378 1
761 1379 1
763 1379 1
819 1379 1
839 1379 1
959 1379 1
976 1379 1
1407 1379 1
1418 1379 1
762 1380 1
764 1380 1
820 1380 1
840 1380 1
960 1380 1
977 1380 1
1408 1380 1
1419 1380 1
763 1381 1
765 1381 1
813 1381 1
821 1381 1
961 1381 1
978 1381 1
1409 1381 1
1420 1381 1
764 1382 1
766 1382 1
814 1382 1
822 1382 1
962 1382 1
979 1382 1
1410 1382 1
1421 1382 1
765 1383 1
767 1383 1
815 1383 1
823 1383 1
963 1383 1
980 1383 1
1411 1383 1
1422 1383 1
766 1384 1
768 1384 1
816 1384 1
824 1384 1
953 1384 1
964 1384 1
1412 1384 1
1423 1384 1
767 1385 1
769 1385 1
817 1385 1
825 1385 1
954 1385 1
965 1385 1
1413 1385 1
1424 1385 1
768 1386 1
770 1386 1
818 1386 1
826 1386 1
955 1386 1
966 1386 1
1414 1386 1
1425 1386 1
769 1387 1
771 1387 1
819 1387 1
827 1387 1
956 1387 1
967 1387 1
1415 1387 1
1426 1387 1
770 1388 1
772 1388 1
820 1388 1
828 1388 1
957 1388 1
968 1388 1
1416 1388 1
1427 1388 1
771 1389 1
773 1389 1
821 1389 1
829 1389 1
958 1389 1
969 1389 1
1417 1389 1
1428 1389 1
772 1390 1
774 1390 1
822 1390 1
830 1390 1
959 1390 1
970 1390 1
1401 1390 1
1418 1390 1
773 1391 1
775 1391 1
823 1391 1
831 1391 1
960 1391 1
971 1391 1
1402 1391 1
1419 1391 1
774 1392 1
776 1392 1
824 1392 1
832 1392 1
961 1392 1
972 1392 1
1403 1392 1
1420 1392 1
775 1393 1
777 1393 1
825 1393 1
833 1393 1
962 1393 1
973 1393 1
1404 1393 1
1421 1393 1
776 1394 1
778 1394 1
826 1394 1
834 1394 1
963 1394 1
974 1394 1
1405 1394 1
1422 1394 1
777 1395 1
779 1395 1
827 1395 1
835 1395 1
964 1395 1
975 1395 1
1406 1395 1
1423 1395 1
778 1396 1
780 1396 1
828 1396 1
836 1396 1
965 1396 1
976 1396 1
1407 1396 1
1424 1396 1
779 1397 1
781 1397 1
829 1397 1
837 1397 1
966 1397 1
977 1397 1
1408 1397 1
1425 1397 1
780 1398 1
782 1398 1
830 1398 1
838 1398 1
967 1398 1
978 1398 1
1409 1398 1
1426 1398 1
781 1399 1
783 1399 1
831 1399 1
839 1399 1
968 1399 1
979 1399 1
1410 1399 1
1427 1399 1
782 1400 1
784 1400 1
832 1400 1
840 1400 1
969 1400 1
980 1400 1
1411 1400 1
1428 1400 1
785 1401 1
811 1401 1
813 1401 1
836 1401 1
981 1401 1
998 1401 1
1429 1401 1
1440 1401 1
786 1402 1
812 1402 1
814 1402 1
837 1402 1
982 1402 1
999 1402 1
1430 1402 1
1441 1402 1
785 1403 1
787 1403 1
815 1403 1
838 1403 1
983 1403 1
1000 1403 1
1431 1403 1
1442 1403 1
786 1404 1
788 1404 1
816 1404 1
839 1404 1
984 1404 1
1001 1404 1
1432 1404 1
1443 1404 1
787 1405 1
789 1405 1
817 1405 1
840 1405 1
985 1405 1
1002 1405 1
1433 1405 1
1444 1405 1
788 1406 1
790 1406 1
813 1406 1
818 1406 1
986 1406 1
1003 1406 1
1434 1406 1
1445 1406 1
789 1407 1
791 1407 1
814 1407 1
819 1407 1
987 1407 1
1004 1407 1
1435 1407 1
1446 1407 1
790 1408 1
792 1408 1
815 1408 1
820 1408 1
988 1408 1
1005 1408 1
1436 1408 1
1447 1408 1
791 1409 1
793 1409 1
816 1409 1
821 1409 1
989 1409 1
1006 1409 1
1437 1409 1
1448 1409 1
792 1410 1
794 1410 1
817 1410 1
822 1410 1
990 1410 1
1007 1410 1
1438 1410 1
1449 1410 1
793 1411 1
795 1411 1
818 1411 1
823 1411 1
991 1411 1
1008 1411 1
1439 1411 1
1450 1411 1
794 1412 1
796 1412 1
819 1412 1
824 1412 1
981 1412 1
992 1412 1
1440 1412 1
1451 1412 1
795 1413 1
797 1413 1
820 1413 1
825 1413 1
982 1413 1
993 1413 1
1441 1413 1
1452 1413 1
796 1414 1
798 1414 1
821 1414 1
826 1414 1
983 1414 1
994 1414 1
1442 1414 1
1453 1414 1
797 1415 1
799 1415 1
822 1415 1
827 1415 1
984 1415 1
995 1415 1
1443 1415 1
1454 1415 1
798 1416 1
800 1416 1
823 1416 1
828 1416 1
985 1416 1
996 1416 1
1444 1416 1
1455 1416 1
799 1417 1
801 1417 1
824 1417 1
829 1417 1
986 1417 1
997 1417 1
1445 1417 1
1456 1417 1
800 1418 1
802 1418 1
825 1418 1
830 1418 1
987 1418 1
998 1418 1
1429 1418 1
1446 1418 1
801 1419 1
803 1419 1
826 1419 1
831 1419 1
988 1419 1
999 1419 1
1430 1419 1
1447 1419 1
802 1420 1
804 1420 1
827 1420 1
832 1420 1
989 1420 1
1000 1420 1
1431 1420 1
1448 1420 1
803 1421 1
805 1421 1
828 1421 1
833 1421 1
990 1421 1
1001 1421 1
1432 1421 1
1449 1421 1
804 1422 1
806 1422 1
829 1422 1
834 1422 1
991 1422 1
1002 1422 1
1433 1422 1
1450 1422 1
805 1423 1
807 1423 1
830 1423 1
835 1423 1
992 1423 1
1003 1423 1
1434 1423 1
1451 1423 1
806 1424 1
808 1424 1
831 1424 1
836 1424 1
993 1424 1
1004 1424 1
1435 1424 1
1452 1424 1
807 1425 1
809 1425 1
832 1425 1
837 1425 1
994 1425 1
1005 1425 1
1436 1425 1
1453 1425 1
808 1426 1
810 1426 1
833 1426 1
838 1426 1
995 1426 1
1006 1426 1
1437 1426 1
1454 1426 1
809 1427 1
811 1427 1
834 1427 1
839 1427 1
996 1427 1
1007 1427 1
1438 1427 1
1455 1427 1
810 1428 1
812 1428 1
835 1428 1
840 1428 1
997 1428 1
1008 1428 1
1439 1428 1
1456 1428 1
841 1429 1
864 1429 1
869 1429 1
889 1429 1
925 1429 1
943 1429 1
1457 1429 1
1468 1429 1
842 1430 1
865 1430 1
870 1430 1
890 1430 1
926 1430 1
944 1430 1
1458 1430 1
1469 1430 1
843 1431 1
866 1431 1
871 1431 1
891 1431 1
927 1431 1
945 1431 1
1459 1431 1
1470 1431 1
844 1432 1
867 1432 1
872 1432 1
892 1432 1
928 1432 1
946 1432 1
1460 1432 1
1471 1432 1
845 1433 1
868 1433 1
873 1433 1
893 1433 1
929 1433 1
947 1433 1
1461 1433 1
1472 1433 1
841 1434 1
846 1434 1
874 1434 1
894 1434 1
930 1434 1
948 1434 1
1462 1434 1
1473 1434 1
842 1435 1
847 1435 1
875 1435 1
895 1435 1
931 1435 1
949 1435 1
1463 1435 1
1474 1435 1
843 1436 1
848 1436 1
876 1436 1
896 1436 1
932 1436 1
950 1436 1
1464 1436 1
1475 1436 1
844 1437 1
849 1437 1
869 1437 1
877 1437 1
933 1437 1
951 1437 1
1465 1437 1
1476 1437 1
845 1438 1
850 1438 1
870 1438 1
878 1438 1
934 1438 1
952 1438 1
1466 1438 1
1477 1438 1
846 1439 1
851 1439 1
871 1439 1
879 1439 1
925 1439 1
935 1439 1
1467 1439 1
1478 1439 1
847 1440 1
852 1440 1
872 1440 1
880 1440 1
926 1440 1
936 1440 1
1468 1440 1
1479 1440 1
848 1441 1
853 1441 1
873 1441 1
881 1441 1
927 1441 1
937 1441 1
1469 1441 1
1480 1441 1
849 1442 1
854 1442 1
874 1442 1
882 1442 1
928 1442 1
938 1442 1
1470 1442 1
1481 1442 1
850 1443 1
855 1443 1
875 1443 1
883 1443 1
929 1443 1
939 1443 1
1471 1443 1
1482 1443 1
851 1444 1
856 1444 1
876 1444 1
884 1444 1
930 1444 1
940 1444 1
1472 1444 1
1483 1444 1
852 1445 1
857 1445 1
877 1445 1
885 1445 1
931 1445 1
941 1445 1
1473 1445 1
1484 1445 1
853 1446 1
858 1446 1
878 1446 1
886 1446 1
932 1446 1
942 1446 1
1457 1446 1
1474 1446 1
854 1447 1
859 1447 1
879 1447 1
887 1447 1
933 1447 1
943 1447 1
1458 1447 1
1475 1447 1
855 1448 1
860 1448 1
880 1448 1
888 1448 1
934 1448 1
944 1448 1
1459 1448 1
1476 1448 1
856 1449 1
861 1449 1
881 1449 1
889 1449 1
935 1449 1
945 1449 1
1460 1449 1
1477 1449 1
857 1450 1
862 1450 1
882 1450 1
890 1450 1
936 1450 1
946 1450 1
1461 1450 1
1478 1450 1
858 1451 1
863 1451 1
883 1451 1
891 1451 1
937 1451 1
947 1451 1
1462 1451 1
1479 1451 1
859 1452 1
864 1452 1
884 1452 1
892 1452 1
938 1452 1
948 1452 1
1463 1452 1
1480 1452 1
860 1453 1
865 1453 1
885 1453 1
893 1453 1
939 1453 1
949 1453 1
1464 1453 1
1481 1453 1
861 1454 1
866 1454 1
886 1454 1
894 1454 1
940 1454 1
950 1454 1
1465 1454 1
1482 1454 1
862 1455 1
867 1455 1
887 1455 1
895 1455 1
941 1455 1
951 1455 1
1466 1455 1
1483 1455 1
863 1456 1
868 1456 1
888 1456 1
896 1456 1
942 1456 1
952 1456 1
1467 1456 1
1484 1456 1
841 1457 1
867 1457 1
897 1457 1
917 1457 1
953 1457 1
971 1457 1
1485 1457 1
1496 1457 1
842 1458 1
868 1458 1
898 1458 1
918 1458 1
954 1458 1
972 1458 1
1486 1458 1
1497 1458 1
841 1459 1
843 1459 1
899 1459 1
919 1459 1
955 1459 1
973 1459 1
1487 1459 1
1498 1459 1
842 1460 1
844 1460 1
900 1460 1
920 1460 1
956 1460 1
974 1460 1
1488 1460 1
1499 1460 1
843 1461 1
845 1461 1
901 1461 1
921 1461 1
957 1461 1
975 1461 1
1489 1461 1
1500 1461 1
844 1462 1
846 1462 1
902 1462 1
922 1462 1
958 1462 1
976 1462 1
1490 1462 1
1501 1462 1
845 1463 1
847 1463 1
903 1463 1
923 1463 1
959 1463 1
977 1463 1
1491 1463 1
1502 1463 1
846 1464 1
848 1464 1
904 1464 1
924 1464 1
960 1464 1
978 1464 1
1492 1464 1
1503 1464 1
847 1465 1
849 1465 1
897 1465 1
905 1465 1
961 1465 1
979 1465 1
1493 1465 1
1504 1465 1
848 1466 1
850 1466 1
898 1466 1
906 1466 1
962 1466 1
980 1466 1
1494 1466 1
1505 1466 1
849 1467 1
851 1467 1
899 1467 1
907 1467 1
953 1467 1
963 1467 1
1495 1467 1
1506 1467 1
850 1468 1
852 1468 1
900 1468 1
908 1468 1
954 1468 1
964 1468 1
1496 1468 1
1507 1468 1
851 1469 1
853 1469 1
901 1469 1
909 1469 1
955 1469 1
965 1469 1
1497 1469 1
1508 1469 1
852 1470 1
854 1470 1
902 1470 1
910 1470 1
956 1470 1
966 1470 1
1498 1470 1
1509 1470 1
853 1471 1
855 1471 1
903 1471 1
911 1471 1
957 1471 1
967 1471 1
1499 1471 1
1510 1471 1
854 1472 1
856 1472 1
904 1472 1
912 1472 1
958 1472 1
968 1472 1
1500 1472 1
1511 1472 1
855 1473 1
857 1473 1
905 1473 1
913 1473 1
959 1473 1
969 1473 1
1501 1473 1
1512 1473 1
856 1474 1
858 1474 1
906 1474 1
914 1474 1
960 1474 1
970 1474 1
1485 1474 1
1502 1474 1
857 1475 1
859 1475 1
907 1475 1
915 1475 1
961 1475 1
971 1475 1
1486 1475 1
1503 1475 1
858 1476 1
860 1476 1
908 1476 1
916 1476 1
962 1476 1
972 1476 1
1487 1476 1
1504 1476 1
859 1477 1
861 1477 1
909 1477 1
917 1477 1
963 1477 1
973 1477 1
1488 1477 1
1505 1477 1
860 1478 1
862 1478 1
910 1478 1
918 1478 1
964 1478 1
974 1478 1
1489 1478 1
1506 1478 1
861 1479 1
863 1479 1
911 1479 1
919 1479 1
965 1479 1
975 1479 1
1490 1479 1
1507 1479 1
862 1480 1
864 1480 1
912 1480 1
920 1480 1
966 1480 1
976 1480 1
1491 1480 1
1508 1480 1
863 1481 1
865 1481 1
913 1481 1
921 1481 1
967 1481 1
977 1481 1
1492 1481 1
1509 1481 1
864 1482 1
866 1482 1
914 1482 1
922 1482 1
968 1482 1
978 1482 1
1493 1482 1
1510 1482 1
865 1483 1
867 1483 1
915 1483 1
923 1483 1
969 1483 1
979 1483 1
1494 1483 1
1511 1483 1
866 1484 1
868 1484 1
916 1484 1
924 1484 1
970 1484 1
980 1484 1
1495 1484 1
1512 1484 1
869 1485 1
895 1485 1
897 1485 1
920 1485 1
981 1485 1
999 1485 1
1513 1485 1
1524 1485 1
870 1486 1
896 1486 1
898 1486 1
921 1486 1
982 1486 1
1000 1486 1
1514 1486 1
1525 1486 1
869 1487 1
871 1487 1
899 1487 1
922 1487 1
983 1487 1
1001 1487 1
1515 1487 1
1526 1487 1
870 1488 1
872 1488 1
900 1488 1
923 1488 1
984 1488 1
1002 1488 1
1516 1488 1
1527 1488 1
871 1489 1
873 1489 1
901 1489 1
924 1489 1
985 1489 1
1003 1489 1
1517 1489 1
1528 1489 1
872 1490 1
874 1490 1
897 1490 1
902 1490 1
986 1490 1
1004 1490 1
1518 1490 1
1529 1490 1
873 1491 1
875 1491 1
898 1491 1
903 1491 1
987 1491 1
1005 1491 1
1519 1491 1
1530 1491 1
874 1492 1
876 1492 1
899 1492 1
904 1492 1
988 1492 1
1006 1492 1
1520 1492 1
1531 1492 1
875 1493 1
877 1493 1
900 1493 1
905 1493 1
989 1493 1
1007 1493 1
1521 1493 1
1532 1493 1
876 1494 1
878 1494 1
901 1494 1
906 1494 1
990 1494 1
1008 1494 1
1522 1494 1
1533 1494 1
877 1495 1
879 1495 1
902 1495 1
907 1495 1
981 1495 1
991 1495 1
1523 1495 1
1534 1495 1
878 1496 1
880 1496 1
903 1496 1
908 1496 1
982 1496 1
992 1496 1
1524 1496 1
1535 1496 1
879 1497 1
881 1497 1
904 1497 1
909 1497 1
983 1497 1
993 1497 1
1525 1497 1
1536 1497 1
880 1498 1
882 1498 1
905 1498 1
910 1498 1
984 1498 1
994 1498 1
1526 1498 1
1537 1498 1
881 1499 1
883 1499 1
906 1499 1
911 1499 1
985 1499 1
995 1499 1
1527 1499 1
1538 1499 1
882 1500 1
884 1500 1
907 1500 1
912 1500 1
986 1500 1
996 1500 1
1528 1500 1
1539 1500 1
883 1501 1
885 1501 1
908 1501 1
913 1501 1
987 1501 1
997 1501 1
1529 1501 1
1540 1501 1
884 1502 1
886 1502 1
909 1502 1
914 1502 1
988 1502 1
998 1502 1
1513 1502 1
1530 1502 1
885 1503 1
887 1503 1
910 1503 1
915 1503 1
989 1503 1
999 1503 1
1514 1503 1
1531 1503 1
886 1504 1
888 1504 1
911 1504 1
916 1504 1
990 1504 1
1000 1504 1
1515 1504 1
1532 1504 1
887 1505 1
889 1505 1
912 1505 1
917 1505 1
991 1505 1
1001 1505 1
1516 1505 1
1533 1505 1
888 1506 1
890 1506 1
913 1506 1
918 1506 1
992 1506 1
1002 1506 1
1517 1506 1
1534 1506 1
889 1507 1
891 1507 1
914 1507 1
919 1507 1
993 1507 1
1003 1507 1
1518 1507 1
1535 1507 1
890 1508 1
892 1508 1
915 1508 1
920 1508 1
994 1508 1
1004 1508 1
1519 1508 1
1536 1508 1
891 1509 1
893 1509 1
916 1509 1
921 1509 1
995 1509 1
1005 1509 1
1520 1509 1
1537 1509 1
892 1510 1
894 1510 1
917 1510 1
922 1510 1
996 1510 1
1006 1510 1
1521 1510 1
1538 1510 1
893 1511 1
895 1511 1
918 1511 1
923 1511 1
997 1511 1
1007 1511 1
1522 1511 1
1539 1511 1
894 1512 1
896 1512 1
919 1512 1
924 1512 1
998 1512 1
1008 1512 1
1523 1512 1
1540 1512 1
925 1513 1
951 1513 1
953 1513 1
976 1513 1
981 1513 1
1001 1513 1
1541 1513 1
1552 1513 1
926 1514 1
952 1514 1
954 1514 1
977 1514 1
982 1514 1
1002 1514 1
1542 1514 1
1553 1514 1
925 1515 1
927 1515 1
955 1515 1
978 1515 1
983 1515 1
1003 1515 1
1543 1515 1
1554 1515 1
926 1516 1
928 1516 1
956 1516 1
979 1516 1
984 1516 1
1004 1516 1
1544 1516 1
1555 1516 1
927 1517 1
929 1517 1
957 1517 1
980 1517 1
985 1517 1
1005 1517 1
1545 1517 1
1556 1517 1
928 1518 1
930 1518 1
953 1518 1
958 1518 1
986 1518 1
1006 1518 1
1546 1518 1
1557 1518 1
929 1519 1
931 1519 1
954 1519 1
959 1519 1
987 1519 1
1007 1519 1
1547 1519 1
1558 1519 1
930 1520 1
932 1520 1
955 1520 1
960 1520 1
988 1520 1
1008 1520 1
1548 1520 1
1559 1520 1
931 1521 1
933 1521 1
956 1521 1
961 1521 1
981 1521 1
989 1521 1
1549 1521 1
1560 1521 1
932 1522 1
934 1522 1
957 1522 1
962 1522 1
982 1522 1
990 1522 1
1550 1522 1
1561 1522 1
933 1523 1
935 1523 1
958 1523 1
963 1523 1
983 1523 1
991 1523 1
1551 1523 1
1562 1523 1
934 1524 1
936 1524 1
959 1524 1
964 1524 1
984 1524 1
992 1524 1
1552 1524 1
1563 1524 1
935 1525 1
937 1525 1
960 1525 1
965 1525 1
985 1525 1
993 1525 1
1553 1525 1
1564 1525 1
936 1526 1
938 1526 1
961 1526 1
966 1526 1
986 1526 1
994 1526 1
1554 1526 1
1565 1526 1
937 1527 1
939 1527 1
962 1527 1
967 1527 1
987 1527 1
995 1527 1
1555 1527 1
1566 1527 1
938 1528 1
940 1528 1
963 1528 1
968 1528 1
988 1528 1
996 1528 1
1556 1528 1
1567 1528 1
939 1529 1
941 1529 1
964 1529 1
969 1529 1
989 1529 1
997 1529 1
1557 1529 1
1568 1529 1
940 1530 1
942 1530 1
965 1530 1
970 1530 1
990 1530 1
998 1530 1
1541 1530 1
1558 1530 1
941 1531 1
943 1531 1
966 1531 1
971 1531 1
991 1531 1
999 1531 1
1542 1531 1
1559 1531 1
942 1532 1
944 1532 1
967 1532 1
972 1532 1
992 1532 1
1000 1532 1
1543 1532 1
1560 1532 1
943 1533 1
945 1533 1
968 1533 1
973 1533 1
993 1533 1
1001 1533 1
1544 1533 1
1561 1533 1
944 1534 1
946 1534 1
969 1534 1
974 1534 1
994 1534 1
1002 1534 1
1545 1534 1
1562 1534 1
945 1535 1
947 1535 1
970 1535 1
975 1535 1
995 1535 1
1003 1535 1
1546 1535 1
1563 1535 1
946 1536 1
948 1536 1
971 1536 1
976 1536 1
996 1536 1
1004 1536 1
1547 1536 1
1564 1536 1
947 1537 1
949 1537 1
972 1537 1
977 1537 1
997 1537 1
1005 1537 1
1548 1537 1
1565 1537 1
948 1538 1
950 1538 1
973 1538 1
978 1538 1
998 1538 1
1006 1538 1
1549 1538 1
1566 1538 1
949 1539 1
951 1539 1
974 1539 1
979 1539 1
999 1539 1
1007 1539 1
1550 1539 1
1567 1539 1
950 1540 1
952 1540 1
975 1540 1
980 1540 1
1000 1540 1
1008 1540 1
1551 1540 1
1568 1540 1
1009 1541 1
1029 1541 1
1037 1541 1
1055 1541 1
1121 1541 1
1138 1541 1
1289 1541 1
1301 1541 1
1010 1542 1
1030 1542 1
1038 1542 1
1056 1542 1
1122 1542 1
1139 1542 1
1290 1542 1
1302 1542 1
1011 1543 1
1031 1543 1
1039 1543 1
1057 1543 1
1123 1543 1
1140 1543 1
1291 1543 1
1303 1543 1
1012 1544 1
1032 1544 1
1040 1544 1
1058 1544 1
1124 1544 1
1141 1544 1
1292 1544 1
1304 1544 1
1013 1545 1
1033 1545 1
1041 1545 1
1059 1545 1
1125 1545 1
1142 1545 1
1293 1545 1
1305 1545 1
1014 1546 1
1034 1546 1
1042 1546 1
1060 1546 1
1126 1546 1
1143 1546 1
1294 1546 1
1306 1546 1
1015 1547 1
1035 1547 1
1043 1547 1
1061 1547 1
1127 1547 1
1144 1547 1
1295 1547 1
1307 1547 1
1016 1548 1
1036 1548 1
1044 1548 1
1062 1548 1
1128 1548 1
1145 1548 1
1296 1548 1
1308 1548 1
1009 1549 1
1017 1549 1
1045 1549 1
1063 1549 1
1129 1549 1
1146 1549 1
1297 1549 1
1309 1549 1
1010 1550 1
1018 1550 1
1046 1550 1
1064 1550 1
1130 1550 1
1147 1550 1
1298 1550 1
1310 1550 1
1011 1551 1
1019 1551 1
1037 1551 1
1047 1551 1
1131 1551 1
1148 1551 1
1299 1551 1
1311 1551 1
1012 1552 1
1020 1552 1
1038 1552 1
1048 1552 1
1121 1552 1
1132 1552 1
1300 1552 1
1312 1552 1
1013 1553 1
1021 1553 1
1039 1553 1
1049 1553 1
1122 1553 1
1133 1553 1
1301 1553 1
1313 1553 1
1014 1554 1
1022 1554 1
1040 1554 1
1050 1554 1
1123 1554 1
1134 1554 1
1302 1554 1
1314 1554 1
1015 1555 1
1023 1555 1
1041 1555 1
1051 1555 1
1124 1555 1
1135 1555 1
1303 1555 1
1315 1555 1
1016 1556 1
1024 1556 1
1042 1556 1
1052 1556 1
1125 1556 1
1136 1556 1
1304 1556 1
1316 1556 1
1017 1557 1
1025 1557 1
1043 1557 1
1053 1557 1
1126 1557 1
1137 1557 1
1289 1557 1
1305 1557 1
1018 1558 1
1026 1558 1
1044 1558 1
1054 1558 1
1127 1558 1
1138 1558 1
1290 1558 1
1306 1558 1
1019 1559 1
1027 1559 1
1045 1559 1
1055 1559 1
1128 1559 1
1139 1559 1
1291 1559 1
1307 1559 1
1020 1560 1
1028 1560 1
1046 1560 1
1056 1560 1
1129 1560 1
1140 1560 1
1292 1560 1
1308 1560 1
1021 1561 1
1029 1561 1
1047 1561 1
1057 1561 1
1130 1561 1
1141 1561 1
1293 1561 1
1309 1561 1
1022 1562 1
1030 1562 1
1048 1562 1
1058 1562 1
1131 1562 1
1142 1562 1
1294 1562 1
1310 1562 1
1023 1563 1
1031 1563 1
1049 1563 1
1059 1563 1
1132 1563 1
1143 1563 1
1295 1563 1
1311 1563 1
1024 1564 1
1032 1564 1
1050 1564 1
1060 1564 1
1133 1564 1
1144 1564 1
1296 1564 1
1312 1564 1
1025 1565 1
1033 1565 1
1051 1565 1
1061 1565 1
1134 1565 1
1145 1565 1
1297 1565 1
1313 1565 1
1026 1566 1
1034 1566 1
1052 1566 1
1062 1566 1
1135 1566 1
1146 1566 1
1298 1566 1
1314 1566 1
1027 1567 1
1035 1567 1
1053 1567 1
1063 1567 1
1136 1567 1
1147 1567 1
1299 1567 1
1315 1567 1
1028 1568 1
1036 1568 1
1054 1568 1
1064 1568 1
1137 1568 1
1148 1568 1
1300 1568 1
1316 1568 1
1009 1569 1
1032 1569 1
1065 1569 1
1083 1569 1
1149 1569 1
1166 1569 1
1317 1569 1
1329 1569 1
1010 1570 1
1033 1570 1
1066 1570 1
1084 1570 1
1150 1570 1
1167 1570 1
1318 1570 1
1330 1570 1
1011 1571 1
1034 1571 1
1067 1571 1
1085 1571 1
1151 1571 1
1168 1571 1
1319 1571 1
1331 1571 1
1012 1572 1
1035 1572 1
1068 1572 1
1086 1572 1
1152 1572 1
1169 1572 1
1320 1572 1
1332 1572 1
1013 1573 1
1036 1573 1
1069 1573 1
1087 1573 1
1153 1573 1
1170 1573 1
1321 1573 1
1333 1573 1
1009 1574 1
1014 1574 1
1070 1574 1
1088 1574 1
1154 1574 1
1171 1574 1
1322 1574 1
1334 1574 1
1010 1575 1
1015 1575 1
1071 1575 1
1089 1575 1
1155 1575 1
1172 1575 1
1323 1575 1
1335 1575 1
1011 1576 1
1016 1576 1
1072 1576 1
1090 1576 1
1156 1576 1
1173 1576 1
1324 1576 1
1336 1576 1
1012 1577 1
1017 1577 1
1073 1577 1
1091 1577 1
1157 1577 1
1174 1577 1
1325 1577 1
1337 1577 1
1013 1578 1
1018 1578 1
1074 1578 1
1092 1578 1
1158 1578 1
1175 1578 1
1326 1578 1
1338 1578 1
1014 1579 1
1019 1579 1
1065 1579 1
1075 1579 1
1159 1579 1
1176 1579 1
1327 1579 1
1339 1579 1
1015 1580 1
1020 1580 1
1066 1580 1
1076 1580 1
1149 1580 1
1160 1580 1
1328 1580 1
1340 1580 1
1016 1581 1
1021 1581 1
1067 1581 1
1077 1581 1
1150 1581 1
1161 1581 1
1329 1581 1
1341 1581 1
1017 1582 1
1022 1582 1
1068 1582 1
1078 1582 1
1151 1582 1
1162 1582 1
1330 1582 1
1342 1582 1
1018 1583 1
1023 1583 1
1069 1583 1
1079 1583 1
1152 1583 1
1163 1583 1
1331 1583 1
1343 1583 1
1019 1584 1
1024 1584 1
1070 1584 1
1080 1584 1
1153 1584 1
1164 1584 1
1332 1584 1
1344 1584 1
1020 1585 1
1025 1585 1
1071 1585 1
1081 1585 1
1154 1585 1
1165 1585 1
1317 1585 1
1333 1585 1
1021 1586 1
1026 1586 1
1072 1586 1
1082 1586 1
1155 1586 1
1166 1586 1
1318 1586 1
1334 1586 1
1022 1587 1
1027 1587 1
1073 1587 1
1083 1587 1
1156 1587 1
1167 1587 1
1319 1587 1
1335 1587 1
1023 1588 1
1028 1588 1
1074 1588 1
1084 1588 1
1157 1588 1
1168 1588 1
1320 1588 1
1336 1588 1
1024 1589 1
1029 1589 1
1075 1589 1
1085 1589 1
1158 1589 1
1169 1589 1
1321 1589 1
1337 1589 1
1025 1590 1
1030 1590 1
1076 1590 1
1086 1590 1
1159 1590 1
1170 1590 1
1322 1590 1
1338 1590 1
1026 1591 1
1031 1591 1
1077 1591 1
1087 1591 1
1160 1591 1
1171 1591 1
1323 1591 1
1339 1591 1
1027 1592 1
1032 1592 1
1078 1592 1
1088 1592 1
1161 1592 1
1172 1592 1
1324 1592 1
1340 1592 1
1028 1593 1
1033 1593 1
1079 1593 1
1089 1593 1
1162 1593 1
1173 1593 1
1325 1593 1
1341 1593 1
1029 1594 1
1034 1594 1
1080 1594 1
1090 1594 1
1163 1594 1
1174 1594 1
1326 1594 1
1342 1594 1
1030 1595 1
1035 1595 1
1081 1595 1
1091 1595 1
1164 1595 1
1175 1595 1
1327 1595 1
1343 1595 1
1031 1596 1
1036 1596 1
1082 1596 1
1092 1596 1
1165 1596 1
1176 1596 1
1328 1596 1
1344 1596 1
1009 1597 1
1035 1597 1
1093 1597 1
1111 1597 1
1177 1597 1
1194 1597 1
1345 1597 1
1357 1597 1
1010 1598 1
1036 1598 1
1094 1598 1
1112 1598 1
1178 1598 1
1195 1598 1
1346 1598 1
1358 1598 1
1009 1599 1
1011 1599 1
1095 1599 1
1113 1599 1
1179 1599 1
1196 1599 1
1347 1599 1
1359 1599 1
1010 1600 1
1012 1600 1
1096 1600 1
1114 1600 1
1180 1600 1
1197 1600 1
1348 1600 1
1360 1600 1
1011 1601 1
1013 1601 1
1097 1601 1
1115 1601 1
1181 1601 1
1198 1601 1
1349 1601 1
1361 1601 1
1012 1602 1
1014 1602 1
1098 1602 1
1116 1602 1
1182 1602 1
1199 1602 1
1350 1602 1
1362 1602 1
1013 1603 1
1015 1603 1
1099 1603 1
1117 1603 1
1183 1603 1
1200 1603 1
1351 1603 1
1363 1603 1
1014 1604 1
1016 1604 1
1100 1604 1
1118 1604 1
1184 1604 1
1201 1604 1
1352 1604 1
1364 1604 1
1015 1605 1
1017 1605 1
1101 1605 1
1119 1605 1
1185 1605 1
1202 1605 1
1353 1605 1
1365 1605 1
1016 1606 1
1018 1606 1
1102 1606 1
1120 1606 1
1186 1606 1
1203 1606 1
1354 1606 1
1366 1606 1
1017 1607 1
1019 1607 1
1093 1607 1
1103 1607 1
1187 1607 1
1204 1607 1
1355 1607 1
1367 1607 1
1018 1608 1
1020 1608 1
1094 1608 1
1104 1608 1
1177 1608 1
1188 1608 1
1356 1608 1
1368 1608 1
1019 1609 1
1021 1609 1
1095 1609 1
1105 1609 1
1178 1609 1
1189 1609 1
1357 1609 1
1369 1609 1
1020 1610 1
1022 1610 1
1096 1610 1
1106 1610 1
1179 1610 1
1190 1610 1
1358 1610 1
1370 1610 1
1021 1611 1
1023 1611 1
1097 1611 1
1107 1611 1
1180 1611 1
1191 1611 1
1359 1611 1
1371 1611 1
1022 1612 1
1024 1612 1
1098 1612 1
1108 1612 1
1181 1612 1
1192 1612 1
1360 1612 1
1372 1612 1
1023 1613 1
1025 1613 1
1099 1613 1
1109 1613 1
1182 1613 1
1193 1613 1
1345 1613 1
1361 1613 1
1024 1614 1
1026 1614 1
1100 1614 1
1110 1614 1
1183 1614 1
1194 1614 1
1346 1614 1
1362 1614 1
1025 1615 1
1027 1615 1
1101 1615 1
1111 1615 1
1184 1615 1
1195 1615 1
1347 1615 1
1363 1615 1
1026 1616 1
1028 1616 1
1102 1616 1
1112 1616 1
1185 1616 1
1196 1616 1
1348 1616 1
1364 1616 1
1027 1617 1
1029 1617 1
1103 1617 1
1113 1617 1
1186 1617 1
1197 1617 1
1349 1617 1
1365 1617 1
1028 1618 1
1030 1618 1
1104 1618 1
1114 1618 1
1187 1618 1
1198 1618 1
1350 1618 1
1366 1618 1
1029 1619 1
1031 1619 1
1105 1619 1
1115 1619 1
1188 1619 1
1199 1619 1
1351 1619 1
1367 1619 1
1030 1620 1
1032 1620 1
1106 1620 1
1116 1620 1
1189 1620 1
1200 1620 1
1352 1620 1
1368 1620 1
1031 1621 1
1033 1621 1
1107 1621 1
1117 1621 1
1190 1621 1
1201 1621 1
1353 1621 1
1369 1621 1
1032 1622 1
1034 1622 1
1108 1622 1
1118 1622 1
1191 1622 1
1202 1622 1
1354 1622 1
1370 1622 1
1033 1623 1
1035 1623 1
1109 1623 1
1119 1623 1
1192 1623 1
1203 1623 1
1355 1623 1
1371 1623 1
1034 1624 1
1036 1624 1
1110 1624 1
1120 1624 1
1193 1624 1
1204 1624 1
1356 1624 1
1372 1624 1
1037 1625 1
1060 1625 1
1065 1625 1
1085 1625 1
1205 1625 1
1222 1625 1
1373 1625 1
1385 1625 1
1038 1626 1
1061 1626 1
1066 1626 1
1086 1626 1
1206 1626 1
1223 1626 1
1374 1626 1
1386 1626 1
1039 1627 1
1062 1627 1
1067 1627 1
1087 1627 1
1207 1627 1
1224 1627 1
1375 1627 1
1387 1627 1
1040 1628 1
1063 1628 1
1068 1628 1
1088 1628 1
1208 1628 1
1225 1628 1
1376 1628 1
1388 1628 1
1041 1629 1
1064 1629 1
1069 1629 1
1089 1629 1
1209 1629 1
1226 1629 1
1377 1629 1
1389 1629 1
1037 1630 1
1042 1630 1
1070 1630 1
1090 1630 1
1210 1630 1
1227 1630 1
1378 1630 1
1390 1630 1
1038 1631 1
1043 1631 1
1071 1631 1
1091 1631 1
1211 1631 1
1228 1631 1
1379 1631 1
1391 1631 1
1039 1632 1
1044 1632 1
1072 1632 1
1092 1632 1
1212 1632 1
1229 1632 1
1380 1632 1
1392 1632 1
1040 1633 1
1045 1633 1
1065 1633 1
1073 1633 1
1213 1633 1
1230 1633 1
1381 1633 1
1393 1633 1
1041 1634 1
1046 1634 1
1066 1634 1
1074 1634 1
1214 1634 1
1231 1634 1
1382 1634 1
1394 1634 1
1042 1635 1
1047 1635 1
1067 1635 1
1075 1635 1
1215 1635 1
1232 1635 1
1383 1635 1
1395 1635 1
1043 1636 1
1048 1636 1
1068 1636 1
1076 1636 1
1205 1636 1
1216 1636 1
1384 1636 1
1396 1636 1
1044 1637 1
1049 1637 1
1069 1637 1
1077 1637 1
1206 1637 1
1217 1637 1
1385 1637 1
1397 1637 1
1045 1638 1
1050 1638 1
1070 1638 1
1078 1638 1
1207 1638 1
1218 1638 1
1386 1638 1
1398 1638 1
1046 1639 1
1051 1639 1
1071 1639 1
1079 1639 1
1208 1639 1
1219 1639 1
1387 1639 1
1399 1639 1
1047 1640 1
1052 1640 1
1072 1640 1
1080 1640 1
1209 1640 1
1220 1640 1
1388 1640 1
1400 1640 1
1048 1641 1
1053 1641 1
1073 1641 1
1081 1641 1
1210 1641 1
1221 1641 1
1373 1641 1
1389 1641 1
1049 1642 1
1054 1642 1
1074 1642 1
1082 1642 1
1211 1642 1
1222 1642 1
1374 1642 1
1390 1642 1
1050 1643 1
1055 1643 1
1075 1643 1
1083 1643 1
1212 1643 1
1223 1643 1
1375 1643 1
1391 1643 1
1051 1644 1
1056 1644 1
1076 1644 1
1084 1644 1
1213 1644 1
1224 1644 1
1376 1644 1
1392 1644 1
1052 1645 1
1057 1645 1
1077 1645 1
1085 1645 1
1214 1645 1
1225 1645 1
1377 1645 1
1393 1645 1
1053 1646 1
1058 1646 1
1078 1646 1
1086 1646 1
1215 1646 1
1226 1646 1
1378 1646 1
1394 1646 1
1054 1647 1
1059 1647 1
1079 1647 1
1087 1647 1
1216 1647 1
1227 1647 1
1379 1647 1
1395 1647 1
1055 1648 1
1060 1648 1
1080 1648 1
1088 1648 1
1217 1648 1
1228 1648 1
1380 1648 1
1396 1648 1
1056 1649 1
1061 1649 1
1081 1649 1
1089 1649 1
1218 1649 1
1229 1649 1
1381 1649 1
1397 1649 1
1057 1650 1
1062 1650 1
1082 1650 1
1090 1650 1
1219 1650 1
1230 1650 1
1382 1650 1
1398 1650 1
1058 1651 1
1063 1651 1
1083 1651 1
1091 1651 1
1220 1651 1
1231 1651 1
1383 1651 1
1399 1651 1
1059 1652 1
1064 1652 1
1084 1652 1
1092 1652 1
1221 1652 1
1232 1652 1
1384 1652 1
1400 1652 1
1037 1653 1
1063 1653 1
1093 1653 1
1113 1653 1
1233 1653 1
1250 1653 1
1401 1653 1
1413 1653 1
1038 1654 1
1064 1654 1
1094 1654 1
1114 1654 1
1234 1654 1
1251 1654 1
1402 1654 1
1414 1654 1
1037 1655 1
1039 1655 1
1095 1655 1
1115 1655 1
1235 1655 1
1252 1655 1
1403 1655 1
1415 1655 1
1038 1656 1
1040 1656 1
1096 1656 1
1116 1656 1
1236 1656 1
1253 1656 1
1404 1656 1
1416 1656 1
1039 1657 1
1041 1657 1
1097 1657 1
1117 1657 1
1237 1657 1
1254 1657 1
1405 1657 1
1417 1657 1
1040 1658 1
1042 1658 1
1098 1658 1
1118 1658 1
1238 1658 1
1255 1658 1
1406 1658 1
1418 1658 1
1041 1659 1
1043 1659 1
1099 1659 1
1119 1659 1
1239 1659 1
1256 1659 1
1407 1659 1
1419 1659 1
1042 1660 1
1044 1660 1
1100 1660 1
1120 1660 1
1240 1660 1
1257 1660 1
1408 1660 1
1420 1660 1
1043 1661 1
1045 1661 1
1093 1661 1
1101 1661 1
1241 1661 1
1258 1661 1
1409 1661 1
1421 1661 1
1044 1662 1
1046 1662 1
1094 1662 1
1102 1662 1
1242 1662 1
1259 1662 1
1410 1662 1
1422 1662 1
1045 1663 1
1047 1663 1
1095 1663 1
1103 1663 1
1243 1663 1
1260 1663 1
1411 1663 1
1423 1663 1
1046 1664 1
1048 1664 1
1096 1664 1
1104 1664 1
1233 1664 1
1244 1664 1
1412 1664 1
1424 1664 1
1047 1665 1
1049 1665 1
1097 1665 1
1105 1665 1
1234 1665 1
1245 1665 1
1413 1665 1
1425 1665 1
1048 1666 1
1050 1666 1
1098 1666 1
1106 1666 1
1235 1666 1
1246 1666 1
1414 1666 1
1426 1666 1
1049 1667 1
1051 1667 1
1099 1667 1
1107 1667 1
1236 1667 1
1247 1667 1
1415 1667 1
1427 1667 1
1050 1668 1
1052 1668 1
1100 1668 1
1108 1668 1
1237 1668 1
1248 1668 1
1416 1668 1
1428 1668 1
1051 1669 1
1053 1669 1
1101 1669 1
1109 1669 1
1238 1669 1
1249 1669 1
1401 1669 1
1417 1669 1
1052 1670 1
1054 1670 1
1102 1670 1
1110 1670 1
1239 1670 1
1250 1670 1
1402 1670 1
1418 1670 1
1053 1671 1
1055 1671 1
1103 1671 1
1111 1671 1
1240 1671 1
1251 1671 1
1403 1671 1
1419 1671 1
1054 1672 1
1056 1672 1
1104 1672 1
1112 1672 1
1241 1672 1
1252 1672 1
1404 1672 1
1420 1672 1
1055 1673 1
1057 1673 1
1105 1673 1
1113 1673 1
1242 1673 1
1253 1673 1
1405 1673 1
1421 1673 1
1056 1674 1
1058 1674 1
1106 1674 1
1114 1674 1
1243 1674 1
1254 1674 1
1406 1674 1
1422 1674 1
1057 1675 1
1059 1675 1
1107 1675 1
1115 1675 1
1244 1675 1
1255 1675 1
1407 1675 1
1423 1675 1
1058 1676 1
1060 1676 1
1108 1676 1
1116 1676 1
1245 1676 1
1256 1676 1
1408 1676 1
1424 1676 1
1059 1677 1
1061 1677 1
1109 1677 1
1117 1677 1
1246 1677 1
1257 1677 1
1409 1677 1
1425 1677 1
1060 1678 1
1062 1678 1
1110 1678 1
1118 1678 1
1247 1678 1
1258 1678 1
1410 1678 1
1426 1678 1
1061 1679 1
1063 1679 1
1111 1679 1
1119 1679 1
1248 1679 1
1259 1679 1
1411 1679 1
1427 1679 1
1062 1680 1
1064 1680 1
1112 1680 1
1120 1680 1
1249 1680 1
1260 1680 1
1412 1680 1
1428 1680 1
1065 1681 1
1091 1681 1
1093 1681 1
1116 1681 1
1261 1681 1
1278 1681 1
1429 1681 1
1441 1681 1
1066 1682 1
1092 1682 1
1094 1682 1
1117 1682 1
1262 1682 1
1279 1682 1
1430 1682 1
1442 1682 1
1065 1683 1
1067 1683 1
1095 1683 1
1118 1683 1
1263 1683 1
1280 1683 1
1431 1683 1
1443 1683 1
1066 1684 1
1068 1684 1
1096 1684 1
1119 1684 1
1264 1684 1
1281 1684 1
1432 1684 1
1444 1684 1
1067 1685 1
1069 1685 1
1097 1685 1
1120 1685 1
1265 1685 1
1282 1685 1
1433 1685 1
1445 1685 1
1068 1686 1
1070 1686 1
1093 1686 1
1098 1686 1
1266 1686 1
1283 1686 1
1434 1686 1
1446 1686 1
1069 1687 1
1071 1687 1
1094 1687 1
1099 1687 1
1267 1687 1
1284 1687 1
1435 1687 1
1447 1687 1
1070 1688 1
1072 1688 1
1095 1688 1
1100 1688 1
1268 1688 1
1285 1688 1
1436 1688 1
1448 1688 1
1071 1689 1
1073 1689 1
1096 1689 1
1101 1689 1
1269 1689 1
1286 1689 1
1437 1689 1
1449 1689 1
1072 1690 1
1074 1690 1
1097 1690 1
1102 1690 1
1270 1690 1
1287 1690 1
1438 1690 1
1450 1690 1
1073 1691 1
1075 1691 1
1098 1691 1
1103 1691 1
1271 1691 1
1288 1691 1
1439 1691 1
1451 1691 1
1074 1692 1
1076 1692 1
1099 1692 1
1104 1692 1
1261 1692 1
1272 1692 1
1440 1692 1
1452 1692 1
1075 1693 1
1077 1693 1
1100 1693 1
1105 1693 1
1262 1693 1
1273 1693 1
1441 1693 1
1453 1693 1
1076 1694 1
1078 1694 1
1101 1694 1
1106 1694 1
1263 1694 1
1274 1694 1
1442 1694 1
1454 1694 1
1077 1695 1
1079 1695 1
1102 1695 1
1107 1695 1
1264 1695 1
1275 1695 1
1443 1695 1
1455 1695 1
1078 1696 1
1080 1696 1
1103 1696 1
1108 1696 1
1265 1696 1
1276 1696 1
1444 1696 1
1456 1696 1
1079 1697 1
1081 1697 1
1104 1697 1
1109 1697 1
1266 1697 1
1277 1697 1
1429 1697 1
1445 1697 1
1080 1698 1
1082 1698 1
1105 1698 1
1110 1698 1
1267 1698 1
1278 1698 1
1430 1698 1
1446 1698 1
1081 1699 1
1083 1699 1
1106 1699 1
1111 1699 1
1268 1699 1
1279 1699 1
1431 1699 1
1447 1699 1
1082 1700 1
1084 1700 1
1107 1700 1
1112 1700 1
1269 1700 1
1280 1700 1
1432 1700 1
1448 1700 1
1083 1701 1
1085 1701 1
1108 1701 1
1113 1701 1
1270 1701 1
1281 1701 1
1433 1701 1
1449 1701 1
1084 1702 1
1086 1702 1
1109 1702 1
1114 1702 1
1271 1702 1
1282 1702 1
1434 1702 1
1450 1702 1
1085 1703 1
1087 1703 1
1110 1703 1
1115 1703 1
1272 1703 1
1283 1703 1
1435 1703 1
1451 1703 1
1086 1704 1
1088 1704 1
1111 1704 1
1116 1704 1
1273 1704 1
1284 1704 1
1436 1704 1
1452 1704 1
1087 1705 1
1089 1705 1
1112 1705 1
1117 1705 1
1274 1705 1
1285 1705 1
1437 1705 1
1453 1705 1
1088 1706 1
1090 1706 1
1113 1706 1
1118 1706 1
1275 1706 1
1286 1706 1
1438 1706 1
1454 1706 1
1089 1707 1
1091 1707 1
1114 1707 1
1119 1707 1
1276 1707 1
1287 1707 1
1439 1707 1
1455 1707 1
1090 1708 1
1092 1708 1
1115 1708 1
1120 1708 1
1277 1708 1
1288 1708 1
1440 1708 1
1456 1708 1
1121 1709 1
1144 1709 1
1149 1709 1
1169 1709 1
1205 1709 1
1223 1709 1
1457 1709 1
1469 1709 1
1122 1710 1
1145 1710 1
1150 1710 1
1170 1710 1
1206 1710 1
1224 1710 1
1458 1710 1
1470 1710 1
1123 1711 1
1146 1711 1
1151 1711 1
1171 1711 1
1207 1711 1
1225 1711 1
1459 1711 1
1471 1711 1
1124 1712 1
1147 1712 1
1152 1712 1
1172 1712 1
1208 1712 1
1226 1712 1
1460 1712 1
1472 1712 1
1125 1713 1
1148 1713 1
1153 1713 1
1173 1713 1
1209 1713 1
1227 1713 1
1461 1713 1
1473 1713 1
1121 1714 1
1126 1714 1
1154 1714 1
1174 1714 1
1210 1714 1
1228 1714 1
1462 1714 1
1474 1714 1
1122 1715 1
1127 1715 1
1155 1715 1
1175 1715 1
1211 1715 1
1229 1715 1
1463 1715 1
1475 1715 1
1123 1716 1
1128 1716 1
1156 1716 1
1176 1716 1
1212 1716 1
1230 1716 1
1464 1716 1
1476 1716 1
1124 1717 1
1129 1717 1
1149 1717 1
1157 1717 1
1213 1717 1
1231 1717 1
1465 1717 1
1477 1717 1
1125 1718 1
1130 1718 1
1150 1718 1
1158 1718 1
1214 1718 1
1232 1718 1
1466 1718 1
1478 1718 1
1126 1719 1
1131 1719 1
1151 1719 1
1159 1719 1
1205 1719 1
1215 1719 1
1467 1719 1
1479 1719 1
1127 1720 1
1132 1720 1
1152 1720 1
1160 1720 1
1206 1720 1
1216 1720 1
1468 1720 1
1480 1720 1
1128 1721 1
1133 1721 1
1153 1721 1
1161 1721 1
1207 1721 1
1217 1721 1
1469 1721 1
1481 1721 1
1129 1722 1
1134 1722 1
1154 1722 1
1162 1722 1
1208 1722 1
1218 1722 1
1470 1722 1
1482 1722 1
1130 1723 1
1135 1723 1
1155 1723 1
1163 1723 1
1209 1723 1
1219 1723 1
1471 1723 1
1483 1723 1
1131 1724 1
1136 1724 1
1156 1724 1
1164 1724 1
1210 1724 1
1220 1724 1
1472 1724 1
1484 1724 1
1132 1725 1
1137 1725 1
1157 1725 1
1165 1725 1
1211 1725 1
1221 1725 1
1457 1725 1
1473 1725 1
1133 1726 1
1138 1726 1
1158 1726 1
1166 1726 1
1212 1726 1
1222 1726 1
1458 1726 1
1474 1726 1
1134 1727 1
1139 1727 1
1159 1727 1
1167 1727 1
1213 1727 1
1223 1727 1
1459 1727 1
1475 1727 1
1135 1728 1
1140 1728 1
1160 1728 1
1168 1728 1
1214 1728 1
1224 1728 1
1460 1728 1
1476 1728 1
1136 1729 1
1141 1729 1
1161 1729 1
1169 1729 1
1215 1729 1
1225 1729 1
1461 1729 1
1477 1729 1
1137 1730 1
1142 1730 1
1162 1730 1
1170 1730 1
1216 1730 1
1226 1730 1
1462 1730 1
1478 1730 1
1138 1731 1
1143 1731 1
1163 1731 1
1171 1731 1
1217 1731 1
1227 1731 1
1463 1731 1
1479 1731 1
1139 1732 1
1144 1732 1
1164 1732 1
1172 1732 1
1218 1732 1
1228 1732 1
1464 1732 1
1480 1732 1
1140 1733 1
1145 1733 1
1165 1733 1
1173 1733 1
1219 1733 1
1229 1733 1
1465 1733 1
1481 1733 1
1141 1734 1
1146 1734 1
1166 1734 1
1174 1734 1
1220 1734 1
1230 1734 1
1466 1734 1
1482 1734 1
1142 1735 1
1147 1735 1
1167 1735 1
1175 1735 1
1221 1735 1
1231 1735 1
1467 1735 1
1483 1735 1
1143 1736 1
1148 1736 1
1168 1736 1
1176 1736 1
1222 1736 1
1232 1736 1
1468 1736 1
1484 1736 1
1121 1737 1
1147 1737 1
1177 1737 1
1197 1737 1
1233 1737 1
1251 1737 1
1485 1737 1
1497 1737 1
1122 1738 1
1148 1738 1
1178 1738 1
1198 1738 1
1234 1738 1
1252 1738 1
1486 1738 1
1498 1738 1
1121 1739 1
1123 1739 1
1179 1739 1
1199 1739 1
1235 1739 1
1253 1739 1
1487 1739 1
1499 1739 1
1122 1740 1
1124 1740 1
1180 1740 1
1200 1740 1
1236 1740 1
1254 1740 1
1488 1740 1
1500 1740 1
1123 1741 1
1125 1741 1
1181 1741 1
1201 1741 1
1237 1741 1
1255 1741 1
1489 1741 1
1501 1741 1
1124 1742 1
1126 1742 1
1182 1742 1
1202 1742 1
1238 1742 1
1256 1742 1
1490 1742 1
1502 1742 1
1125 1743 1
1127 1743 1
1183 1743 1
1203 1743 1
1239 1743 1
1257 1743 1
1491 1743 1
1503 1743 1
1126 1744 1
1128 1744 1
1184 1744 1
1204 1744 1
1240 1744 1
1258 1744 1
1492 1744 1
1504 1744 1
1127 1745 1
1129 1745 1
1177 1745 1
1185 1745 1
1241 1745 1
1259 1745 1
1493 1745 1
1505 1745 1
1128 1746 1
1130 1746 1
1178 1746 1
1186 1746 1
1242 1746 1
1260 1746 1
1494 1746 1
1506 1746 1
1129 1747 1
1131 1747 1
1179 1747 1
1187 1747 1
1233 1747 1
1243 1747 1
1495 1747 1
1507 1747 1
1130 1748 1
1132 1748 1
1180 1748 1
1188 1748 1
1234 1748 1
1244 1748 1
1496 1748 1
1508 1748 1
1131 1749 1
1133 1749 1
1181 1749 1
1189 1749 1
1235 1749 1
1245 1749 1
1497 1749 1
1509 1749 1
1132 1750 1
1134 1750 1
1182 1750 1
1190 1750 1
1236 1750 1
1246 1750 1
1498 1750 1
1510 1750 1
1133 1751 1
1135 1751 1
1183 1751 1
1191 1751 1
1237 1751 1
1247 1751 1
1499 1751 1
1511 1751 1
1134 1752 1
1136 1752 1
1184 1752 1
1192 1752 1
1238 1752 1
1248 1752 1
1500 1752 1
1512 1752 1
1135 1753 1
1137 1753 1
1185 1753 1
1193 1753 1
1239 1753 1
1249 1753 1
1485 1753 1
1501 1753 1
1136 1754 1
1138 1754 1
1186 1754 1
1194 1754 1
1240 1754 1
1250 1754 1
1486 1754 1
1502 1754 1
1137 1755 1
1139 1755 1
1187 1755 1
1195 1755 1
1241 1755 1
1251 1755 1
1487 1755 1
1503 1755 1
1138 1756 1
1140 1756 1
1188 1756 1
1196 1756 1
1242 1756 1
1252 1756 1
1488 1756 1
1504 1756 1
1139 1757 1
1141 1757 1
1189 1757 1
1197 1757 1
1243 1757 1
1253 1757 1
1489 1757 1
1505 1757 1
1140 1758 1
1142 1758 1
1190 1758 1
1198 1758 1
1244 1758 1
1254 1758 1
1490 1758 1
1506 1758 1
1141 1759 1
1143 1759 1
1191 1759 1
1199 1759 1
1245 1759 1
1255 1759 1
1491 1759 1
1507 1759 1
1142 1760 1
1144 1760 1
1192 1760 1
1200 1760 1
1246 1760 1
1256 1760 1
1492 1760 1
1508 1760 1
1143 1761 1
1145 1761 1
1193 1761 1
1201 1761 1
1247 1761 1
1257 1761 1
1493 1761 1
1509 1761 1
1144 1762 1
1146 1762 1
1194 1762 1
1202 1762 1
1248 1762 1
1258 1762 1
1494 1762 1
1510 1762 1
1145 1763 1
1147 1763 1
1195 1763 1
1203 1763 1
1249 1763 1
1259 1763 1
1495 1763 1
1511 1763 1
1146 1764 1
1148 1764 1
1196 1764 1
1204 1764 1
1250 1764 1
1260 1764 1
1496 1764 1
1512 1764 1
1149 1765 1
1175 1765 1
1177 1765 1
1200 1765 1
1261 1765 1
1279 1765 1
1513 1765 1
1525 1765 1
1150 1766 1
1176 1766 1
1178 1766 1
1201 1766 1
1262 1766 1
1280 1766 1
1514 1766 1
1526 1766 1
1149 1767 1
1151 1767 1
1179 1767 1
1202 1767 1
1263 1767 1
1281 1767 1
1515 1767 1
1527 1767 1
1150 1768 1
1152 1768 1
1180 1768 1
1203 1768 1
1264 1768 1
1282 1768 1
1516 1768 1
1528 1768 1
1151 1769 1
1153 1769 1
1181 1769 1
1204 1769 1
1265 1769 1
1283 1769 1
1517 1769 1
1529 1769 1
1152 1770 1
1154 1770 1
1177 1770 1
1182 1770 1
1266 1770 1
1284 1770 1
1518 1770 1
1530 1770 1
1153 1771 1
1155 1771 1
1178 1771 1
1183 1771 1
1267 1771 1
1285 1771 1
1519 1771 1
1531 1771 1
1154 1772 1
1156 1772 1
1179 1772 1
1184 1772 1
1268 1772 1
1286 1772 1
1520 1772 1
1532 1772 1
1155 1773 1
1157 1773 1
1180 1773 1
1185 1773 1
1269 1773 1
1287 1773 1
1521 1773 1
1533 1773 1
1156 1774 1
1158 1774 1
1181 1774 1
1186 1774 1
1270 1774 1
1288 1774 1
1522 1774 1
1534 1774 1
1157 1775 1
1159 1775 1
1182 1775 1
1187 1775 1
1261 1775 1
1271 1775 1
1523 1775 1
1535 1775 1
1158 1776 1
1160 1776 1
1183 1776 1
1188 1776 1
1262 1776 1
1272 1776 1
1524 1776 1
1536 1776 1
1159 1777 1
1161 1777 1
1184 1777 1
1189 1777 1
1263 1777 1
1273 1777 1
1525 1777 1
1537 1777 1
1160 1778 1
1162 1778 1
1185 1778 1
1190 1778 1
1264 1778 1
1274 1778 1
1526 1778 1
1538 1778 1
1161 1779 1
1163 1779 1
1186 1779 1
1191 1779 1
1265 1779 1
1275 1779 1
1527 1779 1
1539 1779 1
1162 1780 1
1164 1780 1
1187 1780 1
1192 1780 1
1266 1780 1
1276 1780 1
1528 1780 1
1540 1780 1
1163 1781 1
1165 1781 1
1188 1781 1
1193 1781 1
1267 1781 1
1277 1781 1
1513 1781 1
1529 1781 1
1164 1782 1
1166 1782 1
1189 1782 1
1194 1782 1
1268 1782 1
1278 1782 1
1514 1782 1
1530 1782 1
1165 1783 1
1167 1783 1
1190 1783 1
1195 1783 1
1269 1783 1
1279 1783 1
1515 1783 1
1531 1783 1
1166 1784 1
1168 1784 1
1191 1784 1
1196 1784 1
1270 1784 1
1280 1784 1
1516 1784 1
1532 1784 1
1167 1785 1
1169 1785 1
1192 1785 1
1197 1785 1
1271 1785 1
1281 1785 1
1517 1785 1
1533 1785 1
1168 1786 1
1170 1786 1
1193 1786 1
1198 1786 1
1272 1786 1
1282 1786 1
1518 1786 1
1534 1786 1
1169 1787 1
1171 1787 1
1194 1787 1
1199 1787 1
1273 1787 1
1283 1787 1
1519 1787 1
1535 1787 1
1170 1788 1
1172 1788 1
1195 1788 1
1200 1788 1
1274 1788 1
1284 1788 1
1520 1788 1
1536 1788 1
1171 1789 1
1173 1789 1
1196 1789 1
1201 1789 1
1275 1789 1
1285 1789 1
1521 1789 1
1537 1789 1
1172 1790 1
1174 1790 1
1197 1790 1
1202 1790 1
1276 1790 1
1286 1790 1
1522 1790 1
1538 1790 1
1173 1791 1
1175 1791 1
1198 1791 1
1203 1791 1
1277 1791 1
1287 1791 1
1523 1791 1
1539 1791 1
1174 1792 1
1176 1792 1
1199 1792 1
1204 1792 1
1278 1792 1
1288 1792 1
1524 1792 1
1540 1792 1
1205 1793 1
1231 1793 1
1233 1793 1
1256 1793 1
1261 1793 1
1281 1793 1
1541 1793 1
1553 1793 1
1206 1794 1
1232 1794 1
1234 1794 1
1257 1794 1
1262 1794 1
1282 1794 1
1542 1794 1
1554 1794 1
1205 1795 1
1207 1795 1
1235 1795 1
1258 1795 1
1263 1795 1
1283 1795 1
1543 1795 1
1555 1795 1
1206 1796 1
1208 1796 1
1236 1796 1
1259 1796 1
1264 1796 1
1284 1796 1
1544 1796 1
1556 1796 1
1207 1797 1
1209 1797 1
1237 1797 1
1260 1797 1
1265 1797 1
1285 1797 1
1545 1797 1
1557 1797 1
1208 1798 1
1210 1798 1
1233 1798 1
1238 1798 1
1266 1798 1
1286 1798 1
1546 1798 1
1558 1798 1
1209 1799 1
1211 1799 1
1234 1799 1
1239 1799 1
1267 1799 1
1287 1799 1
1547 1799 1
1559 1799 1
1210 1800 1
1212 1800 1
1235 1800 1
1240 1800 1
1268 1800 1
1288 1800 1
1548 1800 1
1560 1800 1
1211 1801 1
1213 1801 1
1236 1801 1
1241 1801 1
1261 1801 1
1269 1801 1
1549 1801 1
1561 1801 1
1212 1802 1
1214 1802 1
1237 1802 1
1242 1802 1
1262 1802 1
1270 1802 1
1550 1802 1
1562 1802 1
1213 1803 1
1215 1803 1
1238 1803 1
1243 1803 1
1263 1803 1
1271 1803 1
1551 1803 1
1563 1803 1
1214 1804 1
1216 1804 1
1239 1804 1
1244 1804 1
1264 1804 1
1272 1804 1
1552 1804 1
1564 1804 1
1215 1805 1
1217 1805 1
1240 1805 1
1245 1805 1
1265 1805 1
1273 1805 1
1553 1805 1
1565 1805 1
1216 1806 1
1218 1806 1
1241 1806 1
1246 1806 1
1266 1806 1
1274 1806 1
1554 1806 1
1566 1806 1
1217 1807 1
1219 1807 1
1242 1807 1
1247 1807 1
1267 1807 1
1275 1807 1
1555 1807 1
1567 1807 1
1218 1808 1
1220 1808 1
1243 1808 1
1248 1808 1
1268 1808 1
1276 1808 1
1556 1808 1
1568 1808 1
1219 1809 1
1221 1809 1
1244 1809 1
1249 1809 1
1269 1809 1
1277 1809 1
1541 1809 1
1557 1809 1
1220 1810 1
1222 1810 1
1245 1810 1
1250 1810 1
1270 1810 1
1278 1810 1
1542 1810 1
1558 1810 1
1221 1811 1
1223 1811 1
1246 1811 1
1251 1811 1
1271 1811 1
1279 1811 1
1543 1811 1
1559 1811 1
1222 1812 1
1224 1812 1
1247 1812 1
1252 1812 1
1272 1812 1
1280 1812 1
1544 1812 1
1560 1812 1
1223 1813 1
1225 1813 1
1248 1813 1
1253 1813 1
1273 1813 1
1281 1813 1
1545 1813 1
1561 1813 1
1224 1814 1
1226 1814 1
1249 1814 1
1254 1814 1
1274 1814 1
1282 1814 1
1546 1814 1
1562 1814 1
1225 1815 1
1227 1815 1
1250 1815 1
1255 1815 1
1275 1815 1
1283 1815 1
1547 1815 1
1563 1815 1
1226 1816 1
1228 1816 1
1251 1816 1
1256 1816 1
1276 1816 1
1284 1816 1
1548 1816 1
1564 1816 1
1227 1817 1
1229 1817 1
1252 1817 1
1257 1817 1
1277 1817 1
1285 1817 1
1549 1817 1
1565 1817 1
1228 1818 1
1230 1818 1
1253 1818 1
1258 1818 1
1278 1818 1
1286 1818 1
1550 1818 1
1566 1818 1
1229 1819 1
1231 1819 1
1254 1819 1
1259 1819 1
1279 1819 1
1287 1819 1
1551 1819 1
1567 1819 1
1230 1820 1
1232 1820 1
1255 1820 1
1260 1820 1
1280 1820 1
1288 1820 1
1552 1820 1
1568 1820 1
1289 1821 1
1312 1821 1
1317 1821 1
1337 1821 1
1373 1821 1
1391 1821 1
1457 1821 1
1474 1821 1
1290 1822 1
1313 1822 1
1318 1822 1
1338 1822 1
1374 1822 1
1392 1822 1
1458 1822 1
1475 1822 1
1291 1823 1
1314 1823 1
1319 1823 1
1339 1823 1
1375 1823 1
1393 1823 1
1459 1823 1
1476 1823 1
1292 1824 1
1315 1824 1
1320 1824 1
1340 1824 1
1376 1824 1
1394 1824 1
1460 1824 1
1477 1824 1
1293 1825 1
1316 1825 1
1321 1825 1
1341 1825 1
1377 1825 1
1395 1825 1
1461 1825 1
1478 1825 1
1289 1826 1
1294 1826 1
1322 1826 1
1342 1826 1
1378 1826 1
1396 1826 1
1462 1826 1
1479 1826 1
1290 1827 1
1295 1827 1
1323 1827 1
1343 1827 1
1379 1827 1
1397 1827 1
1463 1827 1
1480 1827 1
1291 1828 1
1296 1828 1
1324 1828 1
1344 1828 1
1380 1828 1
1398 1828 1
1464 1828 1
1481 1828 1
1292 1829 1
1297 1829 1
1317 1829 1
1325 1829 1
1381 1829 1
1399 1829 1
1465 1829 1
1482 1829 1
1293 1830 1
1298 1830 1
1318 1830 1
1326 1830 1
1382 1830 1
1400 1830 1
1466 1830 1
1483 1830 1
1294 1831 1
1299 1831 1
1319 1831 1
1327 1831 1
1373 1831 1
1383 1831 1
1467 1831 1
1484 1831 1
1295 1832 1
1300 1832 1
1320 1832 1
1328 1832 1
1374 1832 1
1384 1832 1
1457 1832 1
1468 1832 1
1296 1833 1
1301 1833 1
1321 1833 1
1329 1833 1
1375 1833 1
1385 1833 1
1458 1833 1
1469 1833 1
1297 1834 1
1302 1834 1
1322 1834 1
1330 1834 1
1376 1834 1
1386 1834 1
1459 1834 1
1470 1834 1
1298 1835 1
1303 1835 1
1323 1835 1
1331 1835 1
1377 1835 1
1387 1835 1
1460 1835 1
1471 1835 1
1299 1836 1
1304 1836 1
1324 1836 1
1332 1836 1
1378 1836 1
1388 1836 1
1461 1836 1
1472 1836 1
1300 1837 1
1305 1837 1
1325 1837 1
1333 1837 1
1379 1837 1
1389 1837 1
1462 1837 1
1473 1837 1
1301 1838 1
1306 1838 1
1326 1838 1
1334 1838 1
1380 1838 1
1390 1838 1
1463 1838 1
1474 1838 1
1302 1839 1
1307 1839 1
1327 1839 1
1335 1839 1
1381 1839 1
1391 1839 1
1464 1839 1
1475 1839 1
1303 1840 1
1308 1840 1
1328 1840 1
1336 1840 1
1382 1840 1
1392 1840 1
1465 1840 1
1476 1840 1
1304 1841 1
1309 1841 1
1329 1841 1
1337 1841 1
1383 1841 1
1393 1841 1
1466 1841 1
1477 1841 1
1305 1842 1
1310 1842 1
1330 1842 1
1338 1842 1
1384 1842 1
1394 1842 1
1467 1842 1
1478 1842 1
1306 1843 1
1311 1843 1
1331 1843 1
1339 1843 1
1385 1843 1
1395 1843 1
1468 1843 1
1479 1843 1
1307 1844 1
1312 1844 1
1332 1844 1
1340 1844 1
1386 1844 1
1396 1844 1
1469 1844 1
1480 1844 1
1308 1845 1
1313 1845 1
1333 1845 1
1341 1845 1
1387 1845 1
1397 1845 1
1470 1845 1
1481 1845 1
1309 1846 1
1314 1846 1
1334 1846 1
1342 1846 1
1388 1846 1
1398 1846 1
1471 1846 1
1482 1846 1
1310 1847 1
1315 1847 1
1335 1847 1
1343 1847 1
1389 1847 1
1399 1847 1
1472 1847 1
1483 1847 1
1311 1848 1
1316 1848 1
1336 1848 1
1344 1848 1
1390 1848 1
1400 1848 1
1473 1848 1
1484 1848 1
1289 1849 1
1315 1849 1
1345 1849 1
1365 1849 1
1401 1849 1
1419 1849 1
1485 1849 1
1502 1849 1
1290 1850 1
1316 1850 1
1346 1850 1
1366 1850 1
1402 1850 1
1420 1850 1
1486 1850 1
1503 1850 1
1289 1851 1
1291 1851 1
1347 1851 1
1367 1851 1
1403 1851 1
1421 1851 1
1487 1851 1
1504 1851 1
1290 1852 1
1292 1852 1
1348 1852 1
1368 1852 1
1404 1852 1
1422 1852 1
1488 1852 1
1505 1852 1
1291 1853 1
1293 1853 1
1349 1853 1
1369 1853 1
1405 1853 1
1423 1853 1
1489 1853 1
1506 1853 1
1292 1854 1
1294 1854 1
1350 1854 1
1370 1854 1
1406 1854 1
1424 1854 1
1490 1854 1
1507 1854 1
1293 1855 1
1295 1855 1
1351 1855 1
1371 1855 1
1407 1855 1
1425 1855 1
1491 1855 1
1508 1855 1
1294 1856 1
1296 1856 1
1352 1856 1
1372 1856 1
1408 1856 1
1426 1856 1
1492 1856 1
1509 1856 1
1295 1857 1
1297 1857 1
1345 1857 1
1353 1857 1
1409 1857 1
1427 1857 1
1493 1857 1
1510 1857 1
1296 1858 1
1298 1858 1
1346 1858 1
1354 1858 1
1410 1858 1
1428 1858 1
1494 1858 1
1511 1858 1
1297 1859 1
1299 1859 1
1347 1859 1
1355 1859 1
1401 1859 1
1411 1859 1
1495 1859 1
1512 1859 1
1298 1860 1
1300 1860 1
1348 1860 1
1356 1860 1
1402 1860 1
1412 1860 1
1485 1860 1
1496 1860 1
1299 1861 1
1301 1861 1
1349 1861 1
1357 1861 1
1403 1861 1
1413 1861 1
1486 1861 1
1497 1861 1
1300 1862 1
1302 1862 1
1350 1862 1
1358 1862 1
1404 1862 1
1414 1862 1
1487 1862 1
1498 1862 1
1301 1863 1
1303 1863 1
1351 1863 1
1359 1863 1
1405 1863 1
1415 1863 1
1488 1863 1
1499 1863 1
1302 1864 1
1304 1864 1
1352 1864 1
1360 1864 1
1406 1864 1
1416 1864 1
1489 1864 1
1500 1864 1
1303 1865 1
1305 1865 1
1353 1865 1
1361 1865 1
1407 1865 1
1417 1865 1
1490 1865 1
1501 1865 1
1304 1866 1
1306 1866 1
1354 1866 1
1362 1866 1
1408 1866 1
1418 1866 1
1491 1866 1
1502 1866 1
1305 1867 1
1307 1867 1
1355 1867 1
1363 1867 1
1409 1867 1
1419 1867 1
1492 1867 1
1503 1867 1
1306 1868 1
1308 1868 1
1356 1868 1
1364 1868 1
1410 1868 1
1420 1868 1
1493 1868 1
1504 1868 1
1307 1869 1
1309 1869 1
1357 1869 1
1365 1869 1
1411 1869 1
1421 1869 1
1494 1869 1
1505 1869 1
1308 1870 1
1310 1870 1
1358 1870 1
1366 1870 1
1412 1870 1
1422 1870 1
1495 1870 1
1506 1870 1
1309 1871 1
1311 1871 1
1359 1871 1
1367 1871 1
1413 1871 1
1423 1871 1
1496 1871 1
1507 1871 1
1310 1872 1
1312 1872 1
1360 1872 1
1368 1872 1
1414 1872 1
1424 1872 1
1497 1872 1
1508 1872 1
1311 1873 1
1313 1873 1
1361 1873 1
1369 1873 1
1415 1873 1
1425 1873 1
1498 1873 1
1509 1873 1
1312 1874 1
1314 1874 1
1362 1874 1
1370 1874 1
1416 1874 1
1426 1874 1
1499 1874 1
1510 1874 1
1313 1875 1
1315 1875 1
1363 1875 1
1371 1875 1
1417 1875 1
1427 1875 1
1500 1875 1
1511 1875 1
1314 1876 1
1316 1876 1
1364 1876 1
1372 1876 1
1418 1876 1
1428 1876 1
1501 1876 1
1512 1876 1
1317 1877 1
1343 1877 1
1345 1877 1
1368 1877 1
1429 1877 1
1447 1877 1
1513 1877 1
1530 1877 1
1318 1878 1
1344 1878 1
1346 1878 1
1369 1878 1
1430 1878 1
1448 1878 1
1514 1878 1
1531 1878 1
1317 1879 1
1319 1879 1
1347 1879 1
1370 1879 1
1431 1879 1
1449 1879 1
1515 1879 1
1532 1879 1
1318 1880 1
1320 1880 1
1348 1880 1
1371 1880 1
1432 1880 1
1450 1880 1
1516 1880 1
1533 1880 1
1319 1881 1
1321 1881 1
1349 1881 1
1372 1881 1
1433 1881 1
1451 1881 1
1517 1881 1
1534 1881 1
1320 1882 1
1322 1882 1
1345 1882 1
1350 1882 1
1434 1882 1
1452 1882 1
1518 1882 1
1535 1882 1
1321 1883 1
1323 1883 1
1346 1883 1
1351 1883 1
1435 1883 1
1453 1883 1
1519 1883 1
1536 1883 1
1322 1884 1
1324 1884 1
1347 1884 1
1352 1884 1
1436 1884 1
1454 1884 1
1520 1884 1
1537 1884 1
1323 1885 1
1325 1885 1
1348 1885 1
1353 1885 1
1437 1885 1
1455 1885 1
1521 1885 1
1538 1885 1
1324 1886 1
1326 1886 1
1349 1886 1
1354 1886 1
1438 1886 1
1456 1886 1
1522 1886 1
1539 1886 1
1325 1887 1
1327 1887 1
1350 1887 1
1355 1887 1
1429 1887 1
1439 1887 1
1523 1887 1
1540 1887 1
1326 1888 1
1328 1888 1
1351 1888 1
1356 1888 1
1430 1888 1
1440 1888 1
1513 1888 1
1524 1888 1
1327 1889 1
1329 1889 1
1352 1889 1
1357 1889 1
1431 1889 1
1441 1889 1
1514 1889 1
1525 1889 1
1328 1890 1
1330 1890 1
1353 1890 1
1358 1890 1
1432 1890 1
1442 1890 1
1515 1890 1
1526 1890 1
1329 1891 1
1331 1891 1
1354 1891 1
1359 1891 1
1433 1891 1
1443 1891 1
1516 1891 1
1527 1891 1
1330 1892 1
1332 1892 1
1355 1892 1
1360 1892 1
1434 1892 1
1444 1892 1
1517 1892 1
1528 1892 1
1331 1893 1
1333 1893 1
1356 1893 1
1361 1893 1
1435 1893 1
1445 1893 1
1518 1893 1
1529 1893 1
1332 1894 1
1334 1894 1
1357 1894 1
1362 1894 1
1436 1894 1
1446 1894 1
1519 1894 1
1530 1894 1
1333 1895 1
1335 1895 1
1358 1895 1
1363 1895 1
1437 1895 1
1447 1895 1
1520 1895 1
1531 1895 1
1334 1896 1
1336 1896 1
1359 1896 1
1364 1896 1
1438 1896 1
1448 1896 1
1521 1896 1
1532 1896 1
1335 1897 1
1337 1897 1
1360 1897 1
1365 1897 1
1439 1897 1
1449 1897 1
1522 1897 1
1533 1897 1
1336 1898 1
1338 1898 1
1361 1898 1
1366 1898 1
1440 1898 1
1450 1898 1
1523 1898 1
1534 1898 1
1337 1899 1
1339 1899 1
1362 1899 1
1367 1899 1
1441 1899 1
1451 1899 1
1524 1899 1
1535 1899 1
1338 1900 1
1340 1900 1
1363 1900 1
1368 1900 1
1442 1900 1
1452 1900 1
1525 1900 1
1536 1900 1
1339 1901 1
1341 1901 1
1364 1901 1
1369 1901 1
1443 1901 1
1453 1901 1
1526 1901 1
1537 1901 1
1340 1902 1
1342 1902 1
1365 1902 1
1370 1902 1
1444 1902 1
1454 1902 1
1527 1902 1
1538 1902 1
1341 1903 1
1343 1903 1
1366 1903 1
1371 1903 1
1445 1903 1
1455 1903 1
1528 1903 1
1539 1903 1
1342 1904 1
1344 1904 1
1367 1904 1
1372 1904 1
1446 1904 1
1456 1904 1
1529 1904 1
1540 1904 1
1373 1905 1
1399 1905 1
1401 1905 1
1424 1905 1
1429 1905 1
1449 1905 1
1541 1905 1
1558 1905 1
1374 1906 1
1400 1906 1
1402 1906 1
1425 1906 1
1430 1906 1
1450 1906 1
1542 1906 1
1559 1906 1
1373 1907 1
1375 1907 1
1403 1907 1
1426 1907 1
1431 1907 1
1451 1907 1
1543 1907 1
1560 1907 1
1374 1908 1
1376 1908 1
1404 1908 1
1427 1908 1
1432 1908 1
1452 1908 1
1544 1908 1
1561 1908 1
1375 1909 1
1377 1909 1
1405 1909 1
1428 1909 1
1433 1909 1
1453 1909 1
1545 1909 1
1562 1909 1
1376 1910 1
1378 1910 1
1401 1910 1
1406 1910 1
1434 1910 1
1454 1910 1
1546 1910 1
1563 1910 1
1377 1911 1
1379 1911 1
1402 1911 1
1407 1911 1
1435 1911 1
1455 1911 1
1547 1911 1
1564 1911 1
1378 1912 1
1380 1912 1
1403 1912 1
1408 1912 1
1436 1912 1
1456 1912 1
1548 1912 1
1565 1912 1
1379 1913 1
1381 1913 1
1404 1913 1
1409 1913 1
1429 1913 1
1437 1913 1
1549 1913 1
1566 1913 1
1380 1914 1
1382 1914 1
1405 1914 1
1410 1914 1
1430 1914 1
1438 1914 1
1550 1914 1
1567 1914 1
1381 1915 1
1383 1915 1
1406 1915 1
1411 1915 1
1431 1915 1
1439 1915 1
1551 1915 1
1568 1915 1
1382 1916 1
1384 1916 1
1407 1916 1
1412 1916 1
1432 1916 1
1440 1916 1
1541 1916 1
1552 1916 1
1383 1917 1
1385 1917 1
1408 1917 1
1413 1917 1
1433 1917 1
1441 1917 1
1542 1917 1
1553 1917 1
1384 1918 1
1386 1918 1
1409 1918 1
1414 1918 1
1434 1918 1
1442 1918 1
1543 1918 1
1554 1918 1
1385 1919 1
1387 1919 1
1410 1919 1
1415 1919 1
1435 1919 1
1443 1919 1
1544 1919 1
1555 1919 1
1386 1920 1
1388 1920 1
1411 1920 1
1416 1920 1
1436 1920 1
1444 1920 1
1545 1920 1
1556 1920 1
1387 1921 1
1389 1921 1
1412 1921 1
1417 1921 1
1437 1921 1
1445 1921 1
1546 1921 1
1557 1921 1
1388 1922 1
1390 1922 1
1413 1922 1
1418 1922 1
1438 1922 1
1446 1922 1
1547 1922 1
1558 1922 1
1389 1923 1
1391 1923 1
1414 1923 1
1419 1923 1
1439 1923 1
1447 1923 1
1548 1923 1
1559 1923 1
1390 1924 1
1392 1924 1
1415 1924 1
1420 1924 1
1440 1924 1
1448 1924 1
1549 1924 1
1560 1924 1
1391 1925 1
1393 1925 1
1416 1925 1
1421 1925 1
1441 1925 1
1449 1925 1
1550 1925 1
1561 1925 1
1392 1926 1
1394 1926 1
1417 1926 1
1422 1926 1
1442 1926 1
1450 1926 1
1551 1926 1
1562 1926 1
1393 1927 1
1395 1927 1
1418 1927 1
1423 1927 1
1443 1927 1
1451 1927 1
1552 1927 1
1563 1927 1
1394 1928 1
1396 1928 1
1419 1928 1
1424 1928 1
1444 1928 1
1452 1928 1
1553 1928 1
1564 1928 1
1395 1929 1
1397 1929 1
1420 1929 1
1425 1929 1
1445 1929 1
1453 1929 1
1554 1929 1
1565 1929 1
1396 1930 1
1398 1930 1
1421 1930 1
1426 1930 1
1446 1930 1
1454 1930 1
1555 1930 1
1566 1930 1
1397 1931 1
1399 1931 1
1422 1931 1
1427 1931 1
1447 1931 1
1455 1931 1
1556 1931 1
1567 1931 1
1398 1932 1
1400 1932 1
1423 1932 1
1428 1932 1
1448 1932 1
1456 1932 1
1557 1932 1
1568 1932 1
1457 1933 1
1483 1933 1
1485 1933 1
1508 1933 1
1513 1933 1
1533 1933 1
1541 1933 1
1559 1933 1
1458 1934 1
1484 1934 1
1486 1934 1
1509 1934 1
1514 1934 1
1534 1934 1
1542 1934 1
1560 1934 1
1457 1935 1
1459 1935 1
1487 1935 1
1510 1935 1
1515 1935 1
1535 1935 1
1543 1935 1
1561 1935 1
1458 1936 1
1460 1936 1
1488 1936 1
1511 1936 1
1516 1936 1
1536 1936 1
1544 1936 1
1562 1936 1
1459 1937 1
1461 1937 1
1489 1937 1
1512 1937 1
1517 1937 1
1537 1937 1
1545 1937 1
1563 1937 1
1460 1938 1
1462 1938 1
1485 1938 1
1490 1938 1
1518 1938 1
1538 1938 1
1546 1938 1
1564 1938 1
1461 1939 1
1463 1939 1
1486 1939 1
1491 1939 1
1519 1939 1
1539 1939 1
1547 1939 1
1565 1939 1
1462 1940 1
1464 1940 1
1487 1940 1
1492 1940 1
1520 1940 1
1540 1940 1
1548 1940 1
1566 1940 1
1463 1941 1
1465 1941 1
1488 1941 1
1493 1941 1
1513 1941 1
1521 1941 1
1549 1941 1
1567 1941 1
1464 1942 1
1466 1942 1
1489 1942 1
1494 1942 1
1514 1942 1
1522 1942 1
1550 1942 1
1568 1942 1
1465 1943 1
1467 1943 1
1490 1943 1
1495 1943 1
1515 1943 1
1523 1943 1
1541 1943 1
1551 1943 1
1466 1944 1
1468 1944 1
1491 1944 1
1496 1944 1
1516 1944 1
1524 1944 1
1542 1944 1
1552 1944 1
1467 1945 1
1469 1945 1
1492 1945 1
1497 1945 1
1517 1945 1
1525 1945 1
1543 1945 1
1553 1945 1
1468 1946 1
1470 1946 1
1493 1946 1
1498 1946 1
1518 1946 1
1526 1946 1
1544 1946 1
1554 1946 1
1469 1947 1
1471 1947 1
1494 1947 1
1499 1947 1
1519 1947 1
1527 1947 1
1545 1947 1
1555 1947 1
1470 1948 1
1472 1948 1
1495 1948 1
1500 1948 1
1520 1948 1
1528 1948 1
1546 1948 1
1556 1948 1
1471 1949 1
1473 1949 1
1496 1949 1
1501 1949 1
1521 1949 1
1529 1949 1
1547 1949 1
1557 1949 1
1472 1950 1
1474 1950 1
1497 1950 1
1502 1950 1
1522 1950 1
1530 1950 1
1548 1950 1
1558 1950 1
1473 1951 1
1475 1951 1
1498 1951 1
1503 1951 1
1523 1951 1
1531 1951 1
1549 1951 1
1559 1951 1
1474 1952 1
1476 1952 1
1499 1952 1
1504 1952 1
1524 1952 1
1532 1952 1
1550 1952 1
1560 1952 1
1475 1953 1
1477 1953 1
1500 1953 1
1505 1953 1
1525 1953 1
1533 1953 1
1551 1953 1
1561 1953 1
1476 1954 1
1478 1954 1
1501 1954 1
1506 1954 1
1526 1954 1
1534 1954 1
1552 1954 1
1562 1954 1
1477 1955 1
1479 1955 1
1502 1955 1
1507 1955 1
1527 1955 1
1535 1955 1
1553 1955 1
1563 1955 1
1478 1956 1
1480 1956 1
1503 1956 1
1508 1956 1
1528 1956 1
1536 1956 1
1554 1956 1
1564 1956 1
1479 1957 1
1481 1957 1
1504 1957 1
1509 1957 1
1529 1957 1
1537 1957 1
1555 1957 1
1565 1957 1
1480 1958 1
1482 1958 1
1505 1958 1
1510 1958 1
1530 1958 1
1538 1958 1
1556 1958 1
1566 1958 1
1481 1959 1
1483 1959 1
1506 1959 1
1511 1959 1
1531 1959 1
1539 1959 1
1557 1959 1
1567 1959 1
1482 1960 1
1484 1960 1
1507 1960 1
1512 1960 1
1532 1960 1
1540 1960 1
1558 1960 1
1568 1960 1
