%%MatrixMarket matrix coordinate integer general
% Binary matrix; one-based indices; arithmetic over GF(2)
576 864 3456
15 1 1
17 1 1
157 1 1
262 1 1
16 2 1
18 2 1
158 2 1
263 2 1
1 3 1
17 3 1
159 3 1
264 3 1
2 4 1
18 4 1
160 4 1
265 4 1
1 5 1
3 5 1
161 5 1
266 5 1
2 6 1
4 6 1
162 6 1
267 6 1
3 7 1
5 7 1
145 7 1
268 7 1
4 8 1
6 8 1
146 8 1
269 8 1
5 9 1
7 9 1
147 9 1
270 9 1
6 10 1
8 10 1
148 10 1
253 10 1
7 11 1
9 11 1
149 11 1
254 11 1
8 12 1
10 12 1
150 12 1
255 12 1
9 13 1
11 13 1
151 13 1
256 13 1
10 14 1
12 14 1
152 14 1
257 14 1
11 15 1
13 15 1
153 15 1
258 15 1
12 16 1
14 16 1
154 16 1
259 16 1
13 17 1
15 17 1
155 17 1
260 17 1
14 18 1
16 18 1
156 18 1
261 18 1
33 19 1
35 19 1
175 19 1
280 19 1
34 20 1
36 20 1
176 20 1
281 20 1
19 21 1
35 21 1
177 21 1
282 21 1
20 22 1
36 22 1
178 22 1
283 22 1
19 23 1
21 23 1
179 23 1
284 23 1
20 24 1
22 24 1
180 24 1
285 24 1
21 25 1
23 25 1
163 25 1
286 25 1
22 26 1
24 26 1
164 26 1
287 26 1
23 27 1
25 27 1
165 27 1
288 27 1
24 28 1
26 28 1
166 28 1
271 28 1
25 29 1
27 29 1
167 29 1
272 29 1
26 30 1
28 30 1
168 30 1
273 30 1
27 31 1
29 31 1
169 31 1
274 31 1
28 32 1
30 32 1
170 32 1
275 32 1
29 33 1
31 33 1
171 33 1
276 33 1
30 34 1
32 34 1
172 34 1
277 34 1
31 35 1
33 35 1
173 35 1
278 35 1
32 36 1
34 36 1
174 36 1
279 36 1
51 37 1
53 37 1
193 37 1
226 37 1
52 38 1
54 38 1
194 38 1
227 38 1
37 39 1
53 39 1
195 39 1
228 39 1
38 40 1
54 40 1
196 40 1
229 40 1
37 41 1
39 41 1
197 41 1
230 41 1
38 42 1
40 42 1
198 42 1
231 42 1
39 43 1
41 43 1
181 43 1
232 43 1
40 44 1
42 44 1
182 44 1
233 44 1
41 45 1
43 45 1
183 45 1
234 45 1
42 46 1
44 46 1
184 46 1
217 46 1
43 47 1
45 47 1
185 47 1
218 47 1
44 48 1
46 48 1
186 48 1
219 48 1
45 49 1
47 49 1
187 49 1
220 49 1
46 50 1
48 50 1
188 50 1
221 50 1
47 51 1
49 51 1
189 51 1
222 51 1
48 52 1
50 52 1
190 52 1
223 52 1
49 53 1
51 53 1
191 53 1
224 53 1
50 54 1
52 54 1
192 54 1
225 54 1
69 55 1
71 55 1
211 55 1
244 55 1
70 56 1
72 56 1
212 56 1
245 56 1
55 57 1
71 57 1
213 57 1
246 57 1
56 58 1
72 58 1
214 58 1
247 58 1
55 59 1
57 59 1
215 59 1
248 59 1
56 60 1
58 60 1
216 60 1
249 60 1
57 61 1
59 61 1
199 61 1
250 61 1
58 62 1
60 62 1
200 62 1
251 62 1
59 63 1
61 63 1
201 63 1
252 63 1
60 64 1
62 64 1
202 64 1
235 64 1
61 65 1
63 65 1
203 65 1
236 65 1
62 66 1
64 66 1
204 66 1
237 66 1
63 67 1
65 67 1
205 67 1
238 67 1
64 68 1
66 68 1
206 68 1
239 68 1
65 69 1
67 69 1
207 69 1
240 69 1
66 70 1
68 70 1
208 70 1
241 70 1
67 71 1
69 71 1
209 71 1
242 71 1
68 72 1
70 72 1
210 72 1
243 72 1
87 73 1
89 73 1
190 73 1
229 73 1
88 74 1
90 74 1
191 74 1
230 74 1
73 75 1
89 75 1
192 75 1
231 75 1
74 76 1
90 76 1
193 76 1
232 76 1
73 77 1
75 77 1
194 77 1
233 77 1
74 78 1
76 78 1
195 78 1
234 78 1
75 79 1
77 79 1
196 79 1
217 79 1
76 80 1
78 80 1
197 80 1
218 80 1
77 81 1
79 81 1
198 81 1
219 81 1
78 82 1
80 82 1
181 82 1
220 82 1
79 83 1
81 83 1
182 83 1
221 83 1
80 84 1
82 84 1
183 84 1
222 84 1
81 85 1
83 85 1
184 85 1
223 85 1
82 86 1
84 86 1
185 86 1
224 86 1
83 87 1
85 87 1
186 87 1
225 87 1
84 88 1
86 88 1
187 88 1
226 88 1
85 89 1
87 89 1
188 89 1
227 89 1
86 90 1
88 90 1
189 90 1
228 90 1
105 91 1
107 91 1
208 91 1
247 91 1
106 92 1
108 92 1
209 92 1
248 92 1
91 93 1
107 93 1
210 93 1
249 93 1
92 94 1
108 94 1
211 94 1
250 94 1
91 95 1
93 95 1
212 95 1
251 95 1
92 96 1
94 96 1
213 96 1
252 96 1
93 97 1
95 97 1
214 97 1
235 97 1
94 98 1
96 98 1
215 98 1
236 98 1
95 99 1
97 99 1
216 99 1
237 99 1
96 100 1
98 100 1
199 100 1
238 100 1
97 101 1
99 101 1
200 101 1
239 101 1
98 102 1
100 102 1
201 102 1
240 102 1
99 103 1
101 103 1
202 103 1
241 103 1
100 104 1
102 104 1
203 104 1
242 104 1
101 105 1
103 105 1
204 105 1
243 105 1
102 106 1
104 106 1
205 106 1
244 106 1
103 107 1
105 107 1
206 107 1
245 107 1
104 108 1
106 108 1
207 108 1
246 108 1
123 109 1
125 109 1
154 109 1
265 109 1
124 110 1
126 110 1
155 110 1
266 110 1
109 111 1
125 111 1
156 111 1
267 111 1
110 112 1
126 112 1
157 112 1
268 112 1
109 113 1
111 113 1
158 113 1
269 113 1
110 114 1
112 114 1
159 114 1
270 114 1
111 115 1
113 115 1
160 115 1
253 115 1
112 116 1
114 116 1
161 116 1
254 116 1
113 117 1
115 117 1
162 117 1
255 117 1
114 118 1
116 118 1
145 118 1
256 118 1
115 119 1
117 119 1
146 119 1
257 119 1
116 120 1
118 120 1
147 120 1
258 120 1
117 121 1
119 121 1
148 121 1
259 121 1
118 122 1
120 122 1
149 122 1
260 122 1
119 123 1
121 123 1
150 123 1
261 123 1
120 124 1
122 124 1
151 124 1
262 124 1
121 125 1
123 125 1
152 125 1
263 125 1
122 126 1
124 126 1
153 126 1
264 126 1
141 127 1
143 127 1
172 127 1
283 127 1
142 128 1
144 128 1
173 128 1
284 128 1
127 129 1
143 129 1
174 129 1
285 129 1
128 130 1
144 130 1
175 130 1
286 130 1
127 131 1
129 131 1
176 131 1
287 131 1
128 132 1
130 132 1
177 132 1
288 132 1
129 133 1
131 133 1
178 133 1
271 133 1
130 134 1
132 134 1
179 134 1
272 134 1
131 135 1
133 135 1
180 135 1
273 135 1
132 136 1
134 136 1
163 136 1
274 136 1
133 137 1
135 137 1
164 137 1
275 137 1
134 138 1
136 138 1
165 138 1
276 138 1
135 139 1
137 139 1
166 139 1
277 139 1
136 140 1
138 140 1
167 140 1
278 140 1
137 141 1
139 141 1
168 141 1
279 141 1
138 142 1
140 142 1
169 142 1
280 142 1
139 143 1
141 143 1
170 143 1
281 143 1
140 144 1
142 144 1
171 144 1
282 144 1
32 145 1
133 145 1
301 145 1
406 145 1
33 146 1
134 146 1
302 146 1
407 146 1
34 147 1
135 147 1
303 147 1
408 147 1
35 148 1
136 148 1
304 148 1
409 148 1
36 149 1
137 149 1
305 149 1
410 149 1
19 150 1
138 150 1
306 150 1
411 150 1
20 151 1
139 151 1
289 151 1
412 151 1
21 152 1
140 152 1
290 152 1
413 152 1
22 153 1
141 153 1
291 153 1
414 153 1
23 154 1
142 154 1
292 154 1
397 154 1
24 155 1
143 155 1
293 155 1
398 155 1
25 156 1
144 156 1
294 156 1
399 156 1
26 157 1
127 157 1
295 157 1
400 157 1
27 158 1
128 158 1
296 158 1
401 158 1
28 159 1
129 159 1
297 159 1
402 159 1
29 160 1
130 160 1
298 160 1
403 160 1
30 161 1
131 161 1
299 161 1
404 161 1
31 162 1
132 162 1
300 162 1
405 162 1
14 163 1
115 163 1
319 163 1
424 163 1
15 164 1
116 164 1
320 164 1
425 164 1
16 165 1
117 165 1
321 165 1
426 165 1
17 166 1
118 166 1
322 166 1
427 166 1
18 167 1
119 167 1
323 167 1
428 167 1
1 168 1
120 168 1
324 168 1
429 168 1
2 169 1
121 169 1
307 169 1
430 169 1
3 170 1
122 170 1
308 170 1
431 170 1
4 171 1
123 171 1
309 171 1
432 171 1
5 172 1
124 172 1
310 172 1
415 172 1
6 173 1
125 173 1
311 173 1
416 173 1
7 174 1
126 174 1
312 174 1
417 174 1
8 175 1
109 175 1
313 175 1
418 175 1
9 176 1
110 176 1
314 176 1
419 176 1
10 177 1
111 177 1
315 177 1
420 177 1
11 178 1
112 178 1
316 178 1
421 178 1
12 179 1
113 179 1
317 179 1
422 179 1
13 180 1
114 180 1
318 180 1
423 180 1
68 181 1
97 181 1
337 181 1
370 181 1
69 182 1
98 182 1
338 182 1
371 182 1
70 183 1
99 183 1
339 183 1
372 183 1
71 184 1
100 184 1
340 184 1
373 184 1
72 185 1
101 185 1
341 185 1
374 185 1
55 186 1
102 186 1
342 186 1
375 186 1
56 187 1
103 187 1
325 187 1
376 187 1
57 188 1
104 188 1
326 188 1
377 188 1
58 189 1
105 189 1
327 189 1
378 189 1
59 190 1
106 190 1
328 190 1
361 190 1
60 191 1
107 191 1
329 191 1
362 191 1
61 192 1
108 192 1
330 192 1
363 192 1
62 193 1
91 193 1
331 193 1
364 193 1
63 194 1
92 194 1
332 194 1
365 194 1
64 195 1
93 195 1
333 195 1
366 195 1
65 196 1
94 196 1
334 196 1
367 196 1
66 197 1
95 197 1
335 197 1
368 197 1
67 198 1
96 198 1
336 198 1
369 198 1
50 199 1
79 199 1
355 199 1
388 199 1
51 200 1
80 200 1
356 200 1
389 200 1
52 201 1
81 201 1
357 201 1
390 201 1
53 202 1
82 202 1
358 202 1
391 202 1
54 203 1
83 203 1
359 203 1
392 203 1
37 204 1
84 204 1
360 204 1
393 204 1
38 205 1
85 205 1
343 205 1
394 205 1
39 206 1
86 206 1
344 206 1
395 206 1
40 207 1
87 207 1
345 207 1
396 207 1
41 208 1
88 208 1
346 208 1
379 208 1
42 209 1
89 209 1
347 209 1
380 209 1
43 210 1
90 210 1
348 210 1
381 210 1
44 211 1
73 211 1
349 211 1
382 211 1
45 212 1
74 212 1
350 212 1
383 212 1
46 213 1
75 213 1
351 213 1
384 213 1
47 214 1
76 214 1
352 214 1
385 214 1
48 215 1
77 215 1
353 215 1
386 215 1
49 216 1
78 216 1
354 216 1
387 216 1
61 217 1
104 217 1
334 217 1
373 217 1
62 218 1
105 218 1
335 218 1
374 218 1
63 219 1
106 219 1
336 219 1
375 219 1
64 220 1
107 220 1
337 220 1
376 220 1
65 221 1
108 221 1
338 221 1
377 221 1
66 222 1
91 222 1
339 222 1
378 222 1
67 223 1
92 223 1
340 223 1
361 223 1
68 224 1
93 224 1
341 224 1
362 224 1
69 225 1
94 225 1
342 225 1
363 225 1
70 226 1
95 226 1
325 226 1
364 226 1
71 227 1
96 227 1
326 227 1
365 227 1
72 228 1
97 228 1
327 228 1
366 228 1
55 229 1
98 229 1
328 229 1
367 229 1
56 230 1
99 230 1
329 230 1
368 230 1
57 231 1
100 231 1
330 231 1
369 231 1
58 232 1
101 232 1
331 232 1
370 232 1
59 233 1
102 233 1
332 233 1
371 233 1
60 234 1
103 234 1
333 234 1
372 234 1
43 235 1
86 235 1
352 235 1
391 235 1
44 236 1
87 236 1
353 236 1
392 236 1
45 237 1
88 237 1
354 237 1
393 237 1
46 238 1
89 238 1
355 238 1
394 238 1
47 239 1
90 239 1
356 239 1
395 239 1
48 240 1
73 240 1
357 240 1
396 240 1
49 241 1
74 241 1
358 241 1
379 241 1
50 242 1
75 242 1
359 242 1
380 242 1
51 243 1
76 243 1
360 243 1
381 243 1
52 244 1
77 244 1
343 244 1
382 244 1
53 245 1
78 245 1
344 245 1
383 245 1
54 246 1
79 246 1
345 246 1
384 246 1
37 247 1
80 247 1
346 247 1
385 247 1
38 248 1
81 248 1
347 248 1
386 248 1
39 249 1
82 249 1
348 249 1
387 249 1
40 250 1
83 250 1
349 250 1
388 250 1
41 251 1
84 251 1
350 251 1
389 251 1
42 252 1
85 252 1
351 252 1
390 252 1
25 253 1
140 253 1
298 253 1
409 253 1
26 254 1
141 254 1
299 254 1
410 254 1
27 255 1
142 255 1
300 255 1
411 255 1
28 256 1
143 256 1
301 256 1
412 256 1
29 257 1
144 257 1
302 257 1
413 257 1
30 258 1
127 258 1
303 258 1
414 258 1
31 259 1
128 259 1
304 259 1
397 259 1
32 260 1
129 260 1
305 260 1
398 260 1
33 261 1
130 261 1
306 261 1
399 261 1
34 262 1
131 262 1
289 262 1
400 262 1
35 263 1
132 263 1
290 263 1
401 263 1
36 264 1
133 264 1
291 264 1
402 264 1
19 265 1
134 265 1
292 265 1
403 265 1
20 266 1
135 266 1
293 266 1
404 266 1
21 267 1
136 267 1
294 267 1
405 267 1
22 268 1
137 268 1
295 268 1
406 268 1
23 269 1
138 269 1
296 269 1
407 269 1
24 270 1
139 270 1
297 270 1
408 270 1
7 271 1
122 271 1
316 271 1
427 271 1
8 272 1
123 272 1
317 272 1
428 272 1
9 273 1
124 273 1
318 273 1
429 273 1
10 274 1
125 274 1
319 274 1
430 274 1
11 275 1
126 275 1
320 275 1
431 275 1
12 276 1
109 276 1
321 276 1
432 276 1
13 277 1
110 277 1
322 277 1
415 277 1
14 278 1
111 278 1
323 278 1
416 278 1
15 279 1
112 279 1
324 279 1
417 279 1
16 280 1
113 280 1
307 280 1
418 280 1
17 281 1
114 281 1
308 281 1
419 281 1
18 282 1
115 282 1
309 282 1
420 282 1
1 283 1
116 283 1
310 283 1
421 283 1
2 284 1
117 284 1
311 284 1
422 284 1
3 285 1
118 285 1
312 285 1
423 285 1
4 286 1
119 286 1
313 286 1
424 286 1
5 287 1
120 287 1
314 287 1
425 287 1
6 288 1
121 288 1
315 288 1
426 288 1
176 289 1
277 289 1
303 289 1
305 289 1
177 290 1
278 290 1
304 290 1
306 290 1
178 291 1
279 291 1
289 291 1
305 291 1
179 292 1
280 292 1
290 292 1
306 292 1
180 293 1
281 293 1
289 293 1
291 293 1
163 294 1
282 294 1
290 294 1
292 294 1
164 295 1
283 295 1
291 295 1
293 295 1
165 296 1
284 296 1
292 296 1
294 296 1
166 297 1
285 297 1
293 297 1
295 297 1
167 298 1
286 298 1
294 298 1
296 298 1
168 299 1
287 299 1
295 299 1
297 299 1
169 300 1
288 300 1
296 300 1
298 300 1
170 301 1
271 301 1
297 301 1
299 301 1
171 302 1
272 302 1
298 302 1
300 302 1
172 303 1
273 303 1
299 303 1
301 303 1
173 304 1
274 304 1
300 304 1
302 304 1
174 305 1
275 305 1
301 305 1
303 305 1
175 306 1
276 306 1
302 306 1
304 306 1
158 307 1
259 307 1
321 307 1
323 307 1
159 308 1
260 308 1
322 308 1
324 308 1
160 309 1
261 309 1
307 309 1
323 309 1
161 310 1
262 310 1
308 310 1
324 310 1
162 311 1
263 311 1
307 311 1
309 311 1
145 312 1
264 312 1
308 312 1
310 312 1
146 313 1
265 313 1
309 313 1
311 313 1
147 314 1
266 314 1
310 314 1
312 314 1
148 315 1
267 315 1
311 315 1
313 315 1
149 316 1
268 316 1
312 316 1
314 316 1
150 317 1
269 317 1
313 317 1
315 317 1
151 318 1
270 318 1
314 318 1
316 318 1
152 319 1
253 319 1
315 319 1
317 319 1
153 320 1
254 320 1
316 320 1
318 320 1
154 321 1
255 321 1
317 321 1
319 321 1
155 322 1
256 322 1
318 322 1
320 322 1
156 323 1
257 323 1
319 323 1
321 323 1
157 324 1
258 324 1
320 324 1
322 324 1
212 325 1
241 325 1
339 325 1
341 325 1
213 326 1
242 326 1
340 326 1
342 326 1
214 327 1
243 327 1
325 327 1
341 327 1
215 328 1
244 328 1
326 328 1
342 328 1
216 329 1
245 329 1
325 329 1
327 329 1
199 330 1
246 330 1
326 330 1
328 330 1
200 331 1
247 331 1
327 331 1
329 331 1
201 332 1
248 332 1
328 332 1
330 332 1
202 333 1
249 333 1
329 333 1
331 333 1
203 334 1
250 334 1
330 334 1
332 334 1
204 335 1
251 335 1
331 335 1
333 335 1
205 336 1
252 336 1
332 336 1
334 336 1
206 337 1
235 337 1
333 337 1
335 337 1
207 338 1
236 338 1
334 338 1
336 338 1
208 339 1
237 339 1
335 339 1
337 339 1
209 340 1
238 340 1
336 340 1
338 340 1
210 341 1
239 341 1
337 341 1
339 341 1
211 342 1
240 342 1
338 342 1
340 342 1
194 343 1
223 343 1
357 343 1
359 343 1
195 344 1
224 344 1
358 344 1
360 344 1
196 345 1
225 345 1
343 345 1
359 345 1
197 346 1
226 346 1
344 346 1
360 346 1
198 347 1
227 347 1
343 347 1
345 347 1
181 348 1
228 348 1
344 348 1
346 348 1
182 349 1
229 349 1
345 349 1
347 349 1
183 350 1
230 350 1
346 350 1
348 350 1
184 351 1
231 351 1
347 351 1
349 351 1
185 352 1
232 352 1
348 352 1
350 352 1
186 353 1
233 353 1
349 353 1
351 353 1
187 354 1
234 354 1
350 354 1
352 354 1
188 355 1
217 355 1
351 355 1
353 355 1
189 356 1
218 356 1
352 356 1
354 356 1
190 357 1
219 357 1
353 357 1
355 357 1
191 358 1
220 358 1
354 358 1
356 358 1
192 359 1
221 359 1
355 359 1
357 359 1
193 360 1
222 360 1
356 360 1
358 360 1
205 361 1
248 361 1
375 361 1
377 361 1
206 362 1
249 362 1
376 362 1
378 362 1
207 363 1
250 363 1
361 363 1
377 363 1
208 364 1
251 364 1
362 364 1
378 364 1
209 365 1
252 365 1
361 365 1
363 365 1
210 366 1
235 366 1
362 366 1
364 366 1
211 367 1
236 367 1
363 367 1
365 367 1
212 368 1
237 368 1
364 368 1
366 368 1
213 369 1
238 369 1
365 369 1
367 369 1
214 370 1
239 370 1
366 370 1
368 370 1
215 371 1
240 371 1
367 371 1
369 371 1
216 372 1
241 372 1
368 372 1
370 372 1
199 373 1
242 373 1
369 373 1
371 373 1
200 374 1
243 374 1
370 374 1
372 374 1
201 375 1
244 375 1
371 375 1
373 375 1
202 376 1
245 376 1
372 376 1
374 376 1
203 377 1
246 377 1
373 377 1
375 377 1
204 378 1
247 378 1
374 378 1
376 378 1
187 379 1
230 379 1
393 379 1
395 379 1
188 380 1
231 380 1
394 380 1
396 380 1
189 381 1
232 381 1
379 381 1
395 381 1
190 382 1
233 382 1
380 382 1
396 382 1
191 383 1
234 383 1
379 383 1
381 383 1
192 384 1
217 384 1
380 384 1
382 384 1
193 385 1
218 385 1
381 385 1
383 385 1
194 386 1
219 386 1
382 386 1
384 386 1
195 387 1
220 387 1
383 387 1
385 387 1
196 388 1
221 388 1
384 388 1
386 388 1
197 389 1
222 389 1
385 389 1
387 389 1
198 390 1
223 390 1
386 390 1
388 390 1
181 391 1
224 391 1
387 391 1
389 391 1
182 392 1
225 392 1
388 392 1
390 392 1
183 393 1
226 393 1
389 393 1
391 393 1
184 394 1
227 394 1
390 394 1
392 394 1
185 395 1
228 395 1
391 395 1
393 395 1
186 396 1
229 396 1
392 396 1
394 396 1
169 397 1
284 397 1
411 397 1
413 397 1
170 398 1
285 398 1
412 398 1
414 398 1
171 399 1
286 399 1
397 399 1
413 399 1
172 400 1
287 400 1
398 400 1
414 400 1
173 401 1
288 401 1
397 401 1
399 401 1
174 402 1
271 402 1
398 402 1
400 402 1
175 403 1
272 403 1
399 403 1
401 403 1
176 404 1
273 404 1
400 404 1
402 404 1
177 405 1
274 405 1
401 405 1
403 405 1
178 406 1
275 406 1
402 406 1
404 406 1
179 407 1
276 407 1
403 407 1
405 407 1
180 408 1
277 408 1
404 408 1
406 408 1
163 409 1
278 409 1
405 409 1
407 409 1
164 410 1
279 410 1
406 410 1
408 410 1
165 411 1
280 411 1
407 411 1
409 411 1
166 412 1
281 412 1
408 412 1
410 412 1
167 413 1
282 413 1
409 413 1
411 413 1
168 414 1
283 414 1
410 414 1
412 414 1
151 415 1
266 415 1
429 415 1
431 415 1
152 416 1
267 416 1
430 416 1
432 416 1
153 417 1
268 417 1
415 417 1
431 417 1
154 418 1
269 418 1
416 418 1
432 418 1
155 419 1
270 419 1
415 419 1
417 419 1
156 420 1
253 420 1
416 420 1
418 420 1
157 421 1
254 421 1
417 421 1
419 421 1
158 422 1
255 422 1
418 422 1
420 422 1
159 423 1
256 423 1
419 423 1
421 423 1
160 424 1
257 424 1
420 424 1
422 424 1
161 425 1
258 425 1
421 425 1
423 425 1
162 426 1
259 426 1
422 426 1
424 426 1
145 427 1
260 427 1
423 427 1
425 427 1
146 428 1
261 428 1
424 428 1
426 428 1
147 429 1
262 429 1
425 429 1
427 429 1
148 430 1
263 430 1
426 430 1
428 430 1
149 431 1
264 431 1
427 431 1
429 431 1
150 432 1
265 432 1
428 432 1
430 432 1
29 433 1
139 433 1
445 433 1
550 433 1
30 434 1
140 434 1
446 434 1
551 434 1
31 435 1
141 435 1
447 435 1
552 435 1
32 436 1
142 436 1
448 436 1
553 436 1
33 437 1
143 437 1
449 437 1
554 437 1
34 438 1
144 438 1
450 438 1
555 438 1
35 439 1
127 439 1
433 439 1
556 439 1
36 440 1
128 440 1
434 440 1
557 440 1
19 441 1
129 441 1
435 441 1
558 441 1
20 442 1
130 442 1
436 442 1
541 442 1
21 443 1
131 443 1
437 443 1
542 443 1
22 444 1
132 444 1
438 444 1
543 444 1
23 445 1
133 445 1
439 445 1
544 445 1
24 446 1
134 446 1
440 446 1
545 446 1
25 447 1
135 447 1
441 447 1
546 447 1
26 448 1
136 448 1
442 448 1
547 448 1
27 449 1
137 449 1
443 449 1
548 449 1
28 450 1
138 450 1
444 450 1
549 450 1
11 451 1
121 451 1
463 451 1
568 451 1
12 452 1
122 452 1
464 452 1
569 452 1
13 453 1
123 453 1
465 453 1
570 453 1
14 454 1
124 454 1
466 454 1
571 454 1
15 455 1
125 455 1
467 455 1
572 455 1
16 456 1
126 456 1
468 456 1
573 456 1
17 457 1
109 457 1
451 457 1
574 457 1
18 458 1
110 458 1
452 458 1
575 458 1
1 459 1
111 459 1
453 459 1
576 459 1
2 460 1
112 460 1
454 460 1
559 460 1
3 461 1
113 461 1
455 461 1
560 461 1
4 462 1
114 462 1
456 462 1
561 462 1
5 463 1
115 463 1
457 463 1
562 463 1
6 464 1
116 464 1
458 464 1
563 464 1
7 465 1
117 465 1
459 465 1
564 465 1
8 466 1
118 466 1
460 466 1
565 466 1
9 467 1
119 467 1
461 467 1
566 467 1
10 468 1
120 468 1
462 468 1
567 468 1
65 469 1
103 469 1
481 469 1
514 469 1
66 470 1
104 470 1
482 470 1
515 470 1
67 471 1
105 471 1
483 471 1
516 471 1
68 472 1
106 472 1
484 472 1
517 472 1
69 473 1
107 473 1
485 473 1
518 473 1
70 474 1
108 474 1
486 474 1
519 474 1
71 475 1
91 475 1
469 475 1
520 475 1
72 476 1
92 476 1
470 476 1
521 476 1
55 477 1
93 477 1
471 477 1
522 477 1
56 478 1
94 478 1
472 478 1
505 478 1
57 479 1
95 479 1
473 479 1
506 479 1
58 480 1
96 480 1
474 480 1
507 480 1
59 481 1
97 481 1
475 481 1
508 481 1
60 482 1
98 482 1
476 482 1
509 482 1
61 483 1
99 483 1
477 483 1
510 483 1
62 484 1
100 484 1
478 484 1
511 484 1
63 485 1
101 485 1
479 485 1
512 485 1
64 486 1
102 486 1
480 486 1
513 486 1
47 487 1
85 487 1
499 487 1
532 487 1
48 488 1
86 488 1
500 488 1
533 488 1
49 489 1
87 489 1
501 489 1
534 489 1
50 490 1
88 490 1
502 490 1
535 490 1
51 491 1
89 491 1
503 491 1
536 491 1
52 492 1
90 492 1
504 492 1
537 492 1
53 493 1
73 493 1
487 493 1
538 493 1
54 494 1
74 494 1
488 494 1
539 494 1
37 495 1
75 495 1
489 495 1
540 495 1
38 496 1
76 496 1
490 496 1
523 496 1
39 497 1
77 497 1
491 497 1
524 497 1
40 498 1
78 498 1
492 498 1
525 498 1
41 499 1
79 499 1
493 499 1
526 499 1
42 500 1
80 500 1
494 500 1
527 500 1
43 501 1
81 501 1
495 501 1
528 501 1
44 502 1
82 502 1
496 502 1
529 502 1
45 503 1
83 503 1
497 503 1
530 503 1
46 504 1
84 504 1
498 504 1
531 504 1
67 505 1
101 505 1
478 505 1
517 505 1
68 506 1
102 506 1
479 506 1
518 506 1
69 507 1
103 507 1
480 507 1
519 507 1
70 508 1
104 508 1
481 508 1
520 508 1
71 509 1
105 509 1
482 509 1
521 509 1
72 510 1
106 510 1
483 510 1
522 510 1
55 511 1
107 511 1
484 511 1
505 511 1
56 512 1
108 512 1
485 512 1
506 512 1
57 513 1
91 513 1
486 513 1
507 513 1
58 514 1
92 514 1
469 514 1
508 514 1
59 515 1
93 515 1
470 515 1
509 515 1
60 516 1
94 516 1
471 516 1
510 516 1
61 517 1
95 517 1
472 517 1
511 517 1
62 518 1
96 518 1
473 518 1
512 518 1
63 519 1
97 519 1
474 519 1
513 519 1
64 520 1
98 520 1
475 520 1
514 520 1
65 521 1
99 521 1
476 521 1
515 521 1
66 522 1
100 522 1
477 522 1
516 522 1
49 523 1
83 523 1
496 523 1
535 523 1
50 524 1
84 524 1
497 524 1
536 524 1
51 525 1
85 525 1
498 525 1
537 525 1
52 526 1
86 526 1
499 526 1
538 526 1
53 527 1
87 527 1
500 527 1
539 527 1
54 528 1
88 528 1
501 528 1
540 528 1
37 529 1
89 529 1
502 529 1
523 529 1
38 530 1
90 530 1
503 530 1
524 530 1
39 531 1
73 531 1
504 531 1
525 531 1
40 532 1
74 532 1
487 532 1
526 532 1
41 533 1
75 533 1
488 533 1
527 533 1
42 534 1
76 534 1
489 534 1
528 534 1
43 535 1
77 535 1
490 535 1
529 535 1
44 536 1
78 536 1
491 536 1
530 536 1
45 537 1
79 537 1
492 537 1
531 537 1
46 538 1
80 538 1
493 538 1
532 538 1
47 539 1
81 539 1
494 539 1
533 539 1
48 540 1
82 540 1
495 540 1
534 540 1
31 541 1
137 541 1
442 541 1
553 541 1
32 542 1
138 542 1
443 542 1
554 542 1
33 543 1
139 543 1
444 543 1
555 543 1
34 544 1
140 544 1
445 544 1
556 544 1
35 545 1
141 545 1
446 545 1
557 545 1
36 546 1
142 546 1
447 546 1
558 546 1
19 547 1
143 547 1
448 547 1
541 547 1
20 548 1
144 548 1
449 548 1
542 548 1
21 549 1
127 549 1
450 549 1
543 549 1
22 550 1
128 550 1
433 550 1
544 550 1
23 551 1
129 551 1
434 551 1
545 551 1
24 552 1
130 552 1
435 552 1
546 552 1
25 553 1
131 553 1
436 553 1
547 553 1
26 554 1
132 554 1
437 554 1
548 554 1
27 555 1
133 555 1
438 555 1
549 555 1
28 556 1
134 556 1
439 556 1
550 556 1
29 557 1
135 557 1
440 557 1
551 557 1
30 558 1
136 558 1
441 558 1
552 558 1
13 559 1
119 559 1
460 559 1
571 559 1
14 560 1
120 560 1
461 560 1
572 560 1
15 561 1
121 561 1
462 561 1
573 561 1
16 562 1
122 562 1
463 562 1
574 562 1
17 563 1
123 563 1
464 563 1
575 563 1
18 564 1
124 564 1
465 564 1
576 564 1
1 565 1
125 565 1
466 565 1
559 565 1
2 566 1
126 566 1
467 566 1
560 566 1
3 567 1
109 567 1
468 567 1
561 567 1
4 568 1
110 568 1
451 568 1
562 568 1
5 569 1
111 569 1
452 569 1
563 569 1
6 570 1
112 570 1
453 570 1
564 570 1
7 571 1
113 571 1
454 571 1
565 571 1
8 572 1
114 572 1
455 572 1
566 572 1
9 573 1
115 573 1
456 573 1
567 573 1
10 574 1
116 574 1
457 574 1
568 574 1
11 575 1
117 575 1
458 575 1
569 575 1
12 576 1
118 576 1
459 576 1
570 576 1
173 577 1
283 577 1
447 577 1
449 577 1
174 578 1
284 578 1
448 578 1
450 578 1
175 579 1
285 579 1
433 579 1
449 579 1
176 580 1
286 580 1
434 580 1
450 580 1
177 581 1
287 581 1
433 581 1
435 581 1
178 582 1
288 582 1
434 582 1
436 582 1
179 583 1
271 583 1
435 583 1
437 583 1
180 584 1
272 584 1
436 584 1
438 584 1
163 585 1
273 585 1
437 585 1
439 585 1
164 586 1
274 586 1
438 586 1
440 586 1
165 587 1
275 587 1
439 587 1
441 587 1
166 588 1
276 588 1
440 588 1
442 588 1
167 589 1
277 589 1
441 589 1
443 589 1
168 590 1
278 590 1
442 590 1
444 590 1
169 591 1
279 591 1
443 591 1
445 591 1
170 592 1
280 592 1
444 592 1
446 592 1
171 593 1
281 593 1
445 593 1
447 593 1
172 594 1
282 594 1
446 594 1
448 594 1
155 595 1
265 595 1
465 595 1
467 595 1
156 596 1
266 596 1
466 596 1
468 596 1
157 597 1
267 597 1
451 597 1
467 597 1
158 598 1
268 598 1
452 598 1
468 598 1
159 599 1
269 599 1
451 599 1
453 599 1
160 600 1
270 600 1
452 600 1
454 600 1
161 601 1
253 601 1
453 601 1
455 601 1
162 602 1
254 602 1
454 602 1
456 602 1
145 603 1
255 603 1
455 603 1
457 603 1
146 604 1
256 604 1
456 604 1
458 604 1
147 605 1
257 605 1
457 605 1
459 605 1
148 606 1
258 606 1
458 606 1
460 606 1
149 607 1
259 607 1
459 607 1
461 607 1
150 608 1
260 608 1
460 608 1
462 608 1
151 609 1
261 609 1
461 609 1
463 609 1
152 610 1
262 610 1
462 610 1
464 610 1
153 611 1
263 611 1
463 611 1
465 611 1
154 612 1
264 612 1
464 612 1
466 612 1
209 613 1
247 613 1
483 613 1
485 613 1
210 614 1
248 614 1
484 614 1
486 614 1
211 615 1
249 615 1
469 615 1
485 615 1
212 616 1
250 616 1
470 616 1
486 616 1
213 617 1
251 617 1
469 617 1
471 617 1
214 618 1
252 618 1
470 618 1
472 618 1
215 619 1
235 619 1
471 619 1
473 619 1
216 620 1
236 620 1
472 620 1
474 620 1
199 621 1
237 621 1
473 621 1
475 621 1
200 622 1
238 622 1
474 622 1
476 622 1
201 623 1
239 623 1
475 623 1
477 623 1
202 624 1
240 624 1
476 624 1
478 624 1
203 625 1
241 625 1
477 625 1
479 625 1
204 626 1
242 626 1
478 626 1
480 626 1
205 627 1
243 627 1
479 627 1
481 627 1
206 628 1
244 628 1
480 628 1
482 628 1
207 629 1
245 629 1
481 629 1
483 629 1
208 630 1
246 630 1
482 630 1
484 630 1
191 631 1
229 631 1
501 631 1
503 631 1
192 632 1
230 632 1
502 632 1
504 632 1
193 633 1
231 633 1
487 633 1
503 633 1
194 634 1
232 634 1
488 634 1
504 634 1
195 635 1
233 635 1
487 635 1
489 635 1
196 636 1
234 636 1
488 636 1
490 636 1
197 637 1
217 637 1
489 637 1
491 637 1
198 638 1
218 638 1
490 638 1
492 638 1
181 639 1
219 639 1
491 639 1
493 639 1
182 640 1
220 640 1
492 640 1
494 640 1
183 641 1
221 641 1
493 641 1
495 641 1
184 642 1
222 642 1
494 642 1
496 642 1
185 643 1
223 643 1
495 643 1
497 643 1
186 644 1
224 644 1
496 644 1
498 644 1
187 645 1
225 645 1
497 645 1
499 645 1
188 646 1
226 646 1
498 646 1
500 646 1
189 647 1
227 647 1
499 647 1
501 647 1
190 648 1
228 648 1
500 648 1
502 648 1
211 649 1
245 649 1
519 649 1
521 649 1
212 650 1
246 650 1
520 650 1
522 650 1
213 651 1
247 651 1
505 651 1
521 651 1
214 652 1
248 652 1
506 652 1
522 652 1
215 653 1
249 653 1
505 653 1
507 653 1
216 654 1
250 654 1
506 654 1
508 654 1
199 655 1
251 655 1
507 655 1
509 655 1
200 656 1
252 656 1
508 656 1
510 656 1
201 657 1
235 657 1
509 657 1
511 657 1
202 658 1
236 658 1
510 658 1
512 658 1
203 659 1
237 659 1
511 659 1
513 659 1
204 660 1
238 660 1
512 660 1
514 660 1
205 661 1
239 661 1
513 661 1
515 661 1
206 662 1
240 662 1
514 662 1
516 662 1
207 663 1
241 663 1
515 663 1
517 663 1
208 664 1
242 664 1
516 664 1
518 664 1
209 665 1
243 665 1
517 665 1
519 665 1
210 666 1
244 666 1
518 666 1
520 666 1
193 667 1
227 667 1
537 667 1
539 667 1
194 668 1
228 668 1
538 668 1
540 668 1
195 669 1
229 669 1
523 669 1
539 669 1
196 670 1
230 670 1
524 670 1
540 670 1
197 671 1
231 671 1
523 671 1
525 671 1
198 672 1
232 672 1
524 672 1
526 672 1
181 673 1
233 673 1
525 673 1
527 673 1
182 674 1
234 674 1
526 674 1
528 674 1
183 675 1
217 675 1
527 675 1
529 675 1
184 676 1
218 676 1
528 676 1
530 676 1
185 677 1
219 677 1
529 677 1
531 677 1
186 678 1
220 678 1
530 678 1
532 678 1
187 679 1
221 679 1
531 679 1
533 679 1
188 680 1
222 680 1
532 680 1
534 680 1
189 681 1
223 681 1
533 681 1
535 681 1
190 682 1
224 682 1
534 682 1
536 682 1
191 683 1
225 683 1
535 683 1
537 683 1
192 684 1
226 684 1
536 684 1
538 684 1
175 685 1
281 685 1
555 685 1
557 685 1
176 686 1
282 686 1
556 686 1
558 686 1
177 687 1
283 687 1
541 687 1
557 687 1
178 688 1
284 688 1
542 688 1
558 688 1
179 689 1
285 689 1
541 689 1
543 689 1
180 690 1
286 690 1
542 690 1
544 690 1
163 691 1
287 691 1
543 691 1
545 691 1
164 692 1
288 692 1
544 692 1
546 692 1
165 693 1
271 693 1
545 693 1
547 693 1
166 694 1
272 694 1
546 694 1
548 694 1
167 695 1
273 695 1
547 695 1
549 695 1
168 696 1
274 696 1
548 696 1
550 696 1
169 697 1
275 697 1
549 697 1
551 697 1
170 698 1
276 698 1
550 698 1
552 698 1
171 699 1
277 699 1
551 699 1
553 699 1
172 700 1
278 700 1
552 700 1
554 700 1
173 701 1
279 701 1
553 701 1
555 701 1
174 702 1
280 702 1
554 702 1
556 702 1
157 703 1
263 703 1
573 703 1
575 703 1
158 704 1
264 704 1
574 704 1
576 704 1
159 705 1
265 705 1
559 705 1
575 705 1
160 706 1
266 706 1
560 706 1
576 706 1
161 707 1
267 707 1
559 707 1
561 707 1
162 708 1
268 708 1
560 708 1
562 708 1
145 709 1
269 709 1
561 709 1
563 709 1
146 710 1
270 710 1
562 710 1
564 710 1
147 711 1
253 711 1
563 711 1
565 711 1
148 712 1
254 712 1
564 712 1
566 712 1
149 713 1
255 713 1
565 713 1
567 713 1
150 714 1
256 714 1
566 714 1
568 714 1
151 715 1
257 715 1
567 715 1
569 715 1
152 716 1
258 716 1
568 716 1
570 716 1
153 717 1
259 717 1
569 717 1
571 717 1
154 718 1
260 718 1
570 718 1
572 718 1
155 719 1
261 719 1
571 719 1
573 719 1
156 720 1
262 720 1
572 720 1
574 720 1
317 721 1
427 721 1
464 721 1
565 721 1
318 722 1
428 722 1
465 722 1
566 722 1
319 723 1
429 723 1
466 723 1
567 723 1
320 724 1
430 724 1
467 724 1
568 724 1
321 725 1
431 725 1
468 725 1
569 725 1
322 726 1
432 726 1
451 726 1
570 726 1
323 727 1
415 727 1
452 727 1
571 727 1
324 728 1
416 728 1
453 728 1
572 728 1
307 729 1
417 729 1
454 729 1
573 729 1
308 730 1
418 730 1
455 730 1
574 730 1
309 731 1
419 731 1
456 731 1
575 731 1
310 732 1
420 732 1
457 732 1
576 732 1
311 733 1
421 733 1
458 733 1
559 733 1
312 734 1
422 734 1
459 734 1
560 734 1
313 735 1
423 735 1
460 735 1
561 735 1
314 736 1
424 736 1
461 736 1
562 736 1
315 737 1
425 737 1
462 737 1
563 737 1
316 738 1
426 738 1
463 738 1
564 738 1
299 739 1
409 739 1
446 739 1
547 739 1
300 740 1
410 740 1
447 740 1
548 740 1
301 741 1
411 741 1
448 741 1
549 741 1
302 742 1
412 742 1
449 742 1
550 742 1
303 743 1
413 743 1
450 743 1
551 743 1
304 744 1
414 744 1
433 744 1
552 744 1
305 745 1
397 745 1
434 745 1
553 745 1
306 746 1
398 746 1
435 746 1
554 746 1
289 747 1
399 747 1
436 747 1
555 747 1
290 748 1
400 748 1
437 748 1
556 748 1
291 749 1
401 749 1
438 749 1
557 749 1
292 750 1
402 750 1
439 750 1
558 750 1
293 751 1
403 751 1
440 751 1
541 751 1
294 752 1
404 752 1
441 752 1
542 752 1
295 753 1
405 753 1
442 753 1
543 753 1
296 754 1
406 754 1
443 754 1
544 754 1
297 755 1
407 755 1
444 755 1
545 755 1
298 756 1
408 756 1
445 756 1
546 756 1
353 757 1
391 757 1
500 757 1
529 757 1
354 758 1
392 758 1
501 758 1
530 758 1
355 759 1
393 759 1
502 759 1
531 759 1
356 760 1
394 760 1
503 760 1
532 760 1
357 761 1
395 761 1
504 761 1
533 761 1
358 762 1
396 762 1
487 762 1
534 762 1
359 763 1
379 763 1
488 763 1
535 763 1
360 764 1
380 764 1
489 764 1
536 764 1
343 765 1
381 765 1
490 765 1
537 765 1
344 766 1
382 766 1
491 766 1
538 766 1
345 767 1
383 767 1
492 767 1
539 767 1
346 768 1
384 768 1
493 768 1
540 768 1
347 769 1
385 769 1
494 769 1
523 769 1
348 770 1
386 770 1
495 770 1
524 770 1
349 771 1
387 771 1
496 771 1
525 771 1
350 772 1
388 772 1
497 772 1
526 772 1
351 773 1
389 773 1
498 773 1
527 773 1
352 774 1
390 774 1
499 774 1
528 774 1
335 775 1
373 775 1
482 775 1
511 775 1
336 776 1
374 776 1
483 776 1
512 776 1
337 777 1
375 777 1
484 777 1
513 777 1
338 778 1
376 778 1
485 778 1
514 778 1
339 779 1
377 779 1
486 779 1
515 779 1
340 780 1
378 780 1
469 780 1
516 780 1
341 781 1
361 781 1
470 781 1
517 781 1
342 782 1
362 782 1
471 782 1
518 782 1
325 783 1
363 783 1
472 783 1
519 783 1
326 784 1
364 784 1
473 784 1
520 784 1
327 785 1
365 785 1
474 785 1
521 785 1
328 786 1
366 786 1
475 786 1
522 786 1
329 787 1
367 787 1
476 787 1
505 787 1
330 788 1
368 788 1
477 788 1
506 788 1
331 789 1
369 789 1
478 789 1
507 789 1
332 790 1
370 790 1
479 790 1
508 790 1
333 791 1
371 791 1
480 791 1
509 791 1
334 792 1
372 792 1
481 792 1
510 792 1
355 793 1
389 793 1
493 793 1
536 793 1
356 794 1
390 794 1
494 794 1
537 794 1
357 795 1
391 795 1
495 795 1
538 795 1
358 796 1
392 796 1
496 796 1
539 796 1
359 797 1
393 797 1
497 797 1
540 797 1
360 798 1
394 798 1
498 798 1
523 798 1
343 799 1
395 799 1
499 799 1
524 799 1
344 800 1
396 800 1
500 800 1
525 800 1
345 801 1
379 801 1
501 801 1
526 801 1
346 802 1
380 802 1
502 802 1
527 802 1
347 803 1
381 803 1
503 803 1
528 803 1
348 804 1
382 804 1
504 804 1
529 804 1
349 805 1
383 805 1
487 805 1
530 805 1
350 806 1
384 806 1
488 806 1
531 806 1
351 807 1
385 807 1
489 807 1
532 807 1
352 808 1
386 808 1
490 808 1
533 808 1
353 809 1
387 809 1
491 809 1
534 809 1
354 810 1
388 810 1
492 810 1
535 810 1
337 811 1
371 811 1
475 811 1
518 811 1
338 812 1
372 812 1
476 812 1
519 812 1
339 813 1
373 813 1
477 813 1
520 813 1
340 814 1
374 814 1
478 814 1
521 814 1
341 815 1
375 815 1
479 815 1
522 815 1
342 816 1
376 816 1
480 816 1
505 816 1
325 817 1
377 817 1
481 817 1
506 817 1
326 818 1
378 818 1
482 818 1
507 818 1
327 819 1
361 819 1
483 819 1
508 819 1
328 820 1
362 820 1
484 820 1
509 820 1
329 821 1
363 821 1
485 821 1
510 821 1
330 822 1
364 822 1
486 822 1
511 822 1
331 823 1
365 823 1
469 823 1
512 823 1
332 824 1
366 824 1
470 824 1
513 824 1
333 825 1
367 825 1
471 825 1
514 825 1
334 826 1
368 826 1
472 826 1
515 826 1
335 827 1
369 827 1
473 827 1
516 827 1
336 828 1
370 828 1
474 828 1
517 828 1
319 829 1
425 829 1
457 829 1
572 829 1
320 830 1
426 830 1
458 830 1
573 830 1
321 831 1
427 831 1
459 831 1
574 831 1
322 832 1
428 832 1
460 832 1
575 832 1
323 833 1
429 833 1
461 833 1
576 833 1
324 834 1
430 834 1
462 834 1
559 834 1
307 835 1
431 835 1
463 835 1
560 835 1
308 836 1
432 836 1
464 836 1
561 836 1
309 837 1
415 837 1
465 837 1
562 837 1
310 838 1
416 838 1
466 838 1
563 838 1
311 839 1
417 839 1
467 839 1
564 839 1
312 840 1
418 840 1
468 840 1
565 840 1
313 841 1
419 841 1
451 841 1
566 841 1
314 842 1
420 842 1
452 842 1
567 842 1
315 843 1
421 843 1
453 843 1
568 843 1
316 844 1
422 844 1
454 844 1
569 844 1
317 845 1
423 845 1
455 845 1
570 845 1
318 846 1
424 846 1
456 846 1
571 846 1
301 847 1
407 847 1
439 847 1
554 847 1
302 848 1
408 848 1
440 848 1
555 848 1
303 849 1
409 849 1
441 849 1
556 849 1
304 850 1
410 850 1
442 850 1
557 850 1
305 851 1
411 851 1
443 851 1
558 851 1
306 852 1
412 852 1
444 852 1
541 852 1
289 853 1
413 853 1
445 853 1
542 853 1
290 854 1
414 854 1
446 854 1
543 854 1
291 855 1
397 855 1
447 855 1
544 855 1
292 856 1
398 856 1
448 856 1
545 856 1
293 857 1
399 857 1
449 857 1
546 857 1
294 858 1
400 858 1
450 858 1
547 858 1
295 859 1
401 859 1
433 859 1
548 859 1
296 860 1
402 860 1
434 860 1
549 860 1
297 861 1
403 861 1
435 861 1
550 861 1
298 862 1
404 862 1
436 862 1
551 862 1
299 863 1
405 863 1
437 863 1
552 863 1
300 864 1
406 864 1
438 864 1
553 864 1
