%%MatrixMarket matrix coordinate integer general
% Binary matrix; one-based indices; arithmetic over GF(2)
560 700 5600
1 1 1
5 1 1
11 1 1
14 1 1
61 1 1
63 1 1
211 1 1
212 1 1
2 2 1
6 2 1
12 2 1
15 2 1
62 2 1
64 2 1
212 2 1
213 2 1
3 3 1
7 3 1
13 3 1
16 3 1
63 3 1
65 3 1
213 3 1
214 3 1
4 4 1
8 4 1
14 4 1
17 4 1
64 4 1
66 4 1
214 4 1
215 4 1
5 5 1
9 5 1
15 5 1
18 5 1
65 5 1
67 5 1
215 5 1
216 5 1
6 6 1
10 6 1
16 6 1
19 6 1
66 6 1
68 6 1
216 6 1
217 6 1
1 7 1
7 7 1
17 7 1
20 7 1
67 7 1
69 7 1
217 7 1
218 7 1
2 8 1
8 8 1
11 8 1
18 8 1
68 8 1
70 8 1
218 8 1
219 8 1
3 9 1
9 9 1
12 9 1
19 9 1
61 9 1
69 9 1
219 9 1
220 9 1
4 10 1
10 10 1
13 10 1
20 10 1
62 10 1
70 10 1
211 10 1
220 10 1
1 11 1
6 11 1
21 11 1
24 11 1
71 11 1
73 11 1
221 11 1
222 11 1
2 12 1
7 12 1
22 12 1
25 12 1
72 12 1
74 12 1
222 12 1
223 12 1
3 13 1
8 13 1
23 13 1
26 13 1
73 13 1
75 13 1
223 13 1
224 13 1
4 14 1
9 14 1
24 14 1
27 14 1
74 14 1
76 14 1
224 14 1
225 14 1
5 15 1
10 15 1
25 15 1
28 15 1
75 15 1
77 15 1
225 15 1
226 15 1
1 16 1
6 16 1
26 16 1
29 16 1
76 16 1
78 16 1
226 16 1
227 16 1
2 17 1
7 17 1
27 17 1
30 17 1
77 17 1
79 17 1
227 17 1
228 17 1
3 18 1
8 18 1
21 18 1
28 18 1
78 18 1
80 18 1
228 18 1
229 18 1
4 19 1
9 19 1
22 19 1
29 19 1
71 19 1
79 19 1
229 19 1
230 19 1
5 20 1
10 20 1
23 20 1
30 20 1
72 20 1
80 20 1
221 20 1
230 20 1
1 21 1
7 21 1
31 21 1
34 21 1
81 21 1
83 21 1
231 21 1
232 21 1
2 22 1
8 22 1
32 22 1
35 22 1
82 22 1
84 22 1
232 22 1
233 22 1
3 23 1
9 23 1
33 23 1
36 23 1
83 23 1
85 23 1
233 23 1
234 23 1
4 24 1
10 24 1
34 24 1
37 24 1
84 24 1
86 24 1
234 24 1
235 24 1
1 25 1
5 25 1
35 25 1
38 25 1
85 25 1
87 25 1
235 25 1
236 25 1
2 26 1
6 26 1
36 26 1
39 26 1
86 26 1
88 26 1
236 26 1
237 26 1
3 27 1
7 27 1
37 27 1
40 27 1
87 27 1
89 27 1
237 27 1
238 27 1
4 28 1
8 28 1
31 28 1
38 28 1
88 28 1
90 28 1
238 28 1
239 28 1
5 29 1
9 29 1
32 29 1
39 29 1
81 29 1
89 29 1
239 29 1
240 29 1
6 30 1
10 30 1
33 30 1
40 30 1
82 30 1
90 30 1
231 30 1
240 30 1
1 31 1
8 31 1
41 31 1
44 31 1
91 31 1
93 31 1
241 31 1
242 31 1
2 32 1
9 32 1
42 32 1
45 32 1
92 32 1
94 32 1
242 32 1
243 32 1
3 33 1
10 33 1
43 33 1
46 33 1
93 33 1
95 33 1
243 33 1
244 33 1
1 34 1
4 34 1
44 34 1
47 34 1
94 34 1
96 34 1
244 34 1
245 34 1
2 35 1
5 35 1
45 35 1
48 35 1
95 35 1
97 35 1
245 35 1
246 35 1
3 36 1
6 36 1
46 36 1
49 36 1
96 36 1
98 36 1
246 36 1
247 36 1
4 37 1
7 37 1
47 37 1
50 37 1
97 37 1
99 37 1
247 37 1
248 37 1
5 38 1
8 38 1
41 38 1
48 38 1
98 38 1
100 38 1
248 38 1
249 38 1
6 39 1
9 39 1
42 39 1
49 39 1
91 39 1
99 39 1
249 39 1
250 39 1
7 40 1
10 40 1
43 40 1
50 40 1
92 40 1
100 40 1
241 40 1
250 40 1
1 41 1
10 41 1
51 41 1
54 41 1
101 41 1
103 41 1
251 41 1
252 41 1
1 42 1
2 42 1
52 42 1
55 42 1
102 42 1
104 42 1
252 42 1
253 42 1
2 43 1
3 43 1
53 43 1
56 43 1
103 43 1
105 43 1
253 43 1
254 43 1
3 44 1
4 44 1
54 44 1
57 44 1
104 44 1
106 44 1
254 44 1
255 44 1
4 45 1
5 45 1
55 45 1
58 45 1
105 45 1
107 45 1
255 45 1
256 45 1
5 46 1
6 46 1
56 46 1
59 46 1
106 46 1
108 46 1
256 46 1
257 46 1
6 47 1
7 47 1
57 47 1
60 47 1
107 47 1
109 47 1
257 47 1
258 47 1
7 48 1
8 48 1
51 48 1
58 48 1
108 48 1
110 48 1
258 48 1
259 48 1
8 49 1
9 49 1
52 49 1
59 49 1
101 49 1
109 49 1
259 49 1
260 49 1
9 50 1
10 50 1
53 50 1
60 50 1
102 50 1
110 50 1
251 50 1
260 50 1
11 51 1
16 51 1
21 51 1
25 51 1
111 51 1
113 51 1
261 51 1
262 51 1
12 52 1
17 52 1
22 52 1
26 52 1
112 52 1
114 52 1
262 52 1
263 52 1
13 53 1
18 53 1
23 53 1
27 53 1
113 53 1
115 53 1
263 53 1
264 53 1
14 54 1
19 54 1
24 54 1
28 54 1
114 54 1
116 54 1
264 54 1
265 54 1
15 55 1
20 55 1
25 55 1
29 55 1
115 55 1
117 55 1
265 55 1
266 55 1
11 56 1
16 56 1
26 56 1
30 56 1
116 56 1
118 56 1
266 56 1
267 56 1
12 57 1
17 57 1
21 57 1
27 57 1
117 57 1
119 57 1
267 57 1
268 57 1
13 58 1
18 58 1
22 58 1
28 58 1
118 58 1
120 58 1
268 58 1
269 58 1
14 59 1
19 59 1
23 59 1
29 59 1
111 59 1
119 59 1
269 59 1
270 59 1
15 60 1
20 60 1
24 60 1
30 60 1
112 60 1
120 60 1
261 60 1
270 60 1
11 61 1
17 61 1
31 61 1
35 61 1
121 61 1
123 61 1
271 61 1
272 61 1
12 62 1
18 62 1
32 62 1
36 62 1
122 62 1
124 62 1
272 62 1
273 62 1
13 63 1
19 63 1
33 63 1
37 63 1
123 63 1
125 63 1
273 63 1
274 63 1
14 64 1
20 64 1
34 64 1
38 64 1
124 64 1
126 64 1
274 64 1
275 64 1
11 65 1
15 65 1
35 65 1
39 65 1
125 65 1
127 65 1
275 65 1
276 65 1
12 66 1
16 66 1
36 66 1
40 66 1
126 66 1
128 66 1
276 66 1
277 66 1
13 67 1
17 67 1
31 67 1
37 67 1
127 67 1
129 67 1
277 67 1
278 67 1
14 68 1
18 68 1
32 68 1
38 68 1
128 68 1
130 68 1
278 68 1
279 68 1
15 69 1
19 69 1
33 69 1
39 69 1
121 69 1
129 69 1
279 69 1
280 69 1
16 70 1
20 70 1
34 70 1
40 70 1
122 70 1
130 70 1
271 70 1
280 70 1
11 71 1
18 71 1
41 71 1
45 71 1
131 71 1
133 71 1
281 71 1
282 71 1
12 72 1
19 72 1
42 72 1
46 72 1
132 72 1
134 72 1
282 72 1
283 72 1
13 73 1
20 73 1
43 73 1
47 73 1
133 73 1
135 73 1
283 73 1
284 73 1
11 74 1
14 74 1
44 74 1
48 74 1
134 74 1
136 74 1
284 74 1
285 74 1
12 75 1
15 75 1
45 75 1
49 75 1
135 75 1
137 75 1
285 75 1
286 75 1
13 76 1
16 76 1
46 76 1
50 76 1
136 76 1
138 76 1
286 76 1
287 76 1
14 77 1
17 77 1
41 77 1
47 77 1
137 77 1
139 77 1
287 77 1
288 77 1
15 78 1
18 78 1
42 78 1
48 78 1
138 78 1
140 78 1
288 78 1
289 78 1
16 79 1
19 79 1
43 79 1
49 79 1
131 79 1
139 79 1
289 79 1
290 79 1
17 80 1
20 80 1
44 80 1
50 80 1
132 80 1
140 80 1
281 80 1
290 80 1
11 81 1
20 81 1
51 81 1
55 81 1
141 81 1
143 81 1
291 81 1
292 81 1
11 82 1
12 82 1
52 82 1
56 82 1
142 82 1
144 82 1
292 82 1
293 82 1
12 83 1
13 83 1
53 83 1
57 83 1
143 83 1
145 83 1
293 83 1
294 83 1
13 84 1
14 84 1
54 84 1
58 84 1
144 84 1
146 84 1
294 84 1
295 84 1
14 85 1
15 85 1
55 85 1
59 85 1
145 85 1
147 85 1
295 85 1
296 85 1
15 86 1
16 86 1
56 86 1
60 86 1
146 86 1
148 86 1
296 86 1
297 86 1
16 87 1
17 87 1
51 87 1
57 87 1
147 87 1
149 87 1
297 87 1
298 87 1
17 88 1
18 88 1
52 88 1
58 88 1
148 88 1
150 88 1
298 88 1
299 88 1
18 89 1
19 89 1
53 89 1
59 89 1
141 89 1
149 89 1
299 89 1
300 89 1
19 90 1
20 90 1
54 90 1
60 90 1
142 90 1
150 90 1
291 90 1
300 90 1
21 91 1
27 91 1
31 91 1
36 91 1
151 91 1
153 91 1
301 91 1
302 91 1
22 92 1
28 92 1
32 92 1
37 92 1
152 92 1
154 92 1
302 92 1
303 92 1
23 93 1
29 93 1
33 93 1
38 93 1
153 93 1
155 93 1
303 93 1
304 93 1
24 94 1
30 94 1
34 94 1
39 94 1
154 94 1
156 94 1
304 94 1
305 94 1
21 95 1
25 95 1
35 95 1
40 95 1
155 95 1
157 95 1
305 95 1
306 95 1
22 96 1
26 96 1
31 96 1
36 96 1
156 96 1
158 96 1
306 96 1
307 96 1
23 97 1
27 97 1
32 97 1
37 97 1
157 97 1
159 97 1
307 97 1
308 97 1
24 98 1
28 98 1
33 98 1
38 98 1
158 98 1
160 98 1
308 98 1
309 98 1
25 99 1
29 99 1
34 99 1
39 99 1
151 99 1
159 99 1
309 99 1
310 99 1
26 100 1
30 100 1
35 100 1
40 100 1
152 100 1
160 100 1
301 100 1
310 100 1
21 101 1
28 101 1
41 101 1
46 101 1
161 101 1
163 101 1
311 101 1
312 101 1
22 102 1
29 102 1
42 102 1
47 102 1
162 102 1
164 102 1
312 102 1
313 102 1
23 103 1
30 103 1
43 103 1
48 103 1
163 103 1
165 103 1
313 103 1
314 103 1
21 104 1
24 104 1
44 104 1
49 104 1
164 104 1
166 104 1
314 104 1
315 104 1
22 105 1
25 105 1
45 105 1
50 105 1
165 105 1
167 105 1
315 105 1
316 105 1
23 106 1
26 106 1
41 106 1
46 106 1
166 106 1
168 106 1
316 106 1
317 106 1
24 107 1
27 107 1
42 107 1
47 107 1
167 107 1
169 107 1
317 107 1
318 107 1
25 108 1
28 108 1
43 108 1
48 108 1
168 108 1
170 108 1
318 108 1
319 108 1
26 109 1
29 109 1
44 109 1
49 109 1
161 109 1
169 109 1
319 109 1
320 109 1
27 110 1
30 110 1
45 110 1
50 110 1
162 110 1
170 110 1
311 110 1
320 110 1
21 111 1
30 111 1
51 111 1
56 111 1
171 111 1
173 111 1
321 111 1
322 111 1
21 112 1
22 112 1
52 112 1
57 112 1
172 112 1
174 112 1
322 112 1
323 112 1
22 113 1
23 113 1
53 113 1
58 113 1
173 113 1
175 113 1
323 113 1
324 113 1
23 114 1
24 114 1
54 114 1
59 114 1
174 114 1
176 114 1
324 114 1
325 114 1
24 115 1
25 115 1
55 115 1
60 115 1
175 115 1
177 115 1
325 115 1
326 115 1
25 116 1
26 116 1
51 116 1
56 116 1
176 116 1
178 116 1
326 116 1
327 116 1
26 117 1
27 117 1
52 117 1
57 117 1
177 117 1
179 117 1
327 117 1
328 117 1
27 118 1
28 118 1
53 118 1
58 118 1
178 118 1
180 118 1
328 118 1
329 118 1
28 119 1
29 119 1
54 119 1
59 119 1
171 119 1
179 119 1
329 119 1
330 119 1
29 120 1
30 120 1
55 120 1
60 120 1
172 120 1
180 120 1
321 120 1
330 120 1
31 121 1
38 121 1
41 121 1
47 121 1
181 121 1
183 121 1
331 121 1
332 121 1
32 122 1
39 122 1
42 122 1
48 122 1
182 122 1
184 122 1
332 122 1
333 122 1
33 123 1
40 123 1
43 123 1
49 123 1
183 123 1
185 123 1
333 123 1
334 123 1
31 124 1
34 124 1
44 124 1
50 124 1
184 124 1
186 124 1
334 124 1
335 124 1
32 125 1
35 125 1
41 125 1
45 125 1
185 125 1
187 125 1
335 125 1
336 125 1
33 126 1
36 126 1
42 126 1
46 126 1
186 126 1
188 126 1
336 126 1
337 126 1
34 127 1
37 127 1
43 127 1
47 127 1
187 127 1
189 127 1
337 127 1
338 127 1
35 128 1
38 128 1
44 128 1
48 128 1
188 128 1
190 128 1
338 128 1
339 128 1
36 129 1
39 129 1
45 129 1
49 129 1
181 129 1
189 129 1
339 129 1
340 129 1
37 130 1
40 130 1
46 130 1
50 130 1
182 130 1
190 130 1
331 130 1
340 130 1
31 131 1
40 131 1
51 131 1
57 131 1
191 131 1
193 131 1
341 131 1
342 131 1
31 132 1
32 132 1
52 132 1
58 132 1
192 132 1
194 132 1
342 132 1
343 132 1
32 133 1
33 133 1
53 133 1
59 133 1
193 133 1
195 133 1
343 133 1
344 133 1
33 134 1
34 134 1
54 134 1
60 134 1
194 134 1
196 134 1
344 134 1
345 134 1
34 135 1
35 135 1
51 135 1
55 135 1
195 135 1
197 135 1
345 135 1
346 135 1
35 136 1
36 136 1
52 136 1
56 136 1
196 136 1
198 136 1
346 136 1
347 136 1
36 137 1
37 137 1
53 137 1
57 137 1
197 137 1
199 137 1
347 137 1
348 137 1
37 138 1
38 138 1
54 138 1
58 138 1
198 138 1
200 138 1
348 138 1
349 138 1
38 139 1
39 139 1
55 139 1
59 139 1
191 139 1
199 139 1
349 139 1
350 139 1
39 140 1
40 140 1
56 140 1
60 140 1
192 140 1
200 140 1
341 140 1
350 140 1
41 141 1
50 141 1
51 141 1
58 141 1
201 141 1
203 141 1
351 141 1
352 141 1
41 142 1
42 142 1
52 142 1
59 142 1
202 142 1
204 142 1
352 142 1
353 142 1
42 143 1
43 143 1
53 143 1
60 143 1
203 143 1
205 143 1
353 143 1
354 143 1
43 144 1
44 144 1
51 144 1
54 144 1
204 144 1
206 144 1
354 144 1
355 144 1
44 145 1
45 145 1
52 145 1
55 145 1
205 145 1
207 145 1
355 145 1
356 145 1
45 146 1
46 146 1
53 146 1
56 146 1
206 146 1
208 146 1
356 146 1
357 146 1
46 147 1
47 147 1
54 147 1
57 147 1
207 147 1
209 147 1
357 147 1
358 147 1
47 148 1
48 148 1
55 148 1
58 148 1
208 148 1
210 148 1
358 148 1
359 148 1
48 149 1
49 149 1
56 149 1
59 149 1
201 149 1
209 149 1
359 149 1
360 149 1
49 150 1
50 150 1
57 150 1
60 150 1
202 150 1
210 150 1
351 150 1
360 150 1
61 151 1
66 151 1
71 151 1
75 151 1
111 151 1
114 151 1
361 151 1
362 151 1
62 152 1
67 152 1
72 152 1
76 152 1
112 152 1
115 152 1
362 152 1
363 152 1
63 153 1
68 153 1
73 153 1
77 153 1
113 153 1
116 153 1
363 153 1
364 153 1
64 154 1
69 154 1
74 154 1
78 154 1
114 154 1
117 154 1
364 154 1
365 154 1
65 155 1
70 155 1
75 155 1
79 155 1
115 155 1
118 155 1
365 155 1
366 155 1
61 156 1
66 156 1
76 156 1
80 156 1
116 156 1
119 156 1
366 156 1
367 156 1
62 157 1
67 157 1
71 157 1
77 157 1
117 157 1
120 157 1
367 157 1
368 157 1
63 158 1
68 158 1
72 158 1
78 158 1
111 158 1
118 158 1
368 158 1
369 158 1
64 159 1
69 159 1
73 159 1
79 159 1
112 159 1
119 159 1
369 159 1
370 159 1
65 160 1
70 160 1
74 160 1
80 160 1
113 160 1
120 160 1
361 160 1
370 160 1
61 161 1
67 161 1
81 161 1
85 161 1
121 161 1
124 161 1
371 161 1
372 161 1
62 162 1
68 162 1
82 162 1
86 162 1
122 162 1
125 162 1
372 162 1
373 162 1
63 163 1
69 163 1
83 163 1
87 163 1
123 163 1
126 163 1
373 163 1
374 163 1
64 164 1
70 164 1
84 164 1
88 164 1
124 164 1
127 164 1
374 164 1
375 164 1
61 165 1
65 165 1
85 165 1
89 165 1
125 165 1
128 165 1
375 165 1
376 165 1
62 166 1
66 166 1
86 166 1
90 166 1
126 166 1
129 166 1
376 166 1
377 166 1
63 167 1
67 167 1
81 167 1
87 167 1
127 167 1
130 167 1
377 167 1
378 167 1
64 168 1
68 168 1
82 168 1
88 168 1
121 168 1
128 168 1
378 168 1
379 168 1
65 169 1
69 169 1
83 169 1
89 169 1
122 169 1
129 169 1
379 169 1
380 169 1
66 170 1
70 170 1
84 170 1
90 170 1
123 170 1
130 170 1
371 170 1
380 170 1
61 171 1
68 171 1
91 171 1
95 171 1
131 171 1
134 171 1
381 171 1
382 171 1
62 172 1
69 172 1
92 172 1
96 172 1
132 172 1
135 172 1
382 172 1
383 172 1
63 173 1
70 173 1
93 173 1
97 173 1
133 173 1
136 173 1
383 173 1
384 173 1
61 174 1
64 174 1
94 174 1
98 174 1
134 174 1
137 174 1
384 174 1
385 174 1
62 175 1
65 175 1
95 175 1
99 175 1
135 175 1
138 175 1
385 175 1
386 175 1
63 176 1
66 176 1
96 176 1
100 176 1
136 176 1
139 176 1
386 176 1
387 176 1
64 177 1
67 177 1
91 177 1
97 177 1
137 177 1
140 177 1
387 177 1
388 177 1
65 178 1
68 178 1
92 178 1
98 178 1
131 178 1
138 178 1
388 178 1
389 178 1
66 179 1
69 179 1
93 179 1
99 179 1
132 179 1
139 179 1
389 179 1
390 179 1
67 180 1
70 180 1
94 180 1
100 180 1
133 180 1
140 180 1
381 180 1
390 180 1
61 181 1
70 181 1
101 181 1
105 181 1
141 181 1
144 181 1
391 181 1
392 181 1
61 182 1
62 182 1
102 182 1
106 182 1
142 182 1
145 182 1
392 182 1
393 182 1
62 183 1
63 183 1
103 183 1
107 183 1
143 183 1
146 183 1
393 183 1
394 183 1
63 184 1
64 184 1
104 184 1
108 184 1
144 184 1
147 184 1
394 184 1
395 184 1
64 185 1
65 185 1
105 185 1
109 185 1
145 185 1
148 185 1
395 185 1
396 185 1
65 186 1
66 186 1
106 186 1
110 186 1
146 186 1
149 186 1
396 186 1
397 186 1
66 187 1
67 187 1
101 187 1
107 187 1
147 187 1
150 187 1
397 187 1
398 187 1
67 188 1
68 188 1
102 188 1
108 188 1
141 188 1
148 188 1
398 188 1
399 188 1
68 189 1
69 189 1
103 189 1
109 189 1
142 189 1
149 189 1
399 189 1
400 189 1
69 190 1
70 190 1
104 190 1
110 190 1
143 190 1
150 190 1
391 190 1
400 190 1
71 191 1
77 191 1
81 191 1
86 191 1
151 191 1
154 191 1
401 191 1
402 191 1
72 192 1
78 192 1
82 192 1
87 192 1
152 192 1
155 192 1
402 192 1
403 192 1
73 193 1
79 193 1
83 193 1
88 193 1
153 193 1
156 193 1
403 193 1
404 193 1
74 194 1
80 194 1
84 194 1
89 194 1
154 194 1
157 194 1
404 194 1
405 194 1
71 195 1
75 195 1
85 195 1
90 195 1
155 195 1
158 195 1
405 195 1
406 195 1
72 196 1
76 196 1
81 196 1
86 196 1
156 196 1
159 196 1
406 196 1
407 196 1
73 197 1
77 197 1
82 197 1
87 197 1
157 197 1
160 197 1
407 197 1
408 197 1
74 198 1
78 198 1
83 198 1
88 198 1
151 198 1
158 198 1
408 198 1
409 198 1
75 199 1
79 199 1
84 199 1
89 199 1
152 199 1
159 199 1
409 199 1
410 199 1
76 200 1
80 200 1
85 200 1
90 200 1
153 200 1
160 200 1
401 200 1
410 200 1
71 201 1
78 201 1
91 201 1
96 201 1
161 201 1
164 201 1
411 201 1
412 201 1
72 202 1
79 202 1
92 202 1
97 202 1
162 202 1
165 202 1
412 202 1
413 202 1
73 203 1
80 203 1
93 203 1
98 203 1
163 203 1
166 203 1
413 203 1
414 203 1
71 204 1
74 204 1
94 204 1
99 204 1
164 204 1
167 204 1
414 204 1
415 204 1
72 205 1
75 205 1
95 205 1
100 205 1
165 205 1
168 205 1
415 205 1
416 205 1
73 206 1
76 206 1
91 206 1
96 206 1
166 206 1
169 206 1
416 206 1
417 206 1
74 207 1
77 207 1
92 207 1
97 207 1
167 207 1
170 207 1
417 207 1
418 207 1
75 208 1
78 208 1
93 208 1
98 208 1
161 208 1
168 208 1
418 208 1
419 208 1
76 209 1
79 209 1
94 209 1
99 209 1
162 209 1
169 209 1
419 209 1
420 209 1
77 210 1
80 210 1
95 210 1
100 210 1
163 210 1
170 210 1
411 210 1
420 210 1
71 211 1
80 211 1
101 211 1
106 211 1
171 211 1
174 211 1
421 211 1
422 211 1
71 212 1
72 212 1
102 212 1
107 212 1
172 212 1
175 212 1
422 212 1
423 212 1
72 213 1
73 213 1
103 213 1
108 213 1
173 213 1
176 213 1
423 213 1
424 213 1
73 214 1
74 214 1
104 214 1
109 214 1
174 214 1
177 214 1
424 214 1
425 214 1
74 215 1
75 215 1
105 215 1
110 215 1
175 215 1
178 215 1
425 215 1
426 215 1
75 216 1
76 216 1
101 216 1
106 216 1
176 216 1
179 216 1
426 216 1
427 216 1
76 217 1
77 217 1
102 217 1
107 217 1
177 217 1
180 217 1
427 217 1
428 217 1
77 218 1
78 218 1
103 218 1
108 218 1
171 218 1
178 218 1
428 218 1
429 218 1
78 219 1
79 219 1
104 219 1
109 219 1
172 219 1
179 219 1
429 219 1
430 219 1
79 220 1
80 220 1
105 220 1
110 220 1
173 220 1
180 220 1
421 220 1
430 220 1
81 221 1
88 221 1
91 221 1
97 221 1
181 221 1
184 221 1
431 221 1
432 221 1
82 222 1
89 222 1
92 222 1
98 222 1
182 222 1
185 222 1
432 222 1
433 222 1
83 223 1
90 223 1
93 223 1
99 223 1
183 223 1
186 223 1
433 223 1
434 223 1
81 224 1
84 224 1
94 224 1
100 224 1
184 224 1
187 224 1
434 224 1
435 224 1
82 225 1
85 225 1
91 225 1
95 225 1
185 225 1
188 225 1
435 225 1
436 225 1
83 226 1
86 226 1
92 226 1
96 226 1
186 226 1
189 226 1
436 226 1
437 226 1
84 227 1
87 227 1
93 227 1
97 227 1
187 227 1
190 227 1
437 227 1
438 227 1
85 228 1
88 228 1
94 228 1
98 228 1
181 228 1
188 228 1
438 228 1
439 228 1
86 229 1
89 229 1
95 229 1
99 229 1
182 229 1
189 229 1
439 229 1
440 229 1
87 230 1
90 230 1
96 230 1
100 230 1
183 230 1
190 230 1
431 230 1
440 230 1
81 231 1
90 231 1
101 231 1
107 231 1
191 231 1
194 231 1
441 231 1
442 231 1
81 232 1
82 232 1
102 232 1
108 232 1
192 232 1
195 232 1
442 232 1
443 232 1
82 233 1
83 233 1
103 233 1
109 233 1
193 233 1
196 233 1
443 233 1
444 233 1
83 234 1
84 234 1
104 234 1
110 234 1
194 234 1
197 234 1
444 234 1
445 234 1
84 235 1
85 235 1
101 235 1
105 235 1
195 235 1
198 235 1
445 235 1
446 235 1
85 236 1
86 236 1
102 236 1
106 236 1
196 236 1
199 236 1
446 236 1
447 236 1
86 237 1
87 237 1
103 237 1
107 237 1
197 237 1
200 237 1
447 237 1
448 237 1
87 238 1
88 238 1
104 238 1
108 238 1
191 238 1
198 238 1
448 238 1
449 238 1
88 239 1
89 239 1
105 239 1
109 239 1
192 239 1
199 239 1
449 239 1
450 239 1
89 240 1
90 240 1
106 240 1
110 240 1
193 240 1
200 240 1
441 240 1
450 240 1
91 241 1
100 241 1
101 241 1
108 241 1
201 241 1
204 241 1
451 241 1
452 241 1
91 242 1
92 242 1
102 242 1
109 242 1
202 242 1
205 242 1
452 242 1
453 242 1
92 243 1
93 243 1
103 243 1
110 243 1
203 243 1
206 243 1
453 243 1
454 243 1
93 244 1
94 244 1
101 244 1
104 244 1
204 244 1
207 244 1
454 244 1
455 244 1
94 245 1
95 245 1
102 245 1
105 245 1
205 245 1
208 245 1
455 245 1
456 245 1
95 246 1
96 246 1
103 246 1
106 246 1
206 246 1
209 246 1
456 246 1
457 246 1
96 247 1
97 247 1
104 247 1
107 247 1
207 247 1
210 247 1
457 247 1
458 247 1
97 248 1
98 248 1
105 248 1
108 248 1
201 248 1
208 248 1
458 248 1
459 248 1
98 249 1
99 249 1
106 249 1
109 249 1
202 249 1
209 249 1
459 249 1
460 249 1
99 250 1
100 250 1
107 250 1
110 250 1
203 250 1
210 250 1
451 250 1
460 250 1
111 251 1
117 251 1
121 251 1
126 251 1
151 251 1
155 251 1
461 251 1
462 251 1
112 252 1
118 252 1
122 252 1
127 252 1
152 252 1
156 252 1
462 252 1
463 252 1
113 253 1
119 253 1
123 253 1
128 253 1
153 253 1
157 253 1
463 253 1
464 253 1
114 254 1
120 254 1
124 254 1
129 254 1
154 254 1
158 254 1
464 254 1
465 254 1
111 255 1
115 255 1
125 255 1
130 255 1
155 255 1
159 255 1
465 255 1
466 255 1
112 256 1
116 256 1
121 256 1
126 256 1
156 256 1
160 256 1
466 256 1
467 256 1
113 257 1
117 257 1
122 257 1
127 257 1
151 257 1
157 257 1
467 257 1
468 257 1
114 258 1
118 258 1
123 258 1
128 258 1
152 258 1
158 258 1
468 258 1
469 258 1
115 259 1
119 259 1
124 259 1
129 259 1
153 259 1
159 259 1
469 259 1
470 259 1
116 260 1
120 260 1
125 260 1
130 260 1
154 260 1
160 260 1
461 260 1
470 260 1
111 261 1
118 261 1
131 261 1
136 261 1
161 261 1
165 261 1
471 261 1
472 261 1
112 262 1
119 262 1
132 262 1
137 262 1
162 262 1
166 262 1
472 262 1
473 262 1
113 263 1
120 263 1
133 263 1
138 263 1
163 263 1
167 263 1
473 263 1
474 263 1
111 264 1
114 264 1
134 264 1
139 264 1
164 264 1
168 264 1
474 264 1
475 264 1
112 265 1
115 265 1
135 265 1
140 265 1
165 265 1
169 265 1
475 265 1
476 265 1
113 266 1
116 266 1
131 266 1
136 266 1
166 266 1
170 266 1
476 266 1
477 266 1
114 267 1
117 267 1
132 267 1
137 267 1
161 267 1
167 267 1
477 267 1
478 267 1
115 268 1
118 268 1
133 268 1
138 268 1
162 268 1
168 268 1
478 268 1
479 268 1
116 269 1
119 269 1
134 269 1
139 269 1
163 269 1
169 269 1
479 269 1
480 269 1
117 270 1
120 270 1
135 270 1
140 270 1
164 270 1
170 270 1
471 270 1
480 270 1
111 271 1
120 271 1
141 271 1
146 271 1
171 271 1
175 271 1
481 271 1
482 271 1
111 272 1
112 272 1
142 272 1
147 272 1
172 272 1
176 272 1
482 272 1
483 272 1
112 273 1
113 273 1
143 273 1
148 273 1
173 273 1
177 273 1
483 273 1
484 273 1
113 274 1
114 274 1
144 274 1
149 274 1
174 274 1
178 274 1
484 274 1
485 274 1
114 275 1
115 275 1
145 275 1
150 275 1
175 275 1
179 275 1
485 275 1
486 275 1
115 276 1
116 276 1
141 276 1
146 276 1
176 276 1
180 276 1
486 276 1
487 276 1
116 277 1
117 277 1
142 277 1
147 277 1
171 277 1
177 277 1
487 277 1
488 277 1
117 278 1
118 278 1
143 278 1
148 278 1
172 278 1
178 278 1
488 278 1
489 278 1
118 279 1
119 279 1
144 279 1
149 279 1
173 279 1
179 279 1
489 279 1
490 279 1
119 280 1
120 280 1
145 280 1
150 280 1
174 280 1
180 280 1
481 280 1
490 280 1
121 281 1
128 281 1
131 281 1
137 281 1
181 281 1
185 281 1
491 281 1
492 281 1
122 282 1
129 282 1
132 282 1
138 282 1
182 282 1
186 282 1
492 282 1
493 282 1
123 283 1
130 283 1
133 283 1
139 283 1
183 283 1
187 283 1
493 283 1
494 283 1
121 284 1
124 284 1
134 284 1
140 284 1
184 284 1
188 284 1
494 284 1
495 284 1
122 285 1
125 285 1
131 285 1
135 285 1
185 285 1
189 285 1
495 285 1
496 285 1
123 286 1
126 286 1
132 286 1
136 286 1
186 286 1
190 286 1
496 286 1
497 286 1
124 287 1
127 287 1
133 287 1
137 287 1
181 287 1
187 287 1
497 287 1
498 287 1
125 288 1
128 288 1
134 288 1
138 288 1
182 288 1
188 288 1
498 288 1
499 288 1
126 289 1
129 289 1
135 289 1
139 289 1
183 289 1
189 289 1
499 289 1
500 289 1
127 290 1
130 290 1
136 290 1
140 290 1
184 290 1
190 290 1
491 290 1
500 290 1
121 291 1
130 291 1
141 291 1
147 291 1
191 291 1
195 291 1
501 291 1
502 291 1
121 292 1
122 292 1
142 292 1
148 292 1
192 292 1
196 292 1
502 292 1
503 292 1
122 293 1
123 293 1
143 293 1
149 293 1
193 293 1
197 293 1
503 293 1
504 293 1
123 294 1
124 294 1
144 294 1
150 294 1
194 294 1
198 294 1
504 294 1
505 294 1
124 295 1
125 295 1
141 295 1
145 295 1
195 295 1
199 295 1
505 295 1
506 295 1
125 296 1
126 296 1
142 296 1
146 296 1
196 296 1
200 296 1
506 296 1
507 296 1
126 297 1
127 297 1
143 297 1
147 297 1
191 297 1
197 297 1
507 297 1
508 297 1
127 298 1
128 298 1
144 298 1
148 298 1
192 298 1
198 298 1
508 298 1
509 298 1
128 299 1
129 299 1
145 299 1
149 299 1
193 299 1
199 299 1
509 299 1
510 299 1
129 300 1
130 300 1
146 300 1
150 300 1
194 300 1
200 300 1
501 300 1
510 300 1
131 301 1
140 301 1
141 301 1
148 301 1
201 301 1
205 301 1
511 301 1
512 301 1
131 302 1
132 302 1
142 302 1
149 302 1
202 302 1
206 302 1
512 302 1
513 302 1
132 303 1
133 303 1
143 303 1
150 303 1
203 303 1
207 303 1
513 303 1
514 303 1
133 304 1
134 304 1
141 304 1
144 304 1
204 304 1
208 304 1
514 304 1
515 304 1
134 305 1
135 305 1
142 305 1
145 305 1
205 305 1
209 305 1
515 305 1
516 305 1
135 306 1
136 306 1
143 306 1
146 306 1
206 306 1
210 306 1
516 306 1
517 306 1
136 307 1
137 307 1
144 307 1
147 307 1
201 307 1
207 307 1
517 307 1
518 307 1
137 308 1
138 308 1
145 308 1
148 308 1
202 308 1
208 308 1
518 308 1
519 308 1
138 309 1
139 309 1
146 309 1
149 309 1
203 309 1
209 309 1
519 309 1
520 309 1
139 310 1
140 310 1
147 310 1
150 310 1
204 310 1
210 310 1
511 310 1
520 310 1
151 311 1
158 311 1
161 311 1
167 311 1
181 311 1
186 311 1
521 311 1
522 311 1
152 312 1
159 312 1
162 312 1
168 312 1
182 312 1
187 312 1
522 312 1
523 312 1
153 313 1
160 313 1
163 313 1
169 313 1
183 313 1
188 313 1
523 313 1
524 313 1
151 314 1
154 314 1
164 314 1
170 314 1
184 314 1
189 314 1
524 314 1
525 314 1
152 315 1
155 315 1
161 315 1
165 315 1
185 315 1
190 315 1
525 315 1
526 315 1
153 316 1
156 316 1
162 316 1
166 316 1
181 316 1
186 316 1
526 316 1
527 316 1
154 317 1
157 317 1
163 317 1
167 317 1
182 317 1
187 317 1
527 317 1
528 317 1
155 318 1
158 318 1
164 318 1
168 318 1
183 318 1
188 318 1
528 318 1
529 318 1
156 319 1
159 319 1
165 319 1
169 319 1
184 319 1
189 319 1
529 319 1
530 319 1
157 320 1
160 320 1
166 320 1
170 320 1
185 320 1
190 320 1
521 320 1
530 320 1
151 321 1
160 321 1
171 321 1
177 321 1
191 321 1
196 321 1
531 321 1
532 321 1
151 322 1
152 322 1
172 322 1
178 322 1
192 322 1
197 322 1
532 322 1
533 322 1
152 323 1
153 323 1
173 323 1
179 323 1
193 323 1
198 323 1
533 323 1
534 323 1
153 324 1
154 324 1
174 324 1
180 324 1
194 324 1
199 324 1
534 324 1
535 324 1
154 325 1
155 325 1
171 325 1
175 325 1
195 325 1
200 325 1
535 325 1
536 325 1
155 326 1
156 326 1
172 326 1
176 326 1
191 326 1
196 326 1
536 326 1
537 326 1
156 327 1
157 327 1
173 327 1
177 327 1
192 327 1
197 327 1
537 327 1
538 327 1
157 328 1
158 328 1
174 328 1
178 328 1
193 328 1
198 328 1
538 328 1
539 328 1
158 329 1
159 329 1
175 329 1
179 329 1
194 329 1
199 329 1
539 329 1
540 329 1
159 330 1
160 330 1
176 330 1
180 330 1
195 330 1
200 330 1
531 330 1
540 330 1
161 331 1
170 331 1
171 331 1
178 331 1
201 331 1
206 331 1
541 331 1
542 331 1
161 332 1
162 332 1
172 332 1
179 332 1
202 332 1
207 332 1
542 332 1
543 332 1
162 333 1
163 333 1
173 333 1
180 333 1
203 333 1
208 333 1
543 333 1
544 333 1
163 334 1
164 334 1
171 334 1
174 334 1
204 334 1
209 334 1
544 334 1
545 334 1
164 335 1
165 335 1
172 335 1
175 335 1
205 335 1
210 335 1
545 335 1
546 335 1
165 336 1
166 336 1
173 336 1
176 336 1
201 336 1
206 336 1
546 336 1
547 336 1
166 337 1
167 337 1
174 337 1
177 337 1
202 337 1
207 337 1
547 337 1
548 337 1
167 338 1
168 338 1
175 338 1
178 338 1
203 338 1
208 338 1
548 338 1
549 338 1
168 339 1
169 339 1
176 339 1
179 339 1
204 339 1
209 339 1
549 339 1
550 339 1
169 340 1
170 340 1
177 340 1
180 340 1
205 340 1
210 340 1
541 340 1
550 340 1
181 341 1
190 341 1
191 341 1
198 341 1
201 341 1
207 341 1
551 341 1
552 341 1
181 342 1
182 342 1
192 342 1
199 342 1
202 342 1
208 342 1
552 342 1
553 342 1
182 343 1
183 343 1
193 343 1
200 343 1
203 343 1
209 343 1
553 343 1
554 343 1
183 344 1
184 344 1
191 344 1
194 344 1
204 344 1
210 344 1
554 344 1
555 344 1
184 345 1
185 345 1
192 345 1
195 345 1
201 345 1
205 345 1
555 345 1
556 345 1
185 346 1
186 346 1
193 346 1
196 346 1
202 346 1
206 346 1
556 346 1
557 346 1
186 347 1
187 347 1
194 347 1
197 347 1
203 347 1
207 347 1
557 347 1
558 347 1
187 348 1
188 348 1
195 348 1
198 348 1
204 348 1
208 348 1
558 348 1
559 348 1
188 349 1
189 349 1
196 349 1
199 349 1
205 349 1
209 349 1
559 349 1
560 349 1
189 350 1
190 350 1
197 350 1
200 350 1
206 350 1
210 350 1
551 350 1
560 350 1
211 351 1
216 351 1
221 351 1
225 351 1
261 351 1
264 351 1
361 351 1
363 351 1
212 352 1
217 352 1
222 352 1
226 352 1
262 352 1
265 352 1
362 352 1
364 352 1
213 353 1
218 353 1
223 353 1
227 353 1
263 353 1
266 353 1
363 353 1
365 353 1
214 354 1
219 354 1
224 354 1
228 354 1
264 354 1
267 354 1
364 354 1
366 354 1
215 355 1
220 355 1
225 355 1
229 355 1
265 355 1
268 355 1
365 355 1
367 355 1
211 356 1
216 356 1
226 356 1
230 356 1
266 356 1
269 356 1
366 356 1
368 356 1
212 357 1
217 357 1
221 357 1
227 357 1
267 357 1
270 357 1
367 357 1
369 357 1
213 358 1
218 358 1
222 358 1
228 358 1
261 358 1
268 358 1
368 358 1
370 358 1
214 359 1
219 359 1
223 359 1
229 359 1
262 359 1
269 359 1
361 359 1
369 359 1
215 360 1
220 360 1
224 360 1
230 360 1
263 360 1
270 360 1
362 360 1
370 360 1
211 361 1
217 361 1
231 361 1
235 361 1
271 361 1
274 361 1
371 361 1
373 361 1
212 362 1
218 362 1
232 362 1
236 362 1
272 362 1
275 362 1
372 362 1
374 362 1
213 363 1
219 363 1
233 363 1
237 363 1
273 363 1
276 363 1
373 363 1
375 363 1
214 364 1
220 364 1
234 364 1
238 364 1
274 364 1
277 364 1
374 364 1
376 364 1
211 365 1
215 365 1
235 365 1
239 365 1
275 365 1
278 365 1
375 365 1
377 365 1
212 366 1
216 366 1
236 366 1
240 366 1
276 366 1
279 366 1
376 366 1
378 366 1
213 367 1
217 367 1
231 367 1
237 367 1
277 367 1
280 367 1
377 367 1
379 367 1
214 368 1
218 368 1
232 368 1
238 368 1
271 368 1
278 368 1
378 368 1
380 368 1
215 369 1
219 369 1
233 369 1
239 369 1
272 369 1
279 369 1
371 369 1
379 369 1
216 370 1
220 370 1
234 370 1
240 370 1
273 370 1
280 370 1
372 370 1
380 370 1
211 371 1
218 371 1
241 371 1
245 371 1
281 371 1
284 371 1
381 371 1
383 371 1
212 372 1
219 372 1
242 372 1
246 372 1
282 372 1
285 372 1
382 372 1
384 372 1
213 373 1
220 373 1
243 373 1
247 373 1
283 373 1
286 373 1
383 373 1
385 373 1
211 374 1
214 374 1
244 374 1
248 374 1
284 374 1
287 374 1
384 374 1
386 374 1
212 375 1
215 375 1
245 375 1
249 375 1
285 375 1
288 375 1
385 375 1
387 375 1
213 376 1
216 376 1
246 376 1
250 376 1
286 376 1
289 376 1
386 376 1
388 376 1
214 377 1
217 377 1
241 377 1
247 377 1
287 377 1
290 377 1
387 377 1
389 377 1
215 378 1
218 378 1
242 378 1
248 378 1
281 378 1
288 378 1
388 378 1
390 378 1
216 379 1
219 379 1
243 379 1
249 379 1
282 379 1
289 379 1
381 379 1
389 379 1
217 380 1
220 380 1
244 380 1
250 380 1
283 380 1
290 380 1
382 380 1
390 380 1
211 381 1
220 381 1
251 381 1
255 381 1
291 381 1
294 381 1
391 381 1
393 381 1
211 382 1
212 382 1
252 382 1
256 382 1
292 382 1
295 382 1
392 382 1
394 382 1
212 383 1
213 383 1
253 383 1
257 383 1
293 383 1
296 383 1
393 383 1
395 383 1
213 384 1
214 384 1
254 384 1
258 384 1
294 384 1
297 384 1
394 384 1
396 384 1
214 385 1
215 385 1
255 385 1
259 385 1
295 385 1
298 385 1
395 385 1
397 385 1
215 386 1
216 386 1
256 386 1
260 386 1
296 386 1
299 386 1
396 386 1
398 386 1
216 387 1
217 387 1
251 387 1
257 387 1
297 387 1
300 387 1
397 387 1
399 387 1
217 388 1
218 388 1
252 388 1
258 388 1
291 388 1
298 388 1
398 388 1
400 388 1
218 389 1
219 389 1
253 389 1
259 389 1
292 389 1
299 389 1
391 389 1
399 389 1
219 390 1
220 390 1
254 390 1
260 390 1
293 390 1
300 390 1
392 390 1
400 390 1
221 391 1
227 391 1
231 391 1
236 391 1
301 391 1
304 391 1
401 391 1
403 391 1
222 392 1
228 392 1
232 392 1
237 392 1
302 392 1
305 392 1
402 392 1
404 392 1
223 393 1
229 393 1
233 393 1
238 393 1
303 393 1
306 393 1
403 393 1
405 393 1
224 394 1
230 394 1
234 394 1
239 394 1
304 394 1
307 394 1
404 394 1
406 394 1
221 395 1
225 395 1
235 395 1
240 395 1
305 395 1
308 395 1
405 395 1
407 395 1
222 396 1
226 396 1
231 396 1
236 396 1
306 396 1
309 396 1
406 396 1
408 396 1
223 397 1
227 397 1
232 397 1
237 397 1
307 397 1
310 397 1
407 397 1
409 397 1
224 398 1
228 398 1
233 398 1
238 398 1
301 398 1
308 398 1
408 398 1
410 398 1
225 399 1
229 399 1
234 399 1
239 399 1
302 399 1
309 399 1
401 399 1
409 399 1
226 400 1
230 400 1
235 400 1
240 400 1
303 400 1
310 400 1
402 400 1
410 400 1
221 401 1
228 401 1
241 401 1
246 401 1
311 401 1
314 401 1
411 401 1
413 401 1
222 402 1
229 402 1
242 402 1
247 402 1
312 402 1
315 402 1
412 402 1
414 402 1
223 403 1
230 403 1
243 403 1
248 403 1
313 403 1
316 403 1
413 403 1
415 403 1
221 404 1
224 404 1
244 404 1
249 404 1
314 404 1
317 404 1
414 404 1
416 404 1
222 405 1
225 405 1
245 405 1
250 405 1
315 405 1
318 405 1
415 405 1
417 405 1
223 406 1
226 406 1
241 406 1
246 406 1
316 406 1
319 406 1
416 406 1
418 406 1
224 407 1
227 407 1
242 407 1
247 407 1
317 407 1
320 407 1
417 407 1
419 407 1
225 408 1
228 408 1
243 408 1
248 408 1
311 408 1
318 408 1
418 408 1
420 408 1
226 409 1
229 409 1
244 409 1
249 409 1
312 409 1
319 409 1
411 409 1
419 409 1
227 410 1
230 410 1
245 410 1
250 410 1
313 410 1
320 410 1
412 410 1
420 410 1
221 411 1
230 411 1
251 411 1
256 411 1
321 411 1
324 411 1
421 411 1
423 411 1
221 412 1
222 412 1
252 412 1
257 412 1
322 412 1
325 412 1
422 412 1
424 412 1
222 413 1
223 413 1
253 413 1
258 413 1
323 413 1
326 413 1
423 413 1
425 413 1
223 414 1
224 414 1
254 414 1
259 414 1
324 414 1
327 414 1
424 414 1
426 414 1
224 415 1
225 415 1
255 415 1
260 415 1
325 415 1
328 415 1
425 415 1
427 415 1
225 416 1
226 416 1
251 416 1
256 416 1
326 416 1
329 416 1
426 416 1
428 416 1
226 417 1
227 417 1
252 417 1
257 417 1
327 417 1
330 417 1
427 417 1
429 417 1
227 418 1
228 418 1
253 418 1
258 418 1
321 418 1
328 418 1
428 418 1
430 418 1
228 419 1
229 419 1
254 419 1
259 419 1
322 419 1
329 419 1
421 419 1
429 419 1
229 420 1
230 420 1
255 420 1
260 420 1
323 420 1
330 420 1
422 420 1
430 420 1
231 421 1
238 421 1
241 421 1
247 421 1
331 421 1
334 421 1
431 421 1
433 421 1
232 422 1
239 422 1
242 422 1
248 422 1
332 422 1
335 422 1
432 422 1
434 422 1
233 423 1
240 423 1
243 423 1
249 423 1
333 423 1
336 423 1
433 423 1
435 423 1
231 424 1
234 424 1
244 424 1
250 424 1
334 424 1
337 424 1
434 424 1
436 424 1
232 425 1
235 425 1
241 425 1
245 425 1
335 425 1
338 425 1
435 425 1
437 425 1
233 426 1
236 426 1
242 426 1
246 426 1
336 426 1
339 426 1
436 426 1
438 426 1
234 427 1
237 427 1
243 427 1
247 427 1
337 427 1
340 427 1
437 427 1
439 427 1
235 428 1
238 428 1
244 428 1
248 428 1
331 428 1
338 428 1
438 428 1
440 428 1
236 429 1
239 429 1
245 429 1
249 429 1
332 429 1
339 429 1
431 429 1
439 429 1
237 430 1
240 430 1
246 430 1
250 430 1
333 430 1
340 430 1
432 430 1
440 430 1
231 431 1
240 431 1
251 431 1
257 431 1
341 431 1
344 431 1
441 431 1
443 431 1
231 432 1
232 432 1
252 432 1
258 432 1
342 432 1
345 432 1
442 432 1
444 432 1
232 433 1
233 433 1
253 433 1
259 433 1
343 433 1
346 433 1
443 433 1
445 433 1
233 434 1
234 434 1
254 434 1
260 434 1
344 434 1
347 434 1
444 434 1
446 434 1
234 435 1
235 435 1
251 435 1
255 435 1
345 435 1
348 435 1
445 435 1
447 435 1
235 436 1
236 436 1
252 436 1
256 436 1
346 436 1
349 436 1
446 436 1
448 436 1
236 437 1
237 437 1
253 437 1
257 437 1
347 437 1
350 437 1
447 437 1
449 437 1
237 438 1
238 438 1
254 438 1
258 438 1
341 438 1
348 438 1
448 438 1
450 438 1
238 439 1
239 439 1
255 439 1
259 439 1
342 439 1
349 439 1
441 439 1
449 439 1
239 440 1
240 440 1
256 440 1
260 440 1
343 440 1
350 440 1
442 440 1
450 440 1
241 441 1
250 441 1
251 441 1
258 441 1
351 441 1
354 441 1
451 441 1
453 441 1
241 442 1
242 442 1
252 442 1
259 442 1
352 442 1
355 442 1
452 442 1
454 442 1
242 443 1
243 443 1
253 443 1
260 443 1
353 443 1
356 443 1
453 443 1
455 443 1
243 444 1
244 444 1
251 444 1
254 444 1
354 444 1
357 444 1
454 444 1
456 444 1
244 445 1
245 445 1
252 445 1
255 445 1
355 445 1
358 445 1
455 445 1
457 445 1
245 446 1
246 446 1
253 446 1
256 446 1
356 446 1
359 446 1
456 446 1
458 446 1
246 447 1
247 447 1
254 447 1
257 447 1
357 447 1
360 447 1
457 447 1
459 447 1
247 448 1
248 448 1
255 448 1
258 448 1
351 448 1
358 448 1
458 448 1
460 448 1
248 449 1
249 449 1
256 449 1
259 449 1
352 449 1
359 449 1
451 449 1
459 449 1
249 450 1
250 450 1
257 450 1
260 450 1
353 450 1
360 450 1
452 450 1
460 450 1
261 451 1
267 451 1
271 451 1
276 451 1
301 451 1
305 451 1
461 451 1
463 451 1
262 452 1
268 452 1
272 452 1
277 452 1
302 452 1
306 452 1
462 452 1
464 452 1
263 453 1
269 453 1
273 453 1
278 453 1
303 453 1
307 453 1
463 453 1
465 453 1
264 454 1
270 454 1
274 454 1
279 454 1
304 454 1
308 454 1
464 454 1
466 454 1
261 455 1
265 455 1
275 455 1
280 455 1
305 455 1
309 455 1
465 455 1
467 455 1
262 456 1
266 456 1
271 456 1
276 456 1
306 456 1
310 456 1
466 456 1
468 456 1
263 457 1
267 457 1
272 457 1
277 457 1
301 457 1
307 457 1
467 457 1
469 457 1
264 458 1
268 458 1
273 458 1
278 458 1
302 458 1
308 458 1
468 458 1
470 458 1
265 459 1
269 459 1
274 459 1
279 459 1
303 459 1
309 459 1
461 459 1
469 459 1
266 460 1
270 460 1
275 460 1
280 460 1
304 460 1
310 460 1
462 460 1
470 460 1
261 461 1
268 461 1
281 461 1
286 461 1
311 461 1
315 461 1
471 461 1
473 461 1
262 462 1
269 462 1
282 462 1
287 462 1
312 462 1
316 462 1
472 462 1
474 462 1
263 463 1
270 463 1
283 463 1
288 463 1
313 463 1
317 463 1
473 463 1
475 463 1
261 464 1
264 464 1
284 464 1
289 464 1
314 464 1
318 464 1
474 464 1
476 464 1
262 465 1
265 465 1
285 465 1
290 465 1
315 465 1
319 465 1
475 465 1
477 465 1
263 466 1
266 466 1
281 466 1
286 466 1
316 466 1
320 466 1
476 466 1
478 466 1
264 467 1
267 467 1
282 467 1
287 467 1
311 467 1
317 467 1
477 467 1
479 467 1
265 468 1
268 468 1
283 468 1
288 468 1
312 468 1
318 468 1
478 468 1
480 468 1
266 469 1
269 469 1
284 469 1
289 469 1
313 469 1
319 469 1
471 469 1
479 469 1
267 470 1
270 470 1
285 470 1
290 470 1
314 470 1
320 470 1
472 470 1
480 470 1
261 471 1
270 471 1
291 471 1
296 471 1
321 471 1
325 471 1
481 471 1
483 471 1
261 472 1
262 472 1
292 472 1
297 472 1
322 472 1
326 472 1
482 472 1
484 472 1
262 473 1
263 473 1
293 473 1
298 473 1
323 473 1
327 473 1
483 473 1
485 473 1
263 474 1
264 474 1
294 474 1
299 474 1
324 474 1
328 474 1
484 474 1
486 474 1
264 475 1
265 475 1
295 475 1
300 475 1
325 475 1
329 475 1
485 475 1
487 475 1
265 476 1
266 476 1
291 476 1
296 476 1
326 476 1
330 476 1
486 476 1
488 476 1
266 477 1
267 477 1
292 477 1
297 477 1
321 477 1
327 477 1
487 477 1
489 477 1
267 478 1
268 478 1
293 478 1
298 478 1
322 478 1
328 478 1
488 478 1
490 478 1
268 479 1
269 479 1
294 479 1
299 479 1
323 479 1
329 479 1
481 479 1
489 479 1
269 480 1
270 480 1
295 480 1
300 480 1
324 480 1
330 480 1
482 480 1
490 480 1
271 481 1
278 481 1
281 481 1
287 481 1
331 481 1
335 481 1
491 481 1
493 481 1
272 482 1
279 482 1
282 482 1
288 482 1
332 482 1
336 482 1
492 482 1
494 482 1
273 483 1
280 483 1
283 483 1
289 483 1
333 483 1
337 483 1
493 483 1
495 483 1
271 484 1
274 484 1
284 484 1
290 484 1
334 484 1
338 484 1
494 484 1
496 484 1
272 485 1
275 485 1
281 485 1
285 485 1
335 485 1
339 485 1
495 485 1
497 485 1
273 486 1
276 486 1
282 486 1
286 486 1
336 486 1
340 486 1
496 486 1
498 486 1
274 487 1
277 487 1
283 487 1
287 487 1
331 487 1
337 487 1
497 487 1
499 487 1
275 488 1
278 488 1
284 488 1
288 488 1
332 488 1
338 488 1
498 488 1
500 488 1
276 489 1
279 489 1
285 489 1
289 489 1
333 489 1
339 489 1
491 489 1
499 489 1
277 490 1
280 490 1
286 490 1
290 490 1
334 490 1
340 490 1
492 490 1
500 490 1
271 491 1
280 491 1
291 491 1
297 491 1
341 491 1
345 491 1
501 491 1
503 491 1
271 492 1
272 492 1
292 492 1
298 492 1
342 492 1
346 492 1
502 492 1
504 492 1
272 493 1
273 493 1
293 493 1
299 493 1
343 493 1
347 493 1
503 493 1
505 493 1
273 494 1
274 494 1
294 494 1
300 494 1
344 494 1
348 494 1
504 494 1
506 494 1
274 495 1
275 495 1
291 495 1
295 495 1
345 495 1
349 495 1
505 495 1
507 495 1
275 496 1
276 496 1
292 496 1
296 496 1
346 496 1
350 496 1
506 496 1
508 496 1
276 497 1
277 497 1
293 497 1
297 497 1
341 497 1
347 497 1
507 497 1
509 497 1
277 498 1
278 498 1
294 498 1
298 498 1
342 498 1
348 498 1
508 498 1
510 498 1
278 499 1
279 499 1
295 499 1
299 499 1
343 499 1
349 499 1
501 499 1
509 499 1
279 500 1
280 500 1
296 500 1
300 500 1
344 500 1
350 500 1
502 500 1
510 500 1
281 501 1
290 501 1
291 501 1
298 501 1
351 501 1
355 501 1
511 501 1
513 501 1
281 502 1
282 502 1
292 502 1
299 502 1
352 502 1
356 502 1
512 502 1
514 502 1
282 503 1
283 503 1
293 503 1
300 503 1
353 503 1
357 503 1
513 503 1
515 503 1
283 504 1
284 504 1
291 504 1
294 504 1
354 504 1
358 504 1
514 504 1
516 504 1
284 505 1
285 505 1
292 505 1
295 505 1
355 505 1
359 505 1
515 505 1
517 505 1
285 506 1
286 506 1
293 506 1
296 506 1
356 506 1
360 506 1
516 506 1
518 506 1
286 507 1
287 507 1
294 507 1
297 507 1
351 507 1
357 507 1
517 507 1
519 507 1
287 508 1
288 508 1
295 508 1
298 508 1
352 508 1
358 508 1
518 508 1
520 508 1
288 509 1
289 509 1
296 509 1
299 509 1
353 509 1
359 509 1
511 509 1
519 509 1
289 510 1
290 510 1
297 510 1
300 510 1
354 510 1
360 510 1
512 510 1
520 510 1
301 511 1
308 511 1
311 511 1
317 511 1
331 511 1
336 511 1
521 511 1
523 511 1
302 512 1
309 512 1
312 512 1
318 512 1
332 512 1
337 512 1
522 512 1
524 512 1
303 513 1
310 513 1
313 513 1
319 513 1
333 513 1
338 513 1
523 513 1
525 513 1
301 514 1
304 514 1
314 514 1
320 514 1
334 514 1
339 514 1
524 514 1
526 514 1
302 515 1
305 515 1
311 515 1
315 515 1
335 515 1
340 515 1
525 515 1
527 515 1
303 516 1
306 516 1
312 516 1
316 516 1
331 516 1
336 516 1
526 516 1
528 516 1
304 517 1
307 517 1
313 517 1
317 517 1
332 517 1
337 517 1
527 517 1
529 517 1
305 518 1
308 518 1
314 518 1
318 518 1
333 518 1
338 518 1
528 518 1
530 518 1
306 519 1
309 519 1
315 519 1
319 519 1
334 519 1
339 519 1
521 519 1
529 519 1
307 520 1
310 520 1
316 520 1
320 520 1
335 520 1
340 520 1
522 520 1
530 520 1
301 521 1
310 521 1
321 521 1
327 521 1
341 521 1
346 521 1
531 521 1
533 521 1
301 522 1
302 522 1
322 522 1
328 522 1
342 522 1
347 522 1
532 522 1
534 522 1
302 523 1
303 523 1
323 523 1
329 523 1
343 523 1
348 523 1
533 523 1
535 523 1
303 524 1
304 524 1
324 524 1
330 524 1
344 524 1
349 524 1
534 524 1
536 524 1
304 525 1
305 525 1
321 525 1
325 525 1
345 525 1
350 525 1
535 525 1
537 525 1
305 526 1
306 526 1
322 526 1
326 526 1
341 526 1
346 526 1
536 526 1
538 526 1
306 527 1
307 527 1
323 527 1
327 527 1
342 527 1
347 527 1
537 527 1
539 527 1
307 528 1
308 528 1
324 528 1
328 528 1
343 528 1
348 528 1
538 528 1
540 528 1
308 529 1
309 529 1
325 529 1
329 529 1
344 529 1
349 529 1
531 529 1
539 529 1
309 530 1
310 530 1
326 530 1
330 530 1
345 530 1
350 530 1
532 530 1
540 530 1
311 531 1
320 531 1
321 531 1
328 531 1
351 531 1
356 531 1
541 531 1
543 531 1
311 532 1
312 532 1
322 532 1
329 532 1
352 532 1
357 532 1
542 532 1
544 532 1
312 533 1
313 533 1
323 533 1
330 533 1
353 533 1
358 533 1
543 533 1
545 533 1
313 534 1
314 534 1
321 534 1
324 534 1
354 534 1
359 534 1
544 534 1
546 534 1
314 535 1
315 535 1
322 535 1
325 535 1
355 535 1
360 535 1
545 535 1
547 535 1
315 536 1
316 536 1
323 536 1
326 536 1
351 536 1
356 536 1
546 536 1
548 536 1
316 537 1
317 537 1
324 537 1
327 537 1
352 537 1
357 537 1
547 537 1
549 537 1
317 538 1
318 538 1
325 538 1
328 538 1
353 538 1
358 538 1
548 538 1
550 538 1
318 539 1
319 539 1
326 539 1
329 539 1
354 539 1
359 539 1
541 539 1
549 539 1
319 540 1
320 540 1
327 540 1
330 540 1
355 540 1
360 540 1
542 540 1
550 540 1
331 541 1
340 541 1
341 541 1
348 541 1
351 541 1
357 541 1
551 541 1
553 541 1
331 542 1
332 542 1
342 542 1
349 542 1
352 542 1
358 542 1
552 542 1
554 542 1
332 543 1
333 543 1
343 543 1
350 543 1
353 543 1
359 543 1
553 543 1
555 543 1
333 544 1
334 544 1
341 544 1
344 544 1
354 544 1
360 544 1
554 544 1
556 544 1
334 545 1
335 545 1
342 545 1
345 545 1
351 545 1
355 545 1
555 545 1
557 545 1
335 546 1
336 546 1
343 546 1
346 546 1
352 546 1
356 546 1
556 546 1
558 546 1
336 547 1
337 547 1
344 547 1
347 547 1
353 547 1
357 547 1
557 547 1
559 547 1
337 548 1
338 548 1
345 548 1
348 548 1
354 548 1
358 548 1
558 548 1
560 548 1
338 549 1
339 549 1
346 549 1
349 549 1
355 549 1
359 549 1
551 549 1
559 549 1
339 550 1
340 550 1
347 550 1
350 550 1
356 550 1
360 550 1
552 550 1
560 550 1
361 551 1
367 551 1
371 551 1
376 551 1
401 551 1
405 551 1
461 551 1
464 551 1
362 552 1
368 552 1
372 552 1
377 552 1
402 552 1
406 552 1
462 552 1
465 552 1
363 553 1
369 553 1
373 553 1
378 553 1
403 553 1
407 553 1
463 553 1
466 553 1
364 554 1
370 554 1
374 554 1
379 554 1
404 554 1
408 554 1
464 554 1
467 554 1
361 555 1
365 555 1
375 555 1
380 555 1
405 555 1
409 555 1
465 555 1
468 555 1
362 556 1
366 556 1
371 556 1
376 556 1
406 556 1
410 556 1
466 556 1
469 556 1
363 557 1
367 557 1
372 557 1
377 557 1
401 557 1
407 557 1
467 557 1
470 557 1
364 558 1
368 558 1
373 558 1
378 558 1
402 558 1
408 558 1
461 558 1
468 558 1
365 559 1
369 559 1
374 559 1
379 559 1
403 559 1
409 559 1
462 559 1
469 559 1
366 560 1
370 560 1
375 560 1
380 560 1
404 560 1
410 560 1
463 560 1
470 560 1
361 561 1
368 561 1
381 561 1
386 561 1
411 561 1
415 561 1
471 561 1
474 561 1
362 562 1
369 562 1
382 562 1
387 562 1
412 562 1
416 562 1
472 562 1
475 562 1
363 563 1
370 563 1
383 563 1
388 563 1
413 563 1
417 563 1
473 563 1
476 563 1
361 564 1
364 564 1
384 564 1
389 564 1
414 564 1
418 564 1
474 564 1
477 564 1
362 565 1
365 565 1
385 565 1
390 565 1
415 565 1
419 565 1
475 565 1
478 565 1
363 566 1
366 566 1
381 566 1
386 566 1
416 566 1
420 566 1
476 566 1
479 566 1
364 567 1
367 567 1
382 567 1
387 567 1
411 567 1
417 567 1
477 567 1
480 567 1
365 568 1
368 568 1
383 568 1
388 568 1
412 568 1
418 568 1
471 568 1
478 568 1
366 569 1
369 569 1
384 569 1
389 569 1
413 569 1
419 569 1
472 569 1
479 569 1
367 570 1
370 570 1
385 570 1
390 570 1
414 570 1
420 570 1
473 570 1
480 570 1
361 571 1
370 571 1
391 571 1
396 571 1
421 571 1
425 571 1
481 571 1
484 571 1
361 572 1
362 572 1
392 572 1
397 572 1
422 572 1
426 572 1
482 572 1
485 572 1
362 573 1
363 573 1
393 573 1
398 573 1
423 573 1
427 573 1
483 573 1
486 573 1
363 574 1
364 574 1
394 574 1
399 574 1
424 574 1
428 574 1
484 574 1
487 574 1
364 575 1
365 575 1
395 575 1
400 575 1
425 575 1
429 575 1
485 575 1
488 575 1
365 576 1
366 576 1
391 576 1
396 576 1
426 576 1
430 576 1
486 576 1
489 576 1
366 577 1
367 577 1
392 577 1
397 577 1
421 577 1
427 577 1
487 577 1
490 577 1
367 578 1
368 578 1
393 578 1
398 578 1
422 578 1
428 578 1
481 578 1
488 578 1
368 579 1
369 579 1
394 579 1
399 579 1
423 579 1
429 579 1
482 579 1
489 579 1
369 580 1
370 580 1
395 580 1
400 580 1
424 580 1
430 580 1
483 580 1
490 580 1
371 581 1
378 581 1
381 581 1
387 581 1
431 581 1
435 581 1
491 581 1
494 581 1
372 582 1
379 582 1
382 582 1
388 582 1
432 582 1
436 582 1
492 582 1
495 582 1
373 583 1
380 583 1
383 583 1
389 583 1
433 583 1
437 583 1
493 583 1
496 583 1
371 584 1
374 584 1
384 584 1
390 584 1
434 584 1
438 584 1
494 584 1
497 584 1
372 585 1
375 585 1
381 585 1
385 585 1
435 585 1
439 585 1
495 585 1
498 585 1
373 586 1
376 586 1
382 586 1
386 586 1
436 586 1
440 586 1
496 586 1
499 586 1
374 587 1
377 587 1
383 587 1
387 587 1
431 587 1
437 587 1
497 587 1
500 587 1
375 588 1
378 588 1
384 588 1
388 588 1
432 588 1
438 588 1
491 588 1
498 588 1
376 589 1
379 589 1
385 589 1
389 589 1
433 589 1
439 589 1
492 589 1
499 589 1
377 590 1
380 590 1
386 590 1
390 590 1
434 590 1
440 590 1
493 590 1
500 590 1
371 591 1
380 591 1
391 591 1
397 591 1
441 591 1
445 591 1
501 591 1
504 591 1
371 592 1
372 592 1
392 592 1
398 592 1
442 592 1
446 592 1
502 592 1
505 592 1
372 593 1
373 593 1
393 593 1
399 593 1
443 593 1
447 593 1
503 593 1
506 593 1
373 594 1
374 594 1
394 594 1
400 594 1
444 594 1
448 594 1
504 594 1
507 594 1
374 595 1
375 595 1
391 595 1
395 595 1
445 595 1
449 595 1
505 595 1
508 595 1
375 596 1
376 596 1
392 596 1
396 596 1
446 596 1
450 596 1
506 596 1
509 596 1
376 597 1
377 597 1
393 597 1
397 597 1
441 597 1
447 597 1
507 597 1
510 597 1
377 598 1
378 598 1
394 598 1
398 598 1
442 598 1
448 598 1
501 598 1
508 598 1
378 599 1
379 599 1
395 599 1
399 599 1
443 599 1
449 599 1
502 599 1
509 599 1
379 600 1
380 600 1
396 600 1
400 600 1
444 600 1
450 600 1
503 600 1
510 600 1
381 601 1
390 601 1
391 601 1
398 601 1
451 601 1
455 601 1
511 601 1
514 601 1
381 602 1
382 602 1
392 602 1
399 602 1
452 602 1
456 602 1
512 602 1
515 602 1
382 603 1
383 603 1
393 603 1
400 603 1
453 603 1
457 603 1
513 603 1
516 603 1
383 604 1
384 604 1
391 604 1
394 604 1
454 604 1
458 604 1
514 604 1
517 604 1
384 605 1
385 605 1
392 605 1
395 605 1
455 605 1
459 605 1
515 605 1
518 605 1
385 606 1
386 606 1
393 606 1
396 606 1
456 606 1
460 606 1
516 606 1
519 606 1
386 607 1
387 607 1
394 607 1
397 607 1
451 607 1
457 607 1
517 607 1
520 607 1
387 608 1
388 608 1
395 608 1
398 608 1
452 608 1
458 608 1
511 608 1
518 608 1
388 609 1
389 609 1
396 609 1
399 609 1
453 609 1
459 609 1
512 609 1
519 609 1
389 610 1
390 610 1
397 610 1
400 610 1
454 610 1
460 610 1
513 610 1
520 610 1
401 611 1
408 611 1
411 611 1
417 611 1
431 611 1
436 611 1
521 611 1
524 611 1
402 612 1
409 612 1
412 612 1
418 612 1
432 612 1
437 612 1
522 612 1
525 612 1
403 613 1
410 613 1
413 613 1
419 613 1
433 613 1
438 613 1
523 613 1
526 613 1
401 614 1
404 614 1
414 614 1
420 614 1
434 614 1
439 614 1
524 614 1
527 614 1
402 615 1
405 615 1
411 615 1
415 615 1
435 615 1
440 615 1
525 615 1
528 615 1
403 616 1
406 616 1
412 616 1
416 616 1
431 616 1
436 616 1
526 616 1
529 616 1
404 617 1
407 617 1
413 617 1
417 617 1
432 617 1
437 617 1
527 617 1
530 617 1
405 618 1
408 618 1
414 618 1
418 618 1
433 618 1
438 618 1
521 618 1
528 618 1
406 619 1
409 619 1
415 619 1
419 619 1
434 619 1
439 619 1
522 619 1
529 619 1
407 620 1
410 620 1
416 620 1
420 620 1
435 620 1
440 620 1
523 620 1
530 620 1
401 621 1
410 621 1
421 621 1
427 621 1
441 621 1
446 621 1
531 621 1
534 621 1
401 622 1
402 622 1
422 622 1
428 622 1
442 622 1
447 622 1
532 622 1
535 622 1
402 623 1
403 623 1
423 623 1
429 623 1
443 623 1
448 623 1
533 623 1
536 623 1
403 624 1
404 624 1
424 624 1
430 624 1
444 624 1
449 624 1
534 624 1
537 624 1
404 625 1
405 625 1
421 625 1
425 625 1
445 625 1
450 625 1
535 625 1
538 625 1
405 626 1
406 626 1
422 626 1
426 626 1
441 626 1
446 626 1
536 626 1
539 626 1
406 627 1
407 627 1
423 627 1
427 627 1
442 627 1
447 627 1
537 627 1
540 627 1
407 628 1
408 628 1
424 628 1
428 628 1
443 628 1
448 628 1
531 628 1
538 628 1
408 629 1
409 629 1
425 629 1
429 629 1
444 629 1
449 629 1
532 629 1
539 629 1
409 630 1
410 630 1
426 630 1
430 630 1
445 630 1
450 630 1
533 630 1
540 630 1
411 631 1
420 631 1
421 631 1
428 631 1
451 631 1
456 631 1
541 631 1
544 631 1
411 632 1
412 632 1
422 632 1
429 632 1
452 632 1
457 632 1
542 632 1
545 632 1
412 633 1
413 633 1
423 633 1
430 633 1
453 633 1
458 633 1
543 633 1
546 633 1
413 634 1
414 634 1
421 634 1
424 634 1
454 634 1
459 634 1
544 634 1
547 634 1
414 635 1
415 635 1
422 635 1
425 635 1
455 635 1
460 635 1
545 635 1
548 635 1
415 636 1
416 636 1
423 636 1
426 636 1
451 636 1
456 636 1
546 636 1
549 636 1
416 637 1
417 637 1
424 637 1
427 637 1
452 637 1
457 637 1
547 637 1
550 637 1
417 638 1
418 638 1
425 638 1
428 638 1
453 638 1
458 638 1
541 638 1
548 638 1
418 639 1
419 639 1
426 639 1
429 639 1
454 639 1
459 639 1
542 639 1
549 639 1
419 640 1
420 640 1
427 640 1
430 640 1
455 640 1
460 640 1
543 640 1
550 640 1
431 641 1
440 641 1
441 641 1
448 641 1
451 641 1
457 641 1
551 641 1
554 641 1
431 642 1
432 642 1
442 642 1
449 642 1
452 642 1
458 642 1
552 642 1
555 642 1
432 643 1
433 643 1
443 643 1
450 643 1
453 643 1
459 643 1
553 643 1
556 643 1
433 644 1
434 644 1
441 644 1
444 644 1
454 644 1
460 644 1
554 644 1
557 644 1
434 645 1
435 645 1
442 645 1
445 645 1
451 645 1
455 645 1
555 645 1
558 645 1
435 646 1
436 646 1
443 646 1
446 646 1
452 646 1
456 646 1
556 646 1
559 646 1
436 647 1
437 647 1
444 647 1
447 647 1
453 647 1
457 647 1
557 647 1
560 647 1
437 648 1
438 648 1
445 648 1
448 648 1
454 648 1
458 648 1
551 648 1
558 648 1
438 649 1
439 649 1
446 649 1
449 649 1
455 649 1
459 649 1
552 649 1
559 649 1
439 650 1
440 650 1
447 650 1
450 650 1
456 650 1
460 650 1
553 650 1
560 650 1
461 651 1
468 651 1
471 651 1
477 651 1
491 651 1
496 651 1
521 651 1
525 651 1
462 652 1
469 652 1
472 652 1
478 652 1
492 652 1
497 652 1
522 652 1
526 652 1
463 653 1
470 653 1
473 653 1
479 653 1
493 653 1
498 653 1
523 653 1
527 653 1
461 654 1
464 654 1
474 654 1
480 654 1
494 654 1
499 654 1
524 654 1
528 654 1
462 655 1
465 655 1
471 655 1
475 655 1
495 655 1
500 655 1
525 655 1
529 655 1
463 656 1
466 656 1
472 656 1
476 656 1
491 656 1
496 656 1
526 656 1
530 656 1
464 657 1
467 657 1
473 657 1
477 657 1
492 657 1
497 657 1
521 657 1
527 657 1
465 658 1
468 658 1
474 658 1
478 658 1
493 658 1
498 658 1
522 658 1
528 658 1
466 659 1
469 659 1
475 659 1
479 659 1
494 659 1
499 659 1
523 659 1
529 659 1
467 660 1
470 660 1
476 660 1
480 660 1
495 660 1
500 660 1
524 660 1
530 660 1
461 661 1
470 661 1
481 661 1
487 661 1
501 661 1
506 661 1
531 661 1
535 661 1
461 662 1
462 662 1
482 662 1
488 662 1
502 662 1
507 662 1
532 662 1
536 662 1
462 663 1
463 663 1
483 663 1
489 663 1
503 663 1
508 663 1
533 663 1
537 663 1
463 664 1
464 664 1
484 664 1
490 664 1
504 664 1
509 664 1
534 664 1
538 664 1
464 665 1
465 665 1
481 665 1
485 665 1
505 665 1
510 665 1
535 665 1
539 665 1
465 666 1
466 666 1
482 666 1
486 666 1
501 666 1
506 666 1
536 666 1
540 666 1
466 667 1
467 667 1
483 667 1
487 667 1
502 667 1
507 667 1
531 667 1
537 667 1
467 668 1
468 668 1
484 668 1
488 668 1
503 668 1
508 668 1
532 668 1
538 668 1
468 669 1
469 669 1
485 669 1
489 669 1
504 669 1
509 669 1
533 669 1
539 669 1
469 670 1
470 670 1
486 670 1
490 670 1
505 670 1
510 670 1
534 670 1
540 670 1
471 671 1
480 671 1
481 671 1
488 671 1
511 671 1
516 671 1
541 671 1
545 671 1
471 672 1
472 672 1
482 672 1
489 672 1
512 672 1
517 672 1
542 672 1
546 672 1
472 673 1
473 673 1
483 673 1
490 673 1
513 673 1
518 673 1
543 673 1
547 673 1
473 674 1
474 674 1
481 674 1
484 674 1
514 674 1
519 674 1
544 674 1
548 674 1
474 675 1
475 675 1
482 675 1
485 675 1
515 675 1
520 675 1
545 675 1
549 675 1
475 676 1
476 676 1
483 676 1
486 676 1
511 676 1
516 676 1
546 676 1
550 676 1
476 677 1
477 677 1
484 677 1
487 677 1
512 677 1
517 677 1
541 677 1
547 677 1
477 678 1
478 678 1
485 678 1
488 678 1
513 678 1
518 678 1
542 678 1
548 678 1
478 679 1
479 679 1
486 679 1
489 679 1
514 679 1
519 679 1
543 679 1
549 679 1
479 680 1
480 680 1
487 680 1
490 680 1
515 680 1
520 680 1
544 680 1
550 680 1
491 681 1
500 681 1
501 681 1
508 681 1
511 681 1
517 681 1
551 681 1
555 681 1
491 682 1
492 682 1
502 682 1
509 682 1
512 682 1
518 682 1
552 682 1
556 682 1
492 683 1
493 683 1
503 683 1
510 683 1
513 683 1
519 683 1
553 683 1
557 683 1
493 684 1
494 684 1
501 684 1
504 684 1
514 684 1
520 684 1
554 684 1
558 684 1
494 685 1
495 685 1
502 685 1
505 685 1
511 685 1
515 685 1
555 685 1
559 685 1
495 686 1
496 686 1
503 686 1
506 686 1
512 686 1
516 686 1
556 686 1
560 686 1
496 687 1
497 687 1
504 687 1
507 687 1
513 687 1
517 687 1
551 687 1
557 687 1
497 688 1
498 688 1
505 688 1
508 688 1
514 688 1
518 688 1
552 688 1
558 688 1
498 689 1
499 689 1
506 689 1
509 689 1
515 689 1
519 689 1
553 689 1
559 689 1
499 690 1
500 690 1
507 690 1
510 690 1
516 690 1
520 690 1
554 690 1
560 690 1
521 691 1
530 691 1
531 691 1
538 691 1
541 691 1
547 691 1
551 691 1
556 691 1
521 692 1
522 692 1
532 692 1
539 692 1
542 692 1
548 692 1
552 692 1
557 692 1
522 693 1
523 693 1
533 693 1
540 693 1
543 693 1
549 693 1
553 693 1
558 693 1
523 694 1
524 694 1
531 694 1
534 694 1
544 694 1
550 694 1
554 694 1
559 694 1
524 695 1
525 695 1
532 695 1
535 695 1
541 695 1
545 695 1
555 695 1
560 695 1
525 696 1
526 696 1
533 696 1
536 696 1
542 696 1
546 696 1
551 696 1
556 696 1
526 697 1
527 697 1
534 697 1
537 697 1
543 697 1
547 697 1
552 697 1
557 697 1
527 698 1
528 698 1
535 698 1
538 698 1
544 698 1
548 698 1
553 698 1
558 698 1
528 699 1
529 699 1
536 699 1
539 699 1
545 699 1
549 699 1
554 699 1
559 699 1
529 700 1
530 700 1
537 700 1
540 700 1
546 700 1
550 700 1
555 700 1
560 700 1
