%%MatrixMarket matrix coordinate integer general
% Binary matrix; one-based indices; arithmetic over GF(2)
60 120 480
1 1 1
3 1 1
13 1 1
14 1 1
2 2 1
4 2 1
14 2 1
15 2 1
3 3 1
5 3 1
15 3 1
16 3 1
4 4 1
6 4 1
16 4 1
17 4 1
5 5 1
7 5 1
17 5 1
18 5 1
6 6 1
8 6 1
18 6 1
19 6 1
7 7 1
9 7 1
19 7 1
20 7 1
8 8 1
10 8 1
20 8 1
21 8 1
9 9 1
11 9 1
21 9 1
22 9 1
10 10 1
12 10 1
22 10 1
23 10 1
1 11 1
11 11 1
23 11 1
24 11 1
2 12 1
12 12 1
13 12 1
24 12 1
1 13 1
4 13 1
25 13 1
26 13 1
2 14 1
5 14 1
26 14 1
27 14 1
3 15 1
6 15 1
27 15 1
28 15 1
4 16 1
7 16 1
28 16 1
29 16 1
5 17 1
8 17 1
29 17 1
30 17 1
6 18 1
9 18 1
30 18 1
31 18 1
7 19 1
10 19 1
31 19 1
32 19 1
8 20 1
11 20 1
32 20 1
33 20 1
9 21 1
12 21 1
33 21 1
34 21 1
1 22 1
10 22 1
34 22 1
35 22 1
2 23 1
11 23 1
35 23 1
36 23 1
3 24 1
12 24 1
25 24 1
36 24 1
13 25 1
16 25 1
25 25 1
27 25 1
14 26 1
17 26 1
26 26 1
28 26 1
15 27 1
18 27 1
27 27 1
29 27 1
16 28 1
19 28 1
28 28 1
30 28 1
17 29 1
20 29 1
29 29 1
31 29 1
18 30 1
21 30 1
30 30 1
32 30 1
19 31 1
22 31 1
31 31 1
33 31 1
20 32 1
23 32 1
32 32 1
34 32 1
21 33 1
24 33 1
33 33 1
35 33 1
13 34 1
22 34 1
34 34 1
36 34 1
14 35 1
23 35 1
25 35 1
35 35 1
15 36 1
24 36 1
26 36 1
36 36 1
1 37 1
8 37 1
37 37 1
38 37 1
2 38 1
9 38 1
38 38 1
39 38 1
3 39 1
10 39 1
39 39 1
40 39 1
4 40 1
11 40 1
40 40 1
41 40 1
5 41 1
12 41 1
41 41 1
42 41 1
1 42 1
6 42 1
42 42 1
43 42 1
2 43 1
7 43 1
43 43 1
44 43 1
3 44 1
8 44 1
44 44 1
45 44 1
4 45 1
9 45 1
45 45 1
46 45 1
5 46 1
10 46 1
46 46 1
47 46 1
6 47 1
11 47 1
47 47 1
48 47 1
7 48 1
12 48 1
37 48 1
48 48 1
13 49 1
20 49 1
37 49 1
39 49 1
14 50 1
21 50 1
38 50 1
40 50 1
15 51 1
22 51 1
39 51 1
41 51 1
16 52 1
23 52 1
40 52 1
42 52 1
17 53 1
24 53 1
41 53 1
43 53 1
13 54 1
18 54 1
42 54 1
44 54 1
14 55 1
19 55 1
43 55 1
45 55 1
15 56 1
20 56 1
44 56 1
46 56 1
16 57 1
21 57 1
45 57 1
47 57 1
17 58 1
22 58 1
46 58 1
48 58 1
18 59 1
23 59 1
37 59 1
47 59 1
19 60 1
24 60 1
38 60 1
48 60 1
25 61 1
32 61 1
37 61 1
40 61 1
26 62 1
33 62 1
38 62 1
41 62 1
27 63 1
34 63 1
39 63 1
42 63 1
28 64 1
35 64 1
40 64 1
43 64 1
29 65 1
36 65 1
41 65 1
44 65 1
25 66 1
30 66 1
42 66 1
45 66 1
26 67 1
31 67 1
43 67 1
46 67 1
27 68 1
32 68 1
44 68 1
47 68 1
28 69 1
33 69 1
45 69 1
48 69 1
29 70 1
34 70 1
37 70 1
46 70 1
30 71 1
35 71 1
38 71 1
47 71 1
31 72 1
36 72 1
39 72 1
48 72 1
1 73 1
9 73 1
49 73 1
50 73 1
2 74 1
10 74 1
50 74 1
51 74 1
3 75 1
11 75 1
51 75 1
52 75 1
4 76 1
12 76 1
52 76 1
53 76 1
1 77 1
5 77 1
53 77 1
54 77 1
2 78 1
6 78 1
54 78 1
55 78 1
3 79 1
7 79 1
55 79 1
56 79 1
4 80 1
8 80 1
56 80 1
57 80 1
5 81 1
9 81 1
57 81 1
58 81 1
6 82 1
10 82 1
58 82 1
59 82 1
7 83 1
11 83 1
59 83 1
60 83 1
8 84 1
12 84 1
49 84 1
60 84 1
13 85 1
21 85 1
49 85 1
51 85 1
14 86 1
22 86 1
50 86 1
52 86 1
15 87 1
23 87 1
51 87 1
53 87 1
16 88 1
24 88 1
52 88 1
54 88 1
13 89 1
17 89 1
53 89 1
55 89 1
14 90 1
18 90 1
54 90 1
56 90 1
15 91 1
19 91 1
55 91 1
57 91 1
16 92 1
20 92 1
56 92 1
58 92 1
17 93 1
21 93 1
57 93 1
59 93 1
18 94 1
22 94 1
58 94 1
60 94 1
19 95 1
23 95 1
49 95 1
59 95 1
20 96 1
24 96 1
50 96 1
60 96 1
25 97 1
33 97 1
49 97 1
52 97 1
26 98 1
34 98 1
50 98 1
53 98 1
27 99 1
35 99 1
51 99 1
54 99 1
28 100 1
36 100 1
52 100 1
55 100 1
25 101 1
29 101 1
53 101 1
56 101 1
26 102 1
30 102 1
54 102 1
57 102 1
27 103 1
31 103 1
55 103 1
58 103 1
28 104 1
32 104 1
56 104 1
59 104 1
29 105 1
33 105 1
57 105 1
60 105 1
30 106 1
34 106 1
49 106 1
58 106 1
31 107 1
35 107 1
50 107 1
59 107 1
32 108 1
36 108 1
51 108 1
60 108 1
37 109 1
45 109 1
49 109 1
56 109 1
38 110 1
46 110 1
50 110 1
57 110 1
39 111 1
47 111 1
51 111 1
58 111 1
40 112 1
48 112 1
52 112 1
59 112 1
37 113 1
41 113 1
53 113 1
60 113 1
38 114 1
42 114 1
49 114 1
54 114 1
39 115 1
43 115 1
50 115 1
55 115 1
40 116 1
44 116 1
51 116 1
56 116 1
41 117 1
45 117 1
52 117 1
57 117 1
42 118 1
46 118 1
53 118 1
58 118 1
43 119 1
47 119 1
54 119 1
59 119 1
44 120 1
48 120 1
55 120 1
60 120 1
