%%MatrixMarket matrix coordinate integer general
% Binary matrix; one-based indices; arithmetic over GF(2)
28 56 224
1 1 1
2 1 1
13 1 1
15 1 1
16 1 1
27 1 1
1 2 1
2 2 1
14 2 1
15 2 1
16 2 1
28 2 1
1 3 1
3 3 1
4 3 1
15 3 1
17 3 1
18 3 1
2 4 1
3 4 1
4 4 1
16 4 1
17 4 1
18 4 1
3 5 1
5 5 1
6 5 1
17 5 1
19 5 1
20 5 1
4 6 1
5 6 1
6 6 1
18 6 1
19 6 1
20 6 1
5 7 1
7 7 1
8 7 1
19 7 1
21 7 1
22 7 1
6 8 1
7 8 1
8 8 1
20 8 1
21 8 1
22 8 1
7 9 1
9 9 1
10 9 1
21 9 1
23 9 1
24 9 1
8 10 1
9 10 1
10 10 1
22 10 1
23 10 1
24 10 1
9 11 1
11 11 1
12 11 1
23 11 1
25 11 1
26 11 1
10 12 1
11 12 1
12 12 1
24 12 1
25 12 1
26 12 1
11 13 1
13 13 1
14 13 1
25 13 1
27 13 1
28 13 1
12 14 1
13 14 1
14 14 1
26 14 1
27 14 1
28 14 1
1 15 1
2 15 1
13 15 1
15 15 1
16 15 1
27 15 1
1 16 1
2 16 1
14 16 1
15 16 1
16 16 1
28 16 1
1 17 1
3 17 1
4 17 1
15 17 1
17 17 1
18 17 1
2 18 1
3 18 1
4 18 1
16 18 1
17 18 1
18 18 1
3 19 1
5 19 1
6 19 1
17 19 1
19 19 1
20 19 1
4 20 1
5 20 1
6 20 1
18 20 1
19 20 1
20 20 1
5 21 1
7 21 1
8 21 1
19 21 1
21 21 1
22 21 1
6 22 1
7 22 1
8 22 1
20 22 1
21 22 1
22 22 1
7 23 1
9 23 1
10 23 1
21 23 1
23 23 1
24 23 1
8 24 1
9 24 1
10 24 1
22 24 1
23 24 1
24 24 1
9 25 1
11 25 1
12 25 1
23 25 1
25 25 1
26 25 1
10 26 1
11 26 1
12 26 1
24 26 1
25 26 1
26 26 1
11 27 1
13 27 1
14 27 1
25 27 1
27 27 1
28 27 1
12 28 1
13 28 1
14 28 1
26 28 1
27 28 1
28 28 1
1 29 1
15 29 1
2 30 1
16 30 1
3 31 1
17 31 1
4 32 1
18 32 1
5 33 1
19 33 1
6 34 1
20 34 1
7 35 1
21 35 1
8 36 1
22 36 1
9 37 1
23 37 1
10 38 1
24 38 1
11 39 1
25 39 1
12 40 1
26 40 1
13 41 1
27 41 1
14 42 1
28 42 1
1 43 1
15 43 1
2 44 1
16 44 1
3 45 1
17 45 1
4 46 1
18 46 1
5 47 1
19 47 1
6 48 1
20 48 1
7 49 1
21 49 1
8 50 1
22 50 1
9 51 1
23 51 1
10 52 1
24 52 1
11 53 1
25 53 1
12 54 1
26 54 1
13 55 1
27 55 1
14 56 1
28 56 1
