%%MatrixMarket matrix coordinate integer general
% Binary matrix; one-based indices; arithmetic over GF(2)
300 300 1800
1 1 1
19 1 1
31 1 1
36 1 1
121 1 1
125 1 1
2 2 1
20 2 1
32 2 1
37 2 1
122 2 1
126 2 1
3 3 1
21 3 1
33 3 1
38 3 1
123 3 1
127 3 1
4 4 1
22 4 1
34 4 1
39 4 1
124 4 1
128 4 1
5 5 1
23 5 1
35 5 1
40 5 1
125 5 1
129 5 1
6 6 1
24 6 1
36 6 1
41 6 1
126 6 1
130 6 1
7 7 1
25 7 1
37 7 1
42 7 1
127 7 1
131 7 1
8 8 1
26 8 1
38 8 1
43 8 1
128 8 1
132 8 1
9 9 1
27 9 1
39 9 1
44 9 1
129 9 1
133 9 1
10 10 1
28 10 1
40 10 1
45 10 1
130 10 1
134 10 1
11 11 1
29 11 1
41 11 1
46 11 1
131 11 1
135 11 1
12 12 1
30 12 1
42 12 1
47 12 1
132 12 1
136 12 1
1 13 1
13 13 1
43 13 1
48 13 1
133 13 1
137 13 1
2 14 1
14 14 1
44 14 1
49 14 1
134 14 1
138 14 1
3 15 1
15 15 1
45 15 1
50 15 1
135 15 1
139 15 1
4 16 1
16 16 1
46 16 1
51 16 1
136 16 1
140 16 1
5 17 1
17 17 1
47 17 1
52 17 1
137 17 1
141 17 1
6 18 1
18 18 1
48 18 1
53 18 1
138 18 1
142 18 1
7 19 1
19 19 1
49 19 1
54 19 1
139 19 1
143 19 1
8 20 1
20 20 1
50 20 1
55 20 1
140 20 1
144 20 1
9 21 1
21 21 1
51 21 1
56 21 1
141 21 1
145 21 1
10 22 1
22 22 1
52 22 1
57 22 1
142 22 1
146 22 1
11 23 1
23 23 1
53 23 1
58 23 1
143 23 1
147 23 1
12 24 1
24 24 1
54 24 1
59 24 1
144 24 1
148 24 1
13 25 1
25 25 1
55 25 1
60 25 1
145 25 1
149 25 1
14 26 1
26 26 1
31 26 1
56 26 1
146 26 1
150 26 1
15 27 1
27 27 1
32 27 1
57 27 1
121 27 1
147 27 1
16 28 1
28 28 1
33 28 1
58 28 1
122 28 1
148 28 1
17 29 1
29 29 1
34 29 1
59 29 1
123 29 1
149 29 1
18 30 1
30 30 1
35 30 1
60 30 1
124 30 1
150 30 1
1 31 1
20 31 1
61 31 1
66 31 1
151 31 1
155 31 1
2 32 1
21 32 1
62 32 1
67 32 1
152 32 1
156 32 1
3 33 1
22 33 1
63 33 1
68 33 1
153 33 1
157 33 1
4 34 1
23 34 1
64 34 1
69 34 1
154 34 1
158 34 1
5 35 1
24 35 1
65 35 1
70 35 1
155 35 1
159 35 1
6 36 1
25 36 1
66 36 1
71 36 1
156 36 1
160 36 1
7 37 1
26 37 1
67 37 1
72 37 1
157 37 1
161 37 1
8 38 1
27 38 1
68 38 1
73 38 1
158 38 1
162 38 1
9 39 1
28 39 1
69 39 1
74 39 1
159 39 1
163 39 1
10 40 1
29 40 1
70 40 1
75 40 1
160 40 1
164 40 1
11 41 1
30 41 1
71 41 1
76 41 1
161 41 1
165 41 1
1 42 1
12 42 1
72 42 1
77 42 1
162 42 1
166 42 1
2 43 1
13 43 1
73 43 1
78 43 1
163 43 1
167 43 1
3 44 1
14 44 1
74 44 1
79 44 1
164 44 1
168 44 1
4 45 1
15 45 1
75 45 1
80 45 1
165 45 1
169 45 1
5 46 1
16 46 1
76 46 1
81 46 1
166 46 1
170 46 1
6 47 1
17 47 1
77 47 1
82 47 1
167 47 1
171 47 1
7 48 1
18 48 1
78 48 1
83 48 1
168 48 1
172 48 1
8 49 1
19 49 1
79 49 1
84 49 1
169 49 1
173 49 1
9 50 1
20 50 1
80 50 1
85 50 1
170 50 1
174 50 1
10 51 1
21 51 1
81 51 1
86 51 1
171 51 1
175 51 1
11 52 1
22 52 1
82 52 1
87 52 1
172 52 1
176 52 1
12 53 1
23 53 1
83 53 1
88 53 1
173 53 1
177 53 1
13 54 1
24 54 1
84 54 1
89 54 1
174 54 1
178 54 1
14 55 1
25 55 1
85 55 1
90 55 1
175 55 1
179 55 1
15 56 1
26 56 1
61 56 1
86 56 1
176 56 1
180 56 1
16 57 1
27 57 1
62 57 1
87 57 1
151 57 1
177 57 1
17 58 1
28 58 1
63 58 1
88 58 1
152 58 1
178 58 1
18 59 1
29 59 1
64 59 1
89 59 1
153 59 1
179 59 1
19 60 1
30 60 1
65 60 1
90 60 1
154 60 1
180 60 1
1 61 1
29 61 1
91 61 1
96 61 1
181 61 1
185 61 1
2 62 1
30 62 1
92 62 1
97 62 1
182 62 1
186 62 1
1 63 1
3 63 1
93 63 1
98 63 1
183 63 1
187 63 1
2 64 1
4 64 1
94 64 1
99 64 1
184 64 1
188 64 1
3 65 1
5 65 1
95 65 1
100 65 1
185 65 1
189 65 1
4 66 1
6 66 1
96 66 1
101 66 1
186 66 1
190 66 1
5 67 1
7 67 1
97 67 1
102 67 1
187 67 1
191 67 1
6 68 1
8 68 1
98 68 1
103 68 1
188 68 1
192 68 1
7 69 1
9 69 1
99 69 1
104 69 1
189 69 1
193 69 1
8 70 1
10 70 1
100 70 1
105 70 1
190 70 1
194 70 1
9 71 1
11 71 1
101 71 1
106 71 1
191 71 1
195 71 1
10 72 1
12 72 1
102 72 1
107 72 1
192 72 1
196 72 1
11 73 1
13 73 1
103 73 1
108 73 1
193 73 1
197 73 1
12 74 1
14 74 1
104 74 1
109 74 1
194 74 1
198 74 1
13 75 1
15 75 1
105 75 1
110 75 1
195 75 1
199 75 1
14 76 1
16 76 1
106 76 1
111 76 1
196 76 1
200 76 1
15 77 1
17 77 1
107 77 1
112 77 1
197 77 1
201 77 1
16 78 1
18 78 1
108 78 1
113 78 1
198 78 1
202 78 1
17 79 1
19 79 1
109 79 1
114 79 1
199 79 1
203 79 1
18 80 1
20 80 1
110 80 1
115 80 1
200 80 1
204 80 1
19 81 1
21 81 1
111 81 1
116 81 1
201 81 1
205 81 1
20 82 1
22 82 1
112 82 1
117 82 1
202 82 1
206 82 1
21 83 1
23 83 1
113 83 1
118 83 1
203 83 1
207 83 1
22 84 1
24 84 1
114 84 1
119 84 1
204 84 1
208 84 1
23 85 1
25 85 1
115 85 1
120 85 1
205 85 1
209 85 1
24 86 1
26 86 1
91 86 1
116 86 1
206 86 1
210 86 1
25 87 1
27 87 1
92 87 1
117 87 1
181 87 1
207 87 1
26 88 1
28 88 1
93 88 1
118 88 1
182 88 1
208 88 1
27 89 1
29 89 1
94 89 1
119 89 1
183 89 1
209 89 1
28 90 1
30 90 1
95 90 1
120 90 1
184 90 1
210 90 1
31 91 1
50 91 1
61 91 1
79 91 1
211 91 1
215 91 1
32 92 1
51 92 1
62 92 1
80 92 1
212 92 1
216 92 1
33 93 1
52 93 1
63 93 1
81 93 1
213 93 1
217 93 1
34 94 1
53 94 1
64 94 1
82 94 1
214 94 1
218 94 1
35 95 1
54 95 1
65 95 1
83 95 1
215 95 1
219 95 1
36 96 1
55 96 1
66 96 1
84 96 1
216 96 1
220 96 1
37 97 1
56 97 1
67 97 1
85 97 1
217 97 1
221 97 1
38 98 1
57 98 1
68 98 1
86 98 1
218 98 1
222 98 1
39 99 1
58 99 1
69 99 1
87 99 1
219 99 1
223 99 1
40 100 1
59 100 1
70 100 1
88 100 1
220 100 1
224 100 1
41 101 1
60 101 1
71 101 1
89 101 1
221 101 1
225 101 1
31 102 1
42 102 1
72 102 1
90 102 1
222 102 1
226 102 1
32 103 1
43 103 1
61 103 1
73 103 1
223 103 1
227 103 1
33 104 1
44 104 1
62 104 1
74 104 1
224 104 1
228 104 1
34 105 1
45 105 1
63 105 1
75 105 1
225 105 1
229 105 1
35 106 1
46 106 1
64 106 1
76 106 1
226 106 1
230 106 1
36 107 1
47 107 1
65 107 1
77 107 1
227 107 1
231 107 1
37 108 1
48 108 1
66 108 1
78 108 1
228 108 1
232 108 1
38 109 1
49 109 1
67 109 1
79 109 1
229 109 1
233 109 1
39 110 1
50 110 1
68 110 1
80 110 1
230 110 1
234 110 1
40 111 1
51 111 1
69 111 1
81 111 1
231 111 1
235 111 1
41 112 1
52 112 1
70 112 1
82 112 1
232 112 1
236 112 1
42 113 1
53 113 1
71 113 1
83 113 1
233 113 1
237 113 1
43 114 1
54 114 1
72 114 1
84 114 1
234 114 1
238 114 1
44 115 1
55 115 1
73 115 1
85 115 1
235 115 1
239 115 1
45 116 1
56 116 1
74 116 1
86 116 1
236 116 1
240 116 1
46 117 1
57 117 1
75 117 1
87 117 1
211 117 1
237 117 1
47 118 1
58 118 1
76 118 1
88 118 1
212 118 1
238 118 1
48 119 1
59 119 1
77 119 1
89 119 1
213 119 1
239 119 1
49 120 1
60 120 1
78 120 1
90 120 1
214 120 1
240 120 1
31 121 1
59 121 1
91 121 1
109 121 1
241 121 1
245 121 1
32 122 1
60 122 1
92 122 1
110 122 1
242 122 1
246 122 1
31 123 1
33 123 1
93 123 1
111 123 1
243 123 1
247 123 1
32 124 1
34 124 1
94 124 1
112 124 1
244 124 1
248 124 1
33 125 1
35 125 1
95 125 1
113 125 1
245 125 1
249 125 1
34 126 1
36 126 1
96 126 1
114 126 1
246 126 1
250 126 1
35 127 1
37 127 1
97 127 1
115 127 1
247 127 1
251 127 1
36 128 1
38 128 1
98 128 1
116 128 1
248 128 1
252 128 1
37 129 1
39 129 1
99 129 1
117 129 1
249 129 1
253 129 1
38 130 1
40 130 1
100 130 1
118 130 1
250 130 1
254 130 1
39 131 1
41 131 1
101 131 1
119 131 1
251 131 1
255 131 1
40 132 1
42 132 1
102 132 1
120 132 1
252 132 1
256 132 1
41 133 1
43 133 1
91 133 1
103 133 1
253 133 1
257 133 1
42 134 1
44 134 1
92 134 1
104 134 1
254 134 1
258 134 1
43 135 1
45 135 1
93 135 1
105 135 1
255 135 1
259 135 1
44 136 1
46 136 1
94 136 1
106 136 1
256 136 1
260 136 1
45 137 1
47 137 1
95 137 1
107 137 1
257 137 1
261 137 1
46 138 1
48 138 1
96 138 1
108 138 1
258 138 1
262 138 1
47 139 1
49 139 1
97 139 1
109 139 1
259 139 1
263 139 1
48 140 1
50 140 1
98 140 1
110 140 1
260 140 1
264 140 1
49 141 1
51 141 1
99 141 1
111 141 1
261 141 1
265 141 1
50 142 1
52 142 1
100 142 1
112 142 1
262 142 1
266 142 1
51 143 1
53 143 1
101 143 1
113 143 1
263 143 1
267 143 1
52 144 1
54 144 1
102 144 1
114 144 1
264 144 1
268 144 1
53 145 1
55 145 1
103 145 1
115 145 1
265 145 1
269 145 1
54 146 1
56 146 1
104 146 1
116 146 1
266 146 1
270 146 1
55 147 1
57 147 1
105 147 1
117 147 1
241 147 1
267 147 1
56 148 1
58 148 1
106 148 1
118 148 1
242 148 1
268 148 1
57 149 1
59 149 1
107 149 1
119 149 1
243 149 1
269 149 1
58 150 1
60 150 1
108 150 1
120 150 1
244 150 1
270 150 1
61 151 1
89 151 1
91 151 1
110 151 1
271 151 1
275 151 1
62 152 1
90 152 1
92 152 1
111 152 1
272 152 1
276 152 1
61 153 1
63 153 1
93 153 1
112 153 1
273 153 1
277 153 1
62 154 1
64 154 1
94 154 1
113 154 1
274 154 1
278 154 1
63 155 1
65 155 1
95 155 1
114 155 1
275 155 1
279 155 1
64 156 1
66 156 1
96 156 1
115 156 1
276 156 1
280 156 1
65 157 1
67 157 1
97 157 1
116 157 1
277 157 1
281 157 1
66 158 1
68 158 1
98 158 1
117 158 1
278 158 1
282 158 1
67 159 1
69 159 1
99 159 1
118 159 1
279 159 1
283 159 1
68 160 1
70 160 1
100 160 1
119 160 1
280 160 1
284 160 1
69 161 1
71 161 1
101 161 1
120 161 1
281 161 1
285 161 1
70 162 1
72 162 1
91 162 1
102 162 1
282 162 1
286 162 1
71 163 1
73 163 1
92 163 1
103 163 1
283 163 1
287 163 1
72 164 1
74 164 1
93 164 1
104 164 1
284 164 1
288 164 1
73 165 1
75 165 1
94 165 1
105 165 1
285 165 1
289 165 1
74 166 1
76 166 1
95 166 1
106 166 1
286 166 1
290 166 1
75 167 1
77 167 1
96 167 1
107 167 1
287 167 1
291 167 1
76 168 1
78 168 1
97 168 1
108 168 1
288 168 1
292 168 1
77 169 1
79 169 1
98 169 1
109 169 1
289 169 1
293 169 1
78 170 1
80 170 1
99 170 1
110 170 1
290 170 1
294 170 1
79 171 1
81 171 1
100 171 1
111 171 1
291 171 1
295 171 1
80 172 1
82 172 1
101 172 1
112 172 1
292 172 1
296 172 1
81 173 1
83 173 1
102 173 1
113 173 1
293 173 1
297 173 1
82 174 1
84 174 1
103 174 1
114 174 1
294 174 1
298 174 1
83 175 1
85 175 1
104 175 1
115 175 1
295 175 1
299 175 1
84 176 1
86 176 1
105 176 1
116 176 1
296 176 1
300 176 1
85 177 1
87 177 1
106 177 1
117 177 1
271 177 1
297 177 1
86 178 1
88 178 1
107 178 1
118 178 1
272 178 1
298 178 1
87 179 1
89 179 1
108 179 1
119 179 1
273 179 1
299 179 1
88 180 1
90 180 1
109 180 1
120 180 1
274 180 1
300 180 1
121 181 1
140 181 1
151 181 1
169 181 1
211 181 1
216 181 1
122 182 1
141 182 1
152 182 1
170 182 1
212 182 1
217 182 1
123 183 1
142 183 1
153 183 1
171 183 1
213 183 1
218 183 1
124 184 1
143 184 1
154 184 1
172 184 1
214 184 1
219 184 1
125 185 1
144 185 1
155 185 1
173 185 1
215 185 1
220 185 1
126 186 1
145 186 1
156 186 1
174 186 1
216 186 1
221 186 1
127 187 1
146 187 1
157 187 1
175 187 1
217 187 1
222 187 1
128 188 1
147 188 1
158 188 1
176 188 1
218 188 1
223 188 1
129 189 1
148 189 1
159 189 1
177 189 1
219 189 1
224 189 1
130 190 1
149 190 1
160 190 1
178 190 1
220 190 1
225 190 1
131 191 1
150 191 1
161 191 1
179 191 1
221 191 1
226 191 1
121 192 1
132 192 1
162 192 1
180 192 1
222 192 1
227 192 1
122 193 1
133 193 1
151 193 1
163 193 1
223 193 1
228 193 1
123 194 1
134 194 1
152 194 1
164 194 1
224 194 1
229 194 1
124 195 1
135 195 1
153 195 1
165 195 1
225 195 1
230 195 1
125 196 1
136 196 1
154 196 1
166 196 1
226 196 1
231 196 1
126 197 1
137 197 1
155 197 1
167 197 1
227 197 1
232 197 1
127 198 1
138 198 1
156 198 1
168 198 1
228 198 1
233 198 1
128 199 1
139 199 1
157 199 1
169 199 1
229 199 1
234 199 1
129 200 1
140 200 1
158 200 1
170 200 1
230 200 1
235 200 1
130 201 1
141 201 1
159 201 1
171 201 1
231 201 1
236 201 1
131 202 1
142 202 1
160 202 1
172 202 1
232 202 1
237 202 1
132 203 1
143 203 1
161 203 1
173 203 1
233 203 1
238 203 1
133 204 1
144 204 1
162 204 1
174 204 1
234 204 1
239 204 1
134 205 1
145 205 1
163 205 1
175 205 1
235 205 1
240 205 1
135 206 1
146 206 1
164 206 1
176 206 1
211 206 1
236 206 1
136 207 1
147 207 1
165 207 1
177 207 1
212 207 1
237 207 1
137 208 1
148 208 1
166 208 1
178 208 1
213 208 1
238 208 1
138 209 1
149 209 1
167 209 1
179 209 1
214 209 1
239 209 1
139 210 1
150 210 1
168 210 1
180 210 1
215 210 1
240 210 1
121 211 1
149 211 1
181 211 1
199 211 1
241 211 1
246 211 1
122 212 1
150 212 1
182 212 1
200 212 1
242 212 1
247 212 1
121 213 1
123 213 1
183 213 1
201 213 1
243 213 1
248 213 1
122 214 1
124 214 1
184 214 1
202 214 1
244 214 1
249 214 1
123 215 1
125 215 1
185 215 1
203 215 1
245 215 1
250 215 1
124 216 1
126 216 1
186 216 1
204 216 1
246 216 1
251 216 1
125 217 1
127 217 1
187 217 1
205 217 1
247 217 1
252 217 1
126 218 1
128 218 1
188 218 1
206 218 1
248 218 1
253 218 1
127 219 1
129 219 1
189 219 1
207 219 1
249 219 1
254 219 1
128 220 1
130 220 1
190 220 1
208 220 1
250 220 1
255 220 1
129 221 1
131 221 1
191 221 1
209 221 1
251 221 1
256 221 1
130 222 1
132 222 1
192 222 1
210 222 1
252 222 1
257 222 1
131 223 1
133 223 1
181 223 1
193 223 1
253 223 1
258 223 1
132 224 1
134 224 1
182 224 1
194 224 1
254 224 1
259 224 1
133 225 1
135 225 1
183 225 1
195 225 1
255 225 1
260 225 1
134 226 1
136 226 1
184 226 1
196 226 1
256 226 1
261 226 1
135 227 1
137 227 1
185 227 1
197 227 1
257 227 1
262 227 1
136 228 1
138 228 1
186 228 1
198 228 1
258 228 1
263 228 1
137 229 1
139 229 1
187 229 1
199 229 1
259 229 1
264 229 1
138 230 1
140 230 1
188 230 1
200 230 1
260 230 1
265 230 1
139 231 1
141 231 1
189 231 1
201 231 1
261 231 1
266 231 1
140 232 1
142 232 1
190 232 1
202 232 1
262 232 1
267 232 1
141 233 1
143 233 1
191 233 1
203 233 1
263 233 1
268 233 1
142 234 1
144 234 1
192 234 1
204 234 1
264 234 1
269 234 1
143 235 1
145 235 1
193 235 1
205 235 1
265 235 1
270 235 1
144 236 1
146 236 1
194 236 1
206 236 1
241 236 1
266 236 1
145 237 1
147 237 1
195 237 1
207 237 1
242 237 1
267 237 1
146 238 1
148 238 1
196 238 1
208 238 1
243 238 1
268 238 1
147 239 1
149 239 1
197 239 1
209 239 1
244 239 1
269 239 1
148 240 1
150 240 1
198 240 1
210 240 1
245 240 1
270 240 1
151 241 1
179 241 1
181 241 1
200 241 1
271 241 1
276 241 1
152 242 1
180 242 1
182 242 1
201 242 1
272 242 1
277 242 1
151 243 1
153 243 1
183 243 1
202 243 1
273 243 1
278 243 1
152 244 1
154 244 1
184 244 1
203 244 1
274 244 1
279 244 1
153 245 1
155 245 1
185 245 1
204 245 1
275 245 1
280 245 1
154 246 1
156 246 1
186 246 1
205 246 1
276 246 1
281 246 1
155 247 1
157 247 1
187 247 1
206 247 1
277 247 1
282 247 1
156 248 1
158 248 1
188 248 1
207 248 1
278 248 1
283 248 1
157 249 1
159 249 1
189 249 1
208 249 1
279 249 1
284 249 1
158 250 1
160 250 1
190 250 1
209 250 1
280 250 1
285 250 1
159 251 1
161 251 1
191 251 1
210 251 1
281 251 1
286 251 1
160 252 1
162 252 1
181 252 1
192 252 1
282 252 1
287 252 1
161 253 1
163 253 1
182 253 1
193 253 1
283 253 1
288 253 1
162 254 1
164 254 1
183 254 1
194 254 1
284 254 1
289 254 1
163 255 1
165 255 1
184 255 1
195 255 1
285 255 1
290 255 1
164 256 1
166 256 1
185 256 1
196 256 1
286 256 1
291 256 1
165 257 1
167 257 1
186 257 1
197 257 1
287 257 1
292 257 1
166 258 1
168 258 1
187 258 1
198 258 1
288 258 1
293 258 1
167 259 1
169 259 1
188 259 1
199 259 1
289 259 1
294 259 1
168 260 1
170 260 1
189 260 1
200 260 1
290 260 1
295 260 1
169 261 1
171 261 1
190 261 1
201 261 1
291 261 1
296 261 1
170 262 1
172 262 1
191 262 1
202 262 1
292 262 1
297 262 1
171 263 1
173 263 1
192 263 1
203 263 1
293 263 1
298 263 1
172 264 1
174 264 1
193 264 1
204 264 1
294 264 1
299 264 1
173 265 1
175 265 1
194 265 1
205 265 1
295 265 1
300 265 1
174 266 1
176 266 1
195 266 1
206 266 1
271 266 1
296 266 1
175 267 1
177 267 1
196 267 1
207 267 1
272 267 1
297 267 1
176 268 1
178 268 1
197 268 1
208 268 1
273 268 1
298 268 1
177 269 1
179 269 1
198 269 1
209 269 1
274 269 1
299 269 1
178 270 1
180 270 1
199 270 1
210 270 1
275 270 1
300 270 1
211 271 1
239 271 1
241 271 1
260 271 1
271 271 1
289 271 1
212 272 1
240 272 1
242 272 1
261 272 1
272 272 1
290 272 1
211 273 1
213 273 1
243 273 1
262 273 1
273 273 1
291 273 1
212 274 1
214 274 1
244 274 1
263 274 1
274 274 1
292 274 1
213 275 1
215 275 1
245 275 1
264 275 1
275 275 1
293 275 1
214 276 1
216 276 1
246 276 1
265 276 1
276 276 1
294 276 1
215 277 1
217 277 1
247 277 1
266 277 1
277 277 1
295 277 1
216 278 1
218 278 1
248 278 1
267 278 1
278 278 1
296 278 1
217 279 1
219 279 1
249 279 1
268 279 1
279 279 1
297 279 1
218 280 1
220 280 1
250 280 1
269 280 1
280 280 1
298 280 1
219 281 1
221 281 1
251 281 1
270 281 1
281 281 1
299 281 1
220 282 1
222 282 1
241 282 1
252 282 1
282 282 1
300 282 1
221 283 1
223 283 1
242 283 1
253 283 1
271 283 1
283 283 1
222 284 1
224 284 1
243 284 1
254 284 1
272 284 1
284 284 1
223 285 1
225 285 1
244 285 1
255 285 1
273 285 1
285 285 1
224 286 1
226 286 1
245 286 1
256 286 1
274 286 1
286 286 1
225 287 1
227 287 1
246 287 1
257 287 1
275 287 1
287 287 1
226 288 1
228 288 1
247 288 1
258 288 1
276 288 1
288 288 1
227 289 1
229 289 1
248 289 1
259 289 1
277 289 1
289 289 1
228 290 1
230 290 1
249 290 1
260 290 1
278 290 1
290 290 1
229 291 1
231 291 1
250 291 1
261 291 1
279 291 1
291 291 1
230 292 1
232 292 1
251 292 1
262 292 1
280 292 1
292 292 1
231 293 1
233 293 1
252 293 1
263 293 1
281 293 1
293 293 1
232 294 1
234 294 1
253 294 1
264 294 1
282 294 1
294 294 1
233 295 1
235 295 1
254 295 1
265 295 1
283 295 1
295 295 1
234 296 1
236 296 1
255 296 1
266 296 1
284 296 1
296 296 1
235 297 1
237 297 1
256 297 1
267 297 1
285 297 1
297 297 1
236 298 1
238 298 1
257 298 1
268 298 1
286 298 1
298 298 1
237 299 1
239 299 1
258 299 1
269 299 1
287 299 1
299 299 1
238 300 1
240 300 1
259 300 1
270 300 1
288 300 1
300 300 1
