%%MatrixMarket matrix coordinate integer general
% Binary matrix; one-based indices; arithmetic over GF(2)
225 300 1800
1 1 1
10 1 1
16 1 1
23 1 1
31 1 1
35 1 1
2 2 1
11 2 1
17 2 1
24 2 1
32 2 1
36 2 1
3 3 1
12 3 1
18 3 1
25 3 1
33 3 1
37 3 1
4 4 1
13 4 1
19 4 1
26 4 1
34 4 1
38 4 1
5 5 1
14 5 1
20 5 1
27 5 1
35 5 1
39 5 1
6 6 1
15 6 1
21 6 1
28 6 1
36 6 1
40 6 1
1 7 1
7 7 1
22 7 1
29 7 1
37 7 1
41 7 1
2 8 1
8 8 1
23 8 1
30 8 1
38 8 1
42 8 1
3 9 1
9 9 1
16 9 1
24 9 1
39 9 1
43 9 1
4 10 1
10 10 1
17 10 1
25 10 1
40 10 1
44 10 1
5 11 1
11 11 1
18 11 1
26 11 1
41 11 1
45 11 1
6 12 1
12 12 1
19 12 1
27 12 1
31 12 1
42 12 1
7 13 1
13 13 1
20 13 1
28 13 1
32 13 1
43 13 1
8 14 1
14 14 1
21 14 1
29 14 1
33 14 1
44 14 1
9 15 1
15 15 1
22 15 1
30 15 1
34 15 1
45 15 1
1 16 1
11 16 1
46 16 1
53 16 1
61 16 1
65 16 1
2 17 1
12 17 1
47 17 1
54 17 1
62 17 1
66 17 1
3 18 1
13 18 1
48 18 1
55 18 1
63 18 1
67 18 1
4 19 1
14 19 1
49 19 1
56 19 1
64 19 1
68 19 1
5 20 1
15 20 1
50 20 1
57 20 1
65 20 1
69 20 1
1 21 1
6 21 1
51 21 1
58 21 1
66 21 1
70 21 1
2 22 1
7 22 1
52 22 1
59 22 1
67 22 1
71 22 1
3 23 1
8 23 1
53 23 1
60 23 1
68 23 1
72 23 1
4 24 1
9 24 1
46 24 1
54 24 1
69 24 1
73 24 1
5 25 1
10 25 1
47 25 1
55 25 1
70 25 1
74 25 1
6 26 1
11 26 1
48 26 1
56 26 1
71 26 1
75 26 1
7 27 1
12 27 1
49 27 1
57 27 1
61 27 1
72 27 1
8 28 1
13 28 1
50 28 1
58 28 1
62 28 1
73 28 1
9 29 1
14 29 1
51 29 1
59 29 1
63 29 1
74 29 1
10 30 1
15 30 1
52 30 1
60 30 1
64 30 1
75 30 1
16 31 1
26 31 1
46 31 1
55 31 1
76 31 1
80 31 1
17 32 1
27 32 1
47 32 1
56 32 1
77 32 1
81 32 1
18 33 1
28 33 1
48 33 1
57 33 1
78 33 1
82 33 1
19 34 1
29 34 1
49 34 1
58 34 1
79 34 1
83 34 1
20 35 1
30 35 1
50 35 1
59 35 1
80 35 1
84 35 1
16 36 1
21 36 1
51 36 1
60 36 1
81 36 1
85 36 1
17 37 1
22 37 1
46 37 1
52 37 1
82 37 1
86 37 1
18 38 1
23 38 1
47 38 1
53 38 1
83 38 1
87 38 1
19 39 1
24 39 1
48 39 1
54 39 1
84 39 1
88 39 1
20 40 1
25 40 1
49 40 1
55 40 1
85 40 1
89 40 1
21 41 1
26 41 1
50 41 1
56 41 1
86 41 1
90 41 1
22 42 1
27 42 1
51 42 1
57 42 1
76 42 1
87 42 1
23 43 1
28 43 1
52 43 1
58 43 1
77 43 1
88 43 1
24 44 1
29 44 1
53 44 1
59 44 1
78 44 1
89 44 1
25 45 1
30 45 1
54 45 1
60 45 1
79 45 1
90 45 1
31 46 1
41 46 1
61 46 1
70 46 1
76 46 1
83 46 1
32 47 1
42 47 1
62 47 1
71 47 1
77 47 1
84 47 1
33 48 1
43 48 1
63 48 1
72 48 1
78 48 1
85 48 1
34 49 1
44 49 1
64 49 1
73 49 1
79 49 1
86 49 1
35 50 1
45 50 1
65 50 1
74 50 1
80 50 1
87 50 1
31 51 1
36 51 1
66 51 1
75 51 1
81 51 1
88 51 1
32 52 1
37 52 1
61 52 1
67 52 1
82 52 1
89 52 1
33 53 1
38 53 1
62 53 1
68 53 1
83 53 1
90 53 1
34 54 1
39 54 1
63 54 1
69 54 1
76 54 1
84 54 1
35 55 1
40 55 1
64 55 1
70 55 1
77 55 1
85 55 1
36 56 1
41 56 1
65 56 1
71 56 1
78 56 1
86 56 1
37 57 1
42 57 1
66 57 1
72 57 1
79 57 1
87 57 1
38 58 1
43 58 1
67 58 1
73 58 1
80 58 1
88 58 1
39 59 1
44 59 1
68 59 1
74 59 1
81 59 1
89 59 1
40 60 1
45 60 1
69 60 1
75 60 1
82 60 1
90 60 1
1 61 1
13 61 1
91 61 1
98 61 1
106 61 1
110 61 1
2 62 1
14 62 1
92 62 1
99 62 1
107 62 1
111 62 1
3 63 1
15 63 1
93 63 1
100 63 1
108 63 1
112 63 1
1 64 1
4 64 1
94 64 1
101 64 1
109 64 1
113 64 1
2 65 1
5 65 1
95 65 1
102 65 1
110 65 1
114 65 1
3 66 1
6 66 1
96 66 1
103 66 1
111 66 1
115 66 1
4 67 1
7 67 1
97 67 1
104 67 1
112 67 1
116 67 1
5 68 1
8 68 1
98 68 1
105 68 1
113 68 1
117 68 1
6 69 1
9 69 1
91 69 1
99 69 1
114 69 1
118 69 1
7 70 1
10 70 1
92 70 1
100 70 1
115 70 1
119 70 1
8 71 1
11 71 1
93 71 1
101 71 1
116 71 1
120 71 1
9 72 1
12 72 1
94 72 1
102 72 1
106 72 1
117 72 1
10 73 1
13 73 1
95 73 1
103 73 1
107 73 1
118 73 1
11 74 1
14 74 1
96 74 1
104 74 1
108 74 1
119 74 1
12 75 1
15 75 1
97 75 1
105 75 1
109 75 1
120 75 1
16 76 1
28 76 1
91 76 1
100 76 1
121 76 1
125 76 1
17 77 1
29 77 1
92 77 1
101 77 1
122 77 1
126 77 1
18 78 1
30 78 1
93 78 1
102 78 1
123 78 1
127 78 1
16 79 1
19 79 1
94 79 1
103 79 1
124 79 1
128 79 1
17 80 1
20 80 1
95 80 1
104 80 1
125 80 1
129 80 1
18 81 1
21 81 1
96 81 1
105 81 1
126 81 1
130 81 1
19 82 1
22 82 1
91 82 1
97 82 1
127 82 1
131 82 1
20 83 1
23 83 1
92 83 1
98 83 1
128 83 1
132 83 1
21 84 1
24 84 1
93 84 1
99 84 1
129 84 1
133 84 1
22 85 1
25 85 1
94 85 1
100 85 1
130 85 1
134 85 1
23 86 1
26 86 1
95 86 1
101 86 1
131 86 1
135 86 1
24 87 1
27 87 1
96 87 1
102 87 1
121 87 1
132 87 1
25 88 1
28 88 1
97 88 1
103 88 1
122 88 1
133 88 1
26 89 1
29 89 1
98 89 1
104 89 1
123 89 1
134 89 1
27 90 1
30 90 1
99 90 1
105 90 1
124 90 1
135 90 1
31 91 1
43 91 1
106 91 1
115 91 1
121 91 1
128 91 1
32 92 1
44 92 1
107 92 1
116 92 1
122 92 1
129 92 1
33 93 1
45 93 1
108 93 1
117 93 1
123 93 1
130 93 1
31 94 1
34 94 1
109 94 1
118 94 1
124 94 1
131 94 1
32 95 1
35 95 1
110 95 1
119 95 1
125 95 1
132 95 1
33 96 1
36 96 1
111 96 1
120 96 1
126 96 1
133 96 1
34 97 1
37 97 1
106 97 1
112 97 1
127 97 1
134 97 1
35 98 1
38 98 1
107 98 1
113 98 1
128 98 1
135 98 1
36 99 1
39 99 1
108 99 1
114 99 1
121 99 1
129 99 1
37 100 1
40 100 1
109 100 1
115 100 1
122 100 1
130 100 1
38 101 1
41 101 1
110 101 1
116 101 1
123 101 1
131 101 1
39 102 1
42 102 1
111 102 1
117 102 1
124 102 1
132 102 1
40 103 1
43 103 1
112 103 1
118 103 1
125 103 1
133 103 1
41 104 1
44 104 1
113 104 1
119 104 1
126 104 1
134 104 1
42 105 1
45 105 1
114 105 1
120 105 1
127 105 1
135 105 1
46 106 1
58 106 1
91 106 1
101 106 1
136 106 1
140 106 1
47 107 1
59 107 1
92 107 1
102 107 1
137 107 1
141 107 1
48 108 1
60 108 1
93 108 1
103 108 1
138 108 1
142 108 1
46 109 1
49 109 1
94 109 1
104 109 1
139 109 1
143 109 1
47 110 1
50 110 1
95 110 1
105 110 1
140 110 1
144 110 1
48 111 1
51 111 1
91 111 1
96 111 1
141 111 1
145 111 1
49 112 1
52 112 1
92 112 1
97 112 1
142 112 1
146 112 1
50 113 1
53 113 1
93 113 1
98 113 1
143 113 1
147 113 1
51 114 1
54 114 1
94 114 1
99 114 1
144 114 1
148 114 1
52 115 1
55 115 1
95 115 1
100 115 1
145 115 1
149 115 1
53 116 1
56 116 1
96 116 1
101 116 1
146 116 1
150 116 1
54 117 1
57 117 1
97 117 1
102 117 1
136 117 1
147 117 1
55 118 1
58 118 1
98 118 1
103 118 1
137 118 1
148 118 1
56 119 1
59 119 1
99 119 1
104 119 1
138 119 1
149 119 1
57 120 1
60 120 1
100 120 1
105 120 1
139 120 1
150 120 1
61 121 1
73 121 1
106 121 1
116 121 1
136 121 1
143 121 1
62 122 1
74 122 1
107 122 1
117 122 1
137 122 1
144 122 1
63 123 1
75 123 1
108 123 1
118 123 1
138 123 1
145 123 1
61 124 1
64 124 1
109 124 1
119 124 1
139 124 1
146 124 1
62 125 1
65 125 1
110 125 1
120 125 1
140 125 1
147 125 1
63 126 1
66 126 1
106 126 1
111 126 1
141 126 1
148 126 1
64 127 1
67 127 1
107 127 1
112 127 1
142 127 1
149 127 1
65 128 1
68 128 1
108 128 1
113 128 1
143 128 1
150 128 1
66 129 1
69 129 1
109 129 1
114 129 1
136 129 1
144 129 1
67 130 1
70 130 1
110 130 1
115 130 1
137 130 1
145 130 1
68 131 1
71 131 1
111 131 1
116 131 1
138 131 1
146 131 1
69 132 1
72 132 1
112 132 1
117 132 1
139 132 1
147 132 1
70 133 1
73 133 1
113 133 1
118 133 1
140 133 1
148 133 1
71 134 1
74 134 1
114 134 1
119 134 1
141 134 1
149 134 1
72 135 1
75 135 1
115 135 1
120 135 1
142 135 1
150 135 1
76 136 1
88 136 1
121 136 1
131 136 1
136 136 1
145 136 1
77 137 1
89 137 1
122 137 1
132 137 1
137 137 1
146 137 1
78 138 1
90 138 1
123 138 1
133 138 1
138 138 1
147 138 1
76 139 1
79 139 1
124 139 1
134 139 1
139 139 1
148 139 1
77 140 1
80 140 1
125 140 1
135 140 1
140 140 1
149 140 1
78 141 1
81 141 1
121 141 1
126 141 1
141 141 1
150 141 1
79 142 1
82 142 1
122 142 1
127 142 1
136 142 1
142 142 1
80 143 1
83 143 1
123 143 1
128 143 1
137 143 1
143 143 1
81 144 1
84 144 1
124 144 1
129 144 1
138 144 1
144 144 1
82 145 1
85 145 1
125 145 1
130 145 1
139 145 1
145 145 1
83 146 1
86 146 1
126 146 1
131 146 1
140 146 1
146 146 1
84 147 1
87 147 1
127 147 1
132 147 1
141 147 1
147 147 1
85 148 1
88 148 1
128 148 1
133 148 1
142 148 1
148 148 1
86 149 1
89 149 1
129 149 1
134 149 1
143 149 1
149 149 1
87 150 1
90 150 1
130 150 1
135 150 1
144 150 1
150 150 1
1 151 1
15 151 1
151 151 1
158 151 1
166 151 1
170 151 1
1 152 1
2 152 1
152 152 1
159 152 1
167 152 1
171 152 1
2 153 1
3 153 1
153 153 1
160 153 1
168 153 1
172 153 1
3 154 1
4 154 1
154 154 1
161 154 1
169 154 1
173 154 1
4 155 1
5 155 1
155 155 1
162 155 1
170 155 1
174 155 1
5 156 1
6 156 1
156 156 1
163 156 1
171 156 1
175 156 1
6 157 1
7 157 1
157 157 1
164 157 1
172 157 1
176 157 1
7 158 1
8 158 1
158 158 1
165 158 1
173 158 1
177 158 1
8 159 1
9 159 1
151 159 1
159 159 1
174 159 1
178 159 1
9 160 1
10 160 1
152 160 1
160 160 1
175 160 1
179 160 1
10 161 1
11 161 1
153 161 1
161 161 1
176 161 1
180 161 1
11 162 1
12 162 1
154 162 1
162 162 1
166 162 1
177 162 1
12 163 1
13 163 1
155 163 1
163 163 1
167 163 1
178 163 1
13 164 1
14 164 1
156 164 1
164 164 1
168 164 1
179 164 1
14 165 1
15 165 1
157 165 1
165 165 1
169 165 1
180 165 1
16 166 1
30 166 1
151 166 1
160 166 1
181 166 1
185 166 1
16 167 1
17 167 1
152 167 1
161 167 1
182 167 1
186 167 1
17 168 1
18 168 1
153 168 1
162 168 1
183 168 1
187 168 1
18 169 1
19 169 1
154 169 1
163 169 1
184 169 1
188 169 1
19 170 1
20 170 1
155 170 1
164 170 1
185 170 1
189 170 1
20 171 1
21 171 1
156 171 1
165 171 1
186 171 1
190 171 1
21 172 1
22 172 1
151 172 1
157 172 1
187 172 1
191 172 1
22 173 1
23 173 1
152 173 1
158 173 1
188 173 1
192 173 1
23 174 1
24 174 1
153 174 1
159 174 1
189 174 1
193 174 1
24 175 1
25 175 1
154 175 1
160 175 1
190 175 1
194 175 1
25 176 1
26 176 1
155 176 1
161 176 1
191 176 1
195 176 1
26 177 1
27 177 1
156 177 1
162 177 1
181 177 1
192 177 1
27 178 1
28 178 1
157 178 1
163 178 1
182 178 1
193 178 1
28 179 1
29 179 1
158 179 1
164 179 1
183 179 1
194 179 1
29 180 1
30 180 1
159 180 1
165 180 1
184 180 1
195 180 1
31 181 1
45 181 1
166 181 1
175 181 1
181 181 1
188 181 1
31 182 1
32 182 1
167 182 1
176 182 1
182 182 1
189 182 1
32 183 1
33 183 1
168 183 1
177 183 1
183 183 1
190 183 1
33 184 1
34 184 1
169 184 1
178 184 1
184 184 1
191 184 1
34 185 1
35 185 1
170 185 1
179 185 1
185 185 1
192 185 1
35 186 1
36 186 1
171 186 1
180 186 1
186 186 1
193 186 1
36 187 1
37 187 1
166 187 1
172 187 1
187 187 1
194 187 1
37 188 1
38 188 1
167 188 1
173 188 1
188 188 1
195 188 1
38 189 1
39 189 1
168 189 1
174 189 1
181 189 1
189 189 1
39 190 1
40 190 1
169 190 1
175 190 1
182 190 1
190 190 1
40 191 1
41 191 1
170 191 1
176 191 1
183 191 1
191 191 1
41 192 1
42 192 1
171 192 1
177 192 1
184 192 1
192 192 1
42 193 1
43 193 1
172 193 1
178 193 1
185 193 1
193 193 1
43 194 1
44 194 1
173 194 1
179 194 1
186 194 1
194 194 1
44 195 1
45 195 1
174 195 1
180 195 1
187 195 1
195 195 1
46 196 1
60 196 1
151 196 1
161 196 1
196 196 1
200 196 1
46 197 1
47 197 1
152 197 1
162 197 1
197 197 1
201 197 1
47 198 1
48 198 1
153 198 1
163 198 1
198 198 1
202 198 1
48 199 1
49 199 1
154 199 1
164 199 1
199 199 1
203 199 1
49 200 1
50 200 1
155 200 1
165 200 1
200 200 1
204 200 1
50 201 1
51 201 1
151 201 1
156 201 1
201 201 1
205 201 1
51 202 1
52 202 1
152 202 1
157 202 1
202 202 1
206 202 1
52 203 1
53 203 1
153 203 1
158 203 1
203 203 1
207 203 1
53 204 1
54 204 1
154 204 1
159 204 1
204 204 1
208 204 1
54 205 1
55 205 1
155 205 1
160 205 1
205 205 1
209 205 1
55 206 1
56 206 1
156 206 1
161 206 1
206 206 1
210 206 1
56 207 1
57 207 1
157 207 1
162 207 1
196 207 1
207 207 1
57 208 1
58 208 1
158 208 1
163 208 1
197 208 1
208 208 1
58 209 1
59 209 1
159 209 1
164 209 1
198 209 1
209 209 1
59 210 1
60 210 1
160 210 1
165 210 1
199 210 1
210 210 1
61 211 1
75 211 1
166 211 1
176 211 1
196 211 1
203 211 1
61 212 1
62 212 1
167 212 1
177 212 1
197 212 1
204 212 1
62 213 1
63 213 1
168 213 1
178 213 1
198 213 1
205 213 1
63 214 1
64 214 1
169 214 1
179 214 1
199 214 1
206 214 1
64 215 1
65 215 1
170 215 1
180 215 1
200 215 1
207 215 1
65 216 1
66 216 1
166 216 1
171 216 1
201 216 1
208 216 1
66 217 1
67 217 1
167 217 1
172 217 1
202 217 1
209 217 1
67 218 1
68 218 1
168 218 1
173 218 1
203 218 1
210 218 1
68 219 1
69 219 1
169 219 1
174 219 1
196 219 1
204 219 1
69 220 1
70 220 1
170 220 1
175 220 1
197 220 1
205 220 1
70 221 1
71 221 1
171 221 1
176 221 1
198 221 1
206 221 1
71 222 1
72 222 1
172 222 1
177 222 1
199 222 1
207 222 1
72 223 1
73 223 1
173 223 1
178 223 1
200 223 1
208 223 1
73 224 1
74 224 1
174 224 1
179 224 1
201 224 1
209 224 1
74 225 1
75 225 1
175 225 1
180 225 1
202 225 1
210 225 1
76 226 1
90 226 1
181 226 1
191 226 1
196 226 1
205 226 1
76 227 1
77 227 1
182 227 1
192 227 1
197 227 1
206 227 1
77 228 1
78 228 1
183 228 1
193 228 1
198 228 1
207 228 1
78 229 1
79 229 1
184 229 1
194 229 1
199 229 1
208 229 1
79 230 1
80 230 1
185 230 1
195 230 1
200 230 1
209 230 1
80 231 1
81 231 1
181 231 1
186 231 1
201 231 1
210 231 1
81 232 1
82 232 1
182 232 1
187 232 1
196 232 1
202 232 1
82 233 1
83 233 1
183 233 1
188 233 1
197 233 1
203 233 1
83 234 1
84 234 1
184 234 1
189 234 1
198 234 1
204 234 1
84 235 1
85 235 1
185 235 1
190 235 1
199 235 1
205 235 1
85 236 1
86 236 1
186 236 1
191 236 1
200 236 1
206 236 1
86 237 1
87 237 1
187 237 1
192 237 1
201 237 1
207 237 1
87 238 1
88 238 1
188 238 1
193 238 1
202 238 1
208 238 1
88 239 1
89 239 1
189 239 1
194 239 1
203 239 1
209 239 1
89 240 1
90 240 1
190 240 1
195 240 1
204 240 1
210 240 1
91 241 1
105 241 1
151 241 1
163 241 1
211 241 1
215 241 1
91 242 1
92 242 1
152 242 1
164 242 1
212 242 1
216 242 1
92 243 1
93 243 1
153 243 1
165 243 1
213 243 1
217 243 1
93 244 1
94 244 1
151 244 1
154 244 1
214 244 1
218 244 1
94 245 1
95 245 1
152 245 1
155 245 1
215 245 1
219 245 1
95 246 1
96 246 1
153 246 1
156 246 1
216 246 1
220 246 1
96 247 1
97 247 1
154 247 1
157 247 1
217 247 1
221 247 1
97 248 1
98 248 1
155 248 1
158 248 1
218 248 1
222 248 1
98 249 1
99 249 1
156 249 1
159 249 1
219 249 1
223 249 1
99 250 1
100 250 1
157 250 1
160 250 1
220 250 1
224 250 1
100 251 1
101 251 1
158 251 1
161 251 1
221 251 1
225 251 1
101 252 1
102 252 1
159 252 1
162 252 1
211 252 1
222 252 1
102 253 1
103 253 1
160 253 1
163 253 1
212 253 1
223 253 1
103 254 1
104 254 1
161 254 1
164 254 1
213 254 1
224 254 1
104 255 1
105 255 1
162 255 1
165 255 1
214 255 1
225 255 1
106 256 1
120 256 1
166 256 1
178 256 1
211 256 1
218 256 1
106 257 1
107 257 1
167 257 1
179 257 1
212 257 1
219 257 1
107 258 1
108 258 1
168 258 1
180 258 1
213 258 1
220 258 1
108 259 1
109 259 1
166 259 1
169 259 1
214 259 1
221 259 1
109 260 1
110 260 1
167 260 1
170 260 1
215 260 1
222 260 1
110 261 1
111 261 1
168 261 1
171 261 1
216 261 1
223 261 1
111 262 1
112 262 1
169 262 1
172 262 1
217 262 1
224 262 1
112 263 1
113 263 1
170 263 1
173 263 1
218 263 1
225 263 1
113 264 1
114 264 1
171 264 1
174 264 1
211 264 1
219 264 1
114 265 1
115 265 1
172 265 1
175 265 1
212 265 1
220 265 1
115 266 1
116 266 1
173 266 1
176 266 1
213 266 1
221 266 1
116 267 1
117 267 1
174 267 1
177 267 1
214 267 1
222 267 1
117 268 1
118 268 1
175 268 1
178 268 1
215 268 1
223 268 1
118 269 1
119 269 1
176 269 1
179 269 1
216 269 1
224 269 1
119 270 1
120 270 1
177 270 1
180 270 1
217 270 1
225 270 1
121 271 1
135 271 1
181 271 1
193 271 1
211 271 1
220 271 1
121 272 1
122 272 1
182 272 1
194 272 1
212 272 1
221 272 1
122 273 1
123 273 1
183 273 1
195 273 1
213 273 1
222 273 1
123 274 1
124 274 1
181 274 1
184 274 1
214 274 1
223 274 1
124 275 1
125 275 1
182 275 1
185 275 1
215 275 1
224 275 1
125 276 1
126 276 1
183 276 1
186 276 1
216 276 1
225 276 1
126 277 1
127 277 1
184 277 1
187 277 1
211 277 1
217 277 1
127 278 1
128 278 1
185 278 1
188 278 1
212 278 1
218 278 1
128 279 1
129 279 1
186 279 1
189 279 1
213 279 1
219 279 1
129 280 1
130 280 1
187 280 1
190 280 1
214 280 1
220 280 1
130 281 1
131 281 1
188 281 1
191 281 1
215 281 1
221 281 1
131 282 1
132 282 1
189 282 1
192 282 1
216 282 1
222 282 1
132 283 1
133 283 1
190 283 1
193 283 1
217 283 1
223 283 1
133 284 1
134 284 1
191 284 1
194 284 1
218 284 1
224 284 1
134 285 1
135 285 1
192 285 1
195 285 1
219 285 1
225 285 1
136 286 1
150 286 1
196 286 1
208 286 1
211 286 1
221 286 1
136 287 1
137 287 1
197 287 1
209 287 1
212 287 1
222 287 1
137 288 1
138 288 1
198 288 1
210 288 1
213 288 1
223 288 1
138 289 1
139 289 1
196 289 1
199 289 1
214 289 1
224 289 1
139 290 1
140 290 1
197 290 1
200 290 1
215 290 1
225 290 1
140 291 1
141 291 1
198 291 1
201 291 1
211 291 1
216 291 1
141 292 1
142 292 1
199 292 1
202 292 1
212 292 1
217 292 1
142 293 1
143 293 1
200 293 1
203 293 1
213 293 1
218 293 1
143 294 1
144 294 1
201 294 1
204 294 1
214 294 1
219 294 1
144 295 1
145 295 1
202 295 1
205 295 1
215 295 1
220 295 1
145 296 1
146 296 1
203 296 1
206 296 1
216 296 1
221 296 1
146 297 1
147 297 1
204 297 1
207 297 1
217 297 1
222 297 1
147 298 1
148 298 1
205 298 1
208 298 1
218 298 1
223 298 1
148 299 1
149 299 1
206 299 1
209 299 1
219 299 1
224 299 1
149 300 1
150 300 1
207 300 1
210 300 1
220 300 1
225 300 1
