%%MatrixMarket matrix coordinate integer general
% Binary matrix; one-based indices; arithmetic over GF(2)
350 350 2800
1 1 1
5 1 1
11 1 1
14 1 1
51 1 1
53 1 1
151 1 1
152 1 1
2 2 1
6 2 1
12 2 1
15 2 1
52 2 1
54 2 1
152 2 1
153 2 1
3 3 1
7 3 1
13 3 1
16 3 1
53 3 1
55 3 1
153 3 1
154 3 1
4 4 1
8 4 1
14 4 1
17 4 1
54 4 1
56 4 1
154 4 1
155 4 1
5 5 1
9 5 1
15 5 1
18 5 1
55 5 1
57 5 1
155 5 1
156 5 1
6 6 1
10 6 1
16 6 1
19 6 1
56 6 1
58 6 1
156 6 1
157 6 1
1 7 1
7 7 1
17 7 1
20 7 1
57 7 1
59 7 1
157 7 1
158 7 1
2 8 1
8 8 1
11 8 1
18 8 1
58 8 1
60 8 1
158 8 1
159 8 1
3 9 1
9 9 1
12 9 1
19 9 1
51 9 1
59 9 1
159 9 1
160 9 1
4 10 1
10 10 1
13 10 1
20 10 1
52 10 1
60 10 1
151 10 1
160 10 1
1 11 1
6 11 1
21 11 1
24 11 1
61 11 1
63 11 1
161 11 1
162 11 1
2 12 1
7 12 1
22 12 1
25 12 1
62 12 1
64 12 1
162 12 1
163 12 1
3 13 1
8 13 1
23 13 1
26 13 1
63 13 1
65 13 1
163 13 1
164 13 1
4 14 1
9 14 1
24 14 1
27 14 1
64 14 1
66 14 1
164 14 1
165 14 1
5 15 1
10 15 1
25 15 1
28 15 1
65 15 1
67 15 1
165 15 1
166 15 1
1 16 1
6 16 1
26 16 1
29 16 1
66 16 1
68 16 1
166 16 1
167 16 1
2 17 1
7 17 1
27 17 1
30 17 1
67 17 1
69 17 1
167 17 1
168 17 1
3 18 1
8 18 1
21 18 1
28 18 1
68 18 1
70 18 1
168 18 1
169 18 1
4 19 1
9 19 1
22 19 1
29 19 1
61 19 1
69 19 1
169 19 1
170 19 1
5 20 1
10 20 1
23 20 1
30 20 1
62 20 1
70 20 1
161 20 1
170 20 1
1 21 1
8 21 1
31 21 1
34 21 1
71 21 1
73 21 1
171 21 1
172 21 1
2 22 1
9 22 1
32 22 1
35 22 1
72 22 1
74 22 1
172 22 1
173 22 1
3 23 1
10 23 1
33 23 1
36 23 1
73 23 1
75 23 1
173 23 1
174 23 1
1 24 1
4 24 1
34 24 1
37 24 1
74 24 1
76 24 1
174 24 1
175 24 1
2 25 1
5 25 1
35 25 1
38 25 1
75 25 1
77 25 1
175 25 1
176 25 1
3 26 1
6 26 1
36 26 1
39 26 1
76 26 1
78 26 1
176 26 1
177 26 1
4 27 1
7 27 1
37 27 1
40 27 1
77 27 1
79 27 1
177 27 1
178 27 1
5 28 1
8 28 1
31 28 1
38 28 1
78 28 1
80 28 1
178 28 1
179 28 1
6 29 1
9 29 1
32 29 1
39 29 1
71 29 1
79 29 1
179 29 1
180 29 1
7 30 1
10 30 1
33 30 1
40 30 1
72 30 1
80 30 1
171 30 1
180 30 1
1 31 1
10 31 1
41 31 1
44 31 1
81 31 1
83 31 1
181 31 1
182 31 1
1 32 1
2 32 1
42 32 1
45 32 1
82 32 1
84 32 1
182 32 1
183 32 1
2 33 1
3 33 1
43 33 1
46 33 1
83 33 1
85 33 1
183 33 1
184 33 1
3 34 1
4 34 1
44 34 1
47 34 1
84 34 1
86 34 1
184 34 1
185 34 1
4 35 1
5 35 1
45 35 1
48 35 1
85 35 1
87 35 1
185 35 1
186 35 1
5 36 1
6 36 1
46 36 1
49 36 1
86 36 1
88 36 1
186 36 1
187 36 1
6 37 1
7 37 1
47 37 1
50 37 1
87 37 1
89 37 1
187 37 1
188 37 1
7 38 1
8 38 1
41 38 1
48 38 1
88 38 1
90 38 1
188 38 1
189 38 1
8 39 1
9 39 1
42 39 1
49 39 1
81 39 1
89 39 1
189 39 1
190 39 1
9 40 1
10 40 1
43 40 1
50 40 1
82 40 1
90 40 1
181 40 1
190 40 1
11 41 1
16 41 1
21 41 1
25 41 1
91 41 1
93 41 1
191 41 1
192 41 1
12 42 1
17 42 1
22 42 1
26 42 1
92 42 1
94 42 1
192 42 1
193 42 1
13 43 1
18 43 1
23 43 1
27 43 1
93 43 1
95 43 1
193 43 1
194 43 1
14 44 1
19 44 1
24 44 1
28 44 1
94 44 1
96 44 1
194 44 1
195 44 1
15 45 1
20 45 1
25 45 1
29 45 1
95 45 1
97 45 1
195 45 1
196 45 1
11 46 1
16 46 1
26 46 1
30 46 1
96 46 1
98 46 1
196 46 1
197 46 1
12 47 1
17 47 1
21 47 1
27 47 1
97 47 1
99 47 1
197 47 1
198 47 1
13 48 1
18 48 1
22 48 1
28 48 1
98 48 1
100 48 1
198 48 1
199 48 1
14 49 1
19 49 1
23 49 1
29 49 1
91 49 1
99 49 1
199 49 1
200 49 1
15 50 1
20 50 1
24 50 1
30 50 1
92 50 1
100 50 1
191 50 1
200 50 1
11 51 1
18 51 1
31 51 1
35 51 1
101 51 1
103 51 1
201 51 1
202 51 1
12 52 1
19 52 1
32 52 1
36 52 1
102 52 1
104 52 1
202 52 1
203 52 1
13 53 1
20 53 1
33 53 1
37 53 1
103 53 1
105 53 1
203 53 1
204 53 1
11 54 1
14 54 1
34 54 1
38 54 1
104 54 1
106 54 1
204 54 1
205 54 1
12 55 1
15 55 1
35 55 1
39 55 1
105 55 1
107 55 1
205 55 1
206 55 1
13 56 1
16 56 1
36 56 1
40 56 1
106 56 1
108 56 1
206 56 1
207 56 1
14 57 1
17 57 1
31 57 1
37 57 1
107 57 1
109 57 1
207 57 1
208 57 1
15 58 1
18 58 1
32 58 1
38 58 1
108 58 1
110 58 1
208 58 1
209 58 1
16 59 1
19 59 1
33 59 1
39 59 1
101 59 1
109 59 1
209 59 1
210 59 1
17 60 1
20 60 1
34 60 1
40 60 1
102 60 1
110 60 1
201 60 1
210 60 1
11 61 1
20 61 1
41 61 1
45 61 1
111 61 1
113 61 1
211 61 1
212 61 1
11 62 1
12 62 1
42 62 1
46 62 1
112 62 1
114 62 1
212 62 1
213 62 1
12 63 1
13 63 1
43 63 1
47 63 1
113 63 1
115 63 1
213 63 1
214 63 1
13 64 1
14 64 1
44 64 1
48 64 1
114 64 1
116 64 1
214 64 1
215 64 1
14 65 1
15 65 1
45 65 1
49 65 1
115 65 1
117 65 1
215 65 1
216 65 1
15 66 1
16 66 1
46 66 1
50 66 1
116 66 1
118 66 1
216 66 1
217 66 1
16 67 1
17 67 1
41 67 1
47 67 1
117 67 1
119 67 1
217 67 1
218 67 1
17 68 1
18 68 1
42 68 1
48 68 1
118 68 1
120 68 1
218 68 1
219 68 1
18 69 1
19 69 1
43 69 1
49 69 1
111 69 1
119 69 1
219 69 1
220 69 1
19 70 1
20 70 1
44 70 1
50 70 1
112 70 1
120 70 1
211 70 1
220 70 1
21 71 1
28 71 1
31 71 1
36 71 1
121 71 1
123 71 1
221 71 1
222 71 1
22 72 1
29 72 1
32 72 1
37 72 1
122 72 1
124 72 1
222 72 1
223 72 1
23 73 1
30 73 1
33 73 1
38 73 1
123 73 1
125 73 1
223 73 1
224 73 1
21 74 1
24 74 1
34 74 1
39 74 1
124 74 1
126 74 1
224 74 1
225 74 1
22 75 1
25 75 1
35 75 1
40 75 1
125 75 1
127 75 1
225 75 1
226 75 1
23 76 1
26 76 1
31 76 1
36 76 1
126 76 1
128 76 1
226 76 1
227 76 1
24 77 1
27 77 1
32 77 1
37 77 1
127 77 1
129 77 1
227 77 1
228 77 1
25 78 1
28 78 1
33 78 1
38 78 1
128 78 1
130 78 1
228 78 1
229 78 1
26 79 1
29 79 1
34 79 1
39 79 1
121 79 1
129 79 1
229 79 1
230 79 1
27 80 1
30 80 1
35 80 1
40 80 1
122 80 1
130 80 1
221 80 1
230 80 1
21 81 1
30 81 1
41 81 1
46 81 1
131 81 1
133 81 1
231 81 1
232 81 1
21 82 1
22 82 1
42 82 1
47 82 1
132 82 1
134 82 1
232 82 1
233 82 1
22 83 1
23 83 1
43 83 1
48 83 1
133 83 1
135 83 1
233 83 1
234 83 1
23 84 1
24 84 1
44 84 1
49 84 1
134 84 1
136 84 1
234 84 1
235 84 1
24 85 1
25 85 1
45 85 1
50 85 1
135 85 1
137 85 1
235 85 1
236 85 1
25 86 1
26 86 1
41 86 1
46 86 1
136 86 1
138 86 1
236 86 1
237 86 1
26 87 1
27 87 1
42 87 1
47 87 1
137 87 1
139 87 1
237 87 1
238 87 1
27 88 1
28 88 1
43 88 1
48 88 1
138 88 1
140 88 1
238 88 1
239 88 1
28 89 1
29 89 1
44 89 1
49 89 1
131 89 1
139 89 1
239 89 1
240 89 1
29 90 1
30 90 1
45 90 1
50 90 1
132 90 1
140 90 1
231 90 1
240 90 1
31 91 1
40 91 1
41 91 1
48 91 1
141 91 1
143 91 1
241 91 1
242 91 1
31 92 1
32 92 1
42 92 1
49 92 1
142 92 1
144 92 1
242 92 1
243 92 1
32 93 1
33 93 1
43 93 1
50 93 1
143 93 1
145 93 1
243 93 1
244 93 1
33 94 1
34 94 1
41 94 1
44 94 1
144 94 1
146 94 1
244 94 1
245 94 1
34 95 1
35 95 1
42 95 1
45 95 1
145 95 1
147 95 1
245 95 1
246 95 1
35 96 1
36 96 1
43 96 1
46 96 1
146 96 1
148 96 1
246 96 1
247 96 1
36 97 1
37 97 1
44 97 1
47 97 1
147 97 1
149 97 1
247 97 1
248 97 1
37 98 1
38 98 1
45 98 1
48 98 1
148 98 1
150 98 1
248 98 1
249 98 1
38 99 1
39 99 1
46 99 1
49 99 1
141 99 1
149 99 1
249 99 1
250 99 1
39 100 1
40 100 1
47 100 1
50 100 1
142 100 1
150 100 1
241 100 1
250 100 1
51 101 1
56 101 1
61 101 1
65 101 1
91 101 1
94 101 1
251 101 1
252 101 1
52 102 1
57 102 1
62 102 1
66 102 1
92 102 1
95 102 1
252 102 1
253 102 1
53 103 1
58 103 1
63 103 1
67 103 1
93 103 1
96 103 1
253 103 1
254 103 1
54 104 1
59 104 1
64 104 1
68 104 1
94 104 1
97 104 1
254 104 1
255 104 1
55 105 1
60 105 1
65 105 1
69 105 1
95 105 1
98 105 1
255 105 1
256 105 1
51 106 1
56 106 1
66 106 1
70 106 1
96 106 1
99 106 1
256 106 1
257 106 1
52 107 1
57 107 1
61 107 1
67 107 1
97 107 1
100 107 1
257 107 1
258 107 1
53 108 1
58 108 1
62 108 1
68 108 1
91 108 1
98 108 1
258 108 1
259 108 1
54 109 1
59 109 1
63 109 1
69 109 1
92 109 1
99 109 1
259 109 1
260 109 1
55 110 1
60 110 1
64 110 1
70 110 1
93 110 1
100 110 1
251 110 1
260 110 1
51 111 1
58 111 1
71 111 1
75 111 1
101 111 1
104 111 1
261 111 1
262 111 1
52 112 1
59 112 1
72 112 1
76 112 1
102 112 1
105 112 1
262 112 1
263 112 1
53 113 1
60 113 1
73 113 1
77 113 1
103 113 1
106 113 1
263 113 1
264 113 1
51 114 1
54 114 1
74 114 1
78 114 1
104 114 1
107 114 1
264 114 1
265 114 1
52 115 1
55 115 1
75 115 1
79 115 1
105 115 1
108 115 1
265 115 1
266 115 1
53 116 1
56 116 1
76 116 1
80 116 1
106 116 1
109 116 1
266 116 1
267 116 1
54 117 1
57 117 1
71 117 1
77 117 1
107 117 1
110 117 1
267 117 1
268 117 1
55 118 1
58 118 1
72 118 1
78 118 1
101 118 1
108 118 1
268 118 1
269 118 1
56 119 1
59 119 1
73 119 1
79 119 1
102 119 1
109 119 1
269 119 1
270 119 1
57 120 1
60 120 1
74 120 1
80 120 1
103 120 1
110 120 1
261 120 1
270 120 1
51 121 1
60 121 1
81 121 1
85 121 1
111 121 1
114 121 1
271 121 1
272 121 1
51 122 1
52 122 1
82 122 1
86 122 1
112 122 1
115 122 1
272 122 1
273 122 1
52 123 1
53 123 1
83 123 1
87 123 1
113 123 1
116 123 1
273 123 1
274 123 1
53 124 1
54 124 1
84 124 1
88 124 1
114 124 1
117 124 1
274 124 1
275 124 1
54 125 1
55 125 1
85 125 1
89 125 1
115 125 1
118 125 1
275 125 1
276 125 1
55 126 1
56 126 1
86 126 1
90 126 1
116 126 1
119 126 1
276 126 1
277 126 1
56 127 1
57 127 1
81 127 1
87 127 1
117 127 1
120 127 1
277 127 1
278 127 1
57 128 1
58 128 1
82 128 1
88 128 1
111 128 1
118 128 1
278 128 1
279 128 1
58 129 1
59 129 1
83 129 1
89 129 1
112 129 1
119 129 1
279 129 1
280 129 1
59 130 1
60 130 1
84 130 1
90 130 1
113 130 1
120 130 1
271 130 1
280 130 1
61 131 1
68 131 1
71 131 1
76 131 1
121 131 1
124 131 1
281 131 1
282 131 1
62 132 1
69 132 1
72 132 1
77 132 1
122 132 1
125 132 1
282 132 1
283 132 1
63 133 1
70 133 1
73 133 1
78 133 1
123 133 1
126 133 1
283 133 1
284 133 1
61 134 1
64 134 1
74 134 1
79 134 1
124 134 1
127 134 1
284 134 1
285 134 1
62 135 1
65 135 1
75 135 1
80 135 1
125 135 1
128 135 1
285 135 1
286 135 1
63 136 1
66 136 1
71 136 1
76 136 1
126 136 1
129 136 1
286 136 1
287 136 1
64 137 1
67 137 1
72 137 1
77 137 1
127 137 1
130 137 1
287 137 1
288 137 1
65 138 1
68 138 1
73 138 1
78 138 1
121 138 1
128 138 1
288 138 1
289 138 1
66 139 1
69 139 1
74 139 1
79 139 1
122 139 1
129 139 1
289 139 1
290 139 1
67 140 1
70 140 1
75 140 1
80 140 1
123 140 1
130 140 1
281 140 1
290 140 1
61 141 1
70 141 1
81 141 1
86 141 1
131 141 1
134 141 1
291 141 1
292 141 1
61 142 1
62 142 1
82 142 1
87 142 1
132 142 1
135 142 1
292 142 1
293 142 1
62 143 1
63 143 1
83 143 1
88 143 1
133 143 1
136 143 1
293 143 1
294 143 1
63 144 1
64 144 1
84 144 1
89 144 1
134 144 1
137 144 1
294 144 1
295 144 1
64 145 1
65 145 1
85 145 1
90 145 1
135 145 1
138 145 1
295 145 1
296 145 1
65 146 1
66 146 1
81 146 1
86 146 1
136 146 1
139 146 1
296 146 1
297 146 1
66 147 1
67 147 1
82 147 1
87 147 1
137 147 1
140 147 1
297 147 1
298 147 1
67 148 1
68 148 1
83 148 1
88 148 1
131 148 1
138 148 1
298 148 1
299 148 1
68 149 1
69 149 1
84 149 1
89 149 1
132 149 1
139 149 1
299 149 1
300 149 1
69 150 1
70 150 1
85 150 1
90 150 1
133 150 1
140 150 1
291 150 1
300 150 1
71 151 1
80 151 1
81 151 1
88 151 1
141 151 1
144 151 1
301 151 1
302 151 1
71 152 1
72 152 1
82 152 1
89 152 1
142 152 1
145 152 1
302 152 1
303 152 1
72 153 1
73 153 1
83 153 1
90 153 1
143 153 1
146 153 1
303 153 1
304 153 1
73 154 1
74 154 1
81 154 1
84 154 1
144 154 1
147 154 1
304 154 1
305 154 1
74 155 1
75 155 1
82 155 1
85 155 1
145 155 1
148 155 1
305 155 1
306 155 1
75 156 1
76 156 1
83 156 1
86 156 1
146 156 1
149 156 1
306 156 1
307 156 1
76 157 1
77 157 1
84 157 1
87 157 1
147 157 1
150 157 1
307 157 1
308 157 1
77 158 1
78 158 1
85 158 1
88 158 1
141 158 1
148 158 1
308 158 1
309 158 1
78 159 1
79 159 1
86 159 1
89 159 1
142 159 1
149 159 1
309 159 1
310 159 1
79 160 1
80 160 1
87 160 1
90 160 1
143 160 1
150 160 1
301 160 1
310 160 1
91 161 1
98 161 1
101 161 1
106 161 1
121 161 1
125 161 1
311 161 1
312 161 1
92 162 1
99 162 1
102 162 1
107 162 1
122 162 1
126 162 1
312 162 1
313 162 1
93 163 1
100 163 1
103 163 1
108 163 1
123 163 1
127 163 1
313 163 1
314 163 1
91 164 1
94 164 1
104 164 1
109 164 1
124 164 1
128 164 1
314 164 1
315 164 1
92 165 1
95 165 1
105 165 1
110 165 1
125 165 1
129 165 1
315 165 1
316 165 1
93 166 1
96 166 1
101 166 1
106 166 1
126 166 1
130 166 1
316 166 1
317 166 1
94 167 1
97 167 1
102 167 1
107 167 1
121 167 1
127 167 1
317 167 1
318 167 1
95 168 1
98 168 1
103 168 1
108 168 1
122 168 1
128 168 1
318 168 1
319 168 1
96 169 1
99 169 1
104 169 1
109 169 1
123 169 1
129 169 1
319 169 1
320 169 1
97 170 1
100 170 1
105 170 1
110 170 1
124 170 1
130 170 1
311 170 1
320 170 1
91 171 1
100 171 1
111 171 1
116 171 1
131 171 1
135 171 1
321 171 1
322 171 1
91 172 1
92 172 1
112 172 1
117 172 1
132 172 1
136 172 1
322 172 1
323 172 1
92 173 1
93 173 1
113 173 1
118 173 1
133 173 1
137 173 1
323 173 1
324 173 1
93 174 1
94 174 1
114 174 1
119 174 1
134 174 1
138 174 1
324 174 1
325 174 1
94 175 1
95 175 1
115 175 1
120 175 1
135 175 1
139 175 1
325 175 1
326 175 1
95 176 1
96 176 1
111 176 1
116 176 1
136 176 1
140 176 1
326 176 1
327 176 1
96 177 1
97 177 1
112 177 1
117 177 1
131 177 1
137 177 1
327 177 1
328 177 1
97 178 1
98 178 1
113 178 1
118 178 1
132 178 1
138 178 1
328 178 1
329 178 1
98 179 1
99 179 1
114 179 1
119 179 1
133 179 1
139 179 1
329 179 1
330 179 1
99 180 1
100 180 1
115 180 1
120 180 1
134 180 1
140 180 1
321 180 1
330 180 1
101 181 1
110 181 1
111 181 1
118 181 1
141 181 1
145 181 1
331 181 1
332 181 1
101 182 1
102 182 1
112 182 1
119 182 1
142 182 1
146 182 1
332 182 1
333 182 1
102 183 1
103 183 1
113 183 1
120 183 1
143 183 1
147 183 1
333 183 1
334 183 1
103 184 1
104 184 1
111 184 1
114 184 1
144 184 1
148 184 1
334 184 1
335 184 1
104 185 1
105 185 1
112 185 1
115 185 1
145 185 1
149 185 1
335 185 1
336 185 1
105 186 1
106 186 1
113 186 1
116 186 1
146 186 1
150 186 1
336 186 1
337 186 1
106 187 1
107 187 1
114 187 1
117 187 1
141 187 1
147 187 1
337 187 1
338 187 1
107 188 1
108 188 1
115 188 1
118 188 1
142 188 1
148 188 1
338 188 1
339 188 1
108 189 1
109 189 1
116 189 1
119 189 1
143 189 1
149 189 1
339 189 1
340 189 1
109 190 1
110 190 1
117 190 1
120 190 1
144 190 1
150 190 1
331 190 1
340 190 1
121 191 1
130 191 1
131 191 1
138 191 1
141 191 1
146 191 1
341 191 1
342 191 1
121 192 1
122 192 1
132 192 1
139 192 1
142 192 1
147 192 1
342 192 1
343 192 1
122 193 1
123 193 1
133 193 1
140 193 1
143 193 1
148 193 1
343 193 1
344 193 1
123 194 1
124 194 1
131 194 1
134 194 1
144 194 1
149 194 1
344 194 1
345 194 1
124 195 1
125 195 1
132 195 1
135 195 1
145 195 1
150 195 1
345 195 1
346 195 1
125 196 1
126 196 1
133 196 1
136 196 1
141 196 1
146 196 1
346 196 1
347 196 1
126 197 1
127 197 1
134 197 1
137 197 1
142 197 1
147 197 1
347 197 1
348 197 1
127 198 1
128 198 1
135 198 1
138 198 1
143 198 1
148 198 1
348 198 1
349 198 1
128 199 1
129 199 1
136 199 1
139 199 1
144 199 1
149 199 1
349 199 1
350 199 1
129 200 1
130 200 1
137 200 1
140 200 1
145 200 1
150 200 1
341 200 1
350 200 1
151 201 1
156 201 1
161 201 1
165 201 1
191 201 1
194 201 1
251 201 1
253 201 1
152 202 1
157 202 1
162 202 1
166 202 1
192 202 1
195 202 1
252 202 1
254 202 1
153 203 1
158 203 1
163 203 1
167 203 1
193 203 1
196 203 1
253 203 1
255 203 1
154 204 1
159 204 1
164 204 1
168 204 1
194 204 1
197 204 1
254 204 1
256 204 1
155 205 1
160 205 1
165 205 1
169 205 1
195 205 1
198 205 1
255 205 1
257 205 1
151 206 1
156 206 1
166 206 1
170 206 1
196 206 1
199 206 1
256 206 1
258 206 1
152 207 1
157 207 1
161 207 1
167 207 1
197 207 1
200 207 1
257 207 1
259 207 1
153 208 1
158 208 1
162 208 1
168 208 1
191 208 1
198 208 1
258 208 1
260 208 1
154 209 1
159 209 1
163 209 1
169 209 1
192 209 1
199 209 1
251 209 1
259 209 1
155 210 1
160 210 1
164 210 1
170 210 1
193 210 1
200 210 1
252 210 1
260 210 1
151 211 1
158 211 1
171 211 1
175 211 1
201 211 1
204 211 1
261 211 1
263 211 1
152 212 1
159 212 1
172 212 1
176 212 1
202 212 1
205 212 1
262 212 1
264 212 1
153 213 1
160 213 1
173 213 1
177 213 1
203 213 1
206 213 1
263 213 1
265 213 1
151 214 1
154 214 1
174 214 1
178 214 1
204 214 1
207 214 1
264 214 1
266 214 1
152 215 1
155 215 1
175 215 1
179 215 1
205 215 1
208 215 1
265 215 1
267 215 1
153 216 1
156 216 1
176 216 1
180 216 1
206 216 1
209 216 1
266 216 1
268 216 1
154 217 1
157 217 1
171 217 1
177 217 1
207 217 1
210 217 1
267 217 1
269 217 1
155 218 1
158 218 1
172 218 1
178 218 1
201 218 1
208 218 1
268 218 1
270 218 1
156 219 1
159 219 1
173 219 1
179 219 1
202 219 1
209 219 1
261 219 1
269 219 1
157 220 1
160 220 1
174 220 1
180 220 1
203 220 1
210 220 1
262 220 1
270 220 1
151 221 1
160 221 1
181 221 1
185 221 1
211 221 1
214 221 1
271 221 1
273 221 1
151 222 1
152 222 1
182 222 1
186 222 1
212 222 1
215 222 1
272 222 1
274 222 1
152 223 1
153 223 1
183 223 1
187 223 1
213 223 1
216 223 1
273 223 1
275 223 1
153 224 1
154 224 1
184 224 1
188 224 1
214 224 1
217 224 1
274 224 1
276 224 1
154 225 1
155 225 1
185 225 1
189 225 1
215 225 1
218 225 1
275 225 1
277 225 1
155 226 1
156 226 1
186 226 1
190 226 1
216 226 1
219 226 1
276 226 1
278 226 1
156 227 1
157 227 1
181 227 1
187 227 1
217 227 1
220 227 1
277 227 1
279 227 1
157 228 1
158 228 1
182 228 1
188 228 1
211 228 1
218 228 1
278 228 1
280 228 1
158 229 1
159 229 1
183 229 1
189 229 1
212 229 1
219 229 1
271 229 1
279 229 1
159 230 1
160 230 1
184 230 1
190 230 1
213 230 1
220 230 1
272 230 1
280 230 1
161 231 1
168 231 1
171 231 1
176 231 1
221 231 1
224 231 1
281 231 1
283 231 1
162 232 1
169 232 1
172 232 1
177 232 1
222 232 1
225 232 1
282 232 1
284 232 1
163 233 1
170 233 1
173 233 1
178 233 1
223 233 1
226 233 1
283 233 1
285 233 1
161 234 1
164 234 1
174 234 1
179 234 1
224 234 1
227 234 1
284 234 1
286 234 1
162 235 1
165 235 1
175 235 1
180 235 1
225 235 1
228 235 1
285 235 1
287 235 1
163 236 1
166 236 1
171 236 1
176 236 1
226 236 1
229 236 1
286 236 1
288 236 1
164 237 1
167 237 1
172 237 1
177 237 1
227 237 1
230 237 1
287 237 1
289 237 1
165 238 1
168 238 1
173 238 1
178 238 1
221 238 1
228 238 1
288 238 1
290 238 1
166 239 1
169 239 1
174 239 1
179 239 1
222 239 1
229 239 1
281 239 1
289 239 1
167 240 1
170 240 1
175 240 1
180 240 1
223 240 1
230 240 1
282 240 1
290 240 1
161 241 1
170 241 1
181 241 1
186 241 1
231 241 1
234 241 1
291 241 1
293 241 1
161 242 1
162 242 1
182 242 1
187 242 1
232 242 1
235 242 1
292 242 1
294 242 1
162 243 1
163 243 1
183 243 1
188 243 1
233 243 1
236 243 1
293 243 1
295 243 1
163 244 1
164 244 1
184 244 1
189 244 1
234 244 1
237 244 1
294 244 1
296 244 1
164 245 1
165 245 1
185 245 1
190 245 1
235 245 1
238 245 1
295 245 1
297 245 1
165 246 1
166 246 1
181 246 1
186 246 1
236 246 1
239 246 1
296 246 1
298 246 1
166 247 1
167 247 1
182 247 1
187 247 1
237 247 1
240 247 1
297 247 1
299 247 1
167 248 1
168 248 1
183 248 1
188 248 1
231 248 1
238 248 1
298 248 1
300 248 1
168 249 1
169 249 1
184 249 1
189 249 1
232 249 1
239 249 1
291 249 1
299 249 1
169 250 1
170 250 1
185 250 1
190 250 1
233 250 1
240 250 1
292 250 1
300 250 1
171 251 1
180 251 1
181 251 1
188 251 1
241 251 1
244 251 1
301 251 1
303 251 1
171 252 1
172 252 1
182 252 1
189 252 1
242 252 1
245 252 1
302 252 1
304 252 1
172 253 1
173 253 1
183 253 1
190 253 1
243 253 1
246 253 1
303 253 1
305 253 1
173 254 1
174 254 1
181 254 1
184 254 1
244 254 1
247 254 1
304 254 1
306 254 1
174 255 1
175 255 1
182 255 1
185 255 1
245 255 1
248 255 1
305 255 1
307 255 1
175 256 1
176 256 1
183 256 1
186 256 1
246 256 1
249 256 1
306 256 1
308 256 1
176 257 1
177 257 1
184 257 1
187 257 1
247 257 1
250 257 1
307 257 1
309 257 1
177 258 1
178 258 1
185 258 1
188 258 1
241 258 1
248 258 1
308 258 1
310 258 1
178 259 1
179 259 1
186 259 1
189 259 1
242 259 1
249 259 1
301 259 1
309 259 1
179 260 1
180 260 1
187 260 1
190 260 1
243 260 1
250 260 1
302 260 1
310 260 1
191 261 1
198 261 1
201 261 1
206 261 1
221 261 1
225 261 1
311 261 1
313 261 1
192 262 1
199 262 1
202 262 1
207 262 1
222 262 1
226 262 1
312 262 1
314 262 1
193 263 1
200 263 1
203 263 1
208 263 1
223 263 1
227 263 1
313 263 1
315 263 1
191 264 1
194 264 1
204 264 1
209 264 1
224 264 1
228 264 1
314 264 1
316 264 1
192 265 1
195 265 1
205 265 1
210 265 1
225 265 1
229 265 1
315 265 1
317 265 1
193 266 1
196 266 1
201 266 1
206 266 1
226 266 1
230 266 1
316 266 1
318 266 1
194 267 1
197 267 1
202 267 1
207 267 1
221 267 1
227 267 1
317 267 1
319 267 1
195 268 1
198 268 1
203 268 1
208 268 1
222 268 1
228 268 1
318 268 1
320 268 1
196 269 1
199 269 1
204 269 1
209 269 1
223 269 1
229 269 1
311 269 1
319 269 1
197 270 1
200 270 1
205 270 1
210 270 1
224 270 1
230 270 1
312 270 1
320 270 1
191 271 1
200 271 1
211 271 1
216 271 1
231 271 1
235 271 1
321 271 1
323 271 1
191 272 1
192 272 1
212 272 1
217 272 1
232 272 1
236 272 1
322 272 1
324 272 1
192 273 1
193 273 1
213 273 1
218 273 1
233 273 1
237 273 1
323 273 1
325 273 1
193 274 1
194 274 1
214 274 1
219 274 1
234 274 1
238 274 1
324 274 1
326 274 1
194 275 1
195 275 1
215 275 1
220 275 1
235 275 1
239 275 1
325 275 1
327 275 1
195 276 1
196 276 1
211 276 1
216 276 1
236 276 1
240 276 1
326 276 1
328 276 1
196 277 1
197 277 1
212 277 1
217 277 1
231 277 1
237 277 1
327 277 1
329 277 1
197 278 1
198 278 1
213 278 1
218 278 1
232 278 1
238 278 1
328 278 1
330 278 1
198 279 1
199 279 1
214 279 1
219 279 1
233 279 1
239 279 1
321 279 1
329 279 1
199 280 1
200 280 1
215 280 1
220 280 1
234 280 1
240 280 1
322 280 1
330 280 1
201 281 1
210 281 1
211 281 1
218 281 1
241 281 1
245 281 1
331 281 1
333 281 1
201 282 1
202 282 1
212 282 1
219 282 1
242 282 1
246 282 1
332 282 1
334 282 1
202 283 1
203 283 1
213 283 1
220 283 1
243 283 1
247 283 1
333 283 1
335 283 1
203 284 1
204 284 1
211 284 1
214 284 1
244 284 1
248 284 1
334 284 1
336 284 1
204 285 1
205 285 1
212 285 1
215 285 1
245 285 1
249 285 1
335 285 1
337 285 1
205 286 1
206 286 1
213 286 1
216 286 1
246 286 1
250 286 1
336 286 1
338 286 1
206 287 1
207 287 1
214 287 1
217 287 1
241 287 1
247 287 1
337 287 1
339 287 1
207 288 1
208 288 1
215 288 1
218 288 1
242 288 1
248 288 1
338 288 1
340 288 1
208 289 1
209 289 1
216 289 1
219 289 1
243 289 1
249 289 1
331 289 1
339 289 1
209 290 1
210 290 1
217 290 1
220 290 1
244 290 1
250 290 1
332 290 1
340 290 1
221 291 1
230 291 1
231 291 1
238 291 1
241 291 1
246 291 1
341 291 1
343 291 1
221 292 1
222 292 1
232 292 1
239 292 1
242 292 1
247 292 1
342 292 1
344 292 1
222 293 1
223 293 1
233 293 1
240 293 1
243 293 1
248 293 1
343 293 1
345 293 1
223 294 1
224 294 1
231 294 1
234 294 1
244 294 1
249 294 1
344 294 1
346 294 1
224 295 1
225 295 1
232 295 1
235 295 1
245 295 1
250 295 1
345 295 1
347 295 1
225 296 1
226 296 1
233 296 1
236 296 1
241 296 1
246 296 1
346 296 1
348 296 1
226 297 1
227 297 1
234 297 1
237 297 1
242 297 1
247 297 1
347 297 1
349 297 1
227 298 1
228 298 1
235 298 1
238 298 1
243 298 1
248 298 1
348 298 1
350 298 1
228 299 1
229 299 1
236 299 1
239 299 1
244 299 1
249 299 1
341 299 1
349 299 1
229 300 1
230 300 1
237 300 1
240 300 1
245 300 1
250 300 1
342 300 1
350 300 1
251 301 1
258 301 1
261 301 1
266 301 1
281 301 1
285 301 1
311 301 1
314 301 1
252 302 1
259 302 1
262 302 1
267 302 1
282 302 1
286 302 1
312 302 1
315 302 1
253 303 1
260 303 1
263 303 1
268 303 1
283 303 1
287 303 1
313 303 1
316 303 1
251 304 1
254 304 1
264 304 1
269 304 1
284 304 1
288 304 1
314 304 1
317 304 1
252 305 1
255 305 1
265 305 1
270 305 1
285 305 1
289 305 1
315 305 1
318 305 1
253 306 1
256 306 1
261 306 1
266 306 1
286 306 1
290 306 1
316 306 1
319 306 1
254 307 1
257 307 1
262 307 1
267 307 1
281 307 1
287 307 1
317 307 1
320 307 1
255 308 1
258 308 1
263 308 1
268 308 1
282 308 1
288 308 1
311 308 1
318 308 1
256 309 1
259 309 1
264 309 1
269 309 1
283 309 1
289 309 1
312 309 1
319 309 1
257 310 1
260 310 1
265 310 1
270 310 1
284 310 1
290 310 1
313 310 1
320 310 1
251 311 1
260 311 1
271 311 1
276 311 1
291 311 1
295 311 1
321 311 1
324 311 1
251 312 1
252 312 1
272 312 1
277 312 1
292 312 1
296 312 1
322 312 1
325 312 1
252 313 1
253 313 1
273 313 1
278 313 1
293 313 1
297 313 1
323 313 1
326 313 1
253 314 1
254 314 1
274 314 1
279 314 1
294 314 1
298 314 1
324 314 1
327 314 1
254 315 1
255 315 1
275 315 1
280 315 1
295 315 1
299 315 1
325 315 1
328 315 1
255 316 1
256 316 1
271 316 1
276 316 1
296 316 1
300 316 1
326 316 1
329 316 1
256 317 1
257 317 1
272 317 1
277 317 1
291 317 1
297 317 1
327 317 1
330 317 1
257 318 1
258 318 1
273 318 1
278 318 1
292 318 1
298 318 1
321 318 1
328 318 1
258 319 1
259 319 1
274 319 1
279 319 1
293 319 1
299 319 1
322 319 1
329 319 1
259 320 1
260 320 1
275 320 1
280 320 1
294 320 1
300 320 1
323 320 1
330 320 1
261 321 1
270 321 1
271 321 1
278 321 1
301 321 1
305 321 1
331 321 1
334 321 1
261 322 1
262 322 1
272 322 1
279 322 1
302 322 1
306 322 1
332 322 1
335 322 1
262 323 1
263 323 1
273 323 1
280 323 1
303 323 1
307 323 1
333 323 1
336 323 1
263 324 1
264 324 1
271 324 1
274 324 1
304 324 1
308 324 1
334 324 1
337 324 1
264 325 1
265 325 1
272 325 1
275 325 1
305 325 1
309 325 1
335 325 1
338 325 1
265 326 1
266 326 1
273 326 1
276 326 1
306 326 1
310 326 1
336 326 1
339 326 1
266 327 1
267 327 1
274 327 1
277 327 1
301 327 1
307 327 1
337 327 1
340 327 1
267 328 1
268 328 1
275 328 1
278 328 1
302 328 1
308 328 1
331 328 1
338 328 1
268 329 1
269 329 1
276 329 1
279 329 1
303 329 1
309 329 1
332 329 1
339 329 1
269 330 1
270 330 1
277 330 1
280 330 1
304 330 1
310 330 1
333 330 1
340 330 1
281 331 1
290 331 1
291 331 1
298 331 1
301 331 1
306 331 1
341 331 1
344 331 1
281 332 1
282 332 1
292 332 1
299 332 1
302 332 1
307 332 1
342 332 1
345 332 1
282 333 1
283 333 1
293 333 1
300 333 1
303 333 1
308 333 1
343 333 1
346 333 1
283 334 1
284 334 1
291 334 1
294 334 1
304 334 1
309 334 1
344 334 1
347 334 1
284 335 1
285 335 1
292 335 1
295 335 1
305 335 1
310 335 1
345 335 1
348 335 1
285 336 1
286 336 1
293 336 1
296 336 1
301 336 1
306 336 1
346 336 1
349 336 1
286 337 1
287 337 1
294 337 1
297 337 1
302 337 1
307 337 1
347 337 1
350 337 1
287 338 1
288 338 1
295 338 1
298 338 1
303 338 1
308 338 1
341 338 1
348 338 1
288 339 1
289 339 1
296 339 1
299 339 1
304 339 1
309 339 1
342 339 1
349 339 1
289 340 1
290 340 1
297 340 1
300 340 1
305 340 1
310 340 1
343 340 1
350 340 1
311 341 1
320 341 1
321 341 1
328 341 1
331 341 1
336 341 1
341 341 1
345 341 1
311 342 1
312 342 1
322 342 1
329 342 1
332 342 1
337 342 1
342 342 1
346 342 1
312 343 1
313 343 1
323 343 1
330 343 1
333 343 1
338 343 1
343 343 1
347 343 1
313 344 1
314 344 1
321 344 1
324 344 1
334 344 1
339 344 1
344 344 1
348 344 1
314 345 1
315 345 1
322 345 1
325 345 1
335 345 1
340 345 1
345 345 1
349 345 1
315 346 1
316 346 1
323 346 1
326 346 1
331 346 1
336 346 1
346 346 1
350 346 1
316 347 1
317 347 1
324 347 1
327 347 1
332 347 1
337 347 1
341 347 1
347 347 1
317 348 1
318 348 1
325 348 1
328 348 1
333 348 1
338 348 1
342 348 1
348 348 1
318 349 1
319 349 1
326 349 1
329 349 1
334 349 1
339 349 1
343 349 1
349 349 1
319 350 1
320 350 1
327 350 1
330 350 1
335 350 1
340 350 1
344 350 1
350 350 1
