%%MatrixMarket matrix coordinate integer general
% Binary matrix; one-based indices; arithmetic over GF(2)
96 144 1152
4 1 1
19 1 1
20 1 1
23 1 1
26 1 1
41 1 1
44 1 1
47 1 1
3 2 1
19 2 1
20 2 1
24 2 1
25 2 1
42 2 1
43 2 1
48 2 1
2 3 1
17 3 1
18 3 1
21 3 1
28 3 1
42 3 1
43 3 1
45 3 1
1 4 1
17 4 1
18 4 1
22 4 1
27 4 1
41 4 1
44 4 1
46 4 1
8 5 1
19 5 1
23 5 1
24 5 1
30 5 1
43 5 1
45 5 1
48 5 1
7 6 1
20 6 1
23 6 1
24 6 1
29 6 1
44 6 1
46 6 1
47 6 1
6 7 1
17 7 1
21 7 1
22 7 1
32 7 1
41 7 1
46 7 1
47 7 1
5 8 1
18 8 1
21 8 1
22 8 1
31 8 1
42 8 1
45 8 1
48 8 1
3 9 1
4 9 1
7 9 1
12 9 1
25 9 1
28 9 1
31 9 1
34 9 1
3 10 1
4 10 1
8 10 1
11 10 1
26 10 1
27 10 1
32 10 1
33 10 1
1 11 1
2 11 1
5 11 1
10 11 1
26 11 1
27 11 1
29 11 1
36 11 1
1 12 1
2 12 1
6 12 1
9 12 1
25 12 1
28 12 1
30 12 1
35 12 1
3 13 1
7 13 1
8 13 1
16 13 1
27 13 1
29 13 1
32 13 1
38 13 1
4 14 1
7 14 1
8 14 1
15 14 1
28 14 1
30 14 1
31 14 1
37 14 1
1 15 1
5 15 1
6 15 1
14 15 1
25 15 1
30 15 1
31 15 1
40 15 1
2 16 1
5 16 1
6 16 1
13 16 1
26 16 1
29 16 1
32 16 1
39 16 1
11 17 1
12 17 1
15 17 1
20 17 1
33 17 1
36 17 1
39 17 1
42 17 1
11 18 1
12 18 1
16 18 1
19 18 1
34 18 1
35 18 1
40 18 1
41 18 1
9 19 1
10 19 1
13 19 1
18 19 1
34 19 1
35 19 1
37 19 1
44 19 1
9 20 1
10 20 1
14 20 1
17 20 1
33 20 1
36 20 1
38 20 1
43 20 1
11 21 1
15 21 1
16 21 1
24 21 1
35 21 1
37 21 1
40 21 1
46 21 1
12 22 1
15 22 1
16 22 1
23 22 1
36 22 1
38 22 1
39 22 1
45 22 1
9 23 1
13 23 1
14 23 1
22 23 1
33 23 1
38 23 1
39 23 1
48 23 1
10 24 1
13 24 1
14 24 1
21 24 1
34 24 1
37 24 1
40 24 1
47 24 1
5 25 1
9 25 1
11 25 1
23 25 1
50 25 1
65 25 1
68 25 1
71 25 1
6 26 1
10 26 1
12 26 1
24 26 1
49 26 1
66 26 1
67 26 1
72 26 1
7 27 1
9 27 1
11 27 1
21 27 1
52 27 1
66 27 1
67 27 1
69 27 1
8 28 1
10 28 1
12 28 1
22 28 1
51 28 1
65 28 1
68 28 1
70 28 1
1 29 1
13 29 1
15 29 1
19 29 1
54 29 1
67 29 1
69 29 1
72 29 1
2 30 1
14 30 1
16 30 1
20 30 1
53 30 1
68 30 1
70 30 1
71 30 1
3 31 1
13 31 1
15 31 1
17 31 1
56 31 1
65 31 1
70 31 1
71 31 1
4 32 1
14 32 1
16 32 1
18 32 1
55 32 1
66 32 1
69 32 1
72 32 1
7 33 1
13 33 1
17 33 1
19 33 1
49 33 1
52 33 1
55 33 1
58 33 1
8 34 1
14 34 1
18 34 1
20 34 1
50 34 1
51 34 1
56 34 1
57 34 1
5 35 1
15 35 1
17 35 1
19 35 1
50 35 1
51 35 1
53 35 1
60 35 1
6 36 1
16 36 1
18 36 1
20 36 1
49 36 1
52 36 1
54 36 1
59 36 1
3 37 1
9 37 1
21 37 1
23 37 1
51 37 1
53 37 1
56 37 1
62 37 1
4 38 1
10 38 1
22 38 1
24 38 1
52 38 1
54 38 1
55 38 1
61 38 1
1 39 1
11 39 1
21 39 1
23 39 1
49 39 1
54 39 1
55 39 1
64 39 1
2 40 1
12 40 1
22 40 1
24 40 1
50 40 1
53 40 1
56 40 1
63 40 1
1 41 1
3 41 1
15 41 1
21 41 1
57 41 1
60 41 1
63 41 1
66 41 1
2 42 1
4 42 1
16 42 1
22 42 1
58 42 1
59 42 1
64 42 1
65 42 1
1 43 1
3 43 1
13 43 1
23 43 1
58 43 1
59 43 1
61 43 1
68 43 1
2 44 1
4 44 1
14 44 1
24 44 1
57 44 1
60 44 1
62 44 1
67 44 1
5 45 1
7 45 1
11 45 1
17 45 1
59 45 1
61 45 1
64 45 1
70 45 1
6 46 1
8 46 1
12 46 1
18 46 1
60 46 1
62 46 1
63 46 1
69 46 1
5 47 1
7 47 1
9 47 1
19 47 1
57 47 1
62 47 1
63 47 1
72 47 1
6 48 1
8 48 1
10 48 1
20 48 1
58 48 1
61 48 1
64 48 1
71 48 1
7 49 1
9 49 1
10 49 1
20 49 1
74 49 1
89 49 1
92 49 1
95 49 1
8 50 1
9 50 1
10 50 1
19 50 1
73 50 1
90 50 1
91 50 1
96 50 1
5 51 1
11 51 1
12 51 1
18 51 1
76 51 1
90 51 1
91 51 1
93 51 1
6 52 1
11 52 1
12 52 1
17 52 1
75 52 1
89 52 1
92 52 1
94 52 1
3 53 1
13 53 1
14 53 1
24 53 1
78 53 1
91 53 1
93 53 1
96 53 1
4 54 1
13 54 1
14 54 1
23 54 1
77 54 1
92 54 1
94 54 1
95 54 1
1 55 1
15 55 1
16 55 1
22 55 1
80 55 1
89 55 1
94 55 1
95 55 1
2 56 1
15 56 1
16 56 1
21 56 1
79 56 1
90 56 1
93 56 1
96 56 1
4 57 1
15 57 1
17 57 1
18 57 1
73 57 1
76 57 1
79 57 1
82 57 1
3 58 1
16 58 1
17 58 1
18 58 1
74 58 1
75 58 1
80 58 1
81 58 1
2 59 1
13 59 1
19 59 1
20 59 1
74 59 1
75 59 1
77 59 1
84 59 1
1 60 1
14 60 1
19 60 1
20 60 1
73 60 1
76 60 1
78 60 1
83 60 1
8 61 1
11 61 1
21 61 1
22 61 1
75 61 1
77 61 1
80 61 1
86 61 1
7 62 1
12 62 1
21 62 1
22 62 1
76 62 1
78 62 1
79 62 1
85 62 1
6 63 1
9 63 1
23 63 1
24 63 1
73 63 1
78 63 1
79 63 1
88 63 1
5 64 1
10 64 1
23 64 1
24 64 1
74 64 1
77 64 1
80 64 1
87 64 1
1 65 1
2 65 1
12 65 1
23 65 1
81 65 1
84 65 1
87 65 1
90 65 1
1 66 1
2 66 1
11 66 1
24 66 1
82 66 1
83 66 1
88 66 1
89 66 1
3 67 1
4 67 1
10 67 1
21 67 1
82 67 1
83 67 1
85 67 1
92 67 1
3 68 1
4 68 1
9 68 1
22 68 1
81 68 1
84 68 1
86 68 1
91 68 1
5 69 1
6 69 1
16 69 1
19 69 1
83 69 1
85 69 1
88 69 1
94 69 1
5 70 1
6 70 1
15 70 1
20 70 1
84 70 1
86 70 1
87 70 1
93 70 1
7 71 1
8 71 1
14 71 1
17 71 1
81 71 1
86 71 1
87 71 1
96 71 1
7 72 1
8 72 1
13 72 1
18 72 1
82 72 1
85 72 1
88 72 1
95 72 1
29 73 1
33 73 1
35 73 1
47 73 1
52 73 1
67 73 1
68 73 1
71 73 1
30 74 1
34 74 1
36 74 1
48 74 1
51 74 1
67 74 1
68 74 1
72 74 1
31 75 1
33 75 1
35 75 1
45 75 1
50 75 1
65 75 1
66 75 1
69 75 1
32 76 1
34 76 1
36 76 1
46 76 1
49 76 1
65 76 1
66 76 1
70 76 1
25 77 1
37 77 1
39 77 1
43 77 1
56 77 1
67 77 1
71 77 1
72 77 1
26 78 1
38 78 1
40 78 1
44 78 1
55 78 1
68 78 1
71 78 1
72 78 1
27 79 1
37 79 1
39 79 1
41 79 1
54 79 1
65 79 1
69 79 1
70 79 1
28 80 1
38 80 1
40 80 1
42 80 1
53 80 1
66 80 1
69 80 1
70 80 1
31 81 1
37 81 1
41 81 1
43 81 1
51 81 1
52 81 1
55 81 1
60 81 1
32 82 1
38 82 1
42 82 1
44 82 1
51 82 1
52 82 1
56 82 1
59 82 1
29 83 1
39 83 1
41 83 1
43 83 1
49 83 1
50 83 1
53 83 1
58 83 1
30 84 1
40 84 1
42 84 1
44 84 1
49 84 1
50 84 1
54 84 1
57 84 1
27 85 1
33 85 1
45 85 1
47 85 1
51 85 1
55 85 1
56 85 1
64 85 1
28 86 1
34 86 1
46 86 1
48 86 1
52 86 1
55 86 1
56 86 1
63 86 1
25 87 1
35 87 1
45 87 1
47 87 1
49 87 1
53 87 1
54 87 1
62 87 1
26 88 1
36 88 1
46 88 1
48 88 1
50 88 1
53 88 1
54 88 1
61 88 1
25 89 1
27 89 1
39 89 1
45 89 1
59 89 1
60 89 1
63 89 1
68 89 1
26 90 1
28 90 1
40 90 1
46 90 1
59 90 1
60 90 1
64 90 1
67 90 1
25 91 1
27 91 1
37 91 1
47 91 1
57 91 1
58 91 1
61 91 1
66 91 1
26 92 1
28 92 1
38 92 1
48 92 1
57 92 1
58 92 1
62 92 1
65 92 1
29 93 1
31 93 1
35 93 1
41 93 1
59 93 1
63 93 1
64 93 1
72 93 1
30 94 1
32 94 1
36 94 1
42 94 1
60 94 1
63 94 1
64 94 1
71 94 1
29 95 1
31 95 1
33 95 1
43 95 1
57 95 1
61 95 1
62 95 1
70 95 1
30 96 1
32 96 1
34 96 1
44 96 1
58 96 1
61 96 1
62 96 1
69 96 1
31 97 1
33 97 1
34 97 1
44 97 1
76 97 1
91 97 1
92 97 1
95 97 1
32 98 1
33 98 1
34 98 1
43 98 1
75 98 1
91 98 1
92 98 1
96 98 1
29 99 1
35 99 1
36 99 1
42 99 1
74 99 1
89 99 1
90 99 1
93 99 1
30 100 1
35 100 1
36 100 1
41 100 1
73 100 1
89 100 1
90 100 1
94 100 1
27 101 1
37 101 1
38 101 1
48 101 1
80 101 1
91 101 1
95 101 1
96 101 1
28 102 1
37 102 1
38 102 1
47 102 1
79 102 1
92 102 1
95 102 1
96 102 1
25 103 1
39 103 1
40 103 1
46 103 1
78 103 1
89 103 1
93 103 1
94 103 1
26 104 1
39 104 1
40 104 1
45 104 1
77 104 1
90 104 1
93 104 1
94 104 1
28 105 1
39 105 1
41 105 1
42 105 1
75 105 1
76 105 1
79 105 1
84 105 1
27 106 1
40 106 1
41 106 1
42 106 1
75 106 1
76 106 1
80 106 1
83 106 1
26 107 1
37 107 1
43 107 1
44 107 1
73 107 1
74 107 1
77 107 1
82 107 1
25 108 1
38 108 1
43 108 1
44 108 1
73 108 1
74 108 1
78 108 1
81 108 1
32 109 1
35 109 1
45 109 1
46 109 1
75 109 1
79 109 1
80 109 1
88 109 1
31 110 1
36 110 1
45 110 1
46 110 1
76 110 1
79 110 1
80 110 1
87 110 1
30 111 1
33 111 1
47 111 1
48 111 1
73 111 1
77 111 1
78 111 1
86 111 1
29 112 1
34 112 1
47 112 1
48 112 1
74 112 1
77 112 1
78 112 1
85 112 1
25 113 1
26 113 1
36 113 1
47 113 1
83 113 1
84 113 1
87 113 1
92 113 1
25 114 1
26 114 1
35 114 1
48 114 1
83 114 1
84 114 1
88 114 1
91 114 1
27 115 1
28 115 1
34 115 1
45 115 1
81 115 1
82 115 1
85 115 1
90 115 1
27 116 1
28 116 1
33 116 1
46 116 1
81 116 1
82 116 1
86 116 1
89 116 1
29 117 1
30 117 1
40 117 1
43 117 1
83 117 1
87 117 1
88 117 1
96 117 1
29 118 1
30 118 1
39 118 1
44 118 1
84 118 1
87 118 1
88 118 1
95 118 1
31 119 1
32 119 1
38 119 1
41 119 1
81 119 1
85 119 1
86 119 1
94 119 1
31 120 1
32 120 1
37 120 1
42 120 1
82 120 1
85 120 1
86 120 1
93 120 1
55 121 1
57 121 1
58 121 1
68 121 1
77 121 1
81 121 1
83 121 1
95 121 1
56 122 1
57 122 1
58 122 1
67 122 1
78 122 1
82 122 1
84 122 1
96 122 1
53 123 1
59 123 1
60 123 1
66 123 1
79 123 1
81 123 1
83 123 1
93 123 1
54 124 1
59 124 1
60 124 1
65 124 1
80 124 1
82 124 1
84 124 1
94 124 1
51 125 1
61 125 1
62 125 1
72 125 1
73 125 1
85 125 1
87 125 1
91 125 1
52 126 1
61 126 1
62 126 1
71 126 1
74 126 1
86 126 1
88 126 1
92 126 1
49 127 1
63 127 1
64 127 1
70 127 1
75 127 1
85 127 1
87 127 1
89 127 1
50 128 1
63 128 1
64 128 1
69 128 1
76 128 1
86 128 1
88 128 1
90 128 1
52 129 1
63 129 1
65 129 1
66 129 1
79 129 1
85 129 1
89 129 1
91 129 1
51 130 1
64 130 1
65 130 1
66 130 1
80 130 1
86 130 1
90 130 1
92 130 1
50 131 1
61 131 1
67 131 1
68 131 1
77 131 1
87 131 1
89 131 1
91 131 1
49 132 1
62 132 1
67 132 1
68 132 1
78 132 1
88 132 1
90 132 1
92 132 1
56 133 1
59 133 1
69 133 1
70 133 1
75 133 1
81 133 1
93 133 1
95 133 1
55 134 1
60 134 1
69 134 1
70 134 1
76 134 1
82 134 1
94 134 1
96 134 1
54 135 1
57 135 1
71 135 1
72 135 1
73 135 1
83 135 1
93 135 1
95 135 1
53 136 1
58 136 1
71 136 1
72 136 1
74 136 1
84 136 1
94 136 1
96 136 1
49 137 1
50 137 1
60 137 1
71 137 1
73 137 1
75 137 1
87 137 1
93 137 1
49 138 1
50 138 1
59 138 1
72 138 1
74 138 1
76 138 1
88 138 1
94 138 1
51 139 1
52 139 1
58 139 1
69 139 1
73 139 1
75 139 1
85 139 1
95 139 1
51 140 1
52 140 1
57 140 1
70 140 1
74 140 1
76 140 1
86 140 1
96 140 1
53 141 1
54 141 1
64 141 1
67 141 1
77 141 1
79 141 1
83 141 1
89 141 1
53 142 1
54 142 1
63 142 1
68 142 1
78 142 1
80 142 1
84 142 1
90 142 1
55 143 1
56 143 1
62 143 1
65 143 1
77 143 1
79 143 1
81 143 1
91 143 1
55 144 1
56 144 1
61 144 1
66 144 1
78 144 1
80 144 1
82 144 1
92 144 1
