%%MatrixMarket matrix coordinate integer general
% Binary matrix; one-based indices; arithmetic over GF(2)
24 72 216
1 1 1
17 1 1
22 1 1
2 2 1
18 2 1
21 2 1
3 3 1
13 3 1
24 3 1
4 4 1
14 4 1
23 4 1
5 5 1
15 5 1
20 5 1
6 6 1
16 6 1
19 6 1
4 7 1
7 7 1
23 7 1
3 8 1
8 8 1
24 8 1
6 9 1
9 9 1
19 9 1
5 10 1
10 10 1
20 10 1
2 11 1
11 11 1
21 11 1
1 12 1
12 12 1
22 12 1
5 13 1
10 13 1
13 13 1
6 14 1
9 14 1
14 14 1
1 15 1
12 15 1
15 15 1
2 16 1
11 16 1
16 16 1
3 17 1
8 17 1
17 17 1
4 18 1
7 18 1
18 18 1
11 19 1
16 19 1
19 19 1
12 20 1
15 20 1
20 20 1
7 21 1
18 21 1
21 21 1
8 22 1
17 22 1
22 22 1
9 23 1
14 23 1
23 23 1
10 24 1
13 24 1
24 24 1
1 25 1
6 25 1
15 25 1
2 26 1
5 26 1
16 26 1
2 27 1
3 27 1
17 27 1
1 28 1
4 28 1
18 28 1
4 29 1
5 29 1
13 29 1
3 30 1
6 30 1
14 30 1
7 31 1
12 31 1
21 31 1
8 32 1
11 32 1
22 32 1
8 33 1
9 33 1
23 33 1
7 34 1
10 34 1
24 34 1
10 35 1
11 35 1
19 35 1
9 36 1
12 36 1
20 36 1
3 37 1
13 37 1
18 37 1
4 38 1
14 38 1
17 38 1
5 39 1
14 39 1
15 39 1
6 40 1
13 40 1
16 40 1
1 41 1
16 41 1
17 41 1
2 42 1
15 42 1
18 42 1
9 43 1
19 43 1
24 43 1
10 44 1
20 44 1
23 44 1
11 45 1
20 45 1
21 45 1
12 46 1
19 46 1
22 46 1
7 47 1
22 47 1
23 47 1
8 48 1
21 48 1
24 48 1
1 49 1
5 49 1
21 49 1
2 50 1
6 50 1
22 50 1
1 51 1
3 51 1
23 51 1
2 52 1
4 52 1
24 52 1
3 53 1
5 53 1
19 53 1
4 54 1
6 54 1
20 54 1
3 55 1
7 55 1
11 55 1
4 56 1
8 56 1
12 56 1
5 57 1
7 57 1
9 57 1
6 58 1
8 58 1
10 58 1
1 59 1
9 59 1
11 59 1
2 60 1
10 60 1
12 60 1
9 61 1
13 61 1
17 61 1
10 62 1
14 62 1
18 62 1
11 63 1
13 63 1
15 63 1
12 64 1
14 64 1
16 64 1
7 65 1
15 65 1
17 65 1
8 66 1
16 66 1
18 66 1
15 67 1
19 67 1
23 67 1
16 68 1
20 68 1
24 68 1
17 69 1
19 69 1
21 69 1
18 70 1
20 70 1
22 70 1
13 71 1
21 71 1
23 71 1
14 72 1
22 72 1
24 72 1
