%%MatrixMarket matrix coordinate integer general
% Binary matrix; one-based indices; arithmetic over GF(2)
72 72 432
1 1 1
4 1 1
17 1 1
25 1 1
27 1 1
35 1 1
2 2 1
3 2 1
18 2 1
26 2 1
28 2 1
36 2 1
3 3 1
6 3 1
13 3 1
27 3 1
29 3 1
31 3 1
4 4 1
5 4 1
14 4 1
28 4 1
30 4 1
32 4 1
2 5 1
5 5 1
15 5 1
25 5 1
29 5 1
33 5 1
1 6 1
6 6 1
16 6 1
26 6 1
30 6 1
34 6 1
7 7 1
10 7 1
23 7 1
31 7 1
33 7 1
41 7 1
8 8 1
9 8 1
24 8 1
32 8 1
34 8 1
42 8 1
9 9 1
12 9 1
19 9 1
33 9 1
35 9 1
37 9 1
10 10 1
11 10 1
20 10 1
34 10 1
36 10 1
38 10 1
8 11 1
11 11 1
21 11 1
31 11 1
35 11 1
39 11 1
7 12 1
12 12 1
22 12 1
32 12 1
36 12 1
40 12 1
5 13 1
13 13 1
16 13 1
37 13 1
39 13 1
47 13 1
6 14 1
14 14 1
15 14 1
38 14 1
40 14 1
48 14 1
1 15 1
15 15 1
18 15 1
39 15 1
41 15 1
43 15 1
2 16 1
16 16 1
17 16 1
40 16 1
42 16 1
44 16 1
3 17 1
14 17 1
17 17 1
37 17 1
41 17 1
45 17 1
4 18 1
13 18 1
18 18 1
38 18 1
42 18 1
46 18 1
11 19 1
19 19 1
22 19 1
29 19 1
43 19 1
45 19 1
12 20 1
20 20 1
21 20 1
30 20 1
44 20 1
46 20 1
7 21 1
21 21 1
24 21 1
25 21 1
45 21 1
47 21 1
8 22 1
22 22 1
23 22 1
26 22 1
46 22 1
48 22 1
9 23 1
20 23 1
23 23 1
27 23 1
43 23 1
47 23 1
10 24 1
19 24 1
24 24 1
28 24 1
44 24 1
48 24 1
1 25 1
12 25 1
15 25 1
49 25 1
51 25 1
59 25 1
2 26 1
11 26 1
16 26 1
50 26 1
52 26 1
60 26 1
3 27 1
8 27 1
17 27 1
51 27 1
53 27 1
55 27 1
4 28 1
7 28 1
18 28 1
52 28 1
54 28 1
56 28 1
5 29 1
10 29 1
13 29 1
49 29 1
53 29 1
57 29 1
6 30 1
9 30 1
14 30 1
50 30 1
54 30 1
58 30 1
7 31 1
18 31 1
21 31 1
55 31 1
57 31 1
65 31 1
8 32 1
17 32 1
22 32 1
56 32 1
58 32 1
66 32 1
9 33 1
14 33 1
23 33 1
57 33 1
59 33 1
61 33 1
10 34 1
13 34 1
24 34 1
58 34 1
60 34 1
62 34 1
11 35 1
16 35 1
19 35 1
55 35 1
59 35 1
63 35 1
12 36 1
15 36 1
20 36 1
56 36 1
60 36 1
64 36 1
3 37 1
13 37 1
24 37 1
61 37 1
63 37 1
71 37 1
4 38 1
14 38 1
23 38 1
62 38 1
64 38 1
72 38 1
5 39 1
15 39 1
20 39 1
63 39 1
65 39 1
67 39 1
6 40 1
16 40 1
19 40 1
64 40 1
66 40 1
68 40 1
1 41 1
17 41 1
22 41 1
61 41 1
65 41 1
69 41 1
2 42 1
18 42 1
21 42 1
62 42 1
66 42 1
70 42 1
6 43 1
9 43 1
19 43 1
53 43 1
67 43 1
69 43 1
5 44 1
10 44 1
20 44 1
54 44 1
68 44 1
70 44 1
2 45 1
11 45 1
21 45 1
49 45 1
69 45 1
71 45 1
1 46 1
12 46 1
22 46 1
50 46 1
70 46 1
72 46 1
4 47 1
7 47 1
23 47 1
51 47 1
67 47 1
71 47 1
3 48 1
8 48 1
24 48 1
52 48 1
68 48 1
72 48 1
25 49 1
36 49 1
39 49 1
49 49 1
52 49 1
65 49 1
26 50 1
35 50 1
40 50 1
50 50 1
51 50 1
66 50 1
27 51 1
32 51 1
41 51 1
51 51 1
54 51 1
61 51 1
28 52 1
31 52 1
42 52 1
52 52 1
53 52 1
62 52 1
29 53 1
34 53 1
37 53 1
50 53 1
53 53 1
63 53 1
30 54 1
33 54 1
38 54 1
49 54 1
54 54 1
64 54 1
31 55 1
42 55 1
45 55 1
55 55 1
58 55 1
71 55 1
32 56 1
41 56 1
46 56 1
56 56 1
57 56 1
72 56 1
33 57 1
38 57 1
47 57 1
57 57 1
60 57 1
67 57 1
34 58 1
37 58 1
48 58 1
58 58 1
59 58 1
68 58 1
35 59 1
40 59 1
43 59 1
56 59 1
59 59 1
69 59 1
36 60 1
39 60 1
44 60 1
55 60 1
60 60 1
70 60 1
27 61 1
37 61 1
48 61 1
53 61 1
61 61 1
64 61 1
28 62 1
38 62 1
47 62 1
54 62 1
62 62 1
63 62 1
29 63 1
39 63 1
44 63 1
49 63 1
63 63 1
66 63 1
30 64 1
40 64 1
43 64 1
50 64 1
64 64 1
65 64 1
25 65 1
41 65 1
46 65 1
51 65 1
62 65 1
65 65 1
26 66 1
42 66 1
45 66 1
52 66 1
61 66 1
66 66 1
30 67 1
33 67 1
43 67 1
59 67 1
67 67 1
70 67 1
29 68 1
34 68 1
44 68 1
60 68 1
68 68 1
69 68 1
26 69 1
35 69 1
45 69 1
55 69 1
69 69 1
72 69 1
25 70 1
36 70 1
46 70 1
56 70 1
70 70 1
71 70 1
28 71 1
31 71 1
47 71 1
57 71 1
68 71 1
71 71 1
27 72 1
32 72 1
48 72 1
58 72 1
67 72 1
72 72 1
