%%MatrixMarket matrix coordinate integer general
% Binary matrix; one-based indices; arithmetic over GF(2)
336 504 3024
12 1 1
28 1 1
39 1 1
86 1 1
97 1 1
103 1 1
13 2 1
22 2 1
40 2 1
87 2 1
98 2 1
104 2 1
14 3 1
23 3 1
41 3 1
88 3 1
92 3 1
105 3 1
8 4 1
24 4 1
42 4 1
89 4 1
93 4 1
99 4 1
9 5 1
25 5 1
36 5 1
90 5 1
94 5 1
100 5 1
10 6 1
26 6 1
37 6 1
91 6 1
95 6 1
101 6 1
11 7 1
27 7 1
38 7 1
85 7 1
96 7 1
102 7 1
19 8 1
25 8 1
35 8 1
89 8 1
93 8 1
104 8 1
20 9 1
26 9 1
29 9 1
90 9 1
94 9 1
105 9 1
21 10 1
27 10 1
30 10 1
91 10 1
95 10 1
99 10 1
15 11 1
28 11 1
31 11 1
85 11 1
96 11 1
100 11 1
16 12 1
22 12 1
32 12 1
86 12 1
97 12 1
101 12 1
17 13 1
23 13 1
33 13 1
87 13 1
98 13 1
102 13 1
18 14 1
24 14 1
34 14 1
88 14 1
92 14 1
103 14 1
5 15 1
32 15 1
42 15 1
90 15 1
96 15 1
100 15 1
6 16 1
33 16 1
36 16 1
91 16 1
97 16 1
101 16 1
7 17 1
34 17 1
37 17 1
85 17 1
98 17 1
102 17 1
1 18 1
35 18 1
38 18 1
86 18 1
92 18 1
103 18 1
2 19 1
29 19 1
39 19 1
87 19 1
93 19 1
104 19 1
3 20 1
30 20 1
40 20 1
88 20 1
94 20 1
105 20 1
4 21 1
31 21 1
41 21 1
89 21 1
95 21 1
99 21 1
7 22 1
18 22 1
33 22 1
107 22 1
118 22 1
124 22 1
1 23 1
19 23 1
34 23 1
108 23 1
119 23 1
125 23 1
2 24 1
20 24 1
35 24 1
109 24 1
113 24 1
126 24 1
3 25 1
21 25 1
29 25 1
110 25 1
114 25 1
120 25 1
4 26 1
15 26 1
30 26 1
111 26 1
115 26 1
121 26 1
5 27 1
16 27 1
31 27 1
112 27 1
116 27 1
122 27 1
6 28 1
17 28 1
32 28 1
106 28 1
117 28 1
123 28 1
4 29 1
14 29 1
40 29 1
110 29 1
114 29 1
125 29 1
5 30 1
8 30 1
41 30 1
111 30 1
115 30 1
126 30 1
6 31 1
9 31 1
42 31 1
112 31 1
116 31 1
120 31 1
7 32 1
10 32 1
36 32 1
106 32 1
117 32 1
121 32 1
1 33 1
11 33 1
37 33 1
107 33 1
118 33 1
122 33 1
2 34 1
12 34 1
38 34 1
108 34 1
119 34 1
123 34 1
3 35 1
13 35 1
39 35 1
109 35 1
113 35 1
124 35 1
11 36 1
21 36 1
26 36 1
111 36 1
117 36 1
121 36 1
12 37 1
15 37 1
27 37 1
112 37 1
118 37 1
122 37 1
13 38 1
16 38 1
28 38 1
106 38 1
119 38 1
123 38 1
14 39 1
17 39 1
22 39 1
107 39 1
113 39 1
124 39 1
8 40 1
18 40 1
23 40 1
108 40 1
114 40 1
125 40 1
9 41 1
19 41 1
24 41 1
109 41 1
115 41 1
126 41 1
10 42 1
20 42 1
25 42 1
110 42 1
116 42 1
120 42 1
54 43 1
70 43 1
81 43 1
128 43 1
139 43 1
145 43 1
55 44 1
64 44 1
82 44 1
129 44 1
140 44 1
146 44 1
56 45 1
65 45 1
83 45 1
130 45 1
134 45 1
147 45 1
50 46 1
66 46 1
84 46 1
131 46 1
135 46 1
141 46 1
51 47 1
67 47 1
78 47 1
132 47 1
136 47 1
142 47 1
52 48 1
68 48 1
79 48 1
133 48 1
137 48 1
143 48 1
53 49 1
69 49 1
80 49 1
127 49 1
138 49 1
144 49 1
61 50 1
67 50 1
77 50 1
131 50 1
135 50 1
146 50 1
62 51 1
68 51 1
71 51 1
132 51 1
136 51 1
147 51 1
63 52 1
69 52 1
72 52 1
133 52 1
137 52 1
141 52 1
57 53 1
70 53 1
73 53 1
127 53 1
138 53 1
142 53 1
58 54 1
64 54 1
74 54 1
128 54 1
139 54 1
143 54 1
59 55 1
65 55 1
75 55 1
129 55 1
140 55 1
144 55 1
60 56 1
66 56 1
76 56 1
130 56 1
134 56 1
145 56 1
47 57 1
74 57 1
84 57 1
132 57 1
138 57 1
142 57 1
48 58 1
75 58 1
78 58 1
133 58 1
139 58 1
143 58 1
49 59 1
76 59 1
79 59 1
127 59 1
140 59 1
144 59 1
43 60 1
77 60 1
80 60 1
128 60 1
134 60 1
145 60 1
44 61 1
71 61 1
81 61 1
129 61 1
135 61 1
146 61 1
45 62 1
72 62 1
82 62 1
130 62 1
136 62 1
147 62 1
46 63 1
73 63 1
83 63 1
131 63 1
137 63 1
141 63 1
49 64 1
60 64 1
75 64 1
149 64 1
160 64 1
166 64 1
43 65 1
61 65 1
76 65 1
150 65 1
161 65 1
167 65 1
44 66 1
62 66 1
77 66 1
151 66 1
155 66 1
168 66 1
45 67 1
63 67 1
71 67 1
152 67 1
156 67 1
162 67 1
46 68 1
57 68 1
72 68 1
153 68 1
157 68 1
163 68 1
47 69 1
58 69 1
73 69 1
154 69 1
158 69 1
164 69 1
48 70 1
59 70 1
74 70 1
148 70 1
159 70 1
165 70 1
46 71 1
56 71 1
82 71 1
152 71 1
156 71 1
167 71 1
47 72 1
50 72 1
83 72 1
153 72 1
157 72 1
168 72 1
48 73 1
51 73 1
84 73 1
154 73 1
158 73 1
162 73 1
49 74 1
52 74 1
78 74 1
148 74 1
159 74 1
163 74 1
43 75 1
53 75 1
79 75 1
149 75 1
160 75 1
164 75 1
44 76 1
54 76 1
80 76 1
150 76 1
161 76 1
165 76 1
45 77 1
55 77 1
81 77 1
151 77 1
155 77 1
166 77 1
53 78 1
63 78 1
68 78 1
153 78 1
159 78 1
163 78 1
54 79 1
57 79 1
69 79 1
154 79 1
160 79 1
164 79 1
55 80 1
58 80 1
70 80 1
148 80 1
161 80 1
165 80 1
56 81 1
59 81 1
64 81 1
149 81 1
155 81 1
166 81 1
50 82 1
60 82 1
65 82 1
150 82 1
156 82 1
167 82 1
51 83 1
61 83 1
66 83 1
151 83 1
157 83 1
168 83 1
52 84 1
62 84 1
67 84 1
152 84 1
158 84 1
162 84 1
10 85 1
40 85 1
65 85 1
170 85 1
181 85 1
187 85 1
11 86 1
41 86 1
66 86 1
171 86 1
182 86 1
188 86 1
12 87 1
42 87 1
67 87 1
172 87 1
176 87 1
189 87 1
13 88 1
36 88 1
68 88 1
173 88 1
177 88 1
183 88 1
14 89 1
37 89 1
69 89 1
174 89 1
178 89 1
184 89 1
8 90 1
38 90 1
70 90 1
175 90 1
179 90 1
185 90 1
9 91 1
39 91 1
64 91 1
169 91 1
180 91 1
186 91 1
17 92 1
26 92 1
72 92 1
173 92 1
177 92 1
188 92 1
18 93 1
27 93 1
73 93 1
174 93 1
178 93 1
189 93 1
19 94 1
28 94 1
74 94 1
175 94 1
179 94 1
183 94 1
20 95 1
22 95 1
75 95 1
169 95 1
180 95 1
184 95 1
21 96 1
23 96 1
76 96 1
170 96 1
181 96 1
185 96 1
15 97 1
24 97 1
77 97 1
171 97 1
182 97 1
186 97 1
16 98 1
25 98 1
71 98 1
172 98 1
176 98 1
187 98 1
3 99 1
33 99 1
79 99 1
174 99 1
180 99 1
184 99 1
4 100 1
34 100 1
80 100 1
175 100 1
181 100 1
185 100 1
5 101 1
35 101 1
81 101 1
169 101 1
182 101 1
186 101 1
6 102 1
29 102 1
82 102 1
170 102 1
176 102 1
187 102 1
7 103 1
30 103 1
83 103 1
171 103 1
177 103 1
188 103 1
1 104 1
31 104 1
84 104 1
172 104 1
178 104 1
189 104 1
2 105 1
32 105 1
78 105 1
173 105 1
179 105 1
183 105 1
19 106 1
31 106 1
44 106 1
191 106 1
202 106 1
208 106 1
20 107 1
32 107 1
45 107 1
192 107 1
203 107 1
209 107 1
21 108 1
33 108 1
46 108 1
193 108 1
197 108 1
210 108 1
15 109 1
34 109 1
47 109 1
194 109 1
198 109 1
204 109 1
16 110 1
35 110 1
48 110 1
195 110 1
199 110 1
205 110 1
17 111 1
29 111 1
49 111 1
196 111 1
200 111 1
206 111 1
18 112 1
30 112 1
43 112 1
190 112 1
201 112 1
207 112 1
5 113 1
38 113 1
51 113 1
194 113 1
198 113 1
209 113 1
6 114 1
39 114 1
52 114 1
195 114 1
199 114 1
210 114 1
7 115 1
40 115 1
53 115 1
196 115 1
200 115 1
204 115 1
1 116 1
41 116 1
54 116 1
190 116 1
201 116 1
205 116 1
2 117 1
42 117 1
55 117 1
191 117 1
202 117 1
206 117 1
3 118 1
36 118 1
56 118 1
192 118 1
203 118 1
207 118 1
4 119 1
37 119 1
50 119 1
193 119 1
197 119 1
208 119 1
12 120 1
24 120 1
58 120 1
195 120 1
201 120 1
205 120 1
13 121 1
25 121 1
59 121 1
196 121 1
202 121 1
206 121 1
14 122 1
26 122 1
60 122 1
190 122 1
203 122 1
207 122 1
8 123 1
27 123 1
61 123 1
191 123 1
197 123 1
208 123 1
9 124 1
28 124 1
62 124 1
192 124 1
198 124 1
209 124 1
10 125 1
22 125 1
63 125 1
193 125 1
199 125 1
210 125 1
11 126 1
23 126 1
57 126 1
194 126 1
200 126 1
204 126 1
23 127 1
52 127 1
82 127 1
212 127 1
223 127 1
229 127 1
24 128 1
53 128 1
83 128 1
213 128 1
224 128 1
230 128 1
25 129 1
54 129 1
84 129 1
214 129 1
218 129 1
231 129 1
26 130 1
55 130 1
78 130 1
215 130 1
219 130 1
225 130 1
27 131 1
56 131 1
79 131 1
216 131 1
220 131 1
226 131 1
28 132 1
50 132 1
80 132 1
217 132 1
221 132 1
227 132 1
22 133 1
51 133 1
81 133 1
211 133 1
222 133 1
228 133 1
30 134 1
59 134 1
68 134 1
215 134 1
219 134 1
230 134 1
31 135 1
60 135 1
69 135 1
216 135 1
220 135 1
231 135 1
32 136 1
61 136 1
70 136 1
217 136 1
221 136 1
225 136 1
33 137 1
62 137 1
64 137 1
211 137 1
222 137 1
226 137 1
34 138 1
63 138 1
65 138 1
212 138 1
223 138 1
227 138 1
35 139 1
57 139 1
66 139 1
213 139 1
224 139 1
228 139 1
29 140 1
58 140 1
67 140 1
214 140 1
218 140 1
229 140 1
37 141 1
45 141 1
75 141 1
216 141 1
222 141 1
226 141 1
38 142 1
46 142 1
76 142 1
217 142 1
223 142 1
227 142 1
39 143 1
47 143 1
77 143 1
211 143 1
224 143 1
228 143 1
40 144 1
48 144 1
71 144 1
212 144 1
218 144 1
229 144 1
41 145 1
49 145 1
72 145 1
213 145 1
219 145 1
230 145 1
42 146 1
43 146 1
73 146 1
214 146 1
220 146 1
231 146 1
36 147 1
44 147 1
74 147 1
215 147 1
221 147 1
225 147 1
2 148 1
61 148 1
73 148 1
233 148 1
244 148 1
250 148 1
3 149 1
62 149 1
74 149 1
234 149 1
245 149 1
251 149 1
4 150 1
63 150 1
75 150 1
235 150 1
239 150 1
252 150 1
5 151 1
57 151 1
76 151 1
236 151 1
240 151 1
246 151 1
6 152 1
58 152 1
77 152 1
237 152 1
241 152 1
247 152 1
7 153 1
59 153 1
71 153 1
238 153 1
242 153 1
248 153 1
1 154 1
60 154 1
72 154 1
232 154 1
243 154 1
249 154 1
9 155 1
47 155 1
80 155 1
236 155 1
240 155 1
251 155 1
10 156 1
48 156 1
81 156 1
237 156 1
241 156 1
252 156 1
11 157 1
49 157 1
82 157 1
238 157 1
242 157 1
246 157 1
12 158 1
43 158 1
83 158 1
232 158 1
243 158 1
247 158 1
13 159 1
44 159 1
84 159 1
233 159 1
244 159 1
248 159 1
14 160 1
45 160 1
78 160 1
234 160 1
245 160 1
249 160 1
8 161 1
46 161 1
79 161 1
235 161 1
239 161 1
250 161 1
16 162 1
54 162 1
66 162 1
237 162 1
243 162 1
247 162 1
17 163 1
55 163 1
67 163 1
238 163 1
244 163 1
248 163 1
18 164 1
56 164 1
68 164 1
232 164 1
245 164 1
249 164 1
19 165 1
50 165 1
69 165 1
233 165 1
239 165 1
250 165 1
20 166 1
51 166 1
70 166 1
234 166 1
240 166 1
251 166 1
21 167 1
52 167 1
64 167 1
235 167 1
241 167 1
252 167 1
15 168 1
53 168 1
65 168 1
236 168 1
242 168 1
246 168 1
30 169 1
41 169 1
46 169 1
254 169 1
265 169 1
271 169 1
31 170 1
42 170 1
47 170 1
255 170 1
266 170 1
272 170 1
32 171 1
36 171 1
48 171 1
256 171 1
260 171 1
273 171 1
33 172 1
37 172 1
49 172 1
257 172 1
261 172 1
267 172 1
34 173 1
38 173 1
43 173 1
258 173 1
262 173 1
268 173 1
35 174 1
39 174 1
44 174 1
259 174 1
263 174 1
269 174 1
29 175 1
40 175 1
45 175 1
253 175 1
264 175 1
270 175 1
27 176 1
37 176 1
53 176 1
257 176 1
261 176 1
272 176 1
28 177 1
38 177 1
54 177 1
258 177 1
262 177 1
273 177 1
22 178 1
39 178 1
55 178 1
259 178 1
263 178 1
267 178 1
23 179 1
40 179 1
56 179 1
253 179 1
264 179 1
268 179 1
24 180 1
41 180 1
50 180 1
254 180 1
265 180 1
269 180 1
25 181 1
42 181 1
51 181 1
255 181 1
266 181 1
270 181 1
26 182 1
36 182 1
52 182 1
256 182 1
260 182 1
271 182 1
23 183 1
34 183 1
60 183 1
258 183 1
264 183 1
268 183 1
24 184 1
35 184 1
61 184 1
259 184 1
265 184 1
269 184 1
25 185 1
29 185 1
62 185 1
253 185 1
266 185 1
270 185 1
26 186 1
30 186 1
63 186 1
254 186 1
260 186 1
271 186 1
27 187 1
31 187 1
57 187 1
255 187 1
261 187 1
272 187 1
28 188 1
32 188 1
58 188 1
256 188 1
262 188 1
273 188 1
22 189 1
33 189 1
59 189 1
257 189 1
263 189 1
267 189 1
9 190 1
20 190 1
67 190 1
275 190 1
286 190 1
292 190 1
10 191 1
21 191 1
68 191 1
276 191 1
287 191 1
293 191 1
11 192 1
15 192 1
69 192 1
277 192 1
281 192 1
294 192 1
12 193 1
16 193 1
70 193 1
278 193 1
282 193 1
288 193 1
13 194 1
17 194 1
64 194 1
279 194 1
283 194 1
289 194 1
14 195 1
18 195 1
65 195 1
280 195 1
284 195 1
290 195 1
8 196 1
19 196 1
66 196 1
274 196 1
285 196 1
291 196 1
6 197 1
16 197 1
74 197 1
278 197 1
282 197 1
293 197 1
7 198 1
17 198 1
75 198 1
279 198 1
283 198 1
294 198 1
1 199 1
18 199 1
76 199 1
280 199 1
284 199 1
288 199 1
2 200 1
19 200 1
77 200 1
274 200 1
285 200 1
289 200 1
3 201 1
20 201 1
71 201 1
275 201 1
286 201 1
290 201 1
4 202 1
21 202 1
72 202 1
276 202 1
287 202 1
291 202 1
5 203 1
15 203 1
73 203 1
277 203 1
281 203 1
292 203 1
2 204 1
13 204 1
81 204 1
279 204 1
285 204 1
289 204 1
3 205 1
14 205 1
82 205 1
280 205 1
286 205 1
290 205 1
4 206 1
8 206 1
83 206 1
274 206 1
287 206 1
291 206 1
5 207 1
9 207 1
84 207 1
275 207 1
281 207 1
292 207 1
6 208 1
10 208 1
78 208 1
276 208 1
282 208 1
293 208 1
7 209 1
11 209 1
79 209 1
277 209 1
283 209 1
294 209 1
1 210 1
12 210 1
80 210 1
278 210 1
284 210 1
288 210 1
4 211 1
72 211 1
83 211 1
296 211 1
307 211 1
313 211 1
5 212 1
73 212 1
84 212 1
297 212 1
308 212 1
314 212 1
6 213 1
74 213 1
78 213 1
298 213 1
302 213 1
315 213 1
7 214 1
75 214 1
79 214 1
299 214 1
303 214 1
309 214 1
1 215 1
76 215 1
80 215 1
300 215 1
304 215 1
310 215 1
2 216 1
77 216 1
81 216 1
301 216 1
305 216 1
311 216 1
3 217 1
71 217 1
82 217 1
295 217 1
306 217 1
312 217 1
11 218 1
69 218 1
79 218 1
299 218 1
303 218 1
314 218 1
12 219 1
70 219 1
80 219 1
300 219 1
304 219 1
315 219 1
13 220 1
64 220 1
81 220 1
301 220 1
305 220 1
309 220 1
14 221 1
65 221 1
82 221 1
295 221 1
306 221 1
310 221 1
8 222 1
66 222 1
83 222 1
296 222 1
307 222 1
311 222 1
9 223 1
67 223 1
84 223 1
297 223 1
308 223 1
312 223 1
10 224 1
68 224 1
78 224 1
298 224 1
302 224 1
313 224 1
18 225 1
65 225 1
76 225 1
300 225 1
306 225 1
310 225 1
19 226 1
66 226 1
77 226 1
301 226 1
307 226 1
311 226 1
20 227 1
67 227 1
71 227 1
295 227 1
308 227 1
312 227 1
21 228 1
68 228 1
72 228 1
296 228 1
302 228 1
313 228 1
15 229 1
69 229 1
73 229 1
297 229 1
303 229 1
314 229 1
16 230 1
70 230 1
74 230 1
298 230 1
304 230 1
315 230 1
17 231 1
64 231 1
75 231 1
299 231 1
305 231 1
309 231 1
25 232 1
51 232 1
62 232 1
317 232 1
328 232 1
334 232 1
26 233 1
52 233 1
63 233 1
318 233 1
329 233 1
335 233 1
27 234 1
53 234 1
57 234 1
319 234 1
323 234 1
336 234 1
28 235 1
54 235 1
58 235 1
320 235 1
324 235 1
330 235 1
22 236 1
55 236 1
59 236 1
321 236 1
325 236 1
331 236 1
23 237 1
56 237 1
60 237 1
322 237 1
326 237 1
332 237 1
24 238 1
50 238 1
61 238 1
316 238 1
327 238 1
333 238 1
32 239 1
48 239 1
58 239 1
320 239 1
324 239 1
335 239 1
33 240 1
49 240 1
59 240 1
321 240 1
325 240 1
336 240 1
34 241 1
43 241 1
60 241 1
322 241 1
326 241 1
330 241 1
35 242 1
44 242 1
61 242 1
316 242 1
327 242 1
331 242 1
29 243 1
45 243 1
62 243 1
317 243 1
328 243 1
332 243 1
30 244 1
46 244 1
63 244 1
318 244 1
329 244 1
333 244 1
31 245 1
47 245 1
57 245 1
319 245 1
323 245 1
334 245 1
39 246 1
44 246 1
55 246 1
321 246 1
327 246 1
331 246 1
40 247 1
45 247 1
56 247 1
322 247 1
328 247 1
332 247 1
41 248 1
46 248 1
50 248 1
316 248 1
329 248 1
333 248 1
42 249 1
47 249 1
51 249 1
317 249 1
323 249 1
334 249 1
36 250 1
48 250 1
52 250 1
318 250 1
324 250 1
335 250 1
37 251 1
49 251 1
53 251 1
319 251 1
325 251 1
336 251 1
38 252 1
43 252 1
54 252 1
320 252 1
326 252 1
330 252 1
94 253 1
124 253 1
149 253 1
180 253 1
196 253 1
207 253 1
95 254 1
125 254 1
150 254 1
181 254 1
190 254 1
208 254 1
96 255 1
126 255 1
151 255 1
182 255 1
191 255 1
209 255 1
97 256 1
120 256 1
152 256 1
176 256 1
192 256 1
210 256 1
98 257 1
121 257 1
153 257 1
177 257 1
193 257 1
204 257 1
92 258 1
122 258 1
154 258 1
178 258 1
194 258 1
205 258 1
93 259 1
123 259 1
148 259 1
179 259 1
195 259 1
206 259 1
101 260 1
110 260 1
156 260 1
187 260 1
193 260 1
203 260 1
102 261 1
111 261 1
157 261 1
188 261 1
194 261 1
197 261 1
103 262 1
112 262 1
158 262 1
189 262 1
195 262 1
198 262 1
104 263 1
106 263 1
159 263 1
183 263 1
196 263 1
199 263 1
105 264 1
107 264 1
160 264 1
184 264 1
190 264 1
200 264 1
99 265 1
108 265 1
161 265 1
185 265 1
191 265 1
201 265 1
100 266 1
109 266 1
155 266 1
186 266 1
192 266 1
202 266 1
87 267 1
117 267 1
163 267 1
173 267 1
200 267 1
210 267 1
88 268 1
118 268 1
164 268 1
174 268 1
201 268 1
204 268 1
89 269 1
119 269 1
165 269 1
175 269 1
202 269 1
205 269 1
90 270 1
113 270 1
166 270 1
169 270 1
203 270 1
206 270 1
91 271 1
114 271 1
167 271 1
170 271 1
197 271 1
207 271 1
85 272 1
115 272 1
168 272 1
171 272 1
198 272 1
208 272 1
86 273 1
116 273 1
162 273 1
172 273 1
199 273 1
209 273 1
103 274 1
115 274 1
128 274 1
175 274 1
186 274 1
201 274 1
104 275 1
116 275 1
129 275 1
169 275 1
187 275 1
202 275 1
105 276 1
117 276 1
130 276 1
170 276 1
188 276 1
203 276 1
99 277 1
118 277 1
131 277 1
171 277 1
189 277 1
197 277 1
100 278 1
119 278 1
132 278 1
172 278 1
183 278 1
198 278 1
101 279 1
113 279 1
133 279 1
173 279 1
184 279 1
199 279 1
102 280 1
114 280 1
127 280 1
174 280 1
185 280 1
200 280 1
89 281 1
122 281 1
135 281 1
172 281 1
182 281 1
208 281 1
90 282 1
123 282 1
136 282 1
173 282 1
176 282 1
209 282 1
91 283 1
124 283 1
137 283 1
174 283 1
177 283 1
210 283 1
85 284 1
125 284 1
138 284 1
175 284 1
178 284 1
204 284 1
86 285 1
126 285 1
139 285 1
169 285 1
179 285 1
205 285 1
87 286 1
120 286 1
140 286 1
170 286 1
180 286 1
206 286 1
88 287 1
121 287 1
134 287 1
171 287 1
181 287 1
207 287 1
96 288 1
108 288 1
142 288 1
179 288 1
189 288 1
194 288 1
97 289 1
109 289 1
143 289 1
180 289 1
183 289 1
195 289 1
98 290 1
110 290 1
144 290 1
181 290 1
184 290 1
196 290 1
92 291 1
111 291 1
145 291 1
182 291 1
185 291 1
190 291 1
93 292 1
112 292 1
146 292 1
176 292 1
186 292 1
191 292 1
94 293 1
106 293 1
147 293 1
177 293 1
187 293 1
192 293 1
95 294 1
107 294 1
141 294 1
178 294 1
188 294 1
193 294 1
107 295 1
136 295 1
166 295 1
222 295 1
238 295 1
249 295 1
108 296 1
137 296 1
167 296 1
223 296 1
232 296 1
250 296 1
109 297 1
138 297 1
168 297 1
224 297 1
233 297 1
251 297 1
110 298 1
139 298 1
162 298 1
218 298 1
234 298 1
252 298 1
111 299 1
140 299 1
163 299 1
219 299 1
235 299 1
246 299 1
112 300 1
134 300 1
164 300 1
220 300 1
236 300 1
247 300 1
106 301 1
135 301 1
165 301 1
221 301 1
237 301 1
248 301 1
114 302 1
143 302 1
152 302 1
229 302 1
235 302 1
245 302 1
115 303 1
144 303 1
153 303 1
230 303 1
236 303 1
239 303 1
116 304 1
145 304 1
154 304 1
231 304 1
237 304 1
240 304 1
117 305 1
146 305 1
148 305 1
225 305 1
238 305 1
241 305 1
118 306 1
147 306 1
149 306 1
226 306 1
232 306 1
242 306 1
119 307 1
141 307 1
150 307 1
227 307 1
233 307 1
243 307 1
113 308 1
142 308 1
151 308 1
228 308 1
234 308 1
244 308 1
121 309 1
129 309 1
159 309 1
215 309 1
242 309 1
252 309 1
122 310 1
130 310 1
160 310 1
216 310 1
243 310 1
246 310 1
123 311 1
131 311 1
161 311 1
217 311 1
244 311 1
247 311 1
124 312 1
132 312 1
155 312 1
211 312 1
245 312 1
248 312 1
125 313 1
133 313 1
156 313 1
212 313 1
239 313 1
249 313 1
126 314 1
127 314 1
157 314 1
213 314 1
240 314 1
250 314 1
120 315 1
128 315 1
158 315 1
214 315 1
241 315 1
251 315 1
86 316 1
145 316 1
157 316 1
217 316 1
228 316 1
243 316 1
87 317 1
146 317 1
158 317 1
211 317 1
229 317 1
244 317 1
88 318 1
147 318 1
159 318 1
212 318 1
230 318 1
245 318 1
89 319 1
141 319 1
160 319 1
213 319 1
231 319 1
239 319 1
90 320 1
142 320 1
161 320 1
214 320 1
225 320 1
240 320 1
91 321 1
143 321 1
155 321 1
215 321 1
226 321 1
241 321 1
85 322 1
144 322 1
156 322 1
216 322 1
227 322 1
242 322 1
93 323 1
131 323 1
164 323 1
214 323 1
224 323 1
250 323 1
94 324 1
132 324 1
165 324 1
215 324 1
218 324 1
251 324 1
95 325 1
133 325 1
166 325 1
216 325 1
219 325 1
252 325 1
96 326 1
127 326 1
167 326 1
217 326 1
220 326 1
246 326 1
97 327 1
128 327 1
168 327 1
211 327 1
221 327 1
247 327 1
98 328 1
129 328 1
162 328 1
212 328 1
222 328 1
248 328 1
92 329 1
130 329 1
163 329 1
213 329 1
223 329 1
249 329 1
100 330 1
138 330 1
150 330 1
221 330 1
231 330 1
236 330 1
101 331 1
139 331 1
151 331 1
222 331 1
225 331 1
237 331 1
102 332 1
140 332 1
152 332 1
223 332 1
226 332 1
238 332 1
103 333 1
134 333 1
153 333 1
224 333 1
227 333 1
232 333 1
104 334 1
135 334 1
154 334 1
218 334 1
228 334 1
233 334 1
105 335 1
136 335 1
148 335 1
219 335 1
229 335 1
234 335 1
99 336 1
137 336 1
149 336 1
220 336 1
230 336 1
235 336 1
114 337 1
125 337 1
130 337 1
264 337 1
280 337 1
291 337 1
115 338 1
126 338 1
131 338 1
265 338 1
274 338 1
292 338 1
116 339 1
120 339 1
132 339 1
266 339 1
275 339 1
293 339 1
117 340 1
121 340 1
133 340 1
260 340 1
276 340 1
294 340 1
118 341 1
122 341 1
127 341 1
261 341 1
277 341 1
288 341 1
119 342 1
123 342 1
128 342 1
262 342 1
278 342 1
289 342 1
113 343 1
124 343 1
129 343 1
263 343 1
279 343 1
290 343 1
111 344 1
121 344 1
137 344 1
271 344 1
277 344 1
287 344 1
112 345 1
122 345 1
138 345 1
272 345 1
278 345 1
281 345 1
106 346 1
123 346 1
139 346 1
273 346 1
279 346 1
282 346 1
107 347 1
124 347 1
140 347 1
267 347 1
280 347 1
283 347 1
108 348 1
125 348 1
134 348 1
268 348 1
274 348 1
284 348 1
109 349 1
126 349 1
135 349 1
269 349 1
275 349 1
285 349 1
110 350 1
120 350 1
136 350 1
270 350 1
276 350 1
286 350 1
107 351 1
118 351 1
144 351 1
257 351 1
284 351 1
294 351 1
108 352 1
119 352 1
145 352 1
258 352 1
285 352 1
288 352 1
109 353 1
113 353 1
146 353 1
259 353 1
286 353 1
289 353 1
110 354 1
114 354 1
147 354 1
253 354 1
287 354 1
290 354 1
111 355 1
115 355 1
141 355 1
254 355 1
281 355 1
291 355 1
112 356 1
116 356 1
142 356 1
255 356 1
282 356 1
292 356 1
106 357 1
117 357 1
143 357 1
256 357 1
283 357 1
293 357 1
93 358 1
104 358 1
151 358 1
259 358 1
270 358 1
285 358 1
94 359 1
105 359 1
152 359 1
253 359 1
271 359 1
286 359 1
95 360 1
99 360 1
153 360 1
254 360 1
272 360 1
287 360 1
96 361 1
100 361 1
154 361 1
255 361 1
273 361 1
281 361 1
97 362 1
101 362 1
148 362 1
256 362 1
267 362 1
282 362 1
98 363 1
102 363 1
149 363 1
257 363 1
268 363 1
283 363 1
92 364 1
103 364 1
150 364 1
258 364 1
269 364 1
284 364 1
90 365 1
100 365 1
158 365 1
256 365 1
266 365 1
292 365 1
91 366 1
101 366 1
159 366 1
257 366 1
260 366 1
293 366 1
85 367 1
102 367 1
160 367 1
258 367 1
261 367 1
294 367 1
86 368 1
103 368 1
161 368 1
259 368 1
262 368 1
288 368 1
87 369 1
104 369 1
155 369 1
253 369 1
263 369 1
289 369 1
88 370 1
105 370 1
156 370 1
254 370 1
264 370 1
290 370 1
89 371 1
99 371 1
157 371 1
255 371 1
265 371 1
291 371 1
86 372 1
97 372 1
165 372 1
263 372 1
273 372 1
278 372 1
87 373 1
98 373 1
166 373 1
264 373 1
267 373 1
279 373 1
88 374 1
92 374 1
167 374 1
265 374 1
268 374 1
280 374 1
89 375 1
93 375 1
168 375 1
266 375 1
269 375 1
274 375 1
90 376 1
94 376 1
162 376 1
260 376 1
270 376 1
275 376 1
91 377 1
95 377 1
163 377 1
261 377 1
271 377 1
276 377 1
85 378 1
96 378 1
164 378 1
262 378 1
272 378 1
277 378 1
88 379 1
156 379 1
167 379 1
306 379 1
322 379 1
333 379 1
89 380 1
157 380 1
168 380 1
307 380 1
316 380 1
334 380 1
90 381 1
158 381 1
162 381 1
308 381 1
317 381 1
335 381 1
91 382 1
159 382 1
163 382 1
302 382 1
318 382 1
336 382 1
85 383 1
160 383 1
164 383 1
303 383 1
319 383 1
330 383 1
86 384 1
161 384 1
165 384 1
304 384 1
320 384 1
331 384 1
87 385 1
155 385 1
166 385 1
305 385 1
321 385 1
332 385 1
95 386 1
153 386 1
163 386 1
313 386 1
319 386 1
329 386 1
96 387 1
154 387 1
164 387 1
314 387 1
320 387 1
323 387 1
97 388 1
148 388 1
165 388 1
315 388 1
321 388 1
324 388 1
98 389 1
149 389 1
166 389 1
309 389 1
322 389 1
325 389 1
92 390 1
150 390 1
167 390 1
310 390 1
316 390 1
326 390 1
93 391 1
151 391 1
168 391 1
311 391 1
317 391 1
327 391 1
94 392 1
152 392 1
162 392 1
312 392 1
318 392 1
328 392 1
102 393 1
149 393 1
160 393 1
299 393 1
326 393 1
336 393 1
103 394 1
150 394 1
161 394 1
300 394 1
327 394 1
330 394 1
104 395 1
151 395 1
155 395 1
301 395 1
328 395 1
331 395 1
105 396 1
152 396 1
156 396 1
295 396 1
329 396 1
332 396 1
99 397 1
153 397 1
157 397 1
296 397 1
323 397 1
333 397 1
100 398 1
154 398 1
158 398 1
297 398 1
324 398 1
334 398 1
101 399 1
148 399 1
159 399 1
298 399 1
325 399 1
335 399 1
109 400 1
135 400 1
146 400 1
301 400 1
312 400 1
327 400 1
110 401 1
136 401 1
147 401 1
295 401 1
313 401 1
328 401 1
111 402 1
137 402 1
141 402 1
296 402 1
314 402 1
329 402 1
112 403 1
138 403 1
142 403 1
297 403 1
315 403 1
323 403 1
106 404 1
139 404 1
143 404 1
298 404 1
309 404 1
324 404 1
107 405 1
140 405 1
144 405 1
299 405 1
310 405 1
325 405 1
108 406 1
134 406 1
145 406 1
300 406 1
311 406 1
326 406 1
116 407 1
132 407 1
142 407 1
298 407 1
308 407 1
334 407 1
117 408 1
133 408 1
143 408 1
299 408 1
302 408 1
335 408 1
118 409 1
127 409 1
144 409 1
300 409 1
303 409 1
336 409 1
119 410 1
128 410 1
145 410 1
301 410 1
304 410 1
330 410 1
113 411 1
129 411 1
146 411 1
295 411 1
305 411 1
331 411 1
114 412 1
130 412 1
147 412 1
296 412 1
306 412 1
332 412 1
115 413 1
131 413 1
141 413 1
297 413 1
307 413 1
333 413 1
123 414 1
128 414 1
139 414 1
305 414 1
315 414 1
320 414 1
124 415 1
129 415 1
140 415 1
306 415 1
309 415 1
321 415 1
125 416 1
130 416 1
134 416 1
307 416 1
310 416 1
322 416 1
126 417 1
131 417 1
135 417 1
308 417 1
311 417 1
316 417 1
120 418 1
132 418 1
136 418 1
302 418 1
312 418 1
317 418 1
121 419 1
133 419 1
137 419 1
303 419 1
313 419 1
318 419 1
122 420 1
127 420 1
138 420 1
304 420 1
314 420 1
319 420 1
198 421 1
209 421 1
214 421 1
262 421 1
292 421 1
317 421 1
199 422 1
210 422 1
215 422 1
263 422 1
293 422 1
318 422 1
200 423 1
204 423 1
216 423 1
264 423 1
294 423 1
319 423 1
201 424 1
205 424 1
217 424 1
265 424 1
288 424 1
320 424 1
202 425 1
206 425 1
211 425 1
266 425 1
289 425 1
321 425 1
203 426 1
207 426 1
212 426 1
260 426 1
290 426 1
322 426 1
197 427 1
208 427 1
213 427 1
261 427 1
291 427 1
316 427 1
195 428 1
205 428 1
221 428 1
269 428 1
278 428 1
324 428 1
196 429 1
206 429 1
222 429 1
270 429 1
279 429 1
325 429 1
190 430 1
207 430 1
223 430 1
271 430 1
280 430 1
326 430 1
191 431 1
208 431 1
224 431 1
272 431 1
274 431 1
327 431 1
192 432 1
209 432 1
218 432 1
273 432 1
275 432 1
328 432 1
193 433 1
210 433 1
219 433 1
267 433 1
276 433 1
329 433 1
194 434 1
204 434 1
220 434 1
268 434 1
277 434 1
323 434 1
191 435 1
202 435 1
228 435 1
255 435 1
285 435 1
331 435 1
192 436 1
203 436 1
229 436 1
256 436 1
286 436 1
332 436 1
193 437 1
197 437 1
230 437 1
257 437 1
287 437 1
333 437 1
194 438 1
198 438 1
231 438 1
258 438 1
281 438 1
334 438 1
195 439 1
199 439 1
225 439 1
259 439 1
282 439 1
335 439 1
196 440 1
200 440 1
226 440 1
253 440 1
283 440 1
336 440 1
190 441 1
201 441 1
227 441 1
254 441 1
284 441 1
330 441 1
177 442 1
188 442 1
235 442 1
271 442 1
283 442 1
296 442 1
178 443 1
189 443 1
236 443 1
272 443 1
284 443 1
297 443 1
179 444 1
183 444 1
237 444 1
273 444 1
285 444 1
298 444 1
180 445 1
184 445 1
238 445 1
267 445 1
286 445 1
299 445 1
181 446 1
185 446 1
232 446 1
268 446 1
287 446 1
300 446 1
182 447 1
186 447 1
233 447 1
269 447 1
281 447 1
301 447 1
176 448 1
187 448 1
234 448 1
270 448 1
282 448 1
295 448 1
174 449 1
184 449 1
242 449 1
257 449 1
290 449 1
303 449 1
175 450 1
185 450 1
243 450 1
258 450 1
291 450 1
304 450 1
169 451 1
186 451 1
244 451 1
259 451 1
292 451 1
305 451 1
170 452 1
187 452 1
245 452 1
253 452 1
293 452 1
306 452 1
171 453 1
188 453 1
239 453 1
254 453 1
294 453 1
307 453 1
172 454 1
189 454 1
240 454 1
255 454 1
288 454 1
308 454 1
173 455 1
183 455 1
241 455 1
256 455 1
289 455 1
302 455 1
170 456 1
181 456 1
249 456 1
264 456 1
276 456 1
310 456 1
171 457 1
182 457 1
250 457 1
265 457 1
277 457 1
311 457 1
172 458 1
176 458 1
251 458 1
266 458 1
278 458 1
312 458 1
173 459 1
177 459 1
252 459 1
260 459 1
279 459 1
313 459 1
174 460 1
178 460 1
246 460 1
261 460 1
280 460 1
314 460 1
175 461 1
179 461 1
247 461 1
262 461 1
274 461 1
315 461 1
169 462 1
180 462 1
248 462 1
263 462 1
275 462 1
309 462 1
172 463 1
240 463 1
251 463 1
275 463 1
304 463 1
334 463 1
173 464 1
241 464 1
252 464 1
276 464 1
305 464 1
335 464 1
174 465 1
242 465 1
246 465 1
277 465 1
306 465 1
336 465 1
175 466 1
243 466 1
247 466 1
278 466 1
307 466 1
330 466 1
169 467 1
244 467 1
248 467 1
279 467 1
308 467 1
331 467 1
170 468 1
245 468 1
249 468 1
280 468 1
302 468 1
332 468 1
171 469 1
239 469 1
250 469 1
274 469 1
303 469 1
333 469 1
179 470 1
237 470 1
247 470 1
282 470 1
311 470 1
320 470 1
180 471 1
238 471 1
248 471 1
283 471 1
312 471 1
321 471 1
181 472 1
232 472 1
249 472 1
284 472 1
313 472 1
322 472 1
182 473 1
233 473 1
250 473 1
285 473 1
314 473 1
316 473 1
176 474 1
234 474 1
251 474 1
286 474 1
315 474 1
317 474 1
177 475 1
235 475 1
252 475 1
287 475 1
309 475 1
318 475 1
178 476 1
236 476 1
246 476 1
281 476 1
310 476 1
319 476 1
186 477 1
233 477 1
244 477 1
289 477 1
297 477 1
327 477 1
187 478 1
234 478 1
245 478 1
290 478 1
298 478 1
328 478 1
188 479 1
235 479 1
239 479 1
291 479 1
299 479 1
329 479 1
189 480 1
236 480 1
240 480 1
292 480 1
300 480 1
323 480 1
183 481 1
237 481 1
241 481 1
293 481 1
301 481 1
324 481 1
184 482 1
238 482 1
242 482 1
294 482 1
295 482 1
325 482 1
185 483 1
232 483 1
243 483 1
288 483 1
296 483 1
326 483 1
193 484 1
219 484 1
230 484 1
254 484 1
313 484 1
325 484 1
194 485 1
220 485 1
231 485 1
255 485 1
314 485 1
326 485 1
195 486 1
221 486 1
225 486 1
256 486 1
315 486 1
327 486 1
196 487 1
222 487 1
226 487 1
257 487 1
309 487 1
328 487 1
190 488 1
223 488 1
227 488 1
258 488 1
310 488 1
329 488 1
191 489 1
224 489 1
228 489 1
259 489 1
311 489 1
323 489 1
192 490 1
218 490 1
229 490 1
253 490 1
312 490 1
324 490 1
200 491 1
216 491 1
226 491 1
261 491 1
299 491 1
332 491 1
201 492 1
217 492 1
227 492 1
262 492 1
300 492 1
333 492 1
202 493 1
211 493 1
228 493 1
263 493 1
301 493 1
334 493 1
203 494 1
212 494 1
229 494 1
264 494 1
295 494 1
335 494 1
197 495 1
213 495 1
230 495 1
265 495 1
296 495 1
336 495 1
198 496 1
214 496 1
231 496 1
266 496 1
297 496 1
330 496 1
199 497 1
215 497 1
225 497 1
260 497 1
298 497 1
331 497 1
207 498 1
212 498 1
223 498 1
268 498 1
306 498 1
318 498 1
208 499 1
213 499 1
224 499 1
269 499 1
307 499 1
319 499 1
209 500 1
214 500 1
218 500 1
270 500 1
308 500 1
320 500 1
210 501 1
215 501 1
219 501 1
271 501 1
302 501 1
321 501 1
204 502 1
216 502 1
220 502 1
272 502 1
303 502 1
322 502 1
205 503 1
217 503 1
221 503 1
273 503 1
304 503 1
316 503 1
206 504 1
211 504 1
222 504 1
267 504 1
305 504 1
317 504 1
