%%MatrixMarket matrix coordinate integer general
% Binary matrix; one-based indices; arithmetic over GF(2)
320 480 1920
1 1 1
46 1 1
81 1 1
117 1 1
2 2 1
47 2 1
82 2 1
118 2 1
3 3 1
48 3 1
83 3 1
119 3 1
4 4 1
49 4 1
84 4 1
120 4 1
5 5 1
50 5 1
85 5 1
121 5 1
6 6 1
51 6 1
86 6 1
122 6 1
7 7 1
52 7 1
87 7 1
123 7 1
8 8 1
53 8 1
88 8 1
124 8 1
9 9 1
54 9 1
89 9 1
125 9 1
10 10 1
55 10 1
90 10 1
126 10 1
11 11 1
56 11 1
91 11 1
127 11 1
12 12 1
57 12 1
92 12 1
128 12 1
13 13 1
58 13 1
93 13 1
129 13 1
14 14 1
59 14 1
94 14 1
130 14 1
15 15 1
60 15 1
95 15 1
131 15 1
16 16 1
61 16 1
96 16 1
132 16 1
17 17 1
62 17 1
97 17 1
133 17 1
18 18 1
63 18 1
98 18 1
134 18 1
19 19 1
64 19 1
99 19 1
135 19 1
20 20 1
65 20 1
100 20 1
136 20 1
21 21 1
66 21 1
101 21 1
137 21 1
22 22 1
67 22 1
102 22 1
138 22 1
23 23 1
68 23 1
103 23 1
139 23 1
24 24 1
69 24 1
104 24 1
140 24 1
25 25 1
70 25 1
105 25 1
141 25 1
26 26 1
71 26 1
106 26 1
142 26 1
27 27 1
72 27 1
107 27 1
143 27 1
28 28 1
73 28 1
108 28 1
144 28 1
29 29 1
74 29 1
109 29 1
145 29 1
30 30 1
75 30 1
110 30 1
146 30 1
31 31 1
76 31 1
111 31 1
147 31 1
32 32 1
77 32 1
112 32 1
148 32 1
33 33 1
78 33 1
113 33 1
149 33 1
34 34 1
79 34 1
114 34 1
150 34 1
35 35 1
80 35 1
115 35 1
151 35 1
1 36 1
36 36 1
116 36 1
152 36 1
2 37 1
37 37 1
117 37 1
153 37 1
3 38 1
38 38 1
118 38 1
154 38 1
4 39 1
39 39 1
119 39 1
155 39 1
5 40 1
40 40 1
120 40 1
156 40 1
6 41 1
41 41 1
121 41 1
157 41 1
7 42 1
42 42 1
122 42 1
158 42 1
8 43 1
43 43 1
123 43 1
159 43 1
9 44 1
44 44 1
124 44 1
160 44 1
10 45 1
45 45 1
81 45 1
125 45 1
11 46 1
46 46 1
82 46 1
126 46 1
12 47 1
47 47 1
83 47 1
127 47 1
13 48 1
48 48 1
84 48 1
128 48 1
14 49 1
49 49 1
85 49 1
129 49 1
15 50 1
50 50 1
86 50 1
130 50 1
16 51 1
51 51 1
87 51 1
131 51 1
17 52 1
52 52 1
88 52 1
132 52 1
18 53 1
53 53 1
89 53 1
133 53 1
19 54 1
54 54 1
90 54 1
134 54 1
20 55 1
55 55 1
91 55 1
135 55 1
21 56 1
56 56 1
92 56 1
136 56 1
22 57 1
57 57 1
93 57 1
137 57 1
23 58 1
58 58 1
94 58 1
138 58 1
24 59 1
59 59 1
95 59 1
139 59 1
25 60 1
60 60 1
96 60 1
140 60 1
26 61 1
61 61 1
97 61 1
141 61 1
27 62 1
62 62 1
98 62 1
142 62 1
28 63 1
63 63 1
99 63 1
143 63 1
29 64 1
64 64 1
100 64 1
144 64 1
30 65 1
65 65 1
101 65 1
145 65 1
31 66 1
66 66 1
102 66 1
146 66 1
32 67 1
67 67 1
103 67 1
147 67 1
33 68 1
68 68 1
104 68 1
148 68 1
34 69 1
69 69 1
105 69 1
149 69 1
35 70 1
70 70 1
106 70 1
150 70 1
36 71 1
71 71 1
107 71 1
151 71 1
37 72 1
72 72 1
108 72 1
152 72 1
38 73 1
73 73 1
109 73 1
153 73 1
39 74 1
74 74 1
110 74 1
154 74 1
40 75 1
75 75 1
111 75 1
155 75 1
41 76 1
76 76 1
112 76 1
156 76 1
42 77 1
77 77 1
113 77 1
157 77 1
43 78 1
78 78 1
114 78 1
158 78 1
44 79 1
79 79 1
115 79 1
159 79 1
45 80 1
80 80 1
116 80 1
160 80 1
1 81 1
68 81 1
161 81 1
197 81 1
2 82 1
69 82 1
162 82 1
198 82 1
3 83 1
70 83 1
163 83 1
199 83 1
4 84 1
71 84 1
164 84 1
200 84 1
5 85 1
72 85 1
165 85 1
201 85 1
6 86 1
73 86 1
166 86 1
202 86 1
7 87 1
74 87 1
167 87 1
203 87 1
8 88 1
75 88 1
168 88 1
204 88 1
9 89 1
76 89 1
169 89 1
205 89 1
10 90 1
77 90 1
170 90 1
206 90 1
11 91 1
78 91 1
171 91 1
207 91 1
12 92 1
79 92 1
172 92 1
208 92 1
13 93 1
80 93 1
173 93 1
209 93 1
1 94 1
14 94 1
174 94 1
210 94 1
2 95 1
15 95 1
175 95 1
211 95 1
3 96 1
16 96 1
176 96 1
212 96 1
4 97 1
17 97 1
177 97 1
213 97 1
5 98 1
18 98 1
178 98 1
214 98 1
6 99 1
19 99 1
179 99 1
215 99 1
7 100 1
20 100 1
180 100 1
216 100 1
8 101 1
21 101 1
181 101 1
217 101 1
9 102 1
22 102 1
182 102 1
218 102 1
10 103 1
23 103 1
183 103 1
219 103 1
11 104 1
24 104 1
184 104 1
220 104 1
12 105 1
25 105 1
185 105 1
221 105 1
13 106 1
26 106 1
186 106 1
222 106 1
14 107 1
27 107 1
187 107 1
223 107 1
15 108 1
28 108 1
188 108 1
224 108 1
16 109 1
29 109 1
189 109 1
225 109 1
17 110 1
30 110 1
190 110 1
226 110 1
18 111 1
31 111 1
191 111 1
227 111 1
19 112 1
32 112 1
192 112 1
228 112 1
20 113 1
33 113 1
193 113 1
229 113 1
21 114 1
34 114 1
194 114 1
230 114 1
22 115 1
35 115 1
195 115 1
231 115 1
23 116 1
36 116 1
196 116 1
232 116 1
24 117 1
37 117 1
197 117 1
233 117 1
25 118 1
38 118 1
198 118 1
234 118 1
26 119 1
39 119 1
199 119 1
235 119 1
27 120 1
40 120 1
200 120 1
236 120 1
28 121 1
41 121 1
201 121 1
237 121 1
29 122 1
42 122 1
202 122 1
238 122 1
30 123 1
43 123 1
203 123 1
239 123 1
31 124 1
44 124 1
204 124 1
240 124 1
32 125 1
45 125 1
161 125 1
205 125 1
33 126 1
46 126 1
162 126 1
206 126 1
34 127 1
47 127 1
163 127 1
207 127 1
35 128 1
48 128 1
164 128 1
208 128 1
36 129 1
49 129 1
165 129 1
209 129 1
37 130 1
50 130 1
166 130 1
210 130 1
38 131 1
51 131 1
167 131 1
211 131 1
39 132 1
52 132 1
168 132 1
212 132 1
40 133 1
53 133 1
169 133 1
213 133 1
41 134 1
54 134 1
170 134 1
214 134 1
42 135 1
55 135 1
171 135 1
215 135 1
43 136 1
56 136 1
172 136 1
216 136 1
44 137 1
57 137 1
173 137 1
217 137 1
45 138 1
58 138 1
174 138 1
218 138 1
46 139 1
59 139 1
175 139 1
219 139 1
47 140 1
60 140 1
176 140 1
220 140 1
48 141 1
61 141 1
177 141 1
221 141 1
49 142 1
62 142 1
178 142 1
222 142 1
50 143 1
63 143 1
179 143 1
223 143 1
51 144 1
64 144 1
180 144 1
224 144 1
52 145 1
65 145 1
181 145 1
225 145 1
53 146 1
66 146 1
182 146 1
226 146 1
54 147 1
67 147 1
183 147 1
227 147 1
55 148 1
68 148 1
184 148 1
228 148 1
56 149 1
69 149 1
185 149 1
229 149 1
57 150 1
70 150 1
186 150 1
230 150 1
58 151 1
71 151 1
187 151 1
231 151 1
59 152 1
72 152 1
188 152 1
232 152 1
60 153 1
73 153 1
189 153 1
233 153 1
61 154 1
74 154 1
190 154 1
234 154 1
62 155 1
75 155 1
191 155 1
235 155 1
63 156 1
76 156 1
192 156 1
236 156 1
64 157 1
77 157 1
193 157 1
237 157 1
65 158 1
78 158 1
194 158 1
238 158 1
66 159 1
79 159 1
195 159 1
239 159 1
67 160 1
80 160 1
196 160 1
240 160 1
81 161 1
148 161 1
161 161 1
206 161 1
82 162 1
149 162 1
162 162 1
207 162 1
83 163 1
150 163 1
163 163 1
208 163 1
84 164 1
151 164 1
164 164 1
209 164 1
85 165 1
152 165 1
165 165 1
210 165 1
86 166 1
153 166 1
166 166 1
211 166 1
87 167 1
154 167 1
167 167 1
212 167 1
88 168 1
155 168 1
168 168 1
213 168 1
89 169 1
156 169 1
169 169 1
214 169 1
90 170 1
157 170 1
170 170 1
215 170 1
91 171 1
158 171 1
171 171 1
216 171 1
92 172 1
159 172 1
172 172 1
217 172 1
93 173 1
160 173 1
173 173 1
218 173 1
81 174 1
94 174 1
174 174 1
219 174 1
82 175 1
95 175 1
175 175 1
220 175 1
83 176 1
96 176 1
176 176 1
221 176 1
84 177 1
97 177 1
177 177 1
222 177 1
85 178 1
98 178 1
178 178 1
223 178 1
86 179 1
99 179 1
179 179 1
224 179 1
87 180 1
100 180 1
180 180 1
225 180 1
88 181 1
101 181 1
181 181 1
226 181 1
89 182 1
102 182 1
182 182 1
227 182 1
90 183 1
103 183 1
183 183 1
228 183 1
91 184 1
104 184 1
184 184 1
229 184 1
92 185 1
105 185 1
185 185 1
230 185 1
93 186 1
106 186 1
186 186 1
231 186 1
94 187 1
107 187 1
187 187 1
232 187 1
95 188 1
108 188 1
188 188 1
233 188 1
96 189 1
109 189 1
189 189 1
234 189 1
97 190 1
110 190 1
190 190 1
235 190 1
98 191 1
111 191 1
191 191 1
236 191 1
99 192 1
112 192 1
192 192 1
237 192 1
100 193 1
113 193 1
193 193 1
238 193 1
101 194 1
114 194 1
194 194 1
239 194 1
102 195 1
115 195 1
195 195 1
240 195 1
103 196 1
116 196 1
161 196 1
196 196 1
104 197 1
117 197 1
162 197 1
197 197 1
105 198 1
118 198 1
163 198 1
198 198 1
106 199 1
119 199 1
164 199 1
199 199 1
107 200 1
120 200 1
165 200 1
200 200 1
108 201 1
121 201 1
166 201 1
201 201 1
109 202 1
122 202 1
167 202 1
202 202 1
110 203 1
123 203 1
168 203 1
203 203 1
111 204 1
124 204 1
169 204 1
204 204 1
112 205 1
125 205 1
170 205 1
205 205 1
113 206 1
126 206 1
171 206 1
206 206 1
114 207 1
127 207 1
172 207 1
207 207 1
115 208 1
128 208 1
173 208 1
208 208 1
116 209 1
129 209 1
174 209 1
209 209 1
117 210 1
130 210 1
175 210 1
210 210 1
118 211 1
131 211 1
176 211 1
211 211 1
119 212 1
132 212 1
177 212 1
212 212 1
120 213 1
133 213 1
178 213 1
213 213 1
121 214 1
134 214 1
179 214 1
214 214 1
122 215 1
135 215 1
180 215 1
215 215 1
123 216 1
136 216 1
181 216 1
216 216 1
124 217 1
137 217 1
182 217 1
217 217 1
125 218 1
138 218 1
183 218 1
218 218 1
126 219 1
139 219 1
184 219 1
219 219 1
127 220 1
140 220 1
185 220 1
220 220 1
128 221 1
141 221 1
186 221 1
221 221 1
129 222 1
142 222 1
187 222 1
222 222 1
130 223 1
143 223 1
188 223 1
223 223 1
131 224 1
144 224 1
189 224 1
224 224 1
132 225 1
145 225 1
190 225 1
225 225 1
133 226 1
146 226 1
191 226 1
226 226 1
134 227 1
147 227 1
192 227 1
227 227 1
135 228 1
148 228 1
193 228 1
228 228 1
136 229 1
149 229 1
194 229 1
229 229 1
137 230 1
150 230 1
195 230 1
230 230 1
138 231 1
151 231 1
196 231 1
231 231 1
139 232 1
152 232 1
197 232 1
232 232 1
140 233 1
153 233 1
198 233 1
233 233 1
141 234 1
154 234 1
199 234 1
234 234 1
142 235 1
155 235 1
200 235 1
235 235 1
143 236 1
156 236 1
201 236 1
236 236 1
144 237 1
157 237 1
202 237 1
237 237 1
145 238 1
158 238 1
203 238 1
238 238 1
146 239 1
159 239 1
204 239 1
239 239 1
147 240 1
160 240 1
205 240 1
240 240 1
1 241 1
74 241 1
241 241 1
277 241 1
2 242 1
75 242 1
242 242 1
278 242 1
3 243 1
76 243 1
243 243 1
279 243 1
4 244 1
77 244 1
244 244 1
280 244 1
5 245 1
78 245 1
245 245 1
281 245 1
6 246 1
79 246 1
246 246 1
282 246 1
7 247 1
80 247 1
247 247 1
283 247 1
1 248 1
8 248 1
248 248 1
284 248 1
2 249 1
9 249 1
249 249 1
285 249 1
3 250 1
10 250 1
250 250 1
286 250 1
4 251 1
11 251 1
251 251 1
287 251 1
5 252 1
12 252 1
252 252 1
288 252 1
6 253 1
13 253 1
253 253 1
289 253 1
7 254 1
14 254 1
254 254 1
290 254 1
8 255 1
15 255 1
255 255 1
291 255 1
9 256 1
16 256 1
256 256 1
292 256 1
10 257 1
17 257 1
257 257 1
293 257 1
11 258 1
18 258 1
258 258 1
294 258 1
12 259 1
19 259 1
259 259 1
295 259 1
13 260 1
20 260 1
260 260 1
296 260 1
14 261 1
21 261 1
261 261 1
297 261 1
15 262 1
22 262 1
262 262 1
298 262 1
16 263 1
23 263 1
263 263 1
299 263 1
17 264 1
24 264 1
264 264 1
300 264 1
18 265 1
25 265 1
265 265 1
301 265 1
19 266 1
26 266 1
266 266 1
302 266 1
20 267 1
27 267 1
267 267 1
303 267 1
21 268 1
28 268 1
268 268 1
304 268 1
22 269 1
29 269 1
269 269 1
305 269 1
23 270 1
30 270 1
270 270 1
306 270 1
24 271 1
31 271 1
271 271 1
307 271 1
25 272 1
32 272 1
272 272 1
308 272 1
26 273 1
33 273 1
273 273 1
309 273 1
27 274 1
34 274 1
274 274 1
310 274 1
28 275 1
35 275 1
275 275 1
311 275 1
29 276 1
36 276 1
276 276 1
312 276 1
30 277 1
37 277 1
277 277 1
313 277 1
31 278 1
38 278 1
278 278 1
314 278 1
32 279 1
39 279 1
279 279 1
315 279 1
33 280 1
40 280 1
280 280 1
316 280 1
34 281 1
41 281 1
281 281 1
317 281 1
35 282 1
42 282 1
282 282 1
318 282 1
36 283 1
43 283 1
283 283 1
319 283 1
37 284 1
44 284 1
284 284 1
320 284 1
38 285 1
45 285 1
241 285 1
285 285 1
39 286 1
46 286 1
242 286 1
286 286 1
40 287 1
47 287 1
243 287 1
287 287 1
41 288 1
48 288 1
244 288 1
288 288 1
42 289 1
49 289 1
245 289 1
289 289 1
43 290 1
50 290 1
246 290 1
290 290 1
44 291 1
51 291 1
247 291 1
291 291 1
45 292 1
52 292 1
248 292 1
292 292 1
46 293 1
53 293 1
249 293 1
293 293 1
47 294 1
54 294 1
250 294 1
294 294 1
48 295 1
55 295 1
251 295 1
295 295 1
49 296 1
56 296 1
252 296 1
296 296 1
50 297 1
57 297 1
253 297 1
297 297 1
51 298 1
58 298 1
254 298 1
298 298 1
52 299 1
59 299 1
255 299 1
299 299 1
53 300 1
60 300 1
256 300 1
300 300 1
54 301 1
61 301 1
257 301 1
301 301 1
55 302 1
62 302 1
258 302 1
302 302 1
56 303 1
63 303 1
259 303 1
303 303 1
57 304 1
64 304 1
260 304 1
304 304 1
58 305 1
65 305 1
261 305 1
305 305 1
59 306 1
66 306 1
262 306 1
306 306 1
60 307 1
67 307 1
263 307 1
307 307 1
61 308 1
68 308 1
264 308 1
308 308 1
62 309 1
69 309 1
265 309 1
309 309 1
63 310 1
70 310 1
266 310 1
310 310 1
64 311 1
71 311 1
267 311 1
311 311 1
65 312 1
72 312 1
268 312 1
312 312 1
66 313 1
73 313 1
269 313 1
313 313 1
67 314 1
74 314 1
270 314 1
314 314 1
68 315 1
75 315 1
271 315 1
315 315 1
69 316 1
76 316 1
272 316 1
316 316 1
70 317 1
77 317 1
273 317 1
317 317 1
71 318 1
78 318 1
274 318 1
318 318 1
72 319 1
79 319 1
275 319 1
319 319 1
73 320 1
80 320 1
276 320 1
320 320 1
81 321 1
154 321 1
241 321 1
286 321 1
82 322 1
155 322 1
242 322 1
287 322 1
83 323 1
156 323 1
243 323 1
288 323 1
84 324 1
157 324 1
244 324 1
289 324 1
85 325 1
158 325 1
245 325 1
290 325 1
86 326 1
159 326 1
246 326 1
291 326 1
87 327 1
160 327 1
247 327 1
292 327 1
81 328 1
88 328 1
248 328 1
293 328 1
82 329 1
89 329 1
249 329 1
294 329 1
83 330 1
90 330 1
250 330 1
295 330 1
84 331 1
91 331 1
251 331 1
296 331 1
85 332 1
92 332 1
252 332 1
297 332 1
86 333 1
93 333 1
253 333 1
298 333 1
87 334 1
94 334 1
254 334 1
299 334 1
88 335 1
95 335 1
255 335 1
300 335 1
89 336 1
96 336 1
256 336 1
301 336 1
90 337 1
97 337 1
257 337 1
302 337 1
91 338 1
98 338 1
258 338 1
303 338 1
92 339 1
99 339 1
259 339 1
304 339 1
93 340 1
100 340 1
260 340 1
305 340 1
94 341 1
101 341 1
261 341 1
306 341 1
95 342 1
102 342 1
262 342 1
307 342 1
96 343 1
103 343 1
263 343 1
308 343 1
97 344 1
104 344 1
264 344 1
309 344 1
98 345 1
105 345 1
265 345 1
310 345 1
99 346 1
106 346 1
266 346 1
311 346 1
100 347 1
107 347 1
267 347 1
312 347 1
101 348 1
108 348 1
268 348 1
313 348 1
102 349 1
109 349 1
269 349 1
314 349 1
103 350 1
110 350 1
270 350 1
315 350 1
104 351 1
111 351 1
271 351 1
316 351 1
105 352 1
112 352 1
272 352 1
317 352 1
106 353 1
113 353 1
273 353 1
318 353 1
107 354 1
114 354 1
274 354 1
319 354 1
108 355 1
115 355 1
275 355 1
320 355 1
109 356 1
116 356 1
241 356 1
276 356 1
110 357 1
117 357 1
242 357 1
277 357 1
111 358 1
118 358 1
243 358 1
278 358 1
112 359 1
119 359 1
244 359 1
279 359 1
113 360 1
120 360 1
245 360 1
280 360 1
114 361 1
121 361 1
246 361 1
281 361 1
115 362 1
122 362 1
247 362 1
282 362 1
116 363 1
123 363 1
248 363 1
283 363 1
117 364 1
124 364 1
249 364 1
284 364 1
118 365 1
125 365 1
250 365 1
285 365 1
119 366 1
126 366 1
251 366 1
286 366 1
120 367 1
127 367 1
252 367 1
287 367 1
121 368 1
128 368 1
253 368 1
288 368 1
122 369 1
129 369 1
254 369 1
289 369 1
123 370 1
130 370 1
255 370 1
290 370 1
124 371 1
131 371 1
256 371 1
291 371 1
125 372 1
132 372 1
257 372 1
292 372 1
126 373 1
133 373 1
258 373 1
293 373 1
127 374 1
134 374 1
259 374 1
294 374 1
128 375 1
135 375 1
260 375 1
295 375 1
129 376 1
136 376 1
261 376 1
296 376 1
130 377 1
137 377 1
262 377 1
297 377 1
131 378 1
138 378 1
263 378 1
298 378 1
132 379 1
139 379 1
264 379 1
299 379 1
133 380 1
140 380 1
265 380 1
300 380 1
134 381 1
141 381 1
266 381 1
301 381 1
135 382 1
142 382 1
267 382 1
302 382 1
136 383 1
143 383 1
268 383 1
303 383 1
137 384 1
144 384 1
269 384 1
304 384 1
138 385 1
145 385 1
270 385 1
305 385 1
139 386 1
146 386 1
271 386 1
306 386 1
140 387 1
147 387 1
272 387 1
307 387 1
141 388 1
148 388 1
273 388 1
308 388 1
142 389 1
149 389 1
274 389 1
309 389 1
143 390 1
150 390 1
275 390 1
310 390 1
144 391 1
151 391 1
276 391 1
311 391 1
145 392 1
152 392 1
277 392 1
312 392 1
146 393 1
153 393 1
278 393 1
313 393 1
147 394 1
154 394 1
279 394 1
314 394 1
148 395 1
155 395 1
280 395 1
315 395 1
149 396 1
156 396 1
281 396 1
316 396 1
150 397 1
157 397 1
282 397 1
317 397 1
151 398 1
158 398 1
283 398 1
318 398 1
152 399 1
159 399 1
284 399 1
319 399 1
153 400 1
160 400 1
285 400 1
320 400 1
161 401 1
234 401 1
241 401 1
308 401 1
162 402 1
235 402 1
242 402 1
309 402 1
163 403 1
236 403 1
243 403 1
310 403 1
164 404 1
237 404 1
244 404 1
311 404 1
165 405 1
238 405 1
245 405 1
312 405 1
166 406 1
239 406 1
246 406 1
313 406 1
167 407 1
240 407 1
247 407 1
314 407 1
161 408 1
168 408 1
248 408 1
315 408 1
162 409 1
169 409 1
249 409 1
316 409 1
163 410 1
170 410 1
250 410 1
317 410 1
164 411 1
171 411 1
251 411 1
318 411 1
165 412 1
172 412 1
252 412 1
319 412 1
166 413 1
173 413 1
253 413 1
320 413 1
167 414 1
174 414 1
241 414 1
254 414 1
168 415 1
175 415 1
242 415 1
255 415 1
169 416 1
176 416 1
243 416 1
256 416 1
170 417 1
177 417 1
244 417 1
257 417 1
171 418 1
178 418 1
245 418 1
258 418 1
172 419 1
179 419 1
246 419 1
259 419 1
173 420 1
180 420 1
247 420 1
260 420 1
174 421 1
181 421 1
248 421 1
261 421 1
175 422 1
182 422 1
249 422 1
262 422 1
176 423 1
183 423 1
250 423 1
263 423 1
177 424 1
184 424 1
251 424 1
264 424 1
178 425 1
185 425 1
252 425 1
265 425 1
179 426 1
186 426 1
253 426 1
266 426 1
180 427 1
187 427 1
254 427 1
267 427 1
181 428 1
188 428 1
255 428 1
268 428 1
182 429 1
189 429 1
256 429 1
269 429 1
183 430 1
190 430 1
257 430 1
270 430 1
184 431 1
191 431 1
258 431 1
271 431 1
185 432 1
192 432 1
259 432 1
272 432 1
186 433 1
193 433 1
260 433 1
273 433 1
187 434 1
194 434 1
261 434 1
274 434 1
188 435 1
195 435 1
262 435 1
275 435 1
189 436 1
196 436 1
263 436 1
276 436 1
190 437 1
197 437 1
264 437 1
277 437 1
191 438 1
198 438 1
265 438 1
278 438 1
192 439 1
199 439 1
266 439 1
279 439 1
193 440 1
200 440 1
267 440 1
280 440 1
194 441 1
201 441 1
268 441 1
281 441 1
195 442 1
202 442 1
269 442 1
282 442 1
196 443 1
203 443 1
270 443 1
283 443 1
197 444 1
204 444 1
271 444 1
284 444 1
198 445 1
205 445 1
272 445 1
285 445 1
199 446 1
206 446 1
273 446 1
286 446 1
200 447 1
207 447 1
274 447 1
287 447 1
201 448 1
208 448 1
275 448 1
288 448 1
202 449 1
209 449 1
276 449 1
289 449 1
203 450 1
210 450 1
277 450 1
290 450 1
204 451 1
211 451 1
278 451 1
291 451 1
205 452 1
212 452 1
279 452 1
292 452 1
206 453 1
213 453 1
280 453 1
293 453 1
207 454 1
214 454 1
281 454 1
294 454 1
208 455 1
215 455 1
282 455 1
295 455 1
209 456 1
216 456 1
283 456 1
296 456 1
210 457 1
217 457 1
284 457 1
297 457 1
211 458 1
218 458 1
285 458 1
298 458 1
212 459 1
219 459 1
286 459 1
299 459 1
213 460 1
220 460 1
287 460 1
300 460 1
214 461 1
221 461 1
288 461 1
301 461 1
215 462 1
222 462 1
289 462 1
302 462 1
216 463 1
223 463 1
290 463 1
303 463 1
217 464 1
224 464 1
291 464 1
304 464 1
218 465 1
225 465 1
292 465 1
305 465 1
219 466 1
226 466 1
293 466 1
306 466 1
220 467 1
227 467 1
294 467 1
307 467 1
221 468 1
228 468 1
295 468 1
308 468 1
222 469 1
229 469 1
296 469 1
309 469 1
223 470 1
230 470 1
297 470 1
310 470 1
224 471 1
231 471 1
298 471 1
311 471 1
225 472 1
232 472 1
299 472 1
312 472 1
226 473 1
233 473 1
300 473 1
313 473 1
227 474 1
234 474 1
301 474 1
314 474 1
228 475 1
235 475 1
302 475 1
315 475 1
229 476 1
236 476 1
303 476 1
316 476 1
230 477 1
237 477 1
304 477 1
317 477 1
231 478 1
238 478 1
305 478 1
318 478 1
232 479 1
239 479 1
306 479 1
319 479 1
233 480 1
240 480 1
307 480 1
320 480 1
