%%MatrixMarket matrix coordinate integer general
% Binary matrix; one-based indices; arithmetic over GF(2)
1008 1512 12096
1 1 1
5 1 1
13 1 1
16 1 1
25 1 1
27 1 1
37 1 1
38 1 1
2 2 1
6 2 1
14 2 1
17 2 1
26 2 1
28 2 1
38 2 1
39 2 1
3 3 1
7 3 1
15 3 1
18 3 1
27 3 1
29 3 1
39 3 1
40 3 1
4 4 1
8 4 1
16 4 1
19 4 1
28 4 1
30 4 1
40 4 1
41 4 1
5 5 1
9 5 1
17 5 1
20 5 1
29 5 1
31 5 1
41 5 1
42 5 1
6 6 1
10 6 1
18 6 1
21 6 1
30 6 1
32 6 1
42 6 1
43 6 1
7 7 1
11 7 1
19 7 1
22 7 1
31 7 1
33 7 1
43 7 1
44 7 1
8 8 1
12 8 1
20 8 1
23 8 1
32 8 1
34 8 1
44 8 1
45 8 1
1 9 1
9 9 1
21 9 1
24 9 1
33 9 1
35 9 1
45 9 1
46 9 1
2 10 1
10 10 1
13 10 1
22 10 1
34 10 1
36 10 1
46 10 1
47 10 1
3 11 1
11 11 1
14 11 1
23 11 1
25 11 1
35 11 1
47 11 1
48 11 1
4 12 1
12 12 1
15 12 1
24 12 1
26 12 1
36 12 1
37 12 1
48 12 1
1 13 1
6 13 1
49 13 1
52 13 1
61 13 1
63 13 1
73 13 1
74 13 1
2 14 1
7 14 1
50 14 1
53 14 1
62 14 1
64 14 1
74 14 1
75 14 1
3 15 1
8 15 1
51 15 1
54 15 1
63 15 1
65 15 1
75 15 1
76 15 1
4 16 1
9 16 1
52 16 1
55 16 1
64 16 1
66 16 1
76 16 1
77 16 1
5 17 1
10 17 1
53 17 1
56 17 1
65 17 1
67 17 1
77 17 1
78 17 1
6 18 1
11 18 1
54 18 1
57 18 1
66 18 1
68 18 1
78 18 1
79 18 1
7 19 1
12 19 1
55 19 1
58 19 1
67 19 1
69 19 1
79 19 1
80 19 1
1 20 1
8 20 1
56 20 1
59 20 1
68 20 1
70 20 1
80 20 1
81 20 1
2 21 1
9 21 1
57 21 1
60 21 1
69 21 1
71 21 1
81 21 1
82 21 1
3 22 1
10 22 1
49 22 1
58 22 1
70 22 1
72 22 1
82 22 1
83 22 1
4 23 1
11 23 1
50 23 1
59 23 1
61 23 1
71 23 1
83 23 1
84 23 1
5 24 1
12 24 1
51 24 1
60 24 1
62 24 1
72 24 1
73 24 1
84 24 1
13 25 1
18 25 1
49 25 1
53 25 1
85 25 1
87 25 1
97 25 1
98 25 1
14 26 1
19 26 1
50 26 1
54 26 1
86 26 1
88 26 1
98 26 1
99 26 1
15 27 1
20 27 1
51 27 1
55 27 1
87 27 1
89 27 1
99 27 1
100 27 1
16 28 1
21 28 1
52 28 1
56 28 1
88 28 1
90 28 1
100 28 1
101 28 1
17 29 1
22 29 1
53 29 1
57 29 1
89 29 1
91 29 1
101 29 1
102 29 1
18 30 1
23 30 1
54 30 1
58 30 1
90 30 1
92 30 1
102 30 1
103 30 1
19 31 1
24 31 1
55 31 1
59 31 1
91 31 1
93 31 1
103 31 1
104 31 1
13 32 1
20 32 1
56 32 1
60 32 1
92 32 1
94 32 1
104 32 1
105 32 1
14 33 1
21 33 1
49 33 1
57 33 1
93 33 1
95 33 1
105 33 1
106 33 1
15 34 1
22 34 1
50 34 1
58 34 1
94 34 1
96 34 1
106 34 1
107 34 1
16 35 1
23 35 1
51 35 1
59 35 1
85 35 1
95 35 1
107 35 1
108 35 1
17 36 1
24 36 1
52 36 1
60 36 1
86 36 1
96 36 1
97 36 1
108 36 1
25 37 1
30 37 1
61 37 1
65 37 1
85 37 1
88 37 1
109 37 1
110 37 1
26 38 1
31 38 1
62 38 1
66 38 1
86 38 1
89 38 1
110 38 1
111 38 1
27 39 1
32 39 1
63 39 1
67 39 1
87 39 1
90 39 1
111 39 1
112 39 1
28 40 1
33 40 1
64 40 1
68 40 1
88 40 1
91 40 1
112 40 1
113 40 1
29 41 1
34 41 1
65 41 1
69 41 1
89 41 1
92 41 1
113 41 1
114 41 1
30 42 1
35 42 1
66 42 1
70 42 1
90 42 1
93 42 1
114 42 1
115 42 1
31 43 1
36 43 1
67 43 1
71 43 1
91 43 1
94 43 1
115 43 1
116 43 1
25 44 1
32 44 1
68 44 1
72 44 1
92 44 1
95 44 1
116 44 1
117 44 1
26 45 1
33 45 1
61 45 1
69 45 1
93 45 1
96 45 1
117 45 1
118 45 1
27 46 1
34 46 1
62 46 1
70 46 1
85 46 1
94 46 1
118 46 1
119 46 1
28 47 1
35 47 1
63 47 1
71 47 1
86 47 1
95 47 1
119 47 1
120 47 1
29 48 1
36 48 1
64 48 1
72 48 1
87 48 1
96 48 1
109 48 1
120 48 1
37 49 1
42 49 1
73 49 1
77 49 1
97 49 1
100 49 1
109 49 1
111 49 1
38 50 1
43 50 1
74 50 1
78 50 1
98 50 1
101 50 1
110 50 1
112 50 1
39 51 1
44 51 1
75 51 1
79 51 1
99 51 1
102 51 1
111 51 1
113 51 1
40 52 1
45 52 1
76 52 1
80 52 1
100 52 1
103 52 1
112 52 1
114 52 1
41 53 1
46 53 1
77 53 1
81 53 1
101 53 1
104 53 1
113 53 1
115 53 1
42 54 1
47 54 1
78 54 1
82 54 1
102 54 1
105 54 1
114 54 1
116 54 1
43 55 1
48 55 1
79 55 1
83 55 1
103 55 1
106 55 1
115 55 1
117 55 1
37 56 1
44 56 1
80 56 1
84 56 1
104 56 1
107 56 1
116 56 1
118 56 1
38 57 1
45 57 1
73 57 1
81 57 1
105 57 1
108 57 1
117 57 1
119 57 1
39 58 1
46 58 1
74 58 1
82 58 1
97 58 1
106 58 1
118 58 1
120 58 1
40 59 1
47 59 1
75 59 1
83 59 1
98 59 1
107 59 1
109 59 1
119 59 1
41 60 1
48 60 1
76 60 1
84 60 1
99 60 1
108 60 1
110 60 1
120 60 1
1 61 1
8 61 1
121 61 1
124 61 1
133 61 1
135 61 1
145 61 1
146 61 1
2 62 1
9 62 1
122 62 1
125 62 1
134 62 1
136 62 1
146 62 1
147 62 1
3 63 1
10 63 1
123 63 1
126 63 1
135 63 1
137 63 1
147 63 1
148 63 1
4 64 1
11 64 1
124 64 1
127 64 1
136 64 1
138 64 1
148 64 1
149 64 1
5 65 1
12 65 1
125 65 1
128 65 1
137 65 1
139 65 1
149 65 1
150 65 1
1 66 1
6 66 1
126 66 1
129 66 1
138 66 1
140 66 1
150 66 1
151 66 1
2 67 1
7 67 1
127 67 1
130 67 1
139 67 1
141 67 1
151 67 1
152 67 1
3 68 1
8 68 1
128 68 1
131 68 1
140 68 1
142 68 1
152 68 1
153 68 1
4 69 1
9 69 1
129 69 1
132 69 1
141 69 1
143 69 1
153 69 1
154 69 1
5 70 1
10 70 1
121 70 1
130 70 1
142 70 1
144 70 1
154 70 1
155 70 1
6 71 1
11 71 1
122 71 1
131 71 1
133 71 1
143 71 1
155 71 1
156 71 1
7 72 1
12 72 1
123 72 1
132 72 1
134 72 1
144 72 1
145 72 1
156 72 1
13 73 1
20 73 1
121 73 1
125 73 1
157 73 1
159 73 1
169 73 1
170 73 1
14 74 1
21 74 1
122 74 1
126 74 1
158 74 1
160 74 1
170 74 1
171 74 1
15 75 1
22 75 1
123 75 1
127 75 1
159 75 1
161 75 1
171 75 1
172 75 1
16 76 1
23 76 1
124 76 1
128 76 1
160 76 1
162 76 1
172 76 1
173 76 1
17 77 1
24 77 1
125 77 1
129 77 1
161 77 1
163 77 1
173 77 1
174 77 1
13 78 1
18 78 1
126 78 1
130 78 1
162 78 1
164 78 1
174 78 1
175 78 1
14 79 1
19 79 1
127 79 1
131 79 1
163 79 1
165 79 1
175 79 1
176 79 1
15 80 1
20 80 1
128 80 1
132 80 1
164 80 1
166 80 1
176 80 1
177 80 1
16 81 1
21 81 1
121 81 1
129 81 1
165 81 1
167 81 1
177 81 1
178 81 1
17 82 1
22 82 1
122 82 1
130 82 1
166 82 1
168 82 1
178 82 1
179 82 1
18 83 1
23 83 1
123 83 1
131 83 1
157 83 1
167 83 1
179 83 1
180 83 1
19 84 1
24 84 1
124 84 1
132 84 1
158 84 1
168 84 1
169 84 1
180 84 1
25 85 1
32 85 1
133 85 1
137 85 1
157 85 1
160 85 1
181 85 1
182 85 1
26 86 1
33 86 1
134 86 1
138 86 1
158 86 1
161 86 1
182 86 1
183 86 1
27 87 1
34 87 1
135 87 1
139 87 1
159 87 1
162 87 1
183 87 1
184 87 1
28 88 1
35 88 1
136 88 1
140 88 1
160 88 1
163 88 1
184 88 1
185 88 1
29 89 1
36 89 1
137 89 1
141 89 1
161 89 1
164 89 1
185 89 1
186 89 1
25 90 1
30 90 1
138 90 1
142 90 1
162 90 1
165 90 1
186 90 1
187 90 1
26 91 1
31 91 1
139 91 1
143 91 1
163 91 1
166 91 1
187 91 1
188 91 1
27 92 1
32 92 1
140 92 1
144 92 1
164 92 1
167 92 1
188 92 1
189 92 1
28 93 1
33 93 1
133 93 1
141 93 1
165 93 1
168 93 1
189 93 1
190 93 1
29 94 1
34 94 1
134 94 1
142 94 1
157 94 1
166 94 1
190 94 1
191 94 1
30 95 1
35 95 1
135 95 1
143 95 1
158 95 1
167 95 1
191 95 1
192 95 1
31 96 1
36 96 1
136 96 1
144 96 1
159 96 1
168 96 1
181 96 1
192 96 1
37 97 1
44 97 1
145 97 1
149 97 1
169 97 1
172 97 1
181 97 1
183 97 1
38 98 1
45 98 1
146 98 1
150 98 1
170 98 1
173 98 1
182 98 1
184 98 1
39 99 1
46 99 1
147 99 1
151 99 1
171 99 1
174 99 1
183 99 1
185 99 1
40 100 1
47 100 1
148 100 1
152 100 1
172 100 1
175 100 1
184 100 1
186 100 1
41 101 1
48 101 1
149 101 1
153 101 1
173 101 1
176 101 1
185 101 1
187 101 1
37 102 1
42 102 1
150 102 1
154 102 1
174 102 1
177 102 1
186 102 1
188 102 1
38 103 1
43 103 1
151 103 1
155 103 1
175 103 1
178 103 1
187 103 1
189 103 1
39 104 1
44 104 1
152 104 1
156 104 1
176 104 1
179 104 1
188 104 1
190 104 1
40 105 1
45 105 1
145 105 1
153 105 1
177 105 1
180 105 1
189 105 1
191 105 1
41 106 1
46 106 1
146 106 1
154 106 1
169 106 1
178 106 1
190 106 1
192 106 1
42 107 1
47 107 1
147 107 1
155 107 1
170 107 1
179 107 1
181 107 1
191 107 1
43 108 1
48 108 1
148 108 1
156 108 1
171 108 1
180 108 1
182 108 1
192 108 1
49 109 1
56 109 1
121 109 1
126 109 1
193 109 1
195 109 1
205 109 1
206 109 1
50 110 1
57 110 1
122 110 1
127 110 1
194 110 1
196 110 1
206 110 1
207 110 1
51 111 1
58 111 1
123 111 1
128 111 1
195 111 1
197 111 1
207 111 1
208 111 1
52 112 1
59 112 1
124 112 1
129 112 1
196 112 1
198 112 1
208 112 1
209 112 1
53 113 1
60 113 1
125 113 1
130 113 1
197 113 1
199 113 1
209 113 1
210 113 1
49 114 1
54 114 1
126 114 1
131 114 1
198 114 1
200 114 1
210 114 1
211 114 1
50 115 1
55 115 1
127 115 1
132 115 1
199 115 1
201 115 1
211 115 1
212 115 1
51 116 1
56 116 1
121 116 1
128 116 1
200 116 1
202 116 1
212 116 1
213 116 1
52 117 1
57 117 1
122 117 1
129 117 1
201 117 1
203 117 1
213 117 1
214 117 1
53 118 1
58 118 1
123 118 1
130 118 1
202 118 1
204 118 1
214 118 1
215 118 1
54 119 1
59 119 1
124 119 1
131 119 1
193 119 1
203 119 1
215 119 1
216 119 1
55 120 1
60 120 1
125 120 1
132 120 1
194 120 1
204 120 1
205 120 1
216 120 1
61 121 1
68 121 1
133 121 1
138 121 1
193 121 1
196 121 1
217 121 1
218 121 1
62 122 1
69 122 1
134 122 1
139 122 1
194 122 1
197 122 1
218 122 1
219 122 1
63 123 1
70 123 1
135 123 1
140 123 1
195 123 1
198 123 1
219 123 1
220 123 1
64 124 1
71 124 1
136 124 1
141 124 1
196 124 1
199 124 1
220 124 1
221 124 1
65 125 1
72 125 1
137 125 1
142 125 1
197 125 1
200 125 1
221 125 1
222 125 1
61 126 1
66 126 1
138 126 1
143 126 1
198 126 1
201 126 1
222 126 1
223 126 1
62 127 1
67 127 1
139 127 1
144 127 1
199 127 1
202 127 1
223 127 1
224 127 1
63 128 1
68 128 1
133 128 1
140 128 1
200 128 1
203 128 1
224 128 1
225 128 1
64 129 1
69 129 1
134 129 1
141 129 1
201 129 1
204 129 1
225 129 1
226 129 1
65 130 1
70 130 1
135 130 1
142 130 1
193 130 1
202 130 1
226 130 1
227 130 1
66 131 1
71 131 1
136 131 1
143 131 1
194 131 1
203 131 1
227 131 1
228 131 1
67 132 1
72 132 1
137 132 1
144 132 1
195 132 1
204 132 1
217 132 1
228 132 1
73 133 1
80 133 1
145 133 1
150 133 1
205 133 1
208 133 1
217 133 1
219 133 1
74 134 1
81 134 1
146 134 1
151 134 1
206 134 1
209 134 1
218 134 1
220 134 1
75 135 1
82 135 1
147 135 1
152 135 1
207 135 1
210 135 1
219 135 1
221 135 1
76 136 1
83 136 1
148 136 1
153 136 1
208 136 1
211 136 1
220 136 1
222 136 1
77 137 1
84 137 1
149 137 1
154 137 1
209 137 1
212 137 1
221 137 1
223 137 1
73 138 1
78 138 1
150 138 1
155 138 1
210 138 1
213 138 1
222 138 1
224 138 1
74 139 1
79 139 1
151 139 1
156 139 1
211 139 1
214 139 1
223 139 1
225 139 1
75 140 1
80 140 1
145 140 1
152 140 1
212 140 1
215 140 1
224 140 1
226 140 1
76 141 1
81 141 1
146 141 1
153 141 1
213 141 1
216 141 1
225 141 1
227 141 1
77 142 1
82 142 1
147 142 1
154 142 1
205 142 1
214 142 1
226 142 1
228 142 1
78 143 1
83 143 1
148 143 1
155 143 1
206 143 1
215 143 1
217 143 1
227 143 1
79 144 1
84 144 1
149 144 1
156 144 1
207 144 1
216 144 1
218 144 1
228 144 1
85 145 1
92 145 1
157 145 1
162 145 1
193 145 1
197 145 1
229 145 1
230 145 1
86 146 1
93 146 1
158 146 1
163 146 1
194 146 1
198 146 1
230 146 1
231 146 1
87 147 1
94 147 1
159 147 1
164 147 1
195 147 1
199 147 1
231 147 1
232 147 1
88 148 1
95 148 1
160 148 1
165 148 1
196 148 1
200 148 1
232 148 1
233 148 1
89 149 1
96 149 1
161 149 1
166 149 1
197 149 1
201 149 1
233 149 1
234 149 1
85 150 1
90 150 1
162 150 1
167 150 1
198 150 1
202 150 1
234 150 1
235 150 1
86 151 1
91 151 1
163 151 1
168 151 1
199 151 1
203 151 1
235 151 1
236 151 1
87 152 1
92 152 1
157 152 1
164 152 1
200 152 1
204 152 1
236 152 1
237 152 1
88 153 1
93 153 1
158 153 1
165 153 1
193 153 1
201 153 1
237 153 1
238 153 1
89 154 1
94 154 1
159 154 1
166 154 1
194 154 1
202 154 1
238 154 1
239 154 1
90 155 1
95 155 1
160 155 1
167 155 1
195 155 1
203 155 1
239 155 1
240 155 1
91 156 1
96 156 1
161 156 1
168 156 1
196 156 1
204 156 1
229 156 1
240 156 1
97 157 1
104 157 1
169 157 1
174 157 1
205 157 1
209 157 1
229 157 1
231 157 1
98 158 1
105 158 1
170 158 1
175 158 1
206 158 1
210 158 1
230 158 1
232 158 1
99 159 1
106 159 1
171 159 1
176 159 1
207 159 1
211 159 1
231 159 1
233 159 1
100 160 1
107 160 1
172 160 1
177 160 1
208 160 1
212 160 1
232 160 1
234 160 1
101 161 1
108 161 1
173 161 1
178 161 1
209 161 1
213 161 1
233 161 1
235 161 1
97 162 1
102 162 1
174 162 1
179 162 1
210 162 1
214 162 1
234 162 1
236 162 1
98 163 1
103 163 1
175 163 1
180 163 1
211 163 1
215 163 1
235 163 1
237 163 1
99 164 1
104 164 1
169 164 1
176 164 1
212 164 1
216 164 1
236 164 1
238 164 1
100 165 1
105 165 1
170 165 1
177 165 1
205 165 1
213 165 1
237 165 1
239 165 1
101 166 1
106 166 1
171 166 1
178 166 1
206 166 1
214 166 1
238 166 1
240 166 1
102 167 1
107 167 1
172 167 1
179 167 1
207 167 1
215 167 1
229 167 1
239 167 1
103 168 1
108 168 1
173 168 1
180 168 1
208 168 1
216 168 1
230 168 1
240 168 1
109 169 1
116 169 1
181 169 1
186 169 1
217 169 1
221 169 1
229 169 1
232 169 1
110 170 1
117 170 1
182 170 1
187 170 1
218 170 1
222 170 1
230 170 1
233 170 1
111 171 1
118 171 1
183 171 1
188 171 1
219 171 1
223 171 1
231 171 1
234 171 1
112 172 1
119 172 1
184 172 1
189 172 1
220 172 1
224 172 1
232 172 1
235 172 1
113 173 1
120 173 1
185 173 1
190 173 1
221 173 1
225 173 1
233 173 1
236 173 1
109 174 1
114 174 1
186 174 1
191 174 1
222 174 1
226 174 1
234 174 1
237 174 1
110 175 1
115 175 1
187 175 1
192 175 1
223 175 1
227 175 1
235 175 1
238 175 1
111 176 1
116 176 1
181 176 1
188 176 1
224 176 1
228 176 1
236 176 1
239 176 1
112 177 1
117 177 1
182 177 1
189 177 1
217 177 1
225 177 1
237 177 1
240 177 1
113 178 1
118 178 1
183 178 1
190 178 1
218 178 1
226 178 1
229 178 1
238 178 1
114 179 1
119 179 1
184 179 1
191 179 1
219 179 1
227 179 1
230 179 1
239 179 1
115 180 1
120 180 1
185 180 1
192 180 1
220 180 1
228 180 1
231 180 1
240 180 1
1 181 1
10 181 1
241 181 1
244 181 1
253 181 1
255 181 1
265 181 1
266 181 1
2 182 1
11 182 1
242 182 1
245 182 1
254 182 1
256 182 1
266 182 1
267 182 1
3 183 1
12 183 1
243 183 1
246 183 1
255 183 1
257 183 1
267 183 1
268 183 1
1 184 1
4 184 1
244 184 1
247 184 1
256 184 1
258 184 1
268 184 1
269 184 1
2 185 1
5 185 1
245 185 1
248 185 1
257 185 1
259 185 1
269 185 1
270 185 1
3 186 1
6 186 1
246 186 1
249 186 1
258 186 1
260 186 1
270 186 1
271 186 1
4 187 1
7 187 1
247 187 1
250 187 1
259 187 1
261 187 1
271 187 1
272 187 1
5 188 1
8 188 1
248 188 1
251 188 1
260 188 1
262 188 1
272 188 1
273 188 1
6 189 1
9 189 1
249 189 1
252 189 1
261 189 1
263 189 1
273 189 1
274 189 1
7 190 1
10 190 1
241 190 1
250 190 1
262 190 1
264 190 1
274 190 1
275 190 1
8 191 1
11 191 1
242 191 1
251 191 1
253 191 1
263 191 1
275 191 1
276 191 1
9 192 1
12 192 1
243 192 1
252 192 1
254 192 1
264 192 1
265 192 1
276 192 1
13 193 1
22 193 1
241 193 1
245 193 1
277 193 1
279 193 1
289 193 1
290 193 1
14 194 1
23 194 1
242 194 1
246 194 1
278 194 1
280 194 1
290 194 1
291 194 1
15 195 1
24 195 1
243 195 1
247 195 1
279 195 1
281 195 1
291 195 1
292 195 1
13 196 1
16 196 1
244 196 1
248 196 1
280 196 1
282 196 1
292 196 1
293 196 1
14 197 1
17 197 1
245 197 1
249 197 1
281 197 1
283 197 1
293 197 1
294 197 1
15 198 1
18 198 1
246 198 1
250 198 1
282 198 1
284 198 1
294 198 1
295 198 1
16 199 1
19 199 1
247 199 1
251 199 1
283 199 1
285 199 1
295 199 1
296 199 1
17 200 1
20 200 1
248 200 1
252 200 1
284 200 1
286 200 1
296 200 1
297 200 1
18 201 1
21 201 1
241 201 1
249 201 1
285 201 1
287 201 1
297 201 1
298 201 1
19 202 1
22 202 1
242 202 1
250 202 1
286 202 1
288 202 1
298 202 1
299 202 1
20 203 1
23 203 1
243 203 1
251 203 1
277 203 1
287 203 1
299 203 1
300 203 1
21 204 1
24 204 1
244 204 1
252 204 1
278 204 1
288 204 1
289 204 1
300 204 1
25 205 1
34 205 1
253 205 1
257 205 1
277 205 1
280 205 1
301 205 1
302 205 1
26 206 1
35 206 1
254 206 1
258 206 1
278 206 1
281 206 1
302 206 1
303 206 1
27 207 1
36 207 1
255 207 1
259 207 1
279 207 1
282 207 1
303 207 1
304 207 1
25 208 1
28 208 1
256 208 1
260 208 1
280 208 1
283 208 1
304 208 1
305 208 1
26 209 1
29 209 1
257 209 1
261 209 1
281 209 1
284 209 1
305 209 1
306 209 1
27 210 1
30 210 1
258 210 1
262 210 1
282 210 1
285 210 1
306 210 1
307 210 1
28 211 1
31 211 1
259 211 1
263 211 1
283 211 1
286 211 1
307 211 1
308 211 1
29 212 1
32 212 1
260 212 1
264 212 1
284 212 1
287 212 1
308 212 1
309 212 1
30 213 1
33 213 1
253 213 1
261 213 1
285 213 1
288 213 1
309 213 1
310 213 1
31 214 1
34 214 1
254 214 1
262 214 1
277 214 1
286 214 1
310 214 1
311 214 1
32 215 1
35 215 1
255 215 1
263 215 1
278 215 1
287 215 1
311 215 1
312 215 1
33 216 1
36 216 1
256 216 1
264 216 1
279 216 1
288 216 1
301 216 1
312 216 1
37 217 1
46 217 1
265 217 1
269 217 1
289 217 1
292 217 1
301 217 1
303 217 1
38 218 1
47 218 1
266 218 1
270 218 1
290 218 1
293 218 1
302 218 1
304 218 1
39 219 1
48 219 1
267 219 1
271 219 1
291 219 1
294 219 1
303 219 1
305 219 1
37 220 1
40 220 1
268 220 1
272 220 1
292 220 1
295 220 1
304 220 1
306 220 1
38 221 1
41 221 1
269 221 1
273 221 1
293 221 1
296 221 1
305 221 1
307 221 1
39 222 1
42 222 1
270 222 1
274 222 1
294 222 1
297 222 1
306 222 1
308 222 1
40 223 1
43 223 1
271 223 1
275 223 1
295 223 1
298 223 1
307 223 1
309 223 1
41 224 1
44 224 1
272 224 1
276 224 1
296 224 1
299 224 1
308 224 1
310 224 1
42 225 1
45 225 1
265 225 1
273 225 1
297 225 1
300 225 1
309 225 1
311 225 1
43 226 1
46 226 1
266 226 1
274 226 1
289 226 1
298 226 1
310 226 1
312 226 1
44 227 1
47 227 1
267 227 1
275 227 1
290 227 1
299 227 1
301 227 1
311 227 1
45 228 1
48 228 1
268 228 1
276 228 1
291 228 1
300 228 1
302 228 1
312 228 1
49 229 1
58 229 1
241 229 1
246 229 1
313 229 1
315 229 1
325 229 1
326 229 1
50 230 1
59 230 1
242 230 1
247 230 1
314 230 1
316 230 1
326 230 1
327 230 1
51 231 1
60 231 1
243 231 1
248 231 1
315 231 1
317 231 1
327 231 1
328 231 1
49 232 1
52 232 1
244 232 1
249 232 1
316 232 1
318 232 1
328 232 1
329 232 1
50 233 1
53 233 1
245 233 1
250 233 1
317 233 1
319 233 1
329 233 1
330 233 1
51 234 1
54 234 1
246 234 1
251 234 1
318 234 1
320 234 1
330 234 1
331 234 1
52 235 1
55 235 1
247 235 1
252 235 1
319 235 1
321 235 1
331 235 1
332 235 1
53 236 1
56 236 1
241 236 1
248 236 1
320 236 1
322 236 1
332 236 1
333 236 1
54 237 1
57 237 1
242 237 1
249 237 1
321 237 1
323 237 1
333 237 1
334 237 1
55 238 1
58 238 1
243 238 1
250 238 1
322 238 1
324 238 1
334 238 1
335 238 1
56 239 1
59 239 1
244 239 1
251 239 1
313 239 1
323 239 1
335 239 1
336 239 1
57 240 1
60 240 1
245 240 1
252 240 1
314 240 1
324 240 1
325 240 1
336 240 1
61 241 1
70 241 1
253 241 1
258 241 1
313 241 1
316 241 1
337 241 1
338 241 1
62 242 1
71 242 1
254 242 1
259 242 1
314 242 1
317 242 1
338 242 1
339 242 1
63 243 1
72 243 1
255 243 1
260 243 1
315 243 1
318 243 1
339 243 1
340 243 1
61 244 1
64 244 1
256 244 1
261 244 1
316 244 1
319 244 1
340 244 1
341 244 1
62 245 1
65 245 1
257 245 1
262 245 1
317 245 1
320 245 1
341 245 1
342 245 1
63 246 1
66 246 1
258 246 1
263 246 1
318 246 1
321 246 1
342 246 1
343 246 1
64 247 1
67 247 1
259 247 1
264 247 1
319 247 1
322 247 1
343 247 1
344 247 1
65 248 1
68 248 1
253 248 1
260 248 1
320 248 1
323 248 1
344 248 1
345 248 1
66 249 1
69 249 1
254 249 1
261 249 1
321 249 1
324 249 1
345 249 1
346 249 1
67 250 1
70 250 1
255 250 1
262 250 1
313 250 1
322 250 1
346 250 1
347 250 1
68 251 1
71 251 1
256 251 1
263 251 1
314 251 1
323 251 1
347 251 1
348 251 1
69 252 1
72 252 1
257 252 1
264 252 1
315 252 1
324 252 1
337 252 1
348 252 1
73 253 1
82 253 1
265 253 1
270 253 1
325 253 1
328 253 1
337 253 1
339 253 1
74 254 1
83 254 1
266 254 1
271 254 1
326 254 1
329 254 1
338 254 1
340 254 1
75 255 1
84 255 1
267 255 1
272 255 1
327 255 1
330 255 1
339 255 1
341 255 1
73 256 1
76 256 1
268 256 1
273 256 1
328 256 1
331 256 1
340 256 1
342 256 1
74 257 1
77 257 1
269 257 1
274 257 1
329 257 1
332 257 1
341 257 1
343 257 1
75 258 1
78 258 1
270 258 1
275 258 1
330 258 1
333 258 1
342 258 1
344 258 1
76 259 1
79 259 1
271 259 1
276 259 1
331 259 1
334 259 1
343 259 1
345 259 1
77 260 1
80 260 1
265 260 1
272 260 1
332 260 1
335 260 1
344 260 1
346 260 1
78 261 1
81 261 1
266 261 1
273 261 1
333 261 1
336 261 1
345 261 1
347 261 1
79 262 1
82 262 1
267 262 1
274 262 1
325 262 1
334 262 1
346 262 1
348 262 1
80 263 1
83 263 1
268 263 1
275 263 1
326 263 1
335 263 1
337 263 1
347 263 1
81 264 1
84 264 1
269 264 1
276 264 1
327 264 1
336 264 1
338 264 1
348 264 1
85 265 1
94 265 1
277 265 1
282 265 1
313 265 1
317 265 1
349 265 1
350 265 1
86 266 1
95 266 1
278 266 1
283 266 1
314 266 1
318 266 1
350 266 1
351 266 1
87 267 1
96 267 1
279 267 1
284 267 1
315 267 1
319 267 1
351 267 1
352 267 1
85 268 1
88 268 1
280 268 1
285 268 1
316 268 1
320 268 1
352 268 1
353 268 1
86 269 1
89 269 1
281 269 1
286 269 1
317 269 1
321 269 1
353 269 1
354 269 1
87 270 1
90 270 1
282 270 1
287 270 1
318 270 1
322 270 1
354 270 1
355 270 1
88 271 1
91 271 1
283 271 1
288 271 1
319 271 1
323 271 1
355 271 1
356 271 1
89 272 1
92 272 1
277 272 1
284 272 1
320 272 1
324 272 1
356 272 1
357 272 1
90 273 1
93 273 1
278 273 1
285 273 1
313 273 1
321 273 1
357 273 1
358 273 1
91 274 1
94 274 1
279 274 1
286 274 1
314 274 1
322 274 1
358 274 1
359 274 1
92 275 1
95 275 1
280 275 1
287 275 1
315 275 1
323 275 1
359 275 1
360 275 1
93 276 1
96 276 1
281 276 1
288 276 1
316 276 1
324 276 1
349 276 1
360 276 1
97 277 1
106 277 1
289 277 1
294 277 1
325 277 1
329 277 1
349 277 1
351 277 1
98 278 1
107 278 1
290 278 1
295 278 1
326 278 1
330 278 1
350 278 1
352 278 1
99 279 1
108 279 1
291 279 1
296 279 1
327 279 1
331 279 1
351 279 1
353 279 1
97 280 1
100 280 1
292 280 1
297 280 1
328 280 1
332 280 1
352 280 1
354 280 1
98 281 1
101 281 1
293 281 1
298 281 1
329 281 1
333 281 1
353 281 1
355 281 1
99 282 1
102 282 1
294 282 1
299 282 1
330 282 1
334 282 1
354 282 1
356 282 1
100 283 1
103 283 1
295 283 1
300 283 1
331 283 1
335 283 1
355 283 1
357 283 1
101 284 1
104 284 1
289 284 1
296 284 1
332 284 1
336 284 1
356 284 1
358 284 1
102 285 1
105 285 1
290 285 1
297 285 1
325 285 1
333 285 1
357 285 1
359 285 1
103 286 1
106 286 1
291 286 1
298 286 1
326 286 1
334 286 1
358 286 1
360 286 1
104 287 1
107 287 1
292 287 1
299 287 1
327 287 1
335 287 1
349 287 1
359 287 1
105 288 1
108 288 1
293 288 1
300 288 1
328 288 1
336 288 1
350 288 1
360 288 1
109 289 1
118 289 1
301 289 1
306 289 1
337 289 1
341 289 1
349 289 1
352 289 1
110 290 1
119 290 1
302 290 1
307 290 1
338 290 1
342 290 1
350 290 1
353 290 1
111 291 1
120 291 1
303 291 1
308 291 1
339 291 1
343 291 1
351 291 1
354 291 1
109 292 1
112 292 1
304 292 1
309 292 1
340 292 1
344 292 1
352 292 1
355 292 1
110 293 1
113 293 1
305 293 1
310 293 1
341 293 1
345 293 1
353 293 1
356 293 1
111 294 1
114 294 1
306 294 1
311 294 1
342 294 1
346 294 1
354 294 1
357 294 1
112 295 1
115 295 1
307 295 1
312 295 1
343 295 1
347 295 1
355 295 1
358 295 1
113 296 1
116 296 1
301 296 1
308 296 1
344 296 1
348 296 1
356 296 1
359 296 1
114 297 1
117 297 1
302 297 1
309 297 1
337 297 1
345 297 1
357 297 1
360 297 1
115 298 1
118 298 1
303 298 1
310 298 1
338 298 1
346 298 1
349 298 1
358 298 1
116 299 1
119 299 1
304 299 1
311 299 1
339 299 1
347 299 1
350 299 1
359 299 1
117 300 1
120 300 1
305 300 1
312 300 1
340 300 1
348 300 1
351 300 1
360 300 1
121 301 1
130 301 1
241 301 1
248 301 1
361 301 1
363 301 1
373 301 1
374 301 1
122 302 1
131 302 1
242 302 1
249 302 1
362 302 1
364 302 1
374 302 1
375 302 1
123 303 1
132 303 1
243 303 1
250 303 1
363 303 1
365 303 1
375 303 1
376 303 1
121 304 1
124 304 1
244 304 1
251 304 1
364 304 1
366 304 1
376 304 1
377 304 1
122 305 1
125 305 1
245 305 1
252 305 1
365 305 1
367 305 1
377 305 1
378 305 1
123 306 1
126 306 1
241 306 1
246 306 1
366 306 1
368 306 1
378 306 1
379 306 1
124 307 1
127 307 1
242 307 1
247 307 1
367 307 1
369 307 1
379 307 1
380 307 1
125 308 1
128 308 1
243 308 1
248 308 1
368 308 1
370 308 1
380 308 1
381 308 1
126 309 1
129 309 1
244 309 1
249 309 1
369 309 1
371 309 1
381 309 1
382 309 1
127 310 1
130 310 1
245 310 1
250 310 1
370 310 1
372 310 1
382 310 1
383 310 1
128 311 1
131 311 1
246 311 1
251 311 1
361 311 1
371 311 1
383 311 1
384 311 1
129 312 1
132 312 1
247 312 1
252 312 1
362 312 1
372 312 1
373 312 1
384 312 1
133 313 1
142 313 1
253 313 1
260 313 1
361 313 1
364 313 1
385 313 1
386 313 1
134 314 1
143 314 1
254 314 1
261 314 1
362 314 1
365 314 1
386 314 1
387 314 1
135 315 1
144 315 1
255 315 1
262 315 1
363 315 1
366 315 1
387 315 1
388 315 1
133 316 1
136 316 1
256 316 1
263 316 1
364 316 1
367 316 1
388 316 1
389 316 1
134 317 1
137 317 1
257 317 1
264 317 1
365 317 1
368 317 1
389 317 1
390 317 1
135 318 1
138 318 1
253 318 1
258 318 1
366 318 1
369 318 1
390 318 1
391 318 1
136 319 1
139 319 1
254 319 1
259 319 1
367 319 1
370 319 1
391 319 1
392 319 1
137 320 1
140 320 1
255 320 1
260 320 1
368 320 1
371 320 1
392 320 1
393 320 1
138 321 1
141 321 1
256 321 1
261 321 1
369 321 1
372 321 1
393 321 1
394 321 1
139 322 1
142 322 1
257 322 1
262 322 1
361 322 1
370 322 1
394 322 1
395 322 1
140 323 1
143 323 1
258 323 1
263 323 1
362 323 1
371 323 1
395 323 1
396 323 1
141 324 1
144 324 1
259 324 1
264 324 1
363 324 1
372 324 1
385 324 1
396 324 1
145 325 1
154 325 1
265 325 1
272 325 1
373 325 1
376 325 1
385 325 1
387 325 1
146 326 1
155 326 1
266 326 1
273 326 1
374 326 1
377 326 1
386 326 1
388 326 1
147 327 1
156 327 1
267 327 1
274 327 1
375 327 1
378 327 1
387 327 1
389 327 1
145 328 1
148 328 1
268 328 1
275 328 1
376 328 1
379 328 1
388 328 1
390 328 1
146 329 1
149 329 1
269 329 1
276 329 1
377 329 1
380 329 1
389 329 1
391 329 1
147 330 1
150 330 1
265 330 1
270 330 1
378 330 1
381 330 1
390 330 1
392 330 1
148 331 1
151 331 1
266 331 1
271 331 1
379 331 1
382 331 1
391 331 1
393 331 1
149 332 1
152 332 1
267 332 1
272 332 1
380 332 1
383 332 1
392 332 1
394 332 1
150 333 1
153 333 1
268 333 1
273 333 1
381 333 1
384 333 1
393 333 1
395 333 1
151 334 1
154 334 1
269 334 1
274 334 1
373 334 1
382 334 1
394 334 1
396 334 1
152 335 1
155 335 1
270 335 1
275 335 1
374 335 1
383 335 1
385 335 1
395 335 1
153 336 1
156 336 1
271 336 1
276 336 1
375 336 1
384 336 1
386 336 1
396 336 1
157 337 1
166 337 1
277 337 1
284 337 1
361 337 1
365 337 1
397 337 1
398 337 1
158 338 1
167 338 1
278 338 1
285 338 1
362 338 1
366 338 1
398 338 1
399 338 1
159 339 1
168 339 1
279 339 1
286 339 1
363 339 1
367 339 1
399 339 1
400 339 1
157 340 1
160 340 1
280 340 1
287 340 1
364 340 1
368 340 1
400 340 1
401 340 1
158 341 1
161 341 1
281 341 1
288 341 1
365 341 1
369 341 1
401 341 1
402 341 1
159 342 1
162 342 1
277 342 1
282 342 1
366 342 1
370 342 1
402 342 1
403 342 1
160 343 1
163 343 1
278 343 1
283 343 1
367 343 1
371 343 1
403 343 1
404 343 1
161 344 1
164 344 1
279 344 1
284 344 1
368 344 1
372 344 1
404 344 1
405 344 1
162 345 1
165 345 1
280 345 1
285 345 1
361 345 1
369 345 1
405 345 1
406 345 1
163 346 1
166 346 1
281 346 1
286 346 1
362 346 1
370 346 1
406 346 1
407 346 1
164 347 1
167 347 1
282 347 1
287 347 1
363 347 1
371 347 1
407 347 1
408 347 1
165 348 1
168 348 1
283 348 1
288 348 1
364 348 1
372 348 1
397 348 1
408 348 1
169 349 1
178 349 1
289 349 1
296 349 1
373 349 1
377 349 1
397 349 1
399 349 1
170 350 1
179 350 1
290 350 1
297 350 1
374 350 1
378 350 1
398 350 1
400 350 1
171 351 1
180 351 1
291 351 1
298 351 1
375 351 1
379 351 1
399 351 1
401 351 1
169 352 1
172 352 1
292 352 1
299 352 1
376 352 1
380 352 1
400 352 1
402 352 1
170 353 1
173 353 1
293 353 1
300 353 1
377 353 1
381 353 1
401 353 1
403 353 1
171 354 1
174 354 1
289 354 1
294 354 1
378 354 1
382 354 1
402 354 1
404 354 1
172 355 1
175 355 1
290 355 1
295 355 1
379 355 1
383 355 1
403 355 1
405 355 1
173 356 1
176 356 1
291 356 1
296 356 1
380 356 1
384 356 1
404 356 1
406 356 1
174 357 1
177 357 1
292 357 1
297 357 1
373 357 1
381 357 1
405 357 1
407 357 1
175 358 1
178 358 1
293 358 1
298 358 1
374 358 1
382 358 1
406 358 1
408 358 1
176 359 1
179 359 1
294 359 1
299 359 1
375 359 1
383 359 1
397 359 1
407 359 1
177 360 1
180 360 1
295 360 1
300 360 1
376 360 1
384 360 1
398 360 1
408 360 1
181 361 1
190 361 1
301 361 1
308 361 1
385 361 1
389 361 1
397 361 1
400 361 1
182 362 1
191 362 1
302 362 1
309 362 1
386 362 1
390 362 1
398 362 1
401 362 1
183 363 1
192 363 1
303 363 1
310 363 1
387 363 1
391 363 1
399 363 1
402 363 1
181 364 1
184 364 1
304 364 1
311 364 1
388 364 1
392 364 1
400 364 1
403 364 1
182 365 1
185 365 1
305 365 1
312 365 1
389 365 1
393 365 1
401 365 1
404 365 1
183 366 1
186 366 1
301 366 1
306 366 1
390 366 1
394 366 1
402 366 1
405 366 1
184 367 1
187 367 1
302 367 1
307 367 1
391 367 1
395 367 1
403 367 1
406 367 1
185 368 1
188 368 1
303 368 1
308 368 1
392 368 1
396 368 1
404 368 1
407 368 1
186 369 1
189 369 1
304 369 1
309 369 1
385 369 1
393 369 1
405 369 1
408 369 1
187 370 1
190 370 1
305 370 1
310 370 1
386 370 1
394 370 1
397 370 1
406 370 1
188 371 1
191 371 1
306 371 1
311 371 1
387 371 1
395 371 1
398 371 1
407 371 1
189 372 1
192 372 1
307 372 1
312 372 1
388 372 1
396 372 1
399 372 1
408 372 1
193 373 1
202 373 1
313 373 1
320 373 1
361 373 1
366 373 1
409 373 1
410 373 1
194 374 1
203 374 1
314 374 1
321 374 1
362 374 1
367 374 1
410 374 1
411 374 1
195 375 1
204 375 1
315 375 1
322 375 1
363 375 1
368 375 1
411 375 1
412 375 1
193 376 1
196 376 1
316 376 1
323 376 1
364 376 1
369 376 1
412 376 1
413 376 1
194 377 1
197 377 1
317 377 1
324 377 1
365 377 1
370 377 1
413 377 1
414 377 1
195 378 1
198 378 1
313 378 1
318 378 1
366 378 1
371 378 1
414 378 1
415 378 1
196 379 1
199 379 1
314 379 1
319 379 1
367 379 1
372 379 1
415 379 1
416 379 1
197 380 1
200 380 1
315 380 1
320 380 1
361 380 1
368 380 1
416 380 1
417 380 1
198 381 1
201 381 1
316 381 1
321 381 1
362 381 1
369 381 1
417 381 1
418 381 1
199 382 1
202 382 1
317 382 1
322 382 1
363 382 1
370 382 1
418 382 1
419 382 1
200 383 1
203 383 1
318 383 1
323 383 1
364 383 1
371 383 1
419 383 1
420 383 1
201 384 1
204 384 1
319 384 1
324 384 1
365 384 1
372 384 1
409 384 1
420 384 1
205 385 1
214 385 1
325 385 1
332 385 1
373 385 1
378 385 1
409 385 1
411 385 1
206 386 1
215 386 1
326 386 1
333 386 1
374 386 1
379 386 1
410 386 1
412 386 1
207 387 1
216 387 1
327 387 1
334 387 1
375 387 1
380 387 1
411 387 1
413 387 1
205 388 1
208 388 1
328 388 1
335 388 1
376 388 1
381 388 1
412 388 1
414 388 1
206 389 1
209 389 1
329 389 1
336 389 1
377 389 1
382 389 1
413 389 1
415 389 1
207 390 1
210 390 1
325 390 1
330 390 1
378 390 1
383 390 1
414 390 1
416 390 1
208 391 1
211 391 1
326 391 1
331 391 1
379 391 1
384 391 1
415 391 1
417 391 1
209 392 1
212 392 1
327 392 1
332 392 1
373 392 1
380 392 1
416 392 1
418 392 1
210 393 1
213 393 1
328 393 1
333 393 1
374 393 1
381 393 1
417 393 1
419 393 1
211 394 1
214 394 1
329 394 1
334 394 1
375 394 1
382 394 1
418 394 1
420 394 1
212 395 1
215 395 1
330 395 1
335 395 1
376 395 1
383 395 1
409 395 1
419 395 1
213 396 1
216 396 1
331 396 1
336 396 1
377 396 1
384 396 1
410 396 1
420 396 1
217 397 1
226 397 1
337 397 1
344 397 1
385 397 1
390 397 1
409 397 1
412 397 1
218 398 1
227 398 1
338 398 1
345 398 1
386 398 1
391 398 1
410 398 1
413 398 1
219 399 1
228 399 1
339 399 1
346 399 1
387 399 1
392 399 1
411 399 1
414 399 1
217 400 1
220 400 1
340 400 1
347 400 1
388 400 1
393 400 1
412 400 1
415 400 1
218 401 1
221 401 1
341 401 1
348 401 1
389 401 1
394 401 1
413 401 1
416 401 1
219 402 1
222 402 1
337 402 1
342 402 1
390 402 1
395 402 1
414 402 1
417 402 1
220 403 1
223 403 1
338 403 1
343 403 1
391 403 1
396 403 1
415 403 1
418 403 1
221 404 1
224 404 1
339 404 1
344 404 1
385 404 1
392 404 1
416 404 1
419 404 1
222 405 1
225 405 1
340 405 1
345 405 1
386 405 1
393 405 1
417 405 1
420 405 1
223 406 1
226 406 1
341 406 1
346 406 1
387 406 1
394 406 1
409 406 1
418 406 1
224 407 1
227 407 1
342 407 1
347 407 1
388 407 1
395 407 1
410 407 1
419 407 1
225 408 1
228 408 1
343 408 1
348 408 1
389 408 1
396 408 1
411 408 1
420 408 1
229 409 1
238 409 1
349 409 1
356 409 1
397 409 1
402 409 1
409 409 1
413 409 1
230 410 1
239 410 1
350 410 1
357 410 1
398 410 1
403 410 1
410 410 1
414 410 1
231 411 1
240 411 1
351 411 1
358 411 1
399 411 1
404 411 1
411 411 1
415 411 1
229 412 1
232 412 1
352 412 1
359 412 1
400 412 1
405 412 1
412 412 1
416 412 1
230 413 1
233 413 1
353 413 1
360 413 1
401 413 1
406 413 1
413 413 1
417 413 1
231 414 1
234 414 1
349 414 1
354 414 1
402 414 1
407 414 1
414 414 1
418 414 1
232 415 1
235 415 1
350 415 1
355 415 1
403 415 1
408 415 1
415 415 1
419 415 1
233 416 1
236 416 1
351 416 1
356 416 1
397 416 1
404 416 1
416 416 1
420 416 1
234 417 1
237 417 1
352 417 1
357 417 1
398 417 1
405 417 1
409 417 1
417 417 1
235 418 1
238 418 1
353 418 1
358 418 1
399 418 1
406 418 1
410 418 1
418 418 1
236 419 1
239 419 1
354 419 1
359 419 1
400 419 1
407 419 1
411 419 1
419 419 1
237 420 1
240 420 1
355 420 1
360 420 1
401 420 1
408 420 1
412 420 1
420 420 1
1 421 1
11 421 1
421 421 1
424 421 1
433 421 1
435 421 1
445 421 1
446 421 1
2 422 1
12 422 1
422 422 1
425 422 1
434 422 1
436 422 1
446 422 1
447 422 1
1 423 1
3 423 1
423 423 1
426 423 1
435 423 1
437 423 1
447 423 1
448 423 1
2 424 1
4 424 1
424 424 1
427 424 1
436 424 1
438 424 1
448 424 1
449 424 1
3 425 1
5 425 1
425 425 1
428 425 1
437 425 1
439 425 1
449 425 1
450 425 1
4 426 1
6 426 1
426 426 1
429 426 1
438 426 1
440 426 1
450 426 1
451 426 1
5 427 1
7 427 1
427 427 1
430 427 1
439 427 1
441 427 1
451 427 1
452 427 1
6 428 1
8 428 1
428 428 1
431 428 1
440 428 1
442 428 1
452 428 1
453 428 1
7 429 1
9 429 1
429 429 1
432 429 1
441 429 1
443 429 1
453 429 1
454 429 1
8 430 1
10 430 1
421 430 1
430 430 1
442 430 1
444 430 1
454 430 1
455 430 1
9 431 1
11 431 1
422 431 1
431 431 1
433 431 1
443 431 1
455 431 1
456 431 1
10 432 1
12 432 1
423 432 1
432 432 1
434 432 1
444 432 1
445 432 1
456 432 1
13 433 1
23 433 1
421 433 1
425 433 1
457 433 1
459 433 1
469 433 1
470 433 1
14 434 1
24 434 1
422 434 1
426 434 1
458 434 1
460 434 1
470 434 1
471 434 1
13 435 1
15 435 1
423 435 1
427 435 1
459 435 1
461 435 1
471 435 1
472 435 1
14 436 1
16 436 1
424 436 1
428 436 1
460 436 1
462 436 1
472 436 1
473 436 1
15 437 1
17 437 1
425 437 1
429 437 1
461 437 1
463 437 1
473 437 1
474 437 1
16 438 1
18 438 1
426 438 1
430 438 1
462 438 1
464 438 1
474 438 1
475 438 1
17 439 1
19 439 1
427 439 1
431 439 1
463 439 1
465 439 1
475 439 1
476 439 1
18 440 1
20 440 1
428 440 1
432 440 1
464 440 1
466 440 1
476 440 1
477 440 1
19 441 1
21 441 1
421 441 1
429 441 1
465 441 1
467 441 1
477 441 1
478 441 1
20 442 1
22 442 1
422 442 1
430 442 1
466 442 1
468 442 1
478 442 1
479 442 1
21 443 1
23 443 1
423 443 1
431 443 1
457 443 1
467 443 1
479 443 1
480 443 1
22 444 1
24 444 1
424 444 1
432 444 1
458 444 1
468 444 1
469 444 1
480 444 1
25 445 1
35 445 1
433 445 1
437 445 1
457 445 1
460 445 1
481 445 1
482 445 1
26 446 1
36 446 1
434 446 1
438 446 1
458 446 1
461 446 1
482 446 1
483 446 1
25 447 1
27 447 1
435 447 1
439 447 1
459 447 1
462 447 1
483 447 1
484 447 1
26 448 1
28 448 1
436 448 1
440 448 1
460 448 1
463 448 1
484 448 1
485 448 1
27 449 1
29 449 1
437 449 1
441 449 1
461 449 1
464 449 1
485 449 1
486 449 1
28 450 1
30 450 1
438 450 1
442 450 1
462 450 1
465 450 1
486 450 1
487 450 1
29 451 1
31 451 1
439 451 1
443 451 1
463 451 1
466 451 1
487 451 1
488 451 1
30 452 1
32 452 1
440 452 1
444 452 1
464 452 1
467 452 1
488 452 1
489 452 1
31 453 1
33 453 1
433 453 1
441 453 1
465 453 1
468 453 1
489 453 1
490 453 1
32 454 1
34 454 1
434 454 1
442 454 1
457 454 1
466 454 1
490 454 1
491 454 1
33 455 1
35 455 1
435 455 1
443 455 1
458 455 1
467 455 1
491 455 1
492 455 1
34 456 1
36 456 1
436 456 1
444 456 1
459 456 1
468 456 1
481 456 1
492 456 1
37 457 1
47 457 1
445 457 1
449 457 1
469 457 1
472 457 1
481 457 1
483 457 1
38 458 1
48 458 1
446 458 1
450 458 1
470 458 1
473 458 1
482 458 1
484 458 1
37 459 1
39 459 1
447 459 1
451 459 1
471 459 1
474 459 1
483 459 1
485 459 1
38 460 1
40 460 1
448 460 1
452 460 1
472 460 1
475 460 1
484 460 1
486 460 1
39 461 1
41 461 1
449 461 1
453 461 1
473 461 1
476 461 1
485 461 1
487 461 1
40 462 1
42 462 1
450 462 1
454 462 1
474 462 1
477 462 1
486 462 1
488 462 1
41 463 1
43 463 1
451 463 1
455 463 1
475 463 1
478 463 1
487 463 1
489 463 1
42 464 1
44 464 1
452 464 1
456 464 1
476 464 1
479 464 1
488 464 1
490 464 1
43 465 1
45 465 1
445 465 1
453 465 1
477 465 1
480 465 1
489 465 1
491 465 1
44 466 1
46 466 1
446 466 1
454 466 1
469 466 1
478 466 1
490 466 1
492 466 1
45 467 1
47 467 1
447 467 1
455 467 1
470 467 1
479 467 1
481 467 1
491 467 1
46 468 1
48 468 1
448 468 1
456 468 1
471 468 1
480 468 1
482 468 1
492 468 1
49 469 1
59 469 1
421 469 1
426 469 1
493 469 1
495 469 1
505 469 1
506 469 1
50 470 1
60 470 1
422 470 1
427 470 1
494 470 1
496 470 1
506 470 1
507 470 1
49 471 1
51 471 1
423 471 1
428 471 1
495 471 1
497 471 1
507 471 1
508 471 1
50 472 1
52 472 1
424 472 1
429 472 1
496 472 1
498 472 1
508 472 1
509 472 1
51 473 1
53 473 1
425 473 1
430 473 1
497 473 1
499 473 1
509 473 1
510 473 1
52 474 1
54 474 1
426 474 1
431 474 1
498 474 1
500 474 1
510 474 1
511 474 1
53 475 1
55 475 1
427 475 1
432 475 1
499 475 1
501 475 1
511 475 1
512 475 1
54 476 1
56 476 1
421 476 1
428 476 1
500 476 1
502 476 1
512 476 1
513 476 1
55 477 1
57 477 1
422 477 1
429 477 1
501 477 1
503 477 1
513 477 1
514 477 1
56 478 1
58 478 1
423 478 1
430 478 1
502 478 1
504 478 1
514 478 1
515 478 1
57 479 1
59 479 1
424 479 1
431 479 1
493 479 1
503 479 1
515 479 1
516 479 1
58 480 1
60 480 1
425 480 1
432 480 1
494 480 1
504 480 1
505 480 1
516 480 1
61 481 1
71 481 1
433 481 1
438 481 1
493 481 1
496 481 1
517 481 1
518 481 1
62 482 1
72 482 1
434 482 1
439 482 1
494 482 1
497 482 1
518 482 1
519 482 1
61 483 1
63 483 1
435 483 1
440 483 1
495 483 1
498 483 1
519 483 1
520 483 1
62 484 1
64 484 1
436 484 1
441 484 1
496 484 1
499 484 1
520 484 1
521 484 1
63 485 1
65 485 1
437 485 1
442 485 1
497 485 1
500 485 1
521 485 1
522 485 1
64 486 1
66 486 1
438 486 1
443 486 1
498 486 1
501 486 1
522 486 1
523 486 1
65 487 1
67 487 1
439 487 1
444 487 1
499 487 1
502 487 1
523 487 1
524 487 1
66 488 1
68 488 1
433 488 1
440 488 1
500 488 1
503 488 1
524 488 1
525 488 1
67 489 1
69 489 1
434 489 1
441 489 1
501 489 1
504 489 1
525 489 1
526 489 1
68 490 1
70 490 1
435 490 1
442 490 1
493 490 1
502 490 1
526 490 1
527 490 1
69 491 1
71 491 1
436 491 1
443 491 1
494 491 1
503 491 1
527 491 1
528 491 1
70 492 1
72 492 1
437 492 1
444 492 1
495 492 1
504 492 1
517 492 1
528 492 1
73 493 1
83 493 1
445 493 1
450 493 1
505 493 1
508 493 1
517 493 1
519 493 1
74 494 1
84 494 1
446 494 1
451 494 1
506 494 1
509 494 1
518 494 1
520 494 1
73 495 1
75 495 1
447 495 1
452 495 1
507 495 1
510 495 1
519 495 1
521 495 1
74 496 1
76 496 1
448 496 1
453 496 1
508 496 1
511 496 1
520 496 1
522 496 1
75 497 1
77 497 1
449 497 1
454 497 1
509 497 1
512 497 1
521 497 1
523 497 1
76 498 1
78 498 1
450 498 1
455 498 1
510 498 1
513 498 1
522 498 1
524 498 1
77 499 1
79 499 1
451 499 1
456 499 1
511 499 1
514 499 1
523 499 1
525 499 1
78 500 1
80 500 1
445 500 1
452 500 1
512 500 1
515 500 1
524 500 1
526 500 1
79 501 1
81 501 1
446 501 1
453 501 1
513 501 1
516 501 1
525 501 1
527 501 1
80 502 1
82 502 1
447 502 1
454 502 1
505 502 1
514 502 1
526 502 1
528 502 1
81 503 1
83 503 1
448 503 1
455 503 1
506 503 1
515 503 1
517 503 1
527 503 1
82 504 1
84 504 1
449 504 1
456 504 1
507 504 1
516 504 1
518 504 1
528 504 1
85 505 1
95 505 1
457 505 1
462 505 1
493 505 1
497 505 1
529 505 1
530 505 1
86 506 1
96 506 1
458 506 1
463 506 1
494 506 1
498 506 1
530 506 1
531 506 1
85 507 1
87 507 1
459 507 1
464 507 1
495 507 1
499 507 1
531 507 1
532 507 1
86 508 1
88 508 1
460 508 1
465 508 1
496 508 1
500 508 1
532 508 1
533 508 1
87 509 1
89 509 1
461 509 1
466 509 1
497 509 1
501 509 1
533 509 1
534 509 1
88 510 1
90 510 1
462 510 1
467 510 1
498 510 1
502 510 1
534 510 1
535 510 1
89 511 1
91 511 1
463 511 1
468 511 1
499 511 1
503 511 1
535 511 1
536 511 1
90 512 1
92 512 1
457 512 1
464 512 1
500 512 1
504 512 1
536 512 1
537 512 1
91 513 1
93 513 1
458 513 1
465 513 1
493 513 1
501 513 1
537 513 1
538 513 1
92 514 1
94 514 1
459 514 1
466 514 1
494 514 1
502 514 1
538 514 1
539 514 1
93 515 1
95 515 1
460 515 1
467 515 1
495 515 1
503 515 1
539 515 1
540 515 1
94 516 1
96 516 1
461 516 1
468 516 1
496 516 1
504 516 1
529 516 1
540 516 1
97 517 1
107 517 1
469 517 1
474 517 1
505 517 1
509 517 1
529 517 1
531 517 1
98 518 1
108 518 1
470 518 1
475 518 1
506 518 1
510 518 1
530 518 1
532 518 1
97 519 1
99 519 1
471 519 1
476 519 1
507 519 1
511 519 1
531 519 1
533 519 1
98 520 1
100 520 1
472 520 1
477 520 1
508 520 1
512 520 1
532 520 1
534 520 1
99 521 1
101 521 1
473 521 1
478 521 1
509 521 1
513 521 1
533 521 1
535 521 1
100 522 1
102 522 1
474 522 1
479 522 1
510 522 1
514 522 1
534 522 1
536 522 1
101 523 1
103 523 1
475 523 1
480 523 1
511 523 1
515 523 1
535 523 1
537 523 1
102 524 1
104 524 1
469 524 1
476 524 1
512 524 1
516 524 1
536 524 1
538 524 1
103 525 1
105 525 1
470 525 1
477 525 1
505 525 1
513 525 1
537 525 1
539 525 1
104 526 1
106 526 1
471 526 1
478 526 1
506 526 1
514 526 1
538 526 1
540 526 1
105 527 1
107 527 1
472 527 1
479 527 1
507 527 1
515 527 1
529 527 1
539 527 1
106 528 1
108 528 1
473 528 1
480 528 1
508 528 1
516 528 1
530 528 1
540 528 1
109 529 1
119 529 1
481 529 1
486 529 1
517 529 1
521 529 1
529 529 1
532 529 1
110 530 1
120 530 1
482 530 1
487 530 1
518 530 1
522 530 1
530 530 1
533 530 1
109 531 1
111 531 1
483 531 1
488 531 1
519 531 1
523 531 1
531 531 1
534 531 1
110 532 1
112 532 1
484 532 1
489 532 1
520 532 1
524 532 1
532 532 1
535 532 1
111 533 1
113 533 1
485 533 1
490 533 1
521 533 1
525 533 1
533 533 1
536 533 1
112 534 1
114 534 1
486 534 1
491 534 1
522 534 1
526 534 1
534 534 1
537 534 1
113 535 1
115 535 1
487 535 1
492 535 1
523 535 1
527 535 1
535 535 1
538 535 1
114 536 1
116 536 1
481 536 1
488 536 1
524 536 1
528 536 1
536 536 1
539 536 1
115 537 1
117 537 1
482 537 1
489 537 1
517 537 1
525 537 1
537 537 1
540 537 1
116 538 1
118 538 1
483 538 1
490 538 1
518 538 1
526 538 1
529 538 1
538 538 1
117 539 1
119 539 1
484 539 1
491 539 1
519 539 1
527 539 1
530 539 1
539 539 1
118 540 1
120 540 1
485 540 1
492 540 1
520 540 1
528 540 1
531 540 1
540 540 1
121 541 1
131 541 1
421 541 1
428 541 1
541 541 1
543 541 1
553 541 1
554 541 1
122 542 1
132 542 1
422 542 1
429 542 1
542 542 1
544 542 1
554 542 1
555 542 1
121 543 1
123 543 1
423 543 1
430 543 1
543 543 1
545 543 1
555 543 1
556 543 1
122 544 1
124 544 1
424 544 1
431 544 1
544 544 1
546 544 1
556 544 1
557 544 1
123 545 1
125 545 1
425 545 1
432 545 1
545 545 1
547 545 1
557 545 1
558 545 1
124 546 1
126 546 1
421 546 1
426 546 1
546 546 1
548 546 1
558 546 1
559 546 1
125 547 1
127 547 1
422 547 1
427 547 1
547 547 1
549 547 1
559 547 1
560 547 1
126 548 1
128 548 1
423 548 1
428 548 1
548 548 1
550 548 1
560 548 1
561 548 1
127 549 1
129 549 1
424 549 1
429 549 1
549 549 1
551 549 1
561 549 1
562 549 1
128 550 1
130 550 1
425 550 1
430 550 1
550 550 1
552 550 1
562 550 1
563 550 1
129 551 1
131 551 1
426 551 1
431 551 1
541 551 1
551 551 1
563 551 1
564 551 1
130 552 1
132 552 1
427 552 1
432 552 1
542 552 1
552 552 1
553 552 1
564 552 1
133 553 1
143 553 1
433 553 1
440 553 1
541 553 1
544 553 1
565 553 1
566 553 1
134 554 1
144 554 1
434 554 1
441 554 1
542 554 1
545 554 1
566 554 1
567 554 1
133 555 1
135 555 1
435 555 1
442 555 1
543 555 1
546 555 1
567 555 1
568 555 1
134 556 1
136 556 1
436 556 1
443 556 1
544 556 1
547 556 1
568 556 1
569 556 1
135 557 1
137 557 1
437 557 1
444 557 1
545 557 1
548 557 1
569 557 1
570 557 1
136 558 1
138 558 1
433 558 1
438 558 1
546 558 1
549 558 1
570 558 1
571 558 1
137 559 1
139 559 1
434 559 1
439 559 1
547 559 1
550 559 1
571 559 1
572 559 1
138 560 1
140 560 1
435 560 1
440 560 1
548 560 1
551 560 1
572 560 1
573 560 1
139 561 1
141 561 1
436 561 1
441 561 1
549 561 1
552 561 1
573 561 1
574 561 1
140 562 1
142 562 1
437 562 1
442 562 1
541 562 1
550 562 1
574 562 1
575 562 1
141 563 1
143 563 1
438 563 1
443 563 1
542 563 1
551 563 1
575 563 1
576 563 1
142 564 1
144 564 1
439 564 1
444 564 1
543 564 1
552 564 1
565 564 1
576 564 1
145 565 1
155 565 1
445 565 1
452 565 1
553 565 1
556 565 1
565 565 1
567 565 1
146 566 1
156 566 1
446 566 1
453 566 1
554 566 1
557 566 1
566 566 1
568 566 1
145 567 1
147 567 1
447 567 1
454 567 1
555 567 1
558 567 1
567 567 1
569 567 1
146 568 1
148 568 1
448 568 1
455 568 1
556 568 1
559 568 1
568 568 1
570 568 1
147 569 1
149 569 1
449 569 1
456 569 1
557 569 1
560 569 1
569 569 1
571 569 1
148 570 1
150 570 1
445 570 1
450 570 1
558 570 1
561 570 1
570 570 1
572 570 1
149 571 1
151 571 1
446 571 1
451 571 1
559 571 1
562 571 1
571 571 1
573 571 1
150 572 1
152 572 1
447 572 1
452 572 1
560 572 1
563 572 1
572 572 1
574 572 1
151 573 1
153 573 1
448 573 1
453 573 1
561 573 1
564 573 1
573 573 1
575 573 1
152 574 1
154 574 1
449 574 1
454 574 1
553 574 1
562 574 1
574 574 1
576 574 1
153 575 1
155 575 1
450 575 1
455 575 1
554 575 1
563 575 1
565 575 1
575 575 1
154 576 1
156 576 1
451 576 1
456 576 1
555 576 1
564 576 1
566 576 1
576 576 1
157 577 1
167 577 1
457 577 1
464 577 1
541 577 1
545 577 1
577 577 1
578 577 1
158 578 1
168 578 1
458 578 1
465 578 1
542 578 1
546 578 1
578 578 1
579 578 1
157 579 1
159 579 1
459 579 1
466 579 1
543 579 1
547 579 1
579 579 1
580 579 1
158 580 1
160 580 1
460 580 1
467 580 1
544 580 1
548 580 1
580 580 1
581 580 1
159 581 1
161 581 1
461 581 1
468 581 1
545 581 1
549 581 1
581 581 1
582 581 1
160 582 1
162 582 1
457 582 1
462 582 1
546 582 1
550 582 1
582 582 1
583 582 1
161 583 1
163 583 1
458 583 1
463 583 1
547 583 1
551 583 1
583 583 1
584 583 1
162 584 1
164 584 1
459 584 1
464 584 1
548 584 1
552 584 1
584 584 1
585 584 1
163 585 1
165 585 1
460 585 1
465 585 1
541 585 1
549 585 1
585 585 1
586 585 1
164 586 1
166 586 1
461 586 1
466 586 1
542 586 1
550 586 1
586 586 1
587 586 1
165 587 1
167 587 1
462 587 1
467 587 1
543 587 1
551 587 1
587 587 1
588 587 1
166 588 1
168 588 1
463 588 1
468 588 1
544 588 1
552 588 1
577 588 1
588 588 1
169 589 1
179 589 1
469 589 1
476 589 1
553 589 1
557 589 1
577 589 1
579 589 1
170 590 1
180 590 1
470 590 1
477 590 1
554 590 1
558 590 1
578 590 1
580 590 1
169 591 1
171 591 1
471 591 1
478 591 1
555 591 1
559 591 1
579 591 1
581 591 1
170 592 1
172 592 1
472 592 1
479 592 1
556 592 1
560 592 1
580 592 1
582 592 1
171 593 1
173 593 1
473 593 1
480 593 1
557 593 1
561 593 1
581 593 1
583 593 1
172 594 1
174 594 1
469 594 1
474 594 1
558 594 1
562 594 1
582 594 1
584 594 1
173 595 1
175 595 1
470 595 1
475 595 1
559 595 1
563 595 1
583 595 1
585 595 1
174 596 1
176 596 1
471 596 1
476 596 1
560 596 1
564 596 1
584 596 1
586 596 1
175 597 1
177 597 1
472 597 1
477 597 1
553 597 1
561 597 1
585 597 1
587 597 1
176 598 1
178 598 1
473 598 1
478 598 1
554 598 1
562 598 1
586 598 1
588 598 1
177 599 1
179 599 1
474 599 1
479 599 1
555 599 1
563 599 1
577 599 1
587 599 1
178 600 1
180 600 1
475 600 1
480 600 1
556 600 1
564 600 1
578 600 1
588 600 1
181 601 1
191 601 1
481 601 1
488 601 1
565 601 1
569 601 1
577 601 1
580 601 1
182 602 1
192 602 1
482 602 1
489 602 1
566 602 1
570 602 1
578 602 1
581 602 1
181 603 1
183 603 1
483 603 1
490 603 1
567 603 1
571 603 1
579 603 1
582 603 1
182 604 1
184 604 1
484 604 1
491 604 1
568 604 1
572 604 1
580 604 1
583 604 1
183 605 1
185 605 1
485 605 1
492 605 1
569 605 1
573 605 1
581 605 1
584 605 1
184 606 1
186 606 1
481 606 1
486 606 1
570 606 1
574 606 1
582 606 1
585 606 1
185 607 1
187 607 1
482 607 1
487 607 1
571 607 1
575 607 1
583 607 1
586 607 1
186 608 1
188 608 1
483 608 1
488 608 1
572 608 1
576 608 1
584 608 1
587 608 1
187 609 1
189 609 1
484 609 1
489 609 1
565 609 1
573 609 1
585 609 1
588 609 1
188 610 1
190 610 1
485 610 1
490 610 1
566 610 1
574 610 1
577 610 1
586 610 1
189 611 1
191 611 1
486 611 1
491 611 1
567 611 1
575 611 1
578 611 1
587 611 1
190 612 1
192 612 1
487 612 1
492 612 1
568 612 1
576 612 1
579 612 1
588 612 1
193 613 1
203 613 1
493 613 1
500 613 1
541 613 1
546 613 1
589 613 1
590 613 1
194 614 1
204 614 1
494 614 1
501 614 1
542 614 1
547 614 1
590 614 1
591 614 1
193 615 1
195 615 1
495 615 1
502 615 1
543 615 1
548 615 1
591 615 1
592 615 1
194 616 1
196 616 1
496 616 1
503 616 1
544 616 1
549 616 1
592 616 1
593 616 1
195 617 1
197 617 1
497 617 1
504 617 1
545 617 1
550 617 1
593 617 1
594 617 1
196 618 1
198 618 1
493 618 1
498 618 1
546 618 1
551 618 1
594 618 1
595 618 1
197 619 1
199 619 1
494 619 1
499 619 1
547 619 1
552 619 1
595 619 1
596 619 1
198 620 1
200 620 1
495 620 1
500 620 1
541 620 1
548 620 1
596 620 1
597 620 1
199 621 1
201 621 1
496 621 1
501 621 1
542 621 1
549 621 1
597 621 1
598 621 1
200 622 1
202 622 1
497 622 1
502 622 1
543 622 1
550 622 1
598 622 1
599 622 1
201 623 1
203 623 1
498 623 1
503 623 1
544 623 1
551 623 1
599 623 1
600 623 1
202 624 1
204 624 1
499 624 1
504 624 1
545 624 1
552 624 1
589 624 1
600 624 1
205 625 1
215 625 1
505 625 1
512 625 1
553 625 1
558 625 1
589 625 1
591 625 1
206 626 1
216 626 1
506 626 1
513 626 1
554 626 1
559 626 1
590 626 1
592 626 1
205 627 1
207 627 1
507 627 1
514 627 1
555 627 1
560 627 1
591 627 1
593 627 1
206 628 1
208 628 1
508 628 1
515 628 1
556 628 1
561 628 1
592 628 1
594 628 1
207 629 1
209 629 1
509 629 1
516 629 1
557 629 1
562 629 1
593 629 1
595 629 1
208 630 1
210 630 1
505 630 1
510 630 1
558 630 1
563 630 1
594 630 1
596 630 1
209 631 1
211 631 1
506 631 1
511 631 1
559 631 1
564 631 1
595 631 1
597 631 1
210 632 1
212 632 1
507 632 1
512 632 1
553 632 1
560 632 1
596 632 1
598 632 1
211 633 1
213 633 1
508 633 1
513 633 1
554 633 1
561 633 1
597 633 1
599 633 1
212 634 1
214 634 1
509 634 1
514 634 1
555 634 1
562 634 1
598 634 1
600 634 1
213 635 1
215 635 1
510 635 1
515 635 1
556 635 1
563 635 1
589 635 1
599 635 1
214 636 1
216 636 1
511 636 1
516 636 1
557 636 1
564 636 1
590 636 1
600 636 1
217 637 1
227 637 1
517 637 1
524 637 1
565 637 1
570 637 1
589 637 1
592 637 1
218 638 1
228 638 1
518 638 1
525 638 1
566 638 1
571 638 1
590 638 1
593 638 1
217 639 1
219 639 1
519 639 1
526 639 1
567 639 1
572 639 1
591 639 1
594 639 1
218 640 1
220 640 1
520 640 1
527 640 1
568 640 1
573 640 1
592 640 1
595 640 1
219 641 1
221 641 1
521 641 1
528 641 1
569 641 1
574 641 1
593 641 1
596 641 1
220 642 1
222 642 1
517 642 1
522 642 1
570 642 1
575 642 1
594 642 1
597 642 1
221 643 1
223 643 1
518 643 1
523 643 1
571 643 1
576 643 1
595 643 1
598 643 1
222 644 1
224 644 1
519 644 1
524 644 1
565 644 1
572 644 1
596 644 1
599 644 1
223 645 1
225 645 1
520 645 1
525 645 1
566 645 1
573 645 1
597 645 1
600 645 1
224 646 1
226 646 1
521 646 1
526 646 1
567 646 1
574 646 1
589 646 1
598 646 1
225 647 1
227 647 1
522 647 1
527 647 1
568 647 1
575 647 1
590 647 1
599 647 1
226 648 1
228 648 1
523 648 1
528 648 1
569 648 1
576 648 1
591 648 1
600 648 1
229 649 1
239 649 1
529 649 1
536 649 1
577 649 1
582 649 1
589 649 1
593 649 1
230 650 1
240 650 1
530 650 1
537 650 1
578 650 1
583 650 1
590 650 1
594 650 1
229 651 1
231 651 1
531 651 1
538 651 1
579 651 1
584 651 1
591 651 1
595 651 1
230 652 1
232 652 1
532 652 1
539 652 1
580 652 1
585 652 1
592 652 1
596 652 1
231 653 1
233 653 1
533 653 1
540 653 1
581 653 1
586 653 1
593 653 1
597 653 1
232 654 1
234 654 1
529 654 1
534 654 1
582 654 1
587 654 1
594 654 1
598 654 1
233 655 1
235 655 1
530 655 1
535 655 1
583 655 1
588 655 1
595 655 1
599 655 1
234 656 1
236 656 1
531 656 1
536 656 1
577 656 1
584 656 1
596 656 1
600 656 1
235 657 1
237 657 1
532 657 1
537 657 1
578 657 1
585 657 1
589 657 1
597 657 1
236 658 1
238 658 1
533 658 1
538 658 1
579 658 1
586 658 1
590 658 1
598 658 1
237 659 1
239 659 1
534 659 1
539 659 1
580 659 1
587 659 1
591 659 1
599 659 1
238 660 1
240 660 1
535 660 1
540 660 1
581 660 1
588 660 1
592 660 1
600 660 1
241 661 1
251 661 1
421 661 1
430 661 1
601 661 1
603 661 1
613 661 1
614 661 1
242 662 1
252 662 1
422 662 1
431 662 1
602 662 1
604 662 1
614 662 1
615 662 1
241 663 1
243 663 1
423 663 1
432 663 1
603 663 1
605 663 1
615 663 1
616 663 1
242 664 1
244 664 1
421 664 1
424 664 1
604 664 1
606 664 1
616 664 1
617 664 1
243 665 1
245 665 1
422 665 1
425 665 1
605 665 1
607 665 1
617 665 1
618 665 1
244 666 1
246 666 1
423 666 1
426 666 1
606 666 1
608 666 1
618 666 1
619 666 1
245 667 1
247 667 1
424 667 1
427 667 1
607 667 1
609 667 1
619 667 1
620 667 1
246 668 1
248 668 1
425 668 1
428 668 1
608 668 1
610 668 1
620 668 1
621 668 1
247 669 1
249 669 1
426 669 1
429 669 1
609 669 1
611 669 1
621 669 1
622 669 1
248 670 1
250 670 1
427 670 1
430 670 1
610 670 1
612 670 1
622 670 1
623 670 1
249 671 1
251 671 1
428 671 1
431 671 1
601 671 1
611 671 1
623 671 1
624 671 1
250 672 1
252 672 1
429 672 1
432 672 1
602 672 1
612 672 1
613 672 1
624 672 1
253 673 1
263 673 1
433 673 1
442 673 1
601 673 1
604 673 1
625 673 1
626 673 1
254 674 1
264 674 1
434 674 1
443 674 1
602 674 1
605 674 1
626 674 1
627 674 1
253 675 1
255 675 1
435 675 1
444 675 1
603 675 1
606 675 1
627 675 1
628 675 1
254 676 1
256 676 1
433 676 1
436 676 1
604 676 1
607 676 1
628 676 1
629 676 1
255 677 1
257 677 1
434 677 1
437 677 1
605 677 1
608 677 1
629 677 1
630 677 1
256 678 1
258 678 1
435 678 1
438 678 1
606 678 1
609 678 1
630 678 1
631 678 1
257 679 1
259 679 1
436 679 1
439 679 1
607 679 1
610 679 1
631 679 1
632 679 1
258 680 1
260 680 1
437 680 1
440 680 1
608 680 1
611 680 1
632 680 1
633 680 1
259 681 1
261 681 1
438 681 1
441 681 1
609 681 1
612 681 1
633 681 1
634 681 1
260 682 1
262 682 1
439 682 1
442 682 1
601 682 1
610 682 1
634 682 1
635 682 1
261 683 1
263 683 1
440 683 1
443 683 1
602 683 1
611 683 1
635 683 1
636 683 1
262 684 1
264 684 1
441 684 1
444 684 1
603 684 1
612 684 1
625 684 1
636 684 1
265 685 1
275 685 1
445 685 1
454 685 1
613 685 1
616 685 1
625 685 1
627 685 1
266 686 1
276 686 1
446 686 1
455 686 1
614 686 1
617 686 1
626 686 1
628 686 1
265 687 1
267 687 1
447 687 1
456 687 1
615 687 1
618 687 1
627 687 1
629 687 1
266 688 1
268 688 1
445 688 1
448 688 1
616 688 1
619 688 1
628 688 1
630 688 1
267 689 1
269 689 1
446 689 1
449 689 1
617 689 1
620 689 1
629 689 1
631 689 1
268 690 1
270 690 1
447 690 1
450 690 1
618 690 1
621 690 1
630 690 1
632 690 1
269 691 1
271 691 1
448 691 1
451 691 1
619 691 1
622 691 1
631 691 1
633 691 1
270 692 1
272 692 1
449 692 1
452 692 1
620 692 1
623 692 1
632 692 1
634 692 1
271 693 1
273 693 1
450 693 1
453 693 1
621 693 1
624 693 1
633 693 1
635 693 1
272 694 1
274 694 1
451 694 1
454 694 1
613 694 1
622 694 1
634 694 1
636 694 1
273 695 1
275 695 1
452 695 1
455 695 1
614 695 1
623 695 1
625 695 1
635 695 1
274 696 1
276 696 1
453 696 1
456 696 1
615 696 1
624 696 1
626 696 1
636 696 1
277 697 1
287 697 1
457 697 1
466 697 1
601 697 1
605 697 1
637 697 1
638 697 1
278 698 1
288 698 1
458 698 1
467 698 1
602 698 1
606 698 1
638 698 1
639 698 1
277 699 1
279 699 1
459 699 1
468 699 1
603 699 1
607 699 1
639 699 1
640 699 1
278 700 1
280 700 1
457 700 1
460 700 1
604 700 1
608 700 1
640 700 1
641 700 1
279 701 1
281 701 1
458 701 1
461 701 1
605 701 1
609 701 1
641 701 1
642 701 1
280 702 1
282 702 1
459 702 1
462 702 1
606 702 1
610 702 1
642 702 1
643 702 1
281 703 1
283 703 1
460 703 1
463 703 1
607 703 1
611 703 1
643 703 1
644 703 1
282 704 1
284 704 1
461 704 1
464 704 1
608 704 1
612 704 1
644 704 1
645 704 1
283 705 1
285 705 1
462 705 1
465 705 1
601 705 1
609 705 1
645 705 1
646 705 1
284 706 1
286 706 1
463 706 1
466 706 1
602 706 1
610 706 1
646 706 1
647 706 1
285 707 1
287 707 1
464 707 1
467 707 1
603 707 1
611 707 1
647 707 1
648 707 1
286 708 1
288 708 1
465 708 1
468 708 1
604 708 1
612 708 1
637 708 1
648 708 1
289 709 1
299 709 1
469 709 1
478 709 1
613 709 1
617 709 1
637 709 1
639 709 1
290 710 1
300 710 1
470 710 1
479 710 1
614 710 1
618 710 1
638 710 1
640 710 1
289 711 1
291 711 1
471 711 1
480 711 1
615 711 1
619 711 1
639 711 1
641 711 1
290 712 1
292 712 1
469 712 1
472 712 1
616 712 1
620 712 1
640 712 1
642 712 1
291 713 1
293 713 1
470 713 1
473 713 1
617 713 1
621 713 1
641 713 1
643 713 1
292 714 1
294 714 1
471 714 1
474 714 1
618 714 1
622 714 1
642 714 1
644 714 1
293 715 1
295 715 1
472 715 1
475 715 1
619 715 1
623 715 1
643 715 1
645 715 1
294 716 1
296 716 1
473 716 1
476 716 1
620 716 1
624 716 1
644 716 1
646 716 1
295 717 1
297 717 1
474 717 1
477 717 1
613 717 1
621 717 1
645 717 1
647 717 1
296 718 1
298 718 1
475 718 1
478 718 1
614 718 1
622 718 1
646 718 1
648 718 1
297 719 1
299 719 1
476 719 1
479 719 1
615 719 1
623 719 1
637 719 1
647 719 1
298 720 1
300 720 1
477 720 1
480 720 1
616 720 1
624 720 1
638 720 1
648 720 1
301 721 1
311 721 1
481 721 1
490 721 1
625 721 1
629 721 1
637 721 1
640 721 1
302 722 1
312 722 1
482 722 1
491 722 1
626 722 1
630 722 1
638 722 1
641 722 1
301 723 1
303 723 1
483 723 1
492 723 1
627 723 1
631 723 1
639 723 1
642 723 1
302 724 1
304 724 1
481 724 1
484 724 1
628 724 1
632 724 1
640 724 1
643 724 1
303 725 1
305 725 1
482 725 1
485 725 1
629 725 1
633 725 1
641 725 1
644 725 1
304 726 1
306 726 1
483 726 1
486 726 1
630 726 1
634 726 1
642 726 1
645 726 1
305 727 1
307 727 1
484 727 1
487 727 1
631 727 1
635 727 1
643 727 1
646 727 1
306 728 1
308 728 1
485 728 1
488 728 1
632 728 1
636 728 1
644 728 1
647 728 1
307 729 1
309 729 1
486 729 1
489 729 1
625 729 1
633 729 1
645 729 1
648 729 1
308 730 1
310 730 1
487 730 1
490 730 1
626 730 1
634 730 1
637 730 1
646 730 1
309 731 1
311 731 1
488 731 1
491 731 1
627 731 1
635 731 1
638 731 1
647 731 1
310 732 1
312 732 1
489 732 1
492 732 1
628 732 1
636 732 1
639 732 1
648 732 1
313 733 1
323 733 1
493 733 1
502 733 1
601 733 1
606 733 1
649 733 1
650 733 1
314 734 1
324 734 1
494 734 1
503 734 1
602 734 1
607 734 1
650 734 1
651 734 1
313 735 1
315 735 1
495 735 1
504 735 1
603 735 1
608 735 1
651 735 1
652 735 1
314 736 1
316 736 1
493 736 1
496 736 1
604 736 1
609 736 1
652 736 1
653 736 1
315 737 1
317 737 1
494 737 1
497 737 1
605 737 1
610 737 1
653 737 1
654 737 1
316 738 1
318 738 1
495 738 1
498 738 1
606 738 1
611 738 1
654 738 1
655 738 1
317 739 1
319 739 1
496 739 1
499 739 1
607 739 1
612 739 1
655 739 1
656 739 1
318 740 1
320 740 1
497 740 1
500 740 1
601 740 1
608 740 1
656 740 1
657 740 1
319 741 1
321 741 1
498 741 1
501 741 1
602 741 1
609 741 1
657 741 1
658 741 1
320 742 1
322 742 1
499 742 1
502 742 1
603 742 1
610 742 1
658 742 1
659 742 1
321 743 1
323 743 1
500 743 1
503 743 1
604 743 1
611 743 1
659 743 1
660 743 1
322 744 1
324 744 1
501 744 1
504 744 1
605 744 1
612 744 1
649 744 1
660 744 1
325 745 1
335 745 1
505 745 1
514 745 1
613 745 1
618 745 1
649 745 1
651 745 1
326 746 1
336 746 1
506 746 1
515 746 1
614 746 1
619 746 1
650 746 1
652 746 1
325 747 1
327 747 1
507 747 1
516 747 1
615 747 1
620 747 1
651 747 1
653 747 1
326 748 1
328 748 1
505 748 1
508 748 1
616 748 1
621 748 1
652 748 1
654 748 1
327 749 1
329 749 1
506 749 1
509 749 1
617 749 1
622 749 1
653 749 1
655 749 1
328 750 1
330 750 1
507 750 1
510 750 1
618 750 1
623 750 1
654 750 1
656 750 1
329 751 1
331 751 1
508 751 1
511 751 1
619 751 1
624 751 1
655 751 1
657 751 1
330 752 1
332 752 1
509 752 1
512 752 1
613 752 1
620 752 1
656 752 1
658 752 1
331 753 1
333 753 1
510 753 1
513 753 1
614 753 1
621 753 1
657 753 1
659 753 1
332 754 1
334 754 1
511 754 1
514 754 1
615 754 1
622 754 1
658 754 1
660 754 1
333 755 1
335 755 1
512 755 1
515 755 1
616 755 1
623 755 1
649 755 1
659 755 1
334 756 1
336 756 1
513 756 1
516 756 1
617 756 1
624 756 1
650 756 1
660 756 1
337 757 1
347 757 1
517 757 1
526 757 1
625 757 1
630 757 1
649 757 1
652 757 1
338 758 1
348 758 1
518 758 1
527 758 1
626 758 1
631 758 1
650 758 1
653 758 1
337 759 1
339 759 1
519 759 1
528 759 1
627 759 1
632 759 1
651 759 1
654 759 1
338 760 1
340 760 1
517 760 1
520 760 1
628 760 1
633 760 1
652 760 1
655 760 1
339 761 1
341 761 1
518 761 1
521 761 1
629 761 1
634 761 1
653 761 1
656 761 1
340 762 1
342 762 1
519 762 1
522 762 1
630 762 1
635 762 1
654 762 1
657 762 1
341 763 1
343 763 1
520 763 1
523 763 1
631 763 1
636 763 1
655 763 1
658 763 1
342 764 1
344 764 1
521 764 1
524 764 1
625 764 1
632 764 1
656 764 1
659 764 1
343 765 1
345 765 1
522 765 1
525 765 1
626 765 1
633 765 1
657 765 1
660 765 1
344 766 1
346 766 1
523 766 1
526 766 1
627 766 1
634 766 1
649 766 1
658 766 1
345 767 1
347 767 1
524 767 1
527 767 1
628 767 1
635 767 1
650 767 1
659 767 1
346 768 1
348 768 1
525 768 1
528 768 1
629 768 1
636 768 1
651 768 1
660 768 1
349 769 1
359 769 1
529 769 1
538 769 1
637 769 1
642 769 1
649 769 1
653 769 1
350 770 1
360 770 1
530 770 1
539 770 1
638 770 1
643 770 1
650 770 1
654 770 1
349 771 1
351 771 1
531 771 1
540 771 1
639 771 1
644 771 1
651 771 1
655 771 1
350 772 1
352 772 1
529 772 1
532 772 1
640 772 1
645 772 1
652 772 1
656 772 1
351 773 1
353 773 1
530 773 1
533 773 1
641 773 1
646 773 1
653 773 1
657 773 1
352 774 1
354 774 1
531 774 1
534 774 1
642 774 1
647 774 1
654 774 1
658 774 1
353 775 1
355 775 1
532 775 1
535 775 1
643 775 1
648 775 1
655 775 1
659 775 1
354 776 1
356 776 1
533 776 1
536 776 1
637 776 1
644 776 1
656 776 1
660 776 1
355 777 1
357 777 1
534 777 1
537 777 1
638 777 1
645 777 1
649 777 1
657 777 1
356 778 1
358 778 1
535 778 1
538 778 1
639 778 1
646 778 1
650 778 1
658 778 1
357 779 1
359 779 1
536 779 1
539 779 1
640 779 1
647 779 1
651 779 1
659 779 1
358 780 1
360 780 1
537 780 1
540 780 1
641 780 1
648 780 1
652 780 1
660 780 1
361 781 1
371 781 1
541 781 1
550 781 1
601 781 1
608 781 1
661 781 1
662 781 1
362 782 1
372 782 1
542 782 1
551 782 1
602 782 1
609 782 1
662 782 1
663 782 1
361 783 1
363 783 1
543 783 1
552 783 1
603 783 1
610 783 1
663 783 1
664 783 1
362 784 1
364 784 1
541 784 1
544 784 1
604 784 1
611 784 1
664 784 1
665 784 1
363 785 1
365 785 1
542 785 1
545 785 1
605 785 1
612 785 1
665 785 1
666 785 1
364 786 1
366 786 1
543 786 1
546 786 1
601 786 1
606 786 1
666 786 1
667 786 1
365 787 1
367 787 1
544 787 1
547 787 1
602 787 1
607 787 1
667 787 1
668 787 1
366 788 1
368 788 1
545 788 1
548 788 1
603 788 1
608 788 1
668 788 1
669 788 1
367 789 1
369 789 1
546 789 1
549 789 1
604 789 1
609 789 1
669 789 1
670 789 1
368 790 1
370 790 1
547 790 1
550 790 1
605 790 1
610 790 1
670 790 1
671 790 1
369 791 1
371 791 1
548 791 1
551 791 1
606 791 1
611 791 1
671 791 1
672 791 1
370 792 1
372 792 1
549 792 1
552 792 1
607 792 1
612 792 1
661 792 1
672 792 1
373 793 1
383 793 1
553 793 1
562 793 1
613 793 1
620 793 1
661 793 1
663 793 1
374 794 1
384 794 1
554 794 1
563 794 1
614 794 1
621 794 1
662 794 1
664 794 1
373 795 1
375 795 1
555 795 1
564 795 1
615 795 1
622 795 1
663 795 1
665 795 1
374 796 1
376 796 1
553 796 1
556 796 1
616 796 1
623 796 1
664 796 1
666 796 1
375 797 1
377 797 1
554 797 1
557 797 1
617 797 1
624 797 1
665 797 1
667 797 1
376 798 1
378 798 1
555 798 1
558 798 1
613 798 1
618 798 1
666 798 1
668 798 1
377 799 1
379 799 1
556 799 1
559 799 1
614 799 1
619 799 1
667 799 1
669 799 1
378 800 1
380 800 1
557 800 1
560 800 1
615 800 1
620 800 1
668 800 1
670 800 1
379 801 1
381 801 1
558 801 1
561 801 1
616 801 1
621 801 1
669 801 1
671 801 1
380 802 1
382 802 1
559 802 1
562 802 1
617 802 1
622 802 1
670 802 1
672 802 1
381 803 1
383 803 1
560 803 1
563 803 1
618 803 1
623 803 1
661 803 1
671 803 1
382 804 1
384 804 1
561 804 1
564 804 1
619 804 1
624 804 1
662 804 1
672 804 1
385 805 1
395 805 1
565 805 1
574 805 1
625 805 1
632 805 1
661 805 1
664 805 1
386 806 1
396 806 1
566 806 1
575 806 1
626 806 1
633 806 1
662 806 1
665 806 1
385 807 1
387 807 1
567 807 1
576 807 1
627 807 1
634 807 1
663 807 1
666 807 1
386 808 1
388 808 1
565 808 1
568 808 1
628 808 1
635 808 1
664 808 1
667 808 1
387 809 1
389 809 1
566 809 1
569 809 1
629 809 1
636 809 1
665 809 1
668 809 1
388 810 1
390 810 1
567 810 1
570 810 1
625 810 1
630 810 1
666 810 1
669 810 1
389 811 1
391 811 1
568 811 1
571 811 1
626 811 1
631 811 1
667 811 1
670 811 1
390 812 1
392 812 1
569 812 1
572 812 1
627 812 1
632 812 1
668 812 1
671 812 1
391 813 1
393 813 1
570 813 1
573 813 1
628 813 1
633 813 1
669 813 1
672 813 1
392 814 1
394 814 1
571 814 1
574 814 1
629 814 1
634 814 1
661 814 1
670 814 1
393 815 1
395 815 1
572 815 1
575 815 1
630 815 1
635 815 1
662 815 1
671 815 1
394 816 1
396 816 1
573 816 1
576 816 1
631 816 1
636 816 1
663 816 1
672 816 1
397 817 1
407 817 1
577 817 1
586 817 1
637 817 1
644 817 1
661 817 1
665 817 1
398 818 1
408 818 1
578 818 1
587 818 1
638 818 1
645 818 1
662 818 1
666 818 1
397 819 1
399 819 1
579 819 1
588 819 1
639 819 1
646 819 1
663 819 1
667 819 1
398 820 1
400 820 1
577 820 1
580 820 1
640 820 1
647 820 1
664 820 1
668 820 1
399 821 1
401 821 1
578 821 1
581 821 1
641 821 1
648 821 1
665 821 1
669 821 1
400 822 1
402 822 1
579 822 1
582 822 1
637 822 1
642 822 1
666 822 1
670 822 1
401 823 1
403 823 1
580 823 1
583 823 1
638 823 1
643 823 1
667 823 1
671 823 1
402 824 1
404 824 1
581 824 1
584 824 1
639 824 1
644 824 1
668 824 1
672 824 1
403 825 1
405 825 1
582 825 1
585 825 1
640 825 1
645 825 1
661 825 1
669 825 1
404 826 1
406 826 1
583 826 1
586 826 1
641 826 1
646 826 1
662 826 1
670 826 1
405 827 1
407 827 1
584 827 1
587 827 1
642 827 1
647 827 1
663 827 1
671 827 1
406 828 1
408 828 1
585 828 1
588 828 1
643 828 1
648 828 1
664 828 1
672 828 1
409 829 1
419 829 1
589 829 1
598 829 1
649 829 1
656 829 1
661 829 1
666 829 1
410 830 1
420 830 1
590 830 1
599 830 1
650 830 1
657 830 1
662 830 1
667 830 1
409 831 1
411 831 1
591 831 1
600 831 1
651 831 1
658 831 1
663 831 1
668 831 1
410 832 1
412 832 1
589 832 1
592 832 1
652 832 1
659 832 1
664 832 1
669 832 1
411 833 1
413 833 1
590 833 1
593 833 1
653 833 1
660 833 1
665 833 1
670 833 1
412 834 1
414 834 1
591 834 1
594 834 1
649 834 1
654 834 1
666 834 1
671 834 1
413 835 1
415 835 1
592 835 1
595 835 1
650 835 1
655 835 1
667 835 1
672 835 1
414 836 1
416 836 1
593 836 1
596 836 1
651 836 1
656 836 1
661 836 1
668 836 1
415 837 1
417 837 1
594 837 1
597 837 1
652 837 1
657 837 1
662 837 1
669 837 1
416 838 1
418 838 1
595 838 1
598 838 1
653 838 1
658 838 1
663 838 1
670 838 1
417 839 1
419 839 1
596 839 1
599 839 1
654 839 1
659 839 1
664 839 1
671 839 1
418 840 1
420 840 1
597 840 1
600 840 1
655 840 1
660 840 1
665 840 1
672 840 1
1 841 1
12 841 1
673 841 1
676 841 1
685 841 1
687 841 1
697 841 1
698 841 1
1 842 1
2 842 1
674 842 1
677 842 1
686 842 1
688 842 1
698 842 1
699 842 1
2 843 1
3 843 1
675 843 1
678 843 1
687 843 1
689 843 1
699 843 1
700 843 1
3 844 1
4 844 1
676 844 1
679 844 1
688 844 1
690 844 1
700 844 1
701 844 1
4 845 1
5 845 1
677 845 1
680 845 1
689 845 1
691 845 1
701 845 1
702 845 1
5 846 1
6 846 1
678 846 1
681 846 1
690 846 1
692 846 1
702 846 1
703 846 1
6 847 1
7 847 1
679 847 1
682 847 1
691 847 1
693 847 1
703 847 1
704 847 1
7 848 1
8 848 1
680 848 1
683 848 1
692 848 1
694 848 1
704 848 1
705 848 1
8 849 1
9 849 1
681 849 1
684 849 1
693 849 1
695 849 1
705 849 1
706 849 1
9 850 1
10 850 1
673 850 1
682 850 1
694 850 1
696 850 1
706 850 1
707 850 1
10 851 1
11 851 1
674 851 1
683 851 1
685 851 1
695 851 1
707 851 1
708 851 1
11 852 1
12 852 1
675 852 1
684 852 1
686 852 1
696 852 1
697 852 1
708 852 1
13 853 1
24 853 1
673 853 1
677 853 1
709 853 1
711 853 1
721 853 1
722 853 1
13 854 1
14 854 1
674 854 1
678 854 1
710 854 1
712 854 1
722 854 1
723 854 1
14 855 1
15 855 1
675 855 1
679 855 1
711 855 1
713 855 1
723 855 1
724 855 1
15 856 1
16 856 1
676 856 1
680 856 1
712 856 1
714 856 1
724 856 1
725 856 1
16 857 1
17 857 1
677 857 1
681 857 1
713 857 1
715 857 1
725 857 1
726 857 1
17 858 1
18 858 1
678 858 1
682 858 1
714 858 1
716 858 1
726 858 1
727 858 1
18 859 1
19 859 1
679 859 1
683 859 1
715 859 1
717 859 1
727 859 1
728 859 1
19 860 1
20 860 1
680 860 1
684 860 1
716 860 1
718 860 1
728 860 1
729 860 1
20 861 1
21 861 1
673 861 1
681 861 1
717 861 1
719 861 1
729 861 1
730 861 1
21 862 1
22 862 1
674 862 1
682 862 1
718 862 1
720 862 1
730 862 1
731 862 1
22 863 1
23 863 1
675 863 1
683 863 1
709 863 1
719 863 1
731 863 1
732 863 1
23 864 1
24 864 1
676 864 1
684 864 1
710 864 1
720 864 1
721 864 1
732 864 1
25 865 1
36 865 1
685 865 1
689 865 1
709 865 1
712 865 1
733 865 1
734 865 1
25 866 1
26 866 1
686 866 1
690 866 1
710 866 1
713 866 1
734 866 1
735 866 1
26 867 1
27 867 1
687 867 1
691 867 1
711 867 1
714 867 1
735 867 1
736 867 1
27 868 1
28 868 1
688 868 1
692 868 1
712 868 1
715 868 1
736 868 1
737 868 1
28 869 1
29 869 1
689 869 1
693 869 1
713 869 1
716 869 1
737 869 1
738 869 1
29 870 1
30 870 1
690 870 1
694 870 1
714 870 1
717 870 1
738 870 1
739 870 1
30 871 1
31 871 1
691 871 1
695 871 1
715 871 1
718 871 1
739 871 1
740 871 1
31 872 1
32 872 1
692 872 1
696 872 1
716 872 1
719 872 1
740 872 1
741 872 1
32 873 1
33 873 1
685 873 1
693 873 1
717 873 1
720 873 1
741 873 1
742 873 1
33 874 1
34 874 1
686 874 1
694 874 1
709 874 1
718 874 1
742 874 1
743 874 1
34 875 1
35 875 1
687 875 1
695 875 1
710 875 1
719 875 1
743 875 1
744 875 1
35 876 1
36 876 1
688 876 1
696 876 1
711 876 1
720 876 1
733 876 1
744 876 1
37 877 1
48 877 1
697 877 1
701 877 1
721 877 1
724 877 1
733 877 1
735 877 1
37 878 1
38 878 1
698 878 1
702 878 1
722 878 1
725 878 1
734 878 1
736 878 1
38 879 1
39 879 1
699 879 1
703 879 1
723 879 1
726 879 1
735 879 1
737 879 1
39 880 1
40 880 1
700 880 1
704 880 1
724 880 1
727 880 1
736 880 1
738 880 1
40 881 1
41 881 1
701 881 1
705 881 1
725 881 1
728 881 1
737 881 1
739 881 1
41 882 1
42 882 1
702 882 1
706 882 1
726 882 1
729 882 1
738 882 1
740 882 1
42 883 1
43 883 1
703 883 1
707 883 1
727 883 1
730 883 1
739 883 1
741 883 1
43 884 1
44 884 1
704 884 1
708 884 1
728 884 1
731 884 1
740 884 1
742 884 1
44 885 1
45 885 1
697 885 1
705 885 1
729 885 1
732 885 1
741 885 1
743 885 1
45 886 1
46 886 1
698 886 1
706 886 1
721 886 1
730 886 1
742 886 1
744 886 1
46 887 1
47 887 1
699 887 1
707 887 1
722 887 1
731 887 1
733 887 1
743 887 1
47 888 1
48 888 1
700 888 1
708 888 1
723 888 1
732 888 1
734 888 1
744 888 1
49 889 1
60 889 1
673 889 1
678 889 1
745 889 1
747 889 1
757 889 1
758 889 1
49 890 1
50 890 1
674 890 1
679 890 1
746 890 1
748 890 1
758 890 1
759 890 1
50 891 1
51 891 1
675 891 1
680 891 1
747 891 1
749 891 1
759 891 1
760 891 1
51 892 1
52 892 1
676 892 1
681 892 1
748 892 1
750 892 1
760 892 1
761 892 1
52 893 1
53 893 1
677 893 1
682 893 1
749 893 1
751 893 1
761 893 1
762 893 1
53 894 1
54 894 1
678 894 1
683 894 1
750 894 1
752 894 1
762 894 1
763 894 1
54 895 1
55 895 1
679 895 1
684 895 1
751 895 1
753 895 1
763 895 1
764 895 1
55 896 1
56 896 1
673 896 1
680 896 1
752 896 1
754 896 1
764 896 1
765 896 1
56 897 1
57 897 1
674 897 1
681 897 1
753 897 1
755 897 1
765 897 1
766 897 1
57 898 1
58 898 1
675 898 1
682 898 1
754 898 1
756 898 1
766 898 1
767 898 1
58 899 1
59 899 1
676 899 1
683 899 1
745 899 1
755 899 1
767 899 1
768 899 1
59 900 1
60 900 1
677 900 1
684 900 1
746 900 1
756 900 1
757 900 1
768 900 1
61 901 1
72 901 1
685 901 1
690 901 1
745 901 1
748 901 1
769 901 1
770 901 1
61 902 1
62 902 1
686 902 1
691 902 1
746 902 1
749 902 1
770 902 1
771 902 1
62 903 1
63 903 1
687 903 1
692 903 1
747 903 1
750 903 1
771 903 1
772 903 1
63 904 1
64 904 1
688 904 1
693 904 1
748 904 1
751 904 1
772 904 1
773 904 1
64 905 1
65 905 1
689 905 1
694 905 1
749 905 1
752 905 1
773 905 1
774 905 1
65 906 1
66 906 1
690 906 1
695 906 1
750 906 1
753 906 1
774 906 1
775 906 1
66 907 1
67 907 1
691 907 1
696 907 1
751 907 1
754 907 1
775 907 1
776 907 1
67 908 1
68 908 1
685 908 1
692 908 1
752 908 1
755 908 1
776 908 1
777 908 1
68 909 1
69 909 1
686 909 1
693 909 1
753 909 1
756 909 1
777 909 1
778 909 1
69 910 1
70 910 1
687 910 1
694 910 1
745 910 1
754 910 1
778 910 1
779 910 1
70 911 1
71 911 1
688 911 1
695 911 1
746 911 1
755 911 1
779 911 1
780 911 1
71 912 1
72 912 1
689 912 1
696 912 1
747 912 1
756 912 1
769 912 1
780 912 1
73 913 1
84 913 1
697 913 1
702 913 1
757 913 1
760 913 1
769 913 1
771 913 1
73 914 1
74 914 1
698 914 1
703 914 1
758 914 1
761 914 1
770 914 1
772 914 1
74 915 1
75 915 1
699 915 1
704 915 1
759 915 1
762 915 1
771 915 1
773 915 1
75 916 1
76 916 1
700 916 1
705 916 1
760 916 1
763 916 1
772 916 1
774 916 1
76 917 1
77 917 1
701 917 1
706 917 1
761 917 1
764 917 1
773 917 1
775 917 1
77 918 1
78 918 1
702 918 1
707 918 1
762 918 1
765 918 1
774 918 1
776 918 1
78 919 1
79 919 1
703 919 1
708 919 1
763 919 1
766 919 1
775 919 1
777 919 1
79 920 1
80 920 1
697 920 1
704 920 1
764 920 1
767 920 1
776 920 1
778 920 1
80 921 1
81 921 1
698 921 1
705 921 1
765 921 1
768 921 1
777 921 1
779 921 1
81 922 1
82 922 1
699 922 1
706 922 1
757 922 1
766 922 1
778 922 1
780 922 1
82 923 1
83 923 1
700 923 1
707 923 1
758 923 1
767 923 1
769 923 1
779 923 1
83 924 1
84 924 1
701 924 1
708 924 1
759 924 1
768 924 1
770 924 1
780 924 1
85 925 1
96 925 1
709 925 1
714 925 1
745 925 1
749 925 1
781 925 1
782 925 1
85 926 1
86 926 1
710 926 1
715 926 1
746 926 1
750 926 1
782 926 1
783 926 1
86 927 1
87 927 1
711 927 1
716 927 1
747 927 1
751 927 1
783 927 1
784 927 1
87 928 1
88 928 1
712 928 1
717 928 1
748 928 1
752 928 1
784 928 1
785 928 1
88 929 1
89 929 1
713 929 1
718 929 1
749 929 1
753 929 1
785 929 1
786 929 1
89 930 1
90 930 1
714 930 1
719 930 1
750 930 1
754 930 1
786 930 1
787 930 1
90 931 1
91 931 1
715 931 1
720 931 1
751 931 1
755 931 1
787 931 1
788 931 1
91 932 1
92 932 1
709 932 1
716 932 1
752 932 1
756 932 1
788 932 1
789 932 1
92 933 1
93 933 1
710 933 1
717 933 1
745 933 1
753 933 1
789 933 1
790 933 1
93 934 1
94 934 1
711 934 1
718 934 1
746 934 1
754 934 1
790 934 1
791 934 1
94 935 1
95 935 1
712 935 1
719 935 1
747 935 1
755 935 1
791 935 1
792 935 1
95 936 1
96 936 1
713 936 1
720 936 1
748 936 1
756 936 1
781 936 1
792 936 1
97 937 1
108 937 1
721 937 1
726 937 1
757 937 1
761 937 1
781 937 1
783 937 1
97 938 1
98 938 1
722 938 1
727 938 1
758 938 1
762 938 1
782 938 1
784 938 1
98 939 1
99 939 1
723 939 1
728 939 1
759 939 1
763 939 1
783 939 1
785 939 1
99 940 1
100 940 1
724 940 1
729 940 1
760 940 1
764 940 1
784 940 1
786 940 1
100 941 1
101 941 1
725 941 1
730 941 1
761 941 1
765 941 1
785 941 1
787 941 1
101 942 1
102 942 1
726 942 1
731 942 1
762 942 1
766 942 1
786 942 1
788 942 1
102 943 1
103 943 1
727 943 1
732 943 1
763 943 1
767 943 1
787 943 1
789 943 1
103 944 1
104 944 1
721 944 1
728 944 1
764 944 1
768 944 1
788 944 1
790 944 1
104 945 1
105 945 1
722 945 1
729 945 1
757 945 1
765 945 1
789 945 1
791 945 1
105 946 1
106 946 1
723 946 1
730 946 1
758 946 1
766 946 1
790 946 1
792 946 1
106 947 1
107 947 1
724 947 1
731 947 1
759 947 1
767 947 1
781 947 1
791 947 1
107 948 1
108 948 1
725 948 1
732 948 1
760 948 1
768 948 1
782 948 1
792 948 1
109 949 1
120 949 1
733 949 1
738 949 1
769 949 1
773 949 1
781 949 1
784 949 1
109 950 1
110 950 1
734 950 1
739 950 1
770 950 1
774 950 1
782 950 1
785 950 1
110 951 1
111 951 1
735 951 1
740 951 1
771 951 1
775 951 1
783 951 1
786 951 1
111 952 1
112 952 1
736 952 1
741 952 1
772 952 1
776 952 1
784 952 1
787 952 1
112 953 1
113 953 1
737 953 1
742 953 1
773 953 1
777 953 1
785 953 1
788 953 1
113 954 1
114 954 1
738 954 1
743 954 1
774 954 1
778 954 1
786 954 1
789 954 1
114 955 1
115 955 1
739 955 1
744 955 1
775 955 1
779 955 1
787 955 1
790 955 1
115 956 1
116 956 1
733 956 1
740 956 1
776 956 1
780 956 1
788 956 1
791 956 1
116 957 1
117 957 1
734 957 1
741 957 1
769 957 1
777 957 1
789 957 1
792 957 1
117 958 1
118 958 1
735 958 1
742 958 1
770 958 1
778 958 1
781 958 1
790 958 1
118 959 1
119 959 1
736 959 1
743 959 1
771 959 1
779 959 1
782 959 1
791 959 1
119 960 1
120 960 1
737 960 1
744 960 1
772 960 1
780 960 1
783 960 1
792 960 1
121 961 1
132 961 1
673 961 1
680 961 1
793 961 1
795 961 1
805 961 1
806 961 1
121 962 1
122 962 1
674 962 1
681 962 1
794 962 1
796 962 1
806 962 1
807 962 1
122 963 1
123 963 1
675 963 1
682 963 1
795 963 1
797 963 1
807 963 1
808 963 1
123 964 1
124 964 1
676 964 1
683 964 1
796 964 1
798 964 1
808 964 1
809 964 1
124 965 1
125 965 1
677 965 1
684 965 1
797 965 1
799 965 1
809 965 1
810 965 1
125 966 1
126 966 1
673 966 1
678 966 1
798 966 1
800 966 1
810 966 1
811 966 1
126 967 1
127 967 1
674 967 1
679 967 1
799 967 1
801 967 1
811 967 1
812 967 1
127 968 1
128 968 1
675 968 1
680 968 1
800 968 1
802 968 1
812 968 1
813 968 1
128 969 1
129 969 1
676 969 1
681 969 1
801 969 1
803 969 1
813 969 1
814 969 1
129 970 1
130 970 1
677 970 1
682 970 1
802 970 1
804 970 1
814 970 1
815 970 1
130 971 1
131 971 1
678 971 1
683 971 1
793 971 1
803 971 1
815 971 1
816 971 1
131 972 1
132 972 1
679 972 1
684 972 1
794 972 1
804 972 1
805 972 1
816 972 1
133 973 1
144 973 1
685 973 1
692 973 1
793 973 1
796 973 1
817 973 1
818 973 1
133 974 1
134 974 1
686 974 1
693 974 1
794 974 1
797 974 1
818 974 1
819 974 1
134 975 1
135 975 1
687 975 1
694 975 1
795 975 1
798 975 1
819 975 1
820 975 1
135 976 1
136 976 1
688 976 1
695 976 1
796 976 1
799 976 1
820 976 1
821 976 1
136 977 1
137 977 1
689 977 1
696 977 1
797 977 1
800 977 1
821 977 1
822 977 1
137 978 1
138 978 1
685 978 1
690 978 1
798 978 1
801 978 1
822 978 1
823 978 1
138 979 1
139 979 1
686 979 1
691 979 1
799 979 1
802 979 1
823 979 1
824 979 1
139 980 1
140 980 1
687 980 1
692 980 1
800 980 1
803 980 1
824 980 1
825 980 1
140 981 1
141 981 1
688 981 1
693 981 1
801 981 1
804 981 1
825 981 1
826 981 1
141 982 1
142 982 1
689 982 1
694 982 1
793 982 1
802 982 1
826 982 1
827 982 1
142 983 1
143 983 1
690 983 1
695 983 1
794 983 1
803 983 1
827 983 1
828 983 1
143 984 1
144 984 1
691 984 1
696 984 1
795 984 1
804 984 1
817 984 1
828 984 1
145 985 1
156 985 1
697 985 1
704 985 1
805 985 1
808 985 1
817 985 1
819 985 1
145 986 1
146 986 1
698 986 1
705 986 1
806 986 1
809 986 1
818 986 1
820 986 1
146 987 1
147 987 1
699 987 1
706 987 1
807 987 1
810 987 1
819 987 1
821 987 1
147 988 1
148 988 1
700 988 1
707 988 1
808 988 1
811 988 1
820 988 1
822 988 1
148 989 1
149 989 1
701 989 1
708 989 1
809 989 1
812 989 1
821 989 1
823 989 1
149 990 1
150 990 1
697 990 1
702 990 1
810 990 1
813 990 1
822 990 1
824 990 1
150 991 1
151 991 1
698 991 1
703 991 1
811 991 1
814 991 1
823 991 1
825 991 1
151 992 1
152 992 1
699 992 1
704 992 1
812 992 1
815 992 1
824 992 1
826 992 1
152 993 1
153 993 1
700 993 1
705 993 1
813 993 1
816 993 1
825 993 1
827 993 1
153 994 1
154 994 1
701 994 1
706 994 1
805 994 1
814 994 1
826 994 1
828 994 1
154 995 1
155 995 1
702 995 1
707 995 1
806 995 1
815 995 1
817 995 1
827 995 1
155 996 1
156 996 1
703 996 1
708 996 1
807 996 1
816 996 1
818 996 1
828 996 1
157 997 1
168 997 1
709 997 1
716 997 1
793 997 1
797 997 1
829 997 1
830 997 1
157 998 1
158 998 1
710 998 1
717 998 1
794 998 1
798 998 1
830 998 1
831 998 1
158 999 1
159 999 1
711 999 1
718 999 1
795 999 1
799 999 1
831 999 1
832 999 1
159 1000 1
160 1000 1
712 1000 1
719 1000 1
796 1000 1
800 1000 1
832 1000 1
833 1000 1
160 1001 1
161 1001 1
713 1001 1
720 1001 1
797 1001 1
801 1001 1
833 1001 1
834 1001 1
161 1002 1
162 1002 1
709 1002 1
714 1002 1
798 1002 1
802 1002 1
834 1002 1
835 1002 1
162 1003 1
163 1003 1
710 1003 1
715 1003 1
799 1003 1
803 1003 1
835 1003 1
836 1003 1
163 1004 1
164 1004 1
711 1004 1
716 1004 1
800 1004 1
804 1004 1
836 1004 1
837 1004 1
164 1005 1
165 1005 1
712 1005 1
717 1005 1
793 1005 1
801 1005 1
837 1005 1
838 1005 1
165 1006 1
166 1006 1
713 1006 1
718 1006 1
794 1006 1
802 1006 1
838 1006 1
839 1006 1
166 1007 1
167 1007 1
714 1007 1
719 1007 1
795 1007 1
803 1007 1
839 1007 1
840 1007 1
167 1008 1
168 1008 1
715 1008 1
720 1008 1
796 1008 1
804 1008 1
829 1008 1
840 1008 1
169 1009 1
180 1009 1
721 1009 1
728 1009 1
805 1009 1
809 1009 1
829 1009 1
831 1009 1
169 1010 1
170 1010 1
722 1010 1
729 1010 1
806 1010 1
810 1010 1
830 1010 1
832 1010 1
170 1011 1
171 1011 1
723 1011 1
730 1011 1
807 1011 1
811 1011 1
831 1011 1
833 1011 1
171 1012 1
172 1012 1
724 1012 1
731 1012 1
808 1012 1
812 1012 1
832 1012 1
834 1012 1
172 1013 1
173 1013 1
725 1013 1
732 1013 1
809 1013 1
813 1013 1
833 1013 1
835 1013 1
173 1014 1
174 1014 1
721 1014 1
726 1014 1
810 1014 1
814 1014 1
834 1014 1
836 1014 1
174 1015 1
175 1015 1
722 1015 1
727 1015 1
811 1015 1
815 1015 1
835 1015 1
837 1015 1
175 1016 1
176 1016 1
723 1016 1
728 1016 1
812 1016 1
816 1016 1
836 1016 1
838 1016 1
176 1017 1
177 1017 1
724 1017 1
729 1017 1
805 1017 1
813 1017 1
837 1017 1
839 1017 1
177 1018 1
178 1018 1
725 1018 1
730 1018 1
806 1018 1
814 1018 1
838 1018 1
840 1018 1
178 1019 1
179 1019 1
726 1019 1
731 1019 1
807 1019 1
815 1019 1
829 1019 1
839 1019 1
179 1020 1
180 1020 1
727 1020 1
732 1020 1
808 1020 1
816 1020 1
830 1020 1
840 1020 1
181 1021 1
192 1021 1
733 1021 1
740 1021 1
817 1021 1
821 1021 1
829 1021 1
832 1021 1
181 1022 1
182 1022 1
734 1022 1
741 1022 1
818 1022 1
822 1022 1
830 1022 1
833 1022 1
182 1023 1
183 1023 1
735 1023 1
742 1023 1
819 1023 1
823 1023 1
831 1023 1
834 1023 1
183 1024 1
184 1024 1
736 1024 1
743 1024 1
820 1024 1
824 1024 1
832 1024 1
835 1024 1
184 1025 1
185 1025 1
737 1025 1
744 1025 1
821 1025 1
825 1025 1
833 1025 1
836 1025 1
185 1026 1
186 1026 1
733 1026 1
738 1026 1
822 1026 1
826 1026 1
834 1026 1
837 1026 1
186 1027 1
187 1027 1
734 1027 1
739 1027 1
823 1027 1
827 1027 1
835 1027 1
838 1027 1
187 1028 1
188 1028 1
735 1028 1
740 1028 1
824 1028 1
828 1028 1
836 1028 1
839 1028 1
188 1029 1
189 1029 1
736 1029 1
741 1029 1
817 1029 1
825 1029 1
837 1029 1
840 1029 1
189 1030 1
190 1030 1
737 1030 1
742 1030 1
818 1030 1
826 1030 1
829 1030 1
838 1030 1
190 1031 1
191 1031 1
738 1031 1
743 1031 1
819 1031 1
827 1031 1
830 1031 1
839 1031 1
191 1032 1
192 1032 1
739 1032 1
744 1032 1
820 1032 1
828 1032 1
831 1032 1
840 1032 1
193 1033 1
204 1033 1
745 1033 1
752 1033 1
793 1033 1
798 1033 1
841 1033 1
842 1033 1
193 1034 1
194 1034 1
746 1034 1
753 1034 1
794 1034 1
799 1034 1
842 1034 1
843 1034 1
194 1035 1
195 1035 1
747 1035 1
754 1035 1
795 1035 1
800 1035 1
843 1035 1
844 1035 1
195 1036 1
196 1036 1
748 1036 1
755 1036 1
796 1036 1
801 1036 1
844 1036 1
845 1036 1
196 1037 1
197 1037 1
749 1037 1
756 1037 1
797 1037 1
802 1037 1
845 1037 1
846 1037 1
197 1038 1
198 1038 1
745 1038 1
750 1038 1
798 1038 1
803 1038 1
846 1038 1
847 1038 1
198 1039 1
199 1039 1
746 1039 1
751 1039 1
799 1039 1
804 1039 1
847 1039 1
848 1039 1
199 1040 1
200 1040 1
747 1040 1
752 1040 1
793 1040 1
800 1040 1
848 1040 1
849 1040 1
200 1041 1
201 1041 1
748 1041 1
753 1041 1
794 1041 1
801 1041 1
849 1041 1
850 1041 1
201 1042 1
202 1042 1
749 1042 1
754 1042 1
795 1042 1
802 1042 1
850 1042 1
851 1042 1
202 1043 1
203 1043 1
750 1043 1
755 1043 1
796 1043 1
803 1043 1
851 1043 1
852 1043 1
203 1044 1
204 1044 1
751 1044 1
756 1044 1
797 1044 1
804 1044 1
841 1044 1
852 1044 1
205 1045 1
216 1045 1
757 1045 1
764 1045 1
805 1045 1
810 1045 1
841 1045 1
843 1045 1
205 1046 1
206 1046 1
758 1046 1
765 1046 1
806 1046 1
811 1046 1
842 1046 1
844 1046 1
206 1047 1
207 1047 1
759 1047 1
766 1047 1
807 1047 1
812 1047 1
843 1047 1
845 1047 1
207 1048 1
208 1048 1
760 1048 1
767 1048 1
808 1048 1
813 1048 1
844 1048 1
846 1048 1
208 1049 1
209 1049 1
761 1049 1
768 1049 1
809 1049 1
814 1049 1
845 1049 1
847 1049 1
209 1050 1
210 1050 1
757 1050 1
762 1050 1
810 1050 1
815 1050 1
846 1050 1
848 1050 1
210 1051 1
211 1051 1
758 1051 1
763 1051 1
811 1051 1
816 1051 1
847 1051 1
849 1051 1
211 1052 1
212 1052 1
759 1052 1
764 1052 1
805 1052 1
812 1052 1
848 1052 1
850 1052 1
212 1053 1
213 1053 1
760 1053 1
765 1053 1
806 1053 1
813 1053 1
849 1053 1
851 1053 1
213 1054 1
214 1054 1
761 1054 1
766 1054 1
807 1054 1
814 1054 1
850 1054 1
852 1054 1
214 1055 1
215 1055 1
762 1055 1
767 1055 1
808 1055 1
815 1055 1
841 1055 1
851 1055 1
215 1056 1
216 1056 1
763 1056 1
768 1056 1
809 1056 1
816 1056 1
842 1056 1
852 1056 1
217 1057 1
228 1057 1
769 1057 1
776 1057 1
817 1057 1
822 1057 1
841 1057 1
844 1057 1
217 1058 1
218 1058 1
770 1058 1
777 1058 1
818 1058 1
823 1058 1
842 1058 1
845 1058 1
218 1059 1
219 1059 1
771 1059 1
778 1059 1
819 1059 1
824 1059 1
843 1059 1
846 1059 1
219 1060 1
220 1060 1
772 1060 1
779 1060 1
820 1060 1
825 1060 1
844 1060 1
847 1060 1
220 1061 1
221 1061 1
773 1061 1
780 1061 1
821 1061 1
826 1061 1
845 1061 1
848 1061 1
221 1062 1
222 1062 1
769 1062 1
774 1062 1
822 1062 1
827 1062 1
846 1062 1
849 1062 1
222 1063 1
223 1063 1
770 1063 1
775 1063 1
823 1063 1
828 1063 1
847 1063 1
850 1063 1
223 1064 1
224 1064 1
771 1064 1
776 1064 1
817 1064 1
824 1064 1
848 1064 1
851 1064 1
224 1065 1
225 1065 1
772 1065 1
777 1065 1
818 1065 1
825 1065 1
849 1065 1
852 1065 1
225 1066 1
226 1066 1
773 1066 1
778 1066 1
819 1066 1
826 1066 1
841 1066 1
850 1066 1
226 1067 1
227 1067 1
774 1067 1
779 1067 1
820 1067 1
827 1067 1
842 1067 1
851 1067 1
227 1068 1
228 1068 1
775 1068 1
780 1068 1
821 1068 1
828 1068 1
843 1068 1
852 1068 1
229 1069 1
240 1069 1
781 1069 1
788 1069 1
829 1069 1
834 1069 1
841 1069 1
845 1069 1
229 1070 1
230 1070 1
782 1070 1
789 1070 1
830 1070 1
835 1070 1
842 1070 1
846 1070 1
230 1071 1
231 1071 1
783 1071 1
790 1071 1
831 1071 1
836 1071 1
843 1071 1
847 1071 1
231 1072 1
232 1072 1
784 1072 1
791 1072 1
832 1072 1
837 1072 1
844 1072 1
848 1072 1
232 1073 1
233 1073 1
785 1073 1
792 1073 1
833 1073 1
838 1073 1
845 1073 1
849 1073 1
233 1074 1
234 1074 1
781 1074 1
786 1074 1
834 1074 1
839 1074 1
846 1074 1
850 1074 1
234 1075 1
235 1075 1
782 1075 1
787 1075 1
835 1075 1
840 1075 1
847 1075 1
851 1075 1
235 1076 1
236 1076 1
783 1076 1
788 1076 1
829 1076 1
836 1076 1
848 1076 1
852 1076 1
236 1077 1
237 1077 1
784 1077 1
789 1077 1
830 1077 1
837 1077 1
841 1077 1
849 1077 1
237 1078 1
238 1078 1
785 1078 1
790 1078 1
831 1078 1
838 1078 1
842 1078 1
850 1078 1
238 1079 1
239 1079 1
786 1079 1
791 1079 1
832 1079 1
839 1079 1
843 1079 1
851 1079 1
239 1080 1
240 1080 1
787 1080 1
792 1080 1
833 1080 1
840 1080 1
844 1080 1
852 1080 1
241 1081 1
252 1081 1
673 1081 1
682 1081 1
853 1081 1
855 1081 1
865 1081 1
866 1081 1
241 1082 1
242 1082 1
674 1082 1
683 1082 1
854 1082 1
856 1082 1
866 1082 1
867 1082 1
242 1083 1
243 1083 1
675 1083 1
684 1083 1
855 1083 1
857 1083 1
867 1083 1
868 1083 1
243 1084 1
244 1084 1
673 1084 1
676 1084 1
856 1084 1
858 1084 1
868 1084 1
869 1084 1
244 1085 1
245 1085 1
674 1085 1
677 1085 1
857 1085 1
859 1085 1
869 1085 1
870 1085 1
245 1086 1
246 1086 1
675 1086 1
678 1086 1
858 1086 1
860 1086 1
870 1086 1
871 1086 1
246 1087 1
247 1087 1
676 1087 1
679 1087 1
859 1087 1
861 1087 1
871 1087 1
872 1087 1
247 1088 1
248 1088 1
677 1088 1
680 1088 1
860 1088 1
862 1088 1
872 1088 1
873 1088 1
248 1089 1
249 1089 1
678 1089 1
681 1089 1
861 1089 1
863 1089 1
873 1089 1
874 1089 1
249 1090 1
250 1090 1
679 1090 1
682 1090 1
862 1090 1
864 1090 1
874 1090 1
875 1090 1
250 1091 1
251 1091 1
680 1091 1
683 1091 1
853 1091 1
863 1091 1
875 1091 1
876 1091 1
251 1092 1
252 1092 1
681 1092 1
684 1092 1
854 1092 1
864 1092 1
865 1092 1
876 1092 1
253 1093 1
264 1093 1
685 1093 1
694 1093 1
853 1093 1
856 1093 1
877 1093 1
878 1093 1
253 1094 1
254 1094 1
686 1094 1
695 1094 1
854 1094 1
857 1094 1
878 1094 1
879 1094 1
254 1095 1
255 1095 1
687 1095 1
696 1095 1
855 1095 1
858 1095 1
879 1095 1
880 1095 1
255 1096 1
256 1096 1
685 1096 1
688 1096 1
856 1096 1
859 1096 1
880 1096 1
881 1096 1
256 1097 1
257 1097 1
686 1097 1
689 1097 1
857 1097 1
860 1097 1
881 1097 1
882 1097 1
257 1098 1
258 1098 1
687 1098 1
690 1098 1
858 1098 1
861 1098 1
882 1098 1
883 1098 1
258 1099 1
259 1099 1
688 1099 1
691 1099 1
859 1099 1
862 1099 1
883 1099 1
884 1099 1
259 1100 1
260 1100 1
689 1100 1
692 1100 1
860 1100 1
863 1100 1
884 1100 1
885 1100 1
260 1101 1
261 1101 1
690 1101 1
693 1101 1
861 1101 1
864 1101 1
885 1101 1
886 1101 1
261 1102 1
262 1102 1
691 1102 1
694 1102 1
853 1102 1
862 1102 1
886 1102 1
887 1102 1
262 1103 1
263 1103 1
692 1103 1
695 1103 1
854 1103 1
863 1103 1
887 1103 1
888 1103 1
263 1104 1
264 1104 1
693 1104 1
696 1104 1
855 1104 1
864 1104 1
877 1104 1
888 1104 1
265 1105 1
276 1105 1
697 1105 1
706 1105 1
865 1105 1
868 1105 1
877 1105 1
879 1105 1
265 1106 1
266 1106 1
698 1106 1
707 1106 1
866 1106 1
869 1106 1
878 1106 1
880 1106 1
266 1107 1
267 1107 1
699 1107 1
708 1107 1
867 1107 1
870 1107 1
879 1107 1
881 1107 1
267 1108 1
268 1108 1
697 1108 1
700 1108 1
868 1108 1
871 1108 1
880 1108 1
882 1108 1
268 1109 1
269 1109 1
698 1109 1
701 1109 1
869 1109 1
872 1109 1
881 1109 1
883 1109 1
269 1110 1
270 1110 1
699 1110 1
702 1110 1
870 1110 1
873 1110 1
882 1110 1
884 1110 1
270 1111 1
271 1111 1
700 1111 1
703 1111 1
871 1111 1
874 1111 1
883 1111 1
885 1111 1
271 1112 1
272 1112 1
701 1112 1
704 1112 1
872 1112 1
875 1112 1
884 1112 1
886 1112 1
272 1113 1
273 1113 1
702 1113 1
705 1113 1
873 1113 1
876 1113 1
885 1113 1
887 1113 1
273 1114 1
274 1114 1
703 1114 1
706 1114 1
865 1114 1
874 1114 1
886 1114 1
888 1114 1
274 1115 1
275 1115 1
704 1115 1
707 1115 1
866 1115 1
875 1115 1
877 1115 1
887 1115 1
275 1116 1
276 1116 1
705 1116 1
708 1116 1
867 1116 1
876 1116 1
878 1116 1
888 1116 1
277 1117 1
288 1117 1
709 1117 1
718 1117 1
853 1117 1
857 1117 1
889 1117 1
890 1117 1
277 1118 1
278 1118 1
710 1118 1
719 1118 1
854 1118 1
858 1118 1
890 1118 1
891 1118 1
278 1119 1
279 1119 1
711 1119 1
720 1119 1
855 1119 1
859 1119 1
891 1119 1
892 1119 1
279 1120 1
280 1120 1
709 1120 1
712 1120 1
856 1120 1
860 1120 1
892 1120 1
893 1120 1
280 1121 1
281 1121 1
710 1121 1
713 1121 1
857 1121 1
861 1121 1
893 1121 1
894 1121 1
281 1122 1
282 1122 1
711 1122 1
714 1122 1
858 1122 1
862 1122 1
894 1122 1
895 1122 1
282 1123 1
283 1123 1
712 1123 1
715 1123 1
859 1123 1
863 1123 1
895 1123 1
896 1123 1
283 1124 1
284 1124 1
713 1124 1
716 1124 1
860 1124 1
864 1124 1
896 1124 1
897 1124 1
284 1125 1
285 1125 1
714 1125 1
717 1125 1
853 1125 1
861 1125 1
897 1125 1
898 1125 1
285 1126 1
286 1126 1
715 1126 1
718 1126 1
854 1126 1
862 1126 1
898 1126 1
899 1126 1
286 1127 1
287 1127 1
716 1127 1
719 1127 1
855 1127 1
863 1127 1
899 1127 1
900 1127 1
287 1128 1
288 1128 1
717 1128 1
720 1128 1
856 1128 1
864 1128 1
889 1128 1
900 1128 1
289 1129 1
300 1129 1
721 1129 1
730 1129 1
865 1129 1
869 1129 1
889 1129 1
891 1129 1
289 1130 1
290 1130 1
722 1130 1
731 1130 1
866 1130 1
870 1130 1
890 1130 1
892 1130 1
290 1131 1
291 1131 1
723 1131 1
732 1131 1
867 1131 1
871 1131 1
891 1131 1
893 1131 1
291 1132 1
292 1132 1
721 1132 1
724 1132 1
868 1132 1
872 1132 1
892 1132 1
894 1132 1
292 1133 1
293 1133 1
722 1133 1
725 1133 1
869 1133 1
873 1133 1
893 1133 1
895 1133 1
293 1134 1
294 1134 1
723 1134 1
726 1134 1
870 1134 1
874 1134 1
894 1134 1
896 1134 1
294 1135 1
295 1135 1
724 1135 1
727 1135 1
871 1135 1
875 1135 1
895 1135 1
897 1135 1
295 1136 1
296 1136 1
725 1136 1
728 1136 1
872 1136 1
876 1136 1
896 1136 1
898 1136 1
296 1137 1
297 1137 1
726 1137 1
729 1137 1
865 1137 1
873 1137 1
897 1137 1
899 1137 1
297 1138 1
298 1138 1
727 1138 1
730 1138 1
866 1138 1
874 1138 1
898 1138 1
900 1138 1
298 1139 1
299 1139 1
728 1139 1
731 1139 1
867 1139 1
875 1139 1
889 1139 1
899 1139 1
299 1140 1
300 1140 1
729 1140 1
732 1140 1
868 1140 1
876 1140 1
890 1140 1
900 1140 1
301 1141 1
312 1141 1
733 1141 1
742 1141 1
877 1141 1
881 1141 1
889 1141 1
892 1141 1
301 1142 1
302 1142 1
734 1142 1
743 1142 1
878 1142 1
882 1142 1
890 1142 1
893 1142 1
302 1143 1
303 1143 1
735 1143 1
744 1143 1
879 1143 1
883 1143 1
891 1143 1
894 1143 1
303 1144 1
304 1144 1
733 1144 1
736 1144 1
880 1144 1
884 1144 1
892 1144 1
895 1144 1
304 1145 1
305 1145 1
734 1145 1
737 1145 1
881 1145 1
885 1145 1
893 1145 1
896 1145 1
305 1146 1
306 1146 1
735 1146 1
738 1146 1
882 1146 1
886 1146 1
894 1146 1
897 1146 1
306 1147 1
307 1147 1
736 1147 1
739 1147 1
883 1147 1
887 1147 1
895 1147 1
898 1147 1
307 1148 1
308 1148 1
737 1148 1
740 1148 1
884 1148 1
888 1148 1
896 1148 1
899 1148 1
308 1149 1
309 1149 1
738 1149 1
741 1149 1
877 1149 1
885 1149 1
897 1149 1
900 1149 1
309 1150 1
310 1150 1
739 1150 1
742 1150 1
878 1150 1
886 1150 1
889 1150 1
898 1150 1
310 1151 1
311 1151 1
740 1151 1
743 1151 1
879 1151 1
887 1151 1
890 1151 1
899 1151 1
311 1152 1
312 1152 1
741 1152 1
744 1152 1
880 1152 1
888 1152 1
891 1152 1
900 1152 1
313 1153 1
324 1153 1
745 1153 1
754 1153 1
853 1153 1
858 1153 1
901 1153 1
902 1153 1
313 1154 1
314 1154 1
746 1154 1
755 1154 1
854 1154 1
859 1154 1
902 1154 1
903 1154 1
314 1155 1
315 1155 1
747 1155 1
756 1155 1
855 1155 1
860 1155 1
903 1155 1
904 1155 1
315 1156 1
316 1156 1
745 1156 1
748 1156 1
856 1156 1
861 1156 1
904 1156 1
905 1156 1
316 1157 1
317 1157 1
746 1157 1
749 1157 1
857 1157 1
862 1157 1
905 1157 1
906 1157 1
317 1158 1
318 1158 1
747 1158 1
750 1158 1
858 1158 1
863 1158 1
906 1158 1
907 1158 1
318 1159 1
319 1159 1
748 1159 1
751 1159 1
859 1159 1
864 1159 1
907 1159 1
908 1159 1
319 1160 1
320 1160 1
749 1160 1
752 1160 1
853 1160 1
860 1160 1
908 1160 1
909 1160 1
320 1161 1
321 1161 1
750 1161 1
753 1161 1
854 1161 1
861 1161 1
909 1161 1
910 1161 1
321 1162 1
322 1162 1
751 1162 1
754 1162 1
855 1162 1
862 1162 1
910 1162 1
911 1162 1
322 1163 1
323 1163 1
752 1163 1
755 1163 1
856 1163 1
863 1163 1
911 1163 1
912 1163 1
323 1164 1
324 1164 1
753 1164 1
756 1164 1
857 1164 1
864 1164 1
901 1164 1
912 1164 1
325 1165 1
336 1165 1
757 1165 1
766 1165 1
865 1165 1
870 1165 1
901 1165 1
903 1165 1
325 1166 1
326 1166 1
758 1166 1
767 1166 1
866 1166 1
871 1166 1
902 1166 1
904 1166 1
326 1167 1
327 1167 1
759 1167 1
768 1167 1
867 1167 1
872 1167 1
903 1167 1
905 1167 1
327 1168 1
328 1168 1
757 1168 1
760 1168 1
868 1168 1
873 1168 1
904 1168 1
906 1168 1
328 1169 1
329 1169 1
758 1169 1
761 1169 1
869 1169 1
874 1169 1
905 1169 1
907 1169 1
329 1170 1
330 1170 1
759 1170 1
762 1170 1
870 1170 1
875 1170 1
906 1170 1
908 1170 1
330 1171 1
331 1171 1
760 1171 1
763 1171 1
871 1171 1
876 1171 1
907 1171 1
909 1171 1
331 1172 1
332 1172 1
761 1172 1
764 1172 1
865 1172 1
872 1172 1
908 1172 1
910 1172 1
332 1173 1
333 1173 1
762 1173 1
765 1173 1
866 1173 1
873 1173 1
909 1173 1
911 1173 1
333 1174 1
334 1174 1
763 1174 1
766 1174 1
867 1174 1
874 1174 1
910 1174 1
912 1174 1
334 1175 1
335 1175 1
764 1175 1
767 1175 1
868 1175 1
875 1175 1
901 1175 1
911 1175 1
335 1176 1
336 1176 1
765 1176 1
768 1176 1
869 1176 1
876 1176 1
902 1176 1
912 1176 1
337 1177 1
348 1177 1
769 1177 1
778 1177 1
877 1177 1
882 1177 1
901 1177 1
904 1177 1
337 1178 1
338 1178 1
770 1178 1
779 1178 1
878 1178 1
883 1178 1
902 1178 1
905 1178 1
338 1179 1
339 1179 1
771 1179 1
780 1179 1
879 1179 1
884 1179 1
903 1179 1
906 1179 1
339 1180 1
340 1180 1
769 1180 1
772 1180 1
880 1180 1
885 1180 1
904 1180 1
907 1180 1
340 1181 1
341 1181 1
770 1181 1
773 1181 1
881 1181 1
886 1181 1
905 1181 1
908 1181 1
341 1182 1
342 1182 1
771 1182 1
774 1182 1
882 1182 1
887 1182 1
906 1182 1
909 1182 1
342 1183 1
343 1183 1
772 1183 1
775 1183 1
883 1183 1
888 1183 1
907 1183 1
910 1183 1
343 1184 1
344 1184 1
773 1184 1
776 1184 1
877 1184 1
884 1184 1
908 1184 1
911 1184 1
344 1185 1
345 1185 1
774 1185 1
777 1185 1
878 1185 1
885 1185 1
909 1185 1
912 1185 1
345 1186 1
346 1186 1
775 1186 1
778 1186 1
879 1186 1
886 1186 1
901 1186 1
910 1186 1
346 1187 1
347 1187 1
776 1187 1
779 1187 1
880 1187 1
887 1187 1
902 1187 1
911 1187 1
347 1188 1
348 1188 1
777 1188 1
780 1188 1
881 1188 1
888 1188 1
903 1188 1
912 1188 1
349 1189 1
360 1189 1
781 1189 1
790 1189 1
889 1189 1
894 1189 1
901 1189 1
905 1189 1
349 1190 1
350 1190 1
782 1190 1
791 1190 1
890 1190 1
895 1190 1
902 1190 1
906 1190 1
350 1191 1
351 1191 1
783 1191 1
792 1191 1
891 1191 1
896 1191 1
903 1191 1
907 1191 1
351 1192 1
352 1192 1
781 1192 1
784 1192 1
892 1192 1
897 1192 1
904 1192 1
908 1192 1
352 1193 1
353 1193 1
782 1193 1
785 1193 1
893 1193 1
898 1193 1
905 1193 1
909 1193 1
353 1194 1
354 1194 1
783 1194 1
786 1194 1
894 1194 1
899 1194 1
906 1194 1
910 1194 1
354 1195 1
355 1195 1
784 1195 1
787 1195 1
895 1195 1
900 1195 1
907 1195 1
911 1195 1
355 1196 1
356 1196 1
785 1196 1
788 1196 1
889 1196 1
896 1196 1
908 1196 1
912 1196 1
356 1197 1
357 1197 1
786 1197 1
789 1197 1
890 1197 1
897 1197 1
901 1197 1
909 1197 1
357 1198 1
358 1198 1
787 1198 1
790 1198 1
891 1198 1
898 1198 1
902 1198 1
910 1198 1
358 1199 1
359 1199 1
788 1199 1
791 1199 1
892 1199 1
899 1199 1
903 1199 1
911 1199 1
359 1200 1
360 1200 1
789 1200 1
792 1200 1
893 1200 1
900 1200 1
904 1200 1
912 1200 1
361 1201 1
372 1201 1
793 1201 1
802 1201 1
853 1201 1
860 1201 1
913 1201 1
914 1201 1
361 1202 1
362 1202 1
794 1202 1
803 1202 1
854 1202 1
861 1202 1
914 1202 1
915 1202 1
362 1203 1
363 1203 1
795 1203 1
804 1203 1
855 1203 1
862 1203 1
915 1203 1
916 1203 1
363 1204 1
364 1204 1
793 1204 1
796 1204 1
856 1204 1
863 1204 1
916 1204 1
917 1204 1
364 1205 1
365 1205 1
794 1205 1
797 1205 1
857 1205 1
864 1205 1
917 1205 1
918 1205 1
365 1206 1
366 1206 1
795 1206 1
798 1206 1
853 1206 1
858 1206 1
918 1206 1
919 1206 1
366 1207 1
367 1207 1
796 1207 1
799 1207 1
854 1207 1
859 1207 1
919 1207 1
920 1207 1
367 1208 1
368 1208 1
797 1208 1
800 1208 1
855 1208 1
860 1208 1
920 1208 1
921 1208 1
368 1209 1
369 1209 1
798 1209 1
801 1209 1
856 1209 1
861 1209 1
921 1209 1
922 1209 1
369 1210 1
370 1210 1
799 1210 1
802 1210 1
857 1210 1
862 1210 1
922 1210 1
923 1210 1
370 1211 1
371 1211 1
800 1211 1
803 1211 1
858 1211 1
863 1211 1
923 1211 1
924 1211 1
371 1212 1
372 1212 1
801 1212 1
804 1212 1
859 1212 1
864 1212 1
913 1212 1
924 1212 1
373 1213 1
384 1213 1
805 1213 1
814 1213 1
865 1213 1
872 1213 1
913 1213 1
915 1213 1
373 1214 1
374 1214 1
806 1214 1
815 1214 1
866 1214 1
873 1214 1
914 1214 1
916 1214 1
374 1215 1
375 1215 1
807 1215 1
816 1215 1
867 1215 1
874 1215 1
915 1215 1
917 1215 1
375 1216 1
376 1216 1
805 1216 1
808 1216 1
868 1216 1
875 1216 1
916 1216 1
918 1216 1
376 1217 1
377 1217 1
806 1217 1
809 1217 1
869 1217 1
876 1217 1
917 1217 1
919 1217 1
377 1218 1
378 1218 1
807 1218 1
810 1218 1
865 1218 1
870 1218 1
918 1218 1
920 1218 1
378 1219 1
379 1219 1
808 1219 1
811 1219 1
866 1219 1
871 1219 1
919 1219 1
921 1219 1
379 1220 1
380 1220 1
809 1220 1
812 1220 1
867 1220 1
872 1220 1
920 1220 1
922 1220 1
380 1221 1
381 1221 1
810 1221 1
813 1221 1
868 1221 1
873 1221 1
921 1221 1
923 1221 1
381 1222 1
382 1222 1
811 1222 1
814 1222 1
869 1222 1
874 1222 1
922 1222 1
924 1222 1
382 1223 1
383 1223 1
812 1223 1
815 1223 1
870 1223 1
875 1223 1
913 1223 1
923 1223 1
383 1224 1
384 1224 1
813 1224 1
816 1224 1
871 1224 1
876 1224 1
914 1224 1
924 1224 1
385 1225 1
396 1225 1
817 1225 1
826 1225 1
877 1225 1
884 1225 1
913 1225 1
916 1225 1
385 1226 1
386 1226 1
818 1226 1
827 1226 1
878 1226 1
885 1226 1
914 1226 1
917 1226 1
386 1227 1
387 1227 1
819 1227 1
828 1227 1
879 1227 1
886 1227 1
915 1227 1
918 1227 1
387 1228 1
388 1228 1
817 1228 1
820 1228 1
880 1228 1
887 1228 1
916 1228 1
919 1228 1
388 1229 1
389 1229 1
818 1229 1
821 1229 1
881 1229 1
888 1229 1
917 1229 1
920 1229 1
389 1230 1
390 1230 1
819 1230 1
822 1230 1
877 1230 1
882 1230 1
918 1230 1
921 1230 1
390 1231 1
391 1231 1
820 1231 1
823 1231 1
878 1231 1
883 1231 1
919 1231 1
922 1231 1
391 1232 1
392 1232 1
821 1232 1
824 1232 1
879 1232 1
884 1232 1
920 1232 1
923 1232 1
392 1233 1
393 1233 1
822 1233 1
825 1233 1
880 1233 1
885 1233 1
921 1233 1
924 1233 1
393 1234 1
394 1234 1
823 1234 1
826 1234 1
881 1234 1
886 1234 1
913 1234 1
922 1234 1
394 1235 1
395 1235 1
824 1235 1
827 1235 1
882 1235 1
887 1235 1
914 1235 1
923 1235 1
395 1236 1
396 1236 1
825 1236 1
828 1236 1
883 1236 1
888 1236 1
915 1236 1
924 1236 1
397 1237 1
408 1237 1
829 1237 1
838 1237 1
889 1237 1
896 1237 1
913 1237 1
917 1237 1
397 1238 1
398 1238 1
830 1238 1
839 1238 1
890 1238 1
897 1238 1
914 1238 1
918 1238 1
398 1239 1
399 1239 1
831 1239 1
840 1239 1
891 1239 1
898 1239 1
915 1239 1
919 1239 1
399 1240 1
400 1240 1
829 1240 1
832 1240 1
892 1240 1
899 1240 1
916 1240 1
920 1240 1
400 1241 1
401 1241 1
830 1241 1
833 1241 1
893 1241 1
900 1241 1
917 1241 1
921 1241 1
401 1242 1
402 1242 1
831 1242 1
834 1242 1
889 1242 1
894 1242 1
918 1242 1
922 1242 1
402 1243 1
403 1243 1
832 1243 1
835 1243 1
890 1243 1
895 1243 1
919 1243 1
923 1243 1
403 1244 1
404 1244 1
833 1244 1
836 1244 1
891 1244 1
896 1244 1
920 1244 1
924 1244 1
404 1245 1
405 1245 1
834 1245 1
837 1245 1
892 1245 1
897 1245 1
913 1245 1
921 1245 1
405 1246 1
406 1246 1
835 1246 1
838 1246 1
893 1246 1
898 1246 1
914 1246 1
922 1246 1
406 1247 1
407 1247 1
836 1247 1
839 1247 1
894 1247 1
899 1247 1
915 1247 1
923 1247 1
407 1248 1
408 1248 1
837 1248 1
840 1248 1
895 1248 1
900 1248 1
916 1248 1
924 1248 1
409 1249 1
420 1249 1
841 1249 1
850 1249 1
901 1249 1
908 1249 1
913 1249 1
918 1249 1
409 1250 1
410 1250 1
842 1250 1
851 1250 1
902 1250 1
909 1250 1
914 1250 1
919 1250 1
410 1251 1
411 1251 1
843 1251 1
852 1251 1
903 1251 1
910 1251 1
915 1251 1
920 1251 1
411 1252 1
412 1252 1
841 1252 1
844 1252 1
904 1252 1
911 1252 1
916 1252 1
921 1252 1
412 1253 1
413 1253 1
842 1253 1
845 1253 1
905 1253 1
912 1253 1
917 1253 1
922 1253 1
413 1254 1
414 1254 1
843 1254 1
846 1254 1
901 1254 1
906 1254 1
918 1254 1
923 1254 1
414 1255 1
415 1255 1
844 1255 1
847 1255 1
902 1255 1
907 1255 1
919 1255 1
924 1255 1
415 1256 1
416 1256 1
845 1256 1
848 1256 1
903 1256 1
908 1256 1
913 1256 1
920 1256 1
416 1257 1
417 1257 1
846 1257 1
849 1257 1
904 1257 1
909 1257 1
914 1257 1
921 1257 1
417 1258 1
418 1258 1
847 1258 1
850 1258 1
905 1258 1
910 1258 1
915 1258 1
922 1258 1
418 1259 1
419 1259 1
848 1259 1
851 1259 1
906 1259 1
911 1259 1
916 1259 1
923 1259 1
419 1260 1
420 1260 1
849 1260 1
852 1260 1
907 1260 1
912 1260 1
917 1260 1
924 1260 1
421 1261 1
432 1261 1
673 1261 1
683 1261 1
925 1261 1
927 1261 1
937 1261 1
938 1261 1
421 1262 1
422 1262 1
674 1262 1
684 1262 1
926 1262 1
928 1262 1
938 1262 1
939 1262 1
422 1263 1
423 1263 1
673 1263 1
675 1263 1
927 1263 1
929 1263 1
939 1263 1
940 1263 1
423 1264 1
424 1264 1
674 1264 1
676 1264 1
928 1264 1
930 1264 1
940 1264 1
941 1264 1
424 1265 1
425 1265 1
675 1265 1
677 1265 1
929 1265 1
931 1265 1
941 1265 1
942 1265 1
425 1266 1
426 1266 1
676 1266 1
678 1266 1
930 1266 1
932 1266 1
942 1266 1
943 1266 1
426 1267 1
427 1267 1
677 1267 1
679 1267 1
931 1267 1
933 1267 1
943 1267 1
944 1267 1
427 1268 1
428 1268 1
678 1268 1
680 1268 1
932 1268 1
934 1268 1
944 1268 1
945 1268 1
428 1269 1
429 1269 1
679 1269 1
681 1269 1
933 1269 1
935 1269 1
945 1269 1
946 1269 1
429 1270 1
430 1270 1
680 1270 1
682 1270 1
934 1270 1
936 1270 1
946 1270 1
947 1270 1
430 1271 1
431 1271 1
681 1271 1
683 1271 1
925 1271 1
935 1271 1
947 1271 1
948 1271 1
431 1272 1
432 1272 1
682 1272 1
684 1272 1
926 1272 1
936 1272 1
937 1272 1
948 1272 1
433 1273 1
444 1273 1
685 1273 1
695 1273 1
925 1273 1
928 1273 1
949 1273 1
950 1273 1
433 1274 1
434 1274 1
686 1274 1
696 1274 1
926 1274 1
929 1274 1
950 1274 1
951 1274 1
434 1275 1
435 1275 1
685 1275 1
687 1275 1
927 1275 1
930 1275 1
951 1275 1
952 1275 1
435 1276 1
436 1276 1
686 1276 1
688 1276 1
928 1276 1
931 1276 1
952 1276 1
953 1276 1
436 1277 1
437 1277 1
687 1277 1
689 1277 1
929 1277 1
932 1277 1
953 1277 1
954 1277 1
437 1278 1
438 1278 1
688 1278 1
690 1278 1
930 1278 1
933 1278 1
954 1278 1
955 1278 1
438 1279 1
439 1279 1
689 1279 1
691 1279 1
931 1279 1
934 1279 1
955 1279 1
956 1279 1
439 1280 1
440 1280 1
690 1280 1
692 1280 1
932 1280 1
935 1280 1
956 1280 1
957 1280 1
440 1281 1
441 1281 1
691 1281 1
693 1281 1
933 1281 1
936 1281 1
957 1281 1
958 1281 1
441 1282 1
442 1282 1
692 1282 1
694 1282 1
925 1282 1
934 1282 1
958 1282 1
959 1282 1
442 1283 1
443 1283 1
693 1283 1
695 1283 1
926 1283 1
935 1283 1
959 1283 1
960 1283 1
443 1284 1
444 1284 1
694 1284 1
696 1284 1
927 1284 1
936 1284 1
949 1284 1
960 1284 1
445 1285 1
456 1285 1
697 1285 1
707 1285 1
937 1285 1
940 1285 1
949 1285 1
951 1285 1
445 1286 1
446 1286 1
698 1286 1
708 1286 1
938 1286 1
941 1286 1
950 1286 1
952 1286 1
446 1287 1
447 1287 1
697 1287 1
699 1287 1
939 1287 1
942 1287 1
951 1287 1
953 1287 1
447 1288 1
448 1288 1
698 1288 1
700 1288 1
940 1288 1
943 1288 1
952 1288 1
954 1288 1
448 1289 1
449 1289 1
699 1289 1
701 1289 1
941 1289 1
944 1289 1
953 1289 1
955 1289 1
449 1290 1
450 1290 1
700 1290 1
702 1290 1
942 1290 1
945 1290 1
954 1290 1
956 1290 1
450 1291 1
451 1291 1
701 1291 1
703 1291 1
943 1291 1
946 1291 1
955 1291 1
957 1291 1
451 1292 1
452 1292 1
702 1292 1
704 1292 1
944 1292 1
947 1292 1
956 1292 1
958 1292 1
452 1293 1
453 1293 1
703 1293 1
705 1293 1
945 1293 1
948 1293 1
957 1293 1
959 1293 1
453 1294 1
454 1294 1
704 1294 1
706 1294 1
937 1294 1
946 1294 1
958 1294 1
960 1294 1
454 1295 1
455 1295 1
705 1295 1
707 1295 1
938 1295 1
947 1295 1
949 1295 1
959 1295 1
455 1296 1
456 1296 1
706 1296 1
708 1296 1
939 1296 1
948 1296 1
950 1296 1
960 1296 1
457 1297 1
468 1297 1
709 1297 1
719 1297 1
925 1297 1
929 1297 1
961 1297 1
962 1297 1
457 1298 1
458 1298 1
710 1298 1
720 1298 1
926 1298 1
930 1298 1
962 1298 1
963 1298 1
458 1299 1
459 1299 1
709 1299 1
711 1299 1
927 1299 1
931 1299 1
963 1299 1
964 1299 1
459 1300 1
460 1300 1
710 1300 1
712 1300 1
928 1300 1
932 1300 1
964 1300 1
965 1300 1
460 1301 1
461 1301 1
711 1301 1
713 1301 1
929 1301 1
933 1301 1
965 1301 1
966 1301 1
461 1302 1
462 1302 1
712 1302 1
714 1302 1
930 1302 1
934 1302 1
966 1302 1
967 1302 1
462 1303 1
463 1303 1
713 1303 1
715 1303 1
931 1303 1
935 1303 1
967 1303 1
968 1303 1
463 1304 1
464 1304 1
714 1304 1
716 1304 1
932 1304 1
936 1304 1
968 1304 1
969 1304 1
464 1305 1
465 1305 1
715 1305 1
717 1305 1
925 1305 1
933 1305 1
969 1305 1
970 1305 1
465 1306 1
466 1306 1
716 1306 1
718 1306 1
926 1306 1
934 1306 1
970 1306 1
971 1306 1
466 1307 1
467 1307 1
717 1307 1
719 1307 1
927 1307 1
935 1307 1
971 1307 1
972 1307 1
467 1308 1
468 1308 1
718 1308 1
720 1308 1
928 1308 1
936 1308 1
961 1308 1
972 1308 1
469 1309 1
480 1309 1
721 1309 1
731 1309 1
937 1309 1
941 1309 1
961 1309 1
963 1309 1
469 1310 1
470 1310 1
722 1310 1
732 1310 1
938 1310 1
942 1310 1
962 1310 1
964 1310 1
470 1311 1
471 1311 1
721 1311 1
723 1311 1
939 1311 1
943 1311 1
963 1311 1
965 1311 1
471 1312 1
472 1312 1
722 1312 1
724 1312 1
940 1312 1
944 1312 1
964 1312 1
966 1312 1
472 1313 1
473 1313 1
723 1313 1
725 1313 1
941 1313 1
945 1313 1
965 1313 1
967 1313 1
473 1314 1
474 1314 1
724 1314 1
726 1314 1
942 1314 1
946 1314 1
966 1314 1
968 1314 1
474 1315 1
475 1315 1
725 1315 1
727 1315 1
943 1315 1
947 1315 1
967 1315 1
969 1315 1
475 1316 1
476 1316 1
726 1316 1
728 1316 1
944 1316 1
948 1316 1
968 1316 1
970 1316 1
476 1317 1
477 1317 1
727 1317 1
729 1317 1
937 1317 1
945 1317 1
969 1317 1
971 1317 1
477 1318 1
478 1318 1
728 1318 1
730 1318 1
938 1318 1
946 1318 1
970 1318 1
972 1318 1
478 1319 1
479 1319 1
729 1319 1
731 1319 1
939 1319 1
947 1319 1
961 1319 1
971 1319 1
479 1320 1
480 1320 1
730 1320 1
732 1320 1
940 1320 1
948 1320 1
962 1320 1
972 1320 1
481 1321 1
492 1321 1
733 1321 1
743 1321 1
949 1321 1
953 1321 1
961 1321 1
964 1321 1
481 1322 1
482 1322 1
734 1322 1
744 1322 1
950 1322 1
954 1322 1
962 1322 1
965 1322 1
482 1323 1
483 1323 1
733 1323 1
735 1323 1
951 1323 1
955 1323 1
963 1323 1
966 1323 1
483 1324 1
484 1324 1
734 1324 1
736 1324 1
952 1324 1
956 1324 1
964 1324 1
967 1324 1
484 1325 1
485 1325 1
735 1325 1
737 1325 1
953 1325 1
957 1325 1
965 1325 1
968 1325 1
485 1326 1
486 1326 1
736 1326 1
738 1326 1
954 1326 1
958 1326 1
966 1326 1
969 1326 1
486 1327 1
487 1327 1
737 1327 1
739 1327 1
955 1327 1
959 1327 1
967 1327 1
970 1327 1
487 1328 1
488 1328 1
738 1328 1
740 1328 1
956 1328 1
960 1328 1
968 1328 1
971 1328 1
488 1329 1
489 1329 1
739 1329 1
741 1329 1
949 1329 1
957 1329 1
969 1329 1
972 1329 1
489 1330 1
490 1330 1
740 1330 1
742 1330 1
950 1330 1
958 1330 1
961 1330 1
970 1330 1
490 1331 1
491 1331 1
741 1331 1
743 1331 1
951 1331 1
959 1331 1
962 1331 1
971 1331 1
491 1332 1
492 1332 1
742 1332 1
744 1332 1
952 1332 1
960 1332 1
963 1332 1
972 1332 1
493 1333 1
504 1333 1
745 1333 1
755 1333 1
925 1333 1
930 1333 1
973 1333 1
974 1333 1
493 1334 1
494 1334 1
746 1334 1
756 1334 1
926 1334 1
931 1334 1
974 1334 1
975 1334 1
494 1335 1
495 1335 1
745 1335 1
747 1335 1
927 1335 1
932 1335 1
975 1335 1
976 1335 1
495 1336 1
496 1336 1
746 1336 1
748 1336 1
928 1336 1
933 1336 1
976 1336 1
977 1336 1
496 1337 1
497 1337 1
747 1337 1
749 1337 1
929 1337 1
934 1337 1
977 1337 1
978 1337 1
497 1338 1
498 1338 1
748 1338 1
750 1338 1
930 1338 1
935 1338 1
978 1338 1
979 1338 1
498 1339 1
499 1339 1
749 1339 1
751 1339 1
931 1339 1
936 1339 1
979 1339 1
980 1339 1
499 1340 1
500 1340 1
750 1340 1
752 1340 1
925 1340 1
932 1340 1
980 1340 1
981 1340 1
500 1341 1
501 1341 1
751 1341 1
753 1341 1
926 1341 1
933 1341 1
981 1341 1
982 1341 1
501 1342 1
502 1342 1
752 1342 1
754 1342 1
927 1342 1
934 1342 1
982 1342 1
983 1342 1
502 1343 1
503 1343 1
753 1343 1
755 1343 1
928 1343 1
935 1343 1
983 1343 1
984 1343 1
503 1344 1
504 1344 1
754 1344 1
756 1344 1
929 1344 1
936 1344 1
973 1344 1
984 1344 1
505 1345 1
516 1345 1
757 1345 1
767 1345 1
937 1345 1
942 1345 1
973 1345 1
975 1345 1
505 1346 1
506 1346 1
758 1346 1
768 1346 1
938 1346 1
943 1346 1
974 1346 1
976 1346 1
506 1347 1
507 1347 1
757 1347 1
759 1347 1
939 1347 1
944 1347 1
975 1347 1
977 1347 1
507 1348 1
508 1348 1
758 1348 1
760 1348 1
940 1348 1
945 1348 1
976 1348 1
978 1348 1
508 1349 1
509 1349 1
759 1349 1
761 1349 1
941 1349 1
946 1349 1
977 1349 1
979 1349 1
509 1350 1
510 1350 1
760 1350 1
762 1350 1
942 1350 1
947 1350 1
978 1350 1
980 1350 1
510 1351 1
511 1351 1
761 1351 1
763 1351 1
943 1351 1
948 1351 1
979 1351 1
981 1351 1
511 1352 1
512 1352 1
762 1352 1
764 1352 1
937 1352 1
944 1352 1
980 1352 1
982 1352 1
512 1353 1
513 1353 1
763 1353 1
765 1353 1
938 1353 1
945 1353 1
981 1353 1
983 1353 1
513 1354 1
514 1354 1
764 1354 1
766 1354 1
939 1354 1
946 1354 1
982 1354 1
984 1354 1
514 1355 1
515 1355 1
765 1355 1
767 1355 1
940 1355 1
947 1355 1
973 1355 1
983 1355 1
515 1356 1
516 1356 1
766 1356 1
768 1356 1
941 1356 1
948 1356 1
974 1356 1
984 1356 1
517 1357 1
528 1357 1
769 1357 1
779 1357 1
949 1357 1
954 1357 1
973 1357 1
976 1357 1
517 1358 1
518 1358 1
770 1358 1
780 1358 1
950 1358 1
955 1358 1
974 1358 1
977 1358 1
518 1359 1
519 1359 1
769 1359 1
771 1359 1
951 1359 1
956 1359 1
975 1359 1
978 1359 1
519 1360 1
520 1360 1
770 1360 1
772 1360 1
952 1360 1
957 1360 1
976 1360 1
979 1360 1
520 1361 1
521 1361 1
771 1361 1
773 1361 1
953 1361 1
958 1361 1
977 1361 1
980 1361 1
521 1362 1
522 1362 1
772 1362 1
774 1362 1
954 1362 1
959 1362 1
978 1362 1
981 1362 1
522 1363 1
523 1363 1
773 1363 1
775 1363 1
955 1363 1
960 1363 1
979 1363 1
982 1363 1
523 1364 1
524 1364 1
774 1364 1
776 1364 1
949 1364 1
956 1364 1
980 1364 1
983 1364 1
524 1365 1
525 1365 1
775 1365 1
777 1365 1
950 1365 1
957 1365 1
981 1365 1
984 1365 1
525 1366 1
526 1366 1
776 1366 1
778 1366 1
951 1366 1
958 1366 1
973 1366 1
982 1366 1
526 1367 1
527 1367 1
777 1367 1
779 1367 1
952 1367 1
959 1367 1
974 1367 1
983 1367 1
527 1368 1
528 1368 1
778 1368 1
780 1368 1
953 1368 1
960 1368 1
975 1368 1
984 1368 1
529 1369 1
540 1369 1
781 1369 1
791 1369 1
961 1369 1
966 1369 1
973 1369 1
977 1369 1
529 1370 1
530 1370 1
782 1370 1
792 1370 1
962 1370 1
967 1370 1
974 1370 1
978 1370 1
530 1371 1
531 1371 1
781 1371 1
783 1371 1
963 1371 1
968 1371 1
975 1371 1
979 1371 1
531 1372 1
532 1372 1
782 1372 1
784 1372 1
964 1372 1
969 1372 1
976 1372 1
980 1372 1
532 1373 1
533 1373 1
783 1373 1
785 1373 1
965 1373 1
970 1373 1
977 1373 1
981 1373 1
533 1374 1
534 1374 1
784 1374 1
786 1374 1
966 1374 1
971 1374 1
978 1374 1
982 1374 1
534 1375 1
535 1375 1
785 1375 1
787 1375 1
967 1375 1
972 1375 1
979 1375 1
983 1375 1
535 1376 1
536 1376 1
786 1376 1
788 1376 1
961 1376 1
968 1376 1
980 1376 1
984 1376 1
536 1377 1
537 1377 1
787 1377 1
789 1377 1
962 1377 1
969 1377 1
973 1377 1
981 1377 1
537 1378 1
538 1378 1
788 1378 1
790 1378 1
963 1378 1
970 1378 1
974 1378 1
982 1378 1
538 1379 1
539 1379 1
789 1379 1
791 1379 1
964 1379 1
971 1379 1
975 1379 1
983 1379 1
539 1380 1
540 1380 1
790 1380 1
792 1380 1
965 1380 1
972 1380 1
976 1380 1
984 1380 1
541 1381 1
552 1381 1
793 1381 1
803 1381 1
925 1381 1
932 1381 1
985 1381 1
986 1381 1
541 1382 1
542 1382 1
794 1382 1
804 1382 1
926 1382 1
933 1382 1
986 1382 1
987 1382 1
542 1383 1
543 1383 1
793 1383 1
795 1383 1
927 1383 1
934 1383 1
987 1383 1
988 1383 1
543 1384 1
544 1384 1
794 1384 1
796 1384 1
928 1384 1
935 1384 1
988 1384 1
989 1384 1
544 1385 1
545 1385 1
795 1385 1
797 1385 1
929 1385 1
936 1385 1
989 1385 1
990 1385 1
545 1386 1
546 1386 1
796 1386 1
798 1386 1
925 1386 1
930 1386 1
990 1386 1
991 1386 1
546 1387 1
547 1387 1
797 1387 1
799 1387 1
926 1387 1
931 1387 1
991 1387 1
992 1387 1
547 1388 1
548 1388 1
798 1388 1
800 1388 1
927 1388 1
932 1388 1
992 1388 1
993 1388 1
548 1389 1
549 1389 1
799 1389 1
801 1389 1
928 1389 1
933 1389 1
993 1389 1
994 1389 1
549 1390 1
550 1390 1
800 1390 1
802 1390 1
929 1390 1
934 1390 1
994 1390 1
995 1390 1
550 1391 1
551 1391 1
801 1391 1
803 1391 1
930 1391 1
935 1391 1
995 1391 1
996 1391 1
551 1392 1
552 1392 1
802 1392 1
804 1392 1
931 1392 1
936 1392 1
985 1392 1
996 1392 1
553 1393 1
564 1393 1
805 1393 1
815 1393 1
937 1393 1
944 1393 1
985 1393 1
987 1393 1
553 1394 1
554 1394 1
806 1394 1
816 1394 1
938 1394 1
945 1394 1
986 1394 1
988 1394 1
554 1395 1
555 1395 1
805 1395 1
807 1395 1
939 1395 1
946 1395 1
987 1395 1
989 1395 1
555 1396 1
556 1396 1
806 1396 1
808 1396 1
940 1396 1
947 1396 1
988 1396 1
990 1396 1
556 1397 1
557 1397 1
807 1397 1
809 1397 1
941 1397 1
948 1397 1
989 1397 1
991 1397 1
557 1398 1
558 1398 1
808 1398 1
810 1398 1
937 1398 1
942 1398 1
990 1398 1
992 1398 1
558 1399 1
559 1399 1
809 1399 1
811 1399 1
938 1399 1
943 1399 1
991 1399 1
993 1399 1
559 1400 1
560 1400 1
810 1400 1
812 1400 1
939 1400 1
944 1400 1
992 1400 1
994 1400 1
560 1401 1
561 1401 1
811 1401 1
813 1401 1
940 1401 1
945 1401 1
993 1401 1
995 1401 1
561 1402 1
562 1402 1
812 1402 1
814 1402 1
941 1402 1
946 1402 1
994 1402 1
996 1402 1
562 1403 1
563 1403 1
813 1403 1
815 1403 1
942 1403 1
947 1403 1
985 1403 1
995 1403 1
563 1404 1
564 1404 1
814 1404 1
816 1404 1
943 1404 1
948 1404 1
986 1404 1
996 1404 1
565 1405 1
576 1405 1
817 1405 1
827 1405 1
949 1405 1
956 1405 1
985 1405 1
988 1405 1
565 1406 1
566 1406 1
818 1406 1
828 1406 1
950 1406 1
957 1406 1
986 1406 1
989 1406 1
566 1407 1
567 1407 1
817 1407 1
819 1407 1
951 1407 1
958 1407 1
987 1407 1
990 1407 1
567 1408 1
568 1408 1
818 1408 1
820 1408 1
952 1408 1
959 1408 1
988 1408 1
991 1408 1
568 1409 1
569 1409 1
819 1409 1
821 1409 1
953 1409 1
960 1409 1
989 1409 1
992 1409 1
569 1410 1
570 1410 1
820 1410 1
822 1410 1
949 1410 1
954 1410 1
990 1410 1
993 1410 1
570 1411 1
571 1411 1
821 1411 1
823 1411 1
950 1411 1
955 1411 1
991 1411 1
994 1411 1
571 1412 1
572 1412 1
822 1412 1
824 1412 1
951 1412 1
956 1412 1
992 1412 1
995 1412 1
572 1413 1
573 1413 1
823 1413 1
825 1413 1
952 1413 1
957 1413 1
993 1413 1
996 1413 1
573 1414 1
574 1414 1
824 1414 1
826 1414 1
953 1414 1
958 1414 1
985 1414 1
994 1414 1
574 1415 1
575 1415 1
825 1415 1
827 1415 1
954 1415 1
959 1415 1
986 1415 1
995 1415 1
575 1416 1
576 1416 1
826 1416 1
828 1416 1
955 1416 1
960 1416 1
987 1416 1
996 1416 1
577 1417 1
588 1417 1
829 1417 1
839 1417 1
961 1417 1
968 1417 1
985 1417 1
989 1417 1
577 1418 1
578 1418 1
830 1418 1
840 1418 1
962 1418 1
969 1418 1
986 1418 1
990 1418 1
578 1419 1
579 1419 1
829 1419 1
831 1419 1
963 1419 1
970 1419 1
987 1419 1
991 1419 1
579 1420 1
580 1420 1
830 1420 1
832 1420 1
964 1420 1
971 1420 1
988 1420 1
992 1420 1
580 1421 1
581 1421 1
831 1421 1
833 1421 1
965 1421 1
972 1421 1
989 1421 1
993 1421 1
581 1422 1
582 1422 1
832 1422 1
834 1422 1
961 1422 1
966 1422 1
990 1422 1
994 1422 1
582 1423 1
583 1423 1
833 1423 1
835 1423 1
962 1423 1
967 1423 1
991 1423 1
995 1423 1
583 1424 1
584 1424 1
834 1424 1
836 1424 1
963 1424 1
968 1424 1
992 1424 1
996 1424 1
584 1425 1
585 1425 1
835 1425 1
837 1425 1
964 1425 1
969 1425 1
985 1425 1
993 1425 1
585 1426 1
586 1426 1
836 1426 1
838 1426 1
965 1426 1
970 1426 1
986 1426 1
994 1426 1
586 1427 1
587 1427 1
837 1427 1
839 1427 1
966 1427 1
971 1427 1
987 1427 1
995 1427 1
587 1428 1
588 1428 1
838 1428 1
840 1428 1
967 1428 1
972 1428 1
988 1428 1
996 1428 1
589 1429 1
600 1429 1
841 1429 1
851 1429 1
973 1429 1
980 1429 1
985 1429 1
990 1429 1
589 1430 1
590 1430 1
842 1430 1
852 1430 1
974 1430 1
981 1430 1
986 1430 1
991 1430 1
590 1431 1
591 1431 1
841 1431 1
843 1431 1
975 1431 1
982 1431 1
987 1431 1
992 1431 1
591 1432 1
592 1432 1
842 1432 1
844 1432 1
976 1432 1
983 1432 1
988 1432 1
993 1432 1
592 1433 1
593 1433 1
843 1433 1
845 1433 1
977 1433 1
984 1433 1
989 1433 1
994 1433 1
593 1434 1
594 1434 1
844 1434 1
846 1434 1
973 1434 1
978 1434 1
990 1434 1
995 1434 1
594 1435 1
595 1435 1
845 1435 1
847 1435 1
974 1435 1
979 1435 1
991 1435 1
996 1435 1
595 1436 1
596 1436 1
846 1436 1
848 1436 1
975 1436 1
980 1436 1
985 1436 1
992 1436 1
596 1437 1
597 1437 1
847 1437 1
849 1437 1
976 1437 1
981 1437 1
986 1437 1
993 1437 1
597 1438 1
598 1438 1
848 1438 1
850 1438 1
977 1438 1
982 1438 1
987 1438 1
994 1438 1
598 1439 1
599 1439 1
849 1439 1
851 1439 1
978 1439 1
983 1439 1
988 1439 1
995 1439 1
599 1440 1
600 1440 1
850 1440 1
852 1440 1
979 1440 1
984 1440 1
989 1440 1
996 1440 1
601 1441 1
612 1441 1
853 1441 1
863 1441 1
925 1441 1
934 1441 1
997 1441 1
998 1441 1
601 1442 1
602 1442 1
854 1442 1
864 1442 1
926 1442 1
935 1442 1
998 1442 1
999 1442 1
602 1443 1
603 1443 1
853 1443 1
855 1443 1
927 1443 1
936 1443 1
999 1443 1
1000 1443 1
603 1444 1
604 1444 1
854 1444 1
856 1444 1
925 1444 1
928 1444 1
1000 1444 1
1001 1444 1
604 1445 1
605 1445 1
855 1445 1
857 1445 1
926 1445 1
929 1445 1
1001 1445 1
1002 1445 1
605 1446 1
606 1446 1
856 1446 1
858 1446 1
927 1446 1
930 1446 1
1002 1446 1
1003 1446 1
606 1447 1
607 1447 1
857 1447 1
859 1447 1
928 1447 1
931 1447 1
1003 1447 1
1004 1447 1
607 1448 1
608 1448 1
858 1448 1
860 1448 1
929 1448 1
932 1448 1
1004 1448 1
1005 1448 1
608 1449 1
609 1449 1
859 1449 1
861 1449 1
930 1449 1
933 1449 1
1005 1449 1
1006 1449 1
609 1450 1
610 1450 1
860 1450 1
862 1450 1
931 1450 1
934 1450 1
1006 1450 1
1007 1450 1
610 1451 1
611 1451 1
861 1451 1
863 1451 1
932 1451 1
935 1451 1
1007 1451 1
1008 1451 1
611 1452 1
612 1452 1
862 1452 1
864 1452 1
933 1452 1
936 1452 1
997 1452 1
1008 1452 1
613 1453 1
624 1453 1
865 1453 1
875 1453 1
937 1453 1
946 1453 1
997 1453 1
999 1453 1
613 1454 1
614 1454 1
866 1454 1
876 1454 1
938 1454 1
947 1454 1
998 1454 1
1000 1454 1
614 1455 1
615 1455 1
865 1455 1
867 1455 1
939 1455 1
948 1455 1
999 1455 1
1001 1455 1
615 1456 1
616 1456 1
866 1456 1
868 1456 1
937 1456 1
940 1456 1
1000 1456 1
1002 1456 1
616 1457 1
617 1457 1
867 1457 1
869 1457 1
938 1457 1
941 1457 1
1001 1457 1
1003 1457 1
617 1458 1
618 1458 1
868 1458 1
870 1458 1
939 1458 1
942 1458 1
1002 1458 1
1004 1458 1
618 1459 1
619 1459 1
869 1459 1
871 1459 1
940 1459 1
943 1459 1
1003 1459 1
1005 1459 1
619 1460 1
620 1460 1
870 1460 1
872 1460 1
941 1460 1
944 1460 1
1004 1460 1
1006 1460 1
620 1461 1
621 1461 1
871 1461 1
873 1461 1
942 1461 1
945 1461 1
1005 1461 1
1007 1461 1
621 1462 1
622 1462 1
872 1462 1
874 1462 1
943 1462 1
946 1462 1
1006 1462 1
1008 1462 1
622 1463 1
623 1463 1
873 1463 1
875 1463 1
944 1463 1
947 1463 1
997 1463 1
1007 1463 1
623 1464 1
624 1464 1
874 1464 1
876 1464 1
945 1464 1
948 1464 1
998 1464 1
1008 1464 1
625 1465 1
636 1465 1
877 1465 1
887 1465 1
949 1465 1
958 1465 1
997 1465 1
1000 1465 1
625 1466 1
626 1466 1
878 1466 1
888 1466 1
950 1466 1
959 1466 1
998 1466 1
1001 1466 1
626 1467 1
627 1467 1
877 1467 1
879 1467 1
951 1467 1
960 1467 1
999 1467 1
1002 1467 1
627 1468 1
628 1468 1
878 1468 1
880 1468 1
949 1468 1
952 1468 1
1000 1468 1
1003 1468 1
628 1469 1
629 1469 1
879 1469 1
881 1469 1
950 1469 1
953 1469 1
1001 1469 1
1004 1469 1
629 1470 1
630 1470 1
880 1470 1
882 1470 1
951 1470 1
954 1470 1
1002 1470 1
1005 1470 1
630 1471 1
631 1471 1
881 1471 1
883 1471 1
952 1471 1
955 1471 1
1003 1471 1
1006 1471 1
631 1472 1
632 1472 1
882 1472 1
884 1472 1
953 1472 1
956 1472 1
1004 1472 1
1007 1472 1
632 1473 1
633 1473 1
883 1473 1
885 1473 1
954 1473 1
957 1473 1
1005 1473 1
1008 1473 1
633 1474 1
634 1474 1
884 1474 1
886 1474 1
955 1474 1
958 1474 1
997 1474 1
1006 1474 1
634 1475 1
635 1475 1
885 1475 1
887 1475 1
956 1475 1
959 1475 1
998 1475 1
1007 1475 1
635 1476 1
636 1476 1
886 1476 1
888 1476 1
957 1476 1
960 1476 1
999 1476 1
1008 1476 1
637 1477 1
648 1477 1
889 1477 1
899 1477 1
961 1477 1
970 1477 1
997 1477 1
1001 1477 1
637 1478 1
638 1478 1
890 1478 1
900 1478 1
962 1478 1
971 1478 1
998 1478 1
1002 1478 1
638 1479 1
639 1479 1
889 1479 1
891 1479 1
963 1479 1
972 1479 1
999 1479 1
1003 1479 1
639 1480 1
640 1480 1
890 1480 1
892 1480 1
961 1480 1
964 1480 1
1000 1480 1
1004 1480 1
640 1481 1
641 1481 1
891 1481 1
893 1481 1
962 1481 1
965 1481 1
1001 1481 1
1005 1481 1
641 1482 1
642 1482 1
892 1482 1
894 1482 1
963 1482 1
966 1482 1
1002 1482 1
1006 1482 1
642 1483 1
643 1483 1
893 1483 1
895 1483 1
964 1483 1
967 1483 1
1003 1483 1
1007 1483 1
643 1484 1
644 1484 1
894 1484 1
896 1484 1
965 1484 1
968 1484 1
1004 1484 1
1008 1484 1
644 1485 1
645 1485 1
895 1485 1
897 1485 1
966 1485 1
969 1485 1
997 1485 1
1005 1485 1
645 1486 1
646 1486 1
896 1486 1
898 1486 1
967 1486 1
970 1486 1
998 1486 1
1006 1486 1
646 1487 1
647 1487 1
897 1487 1
899 1487 1
968 1487 1
971 1487 1
999 1487 1
1007 1487 1
647 1488 1
648 1488 1
898 1488 1
900 1488 1
969 1488 1
972 1488 1
1000 1488 1
1008 1488 1
649 1489 1
660 1489 1
901 1489 1
911 1489 1
973 1489 1
982 1489 1
997 1489 1
1002 1489 1
649 1490 1
650 1490 1
902 1490 1
912 1490 1
974 1490 1
983 1490 1
998 1490 1
1003 1490 1
650 1491 1
651 1491 1
901 1491 1
903 1491 1
975 1491 1
984 1491 1
999 1491 1
1004 1491 1
651 1492 1
652 1492 1
902 1492 1
904 1492 1
973 1492 1
976 1492 1
1000 1492 1
1005 1492 1
652 1493 1
653 1493 1
903 1493 1
905 1493 1
974 1493 1
977 1493 1
1001 1493 1
1006 1493 1
653 1494 1
654 1494 1
904 1494 1
906 1494 1
975 1494 1
978 1494 1
1002 1494 1
1007 1494 1
654 1495 1
655 1495 1
905 1495 1
907 1495 1
976 1495 1
979 1495 1
1003 1495 1
1008 1495 1
655 1496 1
656 1496 1
906 1496 1
908 1496 1
977 1496 1
980 1496 1
997 1496 1
1004 1496 1
656 1497 1
657 1497 1
907 1497 1
909 1497 1
978 1497 1
981 1497 1
998 1497 1
1005 1497 1
657 1498 1
658 1498 1
908 1498 1
910 1498 1
979 1498 1
982 1498 1
999 1498 1
1006 1498 1
658 1499 1
659 1499 1
909 1499 1
911 1499 1
980 1499 1
983 1499 1
1000 1499 1
1007 1499 1
659 1500 1
660 1500 1
910 1500 1
912 1500 1
981 1500 1
984 1500 1
1001 1500 1
1008 1500 1
661 1501 1
672 1501 1
913 1501 1
923 1501 1
985 1501 1
994 1501 1
997 1501 1
1004 1501 1
661 1502 1
662 1502 1
914 1502 1
924 1502 1
986 1502 1
995 1502 1
998 1502 1
1005 1502 1
662 1503 1
663 1503 1
913 1503 1
915 1503 1
987 1503 1
996 1503 1
999 1503 1
1006 1503 1
663 1504 1
664 1504 1
914 1504 1
916 1504 1
985 1504 1
988 1504 1
1000 1504 1
1007 1504 1
664 1505 1
665 1505 1
915 1505 1
917 1505 1
986 1505 1
989 1505 1
1001 1505 1
1008 1505 1
665 1506 1
666 1506 1
916 1506 1
918 1506 1
987 1506 1
990 1506 1
997 1506 1
1002 1506 1
666 1507 1
667 1507 1
917 1507 1
919 1507 1
988 1507 1
991 1507 1
998 1507 1
1003 1507 1
667 1508 1
668 1508 1
918 1508 1
920 1508 1
989 1508 1
992 1508 1
999 1508 1
1004 1508 1
668 1509 1
669 1509 1
919 1509 1
921 1509 1
990 1509 1
993 1509 1
1000 1509 1
1005 1509 1
669 1510 1
670 1510 1
920 1510 1
922 1510 1
991 1510 1
994 1510 1
1001 1510 1
1006 1510 1
670 1511 1
671 1511 1
921 1511 1
923 1511 1
992 1511 1
995 1511 1
1002 1511 1
1007 1511 1
671 1512 1
672 1512 1
922 1512 1
924 1512 1
993 1512 1
996 1512 1
1003 1512 1
1008 1512 1
