%%MatrixMarket matrix coordinate integer general
% Binary matrix; one-based indices; arithmetic over GF(2)
1512 1512 15120
1 1 1
8 1 1
13 1 1
18 1 1
73 1 1
76 1 1
253 1 1
255 1 1
673 1 1
674 1 1
2 2 1
9 2 1
14 2 1
19 2 1
74 2 1
77 2 1
254 2 1
256 2 1
674 2 1
675 2 1
3 3 1
10 3 1
15 3 1
20 3 1
75 3 1
78 3 1
255 3 1
257 3 1
675 3 1
676 3 1
4 4 1
11 4 1
16 4 1
21 4 1
76 4 1
79 4 1
256 4 1
258 4 1
676 4 1
677 4 1
5 5 1
12 5 1
17 5 1
22 5 1
77 5 1
80 5 1
257 5 1
259 5 1
677 5 1
678 5 1
1 6 1
6 6 1
18 6 1
23 6 1
78 6 1
81 6 1
258 6 1
260 6 1
678 6 1
679 6 1
2 7 1
7 7 1
19 7 1
24 7 1
79 7 1
82 7 1
259 7 1
261 7 1
679 7 1
680 7 1
3 8 1
8 8 1
13 8 1
20 8 1
80 8 1
83 8 1
260 8 1
262 8 1
680 8 1
681 8 1
4 9 1
9 9 1
14 9 1
21 9 1
81 9 1
84 9 1
261 9 1
263 9 1
681 9 1
682 9 1
5 10 1
10 10 1
15 10 1
22 10 1
73 10 1
82 10 1
262 10 1
264 10 1
682 10 1
683 10 1
6 11 1
11 11 1
16 11 1
23 11 1
74 11 1
83 11 1
253 11 1
263 11 1
683 11 1
684 11 1
7 12 1
12 12 1
17 12 1
24 12 1
75 12 1
84 12 1
254 12 1
264 12 1
673 12 1
684 12 1
1 13 1
9 13 1
25 13 1
30 13 1
85 13 1
88 13 1
265 13 1
267 13 1
685 13 1
686 13 1
2 14 1
10 14 1
26 14 1
31 14 1
86 14 1
89 14 1
266 14 1
268 14 1
686 14 1
687 14 1
3 15 1
11 15 1
27 15 1
32 15 1
87 15 1
90 15 1
267 15 1
269 15 1
687 15 1
688 15 1
4 16 1
12 16 1
28 16 1
33 16 1
88 16 1
91 16 1
268 16 1
270 16 1
688 16 1
689 16 1
1 17 1
5 17 1
29 17 1
34 17 1
89 17 1
92 17 1
269 17 1
271 17 1
689 17 1
690 17 1
2 18 1
6 18 1
30 18 1
35 18 1
90 18 1
93 18 1
270 18 1
272 18 1
690 18 1
691 18 1
3 19 1
7 19 1
31 19 1
36 19 1
91 19 1
94 19 1
271 19 1
273 19 1
691 19 1
692 19 1
4 20 1
8 20 1
25 20 1
32 20 1
92 20 1
95 20 1
272 20 1
274 20 1
692 20 1
693 20 1
5 21 1
9 21 1
26 21 1
33 21 1
93 21 1
96 21 1
273 21 1
275 21 1
693 21 1
694 21 1
6 22 1
10 22 1
27 22 1
34 22 1
85 22 1
94 22 1
274 22 1
276 22 1
694 22 1
695 22 1
7 23 1
11 23 1
28 23 1
35 23 1
86 23 1
95 23 1
265 23 1
275 23 1
695 23 1
696 23 1
8 24 1
12 24 1
29 24 1
36 24 1
87 24 1
96 24 1
266 24 1
276 24 1
685 24 1
696 24 1
1 25 1
10 25 1
37 25 1
42 25 1
97 25 1
100 25 1
277 25 1
279 25 1
697 25 1
698 25 1
2 26 1
11 26 1
38 26 1
43 26 1
98 26 1
101 26 1
278 26 1
280 26 1
698 26 1
699 26 1
3 27 1
12 27 1
39 27 1
44 27 1
99 27 1
102 27 1
279 27 1
281 27 1
699 27 1
700 27 1
1 28 1
4 28 1
40 28 1
45 28 1
100 28 1
103 28 1
280 28 1
282 28 1
700 28 1
701 28 1
2 29 1
5 29 1
41 29 1
46 29 1
101 29 1
104 29 1
281 29 1
283 29 1
701 29 1
702 29 1
3 30 1
6 30 1
42 30 1
47 30 1
102 30 1
105 30 1
282 30 1
284 30 1
702 30 1
703 30 1
4 31 1
7 31 1
43 31 1
48 31 1
103 31 1
106 31 1
283 31 1
285 31 1
703 31 1
704 31 1
5 32 1
8 32 1
37 32 1
44 32 1
104 32 1
107 32 1
284 32 1
286 32 1
704 32 1
705 32 1
6 33 1
9 33 1
38 33 1
45 33 1
105 33 1
108 33 1
285 33 1
287 33 1
705 33 1
706 33 1
7 34 1
10 34 1
39 34 1
46 34 1
97 34 1
106 34 1
286 34 1
288 34 1
706 34 1
707 34 1
8 35 1
11 35 1
40 35 1
47 35 1
98 35 1
107 35 1
277 35 1
287 35 1
707 35 1
708 35 1
9 36 1
12 36 1
41 36 1
48 36 1
99 36 1
108 36 1
278 36 1
288 36 1
697 36 1
708 36 1
1 37 1
11 37 1
49 37 1
54 37 1
109 37 1
112 37 1
289 37 1
291 37 1
709 37 1
710 37 1
2 38 1
12 38 1
50 38 1
55 38 1
110 38 1
113 38 1
290 38 1
292 38 1
710 38 1
711 38 1
1 39 1
3 39 1
51 39 1
56 39 1
111 39 1
114 39 1
291 39 1
293 39 1
711 39 1
712 39 1
2 40 1
4 40 1
52 40 1
57 40 1
112 40 1
115 40 1
292 40 1
294 40 1
712 40 1
713 40 1
3 41 1
5 41 1
53 41 1
58 41 1
113 41 1
116 41 1
293 41 1
295 41 1
713 41 1
714 41 1
4 42 1
6 42 1
54 42 1
59 42 1
114 42 1
117 42 1
294 42 1
296 42 1
714 42 1
715 42 1
5 43 1
7 43 1
55 43 1
60 43 1
115 43 1
118 43 1
295 43 1
297 43 1
715 43 1
716 43 1
6 44 1
8 44 1
49 44 1
56 44 1
116 44 1
119 44 1
296 44 1
298 44 1
716 44 1
717 44 1
7 45 1
9 45 1
50 45 1
57 45 1
117 45 1
120 45 1
297 45 1
299 45 1
717 45 1
718 45 1
8 46 1
10 46 1
51 46 1
58 46 1
109 46 1
118 46 1
298 46 1
300 46 1
718 46 1
719 46 1
9 47 1
11 47 1
52 47 1
59 47 1
110 47 1
119 47 1
289 47 1
299 47 1
719 47 1
720 47 1
10 48 1
12 48 1
53 48 1
60 48 1
111 48 1
120 48 1
290 48 1
300 48 1
709 48 1
720 48 1
1 49 1
12 49 1
61 49 1
66 49 1
121 49 1
124 49 1
301 49 1
303 49 1
721 49 1
722 49 1
1 50 1
2 50 1
62 50 1
67 50 1
122 50 1
125 50 1
302 50 1
304 50 1
722 50 1
723 50 1
2 51 1
3 51 1
63 51 1
68 51 1
123 51 1
126 51 1
303 51 1
305 51 1
723 51 1
724 51 1
3 52 1
4 52 1
64 52 1
69 52 1
124 52 1
127 52 1
304 52 1
306 52 1
724 52 1
725 52 1
4 53 1
5 53 1
65 53 1
70 53 1
125 53 1
128 53 1
305 53 1
307 53 1
725 53 1
726 53 1
5 54 1
6 54 1
66 54 1
71 54 1
126 54 1
129 54 1
306 54 1
308 54 1
726 54 1
727 54 1
6 55 1
7 55 1
67 55 1
72 55 1
127 55 1
130 55 1
307 55 1
309 55 1
727 55 1
728 55 1
7 56 1
8 56 1
61 56 1
68 56 1
128 56 1
131 56 1
308 56 1
310 56 1
728 56 1
729 56 1
8 57 1
9 57 1
62 57 1
69 57 1
129 57 1
132 57 1
309 57 1
311 57 1
729 57 1
730 57 1
9 58 1
10 58 1
63 58 1
70 58 1
121 58 1
130 58 1
310 58 1
312 58 1
730 58 1
731 58 1
10 59 1
11 59 1
64 59 1
71 59 1
122 59 1
131 59 1
301 59 1
311 59 1
731 59 1
732 59 1
11 60 1
12 60 1
65 60 1
72 60 1
123 60 1
132 60 1
302 60 1
312 60 1
721 60 1
732 60 1
13 61 1
21 61 1
25 61 1
32 61 1
133 61 1
136 61 1
313 61 1
315 61 1
733 61 1
734 61 1
14 62 1
22 62 1
26 62 1
33 62 1
134 62 1
137 62 1
314 62 1
316 62 1
734 62 1
735 62 1
15 63 1
23 63 1
27 63 1
34 63 1
135 63 1
138 63 1
315 63 1
317 63 1
735 63 1
736 63 1
16 64 1
24 64 1
28 64 1
35 64 1
136 64 1
139 64 1
316 64 1
318 64 1
736 64 1
737 64 1
13 65 1
17 65 1
29 65 1
36 65 1
137 65 1
140 65 1
317 65 1
319 65 1
737 65 1
738 65 1
14 66 1
18 66 1
25 66 1
30 66 1
138 66 1
141 66 1
318 66 1
320 66 1
738 66 1
739 66 1
15 67 1
19 67 1
26 67 1
31 67 1
139 67 1
142 67 1
319 67 1
321 67 1
739 67 1
740 67 1
16 68 1
20 68 1
27 68 1
32 68 1
140 68 1
143 68 1
320 68 1
322 68 1
740 68 1
741 68 1
17 69 1
21 69 1
28 69 1
33 69 1
141 69 1
144 69 1
321 69 1
323 69 1
741 69 1
742 69 1
18 70 1
22 70 1
29 70 1
34 70 1
133 70 1
142 70 1
322 70 1
324 70 1
742 70 1
743 70 1
19 71 1
23 71 1
30 71 1
35 71 1
134 71 1
143 71 1
313 71 1
323 71 1
743 71 1
744 71 1
20 72 1
24 72 1
31 72 1
36 72 1
135 72 1
144 72 1
314 72 1
324 72 1
733 72 1
744 72 1
13 73 1
22 73 1
37 73 1
44 73 1
145 73 1
148 73 1
325 73 1
327 73 1
745 73 1
746 73 1
14 74 1
23 74 1
38 74 1
45 74 1
146 74 1
149 74 1
326 74 1
328 74 1
746 74 1
747 74 1
15 75 1
24 75 1
39 75 1
46 75 1
147 75 1
150 75 1
327 75 1
329 75 1
747 75 1
748 75 1
13 76 1
16 76 1
40 76 1
47 76 1
148 76 1
151 76 1
328 76 1
330 76 1
748 76 1
749 76 1
14 77 1
17 77 1
41 77 1
48 77 1
149 77 1
152 77 1
329 77 1
331 77 1
749 77 1
750 77 1
15 78 1
18 78 1
37 78 1
42 78 1
150 78 1
153 78 1
330 78 1
332 78 1
750 78 1
751 78 1
16 79 1
19 79 1
38 79 1
43 79 1
151 79 1
154 79 1
331 79 1
333 79 1
751 79 1
752 79 1
17 80 1
20 80 1
39 80 1
44 80 1
152 80 1
155 80 1
332 80 1
334 80 1
752 80 1
753 80 1
18 81 1
21 81 1
40 81 1
45 81 1
153 81 1
156 81 1
333 81 1
335 81 1
753 81 1
754 81 1
19 82 1
22 82 1
41 82 1
46 82 1
145 82 1
154 82 1
334 82 1
336 82 1
754 82 1
755 82 1
20 83 1
23 83 1
42 83 1
47 83 1
146 83 1
155 83 1
325 83 1
335 83 1
755 83 1
756 83 1
21 84 1
24 84 1
43 84 1
48 84 1
147 84 1
156 84 1
326 84 1
336 84 1
745 84 1
756 84 1
13 85 1
23 85 1
49 85 1
56 85 1
157 85 1
160 85 1
337 85 1
339 85 1
757 85 1
758 85 1
14 86 1
24 86 1
50 86 1
57 86 1
158 86 1
161 86 1
338 86 1
340 86 1
758 86 1
759 86 1
13 87 1
15 87 1
51 87 1
58 87 1
159 87 1
162 87 1
339 87 1
341 87 1
759 87 1
760 87 1
14 88 1
16 88 1
52 88 1
59 88 1
160 88 1
163 88 1
340 88 1
342 88 1
760 88 1
761 88 1
15 89 1
17 89 1
53 89 1
60 89 1
161 89 1
164 89 1
341 89 1
343 89 1
761 89 1
762 89 1
16 90 1
18 90 1
49 90 1
54 90 1
162 90 1
165 90 1
342 90 1
344 90 1
762 90 1
763 90 1
17 91 1
19 91 1
50 91 1
55 91 1
163 91 1
166 91 1
343 91 1
345 91 1
763 91 1
764 91 1
18 92 1
20 92 1
51 92 1
56 92 1
164 92 1
167 92 1
344 92 1
346 92 1
764 92 1
765 92 1
19 93 1
21 93 1
52 93 1
57 93 1
165 93 1
168 93 1
345 93 1
347 93 1
765 93 1
766 93 1
20 94 1
22 94 1
53 94 1
58 94 1
157 94 1
166 94 1
346 94 1
348 94 1
766 94 1
767 94 1
21 95 1
23 95 1
54 95 1
59 95 1
158 95 1
167 95 1
337 95 1
347 95 1
767 95 1
768 95 1
22 96 1
24 96 1
55 96 1
60 96 1
159 96 1
168 96 1
338 96 1
348 96 1
757 96 1
768 96 1
13 97 1
24 97 1
61 97 1
68 97 1
169 97 1
172 97 1
349 97 1
351 97 1
769 97 1
770 97 1
13 98 1
14 98 1
62 98 1
69 98 1
170 98 1
173 98 1
350 98 1
352 98 1
770 98 1
771 98 1
14 99 1
15 99 1
63 99 1
70 99 1
171 99 1
174 99 1
351 99 1
353 99 1
771 99 1
772 99 1
15 100 1
16 100 1
64 100 1
71 100 1
172 100 1
175 100 1
352 100 1
354 100 1
772 100 1
773 100 1
16 101 1
17 101 1
65 101 1
72 101 1
173 101 1
176 101 1
353 101 1
355 101 1
773 101 1
774 101 1
17 102 1
18 102 1
61 102 1
66 102 1
174 102 1
177 102 1
354 102 1
356 102 1
774 102 1
775 102 1
18 103 1
19 103 1
62 103 1
67 103 1
175 103 1
178 103 1
355 103 1
357 103 1
775 103 1
776 103 1
19 104 1
20 104 1
63 104 1
68 104 1
176 104 1
179 104 1
356 104 1
358 104 1
776 104 1
777 104 1
20 105 1
21 105 1
64 105 1
69 105 1
177 105 1
180 105 1
357 105 1
359 105 1
777 105 1
778 105 1
21 106 1
22 106 1
65 106 1
70 106 1
169 106 1
178 106 1
358 106 1
360 106 1
778 106 1
779 106 1
22 107 1
23 107 1
66 107 1
71 107 1
170 107 1
179 107 1
349 107 1
359 107 1
779 107 1
780 107 1
23 108 1
24 108 1
67 108 1
72 108 1
171 108 1
180 108 1
350 108 1
360 108 1
769 108 1
780 108 1
25 109 1
34 109 1
37 109 1
45 109 1
181 109 1
184 109 1
361 109 1
363 109 1
781 109 1
782 109 1
26 110 1
35 110 1
38 110 1
46 110 1
182 110 1
185 110 1
362 110 1
364 110 1
782 110 1
783 110 1
27 111 1
36 111 1
39 111 1
47 111 1
183 111 1
186 111 1
363 111 1
365 111 1
783 111 1
784 111 1
25 112 1
28 112 1
40 112 1
48 112 1
184 112 1
187 112 1
364 112 1
366 112 1
784 112 1
785 112 1
26 113 1
29 113 1
37 113 1
41 113 1
185 113 1
188 113 1
365 113 1
367 113 1
785 113 1
786 113 1
27 114 1
30 114 1
38 114 1
42 114 1
186 114 1
189 114 1
366 114 1
368 114 1
786 114 1
787 114 1
28 115 1
31 115 1
39 115 1
43 115 1
187 115 1
190 115 1
367 115 1
369 115 1
787 115 1
788 115 1
29 116 1
32 116 1
40 116 1
44 116 1
188 116 1
191 116 1
368 116 1
370 116 1
788 116 1
789 116 1
30 117 1
33 117 1
41 117 1
45 117 1
189 117 1
192 117 1
369 117 1
371 117 1
789 117 1
790 117 1
31 118 1
34 118 1
42 118 1
46 118 1
181 118 1
190 118 1
370 118 1
372 118 1
790 118 1
791 118 1
32 119 1
35 119 1
43 119 1
47 119 1
182 119 1
191 119 1
361 119 1
371 119 1
791 119 1
792 119 1
33 120 1
36 120 1
44 120 1
48 120 1
183 120 1
192 120 1
362 120 1
372 120 1
781 120 1
792 120 1
25 121 1
35 121 1
49 121 1
57 121 1
193 121 1
196 121 1
373 121 1
375 121 1
793 121 1
794 121 1
26 122 1
36 122 1
50 122 1
58 122 1
194 122 1
197 122 1
374 122 1
376 122 1
794 122 1
795 122 1
25 123 1
27 123 1
51 123 1
59 123 1
195 123 1
198 123 1
375 123 1
377 123 1
795 123 1
796 123 1
26 124 1
28 124 1
52 124 1
60 124 1
196 124 1
199 124 1
376 124 1
378 124 1
796 124 1
797 124 1
27 125 1
29 125 1
49 125 1
53 125 1
197 125 1
200 125 1
377 125 1
379 125 1
797 125 1
798 125 1
28 126 1
30 126 1
50 126 1
54 126 1
198 126 1
201 126 1
378 126 1
380 126 1
798 126 1
799 126 1
29 127 1
31 127 1
51 127 1
55 127 1
199 127 1
202 127 1
379 127 1
381 127 1
799 127 1
800 127 1
30 128 1
32 128 1
52 128 1
56 128 1
200 128 1
203 128 1
380 128 1
382 128 1
800 128 1
801 128 1
31 129 1
33 129 1
53 129 1
57 129 1
201 129 1
204 129 1
381 129 1
383 129 1
801 129 1
802 129 1
32 130 1
34 130 1
54 130 1
58 130 1
193 130 1
202 130 1
382 130 1
384 130 1
802 130 1
803 130 1
33 131 1
35 131 1
55 131 1
59 131 1
194 131 1
203 131 1
373 131 1
383 131 1
803 131 1
804 131 1
34 132 1
36 132 1
56 132 1
60 132 1
195 132 1
204 132 1
374 132 1
384 132 1
793 132 1
804 132 1
25 133 1
36 133 1
61 133 1
69 133 1
205 133 1
208 133 1
385 133 1
387 133 1
805 133 1
806 133 1
25 134 1
26 134 1
62 134 1
70 134 1
206 134 1
209 134 1
386 134 1
388 134 1
806 134 1
807 134 1
26 135 1
27 135 1
63 135 1
71 135 1
207 135 1
210 135 1
387 135 1
389 135 1
807 135 1
808 135 1
27 136 1
28 136 1
64 136 1
72 136 1
208 136 1
211 136 1
388 136 1
390 136 1
808 136 1
809 136 1
28 137 1
29 137 1
61 137 1
65 137 1
209 137 1
212 137 1
389 137 1
391 137 1
809 137 1
810 137 1
29 138 1
30 138 1
62 138 1
66 138 1
210 138 1
213 138 1
390 138 1
392 138 1
810 138 1
811 138 1
30 139 1
31 139 1
63 139 1
67 139 1
211 139 1
214 139 1
391 139 1
393 139 1
811 139 1
812 139 1
31 140 1
32 140 1
64 140 1
68 140 1
212 140 1
215 140 1
392 140 1
394 140 1
812 140 1
813 140 1
32 141 1
33 141 1
65 141 1
69 141 1
213 141 1
216 141 1
393 141 1
395 141 1
813 141 1
814 141 1
33 142 1
34 142 1
66 142 1
70 142 1
205 142 1
214 142 1
394 142 1
396 142 1
814 142 1
815 142 1
34 143 1
35 143 1
67 143 1
71 143 1
206 143 1
215 143 1
385 143 1
395 143 1
815 143 1
816 143 1
35 144 1
36 144 1
68 144 1
72 144 1
207 144 1
216 144 1
386 144 1
396 144 1
805 144 1
816 144 1
37 145 1
47 145 1
49 145 1
58 145 1
217 145 1
220 145 1
397 145 1
399 145 1
817 145 1
818 145 1
38 146 1
48 146 1
50 146 1
59 146 1
218 146 1
221 146 1
398 146 1
400 146 1
818 146 1
819 146 1
37 147 1
39 147 1
51 147 1
60 147 1
219 147 1
222 147 1
399 147 1
401 147 1
819 147 1
820 147 1
38 148 1
40 148 1
49 148 1
52 148 1
220 148 1
223 148 1
400 148 1
402 148 1
820 148 1
821 148 1
39 149 1
41 149 1
50 149 1
53 149 1
221 149 1
224 149 1
401 149 1
403 149 1
821 149 1
822 149 1
40 150 1
42 150 1
51 150 1
54 150 1
222 150 1
225 150 1
402 150 1
404 150 1
822 150 1
823 150 1
41 151 1
43 151 1
52 151 1
55 151 1
223 151 1
226 151 1
403 151 1
405 151 1
823 151 1
824 151 1
42 152 1
44 152 1
53 152 1
56 152 1
224 152 1
227 152 1
404 152 1
406 152 1
824 152 1
825 152 1
43 153 1
45 153 1
54 153 1
57 153 1
225 153 1
228 153 1
405 153 1
407 153 1
825 153 1
826 153 1
44 154 1
46 154 1
55 154 1
58 154 1
217 154 1
226 154 1
406 154 1
408 154 1
826 154 1
827 154 1
45 155 1
47 155 1
56 155 1
59 155 1
218 155 1
227 155 1
397 155 1
407 155 1
827 155 1
828 155 1
46 156 1
48 156 1
57 156 1
60 156 1
219 156 1
228 156 1
398 156 1
408 156 1
817 156 1
828 156 1
37 157 1
48 157 1
61 157 1
70 157 1
229 157 1
232 157 1
409 157 1
411 157 1
829 157 1
830 157 1
37 158 1
38 158 1
62 158 1
71 158 1
230 158 1
233 158 1
410 158 1
412 158 1
830 158 1
831 158 1
38 159 1
39 159 1
63 159 1
72 159 1
231 159 1
234 159 1
411 159 1
413 159 1
831 159 1
832 159 1
39 160 1
40 160 1
61 160 1
64 160 1
232 160 1
235 160 1
412 160 1
414 160 1
832 160 1
833 160 1
40 161 1
41 161 1
62 161 1
65 161 1
233 161 1
236 161 1
413 161 1
415 161 1
833 161 1
834 161 1
41 162 1
42 162 1
63 162 1
66 162 1
234 162 1
237 162 1
414 162 1
416 162 1
834 162 1
835 162 1
42 163 1
43 163 1
64 163 1
67 163 1
235 163 1
238 163 1
415 163 1
417 163 1
835 163 1
836 163 1
43 164 1
44 164 1
65 164 1
68 164 1
236 164 1
239 164 1
416 164 1
418 164 1
836 164 1
837 164 1
44 165 1
45 165 1
66 165 1
69 165 1
237 165 1
240 165 1
417 165 1
419 165 1
837 165 1
838 165 1
45 166 1
46 166 1
67 166 1
70 166 1
229 166 1
238 166 1
418 166 1
420 166 1
838 166 1
839 166 1
46 167 1
47 167 1
68 167 1
71 167 1
230 167 1
239 167 1
409 167 1
419 167 1
839 167 1
840 167 1
47 168 1
48 168 1
69 168 1
72 168 1
231 168 1
240 168 1
410 168 1
420 168 1
829 168 1
840 168 1
49 169 1
60 169 1
61 169 1
71 169 1
241 169 1
244 169 1
421 169 1
423 169 1
841 169 1
842 169 1
49 170 1
50 170 1
62 170 1
72 170 1
242 170 1
245 170 1
422 170 1
424 170 1
842 170 1
843 170 1
50 171 1
51 171 1
61 171 1
63 171 1
243 171 1
246 171 1
423 171 1
425 171 1
843 171 1
844 171 1
51 172 1
52 172 1
62 172 1
64 172 1
244 172 1
247 172 1
424 172 1
426 172 1
844 172 1
845 172 1
52 173 1
53 173 1
63 173 1
65 173 1
245 173 1
248 173 1
425 173 1
427 173 1
845 173 1
846 173 1
53 174 1
54 174 1
64 174 1
66 174 1
246 174 1
249 174 1
426 174 1
428 174 1
846 174 1
847 174 1
54 175 1
55 175 1
65 175 1
67 175 1
247 175 1
250 175 1
427 175 1
429 175 1
847 175 1
848 175 1
55 176 1
56 176 1
66 176 1
68 176 1
248 176 1
251 176 1
428 176 1
430 176 1
848 176 1
849 176 1
56 177 1
57 177 1
67 177 1
69 177 1
249 177 1
252 177 1
429 177 1
431 177 1
849 177 1
850 177 1
57 178 1
58 178 1
68 178 1
70 178 1
241 178 1
250 178 1
430 178 1
432 178 1
850 178 1
851 178 1
58 179 1
59 179 1
69 179 1
71 179 1
242 179 1
251 179 1
421 179 1
431 179 1
851 179 1
852 179 1
59 180 1
60 180 1
70 180 1
72 180 1
243 180 1
252 180 1
422 180 1
432 180 1
841 180 1
852 180 1
73 181 1
81 181 1
85 181 1
92 181 1
133 181 1
138 181 1
433 181 1
435 181 1
853 181 1
854 181 1
74 182 1
82 182 1
86 182 1
93 182 1
134 182 1
139 182 1
434 182 1
436 182 1
854 182 1
855 182 1
75 183 1
83 183 1
87 183 1
94 183 1
135 183 1
140 183 1
435 183 1
437 183 1
855 183 1
856 183 1
76 184 1
84 184 1
88 184 1
95 184 1
136 184 1
141 184 1
436 184 1
438 184 1
856 184 1
857 184 1
73 185 1
77 185 1
89 185 1
96 185 1
137 185 1
142 185 1
437 185 1
439 185 1
857 185 1
858 185 1
74 186 1
78 186 1
85 186 1
90 186 1
138 186 1
143 186 1
438 186 1
440 186 1
858 186 1
859 186 1
75 187 1
79 187 1
86 187 1
91 187 1
139 187 1
144 187 1
439 187 1
441 187 1
859 187 1
860 187 1
76 188 1
80 188 1
87 188 1
92 188 1
133 188 1
140 188 1
440 188 1
442 188 1
860 188 1
861 188 1
77 189 1
81 189 1
88 189 1
93 189 1
134 189 1
141 189 1
441 189 1
443 189 1
861 189 1
862 189 1
78 190 1
82 190 1
89 190 1
94 190 1
135 190 1
142 190 1
442 190 1
444 190 1
862 190 1
863 190 1
79 191 1
83 191 1
90 191 1
95 191 1
136 191 1
143 191 1
433 191 1
443 191 1
863 191 1
864 191 1
80 192 1
84 192 1
91 192 1
96 192 1
137 192 1
144 192 1
434 192 1
444 192 1
853 192 1
864 192 1
73 193 1
82 193 1
97 193 1
104 193 1
145 193 1
150 193 1
445 193 1
447 193 1
865 193 1
866 193 1
74 194 1
83 194 1
98 194 1
105 194 1
146 194 1
151 194 1
446 194 1
448 194 1
866 194 1
867 194 1
75 195 1
84 195 1
99 195 1
106 195 1
147 195 1
152 195 1
447 195 1
449 195 1
867 195 1
868 195 1
73 196 1
76 196 1
100 196 1
107 196 1
148 196 1
153 196 1
448 196 1
450 196 1
868 196 1
869 196 1
74 197 1
77 197 1
101 197 1
108 197 1
149 197 1
154 197 1
449 197 1
451 197 1
869 197 1
870 197 1
75 198 1
78 198 1
97 198 1
102 198 1
150 198 1
155 198 1
450 198 1
452 198 1
870 198 1
871 198 1
76 199 1
79 199 1
98 199 1
103 199 1
151 199 1
156 199 1
451 199 1
453 199 1
871 199 1
872 199 1
77 200 1
80 200 1
99 200 1
104 200 1
145 200 1
152 200 1
452 200 1
454 200 1
872 200 1
873 200 1
78 201 1
81 201 1
100 201 1
105 201 1
146 201 1
153 201 1
453 201 1
455 201 1
873 201 1
874 201 1
79 202 1
82 202 1
101 202 1
106 202 1
147 202 1
154 202 1
454 202 1
456 202 1
874 202 1
875 202 1
80 203 1
83 203 1
102 203 1
107 203 1
148 203 1
155 203 1
445 203 1
455 203 1
875 203 1
876 203 1
81 204 1
84 204 1
103 204 1
108 204 1
149 204 1
156 204 1
446 204 1
456 204 1
865 204 1
876 204 1
73 205 1
83 205 1
109 205 1
116 205 1
157 205 1
162 205 1
457 205 1
459 205 1
877 205 1
878 205 1
74 206 1
84 206 1
110 206 1
117 206 1
158 206 1
163 206 1
458 206 1
460 206 1
878 206 1
879 206 1
73 207 1
75 207 1
111 207 1
118 207 1
159 207 1
164 207 1
459 207 1
461 207 1
879 207 1
880 207 1
74 208 1
76 208 1
112 208 1
119 208 1
160 208 1
165 208 1
460 208 1
462 208 1
880 208 1
881 208 1
75 209 1
77 209 1
113 209 1
120 209 1
161 209 1
166 209 1
461 209 1
463 209 1
881 209 1
882 209 1
76 210 1
78 210 1
109 210 1
114 210 1
162 210 1
167 210 1
462 210 1
464 210 1
882 210 1
883 210 1
77 211 1
79 211 1
110 211 1
115 211 1
163 211 1
168 211 1
463 211 1
465 211 1
883 211 1
884 211 1
78 212 1
80 212 1
111 212 1
116 212 1
157 212 1
164 212 1
464 212 1
466 212 1
884 212 1
885 212 1
79 213 1
81 213 1
112 213 1
117 213 1
158 213 1
165 213 1
465 213 1
467 213 1
885 213 1
886 213 1
80 214 1
82 214 1
113 214 1
118 214 1
159 214 1
166 214 1
466 214 1
468 214 1
886 214 1
887 214 1
81 215 1
83 215 1
114 215 1
119 215 1
160 215 1
167 215 1
457 215 1
467 215 1
887 215 1
888 215 1
82 216 1
84 216 1
115 216 1
120 216 1
161 216 1
168 216 1
458 216 1
468 216 1
877 216 1
888 216 1
73 217 1
84 217 1
121 217 1
128 217 1
169 217 1
174 217 1
469 217 1
471 217 1
889 217 1
890 217 1
73 218 1
74 218 1
122 218 1
129 218 1
170 218 1
175 218 1
470 218 1
472 218 1
890 218 1
891 218 1
74 219 1
75 219 1
123 219 1
130 219 1
171 219 1
176 219 1
471 219 1
473 219 1
891 219 1
892 219 1
75 220 1
76 220 1
124 220 1
131 220 1
172 220 1
177 220 1
472 220 1
474 220 1
892 220 1
893 220 1
76 221 1
77 221 1
125 221 1
132 221 1
173 221 1
178 221 1
473 221 1
475 221 1
893 221 1
894 221 1
77 222 1
78 222 1
121 222 1
126 222 1
174 222 1
179 222 1
474 222 1
476 222 1
894 222 1
895 222 1
78 223 1
79 223 1
122 223 1
127 223 1
175 223 1
180 223 1
475 223 1
477 223 1
895 223 1
896 223 1
79 224 1
80 224 1
123 224 1
128 224 1
169 224 1
176 224 1
476 224 1
478 224 1
896 224 1
897 224 1
80 225 1
81 225 1
124 225 1
129 225 1
170 225 1
177 225 1
477 225 1
479 225 1
897 225 1
898 225 1
81 226 1
82 226 1
125 226 1
130 226 1
171 226 1
178 226 1
478 226 1
480 226 1
898 226 1
899 226 1
82 227 1
83 227 1
126 227 1
131 227 1
172 227 1
179 227 1
469 227 1
479 227 1
899 227 1
900 227 1
83 228 1
84 228 1
127 228 1
132 228 1
173 228 1
180 228 1
470 228 1
480 228 1
889 228 1
900 228 1
85 229 1
94 229 1
97 229 1
105 229 1
181 229 1
186 229 1
481 229 1
483 229 1
901 229 1
902 229 1
86 230 1
95 230 1
98 230 1
106 230 1
182 230 1
187 230 1
482 230 1
484 230 1
902 230 1
903 230 1
87 231 1
96 231 1
99 231 1
107 231 1
183 231 1
188 231 1
483 231 1
485 231 1
903 231 1
904 231 1
85 232 1
88 232 1
100 232 1
108 232 1
184 232 1
189 232 1
484 232 1
486 232 1
904 232 1
905 232 1
86 233 1
89 233 1
97 233 1
101 233 1
185 233 1
190 233 1
485 233 1
487 233 1
905 233 1
906 233 1
87 234 1
90 234 1
98 234 1
102 234 1
186 234 1
191 234 1
486 234 1
488 234 1
906 234 1
907 234 1
88 235 1
91 235 1
99 235 1
103 235 1
187 235 1
192 235 1
487 235 1
489 235 1
907 235 1
908 235 1
89 236 1
92 236 1
100 236 1
104 236 1
181 236 1
188 236 1
488 236 1
490 236 1
908 236 1
909 236 1
90 237 1
93 237 1
101 237 1
105 237 1
182 237 1
189 237 1
489 237 1
491 237 1
909 237 1
910 237 1
91 238 1
94 238 1
102 238 1
106 238 1
183 238 1
190 238 1
490 238 1
492 238 1
910 238 1
911 238 1
92 239 1
95 239 1
103 239 1
107 239 1
184 239 1
191 239 1
481 239 1
491 239 1
911 239 1
912 239 1
93 240 1
96 240 1
104 240 1
108 240 1
185 240 1
192 240 1
482 240 1
492 240 1
901 240 1
912 240 1
85 241 1
95 241 1
109 241 1
117 241 1
193 241 1
198 241 1
493 241 1
495 241 1
913 241 1
914 241 1
86 242 1
96 242 1
110 242 1
118 242 1
194 242 1
199 242 1
494 242 1
496 242 1
914 242 1
915 242 1
85 243 1
87 243 1
111 243 1
119 243 1
195 243 1
200 243 1
495 243 1
497 243 1
915 243 1
916 243 1
86 244 1
88 244 1
112 244 1
120 244 1
196 244 1
201 244 1
496 244 1
498 244 1
916 244 1
917 244 1
87 245 1
89 245 1
109 245 1
113 245 1
197 245 1
202 245 1
497 245 1
499 245 1
917 245 1
918 245 1
88 246 1
90 246 1
110 246 1
114 246 1
198 246 1
203 246 1
498 246 1
500 246 1
918 246 1
919 246 1
89 247 1
91 247 1
111 247 1
115 247 1
199 247 1
204 247 1
499 247 1
501 247 1
919 247 1
920 247 1
90 248 1
92 248 1
112 248 1
116 248 1
193 248 1
200 248 1
500 248 1
502 248 1
920 248 1
921 248 1
91 249 1
93 249 1
113 249 1
117 249 1
194 249 1
201 249 1
501 249 1
503 249 1
921 249 1
922 249 1
92 250 1
94 250 1
114 250 1
118 250 1
195 250 1
202 250 1
502 250 1
504 250 1
922 250 1
923 250 1
93 251 1
95 251 1
115 251 1
119 251 1
196 251 1
203 251 1
493 251 1
503 251 1
923 251 1
924 251 1
94 252 1
96 252 1
116 252 1
120 252 1
197 252 1
204 252 1
494 252 1
504 252 1
913 252 1
924 252 1
85 253 1
96 253 1
121 253 1
129 253 1
205 253 1
210 253 1
505 253 1
507 253 1
925 253 1
926 253 1
85 254 1
86 254 1
122 254 1
130 254 1
206 254 1
211 254 1
506 254 1
508 254 1
926 254 1
927 254 1
86 255 1
87 255 1
123 255 1
131 255 1
207 255 1
212 255 1
507 255 1
509 255 1
927 255 1
928 255 1
87 256 1
88 256 1
124 256 1
132 256 1
208 256 1
213 256 1
508 256 1
510 256 1
928 256 1
929 256 1
88 257 1
89 257 1
121 257 1
125 257 1
209 257 1
214 257 1
509 257 1
511 257 1
929 257 1
930 257 1
89 258 1
90 258 1
122 258 1
126 258 1
210 258 1
215 258 1
510 258 1
512 258 1
930 258 1
931 258 1
90 259 1
91 259 1
123 259 1
127 259 1
211 259 1
216 259 1
511 259 1
513 259 1
931 259 1
932 259 1
91 260 1
92 260 1
124 260 1
128 260 1
205 260 1
212 260 1
512 260 1
514 260 1
932 260 1
933 260 1
92 261 1
93 261 1
125 261 1
129 261 1
206 261 1
213 261 1
513 261 1
515 261 1
933 261 1
934 261 1
93 262 1
94 262 1
126 262 1
130 262 1
207 262 1
214 262 1
514 262 1
516 262 1
934 262 1
935 262 1
94 263 1
95 263 1
127 263 1
131 263 1
208 263 1
215 263 1
505 263 1
515 263 1
935 263 1
936 263 1
95 264 1
96 264 1
128 264 1
132 264 1
209 264 1
216 264 1
506 264 1
516 264 1
925 264 1
936 264 1
97 265 1
107 265 1
109 265 1
118 265 1
217 265 1
222 265 1
517 265 1
519 265 1
937 265 1
938 265 1
98 266 1
108 266 1
110 266 1
119 266 1
218 266 1
223 266 1
518 266 1
520 266 1
938 266 1
939 266 1
97 267 1
99 267 1
111 267 1
120 267 1
219 267 1
224 267 1
519 267 1
521 267 1
939 267 1
940 267 1
98 268 1
100 268 1
109 268 1
112 268 1
220 268 1
225 268 1
520 268 1
522 268 1
940 268 1
941 268 1
99 269 1
101 269 1
110 269 1
113 269 1
221 269 1
226 269 1
521 269 1
523 269 1
941 269 1
942 269 1
100 270 1
102 270 1
111 270 1
114 270 1
222 270 1
227 270 1
522 270 1
524 270 1
942 270 1
943 270 1
101 271 1
103 271 1
112 271 1
115 271 1
223 271 1
228 271 1
523 271 1
525 271 1
943 271 1
944 271 1
102 272 1
104 272 1
113 272 1
116 272 1
217 272 1
224 272 1
524 272 1
526 272 1
944 272 1
945 272 1
103 273 1
105 273 1
114 273 1
117 273 1
218 273 1
225 273 1
525 273 1
527 273 1
945 273 1
946 273 1
104 274 1
106 274 1
115 274 1
118 274 1
219 274 1
226 274 1
526 274 1
528 274 1
946 274 1
947 274 1
105 275 1
107 275 1
116 275 1
119 275 1
220 275 1
227 275 1
517 275 1
527 275 1
947 275 1
948 275 1
106 276 1
108 276 1
117 276 1
120 276 1
221 276 1
228 276 1
518 276 1
528 276 1
937 276 1
948 276 1
97 277 1
108 277 1
121 277 1
130 277 1
229 277 1
234 277 1
529 277 1
531 277 1
949 277 1
950 277 1
97 278 1
98 278 1
122 278 1
131 278 1
230 278 1
235 278 1
530 278 1
532 278 1
950 278 1
951 278 1
98 279 1
99 279 1
123 279 1
132 279 1
231 279 1
236 279 1
531 279 1
533 279 1
951 279 1
952 279 1
99 280 1
100 280 1
121 280 1
124 280 1
232 280 1
237 280 1
532 280 1
534 280 1
952 280 1
953 280 1
100 281 1
101 281 1
122 281 1
125 281 1
233 281 1
238 281 1
533 281 1
535 281 1
953 281 1
954 281 1
101 282 1
102 282 1
123 282 1
126 282 1
234 282 1
239 282 1
534 282 1
536 282 1
954 282 1
955 282 1
102 283 1
103 283 1
124 283 1
127 283 1
235 283 1
240 283 1
535 283 1
537 283 1
955 283 1
956 283 1
103 284 1
104 284 1
125 284 1
128 284 1
229 284 1
236 284 1
536 284 1
538 284 1
956 284 1
957 284 1
104 285 1
105 285 1
126 285 1
129 285 1
230 285 1
237 285 1
537 285 1
539 285 1
957 285 1
958 285 1
105 286 1
106 286 1
127 286 1
130 286 1
231 286 1
238 286 1
538 286 1
540 286 1
958 286 1
959 286 1
106 287 1
107 287 1
128 287 1
131 287 1
232 287 1
239 287 1
529 287 1
539 287 1
959 287 1
960 287 1
107 288 1
108 288 1
129 288 1
132 288 1
233 288 1
240 288 1
530 288 1
540 288 1
949 288 1
960 288 1
109 289 1
120 289 1
121 289 1
131 289 1
241 289 1
246 289 1
541 289 1
543 289 1
961 289 1
962 289 1
109 290 1
110 290 1
122 290 1
132 290 1
242 290 1
247 290 1
542 290 1
544 290 1
962 290 1
963 290 1
110 291 1
111 291 1
121 291 1
123 291 1
243 291 1
248 291 1
543 291 1
545 291 1
963 291 1
964 291 1
111 292 1
112 292 1
122 292 1
124 292 1
244 292 1
249 292 1
544 292 1
546 292 1
964 292 1
965 292 1
112 293 1
113 293 1
123 293 1
125 293 1
245 293 1
250 293 1
545 293 1
547 293 1
965 293 1
966 293 1
113 294 1
114 294 1
124 294 1
126 294 1
246 294 1
251 294 1
546 294 1
548 294 1
966 294 1
967 294 1
114 295 1
115 295 1
125 295 1
127 295 1
247 295 1
252 295 1
547 295 1
549 295 1
967 295 1
968 295 1
115 296 1
116 296 1
126 296 1
128 296 1
241 296 1
248 296 1
548 296 1
550 296 1
968 296 1
969 296 1
116 297 1
117 297 1
127 297 1
129 297 1
242 297 1
249 297 1
549 297 1
551 297 1
969 297 1
970 297 1
117 298 1
118 298 1
128 298 1
130 298 1
243 298 1
250 298 1
550 298 1
552 298 1
970 298 1
971 298 1
118 299 1
119 299 1
129 299 1
131 299 1
244 299 1
251 299 1
541 299 1
551 299 1
971 299 1
972 299 1
119 300 1
120 300 1
130 300 1
132 300 1
245 300 1
252 300 1
542 300 1
552 300 1
961 300 1
972 300 1
133 301 1
142 301 1
145 301 1
153 301 1
181 301 1
188 301 1
553 301 1
555 301 1
973 301 1
974 301 1
134 302 1
143 302 1
146 302 1
154 302 1
182 302 1
189 302 1
554 302 1
556 302 1
974 302 1
975 302 1
135 303 1
144 303 1
147 303 1
155 303 1
183 303 1
190 303 1
555 303 1
557 303 1
975 303 1
976 303 1
133 304 1
136 304 1
148 304 1
156 304 1
184 304 1
191 304 1
556 304 1
558 304 1
976 304 1
977 304 1
134 305 1
137 305 1
145 305 1
149 305 1
185 305 1
192 305 1
557 305 1
559 305 1
977 305 1
978 305 1
135 306 1
138 306 1
146 306 1
150 306 1
181 306 1
186 306 1
558 306 1
560 306 1
978 306 1
979 306 1
136 307 1
139 307 1
147 307 1
151 307 1
182 307 1
187 307 1
559 307 1
561 307 1
979 307 1
980 307 1
137 308 1
140 308 1
148 308 1
152 308 1
183 308 1
188 308 1
560 308 1
562 308 1
980 308 1
981 308 1
138 309 1
141 309 1
149 309 1
153 309 1
184 309 1
189 309 1
561 309 1
563 309 1
981 309 1
982 309 1
139 310 1
142 310 1
150 310 1
154 310 1
185 310 1
190 310 1
562 310 1
564 310 1
982 310 1
983 310 1
140 311 1
143 311 1
151 311 1
155 311 1
186 311 1
191 311 1
553 311 1
563 311 1
983 311 1
984 311 1
141 312 1
144 312 1
152 312 1
156 312 1
187 312 1
192 312 1
554 312 1
564 312 1
973 312 1
984 312 1
133 313 1
143 313 1
157 313 1
165 313 1
193 313 1
200 313 1
565 313 1
567 313 1
985 313 1
986 313 1
134 314 1
144 314 1
158 314 1
166 314 1
194 314 1
201 314 1
566 314 1
568 314 1
986 314 1
987 314 1
133 315 1
135 315 1
159 315 1
167 315 1
195 315 1
202 315 1
567 315 1
569 315 1
987 315 1
988 315 1
134 316 1
136 316 1
160 316 1
168 316 1
196 316 1
203 316 1
568 316 1
570 316 1
988 316 1
989 316 1
135 317 1
137 317 1
157 317 1
161 317 1
197 317 1
204 317 1
569 317 1
571 317 1
989 317 1
990 317 1
136 318 1
138 318 1
158 318 1
162 318 1
193 318 1
198 318 1
570 318 1
572 318 1
990 318 1
991 318 1
137 319 1
139 319 1
159 319 1
163 319 1
194 319 1
199 319 1
571 319 1
573 319 1
991 319 1
992 319 1
138 320 1
140 320 1
160 320 1
164 320 1
195 320 1
200 320 1
572 320 1
574 320 1
992 320 1
993 320 1
139 321 1
141 321 1
161 321 1
165 321 1
196 321 1
201 321 1
573 321 1
575 321 1
993 321 1
994 321 1
140 322 1
142 322 1
162 322 1
166 322 1
197 322 1
202 322 1
574 322 1
576 322 1
994 322 1
995 322 1
141 323 1
143 323 1
163 323 1
167 323 1
198 323 1
203 323 1
565 323 1
575 323 1
995 323 1
996 323 1
142 324 1
144 324 1
164 324 1
168 324 1
199 324 1
204 324 1
566 324 1
576 324 1
985 324 1
996 324 1
133 325 1
144 325 1
169 325 1
177 325 1
205 325 1
212 325 1
577 325 1
579 325 1
997 325 1
998 325 1
133 326 1
134 326 1
170 326 1
178 326 1
206 326 1
213 326 1
578 326 1
580 326 1
998 326 1
999 326 1
134 327 1
135 327 1
171 327 1
179 327 1
207 327 1
214 327 1
579 327 1
581 327 1
999 327 1
1000 327 1
135 328 1
136 328 1
172 328 1
180 328 1
208 328 1
215 328 1
580 328 1
582 328 1
1000 328 1
1001 328 1
136 329 1
137 329 1
169 329 1
173 329 1
209 329 1
216 329 1
581 329 1
583 329 1
1001 329 1
1002 329 1
137 330 1
138 330 1
170 330 1
174 330 1
205 330 1
210 330 1
582 330 1
584 330 1
1002 330 1
1003 330 1
138 331 1
139 331 1
171 331 1
175 331 1
206 331 1
211 331 1
583 331 1
585 331 1
1003 331 1
1004 331 1
139 332 1
140 332 1
172 332 1
176 332 1
207 332 1
212 332 1
584 332 1
586 332 1
1004 332 1
1005 332 1
140 333 1
141 333 1
173 333 1
177 333 1
208 333 1
213 333 1
585 333 1
587 333 1
1005 333 1
1006 333 1
141 334 1
142 334 1
174 334 1
178 334 1
209 334 1
214 334 1
586 334 1
588 334 1
1006 334 1
1007 334 1
142 335 1
143 335 1
175 335 1
179 335 1
210 335 1
215 335 1
577 335 1
587 335 1
1007 335 1
1008 335 1
143 336 1
144 336 1
176 336 1
180 336 1
211 336 1
216 336 1
578 336 1
588 336 1
997 336 1
1008 336 1
145 337 1
155 337 1
157 337 1
166 337 1
217 337 1
224 337 1
589 337 1
591 337 1
1009 337 1
1010 337 1
146 338 1
156 338 1
158 338 1
167 338 1
218 338 1
225 338 1
590 338 1
592 338 1
1010 338 1
1011 338 1
145 339 1
147 339 1
159 339 1
168 339 1
219 339 1
226 339 1
591 339 1
593 339 1
1011 339 1
1012 339 1
146 340 1
148 340 1
157 340 1
160 340 1
220 340 1
227 340 1
592 340 1
594 340 1
1012 340 1
1013 340 1
147 341 1
149 341 1
158 341 1
161 341 1
221 341 1
228 341 1
593 341 1
595 341 1
1013 341 1
1014 341 1
148 342 1
150 342 1
159 342 1
162 342 1
217 342 1
222 342 1
594 342 1
596 342 1
1014 342 1
1015 342 1
149 343 1
151 343 1
160 343 1
163 343 1
218 343 1
223 343 1
595 343 1
597 343 1
1015 343 1
1016 343 1
150 344 1
152 344 1
161 344 1
164 344 1
219 344 1
224 344 1
596 344 1
598 344 1
1016 344 1
1017 344 1
151 345 1
153 345 1
162 345 1
165 345 1
220 345 1
225 345 1
597 345 1
599 345 1
1017 345 1
1018 345 1
152 346 1
154 346 1
163 346 1
166 346 1
221 346 1
226 346 1
598 346 1
600 346 1
1018 346 1
1019 346 1
153 347 1
155 347 1
164 347 1
167 347 1
222 347 1
227 347 1
589 347 1
599 347 1
1019 347 1
1020 347 1
154 348 1
156 348 1
165 348 1
168 348 1
223 348 1
228 348 1
590 348 1
600 348 1
1009 348 1
1020 348 1
145 349 1
156 349 1
169 349 1
178 349 1
229 349 1
236 349 1
601 349 1
603 349 1
1021 349 1
1022 349 1
145 350 1
146 350 1
170 350 1
179 350 1
230 350 1
237 350 1
602 350 1
604 350 1
1022 350 1
1023 350 1
146 351 1
147 351 1
171 351 1
180 351 1
231 351 1
238 351 1
603 351 1
605 351 1
1023 351 1
1024 351 1
147 352 1
148 352 1
169 352 1
172 352 1
232 352 1
239 352 1
604 352 1
606 352 1
1024 352 1
1025 352 1
148 353 1
149 353 1
170 353 1
173 353 1
233 353 1
240 353 1
605 353 1
607 353 1
1025 353 1
1026 353 1
149 354 1
150 354 1
171 354 1
174 354 1
229 354 1
234 354 1
606 354 1
608 354 1
1026 354 1
1027 354 1
150 355 1
151 355 1
172 355 1
175 355 1
230 355 1
235 355 1
607 355 1
609 355 1
1027 355 1
1028 355 1
151 356 1
152 356 1
173 356 1
176 356 1
231 356 1
236 356 1
608 356 1
610 356 1
1028 356 1
1029 356 1
152 357 1
153 357 1
174 357 1
177 357 1
232 357 1
237 357 1
609 357 1
611 357 1
1029 357 1
1030 357 1
153 358 1
154 358 1
175 358 1
178 358 1
233 358 1
238 358 1
610 358 1
612 358 1
1030 358 1
1031 358 1
154 359 1
155 359 1
176 359 1
179 359 1
234 359 1
239 359 1
601 359 1
611 359 1
1031 359 1
1032 359 1
155 360 1
156 360 1
177 360 1
180 360 1
235 360 1
240 360 1
602 360 1
612 360 1
1021 360 1
1032 360 1
157 361 1
168 361 1
169 361 1
179 361 1
241 361 1
248 361 1
613 361 1
615 361 1
1033 361 1
1034 361 1
157 362 1
158 362 1
170 362 1
180 362 1
242 362 1
249 362 1
614 362 1
616 362 1
1034 362 1
1035 362 1
158 363 1
159 363 1
169 363 1
171 363 1
243 363 1
250 363 1
615 363 1
617 363 1
1035 363 1
1036 363 1
159 364 1
160 364 1
170 364 1
172 364 1
244 364 1
251 364 1
616 364 1
618 364 1
1036 364 1
1037 364 1
160 365 1
161 365 1
171 365 1
173 365 1
245 365 1
252 365 1
617 365 1
619 365 1
1037 365 1
1038 365 1
161 366 1
162 366 1
172 366 1
174 366 1
241 366 1
246 366 1
618 366 1
620 366 1
1038 366 1
1039 366 1
162 367 1
163 367 1
173 367 1
175 367 1
242 367 1
247 367 1
619 367 1
621 367 1
1039 367 1
1040 367 1
163 368 1
164 368 1
174 368 1
176 368 1
243 368 1
248 368 1
620 368 1
622 368 1
1040 368 1
1041 368 1
164 369 1
165 369 1
175 369 1
177 369 1
244 369 1
249 369 1
621 369 1
623 369 1
1041 369 1
1042 369 1
165 370 1
166 370 1
176 370 1
178 370 1
245 370 1
250 370 1
622 370 1
624 370 1
1042 370 1
1043 370 1
166 371 1
167 371 1
177 371 1
179 371 1
246 371 1
251 371 1
613 371 1
623 371 1
1043 371 1
1044 371 1
167 372 1
168 372 1
178 372 1
180 372 1
247 372 1
252 372 1
614 372 1
624 372 1
1033 372 1
1044 372 1
181 373 1
191 373 1
193 373 1
202 373 1
217 373 1
225 373 1
625 373 1
627 373 1
1045 373 1
1046 373 1
182 374 1
192 374 1
194 374 1
203 374 1
218 374 1
226 374 1
626 374 1
628 374 1
1046 374 1
1047 374 1
181 375 1
183 375 1
195 375 1
204 375 1
219 375 1
227 375 1
627 375 1
629 375 1
1047 375 1
1048 375 1
182 376 1
184 376 1
193 376 1
196 376 1
220 376 1
228 376 1
628 376 1
630 376 1
1048 376 1
1049 376 1
183 377 1
185 377 1
194 377 1
197 377 1
217 377 1
221 377 1
629 377 1
631 377 1
1049 377 1
1050 377 1
184 378 1
186 378 1
195 378 1
198 378 1
218 378 1
222 378 1
630 378 1
632 378 1
1050 378 1
1051 378 1
185 379 1
187 379 1
196 379 1
199 379 1
219 379 1
223 379 1
631 379 1
633 379 1
1051 379 1
1052 379 1
186 380 1
188 380 1
197 380 1
200 380 1
220 380 1
224 380 1
632 380 1
634 380 1
1052 380 1
1053 380 1
187 381 1
189 381 1
198 381 1
201 381 1
221 381 1
225 381 1
633 381 1
635 381 1
1053 381 1
1054 381 1
188 382 1
190 382 1
199 382 1
202 382 1
222 382 1
226 382 1
634 382 1
636 382 1
1054 382 1
1055 382 1
189 383 1
191 383 1
200 383 1
203 383 1
223 383 1
227 383 1
625 383 1
635 383 1
1055 383 1
1056 383 1
190 384 1
192 384 1
201 384 1
204 384 1
224 384 1
228 384 1
626 384 1
636 384 1
1045 384 1
1056 384 1
181 385 1
192 385 1
205 385 1
214 385 1
229 385 1
237 385 1
637 385 1
639 385 1
1057 385 1
1058 385 1
181 386 1
182 386 1
206 386 1
215 386 1
230 386 1
238 386 1
638 386 1
640 386 1
1058 386 1
1059 386 1
182 387 1
183 387 1
207 387 1
216 387 1
231 387 1
239 387 1
639 387 1
641 387 1
1059 387 1
1060 387 1
183 388 1
184 388 1
205 388 1
208 388 1
232 388 1
240 388 1
640 388 1
642 388 1
1060 388 1
1061 388 1
184 389 1
185 389 1
206 389 1
209 389 1
229 389 1
233 389 1
641 389 1
643 389 1
1061 389 1
1062 389 1
185 390 1
186 390 1
207 390 1
210 390 1
230 390 1
234 390 1
642 390 1
644 390 1
1062 390 1
1063 390 1
186 391 1
187 391 1
208 391 1
211 391 1
231 391 1
235 391 1
643 391 1
645 391 1
1063 391 1
1064 391 1
187 392 1
188 392 1
209 392 1
212 392 1
232 392 1
236 392 1
644 392 1
646 392 1
1064 392 1
1065 392 1
188 393 1
189 393 1
210 393 1
213 393 1
233 393 1
237 393 1
645 393 1
647 393 1
1065 393 1
1066 393 1
189 394 1
190 394 1
211 394 1
214 394 1
234 394 1
238 394 1
646 394 1
648 394 1
1066 394 1
1067 394 1
190 395 1
191 395 1
212 395 1
215 395 1
235 395 1
239 395 1
637 395 1
647 395 1
1067 395 1
1068 395 1
191 396 1
192 396 1
213 396 1
216 396 1
236 396 1
240 396 1
638 396 1
648 396 1
1057 396 1
1068 396 1
193 397 1
204 397 1
205 397 1
215 397 1
241 397 1
249 397 1
649 397 1
651 397 1
1069 397 1
1070 397 1
193 398 1
194 398 1
206 398 1
216 398 1
242 398 1
250 398 1
650 398 1
652 398 1
1070 398 1
1071 398 1
194 399 1
195 399 1
205 399 1
207 399 1
243 399 1
251 399 1
651 399 1
653 399 1
1071 399 1
1072 399 1
195 400 1
196 400 1
206 400 1
208 400 1
244 400 1
252 400 1
652 400 1
654 400 1
1072 400 1
1073 400 1
196 401 1
197 401 1
207 401 1
209 401 1
241 401 1
245 401 1
653 401 1
655 401 1
1073 401 1
1074 401 1
197 402 1
198 402 1
208 402 1
210 402 1
242 402 1
246 402 1
654 402 1
656 402 1
1074 402 1
1075 402 1
198 403 1
199 403 1
209 403 1
211 403 1
243 403 1
247 403 1
655 403 1
657 403 1
1075 403 1
1076 403 1
199 404 1
200 404 1
210 404 1
212 404 1
244 404 1
248 404 1
656 404 1
658 404 1
1076 404 1
1077 404 1
200 405 1
201 405 1
211 405 1
213 405 1
245 405 1
249 405 1
657 405 1
659 405 1
1077 405 1
1078 405 1
201 406 1
202 406 1
212 406 1
214 406 1
246 406 1
250 406 1
658 406 1
660 406 1
1078 406 1
1079 406 1
202 407 1
203 407 1
213 407 1
215 407 1
247 407 1
251 407 1
649 407 1
659 407 1
1079 407 1
1080 407 1
203 408 1
204 408 1
214 408 1
216 408 1
248 408 1
252 408 1
650 408 1
660 408 1
1069 408 1
1080 408 1
217 409 1
228 409 1
229 409 1
239 409 1
241 409 1
250 409 1
661 409 1
663 409 1
1081 409 1
1082 409 1
217 410 1
218 410 1
230 410 1
240 410 1
242 410 1
251 410 1
662 410 1
664 410 1
1082 410 1
1083 410 1
218 411 1
219 411 1
229 411 1
231 411 1
243 411 1
252 411 1
663 411 1
665 411 1
1083 411 1
1084 411 1
219 412 1
220 412 1
230 412 1
232 412 1
241 412 1
244 412 1
664 412 1
666 412 1
1084 412 1
1085 412 1
220 413 1
221 413 1
231 413 1
233 413 1
242 413 1
245 413 1
665 413 1
667 413 1
1085 413 1
1086 413 1
221 414 1
222 414 1
232 414 1
234 414 1
243 414 1
246 414 1
666 414 1
668 414 1
1086 414 1
1087 414 1
222 415 1
223 415 1
233 415 1
235 415 1
244 415 1
247 415 1
667 415 1
669 415 1
1087 415 1
1088 415 1
223 416 1
224 416 1
234 416 1
236 416 1
245 416 1
248 416 1
668 416 1
670 416 1
1088 416 1
1089 416 1
224 417 1
225 417 1
235 417 1
237 417 1
246 417 1
249 417 1
669 417 1
671 417 1
1089 417 1
1090 417 1
225 418 1
226 418 1
236 418 1
238 418 1
247 418 1
250 418 1
670 418 1
672 418 1
1090 418 1
1091 418 1
226 419 1
227 419 1
237 419 1
239 419 1
248 419 1
251 419 1
661 419 1
671 419 1
1091 419 1
1092 419 1
227 420 1
228 420 1
238 420 1
240 420 1
249 420 1
252 420 1
662 420 1
672 420 1
1081 420 1
1092 420 1
253 421 1
261 421 1
265 421 1
272 421 1
313 421 1
318 421 1
433 421 1
436 421 1
1093 421 1
1094 421 1
254 422 1
262 422 1
266 422 1
273 422 1
314 422 1
319 422 1
434 422 1
437 422 1
1094 422 1
1095 422 1
255 423 1
263 423 1
267 423 1
274 423 1
315 423 1
320 423 1
435 423 1
438 423 1
1095 423 1
1096 423 1
256 424 1
264 424 1
268 424 1
275 424 1
316 424 1
321 424 1
436 424 1
439 424 1
1096 424 1
1097 424 1
253 425 1
257 425 1
269 425 1
276 425 1
317 425 1
322 425 1
437 425 1
440 425 1
1097 425 1
1098 425 1
254 426 1
258 426 1
265 426 1
270 426 1
318 426 1
323 426 1
438 426 1
441 426 1
1098 426 1
1099 426 1
255 427 1
259 427 1
266 427 1
271 427 1
319 427 1
324 427 1
439 427 1
442 427 1
1099 427 1
1100 427 1
256 428 1
260 428 1
267 428 1
272 428 1
313 428 1
320 428 1
440 428 1
443 428 1
1100 428 1
1101 428 1
257 429 1
261 429 1
268 429 1
273 429 1
314 429 1
321 429 1
441 429 1
444 429 1
1101 429 1
1102 429 1
258 430 1
262 430 1
269 430 1
274 430 1
315 430 1
322 430 1
433 430 1
442 430 1
1102 430 1
1103 430 1
259 431 1
263 431 1
270 431 1
275 431 1
316 431 1
323 431 1
434 431 1
443 431 1
1103 431 1
1104 431 1
260 432 1
264 432 1
271 432 1
276 432 1
317 432 1
324 432 1
435 432 1
444 432 1
1093 432 1
1104 432 1
253 433 1
262 433 1
277 433 1
284 433 1
325 433 1
330 433 1
445 433 1
448 433 1
1105 433 1
1106 433 1
254 434 1
263 434 1
278 434 1
285 434 1
326 434 1
331 434 1
446 434 1
449 434 1
1106 434 1
1107 434 1
255 435 1
264 435 1
279 435 1
286 435 1
327 435 1
332 435 1
447 435 1
450 435 1
1107 435 1
1108 435 1
253 436 1
256 436 1
280 436 1
287 436 1
328 436 1
333 436 1
448 436 1
451 436 1
1108 436 1
1109 436 1
254 437 1
257 437 1
281 437 1
288 437 1
329 437 1
334 437 1
449 437 1
452 437 1
1109 437 1
1110 437 1
255 438 1
258 438 1
277 438 1
282 438 1
330 438 1
335 438 1
450 438 1
453 438 1
1110 438 1
1111 438 1
256 439 1
259 439 1
278 439 1
283 439 1
331 439 1
336 439 1
451 439 1
454 439 1
1111 439 1
1112 439 1
257 440 1
260 440 1
279 440 1
284 440 1
325 440 1
332 440 1
452 440 1
455 440 1
1112 440 1
1113 440 1
258 441 1
261 441 1
280 441 1
285 441 1
326 441 1
333 441 1
453 441 1
456 441 1
1113 441 1
1114 441 1
259 442 1
262 442 1
281 442 1
286 442 1
327 442 1
334 442 1
445 442 1
454 442 1
1114 442 1
1115 442 1
260 443 1
263 443 1
282 443 1
287 443 1
328 443 1
335 443 1
446 443 1
455 443 1
1115 443 1
1116 443 1
261 444 1
264 444 1
283 444 1
288 444 1
329 444 1
336 444 1
447 444 1
456 444 1
1105 444 1
1116 444 1
253 445 1
263 445 1
289 445 1
296 445 1
337 445 1
342 445 1
457 445 1
460 445 1
1117 445 1
1118 445 1
254 446 1
264 446 1
290 446 1
297 446 1
338 446 1
343 446 1
458 446 1
461 446 1
1118 446 1
1119 446 1
253 447 1
255 447 1
291 447 1
298 447 1
339 447 1
344 447 1
459 447 1
462 447 1
1119 447 1
1120 447 1
254 448 1
256 448 1
292 448 1
299 448 1
340 448 1
345 448 1
460 448 1
463 448 1
1120 448 1
1121 448 1
255 449 1
257 449 1
293 449 1
300 449 1
341 449 1
346 449 1
461 449 1
464 449 1
1121 449 1
1122 449 1
256 450 1
258 450 1
289 450 1
294 450 1
342 450 1
347 450 1
462 450 1
465 450 1
1122 450 1
1123 450 1
257 451 1
259 451 1
290 451 1
295 451 1
343 451 1
348 451 1
463 451 1
466 451 1
1123 451 1
1124 451 1
258 452 1
260 452 1
291 452 1
296 452 1
337 452 1
344 452 1
464 452 1
467 452 1
1124 452 1
1125 452 1
259 453 1
261 453 1
292 453 1
297 453 1
338 453 1
345 453 1
465 453 1
468 453 1
1125 453 1
1126 453 1
260 454 1
262 454 1
293 454 1
298 454 1
339 454 1
346 454 1
457 454 1
466 454 1
1126 454 1
1127 454 1
261 455 1
263 455 1
294 455 1
299 455 1
340 455 1
347 455 1
458 455 1
467 455 1
1127 455 1
1128 455 1
262 456 1
264 456 1
295 456 1
300 456 1
341 456 1
348 456 1
459 456 1
468 456 1
1117 456 1
1128 456 1
253 457 1
264 457 1
301 457 1
308 457 1
349 457 1
354 457 1
469 457 1
472 457 1
1129 457 1
1130 457 1
253 458 1
254 458 1
302 458 1
309 458 1
350 458 1
355 458 1
470 458 1
473 458 1
1130 458 1
1131 458 1
254 459 1
255 459 1
303 459 1
310 459 1
351 459 1
356 459 1
471 459 1
474 459 1
1131 459 1
1132 459 1
255 460 1
256 460 1
304 460 1
311 460 1
352 460 1
357 460 1
472 460 1
475 460 1
1132 460 1
1133 460 1
256 461 1
257 461 1
305 461 1
312 461 1
353 461 1
358 461 1
473 461 1
476 461 1
1133 461 1
1134 461 1
257 462 1
258 462 1
301 462 1
306 462 1
354 462 1
359 462 1
474 462 1
477 462 1
1134 462 1
1135 462 1
258 463 1
259 463 1
302 463 1
307 463 1
355 463 1
360 463 1
475 463 1
478 463 1
1135 463 1
1136 463 1
259 464 1
260 464 1
303 464 1
308 464 1
349 464 1
356 464 1
476 464 1
479 464 1
1136 464 1
1137 464 1
260 465 1
261 465 1
304 465 1
309 465 1
350 465 1
357 465 1
477 465 1
480 465 1
1137 465 1
1138 465 1
261 466 1
262 466 1
305 466 1
310 466 1
351 466 1
358 466 1
469 466 1
478 466 1
1138 466 1
1139 466 1
262 467 1
263 467 1
306 467 1
311 467 1
352 467 1
359 467 1
470 467 1
479 467 1
1139 467 1
1140 467 1
263 468 1
264 468 1
307 468 1
312 468 1
353 468 1
360 468 1
471 468 1
480 468 1
1129 468 1
1140 468 1
265 469 1
274 469 1
277 469 1
285 469 1
361 469 1
366 469 1
481 469 1
484 469 1
1141 469 1
1142 469 1
266 470 1
275 470 1
278 470 1
286 470 1
362 470 1
367 470 1
482 470 1
485 470 1
1142 470 1
1143 470 1
267 471 1
276 471 1
279 471 1
287 471 1
363 471 1
368 471 1
483 471 1
486 471 1
1143 471 1
1144 471 1
265 472 1
268 472 1
280 472 1
288 472 1
364 472 1
369 472 1
484 472 1
487 472 1
1144 472 1
1145 472 1
266 473 1
269 473 1
277 473 1
281 473 1
365 473 1
370 473 1
485 473 1
488 473 1
1145 473 1
1146 473 1
267 474 1
270 474 1
278 474 1
282 474 1
366 474 1
371 474 1
486 474 1
489 474 1
1146 474 1
1147 474 1
268 475 1
271 475 1
279 475 1
283 475 1
367 475 1
372 475 1
487 475 1
490 475 1
1147 475 1
1148 475 1
269 476 1
272 476 1
280 476 1
284 476 1
361 476 1
368 476 1
488 476 1
491 476 1
1148 476 1
1149 476 1
270 477 1
273 477 1
281 477 1
285 477 1
362 477 1
369 477 1
489 477 1
492 477 1
1149 477 1
1150 477 1
271 478 1
274 478 1
282 478 1
286 478 1
363 478 1
370 478 1
481 478 1
490 478 1
1150 478 1
1151 478 1
272 479 1
275 479 1
283 479 1
287 479 1
364 479 1
371 479 1
482 479 1
491 479 1
1151 479 1
1152 479 1
273 480 1
276 480 1
284 480 1
288 480 1
365 480 1
372 480 1
483 480 1
492 480 1
1141 480 1
1152 480 1
265 481 1
275 481 1
289 481 1
297 481 1
373 481 1
378 481 1
493 481 1
496 481 1
1153 481 1
1154 481 1
266 482 1
276 482 1
290 482 1
298 482 1
374 482 1
379 482 1
494 482 1
497 482 1
1154 482 1
1155 482 1
265 483 1
267 483 1
291 483 1
299 483 1
375 483 1
380 483 1
495 483 1
498 483 1
1155 483 1
1156 483 1
266 484 1
268 484 1
292 484 1
300 484 1
376 484 1
381 484 1
496 484 1
499 484 1
1156 484 1
1157 484 1
267 485 1
269 485 1
289 485 1
293 485 1
377 485 1
382 485 1
497 485 1
500 485 1
1157 485 1
1158 485 1
268 486 1
270 486 1
290 486 1
294 486 1
378 486 1
383 486 1
498 486 1
501 486 1
1158 486 1
1159 486 1
269 487 1
271 487 1
291 487 1
295 487 1
379 487 1
384 487 1
499 487 1
502 487 1
1159 487 1
1160 487 1
270 488 1
272 488 1
292 488 1
296 488 1
373 488 1
380 488 1
500 488 1
503 488 1
1160 488 1
1161 488 1
271 489 1
273 489 1
293 489 1
297 489 1
374 489 1
381 489 1
501 489 1
504 489 1
1161 489 1
1162 489 1
272 490 1
274 490 1
294 490 1
298 490 1
375 490 1
382 490 1
493 490 1
502 490 1
1162 490 1
1163 490 1
273 491 1
275 491 1
295 491 1
299 491 1
376 491 1
383 491 1
494 491 1
503 491 1
1163 491 1
1164 491 1
274 492 1
276 492 1
296 492 1
300 492 1
377 492 1
384 492 1
495 492 1
504 492 1
1153 492 1
1164 492 1
265 493 1
276 493 1
301 493 1
309 493 1
385 493 1
390 493 1
505 493 1
508 493 1
1165 493 1
1166 493 1
265 494 1
266 494 1
302 494 1
310 494 1
386 494 1
391 494 1
506 494 1
509 494 1
1166 494 1
1167 494 1
266 495 1
267 495 1
303 495 1
311 495 1
387 495 1
392 495 1
507 495 1
510 495 1
1167 495 1
1168 495 1
267 496 1
268 496 1
304 496 1
312 496 1
388 496 1
393 496 1
508 496 1
511 496 1
1168 496 1
1169 496 1
268 497 1
269 497 1
301 497 1
305 497 1
389 497 1
394 497 1
509 497 1
512 497 1
1169 497 1
1170 497 1
269 498 1
270 498 1
302 498 1
306 498 1
390 498 1
395 498 1
510 498 1
513 498 1
1170 498 1
1171 498 1
270 499 1
271 499 1
303 499 1
307 499 1
391 499 1
396 499 1
511 499 1
514 499 1
1171 499 1
1172 499 1
271 500 1
272 500 1
304 500 1
308 500 1
385 500 1
392 500 1
512 500 1
515 500 1
1172 500 1
1173 500 1
272 501 1
273 501 1
305 501 1
309 501 1
386 501 1
393 501 1
513 501 1
516 501 1
1173 501 1
1174 501 1
273 502 1
274 502 1
306 502 1
310 502 1
387 502 1
394 502 1
505 502 1
514 502 1
1174 502 1
1175 502 1
274 503 1
275 503 1
307 503 1
311 503 1
388 503 1
395 503 1
506 503 1
515 503 1
1175 503 1
1176 503 1
275 504 1
276 504 1
308 504 1
312 504 1
389 504 1
396 504 1
507 504 1
516 504 1
1165 504 1
1176 504 1
277 505 1
287 505 1
289 505 1
298 505 1
397 505 1
402 505 1
517 505 1
520 505 1
1177 505 1
1178 505 1
278 506 1
288 506 1
290 506 1
299 506 1
398 506 1
403 506 1
518 506 1
521 506 1
1178 506 1
1179 506 1
277 507 1
279 507 1
291 507 1
300 507 1
399 507 1
404 507 1
519 507 1
522 507 1
1179 507 1
1180 507 1
278 508 1
280 508 1
289 508 1
292 508 1
400 508 1
405 508 1
520 508 1
523 508 1
1180 508 1
1181 508 1
279 509 1
281 509 1
290 509 1
293 509 1
401 509 1
406 509 1
521 509 1
524 509 1
1181 509 1
1182 509 1
280 510 1
282 510 1
291 510 1
294 510 1
402 510 1
407 510 1
522 510 1
525 510 1
1182 510 1
1183 510 1
281 511 1
283 511 1
292 511 1
295 511 1
403 511 1
408 511 1
523 511 1
526 511 1
1183 511 1
1184 511 1
282 512 1
284 512 1
293 512 1
296 512 1
397 512 1
404 512 1
524 512 1
527 512 1
1184 512 1
1185 512 1
283 513 1
285 513 1
294 513 1
297 513 1
398 513 1
405 513 1
525 513 1
528 513 1
1185 513 1
1186 513 1
284 514 1
286 514 1
295 514 1
298 514 1
399 514 1
406 514 1
517 514 1
526 514 1
1186 514 1
1187 514 1
285 515 1
287 515 1
296 515 1
299 515 1
400 515 1
407 515 1
518 515 1
527 515 1
1187 515 1
1188 515 1
286 516 1
288 516 1
297 516 1
300 516 1
401 516 1
408 516 1
519 516 1
528 516 1
1177 516 1
1188 516 1
277 517 1
288 517 1
301 517 1
310 517 1
409 517 1
414 517 1
529 517 1
532 517 1
1189 517 1
1190 517 1
277 518 1
278 518 1
302 518 1
311 518 1
410 518 1
415 518 1
530 518 1
533 518 1
1190 518 1
1191 518 1
278 519 1
279 519 1
303 519 1
312 519 1
411 519 1
416 519 1
531 519 1
534 519 1
1191 519 1
1192 519 1
279 520 1
280 520 1
301 520 1
304 520 1
412 520 1
417 520 1
532 520 1
535 520 1
1192 520 1
1193 520 1
280 521 1
281 521 1
302 521 1
305 521 1
413 521 1
418 521 1
533 521 1
536 521 1
1193 521 1
1194 521 1
281 522 1
282 522 1
303 522 1
306 522 1
414 522 1
419 522 1
534 522 1
537 522 1
1194 522 1
1195 522 1
282 523 1
283 523 1
304 523 1
307 523 1
415 523 1
420 523 1
535 523 1
538 523 1
1195 523 1
1196 523 1
283 524 1
284 524 1
305 524 1
308 524 1
409 524 1
416 524 1
536 524 1
539 524 1
1196 524 1
1197 524 1
284 525 1
285 525 1
306 525 1
309 525 1
410 525 1
417 525 1
537 525 1
540 525 1
1197 525 1
1198 525 1
285 526 1
286 526 1
307 526 1
310 526 1
411 526 1
418 526 1
529 526 1
538 526 1
1198 526 1
1199 526 1
286 527 1
287 527 1
308 527 1
311 527 1
412 527 1
419 527 1
530 527 1
539 527 1
1199 527 1
1200 527 1
287 528 1
288 528 1
309 528 1
312 528 1
413 528 1
420 528 1
531 528 1
540 528 1
1189 528 1
1200 528 1
289 529 1
300 529 1
301 529 1
311 529 1
421 529 1
426 529 1
541 529 1
544 529 1
1201 529 1
1202 529 1
289 530 1
290 530 1
302 530 1
312 530 1
422 530 1
427 530 1
542 530 1
545 530 1
1202 530 1
1203 530 1
290 531 1
291 531 1
301 531 1
303 531 1
423 531 1
428 531 1
543 531 1
546 531 1
1203 531 1
1204 531 1
291 532 1
292 532 1
302 532 1
304 532 1
424 532 1
429 532 1
544 532 1
547 532 1
1204 532 1
1205 532 1
292 533 1
293 533 1
303 533 1
305 533 1
425 533 1
430 533 1
545 533 1
548 533 1
1205 533 1
1206 533 1
293 534 1
294 534 1
304 534 1
306 534 1
426 534 1
431 534 1
546 534 1
549 534 1
1206 534 1
1207 534 1
294 535 1
295 535 1
305 535 1
307 535 1
427 535 1
432 535 1
547 535 1
550 535 1
1207 535 1
1208 535 1
295 536 1
296 536 1
306 536 1
308 536 1
421 536 1
428 536 1
548 536 1
551 536 1
1208 536 1
1209 536 1
296 537 1
297 537 1
307 537 1
309 537 1
422 537 1
429 537 1
549 537 1
552 537 1
1209 537 1
1210 537 1
297 538 1
298 538 1
308 538 1
310 538 1
423 538 1
430 538 1
541 538 1
550 538 1
1210 538 1
1211 538 1
298 539 1
299 539 1
309 539 1
311 539 1
424 539 1
431 539 1
542 539 1
551 539 1
1211 539 1
1212 539 1
299 540 1
300 540 1
310 540 1
312 540 1
425 540 1
432 540 1
543 540 1
552 540 1
1201 540 1
1212 540 1
313 541 1
322 541 1
325 541 1
333 541 1
361 541 1
368 541 1
553 541 1
556 541 1
1213 541 1
1214 541 1
314 542 1
323 542 1
326 542 1
334 542 1
362 542 1
369 542 1
554 542 1
557 542 1
1214 542 1
1215 542 1
315 543 1
324 543 1
327 543 1
335 543 1
363 543 1
370 543 1
555 543 1
558 543 1
1215 543 1
1216 543 1
313 544 1
316 544 1
328 544 1
336 544 1
364 544 1
371 544 1
556 544 1
559 544 1
1216 544 1
1217 544 1
314 545 1
317 545 1
325 545 1
329 545 1
365 545 1
372 545 1
557 545 1
560 545 1
1217 545 1
1218 545 1
315 546 1
318 546 1
326 546 1
330 546 1
361 546 1
366 546 1
558 546 1
561 546 1
1218 546 1
1219 546 1
316 547 1
319 547 1
327 547 1
331 547 1
362 547 1
367 547 1
559 547 1
562 547 1
1219 547 1
1220 547 1
317 548 1
320 548 1
328 548 1
332 548 1
363 548 1
368 548 1
560 548 1
563 548 1
1220 548 1
1221 548 1
318 549 1
321 549 1
329 549 1
333 549 1
364 549 1
369 549 1
561 549 1
564 549 1
1221 549 1
1222 549 1
319 550 1
322 550 1
330 550 1
334 550 1
365 550 1
370 550 1
553 550 1
562 550 1
1222 550 1
1223 550 1
320 551 1
323 551 1
331 551 1
335 551 1
366 551 1
371 551 1
554 551 1
563 551 1
1223 551 1
1224 551 1
321 552 1
324 552 1
332 552 1
336 552 1
367 552 1
372 552 1
555 552 1
564 552 1
1213 552 1
1224 552 1
313 553 1
323 553 1
337 553 1
345 553 1
373 553 1
380 553 1
565 553 1
568 553 1
1225 553 1
1226 553 1
314 554 1
324 554 1
338 554 1
346 554 1
374 554 1
381 554 1
566 554 1
569 554 1
1226 554 1
1227 554 1
313 555 1
315 555 1
339 555 1
347 555 1
375 555 1
382 555 1
567 555 1
570 555 1
1227 555 1
1228 555 1
314 556 1
316 556 1
340 556 1
348 556 1
376 556 1
383 556 1
568 556 1
571 556 1
1228 556 1
1229 556 1
315 557 1
317 557 1
337 557 1
341 557 1
377 557 1
384 557 1
569 557 1
572 557 1
1229 557 1
1230 557 1
316 558 1
318 558 1
338 558 1
342 558 1
373 558 1
378 558 1
570 558 1
573 558 1
1230 558 1
1231 558 1
317 559 1
319 559 1
339 559 1
343 559 1
374 559 1
379 559 1
571 559 1
574 559 1
1231 559 1
1232 559 1
318 560 1
320 560 1
340 560 1
344 560 1
375 560 1
380 560 1
572 560 1
575 560 1
1232 560 1
1233 560 1
319 561 1
321 561 1
341 561 1
345 561 1
376 561 1
381 561 1
573 561 1
576 561 1
1233 561 1
1234 561 1
320 562 1
322 562 1
342 562 1
346 562 1
377 562 1
382 562 1
565 562 1
574 562 1
1234 562 1
1235 562 1
321 563 1
323 563 1
343 563 1
347 563 1
378 563 1
383 563 1
566 563 1
575 563 1
1235 563 1
1236 563 1
322 564 1
324 564 1
344 564 1
348 564 1
379 564 1
384 564 1
567 564 1
576 564 1
1225 564 1
1236 564 1
313 565 1
324 565 1
349 565 1
357 565 1
385 565 1
392 565 1
577 565 1
580 565 1
1237 565 1
1238 565 1
313 566 1
314 566 1
350 566 1
358 566 1
386 566 1
393 566 1
578 566 1
581 566 1
1238 566 1
1239 566 1
314 567 1
315 567 1
351 567 1
359 567 1
387 567 1
394 567 1
579 567 1
582 567 1
1239 567 1
1240 567 1
315 568 1
316 568 1
352 568 1
360 568 1
388 568 1
395 568 1
580 568 1
583 568 1
1240 568 1
1241 568 1
316 569 1
317 569 1
349 569 1
353 569 1
389 569 1
396 569 1
581 569 1
584 569 1
1241 569 1
1242 569 1
317 570 1
318 570 1
350 570 1
354 570 1
385 570 1
390 570 1
582 570 1
585 570 1
1242 570 1
1243 570 1
318 571 1
319 571 1
351 571 1
355 571 1
386 571 1
391 571 1
583 571 1
586 571 1
1243 571 1
1244 571 1
319 572 1
320 572 1
352 572 1
356 572 1
387 572 1
392 572 1
584 572 1
587 572 1
1244 572 1
1245 572 1
320 573 1
321 573 1
353 573 1
357 573 1
388 573 1
393 573 1
585 573 1
588 573 1
1245 573 1
1246 573 1
321 574 1
322 574 1
354 574 1
358 574 1
389 574 1
394 574 1
577 574 1
586 574 1
1246 574 1
1247 574 1
322 575 1
323 575 1
355 575 1
359 575 1
390 575 1
395 575 1
578 575 1
587 575 1
1247 575 1
1248 575 1
323 576 1
324 576 1
356 576 1
360 576 1
391 576 1
396 576 1
579 576 1
588 576 1
1237 576 1
1248 576 1
325 577 1
335 577 1
337 577 1
346 577 1
397 577 1
404 577 1
589 577 1
592 577 1
1249 577 1
1250 577 1
326 578 1
336 578 1
338 578 1
347 578 1
398 578 1
405 578 1
590 578 1
593 578 1
1250 578 1
1251 578 1
325 579 1
327 579 1
339 579 1
348 579 1
399 579 1
406 579 1
591 579 1
594 579 1
1251 579 1
1252 579 1
326 580 1
328 580 1
337 580 1
340 580 1
400 580 1
407 580 1
592 580 1
595 580 1
1252 580 1
1253 580 1
327 581 1
329 581 1
338 581 1
341 581 1
401 581 1
408 581 1
593 581 1
596 581 1
1253 581 1
1254 581 1
328 582 1
330 582 1
339 582 1
342 582 1
397 582 1
402 582 1
594 582 1
597 582 1
1254 582 1
1255 582 1
329 583 1
331 583 1
340 583 1
343 583 1
398 583 1
403 583 1
595 583 1
598 583 1
1255 583 1
1256 583 1
330 584 1
332 584 1
341 584 1
344 584 1
399 584 1
404 584 1
596 584 1
599 584 1
1256 584 1
1257 584 1
331 585 1
333 585 1
342 585 1
345 585 1
400 585 1
405 585 1
597 585 1
600 585 1
1257 585 1
1258 585 1
332 586 1
334 586 1
343 586 1
346 586 1
401 586 1
406 586 1
589 586 1
598 586 1
1258 586 1
1259 586 1
333 587 1
335 587 1
344 587 1
347 587 1
402 587 1
407 587 1
590 587 1
599 587 1
1259 587 1
1260 587 1
334 588 1
336 588 1
345 588 1
348 588 1
403 588 1
408 588 1
591 588 1
600 588 1
1249 588 1
1260 588 1
325 589 1
336 589 1
349 589 1
358 589 1
409 589 1
416 589 1
601 589 1
604 589 1
1261 589 1
1262 589 1
325 590 1
326 590 1
350 590 1
359 590 1
410 590 1
417 590 1
602 590 1
605 590 1
1262 590 1
1263 590 1
326 591 1
327 591 1
351 591 1
360 591 1
411 591 1
418 591 1
603 591 1
606 591 1
1263 591 1
1264 591 1
327 592 1
328 592 1
349 592 1
352 592 1
412 592 1
419 592 1
604 592 1
607 592 1
1264 592 1
1265 592 1
328 593 1
329 593 1
350 593 1
353 593 1
413 593 1
420 593 1
605 593 1
608 593 1
1265 593 1
1266 593 1
329 594 1
330 594 1
351 594 1
354 594 1
409 594 1
414 594 1
606 594 1
609 594 1
1266 594 1
1267 594 1
330 595 1
331 595 1
352 595 1
355 595 1
410 595 1
415 595 1
607 595 1
610 595 1
1267 595 1
1268 595 1
331 596 1
332 596 1
353 596 1
356 596 1
411 596 1
416 596 1
608 596 1
611 596 1
1268 596 1
1269 596 1
332 597 1
333 597 1
354 597 1
357 597 1
412 597 1
417 597 1
609 597 1
612 597 1
1269 597 1
1270 597 1
333 598 1
334 598 1
355 598 1
358 598 1
413 598 1
418 598 1
601 598 1
610 598 1
1270 598 1
1271 598 1
334 599 1
335 599 1
356 599 1
359 599 1
414 599 1
419 599 1
602 599 1
611 599 1
1271 599 1
1272 599 1
335 600 1
336 600 1
357 600 1
360 600 1
415 600 1
420 600 1
603 600 1
612 600 1
1261 600 1
1272 600 1
337 601 1
348 601 1
349 601 1
359 601 1
421 601 1
428 601 1
613 601 1
616 601 1
1273 601 1
1274 601 1
337 602 1
338 602 1
350 602 1
360 602 1
422 602 1
429 602 1
614 602 1
617 602 1
1274 602 1
1275 602 1
338 603 1
339 603 1
349 603 1
351 603 1
423 603 1
430 603 1
615 603 1
618 603 1
1275 603 1
1276 603 1
339 604 1
340 604 1
350 604 1
352 604 1
424 604 1
431 604 1
616 604 1
619 604 1
1276 604 1
1277 604 1
340 605 1
341 605 1
351 605 1
353 605 1
425 605 1
432 605 1
617 605 1
620 605 1
1277 605 1
1278 605 1
341 606 1
342 606 1
352 606 1
354 606 1
421 606 1
426 606 1
618 606 1
621 606 1
1278 606 1
1279 606 1
342 607 1
343 607 1
353 607 1
355 607 1
422 607 1
427 607 1
619 607 1
622 607 1
1279 607 1
1280 607 1
343 608 1
344 608 1
354 608 1
356 608 1
423 608 1
428 608 1
620 608 1
623 608 1
1280 608 1
1281 608 1
344 609 1
345 609 1
355 609 1
357 609 1
424 609 1
429 609 1
621 609 1
624 609 1
1281 609 1
1282 609 1
345 610 1
346 610 1
356 610 1
358 610 1
425 610 1
430 610 1
613 610 1
622 610 1
1282 610 1
1283 610 1
346 611 1
347 611 1
357 611 1
359 611 1
426 611 1
431 611 1
614 611 1
623 611 1
1283 611 1
1284 611 1
347 612 1
348 612 1
358 612 1
360 612 1
427 612 1
432 612 1
615 612 1
624 612 1
1273 612 1
1284 612 1
361 613 1
371 613 1
373 613 1
382 613 1
397 613 1
405 613 1
625 613 1
628 613 1
1285 613 1
1286 613 1
362 614 1
372 614 1
374 614 1
383 614 1
398 614 1
406 614 1
626 614 1
629 614 1
1286 614 1
1287 614 1
361 615 1
363 615 1
375 615 1
384 615 1
399 615 1
407 615 1
627 615 1
630 615 1
1287 615 1
1288 615 1
362 616 1
364 616 1
373 616 1
376 616 1
400 616 1
408 616 1
628 616 1
631 616 1
1288 616 1
1289 616 1
363 617 1
365 617 1
374 617 1
377 617 1
397 617 1
401 617 1
629 617 1
632 617 1
1289 617 1
1290 617 1
364 618 1
366 618 1
375 618 1
378 618 1
398 618 1
402 618 1
630 618 1
633 618 1
1290 618 1
1291 618 1
365 619 1
367 619 1
376 619 1
379 619 1
399 619 1
403 619 1
631 619 1
634 619 1
1291 619 1
1292 619 1
366 620 1
368 620 1
377 620 1
380 620 1
400 620 1
404 620 1
632 620 1
635 620 1
1292 620 1
1293 620 1
367 621 1
369 621 1
378 621 1
381 621 1
401 621 1
405 621 1
633 621 1
636 621 1
1293 621 1
1294 621 1
368 622 1
370 622 1
379 622 1
382 622 1
402 622 1
406 622 1
625 622 1
634 622 1
1294 622 1
1295 622 1
369 623 1
371 623 1
380 623 1
383 623 1
403 623 1
407 623 1
626 623 1
635 623 1
1295 623 1
1296 623 1
370 624 1
372 624 1
381 624 1
384 624 1
404 624 1
408 624 1
627 624 1
636 624 1
1285 624 1
1296 624 1
361 625 1
372 625 1
385 625 1
394 625 1
409 625 1
417 625 1
637 625 1
640 625 1
1297 625 1
1298 625 1
361 626 1
362 626 1
386 626 1
395 626 1
410 626 1
418 626 1
638 626 1
641 626 1
1298 626 1
1299 626 1
362 627 1
363 627 1
387 627 1
396 627 1
411 627 1
419 627 1
639 627 1
642 627 1
1299 627 1
1300 627 1
363 628 1
364 628 1
385 628 1
388 628 1
412 628 1
420 628 1
640 628 1
643 628 1
1300 628 1
1301 628 1
364 629 1
365 629 1
386 629 1
389 629 1
409 629 1
413 629 1
641 629 1
644 629 1
1301 629 1
1302 629 1
365 630 1
366 630 1
387 630 1
390 630 1
410 630 1
414 630 1
642 630 1
645 630 1
1302 630 1
1303 630 1
366 631 1
367 631 1
388 631 1
391 631 1
411 631 1
415 631 1
643 631 1
646 631 1
1303 631 1
1304 631 1
367 632 1
368 632 1
389 632 1
392 632 1
412 632 1
416 632 1
644 632 1
647 632 1
1304 632 1
1305 632 1
368 633 1
369 633 1
390 633 1
393 633 1
413 633 1
417 633 1
645 633 1
648 633 1
1305 633 1
1306 633 1
369 634 1
370 634 1
391 634 1
394 634 1
414 634 1
418 634 1
637 634 1
646 634 1
1306 634 1
1307 634 1
370 635 1
371 635 1
392 635 1
395 635 1
415 635 1
419 635 1
638 635 1
647 635 1
1307 635 1
1308 635 1
371 636 1
372 636 1
393 636 1
396 636 1
416 636 1
420 636 1
639 636 1
648 636 1
1297 636 1
1308 636 1
373 637 1
384 637 1
385 637 1
395 637 1
421 637 1
429 637 1
649 637 1
652 637 1
1309 637 1
1310 637 1
373 638 1
374 638 1
386 638 1
396 638 1
422 638 1
430 638 1
650 638 1
653 638 1
1310 638 1
1311 638 1
374 639 1
375 639 1
385 639 1
387 639 1
423 639 1
431 639 1
651 639 1
654 639 1
1311 639 1
1312 639 1
375 640 1
376 640 1
386 640 1
388 640 1
424 640 1
432 640 1
652 640 1
655 640 1
1312 640 1
1313 640 1
376 641 1
377 641 1
387 641 1
389 641 1
421 641 1
425 641 1
653 641 1
656 641 1
1313 641 1
1314 641 1
377 642 1
378 642 1
388 642 1
390 642 1
422 642 1
426 642 1
654 642 1
657 642 1
1314 642 1
1315 642 1
378 643 1
379 643 1
389 643 1
391 643 1
423 643 1
427 643 1
655 643 1
658 643 1
1315 643 1
1316 643 1
379 644 1
380 644 1
390 644 1
392 644 1
424 644 1
428 644 1
656 644 1
659 644 1
1316 644 1
1317 644 1
380 645 1
381 645 1
391 645 1
393 645 1
425 645 1
429 645 1
657 645 1
660 645 1
1317 645 1
1318 645 1
381 646 1
382 646 1
392 646 1
394 646 1
426 646 1
430 646 1
649 646 1
658 646 1
1318 646 1
1319 646 1
382 647 1
383 647 1
393 647 1
395 647 1
427 647 1
431 647 1
650 647 1
659 647 1
1319 647 1
1320 647 1
383 648 1
384 648 1
394 648 1
396 648 1
428 648 1
432 648 1
651 648 1
660 648 1
1309 648 1
1320 648 1
397 649 1
408 649 1
409 649 1
419 649 1
421 649 1
430 649 1
661 649 1
664 649 1
1321 649 1
1322 649 1
397 650 1
398 650 1
410 650 1
420 650 1
422 650 1
431 650 1
662 650 1
665 650 1
1322 650 1
1323 650 1
398 651 1
399 651 1
409 651 1
411 651 1
423 651 1
432 651 1
663 651 1
666 651 1
1323 651 1
1324 651 1
399 652 1
400 652 1
410 652 1
412 652 1
421 652 1
424 652 1
664 652 1
667 652 1
1324 652 1
1325 652 1
400 653 1
401 653 1
411 653 1
413 653 1
422 653 1
425 653 1
665 653 1
668 653 1
1325 653 1
1326 653 1
401 654 1
402 654 1
412 654 1
414 654 1
423 654 1
426 654 1
666 654 1
669 654 1
1326 654 1
1327 654 1
402 655 1
403 655 1
413 655 1
415 655 1
424 655 1
427 655 1
667 655 1
670 655 1
1327 655 1
1328 655 1
403 656 1
404 656 1
414 656 1
416 656 1
425 656 1
428 656 1
668 656 1
671 656 1
1328 656 1
1329 656 1
404 657 1
405 657 1
415 657 1
417 657 1
426 657 1
429 657 1
669 657 1
672 657 1
1329 657 1
1330 657 1
405 658 1
406 658 1
416 658 1
418 658 1
427 658 1
430 658 1
661 658 1
670 658 1
1330 658 1
1331 658 1
406 659 1
407 659 1
417 659 1
419 659 1
428 659 1
431 659 1
662 659 1
671 659 1
1331 659 1
1332 659 1
407 660 1
408 660 1
418 660 1
420 660 1
429 660 1
432 660 1
663 660 1
672 660 1
1321 660 1
1332 660 1
433 661 1
442 661 1
445 661 1
453 661 1
481 661 1
488 661 1
553 661 1
558 661 1
1333 661 1
1334 661 1
434 662 1
443 662 1
446 662 1
454 662 1
482 662 1
489 662 1
554 662 1
559 662 1
1334 662 1
1335 662 1
435 663 1
444 663 1
447 663 1
455 663 1
483 663 1
490 663 1
555 663 1
560 663 1
1335 663 1
1336 663 1
433 664 1
436 664 1
448 664 1
456 664 1
484 664 1
491 664 1
556 664 1
561 664 1
1336 664 1
1337 664 1
434 665 1
437 665 1
445 665 1
449 665 1
485 665 1
492 665 1
557 665 1
562 665 1
1337 665 1
1338 665 1
435 666 1
438 666 1
446 666 1
450 666 1
481 666 1
486 666 1
558 666 1
563 666 1
1338 666 1
1339 666 1
436 667 1
439 667 1
447 667 1
451 667 1
482 667 1
487 667 1
559 667 1
564 667 1
1339 667 1
1340 667 1
437 668 1
440 668 1
448 668 1
452 668 1
483 668 1
488 668 1
553 668 1
560 668 1
1340 668 1
1341 668 1
438 669 1
441 669 1
449 669 1
453 669 1
484 669 1
489 669 1
554 669 1
561 669 1
1341 669 1
1342 669 1
439 670 1
442 670 1
450 670 1
454 670 1
485 670 1
490 670 1
555 670 1
562 670 1
1342 670 1
1343 670 1
440 671 1
443 671 1
451 671 1
455 671 1
486 671 1
491 671 1
556 671 1
563 671 1
1343 671 1
1344 671 1
441 672 1
444 672 1
452 672 1
456 672 1
487 672 1
492 672 1
557 672 1
564 672 1
1333 672 1
1344 672 1
433 673 1
443 673 1
457 673 1
465 673 1
493 673 1
500 673 1
565 673 1
570 673 1
1345 673 1
1346 673 1
434 674 1
444 674 1
458 674 1
466 674 1
494 674 1
501 674 1
566 674 1
571 674 1
1346 674 1
1347 674 1
433 675 1
435 675 1
459 675 1
467 675 1
495 675 1
502 675 1
567 675 1
572 675 1
1347 675 1
1348 675 1
434 676 1
436 676 1
460 676 1
468 676 1
496 676 1
503 676 1
568 676 1
573 676 1
1348 676 1
1349 676 1
435 677 1
437 677 1
457 677 1
461 677 1
497 677 1
504 677 1
569 677 1
574 677 1
1349 677 1
1350 677 1
436 678 1
438 678 1
458 678 1
462 678 1
493 678 1
498 678 1
570 678 1
575 678 1
1350 678 1
1351 678 1
437 679 1
439 679 1
459 679 1
463 679 1
494 679 1
499 679 1
571 679 1
576 679 1
1351 679 1
1352 679 1
438 680 1
440 680 1
460 680 1
464 680 1
495 680 1
500 680 1
565 680 1
572 680 1
1352 680 1
1353 680 1
439 681 1
441 681 1
461 681 1
465 681 1
496 681 1
501 681 1
566 681 1
573 681 1
1353 681 1
1354 681 1
440 682 1
442 682 1
462 682 1
466 682 1
497 682 1
502 682 1
567 682 1
574 682 1
1354 682 1
1355 682 1
441 683 1
443 683 1
463 683 1
467 683 1
498 683 1
503 683 1
568 683 1
575 683 1
1355 683 1
1356 683 1
442 684 1
444 684 1
464 684 1
468 684 1
499 684 1
504 684 1
569 684 1
576 684 1
1345 684 1
1356 684 1
433 685 1
444 685 1
469 685 1
477 685 1
505 685 1
512 685 1
577 685 1
582 685 1
1357 685 1
1358 685 1
433 686 1
434 686 1
470 686 1
478 686 1
506 686 1
513 686 1
578 686 1
583 686 1
1358 686 1
1359 686 1
434 687 1
435 687 1
471 687 1
479 687 1
507 687 1
514 687 1
579 687 1
584 687 1
1359 687 1
1360 687 1
435 688 1
436 688 1
472 688 1
480 688 1
508 688 1
515 688 1
580 688 1
585 688 1
1360 688 1
1361 688 1
436 689 1
437 689 1
469 689 1
473 689 1
509 689 1
516 689 1
581 689 1
586 689 1
1361 689 1
1362 689 1
437 690 1
438 690 1
470 690 1
474 690 1
505 690 1
510 690 1
582 690 1
587 690 1
1362 690 1
1363 690 1
438 691 1
439 691 1
471 691 1
475 691 1
506 691 1
511 691 1
583 691 1
588 691 1
1363 691 1
1364 691 1
439 692 1
440 692 1
472 692 1
476 692 1
507 692 1
512 692 1
577 692 1
584 692 1
1364 692 1
1365 692 1
440 693 1
441 693 1
473 693 1
477 693 1
508 693 1
513 693 1
578 693 1
585 693 1
1365 693 1
1366 693 1
441 694 1
442 694 1
474 694 1
478 694 1
509 694 1
514 694 1
579 694 1
586 694 1
1366 694 1
1367 694 1
442 695 1
443 695 1
475 695 1
479 695 1
510 695 1
515 695 1
580 695 1
587 695 1
1367 695 1
1368 695 1
443 696 1
444 696 1
476 696 1
480 696 1
511 696 1
516 696 1
581 696 1
588 696 1
1357 696 1
1368 696 1
445 697 1
455 697 1
457 697 1
466 697 1
517 697 1
524 697 1
589 697 1
594 697 1
1369 697 1
1370 697 1
446 698 1
456 698 1
458 698 1
467 698 1
518 698 1
525 698 1
590 698 1
595 698 1
1370 698 1
1371 698 1
445 699 1
447 699 1
459 699 1
468 699 1
519 699 1
526 699 1
591 699 1
596 699 1
1371 699 1
1372 699 1
446 700 1
448 700 1
457 700 1
460 700 1
520 700 1
527 700 1
592 700 1
597 700 1
1372 700 1
1373 700 1
447 701 1
449 701 1
458 701 1
461 701 1
521 701 1
528 701 1
593 701 1
598 701 1
1373 701 1
1374 701 1
448 702 1
450 702 1
459 702 1
462 702 1
517 702 1
522 702 1
594 702 1
599 702 1
1374 702 1
1375 702 1
449 703 1
451 703 1
460 703 1
463 703 1
518 703 1
523 703 1
595 703 1
600 703 1
1375 703 1
1376 703 1
450 704 1
452 704 1
461 704 1
464 704 1
519 704 1
524 704 1
589 704 1
596 704 1
1376 704 1
1377 704 1
451 705 1
453 705 1
462 705 1
465 705 1
520 705 1
525 705 1
590 705 1
597 705 1
1377 705 1
1378 705 1
452 706 1
454 706 1
463 706 1
466 706 1
521 706 1
526 706 1
591 706 1
598 706 1
1378 706 1
1379 706 1
453 707 1
455 707 1
464 707 1
467 707 1
522 707 1
527 707 1
592 707 1
599 707 1
1379 707 1
1380 707 1
454 708 1
456 708 1
465 708 1
468 708 1
523 708 1
528 708 1
593 708 1
600 708 1
1369 708 1
1380 708 1
445 709 1
456 709 1
469 709 1
478 709 1
529 709 1
536 709 1
601 709 1
606 709 1
1381 709 1
1382 709 1
445 710 1
446 710 1
470 710 1
479 710 1
530 710 1
537 710 1
602 710 1
607 710 1
1382 710 1
1383 710 1
446 711 1
447 711 1
471 711 1
480 711 1
531 711 1
538 711 1
603 711 1
608 711 1
1383 711 1
1384 711 1
447 712 1
448 712 1
469 712 1
472 712 1
532 712 1
539 712 1
604 712 1
609 712 1
1384 712 1
1385 712 1
448 713 1
449 713 1
470 713 1
473 713 1
533 713 1
540 713 1
605 713 1
610 713 1
1385 713 1
1386 713 1
449 714 1
450 714 1
471 714 1
474 714 1
529 714 1
534 714 1
606 714 1
611 714 1
1386 714 1
1387 714 1
450 715 1
451 715 1
472 715 1
475 715 1
530 715 1
535 715 1
607 715 1
612 715 1
1387 715 1
1388 715 1
451 716 1
452 716 1
473 716 1
476 716 1
531 716 1
536 716 1
601 716 1
608 716 1
1388 716 1
1389 716 1
452 717 1
453 717 1
474 717 1
477 717 1
532 717 1
537 717 1
602 717 1
609 717 1
1389 717 1
1390 717 1
453 718 1
454 718 1
475 718 1
478 718 1
533 718 1
538 718 1
603 718 1
610 718 1
1390 718 1
1391 718 1
454 719 1
455 719 1
476 719 1
479 719 1
534 719 1
539 719 1
604 719 1
611 719 1
1391 719 1
1392 719 1
455 720 1
456 720 1
477 720 1
480 720 1
535 720 1
540 720 1
605 720 1
612 720 1
1381 720 1
1392 720 1
457 721 1
468 721 1
469 721 1
479 721 1
541 721 1
548 721 1
613 721 1
618 721 1
1393 721 1
1394 721 1
457 722 1
458 722 1
470 722 1
480 722 1
542 722 1
549 722 1
614 722 1
619 722 1
1394 722 1
1395 722 1
458 723 1
459 723 1
469 723 1
471 723 1
543 723 1
550 723 1
615 723 1
620 723 1
1395 723 1
1396 723 1
459 724 1
460 724 1
470 724 1
472 724 1
544 724 1
551 724 1
616 724 1
621 724 1
1396 724 1
1397 724 1
460 725 1
461 725 1
471 725 1
473 725 1
545 725 1
552 725 1
617 725 1
622 725 1
1397 725 1
1398 725 1
461 726 1
462 726 1
472 726 1
474 726 1
541 726 1
546 726 1
618 726 1
623 726 1
1398 726 1
1399 726 1
462 727 1
463 727 1
473 727 1
475 727 1
542 727 1
547 727 1
619 727 1
624 727 1
1399 727 1
1400 727 1
463 728 1
464 728 1
474 728 1
476 728 1
543 728 1
548 728 1
613 728 1
620 728 1
1400 728 1
1401 728 1
464 729 1
465 729 1
475 729 1
477 729 1
544 729 1
549 729 1
614 729 1
621 729 1
1401 729 1
1402 729 1
465 730 1
466 730 1
476 730 1
478 730 1
545 730 1
550 730 1
615 730 1
622 730 1
1402 730 1
1403 730 1
466 731 1
467 731 1
477 731 1
479 731 1
546 731 1
551 731 1
616 731 1
623 731 1
1403 731 1
1404 731 1
467 732 1
468 732 1
478 732 1
480 732 1
547 732 1
552 732 1
617 732 1
624 732 1
1393 732 1
1404 732 1
481 733 1
491 733 1
493 733 1
502 733 1
517 733 1
525 733 1
625 733 1
630 733 1
1405 733 1
1406 733 1
482 734 1
492 734 1
494 734 1
503 734 1
518 734 1
526 734 1
626 734 1
631 734 1
1406 734 1
1407 734 1
481 735 1
483 735 1
495 735 1
504 735 1
519 735 1
527 735 1
627 735 1
632 735 1
1407 735 1
1408 735 1
482 736 1
484 736 1
493 736 1
496 736 1
520 736 1
528 736 1
628 736 1
633 736 1
1408 736 1
1409 736 1
483 737 1
485 737 1
494 737 1
497 737 1
517 737 1
521 737 1
629 737 1
634 737 1
1409 737 1
1410 737 1
484 738 1
486 738 1
495 738 1
498 738 1
518 738 1
522 738 1
630 738 1
635 738 1
1410 738 1
1411 738 1
485 739 1
487 739 1
496 739 1
499 739 1
519 739 1
523 739 1
631 739 1
636 739 1
1411 739 1
1412 739 1
486 740 1
488 740 1
497 740 1
500 740 1
520 740 1
524 740 1
625 740 1
632 740 1
1412 740 1
1413 740 1
487 741 1
489 741 1
498 741 1
501 741 1
521 741 1
525 741 1
626 741 1
633 741 1
1413 741 1
1414 741 1
488 742 1
490 742 1
499 742 1
502 742 1
522 742 1
526 742 1
627 742 1
634 742 1
1414 742 1
1415 742 1
489 743 1
491 743 1
500 743 1
503 743 1
523 743 1
527 743 1
628 743 1
635 743 1
1415 743 1
1416 743 1
490 744 1
492 744 1
501 744 1
504 744 1
524 744 1
528 744 1
629 744 1
636 744 1
1405 744 1
1416 744 1
481 745 1
492 745 1
505 745 1
514 745 1
529 745 1
537 745 1
637 745 1
642 745 1
1417 745 1
1418 745 1
481 746 1
482 746 1
506 746 1
515 746 1
530 746 1
538 746 1
638 746 1
643 746 1
1418 746 1
1419 746 1
482 747 1
483 747 1
507 747 1
516 747 1
531 747 1
539 747 1
639 747 1
644 747 1
1419 747 1
1420 747 1
483 748 1
484 748 1
505 748 1
508 748 1
532 748 1
540 748 1
640 748 1
645 748 1
1420 748 1
1421 748 1
484 749 1
485 749 1
506 749 1
509 749 1
529 749 1
533 749 1
641 749 1
646 749 1
1421 749 1
1422 749 1
485 750 1
486 750 1
507 750 1
510 750 1
530 750 1
534 750 1
642 750 1
647 750 1
1422 750 1
1423 750 1
486 751 1
487 751 1
508 751 1
511 751 1
531 751 1
535 751 1
643 751 1
648 751 1
1423 751 1
1424 751 1
487 752 1
488 752 1
509 752 1
512 752 1
532 752 1
536 752 1
637 752 1
644 752 1
1424 752 1
1425 752 1
488 753 1
489 753 1
510 753 1
513 753 1
533 753 1
537 753 1
638 753 1
645 753 1
1425 753 1
1426 753 1
489 754 1
490 754 1
511 754 1
514 754 1
534 754 1
538 754 1
639 754 1
646 754 1
1426 754 1
1427 754 1
490 755 1
491 755 1
512 755 1
515 755 1
535 755 1
539 755 1
640 755 1
647 755 1
1427 755 1
1428 755 1
491 756 1
492 756 1
513 756 1
516 756 1
536 756 1
540 756 1
641 756 1
648 756 1
1417 756 1
1428 756 1
493 757 1
504 757 1
505 757 1
515 757 1
541 757 1
549 757 1
649 757 1
654 757 1
1429 757 1
1430 757 1
493 758 1
494 758 1
506 758 1
516 758 1
542 758 1
550 758 1
650 758 1
655 758 1
1430 758 1
1431 758 1
494 759 1
495 759 1
505 759 1
507 759 1
543 759 1
551 759 1
651 759 1
656 759 1
1431 759 1
1432 759 1
495 760 1
496 760 1
506 760 1
508 760 1
544 760 1
552 760 1
652 760 1
657 760 1
1432 760 1
1433 760 1
496 761 1
497 761 1
507 761 1
509 761 1
541 761 1
545 761 1
653 761 1
658 761 1
1433 761 1
1434 761 1
497 762 1
498 762 1
508 762 1
510 762 1
542 762 1
546 762 1
654 762 1
659 762 1
1434 762 1
1435 762 1
498 763 1
499 763 1
509 763 1
511 763 1
543 763 1
547 763 1
655 763 1
660 763 1
1435 763 1
1436 763 1
499 764 1
500 764 1
510 764 1
512 764 1
544 764 1
548 764 1
649 764 1
656 764 1
1436 764 1
1437 764 1
500 765 1
501 765 1
511 765 1
513 765 1
545 765 1
549 765 1
650 765 1
657 765 1
1437 765 1
1438 765 1
501 766 1
502 766 1
512 766 1
514 766 1
546 766 1
550 766 1
651 766 1
658 766 1
1438 766 1
1439 766 1
502 767 1
503 767 1
513 767 1
515 767 1
547 767 1
551 767 1
652 767 1
659 767 1
1439 767 1
1440 767 1
503 768 1
504 768 1
514 768 1
516 768 1
548 768 1
552 768 1
653 768 1
660 768 1
1429 768 1
1440 768 1
517 769 1
528 769 1
529 769 1
539 769 1
541 769 1
550 769 1
661 769 1
666 769 1
1441 769 1
1442 769 1
517 770 1
518 770 1
530 770 1
540 770 1
542 770 1
551 770 1
662 770 1
667 770 1
1442 770 1
1443 770 1
518 771 1
519 771 1
529 771 1
531 771 1
543 771 1
552 771 1
663 771 1
668 771 1
1443 771 1
1444 771 1
519 772 1
520 772 1
530 772 1
532 772 1
541 772 1
544 772 1
664 772 1
669 772 1
1444 772 1
1445 772 1
520 773 1
521 773 1
531 773 1
533 773 1
542 773 1
545 773 1
665 773 1
670 773 1
1445 773 1
1446 773 1
521 774 1
522 774 1
532 774 1
534 774 1
543 774 1
546 774 1
666 774 1
671 774 1
1446 774 1
1447 774 1
522 775 1
523 775 1
533 775 1
535 775 1
544 775 1
547 775 1
667 775 1
672 775 1
1447 775 1
1448 775 1
523 776 1
524 776 1
534 776 1
536 776 1
545 776 1
548 776 1
661 776 1
668 776 1
1448 776 1
1449 776 1
524 777 1
525 777 1
535 777 1
537 777 1
546 777 1
549 777 1
662 777 1
669 777 1
1449 777 1
1450 777 1
525 778 1
526 778 1
536 778 1
538 778 1
547 778 1
550 778 1
663 778 1
670 778 1
1450 778 1
1451 778 1
526 779 1
527 779 1
537 779 1
539 779 1
548 779 1
551 779 1
664 779 1
671 779 1
1451 779 1
1452 779 1
527 780 1
528 780 1
538 780 1
540 780 1
549 780 1
552 780 1
665 780 1
672 780 1
1441 780 1
1452 780 1
553 781 1
563 781 1
565 781 1
574 781 1
589 781 1
597 781 1
625 781 1
632 781 1
1453 781 1
1454 781 1
554 782 1
564 782 1
566 782 1
575 782 1
590 782 1
598 782 1
626 782 1
633 782 1
1454 782 1
1455 782 1
553 783 1
555 783 1
567 783 1
576 783 1
591 783 1
599 783 1
627 783 1
634 783 1
1455 783 1
1456 783 1
554 784 1
556 784 1
565 784 1
568 784 1
592 784 1
600 784 1
628 784 1
635 784 1
1456 784 1
1457 784 1
555 785 1
557 785 1
566 785 1
569 785 1
589 785 1
593 785 1
629 785 1
636 785 1
1457 785 1
1458 785 1
556 786 1
558 786 1
567 786 1
570 786 1
590 786 1
594 786 1
625 786 1
630 786 1
1458 786 1
1459 786 1
557 787 1
559 787 1
568 787 1
571 787 1
591 787 1
595 787 1
626 787 1
631 787 1
1459 787 1
1460 787 1
558 788 1
560 788 1
569 788 1
572 788 1
592 788 1
596 788 1
627 788 1
632 788 1
1460 788 1
1461 788 1
559 789 1
561 789 1
570 789 1
573 789 1
593 789 1
597 789 1
628 789 1
633 789 1
1461 789 1
1462 789 1
560 790 1
562 790 1
571 790 1
574 790 1
594 790 1
598 790 1
629 790 1
634 790 1
1462 790 1
1463 790 1
561 791 1
563 791 1
572 791 1
575 791 1
595 791 1
599 791 1
630 791 1
635 791 1
1463 791 1
1464 791 1
562 792 1
564 792 1
573 792 1
576 792 1
596 792 1
600 792 1
631 792 1
636 792 1
1453 792 1
1464 792 1
553 793 1
564 793 1
577 793 1
586 793 1
601 793 1
609 793 1
637 793 1
644 793 1
1465 793 1
1466 793 1
553 794 1
554 794 1
578 794 1
587 794 1
602 794 1
610 794 1
638 794 1
645 794 1
1466 794 1
1467 794 1
554 795 1
555 795 1
579 795 1
588 795 1
603 795 1
611 795 1
639 795 1
646 795 1
1467 795 1
1468 795 1
555 796 1
556 796 1
577 796 1
580 796 1
604 796 1
612 796 1
640 796 1
647 796 1
1468 796 1
1469 796 1
556 797 1
557 797 1
578 797 1
581 797 1
601 797 1
605 797 1
641 797 1
648 797 1
1469 797 1
1470 797 1
557 798 1
558 798 1
579 798 1
582 798 1
602 798 1
606 798 1
637 798 1
642 798 1
1470 798 1
1471 798 1
558 799 1
559 799 1
580 799 1
583 799 1
603 799 1
607 799 1
638 799 1
643 799 1
1471 799 1
1472 799 1
559 800 1
560 800 1
581 800 1
584 800 1
604 800 1
608 800 1
639 800 1
644 800 1
1472 800 1
1473 800 1
560 801 1
561 801 1
582 801 1
585 801 1
605 801 1
609 801 1
640 801 1
645 801 1
1473 801 1
1474 801 1
561 802 1
562 802 1
583 802 1
586 802 1
606 802 1
610 802 1
641 802 1
646 802 1
1474 802 1
1475 802 1
562 803 1
563 803 1
584 803 1
587 803 1
607 803 1
611 803 1
642 803 1
647 803 1
1475 803 1
1476 803 1
563 804 1
564 804 1
585 804 1
588 804 1
608 804 1
612 804 1
643 804 1
648 804 1
1465 804 1
1476 804 1
565 805 1
576 805 1
577 805 1
587 805 1
613 805 1
621 805 1
649 805 1
656 805 1
1477 805 1
1478 805 1
565 806 1
566 806 1
578 806 1
588 806 1
614 806 1
622 806 1
650 806 1
657 806 1
1478 806 1
1479 806 1
566 807 1
567 807 1
577 807 1
579 807 1
615 807 1
623 807 1
651 807 1
658 807 1
1479 807 1
1480 807 1
567 808 1
568 808 1
578 808 1
580 808 1
616 808 1
624 808 1
652 808 1
659 808 1
1480 808 1
1481 808 1
568 809 1
569 809 1
579 809 1
581 809 1
613 809 1
617 809 1
653 809 1
660 809 1
1481 809 1
1482 809 1
569 810 1
570 810 1
580 810 1
582 810 1
614 810 1
618 810 1
649 810 1
654 810 1
1482 810 1
1483 810 1
570 811 1
571 811 1
581 811 1
583 811 1
615 811 1
619 811 1
650 811 1
655 811 1
1483 811 1
1484 811 1
571 812 1
572 812 1
582 812 1
584 812 1
616 812 1
620 812 1
651 812 1
656 812 1
1484 812 1
1485 812 1
572 813 1
573 813 1
583 813 1
585 813 1
617 813 1
621 813 1
652 813 1
657 813 1
1485 813 1
1486 813 1
573 814 1
574 814 1
584 814 1
586 814 1
618 814 1
622 814 1
653 814 1
658 814 1
1486 814 1
1487 814 1
574 815 1
575 815 1
585 815 1
587 815 1
619 815 1
623 815 1
654 815 1
659 815 1
1487 815 1
1488 815 1
575 816 1
576 816 1
586 816 1
588 816 1
620 816 1
624 816 1
655 816 1
660 816 1
1477 816 1
1488 816 1
589 817 1
600 817 1
601 817 1
611 817 1
613 817 1
622 817 1
661 817 1
668 817 1
1489 817 1
1490 817 1
589 818 1
590 818 1
602 818 1
612 818 1
614 818 1
623 818 1
662 818 1
669 818 1
1490 818 1
1491 818 1
590 819 1
591 819 1
601 819 1
603 819 1
615 819 1
624 819 1
663 819 1
670 819 1
1491 819 1
1492 819 1
591 820 1
592 820 1
602 820 1
604 820 1
613 820 1
616 820 1
664 820 1
671 820 1
1492 820 1
1493 820 1
592 821 1
593 821 1
603 821 1
605 821 1
614 821 1
617 821 1
665 821 1
672 821 1
1493 821 1
1494 821 1
593 822 1
594 822 1
604 822 1
606 822 1
615 822 1
618 822 1
661 822 1
666 822 1
1494 822 1
1495 822 1
594 823 1
595 823 1
605 823 1
607 823 1
616 823 1
619 823 1
662 823 1
667 823 1
1495 823 1
1496 823 1
595 824 1
596 824 1
606 824 1
608 824 1
617 824 1
620 824 1
663 824 1
668 824 1
1496 824 1
1497 824 1
596 825 1
597 825 1
607 825 1
609 825 1
618 825 1
621 825 1
664 825 1
669 825 1
1497 825 1
1498 825 1
597 826 1
598 826 1
608 826 1
610 826 1
619 826 1
622 826 1
665 826 1
670 826 1
1498 826 1
1499 826 1
598 827 1
599 827 1
609 827 1
611 827 1
620 827 1
623 827 1
666 827 1
671 827 1
1499 827 1
1500 827 1
599 828 1
600 828 1
610 828 1
612 828 1
621 828 1
624 828 1
667 828 1
672 828 1
1489 828 1
1500 828 1
625 829 1
636 829 1
637 829 1
647 829 1
649 829 1
658 829 1
661 829 1
669 829 1
1501 829 1
1502 829 1
625 830 1
626 830 1
638 830 1
648 830 1
650 830 1
659 830 1
662 830 1
670 830 1
1502 830 1
1503 830 1
626 831 1
627 831 1
637 831 1
639 831 1
651 831 1
660 831 1
663 831 1
671 831 1
1503 831 1
1504 831 1
627 832 1
628 832 1
638 832 1
640 832 1
649 832 1
652 832 1
664 832 1
672 832 1
1504 832 1
1505 832 1
628 833 1
629 833 1
639 833 1
641 833 1
650 833 1
653 833 1
661 833 1
665 833 1
1505 833 1
1506 833 1
629 834 1
630 834 1
640 834 1
642 834 1
651 834 1
654 834 1
662 834 1
666 834 1
1506 834 1
1507 834 1
630 835 1
631 835 1
641 835 1
643 835 1
652 835 1
655 835 1
663 835 1
667 835 1
1507 835 1
1508 835 1
631 836 1
632 836 1
642 836 1
644 836 1
653 836 1
656 836 1
664 836 1
668 836 1
1508 836 1
1509 836 1
632 837 1
633 837 1
643 837 1
645 837 1
654 837 1
657 837 1
665 837 1
669 837 1
1509 837 1
1510 837 1
633 838 1
634 838 1
644 838 1
646 838 1
655 838 1
658 838 1
666 838 1
670 838 1
1510 838 1
1511 838 1
634 839 1
635 839 1
645 839 1
647 839 1
656 839 1
659 839 1
667 839 1
671 839 1
1511 839 1
1512 839 1
635 840 1
636 840 1
646 840 1
648 840 1
657 840 1
660 840 1
668 840 1
672 840 1
1501 840 1
1512 840 1
673 841 1
681 841 1
685 841 1
692 841 1
733 841 1
738 841 1
853 841 1
856 841 1
1093 841 1
1095 841 1
674 842 1
682 842 1
686 842 1
693 842 1
734 842 1
739 842 1
854 842 1
857 842 1
1094 842 1
1096 842 1
675 843 1
683 843 1
687 843 1
694 843 1
735 843 1
740 843 1
855 843 1
858 843 1
1095 843 1
1097 843 1
676 844 1
684 844 1
688 844 1
695 844 1
736 844 1
741 844 1
856 844 1
859 844 1
1096 844 1
1098 844 1
673 845 1
677 845 1
689 845 1
696 845 1
737 845 1
742 845 1
857 845 1
860 845 1
1097 845 1
1099 845 1
674 846 1
678 846 1
685 846 1
690 846 1
738 846 1
743 846 1
858 846 1
861 846 1
1098 846 1
1100 846 1
675 847 1
679 847 1
686 847 1
691 847 1
739 847 1
744 847 1
859 847 1
862 847 1
1099 847 1
1101 847 1
676 848 1
680 848 1
687 848 1
692 848 1
733 848 1
740 848 1
860 848 1
863 848 1
1100 848 1
1102 848 1
677 849 1
681 849 1
688 849 1
693 849 1
734 849 1
741 849 1
861 849 1
864 849 1
1101 849 1
1103 849 1
678 850 1
682 850 1
689 850 1
694 850 1
735 850 1
742 850 1
853 850 1
862 850 1
1102 850 1
1104 850 1
679 851 1
683 851 1
690 851 1
695 851 1
736 851 1
743 851 1
854 851 1
863 851 1
1093 851 1
1103 851 1
680 852 1
684 852 1
691 852 1
696 852 1
737 852 1
744 852 1
855 852 1
864 852 1
1094 852 1
1104 852 1
673 853 1
682 853 1
697 853 1
704 853 1
745 853 1
750 853 1
865 853 1
868 853 1
1105 853 1
1107 853 1
674 854 1
683 854 1
698 854 1
705 854 1
746 854 1
751 854 1
866 854 1
869 854 1
1106 854 1
1108 854 1
675 855 1
684 855 1
699 855 1
706 855 1
747 855 1
752 855 1
867 855 1
870 855 1
1107 855 1
1109 855 1
673 856 1
676 856 1
700 856 1
707 856 1
748 856 1
753 856 1
868 856 1
871 856 1
1108 856 1
1110 856 1
674 857 1
677 857 1
701 857 1
708 857 1
749 857 1
754 857 1
869 857 1
872 857 1
1109 857 1
1111 857 1
675 858 1
678 858 1
697 858 1
702 858 1
750 858 1
755 858 1
870 858 1
873 858 1
1110 858 1
1112 858 1
676 859 1
679 859 1
698 859 1
703 859 1
751 859 1
756 859 1
871 859 1
874 859 1
1111 859 1
1113 859 1
677 860 1
680 860 1
699 860 1
704 860 1
745 860 1
752 860 1
872 860 1
875 860 1
1112 860 1
1114 860 1
678 861 1
681 861 1
700 861 1
705 861 1
746 861 1
753 861 1
873 861 1
876 861 1
1113 861 1
1115 861 1
679 862 1
682 862 1
701 862 1
706 862 1
747 862 1
754 862 1
865 862 1
874 862 1
1114 862 1
1116 862 1
680 863 1
683 863 1
702 863 1
707 863 1
748 863 1
755 863 1
866 863 1
875 863 1
1105 863 1
1115 863 1
681 864 1
684 864 1
703 864 1
708 864 1
749 864 1
756 864 1
867 864 1
876 864 1
1106 864 1
1116 864 1
673 865 1
683 865 1
709 865 1
716 865 1
757 865 1
762 865 1
877 865 1
880 865 1
1117 865 1
1119 865 1
674 866 1
684 866 1
710 866 1
717 866 1
758 866 1
763 866 1
878 866 1
881 866 1
1118 866 1
1120 866 1
673 867 1
675 867 1
711 867 1
718 867 1
759 867 1
764 867 1
879 867 1
882 867 1
1119 867 1
1121 867 1
674 868 1
676 868 1
712 868 1
719 868 1
760 868 1
765 868 1
880 868 1
883 868 1
1120 868 1
1122 868 1
675 869 1
677 869 1
713 869 1
720 869 1
761 869 1
766 869 1
881 869 1
884 869 1
1121 869 1
1123 869 1
676 870 1
678 870 1
709 870 1
714 870 1
762 870 1
767 870 1
882 870 1
885 870 1
1122 870 1
1124 870 1
677 871 1
679 871 1
710 871 1
715 871 1
763 871 1
768 871 1
883 871 1
886 871 1
1123 871 1
1125 871 1
678 872 1
680 872 1
711 872 1
716 872 1
757 872 1
764 872 1
884 872 1
887 872 1
1124 872 1
1126 872 1
679 873 1
681 873 1
712 873 1
717 873 1
758 873 1
765 873 1
885 873 1
888 873 1
1125 873 1
1127 873 1
680 874 1
682 874 1
713 874 1
718 874 1
759 874 1
766 874 1
877 874 1
886 874 1
1126 874 1
1128 874 1
681 875 1
683 875 1
714 875 1
719 875 1
760 875 1
767 875 1
878 875 1
887 875 1
1117 875 1
1127 875 1
682 876 1
684 876 1
715 876 1
720 876 1
761 876 1
768 876 1
879 876 1
888 876 1
1118 876 1
1128 876 1
673 877 1
684 877 1
721 877 1
728 877 1
769 877 1
774 877 1
889 877 1
892 877 1
1129 877 1
1131 877 1
673 878 1
674 878 1
722 878 1
729 878 1
770 878 1
775 878 1
890 878 1
893 878 1
1130 878 1
1132 878 1
674 879 1
675 879 1
723 879 1
730 879 1
771 879 1
776 879 1
891 879 1
894 879 1
1131 879 1
1133 879 1
675 880 1
676 880 1
724 880 1
731 880 1
772 880 1
777 880 1
892 880 1
895 880 1
1132 880 1
1134 880 1
676 881 1
677 881 1
725 881 1
732 881 1
773 881 1
778 881 1
893 881 1
896 881 1
1133 881 1
1135 881 1
677 882 1
678 882 1
721 882 1
726 882 1
774 882 1
779 882 1
894 882 1
897 882 1
1134 882 1
1136 882 1
678 883 1
679 883 1
722 883 1
727 883 1
775 883 1
780 883 1
895 883 1
898 883 1
1135 883 1
1137 883 1
679 884 1
680 884 1
723 884 1
728 884 1
769 884 1
776 884 1
896 884 1
899 884 1
1136 884 1
1138 884 1
680 885 1
681 885 1
724 885 1
729 885 1
770 885 1
777 885 1
897 885 1
900 885 1
1137 885 1
1139 885 1
681 886 1
682 886 1
725 886 1
730 886 1
771 886 1
778 886 1
889 886 1
898 886 1
1138 886 1
1140 886 1
682 887 1
683 887 1
726 887 1
731 887 1
772 887 1
779 887 1
890 887 1
899 887 1
1129 887 1
1139 887 1
683 888 1
684 888 1
727 888 1
732 888 1
773 888 1
780 888 1
891 888 1
900 888 1
1130 888 1
1140 888 1
685 889 1
694 889 1
697 889 1
705 889 1
781 889 1
786 889 1
901 889 1
904 889 1
1141 889 1
1143 889 1
686 890 1
695 890 1
698 890 1
706 890 1
782 890 1
787 890 1
902 890 1
905 890 1
1142 890 1
1144 890 1
687 891 1
696 891 1
699 891 1
707 891 1
783 891 1
788 891 1
903 891 1
906 891 1
1143 891 1
1145 891 1
685 892 1
688 892 1
700 892 1
708 892 1
784 892 1
789 892 1
904 892 1
907 892 1
1144 892 1
1146 892 1
686 893 1
689 893 1
697 893 1
701 893 1
785 893 1
790 893 1
905 893 1
908 893 1
1145 893 1
1147 893 1
687 894 1
690 894 1
698 894 1
702 894 1
786 894 1
791 894 1
906 894 1
909 894 1
1146 894 1
1148 894 1
688 895 1
691 895 1
699 895 1
703 895 1
787 895 1
792 895 1
907 895 1
910 895 1
1147 895 1
1149 895 1
689 896 1
692 896 1
700 896 1
704 896 1
781 896 1
788 896 1
908 896 1
911 896 1
1148 896 1
1150 896 1
690 897 1
693 897 1
701 897 1
705 897 1
782 897 1
789 897 1
909 897 1
912 897 1
1149 897 1
1151 897 1
691 898 1
694 898 1
702 898 1
706 898 1
783 898 1
790 898 1
901 898 1
910 898 1
1150 898 1
1152 898 1
692 899 1
695 899 1
703 899 1
707 899 1
784 899 1
791 899 1
902 899 1
911 899 1
1141 899 1
1151 899 1
693 900 1
696 900 1
704 900 1
708 900 1
785 900 1
792 900 1
903 900 1
912 900 1
1142 900 1
1152 900 1
685 901 1
695 901 1
709 901 1
717 901 1
793 901 1
798 901 1
913 901 1
916 901 1
1153 901 1
1155 901 1
686 902 1
696 902 1
710 902 1
718 902 1
794 902 1
799 902 1
914 902 1
917 902 1
1154 902 1
1156 902 1
685 903 1
687 903 1
711 903 1
719 903 1
795 903 1
800 903 1
915 903 1
918 903 1
1155 903 1
1157 903 1
686 904 1
688 904 1
712 904 1
720 904 1
796 904 1
801 904 1
916 904 1
919 904 1
1156 904 1
1158 904 1
687 905 1
689 905 1
709 905 1
713 905 1
797 905 1
802 905 1
917 905 1
920 905 1
1157 905 1
1159 905 1
688 906 1
690 906 1
710 906 1
714 906 1
798 906 1
803 906 1
918 906 1
921 906 1
1158 906 1
1160 906 1
689 907 1
691 907 1
711 907 1
715 907 1
799 907 1
804 907 1
919 907 1
922 907 1
1159 907 1
1161 907 1
690 908 1
692 908 1
712 908 1
716 908 1
793 908 1
800 908 1
920 908 1
923 908 1
1160 908 1
1162 908 1
691 909 1
693 909 1
713 909 1
717 909 1
794 909 1
801 909 1
921 909 1
924 909 1
1161 909 1
1163 909 1
692 910 1
694 910 1
714 910 1
718 910 1
795 910 1
802 910 1
913 910 1
922 910 1
1162 910 1
1164 910 1
693 911 1
695 911 1
715 911 1
719 911 1
796 911 1
803 911 1
914 911 1
923 911 1
1153 911 1
1163 911 1
694 912 1
696 912 1
716 912 1
720 912 1
797 912 1
804 912 1
915 912 1
924 912 1
1154 912 1
1164 912 1
685 913 1
696 913 1
721 913 1
729 913 1
805 913 1
810 913 1
925 913 1
928 913 1
1165 913 1
1167 913 1
685 914 1
686 914 1
722 914 1
730 914 1
806 914 1
811 914 1
926 914 1
929 914 1
1166 914 1
1168 914 1
686 915 1
687 915 1
723 915 1
731 915 1
807 915 1
812 915 1
927 915 1
930 915 1
1167 915 1
1169 915 1
687 916 1
688 916 1
724 916 1
732 916 1
808 916 1
813 916 1
928 916 1
931 916 1
1168 916 1
1170 916 1
688 917 1
689 917 1
721 917 1
725 917 1
809 917 1
814 917 1
929 917 1
932 917 1
1169 917 1
1171 917 1
689 918 1
690 918 1
722 918 1
726 918 1
810 918 1
815 918 1
930 918 1
933 918 1
1170 918 1
1172 918 1
690 919 1
691 919 1
723 919 1
727 919 1
811 919 1
816 919 1
931 919 1
934 919 1
1171 919 1
1173 919 1
691 920 1
692 920 1
724 920 1
728 920 1
805 920 1
812 920 1
932 920 1
935 920 1
1172 920 1
1174 920 1
692 921 1
693 921 1
725 921 1
729 921 1
806 921 1
813 921 1
933 921 1
936 921 1
1173 921 1
1175 921 1
693 922 1
694 922 1
726 922 1
730 922 1
807 922 1
814 922 1
925 922 1
934 922 1
1174 922 1
1176 922 1
694 923 1
695 923 1
727 923 1
731 923 1
808 923 1
815 923 1
926 923 1
935 923 1
1165 923 1
1175 923 1
695 924 1
696 924 1
728 924 1
732 924 1
809 924 1
816 924 1
927 924 1
936 924 1
1166 924 1
1176 924 1
697 925 1
707 925 1
709 925 1
718 925 1
817 925 1
822 925 1
937 925 1
940 925 1
1177 925 1
1179 925 1
698 926 1
708 926 1
710 926 1
719 926 1
818 926 1
823 926 1
938 926 1
941 926 1
1178 926 1
1180 926 1
697 927 1
699 927 1
711 927 1
720 927 1
819 927 1
824 927 1
939 927 1
942 927 1
1179 927 1
1181 927 1
698 928 1
700 928 1
709 928 1
712 928 1
820 928 1
825 928 1
940 928 1
943 928 1
1180 928 1
1182 928 1
699 929 1
701 929 1
710 929 1
713 929 1
821 929 1
826 929 1
941 929 1
944 929 1
1181 929 1
1183 929 1
700 930 1
702 930 1
711 930 1
714 930 1
822 930 1
827 930 1
942 930 1
945 930 1
1182 930 1
1184 930 1
701 931 1
703 931 1
712 931 1
715 931 1
823 931 1
828 931 1
943 931 1
946 931 1
1183 931 1
1185 931 1
702 932 1
704 932 1
713 932 1
716 932 1
817 932 1
824 932 1
944 932 1
947 932 1
1184 932 1
1186 932 1
703 933 1
705 933 1
714 933 1
717 933 1
818 933 1
825 933 1
945 933 1
948 933 1
1185 933 1
1187 933 1
704 934 1
706 934 1
715 934 1
718 934 1
819 934 1
826 934 1
937 934 1
946 934 1
1186 934 1
1188 934 1
705 935 1
707 935 1
716 935 1
719 935 1
820 935 1
827 935 1
938 935 1
947 935 1
1177 935 1
1187 935 1
706 936 1
708 936 1
717 936 1
720 936 1
821 936 1
828 936 1
939 936 1
948 936 1
1178 936 1
1188 936 1
697 937 1
708 937 1
721 937 1
730 937 1
829 937 1
834 937 1
949 937 1
952 937 1
1189 937 1
1191 937 1
697 938 1
698 938 1
722 938 1
731 938 1
830 938 1
835 938 1
950 938 1
953 938 1
1190 938 1
1192 938 1
698 939 1
699 939 1
723 939 1
732 939 1
831 939 1
836 939 1
951 939 1
954 939 1
1191 939 1
1193 939 1
699 940 1
700 940 1
721 940 1
724 940 1
832 940 1
837 940 1
952 940 1
955 940 1
1192 940 1
1194 940 1
700 941 1
701 941 1
722 941 1
725 941 1
833 941 1
838 941 1
953 941 1
956 941 1
1193 941 1
1195 941 1
701 942 1
702 942 1
723 942 1
726 942 1
834 942 1
839 942 1
954 942 1
957 942 1
1194 942 1
1196 942 1
702 943 1
703 943 1
724 943 1
727 943 1
835 943 1
840 943 1
955 943 1
958 943 1
1195 943 1
1197 943 1
703 944 1
704 944 1
725 944 1
728 944 1
829 944 1
836 944 1
956 944 1
959 944 1
1196 944 1
1198 944 1
704 945 1
705 945 1
726 945 1
729 945 1
830 945 1
837 945 1
957 945 1
960 945 1
1197 945 1
1199 945 1
705 946 1
706 946 1
727 946 1
730 946 1
831 946 1
838 946 1
949 946 1
958 946 1
1198 946 1
1200 946 1
706 947 1
707 947 1
728 947 1
731 947 1
832 947 1
839 947 1
950 947 1
959 947 1
1189 947 1
1199 947 1
707 948 1
708 948 1
729 948 1
732 948 1
833 948 1
840 948 1
951 948 1
960 948 1
1190 948 1
1200 948 1
709 949 1
720 949 1
721 949 1
731 949 1
841 949 1
846 949 1
961 949 1
964 949 1
1201 949 1
1203 949 1
709 950 1
710 950 1
722 950 1
732 950 1
842 950 1
847 950 1
962 950 1
965 950 1
1202 950 1
1204 950 1
710 951 1
711 951 1
721 951 1
723 951 1
843 951 1
848 951 1
963 951 1
966 951 1
1203 951 1
1205 951 1
711 952 1
712 952 1
722 952 1
724 952 1
844 952 1
849 952 1
964 952 1
967 952 1
1204 952 1
1206 952 1
712 953 1
713 953 1
723 953 1
725 953 1
845 953 1
850 953 1
965 953 1
968 953 1
1205 953 1
1207 953 1
713 954 1
714 954 1
724 954 1
726 954 1
846 954 1
851 954 1
966 954 1
969 954 1
1206 954 1
1208 954 1
714 955 1
715 955 1
725 955 1
727 955 1
847 955 1
852 955 1
967 955 1
970 955 1
1207 955 1
1209 955 1
715 956 1
716 956 1
726 956 1
728 956 1
841 956 1
848 956 1
968 956 1
971 956 1
1208 956 1
1210 956 1
716 957 1
717 957 1
727 957 1
729 957 1
842 957 1
849 957 1
969 957 1
972 957 1
1209 957 1
1211 957 1
717 958 1
718 958 1
728 958 1
730 958 1
843 958 1
850 958 1
961 958 1
970 958 1
1210 958 1
1212 958 1
718 959 1
719 959 1
729 959 1
731 959 1
844 959 1
851 959 1
962 959 1
971 959 1
1201 959 1
1211 959 1
719 960 1
720 960 1
730 960 1
732 960 1
845 960 1
852 960 1
963 960 1
972 960 1
1202 960 1
1212 960 1
733 961 1
742 961 1
745 961 1
753 961 1
781 961 1
788 961 1
973 961 1
976 961 1
1213 961 1
1215 961 1
734 962 1
743 962 1
746 962 1
754 962 1
782 962 1
789 962 1
974 962 1
977 962 1
1214 962 1
1216 962 1
735 963 1
744 963 1
747 963 1
755 963 1
783 963 1
790 963 1
975 963 1
978 963 1
1215 963 1
1217 963 1
733 964 1
736 964 1
748 964 1
756 964 1
784 964 1
791 964 1
976 964 1
979 964 1
1216 964 1
1218 964 1
734 965 1
737 965 1
745 965 1
749 965 1
785 965 1
792 965 1
977 965 1
980 965 1
1217 965 1
1219 965 1
735 966 1
738 966 1
746 966 1
750 966 1
781 966 1
786 966 1
978 966 1
981 966 1
1218 966 1
1220 966 1
736 967 1
739 967 1
747 967 1
751 967 1
782 967 1
787 967 1
979 967 1
982 967 1
1219 967 1
1221 967 1
737 968 1
740 968 1
748 968 1
752 968 1
783 968 1
788 968 1
980 968 1
983 968 1
1220 968 1
1222 968 1
738 969 1
741 969 1
749 969 1
753 969 1
784 969 1
789 969 1
981 969 1
984 969 1
1221 969 1
1223 969 1
739 970 1
742 970 1
750 970 1
754 970 1
785 970 1
790 970 1
973 970 1
982 970 1
1222 970 1
1224 970 1
740 971 1
743 971 1
751 971 1
755 971 1
786 971 1
791 971 1
974 971 1
983 971 1
1213 971 1
1223 971 1
741 972 1
744 972 1
752 972 1
756 972 1
787 972 1
792 972 1
975 972 1
984 972 1
1214 972 1
1224 972 1
733 973 1
743 973 1
757 973 1
765 973 1
793 973 1
800 973 1
985 973 1
988 973 1
1225 973 1
1227 973 1
734 974 1
744 974 1
758 974 1
766 974 1
794 974 1
801 974 1
986 974 1
989 974 1
1226 974 1
1228 974 1
733 975 1
735 975 1
759 975 1
767 975 1
795 975 1
802 975 1
987 975 1
990 975 1
1227 975 1
1229 975 1
734 976 1
736 976 1
760 976 1
768 976 1
796 976 1
803 976 1
988 976 1
991 976 1
1228 976 1
1230 976 1
735 977 1
737 977 1
757 977 1
761 977 1
797 977 1
804 977 1
989 977 1
992 977 1
1229 977 1
1231 977 1
736 978 1
738 978 1
758 978 1
762 978 1
793 978 1
798 978 1
990 978 1
993 978 1
1230 978 1
1232 978 1
737 979 1
739 979 1
759 979 1
763 979 1
794 979 1
799 979 1
991 979 1
994 979 1
1231 979 1
1233 979 1
738 980 1
740 980 1
760 980 1
764 980 1
795 980 1
800 980 1
992 980 1
995 980 1
1232 980 1
1234 980 1
739 981 1
741 981 1
761 981 1
765 981 1
796 981 1
801 981 1
993 981 1
996 981 1
1233 981 1
1235 981 1
740 982 1
742 982 1
762 982 1
766 982 1
797 982 1
802 982 1
985 982 1
994 982 1
1234 982 1
1236 982 1
741 983 1
743 983 1
763 983 1
767 983 1
798 983 1
803 983 1
986 983 1
995 983 1
1225 983 1
1235 983 1
742 984 1
744 984 1
764 984 1
768 984 1
799 984 1
804 984 1
987 984 1
996 984 1
1226 984 1
1236 984 1
733 985 1
744 985 1
769 985 1
777 985 1
805 985 1
812 985 1
997 985 1
1000 985 1
1237 985 1
1239 985 1
733 986 1
734 986 1
770 986 1
778 986 1
806 986 1
813 986 1
998 986 1
1001 986 1
1238 986 1
1240 986 1
734 987 1
735 987 1
771 987 1
779 987 1
807 987 1
814 987 1
999 987 1
1002 987 1
1239 987 1
1241 987 1
735 988 1
736 988 1
772 988 1
780 988 1
808 988 1
815 988 1
1000 988 1
1003 988 1
1240 988 1
1242 988 1
736 989 1
737 989 1
769 989 1
773 989 1
809 989 1
816 989 1
1001 989 1
1004 989 1
1241 989 1
1243 989 1
737 990 1
738 990 1
770 990 1
774 990 1
805 990 1
810 990 1
1002 990 1
1005 990 1
1242 990 1
1244 990 1
738 991 1
739 991 1
771 991 1
775 991 1
806 991 1
811 991 1
1003 991 1
1006 991 1
1243 991 1
1245 991 1
739 992 1
740 992 1
772 992 1
776 992 1
807 992 1
812 992 1
1004 992 1
1007 992 1
1244 992 1
1246 992 1
740 993 1
741 993 1
773 993 1
777 993 1
808 993 1
813 993 1
1005 993 1
1008 993 1
1245 993 1
1247 993 1
741 994 1
742 994 1
774 994 1
778 994 1
809 994 1
814 994 1
997 994 1
1006 994 1
1246 994 1
1248 994 1
742 995 1
743 995 1
775 995 1
779 995 1
810 995 1
815 995 1
998 995 1
1007 995 1
1237 995 1
1247 995 1
743 996 1
744 996 1
776 996 1
780 996 1
811 996 1
816 996 1
999 996 1
1008 996 1
1238 996 1
1248 996 1
745 997 1
755 997 1
757 997 1
766 997 1
817 997 1
824 997 1
1009 997 1
1012 997 1
1249 997 1
1251 997 1
746 998 1
756 998 1
758 998 1
767 998 1
818 998 1
825 998 1
1010 998 1
1013 998 1
1250 998 1
1252 998 1
745 999 1
747 999 1
759 999 1
768 999 1
819 999 1
826 999 1
1011 999 1
1014 999 1
1251 999 1
1253 999 1
746 1000 1
748 1000 1
757 1000 1
760 1000 1
820 1000 1
827 1000 1
1012 1000 1
1015 1000 1
1252 1000 1
1254 1000 1
747 1001 1
749 1001 1
758 1001 1
761 1001 1
821 1001 1
828 1001 1
1013 1001 1
1016 1001 1
1253 1001 1
1255 1001 1
748 1002 1
750 1002 1
759 1002 1
762 1002 1
817 1002 1
822 1002 1
1014 1002 1
1017 1002 1
1254 1002 1
1256 1002 1
749 1003 1
751 1003 1
760 1003 1
763 1003 1
818 1003 1
823 1003 1
1015 1003 1
1018 1003 1
1255 1003 1
1257 1003 1
750 1004 1
752 1004 1
761 1004 1
764 1004 1
819 1004 1
824 1004 1
1016 1004 1
1019 1004 1
1256 1004 1
1258 1004 1
751 1005 1
753 1005 1
762 1005 1
765 1005 1
820 1005 1
825 1005 1
1017 1005 1
1020 1005 1
1257 1005 1
1259 1005 1
752 1006 1
754 1006 1
763 1006 1
766 1006 1
821 1006 1
826 1006 1
1009 1006 1
1018 1006 1
1258 1006 1
1260 1006 1
753 1007 1
755 1007 1
764 1007 1
767 1007 1
822 1007 1
827 1007 1
1010 1007 1
1019 1007 1
1249 1007 1
1259 1007 1
754 1008 1
756 1008 1
765 1008 1
768 1008 1
823 1008 1
828 1008 1
1011 1008 1
1020 1008 1
1250 1008 1
1260 1008 1
745 1009 1
756 1009 1
769 1009 1
778 1009 1
829 1009 1
836 1009 1
1021 1009 1
1024 1009 1
1261 1009 1
1263 1009 1
745 1010 1
746 1010 1
770 1010 1
779 1010 1
830 1010 1
837 1010 1
1022 1010 1
1025 1010 1
1262 1010 1
1264 1010 1
746 1011 1
747 1011 1
771 1011 1
780 1011 1
831 1011 1
838 1011 1
1023 1011 1
1026 1011 1
1263 1011 1
1265 1011 1
747 1012 1
748 1012 1
769 1012 1
772 1012 1
832 1012 1
839 1012 1
1024 1012 1
1027 1012 1
1264 1012 1
1266 1012 1
748 1013 1
749 1013 1
770 1013 1
773 1013 1
833 1013 1
840 1013 1
1025 1013 1
1028 1013 1
1265 1013 1
1267 1013 1
749 1014 1
750 1014 1
771 1014 1
774 1014 1
829 1014 1
834 1014 1
1026 1014 1
1029 1014 1
1266 1014 1
1268 1014 1
750 1015 1
751 1015 1
772 1015 1
775 1015 1
830 1015 1
835 1015 1
1027 1015 1
1030 1015 1
1267 1015 1
1269 1015 1
751 1016 1
752 1016 1
773 1016 1
776 1016 1
831 1016 1
836 1016 1
1028 1016 1
1031 1016 1
1268 1016 1
1270 1016 1
752 1017 1
753 1017 1
774 1017 1
777 1017 1
832 1017 1
837 1017 1
1029 1017 1
1032 1017 1
1269 1017 1
1271 1017 1
753 1018 1
754 1018 1
775 1018 1
778 1018 1
833 1018 1
838 1018 1
1021 1018 1
1030 1018 1
1270 1018 1
1272 1018 1
754 1019 1
755 1019 1
776 1019 1
779 1019 1
834 1019 1
839 1019 1
1022 1019 1
1031 1019 1
1261 1019 1
1271 1019 1
755 1020 1
756 1020 1
777 1020 1
780 1020 1
835 1020 1
840 1020 1
1023 1020 1
1032 1020 1
1262 1020 1
1272 1020 1
757 1021 1
768 1021 1
769 1021 1
779 1021 1
841 1021 1
848 1021 1
1033 1021 1
1036 1021 1
1273 1021 1
1275 1021 1
757 1022 1
758 1022 1
770 1022 1
780 1022 1
842 1022 1
849 1022 1
1034 1022 1
1037 1022 1
1274 1022 1
1276 1022 1
758 1023 1
759 1023 1
769 1023 1
771 1023 1
843 1023 1
850 1023 1
1035 1023 1
1038 1023 1
1275 1023 1
1277 1023 1
759 1024 1
760 1024 1
770 1024 1
772 1024 1
844 1024 1
851 1024 1
1036 1024 1
1039 1024 1
1276 1024 1
1278 1024 1
760 1025 1
761 1025 1
771 1025 1
773 1025 1
845 1025 1
852 1025 1
1037 1025 1
1040 1025 1
1277 1025 1
1279 1025 1
761 1026 1
762 1026 1
772 1026 1
774 1026 1
841 1026 1
846 1026 1
1038 1026 1
1041 1026 1
1278 1026 1
1280 1026 1
762 1027 1
763 1027 1
773 1027 1
775 1027 1
842 1027 1
847 1027 1
1039 1027 1
1042 1027 1
1279 1027 1
1281 1027 1
763 1028 1
764 1028 1
774 1028 1
776 1028 1
843 1028 1
848 1028 1
1040 1028 1
1043 1028 1
1280 1028 1
1282 1028 1
764 1029 1
765 1029 1
775 1029 1
777 1029 1
844 1029 1
849 1029 1
1041 1029 1
1044 1029 1
1281 1029 1
1283 1029 1
765 1030 1
766 1030 1
776 1030 1
778 1030 1
845 1030 1
850 1030 1
1033 1030 1
1042 1030 1
1282 1030 1
1284 1030 1
766 1031 1
767 1031 1
777 1031 1
779 1031 1
846 1031 1
851 1031 1
1034 1031 1
1043 1031 1
1273 1031 1
1283 1031 1
767 1032 1
768 1032 1
778 1032 1
780 1032 1
847 1032 1
852 1032 1
1035 1032 1
1044 1032 1
1274 1032 1
1284 1032 1
781 1033 1
791 1033 1
793 1033 1
802 1033 1
817 1033 1
825 1033 1
1045 1033 1
1048 1033 1
1285 1033 1
1287 1033 1
782 1034 1
792 1034 1
794 1034 1
803 1034 1
818 1034 1
826 1034 1
1046 1034 1
1049 1034 1
1286 1034 1
1288 1034 1
781 1035 1
783 1035 1
795 1035 1
804 1035 1
819 1035 1
827 1035 1
1047 1035 1
1050 1035 1
1287 1035 1
1289 1035 1
782 1036 1
784 1036 1
793 1036 1
796 1036 1
820 1036 1
828 1036 1
1048 1036 1
1051 1036 1
1288 1036 1
1290 1036 1
783 1037 1
785 1037 1
794 1037 1
797 1037 1
817 1037 1
821 1037 1
1049 1037 1
1052 1037 1
1289 1037 1
1291 1037 1
784 1038 1
786 1038 1
795 1038 1
798 1038 1
818 1038 1
822 1038 1
1050 1038 1
1053 1038 1
1290 1038 1
1292 1038 1
785 1039 1
787 1039 1
796 1039 1
799 1039 1
819 1039 1
823 1039 1
1051 1039 1
1054 1039 1
1291 1039 1
1293 1039 1
786 1040 1
788 1040 1
797 1040 1
800 1040 1
820 1040 1
824 1040 1
1052 1040 1
1055 1040 1
1292 1040 1
1294 1040 1
787 1041 1
789 1041 1
798 1041 1
801 1041 1
821 1041 1
825 1041 1
1053 1041 1
1056 1041 1
1293 1041 1
1295 1041 1
788 1042 1
790 1042 1
799 1042 1
802 1042 1
822 1042 1
826 1042 1
1045 1042 1
1054 1042 1
1294 1042 1
1296 1042 1
789 1043 1
791 1043 1
800 1043 1
803 1043 1
823 1043 1
827 1043 1
1046 1043 1
1055 1043 1
1285 1043 1
1295 1043 1
790 1044 1
792 1044 1
801 1044 1
804 1044 1
824 1044 1
828 1044 1
1047 1044 1
1056 1044 1
1286 1044 1
1296 1044 1
781 1045 1
792 1045 1
805 1045 1
814 1045 1
829 1045 1
837 1045 1
1057 1045 1
1060 1045 1
1297 1045 1
1299 1045 1
781 1046 1
782 1046 1
806 1046 1
815 1046 1
830 1046 1
838 1046 1
1058 1046 1
1061 1046 1
1298 1046 1
1300 1046 1
782 1047 1
783 1047 1
807 1047 1
816 1047 1
831 1047 1
839 1047 1
1059 1047 1
1062 1047 1
1299 1047 1
1301 1047 1
783 1048 1
784 1048 1
805 1048 1
808 1048 1
832 1048 1
840 1048 1
1060 1048 1
1063 1048 1
1300 1048 1
1302 1048 1
784 1049 1
785 1049 1
806 1049 1
809 1049 1
829 1049 1
833 1049 1
1061 1049 1
1064 1049 1
1301 1049 1
1303 1049 1
785 1050 1
786 1050 1
807 1050 1
810 1050 1
830 1050 1
834 1050 1
1062 1050 1
1065 1050 1
1302 1050 1
1304 1050 1
786 1051 1
787 1051 1
808 1051 1
811 1051 1
831 1051 1
835 1051 1
1063 1051 1
1066 1051 1
1303 1051 1
1305 1051 1
787 1052 1
788 1052 1
809 1052 1
812 1052 1
832 1052 1
836 1052 1
1064 1052 1
1067 1052 1
1304 1052 1
1306 1052 1
788 1053 1
789 1053 1
810 1053 1
813 1053 1
833 1053 1
837 1053 1
1065 1053 1
1068 1053 1
1305 1053 1
1307 1053 1
789 1054 1
790 1054 1
811 1054 1
814 1054 1
834 1054 1
838 1054 1
1057 1054 1
1066 1054 1
1306 1054 1
1308 1054 1
790 1055 1
791 1055 1
812 1055 1
815 1055 1
835 1055 1
839 1055 1
1058 1055 1
1067 1055 1
1297 1055 1
1307 1055 1
791 1056 1
792 1056 1
813 1056 1
816 1056 1
836 1056 1
840 1056 1
1059 1056 1
1068 1056 1
1298 1056 1
1308 1056 1
793 1057 1
804 1057 1
805 1057 1
815 1057 1
841 1057 1
849 1057 1
1069 1057 1
1072 1057 1
1309 1057 1
1311 1057 1
793 1058 1
794 1058 1
806 1058 1
816 1058 1
842 1058 1
850 1058 1
1070 1058 1
1073 1058 1
1310 1058 1
1312 1058 1
794 1059 1
795 1059 1
805 1059 1
807 1059 1
843 1059 1
851 1059 1
1071 1059 1
1074 1059 1
1311 1059 1
1313 1059 1
795 1060 1
796 1060 1
806 1060 1
808 1060 1
844 1060 1
852 1060 1
1072 1060 1
1075 1060 1
1312 1060 1
1314 1060 1
796 1061 1
797 1061 1
807 1061 1
809 1061 1
841 1061 1
845 1061 1
1073 1061 1
1076 1061 1
1313 1061 1
1315 1061 1
797 1062 1
798 1062 1
808 1062 1
810 1062 1
842 1062 1
846 1062 1
1074 1062 1
1077 1062 1
1314 1062 1
1316 1062 1
798 1063 1
799 1063 1
809 1063 1
811 1063 1
843 1063 1
847 1063 1
1075 1063 1
1078 1063 1
1315 1063 1
1317 1063 1
799 1064 1
800 1064 1
810 1064 1
812 1064 1
844 1064 1
848 1064 1
1076 1064 1
1079 1064 1
1316 1064 1
1318 1064 1
800 1065 1
801 1065 1
811 1065 1
813 1065 1
845 1065 1
849 1065 1
1077 1065 1
1080 1065 1
1317 1065 1
1319 1065 1
801 1066 1
802 1066 1
812 1066 1
814 1066 1
846 1066 1
850 1066 1
1069 1066 1
1078 1066 1
1318 1066 1
1320 1066 1
802 1067 1
803 1067 1
813 1067 1
815 1067 1
847 1067 1
851 1067 1
1070 1067 1
1079 1067 1
1309 1067 1
1319 1067 1
803 1068 1
804 1068 1
814 1068 1
816 1068 1
848 1068 1
852 1068 1
1071 1068 1
1080 1068 1
1310 1068 1
1320 1068 1
817 1069 1
828 1069 1
829 1069 1
839 1069 1
841 1069 1
850 1069 1
1081 1069 1
1084 1069 1
1321 1069 1
1323 1069 1
817 1070 1
818 1070 1
830 1070 1
840 1070 1
842 1070 1
851 1070 1
1082 1070 1
1085 1070 1
1322 1070 1
1324 1070 1
818 1071 1
819 1071 1
829 1071 1
831 1071 1
843 1071 1
852 1071 1
1083 1071 1
1086 1071 1
1323 1071 1
1325 1071 1
819 1072 1
820 1072 1
830 1072 1
832 1072 1
841 1072 1
844 1072 1
1084 1072 1
1087 1072 1
1324 1072 1
1326 1072 1
820 1073 1
821 1073 1
831 1073 1
833 1073 1
842 1073 1
845 1073 1
1085 1073 1
1088 1073 1
1325 1073 1
1327 1073 1
821 1074 1
822 1074 1
832 1074 1
834 1074 1
843 1074 1
846 1074 1
1086 1074 1
1089 1074 1
1326 1074 1
1328 1074 1
822 1075 1
823 1075 1
833 1075 1
835 1075 1
844 1075 1
847 1075 1
1087 1075 1
1090 1075 1
1327 1075 1
1329 1075 1
823 1076 1
824 1076 1
834 1076 1
836 1076 1
845 1076 1
848 1076 1
1088 1076 1
1091 1076 1
1328 1076 1
1330 1076 1
824 1077 1
825 1077 1
835 1077 1
837 1077 1
846 1077 1
849 1077 1
1089 1077 1
1092 1077 1
1329 1077 1
1331 1077 1
825 1078 1
826 1078 1
836 1078 1
838 1078 1
847 1078 1
850 1078 1
1081 1078 1
1090 1078 1
1330 1078 1
1332 1078 1
826 1079 1
827 1079 1
837 1079 1
839 1079 1
848 1079 1
851 1079 1
1082 1079 1
1091 1079 1
1321 1079 1
1331 1079 1
827 1080 1
828 1080 1
838 1080 1
840 1080 1
849 1080 1
852 1080 1
1083 1080 1
1092 1080 1
1322 1080 1
1332 1080 1
853 1081 1
862 1081 1
865 1081 1
873 1081 1
901 1081 1
908 1081 1
973 1081 1
978 1081 1
1333 1081 1
1335 1081 1
854 1082 1
863 1082 1
866 1082 1
874 1082 1
902 1082 1
909 1082 1
974 1082 1
979 1082 1
1334 1082 1
1336 1082 1
855 1083 1
864 1083 1
867 1083 1
875 1083 1
903 1083 1
910 1083 1
975 1083 1
980 1083 1
1335 1083 1
1337 1083 1
853 1084 1
856 1084 1
868 1084 1
876 1084 1
904 1084 1
911 1084 1
976 1084 1
981 1084 1
1336 1084 1
1338 1084 1
854 1085 1
857 1085 1
865 1085 1
869 1085 1
905 1085 1
912 1085 1
977 1085 1
982 1085 1
1337 1085 1
1339 1085 1
855 1086 1
858 1086 1
866 1086 1
870 1086 1
901 1086 1
906 1086 1
978 1086 1
983 1086 1
1338 1086 1
1340 1086 1
856 1087 1
859 1087 1
867 1087 1
871 1087 1
902 1087 1
907 1087 1
979 1087 1
984 1087 1
1339 1087 1
1341 1087 1
857 1088 1
860 1088 1
868 1088 1
872 1088 1
903 1088 1
908 1088 1
973 1088 1
980 1088 1
1340 1088 1
1342 1088 1
858 1089 1
861 1089 1
869 1089 1
873 1089 1
904 1089 1
909 1089 1
974 1089 1
981 1089 1
1341 1089 1
1343 1089 1
859 1090 1
862 1090 1
870 1090 1
874 1090 1
905 1090 1
910 1090 1
975 1090 1
982 1090 1
1342 1090 1
1344 1090 1
860 1091 1
863 1091 1
871 1091 1
875 1091 1
906 1091 1
911 1091 1
976 1091 1
983 1091 1
1333 1091 1
1343 1091 1
861 1092 1
864 1092 1
872 1092 1
876 1092 1
907 1092 1
912 1092 1
977 1092 1
984 1092 1
1334 1092 1
1344 1092 1
853 1093 1
863 1093 1
877 1093 1
885 1093 1
913 1093 1
920 1093 1
985 1093 1
990 1093 1
1345 1093 1
1347 1093 1
854 1094 1
864 1094 1
878 1094 1
886 1094 1
914 1094 1
921 1094 1
986 1094 1
991 1094 1
1346 1094 1
1348 1094 1
853 1095 1
855 1095 1
879 1095 1
887 1095 1
915 1095 1
922 1095 1
987 1095 1
992 1095 1
1347 1095 1
1349 1095 1
854 1096 1
856 1096 1
880 1096 1
888 1096 1
916 1096 1
923 1096 1
988 1096 1
993 1096 1
1348 1096 1
1350 1096 1
855 1097 1
857 1097 1
877 1097 1
881 1097 1
917 1097 1
924 1097 1
989 1097 1
994 1097 1
1349 1097 1
1351 1097 1
856 1098 1
858 1098 1
878 1098 1
882 1098 1
913 1098 1
918 1098 1
990 1098 1
995 1098 1
1350 1098 1
1352 1098 1
857 1099 1
859 1099 1
879 1099 1
883 1099 1
914 1099 1
919 1099 1
991 1099 1
996 1099 1
1351 1099 1
1353 1099 1
858 1100 1
860 1100 1
880 1100 1
884 1100 1
915 1100 1
920 1100 1
985 1100 1
992 1100 1
1352 1100 1
1354 1100 1
859 1101 1
861 1101 1
881 1101 1
885 1101 1
916 1101 1
921 1101 1
986 1101 1
993 1101 1
1353 1101 1
1355 1101 1
860 1102 1
862 1102 1
882 1102 1
886 1102 1
917 1102 1
922 1102 1
987 1102 1
994 1102 1
1354 1102 1
1356 1102 1
861 1103 1
863 1103 1
883 1103 1
887 1103 1
918 1103 1
923 1103 1
988 1103 1
995 1103 1
1345 1103 1
1355 1103 1
862 1104 1
864 1104 1
884 1104 1
888 1104 1
919 1104 1
924 1104 1
989 1104 1
996 1104 1
1346 1104 1
1356 1104 1
853 1105 1
864 1105 1
889 1105 1
897 1105 1
925 1105 1
932 1105 1
997 1105 1
1002 1105 1
1357 1105 1
1359 1105 1
853 1106 1
854 1106 1
890 1106 1
898 1106 1
926 1106 1
933 1106 1
998 1106 1
1003 1106 1
1358 1106 1
1360 1106 1
854 1107 1
855 1107 1
891 1107 1
899 1107 1
927 1107 1
934 1107 1
999 1107 1
1004 1107 1
1359 1107 1
1361 1107 1
855 1108 1
856 1108 1
892 1108 1
900 1108 1
928 1108 1
935 1108 1
1000 1108 1
1005 1108 1
1360 1108 1
1362 1108 1
856 1109 1
857 1109 1
889 1109 1
893 1109 1
929 1109 1
936 1109 1
1001 1109 1
1006 1109 1
1361 1109 1
1363 1109 1
857 1110 1
858 1110 1
890 1110 1
894 1110 1
925 1110 1
930 1110 1
1002 1110 1
1007 1110 1
1362 1110 1
1364 1110 1
858 1111 1
859 1111 1
891 1111 1
895 1111 1
926 1111 1
931 1111 1
1003 1111 1
1008 1111 1
1363 1111 1
1365 1111 1
859 1112 1
860 1112 1
892 1112 1
896 1112 1
927 1112 1
932 1112 1
997 1112 1
1004 1112 1
1364 1112 1
1366 1112 1
860 1113 1
861 1113 1
893 1113 1
897 1113 1
928 1113 1
933 1113 1
998 1113 1
1005 1113 1
1365 1113 1
1367 1113 1
861 1114 1
862 1114 1
894 1114 1
898 1114 1
929 1114 1
934 1114 1
999 1114 1
1006 1114 1
1366 1114 1
1368 1114 1
862 1115 1
863 1115 1
895 1115 1
899 1115 1
930 1115 1
935 1115 1
1000 1115 1
1007 1115 1
1357 1115 1
1367 1115 1
863 1116 1
864 1116 1
896 1116 1
900 1116 1
931 1116 1
936 1116 1
1001 1116 1
1008 1116 1
1358 1116 1
1368 1116 1
865 1117 1
875 1117 1
877 1117 1
886 1117 1
937 1117 1
944 1117 1
1009 1117 1
1014 1117 1
1369 1117 1
1371 1117 1
866 1118 1
876 1118 1
878 1118 1
887 1118 1
938 1118 1
945 1118 1
1010 1118 1
1015 1118 1
1370 1118 1
1372 1118 1
865 1119 1
867 1119 1
879 1119 1
888 1119 1
939 1119 1
946 1119 1
1011 1119 1
1016 1119 1
1371 1119 1
1373 1119 1
866 1120 1
868 1120 1
877 1120 1
880 1120 1
940 1120 1
947 1120 1
1012 1120 1
1017 1120 1
1372 1120 1
1374 1120 1
867 1121 1
869 1121 1
878 1121 1
881 1121 1
941 1121 1
948 1121 1
1013 1121 1
1018 1121 1
1373 1121 1
1375 1121 1
868 1122 1
870 1122 1
879 1122 1
882 1122 1
937 1122 1
942 1122 1
1014 1122 1
1019 1122 1
1374 1122 1
1376 1122 1
869 1123 1
871 1123 1
880 1123 1
883 1123 1
938 1123 1
943 1123 1
1015 1123 1
1020 1123 1
1375 1123 1
1377 1123 1
870 1124 1
872 1124 1
881 1124 1
884 1124 1
939 1124 1
944 1124 1
1009 1124 1
1016 1124 1
1376 1124 1
1378 1124 1
871 1125 1
873 1125 1
882 1125 1
885 1125 1
940 1125 1
945 1125 1
1010 1125 1
1017 1125 1
1377 1125 1
1379 1125 1
872 1126 1
874 1126 1
883 1126 1
886 1126 1
941 1126 1
946 1126 1
1011 1126 1
1018 1126 1
1378 1126 1
1380 1126 1
873 1127 1
875 1127 1
884 1127 1
887 1127 1
942 1127 1
947 1127 1
1012 1127 1
1019 1127 1
1369 1127 1
1379 1127 1
874 1128 1
876 1128 1
885 1128 1
888 1128 1
943 1128 1
948 1128 1
1013 1128 1
1020 1128 1
1370 1128 1
1380 1128 1
865 1129 1
876 1129 1
889 1129 1
898 1129 1
949 1129 1
956 1129 1
1021 1129 1
1026 1129 1
1381 1129 1
1383 1129 1
865 1130 1
866 1130 1
890 1130 1
899 1130 1
950 1130 1
957 1130 1
1022 1130 1
1027 1130 1
1382 1130 1
1384 1130 1
866 1131 1
867 1131 1
891 1131 1
900 1131 1
951 1131 1
958 1131 1
1023 1131 1
1028 1131 1
1383 1131 1
1385 1131 1
867 1132 1
868 1132 1
889 1132 1
892 1132 1
952 1132 1
959 1132 1
1024 1132 1
1029 1132 1
1384 1132 1
1386 1132 1
868 1133 1
869 1133 1
890 1133 1
893 1133 1
953 1133 1
960 1133 1
1025 1133 1
1030 1133 1
1385 1133 1
1387 1133 1
869 1134 1
870 1134 1
891 1134 1
894 1134 1
949 1134 1
954 1134 1
1026 1134 1
1031 1134 1
1386 1134 1
1388 1134 1
870 1135 1
871 1135 1
892 1135 1
895 1135 1
950 1135 1
955 1135 1
1027 1135 1
1032 1135 1
1387 1135 1
1389 1135 1
871 1136 1
872 1136 1
893 1136 1
896 1136 1
951 1136 1
956 1136 1
1021 1136 1
1028 1136 1
1388 1136 1
1390 1136 1
872 1137 1
873 1137 1
894 1137 1
897 1137 1
952 1137 1
957 1137 1
1022 1137 1
1029 1137 1
1389 1137 1
1391 1137 1
873 1138 1
874 1138 1
895 1138 1
898 1138 1
953 1138 1
958 1138 1
1023 1138 1
1030 1138 1
1390 1138 1
1392 1138 1
874 1139 1
875 1139 1
896 1139 1
899 1139 1
954 1139 1
959 1139 1
1024 1139 1
1031 1139 1
1381 1139 1
1391 1139 1
875 1140 1
876 1140 1
897 1140 1
900 1140 1
955 1140 1
960 1140 1
1025 1140 1
1032 1140 1
1382 1140 1
1392 1140 1
877 1141 1
888 1141 1
889 1141 1
899 1141 1
961 1141 1
968 1141 1
1033 1141 1
1038 1141 1
1393 1141 1
1395 1141 1
877 1142 1
878 1142 1
890 1142 1
900 1142 1
962 1142 1
969 1142 1
1034 1142 1
1039 1142 1
1394 1142 1
1396 1142 1
878 1143 1
879 1143 1
889 1143 1
891 1143 1
963 1143 1
970 1143 1
1035 1143 1
1040 1143 1
1395 1143 1
1397 1143 1
879 1144 1
880 1144 1
890 1144 1
892 1144 1
964 1144 1
971 1144 1
1036 1144 1
1041 1144 1
1396 1144 1
1398 1144 1
880 1145 1
881 1145 1
891 1145 1
893 1145 1
965 1145 1
972 1145 1
1037 1145 1
1042 1145 1
1397 1145 1
1399 1145 1
881 1146 1
882 1146 1
892 1146 1
894 1146 1
961 1146 1
966 1146 1
1038 1146 1
1043 1146 1
1398 1146 1
1400 1146 1
882 1147 1
883 1147 1
893 1147 1
895 1147 1
962 1147 1
967 1147 1
1039 1147 1
1044 1147 1
1399 1147 1
1401 1147 1
883 1148 1
884 1148 1
894 1148 1
896 1148 1
963 1148 1
968 1148 1
1033 1148 1
1040 1148 1
1400 1148 1
1402 1148 1
884 1149 1
885 1149 1
895 1149 1
897 1149 1
964 1149 1
969 1149 1
1034 1149 1
1041 1149 1
1401 1149 1
1403 1149 1
885 1150 1
886 1150 1
896 1150 1
898 1150 1
965 1150 1
970 1150 1
1035 1150 1
1042 1150 1
1402 1150 1
1404 1150 1
886 1151 1
887 1151 1
897 1151 1
899 1151 1
966 1151 1
971 1151 1
1036 1151 1
1043 1151 1
1393 1151 1
1403 1151 1
887 1152 1
888 1152 1
898 1152 1
900 1152 1
967 1152 1
972 1152 1
1037 1152 1
1044 1152 1
1394 1152 1
1404 1152 1
901 1153 1
911 1153 1
913 1153 1
922 1153 1
937 1153 1
945 1153 1
1045 1153 1
1050 1153 1
1405 1153 1
1407 1153 1
902 1154 1
912 1154 1
914 1154 1
923 1154 1
938 1154 1
946 1154 1
1046 1154 1
1051 1154 1
1406 1154 1
1408 1154 1
901 1155 1
903 1155 1
915 1155 1
924 1155 1
939 1155 1
947 1155 1
1047 1155 1
1052 1155 1
1407 1155 1
1409 1155 1
902 1156 1
904 1156 1
913 1156 1
916 1156 1
940 1156 1
948 1156 1
1048 1156 1
1053 1156 1
1408 1156 1
1410 1156 1
903 1157 1
905 1157 1
914 1157 1
917 1157 1
937 1157 1
941 1157 1
1049 1157 1
1054 1157 1
1409 1157 1
1411 1157 1
904 1158 1
906 1158 1
915 1158 1
918 1158 1
938 1158 1
942 1158 1
1050 1158 1
1055 1158 1
1410 1158 1
1412 1158 1
905 1159 1
907 1159 1
916 1159 1
919 1159 1
939 1159 1
943 1159 1
1051 1159 1
1056 1159 1
1411 1159 1
1413 1159 1
906 1160 1
908 1160 1
917 1160 1
920 1160 1
940 1160 1
944 1160 1
1045 1160 1
1052 1160 1
1412 1160 1
1414 1160 1
907 1161 1
909 1161 1
918 1161 1
921 1161 1
941 1161 1
945 1161 1
1046 1161 1
1053 1161 1
1413 1161 1
1415 1161 1
908 1162 1
910 1162 1
919 1162 1
922 1162 1
942 1162 1
946 1162 1
1047 1162 1
1054 1162 1
1414 1162 1
1416 1162 1
909 1163 1
911 1163 1
920 1163 1
923 1163 1
943 1163 1
947 1163 1
1048 1163 1
1055 1163 1
1405 1163 1
1415 1163 1
910 1164 1
912 1164 1
921 1164 1
924 1164 1
944 1164 1
948 1164 1
1049 1164 1
1056 1164 1
1406 1164 1
1416 1164 1
901 1165 1
912 1165 1
925 1165 1
934 1165 1
949 1165 1
957 1165 1
1057 1165 1
1062 1165 1
1417 1165 1
1419 1165 1
901 1166 1
902 1166 1
926 1166 1
935 1166 1
950 1166 1
958 1166 1
1058 1166 1
1063 1166 1
1418 1166 1
1420 1166 1
902 1167 1
903 1167 1
927 1167 1
936 1167 1
951 1167 1
959 1167 1
1059 1167 1
1064 1167 1
1419 1167 1
1421 1167 1
903 1168 1
904 1168 1
925 1168 1
928 1168 1
952 1168 1
960 1168 1
1060 1168 1
1065 1168 1
1420 1168 1
1422 1168 1
904 1169 1
905 1169 1
926 1169 1
929 1169 1
949 1169 1
953 1169 1
1061 1169 1
1066 1169 1
1421 1169 1
1423 1169 1
905 1170 1
906 1170 1
927 1170 1
930 1170 1
950 1170 1
954 1170 1
1062 1170 1
1067 1170 1
1422 1170 1
1424 1170 1
906 1171 1
907 1171 1
928 1171 1
931 1171 1
951 1171 1
955 1171 1
1063 1171 1
1068 1171 1
1423 1171 1
1425 1171 1
907 1172 1
908 1172 1
929 1172 1
932 1172 1
952 1172 1
956 1172 1
1057 1172 1
1064 1172 1
1424 1172 1
1426 1172 1
908 1173 1
909 1173 1
930 1173 1
933 1173 1
953 1173 1
957 1173 1
1058 1173 1
1065 1173 1
1425 1173 1
1427 1173 1
909 1174 1
910 1174 1
931 1174 1
934 1174 1
954 1174 1
958 1174 1
1059 1174 1
1066 1174 1
1426 1174 1
1428 1174 1
910 1175 1
911 1175 1
932 1175 1
935 1175 1
955 1175 1
959 1175 1
1060 1175 1
1067 1175 1
1417 1175 1
1427 1175 1
911 1176 1
912 1176 1
933 1176 1
936 1176 1
956 1176 1
960 1176 1
1061 1176 1
1068 1176 1
1418 1176 1
1428 1176 1
913 1177 1
924 1177 1
925 1177 1
935 1177 1
961 1177 1
969 1177 1
1069 1177 1
1074 1177 1
1429 1177 1
1431 1177 1
913 1178 1
914 1178 1
926 1178 1
936 1178 1
962 1178 1
970 1178 1
1070 1178 1
1075 1178 1
1430 1178 1
1432 1178 1
914 1179 1
915 1179 1
925 1179 1
927 1179 1
963 1179 1
971 1179 1
1071 1179 1
1076 1179 1
1431 1179 1
1433 1179 1
915 1180 1
916 1180 1
926 1180 1
928 1180 1
964 1180 1
972 1180 1
1072 1180 1
1077 1180 1
1432 1180 1
1434 1180 1
916 1181 1
917 1181 1
927 1181 1
929 1181 1
961 1181 1
965 1181 1
1073 1181 1
1078 1181 1
1433 1181 1
1435 1181 1
917 1182 1
918 1182 1
928 1182 1
930 1182 1
962 1182 1
966 1182 1
1074 1182 1
1079 1182 1
1434 1182 1
1436 1182 1
918 1183 1
919 1183 1
929 1183 1
931 1183 1
963 1183 1
967 1183 1
1075 1183 1
1080 1183 1
1435 1183 1
1437 1183 1
919 1184 1
920 1184 1
930 1184 1
932 1184 1
964 1184 1
968 1184 1
1069 1184 1
1076 1184 1
1436 1184 1
1438 1184 1
920 1185 1
921 1185 1
931 1185 1
933 1185 1
965 1185 1
969 1185 1
1070 1185 1
1077 1185 1
1437 1185 1
1439 1185 1
921 1186 1
922 1186 1
932 1186 1
934 1186 1
966 1186 1
970 1186 1
1071 1186 1
1078 1186 1
1438 1186 1
1440 1186 1
922 1187 1
923 1187 1
933 1187 1
935 1187 1
967 1187 1
971 1187 1
1072 1187 1
1079 1187 1
1429 1187 1
1439 1187 1
923 1188 1
924 1188 1
934 1188 1
936 1188 1
968 1188 1
972 1188 1
1073 1188 1
1080 1188 1
1430 1188 1
1440 1188 1
937 1189 1
948 1189 1
949 1189 1
959 1189 1
961 1189 1
970 1189 1
1081 1189 1
1086 1189 1
1441 1189 1
1443 1189 1
937 1190 1
938 1190 1
950 1190 1
960 1190 1
962 1190 1
971 1190 1
1082 1190 1
1087 1190 1
1442 1190 1
1444 1190 1
938 1191 1
939 1191 1
949 1191 1
951 1191 1
963 1191 1
972 1191 1
1083 1191 1
1088 1191 1
1443 1191 1
1445 1191 1
939 1192 1
940 1192 1
950 1192 1
952 1192 1
961 1192 1
964 1192 1
1084 1192 1
1089 1192 1
1444 1192 1
1446 1192 1
940 1193 1
941 1193 1
951 1193 1
953 1193 1
962 1193 1
965 1193 1
1085 1193 1
1090 1193 1
1445 1193 1
1447 1193 1
941 1194 1
942 1194 1
952 1194 1
954 1194 1
963 1194 1
966 1194 1
1086 1194 1
1091 1194 1
1446 1194 1
1448 1194 1
942 1195 1
943 1195 1
953 1195 1
955 1195 1
964 1195 1
967 1195 1
1087 1195 1
1092 1195 1
1447 1195 1
1449 1195 1
943 1196 1
944 1196 1
954 1196 1
956 1196 1
965 1196 1
968 1196 1
1081 1196 1
1088 1196 1
1448 1196 1
1450 1196 1
944 1197 1
945 1197 1
955 1197 1
957 1197 1
966 1197 1
969 1197 1
1082 1197 1
1089 1197 1
1449 1197 1
1451 1197 1
945 1198 1
946 1198 1
956 1198 1
958 1198 1
967 1198 1
970 1198 1
1083 1198 1
1090 1198 1
1450 1198 1
1452 1198 1
946 1199 1
947 1199 1
957 1199 1
959 1199 1
968 1199 1
971 1199 1
1084 1199 1
1091 1199 1
1441 1199 1
1451 1199 1
947 1200 1
948 1200 1
958 1200 1
960 1200 1
969 1200 1
972 1200 1
1085 1200 1
1092 1200 1
1442 1200 1
1452 1200 1
973 1201 1
983 1201 1
985 1201 1
994 1201 1
1009 1201 1
1017 1201 1
1045 1201 1
1052 1201 1
1453 1201 1
1455 1201 1
974 1202 1
984 1202 1
986 1202 1
995 1202 1
1010 1202 1
1018 1202 1
1046 1202 1
1053 1202 1
1454 1202 1
1456 1202 1
973 1203 1
975 1203 1
987 1203 1
996 1203 1
1011 1203 1
1019 1203 1
1047 1203 1
1054 1203 1
1455 1203 1
1457 1203 1
974 1204 1
976 1204 1
985 1204 1
988 1204 1
1012 1204 1
1020 1204 1
1048 1204 1
1055 1204 1
1456 1204 1
1458 1204 1
975 1205 1
977 1205 1
986 1205 1
989 1205 1
1009 1205 1
1013 1205 1
1049 1205 1
1056 1205 1
1457 1205 1
1459 1205 1
976 1206 1
978 1206 1
987 1206 1
990 1206 1
1010 1206 1
1014 1206 1
1045 1206 1
1050 1206 1
1458 1206 1
1460 1206 1
977 1207 1
979 1207 1
988 1207 1
991 1207 1
1011 1207 1
1015 1207 1
1046 1207 1
1051 1207 1
1459 1207 1
1461 1207 1
978 1208 1
980 1208 1
989 1208 1
992 1208 1
1012 1208 1
1016 1208 1
1047 1208 1
1052 1208 1
1460 1208 1
1462 1208 1
979 1209 1
981 1209 1
990 1209 1
993 1209 1
1013 1209 1
1017 1209 1
1048 1209 1
1053 1209 1
1461 1209 1
1463 1209 1
980 1210 1
982 1210 1
991 1210 1
994 1210 1
1014 1210 1
1018 1210 1
1049 1210 1
1054 1210 1
1462 1210 1
1464 1210 1
981 1211 1
983 1211 1
992 1211 1
995 1211 1
1015 1211 1
1019 1211 1
1050 1211 1
1055 1211 1
1453 1211 1
1463 1211 1
982 1212 1
984 1212 1
993 1212 1
996 1212 1
1016 1212 1
1020 1212 1
1051 1212 1
1056 1212 1
1454 1212 1
1464 1212 1
973 1213 1
984 1213 1
997 1213 1
1006 1213 1
1021 1213 1
1029 1213 1
1057 1213 1
1064 1213 1
1465 1213 1
1467 1213 1
973 1214 1
974 1214 1
998 1214 1
1007 1214 1
1022 1214 1
1030 1214 1
1058 1214 1
1065 1214 1
1466 1214 1
1468 1214 1
974 1215 1
975 1215 1
999 1215 1
1008 1215 1
1023 1215 1
1031 1215 1
1059 1215 1
1066 1215 1
1467 1215 1
1469 1215 1
975 1216 1
976 1216 1
997 1216 1
1000 1216 1
1024 1216 1
1032 1216 1
1060 1216 1
1067 1216 1
1468 1216 1
1470 1216 1
976 1217 1
977 1217 1
998 1217 1
1001 1217 1
1021 1217 1
1025 1217 1
1061 1217 1
1068 1217 1
1469 1217 1
1471 1217 1
977 1218 1
978 1218 1
999 1218 1
1002 1218 1
1022 1218 1
1026 1218 1
1057 1218 1
1062 1218 1
1470 1218 1
1472 1218 1
978 1219 1
979 1219 1
1000 1219 1
1003 1219 1
1023 1219 1
1027 1219 1
1058 1219 1
1063 1219 1
1471 1219 1
1473 1219 1
979 1220 1
980 1220 1
1001 1220 1
1004 1220 1
1024 1220 1
1028 1220 1
1059 1220 1
1064 1220 1
1472 1220 1
1474 1220 1
980 1221 1
981 1221 1
1002 1221 1
1005 1221 1
1025 1221 1
1029 1221 1
1060 1221 1
1065 1221 1
1473 1221 1
1475 1221 1
981 1222 1
982 1222 1
1003 1222 1
1006 1222 1
1026 1222 1
1030 1222 1
1061 1222 1
1066 1222 1
1474 1222 1
1476 1222 1
982 1223 1
983 1223 1
1004 1223 1
1007 1223 1
1027 1223 1
1031 1223 1
1062 1223 1
1067 1223 1
1465 1223 1
1475 1223 1
983 1224 1
984 1224 1
1005 1224 1
1008 1224 1
1028 1224 1
1032 1224 1
1063 1224 1
1068 1224 1
1466 1224 1
1476 1224 1
985 1225 1
996 1225 1
997 1225 1
1007 1225 1
1033 1225 1
1041 1225 1
1069 1225 1
1076 1225 1
1477 1225 1
1479 1225 1
985 1226 1
986 1226 1
998 1226 1
1008 1226 1
1034 1226 1
1042 1226 1
1070 1226 1
1077 1226 1
1478 1226 1
1480 1226 1
986 1227 1
987 1227 1
997 1227 1
999 1227 1
1035 1227 1
1043 1227 1
1071 1227 1
1078 1227 1
1479 1227 1
1481 1227 1
987 1228 1
988 1228 1
998 1228 1
1000 1228 1
1036 1228 1
1044 1228 1
1072 1228 1
1079 1228 1
1480 1228 1
1482 1228 1
988 1229 1
989 1229 1
999 1229 1
1001 1229 1
1033 1229 1
1037 1229 1
1073 1229 1
1080 1229 1
1481 1229 1
1483 1229 1
989 1230 1
990 1230 1
1000 1230 1
1002 1230 1
1034 1230 1
1038 1230 1
1069 1230 1
1074 1230 1
1482 1230 1
1484 1230 1
990 1231 1
991 1231 1
1001 1231 1
1003 1231 1
1035 1231 1
1039 1231 1
1070 1231 1
1075 1231 1
1483 1231 1
1485 1231 1
991 1232 1
992 1232 1
1002 1232 1
1004 1232 1
1036 1232 1
1040 1232 1
1071 1232 1
1076 1232 1
1484 1232 1
1486 1232 1
992 1233 1
993 1233 1
1003 1233 1
1005 1233 1
1037 1233 1
1041 1233 1
1072 1233 1
1077 1233 1
1485 1233 1
1487 1233 1
993 1234 1
994 1234 1
1004 1234 1
1006 1234 1
1038 1234 1
1042 1234 1
1073 1234 1
1078 1234 1
1486 1234 1
1488 1234 1
994 1235 1
995 1235 1
1005 1235 1
1007 1235 1
1039 1235 1
1043 1235 1
1074 1235 1
1079 1235 1
1477 1235 1
1487 1235 1
995 1236 1
996 1236 1
1006 1236 1
1008 1236 1
1040 1236 1
1044 1236 1
1075 1236 1
1080 1236 1
1478 1236 1
1488 1236 1
1009 1237 1
1020 1237 1
1021 1237 1
1031 1237 1
1033 1237 1
1042 1237 1
1081 1237 1
1088 1237 1
1489 1237 1
1491 1237 1
1009 1238 1
1010 1238 1
1022 1238 1
1032 1238 1
1034 1238 1
1043 1238 1
1082 1238 1
1089 1238 1
1490 1238 1
1492 1238 1
1010 1239 1
1011 1239 1
1021 1239 1
1023 1239 1
1035 1239 1
1044 1239 1
1083 1239 1
1090 1239 1
1491 1239 1
1493 1239 1
1011 1240 1
1012 1240 1
1022 1240 1
1024 1240 1
1033 1240 1
1036 1240 1
1084 1240 1
1091 1240 1
1492 1240 1
1494 1240 1
1012 1241 1
1013 1241 1
1023 1241 1
1025 1241 1
1034 1241 1
1037 1241 1
1085 1241 1
1092 1241 1
1493 1241 1
1495 1241 1
1013 1242 1
1014 1242 1
1024 1242 1
1026 1242 1
1035 1242 1
1038 1242 1
1081 1242 1
1086 1242 1
1494 1242 1
1496 1242 1
1014 1243 1
1015 1243 1
1025 1243 1
1027 1243 1
1036 1243 1
1039 1243 1
1082 1243 1
1087 1243 1
1495 1243 1
1497 1243 1
1015 1244 1
1016 1244 1
1026 1244 1
1028 1244 1
1037 1244 1
1040 1244 1
1083 1244 1
1088 1244 1
1496 1244 1
1498 1244 1
1016 1245 1
1017 1245 1
1027 1245 1
1029 1245 1
1038 1245 1
1041 1245 1
1084 1245 1
1089 1245 1
1497 1245 1
1499 1245 1
1017 1246 1
1018 1246 1
1028 1246 1
1030 1246 1
1039 1246 1
1042 1246 1
1085 1246 1
1090 1246 1
1498 1246 1
1500 1246 1
1018 1247 1
1019 1247 1
1029 1247 1
1031 1247 1
1040 1247 1
1043 1247 1
1086 1247 1
1091 1247 1
1489 1247 1
1499 1247 1
1019 1248 1
1020 1248 1
1030 1248 1
1032 1248 1
1041 1248 1
1044 1248 1
1087 1248 1
1092 1248 1
1490 1248 1
1500 1248 1
1045 1249 1
1056 1249 1
1057 1249 1
1067 1249 1
1069 1249 1
1078 1249 1
1081 1249 1
1089 1249 1
1501 1249 1
1503 1249 1
1045 1250 1
1046 1250 1
1058 1250 1
1068 1250 1
1070 1250 1
1079 1250 1
1082 1250 1
1090 1250 1
1502 1250 1
1504 1250 1
1046 1251 1
1047 1251 1
1057 1251 1
1059 1251 1
1071 1251 1
1080 1251 1
1083 1251 1
1091 1251 1
1503 1251 1
1505 1251 1
1047 1252 1
1048 1252 1
1058 1252 1
1060 1252 1
1069 1252 1
1072 1252 1
1084 1252 1
1092 1252 1
1504 1252 1
1506 1252 1
1048 1253 1
1049 1253 1
1059 1253 1
1061 1253 1
1070 1253 1
1073 1253 1
1081 1253 1
1085 1253 1
1505 1253 1
1507 1253 1
1049 1254 1
1050 1254 1
1060 1254 1
1062 1254 1
1071 1254 1
1074 1254 1
1082 1254 1
1086 1254 1
1506 1254 1
1508 1254 1
1050 1255 1
1051 1255 1
1061 1255 1
1063 1255 1
1072 1255 1
1075 1255 1
1083 1255 1
1087 1255 1
1507 1255 1
1509 1255 1
1051 1256 1
1052 1256 1
1062 1256 1
1064 1256 1
1073 1256 1
1076 1256 1
1084 1256 1
1088 1256 1
1508 1256 1
1510 1256 1
1052 1257 1
1053 1257 1
1063 1257 1
1065 1257 1
1074 1257 1
1077 1257 1
1085 1257 1
1089 1257 1
1509 1257 1
1511 1257 1
1053 1258 1
1054 1258 1
1064 1258 1
1066 1258 1
1075 1258 1
1078 1258 1
1086 1258 1
1090 1258 1
1510 1258 1
1512 1258 1
1054 1259 1
1055 1259 1
1065 1259 1
1067 1259 1
1076 1259 1
1079 1259 1
1087 1259 1
1091 1259 1
1501 1259 1
1511 1259 1
1055 1260 1
1056 1260 1
1066 1260 1
1068 1260 1
1077 1260 1
1080 1260 1
1088 1260 1
1092 1260 1
1502 1260 1
1512 1260 1
1093 1261 1
1102 1261 1
1105 1261 1
1113 1261 1
1141 1261 1
1148 1261 1
1213 1261 1
1218 1261 1
1333 1261 1
1336 1261 1
1094 1262 1
1103 1262 1
1106 1262 1
1114 1262 1
1142 1262 1
1149 1262 1
1214 1262 1
1219 1262 1
1334 1262 1
1337 1262 1
1095 1263 1
1104 1263 1
1107 1263 1
1115 1263 1
1143 1263 1
1150 1263 1
1215 1263 1
1220 1263 1
1335 1263 1
1338 1263 1
1093 1264 1
1096 1264 1
1108 1264 1
1116 1264 1
1144 1264 1
1151 1264 1
1216 1264 1
1221 1264 1
1336 1264 1
1339 1264 1
1094 1265 1
1097 1265 1
1105 1265 1
1109 1265 1
1145 1265 1
1152 1265 1
1217 1265 1
1222 1265 1
1337 1265 1
1340 1265 1
1095 1266 1
1098 1266 1
1106 1266 1
1110 1266 1
1141 1266 1
1146 1266 1
1218 1266 1
1223 1266 1
1338 1266 1
1341 1266 1
1096 1267 1
1099 1267 1
1107 1267 1
1111 1267 1
1142 1267 1
1147 1267 1
1219 1267 1
1224 1267 1
1339 1267 1
1342 1267 1
1097 1268 1
1100 1268 1
1108 1268 1
1112 1268 1
1143 1268 1
1148 1268 1
1213 1268 1
1220 1268 1
1340 1268 1
1343 1268 1
1098 1269 1
1101 1269 1
1109 1269 1
1113 1269 1
1144 1269 1
1149 1269 1
1214 1269 1
1221 1269 1
1341 1269 1
1344 1269 1
1099 1270 1
1102 1270 1
1110 1270 1
1114 1270 1
1145 1270 1
1150 1270 1
1215 1270 1
1222 1270 1
1333 1270 1
1342 1270 1
1100 1271 1
1103 1271 1
1111 1271 1
1115 1271 1
1146 1271 1
1151 1271 1
1216 1271 1
1223 1271 1
1334 1271 1
1343 1271 1
1101 1272 1
1104 1272 1
1112 1272 1
1116 1272 1
1147 1272 1
1152 1272 1
1217 1272 1
1224 1272 1
1335 1272 1
1344 1272 1
1093 1273 1
1103 1273 1
1117 1273 1
1125 1273 1
1153 1273 1
1160 1273 1
1225 1273 1
1230 1273 1
1345 1273 1
1348 1273 1
1094 1274 1
1104 1274 1
1118 1274 1
1126 1274 1
1154 1274 1
1161 1274 1
1226 1274 1
1231 1274 1
1346 1274 1
1349 1274 1
1093 1275 1
1095 1275 1
1119 1275 1
1127 1275 1
1155 1275 1
1162 1275 1
1227 1275 1
1232 1275 1
1347 1275 1
1350 1275 1
1094 1276 1
1096 1276 1
1120 1276 1
1128 1276 1
1156 1276 1
1163 1276 1
1228 1276 1
1233 1276 1
1348 1276 1
1351 1276 1
1095 1277 1
1097 1277 1
1117 1277 1
1121 1277 1
1157 1277 1
1164 1277 1
1229 1277 1
1234 1277 1
1349 1277 1
1352 1277 1
1096 1278 1
1098 1278 1
1118 1278 1
1122 1278 1
1153 1278 1
1158 1278 1
1230 1278 1
1235 1278 1
1350 1278 1
1353 1278 1
1097 1279 1
1099 1279 1
1119 1279 1
1123 1279 1
1154 1279 1
1159 1279 1
1231 1279 1
1236 1279 1
1351 1279 1
1354 1279 1
1098 1280 1
1100 1280 1
1120 1280 1
1124 1280 1
1155 1280 1
1160 1280 1
1225 1280 1
1232 1280 1
1352 1280 1
1355 1280 1
1099 1281 1
1101 1281 1
1121 1281 1
1125 1281 1
1156 1281 1
1161 1281 1
1226 1281 1
1233 1281 1
1353 1281 1
1356 1281 1
1100 1282 1
1102 1282 1
1122 1282 1
1126 1282 1
1157 1282 1
1162 1282 1
1227 1282 1
1234 1282 1
1345 1282 1
1354 1282 1
1101 1283 1
1103 1283 1
1123 1283 1
1127 1283 1
1158 1283 1
1163 1283 1
1228 1283 1
1235 1283 1
1346 1283 1
1355 1283 1
1102 1284 1
1104 1284 1
1124 1284 1
1128 1284 1
1159 1284 1
1164 1284 1
1229 1284 1
1236 1284 1
1347 1284 1
1356 1284 1
1093 1285 1
1104 1285 1
1129 1285 1
1137 1285 1
1165 1285 1
1172 1285 1
1237 1285 1
1242 1285 1
1357 1285 1
1360 1285 1
1093 1286 1
1094 1286 1
1130 1286 1
1138 1286 1
1166 1286 1
1173 1286 1
1238 1286 1
1243 1286 1
1358 1286 1
1361 1286 1
1094 1287 1
1095 1287 1
1131 1287 1
1139 1287 1
1167 1287 1
1174 1287 1
1239 1287 1
1244 1287 1
1359 1287 1
1362 1287 1
1095 1288 1
1096 1288 1
1132 1288 1
1140 1288 1
1168 1288 1
1175 1288 1
1240 1288 1
1245 1288 1
1360 1288 1
1363 1288 1
1096 1289 1
1097 1289 1
1129 1289 1
1133 1289 1
1169 1289 1
1176 1289 1
1241 1289 1
1246 1289 1
1361 1289 1
1364 1289 1
1097 1290 1
1098 1290 1
1130 1290 1
1134 1290 1
1165 1290 1
1170 1290 1
1242 1290 1
1247 1290 1
1362 1290 1
1365 1290 1
1098 1291 1
1099 1291 1
1131 1291 1
1135 1291 1
1166 1291 1
1171 1291 1
1243 1291 1
1248 1291 1
1363 1291 1
1366 1291 1
1099 1292 1
1100 1292 1
1132 1292 1
1136 1292 1
1167 1292 1
1172 1292 1
1237 1292 1
1244 1292 1
1364 1292 1
1367 1292 1
1100 1293 1
1101 1293 1
1133 1293 1
1137 1293 1
1168 1293 1
1173 1293 1
1238 1293 1
1245 1293 1
1365 1293 1
1368 1293 1
1101 1294 1
1102 1294 1
1134 1294 1
1138 1294 1
1169 1294 1
1174 1294 1
1239 1294 1
1246 1294 1
1357 1294 1
1366 1294 1
1102 1295 1
1103 1295 1
1135 1295 1
1139 1295 1
1170 1295 1
1175 1295 1
1240 1295 1
1247 1295 1
1358 1295 1
1367 1295 1
1103 1296 1
1104 1296 1
1136 1296 1
1140 1296 1
1171 1296 1
1176 1296 1
1241 1296 1
1248 1296 1
1359 1296 1
1368 1296 1
1105 1297 1
1115 1297 1
1117 1297 1
1126 1297 1
1177 1297 1
1184 1297 1
1249 1297 1
1254 1297 1
1369 1297 1
1372 1297 1
1106 1298 1
1116 1298 1
1118 1298 1
1127 1298 1
1178 1298 1
1185 1298 1
1250 1298 1
1255 1298 1
1370 1298 1
1373 1298 1
1105 1299 1
1107 1299 1
1119 1299 1
1128 1299 1
1179 1299 1
1186 1299 1
1251 1299 1
1256 1299 1
1371 1299 1
1374 1299 1
1106 1300 1
1108 1300 1
1117 1300 1
1120 1300 1
1180 1300 1
1187 1300 1
1252 1300 1
1257 1300 1
1372 1300 1
1375 1300 1
1107 1301 1
1109 1301 1
1118 1301 1
1121 1301 1
1181 1301 1
1188 1301 1
1253 1301 1
1258 1301 1
1373 1301 1
1376 1301 1
1108 1302 1
1110 1302 1
1119 1302 1
1122 1302 1
1177 1302 1
1182 1302 1
1254 1302 1
1259 1302 1
1374 1302 1
1377 1302 1
1109 1303 1
1111 1303 1
1120 1303 1
1123 1303 1
1178 1303 1
1183 1303 1
1255 1303 1
1260 1303 1
1375 1303 1
1378 1303 1
1110 1304 1
1112 1304 1
1121 1304 1
1124 1304 1
1179 1304 1
1184 1304 1
1249 1304 1
1256 1304 1
1376 1304 1
1379 1304 1
1111 1305 1
1113 1305 1
1122 1305 1
1125 1305 1
1180 1305 1
1185 1305 1
1250 1305 1
1257 1305 1
1377 1305 1
1380 1305 1
1112 1306 1
1114 1306 1
1123 1306 1
1126 1306 1
1181 1306 1
1186 1306 1
1251 1306 1
1258 1306 1
1369 1306 1
1378 1306 1
1113 1307 1
1115 1307 1
1124 1307 1
1127 1307 1
1182 1307 1
1187 1307 1
1252 1307 1
1259 1307 1
1370 1307 1
1379 1307 1
1114 1308 1
1116 1308 1
1125 1308 1
1128 1308 1
1183 1308 1
1188 1308 1
1253 1308 1
1260 1308 1
1371 1308 1
1380 1308 1
1105 1309 1
1116 1309 1
1129 1309 1
1138 1309 1
1189 1309 1
1196 1309 1
1261 1309 1
1266 1309 1
1381 1309 1
1384 1309 1
1105 1310 1
1106 1310 1
1130 1310 1
1139 1310 1
1190 1310 1
1197 1310 1
1262 1310 1
1267 1310 1
1382 1310 1
1385 1310 1
1106 1311 1
1107 1311 1
1131 1311 1
1140 1311 1
1191 1311 1
1198 1311 1
1263 1311 1
1268 1311 1
1383 1311 1
1386 1311 1
1107 1312 1
1108 1312 1
1129 1312 1
1132 1312 1
1192 1312 1
1199 1312 1
1264 1312 1
1269 1312 1
1384 1312 1
1387 1312 1
1108 1313 1
1109 1313 1
1130 1313 1
1133 1313 1
1193 1313 1
1200 1313 1
1265 1313 1
1270 1313 1
1385 1313 1
1388 1313 1
1109 1314 1
1110 1314 1
1131 1314 1
1134 1314 1
1189 1314 1
1194 1314 1
1266 1314 1
1271 1314 1
1386 1314 1
1389 1314 1
1110 1315 1
1111 1315 1
1132 1315 1
1135 1315 1
1190 1315 1
1195 1315 1
1267 1315 1
1272 1315 1
1387 1315 1
1390 1315 1
1111 1316 1
1112 1316 1
1133 1316 1
1136 1316 1
1191 1316 1
1196 1316 1
1261 1316 1
1268 1316 1
1388 1316 1
1391 1316 1
1112 1317 1
1113 1317 1
1134 1317 1
1137 1317 1
1192 1317 1
1197 1317 1
1262 1317 1
1269 1317 1
1389 1317 1
1392 1317 1
1113 1318 1
1114 1318 1
1135 1318 1
1138 1318 1
1193 1318 1
1198 1318 1
1263 1318 1
1270 1318 1
1381 1318 1
1390 1318 1
1114 1319 1
1115 1319 1
1136 1319 1
1139 1319 1
1194 1319 1
1199 1319 1
1264 1319 1
1271 1319 1
1382 1319 1
1391 1319 1
1115 1320 1
1116 1320 1
1137 1320 1
1140 1320 1
1195 1320 1
1200 1320 1
1265 1320 1
1272 1320 1
1383 1320 1
1392 1320 1
1117 1321 1
1128 1321 1
1129 1321 1
1139 1321 1
1201 1321 1
1208 1321 1
1273 1321 1
1278 1321 1
1393 1321 1
1396 1321 1
1117 1322 1
1118 1322 1
1130 1322 1
1140 1322 1
1202 1322 1
1209 1322 1
1274 1322 1
1279 1322 1
1394 1322 1
1397 1322 1
1118 1323 1
1119 1323 1
1129 1323 1
1131 1323 1
1203 1323 1
1210 1323 1
1275 1323 1
1280 1323 1
1395 1323 1
1398 1323 1
1119 1324 1
1120 1324 1
1130 1324 1
1132 1324 1
1204 1324 1
1211 1324 1
1276 1324 1
1281 1324 1
1396 1324 1
1399 1324 1
1120 1325 1
1121 1325 1
1131 1325 1
1133 1325 1
1205 1325 1
1212 1325 1
1277 1325 1
1282 1325 1
1397 1325 1
1400 1325 1
1121 1326 1
1122 1326 1
1132 1326 1
1134 1326 1
1201 1326 1
1206 1326 1
1278 1326 1
1283 1326 1
1398 1326 1
1401 1326 1
1122 1327 1
1123 1327 1
1133 1327 1
1135 1327 1
1202 1327 1
1207 1327 1
1279 1327 1
1284 1327 1
1399 1327 1
1402 1327 1
1123 1328 1
1124 1328 1
1134 1328 1
1136 1328 1
1203 1328 1
1208 1328 1
1273 1328 1
1280 1328 1
1400 1328 1
1403 1328 1
1124 1329 1
1125 1329 1
1135 1329 1
1137 1329 1
1204 1329 1
1209 1329 1
1274 1329 1
1281 1329 1
1401 1329 1
1404 1329 1
1125 1330 1
1126 1330 1
1136 1330 1
1138 1330 1
1205 1330 1
1210 1330 1
1275 1330 1
1282 1330 1
1393 1330 1
1402 1330 1
1126 1331 1
1127 1331 1
1137 1331 1
1139 1331 1
1206 1331 1
1211 1331 1
1276 1331 1
1283 1331 1
1394 1331 1
1403 1331 1
1127 1332 1
1128 1332 1
1138 1332 1
1140 1332 1
1207 1332 1
1212 1332 1
1277 1332 1
1284 1332 1
1395 1332 1
1404 1332 1
1141 1333 1
1151 1333 1
1153 1333 1
1162 1333 1
1177 1333 1
1185 1333 1
1285 1333 1
1290 1333 1
1405 1333 1
1408 1333 1
1142 1334 1
1152 1334 1
1154 1334 1
1163 1334 1
1178 1334 1
1186 1334 1
1286 1334 1
1291 1334 1
1406 1334 1
1409 1334 1
1141 1335 1
1143 1335 1
1155 1335 1
1164 1335 1
1179 1335 1
1187 1335 1
1287 1335 1
1292 1335 1
1407 1335 1
1410 1335 1
1142 1336 1
1144 1336 1
1153 1336 1
1156 1336 1
1180 1336 1
1188 1336 1
1288 1336 1
1293 1336 1
1408 1336 1
1411 1336 1
1143 1337 1
1145 1337 1
1154 1337 1
1157 1337 1
1177 1337 1
1181 1337 1
1289 1337 1
1294 1337 1
1409 1337 1
1412 1337 1
1144 1338 1
1146 1338 1
1155 1338 1
1158 1338 1
1178 1338 1
1182 1338 1
1290 1338 1
1295 1338 1
1410 1338 1
1413 1338 1
1145 1339 1
1147 1339 1
1156 1339 1
1159 1339 1
1179 1339 1
1183 1339 1
1291 1339 1
1296 1339 1
1411 1339 1
1414 1339 1
1146 1340 1
1148 1340 1
1157 1340 1
1160 1340 1
1180 1340 1
1184 1340 1
1285 1340 1
1292 1340 1
1412 1340 1
1415 1340 1
1147 1341 1
1149 1341 1
1158 1341 1
1161 1341 1
1181 1341 1
1185 1341 1
1286 1341 1
1293 1341 1
1413 1341 1
1416 1341 1
1148 1342 1
1150 1342 1
1159 1342 1
1162 1342 1
1182 1342 1
1186 1342 1
1287 1342 1
1294 1342 1
1405 1342 1
1414 1342 1
1149 1343 1
1151 1343 1
1160 1343 1
1163 1343 1
1183 1343 1
1187 1343 1
1288 1343 1
1295 1343 1
1406 1343 1
1415 1343 1
1150 1344 1
1152 1344 1
1161 1344 1
1164 1344 1
1184 1344 1
1188 1344 1
1289 1344 1
1296 1344 1
1407 1344 1
1416 1344 1
1141 1345 1
1152 1345 1
1165 1345 1
1174 1345 1
1189 1345 1
1197 1345 1
1297 1345 1
1302 1345 1
1417 1345 1
1420 1345 1
1141 1346 1
1142 1346 1
1166 1346 1
1175 1346 1
1190 1346 1
1198 1346 1
1298 1346 1
1303 1346 1
1418 1346 1
1421 1346 1
1142 1347 1
1143 1347 1
1167 1347 1
1176 1347 1
1191 1347 1
1199 1347 1
1299 1347 1
1304 1347 1
1419 1347 1
1422 1347 1
1143 1348 1
1144 1348 1
1165 1348 1
1168 1348 1
1192 1348 1
1200 1348 1
1300 1348 1
1305 1348 1
1420 1348 1
1423 1348 1
1144 1349 1
1145 1349 1
1166 1349 1
1169 1349 1
1189 1349 1
1193 1349 1
1301 1349 1
1306 1349 1
1421 1349 1
1424 1349 1
1145 1350 1
1146 1350 1
1167 1350 1
1170 1350 1
1190 1350 1
1194 1350 1
1302 1350 1
1307 1350 1
1422 1350 1
1425 1350 1
1146 1351 1
1147 1351 1
1168 1351 1
1171 1351 1
1191 1351 1
1195 1351 1
1303 1351 1
1308 1351 1
1423 1351 1
1426 1351 1
1147 1352 1
1148 1352 1
1169 1352 1
1172 1352 1
1192 1352 1
1196 1352 1
1297 1352 1
1304 1352 1
1424 1352 1
1427 1352 1
1148 1353 1
1149 1353 1
1170 1353 1
1173 1353 1
1193 1353 1
1197 1353 1
1298 1353 1
1305 1353 1
1425 1353 1
1428 1353 1
1149 1354 1
1150 1354 1
1171 1354 1
1174 1354 1
1194 1354 1
1198 1354 1
1299 1354 1
1306 1354 1
1417 1354 1
1426 1354 1
1150 1355 1
1151 1355 1
1172 1355 1
1175 1355 1
1195 1355 1
1199 1355 1
1300 1355 1
1307 1355 1
1418 1355 1
1427 1355 1
1151 1356 1
1152 1356 1
1173 1356 1
1176 1356 1
1196 1356 1
1200 1356 1
1301 1356 1
1308 1356 1
1419 1356 1
1428 1356 1
1153 1357 1
1164 1357 1
1165 1357 1
1175 1357 1
1201 1357 1
1209 1357 1
1309 1357 1
1314 1357 1
1429 1357 1
1432 1357 1
1153 1358 1
1154 1358 1
1166 1358 1
1176 1358 1
1202 1358 1
1210 1358 1
1310 1358 1
1315 1358 1
1430 1358 1
1433 1358 1
1154 1359 1
1155 1359 1
1165 1359 1
1167 1359 1
1203 1359 1
1211 1359 1
1311 1359 1
1316 1359 1
1431 1359 1
1434 1359 1
1155 1360 1
1156 1360 1
1166 1360 1
1168 1360 1
1204 1360 1
1212 1360 1
1312 1360 1
1317 1360 1
1432 1360 1
1435 1360 1
1156 1361 1
1157 1361 1
1167 1361 1
1169 1361 1
1201 1361 1
1205 1361 1
1313 1361 1
1318 1361 1
1433 1361 1
1436 1361 1
1157 1362 1
1158 1362 1
1168 1362 1
1170 1362 1
1202 1362 1
1206 1362 1
1314 1362 1
1319 1362 1
1434 1362 1
1437 1362 1
1158 1363 1
1159 1363 1
1169 1363 1
1171 1363 1
1203 1363 1
1207 1363 1
1315 1363 1
1320 1363 1
1435 1363 1
1438 1363 1
1159 1364 1
1160 1364 1
1170 1364 1
1172 1364 1
1204 1364 1
1208 1364 1
1309 1364 1
1316 1364 1
1436 1364 1
1439 1364 1
1160 1365 1
1161 1365 1
1171 1365 1
1173 1365 1
1205 1365 1
1209 1365 1
1310 1365 1
1317 1365 1
1437 1365 1
1440 1365 1
1161 1366 1
1162 1366 1
1172 1366 1
1174 1366 1
1206 1366 1
1210 1366 1
1311 1366 1
1318 1366 1
1429 1366 1
1438 1366 1
1162 1367 1
1163 1367 1
1173 1367 1
1175 1367 1
1207 1367 1
1211 1367 1
1312 1367 1
1319 1367 1
1430 1367 1
1439 1367 1
1163 1368 1
1164 1368 1
1174 1368 1
1176 1368 1
1208 1368 1
1212 1368 1
1313 1368 1
1320 1368 1
1431 1368 1
1440 1368 1
1177 1369 1
1188 1369 1
1189 1369 1
1199 1369 1
1201 1369 1
1210 1369 1
1321 1369 1
1326 1369 1
1441 1369 1
1444 1369 1
1177 1370 1
1178 1370 1
1190 1370 1
1200 1370 1
1202 1370 1
1211 1370 1
1322 1370 1
1327 1370 1
1442 1370 1
1445 1370 1
1178 1371 1
1179 1371 1
1189 1371 1
1191 1371 1
1203 1371 1
1212 1371 1
1323 1371 1
1328 1371 1
1443 1371 1
1446 1371 1
1179 1372 1
1180 1372 1
1190 1372 1
1192 1372 1
1201 1372 1
1204 1372 1
1324 1372 1
1329 1372 1
1444 1372 1
1447 1372 1
1180 1373 1
1181 1373 1
1191 1373 1
1193 1373 1
1202 1373 1
1205 1373 1
1325 1373 1
1330 1373 1
1445 1373 1
1448 1373 1
1181 1374 1
1182 1374 1
1192 1374 1
1194 1374 1
1203 1374 1
1206 1374 1
1326 1374 1
1331 1374 1
1446 1374 1
1449 1374 1
1182 1375 1
1183 1375 1
1193 1375 1
1195 1375 1
1204 1375 1
1207 1375 1
1327 1375 1
1332 1375 1
1447 1375 1
1450 1375 1
1183 1376 1
1184 1376 1
1194 1376 1
1196 1376 1
1205 1376 1
1208 1376 1
1321 1376 1
1328 1376 1
1448 1376 1
1451 1376 1
1184 1377 1
1185 1377 1
1195 1377 1
1197 1377 1
1206 1377 1
1209 1377 1
1322 1377 1
1329 1377 1
1449 1377 1
1452 1377 1
1185 1378 1
1186 1378 1
1196 1378 1
1198 1378 1
1207 1378 1
1210 1378 1
1323 1378 1
1330 1378 1
1441 1378 1
1450 1378 1
1186 1379 1
1187 1379 1
1197 1379 1
1199 1379 1
1208 1379 1
1211 1379 1
1324 1379 1
1331 1379 1
1442 1379 1
1451 1379 1
1187 1380 1
1188 1380 1
1198 1380 1
1200 1380 1
1209 1380 1
1212 1380 1
1325 1380 1
1332 1380 1
1443 1380 1
1452 1380 1
1213 1381 1
1223 1381 1
1225 1381 1
1234 1381 1
1249 1381 1
1257 1381 1
1285 1381 1
1292 1381 1
1453 1381 1
1456 1381 1
1214 1382 1
1224 1382 1
1226 1382 1
1235 1382 1
1250 1382 1
1258 1382 1
1286 1382 1
1293 1382 1
1454 1382 1
1457 1382 1
1213 1383 1
1215 1383 1
1227 1383 1
1236 1383 1
1251 1383 1
1259 1383 1
1287 1383 1
1294 1383 1
1455 1383 1
1458 1383 1
1214 1384 1
1216 1384 1
1225 1384 1
1228 1384 1
1252 1384 1
1260 1384 1
1288 1384 1
1295 1384 1
1456 1384 1
1459 1384 1
1215 1385 1
1217 1385 1
1226 1385 1
1229 1385 1
1249 1385 1
1253 1385 1
1289 1385 1
1296 1385 1
1457 1385 1
1460 1385 1
1216 1386 1
1218 1386 1
1227 1386 1
1230 1386 1
1250 1386 1
1254 1386 1
1285 1386 1
1290 1386 1
1458 1386 1
1461 1386 1
1217 1387 1
1219 1387 1
1228 1387 1
1231 1387 1
1251 1387 1
1255 1387 1
1286 1387 1
1291 1387 1
1459 1387 1
1462 1387 1
1218 1388 1
1220 1388 1
1229 1388 1
1232 1388 1
1252 1388 1
1256 1388 1
1287 1388 1
1292 1388 1
1460 1388 1
1463 1388 1
1219 1389 1
1221 1389 1
1230 1389 1
1233 1389 1
1253 1389 1
1257 1389 1
1288 1389 1
1293 1389 1
1461 1389 1
1464 1389 1
1220 1390 1
1222 1390 1
1231 1390 1
1234 1390 1
1254 1390 1
1258 1390 1
1289 1390 1
1294 1390 1
1453 1390 1
1462 1390 1
1221 1391 1
1223 1391 1
1232 1391 1
1235 1391 1
1255 1391 1
1259 1391 1
1290 1391 1
1295 1391 1
1454 1391 1
1463 1391 1
1222 1392 1
1224 1392 1
1233 1392 1
1236 1392 1
1256 1392 1
1260 1392 1
1291 1392 1
1296 1392 1
1455 1392 1
1464 1392 1
1213 1393 1
1224 1393 1
1237 1393 1
1246 1393 1
1261 1393 1
1269 1393 1
1297 1393 1
1304 1393 1
1465 1393 1
1468 1393 1
1213 1394 1
1214 1394 1
1238 1394 1
1247 1394 1
1262 1394 1
1270 1394 1
1298 1394 1
1305 1394 1
1466 1394 1
1469 1394 1
1214 1395 1
1215 1395 1
1239 1395 1
1248 1395 1
1263 1395 1
1271 1395 1
1299 1395 1
1306 1395 1
1467 1395 1
1470 1395 1
1215 1396 1
1216 1396 1
1237 1396 1
1240 1396 1
1264 1396 1
1272 1396 1
1300 1396 1
1307 1396 1
1468 1396 1
1471 1396 1
1216 1397 1
1217 1397 1
1238 1397 1
1241 1397 1
1261 1397 1
1265 1397 1
1301 1397 1
1308 1397 1
1469 1397 1
1472 1397 1
1217 1398 1
1218 1398 1
1239 1398 1
1242 1398 1
1262 1398 1
1266 1398 1
1297 1398 1
1302 1398 1
1470 1398 1
1473 1398 1
1218 1399 1
1219 1399 1
1240 1399 1
1243 1399 1
1263 1399 1
1267 1399 1
1298 1399 1
1303 1399 1
1471 1399 1
1474 1399 1
1219 1400 1
1220 1400 1
1241 1400 1
1244 1400 1
1264 1400 1
1268 1400 1
1299 1400 1
1304 1400 1
1472 1400 1
1475 1400 1
1220 1401 1
1221 1401 1
1242 1401 1
1245 1401 1
1265 1401 1
1269 1401 1
1300 1401 1
1305 1401 1
1473 1401 1
1476 1401 1
1221 1402 1
1222 1402 1
1243 1402 1
1246 1402 1
1266 1402 1
1270 1402 1
1301 1402 1
1306 1402 1
1465 1402 1
1474 1402 1
1222 1403 1
1223 1403 1
1244 1403 1
1247 1403 1
1267 1403 1
1271 1403 1
1302 1403 1
1307 1403 1
1466 1403 1
1475 1403 1
1223 1404 1
1224 1404 1
1245 1404 1
1248 1404 1
1268 1404 1
1272 1404 1
1303 1404 1
1308 1404 1
1467 1404 1
1476 1404 1
1225 1405 1
1236 1405 1
1237 1405 1
1247 1405 1
1273 1405 1
1281 1405 1
1309 1405 1
1316 1405 1
1477 1405 1
1480 1405 1
1225 1406 1
1226 1406 1
1238 1406 1
1248 1406 1
1274 1406 1
1282 1406 1
1310 1406 1
1317 1406 1
1478 1406 1
1481 1406 1
1226 1407 1
1227 1407 1
1237 1407 1
1239 1407 1
1275 1407 1
1283 1407 1
1311 1407 1
1318 1407 1
1479 1407 1
1482 1407 1
1227 1408 1
1228 1408 1
1238 1408 1
1240 1408 1
1276 1408 1
1284 1408 1
1312 1408 1
1319 1408 1
1480 1408 1
1483 1408 1
1228 1409 1
1229 1409 1
1239 1409 1
1241 1409 1
1273 1409 1
1277 1409 1
1313 1409 1
1320 1409 1
1481 1409 1
1484 1409 1
1229 1410 1
1230 1410 1
1240 1410 1
1242 1410 1
1274 1410 1
1278 1410 1
1309 1410 1
1314 1410 1
1482 1410 1
1485 1410 1
1230 1411 1
1231 1411 1
1241 1411 1
1243 1411 1
1275 1411 1
1279 1411 1
1310 1411 1
1315 1411 1
1483 1411 1
1486 1411 1
1231 1412 1
1232 1412 1
1242 1412 1
1244 1412 1
1276 1412 1
1280 1412 1
1311 1412 1
1316 1412 1
1484 1412 1
1487 1412 1
1232 1413 1
1233 1413 1
1243 1413 1
1245 1413 1
1277 1413 1
1281 1413 1
1312 1413 1
1317 1413 1
1485 1413 1
1488 1413 1
1233 1414 1
1234 1414 1
1244 1414 1
1246 1414 1
1278 1414 1
1282 1414 1
1313 1414 1
1318 1414 1
1477 1414 1
1486 1414 1
1234 1415 1
1235 1415 1
1245 1415 1
1247 1415 1
1279 1415 1
1283 1415 1
1314 1415 1
1319 1415 1
1478 1415 1
1487 1415 1
1235 1416 1
1236 1416 1
1246 1416 1
1248 1416 1
1280 1416 1
1284 1416 1
1315 1416 1
1320 1416 1
1479 1416 1
1488 1416 1
1249 1417 1
1260 1417 1
1261 1417 1
1271 1417 1
1273 1417 1
1282 1417 1
1321 1417 1
1328 1417 1
1489 1417 1
1492 1417 1
1249 1418 1
1250 1418 1
1262 1418 1
1272 1418 1
1274 1418 1
1283 1418 1
1322 1418 1
1329 1418 1
1490 1418 1
1493 1418 1
1250 1419 1
1251 1419 1
1261 1419 1
1263 1419 1
1275 1419 1
1284 1419 1
1323 1419 1
1330 1419 1
1491 1419 1
1494 1419 1
1251 1420 1
1252 1420 1
1262 1420 1
1264 1420 1
1273 1420 1
1276 1420 1
1324 1420 1
1331 1420 1
1492 1420 1
1495 1420 1
1252 1421 1
1253 1421 1
1263 1421 1
1265 1421 1
1274 1421 1
1277 1421 1
1325 1421 1
1332 1421 1
1493 1421 1
1496 1421 1
1253 1422 1
1254 1422 1
1264 1422 1
1266 1422 1
1275 1422 1
1278 1422 1
1321 1422 1
1326 1422 1
1494 1422 1
1497 1422 1
1254 1423 1
1255 1423 1
1265 1423 1
1267 1423 1
1276 1423 1
1279 1423 1
1322 1423 1
1327 1423 1
1495 1423 1
1498 1423 1
1255 1424 1
1256 1424 1
1266 1424 1
1268 1424 1
1277 1424 1
1280 1424 1
1323 1424 1
1328 1424 1
1496 1424 1
1499 1424 1
1256 1425 1
1257 1425 1
1267 1425 1
1269 1425 1
1278 1425 1
1281 1425 1
1324 1425 1
1329 1425 1
1497 1425 1
1500 1425 1
1257 1426 1
1258 1426 1
1268 1426 1
1270 1426 1
1279 1426 1
1282 1426 1
1325 1426 1
1330 1426 1
1489 1426 1
1498 1426 1
1258 1427 1
1259 1427 1
1269 1427 1
1271 1427 1
1280 1427 1
1283 1427 1
1326 1427 1
1331 1427 1
1490 1427 1
1499 1427 1
1259 1428 1
1260 1428 1
1270 1428 1
1272 1428 1
1281 1428 1
1284 1428 1
1327 1428 1
1332 1428 1
1491 1428 1
1500 1428 1
1285 1429 1
1296 1429 1
1297 1429 1
1307 1429 1
1309 1429 1
1318 1429 1
1321 1429 1
1329 1429 1
1501 1429 1
1504 1429 1
1285 1430 1
1286 1430 1
1298 1430 1
1308 1430 1
1310 1430 1
1319 1430 1
1322 1430 1
1330 1430 1
1502 1430 1
1505 1430 1
1286 1431 1
1287 1431 1
1297 1431 1
1299 1431 1
1311 1431 1
1320 1431 1
1323 1431 1
1331 1431 1
1503 1431 1
1506 1431 1
1287 1432 1
1288 1432 1
1298 1432 1
1300 1432 1
1309 1432 1
1312 1432 1
1324 1432 1
1332 1432 1
1504 1432 1
1507 1432 1
1288 1433 1
1289 1433 1
1299 1433 1
1301 1433 1
1310 1433 1
1313 1433 1
1321 1433 1
1325 1433 1
1505 1433 1
1508 1433 1
1289 1434 1
1290 1434 1
1300 1434 1
1302 1434 1
1311 1434 1
1314 1434 1
1322 1434 1
1326 1434 1
1506 1434 1
1509 1434 1
1290 1435 1
1291 1435 1
1301 1435 1
1303 1435 1
1312 1435 1
1315 1435 1
1323 1435 1
1327 1435 1
1507 1435 1
1510 1435 1
1291 1436 1
1292 1436 1
1302 1436 1
1304 1436 1
1313 1436 1
1316 1436 1
1324 1436 1
1328 1436 1
1508 1436 1
1511 1436 1
1292 1437 1
1293 1437 1
1303 1437 1
1305 1437 1
1314 1437 1
1317 1437 1
1325 1437 1
1329 1437 1
1509 1437 1
1512 1437 1
1293 1438 1
1294 1438 1
1304 1438 1
1306 1438 1
1315 1438 1
1318 1438 1
1326 1438 1
1330 1438 1
1501 1438 1
1510 1438 1
1294 1439 1
1295 1439 1
1305 1439 1
1307 1439 1
1316 1439 1
1319 1439 1
1327 1439 1
1331 1439 1
1502 1439 1
1511 1439 1
1295 1440 1
1296 1440 1
1306 1440 1
1308 1440 1
1317 1440 1
1320 1440 1
1328 1440 1
1332 1440 1
1503 1440 1
1512 1440 1
1333 1441 1
1343 1441 1
1345 1441 1
1354 1441 1
1369 1441 1
1377 1441 1
1405 1441 1
1412 1441 1
1453 1441 1
1458 1441 1
1334 1442 1
1344 1442 1
1346 1442 1
1355 1442 1
1370 1442 1
1378 1442 1
1406 1442 1
1413 1442 1
1454 1442 1
1459 1442 1
1333 1443 1
1335 1443 1
1347 1443 1
1356 1443 1
1371 1443 1
1379 1443 1
1407 1443 1
1414 1443 1
1455 1443 1
1460 1443 1
1334 1444 1
1336 1444 1
1345 1444 1
1348 1444 1
1372 1444 1
1380 1444 1
1408 1444 1
1415 1444 1
1456 1444 1
1461 1444 1
1335 1445 1
1337 1445 1
1346 1445 1
1349 1445 1
1369 1445 1
1373 1445 1
1409 1445 1
1416 1445 1
1457 1445 1
1462 1445 1
1336 1446 1
1338 1446 1
1347 1446 1
1350 1446 1
1370 1446 1
1374 1446 1
1405 1446 1
1410 1446 1
1458 1446 1
1463 1446 1
1337 1447 1
1339 1447 1
1348 1447 1
1351 1447 1
1371 1447 1
1375 1447 1
1406 1447 1
1411 1447 1
1459 1447 1
1464 1447 1
1338 1448 1
1340 1448 1
1349 1448 1
1352 1448 1
1372 1448 1
1376 1448 1
1407 1448 1
1412 1448 1
1453 1448 1
1460 1448 1
1339 1449 1
1341 1449 1
1350 1449 1
1353 1449 1
1373 1449 1
1377 1449 1
1408 1449 1
1413 1449 1
1454 1449 1
1461 1449 1
1340 1450 1
1342 1450 1
1351 1450 1
1354 1450 1
1374 1450 1
1378 1450 1
1409 1450 1
1414 1450 1
1455 1450 1
1462 1450 1
1341 1451 1
1343 1451 1
1352 1451 1
1355 1451 1
1375 1451 1
1379 1451 1
1410 1451 1
1415 1451 1
1456 1451 1
1463 1451 1
1342 1452 1
1344 1452 1
1353 1452 1
1356 1452 1
1376 1452 1
1380 1452 1
1411 1452 1
1416 1452 1
1457 1452 1
1464 1452 1
1333 1453 1
1344 1453 1
1357 1453 1
1366 1453 1
1381 1453 1
1389 1453 1
1417 1453 1
1424 1453 1
1465 1453 1
1470 1453 1
1333 1454 1
1334 1454 1
1358 1454 1
1367 1454 1
1382 1454 1
1390 1454 1
1418 1454 1
1425 1454 1
1466 1454 1
1471 1454 1
1334 1455 1
1335 1455 1
1359 1455 1
1368 1455 1
1383 1455 1
1391 1455 1
1419 1455 1
1426 1455 1
1467 1455 1
1472 1455 1
1335 1456 1
1336 1456 1
1357 1456 1
1360 1456 1
1384 1456 1
1392 1456 1
1420 1456 1
1427 1456 1
1468 1456 1
1473 1456 1
1336 1457 1
1337 1457 1
1358 1457 1
1361 1457 1
1381 1457 1
1385 1457 1
1421 1457 1
1428 1457 1
1469 1457 1
1474 1457 1
1337 1458 1
1338 1458 1
1359 1458 1
1362 1458 1
1382 1458 1
1386 1458 1
1417 1458 1
1422 1458 1
1470 1458 1
1475 1458 1
1338 1459 1
1339 1459 1
1360 1459 1
1363 1459 1
1383 1459 1
1387 1459 1
1418 1459 1
1423 1459 1
1471 1459 1
1476 1459 1
1339 1460 1
1340 1460 1
1361 1460 1
1364 1460 1
1384 1460 1
1388 1460 1
1419 1460 1
1424 1460 1
1465 1460 1
1472 1460 1
1340 1461 1
1341 1461 1
1362 1461 1
1365 1461 1
1385 1461 1
1389 1461 1
1420 1461 1
1425 1461 1
1466 1461 1
1473 1461 1
1341 1462 1
1342 1462 1
1363 1462 1
1366 1462 1
1386 1462 1
1390 1462 1
1421 1462 1
1426 1462 1
1467 1462 1
1474 1462 1
1342 1463 1
1343 1463 1
1364 1463 1
1367 1463 1
1387 1463 1
1391 1463 1
1422 1463 1
1427 1463 1
1468 1463 1
1475 1463 1
1343 1464 1
1344 1464 1
1365 1464 1
1368 1464 1
1388 1464 1
1392 1464 1
1423 1464 1
1428 1464 1
1469 1464 1
1476 1464 1
1345 1465 1
1356 1465 1
1357 1465 1
1367 1465 1
1393 1465 1
1401 1465 1
1429 1465 1
1436 1465 1
1477 1465 1
1482 1465 1
1345 1466 1
1346 1466 1
1358 1466 1
1368 1466 1
1394 1466 1
1402 1466 1
1430 1466 1
1437 1466 1
1478 1466 1
1483 1466 1
1346 1467 1
1347 1467 1
1357 1467 1
1359 1467 1
1395 1467 1
1403 1467 1
1431 1467 1
1438 1467 1
1479 1467 1
1484 1467 1
1347 1468 1
1348 1468 1
1358 1468 1
1360 1468 1
1396 1468 1
1404 1468 1
1432 1468 1
1439 1468 1
1480 1468 1
1485 1468 1
1348 1469 1
1349 1469 1
1359 1469 1
1361 1469 1
1393 1469 1
1397 1469 1
1433 1469 1
1440 1469 1
1481 1469 1
1486 1469 1
1349 1470 1
1350 1470 1
1360 1470 1
1362 1470 1
1394 1470 1
1398 1470 1
1429 1470 1
1434 1470 1
1482 1470 1
1487 1470 1
1350 1471 1
1351 1471 1
1361 1471 1
1363 1471 1
1395 1471 1
1399 1471 1
1430 1471 1
1435 1471 1
1483 1471 1
1488 1471 1
1351 1472 1
1352 1472 1
1362 1472 1
1364 1472 1
1396 1472 1
1400 1472 1
1431 1472 1
1436 1472 1
1477 1472 1
1484 1472 1
1352 1473 1
1353 1473 1
1363 1473 1
1365 1473 1
1397 1473 1
1401 1473 1
1432 1473 1
1437 1473 1
1478 1473 1
1485 1473 1
1353 1474 1
1354 1474 1
1364 1474 1
1366 1474 1
1398 1474 1
1402 1474 1
1433 1474 1
1438 1474 1
1479 1474 1
1486 1474 1
1354 1475 1
1355 1475 1
1365 1475 1
1367 1475 1
1399 1475 1
1403 1475 1
1434 1475 1
1439 1475 1
1480 1475 1
1487 1475 1
1355 1476 1
1356 1476 1
1366 1476 1
1368 1476 1
1400 1476 1
1404 1476 1
1435 1476 1
1440 1476 1
1481 1476 1
1488 1476 1
1369 1477 1
1380 1477 1
1381 1477 1
1391 1477 1
1393 1477 1
1402 1477 1
1441 1477 1
1448 1477 1
1489 1477 1
1494 1477 1
1369 1478 1
1370 1478 1
1382 1478 1
1392 1478 1
1394 1478 1
1403 1478 1
1442 1478 1
1449 1478 1
1490 1478 1
1495 1478 1
1370 1479 1
1371 1479 1
1381 1479 1
1383 1479 1
1395 1479 1
1404 1479 1
1443 1479 1
1450 1479 1
1491 1479 1
1496 1479 1
1371 1480 1
1372 1480 1
1382 1480 1
1384 1480 1
1393 1480 1
1396 1480 1
1444 1480 1
1451 1480 1
1492 1480 1
1497 1480 1
1372 1481 1
1373 1481 1
1383 1481 1
1385 1481 1
1394 1481 1
1397 1481 1
1445 1481 1
1452 1481 1
1493 1481 1
1498 1481 1
1373 1482 1
1374 1482 1
1384 1482 1
1386 1482 1
1395 1482 1
1398 1482 1
1441 1482 1
1446 1482 1
1494 1482 1
1499 1482 1
1374 1483 1
1375 1483 1
1385 1483 1
1387 1483 1
1396 1483 1
1399 1483 1
1442 1483 1
1447 1483 1
1495 1483 1
1500 1483 1
1375 1484 1
1376 1484 1
1386 1484 1
1388 1484 1
1397 1484 1
1400 1484 1
1443 1484 1
1448 1484 1
1489 1484 1
1496 1484 1
1376 1485 1
1377 1485 1
1387 1485 1
1389 1485 1
1398 1485 1
1401 1485 1
1444 1485 1
1449 1485 1
1490 1485 1
1497 1485 1
1377 1486 1
1378 1486 1
1388 1486 1
1390 1486 1
1399 1486 1
1402 1486 1
1445 1486 1
1450 1486 1
1491 1486 1
1498 1486 1
1378 1487 1
1379 1487 1
1389 1487 1
1391 1487 1
1400 1487 1
1403 1487 1
1446 1487 1
1451 1487 1
1492 1487 1
1499 1487 1
1379 1488 1
1380 1488 1
1390 1488 1
1392 1488 1
1401 1488 1
1404 1488 1
1447 1488 1
1452 1488 1
1493 1488 1
1500 1488 1
1405 1489 1
1416 1489 1
1417 1489 1
1427 1489 1
1429 1489 1
1438 1489 1
1441 1489 1
1449 1489 1
1501 1489 1
1506 1489 1
1405 1490 1
1406 1490 1
1418 1490 1
1428 1490 1
1430 1490 1
1439 1490 1
1442 1490 1
1450 1490 1
1502 1490 1
1507 1490 1
1406 1491 1
1407 1491 1
1417 1491 1
1419 1491 1
1431 1491 1
1440 1491 1
1443 1491 1
1451 1491 1
1503 1491 1
1508 1491 1
1407 1492 1
1408 1492 1
1418 1492 1
1420 1492 1
1429 1492 1
1432 1492 1
1444 1492 1
1452 1492 1
1504 1492 1
1509 1492 1
1408 1493 1
1409 1493 1
1419 1493 1
1421 1493 1
1430 1493 1
1433 1493 1
1441 1493 1
1445 1493 1
1505 1493 1
1510 1493 1
1409 1494 1
1410 1494 1
1420 1494 1
1422 1494 1
1431 1494 1
1434 1494 1
1442 1494 1
1446 1494 1
1506 1494 1
1511 1494 1
1410 1495 1
1411 1495 1
1421 1495 1
1423 1495 1
1432 1495 1
1435 1495 1
1443 1495 1
1447 1495 1
1507 1495 1
1512 1495 1
1411 1496 1
1412 1496 1
1422 1496 1
1424 1496 1
1433 1496 1
1436 1496 1
1444 1496 1
1448 1496 1
1501 1496 1
1508 1496 1
1412 1497 1
1413 1497 1
1423 1497 1
1425 1497 1
1434 1497 1
1437 1497 1
1445 1497 1
1449 1497 1
1502 1497 1
1509 1497 1
1413 1498 1
1414 1498 1
1424 1498 1
1426 1498 1
1435 1498 1
1438 1498 1
1446 1498 1
1450 1498 1
1503 1498 1
1510 1498 1
1414 1499 1
1415 1499 1
1425 1499 1
1427 1499 1
1436 1499 1
1439 1499 1
1447 1499 1
1451 1499 1
1504 1499 1
1511 1499 1
1415 1500 1
1416 1500 1
1426 1500 1
1428 1500 1
1437 1500 1
1440 1500 1
1448 1500 1
1452 1500 1
1505 1500 1
1512 1500 1
1453 1501 1
1464 1501 1
1465 1501 1
1475 1501 1
1477 1501 1
1486 1501 1
1489 1501 1
1497 1501 1
1501 1501 1
1508 1501 1
1453 1502 1
1454 1502 1
1466 1502 1
1476 1502 1
1478 1502 1
1487 1502 1
1490 1502 1
1498 1502 1
1502 1502 1
1509 1502 1
1454 1503 1
1455 1503 1
1465 1503 1
1467 1503 1
1479 1503 1
1488 1503 1
1491 1503 1
1499 1503 1
1503 1503 1
1510 1503 1
1455 1504 1
1456 1504 1
1466 1504 1
1468 1504 1
1477 1504 1
1480 1504 1
1492 1504 1
1500 1504 1
1504 1504 1
1511 1504 1
1456 1505 1
1457 1505 1
1467 1505 1
1469 1505 1
1478 1505 1
1481 1505 1
1489 1505 1
1493 1505 1
1505 1505 1
1512 1505 1
1457 1506 1
1458 1506 1
1468 1506 1
1470 1506 1
1479 1506 1
1482 1506 1
1490 1506 1
1494 1506 1
1501 1506 1
1506 1506 1
1458 1507 1
1459 1507 1
1469 1507 1
1471 1507 1
1480 1507 1
1483 1507 1
1491 1507 1
1495 1507 1
1502 1507 1
1507 1507 1
1459 1508 1
1460 1508 1
1470 1508 1
1472 1508 1
1481 1508 1
1484 1508 1
1492 1508 1
1496 1508 1
1503 1508 1
1508 1508 1
1460 1509 1
1461 1509 1
1471 1509 1
1473 1509 1
1482 1509 1
1485 1509 1
1493 1509 1
1497 1509 1
1504 1509 1
1509 1509 1
1461 1510 1
1462 1510 1
1472 1510 1
1474 1510 1
1483 1510 1
1486 1510 1
1494 1510 1
1498 1510 1
1505 1510 1
1510 1510 1
1462 1511 1
1463 1511 1
1473 1511 1
1475 1511 1
1484 1511 1
1487 1511 1
1495 1511 1
1499 1511 1
1506 1511 1
1511 1511 1
1463 1512 1
1464 1512 1
1474 1512 1
1476 1512 1
1485 1512 1
1488 1512 1
1496 1512 1
1500 1512 1
1507 1512 1
1512 1512 1
