%%MatrixMarket matrix coordinate integer general
% Binary matrix; one-based indices; arithmetic over GF(2)
160 240 960
24 1 1
35 1 1
67 1 1
73 1 1
23 2 1
36 2 1
68 2 1
74 2 1
22 3 1
33 3 1
65 3 1
75 3 1
21 4 1
34 4 1
66 4 1
76 4 1
20 5 1
39 5 1
71 5 1
77 5 1
19 6 1
40 6 1
72 6 1
78 6 1
18 7 1
37 7 1
69 7 1
79 7 1
17 8 1
38 8 1
70 8 1
80 8 1
3 9 1
32 9 1
41 9 1
75 9 1
4 10 1
31 10 1
42 10 1
76 10 1
1 11 1
30 11 1
43 11 1
73 11 1
2 12 1
29 12 1
44 12 1
74 12 1
7 13 1
28 13 1
45 13 1
79 13 1
8 14 1
27 14 1
46 14 1
80 14 1
5 15 1
26 15 1
47 15 1
77 15 1
6 16 1
25 16 1
48 16 1
78 16 1
11 17 1
40 17 1
43 17 1
49 17 1
12 18 1
39 18 1
44 18 1
50 18 1
9 19 1
38 19 1
41 19 1
51 19 1
10 20 1
37 20 1
42 20 1
52 20 1
15 21 1
36 21 1
47 21 1
53 21 1
16 22 1
35 22 1
48 22 1
54 22 1
13 23 1
34 23 1
45 23 1
55 23 1
14 24 1
33 24 1
46 24 1
56 24 1
8 25 1
19 25 1
51 25 1
57 25 1
7 26 1
20 26 1
52 26 1
58 26 1
6 27 1
17 27 1
49 27 1
59 27 1
5 28 1
18 28 1
50 28 1
60 28 1
4 29 1
23 29 1
55 29 1
61 29 1
3 30 1
24 30 1
56 30 1
62 30 1
2 31 1
21 31 1
53 31 1
63 31 1
1 32 1
22 32 1
54 32 1
64 32 1
16 33 1
27 33 1
59 33 1
65 33 1
15 34 1
28 34 1
60 34 1
66 34 1
14 35 1
25 35 1
57 35 1
67 35 1
13 36 1
26 36 1
58 36 1
68 36 1
12 37 1
31 37 1
63 37 1
69 37 1
11 38 1
32 38 1
64 38 1
70 38 1
10 39 1
29 39 1
61 39 1
71 39 1
9 40 1
30 40 1
62 40 1
72 40 1
17 41 1
26 41 1
107 41 1
113 41 1
18 42 1
25 42 1
108 42 1
114 42 1
19 43 1
28 43 1
105 43 1
115 43 1
20 44 1
27 44 1
106 44 1
116 44 1
21 45 1
30 45 1
111 45 1
117 45 1
22 46 1
29 46 1
112 46 1
118 46 1
23 47 1
32 47 1
109 47 1
119 47 1
24 48 1
31 48 1
110 48 1
120 48 1
25 49 1
34 49 1
81 49 1
115 49 1
26 50 1
33 50 1
82 50 1
116 50 1
27 51 1
36 51 1
83 51 1
113 51 1
28 52 1
35 52 1
84 52 1
114 52 1
29 53 1
38 53 1
85 53 1
119 53 1
30 54 1
37 54 1
86 54 1
120 54 1
31 55 1
40 55 1
87 55 1
117 55 1
32 56 1
39 56 1
88 56 1
118 56 1
2 57 1
33 57 1
83 57 1
89 57 1
1 58 1
34 58 1
84 58 1
90 58 1
4 59 1
35 59 1
81 59 1
91 59 1
3 60 1
36 60 1
82 60 1
92 60 1
6 61 1
37 61 1
87 61 1
93 61 1
5 62 1
38 62 1
88 62 1
94 62 1
8 63 1
39 63 1
85 63 1
95 63 1
7 64 1
40 64 1
86 64 1
96 64 1
1 65 1
10 65 1
91 65 1
97 65 1
2 66 1
9 66 1
92 66 1
98 66 1
3 67 1
12 67 1
89 67 1
99 67 1
4 68 1
11 68 1
90 68 1
100 68 1
5 69 1
14 69 1
95 69 1
101 69 1
6 70 1
13 70 1
96 70 1
102 70 1
7 71 1
16 71 1
93 71 1
103 71 1
8 72 1
15 72 1
94 72 1
104 72 1
9 73 1
18 73 1
99 73 1
105 73 1
10 74 1
17 74 1
100 74 1
106 74 1
11 75 1
20 75 1
97 75 1
107 75 1
12 76 1
19 76 1
98 76 1
108 76 1
13 77 1
22 77 1
103 77 1
109 77 1
14 78 1
21 78 1
104 78 1
110 78 1
15 79 1
24 79 1
101 79 1
111 79 1
16 80 1
23 80 1
102 80 1
112 80 1
57 81 1
66 81 1
104 81 1
115 81 1
58 82 1
65 82 1
103 82 1
116 82 1
59 83 1
68 83 1
102 83 1
113 83 1
60 84 1
67 84 1
101 84 1
114 84 1
61 85 1
70 85 1
100 85 1
119 85 1
62 86 1
69 86 1
99 86 1
120 86 1
63 87 1
72 87 1
98 87 1
117 87 1
64 88 1
71 88 1
97 88 1
118 88 1
65 89 1
74 89 1
83 89 1
112 89 1
66 90 1
73 90 1
84 90 1
111 90 1
67 91 1
76 91 1
81 91 1
110 91 1
68 92 1
75 92 1
82 92 1
109 92 1
69 93 1
78 93 1
87 93 1
108 93 1
70 94 1
77 94 1
88 94 1
107 94 1
71 95 1
80 95 1
85 95 1
106 95 1
72 96 1
79 96 1
86 96 1
105 96 1
42 97 1
73 97 1
91 97 1
120 97 1
41 98 1
74 98 1
92 98 1
119 98 1
44 99 1
75 99 1
89 99 1
118 99 1
43 100 1
76 100 1
90 100 1
117 100 1
46 101 1
77 101 1
95 101 1
116 101 1
45 102 1
78 102 1
96 102 1
115 102 1
48 103 1
79 103 1
93 103 1
114 103 1
47 104 1
80 104 1
94 104 1
113 104 1
41 105 1
50 105 1
88 105 1
99 105 1
42 106 1
49 106 1
87 106 1
100 106 1
43 107 1
52 107 1
86 107 1
97 107 1
44 108 1
51 108 1
85 108 1
98 108 1
45 109 1
54 109 1
84 109 1
103 109 1
46 110 1
53 110 1
83 110 1
104 110 1
47 111 1
56 111 1
82 111 1
101 111 1
48 112 1
55 112 1
81 112 1
102 112 1
49 113 1
58 113 1
96 113 1
107 113 1
50 114 1
57 114 1
95 114 1
108 114 1
51 115 1
60 115 1
94 115 1
105 115 1
52 116 1
59 116 1
93 116 1
106 116 1
53 117 1
62 117 1
92 117 1
111 117 1
54 118 1
61 118 1
91 118 1
112 118 1
55 119 1
64 119 1
90 119 1
109 119 1
56 120 1
63 120 1
89 120 1
110 120 1
6 121 1
15 121 1
147 121 1
153 121 1
5 122 1
16 122 1
148 122 1
154 122 1
8 123 1
13 123 1
145 123 1
155 123 1
7 124 1
14 124 1
146 124 1
156 124 1
2 125 1
11 125 1
151 125 1
157 125 1
1 126 1
12 126 1
152 126 1
158 126 1
4 127 1
9 127 1
149 127 1
159 127 1
3 128 1
10 128 1
150 128 1
160 128 1
14 129 1
23 129 1
121 129 1
155 129 1
13 130 1
24 130 1
122 130 1
156 130 1
16 131 1
21 131 1
123 131 1
153 131 1
15 132 1
22 132 1
124 132 1
154 132 1
10 133 1
19 133 1
125 133 1
159 133 1
9 134 1
20 134 1
126 134 1
160 134 1
12 135 1
17 135 1
127 135 1
157 135 1
11 136 1
18 136 1
128 136 1
158 136 1
22 137 1
31 137 1
123 137 1
129 137 1
21 138 1
32 138 1
124 138 1
130 138 1
24 139 1
29 139 1
121 139 1
131 139 1
23 140 1
30 140 1
122 140 1
132 140 1
18 141 1
27 141 1
127 141 1
133 141 1
17 142 1
28 142 1
128 142 1
134 142 1
20 143 1
25 143 1
125 143 1
135 143 1
19 144 1
26 144 1
126 144 1
136 144 1
30 145 1
39 145 1
131 145 1
137 145 1
29 146 1
40 146 1
132 146 1
138 146 1
32 147 1
37 147 1
129 147 1
139 147 1
31 148 1
38 148 1
130 148 1
140 148 1
26 149 1
35 149 1
135 149 1
141 149 1
25 150 1
36 150 1
136 150 1
142 150 1
28 151 1
33 151 1
133 151 1
143 151 1
27 152 1
34 152 1
134 152 1
144 152 1
7 153 1
38 153 1
139 153 1
145 153 1
8 154 1
37 154 1
140 154 1
146 154 1
5 155 1
40 155 1
137 155 1
147 155 1
6 156 1
39 156 1
138 156 1
148 156 1
3 157 1
34 157 1
143 157 1
149 157 1
4 158 1
33 158 1
144 158 1
150 158 1
1 159 1
36 159 1
141 159 1
151 159 1
2 160 1
35 160 1
142 160 1
152 160 1
46 161 1
55 161 1
144 161 1
155 161 1
45 162 1
56 162 1
143 162 1
156 162 1
48 163 1
53 163 1
142 163 1
153 163 1
47 164 1
54 164 1
141 164 1
154 164 1
42 165 1
51 165 1
140 165 1
159 165 1
41 166 1
52 166 1
139 166 1
160 166 1
44 167 1
49 167 1
138 167 1
157 167 1
43 168 1
50 168 1
137 168 1
158 168 1
54 169 1
63 169 1
123 169 1
152 169 1
53 170 1
64 170 1
124 170 1
151 170 1
56 171 1
61 171 1
121 171 1
150 171 1
55 172 1
62 172 1
122 172 1
149 172 1
50 173 1
59 173 1
127 173 1
148 173 1
49 174 1
60 174 1
128 174 1
147 174 1
52 175 1
57 175 1
125 175 1
146 175 1
51 176 1
58 176 1
126 176 1
145 176 1
62 177 1
71 177 1
131 177 1
160 177 1
61 178 1
72 178 1
132 178 1
159 178 1
64 179 1
69 179 1
129 179 1
158 179 1
63 180 1
70 180 1
130 180 1
157 180 1
58 181 1
67 181 1
135 181 1
156 181 1
57 182 1
68 182 1
136 182 1
155 182 1
60 183 1
65 183 1
133 183 1
154 183 1
59 184 1
66 184 1
134 184 1
153 184 1
70 185 1
79 185 1
128 185 1
139 185 1
69 186 1
80 186 1
127 186 1
140 186 1
72 187 1
77 187 1
126 187 1
137 187 1
71 188 1
78 188 1
125 188 1
138 188 1
66 189 1
75 189 1
124 189 1
143 189 1
65 190 1
76 190 1
123 190 1
144 190 1
68 191 1
73 191 1
122 191 1
141 191 1
67 192 1
74 192 1
121 192 1
142 192 1
47 193 1
78 193 1
136 193 1
147 193 1
48 194 1
77 194 1
135 194 1
148 194 1
45 195 1
80 195 1
134 195 1
145 195 1
46 196 1
79 196 1
133 196 1
146 196 1
43 197 1
74 197 1
132 197 1
151 197 1
44 198 1
73 198 1
131 198 1
152 198 1
41 199 1
76 199 1
130 199 1
149 199 1
42 200 1
75 200 1
129 200 1
150 200 1
86 201 1
95 201 1
137 201 1
146 201 1
85 202 1
96 202 1
138 202 1
145 202 1
88 203 1
93 203 1
139 203 1
148 203 1
87 204 1
94 204 1
140 204 1
147 204 1
82 205 1
91 205 1
141 205 1
150 205 1
81 206 1
92 206 1
142 206 1
149 206 1
84 207 1
89 207 1
143 207 1
152 207 1
83 208 1
90 208 1
144 208 1
151 208 1
94 209 1
103 209 1
145 209 1
154 209 1
93 210 1
104 210 1
146 210 1
153 210 1
96 211 1
101 211 1
147 211 1
156 211 1
95 212 1
102 212 1
148 212 1
155 212 1
90 213 1
99 213 1
149 213 1
158 213 1
89 214 1
100 214 1
150 214 1
157 214 1
92 215 1
97 215 1
151 215 1
160 215 1
91 216 1
98 216 1
152 216 1
159 216 1
102 217 1
111 217 1
122 217 1
153 217 1
101 218 1
112 218 1
121 218 1
154 218 1
104 219 1
109 219 1
124 219 1
155 219 1
103 220 1
110 220 1
123 220 1
156 220 1
98 221 1
107 221 1
126 221 1
157 221 1
97 222 1
108 222 1
125 222 1
158 222 1
100 223 1
105 223 1
128 223 1
159 223 1
99 224 1
106 224 1
127 224 1
160 224 1
110 225 1
119 225 1
121 225 1
130 225 1
109 226 1
120 226 1
122 226 1
129 226 1
112 227 1
117 227 1
123 227 1
132 227 1
111 228 1
118 228 1
124 228 1
131 228 1
106 229 1
115 229 1
125 229 1
134 229 1
105 230 1
116 230 1
126 230 1
133 230 1
108 231 1
113 231 1
127 231 1
136 231 1
107 232 1
114 232 1
128 232 1
135 232 1
87 233 1
118 233 1
129 233 1
138 233 1
88 234 1
117 234 1
130 234 1
137 234 1
85 235 1
120 235 1
131 235 1
140 235 1
86 236 1
119 236 1
132 236 1
139 236 1
83 237 1
114 237 1
133 237 1
142 237 1
84 238 1
113 238 1
134 238 1
141 238 1
81 239 1
116 239 1
135 239 1
144 239 1
82 240 1
115 240 1
136 240 1
143 240 1
